    1C
    1UUSER                                                              
    1UDATE              27.october.2022                                 
    1UTIME              00:22:50                                        
    1UHOST                                                              
    1UPGM               CalculiX                                        
    1UVERSION           Version 2.17                             
    1UCOMPILETIME       Thu Jul 23 21:43:50 CEST 2020                    
    1UDIR                                                               
    1UDBN                                                               
    1UMAT    1SOLIDMATERIAL                                             
    2C                          4368                                     1
 -1         1 1.11788E+02 2.71340E+01 0.00000E+00
 -1         2 1.14637E+02 2.14974E+01 0.00000E+00
 -1         3 1.50000E+02 0.00000E+00 0.00000E+00
 -1         4 1.50000E+02 5.00000E+01 0.00000E+00
 -1         5 0.00000E+00 0.00000E+00 0.00000E+00
 -1         6 0.00000E+00 5.00000E+01 0.00000E+00
 -1         7 0.00000E+00 4.70500E+01 0.00000E+00
 -1         8 0.00000E+00 4.41000E+01 0.00000E+00
 -1         9 0.00000E+00 4.11500E+01 0.00000E+00
 -1        10 0.00000E+00 3.82000E+01 0.00000E+00
 -1        11 0.00000E+00 3.52500E+01 0.00000E+00
 -1        12 0.00000E+00 3.23500E+01 0.00000E+00
 -1        13 0.00000E+00 2.94000E+01 0.00000E+00
 -1        14 0.00000E+00 2.64500E+01 0.00000E+00
 -1        15 0.00000E+00 2.35000E+01 0.00000E+00
 -1        16 0.00000E+00 2.05500E+01 0.00000E+00
 -1        17 0.00000E+00 1.76000E+01 0.00000E+00
 -1        18 0.00000E+00 1.47000E+01 0.00000E+00
 -1        19 0.00000E+00 1.17500E+01 0.00000E+00
 -1        20 0.00000E+00 8.80000E+00 0.00000E+00
 -1        21 0.00000E+00 5.85000E+00 0.00000E+00
 -1        22 0.00000E+00 2.90000E+00 0.00000E+00
 -1        23 3.15000E+00 5.00000E+01 0.00000E+00
 -1        24 6.15000E+00 5.00000E+01 0.00000E+00
 -1        25 9.15000E+00 5.00000E+01 0.00000E+00
 -1        26 1.21500E+01 5.00000E+01 0.00000E+00
 -1        27 1.51500E+01 5.00000E+01 0.00000E+00
 -1        28 1.81500E+01 5.00000E+01 0.00000E+00
 -1        29 2.11500E+01 5.00000E+01 0.00000E+00
 -1        30 2.41500E+01 5.00000E+01 0.00000E+00
 -1        31 2.71500E+01 5.00000E+01 0.00000E+00
 -1        32 3.01500E+01 5.00000E+01 0.00000E+00
 -1        33 3.31500E+01 5.00000E+01 0.00000E+00
 -1        34 3.61500E+01 5.00000E+01 0.00000E+00
 -1        35 3.91500E+01 5.00000E+01 0.00000E+00
 -1        36 4.21500E+01 5.00000E+01 0.00000E+00
 -1        37 4.51500E+01 5.00000E+01 0.00000E+00
 -1        38 4.81500E+01 5.00000E+01 0.00000E+00
 -1        39 5.11500E+01 5.00000E+01 0.00000E+00
 -1        40 5.41500E+01 5.00000E+01 0.00000E+00
 -1        41 5.71500E+01 5.00000E+01 0.00000E+00
 -1        42 6.01500E+01 5.00000E+01 0.00000E+00
 -1        43 6.31500E+01 5.00000E+01 0.00000E+00
 -1        44 6.61500E+01 5.00000E+01 0.00000E+00
 -1        45 6.91500E+01 5.00000E+01 0.00000E+00
 -1        46 7.21500E+01 5.00000E+01 0.00000E+00
 -1        47 7.51500E+01 5.00000E+01 0.00000E+00
 -1        48 7.81500E+01 5.00000E+01 0.00000E+00
 -1        49 8.11500E+01 5.00000E+01 0.00000E+00
 -1        50 8.41500E+01 5.00000E+01 0.00000E+00
 -1        51 8.71500E+01 5.00000E+01 0.00000E+00
 -1        52 9.01500E+01 5.00000E+01 0.00000E+00
 -1        53 9.31500E+01 5.00000E+01 0.00000E+00
 -1        54 9.61500E+01 5.00000E+01 0.00000E+00
 -1        55 9.91500E+01 5.00000E+01 0.00000E+00
 -1        56 1.02150E+02 5.00000E+01 0.00000E+00
 -1        57 1.05150E+02 5.00000E+01 0.00000E+00
 -1        58 1.08150E+02 5.00000E+01 0.00000E+00
 -1        59 1.11150E+02 5.00000E+01 0.00000E+00
 -1        60 1.14150E+02 5.00000E+01 0.00000E+00
 -1        61 1.17150E+02 5.00000E+01 0.00000E+00
 -1        62 1.20150E+02 5.00000E+01 0.00000E+00
 -1        63 1.23150E+02 5.00000E+01 0.00000E+00
 -1        64 1.26150E+02 5.00000E+01 0.00000E+00
 -1        65 1.29150E+02 5.00000E+01 0.00000E+00
 -1        66 1.32150E+02 5.00000E+01 0.00000E+00
 -1        67 1.35150E+02 5.00000E+01 0.00000E+00
 -1        68 1.38150E+02 5.00000E+01 0.00000E+00
 -1        69 1.41150E+02 5.00000E+01 0.00000E+00
 -1        70 1.44150E+02 5.00000E+01 0.00000E+00
 -1        71 1.47150E+02 5.00000E+01 0.00000E+00
 -1        72 3.15000E+00 0.00000E+00 0.00000E+00
 -1        73 6.15000E+00 0.00000E+00 0.00000E+00
 -1        74 9.15000E+00 0.00000E+00 0.00000E+00
 -1        75 1.21500E+01 0.00000E+00 0.00000E+00
 -1        76 1.51500E+01 0.00000E+00 0.00000E+00
 -1        77 1.81500E+01 0.00000E+00 0.00000E+00
 -1        78 2.11500E+01 0.00000E+00 0.00000E+00
 -1        79 2.41500E+01 0.00000E+00 0.00000E+00
 -1        80 2.71500E+01 0.00000E+00 0.00000E+00
 -1        81 3.01500E+01 0.00000E+00 0.00000E+00
 -1        82 3.31500E+01 0.00000E+00 0.00000E+00
 -1        83 3.61500E+01 0.00000E+00 0.00000E+00
 -1        84 3.91500E+01 0.00000E+00 0.00000E+00
 -1        85 4.21500E+01 0.00000E+00 0.00000E+00
 -1        86 4.51500E+01 0.00000E+00 0.00000E+00
 -1        87 4.81500E+01 0.00000E+00 0.00000E+00
 -1        88 5.11500E+01 0.00000E+00 0.00000E+00
 -1        89 5.41500E+01 0.00000E+00 0.00000E+00
 -1        90 5.71500E+01 0.00000E+00 0.00000E+00
 -1        91 6.01500E+01 0.00000E+00 0.00000E+00
 -1        92 6.31500E+01 0.00000E+00 0.00000E+00
 -1        93 6.61500E+01 0.00000E+00 0.00000E+00
 -1        94 6.91500E+01 0.00000E+00 0.00000E+00
 -1        95 7.21500E+01 0.00000E+00 0.00000E+00
 -1        96 7.51500E+01 0.00000E+00 0.00000E+00
 -1        97 7.81500E+01 0.00000E+00 0.00000E+00
 -1        98 8.11500E+01 0.00000E+00 0.00000E+00
 -1        99 8.41500E+01 0.00000E+00 0.00000E+00
 -1       100 8.71500E+01 0.00000E+00 0.00000E+00
 -1       101 9.01500E+01 0.00000E+00 0.00000E+00
 -1       102 9.31500E+01 0.00000E+00 0.00000E+00
 -1       103 9.61500E+01 0.00000E+00 0.00000E+00
 -1       104 9.91500E+01 0.00000E+00 0.00000E+00
 -1       105 1.02150E+02 0.00000E+00 0.00000E+00
 -1       106 1.05150E+02 0.00000E+00 0.00000E+00
 -1       107 1.08150E+02 0.00000E+00 0.00000E+00
 -1       108 1.11150E+02 0.00000E+00 0.00000E+00
 -1       109 1.14150E+02 0.00000E+00 0.00000E+00
 -1       110 1.17150E+02 0.00000E+00 0.00000E+00
 -1       111 1.20150E+02 0.00000E+00 0.00000E+00
 -1       112 1.23150E+02 0.00000E+00 0.00000E+00
 -1       113 1.26150E+02 0.00000E+00 0.00000E+00
 -1       114 1.29150E+02 0.00000E+00 0.00000E+00
 -1       115 1.32150E+02 0.00000E+00 0.00000E+00
 -1       116 1.35150E+02 0.00000E+00 0.00000E+00
 -1       117 1.38150E+02 0.00000E+00 0.00000E+00
 -1       118 1.41150E+02 0.00000E+00 0.00000E+00
 -1       119 1.44150E+02 0.00000E+00 0.00000E+00
 -1       120 1.47150E+02 0.00000E+00 0.00000E+00
 -1       121 1.50000E+02 2.95000E+00 0.00000E+00
 -1       122 1.50000E+02 5.90000E+00 0.00000E+00
 -1       123 1.50000E+02 8.85000E+00 0.00000E+00
 -1       124 1.50000E+02 1.18000E+01 0.00000E+00
 -1       125 1.50000E+02 1.47500E+01 0.00000E+00
 -1       126 1.50000E+02 1.76500E+01 0.00000E+00
 -1       127 1.50000E+02 2.06000E+01 0.00000E+00
 -1       128 1.50000E+02 2.35500E+01 0.00000E+00
 -1       129 1.50000E+02 2.65000E+01 0.00000E+00
 -1       130 1.50000E+02 2.94500E+01 0.00000E+00
 -1       131 1.50000E+02 3.24000E+01 0.00000E+00
 -1       132 1.50000E+02 3.53000E+01 0.00000E+00
 -1       133 1.50000E+02 3.82500E+01 0.00000E+00
 -1       134 1.50000E+02 4.12000E+01 0.00000E+00
 -1       135 1.50000E+02 4.41500E+01 0.00000E+00
 -1       136 1.50000E+02 4.71000E+01 0.00000E+00
 -1       137 1.14471E+02 1.99794E+01 0.00000E+00
 -1       138 1.14033E+02 1.86513E+01 0.00000E+00
 -1       139 1.13243E+02 1.73051E+01 0.00000E+00
 -1       140 1.12292E+02 1.62694E+01 0.00000E+00
 -1       141 1.11135E+02 1.54337E+01 0.00000E+00
 -1       142 1.09732E+02 1.48182E+01 0.00000E+00
 -1       143 1.08274E+02 1.45264E+01 0.00000E+00
 -1       144 1.06672E+02 1.45643E+01 0.00000E+00
 -1       145 1.05124E+02 1.49643E+01 0.00000E+00
 -1       146 1.03820E+02 1.56297E+01 0.00000E+00
 -1       147 1.02701E+02 1.65341E+01 0.00000E+00
 -1       148 1.01803E+02 1.76300E+01 0.00000E+00
 -1       149 1.01110E+02 1.89694E+01 0.00000E+00
 -1       150 1.00739E+02 2.03077E+01 0.00000E+00
 -1       151 1.00644E+02 2.17970E+01 0.00000E+00
 -1       152 1.00860E+02 2.32480E+01 0.00000E+00
 -1       153 1.01361E+02 2.45974E+01 0.00000E+00
 -1       154 1.02192E+02 2.58963E+01 0.00000E+00
 -1       155 1.03253E+02 2.69546E+01 0.00000E+00
 -1       156 1.04439E+02 2.77239E+01 0.00000E+00
 -1       157 1.05892E+02 2.82763E+01 0.00000E+00
 -1       158 1.07465E+02 2.84953E+01 0.00000E+00
 -1       159 1.08883E+02 2.83856E+01 0.00000E+00
 -1       160 1.10400E+02 2.79289E+01 0.00000E+00
 -1       161 1.12765E+02 2.62620E+01 0.00000E+00
 -1       162 1.13549E+02 2.52467E+01 0.00000E+00
 -1       163 1.14133E+02 2.41070E+01 0.00000E+00
 -1       164 1.14514E+02 2.28055E+01 0.00000E+00
 -1       165 2.59800E+00 4.55750E+01 0.00000E+00
 -1       166 2.59800E+00 4.26250E+01 0.00000E+00
 -1       167 2.59800E+00 3.96750E+01 0.00000E+00
 -1       168 2.59800E+00 3.67250E+01 0.00000E+00
 -1       169 2.59800E+00 3.38250E+01 0.00000E+00
 -1       170 2.59800E+00 3.08750E+01 0.00000E+00
 -1       171 2.59800E+00 2.79250E+01 0.00000E+00
 -1       172 2.59800E+00 2.49750E+01 0.00000E+00
 -1       173 2.59800E+00 2.20250E+01 0.00000E+00
 -1       174 2.59800E+00 1.90750E+01 0.00000E+00
 -1       175 2.59800E+00 1.61750E+01 0.00000E+00
 -1       176 2.59800E+00 1.32250E+01 0.00000E+00
 -1       177 2.59800E+00 1.02750E+01 0.00000E+00
 -1       178 2.59800E+00 7.32500E+00 0.00000E+00
 -1       179 2.59800E+00 4.37500E+00 0.00000E+00
 -1       180 2.87400E+00 2.18750E+00 0.00000E+00
 -1       181 4.65000E+00 4.74020E+01 0.00000E+00
 -1       182 7.65000E+00 4.74020E+01 0.00000E+00
 -1       183 1.06500E+01 4.74020E+01 0.00000E+00
 -1       184 1.36500E+01 4.74020E+01 0.00000E+00
 -1       185 1.66500E+01 4.74020E+01 0.00000E+00
 -1       186 1.96500E+01 4.74020E+01 0.00000E+00
 -1       187 2.26500E+01 4.74020E+01 0.00000E+00
 -1       188 2.56500E+01 4.74020E+01 0.00000E+00
 -1       189 2.86500E+01 4.74020E+01 0.00000E+00
 -1       190 3.16500E+01 4.74020E+01 0.00000E+00
 -1       191 3.46500E+01 4.74020E+01 0.00000E+00
 -1       192 3.76500E+01 4.74020E+01 0.00000E+00
 -1       193 4.06500E+01 4.74020E+01 0.00000E+00
 -1       194 4.36500E+01 4.74020E+01 0.00000E+00
 -1       195 4.66500E+01 4.74020E+01 0.00000E+00
 -1       196 4.96500E+01 4.74020E+01 0.00000E+00
 -1       197 5.26500E+01 4.74020E+01 0.00000E+00
 -1       198 5.56500E+01 4.74020E+01 0.00000E+00
 -1       199 5.86500E+01 4.74020E+01 0.00000E+00
 -1       200 6.16500E+01 4.74020E+01 0.00000E+00
 -1       201 6.46500E+01 4.74020E+01 0.00000E+00
 -1       202 6.76500E+01 4.74020E+01 0.00000E+00
 -1       203 7.06500E+01 4.74020E+01 0.00000E+00
 -1       204 7.36500E+01 4.74020E+01 0.00000E+00
 -1       205 7.66500E+01 4.74020E+01 0.00000E+00
 -1       206 7.96500E+01 4.74020E+01 0.00000E+00
 -1       207 8.26500E+01 4.74020E+01 0.00000E+00
 -1       208 8.56500E+01 4.74020E+01 0.00000E+00
 -1       209 8.86500E+01 4.74020E+01 0.00000E+00
 -1       210 9.16500E+01 4.74020E+01 0.00000E+00
 -1       211 9.46500E+01 4.74020E+01 0.00000E+00
 -1       212 9.76500E+01 4.74020E+01 0.00000E+00
 -1       213 1.00650E+02 4.74020E+01 0.00000E+00
 -1       214 1.03650E+02 4.74020E+01 0.00000E+00
 -1       215 1.06650E+02 4.74020E+01 0.00000E+00
 -1       216 1.09650E+02 4.74020E+01 0.00000E+00
 -1       217 1.12650E+02 4.74020E+01 0.00000E+00
 -1       218 1.15650E+02 4.74020E+01 0.00000E+00
 -1       219 1.18650E+02 4.74020E+01 0.00000E+00
 -1       220 1.21650E+02 4.74020E+01 0.00000E+00
 -1       221 1.24650E+02 4.74020E+01 0.00000E+00
 -1       222 1.27650E+02 4.74020E+01 0.00000E+00
 -1       223 1.30650E+02 4.74020E+01 0.00000E+00
 -1       224 1.33650E+02 4.74020E+01 0.00000E+00
 -1       225 1.36650E+02 4.74020E+01 0.00000E+00
 -1       226 1.39650E+02 4.74020E+01 0.00000E+00
 -1       227 1.42650E+02 4.74020E+01 0.00000E+00
 -1       228 1.45650E+02 4.74020E+01 0.00000E+00
 -1       229 5.87400E+00 2.18750E+00 0.00000E+00
 -1       230 8.87400E+00 2.18750E+00 0.00000E+00
 -1       231 1.18740E+01 2.18750E+00 0.00000E+00
 -1       232 1.48740E+01 2.18750E+00 0.00000E+00
 -1       233 1.78740E+01 2.18750E+00 0.00000E+00
 -1       234 2.08740E+01 2.18750E+00 0.00000E+00
 -1       235 2.38740E+01 2.18750E+00 0.00000E+00
 -1       236 2.68740E+01 2.18750E+00 0.00000E+00
 -1       237 2.98740E+01 2.18750E+00 0.00000E+00
 -1       238 3.28740E+01 2.18750E+00 0.00000E+00
 -1       239 3.58740E+01 2.18750E+00 0.00000E+00
 -1       240 3.88740E+01 2.18750E+00 0.00000E+00
 -1       241 4.18740E+01 2.18750E+00 0.00000E+00
 -1       242 4.48740E+01 2.18750E+00 0.00000E+00
 -1       243 4.78740E+01 2.18750E+00 0.00000E+00
 -1       244 5.08740E+01 2.18750E+00 0.00000E+00
 -1       245 5.38740E+01 2.18750E+00 0.00000E+00
 -1       246 5.68740E+01 2.18750E+00 0.00000E+00
 -1       247 5.98740E+01 2.18750E+00 0.00000E+00
 -1       248 6.28740E+01 2.18750E+00 0.00000E+00
 -1       249 6.58740E+01 2.18750E+00 0.00000E+00
 -1       250 6.88740E+01 2.18750E+00 0.00000E+00
 -1       251 7.18740E+01 2.18750E+00 0.00000E+00
 -1       252 7.48740E+01 2.18750E+00 0.00000E+00
 -1       253 7.78740E+01 2.18750E+00 0.00000E+00
 -1       254 8.08740E+01 2.18750E+00 0.00000E+00
 -1       255 8.38740E+01 2.18750E+00 0.00000E+00
 -1       256 8.68740E+01 2.18750E+00 0.00000E+00
 -1       257 8.98740E+01 2.18750E+00 0.00000E+00
 -1       258 9.28740E+01 2.18750E+00 0.00000E+00
 -1       259 9.58740E+01 2.18750E+00 0.00000E+00
 -1       260 9.88740E+01 2.18750E+00 0.00000E+00
 -1       261 1.01874E+02 2.18750E+00 0.00000E+00
 -1       262 1.04874E+02 2.18750E+00 0.00000E+00
 -1       263 1.07874E+02 2.18750E+00 0.00000E+00
 -1       264 1.10874E+02 2.18750E+00 0.00000E+00
 -1       265 1.13874E+02 2.18750E+00 0.00000E+00
 -1       266 1.16874E+02 2.18750E+00 0.00000E+00
 -1       267 1.19874E+02 2.18750E+00 0.00000E+00
 -1       268 1.22874E+02 2.18750E+00 0.00000E+00
 -1       269 1.25874E+02 2.18750E+00 0.00000E+00
 -1       270 1.28874E+02 2.18750E+00 0.00000E+00
 -1       271 1.31874E+02 2.18750E+00 0.00000E+00
 -1       272 1.34874E+02 2.18750E+00 0.00000E+00
 -1       273 1.37874E+02 2.18750E+00 0.00000E+00
 -1       274 1.40874E+02 2.18750E+00 0.00000E+00
 -1       275 1.43874E+02 2.18750E+00 0.00000E+00
 -1       276 1.46874E+02 2.18750E+00 0.00000E+00
 -1       277 1.47402E+02 4.42500E+00 0.00000E+00
 -1       278 1.47402E+02 7.37500E+00 0.00000E+00
 -1       279 1.47402E+02 1.03250E+01 0.00000E+00
 -1       280 1.47402E+02 1.32750E+01 0.00000E+00
 -1       281 1.47402E+02 1.61750E+01 0.00000E+00
 -1       282 1.47402E+02 1.91250E+01 0.00000E+00
 -1       283 1.47402E+02 2.20750E+01 0.00000E+00
 -1       284 1.47402E+02 2.50250E+01 0.00000E+00
 -1       285 1.47402E+02 2.79750E+01 0.00000E+00
 -1       286 1.47402E+02 3.09250E+01 0.00000E+00
 -1       287 1.47402E+02 3.38250E+01 0.00000E+00
 -1       288 1.47402E+02 3.67750E+01 0.00000E+00
 -1       289 1.47402E+02 3.97250E+01 0.00000E+00
 -1       290 1.47402E+02 4.26750E+01 0.00000E+00
 -1       291 1.46526E+02 4.50385E+01 0.00000E+00
 -1       292 1.15926E+02 2.05879E+01 0.00000E+00
 -1       293 1.15403E+02 1.89355E+01 0.00000E+00
 -1       294 1.14900E+02 1.72377E+01 0.00000E+00
 -1       295 1.13661E+02 1.59673E+01 0.00000E+00
 -1       296 1.12423E+02 1.48686E+01 0.00000E+00
 -1       297 1.10921E+02 1.40158E+01 0.00000E+00
 -1       298 1.09257E+02 1.34013E+01 0.00000E+00
 -1       299 1.07438E+02 1.30820E+01 0.00000E+00
 -1       300 1.05511E+02 1.32659E+01 0.00000E+00
 -1       301 1.03883E+02 1.41425E+01 0.00000E+00
 -1       302 1.02499E+02 1.51389E+01 0.00000E+00
 -1       303 1.01314E+02 1.63133E+01 0.00000E+00
 -1       304 1.00230E+02 1.76656E+01 0.00000E+00
 -1       305 9.97559E+01 1.93150E+01 0.00000E+00
 -1       306 9.93142E+01 2.09642E+01 0.00000E+00
 -1       307 9.94696E+01 2.27134E+01 0.00000E+00
 -1       308 9.98954E+01 2.43742E+01 0.00000E+00
 -1       309 1.00473E+02 2.60808E+01 0.00000E+00
 -1       310 1.01807E+02 2.73432E+01 0.00000E+00
 -1       311 1.03186E+02 2.83562E+01 0.00000E+00
 -1       312 1.04615E+02 2.94467E+01 0.00000E+00
 -1       313 1.06465E+02 2.99186E+01 0.00000E+00
 -1       314 1.08268E+02 2.96492E+01 0.00000E+00
 -1       315 1.10040E+02 2.94787E+01 0.00000E+00
 -1       316 1.11863E+02 2.88742E+01 0.00000E+00
 -1       317 1.13084E+02 2.76027E+01 0.00000E+00
 -1       318 1.14117E+02 2.64947E+01 0.00000E+00
 -1       319 1.14919E+02 2.52298E+01 0.00000E+00
 -1       320 1.15301E+02 2.39283E+01 0.00000E+00
 -1       321 1.15866E+02 2.22731E+01 0.00000E+00
 -1       322 5.19600E+00 4.11500E+01 0.00000E+00
 -1       323 5.19600E+00 4.41000E+01 0.00000E+00
 -1       324 5.19600E+00 3.52750E+01 0.00000E+00
 -1       325 5.19600E+00 3.23250E+01 0.00000E+00
 -1       326 5.19600E+00 2.93750E+01 0.00000E+00
 -1       327 5.19600E+00 2.64250E+01 0.00000E+00
 -1       328 5.19600E+00 2.34750E+01 0.00000E+00
 -1       329 5.19600E+00 2.05250E+01 0.00000E+00
 -1       330 5.19600E+00 1.76250E+01 0.00000E+00
 -1       331 5.19600E+00 1.46750E+01 0.00000E+00
 -1       332 5.19600E+00 1.17250E+01 0.00000E+00
 -1       333 5.19600E+00 8.77500E+00 0.00000E+00
 -1       334 5.19600E+00 5.82500E+00 0.00000E+00
 -1       335 5.53500E+00 4.00625E+00 0.00000E+00
 -1       336 8.53500E+00 4.00625E+00 0.00000E+00
 -1       337 1.16810E+02 2.35196E+01 0.00000E+00
 -1       338 9.15000E+00 4.48040E+01 0.00000E+00
 -1       339 1.21500E+01 4.48040E+01 0.00000E+00
 -1       340 1.51500E+01 4.48040E+01 0.00000E+00
 -1       341 1.81500E+01 4.48040E+01 0.00000E+00
 -1       342 2.11500E+01 4.48040E+01 0.00000E+00
 -1       343 2.41500E+01 4.48040E+01 0.00000E+00
 -1       344 2.71500E+01 4.48040E+01 0.00000E+00
 -1       345 3.01500E+01 4.48040E+01 0.00000E+00
 -1       346 3.31500E+01 4.48040E+01 0.00000E+00
 -1       347 3.61500E+01 4.48040E+01 0.00000E+00
 -1       348 3.91500E+01 4.48040E+01 0.00000E+00
 -1       349 4.21500E+01 4.48040E+01 0.00000E+00
 -1       350 4.51500E+01 4.48040E+01 0.00000E+00
 -1       351 4.81500E+01 4.48040E+01 0.00000E+00
 -1       352 5.11500E+01 4.48040E+01 0.00000E+00
 -1       353 5.41500E+01 4.48040E+01 0.00000E+00
 -1       354 5.71500E+01 4.48040E+01 0.00000E+00
 -1       355 6.01500E+01 4.48040E+01 0.00000E+00
 -1       356 6.31500E+01 4.48040E+01 0.00000E+00
 -1       357 6.61500E+01 4.48040E+01 0.00000E+00
 -1       358 6.91500E+01 4.48040E+01 0.00000E+00
 -1       359 7.21500E+01 4.48040E+01 0.00000E+00
 -1       360 7.51500E+01 4.48040E+01 0.00000E+00
 -1       361 7.81500E+01 4.48040E+01 0.00000E+00
 -1       362 8.11500E+01 4.48040E+01 0.00000E+00
 -1       363 8.41500E+01 4.48040E+01 0.00000E+00
 -1       364 8.71500E+01 4.48040E+01 0.00000E+00
 -1       365 9.01500E+01 4.48040E+01 0.00000E+00
 -1       366 9.31500E+01 4.48040E+01 0.00000E+00
 -1       367 9.61500E+01 4.48040E+01 0.00000E+00
 -1       368 9.91500E+01 4.48040E+01 0.00000E+00
 -1       369 1.02150E+02 4.48040E+01 0.00000E+00
 -1       370 1.05150E+02 4.48040E+01 0.00000E+00
 -1       371 1.08150E+02 4.48040E+01 0.00000E+00
 -1       372 1.11150E+02 4.48040E+01 0.00000E+00
 -1       373 1.14150E+02 4.48040E+01 0.00000E+00
 -1       374 1.17150E+02 4.48040E+01 0.00000E+00
 -1       375 1.20150E+02 4.48040E+01 0.00000E+00
 -1       376 1.23150E+02 4.48040E+01 0.00000E+00
 -1       377 1.26150E+02 4.48040E+01 0.00000E+00
 -1       378 1.29150E+02 4.48040E+01 0.00000E+00
 -1       379 1.32150E+02 4.48040E+01 0.00000E+00
 -1       380 1.35150E+02 4.48040E+01 0.00000E+00
 -1       381 1.38150E+02 4.48040E+01 0.00000E+00
 -1       382 1.41150E+02 4.48040E+01 0.00000E+00
 -1       383 1.43838E+02 4.49212E+01 0.00000E+00
 -1       384 1.15350E+01 4.00625E+00 0.00000E+00
 -1       385 1.45350E+01 4.00625E+00 0.00000E+00
 -1       386 1.75350E+01 4.00625E+00 0.00000E+00
 -1       387 2.05350E+01 4.00625E+00 0.00000E+00
 -1       388 2.35350E+01 4.00625E+00 0.00000E+00
 -1       389 2.65350E+01 4.00625E+00 0.00000E+00
 -1       390 2.95350E+01 4.00625E+00 0.00000E+00
 -1       391 3.25350E+01 4.00625E+00 0.00000E+00
 -1       392 3.55350E+01 4.00625E+00 0.00000E+00
 -1       393 3.85350E+01 4.00625E+00 0.00000E+00
 -1       394 4.15350E+01 4.00625E+00 0.00000E+00
 -1       395 4.45350E+01 4.00625E+00 0.00000E+00
 -1       396 4.75350E+01 4.00625E+00 0.00000E+00
 -1       397 5.05350E+01 4.00625E+00 0.00000E+00
 -1       398 5.35350E+01 4.00625E+00 0.00000E+00
 -1       399 5.65350E+01 4.00625E+00 0.00000E+00
 -1       400 5.95350E+01 4.00625E+00 0.00000E+00
 -1       401 6.25350E+01 4.00625E+00 0.00000E+00
 -1       402 6.55350E+01 4.00625E+00 0.00000E+00
 -1       403 6.85350E+01 4.00625E+00 0.00000E+00
 -1       404 7.15350E+01 4.00625E+00 0.00000E+00
 -1       405 7.45350E+01 4.00625E+00 0.00000E+00
 -1       406 7.75350E+01 4.00625E+00 0.00000E+00
 -1       407 8.05350E+01 4.00625E+00 0.00000E+00
 -1       408 8.35350E+01 4.00625E+00 0.00000E+00
 -1       409 8.65350E+01 4.00625E+00 0.00000E+00
 -1       410 8.95350E+01 4.00625E+00 0.00000E+00
 -1       411 9.25350E+01 4.00625E+00 0.00000E+00
 -1       412 9.55350E+01 4.00625E+00 0.00000E+00
 -1       413 9.85350E+01 4.00625E+00 0.00000E+00
 -1       414 1.01535E+02 4.00625E+00 0.00000E+00
 -1       415 1.04535E+02 4.00625E+00 0.00000E+00
 -1       416 1.07535E+02 4.00625E+00 0.00000E+00
 -1       417 1.10535E+02 4.00625E+00 0.00000E+00
 -1       418 1.13535E+02 4.00625E+00 0.00000E+00
 -1       419 1.16535E+02 4.00625E+00 0.00000E+00
 -1       420 1.19535E+02 4.00625E+00 0.00000E+00
 -1       421 1.22535E+02 4.00625E+00 0.00000E+00
 -1       422 1.25535E+02 4.00625E+00 0.00000E+00
 -1       423 1.28535E+02 4.00625E+00 0.00000E+00
 -1       424 1.31535E+02 4.00625E+00 0.00000E+00
 -1       425 1.34535E+02 4.00625E+00 0.00000E+00
 -1       426 1.37535E+02 4.00625E+00 0.00000E+00
 -1       427 1.40535E+02 4.00625E+00 0.00000E+00
 -1       428 1.43535E+02 4.00625E+00 0.00000E+00
 -1       429 1.45469E+02 4.21562E+00 0.00000E+00
 -1       430 1.44804E+02 1.18000E+01 0.00000E+00
 -1       431 1.44804E+02 8.85000E+00 0.00000E+00
 -1       432 1.45136E+02 6.53281E+00 0.00000E+00
 -1       433 1.44804E+02 1.47000E+01 0.00000E+00
 -1       434 1.44804E+02 1.76500E+01 0.00000E+00
 -1       435 1.44804E+02 2.06000E+01 0.00000E+00
 -1       436 1.44804E+02 2.35500E+01 0.00000E+00
 -1       437 1.44804E+02 2.65000E+01 0.00000E+00
 -1       438 1.44804E+02 2.94500E+01 0.00000E+00
 -1       439 1.44804E+02 3.23500E+01 0.00000E+00
 -1       440 1.44804E+02 3.53000E+01 0.00000E+00
 -1       441 1.44804E+02 3.82500E+01 0.00000E+00
 -1       442 1.44804E+02 4.12000E+01 0.00000E+00
 -1       443 1.16716E+02 1.76236E+01 0.00000E+00
 -1       444 1.17275E+02 2.14793E+01 0.00000E+00
 -1       445 1.17239E+02 1.92759E+01 0.00000E+00
 -1       446 1.15388E+02 1.55217E+01 0.00000E+00
 -1       447 1.16429E+02 2.48211E+01 0.00000E+00
 -1       448 1.12436E+02 1.30963E+01 0.00000E+00
 -1       449 1.14151E+02 1.44230E+01 0.00000E+00
 -1       450 5.19600E+00 3.82125E+01 0.00000E+00
 -1       451 1.10596E+02 1.23355E+01 0.00000E+00
 -1       452 1.08644E+02 1.15523E+01 0.00000E+00
 -1       453 1.06296E+02 1.12998E+01 0.00000E+00
 -1       454 1.04003E+02 1.24154E+01 0.00000E+00
 -1       455 1.02384E+02 1.35208E+01 0.00000E+00
 -1       456 1.00817E+02 1.46273E+01 0.00000E+00
 -1       457 9.97329E+01 1.59796E+01 0.00000E+00
 -1       458 9.85060E+01 1.80624E+01 0.00000E+00
 -1       459 9.80643E+01 1.97116E+01 0.00000E+00
 -1       460 9.81008E+01 2.19535E+01 0.00000E+00
 -1       461 9.82646E+01 2.39073E+01 0.00000E+00
 -1       462 9.88422E+01 2.56139E+01 0.00000E+00
 -1       463 1.00192E+02 2.77145E+01 0.00000E+00
 -1       464 1.01729E+02 2.88943E+01 0.00000E+00
 -1       465 1.03159E+02 2.99847E+01 0.00000E+00
 -1       466 1.05116E+02 3.13445E+01 0.00000E+00
 -1       467 1.07608E+02 3.13973E+01 0.00000E+00
 -1       468 1.09379E+02 3.12267E+01 0.00000E+00
 -1       469 1.11438E+02 3.06454E+01 0.00000E+00
 -1       470 1.13530E+02 2.92520E+01 0.00000E+00
 -1       471 1.14563E+02 2.81440E+01 0.00000E+00
 -1       472 1.15825E+02 2.66913E+01 0.00000E+00
 -1       473 9.85611E+01 2.72476E+01 0.00000E+00
 -1       474 1.13105E+02 3.10232E+01 0.00000E+00
 -1       475 1.00350E+01 6.60425E+00 0.00000E+00
 -1       476 7.79400E+00 3.08500E+01 0.00000E+00
 -1       477 7.79400E+00 3.38000E+01 0.00000E+00
 -1       478 7.79400E+00 2.49500E+01 0.00000E+00
 -1       479 7.79400E+00 2.20000E+01 0.00000E+00
 -1       480 7.79400E+00 1.91000E+01 0.00000E+00
 -1       481 7.79400E+00 1.61500E+01 0.00000E+00
 -1       482 7.79400E+00 1.32000E+01 0.00000E+00
 -1       483 7.79400E+00 1.02500E+01 0.00000E+00
 -1       484 1.06500E+01 4.22060E+01 0.00000E+00
 -1       485 1.18024E+02 2.45819E+01 0.00000E+00
 -1       486 1.30350E+01 6.60425E+00 0.00000E+00
 -1       487 7.92300E+00 4.16780E+01 0.00000E+00
 -1       488 1.36500E+01 4.22060E+01 0.00000E+00
 -1       489 1.66500E+01 4.22060E+01 0.00000E+00
 -1       490 1.96500E+01 4.22060E+01 0.00000E+00
 -1       491 2.26500E+01 4.22060E+01 0.00000E+00
 -1       492 2.56500E+01 4.22060E+01 0.00000E+00
 -1       493 2.86500E+01 4.22060E+01 0.00000E+00
 -1       494 3.16500E+01 4.22060E+01 0.00000E+00
 -1       495 3.46500E+01 4.22060E+01 0.00000E+00
 -1       496 3.76500E+01 4.22060E+01 0.00000E+00
 -1       497 4.06500E+01 4.22060E+01 0.00000E+00
 -1       498 4.36500E+01 4.22060E+01 0.00000E+00
 -1       499 4.66500E+01 4.22060E+01 0.00000E+00
 -1       500 4.96500E+01 4.22060E+01 0.00000E+00
 -1       501 5.26500E+01 4.22060E+01 0.00000E+00
 -1       502 5.56500E+01 4.22060E+01 0.00000E+00
 -1       503 5.86500E+01 4.22060E+01 0.00000E+00
 -1       504 6.16500E+01 4.22060E+01 0.00000E+00
 -1       505 6.46500E+01 4.22060E+01 0.00000E+00
 -1       506 6.76500E+01 4.22060E+01 0.00000E+00
 -1       507 7.06500E+01 4.22060E+01 0.00000E+00
 -1       508 7.36500E+01 4.22060E+01 0.00000E+00
 -1       509 7.66500E+01 4.22060E+01 0.00000E+00
 -1       510 7.96500E+01 4.22060E+01 0.00000E+00
 -1       511 8.26500E+01 4.22060E+01 0.00000E+00
 -1       512 8.56500E+01 4.22060E+01 0.00000E+00
 -1       513 8.86500E+01 4.22060E+01 0.00000E+00
 -1       514 9.16500E+01 4.22060E+01 0.00000E+00
 -1       515 9.46500E+01 4.22060E+01 0.00000E+00
 -1       516 9.76500E+01 4.22060E+01 0.00000E+00
 -1       517 1.00650E+02 4.22060E+01 0.00000E+00
 -1       518 1.03650E+02 4.22060E+01 0.00000E+00
 -1       519 1.06650E+02 4.22060E+01 0.00000E+00
 -1       520 1.09650E+02 4.22060E+01 0.00000E+00
 -1       521 1.12650E+02 4.22060E+01 0.00000E+00
 -1       522 1.15650E+02 4.22060E+01 0.00000E+00
 -1       523 1.18650E+02 4.22060E+01 0.00000E+00
 -1       524 1.21650E+02 4.22060E+01 0.00000E+00
 -1       525 1.24650E+02 4.22060E+01 0.00000E+00
 -1       526 1.27650E+02 4.22060E+01 0.00000E+00
 -1       527 1.30650E+02 4.22060E+01 0.00000E+00
 -1       528 1.33650E+02 4.22060E+01 0.00000E+00
 -1       529 1.36650E+02 4.22060E+01 0.00000E+00
 -1       530 1.39650E+02 4.22060E+01 0.00000E+00
 -1       531 1.18772E+02 1.78819E+01 0.00000E+00
 -1       532 1.90350E+01 6.60425E+00 0.00000E+00
 -1       533 2.20350E+01 6.60425E+00 0.00000E+00
 -1       534 2.50350E+01 6.60425E+00 0.00000E+00
 -1       535 2.80350E+01 6.60425E+00 0.00000E+00
 -1       536 3.10350E+01 6.60425E+00 0.00000E+00
 -1       537 3.40350E+01 6.60425E+00 0.00000E+00
 -1       538 3.70350E+01 6.60425E+00 0.00000E+00
 -1       539 4.00350E+01 6.60425E+00 0.00000E+00
 -1       540 4.30350E+01 6.60425E+00 0.00000E+00
 -1       541 4.60350E+01 6.60425E+00 0.00000E+00
 -1       542 4.90350E+01 6.60425E+00 0.00000E+00
 -1       543 5.20350E+01 6.60425E+00 0.00000E+00
 -1       544 5.50350E+01 6.60425E+00 0.00000E+00
 -1       545 5.80350E+01 6.60425E+00 0.00000E+00
 -1       546 6.10350E+01 6.60425E+00 0.00000E+00
 -1       547 6.40350E+01 6.60425E+00 0.00000E+00
 -1       548 6.70350E+01 6.60425E+00 0.00000E+00
 -1       549 7.00350E+01 6.60425E+00 0.00000E+00
 -1       550 7.30350E+01 6.60425E+00 0.00000E+00
 -1       551 7.60350E+01 6.60425E+00 0.00000E+00
 -1       552 7.90350E+01 6.60425E+00 0.00000E+00
 -1       553 8.20350E+01 6.60425E+00 0.00000E+00
 -1       554 8.50350E+01 6.60425E+00 0.00000E+00
 -1       555 8.80350E+01 6.60425E+00 0.00000E+00
 -1       556 9.10350E+01 6.60425E+00 0.00000E+00
 -1       557 9.40350E+01 6.60425E+00 0.00000E+00
 -1       558 9.70350E+01 6.60425E+00 0.00000E+00
 -1       559 1.00035E+02 6.60425E+00 0.00000E+00
 -1       560 1.03035E+02 6.60425E+00 0.00000E+00
 -1       561 1.06035E+02 6.60425E+00 0.00000E+00
 -1       562 1.09035E+02 6.60425E+00 0.00000E+00
 -1       563 1.12035E+02 6.60425E+00 0.00000E+00
 -1       564 1.15035E+02 6.60425E+00 0.00000E+00
 -1       565 1.18035E+02 6.60425E+00 0.00000E+00
 -1       566 1.21035E+02 6.60425E+00 0.00000E+00
 -1       567 1.24035E+02 6.60425E+00 0.00000E+00
 -1       568 1.27035E+02 6.60425E+00 0.00000E+00
 -1       569 1.30035E+02 6.60425E+00 0.00000E+00
 -1       570 1.33035E+02 6.60425E+00 0.00000E+00
 -1       571 1.36035E+02 6.60425E+00 0.00000E+00
 -1       572 1.39035E+02 6.60425E+00 0.00000E+00
 -1       573 1.42035E+02 6.60425E+00 0.00000E+00
 -1       574 1.42206E+02 1.61750E+01 0.00000E+00
 -1       575 1.42206E+02 1.91250E+01 0.00000E+00
 -1       576 1.42206E+02 1.03250E+01 0.00000E+00
 -1       577 1.42206E+02 1.32500E+01 0.00000E+00
 -1       578 1.42206E+02 2.20750E+01 0.00000E+00
 -1       579 1.42206E+02 2.50250E+01 0.00000E+00
 -1       580 1.42206E+02 2.79750E+01 0.00000E+00
 -1       581 1.42206E+02 3.08750E+01 0.00000E+00
 -1       582 1.42206E+02 3.38250E+01 0.00000E+00
 -1       583 1.42206E+02 3.67750E+01 0.00000E+00
 -1       584 1.42206E+02 3.97250E+01 0.00000E+00
 -1       585 1.17420E+02 2.64521E+01 0.00000E+00
 -1       586 1.60350E+01 6.60425E+00 0.00000E+00
 -1       587 1.19307E+02 2.03438E+01 0.00000E+00
 -1       588 1.17785E+02 1.54776E+01 0.00000E+00
 -1       589 1.10829E+02 3.24254E+01 0.00000E+00
 -1       590 1.03303E+02 3.18668E+01 0.00000E+00
 -1       591 9.65352E+01 2.08578E+01 0.00000E+00
 -1       592 1.00611E+02 1.26729E+01 0.00000E+00
 -1       593 1.18842E+02 2.23841E+01 0.00000E+00
 -1       594 7.79400E+00 2.79000E+01 0.00000E+00
 -1       595 1.15797E+02 1.38150E+01 0.00000E+00
 -1       596 1.10259E+02 1.03521E+01 0.00000E+00
 -1       597 1.12098E+02 1.11130E+01 0.00000E+00
 -1       598 1.04435E+02 1.03907E+01 0.00000E+00
 -1       599 1.02230E+02 1.15675E+01 0.00000E+00
 -1       600 9.90019E+01 1.42832E+01 0.00000E+00
 -1       601 9.77750E+01 1.63661E+01 0.00000E+00
 -1       602 9.67903E+01 1.84866E+01 0.00000E+00
 -1       603 1.00018E+02 2.95321E+01 0.00000E+00
 -1       604 9.70082E+01 2.52836E+01 0.00000E+00
 -1       605 1.06319E+02 3.34207E+01 0.00000E+00
 -1       606 1.01448E+02 3.06225E+01 0.00000E+00
 -1       607 1.08574E+02 3.29231E+01 0.00000E+00
 -1       608 1.15301E+02 2.98678E+01 0.00000E+00
 -1       609 1.16563E+02 2.84150E+01 0.00000E+00
 -1       610 1.14291E+02 1.24694E+01 0.00000E+00
 -1       611 7.61550E+00 6.21462E+00 0.00000E+00
 -1       612 9.67241E+01 2.30527E+01 0.00000E+00
 -1       613 1.07689E+02 9.38757E+00 0.00000E+00
 -1       614 7.79400E+00 3.67375E+01 0.00000E+00
 -1       615 1.12496E+02 3.28032E+01 0.00000E+00
 -1       616 1.41678E+02 4.22645E+01 0.00000E+00
 -1       617 9.67271E+01 2.69173E+01 0.00000E+00
 -1       618 9.83876E+01 2.90652E+01 0.00000E+00
 -1       619 1.04505E+02 3.39430E+01 0.00000E+00
 -1       620 1.03920E+01 2.05500E+01 0.00000E+00
 -1       621 1.03920E+01 2.35000E+01 0.00000E+00
 -1       622 1.03920E+01 1.46750E+01 0.00000E+00
 -1       623 1.03920E+01 1.17250E+01 0.00000E+00
 -1       624 1.15001E+02 3.19633E+01 0.00000E+00
 -1       625 1.21500E+01 3.96080E+01 0.00000E+00
 -1       626 1.15350E+01 9.20225E+00 0.00000E+00
 -1       627 2.35350E+01 9.20225E+00 0.00000E+00
 -1       628 1.51500E+01 3.96080E+01 0.00000E+00
 -1       629 1.81500E+01 3.96080E+01 0.00000E+00
 -1       630 2.11500E+01 3.96080E+01 0.00000E+00
 -1       631 2.41500E+01 3.96080E+01 0.00000E+00
 -1       632 2.71500E+01 3.96080E+01 0.00000E+00
 -1       633 3.01500E+01 3.96080E+01 0.00000E+00
 -1       634 3.31500E+01 3.96080E+01 0.00000E+00
 -1       635 3.61500E+01 3.96080E+01 0.00000E+00
 -1       636 3.91500E+01 3.96080E+01 0.00000E+00
 -1       637 4.21500E+01 3.96080E+01 0.00000E+00
 -1       638 4.51500E+01 3.96080E+01 0.00000E+00
 -1       639 4.81500E+01 3.96080E+01 0.00000E+00
 -1       640 5.11500E+01 3.96080E+01 0.00000E+00
 -1       641 5.41500E+01 3.96080E+01 0.00000E+00
 -1       642 5.71500E+01 3.96080E+01 0.00000E+00
 -1       643 6.01500E+01 3.96080E+01 0.00000E+00
 -1       644 6.31500E+01 3.96080E+01 0.00000E+00
 -1       645 6.61500E+01 3.96080E+01 0.00000E+00
 -1       646 6.91500E+01 3.96080E+01 0.00000E+00
 -1       647 7.21500E+01 3.96080E+01 0.00000E+00
 -1       648 7.51500E+01 3.96080E+01 0.00000E+00
 -1       649 7.81500E+01 3.96080E+01 0.00000E+00
 -1       650 8.11500E+01 3.96080E+01 0.00000E+00
 -1       651 8.41500E+01 3.96080E+01 0.00000E+00
 -1       652 8.71500E+01 3.96080E+01 0.00000E+00
 -1       653 9.01500E+01 3.96080E+01 0.00000E+00
 -1       654 9.31500E+01 3.96080E+01 0.00000E+00
 -1       655 9.61500E+01 3.96080E+01 0.00000E+00
 -1       656 9.91500E+01 3.96080E+01 0.00000E+00
 -1       657 1.02150E+02 3.96080E+01 0.00000E+00
 -1       658 1.05150E+02 3.96080E+01 0.00000E+00
 -1       659 1.08150E+02 3.96080E+01 0.00000E+00
 -1       660 1.11150E+02 3.96080E+01 0.00000E+00
 -1       661 1.14150E+02 3.96080E+01 0.00000E+00
 -1       662 1.17150E+02 3.96080E+01 0.00000E+00
 -1       663 1.20150E+02 3.96080E+01 0.00000E+00
 -1       664 1.23150E+02 3.96080E+01 0.00000E+00
 -1       665 1.26150E+02 3.96080E+01 0.00000E+00
 -1       666 1.29150E+02 3.96080E+01 0.00000E+00
 -1       667 1.32150E+02 3.96080E+01 0.00000E+00
 -1       668 1.35150E+02 3.96080E+01 0.00000E+00
 -1       669 1.38150E+02 3.96080E+01 0.00000E+00
 -1       670 2.05350E+01 9.20225E+00 0.00000E+00
 -1       671 2.95350E+01 9.20225E+00 0.00000E+00
 -1       672 3.25350E+01 9.20225E+00 0.00000E+00
 -1       673 3.55350E+01 9.20225E+00 0.00000E+00
 -1       674 3.85350E+01 9.20225E+00 0.00000E+00
 -1       675 4.15350E+01 9.20225E+00 0.00000E+00
 -1       676 4.45350E+01 9.20225E+00 0.00000E+00
 -1       677 4.75350E+01 9.20225E+00 0.00000E+00
 -1       678 5.05350E+01 9.20225E+00 0.00000E+00
 -1       679 5.35350E+01 9.20225E+00 0.00000E+00
 -1       680 5.65350E+01 9.20225E+00 0.00000E+00
 -1       681 5.95350E+01 9.20225E+00 0.00000E+00
 -1       682 6.25350E+01 9.20225E+00 0.00000E+00
 -1       683 6.55350E+01 9.20225E+00 0.00000E+00
 -1       684 6.85350E+01 9.20225E+00 0.00000E+00
 -1       685 7.15350E+01 9.20225E+00 0.00000E+00
 -1       686 7.45350E+01 9.20225E+00 0.00000E+00
 -1       687 7.75350E+01 9.20225E+00 0.00000E+00
 -1       688 8.05350E+01 9.20225E+00 0.00000E+00
 -1       689 8.35350E+01 9.20225E+00 0.00000E+00
 -1       690 8.65350E+01 9.20225E+00 0.00000E+00
 -1       691 8.95350E+01 9.20225E+00 0.00000E+00
 -1       692 9.25350E+01 9.20225E+00 0.00000E+00
 -1       693 9.55350E+01 9.20225E+00 0.00000E+00
 -1       694 9.85350E+01 9.20225E+00 0.00000E+00
 -1       695 1.04535E+02 8.65450E+00 0.00000E+00
 -1       696 1.13535E+02 9.15721E+00 0.00000E+00
 -1       697 1.16535E+02 9.15721E+00 0.00000E+00
 -1       698 1.19535E+02 9.15721E+00 0.00000E+00
 -1       699 1.22535E+02 9.15721E+00 0.00000E+00
 -1       700 1.25535E+02 9.15721E+00 0.00000E+00
 -1       701 1.28535E+02 9.15721E+00 0.00000E+00
 -1       702 1.31535E+02 9.15721E+00 0.00000E+00
 -1       703 1.34535E+02 9.15721E+00 0.00000E+00
 -1       704 1.37535E+02 9.15721E+00 0.00000E+00
 -1       705 1.39870E+02 9.74111E+00 0.00000E+00
 -1       706 1.39608E+02 2.35500E+01 0.00000E+00
 -1       707 1.39608E+02 1.76500E+01 0.00000E+00
 -1       708 1.39608E+02 2.65000E+01 0.00000E+00
 -1       709 1.39608E+02 2.06000E+01 0.00000E+00
 -1       710 1.14097E+02 1.03325E+01 0.00000E+00
 -1       711 1.39608E+02 2.94000E+01 0.00000E+00
 -1       712 1.39608E+02 3.23500E+01 0.00000E+00
 -1       713 1.39608E+02 3.53000E+01 0.00000E+00
 -1       714 1.19354E+02 2.60439E+01 0.00000E+00
 -1       715 1.75350E+01 9.20225E+00 0.00000E+00
 -1       716 1.16410E+02 1.16136E+01 0.00000E+00
 -1       717 1.01233E+02 3.29472E+01 0.00000E+00
 -1       718 1.00359E+02 1.05655E+01 0.00000E+00
 -1       719 1.18563E+02 2.81203E+01 0.00000E+00
 -1       720 1.11834E+02 9.14765E+00 0.00000E+00
 -1       721 1.21073E+02 2.18194E+01 0.00000E+00
 -1       722 9.49209E+01 2.21023E+01 0.00000E+00
 -1       723 2.65350E+01 9.20225E+00 0.00000E+00
 -1       724 1.06266E+02 9.00320E+00 0.00000E+00
 -1       725 1.21207E+02 1.86423E+01 0.00000E+00
 -1       726 1.03920E+01 1.76125E+01 0.00000E+00
 -1       727 9.50408E+01 1.94977E+01 0.00000E+00
 -1       728 9.69106E+01 1.44542E+01 0.00000E+00
 -1       729 9.85936E+01 1.22656E+01 0.00000E+00
 -1       730 1.03920E+01 3.23250E+01 0.00000E+00
 -1       731 1.45350E+01 9.20225E+00 0.00000E+00
 -1       732 1.40178E+02 3.96665E+01 0.00000E+00
 -1       733 9.98035E+01 3.18568E+01 0.00000E+00
 -1       734 9.54231E+01 1.65629E+01 0.00000E+00
 -1       735 1.20486E+02 1.57739E+01 0.00000E+00
 -1       736 1.20214E+02 2.39317E+01 0.00000E+00
 -1       737 1.17479E+02 3.04860E+01 0.00000E+00
 -1       738 1.02525E+02 9.46589E+00 0.00000E+00
 -1       739 9.52050E+01 2.43332E+01 0.00000E+00
 -1       740 1.18399E+02 1.32762E+01 0.00000E+00
 -1       741 1.03920E+01 3.52625E+01 0.00000E+00
 -1       742 1.03920E+01 2.64500E+01 0.00000E+00
 -1       743 9.49238E+01 2.59669E+01 0.00000E+00
 -1       744 1.03920E+01 2.93875E+01 0.00000E+00
 -1       745 1.39870E+02 1.26661E+01 0.00000E+00
 -1       746 1.11172E+02 3.47772E+01 0.00000E+00
 -1       747 9.65536E+01 2.87348E+01 0.00000E+00
 -1       748 1.02435E+02 3.50234E+01 0.00000E+00
 -1       749 1.07888E+02 3.51740E+01 0.00000E+00
 -1       750 1.38879E+02 3.74540E+01 0.00000E+00
 -1       751 9.81727E+01 3.13899E+01 0.00000E+00
 -1       752 1.05210E+01 3.87342E+01 0.00000E+00
 -1       753 1.06074E+02 3.56963E+01 0.00000E+00
 -1       754 1.39739E+02 1.51581E+01 0.00000E+00
 -1       755 1.29900E+01 1.32000E+01 0.00000E+00
 -1       756 1.23322E+02 1.65855E+01 0.00000E+00
 -1       757 1.66500E+01 3.70100E+01 0.00000E+00
 -1       758 1.96500E+01 3.70100E+01 0.00000E+00
 -1       759 2.26500E+01 3.70100E+01 0.00000E+00
 -1       760 2.56500E+01 3.70100E+01 0.00000E+00
 -1       761 2.86500E+01 3.70100E+01 0.00000E+00
 -1       762 3.16500E+01 3.70100E+01 0.00000E+00
 -1       763 3.46500E+01 3.70100E+01 0.00000E+00
 -1       764 3.76500E+01 3.70100E+01 0.00000E+00
 -1       765 4.06500E+01 3.70100E+01 0.00000E+00
 -1       766 4.36500E+01 3.70100E+01 0.00000E+00
 -1       767 4.66500E+01 3.70100E+01 0.00000E+00
 -1       768 4.96500E+01 3.70100E+01 0.00000E+00
 -1       769 5.26500E+01 3.70100E+01 0.00000E+00
 -1       770 5.56500E+01 3.70100E+01 0.00000E+00
 -1       771 5.86500E+01 3.70100E+01 0.00000E+00
 -1       772 6.16500E+01 3.70100E+01 0.00000E+00
 -1       773 6.46500E+01 3.70100E+01 0.00000E+00
 -1       774 6.76500E+01 3.70100E+01 0.00000E+00
 -1       775 7.06500E+01 3.70100E+01 0.00000E+00
 -1       776 7.36500E+01 3.70100E+01 0.00000E+00
 -1       777 7.66500E+01 3.70100E+01 0.00000E+00
 -1       778 7.96500E+01 3.70100E+01 0.00000E+00
 -1       779 8.26500E+01 3.70100E+01 0.00000E+00
 -1       780 8.56500E+01 3.70100E+01 0.00000E+00
 -1       781 8.86500E+01 3.70100E+01 0.00000E+00
 -1       782 9.16500E+01 3.70100E+01 0.00000E+00
 -1       783 9.46500E+01 3.70100E+01 0.00000E+00
 -1       784 9.76500E+01 3.70100E+01 0.00000E+00
 -1       785 1.03650E+02 3.73902E+01 0.00000E+00
 -1       786 1.12650E+02 3.72226E+01 0.00000E+00
 -1       787 1.15650E+02 3.72226E+01 0.00000E+00
 -1       788 1.18650E+02 3.72226E+01 0.00000E+00
 -1       789 1.21650E+02 3.72226E+01 0.00000E+00
 -1       790 1.24650E+02 3.72226E+01 0.00000E+00
 -1       791 1.27650E+02 3.72226E+01 0.00000E+00
 -1       792 1.30650E+02 3.72226E+01 0.00000E+00
 -1       793 1.33650E+02 3.72226E+01 0.00000E+00
 -1       794 1.36264E+02 3.73383E+01 0.00000E+00
 -1       795 2.20350E+01 1.18003E+01 0.00000E+00
 -1       796 3.40350E+01 1.18003E+01 0.00000E+00
 -1       797 3.10350E+01 1.18003E+01 0.00000E+00
 -1       798 4.00350E+01 1.18003E+01 0.00000E+00
 -1       799 4.30350E+01 1.18003E+01 0.00000E+00
 -1       800 4.60350E+01 1.18003E+01 0.00000E+00
 -1       801 4.90350E+01 1.18003E+01 0.00000E+00
 -1       802 5.20350E+01 1.18003E+01 0.00000E+00
 -1       803 5.50350E+01 1.18003E+01 0.00000E+00
 -1       804 5.80350E+01 1.18003E+01 0.00000E+00
 -1       805 6.10350E+01 1.18003E+01 0.00000E+00
 -1       806 6.40350E+01 1.18003E+01 0.00000E+00
 -1       807 6.70350E+01 1.18003E+01 0.00000E+00
 -1       808 7.00350E+01 1.18003E+01 0.00000E+00
 -1       809 7.30350E+01 1.18003E+01 0.00000E+00
 -1       810 7.60350E+01 1.18003E+01 0.00000E+00
 -1       811 7.90350E+01 1.18003E+01 0.00000E+00
 -1       812 8.20350E+01 1.18003E+01 0.00000E+00
 -1       813 8.50350E+01 1.18003E+01 0.00000E+00
 -1       814 8.80350E+01 1.18003E+01 0.00000E+00
 -1       815 9.10350E+01 1.18003E+01 0.00000E+00
 -1       816 9.40350E+01 1.18003E+01 0.00000E+00
 -1       817 9.71969E+01 1.11829E+01 0.00000E+00
 -1       818 1.24035E+02 1.17552E+01 0.00000E+00
 -1       819 1.27035E+02 1.17552E+01 0.00000E+00
 -1       820 1.30035E+02 1.17552E+01 0.00000E+00
 -1       821 1.33035E+02 1.17552E+01 0.00000E+00
 -1       822 1.36035E+02 1.17552E+01 0.00000E+00
 -1       823 1.37953E+02 1.22107E+01 0.00000E+00
 -1       824 1.13676E+02 3.50252E+01 0.00000E+00
 -1       825 1.17204E+02 3.28418E+01 0.00000E+00
 -1       826 9.30327E+01 1.77438E+01 0.00000E+00
 -1       827 1.27710E+01 3.74352E+01 0.00000E+00
 -1       828 1.37010E+02 2.50250E+01 0.00000E+00
 -1       829 1.09304E+02 3.38486E+01 0.00000E+00
 -1       830 1.37010E+02 3.38250E+01 0.00000E+00
 -1       831 1.37010E+02 2.79250E+01 0.00000E+00
 -1       832 1.19733E+02 3.00872E+01 0.00000E+00
 -1       833 1.90350E+01 1.18003E+01 0.00000E+00
 -1       834 1.37010E+02 3.08750E+01 0.00000E+00
 -1       835 1.21035E+02 1.17552E+01 0.00000E+00
 -1       836 3.70350E+01 1.18003E+01 0.00000E+00
 -1       837 1.37625E+01 1.12011E+01 0.00000E+00
 -1       838 1.29900E+01 2.20250E+01 0.00000E+00
 -1       839 9.46284E+01 1.44233E+01 0.00000E+00
 -1       840 1.23691E+02 2.03381E+01 0.00000E+00
 -1       841 1.21016E+02 1.32107E+01 0.00000E+00
 -1       842 9.91731E+01 3.41653E+01 0.00000E+00
 -1       843 1.20561E+02 2.76928E+01 0.00000E+00
 -1       844 9.30291E+01 2.34768E+01 0.00000E+00
 -1       845 9.31001E+01 2.07134E+01 0.00000E+00
 -1       846 1.29900E+01 2.49750E+01 0.00000E+00
 -1       847 9.47503E+01 2.77844E+01 0.00000E+00
 -1       848 1.22543E+02 2.36483E+01 0.00000E+00
 -1       849 1.63988E+01 1.15007E+01 0.00000E+00
 -1       850 2.80350E+01 1.18003E+01 0.00000E+00
 -1       851 1.00650E+02 3.70100E+01 0.00000E+00
 -1       852 1.09650E+02 3.73902E+01 0.00000E+00
 -1       853 9.63387E+01 3.10596E+01 0.00000E+00
 -1       854 1.29900E+01 1.90875E+01 0.00000E+00
 -1       855 1.37010E+02 1.91250E+01 0.00000E+00
 -1       856 1.19458E+02 3.24430E+01 0.00000E+00
 -1       857 9.22381E+01 1.56042E+01 0.00000E+00
 -1       858 1.09400E+02 3.59989E+01 0.00000E+00
 -1       859 1.37010E+02 2.20750E+01 0.00000E+00
 -1       860 2.50350E+01 1.18003E+01 0.00000E+00
 -1       861 9.75423E+01 3.36984E+01 0.00000E+00
 -1       862 1.37141E+02 1.66331E+01 0.00000E+00
 -1       863 1.29900E+01 1.61437E+01 0.00000E+00
 -1       864 9.27479E+01 2.51104E+01 0.00000E+00
 -1       865 1.29900E+01 3.08563E+01 0.00000E+00
 -1       866 9.59127E+01 1.28031E+01 0.00000E+00
 -1       867 1.21683E+02 2.57605E+01 0.00000E+00
 -1       868 1.36637E+02 3.55817E+01 0.00000E+00
 -1       869 1.29900E+01 3.37938E+01 0.00000E+00
 -1       870 1.22085E+02 2.95605E+01 0.00000E+00
 -1       871 2.11500E+01 3.44120E+01 0.00000E+00
 -1       872 2.41500E+01 3.44120E+01 0.00000E+00
 -1       873 2.71500E+01 3.44120E+01 0.00000E+00
 -1       874 3.01500E+01 3.44120E+01 0.00000E+00
 -1       875 3.31500E+01 3.44120E+01 0.00000E+00
 -1       876 3.61500E+01 3.44120E+01 0.00000E+00
 -1       877 3.91500E+01 3.44120E+01 0.00000E+00
 -1       878 4.21500E+01 3.44120E+01 0.00000E+00
 -1       879 4.51500E+01 3.44120E+01 0.00000E+00
 -1       880 4.81500E+01 3.44120E+01 0.00000E+00
 -1       881 5.11500E+01 3.44120E+01 0.00000E+00
 -1       882 5.41500E+01 3.44120E+01 0.00000E+00
 -1       883 5.71500E+01 3.44120E+01 0.00000E+00
 -1       884 6.01500E+01 3.44120E+01 0.00000E+00
 -1       885 6.31500E+01 3.44120E+01 0.00000E+00
 -1       886 6.61500E+01 3.44120E+01 0.00000E+00
 -1       887 6.91500E+01 3.44120E+01 0.00000E+00
 -1       888 7.21500E+01 3.44120E+01 0.00000E+00
 -1       889 7.51500E+01 3.44120E+01 0.00000E+00
 -1       890 7.81500E+01 3.44120E+01 0.00000E+00
 -1       891 8.11500E+01 3.44120E+01 0.00000E+00
 -1       892 8.41500E+01 3.44120E+01 0.00000E+00
 -1       893 8.71500E+01 3.44120E+01 0.00000E+00
 -1       894 9.01500E+01 3.44120E+01 0.00000E+00
 -1       895 9.31500E+01 3.44120E+01 0.00000E+00
 -1       896 1.16607E+02 3.58194E+01 0.00000E+00
 -1       897 1.20150E+02 3.46246E+01 0.00000E+00
 -1       898 1.23150E+02 3.46246E+01 0.00000E+00
 -1       899 1.26150E+02 3.46246E+01 0.00000E+00
 -1       900 1.29150E+02 3.46246E+01 0.00000E+00
 -1       901 1.32150E+02 3.46246E+01 0.00000E+00
 -1       902 1.29900E+01 2.79188E+01 0.00000E+00
 -1       903 4.45350E+01 1.43982E+01 0.00000E+00
 -1       904 4.15350E+01 1.43982E+01 0.00000E+00
 -1       905 5.05350E+01 1.43982E+01 0.00000E+00
 -1       906 5.35350E+01 1.43982E+01 0.00000E+00
 -1       907 5.65350E+01 1.43982E+01 0.00000E+00
 -1       908 5.95350E+01 1.43982E+01 0.00000E+00
 -1       909 6.25350E+01 1.43982E+01 0.00000E+00
 -1       910 6.55350E+01 1.43982E+01 0.00000E+00
 -1       911 6.85350E+01 1.43982E+01 0.00000E+00
 -1       912 7.15350E+01 1.43982E+01 0.00000E+00
 -1       913 7.45350E+01 1.43982E+01 0.00000E+00
 -1       914 7.75350E+01 1.43982E+01 0.00000E+00
 -1       915 8.05350E+01 1.43982E+01 0.00000E+00
 -1       916 8.35350E+01 1.43982E+01 0.00000E+00
 -1       917 8.65350E+01 1.43982E+01 0.00000E+00
 -1       918 8.95350E+01 1.43982E+01 0.00000E+00
 -1       919 1.31535E+02 1.43532E+01 0.00000E+00
 -1       920 1.25535E+02 1.43532E+01 0.00000E+00
 -1       921 1.34535E+02 1.43532E+01 0.00000E+00
 -1       922 9.11842E+01 1.92713E+01 0.00000E+00
 -1       923 9.10150E+01 2.20424E+01 0.00000E+00
 -1       924 1.25571E+02 2.28445E+01 0.00000E+00
 -1       925 1.34412E+02 2.64750E+01 0.00000E+00
 -1       926 1.44274E+01 3.46401E+01 0.00000E+00
 -1       927 1.24712E+02 2.49568E+01 0.00000E+00
 -1       928 1.28535E+02 1.43532E+01 0.00000E+00
 -1       929 1.23206E+02 2.76282E+01 0.00000E+00
 -1       930 2.05350E+01 1.43982E+01 0.00000E+00
 -1       931 1.37547E+02 1.44219E+01 0.00000E+00
 -1       932 1.81500E+01 3.44120E+01 0.00000E+00
 -1       933 1.25904E+02 1.81058E+01 0.00000E+00
 -1       934 4.75350E+01 1.43982E+01 0.00000E+00
 -1       935 3.25350E+01 1.43982E+01 0.00000E+00
 -1       936 1.78988E+01 1.40987E+01 0.00000E+00
 -1       937 9.45354E+01 3.01092E+01 0.00000E+00
 -1       938 3.55350E+01 1.43982E+01 0.00000E+00
 -1       939 2.95350E+01 1.43982E+01 0.00000E+00
 -1       940 1.55880E+01 2.05562E+01 0.00000E+00
 -1       941 1.34412E+02 2.94250E+01 0.00000E+00
 -1       942 1.55880E+01 2.93875E+01 0.00000E+00
 -1       943 1.34394E+02 3.51031E+01 0.00000E+00
 -1       944 9.25744E+01 2.69280E+01 0.00000E+00
 -1       945 3.85350E+01 1.43982E+01 0.00000E+00
 -1       946 1.34412E+02 2.06000E+01 0.00000E+00
 -1       947 1.55880E+01 3.23250E+01 0.00000E+00
 -1       948 1.21810E+02 3.19163E+01 0.00000E+00
 -1       949 1.27784E+02 2.06122E+01 0.00000E+00
 -1       950 1.46944E+01 1.38222E+01 0.00000E+00
 -1       951 9.03896E+01 1.71317E+01 0.00000E+00
 -1       952 9.07339E+01 2.36760E+01 0.00000E+00
 -1       953 1.34412E+02 2.35375E+01 0.00000E+00
 -1       954 1.34543E+02 1.81081E+01 0.00000E+00
 -1       955 1.55880E+01 2.35063E+01 0.00000E+00
 -1       956 2.35350E+01 1.43982E+01 0.00000E+00
 -1       957 1.34580E+02 3.27498E+01 0.00000E+00
 -1       958 5.80350E+01 1.69963E+01 0.00000E+00
 -1       959 1.55880E+01 1.76125E+01 0.00000E+00
 -1       960 4.30350E+01 1.69963E+01 0.00000E+00
 -1       961 2.56500E+01 3.18140E+01 0.00000E+00
 -1       962 2.86500E+01 3.18140E+01 0.00000E+00
 -1       963 3.16500E+01 3.18140E+01 0.00000E+00
 -1       964 3.46500E+01 3.18140E+01 0.00000E+00
 -1       965 3.76500E+01 3.18140E+01 0.00000E+00
 -1       966 4.06500E+01 3.18140E+01 0.00000E+00
 -1       967 4.36500E+01 3.18140E+01 0.00000E+00
 -1       968 4.66500E+01 3.18140E+01 0.00000E+00
 -1       969 4.96500E+01 3.18140E+01 0.00000E+00
 -1       970 5.26500E+01 3.18140E+01 0.00000E+00
 -1       971 5.56500E+01 3.18140E+01 0.00000E+00
 -1       972 5.86500E+01 3.18140E+01 0.00000E+00
 -1       973 6.16500E+01 3.18140E+01 0.00000E+00
 -1       974 6.46500E+01 3.18140E+01 0.00000E+00
 -1       975 6.76500E+01 3.18140E+01 0.00000E+00
 -1       976 7.06500E+01 3.18140E+01 0.00000E+00
 -1       977 7.36500E+01 3.18140E+01 0.00000E+00
 -1       978 7.66500E+01 3.18140E+01 0.00000E+00
 -1       979 7.96500E+01 3.18140E+01 0.00000E+00
 -1       980 8.26500E+01 3.18140E+01 0.00000E+00
 -1       981 8.56500E+01 3.18140E+01 0.00000E+00
 -1       982 8.86500E+01 3.18140E+01 0.00000E+00
 -1       983 9.16500E+01 3.18140E+01 0.00000E+00
 -1       984 1.55880E+01 2.64469E+01 0.00000E+00
 -1       985 1.24810E+02 3.19163E+01 0.00000E+00
 -1       986 1.27810E+02 3.19163E+01 0.00000E+00
 -1       987 1.30810E+02 3.19163E+01 0.00000E+00
 -1       988 5.50350E+01 1.69963E+01 0.00000E+00
 -1       989 5.20350E+01 1.69963E+01 0.00000E+00
 -1       990 6.10350E+01 1.69963E+01 0.00000E+00
 -1       991 6.40350E+01 1.69963E+01 0.00000E+00
 -1       992 6.70350E+01 1.69963E+01 0.00000E+00
 -1       993 7.00350E+01 1.69963E+01 0.00000E+00
 -1       994 7.30350E+01 1.69963E+01 0.00000E+00
 -1       995 7.60350E+01 1.69963E+01 0.00000E+00
 -1       996 7.90350E+01 1.69963E+01 0.00000E+00
 -1       997 8.20350E+01 1.69963E+01 0.00000E+00
 -1       998 8.50350E+01 1.69963E+01 0.00000E+00
 -1       999 1.33035E+02 1.69512E+01 0.00000E+00
 -1      1000 8.88859E+01 2.05217E+01 0.00000E+00
 -1      1001 1.27548E+02 2.48798E+01 0.00000E+00
 -1      1002 1.96500E+01 3.18140E+01 0.00000E+00
 -1      1003 1.24564E+02 2.97078E+01 0.00000E+00
 -1      1004 1.26056E+02 2.72938E+01 0.00000E+00
 -1      1005 2.65350E+01 1.43982E+01 0.00000E+00
 -1      1006 2.26500E+01 3.18140E+01 0.00000E+00
 -1      1007 1.81860E+01 1.90844E+01 0.00000E+00
 -1      1008 3.10350E+01 1.69963E+01 0.00000E+00
 -1      1009 4.60350E+01 1.69963E+01 0.00000E+00
 -1      1010 9.30159E+01 3.10918E+01 0.00000E+00
 -1      1011 9.05604E+01 2.54936E+01 0.00000E+00
 -1      1012 4.00350E+01 1.69963E+01 0.00000E+00
 -1      1013 1.29660E+02 1.74827E+01 0.00000E+00
 -1      1014 8.80350E+01 1.69963E+01 0.00000E+00
 -1      1015 1.81860E+01 3.08563E+01 0.00000E+00
 -1      1016 1.29761E+02 2.26475E+01 0.00000E+00
 -1      1017 8.84605E+01 1.87590E+01 0.00000E+00
 -1      1018 1.31814E+02 2.50063E+01 0.00000E+00
 -1      1019 1.81860E+01 2.79156E+01 0.00000E+00
 -1      1020 8.86048E+01 2.21554E+01 0.00000E+00
 -1      1021 3.40350E+01 1.69963E+01 0.00000E+00
 -1      1022 1.81860E+01 2.20344E+01 0.00000E+00
 -1      1023 1.31814E+02 2.79562E+01 0.00000E+00
 -1      1024 1.89235E+01 1.68299E+01 0.00000E+00
 -1      1025 9.23595E+01 2.92527E+01 0.00000E+00
 -1      1026 4.90350E+01 1.69963E+01 0.00000E+00
 -1      1027 2.19235E+01 1.68299E+01 0.00000E+00
 -1      1028 1.31040E+02 1.92460E+01 0.00000E+00
 -1      1029 1.26933E+02 2.96050E+01 0.00000E+00
 -1      1030 3.70350E+01 1.69963E+01 0.00000E+00
 -1      1031 3.01500E+01 2.92160E+01 0.00000E+00
 -1      1032 3.31500E+01 2.92160E+01 0.00000E+00
 -1      1033 3.61500E+01 2.92160E+01 0.00000E+00
 -1      1034 3.91500E+01 2.92160E+01 0.00000E+00
 -1      1035 4.21500E+01 2.92160E+01 0.00000E+00
 -1      1036 4.51500E+01 2.92160E+01 0.00000E+00
 -1      1037 4.81500E+01 2.92160E+01 0.00000E+00
 -1      1038 5.11500E+01 2.92160E+01 0.00000E+00
 -1      1039 5.41500E+01 2.92160E+01 0.00000E+00
 -1      1040 5.71500E+01 2.92160E+01 0.00000E+00
 -1      1041 6.01500E+01 2.92160E+01 0.00000E+00
 -1      1042 6.31500E+01 2.92160E+01 0.00000E+00
 -1      1043 6.61500E+01 2.92160E+01 0.00000E+00
 -1      1044 6.91500E+01 2.92160E+01 0.00000E+00
 -1      1045 7.21500E+01 2.92160E+01 0.00000E+00
 -1      1046 7.51500E+01 2.92160E+01 0.00000E+00
 -1      1047 7.81500E+01 2.92160E+01 0.00000E+00
 -1      1048 8.11500E+01 2.92160E+01 0.00000E+00
 -1      1049 8.41500E+01 2.92160E+01 0.00000E+00
 -1      1050 8.71500E+01 2.92160E+01 0.00000E+00
 -1      1051 2.11860E+01 1.90844E+01 0.00000E+00
 -1      1052 1.81860E+01 2.49750E+01 0.00000E+00
 -1      1053 2.71500E+01 2.92160E+01 0.00000E+00
 -1      1054 5.65350E+01 1.95942E+01 0.00000E+00
 -1      1055 5.95350E+01 1.95942E+01 0.00000E+00
 -1      1056 5.35350E+01 1.95942E+01 0.00000E+00
 -1      1057 6.55350E+01 1.95942E+01 0.00000E+00
 -1      1058 6.85350E+01 1.95942E+01 0.00000E+00
 -1      1059 7.15350E+01 1.95942E+01 0.00000E+00
 -1      1060 7.45350E+01 1.95942E+01 0.00000E+00
 -1      1061 7.75350E+01 1.95942E+01 0.00000E+00
 -1      1062 8.05350E+01 1.95942E+01 0.00000E+00
 -1      1063 8.35350E+01 1.95942E+01 0.00000E+00
 -1      1064 2.49235E+01 1.68299E+01 0.00000E+00
 -1      1065 5.05350E+01 1.95942E+01 0.00000E+00
 -1      1066 8.59977E+01 1.91766E+01 0.00000E+00
 -1      1067 2.80350E+01 1.69963E+01 0.00000E+00
 -1      1068 2.41500E+01 2.92160E+01 0.00000E+00
 -1      1069 2.04180E+01 2.98648E+01 0.00000E+00
 -1      1070 6.25350E+01 1.95942E+01 0.00000E+00
 -1      1071 4.45350E+01 1.95942E+01 0.00000E+00
 -1      1072 8.84313E+01 2.39729E+01 0.00000E+00
 -1      1073 4.15350E+01 1.95942E+01 0.00000E+00
 -1      1074 1.29310E+02 2.93183E+01 0.00000E+00
 -1      1075 3.25350E+01 1.95942E+01 0.00000E+00
 -1      1076 1.30499E+02 2.55927E+01 0.00000E+00
 -1      1077 8.73012E+01 2.06660E+01 0.00000E+00
 -1      1078 2.95350E+01 1.95942E+01 0.00000E+00
 -1      1079 1.28716E+02 2.75989E+01 0.00000E+00
 -1      1080 4.75350E+01 1.95942E+01 0.00000E+00
 -1      1081 4.90350E+01 2.21922E+01 0.00000E+00
 -1      1082 6.40350E+01 2.21922E+01 0.00000E+00
 -1      1083 3.46500E+01 2.66180E+01 0.00000E+00
 -1      1084 3.76500E+01 2.66180E+01 0.00000E+00
 -1      1085 4.06500E+01 2.66180E+01 0.00000E+00
 -1      1086 4.36500E+01 2.66180E+01 0.00000E+00
 -1      1087 4.66500E+01 2.66180E+01 0.00000E+00
 -1      1088 4.96500E+01 2.66180E+01 0.00000E+00
 -1      1089 5.26500E+01 2.66180E+01 0.00000E+00
 -1      1090 5.56500E+01 2.66180E+01 0.00000E+00
 -1      1091 5.86500E+01 2.66180E+01 0.00000E+00
 -1      1092 6.16500E+01 2.66180E+01 0.00000E+00
 -1      1093 6.46500E+01 2.66180E+01 0.00000E+00
 -1      1094 6.76500E+01 2.66180E+01 0.00000E+00
 -1      1095 7.06500E+01 2.66180E+01 0.00000E+00
 -1      1096 7.36500E+01 2.66180E+01 0.00000E+00
 -1      1097 7.66500E+01 2.66180E+01 0.00000E+00
 -1      1098 7.96500E+01 2.66180E+01 0.00000E+00
 -1      1099 8.26500E+01 2.66180E+01 0.00000E+00
 -1      1100 8.56500E+01 2.66180E+01 0.00000E+00
 -1      1101 2.41860E+01 1.90844E+01 0.00000E+00
 -1      1102 2.07840E+01 2.35047E+01 0.00000E+00
 -1      1103 9.00603E+01 2.83270E+01 0.00000E+00
 -1      1104 4.60350E+01 2.21922E+01 0.00000E+00
 -1      1105 7.30350E+01 2.21922E+01 0.00000E+00
 -1      1106 5.80350E+01 2.21922E+01 0.00000E+00
 -1      1107 5.50350E+01 2.21922E+01 0.00000E+00
 -1      1108 7.00350E+01 2.21922E+01 0.00000E+00
 -1      1109 6.70350E+01 2.21922E+01 0.00000E+00
 -1      1110 7.60350E+01 2.21922E+01 0.00000E+00
 -1      1111 7.90350E+01 2.21922E+01 0.00000E+00
 -1      1112 8.20350E+01 2.21922E+01 0.00000E+00
 -1      1113 3.55350E+01 1.95942E+01 0.00000E+00
 -1      1114 2.07840E+01 2.64453E+01 0.00000E+00
 -1      1115 6.10350E+01 2.21922E+01 0.00000E+00
 -1      1116 5.20350E+01 2.21922E+01 0.00000E+00
 -1      1117 3.16500E+01 2.66180E+01 0.00000E+00
 -1      1118 2.68605E+01 1.93393E+01 0.00000E+00
 -1      1119 2.86500E+01 2.66180E+01 0.00000E+00
 -1      1120 2.56500E+01 2.66180E+01 0.00000E+00
 -1      1121 2.38223E+01 2.14220E+01 0.00000E+00
 -1      1122 3.85350E+01 1.95942E+01 0.00000E+00
 -1      1123 8.77519E+01 2.64588E+01 0.00000E+00
 -1      1124 4.30350E+01 2.21922E+01 0.00000E+00
 -1      1125 8.44977E+01 2.17746E+01 0.00000E+00
 -1      1126 3.40350E+01 2.21922E+01 0.00000E+00
 -1      1127 8.71278E+01 2.24836E+01 0.00000E+00
 -1      1128 3.10350E+01 2.21922E+01 0.00000E+00
 -1      1129 3.91500E+01 2.40200E+01 0.00000E+00
 -1      1130 2.71500E+01 2.40200E+01 0.00000E+00
 -1      1131 3.70350E+01 2.21922E+01 0.00000E+00
 -1      1132 2.39670E+01 2.37623E+01 0.00000E+00
 -1      1133 4.00350E+01 2.21922E+01 0.00000E+00
 -1      1134 0.00000E+00 4.85250E+01 0.00000E+00
 -1      1135 0.00000E+00 4.55750E+01 0.00000E+00
 -1      1136 0.00000E+00 4.26250E+01 0.00000E+00
 -1      1137 0.00000E+00 3.96750E+01 0.00000E+00
 -1      1138 0.00000E+00 3.67250E+01 0.00000E+00
 -1      1139 0.00000E+00 3.38000E+01 0.00000E+00
 -1      1140 0.00000E+00 3.08750E+01 0.00000E+00
 -1      1141 0.00000E+00 2.79250E+01 0.00000E+00
 -1      1142 0.00000E+00 2.49750E+01 0.00000E+00
 -1      1143 0.00000E+00 2.20250E+01 0.00000E+00
 -1      1144 0.00000E+00 1.90750E+01 0.00000E+00
 -1      1145 0.00000E+00 1.61500E+01 0.00000E+00
 -1      1146 0.00000E+00 1.32250E+01 0.00000E+00
 -1      1147 0.00000E+00 1.02750E+01 0.00000E+00
 -1      1148 0.00000E+00 7.32500E+00 0.00000E+00
 -1      1149 0.00000E+00 4.37500E+00 0.00000E+00
 -1      1150 0.00000E+00 1.45000E+00 0.00000E+00
 -1      1151 1.57500E+00 5.00000E+01 0.00000E+00
 -1      1152 4.65000E+00 5.00000E+01 0.00000E+00
 -1      1153 7.65000E+00 5.00000E+01 0.00000E+00
 -1      1154 1.06500E+01 5.00000E+01 0.00000E+00
 -1      1155 1.36500E+01 5.00000E+01 0.00000E+00
 -1      1156 1.66500E+01 5.00000E+01 0.00000E+00
 -1      1157 1.96500E+01 5.00000E+01 0.00000E+00
 -1      1158 2.26500E+01 5.00000E+01 0.00000E+00
 -1      1159 2.56500E+01 5.00000E+01 0.00000E+00
 -1      1160 2.86500E+01 5.00000E+01 0.00000E+00
 -1      1161 3.16500E+01 5.00000E+01 0.00000E+00
 -1      1162 3.46500E+01 5.00000E+01 0.00000E+00
 -1      1163 3.76500E+01 5.00000E+01 0.00000E+00
 -1      1164 4.06500E+01 5.00000E+01 0.00000E+00
 -1      1165 4.36500E+01 5.00000E+01 0.00000E+00
 -1      1166 4.66500E+01 5.00000E+01 0.00000E+00
 -1      1167 4.96500E+01 5.00000E+01 0.00000E+00
 -1      1168 5.26500E+01 5.00000E+01 0.00000E+00
 -1      1169 5.56500E+01 5.00000E+01 0.00000E+00
 -1      1170 5.86500E+01 5.00000E+01 0.00000E+00
 -1      1171 6.16500E+01 5.00000E+01 0.00000E+00
 -1      1172 6.46500E+01 5.00000E+01 0.00000E+00
 -1      1173 6.76500E+01 5.00000E+01 0.00000E+00
 -1      1174 7.06500E+01 5.00000E+01 0.00000E+00
 -1      1175 7.36500E+01 5.00000E+01 0.00000E+00
 -1      1176 7.66500E+01 5.00000E+01 0.00000E+00
 -1      1177 7.96500E+01 5.00000E+01 0.00000E+00
 -1      1178 8.26500E+01 5.00000E+01 0.00000E+00
 -1      1179 8.56500E+01 5.00000E+01 0.00000E+00
 -1      1180 8.86500E+01 5.00000E+01 0.00000E+00
 -1      1181 9.16500E+01 5.00000E+01 0.00000E+00
 -1      1182 9.46500E+01 5.00000E+01 0.00000E+00
 -1      1183 9.76500E+01 5.00000E+01 0.00000E+00
 -1      1184 1.00650E+02 5.00000E+01 0.00000E+00
 -1      1185 1.03650E+02 5.00000E+01 0.00000E+00
 -1      1186 1.06650E+02 5.00000E+01 0.00000E+00
 -1      1187 1.09650E+02 5.00000E+01 0.00000E+00
 -1      1188 1.12650E+02 5.00000E+01 0.00000E+00
 -1      1189 1.15650E+02 5.00000E+01 0.00000E+00
 -1      1190 1.18650E+02 5.00000E+01 0.00000E+00
 -1      1191 1.21650E+02 5.00000E+01 0.00000E+00
 -1      1192 1.24650E+02 5.00000E+01 0.00000E+00
 -1      1193 1.27650E+02 5.00000E+01 0.00000E+00
 -1      1194 1.30650E+02 5.00000E+01 0.00000E+00
 -1      1195 1.33650E+02 5.00000E+01 0.00000E+00
 -1      1196 1.36650E+02 5.00000E+01 0.00000E+00
 -1      1197 1.39650E+02 5.00000E+01 0.00000E+00
 -1      1198 1.42650E+02 5.00000E+01 0.00000E+00
 -1      1199 1.45650E+02 5.00000E+01 0.00000E+00
 -1      1200 1.48575E+02 5.00000E+01 0.00000E+00
 -1      1201 1.57500E+00 0.00000E+00 0.00000E+00
 -1      1202 4.65000E+00 0.00000E+00 0.00000E+00
 -1      1203 7.65000E+00 0.00000E+00 0.00000E+00
 -1      1204 1.06500E+01 0.00000E+00 0.00000E+00
 -1      1205 1.36500E+01 0.00000E+00 0.00000E+00
 -1      1206 1.66500E+01 0.00000E+00 0.00000E+00
 -1      1207 1.96500E+01 0.00000E+00 0.00000E+00
 -1      1208 2.26500E+01 0.00000E+00 0.00000E+00
 -1      1209 2.56500E+01 0.00000E+00 0.00000E+00
 -1      1210 2.86500E+01 0.00000E+00 0.00000E+00
 -1      1211 3.16500E+01 0.00000E+00 0.00000E+00
 -1      1212 3.46500E+01 0.00000E+00 0.00000E+00
 -1      1213 3.76500E+01 0.00000E+00 0.00000E+00
 -1      1214 4.06500E+01 0.00000E+00 0.00000E+00
 -1      1215 4.36500E+01 0.00000E+00 0.00000E+00
 -1      1216 4.66500E+01 0.00000E+00 0.00000E+00
 -1      1217 4.96500E+01 0.00000E+00 0.00000E+00
 -1      1218 5.26500E+01 0.00000E+00 0.00000E+00
 -1      1219 5.56500E+01 0.00000E+00 0.00000E+00
 -1      1220 5.86500E+01 0.00000E+00 0.00000E+00
 -1      1221 6.16500E+01 0.00000E+00 0.00000E+00
 -1      1222 6.46500E+01 0.00000E+00 0.00000E+00
 -1      1223 6.76500E+01 0.00000E+00 0.00000E+00
 -1      1224 7.06500E+01 0.00000E+00 0.00000E+00
 -1      1225 7.36500E+01 0.00000E+00 0.00000E+00
 -1      1226 7.66500E+01 0.00000E+00 0.00000E+00
 -1      1227 7.96500E+01 0.00000E+00 0.00000E+00
 -1      1228 8.26500E+01 0.00000E+00 0.00000E+00
 -1      1229 8.56500E+01 0.00000E+00 0.00000E+00
 -1      1230 8.86500E+01 0.00000E+00 0.00000E+00
 -1      1231 9.16500E+01 0.00000E+00 0.00000E+00
 -1      1232 9.46500E+01 0.00000E+00 0.00000E+00
 -1      1233 9.76500E+01 0.00000E+00 0.00000E+00
 -1      1234 1.00650E+02 0.00000E+00 0.00000E+00
 -1      1235 1.03650E+02 0.00000E+00 0.00000E+00
 -1      1236 1.06650E+02 0.00000E+00 0.00000E+00
 -1      1237 1.09650E+02 0.00000E+00 0.00000E+00
 -1      1238 1.12650E+02 0.00000E+00 0.00000E+00
 -1      1239 1.15650E+02 0.00000E+00 0.00000E+00
 -1      1240 1.18650E+02 0.00000E+00 0.00000E+00
 -1      1241 1.21650E+02 0.00000E+00 0.00000E+00
 -1      1242 1.24650E+02 0.00000E+00 0.00000E+00
 -1      1243 1.27650E+02 0.00000E+00 0.00000E+00
 -1      1244 1.30650E+02 0.00000E+00 0.00000E+00
 -1      1245 1.33650E+02 0.00000E+00 0.00000E+00
 -1      1246 1.36650E+02 0.00000E+00 0.00000E+00
 -1      1247 1.39650E+02 0.00000E+00 0.00000E+00
 -1      1248 1.42650E+02 0.00000E+00 0.00000E+00
 -1      1249 1.45650E+02 0.00000E+00 0.00000E+00
 -1      1250 1.48575E+02 0.00000E+00 0.00000E+00
 -1      1251 1.50000E+02 1.47500E+00 0.00000E+00
 -1      1252 1.50000E+02 4.42500E+00 0.00000E+00
 -1      1253 1.50000E+02 7.37500E+00 0.00000E+00
 -1      1254 1.50000E+02 1.03250E+01 0.00000E+00
 -1      1255 1.50000E+02 1.32750E+01 0.00000E+00
 -1      1256 1.50000E+02 1.62000E+01 0.00000E+00
 -1      1257 1.50000E+02 1.91250E+01 0.00000E+00
 -1      1258 1.50000E+02 2.20750E+01 0.00000E+00
 -1      1259 1.50000E+02 2.50250E+01 0.00000E+00
 -1      1260 1.50000E+02 2.79750E+01 0.00000E+00
 -1      1261 1.50000E+02 3.09250E+01 0.00000E+00
 -1      1262 1.50000E+02 3.38500E+01 0.00000E+00
 -1      1263 1.50000E+02 3.67750E+01 0.00000E+00
 -1      1264 1.50000E+02 3.97250E+01 0.00000E+00
 -1      1265 1.50000E+02 4.26750E+01 0.00000E+00
 -1      1266 1.50000E+02 4.56250E+01 0.00000E+00
 -1      1267 1.50000E+02 4.85500E+01 0.00000E+00
 -1      1268 1.14595E+02 2.07338E+01 0.00000E+00
 -1      1269 1.14285E+02 1.93044E+01 0.00000E+00
 -1      1270 1.13675E+02 1.79561E+01 0.00000E+00
 -1      1271 1.12794E+02 1.67633E+01 0.00000E+00
 -1      1272 1.11735E+02 1.58220E+01 0.00000E+00
 -1      1273 1.10450E+02 1.50875E+01 0.00000E+00
 -1      1274 1.09011E+02 1.46334E+01 0.00000E+00
 -1      1275 1.07472E+02 1.44993E+01 0.00000E+00
 -1      1276 1.05886E+02 1.47199E+01 0.00000E+00
 -1      1277 1.04454E+02 1.52628E+01 0.00000E+00
 -1      1278 1.03237E+02 1.60531E+01 0.00000E+00
 -1      1279 1.02224E+02 1.70592E+01 0.00000E+00
 -1      1280 1.01420E+02 1.82810E+01 0.00000E+00
 -1      1281 1.00891E+02 1.96294E+01 0.00000E+00
 -1      1282 1.00652E+02 2.10498E+01 0.00000E+00
 -1      1283 1.00714E+02 2.25282E+01 0.00000E+00
 -1      1284 1.01076E+02 2.39357E+01 0.00000E+00
 -1      1285 1.01741E+02 2.52698E+01 0.00000E+00
 -1      1286 1.02694E+02 2.64539E+01 0.00000E+00
 -1      1287 1.03827E+02 2.73692E+01 0.00000E+00
 -1      1288 1.05150E+02 2.80406E+01 0.00000E+00
 -1      1289 1.06672E+02 2.84306E+01 0.00000E+00
 -1      1290 1.08177E+02 2.84765E+01 0.00000E+00
 -1      1291 1.09655E+02 2.82003E+01 0.00000E+00
 -1      1292 1.11117E+02 2.75712E+01 0.00000E+00
 -1      1293 1.12297E+02 2.67209E+01 0.00000E+00
 -1      1294 1.13180E+02 2.57723E+01 0.00000E+00
 -1      1295 1.13867E+02 2.46902E+01 0.00000E+00
 -1      1296 1.14355E+02 2.34655E+01 0.00000E+00
 -1      1297 1.14606E+02 2.21543E+01 0.00000E+00
 -1      1298 1.57500E+00 4.85250E+01 0.00000E+00
 -1      1299 1.29900E+00 4.48375E+01 0.00000E+00
 -1      1300 1.29900E+00 4.63125E+01 0.00000E+00
 -1      1301 1.29900E+00 4.18875E+01 0.00000E+00
 -1      1302 1.29900E+00 4.33625E+01 0.00000E+00
 -1      1303 2.59800E+00 4.41000E+01 0.00000E+00
 -1      1304 1.29900E+00 3.89375E+01 0.00000E+00
 -1      1305 1.29900E+00 4.04125E+01 0.00000E+00
 -1      1306 2.59800E+00 4.11500E+01 0.00000E+00
 -1      1307 1.29900E+00 3.59875E+01 0.00000E+00
 -1      1308 1.29900E+00 3.74625E+01 0.00000E+00
 -1      1309 2.59800E+00 3.82000E+01 0.00000E+00
 -1      1310 1.29900E+00 3.30875E+01 0.00000E+00
 -1      1311 1.29900E+00 3.45375E+01 0.00000E+00
 -1      1312 2.59800E+00 3.52750E+01 0.00000E+00
 -1      1313 1.29900E+00 3.01375E+01 0.00000E+00
 -1      1314 1.29900E+00 3.16125E+01 0.00000E+00
 -1      1315 2.59800E+00 3.23500E+01 0.00000E+00
 -1      1316 1.29900E+00 2.71875E+01 0.00000E+00
 -1      1317 1.29900E+00 2.86625E+01 0.00000E+00
 -1      1318 2.59800E+00 2.94000E+01 0.00000E+00
 -1      1319 1.29900E+00 2.42375E+01 0.00000E+00
 -1      1320 1.29900E+00 2.57125E+01 0.00000E+00
 -1      1321 2.59800E+00 2.64500E+01 0.00000E+00
 -1      1322 1.29900E+00 2.12875E+01 0.00000E+00
 -1      1323 1.29900E+00 2.27625E+01 0.00000E+00
 -1      1324 2.59800E+00 2.35000E+01 0.00000E+00
 -1      1325 1.29900E+00 1.83375E+01 0.00000E+00
 -1      1326 1.29900E+00 1.98125E+01 0.00000E+00
 -1      1327 2.59800E+00 2.05500E+01 0.00000E+00
 -1      1328 1.29900E+00 1.54375E+01 0.00000E+00
 -1      1329 1.29900E+00 1.68875E+01 0.00000E+00
 -1      1330 2.59800E+00 1.76250E+01 0.00000E+00
 -1      1331 1.29900E+00 1.24875E+01 0.00000E+00
 -1      1332 1.29900E+00 1.39625E+01 0.00000E+00
 -1      1333 2.59800E+00 1.47000E+01 0.00000E+00
 -1      1334 1.29900E+00 9.53750E+00 0.00000E+00
 -1      1335 1.29900E+00 1.10125E+01 0.00000E+00
 -1      1336 2.59800E+00 1.17500E+01 0.00000E+00
 -1      1337 1.29900E+00 6.58750E+00 0.00000E+00
 -1      1338 1.29900E+00 8.06250E+00 0.00000E+00
 -1      1339 2.59800E+00 8.80000E+00 0.00000E+00
 -1      1340 1.29900E+00 3.63750E+00 0.00000E+00
 -1      1341 1.29900E+00 5.11250E+00 0.00000E+00
 -1      1342 2.59800E+00 5.85000E+00 0.00000E+00
 -1      1343 1.43700E+00 1.09375E+00 0.00000E+00
 -1      1344 1.43700E+00 2.54375E+00 0.00000E+00
 -1      1345 2.73600E+00 3.28125E+00 0.00000E+00
 -1      1346 3.01200E+00 1.09375E+00 0.00000E+00
 -1      1347 3.90000E+00 4.87010E+01 0.00000E+00
 -1      1348 5.40000E+00 4.87010E+01 0.00000E+00
 -1      1349 6.90000E+00 4.87010E+01 0.00000E+00
 -1      1350 8.40000E+00 4.87010E+01 0.00000E+00
 -1      1351 6.15000E+00 4.74020E+01 0.00000E+00
 -1      1352 9.90000E+00 4.87010E+01 0.00000E+00
 -1      1353 1.14000E+01 4.87010E+01 0.00000E+00
 -1      1354 9.15000E+00 4.74020E+01 0.00000E+00
 -1      1355 1.29000E+01 4.87010E+01 0.00000E+00
 -1      1356 1.44000E+01 4.87010E+01 0.00000E+00
 -1      1357 1.21500E+01 4.74020E+01 0.00000E+00
 -1      1358 1.59000E+01 4.87010E+01 0.00000E+00
 -1      1359 1.74000E+01 4.87010E+01 0.00000E+00
 -1      1360 1.51500E+01 4.74020E+01 0.00000E+00
 -1      1361 1.89000E+01 4.87010E+01 0.00000E+00
 -1      1362 2.04000E+01 4.87010E+01 0.00000E+00
 -1      1363 1.81500E+01 4.74020E+01 0.00000E+00
 -1      1364 2.19000E+01 4.87010E+01 0.00000E+00
 -1      1365 2.34000E+01 4.87010E+01 0.00000E+00
 -1      1366 2.11500E+01 4.74020E+01 0.00000E+00
 -1      1367 2.49000E+01 4.87010E+01 0.00000E+00
 -1      1368 2.64000E+01 4.87010E+01 0.00000E+00
 -1      1369 2.41500E+01 4.74020E+01 0.00000E+00
 -1      1370 2.79000E+01 4.87010E+01 0.00000E+00
 -1      1371 2.94000E+01 4.87010E+01 0.00000E+00
 -1      1372 2.71500E+01 4.74020E+01 0.00000E+00
 -1      1373 3.09000E+01 4.87010E+01 0.00000E+00
 -1      1374 3.24000E+01 4.87010E+01 0.00000E+00
 -1      1375 3.01500E+01 4.74020E+01 0.00000E+00
 -1      1376 3.39000E+01 4.87010E+01 0.00000E+00
 -1      1377 3.54000E+01 4.87010E+01 0.00000E+00
 -1      1378 3.31500E+01 4.74020E+01 0.00000E+00
 -1      1379 3.69000E+01 4.87010E+01 0.00000E+00
 -1      1380 3.84000E+01 4.87010E+01 0.00000E+00
 -1      1381 3.61500E+01 4.74020E+01 0.00000E+00
 -1      1382 3.99000E+01 4.87010E+01 0.00000E+00
 -1      1383 4.14000E+01 4.87010E+01 0.00000E+00
 -1      1384 3.91500E+01 4.74020E+01 0.00000E+00
 -1      1385 4.29000E+01 4.87010E+01 0.00000E+00
 -1      1386 4.44000E+01 4.87010E+01 0.00000E+00
 -1      1387 4.21500E+01 4.74020E+01 0.00000E+00
 -1      1388 4.59000E+01 4.87010E+01 0.00000E+00
 -1      1389 4.74000E+01 4.87010E+01 0.00000E+00
 -1      1390 4.51500E+01 4.74020E+01 0.00000E+00
 -1      1391 4.89000E+01 4.87010E+01 0.00000E+00
 -1      1392 5.04000E+01 4.87010E+01 0.00000E+00
 -1      1393 4.81500E+01 4.74020E+01 0.00000E+00
 -1      1394 5.19000E+01 4.87010E+01 0.00000E+00
 -1      1395 5.34000E+01 4.87010E+01 0.00000E+00
 -1      1396 5.11500E+01 4.74020E+01 0.00000E+00
 -1      1397 5.49000E+01 4.87010E+01 0.00000E+00
 -1      1398 5.64000E+01 4.87010E+01 0.00000E+00
 -1      1399 5.41500E+01 4.74020E+01 0.00000E+00
 -1      1400 5.79000E+01 4.87010E+01 0.00000E+00
 -1      1401 5.94000E+01 4.87010E+01 0.00000E+00
 -1      1402 5.71500E+01 4.74020E+01 0.00000E+00
 -1      1403 6.09000E+01 4.87010E+01 0.00000E+00
 -1      1404 6.24000E+01 4.87010E+01 0.00000E+00
 -1      1405 6.01500E+01 4.74020E+01 0.00000E+00
 -1      1406 6.39000E+01 4.87010E+01 0.00000E+00
 -1      1407 6.54000E+01 4.87010E+01 0.00000E+00
 -1      1408 6.31500E+01 4.74020E+01 0.00000E+00
 -1      1409 6.69000E+01 4.87010E+01 0.00000E+00
 -1      1410 6.84000E+01 4.87010E+01 0.00000E+00
 -1      1411 6.61500E+01 4.74020E+01 0.00000E+00
 -1      1412 6.99000E+01 4.87010E+01 0.00000E+00
 -1      1413 7.14000E+01 4.87010E+01 0.00000E+00
 -1      1414 6.91500E+01 4.74020E+01 0.00000E+00
 -1      1415 7.29000E+01 4.87010E+01 0.00000E+00
 -1      1416 7.44000E+01 4.87010E+01 0.00000E+00
 -1      1417 7.21500E+01 4.74020E+01 0.00000E+00
 -1      1418 7.59000E+01 4.87010E+01 0.00000E+00
 -1      1419 7.74000E+01 4.87010E+01 0.00000E+00
 -1      1420 7.51500E+01 4.74020E+01 0.00000E+00
 -1      1421 7.89000E+01 4.87010E+01 0.00000E+00
 -1      1422 8.04000E+01 4.87010E+01 0.00000E+00
 -1      1423 7.81500E+01 4.74020E+01 0.00000E+00
 -1      1424 8.19000E+01 4.87010E+01 0.00000E+00
 -1      1425 8.34000E+01 4.87010E+01 0.00000E+00
 -1      1426 8.11500E+01 4.74020E+01 0.00000E+00
 -1      1427 8.49000E+01 4.87010E+01 0.00000E+00
 -1      1428 8.64000E+01 4.87010E+01 0.00000E+00
 -1      1429 8.41500E+01 4.74020E+01 0.00000E+00
 -1      1430 8.79000E+01 4.87010E+01 0.00000E+00
 -1      1431 8.94000E+01 4.87010E+01 0.00000E+00
 -1      1432 8.71500E+01 4.74020E+01 0.00000E+00
 -1      1433 9.09000E+01 4.87010E+01 0.00000E+00
 -1      1434 9.24000E+01 4.87010E+01 0.00000E+00
 -1      1435 9.01500E+01 4.74020E+01 0.00000E+00
 -1      1436 9.39000E+01 4.87010E+01 0.00000E+00
 -1      1437 9.54000E+01 4.87010E+01 0.00000E+00
 -1      1438 9.31500E+01 4.74020E+01 0.00000E+00
 -1      1439 9.69000E+01 4.87010E+01 0.00000E+00
 -1      1440 9.84000E+01 4.87010E+01 0.00000E+00
 -1      1441 9.61500E+01 4.74020E+01 0.00000E+00
 -1      1442 9.99000E+01 4.87010E+01 0.00000E+00
 -1      1443 1.01400E+02 4.87010E+01 0.00000E+00
 -1      1444 9.91500E+01 4.74020E+01 0.00000E+00
 -1      1445 1.02900E+02 4.87010E+01 0.00000E+00
 -1      1446 1.04400E+02 4.87010E+01 0.00000E+00
 -1      1447 1.02150E+02 4.74020E+01 0.00000E+00
 -1      1448 1.05900E+02 4.87010E+01 0.00000E+00
 -1      1449 1.07400E+02 4.87010E+01 0.00000E+00
 -1      1450 1.05150E+02 4.74020E+01 0.00000E+00
 -1      1451 1.08900E+02 4.87010E+01 0.00000E+00
 -1      1452 1.10400E+02 4.87010E+01 0.00000E+00
 -1      1453 1.08150E+02 4.74020E+01 0.00000E+00
 -1      1454 1.11900E+02 4.87010E+01 0.00000E+00
 -1      1455 1.13400E+02 4.87010E+01 0.00000E+00
 -1      1456 1.11150E+02 4.74020E+01 0.00000E+00
 -1      1457 1.14900E+02 4.87010E+01 0.00000E+00
 -1      1458 1.16400E+02 4.87010E+01 0.00000E+00
 -1      1459 1.14150E+02 4.74020E+01 0.00000E+00
 -1      1460 1.17900E+02 4.87010E+01 0.00000E+00
 -1      1461 1.19400E+02 4.87010E+01 0.00000E+00
 -1      1462 1.17150E+02 4.74020E+01 0.00000E+00
 -1      1463 1.20900E+02 4.87010E+01 0.00000E+00
 -1      1464 1.22400E+02 4.87010E+01 0.00000E+00
 -1      1465 1.20150E+02 4.74020E+01 0.00000E+00
 -1      1466 1.23900E+02 4.87010E+01 0.00000E+00
 -1      1467 1.25400E+02 4.87010E+01 0.00000E+00
 -1      1468 1.23150E+02 4.74020E+01 0.00000E+00
 -1      1469 1.26900E+02 4.87010E+01 0.00000E+00
 -1      1470 1.28400E+02 4.87010E+01 0.00000E+00
 -1      1471 1.26150E+02 4.74020E+01 0.00000E+00
 -1      1472 1.29900E+02 4.87010E+01 0.00000E+00
 -1      1473 1.31400E+02 4.87010E+01 0.00000E+00
 -1      1474 1.29150E+02 4.74020E+01 0.00000E+00
 -1      1475 1.32900E+02 4.87010E+01 0.00000E+00
 -1      1476 1.34400E+02 4.87010E+01 0.00000E+00
 -1      1477 1.32150E+02 4.74020E+01 0.00000E+00
 -1      1478 1.35900E+02 4.87010E+01 0.00000E+00
 -1      1479 1.37400E+02 4.87010E+01 0.00000E+00
 -1      1480 1.35150E+02 4.74020E+01 0.00000E+00
 -1      1481 1.38900E+02 4.87010E+01 0.00000E+00
 -1      1482 1.40400E+02 4.87010E+01 0.00000E+00
 -1      1483 1.38150E+02 4.74020E+01 0.00000E+00
 -1      1484 1.41900E+02 4.87010E+01 0.00000E+00
 -1      1485 1.43400E+02 4.87010E+01 0.00000E+00
 -1      1486 1.41150E+02 4.74020E+01 0.00000E+00
 -1      1487 1.44900E+02 4.87010E+01 0.00000E+00
 -1      1488 1.46400E+02 4.87010E+01 0.00000E+00
 -1      1489 1.44150E+02 4.74020E+01 0.00000E+00
 -1      1490 1.48575E+02 4.85500E+01 0.00000E+00
 -1      1491 1.47825E+02 4.72510E+01 0.00000E+00
 -1      1492 6.01200E+00 1.09375E+00 0.00000E+00
 -1      1493 4.51200E+00 1.09375E+00 0.00000E+00
 -1      1494 4.37400E+00 2.18750E+00 0.00000E+00
 -1      1495 9.01200E+00 1.09375E+00 0.00000E+00
 -1      1496 7.51200E+00 1.09375E+00 0.00000E+00
 -1      1497 7.37400E+00 2.18750E+00 0.00000E+00
 -1      1498 1.20120E+01 1.09375E+00 0.00000E+00
 -1      1499 1.05120E+01 1.09375E+00 0.00000E+00
 -1      1500 1.03740E+01 2.18750E+00 0.00000E+00
 -1      1501 1.50120E+01 1.09375E+00 0.00000E+00
 -1      1502 1.35120E+01 1.09375E+00 0.00000E+00
 -1      1503 1.33740E+01 2.18750E+00 0.00000E+00
 -1      1504 1.80120E+01 1.09375E+00 0.00000E+00
 -1      1505 1.65120E+01 1.09375E+00 0.00000E+00
 -1      1506 1.63740E+01 2.18750E+00 0.00000E+00
 -1      1507 2.10120E+01 1.09375E+00 0.00000E+00
 -1      1508 1.95120E+01 1.09375E+00 0.00000E+00
 -1      1509 1.93740E+01 2.18750E+00 0.00000E+00
 -1      1510 2.40120E+01 1.09375E+00 0.00000E+00
 -1      1511 2.25120E+01 1.09375E+00 0.00000E+00
 -1      1512 2.23740E+01 2.18750E+00 0.00000E+00
 -1      1513 2.70120E+01 1.09375E+00 0.00000E+00
 -1      1514 2.55120E+01 1.09375E+00 0.00000E+00
 -1      1515 2.53740E+01 2.18750E+00 0.00000E+00
 -1      1516 3.00120E+01 1.09375E+00 0.00000E+00
 -1      1517 2.85120E+01 1.09375E+00 0.00000E+00
 -1      1518 2.83740E+01 2.18750E+00 0.00000E+00
 -1      1519 3.30120E+01 1.09375E+00 0.00000E+00
 -1      1520 3.15120E+01 1.09375E+00 0.00000E+00
 -1      1521 3.13740E+01 2.18750E+00 0.00000E+00
 -1      1522 3.60120E+01 1.09375E+00 0.00000E+00
 -1      1523 3.45120E+01 1.09375E+00 0.00000E+00
 -1      1524 3.43740E+01 2.18750E+00 0.00000E+00
 -1      1525 3.90120E+01 1.09375E+00 0.00000E+00
 -1      1526 3.75120E+01 1.09375E+00 0.00000E+00
 -1      1527 3.73740E+01 2.18750E+00 0.00000E+00
 -1      1528 4.20120E+01 1.09375E+00 0.00000E+00
 -1      1529 4.05120E+01 1.09375E+00 0.00000E+00
 -1      1530 4.03740E+01 2.18750E+00 0.00000E+00
 -1      1531 4.50120E+01 1.09375E+00 0.00000E+00
 -1      1532 4.35120E+01 1.09375E+00 0.00000E+00
 -1      1533 4.33740E+01 2.18750E+00 0.00000E+00
 -1      1534 4.80120E+01 1.09375E+00 0.00000E+00
 -1      1535 4.65120E+01 1.09375E+00 0.00000E+00
 -1      1536 4.63740E+01 2.18750E+00 0.00000E+00
 -1      1537 5.10120E+01 1.09375E+00 0.00000E+00
 -1      1538 4.95120E+01 1.09375E+00 0.00000E+00
 -1      1539 4.93740E+01 2.18750E+00 0.00000E+00
 -1      1540 5.40120E+01 1.09375E+00 0.00000E+00
 -1      1541 5.25120E+01 1.09375E+00 0.00000E+00
 -1      1542 5.23740E+01 2.18750E+00 0.00000E+00
 -1      1543 5.70120E+01 1.09375E+00 0.00000E+00
 -1      1544 5.55120E+01 1.09375E+00 0.00000E+00
 -1      1545 5.53740E+01 2.18750E+00 0.00000E+00
 -1      1546 6.00120E+01 1.09375E+00 0.00000E+00
 -1      1547 5.85120E+01 1.09375E+00 0.00000E+00
 -1      1548 5.83740E+01 2.18750E+00 0.00000E+00
 -1      1549 6.30120E+01 1.09375E+00 0.00000E+00
 -1      1550 6.15120E+01 1.09375E+00 0.00000E+00
 -1      1551 6.13740E+01 2.18750E+00 0.00000E+00
 -1      1552 6.60120E+01 1.09375E+00 0.00000E+00
 -1      1553 6.45120E+01 1.09375E+00 0.00000E+00
 -1      1554 6.43740E+01 2.18750E+00 0.00000E+00
 -1      1555 6.90120E+01 1.09375E+00 0.00000E+00
 -1      1556 6.75120E+01 1.09375E+00 0.00000E+00
 -1      1557 6.73740E+01 2.18750E+00 0.00000E+00
 -1      1558 7.20120E+01 1.09375E+00 0.00000E+00
 -1      1559 7.05120E+01 1.09375E+00 0.00000E+00
 -1      1560 7.03740E+01 2.18750E+00 0.00000E+00
 -1      1561 7.50120E+01 1.09375E+00 0.00000E+00
 -1      1562 7.35120E+01 1.09375E+00 0.00000E+00
 -1      1563 7.33740E+01 2.18750E+00 0.00000E+00
 -1      1564 7.80120E+01 1.09375E+00 0.00000E+00
 -1      1565 7.65120E+01 1.09375E+00 0.00000E+00
 -1      1566 7.63740E+01 2.18750E+00 0.00000E+00
 -1      1567 8.10120E+01 1.09375E+00 0.00000E+00
 -1      1568 7.95120E+01 1.09375E+00 0.00000E+00
 -1      1569 7.93740E+01 2.18750E+00 0.00000E+00
 -1      1570 8.40120E+01 1.09375E+00 0.00000E+00
 -1      1571 8.25120E+01 1.09375E+00 0.00000E+00
 -1      1572 8.23740E+01 2.18750E+00 0.00000E+00
 -1      1573 8.70120E+01 1.09375E+00 0.00000E+00
 -1      1574 8.55120E+01 1.09375E+00 0.00000E+00
 -1      1575 8.53740E+01 2.18750E+00 0.00000E+00
 -1      1576 9.00120E+01 1.09375E+00 0.00000E+00
 -1      1577 8.85120E+01 1.09375E+00 0.00000E+00
 -1      1578 8.83740E+01 2.18750E+00 0.00000E+00
 -1      1579 9.30120E+01 1.09375E+00 0.00000E+00
 -1      1580 9.15120E+01 1.09375E+00 0.00000E+00
 -1      1581 9.13740E+01 2.18750E+00 0.00000E+00
 -1      1582 9.60120E+01 1.09375E+00 0.00000E+00
 -1      1583 9.45120E+01 1.09375E+00 0.00000E+00
 -1      1584 9.43740E+01 2.18750E+00 0.00000E+00
 -1      1585 9.90120E+01 1.09375E+00 0.00000E+00
 -1      1586 9.75120E+01 1.09375E+00 0.00000E+00
 -1      1587 9.73740E+01 2.18750E+00 0.00000E+00
 -1      1588 1.02012E+02 1.09375E+00 0.00000E+00
 -1      1589 1.00512E+02 1.09375E+00 0.00000E+00
 -1      1590 1.00374E+02 2.18750E+00 0.00000E+00
 -1      1591 1.05012E+02 1.09375E+00 0.00000E+00
 -1      1592 1.03512E+02 1.09375E+00 0.00000E+00
 -1      1593 1.03374E+02 2.18750E+00 0.00000E+00
 -1      1594 1.08012E+02 1.09375E+00 0.00000E+00
 -1      1595 1.06512E+02 1.09375E+00 0.00000E+00
 -1      1596 1.06374E+02 2.18750E+00 0.00000E+00
 -1      1597 1.11012E+02 1.09375E+00 0.00000E+00
 -1      1598 1.09512E+02 1.09375E+00 0.00000E+00
 -1      1599 1.09374E+02 2.18750E+00 0.00000E+00
 -1      1600 1.14012E+02 1.09375E+00 0.00000E+00
 -1      1601 1.12512E+02 1.09375E+00 0.00000E+00
 -1      1602 1.12374E+02 2.18750E+00 0.00000E+00
 -1      1603 1.17012E+02 1.09375E+00 0.00000E+00
 -1      1604 1.15512E+02 1.09375E+00 0.00000E+00
 -1      1605 1.15374E+02 2.18750E+00 0.00000E+00
 -1      1606 1.20012E+02 1.09375E+00 0.00000E+00
 -1      1607 1.18512E+02 1.09375E+00 0.00000E+00
 -1      1608 1.18374E+02 2.18750E+00 0.00000E+00
 -1      1609 1.23012E+02 1.09375E+00 0.00000E+00
 -1      1610 1.21512E+02 1.09375E+00 0.00000E+00
 -1      1611 1.21374E+02 2.18750E+00 0.00000E+00
 -1      1612 1.26012E+02 1.09375E+00 0.00000E+00
 -1      1613 1.24512E+02 1.09375E+00 0.00000E+00
 -1      1614 1.24374E+02 2.18750E+00 0.00000E+00
 -1      1615 1.29012E+02 1.09375E+00 0.00000E+00
 -1      1616 1.27512E+02 1.09375E+00 0.00000E+00
 -1      1617 1.27374E+02 2.18750E+00 0.00000E+00
 -1      1618 1.32012E+02 1.09375E+00 0.00000E+00
 -1      1619 1.30512E+02 1.09375E+00 0.00000E+00
 -1      1620 1.30374E+02 2.18750E+00 0.00000E+00
 -1      1621 1.35012E+02 1.09375E+00 0.00000E+00
 -1      1622 1.33512E+02 1.09375E+00 0.00000E+00
 -1      1623 1.33374E+02 2.18750E+00 0.00000E+00
 -1      1624 1.38012E+02 1.09375E+00 0.00000E+00
 -1      1625 1.36512E+02 1.09375E+00 0.00000E+00
 -1      1626 1.36374E+02 2.18750E+00 0.00000E+00
 -1      1627 1.41012E+02 1.09375E+00 0.00000E+00
 -1      1628 1.39512E+02 1.09375E+00 0.00000E+00
 -1      1629 1.39374E+02 2.18750E+00 0.00000E+00
 -1      1630 1.44012E+02 1.09375E+00 0.00000E+00
 -1      1631 1.42512E+02 1.09375E+00 0.00000E+00
 -1      1632 1.42374E+02 2.18750E+00 0.00000E+00
 -1      1633 1.47012E+02 1.09375E+00 0.00000E+00
 -1      1634 1.45512E+02 1.09375E+00 0.00000E+00
 -1      1635 1.45374E+02 2.18750E+00 0.00000E+00
 -1      1636 1.48575E+02 1.47500E+00 0.00000E+00
 -1      1637 1.48701E+02 5.16250E+00 0.00000E+00
 -1      1638 1.48701E+02 3.68750E+00 0.00000E+00
 -1      1639 1.48701E+02 8.11250E+00 0.00000E+00
 -1      1640 1.48701E+02 6.63750E+00 0.00000E+00
 -1      1641 1.47402E+02 5.90000E+00 0.00000E+00
 -1      1642 1.48701E+02 1.10625E+01 0.00000E+00
 -1      1643 1.48701E+02 9.58750E+00 0.00000E+00
 -1      1644 1.47402E+02 8.85000E+00 0.00000E+00
 -1      1645 1.48701E+02 1.40125E+01 0.00000E+00
 -1      1646 1.48701E+02 1.25375E+01 0.00000E+00
 -1      1647 1.47402E+02 1.18000E+01 0.00000E+00
 -1      1648 1.48701E+02 1.69125E+01 0.00000E+00
 -1      1649 1.48701E+02 1.54625E+01 0.00000E+00
 -1      1650 1.47402E+02 1.47250E+01 0.00000E+00
 -1      1651 1.48701E+02 1.98625E+01 0.00000E+00
 -1      1652 1.48701E+02 1.83875E+01 0.00000E+00
 -1      1653 1.47402E+02 1.76500E+01 0.00000E+00
 -1      1654 1.48701E+02 2.28125E+01 0.00000E+00
 -1      1655 1.48701E+02 2.13375E+01 0.00000E+00
 -1      1656 1.47402E+02 2.06000E+01 0.00000E+00
 -1      1657 1.48701E+02 2.57625E+01 0.00000E+00
 -1      1658 1.48701E+02 2.42875E+01 0.00000E+00
 -1      1659 1.47402E+02 2.35500E+01 0.00000E+00
 -1      1660 1.48701E+02 2.87125E+01 0.00000E+00
 -1      1661 1.48701E+02 2.72375E+01 0.00000E+00
 -1      1662 1.47402E+02 2.65000E+01 0.00000E+00
 -1      1663 1.48701E+02 3.16625E+01 0.00000E+00
 -1      1664 1.48701E+02 3.01875E+01 0.00000E+00
 -1      1665 1.47402E+02 2.94500E+01 0.00000E+00
 -1      1666 1.48701E+02 3.45625E+01 0.00000E+00
 -1      1667 1.48701E+02 3.31125E+01 0.00000E+00
 -1      1668 1.47402E+02 3.23750E+01 0.00000E+00
 -1      1669 1.48701E+02 3.75125E+01 0.00000E+00
 -1      1670 1.48701E+02 3.60375E+01 0.00000E+00
 -1      1671 1.47402E+02 3.53000E+01 0.00000E+00
 -1      1672 1.48701E+02 4.04625E+01 0.00000E+00
 -1      1673 1.48701E+02 3.89875E+01 0.00000E+00
 -1      1674 1.47402E+02 3.82500E+01 0.00000E+00
 -1      1675 1.48701E+02 4.34125E+01 0.00000E+00
 -1      1676 1.48701E+02 4.19375E+01 0.00000E+00
 -1      1677 1.47402E+02 4.12000E+01 0.00000E+00
 -1      1678 1.48263E+02 4.60692E+01 0.00000E+00
 -1      1679 1.48263E+02 4.45942E+01 0.00000E+00
 -1      1680 1.46964E+02 4.38568E+01 0.00000E+00
 -1      1681 1.46088E+02 4.62202E+01 0.00000E+00
 -1      1682 1.15198E+02 2.02836E+01 0.00000E+00
 -1      1683 1.15281E+02 2.10426E+01 0.00000E+00
 -1      1684 1.14718E+02 1.87934E+01 0.00000E+00
 -1      1685 1.14937E+02 1.94575E+01 0.00000E+00
 -1      1686 1.14072E+02 1.72714E+01 0.00000E+00
 -1      1687 1.14466E+02 1.79445E+01 0.00000E+00
 -1      1688 1.12976E+02 1.61184E+01 0.00000E+00
 -1      1689 1.13452E+02 1.66362E+01 0.00000E+00
 -1      1690 1.11779E+02 1.51512E+01 0.00000E+00
 -1      1691 1.12358E+02 1.55690E+01 0.00000E+00
 -1      1692 1.10326E+02 1.44170E+01 0.00000E+00
 -1      1693 1.11028E+02 1.47247E+01 0.00000E+00
 -1      1694 1.08766E+02 1.39638E+01 0.00000E+00
 -1      1695 1.09495E+02 1.41097E+01 0.00000E+00
 -1      1696 1.07055E+02 1.38231E+01 0.00000E+00
 -1      1697 1.07856E+02 1.38042E+01 0.00000E+00
 -1      1698 1.05317E+02 1.41151E+01 0.00000E+00
 -1      1699 1.06091E+02 1.39151E+01 0.00000E+00
 -1      1700 1.03851E+02 1.48861E+01 0.00000E+00
 -1      1701 1.04503E+02 1.45534E+01 0.00000E+00
 -1      1702 1.02600E+02 1.58365E+01 0.00000E+00
 -1      1703 1.03159E+02 1.53843E+01 0.00000E+00
 -1      1704 1.01558E+02 1.69717E+01 0.00000E+00
 -1      1705 1.02008E+02 1.64237E+01 0.00000E+00
 -1      1706 1.00670E+02 1.83175E+01 0.00000E+00
 -1      1707 1.01017E+02 1.76478E+01 0.00000E+00
 -1      1708 1.00248E+02 1.98114E+01 0.00000E+00
 -1      1709 1.00433E+02 1.91422E+01 0.00000E+00
 -1      1710 9.99789E+01 2.13806E+01 0.00000E+00
 -1      1711 1.00027E+02 2.06360E+01 0.00000E+00
 -1      1712 1.00165E+02 2.29807E+01 0.00000E+00
 -1      1713 1.00057E+02 2.22552E+01 0.00000E+00
 -1      1714 1.00628E+02 2.44858E+01 0.00000E+00
 -1      1715 1.00378E+02 2.38111E+01 0.00000E+00
 -1      1716 1.01333E+02 2.59886E+01 0.00000E+00
 -1      1717 1.00917E+02 2.53391E+01 0.00000E+00
 -1      1718 1.02530E+02 2.71489E+01 0.00000E+00
 -1      1719 1.02000E+02 2.66198E+01 0.00000E+00
 -1      1720 1.03812E+02 2.80401E+01 0.00000E+00
 -1      1721 1.03220E+02 2.76554E+01 0.00000E+00
 -1      1722 1.05254E+02 2.88615E+01 0.00000E+00
 -1      1723 1.04527E+02 2.85853E+01 0.00000E+00
 -1      1724 1.06965E+02 2.92069E+01 0.00000E+00
 -1      1725 1.06179E+02 2.90974E+01 0.00000E+00
 -1      1726 1.08576E+02 2.90174E+01 0.00000E+00
 -1      1727 1.07867E+02 2.90722E+01 0.00000E+00
 -1      1728 1.10220E+02 2.87038E+01 0.00000E+00
 -1      1729 1.09461E+02 2.89321E+01 0.00000E+00
 -1      1730 1.11826E+02 2.80041E+01 0.00000E+00
 -1      1731 1.11132E+02 2.84016E+01 0.00000E+00
 -1      1732 1.12925E+02 2.69324E+01 0.00000E+00
 -1      1733 1.12436E+02 2.73684E+01 0.00000E+00
 -1      1734 1.13833E+02 2.58707E+01 0.00000E+00
 -1      1735 1.13441E+02 2.63784E+01 0.00000E+00
 -1      1736 1.14526E+02 2.46684E+01 0.00000E+00
 -1      1737 1.14234E+02 2.52382E+01 0.00000E+00
 -1      1738 1.14907E+02 2.33669E+01 0.00000E+00
 -1      1739 1.14717E+02 2.40177E+01 0.00000E+00
 -1      1740 1.15110E+02 2.45791E+01 0.00000E+00
 -1      1741 1.15252E+02 2.18852E+01 0.00000E+00
 -1      1742 1.15190E+02 2.25393E+01 0.00000E+00
 -1      1743 1.13042E+02 1.54179E+01 0.00000E+00
 -1      1744 1.14281E+02 1.66025E+01 0.00000E+00
 -1      1745 1.48437E+02 2.56875E+00 0.00000E+00
 -1      1746 1.47138E+02 3.30625E+00 0.00000E+00
 -1      1747 1.15664E+02 1.97617E+01 0.00000E+00
 -1      1748 1.15152E+02 1.80866E+01 0.00000E+00
 -1      1749 1.15896E+02 2.14305E+01 0.00000E+00
 -1      1750 1.11672E+02 1.44422E+01 0.00000E+00
 -1      1751 1.10089E+02 1.37085E+01 0.00000E+00
 -1      1752 1.08348E+02 1.32416E+01 0.00000E+00
 -1      1753 1.06474E+02 1.31740E+01 0.00000E+00
 -1      1754 1.04697E+02 1.37042E+01 0.00000E+00
 -1      1755 1.03191E+02 1.46407E+01 0.00000E+00
 -1      1756 1.01906E+02 1.57261E+01 0.00000E+00
 -1      1757 1.00772E+02 1.69895E+01 0.00000E+00
 -1      1758 9.99932E+01 1.84903E+01 0.00000E+00
 -1      1759 9.95351E+01 2.01396E+01 0.00000E+00
 -1      1760 9.93919E+01 2.18388E+01 0.00000E+00
 -1      1761 9.96825E+01 2.35438E+01 0.00000E+00
 -1      1762 1.00184E+02 2.52275E+01 0.00000E+00
 -1      1763 1.01140E+02 2.67120E+01 0.00000E+00
 -1      1764 1.02497E+02 2.78497E+01 0.00000E+00
 -1      1765 1.03901E+02 2.89015E+01 0.00000E+00
 -1      1766 1.05540E+02 2.96826E+01 0.00000E+00
 -1      1767 1.07367E+02 2.97839E+01 0.00000E+00
 -1      1768 1.09154E+02 2.95639E+01 0.00000E+00
 -1      1769 1.10952E+02 2.91765E+01 0.00000E+00
 -1      1770 1.12474E+02 2.82385E+01 0.00000E+00
 -1      1771 1.13600E+02 2.70487E+01 0.00000E+00
 -1      1772 1.14518E+02 2.58623E+01 0.00000E+00
 -1      1773 2.87400E+00 4.77875E+01 0.00000E+00
 -1      1774 1.15583E+02 2.31007E+01 0.00000E+00
 -1      1775 3.89700E+00 4.04125E+01 0.00000E+00
 -1      1776 3.89700E+00 4.18875E+01 0.00000E+00
 -1      1777 3.89700E+00 4.33625E+01 0.00000E+00
 -1      1778 3.89700E+00 4.48375E+01 0.00000E+00
 -1      1779 5.19600E+00 4.26250E+01 0.00000E+00
 -1      1780 3.89700E+00 3.45500E+01 0.00000E+00
 -1      1781 3.89700E+00 3.60000E+01 0.00000E+00
 -1      1782 3.89700E+00 3.16000E+01 0.00000E+00
 -1      1783 3.89700E+00 3.30750E+01 0.00000E+00
 -1      1784 5.19600E+00 3.38000E+01 0.00000E+00
 -1      1785 3.89700E+00 2.86500E+01 0.00000E+00
 -1      1786 3.89700E+00 3.01250E+01 0.00000E+00
 -1      1787 5.19600E+00 3.08500E+01 0.00000E+00
 -1      1788 3.89700E+00 2.57000E+01 0.00000E+00
 -1      1789 3.89700E+00 2.71750E+01 0.00000E+00
 -1      1790 5.19600E+00 2.79000E+01 0.00000E+00
 -1      1791 3.89700E+00 2.27500E+01 0.00000E+00
 -1      1792 3.89700E+00 2.42250E+01 0.00000E+00
 -1      1793 5.19600E+00 2.49500E+01 0.00000E+00
 -1      1794 3.89700E+00 1.98000E+01 0.00000E+00
 -1      1795 3.89700E+00 2.12750E+01 0.00000E+00
 -1      1796 5.19600E+00 2.20000E+01 0.00000E+00
 -1      1797 3.89700E+00 1.69000E+01 0.00000E+00
 -1      1798 3.89700E+00 1.83500E+01 0.00000E+00
 -1      1799 5.19600E+00 1.90750E+01 0.00000E+00
 -1      1800 3.89700E+00 1.39500E+01 0.00000E+00
 -1      1801 3.89700E+00 1.54250E+01 0.00000E+00
 -1      1802 5.19600E+00 1.61500E+01 0.00000E+00
 -1      1803 3.89700E+00 1.10000E+01 0.00000E+00
 -1      1804 3.89700E+00 1.24750E+01 0.00000E+00
 -1      1805 5.19600E+00 1.32000E+01 0.00000E+00
 -1      1806 3.89700E+00 8.05000E+00 0.00000E+00
 -1      1807 3.89700E+00 9.52500E+00 0.00000E+00
 -1      1808 5.19600E+00 1.02500E+01 0.00000E+00
 -1      1809 3.89700E+00 5.10000E+00 0.00000E+00
 -1      1810 3.89700E+00 6.57500E+00 0.00000E+00
 -1      1811 5.19600E+00 7.30000E+00 0.00000E+00
 -1      1812 4.20450E+00 3.09687E+00 0.00000E+00
 -1      1813 4.06650E+00 4.19063E+00 0.00000E+00
 -1      1814 5.36550E+00 4.91563E+00 0.00000E+00
 -1      1815 5.70450E+00 3.09687E+00 0.00000E+00
 -1      1816 3.62400E+00 4.64885E+01 0.00000E+00
 -1      1817 8.70450E+00 3.09687E+00 0.00000E+00
 -1      1818 7.20450E+00 3.09687E+00 0.00000E+00
 -1      1819 7.03500E+00 4.00625E+00 0.00000E+00
 -1      1820 1.16338E+02 2.28963E+01 0.00000E+00
 -1      1821 1.16055E+02 2.37240E+01 0.00000E+00
 -1      1822 4.92300E+00 4.57510E+01 0.00000E+00
 -1      1823 8.40000E+00 4.61030E+01 0.00000E+00
 -1      1824 9.90000E+00 4.61030E+01 0.00000E+00
 -1      1825 1.14000E+01 4.61030E+01 0.00000E+00
 -1      1826 1.29000E+01 4.61030E+01 0.00000E+00
 -1      1827 1.06500E+01 4.48040E+01 0.00000E+00
 -1      1828 1.44000E+01 4.61030E+01 0.00000E+00
 -1      1829 1.59000E+01 4.61030E+01 0.00000E+00
 -1      1830 1.36500E+01 4.48040E+01 0.00000E+00
 -1      1831 1.74000E+01 4.61030E+01 0.00000E+00
 -1      1832 1.89000E+01 4.61030E+01 0.00000E+00
 -1      1833 1.66500E+01 4.48040E+01 0.00000E+00
 -1      1834 2.04000E+01 4.61030E+01 0.00000E+00
 -1      1835 2.19000E+01 4.61030E+01 0.00000E+00
 -1      1836 1.96500E+01 4.48040E+01 0.00000E+00
 -1      1837 2.34000E+01 4.61030E+01 0.00000E+00
 -1      1838 2.49000E+01 4.61030E+01 0.00000E+00
 -1      1839 2.26500E+01 4.48040E+01 0.00000E+00
 -1      1840 2.64000E+01 4.61030E+01 0.00000E+00
 -1      1841 2.79000E+01 4.61030E+01 0.00000E+00
 -1      1842 2.56500E+01 4.48040E+01 0.00000E+00
 -1      1843 2.94000E+01 4.61030E+01 0.00000E+00
 -1      1844 3.09000E+01 4.61030E+01 0.00000E+00
 -1      1845 2.86500E+01 4.48040E+01 0.00000E+00
 -1      1846 3.24000E+01 4.61030E+01 0.00000E+00
 -1      1847 3.39000E+01 4.61030E+01 0.00000E+00
 -1      1848 3.16500E+01 4.48040E+01 0.00000E+00
 -1      1849 3.54000E+01 4.61030E+01 0.00000E+00
 -1      1850 3.69000E+01 4.61030E+01 0.00000E+00
 -1      1851 3.46500E+01 4.48040E+01 0.00000E+00
 -1      1852 3.84000E+01 4.61030E+01 0.00000E+00
 -1      1853 3.99000E+01 4.61030E+01 0.00000E+00
 -1      1854 3.76500E+01 4.48040E+01 0.00000E+00
 -1      1855 4.14000E+01 4.61030E+01 0.00000E+00
 -1      1856 4.29000E+01 4.61030E+01 0.00000E+00
 -1      1857 4.06500E+01 4.48040E+01 0.00000E+00
 -1      1858 4.44000E+01 4.61030E+01 0.00000E+00
 -1      1859 4.59000E+01 4.61030E+01 0.00000E+00
 -1      1860 4.36500E+01 4.48040E+01 0.00000E+00
 -1      1861 4.74000E+01 4.61030E+01 0.00000E+00
 -1      1862 4.89000E+01 4.61030E+01 0.00000E+00
 -1      1863 4.66500E+01 4.48040E+01 0.00000E+00
 -1      1864 5.04000E+01 4.61030E+01 0.00000E+00
 -1      1865 5.19000E+01 4.61030E+01 0.00000E+00
 -1      1866 4.96500E+01 4.48040E+01 0.00000E+00
 -1      1867 5.34000E+01 4.61030E+01 0.00000E+00
 -1      1868 5.49000E+01 4.61030E+01 0.00000E+00
 -1      1869 5.26500E+01 4.48040E+01 0.00000E+00
 -1      1870 5.64000E+01 4.61030E+01 0.00000E+00
 -1      1871 5.79000E+01 4.61030E+01 0.00000E+00
 -1      1872 5.56500E+01 4.48040E+01 0.00000E+00
 -1      1873 5.94000E+01 4.61030E+01 0.00000E+00
 -1      1874 6.09000E+01 4.61030E+01 0.00000E+00
 -1      1875 5.86500E+01 4.48040E+01 0.00000E+00
 -1      1876 6.24000E+01 4.61030E+01 0.00000E+00
 -1      1877 6.39000E+01 4.61030E+01 0.00000E+00
 -1      1878 6.16500E+01 4.48040E+01 0.00000E+00
 -1      1879 6.54000E+01 4.61030E+01 0.00000E+00
 -1      1880 6.69000E+01 4.61030E+01 0.00000E+00
 -1      1881 6.46500E+01 4.48040E+01 0.00000E+00
 -1      1882 6.84000E+01 4.61030E+01 0.00000E+00
 -1      1883 6.99000E+01 4.61030E+01 0.00000E+00
 -1      1884 6.76500E+01 4.48040E+01 0.00000E+00
 -1      1885 7.14000E+01 4.61030E+01 0.00000E+00
 -1      1886 7.29000E+01 4.61030E+01 0.00000E+00
 -1      1887 7.06500E+01 4.48040E+01 0.00000E+00
 -1      1888 7.44000E+01 4.61030E+01 0.00000E+00
 -1      1889 7.59000E+01 4.61030E+01 0.00000E+00
 -1      1890 7.36500E+01 4.48040E+01 0.00000E+00
 -1      1891 7.74000E+01 4.61030E+01 0.00000E+00
 -1      1892 7.89000E+01 4.61030E+01 0.00000E+00
 -1      1893 7.66500E+01 4.48040E+01 0.00000E+00
 -1      1894 8.04000E+01 4.61030E+01 0.00000E+00
 -1      1895 8.19000E+01 4.61030E+01 0.00000E+00
 -1      1896 7.96500E+01 4.48040E+01 0.00000E+00
 -1      1897 8.34000E+01 4.61030E+01 0.00000E+00
 -1      1898 8.49000E+01 4.61030E+01 0.00000E+00
 -1      1899 8.26500E+01 4.48040E+01 0.00000E+00
 -1      1900 8.64000E+01 4.61030E+01 0.00000E+00
 -1      1901 8.79000E+01 4.61030E+01 0.00000E+00
 -1      1902 8.56500E+01 4.48040E+01 0.00000E+00
 -1      1903 8.94000E+01 4.61030E+01 0.00000E+00
 -1      1904 9.09000E+01 4.61030E+01 0.00000E+00
 -1      1905 8.86500E+01 4.48040E+01 0.00000E+00
 -1      1906 9.24000E+01 4.61030E+01 0.00000E+00
 -1      1907 9.39000E+01 4.61030E+01 0.00000E+00
 -1      1908 9.16500E+01 4.48040E+01 0.00000E+00
 -1      1909 9.54000E+01 4.61030E+01 0.00000E+00
 -1      1910 9.69000E+01 4.61030E+01 0.00000E+00
 -1      1911 9.46500E+01 4.48040E+01 0.00000E+00
 -1      1912 9.84000E+01 4.61030E+01 0.00000E+00
 -1      1913 9.99000E+01 4.61030E+01 0.00000E+00
 -1      1914 9.76500E+01 4.48040E+01 0.00000E+00
 -1      1915 1.01400E+02 4.61030E+01 0.00000E+00
 -1      1916 1.02900E+02 4.61030E+01 0.00000E+00
 -1      1917 1.00650E+02 4.48040E+01 0.00000E+00
 -1      1918 1.04400E+02 4.61030E+01 0.00000E+00
 -1      1919 1.05900E+02 4.61030E+01 0.00000E+00
 -1      1920 1.03650E+02 4.48040E+01 0.00000E+00
 -1      1921 1.07400E+02 4.61030E+01 0.00000E+00
 -1      1922 1.08900E+02 4.61030E+01 0.00000E+00
 -1      1923 1.06650E+02 4.48040E+01 0.00000E+00
 -1      1924 1.10400E+02 4.61030E+01 0.00000E+00
 -1      1925 1.11900E+02 4.61030E+01 0.00000E+00
 -1      1926 1.09650E+02 4.48040E+01 0.00000E+00
 -1      1927 1.13400E+02 4.61030E+01 0.00000E+00
 -1      1928 1.14900E+02 4.61030E+01 0.00000E+00
 -1      1929 1.12650E+02 4.48040E+01 0.00000E+00
 -1      1930 1.16400E+02 4.61030E+01 0.00000E+00
 -1      1931 1.17900E+02 4.61030E+01 0.00000E+00
 -1      1932 1.15650E+02 4.48040E+01 0.00000E+00
 -1      1933 1.19400E+02 4.61030E+01 0.00000E+00
 -1      1934 1.20900E+02 4.61030E+01 0.00000E+00
 -1      1935 1.18650E+02 4.48040E+01 0.00000E+00
 -1      1936 1.22400E+02 4.61030E+01 0.00000E+00
 -1      1937 1.23900E+02 4.61030E+01 0.00000E+00
 -1      1938 1.21650E+02 4.48040E+01 0.00000E+00
 -1      1939 1.25400E+02 4.61030E+01 0.00000E+00
 -1      1940 1.26900E+02 4.61030E+01 0.00000E+00
 -1      1941 1.24650E+02 4.48040E+01 0.00000E+00
 -1      1942 1.28400E+02 4.61030E+01 0.00000E+00
 -1      1943 1.29900E+02 4.61030E+01 0.00000E+00
 -1      1944 1.27650E+02 4.48040E+01 0.00000E+00
 -1      1945 1.31400E+02 4.61030E+01 0.00000E+00
 -1      1946 1.32900E+02 4.61030E+01 0.00000E+00
 -1      1947 1.30650E+02 4.48040E+01 0.00000E+00
 -1      1948 1.34400E+02 4.61030E+01 0.00000E+00
 -1      1949 1.35900E+02 4.61030E+01 0.00000E+00
 -1      1950 1.33650E+02 4.48040E+01 0.00000E+00
 -1      1951 1.37400E+02 4.61030E+01 0.00000E+00
 -1      1952 1.38900E+02 4.61030E+01 0.00000E+00
 -1      1953 1.36650E+02 4.48040E+01 0.00000E+00
 -1      1954 1.40400E+02 4.61030E+01 0.00000E+00
 -1      1955 1.41900E+02 4.61030E+01 0.00000E+00
 -1      1956 1.39650E+02 4.48040E+01 0.00000E+00
 -1      1957 1.43244E+02 4.61616E+01 0.00000E+00
 -1      1958 1.44744E+02 4.61616E+01 0.00000E+00
 -1      1959 1.45182E+02 4.49799E+01 0.00000E+00
 -1      1960 1.42494E+02 4.48626E+01 0.00000E+00
 -1      1961 1.17045E+01 3.09687E+00 0.00000E+00
 -1      1962 1.02045E+01 3.09687E+00 0.00000E+00
 -1      1963 1.00350E+01 4.00625E+00 0.00000E+00
 -1      1964 1.47045E+01 3.09687E+00 0.00000E+00
 -1      1965 1.32045E+01 3.09687E+00 0.00000E+00
 -1      1966 1.30350E+01 4.00625E+00 0.00000E+00
 -1      1967 1.77045E+01 3.09687E+00 0.00000E+00
 -1      1968 1.62045E+01 3.09687E+00 0.00000E+00
 -1      1969 1.60350E+01 4.00625E+00 0.00000E+00
 -1      1970 2.07045E+01 3.09687E+00 0.00000E+00
 -1      1971 1.92045E+01 3.09687E+00 0.00000E+00
 -1      1972 1.90350E+01 4.00625E+00 0.00000E+00
 -1      1973 2.37045E+01 3.09687E+00 0.00000E+00
 -1      1974 2.22045E+01 3.09687E+00 0.00000E+00
 -1      1975 2.20350E+01 4.00625E+00 0.00000E+00
 -1      1976 2.67045E+01 3.09687E+00 0.00000E+00
 -1      1977 2.52045E+01 3.09687E+00 0.00000E+00
 -1      1978 2.50350E+01 4.00625E+00 0.00000E+00
 -1      1979 2.97045E+01 3.09687E+00 0.00000E+00
 -1      1980 2.82045E+01 3.09687E+00 0.00000E+00
 -1      1981 2.80350E+01 4.00625E+00 0.00000E+00
 -1      1982 3.27045E+01 3.09687E+00 0.00000E+00
 -1      1983 3.12045E+01 3.09687E+00 0.00000E+00
 -1      1984 3.10350E+01 4.00625E+00 0.00000E+00
 -1      1985 3.57045E+01 3.09687E+00 0.00000E+00
 -1      1986 3.42045E+01 3.09687E+00 0.00000E+00
 -1      1987 3.40350E+01 4.00625E+00 0.00000E+00
 -1      1988 3.87045E+01 3.09687E+00 0.00000E+00
 -1      1989 3.72045E+01 3.09687E+00 0.00000E+00
 -1      1990 3.70350E+01 4.00625E+00 0.00000E+00
 -1      1991 4.17045E+01 3.09687E+00 0.00000E+00
 -1      1992 4.02045E+01 3.09687E+00 0.00000E+00
 -1      1993 4.00350E+01 4.00625E+00 0.00000E+00
 -1      1994 4.47045E+01 3.09687E+00 0.00000E+00
 -1      1995 4.32045E+01 3.09687E+00 0.00000E+00
 -1      1996 4.30350E+01 4.00625E+00 0.00000E+00
 -1      1997 4.77045E+01 3.09687E+00 0.00000E+00
 -1      1998 4.62045E+01 3.09687E+00 0.00000E+00
 -1      1999 4.60350E+01 4.00625E+00 0.00000E+00
 -1      2000 5.07045E+01 3.09687E+00 0.00000E+00
 -1      2001 4.92045E+01 3.09687E+00 0.00000E+00
 -1      2002 4.90350E+01 4.00625E+00 0.00000E+00
 -1      2003 5.37045E+01 3.09687E+00 0.00000E+00
 -1      2004 5.22045E+01 3.09687E+00 0.00000E+00
 -1      2005 5.20350E+01 4.00625E+00 0.00000E+00
 -1      2006 5.67045E+01 3.09687E+00 0.00000E+00
 -1      2007 5.52045E+01 3.09687E+00 0.00000E+00
 -1      2008 5.50350E+01 4.00625E+00 0.00000E+00
 -1      2009 5.97045E+01 3.09687E+00 0.00000E+00
 -1      2010 5.82045E+01 3.09687E+00 0.00000E+00
 -1      2011 5.80350E+01 4.00625E+00 0.00000E+00
 -1      2012 6.27045E+01 3.09687E+00 0.00000E+00
 -1      2013 6.12045E+01 3.09687E+00 0.00000E+00
 -1      2014 6.10350E+01 4.00625E+00 0.00000E+00
 -1      2015 6.57045E+01 3.09687E+00 0.00000E+00
 -1      2016 6.42045E+01 3.09687E+00 0.00000E+00
 -1      2017 6.40350E+01 4.00625E+00 0.00000E+00
 -1      2018 6.87045E+01 3.09687E+00 0.00000E+00
 -1      2019 6.72045E+01 3.09687E+00 0.00000E+00
 -1      2020 6.70350E+01 4.00625E+00 0.00000E+00
 -1      2021 7.17045E+01 3.09687E+00 0.00000E+00
 -1      2022 7.02045E+01 3.09687E+00 0.00000E+00
 -1      2023 7.00350E+01 4.00625E+00 0.00000E+00
 -1      2024 7.47045E+01 3.09687E+00 0.00000E+00
 -1      2025 7.32045E+01 3.09687E+00 0.00000E+00
 -1      2026 7.30350E+01 4.00625E+00 0.00000E+00
 -1      2027 7.77045E+01 3.09687E+00 0.00000E+00
 -1      2028 7.62045E+01 3.09687E+00 0.00000E+00
 -1      2029 7.60350E+01 4.00625E+00 0.00000E+00
 -1      2030 8.07045E+01 3.09687E+00 0.00000E+00
 -1      2031 7.92045E+01 3.09687E+00 0.00000E+00
 -1      2032 7.90350E+01 4.00625E+00 0.00000E+00
 -1      2033 8.37045E+01 3.09687E+00 0.00000E+00
 -1      2034 8.22045E+01 3.09687E+00 0.00000E+00
 -1      2035 8.20350E+01 4.00625E+00 0.00000E+00
 -1      2036 8.67045E+01 3.09687E+00 0.00000E+00
 -1      2037 8.52045E+01 3.09687E+00 0.00000E+00
 -1      2038 8.50350E+01 4.00625E+00 0.00000E+00
 -1      2039 8.97045E+01 3.09687E+00 0.00000E+00
 -1      2040 8.82045E+01 3.09687E+00 0.00000E+00
 -1      2041 8.80350E+01 4.00625E+00 0.00000E+00
 -1      2042 9.27045E+01 3.09687E+00 0.00000E+00
 -1      2043 9.12045E+01 3.09687E+00 0.00000E+00
 -1      2044 9.10350E+01 4.00625E+00 0.00000E+00
 -1      2045 9.57045E+01 3.09687E+00 0.00000E+00
 -1      2046 9.42045E+01 3.09687E+00 0.00000E+00
 -1      2047 9.40350E+01 4.00625E+00 0.00000E+00
 -1      2048 9.87045E+01 3.09687E+00 0.00000E+00
 -1      2049 9.72045E+01 3.09687E+00 0.00000E+00
 -1      2050 9.70350E+01 4.00625E+00 0.00000E+00
 -1      2051 1.01704E+02 3.09687E+00 0.00000E+00
 -1      2052 1.00204E+02 3.09687E+00 0.00000E+00
 -1      2053 1.00035E+02 4.00625E+00 0.00000E+00
 -1      2054 1.04704E+02 3.09687E+00 0.00000E+00
 -1      2055 1.03204E+02 3.09687E+00 0.00000E+00
 -1      2056 1.03035E+02 4.00625E+00 0.00000E+00
 -1      2057 1.07704E+02 3.09687E+00 0.00000E+00
 -1      2058 1.06204E+02 3.09687E+00 0.00000E+00
 -1      2059 1.06035E+02 4.00625E+00 0.00000E+00
 -1      2060 1.10704E+02 3.09687E+00 0.00000E+00
 -1      2061 1.09204E+02 3.09687E+00 0.00000E+00
 -1      2062 1.09035E+02 4.00625E+00 0.00000E+00
 -1      2063 1.13704E+02 3.09687E+00 0.00000E+00
 -1      2064 1.12204E+02 3.09687E+00 0.00000E+00
 -1      2065 1.12035E+02 4.00625E+00 0.00000E+00
 -1      2066 1.16704E+02 3.09687E+00 0.00000E+00
 -1      2067 1.15204E+02 3.09687E+00 0.00000E+00
 -1      2068 1.15035E+02 4.00625E+00 0.00000E+00
 -1      2069 1.19704E+02 3.09687E+00 0.00000E+00
 -1      2070 1.18204E+02 3.09687E+00 0.00000E+00
 -1      2071 1.18035E+02 4.00625E+00 0.00000E+00
 -1      2072 1.22704E+02 3.09687E+00 0.00000E+00
 -1      2073 1.21204E+02 3.09687E+00 0.00000E+00
 -1      2074 1.21035E+02 4.00625E+00 0.00000E+00
 -1      2075 1.25704E+02 3.09687E+00 0.00000E+00
 -1      2076 1.24204E+02 3.09687E+00 0.00000E+00
 -1      2077 1.24035E+02 4.00625E+00 0.00000E+00
 -1      2078 1.28704E+02 3.09687E+00 0.00000E+00
 -1      2079 1.27204E+02 3.09687E+00 0.00000E+00
 -1      2080 1.27035E+02 4.00625E+00 0.00000E+00
 -1      2081 1.31704E+02 3.09687E+00 0.00000E+00
 -1      2082 1.30204E+02 3.09687E+00 0.00000E+00
 -1      2083 1.30035E+02 4.00625E+00 0.00000E+00
 -1      2084 1.34704E+02 3.09687E+00 0.00000E+00
 -1      2085 1.33204E+02 3.09687E+00 0.00000E+00
 -1      2086 1.33035E+02 4.00625E+00 0.00000E+00
 -1      2087 1.37704E+02 3.09687E+00 0.00000E+00
 -1      2088 1.36204E+02 3.09687E+00 0.00000E+00
 -1      2089 1.36035E+02 4.00625E+00 0.00000E+00
 -1      2090 1.40704E+02 3.09687E+00 0.00000E+00
 -1      2091 1.39204E+02 3.09687E+00 0.00000E+00
 -1      2092 1.39035E+02 4.00625E+00 0.00000E+00
 -1      2093 1.43704E+02 3.09687E+00 0.00000E+00
 -1      2094 1.42204E+02 3.09687E+00 0.00000E+00
 -1      2095 1.42035E+02 4.00625E+00 0.00000E+00
 -1      2096 1.46171E+02 3.20156E+00 0.00000E+00
 -1      2097 1.44671E+02 3.20156E+00 0.00000E+00
 -1      2098 1.44502E+02 4.11094E+00 0.00000E+00
 -1      2099 1.46435E+02 4.32031E+00 0.00000E+00
 -1      2100 1.46103E+02 1.25375E+01 0.00000E+00
 -1      2101 1.46103E+02 1.10625E+01 0.00000E+00
 -1      2102 1.46103E+02 9.58750E+00 0.00000E+00
 -1      2103 1.46103E+02 8.11250E+00 0.00000E+00
 -1      2104 1.44804E+02 1.03250E+01 0.00000E+00
 -1      2105 1.46269E+02 6.95391E+00 0.00000E+00
 -1      2106 1.46269E+02 5.47891E+00 0.00000E+00
 -1      2107 1.45302E+02 5.37422E+00 0.00000E+00
 -1      2108 1.44970E+02 7.69141E+00 0.00000E+00
 -1      2109 1.46103E+02 1.54375E+01 0.00000E+00
 -1      2110 1.46103E+02 1.39875E+01 0.00000E+00
 -1      2111 1.44804E+02 1.32500E+01 0.00000E+00
 -1      2112 1.46103E+02 1.83875E+01 0.00000E+00
 -1      2113 1.46103E+02 1.69125E+01 0.00000E+00
 -1      2114 1.44804E+02 1.61750E+01 0.00000E+00
 -1      2115 1.46103E+02 2.13375E+01 0.00000E+00
 -1      2116 1.46103E+02 1.98625E+01 0.00000E+00
 -1      2117 1.44804E+02 1.91250E+01 0.00000E+00
 -1      2118 1.46103E+02 2.42875E+01 0.00000E+00
 -1      2119 1.46103E+02 2.28125E+01 0.00000E+00
 -1      2120 1.44804E+02 2.20750E+01 0.00000E+00
 -1      2121 1.46103E+02 2.72375E+01 0.00000E+00
 -1      2122 1.46103E+02 2.57625E+01 0.00000E+00
 -1      2123 1.44804E+02 2.50250E+01 0.00000E+00
 -1      2124 1.46103E+02 3.01875E+01 0.00000E+00
 -1      2125 1.46103E+02 2.87125E+01 0.00000E+00
 -1      2126 1.44804E+02 2.79750E+01 0.00000E+00
 -1      2127 1.46103E+02 3.30875E+01 0.00000E+00
 -1      2128 1.46103E+02 3.16375E+01 0.00000E+00
 -1      2129 1.44804E+02 3.09000E+01 0.00000E+00
 -1      2130 1.46103E+02 3.60375E+01 0.00000E+00
 -1      2131 1.46103E+02 3.45625E+01 0.00000E+00
 -1      2132 1.44804E+02 3.38250E+01 0.00000E+00
 -1      2133 1.46103E+02 3.89875E+01 0.00000E+00
 -1      2134 1.46103E+02 3.75125E+01 0.00000E+00
 -1      2135 1.44804E+02 3.67750E+01 0.00000E+00
 -1      2136 1.46103E+02 4.19375E+01 0.00000E+00
 -1      2137 1.46103E+02 4.04625E+01 0.00000E+00
 -1      2138 1.44804E+02 3.97250E+01 0.00000E+00
 -1      2139 1.15808E+02 1.74306E+01 0.00000E+00
 -1      2140 1.16059E+02 1.82796E+01 0.00000E+00
 -1      2141 1.16600E+02 2.10336E+01 0.00000E+00
 -1      2142 1.16571E+02 2.18762E+01 0.00000E+00
 -1      2143 1.16321E+02 1.91057E+01 0.00000E+00
 -1      2144 1.16582E+02 1.99319E+01 0.00000E+00
 -1      2145 1.16977E+02 1.84497E+01 0.00000E+00
 -1      2146 1.14524E+02 1.57445E+01 0.00000E+00
 -1      2147 1.15144E+02 1.63797E+01 0.00000E+00
 -1      2148 1.15865E+02 2.43747E+01 0.00000E+00
 -1      2149 1.15674E+02 2.50255E+01 0.00000E+00
 -1      2150 1.16619E+02 2.41703E+01 0.00000E+00
 -1      2151 1.11678E+02 1.35560E+01 0.00000E+00
 -1      2152 1.12429E+02 1.39825E+01 0.00000E+00
 -1      2153 1.13287E+02 1.46458E+01 0.00000E+00
 -1      2154 1.13906E+02 1.51951E+01 0.00000E+00
 -1      2155 1.14769E+02 1.49723E+01 0.00000E+00
 -1      2156 3.89700E+00 3.74688E+01 0.00000E+00
 -1      2157 3.89700E+00 3.89437E+01 0.00000E+00
 -1      2158 5.19600E+00 3.96813E+01 0.00000E+00
 -1      2159 5.19600E+00 3.67438E+01 0.00000E+00
 -1      2160 1.09927E+02 1.28684E+01 0.00000E+00
 -1      2161 1.10758E+02 1.31756E+01 0.00000E+00
 -1      2162 1.08041E+02 1.23172E+01 0.00000E+00
 -1      2163 1.08951E+02 1.24768E+01 0.00000E+00
 -1      2164 1.05903E+02 1.22829E+01 0.00000E+00
 -1      2165 1.06867E+02 1.21909E+01 0.00000E+00
 -1      2166 1.03943E+02 1.32790E+01 0.00000E+00
 -1      2167 1.04757E+02 1.28407E+01 0.00000E+00
 -1      2168 1.02441E+02 1.43299E+01 0.00000E+00
 -1      2169 1.03133E+02 1.38317E+01 0.00000E+00
 -1      2170 1.01065E+02 1.54703E+01 0.00000E+00
 -1      2171 1.01658E+02 1.48831E+01 0.00000E+00
 -1      2172 9.99817E+01 1.68226E+01 0.00000E+00
 -1      2173 1.00524E+02 1.61465E+01 0.00000E+00
 -1      2174 1.00275E+02 1.53034E+01 0.00000E+00
 -1      2175 9.91310E+01 1.86887E+01 0.00000E+00
 -1      2176 9.93682E+01 1.78640E+01 0.00000E+00
 -1      2177 9.86892E+01 2.03379E+01 0.00000E+00
 -1      2178 9.89101E+01 1.95133E+01 0.00000E+00
 -1      2179 9.82851E+01 1.88870E+01 0.00000E+00
 -1      2180 9.87852E+01 2.23335E+01 0.00000E+00
 -1      2181 9.87075E+01 2.14588E+01 0.00000E+00
 -1      2182 9.90800E+01 2.41408E+01 0.00000E+00
 -1      2183 9.88671E+01 2.33104E+01 0.00000E+00
 -1      2184 9.96576E+01 2.58474E+01 0.00000E+00
 -1      2185 9.93688E+01 2.49941E+01 0.00000E+00
 -1      2186 9.85534E+01 2.47606E+01 0.00000E+00
 -1      2187 1.01000E+02 2.75289E+01 0.00000E+00
 -1      2188 1.00332E+02 2.68977E+01 0.00000E+00
 -1      2189 1.02458E+02 2.86253E+01 0.00000E+00
 -1      2190 1.01768E+02 2.81188E+01 0.00000E+00
 -1      2191 1.03887E+02 2.97157E+01 0.00000E+00
 -1      2192 1.03172E+02 2.91705E+01 0.00000E+00
 -1      2193 1.02444E+02 2.94395E+01 0.00000E+00
 -1      2194 1.05791E+02 3.06315E+01 0.00000E+00
 -1      2195 1.04866E+02 3.03956E+01 0.00000E+00
 -1      2196 1.07938E+02 3.05233E+01 0.00000E+00
 -1      2197 1.07036E+02 3.06579E+01 0.00000E+00
 -1      2198 1.09710E+02 3.03527E+01 0.00000E+00
 -1      2199 1.08824E+02 3.04380E+01 0.00000E+00
 -1      2200 1.08494E+02 3.13120E+01 0.00000E+00
 -1      2201 1.11651E+02 2.97598E+01 0.00000E+00
 -1      2202 1.10739E+02 3.00620E+01 0.00000E+00
 -1      2203 1.13307E+02 2.84274E+01 0.00000E+00
 -1      2204 1.12697E+02 2.90631E+01 0.00000E+00
 -1      2205 1.14340E+02 2.73194E+01 0.00000E+00
 -1      2206 1.13823E+02 2.78734E+01 0.00000E+00
 -1      2207 1.14046E+02 2.86980E+01 0.00000E+00
 -1      2208 1.15372E+02 2.59606E+01 0.00000E+00
 -1      2209 1.14971E+02 2.65930E+01 0.00000E+00
 -1      2210 1.13293E+02 1.37596E+01 0.00000E+00
 -1      2211 1.17043E+02 2.24994E+01 0.00000E+00
 -1      2212 6.42300E+00 4.57510E+01 0.00000E+00
 -1      2213 7.17300E+00 4.44520E+01 0.00000E+00
 -1      2214 1.17257E+02 2.03776E+01 0.00000E+00
 -1      2215 1.16052E+02 1.65726E+01 0.00000E+00
 -1      2216 1.45665E+02 4.31193E+01 0.00000E+00
 -1      2217 1.16127E+02 2.57562E+01 0.00000E+00
 -1      2218 1.15194E+02 2.74177E+01 0.00000E+00
 -1      2219 1.10409E+02 3.09361E+01 0.00000E+00
 -1      2220 1.04138E+02 3.06646E+01 0.00000E+00
 -1      2221 9.95171E+01 2.66642E+01 0.00000E+00
 -1      2222 9.87017E+01 2.64308E+01 0.00000E+00
 -1      2223 9.93765E+01 2.74810E+01 0.00000E+00
 -1      2224 9.80826E+01 2.08325E+01 0.00000E+00
 -1      2225 9.91195E+01 1.70210E+01 0.00000E+00
 -1      2226 1.01600E+02 1.40741E+01 0.00000E+00
 -1      2227 1.03193E+02 1.29681E+01 0.00000E+00
 -1      2228 1.05149E+02 1.18576E+01 0.00000E+00
 -1      2229 1.11516E+02 1.27159E+01 0.00000E+00
 -1      2230 1.07470E+02 1.14261E+01 0.00000E+00
 -1      2231 1.09620E+02 1.19439E+01 0.00000E+00
 -1      2232 9.81827E+01 2.29304E+01 0.00000E+00
 -1      2233 1.00961E+02 2.83044E+01 0.00000E+00
 -1      2234 1.06362E+02 3.13709E+01 0.00000E+00
 -1      2235 1.12484E+02 2.99487E+01 0.00000E+00
 -1      2236 1.12271E+02 3.08343E+01 0.00000E+00
 -1      2237 1.13317E+02 3.01376E+01 0.00000E+00
 -1      2238 1.07850E+01 5.30525E+00 0.00000E+00
 -1      2239 9.28500E+00 5.30525E+00 0.00000E+00
 -1      2240 6.49500E+00 3.01125E+01 0.00000E+00
 -1      2241 6.49500E+00 3.15875E+01 0.00000E+00
 -1      2242 6.49500E+00 3.30625E+01 0.00000E+00
 -1      2243 6.49500E+00 3.45375E+01 0.00000E+00
 -1      2244 7.79400E+00 3.23250E+01 0.00000E+00
 -1      2245 6.49500E+00 2.42125E+01 0.00000E+00
 -1      2246 6.49500E+00 2.56875E+01 0.00000E+00
 -1      2247 6.49500E+00 2.12625E+01 0.00000E+00
 -1      2248 6.49500E+00 2.27375E+01 0.00000E+00
 -1      2249 7.79400E+00 2.34750E+01 0.00000E+00
 -1      2250 6.49500E+00 1.83625E+01 0.00000E+00
 -1      2251 6.49500E+00 1.98125E+01 0.00000E+00
 -1      2252 7.79400E+00 2.05500E+01 0.00000E+00
 -1      2253 6.49500E+00 1.54125E+01 0.00000E+00
 -1      2254 6.49500E+00 1.68875E+01 0.00000E+00
 -1      2255 7.79400E+00 1.76250E+01 0.00000E+00
 -1      2256 6.49500E+00 1.24625E+01 0.00000E+00
 -1      2257 6.49500E+00 1.39375E+01 0.00000E+00
 -1      2258 7.79400E+00 1.46750E+01 0.00000E+00
 -1      2259 6.49500E+00 9.51250E+00 0.00000E+00
 -1      2260 6.49500E+00 1.09875E+01 0.00000E+00
 -1      2261 7.79400E+00 1.17250E+01 0.00000E+00
 -1      2262 9.90000E+00 4.35050E+01 0.00000E+00
 -1      2263 1.14000E+01 4.35050E+01 0.00000E+00
 -1      2264 1.17417E+02 2.40507E+01 0.00000E+00
 -1      2265 1.17226E+02 2.47015E+01 0.00000E+00
 -1      2266 1.37850E+01 5.30525E+00 0.00000E+00
 -1      2267 1.22850E+01 5.30525E+00 0.00000E+00
 -1      2268 1.15350E+01 6.60425E+00 0.00000E+00
 -1      2269 6.55950E+00 4.28890E+01 0.00000E+00
 -1      2270 8.53650E+00 4.32410E+01 0.00000E+00
 -1      2271 9.28650E+00 4.19420E+01 0.00000E+00
 -1      2272 6.55950E+00 4.14140E+01 0.00000E+00
 -1      2273 1.29000E+01 4.35050E+01 0.00000E+00
 -1      2274 1.44000E+01 4.35050E+01 0.00000E+00
 -1      2275 1.21500E+01 4.22060E+01 0.00000E+00
 -1      2276 1.59000E+01 4.35050E+01 0.00000E+00
 -1      2277 1.74000E+01 4.35050E+01 0.00000E+00
 -1      2278 1.51500E+01 4.22060E+01 0.00000E+00
 -1      2279 1.89000E+01 4.35050E+01 0.00000E+00
 -1      2280 2.04000E+01 4.35050E+01 0.00000E+00
 -1      2281 1.81500E+01 4.22060E+01 0.00000E+00
 -1      2282 2.19000E+01 4.35050E+01 0.00000E+00
 -1      2283 2.34000E+01 4.35050E+01 0.00000E+00
 -1      2284 2.11500E+01 4.22060E+01 0.00000E+00
 -1      2285 2.49000E+01 4.35050E+01 0.00000E+00
 -1      2286 2.64000E+01 4.35050E+01 0.00000E+00
 -1      2287 2.41500E+01 4.22060E+01 0.00000E+00
 -1      2288 2.79000E+01 4.35050E+01 0.00000E+00
 -1      2289 2.94000E+01 4.35050E+01 0.00000E+00
 -1      2290 2.71500E+01 4.22060E+01 0.00000E+00
 -1      2291 3.09000E+01 4.35050E+01 0.00000E+00
 -1      2292 3.24000E+01 4.35050E+01 0.00000E+00
 -1      2293 3.01500E+01 4.22060E+01 0.00000E+00
 -1      2294 3.39000E+01 4.35050E+01 0.00000E+00
 -1      2295 3.54000E+01 4.35050E+01 0.00000E+00
 -1      2296 3.31500E+01 4.22060E+01 0.00000E+00
 -1      2297 3.69000E+01 4.35050E+01 0.00000E+00
 -1      2298 3.84000E+01 4.35050E+01 0.00000E+00
 -1      2299 3.61500E+01 4.22060E+01 0.00000E+00
 -1      2300 3.99000E+01 4.35050E+01 0.00000E+00
 -1      2301 4.14000E+01 4.35050E+01 0.00000E+00
 -1      2302 3.91500E+01 4.22060E+01 0.00000E+00
 -1      2303 4.29000E+01 4.35050E+01 0.00000E+00
 -1      2304 4.44000E+01 4.35050E+01 0.00000E+00
 -1      2305 4.21500E+01 4.22060E+01 0.00000E+00
 -1      2306 4.59000E+01 4.35050E+01 0.00000E+00
 -1      2307 4.74000E+01 4.35050E+01 0.00000E+00
 -1      2308 4.51500E+01 4.22060E+01 0.00000E+00
 -1      2309 4.89000E+01 4.35050E+01 0.00000E+00
 -1      2310 5.04000E+01 4.35050E+01 0.00000E+00
 -1      2311 4.81500E+01 4.22060E+01 0.00000E+00
 -1      2312 5.19000E+01 4.35050E+01 0.00000E+00
 -1      2313 5.34000E+01 4.35050E+01 0.00000E+00
 -1      2314 5.11500E+01 4.22060E+01 0.00000E+00
 -1      2315 5.49000E+01 4.35050E+01 0.00000E+00
 -1      2316 5.64000E+01 4.35050E+01 0.00000E+00
 -1      2317 5.41500E+01 4.22060E+01 0.00000E+00
 -1      2318 5.79000E+01 4.35050E+01 0.00000E+00
 -1      2319 5.94000E+01 4.35050E+01 0.00000E+00
 -1      2320 5.71500E+01 4.22060E+01 0.00000E+00
 -1      2321 6.09000E+01 4.35050E+01 0.00000E+00
 -1      2322 6.24000E+01 4.35050E+01 0.00000E+00
 -1      2323 6.01500E+01 4.22060E+01 0.00000E+00
 -1      2324 6.39000E+01 4.35050E+01 0.00000E+00
 -1      2325 6.54000E+01 4.35050E+01 0.00000E+00
 -1      2326 6.31500E+01 4.22060E+01 0.00000E+00
 -1      2327 6.69000E+01 4.35050E+01 0.00000E+00
 -1      2328 6.84000E+01 4.35050E+01 0.00000E+00
 -1      2329 6.61500E+01 4.22060E+01 0.00000E+00
 -1      2330 6.99000E+01 4.35050E+01 0.00000E+00
 -1      2331 7.14000E+01 4.35050E+01 0.00000E+00
 -1      2332 6.91500E+01 4.22060E+01 0.00000E+00
 -1      2333 7.29000E+01 4.35050E+01 0.00000E+00
 -1      2334 7.44000E+01 4.35050E+01 0.00000E+00
 -1      2335 7.21500E+01 4.22060E+01 0.00000E+00
 -1      2336 7.59000E+01 4.35050E+01 0.00000E+00
 -1      2337 7.74000E+01 4.35050E+01 0.00000E+00
 -1      2338 7.51500E+01 4.22060E+01 0.00000E+00
 -1      2339 7.89000E+01 4.35050E+01 0.00000E+00
 -1      2340 8.04000E+01 4.35050E+01 0.00000E+00
 -1      2341 7.81500E+01 4.22060E+01 0.00000E+00
 -1      2342 8.19000E+01 4.35050E+01 0.00000E+00
 -1      2343 8.34000E+01 4.35050E+01 0.00000E+00
 -1      2344 8.11500E+01 4.22060E+01 0.00000E+00
 -1      2345 8.49000E+01 4.35050E+01 0.00000E+00
 -1      2346 8.64000E+01 4.35050E+01 0.00000E+00
 -1      2347 8.41500E+01 4.22060E+01 0.00000E+00
 -1      2348 8.79000E+01 4.35050E+01 0.00000E+00
 -1      2349 8.94000E+01 4.35050E+01 0.00000E+00
 -1      2350 8.71500E+01 4.22060E+01 0.00000E+00
 -1      2351 9.09000E+01 4.35050E+01 0.00000E+00
 -1      2352 9.24000E+01 4.35050E+01 0.00000E+00
 -1      2353 9.01500E+01 4.22060E+01 0.00000E+00
 -1      2354 9.39000E+01 4.35050E+01 0.00000E+00
 -1      2355 9.54000E+01 4.35050E+01 0.00000E+00
 -1      2356 9.31500E+01 4.22060E+01 0.00000E+00
 -1      2357 9.69000E+01 4.35050E+01 0.00000E+00
 -1      2358 9.84000E+01 4.35050E+01 0.00000E+00
 -1      2359 9.61500E+01 4.22060E+01 0.00000E+00
 -1      2360 9.99000E+01 4.35050E+01 0.00000E+00
 -1      2361 1.01400E+02 4.35050E+01 0.00000E+00
 -1      2362 9.91500E+01 4.22060E+01 0.00000E+00
 -1      2363 1.02900E+02 4.35050E+01 0.00000E+00
 -1      2364 1.04400E+02 4.35050E+01 0.00000E+00
 -1      2365 1.02150E+02 4.22060E+01 0.00000E+00
 -1      2366 1.05900E+02 4.35050E+01 0.00000E+00
 -1      2367 1.07400E+02 4.35050E+01 0.00000E+00
 -1      2368 1.05150E+02 4.22060E+01 0.00000E+00
 -1      2369 1.08900E+02 4.35050E+01 0.00000E+00
 -1      2370 1.10400E+02 4.35050E+01 0.00000E+00
 -1      2371 1.08150E+02 4.22060E+01 0.00000E+00
 -1      2372 1.11900E+02 4.35050E+01 0.00000E+00
 -1      2373 1.13400E+02 4.35050E+01 0.00000E+00
 -1      2374 1.11150E+02 4.22060E+01 0.00000E+00
 -1      2375 1.14900E+02 4.35050E+01 0.00000E+00
 -1      2376 1.16400E+02 4.35050E+01 0.00000E+00
 -1      2377 1.14150E+02 4.22060E+01 0.00000E+00
 -1      2378 1.17900E+02 4.35050E+01 0.00000E+00
 -1      2379 1.19400E+02 4.35050E+01 0.00000E+00
 -1      2380 1.17150E+02 4.22060E+01 0.00000E+00
 -1      2381 1.20900E+02 4.35050E+01 0.00000E+00
 -1      2382 1.22400E+02 4.35050E+01 0.00000E+00
 -1      2383 1.20150E+02 4.22060E+01 0.00000E+00
 -1      2384 1.23900E+02 4.35050E+01 0.00000E+00
 -1      2385 1.25400E+02 4.35050E+01 0.00000E+00
 -1      2386 1.23150E+02 4.22060E+01 0.00000E+00
 -1      2387 1.26900E+02 4.35050E+01 0.00000E+00
 -1      2388 1.28400E+02 4.35050E+01 0.00000E+00
 -1      2389 1.26150E+02 4.22060E+01 0.00000E+00
 -1      2390 1.29900E+02 4.35050E+01 0.00000E+00
 -1      2391 1.31400E+02 4.35050E+01 0.00000E+00
 -1      2392 1.29150E+02 4.22060E+01 0.00000E+00
 -1      2393 1.32900E+02 4.35050E+01 0.00000E+00
 -1      2394 1.34400E+02 4.35050E+01 0.00000E+00
 -1      2395 1.32150E+02 4.22060E+01 0.00000E+00
 -1      2396 1.35900E+02 4.35050E+01 0.00000E+00
 -1      2397 1.37400E+02 4.35050E+01 0.00000E+00
 -1      2398 1.35150E+02 4.22060E+01 0.00000E+00
 -1      2399 1.38900E+02 4.35050E+01 0.00000E+00
 -1      2400 1.40400E+02 4.35050E+01 0.00000E+00
 -1      2401 1.38150E+02 4.22060E+01 0.00000E+00
 -1      2402 1.17744E+02 1.77527E+01 0.00000E+00
 -1      2403 1.18005E+02 1.85789E+01 0.00000E+00
 -1      2404 1.97850E+01 5.30525E+00 0.00000E+00
 -1      2405 1.82850E+01 5.30525E+00 0.00000E+00
 -1      2406 2.27850E+01 5.30525E+00 0.00000E+00
 -1      2407 2.12850E+01 5.30525E+00 0.00000E+00
 -1      2408 2.05350E+01 6.60425E+00 0.00000E+00
 -1      2409 2.57850E+01 5.30525E+00 0.00000E+00
 -1      2410 2.42850E+01 5.30525E+00 0.00000E+00
 -1      2411 2.35350E+01 6.60425E+00 0.00000E+00
 -1      2412 2.87850E+01 5.30525E+00 0.00000E+00
 -1      2413 2.72850E+01 5.30525E+00 0.00000E+00
 -1      2414 2.65350E+01 6.60425E+00 0.00000E+00
 -1      2415 3.17850E+01 5.30525E+00 0.00000E+00
 -1      2416 3.02850E+01 5.30525E+00 0.00000E+00
 -1      2417 2.95350E+01 6.60425E+00 0.00000E+00
 -1      2418 3.47850E+01 5.30525E+00 0.00000E+00
 -1      2419 3.32850E+01 5.30525E+00 0.00000E+00
 -1      2420 3.25350E+01 6.60425E+00 0.00000E+00
 -1      2421 3.77850E+01 5.30525E+00 0.00000E+00
 -1      2422 3.62850E+01 5.30525E+00 0.00000E+00
 -1      2423 3.55350E+01 6.60425E+00 0.00000E+00
 -1      2424 4.07850E+01 5.30525E+00 0.00000E+00
 -1      2425 3.92850E+01 5.30525E+00 0.00000E+00
 -1      2426 3.85350E+01 6.60425E+00 0.00000E+00
 -1      2427 4.37850E+01 5.30525E+00 0.00000E+00
 -1      2428 4.22850E+01 5.30525E+00 0.00000E+00
 -1      2429 4.15350E+01 6.60425E+00 0.00000E+00
 -1      2430 4.67850E+01 5.30525E+00 0.00000E+00
 -1      2431 4.52850E+01 5.30525E+00 0.00000E+00
 -1      2432 4.45350E+01 6.60425E+00 0.00000E+00
 -1      2433 4.97850E+01 5.30525E+00 0.00000E+00
 -1      2434 4.82850E+01 5.30525E+00 0.00000E+00
 -1      2435 4.75350E+01 6.60425E+00 0.00000E+00
 -1      2436 5.27850E+01 5.30525E+00 0.00000E+00
 -1      2437 5.12850E+01 5.30525E+00 0.00000E+00
 -1      2438 5.05350E+01 6.60425E+00 0.00000E+00
 -1      2439 5.57850E+01 5.30525E+00 0.00000E+00
 -1      2440 5.42850E+01 5.30525E+00 0.00000E+00
 -1      2441 5.35350E+01 6.60425E+00 0.00000E+00
 -1      2442 5.87850E+01 5.30525E+00 0.00000E+00
 -1      2443 5.72850E+01 5.30525E+00 0.00000E+00
 -1      2444 5.65350E+01 6.60425E+00 0.00000E+00
 -1      2445 6.17850E+01 5.30525E+00 0.00000E+00
 -1      2446 6.02850E+01 5.30525E+00 0.00000E+00
 -1      2447 5.95350E+01 6.60425E+00 0.00000E+00
 -1      2448 6.47850E+01 5.30525E+00 0.00000E+00
 -1      2449 6.32850E+01 5.30525E+00 0.00000E+00
 -1      2450 6.25350E+01 6.60425E+00 0.00000E+00
 -1      2451 6.77850E+01 5.30525E+00 0.00000E+00
 -1      2452 6.62850E+01 5.30525E+00 0.00000E+00
 -1      2453 6.55350E+01 6.60425E+00 0.00000E+00
 -1      2454 7.07850E+01 5.30525E+00 0.00000E+00
 -1      2455 6.92850E+01 5.30525E+00 0.00000E+00
 -1      2456 6.85350E+01 6.60425E+00 0.00000E+00
 -1      2457 7.37850E+01 5.30525E+00 0.00000E+00
 -1      2458 7.22850E+01 5.30525E+00 0.00000E+00
 -1      2459 7.15350E+01 6.60425E+00 0.00000E+00
 -1      2460 7.67850E+01 5.30525E+00 0.00000E+00
 -1      2461 7.52850E+01 5.30525E+00 0.00000E+00
 -1      2462 7.45350E+01 6.60425E+00 0.00000E+00
 -1      2463 7.97850E+01 5.30525E+00 0.00000E+00
 -1      2464 7.82850E+01 5.30525E+00 0.00000E+00
 -1      2465 7.75350E+01 6.60425E+00 0.00000E+00
 -1      2466 8.27850E+01 5.30525E+00 0.00000E+00
 -1      2467 8.12850E+01 5.30525E+00 0.00000E+00
 -1      2468 8.05350E+01 6.60425E+00 0.00000E+00
 -1      2469 8.57850E+01 5.30525E+00 0.00000E+00
 -1      2470 8.42850E+01 5.30525E+00 0.00000E+00
 -1      2471 8.35350E+01 6.60425E+00 0.00000E+00
 -1      2472 8.87850E+01 5.30525E+00 0.00000E+00
 -1      2473 8.72850E+01 5.30525E+00 0.00000E+00
 -1      2474 8.65350E+01 6.60425E+00 0.00000E+00
 -1      2475 9.17850E+01 5.30525E+00 0.00000E+00
 -1      2476 9.02850E+01 5.30525E+00 0.00000E+00
 -1      2477 8.95350E+01 6.60425E+00 0.00000E+00
 -1      2478 9.47850E+01 5.30525E+00 0.00000E+00
 -1      2479 9.32850E+01 5.30525E+00 0.00000E+00
 -1      2480 9.25350E+01 6.60425E+00 0.00000E+00
 -1      2481 9.77850E+01 5.30525E+00 0.00000E+00
 -1      2482 9.62850E+01 5.30525E+00 0.00000E+00
 -1      2483 9.55350E+01 6.60425E+00 0.00000E+00
 -1      2484 1.00785E+02 5.30525E+00 0.00000E+00
 -1      2485 9.92850E+01 5.30525E+00 0.00000E+00
 -1      2486 9.85350E+01 6.60425E+00 0.00000E+00
 -1      2487 1.03785E+02 5.30525E+00 0.00000E+00
 -1      2488 1.02285E+02 5.30525E+00 0.00000E+00
 -1      2489 1.01535E+02 6.60425E+00 0.00000E+00
 -1      2490 1.06785E+02 5.30525E+00 0.00000E+00
 -1      2491 1.05285E+02 5.30525E+00 0.00000E+00
 -1      2492 1.04535E+02 6.60425E+00 0.00000E+00
 -1      2493 1.09785E+02 5.30525E+00 0.00000E+00
 -1      2494 1.08285E+02 5.30525E+00 0.00000E+00
 -1      2495 1.07535E+02 6.60425E+00 0.00000E+00
 -1      2496 1.12785E+02 5.30525E+00 0.00000E+00
 -1      2497 1.11285E+02 5.30525E+00 0.00000E+00
 -1      2498 1.10535E+02 6.60425E+00 0.00000E+00
 -1      2499 1.15785E+02 5.30525E+00 0.00000E+00
 -1      2500 1.14285E+02 5.30525E+00 0.00000E+00
 -1      2501 1.13535E+02 6.60425E+00 0.00000E+00
 -1      2502 1.18785E+02 5.30525E+00 0.00000E+00
 -1      2503 1.17285E+02 5.30525E+00 0.00000E+00
 -1      2504 1.16535E+02 6.60425E+00 0.00000E+00
 -1      2505 1.21785E+02 5.30525E+00 0.00000E+00
 -1      2506 1.20285E+02 5.30525E+00 0.00000E+00
 -1      2507 1.19535E+02 6.60425E+00 0.00000E+00
 -1      2508 1.24785E+02 5.30525E+00 0.00000E+00
 -1      2509 1.23285E+02 5.30525E+00 0.00000E+00
 -1      2510 1.22535E+02 6.60425E+00 0.00000E+00
 -1      2511 1.27785E+02 5.30525E+00 0.00000E+00
 -1      2512 1.26285E+02 5.30525E+00 0.00000E+00
 -1      2513 1.25535E+02 6.60425E+00 0.00000E+00
 -1      2514 1.30785E+02 5.30525E+00 0.00000E+00
 -1      2515 1.29285E+02 5.30525E+00 0.00000E+00
 -1      2516 1.28535E+02 6.60425E+00 0.00000E+00
 -1      2517 1.33785E+02 5.30525E+00 0.00000E+00
 -1      2518 1.32285E+02 5.30525E+00 0.00000E+00
 -1      2519 1.31535E+02 6.60425E+00 0.00000E+00
 -1      2520 1.36785E+02 5.30525E+00 0.00000E+00
 -1      2521 1.35285E+02 5.30525E+00 0.00000E+00
 -1      2522 1.34535E+02 6.60425E+00 0.00000E+00
 -1      2523 1.39785E+02 5.30525E+00 0.00000E+00
 -1      2524 1.38285E+02 5.30525E+00 0.00000E+00
 -1      2525 1.37535E+02 6.60425E+00 0.00000E+00
 -1      2526 1.42785E+02 5.30525E+00 0.00000E+00
 -1      2527 1.41285E+02 5.30525E+00 0.00000E+00
 -1      2528 1.40535E+02 6.60425E+00 0.00000E+00
 -1      2529 1.44336E+02 5.26953E+00 0.00000E+00
 -1      2530 1.43505E+02 1.69125E+01 0.00000E+00
 -1      2531 1.43505E+02 1.54375E+01 0.00000E+00
 -1      2532 1.43505E+02 1.98625E+01 0.00000E+00
 -1      2533 1.43505E+02 1.83875E+01 0.00000E+00
 -1      2534 1.42206E+02 1.76500E+01 0.00000E+00
 -1      2535 1.43505E+02 1.10625E+01 0.00000E+00
 -1      2536 1.43505E+02 9.58750E+00 0.00000E+00
 -1      2537 1.43505E+02 1.39750E+01 0.00000E+00
 -1      2538 1.43505E+02 1.25250E+01 0.00000E+00
 -1      2539 1.42206E+02 1.17875E+01 0.00000E+00
 -1      2540 1.42206E+02 1.47125E+01 0.00000E+00
 -1      2541 1.43505E+02 2.28125E+01 0.00000E+00
 -1      2542 1.43505E+02 2.13375E+01 0.00000E+00
 -1      2543 1.42206E+02 2.06000E+01 0.00000E+00
 -1      2544 1.43505E+02 2.57625E+01 0.00000E+00
 -1      2545 1.43505E+02 2.42875E+01 0.00000E+00
 -1      2546 1.42206E+02 2.35500E+01 0.00000E+00
 -1      2547 1.43505E+02 2.87125E+01 0.00000E+00
 -1      2548 1.43505E+02 2.72375E+01 0.00000E+00
 -1      2549 1.42206E+02 2.65000E+01 0.00000E+00
 -1      2550 1.43505E+02 3.16125E+01 0.00000E+00
 -1      2551 1.43505E+02 3.01625E+01 0.00000E+00
 -1      2552 1.42206E+02 2.94250E+01 0.00000E+00
 -1      2553 1.43505E+02 3.45625E+01 0.00000E+00
 -1      2554 1.43505E+02 3.30875E+01 0.00000E+00
 -1      2555 1.42206E+02 3.23500E+01 0.00000E+00
 -1      2556 1.43505E+02 3.75125E+01 0.00000E+00
 -1      2557 1.43505E+02 3.60375E+01 0.00000E+00
 -1      2558 1.42206E+02 3.53000E+01 0.00000E+00
 -1      2559 1.43505E+02 4.04625E+01 0.00000E+00
 -1      2560 1.43505E+02 3.89875E+01 0.00000E+00
 -1      2561 1.42206E+02 3.82500E+01 0.00000E+00
 -1      2562 1.44321E+02 4.30606E+01 0.00000E+00
 -1      2563 1.16925E+02 2.56366E+01 0.00000E+00
 -1      2564 1.16623E+02 2.65717E+01 0.00000E+00
 -1      2565 1.17722E+02 2.55170E+01 0.00000E+00
 -1      2566 1.67850E+01 5.30525E+00 0.00000E+00
 -1      2567 1.52850E+01 5.30525E+00 0.00000E+00
 -1      2568 1.75350E+01 6.60425E+00 0.00000E+00
 -1      2569 1.18273E+02 1.98099E+01 0.00000E+00
 -1      2570 1.18291E+02 2.09115E+01 0.00000E+00
 -1      2571 1.16587E+02 1.54997E+01 0.00000E+00
 -1      2572 1.17251E+02 1.65506E+01 0.00000E+00
 -1      2573 1.11134E+02 3.15354E+01 0.00000E+00
 -1      2574 1.10104E+02 3.18261E+01 0.00000E+00
 -1      2575 1.04209E+02 3.16057E+01 0.00000E+00
 -1      2576 1.03231E+02 3.09257E+01 0.00000E+00
 -1      2577 9.73180E+01 2.14056E+01 0.00000E+00
 -1      2578 9.72998E+01 2.02847E+01 0.00000E+00
 -1      2579 1.00714E+02 1.36501E+01 0.00000E+00
 -1      2580 1.01498E+02 1.30968E+01 0.00000E+00
 -1      2581 1.18058E+02 2.19317E+01 0.00000E+00
 -1      2582 1.17826E+02 2.29518E+01 0.00000E+00
 -1      2583 1.19074E+02 2.13639E+01 0.00000E+00
 -1      2584 6.49500E+00 2.71625E+01 0.00000E+00
 -1      2585 6.49500E+00 2.86375E+01 0.00000E+00
 -1      2586 7.79400E+00 2.93750E+01 0.00000E+00
 -1      2587 7.79400E+00 2.64250E+01 0.00000E+00
 -1      2588 1.14974E+02 1.41190E+01 0.00000E+00
 -1      2589 1.15592E+02 1.46684E+01 0.00000E+00
 -1      2590 1.09452E+02 1.09522E+01 0.00000E+00
 -1      2591 1.10427E+02 1.13438E+01 0.00000E+00
 -1      2592 1.11347E+02 1.17242E+01 0.00000E+00
 -1      2593 1.12267E+02 1.21047E+01 0.00000E+00
 -1      2594 1.11179E+02 1.07326E+01 0.00000E+00
 -1      2595 1.04219E+02 1.14031E+01 0.00000E+00
 -1      2596 1.05365E+02 1.08452E+01 0.00000E+00
 -1      2597 1.02307E+02 1.25441E+01 0.00000E+00
 -1      2598 1.03116E+02 1.19914E+01 0.00000E+00
 -1      2599 1.01421E+02 1.21202E+01 0.00000E+00
 -1      2600 9.93674E+01 1.51314E+01 0.00000E+00
 -1      2601 9.99093E+01 1.44553E+01 0.00000E+00
 -1      2602 9.81405E+01 1.72143E+01 0.00000E+00
 -1      2603 9.87539E+01 1.61728E+01 0.00000E+00
 -1      2604 9.83884E+01 1.53246E+01 0.00000E+00
 -1      2605 9.74273E+01 1.90991E+01 0.00000E+00
 -1      2606 9.76481E+01 1.82745E+01 0.00000E+00
 -1      2607 1.00874E+02 2.92132E+01 0.00000E+00
 -1      2608 1.00105E+02 2.86233E+01 0.00000E+00
 -1      2609 9.79252E+01 2.54488E+01 0.00000E+00
 -1      2610 9.76364E+01 2.45955E+01 0.00000E+00
 -1      2611 1.06963E+02 3.24090E+01 0.00000E+00
 -1      2612 1.05718E+02 3.23826E+01 0.00000E+00
 -1      2613 1.02303E+02 3.03036E+01 0.00000E+00
 -1      2614 1.01589E+02 2.97584E+01 0.00000E+00
 -1      2615 1.00733E+02 3.00773E+01 0.00000E+00
 -1      2616 1.08977E+02 3.20749E+01 0.00000E+00
 -1      2617 1.08091E+02 3.21602E+01 0.00000E+00
 -1      2618 1.07446E+02 3.31719E+01 0.00000E+00
 -1      2619 1.09702E+02 3.26742E+01 0.00000E+00
 -1      2620 1.14932E+02 2.90059E+01 0.00000E+00
 -1      2621 1.14415E+02 2.95599E+01 0.00000E+00
 -1      2622 1.16194E+02 2.75532E+01 0.00000E+00
 -1      2623 1.15563E+02 2.82795E+01 0.00000E+00
 -1      2624 1.15932E+02 2.91414E+01 0.00000E+00
 -1      2625 1.13364E+02 1.27828E+01 0.00000E+00
 -1      2626 1.14221E+02 1.34462E+01 0.00000E+00
 -1      2627 8.07525E+00 5.11044E+00 0.00000E+00
 -1      2628 6.57525E+00 5.11044E+00 0.00000E+00
 -1      2629 6.40575E+00 6.01981E+00 0.00000E+00
 -1      2630 8.82525E+00 6.40944E+00 0.00000E+00
 -1      2631 9.74944E+01 2.34800E+01 0.00000E+00
 -1      2632 9.74125E+01 2.25031E+01 0.00000E+00
 -1      2633 1.06992E+02 1.03437E+01 0.00000E+00
 -1      2634 1.08167E+02 1.04700E+01 0.00000E+00
 -1      2635 1.16791E+02 1.46463E+01 0.00000E+00
 -1      2636 7.79400E+00 3.52687E+01 0.00000E+00
 -1      2637 6.49500E+00 3.60062E+01 0.00000E+00
 -1      2638 6.49500E+00 3.74750E+01 0.00000E+00
 -1      2639 1.19040E+02 1.91128E+01 0.00000E+00
 -1      2640 6.40575E+00 7.49481E+00 0.00000E+00
 -1      2641 9.68662E+01 2.41681E+01 0.00000E+00
 -1      2642 1.45350E+01 6.60425E+00 0.00000E+00
 -1      2643 6.55950E+00 3.99453E+01 0.00000E+00
 -1      2644 1.02375E+02 3.12446E+01 0.00000E+00
 -1      2645 1.16992E+02 2.74336E+01 0.00000E+00
 -1      2646 1.18279E+02 1.66798E+01 0.00000E+00
 -1      2647 1.43586E+02 6.56853E+00 0.00000E+00
 -1      2648 1.11967E+02 3.17243E+01 0.00000E+00
 -1      2649 1.11663E+02 3.26143E+01 0.00000E+00
 -1      2650 1.12800E+02 3.19132E+01 0.00000E+00
 -1      2651 1.43419E+02 7.72713E+00 0.00000E+00
 -1      2652 1.15044E+02 1.31422E+01 0.00000E+00
 -1      2653 1.42758E+02 4.35929E+01 0.00000E+00
 -1      2654 1.43241E+02 4.17323E+01 0.00000E+00
 -1      2655 1.41942E+02 4.09948E+01 0.00000E+00
 -1      2656 1.41414E+02 4.35342E+01 0.00000E+00
 -1      2657 9.77846E+01 2.62656E+01 0.00000E+00
 -1      2658 9.68676E+01 2.61004E+01 0.00000E+00
 -1      2659 9.76441E+01 2.70824E+01 0.00000E+00
 -1      2660 7.70475E+00 8.23231E+00 0.00000E+00
 -1      2661 1.14203E+02 3.04455E+01 0.00000E+00
 -1      2662 9.72826E+01 1.74264E+01 0.00000E+00
 -1      2663 9.66628E+01 1.96722E+01 0.00000E+00
 -1      2664 9.92897E+01 2.83898E+01 0.00000E+00
 -1      2665 9.84743E+01 2.81564E+01 0.00000E+00
 -1      2666 9.92030E+01 2.92986E+01 0.00000E+00
 -1      2667 9.98066E+01 1.34780E+01 0.00000E+00
 -1      2668 9.66297E+01 2.19552E+01 0.00000E+00
 -1      2669 1.18433E+02 2.34830E+01 0.00000E+00
 -1      2670 1.04811E+02 3.26438E+01 0.00000E+00
 -1      2671 1.03904E+02 3.29049E+01 0.00000E+00
 -1      2672 1.05412E+02 3.36819E+01 0.00000E+00
 -1      2673 1.08974E+02 9.86984E+00 0.00000E+00
 -1      2674 1.40664E+02 4.22352E+01 0.00000E+00
 -1      2675 1.13195E+02 1.17912E+01 0.00000E+00
 -1      2676 1.03333E+02 1.09791E+01 0.00000E+00
 -1      2677 1.42120E+02 8.46463E+00 0.00000E+00
 -1      2678 9.09300E+00 1.98250E+01 0.00000E+00
 -1      2679 9.09300E+00 2.12750E+01 0.00000E+00
 -1      2680 9.09300E+00 2.27500E+01 0.00000E+00
 -1      2681 9.09300E+00 2.42250E+01 0.00000E+00
 -1      2682 1.03920E+01 2.20250E+01 0.00000E+00
 -1      2683 9.09300E+00 1.39375E+01 0.00000E+00
 -1      2684 9.09300E+00 1.54125E+01 0.00000E+00
 -1      2685 9.09300E+00 1.09875E+01 0.00000E+00
 -1      2686 9.09300E+00 1.24625E+01 0.00000E+00
 -1      2687 1.03920E+01 1.32000E+01 0.00000E+00
 -1      2688 1.15151E+02 3.09155E+01 0.00000E+00
 -1      2689 1.14053E+02 3.14933E+01 0.00000E+00
 -1      2690 1.14000E+01 4.09070E+01 0.00000E+00
 -1      2691 1.29000E+01 4.09070E+01 0.00000E+00
 -1      2692 1.22850E+01 7.90325E+00 0.00000E+00
 -1      2693 1.07850E+01 7.90325E+00 0.00000E+00
 -1      2694 8.91450E+00 8.42712E+00 0.00000E+00
 -1      2695 2.42850E+01 7.90325E+00 0.00000E+00
 -1      2696 2.27850E+01 7.90325E+00 0.00000E+00
 -1      2697 1.44000E+01 4.09070E+01 0.00000E+00
 -1      2698 1.59000E+01 4.09070E+01 0.00000E+00
 -1      2699 1.36500E+01 3.96080E+01 0.00000E+00
 -1      2700 1.74000E+01 4.09070E+01 0.00000E+00
 -1      2701 1.89000E+01 4.09070E+01 0.00000E+00
 -1      2702 1.66500E+01 3.96080E+01 0.00000E+00
 -1      2703 2.04000E+01 4.09070E+01 0.00000E+00
 -1      2704 2.19000E+01 4.09070E+01 0.00000E+00
 -1      2705 1.96500E+01 3.96080E+01 0.00000E+00
 -1      2706 2.34000E+01 4.09070E+01 0.00000E+00
 -1      2707 2.49000E+01 4.09070E+01 0.00000E+00
 -1      2708 2.26500E+01 3.96080E+01 0.00000E+00
 -1      2709 2.64000E+01 4.09070E+01 0.00000E+00
 -1      2710 2.79000E+01 4.09070E+01 0.00000E+00
 -1      2711 2.56500E+01 3.96080E+01 0.00000E+00
 -1      2712 2.94000E+01 4.09070E+01 0.00000E+00
 -1      2713 3.09000E+01 4.09070E+01 0.00000E+00
 -1      2714 2.86500E+01 3.96080E+01 0.00000E+00
 -1      2715 3.24000E+01 4.09070E+01 0.00000E+00
 -1      2716 3.39000E+01 4.09070E+01 0.00000E+00
 -1      2717 3.16500E+01 3.96080E+01 0.00000E+00
 -1      2718 3.54000E+01 4.09070E+01 0.00000E+00
 -1      2719 3.69000E+01 4.09070E+01 0.00000E+00
 -1      2720 3.46500E+01 3.96080E+01 0.00000E+00
 -1      2721 3.84000E+01 4.09070E+01 0.00000E+00
 -1      2722 3.99000E+01 4.09070E+01 0.00000E+00
 -1      2723 3.76500E+01 3.96080E+01 0.00000E+00
 -1      2724 4.14000E+01 4.09070E+01 0.00000E+00
 -1      2725 4.29000E+01 4.09070E+01 0.00000E+00
 -1      2726 4.06500E+01 3.96080E+01 0.00000E+00
 -1      2727 4.44000E+01 4.09070E+01 0.00000E+00
 -1      2728 4.59000E+01 4.09070E+01 0.00000E+00
 -1      2729 4.36500E+01 3.96080E+01 0.00000E+00
 -1      2730 4.74000E+01 4.09070E+01 0.00000E+00
 -1      2731 4.89000E+01 4.09070E+01 0.00000E+00
 -1      2732 4.66500E+01 3.96080E+01 0.00000E+00
 -1      2733 5.04000E+01 4.09070E+01 0.00000E+00
 -1      2734 5.19000E+01 4.09070E+01 0.00000E+00
 -1      2735 4.96500E+01 3.96080E+01 0.00000E+00
 -1      2736 5.34000E+01 4.09070E+01 0.00000E+00
 -1      2737 5.49000E+01 4.09070E+01 0.00000E+00
 -1      2738 5.26500E+01 3.96080E+01 0.00000E+00
 -1      2739 5.64000E+01 4.09070E+01 0.00000E+00
 -1      2740 5.79000E+01 4.09070E+01 0.00000E+00
 -1      2741 5.56500E+01 3.96080E+01 0.00000E+00
 -1      2742 5.94000E+01 4.09070E+01 0.00000E+00
 -1      2743 6.09000E+01 4.09070E+01 0.00000E+00
 -1      2744 5.86500E+01 3.96080E+01 0.00000E+00
 -1      2745 6.24000E+01 4.09070E+01 0.00000E+00
 -1      2746 6.39000E+01 4.09070E+01 0.00000E+00
 -1      2747 6.16500E+01 3.96080E+01 0.00000E+00
 -1      2748 6.54000E+01 4.09070E+01 0.00000E+00
 -1      2749 6.69000E+01 4.09070E+01 0.00000E+00
 -1      2750 6.46500E+01 3.96080E+01 0.00000E+00
 -1      2751 6.84000E+01 4.09070E+01 0.00000E+00
 -1      2752 6.99000E+01 4.09070E+01 0.00000E+00
 -1      2753 6.76500E+01 3.96080E+01 0.00000E+00
 -1      2754 7.14000E+01 4.09070E+01 0.00000E+00
 -1      2755 7.29000E+01 4.09070E+01 0.00000E+00
 -1      2756 7.06500E+01 3.96080E+01 0.00000E+00
 -1      2757 7.44000E+01 4.09070E+01 0.00000E+00
 -1      2758 7.59000E+01 4.09070E+01 0.00000E+00
 -1      2759 7.36500E+01 3.96080E+01 0.00000E+00
 -1      2760 7.74000E+01 4.09070E+01 0.00000E+00
 -1      2761 7.89000E+01 4.09070E+01 0.00000E+00
 -1      2762 7.66500E+01 3.96080E+01 0.00000E+00
 -1      2763 8.04000E+01 4.09070E+01 0.00000E+00
 -1      2764 8.19000E+01 4.09070E+01 0.00000E+00
 -1      2765 7.96500E+01 3.96080E+01 0.00000E+00
 -1      2766 8.34000E+01 4.09070E+01 0.00000E+00
 -1      2767 8.49000E+01 4.09070E+01 0.00000E+00
 -1      2768 8.26500E+01 3.96080E+01 0.00000E+00
 -1      2769 8.64000E+01 4.09070E+01 0.00000E+00
 -1      2770 8.79000E+01 4.09070E+01 0.00000E+00
 -1      2771 8.56500E+01 3.96080E+01 0.00000E+00
 -1      2772 8.94000E+01 4.09070E+01 0.00000E+00
 -1      2773 9.09000E+01 4.09070E+01 0.00000E+00
 -1      2774 8.86500E+01 3.96080E+01 0.00000E+00
 -1      2775 9.24000E+01 4.09070E+01 0.00000E+00
 -1      2776 9.39000E+01 4.09070E+01 0.00000E+00
 -1      2777 9.16500E+01 3.96080E+01 0.00000E+00
 -1      2778 9.54000E+01 4.09070E+01 0.00000E+00
 -1      2779 9.69000E+01 4.09070E+01 0.00000E+00
 -1      2780 9.46500E+01 3.96080E+01 0.00000E+00
 -1      2781 9.84000E+01 4.09070E+01 0.00000E+00
 -1      2782 9.99000E+01 4.09070E+01 0.00000E+00
 -1      2783 9.76500E+01 3.96080E+01 0.00000E+00
 -1      2784 1.01400E+02 4.09070E+01 0.00000E+00
 -1      2785 1.02900E+02 4.09070E+01 0.00000E+00
 -1      2786 1.00650E+02 3.96080E+01 0.00000E+00
 -1      2787 1.04400E+02 4.09070E+01 0.00000E+00
 -1      2788 1.05900E+02 4.09070E+01 0.00000E+00
 -1      2789 1.03650E+02 3.96080E+01 0.00000E+00
 -1      2790 1.07400E+02 4.09070E+01 0.00000E+00
 -1      2791 1.08900E+02 4.09070E+01 0.00000E+00
 -1      2792 1.06650E+02 3.96080E+01 0.00000E+00
 -1      2793 1.10400E+02 4.09070E+01 0.00000E+00
 -1      2794 1.11900E+02 4.09070E+01 0.00000E+00
 -1      2795 1.09650E+02 3.96080E+01 0.00000E+00
 -1      2796 1.13400E+02 4.09070E+01 0.00000E+00
 -1      2797 1.14900E+02 4.09070E+01 0.00000E+00
 -1      2798 1.12650E+02 3.96080E+01 0.00000E+00
 -1      2799 1.16400E+02 4.09070E+01 0.00000E+00
 -1      2800 1.17900E+02 4.09070E+01 0.00000E+00
 -1      2801 1.15650E+02 3.96080E+01 0.00000E+00
 -1      2802 1.19400E+02 4.09070E+01 0.00000E+00
 -1      2803 1.20900E+02 4.09070E+01 0.00000E+00
 -1      2804 1.18650E+02 3.96080E+01 0.00000E+00
 -1      2805 1.22400E+02 4.09070E+01 0.00000E+00
 -1      2806 1.23900E+02 4.09070E+01 0.00000E+00
 -1      2807 1.21650E+02 3.96080E+01 0.00000E+00
 -1      2808 1.25400E+02 4.09070E+01 0.00000E+00
 -1      2809 1.26900E+02 4.09070E+01 0.00000E+00
 -1      2810 1.24650E+02 3.96080E+01 0.00000E+00
 -1      2811 1.28400E+02 4.09070E+01 0.00000E+00
 -1      2812 1.29900E+02 4.09070E+01 0.00000E+00
 -1      2813 1.27650E+02 3.96080E+01 0.00000E+00
 -1      2814 1.31400E+02 4.09070E+01 0.00000E+00
 -1      2815 1.32900E+02 4.09070E+01 0.00000E+00
 -1      2816 1.30650E+02 3.96080E+01 0.00000E+00
 -1      2817 1.34400E+02 4.09070E+01 0.00000E+00
 -1      2818 1.35900E+02 4.09070E+01 0.00000E+00
 -1      2819 1.33650E+02 3.96080E+01 0.00000E+00
 -1      2820 1.37400E+02 4.09070E+01 0.00000E+00
 -1      2821 1.38900E+02 4.09070E+01 0.00000E+00
 -1      2822 1.36650E+02 3.96080E+01 0.00000E+00
 -1      2823 2.12850E+01 7.90325E+00 0.00000E+00
 -1      2824 1.97850E+01 7.90325E+00 0.00000E+00
 -1      2825 2.20350E+01 9.20225E+00 0.00000E+00
 -1      2826 3.02850E+01 7.90325E+00 0.00000E+00
 -1      2827 2.87850E+01 7.90325E+00 0.00000E+00
 -1      2828 3.32850E+01 7.90325E+00 0.00000E+00
 -1      2829 3.17850E+01 7.90325E+00 0.00000E+00
 -1      2830 3.10350E+01 9.20225E+00 0.00000E+00
 -1      2831 3.62850E+01 7.90325E+00 0.00000E+00
 -1      2832 3.47850E+01 7.90325E+00 0.00000E+00
 -1      2833 3.40350E+01 9.20225E+00 0.00000E+00
 -1      2834 3.92850E+01 7.90325E+00 0.00000E+00
 -1      2835 3.77850E+01 7.90325E+00 0.00000E+00
 -1      2836 3.70350E+01 9.20225E+00 0.00000E+00
 -1      2837 4.22850E+01 7.90325E+00 0.00000E+00
 -1      2838 4.07850E+01 7.90325E+00 0.00000E+00
 -1      2839 4.00350E+01 9.20225E+00 0.00000E+00
 -1      2840 4.52850E+01 7.90325E+00 0.00000E+00
 -1      2841 4.37850E+01 7.90325E+00 0.00000E+00
 -1      2842 4.30350E+01 9.20225E+00 0.00000E+00
 -1      2843 4.82850E+01 7.90325E+00 0.00000E+00
 -1      2844 4.67850E+01 7.90325E+00 0.00000E+00
 -1      2845 4.60350E+01 9.20225E+00 0.00000E+00
 -1      2846 5.12850E+01 7.90325E+00 0.00000E+00
 -1      2847 4.97850E+01 7.90325E+00 0.00000E+00
 -1      2848 4.90350E+01 9.20225E+00 0.00000E+00
 -1      2849 5.42850E+01 7.90325E+00 0.00000E+00
 -1      2850 5.27850E+01 7.90325E+00 0.00000E+00
 -1      2851 5.20350E+01 9.20225E+00 0.00000E+00
 -1      2852 5.72850E+01 7.90325E+00 0.00000E+00
 -1      2853 5.57850E+01 7.90325E+00 0.00000E+00
 -1      2854 5.50350E+01 9.20225E+00 0.00000E+00
 -1      2855 6.02850E+01 7.90325E+00 0.00000E+00
 -1      2856 5.87850E+01 7.90325E+00 0.00000E+00
 -1      2857 5.80350E+01 9.20225E+00 0.00000E+00
 -1      2858 6.32850E+01 7.90325E+00 0.00000E+00
 -1      2859 6.17850E+01 7.90325E+00 0.00000E+00
 -1      2860 6.10350E+01 9.20225E+00 0.00000E+00
 -1      2861 6.62850E+01 7.90325E+00 0.00000E+00
 -1      2862 6.47850E+01 7.90325E+00 0.00000E+00
 -1      2863 6.40350E+01 9.20225E+00 0.00000E+00
 -1      2864 6.92850E+01 7.90325E+00 0.00000E+00
 -1      2865 6.77850E+01 7.90325E+00 0.00000E+00
 -1      2866 6.70350E+01 9.20225E+00 0.00000E+00
 -1      2867 7.22850E+01 7.90325E+00 0.00000E+00
 -1      2868 7.07850E+01 7.90325E+00 0.00000E+00
 -1      2869 7.00350E+01 9.20225E+00 0.00000E+00
 -1      2870 7.52850E+01 7.90325E+00 0.00000E+00
 -1      2871 7.37850E+01 7.90325E+00 0.00000E+00
 -1      2872 7.30350E+01 9.20225E+00 0.00000E+00
 -1      2873 7.82850E+01 7.90325E+00 0.00000E+00
 -1      2874 7.67850E+01 7.90325E+00 0.00000E+00
 -1      2875 7.60350E+01 9.20225E+00 0.00000E+00
 -1      2876 8.12850E+01 7.90325E+00 0.00000E+00
 -1      2877 7.97850E+01 7.90325E+00 0.00000E+00
 -1      2878 7.90350E+01 9.20225E+00 0.00000E+00
 -1      2879 8.42850E+01 7.90325E+00 0.00000E+00
 -1      2880 8.27850E+01 7.90325E+00 0.00000E+00
 -1      2881 8.20350E+01 9.20225E+00 0.00000E+00
 -1      2882 8.72850E+01 7.90325E+00 0.00000E+00
 -1      2883 8.57850E+01 7.90325E+00 0.00000E+00
 -1      2884 8.50350E+01 9.20225E+00 0.00000E+00
 -1      2885 9.02850E+01 7.90325E+00 0.00000E+00
 -1      2886 8.87850E+01 7.90325E+00 0.00000E+00
 -1      2887 8.80350E+01 9.20225E+00 0.00000E+00
 -1      2888 9.32850E+01 7.90325E+00 0.00000E+00
 -1      2889 9.17850E+01 7.90325E+00 0.00000E+00
 -1      2890 9.10350E+01 9.20225E+00 0.00000E+00
 -1      2891 9.62850E+01 7.90325E+00 0.00000E+00
 -1      2892 9.47850E+01 7.90325E+00 0.00000E+00
 -1      2893 9.40350E+01 9.20225E+00 0.00000E+00
 -1      2894 9.92850E+01 7.90325E+00 0.00000E+00
 -1      2895 9.77850E+01 7.90325E+00 0.00000E+00
 -1      2896 9.70350E+01 9.20225E+00 0.00000E+00
 -1      2897 1.05285E+02 7.62938E+00 0.00000E+00
 -1      2898 1.03785E+02 7.62938E+00 0.00000E+00
 -1      2899 1.08362E+02 7.99591E+00 0.00000E+00
 -1      2900 1.06862E+02 7.99591E+00 0.00000E+00
 -1      2901 1.14285E+02 7.88073E+00 0.00000E+00
 -1      2902 1.12785E+02 7.88073E+00 0.00000E+00
 -1      2903 1.17285E+02 7.88073E+00 0.00000E+00
 -1      2904 1.15785E+02 7.88073E+00 0.00000E+00
 -1      2905 1.15035E+02 9.15721E+00 0.00000E+00
 -1      2906 1.20285E+02 7.88073E+00 0.00000E+00
 -1      2907 1.18785E+02 7.88073E+00 0.00000E+00
 -1      2908 1.18035E+02 9.15721E+00 0.00000E+00
 -1      2909 1.23285E+02 7.88073E+00 0.00000E+00
 -1      2910 1.21785E+02 7.88073E+00 0.00000E+00
 -1      2911 1.21035E+02 9.15721E+00 0.00000E+00
 -1      2912 1.26285E+02 7.88073E+00 0.00000E+00
 -1      2913 1.24785E+02 7.88073E+00 0.00000E+00
 -1      2914 1.24035E+02 9.15721E+00 0.00000E+00
 -1      2915 1.29285E+02 7.88073E+00 0.00000E+00
 -1      2916 1.27785E+02 7.88073E+00 0.00000E+00
 -1      2917 1.27035E+02 9.15721E+00 0.00000E+00
 -1      2918 1.32285E+02 7.88073E+00 0.00000E+00
 -1      2919 1.30785E+02 7.88073E+00 0.00000E+00
 -1      2920 1.30035E+02 9.15721E+00 0.00000E+00
 -1      2921 1.35285E+02 7.88073E+00 0.00000E+00
 -1      2922 1.33785E+02 7.88073E+00 0.00000E+00
 -1      2923 1.33035E+02 9.15721E+00 0.00000E+00
 -1      2924 1.38285E+02 7.88073E+00 0.00000E+00
 -1      2925 1.36785E+02 7.88073E+00 0.00000E+00
 -1      2926 1.36035E+02 9.15721E+00 0.00000E+00
 -1      2927 1.40953E+02 8.17268E+00 0.00000E+00
 -1      2928 1.39453E+02 8.17268E+00 0.00000E+00
 -1      2929 1.38703E+02 9.44916E+00 0.00000E+00
 -1      2930 1.41038E+02 1.00331E+01 0.00000E+00
 -1      2931 1.40907E+02 2.42875E+01 0.00000E+00
 -1      2932 1.40907E+02 2.28125E+01 0.00000E+00
 -1      2933 1.40907E+02 1.83875E+01 0.00000E+00
 -1      2934 1.40907E+02 1.69125E+01 0.00000E+00
 -1      2935 1.40907E+02 2.72375E+01 0.00000E+00
 -1      2936 1.40907E+02 2.57625E+01 0.00000E+00
 -1      2937 1.39608E+02 2.50250E+01 0.00000E+00
 -1      2938 1.40907E+02 2.13375E+01 0.00000E+00
 -1      2939 1.40907E+02 1.98625E+01 0.00000E+00
 -1      2940 1.39608E+02 1.91250E+01 0.00000E+00
 -1      2941 1.39608E+02 2.20750E+01 0.00000E+00
 -1      2942 1.13098E+02 1.07228E+01 0.00000E+00
 -1      2943 1.14194E+02 1.14010E+01 0.00000E+00
 -1      2944 1.40907E+02 3.01375E+01 0.00000E+00
 -1      2945 1.40907E+02 2.86875E+01 0.00000E+00
 -1      2946 1.39608E+02 2.79500E+01 0.00000E+00
 -1      2947 1.40907E+02 3.30875E+01 0.00000E+00
 -1      2948 1.40907E+02 3.16125E+01 0.00000E+00
 -1      2949 1.39608E+02 3.08750E+01 0.00000E+00
 -1      2950 1.40907E+02 3.60375E+01 0.00000E+00
 -1      2951 1.40907E+02 3.45625E+01 0.00000E+00
 -1      2952 1.39608E+02 3.38250E+01 0.00000E+00
 -1      2953 1.18689E+02 2.53129E+01 0.00000E+00
 -1      2954 1.18387E+02 2.62480E+01 0.00000E+00
 -1      2955 1.82850E+01 7.90325E+00 0.00000E+00
 -1      2956 1.67850E+01 7.90325E+00 0.00000E+00
 -1      2957 1.90350E+01 9.20225E+00 0.00000E+00
 -1      2958 1.15351E+02 1.20415E+01 0.00000E+00
 -1      2959 1.16104E+02 1.27143E+01 0.00000E+00
 -1      2960 1.02268E+02 3.24070E+01 0.00000E+00
 -1      2961 1.01340E+02 3.17848E+01 0.00000E+00
 -1      2962 1.00485E+02 1.16192E+01 0.00000E+00
 -1      2963 1.01294E+02 1.10665E+01 0.00000E+00
 -1      2964 1.17992E+02 2.72862E+01 0.00000E+00
 -1      2965 1.17563E+02 2.82676E+01 0.00000E+00
 -1      2966 1.11046E+02 9.74989E+00 0.00000E+00
 -1      2967 1.11966E+02 1.01303E+01 0.00000E+00
 -1      2968 1.20190E+02 2.10816E+01 0.00000E+00
 -1      2969 1.19958E+02 2.21018E+01 0.00000E+00
 -1      2970 1.09647E+02 8.47819E+00 0.00000E+00
 -1      2971 9.58225E+01 2.25775E+01 0.00000E+00
 -1      2972 9.57280E+01 2.14800E+01 0.00000E+00
 -1      2973 2.72850E+01 7.90325E+00 0.00000E+00
 -1      2974 2.57850E+01 7.90325E+00 0.00000E+00
 -1      2975 2.50350E+01 9.20225E+00 0.00000E+00
 -1      2976 2.80350E+01 9.20225E+00 0.00000E+00
 -1      2977 7.85850E+00 3.92077E+01 0.00000E+00
 -1      2978 1.05350E+02 9.69695E+00 0.00000E+00
 -1      2979 1.06281E+02 1.01515E+01 0.00000E+00
 -1      2980 1.19990E+02 1.82621E+01 0.00000E+00
 -1      2981 1.20257E+02 1.94930E+01 0.00000E+00
 -1      2982 9.09300E+00 1.68813E+01 0.00000E+00
 -1      2983 9.09300E+00 1.83563E+01 0.00000E+00
 -1      2984 1.03920E+01 1.90812E+01 0.00000E+00
 -1      2985 1.03920E+01 1.61437E+01 0.00000E+00
 -1      2986 9.57880E+01 2.01777E+01 0.00000E+00
 -1      2987 9.59155E+01 1.89922E+01 0.00000E+00
 -1      2988 9.73428E+01 1.54101E+01 0.00000E+00
 -1      2989 9.79563E+01 1.43687E+01 0.00000E+00
 -1      2990 9.87977E+01 1.32744E+01 0.00000E+00
 -1      2991 9.96025E+01 1.24692E+01 0.00000E+00
 -1      2992 9.09300E+00 3.15875E+01 0.00000E+00
 -1      2993 9.09300E+00 3.30625E+01 0.00000E+00
 -1      2994 1.52850E+01 7.90325E+00 0.00000E+00
 -1      2995 1.37850E+01 7.90325E+00 0.00000E+00
 -1      2996 1.30350E+01 9.20225E+00 0.00000E+00
 -1      2997 1.60350E+01 9.20225E+00 0.00000E+00
 -1      2998 1.40928E+02 4.09655E+01 0.00000E+00
 -1      2999 1.41192E+02 3.96958E+01 0.00000E+00
 -1      3000 1.39914E+02 4.09362E+01 0.00000E+00
 -1      3001 1.00626E+02 3.12396E+01 0.00000E+00
 -1      3002 9.99109E+01 3.06944E+01 0.00000E+00
 -1      3003 1.00518E+02 3.24020E+01 0.00000E+00
 -1      3004 9.61067E+01 1.75247E+01 0.00000E+00
 -1      3005 9.65990E+01 1.64645E+01 0.00000E+00
 -1      3006 1.19135E+02 1.56258E+01 0.00000E+00
 -1      3007 1.19629E+02 1.68279E+01 0.00000E+00
 -1      3008 1.19528E+02 2.31579E+01 0.00000E+00
 -1      3009 1.19119E+02 2.42568E+01 0.00000E+00
 -1      3010 1.19784E+02 2.49878E+01 0.00000E+00
 -1      3011 1.20644E+02 2.28756E+01 0.00000E+00
 -1      3012 1.17021E+02 2.94505E+01 0.00000E+00
 -1      3013 1.16390E+02 3.01769E+01 0.00000E+00
 -1      3014 1.02377E+02 1.05167E+01 0.00000E+00
 -1      3015 1.03480E+02 9.92829E+00 0.00000E+00
 -1      3016 9.61066E+01 2.48084E+01 0.00000E+00
 -1      3017 9.59645E+01 2.36929E+01 0.00000E+00
 -1      3018 9.50629E+01 2.32177E+01 0.00000E+00
 -1      3019 1.06977E+02 9.19538E+00 0.00000E+00
 -1      3020 1.17098E+02 1.35456E+01 0.00000E+00
 -1      3021 1.18092E+02 1.43769E+01 0.00000E+00
 -1      3022 1.17405E+02 1.24449E+01 0.00000E+00
 -1      3023 1.04485E+02 9.52260E+00 0.00000E+00
 -1      3024 1.05400E+02 8.82885E+00 0.00000E+00
 -1      3025 9.09300E+00 3.45313E+01 0.00000E+00
 -1      3026 9.09300E+00 3.60000E+01 0.00000E+00
 -1      3027 1.03920E+01 3.37938E+01 0.00000E+00
 -1      3028 1.03920E+01 2.49750E+01 0.00000E+00
 -1      3029 9.09300E+00 2.57000E+01 0.00000E+00
 -1      3030 9.09300E+00 2.71750E+01 0.00000E+00
 -1      3031 1.13748E+02 3.23832E+01 0.00000E+00
 -1      3032 1.16240E+02 3.12247E+01 0.00000E+00
 -1      3033 1.39164E+02 3.96372E+01 0.00000E+00
 -1      3034 9.59660E+01 2.56252E+01 0.00000E+00
 -1      3035 9.50644E+01 2.51500E+01 0.00000E+00
 -1      3036 9.58254E+01 2.64421E+01 0.00000E+00
 -1      3037 9.66450E+00 9.72612E+00 0.00000E+00
 -1      3038 1.20846E+02 1.72081E+01 0.00000E+00
 -1      3039 9.77521E+01 1.33599E+01 0.00000E+00
 -1      3040 1.21140E+02 2.02309E+01 0.00000E+00
 -1      3041 1.09635E+01 1.04636E+01 0.00000E+00
 -1      3042 9.09300E+00 2.86437E+01 0.00000E+00
 -1      3043 9.09300E+00 3.01187E+01 0.00000E+00
 -1      3044 1.03920E+01 3.08563E+01 0.00000E+00
 -1      3045 1.03920E+01 2.79188E+01 0.00000E+00
 -1      3046 1.00197E+02 8.58489E+00 0.00000E+00
 -1      3047 9.94469E+01 9.88389E+00 0.00000E+00
 -1      3048 1.02780E+02 8.03507E+00 0.00000E+00
 -1      3049 1.01280E+02 8.03507E+00 0.00000E+00
 -1      3050 1.12685E+02 9.15243E+00 0.00000E+00
 -1      3051 1.11935E+02 7.87595E+00 0.00000E+00
 -1      3052 1.11147E+02 8.47819E+00 0.00000E+00
 -1      3053 1.41038E+02 1.14956E+01 0.00000E+00
 -1      3054 1.39870E+02 1.12036E+01 0.00000E+00
 -1      3055 1.41038E+02 1.29581E+01 0.00000E+00
 -1      3056 1.11834E+02 3.37902E+01 0.00000E+00
 -1      3057 1.11001E+02 3.36013E+01 0.00000E+00
 -1      3058 9.52319E+01 1.80303E+01 0.00000E+00
 -1      3059 1.18959E+02 2.70821E+01 0.00000E+00
 -1      3060 1.18021E+02 2.93031E+01 0.00000E+00
 -1      3061 1.41192E+02 3.82207E+01 0.00000E+00
 -1      3062 9.94761E+01 1.14156E+01 0.00000E+00
 -1      3063 9.75573E+01 2.79912E+01 0.00000E+00
 -1      3064 9.66403E+01 2.78261E+01 0.00000E+00
 -1      3065 9.74706E+01 2.89000E+01 0.00000E+00
 -1      3066 1.19442E+02 1.45251E+01 0.00000E+00
 -1      3067 1.02869E+02 3.34451E+01 0.00000E+00
 -1      3068 1.01834E+02 3.39853E+01 0.00000E+00
 -1      3069 1.03470E+02 3.44832E+01 0.00000E+00
 -1      3070 1.08231E+02 3.40485E+01 0.00000E+00
 -1      3071 1.07103E+02 3.42973E+01 0.00000E+00
 -1      3072 1.15254E+02 1.09731E+01 0.00000E+00
 -1      3073 9.61669E+01 1.55085E+01 0.00000E+00
 -1      3074 1.01442E+02 1.00157E+01 0.00000E+00
 -1      3075 1.39529E+02 3.85602E+01 0.00000E+00
 -1      3076 1.40542E+02 3.71145E+01 0.00000E+00
 -1      3077 1.39243E+02 3.63770E+01 0.00000E+00
 -1      3078 1.38514E+02 3.85310E+01 0.00000E+00
 -1      3079 1.12817E+02 1.01351E+01 0.00000E+00
 -1      3080 9.90955E+01 3.04610E+01 0.00000E+00
 -1      3081 9.82801E+01 3.02275E+01 0.00000E+00
 -1      3082 9.89881E+01 3.16233E+01 0.00000E+00
 -1      3083 9.15750E+00 3.77359E+01 0.00000E+00
 -1      3084 9.22200E+00 4.02061E+01 0.00000E+00
 -1      3085 1.05855E+01 4.04701E+01 0.00000E+00
 -1      3086 1.04565E+01 3.69984E+01 0.00000E+00
 -1      3087 1.06196E+02 3.45585E+01 0.00000E+00
 -1      3088 1.05289E+02 3.48196E+01 0.00000E+00
 -1      3089 1.06981E+02 3.54351E+01 0.00000E+00
 -1      3090 1.40973E+02 1.56665E+01 0.00000E+00
 -1      3091 1.40973E+02 1.42040E+01 0.00000E+00
 -1      3092 1.39805E+02 1.39121E+01 0.00000E+00
 -1      3093 1.39674E+02 1.64040E+01 0.00000E+00
 -1      3094 1.13355E+01 3.91711E+01 0.00000E+00
 -1      3095 9.49808E+01 2.08000E+01 0.00000E+00
 -1      3096 1.03530E+02 9.06019E+00 0.00000E+00
 -1      3097 1.16910E+01 1.24625E+01 0.00000E+00
 -1      3098 1.16910E+01 1.39375E+01 0.00000E+00
 -1      3099 1.21904E+02 1.61797E+01 0.00000E+00
 -1      3100 1.22264E+02 1.76139E+01 0.00000E+00
 -1      3101 1.06150E+02 7.80372E+00 0.00000E+00
 -1      3102 1.59000E+01 3.83090E+01 0.00000E+00
 -1      3103 1.74000E+01 3.83090E+01 0.00000E+00
 -1      3104 1.89000E+01 3.83090E+01 0.00000E+00
 -1      3105 2.04000E+01 3.83090E+01 0.00000E+00
 -1      3106 1.81500E+01 3.70100E+01 0.00000E+00
 -1      3107 2.19000E+01 3.83090E+01 0.00000E+00
 -1      3108 2.34000E+01 3.83090E+01 0.00000E+00
 -1      3109 2.11500E+01 3.70100E+01 0.00000E+00
 -1      3110 2.49000E+01 3.83090E+01 0.00000E+00
 -1      3111 2.64000E+01 3.83090E+01 0.00000E+00
 -1      3112 2.41500E+01 3.70100E+01 0.00000E+00
 -1      3113 2.79000E+01 3.83090E+01 0.00000E+00
 -1      3114 2.94000E+01 3.83090E+01 0.00000E+00
 -1      3115 2.71500E+01 3.70100E+01 0.00000E+00
 -1      3116 3.09000E+01 3.83090E+01 0.00000E+00
 -1      3117 3.24000E+01 3.83090E+01 0.00000E+00
 -1      3118 3.01500E+01 3.70100E+01 0.00000E+00
 -1      3119 3.39000E+01 3.83090E+01 0.00000E+00
 -1      3120 3.54000E+01 3.83090E+01 0.00000E+00
 -1      3121 3.31500E+01 3.70100E+01 0.00000E+00
 -1      3122 3.69000E+01 3.83090E+01 0.00000E+00
 -1      3123 3.84000E+01 3.83090E+01 0.00000E+00
 -1      3124 3.61500E+01 3.70100E+01 0.00000E+00
 -1      3125 3.99000E+01 3.83090E+01 0.00000E+00
 -1      3126 4.14000E+01 3.83090E+01 0.00000E+00
 -1      3127 3.91500E+01 3.70100E+01 0.00000E+00
 -1      3128 4.29000E+01 3.83090E+01 0.00000E+00
 -1      3129 4.44000E+01 3.83090E+01 0.00000E+00
 -1      3130 4.21500E+01 3.70100E+01 0.00000E+00
 -1      3131 4.59000E+01 3.83090E+01 0.00000E+00
 -1      3132 4.74000E+01 3.83090E+01 0.00000E+00
 -1      3133 4.51500E+01 3.70100E+01 0.00000E+00
 -1      3134 4.89000E+01 3.83090E+01 0.00000E+00
 -1      3135 5.04000E+01 3.83090E+01 0.00000E+00
 -1      3136 4.81500E+01 3.70100E+01 0.00000E+00
 -1      3137 5.19000E+01 3.83090E+01 0.00000E+00
 -1      3138 5.34000E+01 3.83090E+01 0.00000E+00
 -1      3139 5.11500E+01 3.70100E+01 0.00000E+00
 -1      3140 5.49000E+01 3.83090E+01 0.00000E+00
 -1      3141 5.64000E+01 3.83090E+01 0.00000E+00
 -1      3142 5.41500E+01 3.70100E+01 0.00000E+00
 -1      3143 5.79000E+01 3.83090E+01 0.00000E+00
 -1      3144 5.94000E+01 3.83090E+01 0.00000E+00
 -1      3145 5.71500E+01 3.70100E+01 0.00000E+00
 -1      3146 6.09000E+01 3.83090E+01 0.00000E+00
 -1      3147 6.24000E+01 3.83090E+01 0.00000E+00
 -1      3148 6.01500E+01 3.70100E+01 0.00000E+00
 -1      3149 6.39000E+01 3.83090E+01 0.00000E+00
 -1      3150 6.54000E+01 3.83090E+01 0.00000E+00
 -1      3151 6.31500E+01 3.70100E+01 0.00000E+00
 -1      3152 6.69000E+01 3.83090E+01 0.00000E+00
 -1      3153 6.84000E+01 3.83090E+01 0.00000E+00
 -1      3154 6.61500E+01 3.70100E+01 0.00000E+00
 -1      3155 6.99000E+01 3.83090E+01 0.00000E+00
 -1      3156 7.14000E+01 3.83090E+01 0.00000E+00
 -1      3157 6.91500E+01 3.70100E+01 0.00000E+00
 -1      3158 7.29000E+01 3.83090E+01 0.00000E+00
 -1      3159 7.44000E+01 3.83090E+01 0.00000E+00
 -1      3160 7.21500E+01 3.70100E+01 0.00000E+00
 -1      3161 7.59000E+01 3.83090E+01 0.00000E+00
 -1      3162 7.74000E+01 3.83090E+01 0.00000E+00
 -1      3163 7.51500E+01 3.70100E+01 0.00000E+00
 -1      3164 7.89000E+01 3.83090E+01 0.00000E+00
 -1      3165 8.04000E+01 3.83090E+01 0.00000E+00
 -1      3166 7.81500E+01 3.70100E+01 0.00000E+00
 -1      3167 8.19000E+01 3.83090E+01 0.00000E+00
 -1      3168 8.34000E+01 3.83090E+01 0.00000E+00
 -1      3169 8.11500E+01 3.70100E+01 0.00000E+00
 -1      3170 8.49000E+01 3.83090E+01 0.00000E+00
 -1      3171 8.64000E+01 3.83090E+01 0.00000E+00
 -1      3172 8.41500E+01 3.70100E+01 0.00000E+00
 -1      3173 8.79000E+01 3.83090E+01 0.00000E+00
 -1      3174 8.94000E+01 3.83090E+01 0.00000E+00
 -1      3175 8.71500E+01 3.70100E+01 0.00000E+00
 -1      3176 9.09000E+01 3.83090E+01 0.00000E+00
 -1      3177 9.24000E+01 3.83090E+01 0.00000E+00
 -1      3178 9.01500E+01 3.70100E+01 0.00000E+00
 -1      3179 9.39000E+01 3.83090E+01 0.00000E+00
 -1      3180 9.54000E+01 3.83090E+01 0.00000E+00
 -1      3181 9.31500E+01 3.70100E+01 0.00000E+00
 -1      3182 9.69000E+01 3.83090E+01 0.00000E+00
 -1      3183 9.84000E+01 3.83090E+01 0.00000E+00
 -1      3184 9.61500E+01 3.70100E+01 0.00000E+00
 -1      3185 1.02900E+02 3.84991E+01 0.00000E+00
 -1      3186 1.04400E+02 3.84991E+01 0.00000E+00
 -1      3187 1.05612E+02 3.76521E+01 0.00000E+00
 -1      3188 1.07112E+02 3.76521E+01 0.00000E+00
 -1      3189 1.11900E+02 3.84153E+01 0.00000E+00
 -1      3190 1.13400E+02 3.84153E+01 0.00000E+00
 -1      3191 1.14900E+02 3.84153E+01 0.00000E+00
 -1      3192 1.16400E+02 3.84153E+01 0.00000E+00
 -1      3193 1.14150E+02 3.72226E+01 0.00000E+00
 -1      3194 1.17900E+02 3.84153E+01 0.00000E+00
 -1      3195 1.19400E+02 3.84153E+01 0.00000E+00
 -1      3196 1.17150E+02 3.72226E+01 0.00000E+00
 -1      3197 1.20900E+02 3.84153E+01 0.00000E+00
 -1      3198 1.22400E+02 3.84153E+01 0.00000E+00
 -1      3199 1.20150E+02 3.72226E+01 0.00000E+00
 -1      3200 1.23900E+02 3.84153E+01 0.00000E+00
 -1      3201 1.25400E+02 3.84153E+01 0.00000E+00
 -1      3202 1.23150E+02 3.72226E+01 0.00000E+00
 -1      3203 1.26900E+02 3.84153E+01 0.00000E+00
 -1      3204 1.28400E+02 3.84153E+01 0.00000E+00
 -1      3205 1.26150E+02 3.72226E+01 0.00000E+00
 -1      3206 1.29900E+02 3.84153E+01 0.00000E+00
 -1      3207 1.31400E+02 3.84153E+01 0.00000E+00
 -1      3208 1.29150E+02 3.72226E+01 0.00000E+00
 -1      3209 1.32900E+02 3.84153E+01 0.00000E+00
 -1      3210 1.34400E+02 3.84153E+01 0.00000E+00
 -1      3211 1.32150E+02 3.72226E+01 0.00000E+00
 -1      3212 1.35707E+02 3.84732E+01 0.00000E+00
 -1      3213 1.37207E+02 3.84732E+01 0.00000E+00
 -1      3214 1.37572E+02 3.73962E+01 0.00000E+00
 -1      3215 1.34957E+02 3.72805E+01 0.00000E+00
 -1      3216 2.27850E+01 1.05013E+01 0.00000E+00
 -1      3217 2.12850E+01 1.05013E+01 0.00000E+00
 -1      3218 3.47850E+01 1.05013E+01 0.00000E+00
 -1      3219 3.32850E+01 1.05013E+01 0.00000E+00
 -1      3220 3.17850E+01 1.05013E+01 0.00000E+00
 -1      3221 3.02850E+01 1.05013E+01 0.00000E+00
 -1      3222 3.25350E+01 1.18003E+01 0.00000E+00
 -1      3223 4.07850E+01 1.05013E+01 0.00000E+00
 -1      3224 3.92850E+01 1.05013E+01 0.00000E+00
 -1      3225 4.37850E+01 1.05013E+01 0.00000E+00
 -1      3226 4.22850E+01 1.05013E+01 0.00000E+00
 -1      3227 4.15350E+01 1.18003E+01 0.00000E+00
 -1      3228 4.67850E+01 1.05013E+01 0.00000E+00
 -1      3229 4.52850E+01 1.05013E+01 0.00000E+00
 -1      3230 4.45350E+01 1.18003E+01 0.00000E+00
 -1      3231 4.97850E+01 1.05013E+01 0.00000E+00
 -1      3232 4.82850E+01 1.05013E+01 0.00000E+00
 -1      3233 4.75350E+01 1.18003E+01 0.00000E+00
 -1      3234 5.27850E+01 1.05013E+01 0.00000E+00
 -1      3235 5.12850E+01 1.05013E+01 0.00000E+00
 -1      3236 5.05350E+01 1.18003E+01 0.00000E+00
 -1      3237 5.57850E+01 1.05013E+01 0.00000E+00
 -1      3238 5.42850E+01 1.05013E+01 0.00000E+00
 -1      3239 5.35350E+01 1.18003E+01 0.00000E+00
 -1      3240 5.87850E+01 1.05013E+01 0.00000E+00
 -1      3241 5.72850E+01 1.05013E+01 0.00000E+00
 -1      3242 5.65350E+01 1.18003E+01 0.00000E+00
 -1      3243 6.17850E+01 1.05013E+01 0.00000E+00
 -1      3244 6.02850E+01 1.05013E+01 0.00000E+00
 -1      3245 5.95350E+01 1.18003E+01 0.00000E+00
 -1      3246 6.47850E+01 1.05013E+01 0.00000E+00
 -1      3247 6.32850E+01 1.05013E+01 0.00000E+00
 -1      3248 6.25350E+01 1.18003E+01 0.00000E+00
 -1      3249 6.77850E+01 1.05013E+01 0.00000E+00
 -1      3250 6.62850E+01 1.05013E+01 0.00000E+00
 -1      3251 6.55350E+01 1.18003E+01 0.00000E+00
 -1      3252 7.07850E+01 1.05013E+01 0.00000E+00
 -1      3253 6.92850E+01 1.05013E+01 0.00000E+00
 -1      3254 6.85350E+01 1.18003E+01 0.00000E+00
 -1      3255 7.37850E+01 1.05013E+01 0.00000E+00
 -1      3256 7.22850E+01 1.05013E+01 0.00000E+00
 -1      3257 7.15350E+01 1.18003E+01 0.00000E+00
 -1      3258 7.67850E+01 1.05013E+01 0.00000E+00
 -1      3259 7.52850E+01 1.05013E+01 0.00000E+00
 -1      3260 7.45350E+01 1.18003E+01 0.00000E+00
 -1      3261 7.97850E+01 1.05013E+01 0.00000E+00
 -1      3262 7.82850E+01 1.05013E+01 0.00000E+00
 -1      3263 7.75350E+01 1.18003E+01 0.00000E+00
 -1      3264 8.27850E+01 1.05013E+01 0.00000E+00
 -1      3265 8.12850E+01 1.05013E+01 0.00000E+00
 -1      3266 8.05350E+01 1.18003E+01 0.00000E+00
 -1      3267 8.57850E+01 1.05013E+01 0.00000E+00
 -1      3268 8.42850E+01 1.05013E+01 0.00000E+00
 -1      3269 8.35350E+01 1.18003E+01 0.00000E+00
 -1      3270 8.87850E+01 1.05013E+01 0.00000E+00
 -1      3271 8.72850E+01 1.05013E+01 0.00000E+00
 -1      3272 8.65350E+01 1.18003E+01 0.00000E+00
 -1      3273 9.17850E+01 1.05013E+01 0.00000E+00
 -1      3274 9.02850E+01 1.05013E+01 0.00000E+00
 -1      3275 8.95350E+01 1.18003E+01 0.00000E+00
 -1      3276 9.47850E+01 1.05013E+01 0.00000E+00
 -1      3277 9.32850E+01 1.05013E+01 0.00000E+00
 -1      3278 9.25350E+01 1.18003E+01 0.00000E+00
 -1      3279 9.78659E+01 1.01926E+01 0.00000E+00
 -1      3280 9.63659E+01 1.01926E+01 0.00000E+00
 -1      3281 9.56159E+01 1.14916E+01 0.00000E+00
 -1      3282 9.87778E+01 1.08742E+01 0.00000E+00
 -1      3283 1.24785E+02 1.04562E+01 0.00000E+00
 -1      3284 1.23285E+02 1.04562E+01 0.00000E+00
 -1      3285 1.27785E+02 1.04562E+01 0.00000E+00
 -1      3286 1.26285E+02 1.04562E+01 0.00000E+00
 -1      3287 1.25535E+02 1.17552E+01 0.00000E+00
 -1      3288 1.30785E+02 1.04562E+01 0.00000E+00
 -1      3289 1.29285E+02 1.04562E+01 0.00000E+00
 -1      3290 1.28535E+02 1.17552E+01 0.00000E+00
 -1      3291 1.33785E+02 1.04562E+01 0.00000E+00
 -1      3292 1.32285E+02 1.04562E+01 0.00000E+00
 -1      3293 1.31535E+02 1.17552E+01 0.00000E+00
 -1      3294 1.36785E+02 1.04562E+01 0.00000E+00
 -1      3295 1.35285E+02 1.04562E+01 0.00000E+00
 -1      3296 1.34535E+02 1.17552E+01 0.00000E+00
 -1      3297 1.38912E+02 1.09759E+01 0.00000E+00
 -1      3298 1.37744E+02 1.06839E+01 0.00000E+00
 -1      3299 1.36994E+02 1.19829E+01 0.00000E+00
 -1      3300 1.38912E+02 1.24384E+01 0.00000E+00
 -1      3301 1.13086E+02 3.39142E+01 0.00000E+00
 -1      3302 1.12424E+02 3.49012E+01 0.00000E+00
 -1      3303 1.13816E+02 9.74487E+00 0.00000E+00
 -1      3304 1.17342E+02 3.16639E+01 0.00000E+00
 -1      3305 1.16103E+02 3.24026E+01 0.00000E+00
 -1      3306 9.40367E+01 1.86208E+01 0.00000E+00
 -1      3307 9.42279E+01 1.71533E+01 0.00000E+00
 -1      3308 1.16460E+01 3.80848E+01 0.00000E+00
 -1      3309 1.24605E+01 3.85216E+01 0.00000E+00
 -1      3310 1.39605E+01 3.85216E+01 0.00000E+00
 -1      3311 1.15815E+01 3.63489E+01 0.00000E+00
 -1      3312 1.38309E+02 2.57625E+01 0.00000E+00
 -1      3313 1.38309E+02 2.42875E+01 0.00000E+00
 -1      3314 1.10238E+02 3.43129E+01 0.00000E+00
 -1      3315 1.10066E+02 3.31370E+01 0.00000E+00
 -1      3316 1.38309E+02 3.45625E+01 0.00000E+00
 -1      3317 1.38309E+02 3.30875E+01 0.00000E+00
 -1      3318 1.38309E+02 2.86625E+01 0.00000E+00
 -1      3319 1.38309E+02 2.72125E+01 0.00000E+00
 -1      3320 1.37010E+02 2.64750E+01 0.00000E+00
 -1      3321 1.19148E+02 2.91038E+01 0.00000E+00
 -1      3322 1.18606E+02 3.02866E+01 0.00000E+00
 -1      3323 1.97850E+01 1.05013E+01 0.00000E+00
 -1      3324 1.82850E+01 1.05013E+01 0.00000E+00
 -1      3325 2.05350E+01 1.18003E+01 0.00000E+00
 -1      3326 1.38309E+02 3.16125E+01 0.00000E+00
 -1      3327 1.38309E+02 3.01375E+01 0.00000E+00
 -1      3328 1.37010E+02 2.94000E+01 0.00000E+00
 -1      3329 1.37010E+02 3.23500E+01 0.00000E+00
 -1      3330 1.21785E+02 1.04562E+01 0.00000E+00
 -1      3331 1.20285E+02 1.04562E+01 0.00000E+00
 -1      3332 1.22535E+02 1.17552E+01 0.00000E+00
 -1      3333 3.77850E+01 1.05013E+01 0.00000E+00
 -1      3334 3.62850E+01 1.05013E+01 0.00000E+00
 -1      3335 3.55350E+01 1.18003E+01 0.00000E+00
 -1      3336 3.85350E+01 1.18003E+01 0.00000E+00
 -1      3337 1.14339E+02 3.34943E+01 0.00000E+00
 -1      3338 1.26488E+01 1.02017E+01 0.00000E+00
 -1      3339 1.20772E+01 1.14631E+01 0.00000E+00
 -1      3340 1.33763E+01 1.22006E+01 0.00000E+00
 -1      3341 1.41488E+01 1.02017E+01 0.00000E+00
 -1      3342 1.16910E+01 2.12875E+01 0.00000E+00
 -1      3343 1.16910E+01 2.27625E+01 0.00000E+00
 -1      3344 9.50258E+01 1.54931E+01 0.00000E+00
 -1      3345 9.57695E+01 1.44387E+01 0.00000E+00
 -1      3346 1.22449E+02 1.94902E+01 0.00000E+00
 -1      3347 1.22382E+02 2.10788E+01 0.00000E+00
 -1      3348 1.19707E+02 1.32435E+01 0.00000E+00
 -1      3349 1.20751E+02 1.44923E+01 0.00000E+00
 -1      3350 1.00203E+02 3.35563E+01 0.00000E+00
 -1      3351 9.94883E+01 3.30111E+01 0.00000E+00
 -1      3352 1.19958E+02 2.68684E+01 0.00000E+00
 -1      3353 1.19562E+02 2.79066E+01 0.00000E+00
 -1      3354 1.08939E+02 3.33858E+01 0.00000E+00
 -1      3355 9.41170E+01 2.39050E+01 0.00000E+00
 -1      3356 9.39750E+01 2.27895E+01 0.00000E+00
 -1      3357 9.40105E+01 2.14078E+01 0.00000E+00
 -1      3358 9.40705E+01 2.01056E+01 0.00000E+00
 -1      3359 1.16910E+01 2.42375E+01 0.00000E+00
 -1      3360 1.16910E+01 2.57125E+01 0.00000E+00
 -1      3361 1.29900E+01 2.35000E+01 0.00000E+00
 -1      3362 1.23506E+02 1.84618E+01 0.00000E+00
 -1      3363 9.57387E+01 2.73508E+01 0.00000E+00
 -1      3364 9.48371E+01 2.68756E+01 0.00000E+00
 -1      3365 9.56519E+01 2.82596E+01 0.00000E+00
 -1      3366 1.21808E+02 2.27339E+01 0.00000E+00
 -1      3367 1.21378E+02 2.37900E+01 0.00000E+00
 -1      3368 1.69669E+01 1.03515E+01 0.00000E+00
 -1      3369 1.54669E+01 1.03515E+01 0.00000E+00
 -1      3370 1.50806E+01 1.13509E+01 0.00000E+00
 -1      3371 1.77169E+01 1.16505E+01 0.00000E+00
 -1      3372 1.47105E+01 3.72226E+01 0.00000E+00
 -1      3373 2.87850E+01 1.05013E+01 0.00000E+00
 -1      3374 2.72850E+01 1.05013E+01 0.00000E+00
 -1      3375 2.95350E+01 1.18003E+01 0.00000E+00
 -1      3376 9.99000E+01 3.83090E+01 0.00000E+00
 -1      3377 1.01400E+02 3.83090E+01 0.00000E+00
 -1      3378 1.08900E+02 3.84991E+01 0.00000E+00
 -1      3379 1.10400E+02 3.84991E+01 0.00000E+00
 -1      3380 1.15440E+02 3.39335E+01 0.00000E+00
 -1      3381 9.72557E+01 3.12247E+01 0.00000E+00
 -1      3382 9.73631E+01 3.00624E+01 0.00000E+00
 -1      3383 9.64461E+01 2.98972E+01 0.00000E+00
 -1      3384 1.22169E+02 1.48981E+01 0.00000E+00
 -1      3385 1.02150E+02 3.72001E+01 0.00000E+00
 -1      3386 1.16910E+01 1.98188E+01 0.00000E+00
 -1      3387 1.29900E+01 2.05562E+01 0.00000E+00
 -1      3388 1.16910E+01 1.83500E+01 0.00000E+00
 -1      3389 1.04862E+02 3.65432E+01 0.00000E+00
 -1      3390 1.15316E+02 9.74487E+00 0.00000E+00
 -1      3391 9.30664E+01 1.92286E+01 0.00000E+00
 -1      3392 1.38309E+02 1.98625E+01 0.00000E+00
 -1      3393 1.38309E+02 1.83875E+01 0.00000E+00
 -1      3394 1.18469E+02 3.14645E+01 0.00000E+00
 -1      3395 1.18331E+02 3.26424E+01 0.00000E+00
 -1      3396 1.19595E+02 3.12651E+01 0.00000E+00
 -1      3397 9.26354E+01 1.66740E+01 0.00000E+00
 -1      3398 9.38306E+01 1.60835E+01 0.00000E+00
 -1      3399 9.34333E+01 1.50137E+01 0.00000E+00
 -1      3400 1.10286E+02 3.53881E+01 0.00000E+00
 -1      3401 1.09352E+02 3.49238E+01 0.00000E+00
 -1      3402 9.30646E+01 2.20951E+01 0.00000E+00
 -1      3403 1.38309E+02 2.28125E+01 0.00000E+00
 -1      3404 1.38309E+02 2.13375E+01 0.00000E+00
 -1      3405 1.37010E+02 2.35500E+01 0.00000E+00
 -1      3406 1.16473E+02 1.03854E+01 0.00000E+00
 -1      3407 1.17973E+02 1.03854E+01 0.00000E+00
 -1      3408 1.18723E+02 1.16844E+01 0.00000E+00
 -1      3409 1.23117E+02 2.19932E+01 0.00000E+00
 -1      3410 9.91500E+01 3.70100E+01 0.00000E+00
 -1      3411 1.11150E+02 3.73064E+01 0.00000E+00
 -1      3412 1.20147E+02 2.88900E+01 0.00000E+00
 -1      3413 1.08987E+02 3.44610E+01 0.00000E+00
 -1      3414 1.08644E+02 3.55864E+01 0.00000E+00
 -1      3415 9.78952E+01 1.17242E+01 0.00000E+00
 -1      3416 1.00804E+02 3.45944E+01 0.00000E+00
 -1      3417 2.42850E+01 1.05013E+01 0.00000E+00
 -1      3418 2.35350E+01 1.18003E+01 0.00000E+00
 -1      3419 2.57850E+01 1.05013E+01 0.00000E+00
 -1      3420 9.86729E+01 3.27776E+01 0.00000E+00
 -1      3421 9.78575E+01 3.25442E+01 0.00000E+00
 -1      3422 9.83577E+01 3.39319E+01 0.00000E+00
 -1      3423 1.13163E+02 3.61239E+01 0.00000E+00
 -1      3424 1.11911E+02 3.59999E+01 0.00000E+00
 -1      3425 1.38375E+02 1.71415E+01 0.00000E+00
 -1      3426 1.38440E+02 1.58956E+01 0.00000E+00
 -1      3427 1.37076E+02 1.78790E+01 0.00000E+00
 -1      3428 1.16910E+01 1.54094E+01 0.00000E+00
 -1      3429 1.16910E+01 1.68781E+01 0.00000E+00
 -1      3430 1.29900E+01 1.76156E+01 0.00000E+00
 -1      3431 1.29900E+01 1.46719E+01 0.00000E+00
 -1      3432 9.38359E+01 2.55386E+01 0.00000E+00
 -1      3433 9.39765E+01 2.47218E+01 0.00000E+00
 -1      3434 9.28885E+01 2.42936E+01 0.00000E+00
 -1      3435 1.04077E+02 3.56666E+01 0.00000E+00
 -1      3436 1.16910E+01 3.01219E+01 0.00000E+00
 -1      3437 1.16910E+01 3.15906E+01 0.00000E+00
 -1      3438 9.64116E+01 1.36286E+01 0.00000E+00
 -1      3439 9.72531E+01 1.25343E+01 0.00000E+00
 -1      3440 9.65547E+01 1.19930E+01 0.00000E+00
 -1      3441 9.52705E+01 1.36132E+01 0.00000E+00
 -1      3442 1.20949E+02 2.48461E+01 0.00000E+00
 -1      3443 1.20519E+02 2.59022E+01 0.00000E+00
 -1      3444 1.22113E+02 2.47044E+01 0.00000E+00
 -1      3445 1.37758E+02 3.65178E+01 0.00000E+00
 -1      3446 1.38123E+02 3.54408E+01 0.00000E+00
 -1      3447 1.36824E+02 3.47033E+01 0.00000E+00
 -1      3448 1.36451E+02 3.64600E+01 0.00000E+00
 -1      3449 1.16910E+01 3.30594E+01 0.00000E+00
 -1      3450 1.16910E+01 3.45281E+01 0.00000E+00
 -1      3451 1.29900E+01 3.23250E+01 0.00000E+00
 -1      3452 1.21122E+02 2.67267E+01 0.00000E+00
 -1      3453 1.21323E+02 2.86267E+01 0.00000E+00
 -1      3454 1.20909E+02 2.98239E+01 0.00000E+00
 -1      3455 2.04000E+01 3.57110E+01 0.00000E+00
 -1      3456 2.19000E+01 3.57110E+01 0.00000E+00
 -1      3457 2.34000E+01 3.57110E+01 0.00000E+00
 -1      3458 2.49000E+01 3.57110E+01 0.00000E+00
 -1      3459 2.26500E+01 3.44120E+01 0.00000E+00
 -1      3460 2.64000E+01 3.57110E+01 0.00000E+00
 -1      3461 2.79000E+01 3.57110E+01 0.00000E+00
 -1      3462 2.56500E+01 3.44120E+01 0.00000E+00
 -1      3463 2.94000E+01 3.57110E+01 0.00000E+00
 -1      3464 3.09000E+01 3.57110E+01 0.00000E+00
 -1      3465 2.86500E+01 3.44120E+01 0.00000E+00
 -1      3466 3.24000E+01 3.57110E+01 0.00000E+00
 -1      3467 3.39000E+01 3.57110E+01 0.00000E+00
 -1      3468 3.16500E+01 3.44120E+01 0.00000E+00
 -1      3469 3.54000E+01 3.57110E+01 0.00000E+00
 -1      3470 3.69000E+01 3.57110E+01 0.00000E+00
 -1      3471 3.46500E+01 3.44120E+01 0.00000E+00
 -1      3472 3.84000E+01 3.57110E+01 0.00000E+00
 -1      3473 3.99000E+01 3.57110E+01 0.00000E+00
 -1      3474 3.76500E+01 3.44120E+01 0.00000E+00
 -1      3475 4.14000E+01 3.57110E+01 0.00000E+00
 -1      3476 4.29000E+01 3.57110E+01 0.00000E+00
 -1      3477 4.06500E+01 3.44120E+01 0.00000E+00
 -1      3478 4.44000E+01 3.57110E+01 0.00000E+00
 -1      3479 4.59000E+01 3.57110E+01 0.00000E+00
 -1      3480 4.36500E+01 3.44120E+01 0.00000E+00
 -1      3481 4.74000E+01 3.57110E+01 0.00000E+00
 -1      3482 4.89000E+01 3.57110E+01 0.00000E+00
 -1      3483 4.66500E+01 3.44120E+01 0.00000E+00
 -1      3484 5.04000E+01 3.57110E+01 0.00000E+00
 -1      3485 5.19000E+01 3.57110E+01 0.00000E+00
 -1      3486 4.96500E+01 3.44120E+01 0.00000E+00
 -1      3487 5.34000E+01 3.57110E+01 0.00000E+00
 -1      3488 5.49000E+01 3.57110E+01 0.00000E+00
 -1      3489 5.26500E+01 3.44120E+01 0.00000E+00
 -1      3490 5.64000E+01 3.57110E+01 0.00000E+00
 -1      3491 5.79000E+01 3.57110E+01 0.00000E+00
 -1      3492 5.56500E+01 3.44120E+01 0.00000E+00
 -1      3493 5.94000E+01 3.57110E+01 0.00000E+00
 -1      3494 6.09000E+01 3.57110E+01 0.00000E+00
 -1      3495 5.86500E+01 3.44120E+01 0.00000E+00
 -1      3496 6.24000E+01 3.57110E+01 0.00000E+00
 -1      3497 6.39000E+01 3.57110E+01 0.00000E+00
 -1      3498 6.16500E+01 3.44120E+01 0.00000E+00
 -1      3499 6.54000E+01 3.57110E+01 0.00000E+00
 -1      3500 6.69000E+01 3.57110E+01 0.00000E+00
 -1      3501 6.46500E+01 3.44120E+01 0.00000E+00
 -1      3502 6.84000E+01 3.57110E+01 0.00000E+00
 -1      3503 6.99000E+01 3.57110E+01 0.00000E+00
 -1      3504 6.76500E+01 3.44120E+01 0.00000E+00
 -1      3505 7.14000E+01 3.57110E+01 0.00000E+00
 -1      3506 7.29000E+01 3.57110E+01 0.00000E+00
 -1      3507 7.06500E+01 3.44120E+01 0.00000E+00
 -1      3508 7.44000E+01 3.57110E+01 0.00000E+00
 -1      3509 7.59000E+01 3.57110E+01 0.00000E+00
 -1      3510 7.36500E+01 3.44120E+01 0.00000E+00
 -1      3511 7.74000E+01 3.57110E+01 0.00000E+00
 -1      3512 7.89000E+01 3.57110E+01 0.00000E+00
 -1      3513 7.66500E+01 3.44120E+01 0.00000E+00
 -1      3514 8.04000E+01 3.57110E+01 0.00000E+00
 -1      3515 8.19000E+01 3.57110E+01 0.00000E+00
 -1      3516 7.96500E+01 3.44120E+01 0.00000E+00
 -1      3517 8.34000E+01 3.57110E+01 0.00000E+00
 -1      3518 8.49000E+01 3.57110E+01 0.00000E+00
 -1      3519 8.26500E+01 3.44120E+01 0.00000E+00
 -1      3520 8.64000E+01 3.57110E+01 0.00000E+00
 -1      3521 8.79000E+01 3.57110E+01 0.00000E+00
 -1      3522 8.56500E+01 3.44120E+01 0.00000E+00
 -1      3523 8.94000E+01 3.57110E+01 0.00000E+00
 -1      3524 9.09000E+01 3.57110E+01 0.00000E+00
 -1      3525 8.86500E+01 3.44120E+01 0.00000E+00
 -1      3526 9.24000E+01 3.57110E+01 0.00000E+00
 -1      3527 9.39000E+01 3.57110E+01 0.00000E+00
 -1      3528 9.16500E+01 3.44120E+01 0.00000E+00
 -1      3529 9.60961E+01 3.53542E+01 0.00000E+00
 -1      3530 9.75961E+01 3.53542E+01 0.00000E+00
 -1      3531 1.07862E+02 3.65432E+01 0.00000E+00
 -1      3532 1.16906E+02 3.43306E+01 0.00000E+00
 -1      3533 1.15142E+02 3.54223E+01 0.00000E+00
 -1      3534 1.16129E+02 3.65210E+01 0.00000E+00
 -1      3535 1.17629E+02 3.65210E+01 0.00000E+00
 -1      3536 1.19400E+02 3.59236E+01 0.00000E+00
 -1      3537 1.20900E+02 3.59236E+01 0.00000E+00
 -1      3538 1.22400E+02 3.59236E+01 0.00000E+00
 -1      3539 1.23900E+02 3.59236E+01 0.00000E+00
 -1      3540 1.21650E+02 3.46246E+01 0.00000E+00
 -1      3541 1.25400E+02 3.59236E+01 0.00000E+00
 -1      3542 1.26900E+02 3.59236E+01 0.00000E+00
 -1      3543 1.24650E+02 3.46246E+01 0.00000E+00
 -1      3544 1.28400E+02 3.59236E+01 0.00000E+00
 -1      3545 1.29900E+02 3.59236E+01 0.00000E+00
 -1      3546 1.27650E+02 3.46246E+01 0.00000E+00
 -1      3547 1.31400E+02 3.59236E+01 0.00000E+00
 -1      3548 1.32900E+02 3.59236E+01 0.00000E+00
 -1      3549 1.30650E+02 3.46246E+01 0.00000E+00
 -1      3550 1.16910E+01 2.71844E+01 0.00000E+00
 -1      3551 1.16910E+01 2.86531E+01 0.00000E+00
 -1      3552 1.29900E+01 2.93875E+01 0.00000E+00
 -1      3553 4.52850E+01 1.30992E+01 0.00000E+00
 -1      3554 4.37850E+01 1.30992E+01 0.00000E+00
 -1      3555 4.22850E+01 1.30992E+01 0.00000E+00
 -1      3556 4.07850E+01 1.30992E+01 0.00000E+00
 -1      3557 4.30350E+01 1.43982E+01 0.00000E+00
 -1      3558 5.12850E+01 1.30992E+01 0.00000E+00
 -1      3559 4.97850E+01 1.30992E+01 0.00000E+00
 -1      3560 5.42850E+01 1.30992E+01 0.00000E+00
 -1      3561 5.27850E+01 1.30992E+01 0.00000E+00
 -1      3562 5.20350E+01 1.43982E+01 0.00000E+00
 -1      3563 5.72850E+01 1.30992E+01 0.00000E+00
 -1      3564 5.57850E+01 1.30992E+01 0.00000E+00
 -1      3565 5.50350E+01 1.43982E+01 0.00000E+00
 -1      3566 6.02850E+01 1.30992E+01 0.00000E+00
 -1      3567 5.87850E+01 1.30992E+01 0.00000E+00
 -1      3568 5.80350E+01 1.43982E+01 0.00000E+00
 -1      3569 6.32850E+01 1.30992E+01 0.00000E+00
 -1      3570 6.17850E+01 1.30992E+01 0.00000E+00
 -1      3571 6.10350E+01 1.43982E+01 0.00000E+00
 -1      3572 6.62850E+01 1.30992E+01 0.00000E+00
 -1      3573 6.47850E+01 1.30992E+01 0.00000E+00
 -1      3574 6.40350E+01 1.43982E+01 0.00000E+00
 -1      3575 6.92850E+01 1.30992E+01 0.00000E+00
 -1      3576 6.77850E+01 1.30992E+01 0.00000E+00
 -1      3577 6.70350E+01 1.43982E+01 0.00000E+00
 -1      3578 7.22850E+01 1.30992E+01 0.00000E+00
 -1      3579 7.07850E+01 1.30992E+01 0.00000E+00
 -1      3580 7.00350E+01 1.43982E+01 0.00000E+00
 -1      3581 7.52850E+01 1.30992E+01 0.00000E+00
 -1      3582 7.37850E+01 1.30992E+01 0.00000E+00
 -1      3583 7.30350E+01 1.43982E+01 0.00000E+00
 -1      3584 7.82850E+01 1.30992E+01 0.00000E+00
 -1      3585 7.67850E+01 1.30992E+01 0.00000E+00
 -1      3586 7.60350E+01 1.43982E+01 0.00000E+00
 -1      3587 8.12850E+01 1.30992E+01 0.00000E+00
 -1      3588 7.97850E+01 1.30992E+01 0.00000E+00
 -1      3589 7.90350E+01 1.43982E+01 0.00000E+00
 -1      3590 8.42850E+01 1.30992E+01 0.00000E+00
 -1      3591 8.27850E+01 1.30992E+01 0.00000E+00
 -1      3592 8.20350E+01 1.43982E+01 0.00000E+00
 -1      3593 8.72850E+01 1.30992E+01 0.00000E+00
 -1      3594 8.57850E+01 1.30992E+01 0.00000E+00
 -1      3595 8.50350E+01 1.43982E+01 0.00000E+00
 -1      3596 9.02850E+01 1.30992E+01 0.00000E+00
 -1      3597 8.87850E+01 1.30992E+01 0.00000E+00
 -1      3598 8.80350E+01 1.43982E+01 0.00000E+00
 -1      3599 9.49738E+01 1.23017E+01 0.00000E+00
 -1      3600 1.01543E+02 3.60167E+01 0.00000E+00
 -1      3601 9.99115E+01 3.55877E+01 0.00000E+00
 -1      3602 1.32285E+02 1.30542E+01 0.00000E+00
 -1      3603 1.30785E+02 1.30542E+01 0.00000E+00
 -1      3604 1.26285E+02 1.30542E+01 0.00000E+00
 -1      3605 1.24785E+02 1.30542E+01 0.00000E+00
 -1      3606 1.35285E+02 1.30542E+01 0.00000E+00
 -1      3607 1.33785E+02 1.30542E+01 0.00000E+00
 -1      3608 1.33035E+02 1.43532E+01 0.00000E+00
 -1      3609 1.37010E+02 2.06000E+01 0.00000E+00
 -1      3610 9.21422E+01 1.99924E+01 0.00000E+00
 -1      3611 9.21085E+01 1.85076E+01 0.00000E+00
 -1      3612 1.11025E+02 3.66108E+01 0.00000E+00
 -1      3613 9.20221E+01 2.27596E+01 0.00000E+00
 -1      3614 9.20576E+01 2.13779E+01 0.00000E+00
 -1      3615 1.24631E+02 2.15913E+01 0.00000E+00
 -1      3616 1.24057E+02 2.32464E+01 0.00000E+00
 -1      3617 1.35711E+02 2.72000E+01 0.00000E+00
 -1      3618 1.35711E+02 2.57500E+01 0.00000E+00
 -1      3619 1.35992E+01 3.60377E+01 0.00000E+00
 -1      3620 1.55387E+01 3.58251E+01 0.00000E+00
 -1      3621 1.23275E+02 1.37819E+01 0.00000E+00
 -1      3622 1.24429E+02 1.54694E+01 0.00000E+00
 -1      3623 1.03043E+02 3.62068E+01 0.00000E+00
 -1      3624 1.23627E+02 2.43025E+01 0.00000E+00
 -1      3625 1.23198E+02 2.53586E+01 0.00000E+00
 -1      3626 1.25142E+02 2.39006E+01 0.00000E+00
 -1      3627 1.14663E+02 3.61239E+01 0.00000E+00
 -1      3628 1.29285E+02 1.30542E+01 0.00000E+00
 -1      3629 1.27785E+02 1.30542E+01 0.00000E+00
 -1      3630 1.27035E+02 1.43532E+01 0.00000E+00
 -1      3631 1.30035E+02 1.43532E+01 0.00000E+00
 -1      3632 1.19717E+02 1.25157E+01 0.00000E+00
 -1      3633 1.21025E+02 1.24829E+01 0.00000E+00
 -1      3634 1.22445E+02 2.66943E+01 0.00000E+00
 -1      3635 1.21884E+02 2.76605E+01 0.00000E+00
 -1      3636 1.22646E+02 2.85943E+01 0.00000E+00
 -1      3637 2.12850E+01 1.30992E+01 0.00000E+00
 -1      3638 1.97850E+01 1.30992E+01 0.00000E+00
 -1      3639 1.38643E+02 1.47900E+01 0.00000E+00
 -1      3640 1.38709E+02 1.35440E+01 0.00000E+00
 -1      3641 1.37750E+02 1.33163E+01 0.00000E+00
 -1      3642 1.37344E+02 1.55275E+01 0.00000E+00
 -1      3643 1.74000E+01 3.57110E+01 0.00000E+00
 -1      3644 1.89000E+01 3.57110E+01 0.00000E+00
 -1      3645 1.96500E+01 3.44120E+01 0.00000E+00
 -1      3646 1.24613E+02 1.73456E+01 0.00000E+00
 -1      3647 1.24797E+02 1.92219E+01 0.00000E+00
 -1      3648 1.25719E+02 1.62295E+01 0.00000E+00
 -1      3649 4.82850E+01 1.30992E+01 0.00000E+00
 -1      3650 4.67850E+01 1.30992E+01 0.00000E+00
 -1      3651 4.60350E+01 1.43982E+01 0.00000E+00
 -1      3652 4.90350E+01 1.43982E+01 0.00000E+00
 -1      3653 3.32850E+01 1.30992E+01 0.00000E+00
 -1      3654 3.17850E+01 1.30992E+01 0.00000E+00
 -1      3655 1.84669E+01 1.29495E+01 0.00000E+00
 -1      3656 1.71488E+01 1.27997E+01 0.00000E+00
 -1      3657 1.92169E+01 1.42485E+01 0.00000E+00
 -1      3658 9.55445E+01 2.94220E+01 0.00000E+00
 -1      3659 9.46429E+01 2.89468E+01 0.00000E+00
 -1      3660 9.54370E+01 3.05844E+01 0.00000E+00
 -1      3661 3.62850E+01 1.30992E+01 0.00000E+00
 -1      3662 3.47850E+01 1.30992E+01 0.00000E+00
 -1      3663 3.40350E+01 1.43982E+01 0.00000E+00
 -1      3664 9.53461E+01 3.40552E+01 0.00000E+00
 -1      3665 3.02850E+01 1.30992E+01 0.00000E+00
 -1      3666 2.87850E+01 1.30992E+01 0.00000E+00
 -1      3667 3.10350E+01 1.43982E+01 0.00000E+00
 -1      3668 1.42890E+01 1.98219E+01 0.00000E+00
 -1      3669 1.42890E+01 2.12906E+01 0.00000E+00
 -1      3670 1.18379E+02 3.52220E+01 0.00000E+00
 -1      3671 1.35711E+02 3.01500E+01 0.00000E+00
 -1      3672 1.35711E+02 2.86750E+01 0.00000E+00
 -1      3673 1.34412E+02 2.79500E+01 0.00000E+00
 -1      3674 1.42890E+01 2.86531E+01 0.00000E+00
 -1      3675 1.42890E+01 3.01219E+01 0.00000E+00
 -1      3676 1.29900E+01 2.64469E+01 0.00000E+00
 -1      3677 1.34022E+02 3.61629E+01 0.00000E+00
 -1      3678 1.35329E+02 3.62207E+01 0.00000E+00
 -1      3679 1.35515E+02 3.53424E+01 0.00000E+00
 -1      3680 1.33272E+02 3.48639E+01 0.00000E+00
 -1      3681 9.36624E+01 2.73562E+01 0.00000E+00
 -1      3682 9.37491E+01 2.64474E+01 0.00000E+00
 -1      3683 9.26612E+01 2.60192E+01 0.00000E+00
 -1      3684 9.69405E+01 3.23790E+01 0.00000E+00
 -1      3685 4.00350E+01 1.43982E+01 0.00000E+00
 -1      3686 3.92850E+01 1.30992E+01 0.00000E+00
 -1      3687 3.77850E+01 1.30992E+01 0.00000E+00
 -1      3688 9.43317E+01 1.31118E+01 0.00000E+00
 -1      3689 9.16365E+01 1.37022E+01 0.00000E+00
 -1      3690 9.08865E+01 1.50012E+01 0.00000E+00
 -1      3691 1.35711E+02 2.13375E+01 0.00000E+00
 -1      3692 1.35711E+02 1.98625E+01 0.00000E+00
 -1      3693 9.31365E+01 1.37022E+01 0.00000E+00
 -1      3694 1.42890E+01 3.15906E+01 0.00000E+00
 -1      3695 1.42890E+01 3.30594E+01 0.00000E+00
 -1      3696 1.55880E+01 3.08563E+01 0.00000E+00
 -1      3697 1.22525E+02 1.24829E+01 0.00000E+00
 -1      3698 1.21947E+02 3.07384E+01 0.00000E+00
 -1      3699 1.20771E+02 3.10018E+01 0.00000E+00
 -1      3700 1.20634E+02 3.21797E+01 0.00000E+00
 -1      3701 1.25738E+02 2.04752E+01 0.00000E+00
 -1      3702 1.26678E+02 2.17284E+01 0.00000E+00
 -1      3703 1.26844E+02 1.93590E+01 0.00000E+00
 -1      3704 1.36791E+02 1.30885E+01 0.00000E+00
 -1      3705 1.42284E+01 1.25117E+01 0.00000E+00
 -1      3706 1.38422E+01 1.35111E+01 0.00000E+00
 -1      3707 1.38422E+01 1.49830E+01 0.00000E+00
 -1      3708 1.55466E+01 1.26615E+01 0.00000E+00
 -1      3709 1.62887E+01 3.45261E+01 0.00000E+00
 -1      3710 9.10996E+01 2.06569E+01 0.00000E+00
 -1      3711 1.19804E+02 3.35338E+01 0.00000E+00
 -1      3712 1.18677E+02 3.37332E+01 0.00000E+00
 -1      3713 9.17111E+01 1.74378E+01 0.00000E+00
 -1      3714 9.13138E+01 1.63680E+01 0.00000E+00
 -1      3715 9.07869E+01 1.82015E+01 0.00000E+00
 -1      3716 9.18815E+01 2.35764E+01 0.00000E+00
 -1      3717 9.08745E+01 2.28592E+01 0.00000E+00
 -1      3718 9.17409E+01 2.43932E+01 0.00000E+00
 -1      3719 2.65350E+01 1.18003E+01 0.00000E+00
 -1      3720 1.35711E+02 2.42813E+01 0.00000E+00
 -1      3721 1.35711E+02 2.28062E+01 0.00000E+00
 -1      3722 1.34412E+02 2.20688E+01 0.00000E+00
 -1      3723 1.34412E+02 2.50063E+01 0.00000E+00
 -1      3724 1.36041E+02 1.43875E+01 0.00000E+00
 -1      3725 1.35777E+02 1.86165E+01 0.00000E+00
 -1      3726 1.35842E+02 1.73706E+01 0.00000E+00
 -1      3727 1.34478E+02 1.93540E+01 0.00000E+00
 -1      3728 1.42890E+01 2.27656E+01 0.00000E+00
 -1      3729 1.42890E+01 2.42406E+01 0.00000E+00
 -1      3730 1.55880E+01 2.20313E+01 0.00000E+00
 -1      3731 1.23959E+02 2.62925E+01 0.00000E+00
 -1      3732 2.27850E+01 1.30992E+01 0.00000E+00
 -1      3733 2.20350E+01 1.43982E+01 0.00000E+00
 -1      3734 2.42850E+01 1.30992E+01 0.00000E+00
 -1      3735 9.84115E+01 3.55877E+01 0.00000E+00
 -1      3736 1.35702E+02 3.44641E+01 0.00000E+00
 -1      3737 1.28805E+01 3.56145E+01 0.00000E+00
 -1      3738 1.34487E+02 3.39265E+01 0.00000E+00
 -1      3739 1.35795E+02 3.32874E+01 0.00000E+00
 -1      3740 1.35795E+02 3.18124E+01 0.00000E+00
 -1      3741 1.33365E+02 3.36872E+01 0.00000E+00
 -1      3742 1.08769E+02 3.62821E+01 0.00000E+00
 -1      3743 5.87850E+01 1.56973E+01 0.00000E+00
 -1      3744 5.72850E+01 1.56973E+01 0.00000E+00
 -1      3745 1.42890E+01 1.83500E+01 0.00000E+00
 -1      3746 1.55880E+01 1.90844E+01 0.00000E+00
 -1      3747 1.42890E+01 1.68781E+01 0.00000E+00
 -1      3748 4.37850E+01 1.56973E+01 0.00000E+00
 -1      3749 4.22850E+01 1.56973E+01 0.00000E+00
 -1      3750 2.49000E+01 3.31130E+01 0.00000E+00
 -1      3751 2.64000E+01 3.31130E+01 0.00000E+00
 -1      3752 2.79000E+01 3.31130E+01 0.00000E+00
 -1      3753 2.94000E+01 3.31130E+01 0.00000E+00
 -1      3754 2.71500E+01 3.18140E+01 0.00000E+00
 -1      3755 3.09000E+01 3.31130E+01 0.00000E+00
 -1      3756 3.24000E+01 3.31130E+01 0.00000E+00
 -1      3757 3.01500E+01 3.18140E+01 0.00000E+00
 -1      3758 3.39000E+01 3.31130E+01 0.00000E+00
 -1      3759 3.54000E+01 3.31130E+01 0.00000E+00
 -1      3760 3.31500E+01 3.18140E+01 0.00000E+00
 -1      3761 3.69000E+01 3.31130E+01 0.00000E+00
 -1      3762 3.84000E+01 3.31130E+01 0.00000E+00
 -1      3763 3.61500E+01 3.18140E+01 0.00000E+00
 -1      3764 3.99000E+01 3.31130E+01 0.00000E+00
 -1      3765 4.14000E+01 3.31130E+01 0.00000E+00
 -1      3766 3.91500E+01 3.18140E+01 0.00000E+00
 -1      3767 4.29000E+01 3.31130E+01 0.00000E+00
 -1      3768 4.44000E+01 3.31130E+01 0.00000E+00
 -1      3769 4.21500E+01 3.18140E+01 0.00000E+00
 -1      3770 4.59000E+01 3.31130E+01 0.00000E+00
 -1      3771 4.74000E+01 3.31130E+01 0.00000E+00
 -1      3772 4.51500E+01 3.18140E+01 0.00000E+00
 -1      3773 4.89000E+01 3.31130E+01 0.00000E+00
 -1      3774 5.04000E+01 3.31130E+01 0.00000E+00
 -1      3775 4.81500E+01 3.18140E+01 0.00000E+00
 -1      3776 5.19000E+01 3.31130E+01 0.00000E+00
 -1      3777 5.34000E+01 3.31130E+01 0.00000E+00
 -1      3778 5.11500E+01 3.18140E+01 0.00000E+00
 -1      3779 5.49000E+01 3.31130E+01 0.00000E+00
 -1      3780 5.64000E+01 3.31130E+01 0.00000E+00
 -1      3781 5.41500E+01 3.18140E+01 0.00000E+00
 -1      3782 5.79000E+01 3.31130E+01 0.00000E+00
 -1      3783 5.94000E+01 3.31130E+01 0.00000E+00
 -1      3784 5.71500E+01 3.18140E+01 0.00000E+00
 -1      3785 6.09000E+01 3.31130E+01 0.00000E+00
 -1      3786 6.24000E+01 3.31130E+01 0.00000E+00
 -1      3787 6.01500E+01 3.18140E+01 0.00000E+00
 -1      3788 6.39000E+01 3.31130E+01 0.00000E+00
 -1      3789 6.54000E+01 3.31130E+01 0.00000E+00
 -1      3790 6.31500E+01 3.18140E+01 0.00000E+00
 -1      3791 6.69000E+01 3.31130E+01 0.00000E+00
 -1      3792 6.84000E+01 3.31130E+01 0.00000E+00
 -1      3793 6.61500E+01 3.18140E+01 0.00000E+00
 -1      3794 6.99000E+01 3.31130E+01 0.00000E+00
 -1      3795 7.14000E+01 3.31130E+01 0.00000E+00
 -1      3796 6.91500E+01 3.18140E+01 0.00000E+00
 -1      3797 7.29000E+01 3.31130E+01 0.00000E+00
 -1      3798 7.44000E+01 3.31130E+01 0.00000E+00
 -1      3799 7.21500E+01 3.18140E+01 0.00000E+00
 -1      3800 7.59000E+01 3.31130E+01 0.00000E+00
 -1      3801 7.74000E+01 3.31130E+01 0.00000E+00
 -1      3802 7.51500E+01 3.18140E+01 0.00000E+00
 -1      3803 7.89000E+01 3.31130E+01 0.00000E+00
 -1      3804 8.04000E+01 3.31130E+01 0.00000E+00
 -1      3805 7.81500E+01 3.18140E+01 0.00000E+00
 -1      3806 8.19000E+01 3.31130E+01 0.00000E+00
 -1      3807 8.34000E+01 3.31130E+01 0.00000E+00
 -1      3808 8.11500E+01 3.18140E+01 0.00000E+00
 -1      3809 8.49000E+01 3.31130E+01 0.00000E+00
 -1      3810 8.64000E+01 3.31130E+01 0.00000E+00
 -1      3811 8.41500E+01 3.18140E+01 0.00000E+00
 -1      3812 8.79000E+01 3.31130E+01 0.00000E+00
 -1      3813 8.94000E+01 3.31130E+01 0.00000E+00
 -1      3814 8.71500E+01 3.18140E+01 0.00000E+00
 -1      3815 9.09000E+01 3.31130E+01 0.00000E+00
 -1      3816 9.24000E+01 3.31130E+01 0.00000E+00
 -1      3817 9.01500E+01 3.18140E+01 0.00000E+00
 -1      3818 1.20980E+02 3.32705E+01 0.00000E+00
 -1      3819 1.22480E+02 3.32705E+01 0.00000E+00
 -1      3820 1.37087E+01 3.42169E+01 0.00000E+00
 -1      3821 1.42890E+01 2.57109E+01 0.00000E+00
 -1      3822 1.42890E+01 2.71828E+01 0.00000E+00
 -1      3823 1.55880E+01 2.79172E+01 0.00000E+00
 -1      3824 1.55880E+01 2.49766E+01 0.00000E+00
 -1      3825 1.23980E+02 3.32705E+01 0.00000E+00
 -1      3826 1.25480E+02 3.32705E+01 0.00000E+00
 -1      3827 1.23310E+02 3.19163E+01 0.00000E+00
 -1      3828 1.26980E+02 3.32705E+01 0.00000E+00
 -1      3829 1.28480E+02 3.32705E+01 0.00000E+00
 -1      3830 1.26310E+02 3.19163E+01 0.00000E+00
 -1      3831 1.29980E+02 3.32705E+01 0.00000E+00
 -1      3832 1.31480E+02 3.32705E+01 0.00000E+00
 -1      3833 1.29310E+02 3.19163E+01 0.00000E+00
 -1      3834 9.47443E+01 3.27358E+01 0.00000E+00
 -1      3835 5.57850E+01 1.56973E+01 0.00000E+00
 -1      3836 5.42850E+01 1.56973E+01 0.00000E+00
 -1      3837 5.65350E+01 1.69963E+01 0.00000E+00
 -1      3838 5.27850E+01 1.56973E+01 0.00000E+00
 -1      3839 5.12850E+01 1.56973E+01 0.00000E+00
 -1      3840 5.35350E+01 1.69963E+01 0.00000E+00
 -1      3841 6.17850E+01 1.56973E+01 0.00000E+00
 -1      3842 6.02850E+01 1.56973E+01 0.00000E+00
 -1      3843 5.95350E+01 1.69963E+01 0.00000E+00
 -1      3844 6.47850E+01 1.56973E+01 0.00000E+00
 -1      3845 6.32850E+01 1.56973E+01 0.00000E+00
 -1      3846 6.25350E+01 1.69963E+01 0.00000E+00
 -1      3847 6.77850E+01 1.56973E+01 0.00000E+00
 -1      3848 6.62850E+01 1.56973E+01 0.00000E+00
 -1      3849 6.55350E+01 1.69963E+01 0.00000E+00
 -1      3850 7.07850E+01 1.56973E+01 0.00000E+00
 -1      3851 6.92850E+01 1.56973E+01 0.00000E+00
 -1      3852 6.85350E+01 1.69963E+01 0.00000E+00
 -1      3853 7.37850E+01 1.56973E+01 0.00000E+00
 -1      3854 7.22850E+01 1.56973E+01 0.00000E+00
 -1      3855 7.15350E+01 1.69963E+01 0.00000E+00
 -1      3856 7.67850E+01 1.56973E+01 0.00000E+00
 -1      3857 7.52850E+01 1.56973E+01 0.00000E+00
 -1      3858 7.45350E+01 1.69963E+01 0.00000E+00
 -1      3859 7.97850E+01 1.56973E+01 0.00000E+00
 -1      3860 7.82850E+01 1.56973E+01 0.00000E+00
 -1      3861 7.75350E+01 1.69963E+01 0.00000E+00
 -1      3862 8.27850E+01 1.56973E+01 0.00000E+00
 -1      3863 8.12850E+01 1.56973E+01 0.00000E+00
 -1      3864 8.05350E+01 1.69963E+01 0.00000E+00
 -1      3865 8.57850E+01 1.56973E+01 0.00000E+00
 -1      3866 8.42850E+01 1.56973E+01 0.00000E+00
 -1      3867 8.35350E+01 1.69963E+01 0.00000E+00
 -1      3868 1.27219E+02 1.62295E+01 0.00000E+00
 -1      3869 1.33785E+02 1.56522E+01 0.00000E+00
 -1      3870 1.32285E+02 1.56522E+01 0.00000E+00
 -1      3871 1.35838E+02 1.54931E+01 0.00000E+00
 -1      3872 8.99505E+01 2.12821E+01 0.00000E+00
 -1      3873 9.00351E+01 1.98965E+01 0.00000E+00
 -1      3874 1.26560E+02 2.38622E+01 0.00000E+00
 -1      3875 1.26130E+02 2.49183E+01 0.00000E+00
 -1      3876 1.09525E+02 3.66945E+01 0.00000E+00
 -1      3877 1.89000E+01 3.31130E+01 0.00000E+00
 -1      3878 2.04000E+01 3.31130E+01 0.00000E+00
 -1      3879 1.23885E+02 2.86680E+01 0.00000E+00
 -1      3880 1.23324E+02 2.96341E+01 0.00000E+00
 -1      3881 8.99623E+01 1.57650E+01 0.00000E+00
 -1      3882 1.25384E+02 2.61253E+01 0.00000E+00
 -1      3883 1.24631E+02 2.74610E+01 0.00000E+00
 -1      3884 1.25310E+02 2.85008E+01 0.00000E+00
 -1      3885 1.26802E+02 2.60868E+01 0.00000E+00
 -1      3886 2.72850E+01 1.30992E+01 0.00000E+00
 -1      3887 2.57850E+01 1.30992E+01 0.00000E+00
 -1      3888 2.50350E+01 1.43982E+01 0.00000E+00
 -1      3889 2.19000E+01 3.31130E+01 0.00000E+00
 -1      3890 2.34000E+01 3.31130E+01 0.00000E+00
 -1      3891 2.11500E+01 3.18140E+01 0.00000E+00
 -1      3892 1.50077E+01 3.34825E+01 0.00000E+00
 -1      3893 3.70350E+01 1.43982E+01 0.00000E+00
 -1      3894 1.68870E+01 1.83484E+01 0.00000E+00
 -1      3895 1.68870E+01 1.98203E+01 0.00000E+00
 -1      3896 1.68690E+01 3.33685E+01 0.00000E+00
 -1      3897 3.17850E+01 1.56973E+01 0.00000E+00
 -1      3898 3.02850E+01 1.56973E+01 0.00000E+00
 -1      3899 4.52850E+01 1.56973E+01 0.00000E+00
 -1      3900 4.45350E+01 1.69963E+01 0.00000E+00
 -1      3901 4.67850E+01 1.56973E+01 0.00000E+00
 -1      3902 1.51412E+01 1.57174E+01 0.00000E+00
 -1      3903 9.30830E+01 3.27519E+01 0.00000E+00
 -1      3904 9.46773E+01 3.10757E+01 0.00000E+00
 -1      3905 1.34539E+02 1.62306E+01 0.00000E+00
 -1      3906 2.80350E+01 1.43982E+01 0.00000E+00
 -1      3907 1.34496E+02 3.10874E+01 0.00000E+00
 -1      3908 9.15674E+01 2.62108E+01 0.00000E+00
 -1      3909 9.16542E+01 2.53020E+01 0.00000E+00
 -1      3910 9.06471E+01 2.45848E+01 0.00000E+00
 -1      3911 4.07850E+01 1.56973E+01 0.00000E+00
 -1      3912 3.92850E+01 1.56973E+01 0.00000E+00
 -1      3913 4.15350E+01 1.69963E+01 0.00000E+00
 -1      3914 1.29097E+02 1.59180E+01 0.00000E+00
 -1      3915 1.27782E+02 1.77943E+01 0.00000E+00
 -1      3916 1.28722E+02 1.90475E+01 0.00000E+00
 -1      3917 1.30597E+02 1.59180E+01 0.00000E+00
 -1      3918 8.87850E+01 1.56973E+01 0.00000E+00
 -1      3919 8.72850E+01 1.56973E+01 0.00000E+00
 -1      3920 1.32695E+02 3.23330E+01 0.00000E+00
 -1      3921 1.68870E+01 3.01219E+01 0.00000E+00
 -1      3922 1.68870E+01 3.15906E+01 0.00000E+00
 -1      3923 1.27666E+02 2.27460E+01 0.00000E+00
 -1      3924 1.28654E+02 2.37637E+01 0.00000E+00
 -1      3925 1.28773E+02 2.16299E+01 0.00000E+00
 -1      3926 8.92123E+01 1.70640E+01 0.00000E+00
 -1      3927 1.62966E+01 1.39605E+01 0.00000E+00
 -1      3928 8.98223E+01 1.90152E+01 0.00000E+00
 -1      3929 8.94250E+01 1.79454E+01 0.00000E+00
 -1      3930 8.82477E+01 1.78776E+01 0.00000E+00
 -1      3931 8.86732E+01 1.96404E+01 0.00000E+00
 -1      3932 1.33113E+02 2.57406E+01 0.00000E+00
 -1      3933 1.33113E+02 2.42719E+01 0.00000E+00
 -1      3934 1.68870E+01 2.71812E+01 0.00000E+00
 -1      3935 1.68870E+01 2.86516E+01 0.00000E+00
 -1      3936 1.81860E+01 2.93859E+01 0.00000E+00
 -1      3937 8.98099E+01 2.20989E+01 0.00000E+00
 -1      3938 8.87453E+01 2.13385E+01 0.00000E+00
 -1      3939 8.96693E+01 2.29157E+01 0.00000E+00
 -1      3940 1.23447E+02 3.07384E+01 0.00000E+00
 -1      3941 1.32086E+02 2.30925E+01 0.00000E+00
 -1      3942 1.32086E+02 2.16238E+01 0.00000E+00
 -1      3943 8.65350E+01 1.69963E+01 0.00000E+00
 -1      3944 3.47850E+01 1.56973E+01 0.00000E+00
 -1      3945 3.32850E+01 1.56973E+01 0.00000E+00
 -1      3946 3.25350E+01 1.69963E+01 0.00000E+00
 -1      3947 1.24687E+02 3.08120E+01 0.00000E+00
 -1      3948 2.41500E+01 3.18140E+01 0.00000E+00
 -1      3949 1.81860E+01 2.05594E+01 0.00000E+00
 -1      3950 1.68870E+01 2.12953E+01 0.00000E+00
 -1      3951 1.68870E+01 2.27703E+01 0.00000E+00
 -1      3952 1.33113E+02 2.86906E+01 0.00000E+00
 -1      3953 1.33113E+02 2.72156E+01 0.00000E+00
 -1      3954 1.31814E+02 2.64813E+01 0.00000E+00
 -1      3955 1.97293E+01 1.56141E+01 0.00000E+00
 -1      3956 1.84111E+01 1.54643E+01 0.00000E+00
 -1      3957 9.34475E+01 2.96809E+01 0.00000E+00
 -1      3958 9.35549E+01 2.85186E+01 0.00000E+00
 -1      3959 9.24670E+01 2.80904E+01 0.00000E+00
 -1      3960 4.97850E+01 1.56973E+01 0.00000E+00
 -1      3961 4.82850E+01 1.56973E+01 0.00000E+00
 -1      3962 4.75350E+01 1.69963E+01 0.00000E+00
 -1      3963 2.27293E+01 1.56141E+01 0.00000E+00
 -1      3964 2.12293E+01 1.56141E+01 0.00000E+00
 -1      3965 2.04235E+01 1.68299E+01 0.00000E+00
 -1      3966 1.31347E+02 1.72170E+01 0.00000E+00
 -1      3967 1.30400E+02 2.09467E+01 0.00000E+00
 -1      3968 1.32726E+02 1.99230E+01 0.00000E+00
 -1      3969 1.32791E+02 1.86770E+01 0.00000E+00
 -1      3970 5.05350E+01 1.69963E+01 0.00000E+00
 -1      3971 1.72558E+01 1.72212E+01 0.00000E+00
 -1      3972 1.85548E+01 1.79571E+01 0.00000E+00
 -1      3973 1.81680E+01 3.26341E+01 0.00000E+00
 -1      3974 1.25748E+02 2.96564E+01 0.00000E+00
 -1      3975 1.25871E+02 3.07607E+01 0.00000E+00
 -1      3976 1.27371E+02 3.07607E+01 0.00000E+00
 -1      3977 1.26494E+02 2.84494E+01 0.00000E+00
 -1      3978 9.23330E+01 3.14529E+01 0.00000E+00
 -1      3979 3.77850E+01 1.56973E+01 0.00000E+00
 -1      3980 3.62850E+01 1.56973E+01 0.00000E+00
 -1      3981 3.55350E+01 1.69963E+01 0.00000E+00
 -1      3982 3.85350E+01 1.69963E+01 0.00000E+00
 -1      3983 1.33789E+02 1.75296E+01 0.00000E+00
 -1      3984 2.94000E+01 3.05150E+01 0.00000E+00
 -1      3985 3.09000E+01 3.05150E+01 0.00000E+00
 -1      3986 3.24000E+01 3.05150E+01 0.00000E+00
 -1      3987 3.39000E+01 3.05150E+01 0.00000E+00
 -1      3988 3.16500E+01 2.92160E+01 0.00000E+00
 -1      3989 3.54000E+01 3.05150E+01 0.00000E+00
 -1      3990 3.69000E+01 3.05150E+01 0.00000E+00
 -1      3991 3.46500E+01 2.92160E+01 0.00000E+00
 -1      3992 3.84000E+01 3.05150E+01 0.00000E+00
 -1      3993 3.99000E+01 3.05150E+01 0.00000E+00
 -1      3994 3.76500E+01 2.92160E+01 0.00000E+00
 -1      3995 4.14000E+01 3.05150E+01 0.00000E+00
 -1      3996 4.29000E+01 3.05150E+01 0.00000E+00
 -1      3997 4.06500E+01 2.92160E+01 0.00000E+00
 -1      3998 4.44000E+01 3.05150E+01 0.00000E+00
 -1      3999 4.59000E+01 3.05150E+01 0.00000E+00
 -1      4000 4.36500E+01 2.92160E+01 0.00000E+00
 -1      4001 4.74000E+01 3.05150E+01 0.00000E+00
 -1      4002 4.89000E+01 3.05150E+01 0.00000E+00
 -1      4003 4.66500E+01 2.92160E+01 0.00000E+00
 -1      4004 5.04000E+01 3.05150E+01 0.00000E+00
 -1      4005 5.19000E+01 3.05150E+01 0.00000E+00
 -1      4006 4.96500E+01 2.92160E+01 0.00000E+00
 -1      4007 5.34000E+01 3.05150E+01 0.00000E+00
 -1      4008 5.49000E+01 3.05150E+01 0.00000E+00
 -1      4009 5.26500E+01 2.92160E+01 0.00000E+00
 -1      4010 5.64000E+01 3.05150E+01 0.00000E+00
 -1      4011 5.79000E+01 3.05150E+01 0.00000E+00
 -1      4012 5.56500E+01 2.92160E+01 0.00000E+00
 -1      4013 5.94000E+01 3.05150E+01 0.00000E+00
 -1      4014 6.09000E+01 3.05150E+01 0.00000E+00
 -1      4015 5.86500E+01 2.92160E+01 0.00000E+00
 -1      4016 6.24000E+01 3.05150E+01 0.00000E+00
 -1      4017 6.39000E+01 3.05150E+01 0.00000E+00
 -1      4018 6.16500E+01 2.92160E+01 0.00000E+00
 -1      4019 6.54000E+01 3.05150E+01 0.00000E+00
 -1      4020 6.69000E+01 3.05150E+01 0.00000E+00
 -1      4021 6.46500E+01 2.92160E+01 0.00000E+00
 -1      4022 6.84000E+01 3.05150E+01 0.00000E+00
 -1      4023 6.99000E+01 3.05150E+01 0.00000E+00
 -1      4024 6.76500E+01 2.92160E+01 0.00000E+00
 -1      4025 7.14000E+01 3.05150E+01 0.00000E+00
 -1      4026 7.29000E+01 3.05150E+01 0.00000E+00
 -1      4027 7.06500E+01 2.92160E+01 0.00000E+00
 -1      4028 7.44000E+01 3.05150E+01 0.00000E+00
 -1      4029 7.59000E+01 3.05150E+01 0.00000E+00
 -1      4030 7.36500E+01 2.92160E+01 0.00000E+00
 -1      4031 7.74000E+01 3.05150E+01 0.00000E+00
 -1      4032 7.89000E+01 3.05150E+01 0.00000E+00
 -1      4033 7.66500E+01 2.92160E+01 0.00000E+00
 -1      4034 8.04000E+01 3.05150E+01 0.00000E+00
 -1      4035 8.19000E+01 3.05150E+01 0.00000E+00
 -1      4036 7.96500E+01 2.92160E+01 0.00000E+00
 -1      4037 8.34000E+01 3.05150E+01 0.00000E+00
 -1      4038 8.49000E+01 3.05150E+01 0.00000E+00
 -1      4039 8.26500E+01 2.92160E+01 0.00000E+00
 -1      4040 8.64000E+01 3.05150E+01 0.00000E+00
 -1      4041 8.79000E+01 3.05150E+01 0.00000E+00
 -1      4042 8.56500E+01 2.92160E+01 0.00000E+00
 -1      4043 2.00548E+01 1.79571E+01 0.00000E+00
 -1      4044 1.96860E+01 1.90844E+01 0.00000E+00
 -1      4045 2.15548E+01 1.79571E+01 0.00000E+00
 -1      4046 1.68870E+01 2.42406E+01 0.00000E+00
 -1      4047 1.68870E+01 2.57109E+01 0.00000E+00
 -1      4048 1.81860E+01 2.35047E+01 0.00000E+00
 -1      4049 2.64000E+01 3.05150E+01 0.00000E+00
 -1      4050 2.79000E+01 3.05150E+01 0.00000E+00
 -1      4051 2.86500E+01 2.92160E+01 0.00000E+00
 -1      4052 5.72850E+01 1.82952E+01 0.00000E+00
 -1      4053 5.57850E+01 1.82952E+01 0.00000E+00
 -1      4054 6.02850E+01 1.82952E+01 0.00000E+00
 -1      4055 5.87850E+01 1.82952E+01 0.00000E+00
 -1      4056 5.80350E+01 1.95942E+01 0.00000E+00
 -1      4057 5.42850E+01 1.82952E+01 0.00000E+00
 -1      4058 5.27850E+01 1.82952E+01 0.00000E+00
 -1      4059 5.50350E+01 1.95942E+01 0.00000E+00
 -1      4060 6.62850E+01 1.82952E+01 0.00000E+00
 -1      4061 6.47850E+01 1.82952E+01 0.00000E+00
 -1      4062 6.92850E+01 1.82952E+01 0.00000E+00
 -1      4063 6.77850E+01 1.82952E+01 0.00000E+00
 -1      4064 6.70350E+01 1.95942E+01 0.00000E+00
 -1      4065 7.22850E+01 1.82952E+01 0.00000E+00
 -1      4066 7.07850E+01 1.82952E+01 0.00000E+00
 -1      4067 7.00350E+01 1.95942E+01 0.00000E+00
 -1      4068 7.52850E+01 1.82952E+01 0.00000E+00
 -1      4069 7.37850E+01 1.82952E+01 0.00000E+00
 -1      4070 7.30350E+01 1.95942E+01 0.00000E+00
 -1      4071 7.82850E+01 1.82952E+01 0.00000E+00
 -1      4072 7.67850E+01 1.82952E+01 0.00000E+00
 -1      4073 7.60350E+01 1.95942E+01 0.00000E+00
 -1      4074 8.12850E+01 1.82952E+01 0.00000E+00
 -1      4075 7.97850E+01 1.82952E+01 0.00000E+00
 -1      4076 7.90350E+01 1.95942E+01 0.00000E+00
 -1      4077 8.42850E+01 1.82952E+01 0.00000E+00
 -1      4078 8.27850E+01 1.82952E+01 0.00000E+00
 -1      4079 8.20350E+01 1.95942E+01 0.00000E+00
 -1      4080 1.29412E+02 1.99291E+01 0.00000E+00
 -1      4081 1.32611E+02 3.06706E+01 0.00000E+00
 -1      4082 1.67434E+01 1.58556E+01 0.00000E+00
 -1      4083 2.57293E+01 1.56141E+01 0.00000E+00
 -1      4084 2.42293E+01 1.56141E+01 0.00000E+00
 -1      4085 2.34235E+01 1.68299E+01 0.00000E+00
 -1      4086 5.12850E+01 1.82952E+01 0.00000E+00
 -1      4087 4.97850E+01 1.82952E+01 0.00000E+00
 -1      4088 5.20350E+01 1.95942E+01 0.00000E+00
 -1      4089 8.70164E+01 1.80864E+01 0.00000E+00
 -1      4090 8.55164E+01 1.80864E+01 0.00000E+00
 -1      4091 8.47664E+01 1.93854E+01 0.00000E+00
 -1      4092 8.72291E+01 1.89678E+01 0.00000E+00
 -1      4093 1.89180E+01 3.13351E+01 0.00000E+00
 -1      4094 2.87850E+01 1.56973E+01 0.00000E+00
 -1      4095 2.72850E+01 1.56973E+01 0.00000E+00
 -1      4096 2.95350E+01 1.69963E+01 0.00000E+00
 -1      4097 2.34000E+01 3.05150E+01 0.00000E+00
 -1      4098 2.49000E+01 3.05150E+01 0.00000E+00
 -1      4099 2.56500E+01 2.92160E+01 0.00000E+00
 -1      4100 1.93020E+01 3.03605E+01 0.00000E+00
 -1      4101 2.00340E+01 3.08394E+01 0.00000E+00
 -1      4102 2.15340E+01 3.08394E+01 0.00000E+00
 -1      4103 1.93020E+01 2.88902E+01 0.00000E+00
 -1      4104 6.32850E+01 1.82952E+01 0.00000E+00
 -1      4105 6.17850E+01 1.82952E+01 0.00000E+00
 -1      4106 6.10350E+01 1.95942E+01 0.00000E+00
 -1      4107 1.30350E+02 1.83643E+01 0.00000E+00
 -1      4108 1.31312E+02 2.99363E+01 0.00000E+00
 -1      4109 1.32037E+02 1.80986E+01 0.00000E+00
 -1      4110 9.37757E+01 3.06005E+01 0.00000E+00
 -1      4111 2.64793E+01 1.69131E+01 0.00000E+00
 -1      4112 4.52850E+01 1.82952E+01 0.00000E+00
 -1      4113 4.37850E+01 1.82952E+01 0.00000E+00
 -1      4114 6.40350E+01 1.95942E+01 0.00000E+00
 -1      4115 8.97548E+01 2.92344E+01 0.00000E+00
 -1      4116 9.05048E+01 3.05334E+01 0.00000E+00
 -1      4117 9.20048E+01 3.05334E+01 0.00000E+00
 -1      4118 2.22840E+01 2.95404E+01 0.00000E+00
 -1      4119 8.94958E+01 2.47333E+01 0.00000E+00
 -1      4120 8.95826E+01 2.38245E+01 0.00000E+00
 -1      4121 8.85180E+01 2.30642E+01 0.00000E+00
 -1      4122 4.22850E+01 1.82952E+01 0.00000E+00
 -1      4123 4.07850E+01 1.82952E+01 0.00000E+00
 -1      4124 4.30350E+01 1.95942E+01 0.00000E+00
 -1      4125 1.28560E+02 3.06173E+01 0.00000E+00
 -1      4126 1.30060E+02 3.06173E+01 0.00000E+00
 -1      4127 1.30562E+02 2.86373E+01 0.00000E+00
 -1      4128 3.32850E+01 1.82952E+01 0.00000E+00
 -1      4129 3.17850E+01 1.82952E+01 0.00000E+00
 -1      4130 1.30130E+02 2.41201E+01 0.00000E+00
 -1      4131 1.29024E+02 2.52363E+01 0.00000E+00
 -1      4132 1.96860E+01 2.05594E+01 0.00000E+00
 -1      4133 8.80936E+01 2.05939E+01 0.00000E+00
 -1      4134 8.78809E+01 1.97125E+01 0.00000E+00
 -1      4135 8.66495E+01 1.99213E+01 0.00000E+00
 -1      4136 8.79530E+01 2.14107E+01 0.00000E+00
 -1      4137 1.81860E+01 2.64453E+01 0.00000E+00
 -1      4138 9.26877E+01 3.01723E+01 0.00000E+00
 -1      4139 3.10350E+01 1.95942E+01 0.00000E+00
 -1      4140 3.02850E+01 1.82952E+01 0.00000E+00
 -1      4141 2.87850E+01 1.82952E+01 0.00000E+00
 -1      4142 1.28132E+02 2.62393E+01 0.00000E+00
 -1      4143 1.27386E+02 2.74463E+01 0.00000E+00
 -1      4144 1.27824E+02 2.86020E+01 0.00000E+00
 -1      4145 1.29608E+02 2.65958E+01 0.00000E+00
 -1      4146 1.28121E+02 2.94617E+01 0.00000E+00
 -1      4147 4.82850E+01 1.82952E+01 0.00000E+00
 -1      4148 4.67850E+01 1.82952E+01 0.00000E+00
 -1      4149 4.60350E+01 1.95942E+01 0.00000E+00
 -1      4150 4.90350E+01 1.95942E+01 0.00000E+00
 -1      4151 4.97850E+01 2.08932E+01 0.00000E+00
 -1      4152 4.82850E+01 2.08932E+01 0.00000E+00
 -1      4153 6.47850E+01 2.08932E+01 0.00000E+00
 -1      4154 6.32850E+01 2.08932E+01 0.00000E+00
 -1      4155 3.39000E+01 2.79170E+01 0.00000E+00
 -1      4156 3.54000E+01 2.79170E+01 0.00000E+00
 -1      4157 3.69000E+01 2.79170E+01 0.00000E+00
 -1      4158 3.84000E+01 2.79170E+01 0.00000E+00
 -1      4159 3.61500E+01 2.66180E+01 0.00000E+00
 -1      4160 3.99000E+01 2.79170E+01 0.00000E+00
 -1      4161 4.14000E+01 2.79170E+01 0.00000E+00
 -1      4162 3.91500E+01 2.66180E+01 0.00000E+00
 -1      4163 4.29000E+01 2.79170E+01 0.00000E+00
 -1      4164 4.44000E+01 2.79170E+01 0.00000E+00
 -1      4165 4.21500E+01 2.66180E+01 0.00000E+00
 -1      4166 4.59000E+01 2.79170E+01 0.00000E+00
 -1      4167 4.74000E+01 2.79170E+01 0.00000E+00
 -1      4168 4.51500E+01 2.66180E+01 0.00000E+00
 -1      4169 4.89000E+01 2.79170E+01 0.00000E+00
 -1      4170 5.04000E+01 2.79170E+01 0.00000E+00
 -1      4171 4.81500E+01 2.66180E+01 0.00000E+00
 -1      4172 5.19000E+01 2.79170E+01 0.00000E+00
 -1      4173 5.34000E+01 2.79170E+01 0.00000E+00
 -1      4174 5.11500E+01 2.66180E+01 0.00000E+00
 -1      4175 5.49000E+01 2.79170E+01 0.00000E+00
 -1      4176 5.64000E+01 2.79170E+01 0.00000E+00
 -1      4177 5.41500E+01 2.66180E+01 0.00000E+00
 -1      4178 5.79000E+01 2.79170E+01 0.00000E+00
 -1      4179 5.94000E+01 2.79170E+01 0.00000E+00
 -1      4180 5.71500E+01 2.66180E+01 0.00000E+00
 -1      4181 6.09000E+01 2.79170E+01 0.00000E+00
 -1      4182 6.24000E+01 2.79170E+01 0.00000E+00
 -1      4183 6.01500E+01 2.66180E+01 0.00000E+00
 -1      4184 6.39000E+01 2.79170E+01 0.00000E+00
 -1      4185 6.54000E+01 2.79170E+01 0.00000E+00
 -1      4186 6.31500E+01 2.66180E+01 0.00000E+00
 -1      4187 6.69000E+01 2.79170E+01 0.00000E+00
 -1      4188 6.84000E+01 2.79170E+01 0.00000E+00
 -1      4189 6.61500E+01 2.66180E+01 0.00000E+00
 -1      4190 6.99000E+01 2.79170E+01 0.00000E+00
 -1      4191 7.14000E+01 2.79170E+01 0.00000E+00
 -1      4192 6.91500E+01 2.66180E+01 0.00000E+00
 -1      4193 7.29000E+01 2.79170E+01 0.00000E+00
 -1      4194 7.44000E+01 2.79170E+01 0.00000E+00
 -1      4195 7.21500E+01 2.66180E+01 0.00000E+00
 -1      4196 7.59000E+01 2.79170E+01 0.00000E+00
 -1      4197 7.74000E+01 2.79170E+01 0.00000E+00
 -1      4198 7.51500E+01 2.66180E+01 0.00000E+00
 -1      4199 7.89000E+01 2.79170E+01 0.00000E+00
 -1      4200 8.04000E+01 2.79170E+01 0.00000E+00
 -1      4201 7.81500E+01 2.66180E+01 0.00000E+00
 -1      4202 8.19000E+01 2.79170E+01 0.00000E+00
 -1      4203 8.34000E+01 2.79170E+01 0.00000E+00
 -1      4204 8.11500E+01 2.66180E+01 0.00000E+00
 -1      4205 8.49000E+01 2.79170E+01 0.00000E+00
 -1      4206 8.64000E+01 2.79170E+01 0.00000E+00
 -1      4207 8.41500E+01 2.66180E+01 0.00000E+00
 -1      4208 2.30548E+01 1.79571E+01 0.00000E+00
 -1      4209 2.26860E+01 1.90844E+01 0.00000E+00
 -1      4210 2.45548E+01 1.79571E+01 0.00000E+00
 -1      4211 1.94850E+01 2.27695E+01 0.00000E+00
 -1      4212 1.94850E+01 2.42398E+01 0.00000E+00
 -1      4213 9.13174E+01 2.76275E+01 0.00000E+00
 -1      4214 9.03103E+01 2.69103E+01 0.00000E+00
 -1      4215 1.30787E+02 2.38269E+01 0.00000E+00
 -1      4216 1.31157E+02 2.52995E+01 0.00000E+00
 -1      4217 4.67850E+01 2.08932E+01 0.00000E+00
 -1      4218 4.52850E+01 2.08932E+01 0.00000E+00
 -1      4219 4.75350E+01 2.21922E+01 0.00000E+00
 -1      4220 7.37850E+01 2.08932E+01 0.00000E+00
 -1      4221 7.22850E+01 2.08932E+01 0.00000E+00
 -1      4222 5.87850E+01 2.08932E+01 0.00000E+00
 -1      4223 5.72850E+01 2.08932E+01 0.00000E+00
 -1      4224 5.57850E+01 2.08932E+01 0.00000E+00
 -1      4225 5.42850E+01 2.08932E+01 0.00000E+00
 -1      4226 5.65350E+01 2.21922E+01 0.00000E+00
 -1      4227 7.07850E+01 2.08932E+01 0.00000E+00
 -1      4228 6.92850E+01 2.08932E+01 0.00000E+00
 -1      4229 7.15350E+01 2.21922E+01 0.00000E+00
 -1      4230 6.77850E+01 2.08932E+01 0.00000E+00
 -1      4231 6.62850E+01 2.08932E+01 0.00000E+00
 -1      4232 6.55350E+01 2.21922E+01 0.00000E+00
 -1      4233 6.85350E+01 2.21922E+01 0.00000E+00
 -1      4234 7.67850E+01 2.08932E+01 0.00000E+00
 -1      4235 7.52850E+01 2.08932E+01 0.00000E+00
 -1      4236 7.45350E+01 2.21922E+01 0.00000E+00
 -1      4237 7.97850E+01 2.08932E+01 0.00000E+00
 -1      4238 7.82850E+01 2.08932E+01 0.00000E+00
 -1      4239 7.75350E+01 2.21922E+01 0.00000E+00
 -1      4240 8.27850E+01 2.08932E+01 0.00000E+00
 -1      4241 8.12850E+01 2.08932E+01 0.00000E+00
 -1      4242 8.05350E+01 2.21922E+01 0.00000E+00
 -1      4243 3.47850E+01 1.82952E+01 0.00000E+00
 -1      4244 3.40350E+01 1.95942E+01 0.00000E+00
 -1      4245 3.62850E+01 1.82952E+01 0.00000E+00
 -1      4246 1.29013E+02 2.84586E+01 0.00000E+00
 -1      4247 1.94850E+01 2.57102E+01 0.00000E+00
 -1      4248 1.94850E+01 2.71805E+01 0.00000E+00
 -1      4249 2.07840E+01 2.49750E+01 0.00000E+00
 -1      4250 2.09850E+01 2.12945E+01 0.00000E+00
 -1      4251 6.17850E+01 2.08932E+01 0.00000E+00
 -1      4252 6.02850E+01 2.08932E+01 0.00000E+00
 -1      4253 5.95350E+01 2.21922E+01 0.00000E+00
 -1      4254 5.27850E+01 2.08932E+01 0.00000E+00
 -1      4255 5.12850E+01 2.08932E+01 0.00000E+00
 -1      4256 5.05350E+01 2.21922E+01 0.00000E+00
 -1      4257 1.31157E+02 2.67745E+01 0.00000E+00
 -1      4258 3.09000E+01 2.79170E+01 0.00000E+00
 -1      4259 3.24000E+01 2.79170E+01 0.00000E+00
 -1      4260 3.31500E+01 2.66180E+01 0.00000E+00
 -1      4261 2.06010E+01 2.81551E+01 0.00000E+00
 -1      4262 2.74478E+01 1.81678E+01 0.00000E+00
 -1      4263 2.58920E+01 1.80846E+01 0.00000E+00
 -1      4264 2.55233E+01 1.92118E+01 0.00000E+00
 -1      4265 2.81978E+01 1.94668E+01 0.00000E+00
 -1      4266 2.79000E+01 2.79170E+01 0.00000E+00
 -1      4267 2.94000E+01 2.79170E+01 0.00000E+00
 -1      4268 3.01500E+01 2.66180E+01 0.00000E+00
 -1      4269 2.49000E+01 2.79170E+01 0.00000E+00
 -1      4270 2.64000E+01 2.79170E+01 0.00000E+00
 -1      4271 2.71500E+01 2.66180E+01 0.00000E+00
 -1      4272 2.24670E+01 2.78307E+01 0.00000E+00
 -1      4273 6.25350E+01 2.21922E+01 0.00000E+00
 -1      4274 2.40041E+01 2.02532E+01 0.00000E+00
 -1      4275 2.25041E+01 2.02532E+01 0.00000E+00
 -1      4276 2.23031E+01 2.24633E+01 0.00000E+00
 -1      4277 2.53414E+01 2.03807E+01 0.00000E+00
 -1      4278 3.92850E+01 1.82952E+01 0.00000E+00
 -1      4279 3.77850E+01 1.82952E+01 0.00000E+00
 -1      4280 3.70350E+01 1.95942E+01 0.00000E+00
 -1      4281 1.30265E+02 2.77776E+01 0.00000E+00
 -1      4282 2.32170E+01 2.65317E+01 0.00000E+00
 -1      4283 8.89061E+01 2.73929E+01 0.00000E+00
 -1      4284 8.91561E+01 2.59762E+01 0.00000E+00
 -1      4285 8.80916E+01 2.52158E+01 0.00000E+00
 -1      4286 4.45350E+01 2.21922E+01 0.00000E+00
 -1      4287 4.37850E+01 2.08932E+01 0.00000E+00
 -1      4288 4.22850E+01 2.08932E+01 0.00000E+00
 -1      4289 8.52477E+01 2.04756E+01 0.00000E+00
 -1      4290 8.40164E+01 2.06844E+01 0.00000E+00
 -1      4291 8.32664E+01 2.19834E+01 0.00000E+00
 -1      4292 5.35350E+01 2.21922E+01 0.00000E+00
 -1      4293 3.47850E+01 2.08932E+01 0.00000E+00
 -1      4294 3.32850E+01 2.08932E+01 0.00000E+00
 -1      4295 8.78663E+01 2.23195E+01 0.00000E+00
 -1      4296 8.72145E+01 2.15748E+01 0.00000E+00
 -1      4297 8.77795E+01 2.32283E+01 0.00000E+00
 -1      4298 4.00350E+01 1.95942E+01 0.00000E+00
 -1      4299 3.25350E+01 2.21922E+01 0.00000E+00
 -1      4300 3.17850E+01 2.08932E+01 0.00000E+00
 -1      4301 3.02850E+01 2.08932E+01 0.00000E+00
 -1      4302 9.12099E+01 2.87899E+01 0.00000E+00
 -1      4303 6.28425E+01 2.44051E+01 0.00000E+00
 -1      4304 6.13425E+01 2.44051E+01 0.00000E+00
 -1      4305 8.67009E+01 2.65384E+01 0.00000E+00
 -1      4306 8.74509E+01 2.78374E+01 0.00000E+00
 -1      4307 3.84000E+01 2.53190E+01 0.00000E+00
 -1      4308 3.99000E+01 2.53190E+01 0.00000E+00
 -1      4309 4.18425E+01 2.44051E+01 0.00000E+00
 -1      4310 4.33425E+01 2.44051E+01 0.00000E+00
 -1      4311 4.48425E+01 2.44051E+01 0.00000E+00
 -1      4312 4.63425E+01 2.44051E+01 0.00000E+00
 -1      4313 4.78425E+01 2.44051E+01 0.00000E+00
 -1      4314 4.93425E+01 2.44051E+01 0.00000E+00
 -1      4315 5.08425E+01 2.44051E+01 0.00000E+00
 -1      4316 5.23425E+01 2.44051E+01 0.00000E+00
 -1      4317 5.38425E+01 2.44051E+01 0.00000E+00
 -1      4318 5.53425E+01 2.44051E+01 0.00000E+00
 -1      4319 5.68425E+01 2.44051E+01 0.00000E+00
 -1      4320 5.83425E+01 2.44051E+01 0.00000E+00
 -1      4321 5.98425E+01 2.44051E+01 0.00000E+00
 -1      4322 6.43425E+01 2.44051E+01 0.00000E+00
 -1      4323 6.58425E+01 2.44051E+01 0.00000E+00
 -1      4324 6.73425E+01 2.44051E+01 0.00000E+00
 -1      4325 6.88425E+01 2.44051E+01 0.00000E+00
 -1      4326 7.03425E+01 2.44051E+01 0.00000E+00
 -1      4327 7.18425E+01 2.44051E+01 0.00000E+00
 -1      4328 7.33425E+01 2.44051E+01 0.00000E+00
 -1      4329 7.48425E+01 2.44051E+01 0.00000E+00
 -1      4330 7.63425E+01 2.44051E+01 0.00000E+00
 -1      4331 7.78425E+01 2.44051E+01 0.00000E+00
 -1      4332 7.93425E+01 2.44051E+01 0.00000E+00
 -1      4333 8.08425E+01 2.44051E+01 0.00000E+00
 -1      4334 8.23425E+01 2.44051E+01 0.00000E+00
 -1      4335 8.35739E+01 2.41963E+01 0.00000E+00
 -1      4336 8.50739E+01 2.41963E+01 0.00000E+00
 -1      4337 2.64000E+01 2.53190E+01 0.00000E+00
 -1      4338 2.79000E+01 2.53190E+01 0.00000E+00
 -1      4339 3.62850E+01 2.08932E+01 0.00000E+00
 -1      4340 3.55350E+01 2.21922E+01 0.00000E+00
 -1      4341 3.77850E+01 2.08932E+01 0.00000E+00
 -1      4342 2.23755E+01 2.51038E+01 0.00000E+00
 -1      4343 2.48085E+01 2.51902E+01 0.00000E+00
 -1      4344 2.55585E+01 2.38912E+01 0.00000E+00
 -1      4345 2.23755E+01 2.36335E+01 0.00000E+00
 -1      4346 4.07850E+01 2.08932E+01 0.00000E+00
 -1      4347 3.92850E+01 2.08932E+01 0.00000E+00
 -1      4348 3.85350E+01 2.21922E+01 0.00000E+00
 -1      4349 4.15350E+01 2.21922E+01 0.00000E+00
 -1      4350 8.58995E+01 2.12203E+01 0.00000E+00
 -1      4351 3.28425E+01 2.44051E+01 0.00000E+00
 -1      4352 3.43425E+01 2.44051E+01 0.00000E+00
 -1      4353 2.98425E+01 2.44051E+01 0.00000E+00
 -1      4354 3.13425E+01 2.44051E+01 0.00000E+00
 -1      4355 3.58425E+01 2.44051E+01 0.00000E+00
 -1      4356 3.73425E+01 2.44051E+01 0.00000E+00
 -1      4357 8.86052E+01 2.87715E+01 0.00000E+00
 -1      4358 2.38946E+01 2.25922E+01 0.00000E+00
 -1      4359 2.90925E+01 2.31061E+01 0.00000E+00
 -1      4360 8.70406E+01 2.52955E+01 0.00000E+00
 -1      4361 8.58127E+01 2.21291E+01 0.00000E+00
 -1      4362 8.63889E+01 2.45508E+01 0.00000E+00
 -1      4363 2.83425E+01 2.18071E+01 0.00000E+00
 -1      4364 2.70053E+01 2.16797E+01 0.00000E+00
 -1      4365 4.10925E+01 2.31061E+01 0.00000E+00
 -1      4366 3.80925E+01 2.31061E+01 0.00000E+00
 -1      4367 2.54861E+01 2.27210E+01 0.00000E+00
 -1      4368 3.95925E+01 2.31061E+01 0.00000E+00
 -3
    3C                          2102                                     1
 -1       165    8    0    1
 -2         6         7        23      1134      1298      1151
 -1       166    8    0    1
 -2         7         8       165      1135      1299      1300
 -1       167    8    0    1
 -2         8         9       166      1136      1301      1302
 -1       168    8    0    1
 -2         8       166       165      1302      1303      1299
 -1       169    8    0    1
 -2         9        10       167      1137      1304      1305
 -1       170    8    0    1
 -2         9       167       166      1305      1306      1301
 -1       171    8    0    1
 -2        10        11       168      1138      1307      1308
 -1       172    8    0    1
 -2        10       168       167      1308      1309      1304
 -1       173    8    0    1
 -2        11        12       169      1139      1310      1311
 -1       174    8    0    1
 -2        11       169       168      1311      1312      1307
 -1       175    8    0    1
 -2        12        13       170      1140      1313      1314
 -1       176    8    0    1
 -2        12       170       169      1314      1315      1310
 -1       177    8    0    1
 -2        13        14       171      1141      1316      1317
 -1       178    8    0    1
 -2        13       171       170      1317      1318      1313
 -1       179    8    0    1
 -2        14        15       172      1142      1319      1320
 -1       180    8    0    1
 -2        14       172       171      1320      1321      1316
 -1       181    8    0    1
 -2        15        16       173      1143      1322      1323
 -1       182    8    0    1
 -2        15       173       172      1323      1324      1319
 -1       183    8    0    1
 -2        16        17       174      1144      1325      1326
 -1       184    8    0    1
 -2        16       174       173      1326      1327      1322
 -1       185    8    0    1
 -2        17        18       175      1145      1328      1329
 -1       186    8    0    1
 -2        17       175       174      1329      1330      1325
 -1       187    8    0    1
 -2        18        19       176      1146      1331      1332
 -1       188    8    0    1
 -2        18       176       175      1332      1333      1328
 -1       189    8    0    1
 -2        19        20       177      1147      1334      1335
 -1       190    8    0    1
 -2        19       177       176      1335      1336      1331
 -1       191    8    0    1
 -2        20        21       178      1148      1337      1338
 -1       192    8    0    1
 -2        20       178       177      1338      1339      1334
 -1       193    8    0    1
 -2        21        22       179      1149      1340      1341
 -1       194    8    0    1
 -2        21       179       178      1341      1342      1337
 -1       195    8    0    1
 -2        22         5       180      1150      1343      1344
 -1       196    8    0    1
 -2       179        22       180      1340      1344      1345
 -1       197    8    0    1
 -2         5        72       180      1201      1346      1343
 -1       198    8    0    1
 -2        24        23       181      1152      1347      1348
 -1       199    8    0    1
 -2        25        24       182      1153      1349      1350
 -1       200    8    0    1
 -2        24       181       182      1348      1351      1349
 -1       201    8    0    1
 -2        26        25       183      1154      1352      1353
 -1       202    8    0    1
 -2        25       182       183      1350      1354      1352
 -1       203    8    0    1
 -2        27        26       184      1155      1355      1356
 -1       204    8    0    1
 -2        26       183       184      1353      1357      1355
 -1       205    8    0    1
 -2        28        27       185      1156      1358      1359
 -1       206    8    0    1
 -2        27       184       185      1356      1360      1358
 -1       207    8    0    1
 -2        29        28       186      1157      1361      1362
 -1       208    8    0    1
 -2        28       185       186      1359      1363      1361
 -1       209    8    0    1
 -2        30        29       187      1158      1364      1365
 -1       210    8    0    1
 -2        29       186       187      1362      1366      1364
 -1       211    8    0    1
 -2        31        30       188      1159      1367      1368
 -1       212    8    0    1
 -2        30       187       188      1365      1369      1367
 -1       213    8    0    1
 -2        32        31       189      1160      1370      1371
 -1       214    8    0    1
 -2        31       188       189      1368      1372      1370
 -1       215    8    0    1
 -2        33        32       190      1161      1373      1374
 -1       216    8    0    1
 -2        32       189       190      1371      1375      1373
 -1       217    8    0    1
 -2        34        33       191      1162      1376      1377
 -1       218    8    0    1
 -2        33       190       191      1374      1378      1376
 -1       219    8    0    1
 -2        35        34       192      1163      1379      1380
 -1       220    8    0    1
 -2        34       191       192      1377      1381      1379
 -1       221    8    0    1
 -2        36        35       193      1164      1382      1383
 -1       222    8    0    1
 -2        35       192       193      1380      1384      1382
 -1       223    8    0    1
 -2        37        36       194      1165      1385      1386
 -1       224    8    0    1
 -2        36       193       194      1383      1387      1385
 -1       225    8    0    1
 -2        38        37       195      1166      1388      1389
 -1       226    8    0    1
 -2        37       194       195      1386      1390      1388
 -1       227    8    0    1
 -2        39        38       196      1167      1391      1392
 -1       228    8    0    1
 -2        38       195       196      1389      1393      1391
 -1       229    8    0    1
 -2        40        39       197      1168      1394      1395
 -1       230    8    0    1
 -2        39       196       197      1392      1396      1394
 -1       231    8    0    1
 -2        41        40       198      1169      1397      1398
 -1       232    8    0    1
 -2        40       197       198      1395      1399      1397
 -1       233    8    0    1
 -2        42        41       199      1170      1400      1401
 -1       234    8    0    1
 -2        41       198       199      1398      1402      1400
 -1       235    8    0    1
 -2        43        42       200      1171      1403      1404
 -1       236    8    0    1
 -2        42       199       200      1401      1405      1403
 -1       237    8    0    1
 -2        44        43       201      1172      1406      1407
 -1       238    8    0    1
 -2        43       200       201      1404      1408      1406
 -1       239    8    0    1
 -2        45        44       202      1173      1409      1410
 -1       240    8    0    1
 -2        44       201       202      1407      1411      1409
 -1       241    8    0    1
 -2        46        45       203      1174      1412      1413
 -1       242    8    0    1
 -2        45       202       203      1410      1414      1412
 -1       243    8    0    1
 -2        47        46       204      1175      1415      1416
 -1       244    8    0    1
 -2        46       203       204      1413      1417      1415
 -1       245    8    0    1
 -2        48        47       205      1176      1418      1419
 -1       246    8    0    1
 -2        47       204       205      1416      1420      1418
 -1       247    8    0    1
 -2        49        48       206      1177      1421      1422
 -1       248    8    0    1
 -2        48       205       206      1419      1423      1421
 -1       249    8    0    1
 -2        50        49       207      1178      1424      1425
 -1       250    8    0    1
 -2        49       206       207      1422      1426      1424
 -1       251    8    0    1
 -2        51        50       208      1179      1427      1428
 -1       252    8    0    1
 -2        50       207       208      1425      1429      1427
 -1       253    8    0    1
 -2        52        51       209      1180      1430      1431
 -1       254    8    0    1
 -2        51       208       209      1428      1432      1430
 -1       255    8    0    1
 -2        53        52       210      1181      1433      1434
 -1       256    8    0    1
 -2        52       209       210      1431      1435      1433
 -1       257    8    0    1
 -2        54        53       211      1182      1436      1437
 -1       258    8    0    1
 -2        53       210       211      1434      1438      1436
 -1       259    8    0    1
 -2        55        54       212      1183      1439      1440
 -1       260    8    0    1
 -2        54       211       212      1437      1441      1439
 -1       261    8    0    1
 -2        56        55       213      1184      1442      1443
 -1       262    8    0    1
 -2        55       212       213      1440      1444      1442
 -1       263    8    0    1
 -2        57        56       214      1185      1445      1446
 -1       264    8    0    1
 -2        56       213       214      1443      1447      1445
 -1       265    8    0    1
 -2        58        57       215      1186      1448      1449
 -1       266    8    0    1
 -2        57       214       215      1446      1450      1448
 -1       267    8    0    1
 -2        59        58       216      1187      1451      1452
 -1       268    8    0    1
 -2        58       215       216      1449      1453      1451
 -1       269    8    0    1
 -2        60        59       217      1188      1454      1455
 -1       270    8    0    1
 -2        59       216       217      1452      1456      1454
 -1       271    8    0    1
 -2        61        60       218      1189      1457      1458
 -1       272    8    0    1
 -2        60       217       218      1455      1459      1457
 -1       273    8    0    1
 -2        62        61       219      1190      1460      1461
 -1       274    8    0    1
 -2        61       218       219      1458      1462      1460
 -1       275    8    0    1
 -2        63        62       220      1191      1463      1464
 -1       276    8    0    1
 -2        62       219       220      1461      1465      1463
 -1       277    8    0    1
 -2        64        63       221      1192      1466      1467
 -1       278    8    0    1
 -2        63       220       221      1464      1468      1466
 -1       279    8    0    1
 -2        65        64       222      1193      1469      1470
 -1       280    8    0    1
 -2        64       221       222      1467      1471      1469
 -1       281    8    0    1
 -2        66        65       223      1194      1472      1473
 -1       282    8    0    1
 -2        65       222       223      1470      1474      1472
 -1       283    8    0    1
 -2        67        66       224      1195      1475      1476
 -1       284    8    0    1
 -2        66       223       224      1473      1477      1475
 -1       285    8    0    1
 -2        68        67       225      1196      1478      1479
 -1       286    8    0    1
 -2        67       224       225      1476      1480      1478
 -1       287    8    0    1
 -2        69        68       226      1197      1481      1482
 -1       288    8    0    1
 -2        68       225       226      1479      1483      1481
 -1       289    8    0    1
 -2        70        69       227      1198      1484      1485
 -1       290    8    0    1
 -2        69       226       227      1482      1486      1484
 -1       291    8    0    1
 -2        71        70       228      1199      1487      1488
 -1       292    8    0    1
 -2        70       227       228      1485      1489      1487
 -1       293    8    0    1
 -2         4        71       136      1200      1490      1267
 -1       294    8    0    1
 -2       136        71       228      1490      1488      1491
 -1       295    8    0    1
 -2        72        73       229      1202      1492      1493
 -1       296    8    0    1
 -2        72       229       180      1493      1494      1346
 -1       297    8    0    1
 -2        73        74       230      1203      1495      1496
 -1       298    8    0    1
 -2        73       230       229      1496      1497      1492
 -1       299    8    0    1
 -2        74        75       231      1204      1498      1499
 -1       300    8    0    1
 -2        74       231       230      1499      1500      1495
 -1       301    8    0    1
 -2        75        76       232      1205      1501      1502
 -1       302    8    0    1
 -2        75       232       231      1502      1503      1498
 -1       303    8    0    1
 -2        76        77       233      1206      1504      1505
 -1       304    8    0    1
 -2        76       233       232      1505      1506      1501
 -1       305    8    0    1
 -2        77        78       234      1207      1507      1508
 -1       306    8    0    1
 -2        77       234       233      1508      1509      1504
 -1       307    8    0    1
 -2        78        79       235      1208      1510      1511
 -1       308    8    0    1
 -2        78       235       234      1511      1512      1507
 -1       309    8    0    1
 -2        79        80       236      1209      1513      1514
 -1       310    8    0    1
 -2        79       236       235      1514      1515      1510
 -1       311    8    0    1
 -2        80        81       237      1210      1516      1517
 -1       312    8    0    1
 -2        80       237       236      1517      1518      1513
 -1       313    8    0    1
 -2        81        82       238      1211      1519      1520
 -1       314    8    0    1
 -2        81       238       237      1520      1521      1516
 -1       315    8    0    1
 -2        82        83       239      1212      1522      1523
 -1       316    8    0    1
 -2        82       239       238      1523      1524      1519
 -1       317    8    0    1
 -2        83        84       240      1213      1525      1526
 -1       318    8    0    1
 -2        83       240       239      1526      1527      1522
 -1       319    8    0    1
 -2        84        85       241      1214      1528      1529
 -1       320    8    0    1
 -2        84       241       240      1529      1530      1525
 -1       321    8    0    1
 -2        85        86       242      1215      1531      1532
 -1       322    8    0    1
 -2        85       242       241      1532      1533      1528
 -1       323    8    0    1
 -2        86        87       243      1216      1534      1535
 -1       324    8    0    1
 -2        86       243       242      1535      1536      1531
 -1       325    8    0    1
 -2        87        88       244      1217      1537      1538
 -1       326    8    0    1
 -2        87       244       243      1538      1539      1534
 -1       327    8    0    1
 -2        88        89       245      1218      1540      1541
 -1       328    8    0    1
 -2        88       245       244      1541      1542      1537
 -1       329    8    0    1
 -2        89        90       246      1219      1543      1544
 -1       330    8    0    1
 -2        89       246       245      1544      1545      1540
 -1       331    8    0    1
 -2        90        91       247      1220      1546      1547
 -1       332    8    0    1
 -2        90       247       246      1547      1548      1543
 -1       333    8    0    1
 -2        91        92       248      1221      1549      1550
 -1       334    8    0    1
 -2        91       248       247      1550      1551      1546
 -1       335    8    0    1
 -2        92        93       249      1222      1552      1553
 -1       336    8    0    1
 -2        92       249       248      1553      1554      1549
 -1       337    8    0    1
 -2        93        94       250      1223      1555      1556
 -1       338    8    0    1
 -2        93       250       249      1556      1557      1552
 -1       339    8    0    1
 -2        94        95       251      1224      1558      1559
 -1       340    8    0    1
 -2        94       251       250      1559      1560      1555
 -1       341    8    0    1
 -2        95        96       252      1225      1561      1562
 -1       342    8    0    1
 -2        95       252       251      1562      1563      1558
 -1       343    8    0    1
 -2        96        97       253      1226      1564      1565
 -1       344    8    0    1
 -2        96       253       252      1565      1566      1561
 -1       345    8    0    1
 -2        97        98       254      1227      1567      1568
 -1       346    8    0    1
 -2        97       254       253      1568      1569      1564
 -1       347    8    0    1
 -2        98        99       255      1228      1570      1571
 -1       348    8    0    1
 -2        98       255       254      1571      1572      1567
 -1       349    8    0    1
 -2        99       100       256      1229      1573      1574
 -1       350    8    0    1
 -2        99       256       255      1574      1575      1570
 -1       351    8    0    1
 -2       100       101       257      1230      1576      1577
 -1       352    8    0    1
 -2       100       257       256      1577      1578      1573
 -1       353    8    0    1
 -2       101       102       258      1231      1579      1580
 -1       354    8    0    1
 -2       101       258       257      1580      1581      1576
 -1       355    8    0    1
 -2       102       103       259      1232      1582      1583
 -1       356    8    0    1
 -2       102       259       258      1583      1584      1579
 -1       357    8    0    1
 -2       103       104       260      1233      1585      1586
 -1       358    8    0    1
 -2       103       260       259      1586      1587      1582
 -1       359    8    0    1
 -2       104       105       261      1234      1588      1589
 -1       360    8    0    1
 -2       104       261       260      1589      1590      1585
 -1       361    8    0    1
 -2       105       106       262      1235      1591      1592
 -1       362    8    0    1
 -2       105       262       261      1592      1593      1588
 -1       363    8    0    1
 -2       106       107       263      1236      1594      1595
 -1       364    8    0    1
 -2       106       263       262      1595      1596      1591
 -1       365    8    0    1
 -2       107       108       264      1237      1597      1598
 -1       366    8    0    1
 -2       107       264       263      1598      1599      1594
 -1       367    8    0    1
 -2       108       109       265      1238      1600      1601
 -1       368    8    0    1
 -2       108       265       264      1601      1602      1597
 -1       369    8    0    1
 -2       109       110       266      1239      1603      1604
 -1       370    8    0    1
 -2       109       266       265      1604      1605      1600
 -1       371    8    0    1
 -2       110       111       267      1240      1606      1607
 -1       372    8    0    1
 -2       110       267       266      1607      1608      1603
 -1       373    8    0    1
 -2       111       112       268      1241      1609      1610
 -1       374    8    0    1
 -2       111       268       267      1610      1611      1606
 -1       375    8    0    1
 -2       112       113       269      1242      1612      1613
 -1       376    8    0    1
 -2       112       269       268      1613      1614      1609
 -1       377    8    0    1
 -2       113       114       270      1243      1615      1616
 -1       378    8    0    1
 -2       113       270       269      1616      1617      1612
 -1       379    8    0    1
 -2       114       115       271      1244      1618      1619
 -1       380    8    0    1
 -2       114       271       270      1619      1620      1615
 -1       381    8    0    1
 -2       115       116       272      1245      1621      1622
 -1       382    8    0    1
 -2       115       272       271      1622      1623      1618
 -1       383    8    0    1
 -2       116       117       273      1246      1624      1625
 -1       384    8    0    1
 -2       116       273       272      1625      1626      1621
 -1       385    8    0    1
 -2       117       118       274      1247      1627      1628
 -1       386    8    0    1
 -2       117       274       273      1628      1629      1624
 -1       387    8    0    1
 -2       118       119       275      1248      1630      1631
 -1       388    8    0    1
 -2       118       275       274      1631      1632      1627
 -1       389    8    0    1
 -2       119       120       276      1249      1633      1634
 -1       390    8    0    1
 -2       119       276       275      1634      1635      1630
 -1       391    8    0    1
 -2       120         3       121      1250      1251      1636
 -1       392    8    0    1
 -2       121       122       277      1252      1637      1638
 -1       393    8    0    1
 -2       122       123       278      1253      1639      1640
 -1       394    8    0    1
 -2       122       278       277      1640      1641      1637
 -1       395    8    0    1
 -2       123       124       279      1254      1642      1643
 -1       396    8    0    1
 -2       123       279       278      1643      1644      1639
 -1       397    8    0    1
 -2       124       125       280      1255      1645      1646
 -1       398    8    0    1
 -2       124       280       279      1646      1647      1642
 -1       399    8    0    1
 -2       125       126       281      1256      1648      1649
 -1       400    8    0    1
 -2       125       281       280      1649      1650      1645
 -1       401    8    0    1
 -2       126       127       282      1257      1651      1652
 -1       402    8    0    1
 -2       126       282       281      1652      1653      1648
 -1       403    8    0    1
 -2       127       128       283      1258      1654      1655
 -1       404    8    0    1
 -2       127       283       282      1655      1656      1651
 -1       405    8    0    1
 -2       128       129       284      1259      1657      1658
 -1       406    8    0    1
 -2       128       284       283      1658      1659      1654
 -1       407    8    0    1
 -2       129       130       285      1260      1660      1661
 -1       408    8    0    1
 -2       129       285       284      1661      1662      1657
 -1       409    8    0    1
 -2       130       131       286      1261      1663      1664
 -1       410    8    0    1
 -2       130       286       285      1664      1665      1660
 -1       411    8    0    1
 -2       131       132       287      1262      1666      1667
 -1       412    8    0    1
 -2       131       287       286      1667      1668      1663
 -1       413    8    0    1
 -2       132       133       288      1263      1669      1670
 -1       414    8    0    1
 -2       132       288       287      1670      1671      1666
 -1       415    8    0    1
 -2       133       134       289      1264      1672      1673
 -1       416    8    0    1
 -2       133       289       288      1673      1674      1669
 -1       417    8    0    1
 -2       134       135       290      1265      1675      1676
 -1       418    8    0    1
 -2       134       290       289      1676      1677      1672
 -1       419    8    0    1
 -2       135       136       291      1266      1678      1679
 -1       420    8    0    1
 -2       290       135       291      1675      1679      1680
 -1       421    8    0    1
 -2       136       228       291      1491      1681      1678
 -1       422    8    0    1
 -2         2       137       292      1268      1682      1683
 -1       423    8    0    1
 -2       137       138       293      1269      1684      1685
 -1       424    8    0    1
 -2       138       139       294      1270      1686      1687
 -1       425    8    0    1
 -2       139       140       295      1271      1688      1689
 -1       426    8    0    1
 -2       140       141       296      1272      1690      1691
 -1       427    8    0    1
 -2       141       142       297      1273      1692      1693
 -1       428    8    0    1
 -2       142       143       298      1274      1694      1695
 -1       429    8    0    1
 -2       143       144       299      1275      1696      1697
 -1       430    8    0    1
 -2       144       145       300      1276      1698      1699
 -1       431    8    0    1
 -2       145       146       301      1277      1700      1701
 -1       432    8    0    1
 -2       146       147       302      1278      1702      1703
 -1       433    8    0    1
 -2       147       148       303      1279      1704      1705
 -1       434    8    0    1
 -2       148       149       304      1280      1706      1707
 -1       435    8    0    1
 -2       149       150       305      1281      1708      1709
 -1       436    8    0    1
 -2       150       151       306      1282      1710      1711
 -1       437    8    0    1
 -2       151       152       307      1283      1712      1713
 -1       438    8    0    1
 -2       152       153       308      1284      1714      1715
 -1       439    8    0    1
 -2       153       154       309      1285      1716      1717
 -1       440    8    0    1
 -2       154       155       310      1286      1718      1719
 -1       441    8    0    1
 -2       155       156       311      1287      1720      1721
 -1       442    8    0    1
 -2       156       157       312      1288      1722      1723
 -1       443    8    0    1
 -2       157       158       313      1289      1724      1725
 -1       444    8    0    1
 -2       158       159       314      1290      1726      1727
 -1       445    8    0    1
 -2       159       160       315      1291      1728      1729
 -1       446    8    0    1
 -2       160         1       316      1292      1730      1731
 -1       447    8    0    1
 -2         1       161       317      1293      1732      1733
 -1       448    8    0    1
 -2       161       162       318      1294      1734      1735
 -1       449    8    0    1
 -2       162       163       319      1295      1736      1737
 -1       450    8    0    1
 -2       163       164       320      1296      1738      1739
 -1       451    8    0    1
 -2       163       320       319      1739      1740      1736
 -1       452    8    0    1
 -2       164         2       321      1297      1741      1742
 -1       453    8    0    1
 -2       295       140       296      1688      1691      1743
 -1       454    8    0    1
 -2       294       139       295      1686      1689      1744
 -1       455    8    0    1
 -2       120       121       276      1636      1745      1633
 -1       456    8    0    1
 -2       121       277       276      1638      1746      1745
 -1       457    8    0    1
 -2       292       137       293      1682      1685      1747
 -1       458    8    0    1
 -2       293       138       294      1684      1687      1748
 -1       459    8    0    1
 -2         2       292       321      1683      1749      1741
 -1       460    8    0    1
 -2       141       297       296      1693      1750      1690
 -1       461    8    0    1
 -2       142       298       297      1695      1751      1692
 -1       462    8    0    1
 -2       143       299       298      1697      1752      1694
 -1       463    8    0    1
 -2       144       300       299      1699      1753      1696
 -1       464    8    0    1
 -2       145       301       300      1701      1754      1698
 -1       465    8    0    1
 -2       146       302       301      1703      1755      1700
 -1       466    8    0    1
 -2       147       303       302      1705      1756      1702
 -1       467    8    0    1
 -2       148       304       303      1707      1757      1704
 -1       468    8    0    1
 -2       149       305       304      1709      1758      1706
 -1       469    8    0    1
 -2       150       306       305      1711      1759      1708
 -1       470    8    0    1
 -2       151       307       306      1713      1760      1710
 -1       471    8    0    1
 -2       152       308       307      1715      1761      1712
 -1       472    8    0    1
 -2       153       309       308      1717      1762      1714
 -1       473    8    0    1
 -2       154       310       309      1719      1763      1716
 -1       474    8    0    1
 -2       155       311       310      1721      1764      1718
 -1       475    8    0    1
 -2       156       312       311      1723      1765      1720
 -1       476    8    0    1
 -2       157       313       312      1725      1766      1722
 -1       477    8    0    1
 -2       158       314       313      1727      1767      1724
 -1       478    8    0    1
 -2       159       315       314      1729      1768      1726
 -1       479    8    0    1
 -2       160       316       315      1731      1769      1728
 -1       480    8    0    1
 -2         1       317       316      1733      1770      1730
 -1       481    8    0    1
 -2       161       318       317      1735      1771      1732
 -1       482    8    0    1
 -2       162       319       318      1737      1772      1734
 -1       483    8    0    1
 -2        23         7       165      1298      1300      1773
 -1       484    8    0    1
 -2       164       321       320      1742      1774      1738
 -1       485    8    0    1
 -2       166       167       322      1306      1775      1776
 -1       486    8    0    1
 -2       165       166       323      1303      1777      1778
 -1       487    8    0    1
 -2       166       322       323      1776      1779      1777
 -1       488    8    0    1
 -2       168       169       324      1312      1780      1781
 -1       489    8    0    1
 -2       169       170       325      1315      1782      1783
 -1       490    8    0    1
 -2       169       325       324      1783      1784      1780
 -1       491    8    0    1
 -2       170       171       326      1318      1785      1786
 -1       492    8    0    1
 -2       170       326       325      1786      1787      1782
 -1       493    8    0    1
 -2       171       172       327      1321      1788      1789
 -1       494    8    0    1
 -2       171       327       326      1789      1790      1785
 -1       495    8    0    1
 -2       172       173       328      1324      1791      1792
 -1       496    8    0    1
 -2       172       328       327      1792      1793      1788
 -1       497    8    0    1
 -2       173       174       329      1327      1794      1795
 -1       498    8    0    1
 -2       173       329       328      1795      1796      1791
 -1       499    8    0    1
 -2       174       175       330      1330      1797      1798
 -1       500    8    0    1
 -2       174       330       329      1798      1799      1794
 -1       501    8    0    1
 -2       175       176       331      1333      1800      1801
 -1       502    8    0    1
 -2       175       331       330      1801      1802      1797
 -1       503    8    0    1
 -2       176       177       332      1336      1803      1804
 -1       504    8    0    1
 -2       176       332       331      1804      1805      1800
 -1       505    8    0    1
 -2       177       178       333      1339      1806      1807
 -1       506    8    0    1
 -2       177       333       332      1807      1808      1803
 -1       507    8    0    1
 -2       178       179       334      1342      1809      1810
 -1       508    8    0    1
 -2       178       334       333      1810      1811      1806
 -1       509    8    0    1
 -2       179       180       335      1345      1812      1813
 -1       510    8    0    1
 -2       334       179       335      1809      1813      1814
 -1       511    8    0    1
 -2       180       229       335      1494      1815      1812
 -1       512    8    0    1
 -2       181        23       165      1347      1773      1816
 -1       513    8    0    1
 -2       229       230       336      1497      1817      1818
 -1       514    8    0    1
 -2       229       336       335      1818      1819      1815
 -1       515    8    0    1
 -2       320       321       337      1774      1820      1821
 -1       516    8    0    1
 -2       181       165       323      1816      1778      1822
 -1       517    8    0    1
 -2       183       182       338      1354      1823      1824
 -1       518    8    0    1
 -2       184       183       339      1357      1825      1826
 -1       519    8    0    1
 -2       183       338       339      1824      1827      1825
 -1       520    8    0    1
 -2       185       184       340      1360      1828      1829
 -1       521    8    0    1
 -2       184       339       340      1826      1830      1828
 -1       522    8    0    1
 -2       186       185       341      1363      1831      1832
 -1       523    8    0    1
 -2       185       340       341      1829      1833      1831
 -1       524    8    0    1
 -2       187       186       342      1366      1834      1835
 -1       525    8    0    1
 -2       186       341       342      1832      1836      1834
 -1       526    8    0    1
 -2       188       187       343      1369      1837      1838
 -1       527    8    0    1
 -2       187       342       343      1835      1839      1837
 -1       528    8    0    1
 -2       189       188       344      1372      1840      1841
 -1       529    8    0    1
 -2       188       343       344      1838      1842      1840
 -1       530    8    0    1
 -2       190       189       345      1375      1843      1844
 -1       531    8    0    1
 -2       189       344       345      1841      1845      1843
 -1       532    8    0    1
 -2       191       190       346      1378      1846      1847
 -1       533    8    0    1
 -2       190       345       346      1844      1848      1846
 -1       534    8    0    1
 -2       192       191       347      1381      1849      1850
 -1       535    8    0    1
 -2       191       346       347      1847      1851      1849
 -1       536    8    0    1
 -2       193       192       348      1384      1852      1853
 -1       537    8    0    1
 -2       192       347       348      1850      1854      1852
 -1       538    8    0    1
 -2       194       193       349      1387      1855      1856
 -1       539    8    0    1
 -2       193       348       349      1853      1857      1855
 -1       540    8    0    1
 -2       195       194       350      1390      1858      1859
 -1       541    8    0    1
 -2       194       349       350      1856      1860      1858
 -1       542    8    0    1
 -2       196       195       351      1393      1861      1862
 -1       543    8    0    1
 -2       195       350       351      1859      1863      1861
 -1       544    8    0    1
 -2       197       196       352      1396      1864      1865
 -1       545    8    0    1
 -2       196       351       352      1862      1866      1864
 -1       546    8    0    1
 -2       198       197       353      1399      1867      1868
 -1       547    8    0    1
 -2       197       352       353      1865      1869      1867
 -1       548    8    0    1
 -2       199       198       354      1402      1870      1871
 -1       549    8    0    1
 -2       198       353       354      1868      1872      1870
 -1       550    8    0    1
 -2       200       199       355      1405      1873      1874
 -1       551    8    0    1
 -2       199       354       355      1871      1875      1873
 -1       552    8    0    1
 -2       201       200       356      1408      1876      1877
 -1       553    8    0    1
 -2       200       355       356      1874      1878      1876
 -1       554    8    0    1
 -2       202       201       357      1411      1879      1880
 -1       555    8    0    1
 -2       201       356       357      1877      1881      1879
 -1       556    8    0    1
 -2       203       202       358      1414      1882      1883
 -1       557    8    0    1
 -2       202       357       358      1880      1884      1882
 -1       558    8    0    1
 -2       204       203       359      1417      1885      1886
 -1       559    8    0    1
 -2       203       358       359      1883      1887      1885
 -1       560    8    0    1
 -2       205       204       360      1420      1888      1889
 -1       561    8    0    1
 -2       204       359       360      1886      1890      1888
 -1       562    8    0    1
 -2       206       205       361      1423      1891      1892
 -1       563    8    0    1
 -2       205       360       361      1889      1893      1891
 -1       564    8    0    1
 -2       207       206       362      1426      1894      1895
 -1       565    8    0    1
 -2       206       361       362      1892      1896      1894
 -1       566    8    0    1
 -2       208       207       363      1429      1897      1898
 -1       567    8    0    1
 -2       207       362       363      1895      1899      1897
 -1       568    8    0    1
 -2       209       208       364      1432      1900      1901
 -1       569    8    0    1
 -2       208       363       364      1898      1902      1900
 -1       570    8    0    1
 -2       210       209       365      1435      1903      1904
 -1       571    8    0    1
 -2       209       364       365      1901      1905      1903
 -1       572    8    0    1
 -2       211       210       366      1438      1906      1907
 -1       573    8    0    1
 -2       210       365       366      1904      1908      1906
 -1       574    8    0    1
 -2       212       211       367      1441      1909      1910
 -1       575    8    0    1
 -2       211       366       367      1907      1911      1909
 -1       576    8    0    1
 -2       213       212       368      1444      1912      1913
 -1       577    8    0    1
 -2       212       367       368      1910      1914      1912
 -1       578    8    0    1
 -2       214       213       369      1447      1915      1916
 -1       579    8    0    1
 -2       213       368       369      1913      1917      1915
 -1       580    8    0    1
 -2       215       214       370      1450      1918      1919
 -1       581    8    0    1
 -2       214       369       370      1916      1920      1918
 -1       582    8    0    1
 -2       216       215       371      1453      1921      1922
 -1       583    8    0    1
 -2       215       370       371      1919      1923      1921
 -1       584    8    0    1
 -2       217       216       372      1456      1924      1925
 -1       585    8    0    1
 -2       216       371       372      1922      1926      1924
 -1       586    8    0    1
 -2       218       217       373      1459      1927      1928
 -1       587    8    0    1
 -2       217       372       373      1925      1929      1927
 -1       588    8    0    1
 -2       219       218       374      1462      1930      1931
 -1       589    8    0    1
 -2       218       373       374      1928      1932      1930
 -1       590    8    0    1
 -2       220       219       375      1465      1933      1934
 -1       591    8    0    1
 -2       219       374       375      1931      1935      1933
 -1       592    8    0    1
 -2       221       220       376      1468      1936      1937
 -1       593    8    0    1
 -2       220       375       376      1934      1938      1936
 -1       594    8    0    1
 -2       222       221       377      1471      1939      1940
 -1       595    8    0    1
 -2       221       376       377      1937      1941      1939
 -1       596    8    0    1
 -2       223       222       378      1474      1942      1943
 -1       597    8    0    1
 -2       222       377       378      1940      1944      1942
 -1       598    8    0    1
 -2       224       223       379      1477      1945      1946
 -1       599    8    0    1
 -2       223       378       379      1943      1947      1945
 -1       600    8    0    1
 -2       225       224       380      1480      1948      1949
 -1       601    8    0    1
 -2       224       379       380      1946      1950      1948
 -1       602    8    0    1
 -2       226       225       381      1483      1951      1952
 -1       603    8    0    1
 -2       225       380       381      1949      1953      1951
 -1       604    8    0    1
 -2       227       226       382      1486      1954      1955
 -1       605    8    0    1
 -2       226       381       382      1952      1956      1954
 -1       606    8    0    1
 -2       228       227       383      1489      1957      1958
 -1       607    8    0    1
 -2       291       228       383      1681      1958      1959
 -1       608    8    0    1
 -2       227       382       383      1955      1960      1957
 -1       609    8    0    1
 -2       230       231       384      1500      1961      1962
 -1       610    8    0    1
 -2       230       384       336      1962      1963      1817
 -1       611    8    0    1
 -2       231       232       385      1503      1964      1965
 -1       612    8    0    1
 -2       231       385       384      1965      1966      1961
 -1       613    8    0    1
 -2       232       233       386      1506      1967      1968
 -1       614    8    0    1
 -2       232       386       385      1968      1969      1964
 -1       615    8    0    1
 -2       233       234       387      1509      1970      1971
 -1       616    8    0    1
 -2       233       387       386      1971      1972      1967
 -1       617    8    0    1
 -2       234       235       388      1512      1973      1974
 -1       618    8    0    1
 -2       234       388       387      1974      1975      1970
 -1       619    8    0    1
 -2       235       236       389      1515      1976      1977
 -1       620    8    0    1
 -2       235       389       388      1977      1978      1973
 -1       621    8    0    1
 -2       236       237       390      1518      1979      1980
 -1       622    8    0    1
 -2       236       390       389      1980      1981      1976
 -1       623    8    0    1
 -2       237       238       391      1521      1982      1983
 -1       624    8    0    1
 -2       237       391       390      1983      1984      1979
 -1       625    8    0    1
 -2       238       239       392      1524      1985      1986
 -1       626    8    0    1
 -2       238       392       391      1986      1987      1982
 -1       627    8    0    1
 -2       239       240       393      1527      1988      1989
 -1       628    8    0    1
 -2       239       393       392      1989      1990      1985
 -1       629    8    0    1
 -2       240       241       394      1530      1991      1992
 -1       630    8    0    1
 -2       240       394       393      1992      1993      1988
 -1       631    8    0    1
 -2       241       242       395      1533      1994      1995
 -1       632    8    0    1
 -2       241       395       394      1995      1996      1991
 -1       633    8    0    1
 -2       242       243       396      1536      1997      1998
 -1       634    8    0    1
 -2       242       396       395      1998      1999      1994
 -1       635    8    0    1
 -2       243       244       397      1539      2000      2001
 -1       636    8    0    1
 -2       243       397       396      2001      2002      1997
 -1       637    8    0    1
 -2       244       245       398      1542      2003      2004
 -1       638    8    0    1
 -2       244       398       397      2004      2005      2000
 -1       639    8    0    1
 -2       245       246       399      1545      2006      2007
 -1       640    8    0    1
 -2       245       399       398      2007      2008      2003
 -1       641    8    0    1
 -2       246       247       400      1548      2009      2010
 -1       642    8    0    1
 -2       246       400       399      2010      2011      2006
 -1       643    8    0    1
 -2       247       248       401      1551      2012      2013
 -1       644    8    0    1
 -2       247       401       400      2013      2014      2009
 -1       645    8    0    1
 -2       248       249       402      1554      2015      2016
 -1       646    8    0    1
 -2       248       402       401      2016      2017      2012
 -1       647    8    0    1
 -2       249       250       403      1557      2018      2019
 -1       648    8    0    1
 -2       249       403       402      2019      2020      2015
 -1       649    8    0    1
 -2       250       251       404      1560      2021      2022
 -1       650    8    0    1
 -2       250       404       403      2022      2023      2018
 -1       651    8    0    1
 -2       251       252       405      1563      2024      2025
 -1       652    8    0    1
 -2       251       405       404      2025      2026      2021
 -1       653    8    0    1
 -2       252       253       406      1566      2027      2028
 -1       654    8    0    1
 -2       252       406       405      2028      2029      2024
 -1       655    8    0    1
 -2       253       254       407      1569      2030      2031
 -1       656    8    0    1
 -2       253       407       406      2031      2032      2027
 -1       657    8    0    1
 -2       254       255       408      1572      2033      2034
 -1       658    8    0    1
 -2       254       408       407      2034      2035      2030
 -1       659    8    0    1
 -2       255       256       409      1575      2036      2037
 -1       660    8    0    1
 -2       255       409       408      2037      2038      2033
 -1       661    8    0    1
 -2       256       257       410      1578      2039      2040
 -1       662    8    0    1
 -2       256       410       409      2040      2041      2036
 -1       663    8    0    1
 -2       257       258       411      1581      2042      2043
 -1       664    8    0    1
 -2       257       411       410      2043      2044      2039
 -1       665    8    0    1
 -2       258       259       412      1584      2045      2046
 -1       666    8    0    1
 -2       258       412       411      2046      2047      2042
 -1       667    8    0    1
 -2       259       260       413      1587      2048      2049
 -1       668    8    0    1
 -2       259       413       412      2049      2050      2045
 -1       669    8    0    1
 -2       260       261       414      1590      2051      2052
 -1       670    8    0    1
 -2       260       414       413      2052      2053      2048
 -1       671    8    0    1
 -2       261       262       415      1593      2054      2055
 -1       672    8    0    1
 -2       261       415       414      2055      2056      2051
 -1       673    8    0    1
 -2       262       263       416      1596      2057      2058
 -1       674    8    0    1
 -2       262       416       415      2058      2059      2054
 -1       675    8    0    1
 -2       263       264       417      1599      2060      2061
 -1       676    8    0    1
 -2       263       417       416      2061      2062      2057
 -1       677    8    0    1
 -2       264       265       418      1602      2063      2064
 -1       678    8    0    1
 -2       264       418       417      2064      2065      2060
 -1       679    8    0    1
 -2       265       266       419      1605      2066      2067
 -1       680    8    0    1
 -2       265       419       418      2067      2068      2063
 -1       681    8    0    1
 -2       266       267       420      1608      2069      2070
 -1       682    8    0    1
 -2       266       420       419      2070      2071      2066
 -1       683    8    0    1
 -2       267       268       421      1611      2072      2073
 -1       684    8    0    1
 -2       267       421       420      2073      2074      2069
 -1       685    8    0    1
 -2       268       269       422      1614      2075      2076
 -1       686    8    0    1
 -2       268       422       421      2076      2077      2072
 -1       687    8    0    1
 -2       269       270       423      1617      2078      2079
 -1       688    8    0    1
 -2       269       423       422      2079      2080      2075
 -1       689    8    0    1
 -2       270       271       424      1620      2081      2082
 -1       690    8    0    1
 -2       270       424       423      2082      2083      2078
 -1       691    8    0    1
 -2       271       272       425      1623      2084      2085
 -1       692    8    0    1
 -2       271       425       424      2085      2086      2081
 -1       693    8    0    1
 -2       272       273       426      1626      2087      2088
 -1       694    8    0    1
 -2       272       426       425      2088      2089      2084
 -1       695    8    0    1
 -2       273       274       427      1629      2090      2091
 -1       696    8    0    1
 -2       273       427       426      2091      2092      2087
 -1       697    8    0    1
 -2       274       275       428      1632      2093      2094
 -1       698    8    0    1
 -2       274       428       427      2094      2095      2090
 -1       699    8    0    1
 -2       275       276       429      1635      2096      2097
 -1       700    8    0    1
 -2       428       275       429      2093      2097      2098
 -1       701    8    0    1
 -2       276       277       429      1746      2099      2096
 -1       702    8    0    1
 -2       279       280       430      1647      2100      2101
 -1       703    8    0    1
 -2       278       279       431      1644      2102      2103
 -1       704    8    0    1
 -2       279       430       431      2101      2104      2102
 -1       705    8    0    1
 -2       277       278       432      1641      2105      2106
 -1       706    8    0    1
 -2       429       277       432      2099      2106      2107
 -1       707    8    0    1
 -2       278       431       432      2103      2108      2105
 -1       708    8    0    1
 -2       280       281       433      1650      2109      2110
 -1       709    8    0    1
 -2       280       433       430      2110      2111      2100
 -1       710    8    0    1
 -2       281       282       434      1653      2112      2113
 -1       711    8    0    1
 -2       281       434       433      2113      2114      2109
 -1       712    8    0    1
 -2       282       283       435      1656      2115      2116
 -1       713    8    0    1
 -2       282       435       434      2116      2117      2112
 -1       714    8    0    1
 -2       283       284       436      1659      2118      2119
 -1       715    8    0    1
 -2       283       436       435      2119      2120      2115
 -1       716    8    0    1
 -2       284       285       437      1662      2121      2122
 -1       717    8    0    1
 -2       284       437       436      2122      2123      2118
 -1       718    8    0    1
 -2       285       286       438      1665      2124      2125
 -1       719    8    0    1
 -2       285       438       437      2125      2126      2121
 -1       720    8    0    1
 -2       286       287       439      1668      2127      2128
 -1       721    8    0    1
 -2       286       439       438      2128      2129      2124
 -1       722    8    0    1
 -2       287       288       440      1671      2130      2131
 -1       723    8    0    1
 -2       287       440       439      2131      2132      2127
 -1       724    8    0    1
 -2       288       289       441      1674      2133      2134
 -1       725    8    0    1
 -2       288       441       440      2134      2135      2130
 -1       726    8    0    1
 -2       289       290       442      1677      2136      2137
 -1       727    8    0    1
 -2       289       442       441      2137      2138      2133
 -1       728    8    0    1
 -2       293       294       443      1748      2139      2140
 -1       729    8    0    1
 -2       321       292       444      1749      2141      2142
 -1       730    8    0    1
 -2       292       293       445      1747      2143      2144
 -1       731    8    0    1
 -2       293       443       445      2140      2145      2143
 -1       732    8    0    1
 -2       294       295       446      1744      2146      2147
 -1       733    8    0    1
 -2       319       320       447      1740      2148      2149
 -1       734    8    0    1
 -2       320       337       447      1821      2150      2148
 -1       735    8    0    1
 -2       296       297       448      1750      2151      2152
 -1       736    8    0    1
 -2       295       296       449      1743      2153      2154
 -1       737    8    0    1
 -2       295       449       446      2154      2155      2146
 -1       738    8    0    1
 -2       167       168       450      1309      2156      2157
 -1       739    8    0    1
 -2       322       167       450      1775      2157      2158
 -1       740    8    0    1
 -2       168       324       450      1781      2159      2156
 -1       741    8    0    1
 -2       297       298       451      1751      2160      2161
 -1       742    8    0    1
 -2       298       299       452      1752      2162      2163
 -1       743    8    0    1
 -2       299       300       453      1753      2164      2165
 -1       744    8    0    1
 -2       300       301       454      1754      2166      2167
 -1       745    8    0    1
 -2       301       302       455      1755      2168      2169
 -1       746    8    0    1
 -2       302       303       456      1756      2170      2171
 -1       747    8    0    1
 -2       303       304       457      1757      2172      2173
 -1       748    8    0    1
 -2       303       457       456      2173      2174      2170
 -1       749    8    0    1
 -2       304       305       458      1758      2175      2176
 -1       750    8    0    1
 -2       305       306       459      1759      2177      2178
 -1       751    8    0    1
 -2       305       459       458      2178      2179      2175
 -1       752    8    0    1
 -2       306       307       460      1760      2180      2181
 -1       753    8    0    1
 -2       307       308       461      1761      2182      2183
 -1       754    8    0    1
 -2       308       309       462      1762      2184      2185
 -1       755    8    0    1
 -2       308       462       461      2185      2186      2182
 -1       756    8    0    1
 -2       309       310       463      1763      2187      2188
 -1       757    8    0    1
 -2       310       311       464      1764      2189      2190
 -1       758    8    0    1
 -2       311       312       465      1765      2191      2192
 -1       759    8    0    1
 -2       311       465       464      2192      2193      2189
 -1       760    8    0    1
 -2       312       313       466      1766      2194      2195
 -1       761    8    0    1
 -2       313       314       467      1767      2196      2197
 -1       762    8    0    1
 -2       314       315       468      1768      2198      2199
 -1       763    8    0    1
 -2       314       468       467      2199      2200      2196
 -1       764    8    0    1
 -2       315       316       469      1769      2201      2202
 -1       765    8    0    1
 -2       316       317       470      1770      2203      2204
 -1       766    8    0    1
 -2       317       318       471      1771      2205      2206
 -1       767    8    0    1
 -2       317       471       470      2206      2207      2203
 -1       768    8    0    1
 -2       318       319       472      1772      2208      2209
 -1       769    8    0    1
 -2       296       448       449      2152      2210      2153
 -1       770    8    0    1
 -2       337       321       444      1820      2142      2211
 -1       771    8    0    1
 -2       182       181       323      1351      1822      2212
 -1       772    8    0    1
 -2       338       182       323      1823      2212      2213
 -1       773    8    0    1
 -2       444       292       445      2141      2144      2214
 -1       774    8    0    1
 -2       294       446       443      2147      2215      2139
 -1       775    8    0    1
 -2       442       290       291      2136      1680      2216
 -1       776    8    0    1
 -2       319       447       472      2149      2217      2208
 -1       777    8    0    1
 -2       471       318       472      2205      2209      2218
 -1       778    8    0    1
 -2       468       315       469      2198      2202      2219
 -1       779    8    0    1
 -2       465       312       466      2191      2195      2220
 -1       780    8    0    1
 -2       462       309       473      2184      2221      2222
 -1       781    8    0    1
 -2       309       463       473      2188      2223      2221
 -1       782    8    0    1
 -2       459       306       460      2177      2181      2224
 -1       783    8    0    1
 -2       457       304       458      2172      2176      2225
 -1       784    8    0    1
 -2       455       302       456      2168      2171      2226
 -1       785    8    0    1
 -2       454       301       455      2166      2169      2227
 -1       786    8    0    1
 -2       453       300       454      2164      2167      2228
 -1       787    8    0    1
 -2       448       297       451      2151      2161      2229
 -1       788    8    0    1
 -2       452       299       453      2162      2165      2230
 -1       789    8    0    1
 -2       298       452       451      2163      2231      2160
 -1       790    8    0    1
 -2       460       307       461      2180      2183      2232
 -1       791    8    0    1
 -2       463       310       464      2187      2190      2233
 -1       792    8    0    1
 -2       466       313       467      2194      2197      2234
 -1       793    8    0    1
 -2       469       316       474      2201      2235      2236
 -1       794    8    0    1
 -2       316       470       474      2204      2237      2235
 -1       795    8    0    1
 -2       336       384       475      1963      2238      2239
 -1       796    8    0    1
 -2       325       326       476      1787      2240      2241
 -1       797    8    0    1
 -2       324       325       477      1784      2242      2243
 -1       798    8    0    1
 -2       325       476       477      2241      2244      2242
 -1       799    8    0    1
 -2       327       328       478      1793      2245      2246
 -1       800    8    0    1
 -2       328       329       479      1796      2247      2248
 -1       801    8    0    1
 -2       328       479       478      2248      2249      2245
 -1       802    8    0    1
 -2       329       330       480      1799      2250      2251
 -1       803    8    0    1
 -2       329       480       479      2251      2252      2247
 -1       804    8    0    1
 -2       330       331       481      1802      2253      2254
 -1       805    8    0    1
 -2       330       481       480      2254      2255      2250
 -1       806    8    0    1
 -2       331       332       482      1805      2256      2257
 -1       807    8    0    1
 -2       331       482       481      2257      2258      2253
 -1       808    8    0    1
 -2       332       333       483      1808      2259      2260
 -1       809    8    0    1
 -2       332       483       482      2260      2261      2256
 -1       810    8    0    1
 -2       339       338       484      1827      2262      2263
 -1       811    8    0    1
 -2       447       337       485      2150      2264      2265
 -1       812    8    0    1
 -2       384       385       486      1966      2266      2267
 -1       813    8    0    1
 -2       384       486       475      2267      2268      2238
 -1       814    8    0    1
 -2       338       323       487      2213      2269      2270
 -1       815    8    0    1
 -2       484       338       487      2262      2270      2271
 -1       816    8    0    1
 -2       323       322       487      1779      2272      2269
 -1       817    8    0    1
 -2       340       339       488      1830      2273      2274
 -1       818    8    0    1
 -2       339       484       488      2263      2275      2273
 -1       819    8    0    1
 -2       341       340       489      1833      2276      2277
 -1       820    8    0    1
 -2       340       488       489      2274      2278      2276
 -1       821    8    0    1
 -2       342       341       490      1836      2279      2280
 -1       822    8    0    1
 -2       341       489       490      2277      2281      2279
 -1       823    8    0    1
 -2       343       342       491      1839      2282      2283
 -1       824    8    0    1
 -2       342       490       491      2280      2284      2282
 -1       825    8    0    1
 -2       344       343       492      1842      2285      2286
 -1       826    8    0    1
 -2       343       491       492      2283      2287      2285
 -1       827    8    0    1
 -2       345       344       493      1845      2288      2289
 -1       828    8    0    1
 -2       344       492       493      2286      2290      2288
 -1       829    8    0    1
 -2       346       345       494      1848      2291      2292
 -1       830    8    0    1
 -2       345       493       494      2289      2293      2291
 -1       831    8    0    1
 -2       347       346       495      1851      2294      2295
 -1       832    8    0    1
 -2       346       494       495      2292      2296      2294
 -1       833    8    0    1
 -2       348       347       496      1854      2297      2298
 -1       834    8    0    1
 -2       347       495       496      2295      2299      2297
 -1       835    8    0    1
 -2       349       348       497      1857      2300      2301
 -1       836    8    0    1
 -2       348       496       497      2298      2302      2300
 -1       837    8    0    1
 -2       350       349       498      1860      2303      2304
 -1       838    8    0    1
 -2       349       497       498      2301      2305      2303
 -1       839    8    0    1
 -2       351       350       499      1863      2306      2307
 -1       840    8    0    1
 -2       350       498       499      2304      2308      2306
 -1       841    8    0    1
 -2       352       351       500      1866      2309      2310
 -1       842    8    0    1
 -2       351       499       500      2307      2311      2309
 -1       843    8    0    1
 -2       353       352       501      1869      2312      2313
 -1       844    8    0    1
 -2       352       500       501      2310      2314      2312
 -1       845    8    0    1
 -2       354       353       502      1872      2315      2316
 -1       846    8    0    1
 -2       353       501       502      2313      2317      2315
 -1       847    8    0    1
 -2       355       354       503      1875      2318      2319
 -1       848    8    0    1
 -2       354       502       503      2316      2320      2318
 -1       849    8    0    1
 -2       356       355       504      1878      2321      2322
 -1       850    8    0    1
 -2       355       503       504      2319      2323      2321
 -1       851    8    0    1
 -2       357       356       505      1881      2324      2325
 -1       852    8    0    1
 -2       356       504       505      2322      2326      2324
 -1       853    8    0    1
 -2       358       357       506      1884      2327      2328
 -1       854    8    0    1
 -2       357       505       506      2325      2329      2327
 -1       855    8    0    1
 -2       359       358       507      1887      2330      2331
 -1       856    8    0    1
 -2       358       506       507      2328      2332      2330
 -1       857    8    0    1
 -2       360       359       508      1890      2333      2334
 -1       858    8    0    1
 -2       359       507       508      2331      2335      2333
 -1       859    8    0    1
 -2       361       360       509      1893      2336      2337
 -1       860    8    0    1
 -2       360       508       509      2334      2338      2336
 -1       861    8    0    1
 -2       362       361       510      1896      2339      2340
 -1       862    8    0    1
 -2       361       509       510      2337      2341      2339
 -1       863    8    0    1
 -2       363       362       511      1899      2342      2343
 -1       864    8    0    1
 -2       362       510       511      2340      2344      2342
 -1       865    8    0    1
 -2       364       363       512      1902      2345      2346
 -1       866    8    0    1
 -2       363       511       512      2343      2347      2345
 -1       867    8    0    1
 -2       365       364       513      1905      2348      2349
 -1       868    8    0    1
 -2       364       512       513      2346      2350      2348
 -1       869    8    0    1
 -2       366       365       514      1908      2351      2352
 -1       870    8    0    1
 -2       365       513       514      2349      2353      2351
 -1       871    8    0    1
 -2       367       366       515      1911      2354      2355
 -1       872    8    0    1
 -2       366       514       515      2352      2356      2354
 -1       873    8    0    1
 -2       368       367       516      1914      2357      2358
 -1       874    8    0    1
 -2       367       515       516      2355      2359      2357
 -1       875    8    0    1
 -2       369       368       517      1917      2360      2361
 -1       876    8    0    1
 -2       368       516       517      2358      2362      2360
 -1       877    8    0    1
 -2       370       369       518      1920      2363      2364
 -1       878    8    0    1
 -2       369       517       518      2361      2365      2363
 -1       879    8    0    1
 -2       371       370       519      1923      2366      2367
 -1       880    8    0    1
 -2       370       518       519      2364      2368      2366
 -1       881    8    0    1
 -2       372       371       520      1926      2369      2370
 -1       882    8    0    1
 -2       371       519       520      2367      2371      2369
 -1       883    8    0    1
 -2       373       372       521      1929      2372      2373
 -1       884    8    0    1
 -2       372       520       521      2370      2374      2372
 -1       885    8    0    1
 -2       374       373       522      1932      2375      2376
 -1       886    8    0    1
 -2       373       521       522      2373      2377      2375
 -1       887    8    0    1
 -2       375       374       523      1935      2378      2379
 -1       888    8    0    1
 -2       374       522       523      2376      2380      2378
 -1       889    8    0    1
 -2       376       375       524      1938      2381      2382
 -1       890    8    0    1
 -2       375       523       524      2379      2383      2381
 -1       891    8    0    1
 -2       377       376       525      1941      2384      2385
 -1       892    8    0    1
 -2       376       524       525      2382      2386      2384
 -1       893    8    0    1
 -2       378       377       526      1944      2387      2388
 -1       894    8    0    1
 -2       377       525       526      2385      2389      2387
 -1       895    8    0    1
 -2       379       378       527      1947      2390      2391
 -1       896    8    0    1
 -2       378       526       527      2388      2392      2390
 -1       897    8    0    1
 -2       380       379       528      1950      2393      2394
 -1       898    8    0    1
 -2       379       527       528      2391      2395      2393
 -1       899    8    0    1
 -2       381       380       529      1953      2396      2397
 -1       900    8    0    1
 -2       380       528       529      2394      2398      2396
 -1       901    8    0    1
 -2       382       381       530      1956      2399      2400
 -1       902    8    0    1
 -2       381       529       530      2397      2401      2399
 -1       903    8    0    1
 -2       445       443       531      2145      2402      2403
 -1       904    8    0    1
 -2       386       387       532      1972      2404      2405
 -1       905    8    0    1
 -2       387       388       533      1975      2406      2407
 -1       906    8    0    1
 -2       387       533       532      2407      2408      2404
 -1       907    8    0    1
 -2       388       389       534      1978      2409      2410
 -1       908    8    0    1
 -2       388       534       533      2410      2411      2406
 -1       909    8    0    1
 -2       389       390       535      1981      2412      2413
 -1       910    8    0    1
 -2       389       535       534      2413      2414      2409
 -1       911    8    0    1
 -2       390       391       536      1984      2415      2416
 -1       912    8    0    1
 -2       390       536       535      2416      2417      2412
 -1       913    8    0    1
 -2       391       392       537      1987      2418      2419
 -1       914    8    0    1
 -2       391       537       536      2419      2420      2415
 -1       915    8    0    1
 -2       392       393       538      1990      2421      2422
 -1       916    8    0    1
 -2       392       538       537      2422      2423      2418
 -1       917    8    0    1
 -2       393       394       539      1993      2424      2425
 -1       918    8    0    1
 -2       393       539       538      2425      2426      2421
 -1       919    8    0    1
 -2       394       395       540      1996      2427      2428
 -1       920    8    0    1
 -2       394       540       539      2428      2429      2424
 -1       921    8    0    1
 -2       395       396       541      1999      2430      2431
 -1       922    8    0    1
 -2       395       541       540      2431      2432      2427
 -1       923    8    0    1
 -2       396       397       542      2002      2433      2434
 -1       924    8    0    1
 -2       396       542       541      2434      2435      2430
 -1       925    8    0    1
 -2       397       398       543      2005      2436      2437
 -1       926    8    0    1
 -2       397       543       542      2437      2438      2433
 -1       927    8    0    1
 -2       398       399       544      2008      2439      2440
 -1       928    8    0    1
 -2       398       544       543      2440      2441      2436
 -1       929    8    0    1
 -2       399       400       545      2011      2442      2443
 -1       930    8    0    1
 -2       399       545       544      2443      2444      2439
 -1       931    8    0    1
 -2       400       401       546      2014      2445      2446
 -1       932    8    0    1
 -2       400       546       545      2446      2447      2442
 -1       933    8    0    1
 -2       401       402       547      2017      2448      2449
 -1       934    8    0    1
 -2       401       547       546      2449      2450      2445
 -1       935    8    0    1
 -2       402       403       548      2020      2451      2452
 -1       936    8    0    1
 -2       402       548       547      2452      2453      2448
 -1       937    8    0    1
 -2       403       404       549      2023      2454      2455
 -1       938    8    0    1
 -2       403       549       548      2455      2456      2451
 -1       939    8    0    1
 -2       404       405       550      2026      2457      2458
 -1       940    8    0    1
 -2       404       550       549      2458      2459      2454
 -1       941    8    0    1
 -2       405       406       551      2029      2460      2461
 -1       942    8    0    1
 -2       405       551       550      2461      2462      2457
 -1       943    8    0    1
 -2       406       407       552      2032      2463      2464
 -1       944    8    0    1
 -2       406       552       551      2464      2465      2460
 -1       945    8    0    1
 -2       407       408       553      2035      2466      2467
 -1       946    8    0    1
 -2       407       553       552      2467      2468      2463
 -1       947    8    0    1
 -2       408       409       554      2038      2469      2470
 -1       948    8    0    1
 -2       408       554       553      2470      2471      2466
 -1       949    8    0    1
 -2       409       410       555      2041      2472      2473
 -1       950    8    0    1
 -2       409       555       554      2473      2474      2469
 -1       951    8    0    1
 -2       410       411       556      2044      2475      2476
 -1       952    8    0    1
 -2       410       556       555      2476      2477      2472
 -1       953    8    0    1
 -2       411       412       557      2047      2478      2479
 -1       954    8    0    1
 -2       411       557       556      2479      2480      2475
 -1       955    8    0    1
 -2       412       413       558      2050      2481      2482
 -1       956    8    0    1
 -2       412       558       557      2482      2483      2478
 -1       957    8    0    1
 -2       413       414       559      2053      2484      2485
 -1       958    8    0    1
 -2       413       559       558      2485      2486      2481
 -1       959    8    0    1
 -2       414       415       560      2056      2487      2488
 -1       960    8    0    1
 -2       414       560       559      2488      2489      2484
 -1       961    8    0    1
 -2       415       416       561      2059      2490      2491
 -1       962    8    0    1
 -2       415       561       560      2491      2492      2487
 -1       963    8    0    1
 -2       416       417       562      2062      2493      2494
 -1       964    8    0    1
 -2       416       562       561      2494      2495      2490
 -1       965    8    0    1
 -2       417       418       563      2065      2496      2497
 -1       966    8    0    1
 -2       417       563       562      2497      2498      2493
 -1       967    8    0    1
 -2       418       419       564      2068      2499      2500
 -1       968    8    0    1
 -2       418       564       563      2500      2501      2496
 -1       969    8    0    1
 -2       419       420       565      2071      2502      2503
 -1       970    8    0    1
 -2       419       565       564      2503      2504      2499
 -1       971    8    0    1
 -2       420       421       566      2074      2505      2506
 -1       972    8    0    1
 -2       420       566       565      2506      2507      2502
 -1       973    8    0    1
 -2       421       422       567      2077      2508      2509
 -1       974    8    0    1
 -2       421       567       566      2509      2510      2505
 -1       975    8    0    1
 -2       422       423       568      2080      2511      2512
 -1       976    8    0    1
 -2       422       568       567      2512      2513      2508
 -1       977    8    0    1
 -2       423       424       569      2083      2514      2515
 -1       978    8    0    1
 -2       423       569       568      2515      2516      2511
 -1       979    8    0    1
 -2       424       425       570      2086      2517      2518
 -1       980    8    0    1
 -2       424       570       569      2518      2519      2514
 -1       981    8    0    1
 -2       425       426       571      2089      2520      2521
 -1       982    8    0    1
 -2       425       571       570      2521      2522      2517
 -1       983    8    0    1
 -2       426       427       572      2092      2523      2524
 -1       984    8    0    1
 -2       426       572       571      2524      2525      2520
 -1       985    8    0    1
 -2       427       428       573      2095      2526      2527
 -1       986    8    0    1
 -2       427       573       572      2527      2528      2523
 -1       987    8    0    1
 -2       428       429       432      2098      2107      2529
 -1       988    8    0    1
 -2       433       434       574      2114      2530      2531
 -1       989    8    0    1
 -2       434       435       575      2117      2532      2533
 -1       990    8    0    1
 -2       434       575       574      2533      2534      2530
 -1       991    8    0    1
 -2       431       430       576      2104      2535      2536
 -1       992    8    0    1
 -2       430       433       577      2111      2537      2538
 -1       993    8    0    1
 -2       576       430       577      2535      2538      2539
 -1       994    8    0    1
 -2       433       574       577      2531      2540      2537
 -1       995    8    0    1
 -2       435       436       578      2120      2541      2542
 -1       996    8    0    1
 -2       435       578       575      2542      2543      2532
 -1       997    8    0    1
 -2       436       437       579      2123      2544      2545
 -1       998    8    0    1
 -2       436       579       578      2545      2546      2541
 -1       999    8    0    1
 -2       437       438       580      2126      2547      2548
 -1      1000    8    0    1
 -2       437       580       579      2548      2549      2544
 -1      1001    8    0    1
 -2       438       439       581      2129      2550      2551
 -1      1002    8    0    1
 -2       438       581       580      2551      2552      2547
 -1      1003    8    0    1
 -2       439       440       582      2132      2553      2554
 -1      1004    8    0    1
 -2       439       582       581      2554      2555      2550
 -1      1005    8    0    1
 -2       440       441       583      2135      2556      2557
 -1      1006    8    0    1
 -2       440       583       582      2557      2558      2553
 -1      1007    8    0    1
 -2       441       442       584      2138      2559      2560
 -1      1008    8    0    1
 -2       441       584       583      2560      2561      2556
 -1      1009    8    0    1
 -2       442       291       383      2216      1959      2562
 -1      1010    8    0    1
 -2       472       447       585      2217      2563      2564
 -1      1011    8    0    1
 -2       447       485       585      2265      2565      2563
 -1      1012    8    0    1
 -2       385       386       586      1969      2566      2567
 -1      1013    8    0    1
 -2       386       532       586      2405      2568      2566
 -1      1014    8    0    1
 -2       444       445       587      2214      2569      2570
 -1      1015    8    0    1
 -2       443       446       588      2215      2571      2572
 -1      1016    8    0    1
 -2       468       469       589      2219      2573      2574
 -1      1017    8    0    1
 -2       465       466       590      2220      2575      2576
 -1      1018    8    0    1
 -2       459       460       591      2224      2577      2578
 -1      1019    8    0    1
 -2       455       456       592      2226      2579      2580
 -1      1020    8    0    1
 -2       337       444       593      2211      2581      2582
 -1      1021    8    0    1
 -2       444       587       593      2570      2583      2581
 -1      1022    8    0    1
 -2       326       327       594      1790      2584      2585
 -1      1023    8    0    1
 -2       476       326       594      2240      2585      2586
 -1      1024    8    0    1
 -2       327       478       594      2246      2587      2584
 -1      1025    8    0    1
 -2       446       449       595      2155      2588      2589
 -1      1026    8    0    1
 -2       451       452       596      2231      2590      2591
 -1      1027    8    0    1
 -2       448       451       597      2229      2592      2593
 -1      1028    8    0    1
 -2       451       596       597      2591      2594      2592
 -1      1029    8    0    1
 -2       453       454       598      2228      2595      2596
 -1      1030    8    0    1
 -2       454       455       599      2227      2597      2598
 -1      1031    8    0    1
 -2       455       592       599      2580      2599      2597
 -1      1032    8    0    1
 -2       456       457       600      2174      2600      2601
 -1      1033    8    0    1
 -2       457       458       601      2225      2602      2603
 -1      1034    8    0    1
 -2       457       601       600      2603      2604      2600
 -1      1035    8    0    1
 -2       458       459       602      2179      2605      2606
 -1      1036    8    0    1
 -2       463       464       603      2233      2607      2608
 -1      1037    8    0    1
 -2       461       462       604      2186      2609      2610
 -1      1038    8    0    1
 -2       466       467       605      2234      2611      2612
 -1      1039    8    0    1
 -2       464       465       606      2193      2613      2614
 -1      1040    8    0    1
 -2       464       606       603      2614      2615      2607
 -1      1041    8    0    1
 -2       467       468       607      2200      2616      2617
 -1      1042    8    0    1
 -2       605       467       607      2611      2617      2618
 -1      1043    8    0    1
 -2       468       589       607      2574      2619      2616
 -1      1044    8    0    1
 -2       470       471       608      2207      2620      2621
 -1      1045    8    0    1
 -2       471       472       609      2218      2622      2623
 -1      1046    8    0    1
 -2       471       609       608      2623      2624      2620
 -1      1047    8    0    1
 -2       449       448       610      2210      2625      2626
 -1      1048    8    0    1
 -2       335       336       611      1819      2627      2628
 -1      1049    8    0    1
 -2       334       335       611      1814      2628      2629
 -1      1050    8    0    1
 -2       336       475       611      2239      2630      2627
 -1      1051    8    0    1
 -2       460       461       612      2232      2631      2632
 -1      1052    8    0    1
 -2       452       453       613      2230      2633      2634
 -1      1053    8    0    1
 -2       446       595       588      2589      2635      2571
 -1      1054    8    0    1
 -2       324       477       614      2243      2636      2637
 -1      1055    8    0    1
 -2       324       614       450      2637      2638      2159
 -1      1056    8    0    1
 -2       445       531       587      2403      2639      2569
 -1      1057    8    0    1
 -2       333       334       611      1811      2629      2640
 -1      1058    8    0    1
 -2       612       461       604      2631      2610      2641
 -1      1059    8    0    1
 -2       385       586       486      2567      2642      2266
 -1      1060    8    0    1
 -2       487       322       450      2272      2158      2643
 -1      1061    8    0    1
 -2       606       465       590      2613      2576      2644
 -1      1062    8    0    1
 -2       472       585       609      2564      2645      2622
 -1      1063    8    0    1
 -2       531       443       588      2402      2572      2646
 -1      1064    8    0    1
 -2       428       432       573      2529      2647      2526
 -1      1065    8    0    1
 -2       589       469       615      2573      2648      2649
 -1      1066    8    0    1
 -2       469       474       615      2236      2650      2648
 -1      1067    8    0    1
 -2       432       431       573      2108      2651      2647
 -1      1068    8    0    1
 -2       449       610       595      2626      2652      2588
 -1      1069    8    0    1
 -2       442       383       616      2562      2653      2654
 -1      1070    8    0    1
 -2       584       442       616      2559      2654      2655
 -1      1071    8    0    1
 -2       383       382       616      1960      2656      2653
 -1      1072    8    0    1
 -2       604       462       617      2609      2657      2658
 -1      1073    8    0    1
 -2       462       473       617      2222      2659      2657
 -1      1074    8    0    1
 -2       333       611       483      2640      2660      2259
 -1      1075    8    0    1
 -2       470       608       474      2621      2661      2237
 -1      1076    8    0    1
 -2       601       458       602      2602      2606      2662
 -1      1077    8    0    1
 -2       459       591       602      2578      2663      2605
 -1      1078    8    0    1
 -2       473       463       618      2223      2664      2665
 -1      1079    8    0    1
 -2       463       603       618      2608      2666      2664
 -1      1080    8    0    1
 -2       456       600       592      2601      2667      2579
 -1      1081    8    0    1
 -2       591       460       612      2577      2632      2668
 -1      1082    8    0    1
 -2       337       593       485      2582      2669      2264
 -1      1083    8    0    1
 -2       590       466       619      2575      2670      2671
 -1      1084    8    0    1
 -2       466       605       619      2612      2672      2670
 -1      1085    8    0    1
 -2       596       452       613      2590      2634      2673
 -1      1086    8    0    1
 -2       382       530       616      2400      2674      2656
 -1      1087    8    0    1
 -2       448       597       610      2593      2675      2625
 -1      1088    8    0    1
 -2       598       454       599      2595      2598      2676
 -1      1089    8    0    1
 -2       573       431       576      2651      2536      2677
 -1      1090    8    0    1
 -2       479       480       620      2252      2678      2679
 -1      1091    8    0    1
 -2       478       479       621      2249      2680      2681
 -1      1092    8    0    1
 -2       479       620       621      2679      2682      2680
 -1      1093    8    0    1
 -2       481       482       622      2258      2683      2684
 -1      1094    8    0    1
 -2       482       483       623      2261      2685      2686
 -1      1095    8    0    1
 -2       482       623       622      2686      2687      2683
 -1      1096    8    0    1
 -2       474       608       624      2661      2688      2689
 -1      1097    8    0    1
 -2       488       484       625      2275      2690      2691
 -1      1098    8    0    1
 -2       475       486       626      2268      2692      2693
 -1      1099    8    0    1
 -2       611       475       483      2630      2694      2660
 -1      1100    8    0    1
 -2       533       534       627      2411      2695      2696
 -1      1101    8    0    1
 -2       489       488       628      2278      2697      2698
 -1      1102    8    0    1
 -2       488       625       628      2691      2699      2697
 -1      1103    8    0    1
 -2       490       489       629      2281      2700      2701
 -1      1104    8    0    1
 -2       489       628       629      2698      2702      2700
 -1      1105    8    0    1
 -2       491       490       630      2284      2703      2704
 -1      1106    8    0    1
 -2       490       629       630      2701      2705      2703
 -1      1107    8    0    1
 -2       492       491       631      2287      2706      2707
 -1      1108    8    0    1
 -2       491       630       631      2704      2708      2706
 -1      1109    8    0    1
 -2       493       492       632      2290      2709      2710
 -1      1110    8    0    1
 -2       492       631       632      2707      2711      2709
 -1      1111    8    0    1
 -2       494       493       633      2293      2712      2713
 -1      1112    8    0    1
 -2       493       632       633      2710      2714      2712
 -1      1113    8    0    1
 -2       495       494       634      2296      2715      2716
 -1      1114    8    0    1
 -2       494       633       634      2713      2717      2715
 -1      1115    8    0    1
 -2       496       495       635      2299      2718      2719
 -1      1116    8    0    1
 -2       495       634       635      2716      2720      2718
 -1      1117    8    0    1
 -2       497       496       636      2302      2721      2722
 -1      1118    8    0    1
 -2       496       635       636      2719      2723      2721
 -1      1119    8    0    1
 -2       498       497       637      2305      2724      2725
 -1      1120    8    0    1
 -2       497       636       637      2722      2726      2724
 -1      1121    8    0    1
 -2       499       498       638      2308      2727      2728
 -1      1122    8    0    1
 -2       498       637       638      2725      2729      2727
 -1      1123    8    0    1
 -2       500       499       639      2311      2730      2731
 -1      1124    8    0    1
 -2       499       638       639      2728      2732      2730
 -1      1125    8    0    1
 -2       501       500       640      2314      2733      2734
 -1      1126    8    0    1
 -2       500       639       640      2731      2735      2733
 -1      1127    8    0    1
 -2       502       501       641      2317      2736      2737
 -1      1128    8    0    1
 -2       501       640       641      2734      2738      2736
 -1      1129    8    0    1
 -2       503       502       642      2320      2739      2740
 -1      1130    8    0    1
 -2       502       641       642      2737      2741      2739
 -1      1131    8    0    1
 -2       504       503       643      2323      2742      2743
 -1      1132    8    0    1
 -2       503       642       643      2740      2744      2742
 -1      1133    8    0    1
 -2       505       504       644      2326      2745      2746
 -1      1134    8    0    1
 -2       504       643       644      2743      2747      2745
 -1      1135    8    0    1
 -2       506       505       645      2329      2748      2749
 -1      1136    8    0    1
 -2       505       644       645      2746      2750      2748
 -1      1137    8    0    1
 -2       507       506       646      2332      2751      2752
 -1      1138    8    0    1
 -2       506       645       646      2749      2753      2751
 -1      1139    8    0    1
 -2       508       507       647      2335      2754      2755
 -1      1140    8    0    1
 -2       507       646       647      2752      2756      2754
 -1      1141    8    0    1
 -2       509       508       648      2338      2757      2758
 -1      1142    8    0    1
 -2       508       647       648      2755      2759      2757
 -1      1143    8    0    1
 -2       510       509       649      2341      2760      2761
 -1      1144    8    0    1
 -2       509       648       649      2758      2762      2760
 -1      1145    8    0    1
 -2       511       510       650      2344      2763      2764
 -1      1146    8    0    1
 -2       510       649       650      2761      2765      2763
 -1      1147    8    0    1
 -2       512       511       651      2347      2766      2767
 -1      1148    8    0    1
 -2       511       650       651      2764      2768      2766
 -1      1149    8    0    1
 -2       513       512       652      2350      2769      2770
 -1      1150    8    0    1
 -2       512       651       652      2767      2771      2769
 -1      1151    8    0    1
 -2       514       513       653      2353      2772      2773
 -1      1152    8    0    1
 -2       513       652       653      2770      2774      2772
 -1      1153    8    0    1
 -2       515       514       654      2356      2775      2776
 -1      1154    8    0    1
 -2       514       653       654      2773      2777      2775
 -1      1155    8    0    1
 -2       516       515       655      2359      2778      2779
 -1      1156    8    0    1
 -2       515       654       655      2776      2780      2778
 -1      1157    8    0    1
 -2       517       516       656      2362      2781      2782
 -1      1158    8    0    1
 -2       516       655       656      2779      2783      2781
 -1      1159    8    0    1
 -2       518       517       657      2365      2784      2785
 -1      1160    8    0    1
 -2       517       656       657      2782      2786      2784
 -1      1161    8    0    1
 -2       519       518       658      2368      2787      2788
 -1      1162    8    0    1
 -2       518       657       658      2785      2789      2787
 -1      1163    8    0    1
 -2       520       519       659      2371      2790      2791
 -1      1164    8    0    1
 -2       519       658       659      2788      2792      2790
 -1      1165    8    0    1
 -2       521       520       660      2374      2793      2794
 -1      1166    8    0    1
 -2       520       659       660      2791      2795      2793
 -1      1167    8    0    1
 -2       522       521       661      2377      2796      2797
 -1      1168    8    0    1
 -2       521       660       661      2794      2798      2796
 -1      1169    8    0    1
 -2       523       522       662      2380      2799      2800
 -1      1170    8    0    1
 -2       522       661       662      2797      2801      2799
 -1      1171    8    0    1
 -2       524       523       663      2383      2802      2803
 -1      1172    8    0    1
 -2       523       662       663      2800      2804      2802
 -1      1173    8    0    1
 -2       525       524       664      2386      2805      2806
 -1      1174    8    0    1
 -2       524       663       664      2803      2807      2805
 -1      1175    8    0    1
 -2       526       525       665      2389      2808      2809
 -1      1176    8    0    1
 -2       525       664       665      2806      2810      2808
 -1      1177    8    0    1
 -2       527       526       666      2392      2811      2812
 -1      1178    8    0    1
 -2       526       665       666      2809      2813      2811
 -1      1179    8    0    1
 -2       528       527       667      2395      2814      2815
 -1      1180    8    0    1
 -2       527       666       667      2812      2816      2814
 -1      1181    8    0    1
 -2       529       528       668      2398      2817      2818
 -1      1182    8    0    1
 -2       528       667       668      2815      2819      2817
 -1      1183    8    0    1
 -2       530       529       669      2401      2820      2821
 -1      1184    8    0    1
 -2       529       668       669      2818      2822      2820
 -1      1185    8    0    1
 -2       532       533       670      2408      2823      2824
 -1      1186    8    0    1
 -2       533       627       670      2696      2825      2823
 -1      1187    8    0    1
 -2       535       536       671      2417      2826      2827
 -1      1188    8    0    1
 -2       536       537       672      2420      2828      2829
 -1      1189    8    0    1
 -2       536       672       671      2829      2830      2826
 -1      1190    8    0    1
 -2       537       538       673      2423      2831      2832
 -1      1191    8    0    1
 -2       537       673       672      2832      2833      2828
 -1      1192    8    0    1
 -2       538       539       674      2426      2834      2835
 -1      1193    8    0    1
 -2       538       674       673      2835      2836      2831
 -1      1194    8    0    1
 -2       539       540       675      2429      2837      2838
 -1      1195    8    0    1
 -2       539       675       674      2838      2839      2834
 -1      1196    8    0    1
 -2       540       541       676      2432      2840      2841
 -1      1197    8    0    1
 -2       540       676       675      2841      2842      2837
 -1      1198    8    0    1
 -2       541       542       677      2435      2843      2844
 -1      1199    8    0    1
 -2       541       677       676      2844      2845      2840
 -1      1200    8    0    1
 -2       542       543       678      2438      2846      2847
 -1      1201    8    0    1
 -2       542       678       677      2847      2848      2843
 -1      1202    8    0    1
 -2       543       544       679      2441      2849      2850
 -1      1203    8    0    1
 -2       543       679       678      2850      2851      2846
 -1      1204    8    0    1
 -2       544       545       680      2444      2852      2853
 -1      1205    8    0    1
 -2       544       680       679      2853      2854      2849
 -1      1206    8    0    1
 -2       545       546       681      2447      2855      2856
 -1      1207    8    0    1
 -2       545       681       680      2856      2857      2852
 -1      1208    8    0    1
 -2       546       547       682      2450      2858      2859
 -1      1209    8    0    1
 -2       546       682       681      2859      2860      2855
 -1      1210    8    0    1
 -2       547       548       683      2453      2861      2862
 -1      1211    8    0    1
 -2       547       683       682      2862      2863      2858
 -1      1212    8    0    1
 -2       548       549       684      2456      2864      2865
 -1      1213    8    0    1
 -2       548       684       683      2865      2866      2861
 -1      1214    8    0    1
 -2       549       550       685      2459      2867      2868
 -1      1215    8    0    1
 -2       549       685       684      2868      2869      2864
 -1      1216    8    0    1
 -2       550       551       686      2462      2870      2871
 -1      1217    8    0    1
 -2       550       686       685      2871      2872      2867
 -1      1218    8    0    1
 -2       551       552       687      2465      2873      2874
 -1      1219    8    0    1
 -2       551       687       686      2874      2875      2870
 -1      1220    8    0    1
 -2       552       553       688      2468      2876      2877
 -1      1221    8    0    1
 -2       552       688       687      2877      2878      2873
 -1      1222    8    0    1
 -2       553       554       689      2471      2879      2880
 -1      1223    8    0    1
 -2       553       689       688      2880      2881      2876
 -1      1224    8    0    1
 -2       554       555       690      2474      2882      2883
 -1      1225    8    0    1
 -2       554       690       689      2883      2884      2879
 -1      1226    8    0    1
 -2       555       556       691      2477      2885      2886
 -1      1227    8    0    1
 -2       555       691       690      2886      2887      2882
 -1      1228    8    0    1
 -2       556       557       692      2480      2888      2889
 -1      1229    8    0    1
 -2       556       692       691      2889      2890      2885
 -1      1230    8    0    1
 -2       557       558       693      2483      2891      2892
 -1      1231    8    0    1
 -2       557       693       692      2892      2893      2888
 -1      1232    8    0    1
 -2       558       559       694      2486      2894      2895
 -1      1233    8    0    1
 -2       558       694       693      2895      2896      2891
 -1      1234    8    0    1
 -2       560       561       695      2492      2897      2898
 -1      1235    8    0    1
 -2       561       562       613      2495      2899      2900
 -1      1236    8    0    1
 -2       563       564       696      2501      2901      2902
 -1      1237    8    0    1
 -2       564       565       697      2504      2903      2904
 -1      1238    8    0    1
 -2       564       697       696      2904      2905      2901
 -1      1239    8    0    1
 -2       565       566       698      2507      2906      2907
 -1      1240    8    0    1
 -2       565       698       697      2907      2908      2903
 -1      1241    8    0    1
 -2       566       567       699      2510      2909      2910
 -1      1242    8    0    1
 -2       566       699       698      2910      2911      2906
 -1      1243    8    0    1
 -2       567       568       700      2513      2912      2913
 -1      1244    8    0    1
 -2       567       700       699      2913      2914      2909
 -1      1245    8    0    1
 -2       568       569       701      2516      2915      2916
 -1      1246    8    0    1
 -2       568       701       700      2916      2917      2912
 -1      1247    8    0    1
 -2       569       570       702      2519      2918      2919
 -1      1248    8    0    1
 -2       569       702       701      2919      2920      2915
 -1      1249    8    0    1
 -2       570       571       703      2522      2921      2922
 -1      1250    8    0    1
 -2       570       703       702      2922      2923      2918
 -1      1251    8    0    1
 -2       571       572       704      2525      2924      2925
 -1      1252    8    0    1
 -2       571       704       703      2925      2926      2921
 -1      1253    8    0    1
 -2       572       573       705      2528      2927      2928
 -1      1254    8    0    1
 -2       704       572       705      2924      2928      2929
 -1      1255    8    0    1
 -2       573       576       705      2677      2930      2927
 -1      1256    8    0    1
 -2       578       579       706      2546      2931      2932
 -1      1257    8    0    1
 -2       574       575       707      2534      2933      2934
 -1      1258    8    0    1
 -2       579       580       708      2549      2935      2936
 -1      1259    8    0    1
 -2       579       708       706      2936      2937      2931
 -1      1260    8    0    1
 -2       575       578       709      2543      2938      2939
 -1      1261    8    0    1
 -2       707       575       709      2933      2939      2940
 -1      1262    8    0    1
 -2       578       706       709      2932      2941      2938
 -1      1263    8    0    1
 -2       610       597       710      2675      2942      2943
 -1      1264    8    0    1
 -2       580       581       711      2552      2944      2945
 -1      1265    8    0    1
 -2       580       711       708      2945      2946      2935
 -1      1266    8    0    1
 -2       581       582       712      2555      2947      2948
 -1      1267    8    0    1
 -2       581       712       711      2948      2949      2944
 -1      1268    8    0    1
 -2       582       583       713      2558      2950      2951
 -1      1269    8    0    1
 -2       582       713       712      2951      2952      2947
 -1      1270    8    0    1
 -2       585       485       714      2565      2953      2954
 -1      1271    8    0    1
 -2       586       532       715      2568      2955      2956
 -1      1272    8    0    1
 -2       532       670       715      2824      2957      2955
 -1      1273    8    0    1
 -2       595       610       716      2652      2958      2959
 -1      1274    8    0    1
 -2       606       590       717      2644      2960      2961
 -1      1275    8    0    1
 -2       599       592       718      2599      2962      2963
 -1      1276    8    0    1
 -2       609       585       719      2645      2964      2965
 -1      1277    8    0    1
 -2       597       596       720      2594      2966      2967
 -1      1278    8    0    1
 -2       593       587       721      2583      2968      2969
 -1      1279    8    0    1
 -2       613       562       596      2899      2970      2673
 -1      1280    8    0    1
 -2       591       612       722      2668      2971      2972
 -1      1281    8    0    1
 -2       534       535       723      2414      2973      2974
 -1      1282    8    0    1
 -2       627       534       723      2695      2974      2975
 -1      1283    8    0    1
 -2       535       671       723      2827      2976      2973
 -1      1284    8    0    1
 -2       487       450       614      2643      2638      2977
 -1      1285    8    0    1
 -2       453       598       724      2596      2978      2979
 -1      1286    8    0    1
 -2       587       531       725      2639      2980      2981
 -1      1287    8    0    1
 -2       480       481       726      2255      2982      2983
 -1      1288    8    0    1
 -2       620       480       726      2678      2983      2984
 -1      1289    8    0    1
 -2       481       622       726      2684      2985      2982
 -1      1290    8    0    1
 -2       602       591       727      2663      2986      2987
 -1      1291    8    0    1
 -2       600       601       728      2604      2988      2989
 -1      1292    8    0    1
 -2       592       600       729      2667      2990      2991
 -1      1293    8    0    1
 -2       477       476       730      2244      2992      2993
 -1      1294    8    0    1
 -2       486       586       731      2642      2994      2995
 -1      1295    8    0    1
 -2       626       486       731      2692      2995      2996
 -1      1296    8    0    1
 -2       586       715       731      2956      2997      2994
 -1      1297    8    0    1
 -2       584       616       732      2655      2998      2999
 -1      1298    8    0    1
 -2       616       530       732      2674      3000      2998
 -1      1299    8    0    1
 -2       603       606       733      2615      3001      3002
 -1      1300    8    0    1
 -2       606       717       733      2961      3003      3001
 -1      1301    8    0    1
 -2       601       602       734      2662      3004      3005
 -1      1302    8    0    1
 -2       531       588       735      2646      3006      3007
 -1      1303    8    0    1
 -2       485       593       736      2669      3008      3009
 -1      1304    8    0    1
 -2       714       485       736      2953      3009      3010
 -1      1305    8    0    1
 -2       593       721       736      2969      3011      3008
 -1      1306    8    0    1
 -2       608       609       737      2624      3012      3013
 -1      1307    8    0    1
 -2       598       599       738      2676      3014      3015
 -1      1308    8    0    1
 -2       612       604       739      2641      3016      3017
 -1      1309    8    0    1
 -2       612       739       722      3017      3018      2971
 -1      1310    8    0    1
 -2       613       453       724      2633      2979      3019
 -1      1311    8    0    1
 -2       588       595       740      2635      3020      3021
 -1      1312    8    0    1
 -2       595       716       740      2959      3022      3020
 -1      1313    8    0    1
 -2       724       598       695      2978      3023      3024
 -1      1314    8    0    1
 -2       614       477       741      2636      3025      3026
 -1      1315    8    0    1
 -2       477       730       741      2993      3027      3025
 -1      1316    8    0    1
 -2       478       621       742      2681      3028      3029
 -1      1317    8    0    1
 -2       478       742       594      3029      3030      2587
 -1      1318    8    0    1
 -2       474       624       615      2689      3031      2650
 -1      1319    8    0    1
 -2       624       608       737      2688      3013      3032
 -1      1320    8    0    1
 -2       530       669       732      2821      3033      3000
 -1      1321    8    0    1
 -2       739       604       743      3016      3034      3035
 -1      1322    8    0    1
 -2       604       617       743      2658      3036      3034
 -1      1323    8    0    1
 -2       483       475       626      2694      2693      3037
 -1      1324    8    0    1
 -2       725       531       735      2980      3007      3038
 -1      1325    8    0    1
 -2       729       600       728      2990      2989      3039
 -1      1326    8    0    1
 -2       721       587       725      2968      2981      3040
 -1      1327    8    0    1
 -2       483       626       623      3037      3041      2685
 -1      1328    8    0    1
 -2       476       594       744      2586      3042      3043
 -1      1329    8    0    1
 -2       730       476       744      2992      3043      3044
 -1      1330    8    0    1
 -2       594       742       744      3030      3045      3042
 -1      1331    8    0    1
 -2       694       559       718      2894      3046      3047
 -1      1332    8    0    1
 -2       559       560       738      2489      3048      3049
 -1      1333    8    0    1
 -2       563       696       720      2902      3050      3051
 -1      1334    8    0    1
 -2       562       563       596      2498      3052      2970
 -1      1335    8    0    1
 -2       705       576       745      2930      3053      3054
 -1      1336    8    0    1
 -2       576       577       745      2539      3055      3053
 -1      1337    8    0    1
 -2       589       615       746      2649      3056      3057
 -1      1338    8    0    1
 -2       602       727       734      2987      3058      3004
 -1      1339    8    0    1
 -2       719       585       714      2964      2954      3059
 -1      1340    8    0    1
 -2       737       609       719      3012      2965      3060
 -1      1341    8    0    1
 -2       583       584       732      2561      2999      3061
 -1      1342    8    0    1
 -2       718       592       729      2962      2991      3062
 -1      1343    8    0    1
 -2       617       473       747      2659      3063      3064
 -1      1344    8    0    1
 -2       473       618       747      2665      3065      3063
 -1      1345    8    0    1
 -2       588       740       735      3021      3066      3006
 -1      1346    8    0    1
 -2       717       590       748      2960      3067      3068
 -1      1347    8    0    1
 -2       590       619       748      2671      3069      3067
 -1      1348    8    0    1
 -2       605       607       749      2618      3070      3071
 -1      1349    8    0    1
 -2       716       610       710      2958      2943      3072
 -1      1350    8    0    1
 -2       601       734       728      3005      3073      2988
 -1      1351    8    0    1
 -2       599       718       738      2963      3074      3014
 -1      1352    8    0    1
 -2       583       732       750      3061      3075      3076
 -1      1353    8    0    1
 -2       713       583       750      2950      3076      3077
 -1      1354    8    0    1
 -2       732       669       750      3033      3078      3075
 -1      1355    8    0    1
 -2       597       720       696      2967      3050      3079
 -1      1356    8    0    1
 -2       618       603       751      2666      3080      3081
 -1      1357    8    0    1
 -2       603       733       751      3002      3082      3080
 -1      1358    8    0    1
 -2       487       614       752      2977      3083      3084
 -1      1359    8    0    1
 -2       484       487       752      2271      3084      3085
 -1      1360    8    0    1
 -2       614       741       752      3026      3086      3083
 -1      1361    8    0    1
 -2       619       605       753      2672      3087      3088
 -1      1362    8    0    1
 -2       605       749       753      3071      3089      3087
 -1      1363    8    0    1
 -2       577       574       754      2540      3090      3091
 -1      1364    8    0    1
 -2       745       577       754      3055      3091      3092
 -1      1365    8    0    1
 -2       574       707       754      2934      3093      3090
 -1      1366    8    0    1
 -2       625       484       752      2690      3085      3094
 -1      1367    8    0    1
 -2       591       722       727      2972      3095      2986
 -1      1368    8    0    1
 -2       598       738       695      3015      3096      3023
 -1      1369    8    0    1
 -2       718       559       738      3046      3049      3074
 -1      1370    8    0    1
 -2       738       560       695      3048      2898      3096
 -1      1371    8    0    1
 -2       622       623       755      2687      3097      3098
 -1      1372    8    0    1
 -2       725       735       756      3038      3099      3100
 -1      1373    8    0    1
 -2       724       695       561      3024      2897      3101
 -1      1374    8    0    1
 -2       629       628       757      2702      3102      3103
 -1      1375    8    0    1
 -2       630       629       758      2705      3104      3105
 -1      1376    8    0    1
 -2       629       757       758      3103      3106      3104
 -1      1377    8    0    1
 -2       631       630       759      2708      3107      3108
 -1      1378    8    0    1
 -2       630       758       759      3105      3109      3107
 -1      1379    8    0    1
 -2       632       631       760      2711      3110      3111
 -1      1380    8    0    1
 -2       631       759       760      3108      3112      3110
 -1      1381    8    0    1
 -2       633       632       761      2714      3113      3114
 -1      1382    8    0    1
 -2       632       760       761      3111      3115      3113
 -1      1383    8    0    1
 -2       634       633       762      2717      3116      3117
 -1      1384    8    0    1
 -2       633       761       762      3114      3118      3116
 -1      1385    8    0    1
 -2       635       634       763      2720      3119      3120
 -1      1386    8    0    1
 -2       634       762       763      3117      3121      3119
 -1      1387    8    0    1
 -2       636       635       764      2723      3122      3123
 -1      1388    8    0    1
 -2       635       763       764      3120      3124      3122
 -1      1389    8    0    1
 -2       637       636       765      2726      3125      3126
 -1      1390    8    0    1
 -2       636       764       765      3123      3127      3125
 -1      1391    8    0    1
 -2       638       637       766      2729      3128      3129
 -1      1392    8    0    1
 -2       637       765       766      3126      3130      3128
 -1      1393    8    0    1
 -2       639       638       767      2732      3131      3132
 -1      1394    8    0    1
 -2       638       766       767      3129      3133      3131
 -1      1395    8    0    1
 -2       640       639       768      2735      3134      3135
 -1      1396    8    0    1
 -2       639       767       768      3132      3136      3134
 -1      1397    8    0    1
 -2       641       640       769      2738      3137      3138
 -1      1398    8    0    1
 -2       640       768       769      3135      3139      3137
 -1      1399    8    0    1
 -2       642       641       770      2741      3140      3141
 -1      1400    8    0    1
 -2       641       769       770      3138      3142      3140
 -1      1401    8    0    1
 -2       643       642       771      2744      3143      3144
 -1      1402    8    0    1
 -2       642       770       771      3141      3145      3143
 -1      1403    8    0    1
 -2       644       643       772      2747      3146      3147
 -1      1404    8    0    1
 -2       643       771       772      3144      3148      3146
 -1      1405    8    0    1
 -2       645       644       773      2750      3149      3150
 -1      1406    8    0    1
 -2       644       772       773      3147      3151      3149
 -1      1407    8    0    1
 -2       646       645       774      2753      3152      3153
 -1      1408    8    0    1
 -2       645       773       774      3150      3154      3152
 -1      1409    8    0    1
 -2       647       646       775      2756      3155      3156
 -1      1410    8    0    1
 -2       646       774       775      3153      3157      3155
 -1      1411    8    0    1
 -2       648       647       776      2759      3158      3159
 -1      1412    8    0    1
 -2       647       775       776      3156      3160      3158
 -1      1413    8    0    1
 -2       649       648       777      2762      3161      3162
 -1      1414    8    0    1
 -2       648       776       777      3159      3163      3161
 -1      1415    8    0    1
 -2       650       649       778      2765      3164      3165
 -1      1416    8    0    1
 -2       649       777       778      3162      3166      3164
 -1      1417    8    0    1
 -2       651       650       779      2768      3167      3168
 -1      1418    8    0    1
 -2       650       778       779      3165      3169      3167
 -1      1419    8    0    1
 -2       652       651       780      2771      3170      3171
 -1      1420    8    0    1
 -2       651       779       780      3168      3172      3170
 -1      1421    8    0    1
 -2       653       652       781      2774      3173      3174
 -1      1422    8    0    1
 -2       652       780       781      3171      3175      3173
 -1      1423    8    0    1
 -2       654       653       782      2777      3176      3177
 -1      1424    8    0    1
 -2       653       781       782      3174      3178      3176
 -1      1425    8    0    1
 -2       655       654       783      2780      3179      3180
 -1      1426    8    0    1
 -2       654       782       783      3177      3181      3179
 -1      1427    8    0    1
 -2       656       655       784      2783      3182      3183
 -1      1428    8    0    1
 -2       655       783       784      3180      3184      3182
 -1      1429    8    0    1
 -2       658       657       785      2789      3185      3186
 -1      1430    8    0    1
 -2       659       658       753      2792      3187      3188
 -1      1431    8    0    1
 -2       661       660       786      2798      3189      3190
 -1      1432    8    0    1
 -2       662       661       787      2801      3191      3192
 -1      1433    8    0    1
 -2       661       786       787      3190      3193      3191
 -1      1434    8    0    1
 -2       663       662       788      2804      3194      3195
 -1      1435    8    0    1
 -2       662       787       788      3192      3196      3194
 -1      1436    8    0    1
 -2       664       663       789      2807      3197      3198
 -1      1437    8    0    1
 -2       663       788       789      3195      3199      3197
 -1      1438    8    0    1
 -2       665       664       790      2810      3200      3201
 -1      1439    8    0    1
 -2       664       789       790      3198      3202      3200
 -1      1440    8    0    1
 -2       666       665       791      2813      3203      3204
 -1      1441    8    0    1
 -2       665       790       791      3201      3205      3203
 -1      1442    8    0    1
 -2       667       666       792      2816      3206      3207
 -1      1443    8    0    1
 -2       666       791       792      3204      3208      3206
 -1      1444    8    0    1
 -2       668       667       793      2819      3209      3210
 -1      1445    8    0    1
 -2       667       792       793      3207      3211      3209
 -1      1446    8    0    1
 -2       669       668       794      2822      3212      3213
 -1      1447    8    0    1
 -2       750       669       794      3078      3213      3214
 -1      1448    8    0    1
 -2       668       793       794      3210      3215      3212
 -1      1449    8    0    1
 -2       670       627       795      2825      3216      3217
 -1      1450    8    0    1
 -2       672       673       796      2833      3218      3219
 -1      1451    8    0    1
 -2       671       672       797      2830      3220      3221
 -1      1452    8    0    1
 -2       672       796       797      3219      3222      3220
 -1      1453    8    0    1
 -2       674       675       798      2839      3223      3224
 -1      1454    8    0    1
 -2       675       676       799      2842      3225      3226
 -1      1455    8    0    1
 -2       675       799       798      3226      3227      3223
 -1      1456    8    0    1
 -2       676       677       800      2845      3228      3229
 -1      1457    8    0    1
 -2       676       800       799      3229      3230      3225
 -1      1458    8    0    1
 -2       677       678       801      2848      3231      3232
 -1      1459    8    0    1
 -2       677       801       800      3232      3233      3228
 -1      1460    8    0    1
 -2       678       679       802      2851      3234      3235
 -1      1461    8    0    1
 -2       678       802       801      3235      3236      3231
 -1      1462    8    0    1
 -2       679       680       803      2854      3237      3238
 -1      1463    8    0    1
 -2       679       803       802      3238      3239      3234
 -1      1464    8    0    1
 -2       680       681       804      2857      3240      3241
 -1      1465    8    0    1
 -2       680       804       803      3241      3242      3237
 -1      1466    8    0    1
 -2       681       682       805      2860      3243      3244
 -1      1467    8    0    1
 -2       681       805       804      3244      3245      3240
 -1      1468    8    0    1
 -2       682       683       806      2863      3246      3247
 -1      1469    8    0    1
 -2       682       806       805      3247      3248      3243
 -1      1470    8    0    1
 -2       683       684       807      2866      3249      3250
 -1      1471    8    0    1
 -2       683       807       806      3250      3251      3246
 -1      1472    8    0    1
 -2       684       685       808      2869      3252      3253
 -1      1473    8    0    1
 -2       684       808       807      3253      3254      3249
 -1      1474    8    0    1
 -2       685       686       809      2872      3255      3256
 -1      1475    8    0    1
 -2       685       809       808      3256      3257      3252
 -1      1476    8    0    1
 -2       686       687       810      2875      3258      3259
 -1      1477    8    0    1
 -2       686       810       809      3259      3260      3255
 -1      1478    8    0    1
 -2       687       688       811      2878      3261      3262
 -1      1479    8    0    1
 -2       687       811       810      3262      3263      3258
 -1      1480    8    0    1
 -2       688       689       812      2881      3264      3265
 -1      1481    8    0    1
 -2       688       812       811      3265      3266      3261
 -1      1482    8    0    1
 -2       689       690       813      2884      3267      3268
 -1      1483    8    0    1
 -2       689       813       812      3268      3269      3264
 -1      1484    8    0    1
 -2       690       691       814      2887      3270      3271
 -1      1485    8    0    1
 -2       690       814       813      3271      3272      3267
 -1      1486    8    0    1
 -2       691       692       815      2890      3273      3274
 -1      1487    8    0    1
 -2       691       815       814      3274      3275      3270
 -1      1488    8    0    1
 -2       692       693       816      2893      3276      3277
 -1      1489    8    0    1
 -2       692       816       815      3277      3278      3273
 -1      1490    8    0    1
 -2       693       694       817      2896      3279      3280
 -1      1491    8    0    1
 -2       816       693       817      3276      3280      3281
 -1      1492    8    0    1
 -2       694       718       817      3047      3282      3279
 -1      1493    8    0    1
 -2       561       613       724      2900      3019      3101
 -1      1494    8    0    1
 -2       699       700       818      2914      3283      3284
 -1      1495    8    0    1
 -2       700       701       819      2917      3285      3286
 -1      1496    8    0    1
 -2       700       819       818      3286      3287      3283
 -1      1497    8    0    1
 -2       701       702       820      2920      3288      3289
 -1      1498    8    0    1
 -2       701       820       819      3289      3290      3285
 -1      1499    8    0    1
 -2       702       703       821      2923      3291      3292
 -1      1500    8    0    1
 -2       702       821       820      3292      3293      3288
 -1      1501    8    0    1
 -2       703       704       822      2926      3294      3295
 -1      1502    8    0    1
 -2       703       822       821      3295      3296      3291
 -1      1503    8    0    1
 -2       704       705       823      2929      3297      3298
 -1      1504    8    0    1
 -2       822       704       823      3294      3298      3299
 -1      1505    8    0    1
 -2       705       745       823      3054      3300      3297
 -1      1506    8    0    1
 -2       746       615       824      3056      3301      3302
 -1      1507    8    0    1
 -2       710       597       696      2942      3079      3303
 -1      1508    8    0    1
 -2       624       737       825      3032      3304      3305
 -1      1509    8    0    1
 -2       734       727       826      3058      3306      3307
 -1      1510    8    0    1
 -2       625       752       827      3094      3308      3309
 -1      1511    8    0    1
 -2       628       625       827      2699      3309      3310
 -1      1512    8    0    1
 -2       752       741       827      3086      3311      3308
 -1      1513    8    0    1
 -2       706       708       828      2937      3312      3313
 -1      1514    8    0    1
 -2       589       746       829      3057      3314      3315
 -1      1515    8    0    1
 -2       712       713       830      2952      3316      3317
 -1      1516    8    0    1
 -2       708       711       831      2946      3318      3319
 -1      1517    8    0    1
 -2       708       831       828      3319      3320      3312
 -1      1518    8    0    1
 -2       737       719       832      3060      3321      3322
 -1      1519    8    0    1
 -2       715       670       833      2957      3323      3324
 -1      1520    8    0    1
 -2       670       795       833      3217      3325      3323
 -1      1521    8    0    1
 -2       711       712       834      2949      3326      3327
 -1      1522    8    0    1
 -2       831       711       834      3318      3327      3328
 -1      1523    8    0    1
 -2       712       830       834      3317      3329      3326
 -1      1524    8    0    1
 -2       698       699       835      2911      3330      3331
 -1      1525    8    0    1
 -2       699       818       835      3284      3332      3330
 -1      1526    8    0    1
 -2       673       674       836      2836      3333      3334
 -1      1527    8    0    1
 -2       796       673       836      3218      3334      3335
 -1      1528    8    0    1
 -2       674       798       836      3224      3336      3333
 -1      1529    8    0    1
 -2       615       624       824      3031      3337      3301
 -1      1530    8    0    1
 -2       623       626       837      3041      3338      3339
 -1      1531    8    0    1
 -2       755       623       837      3097      3339      3340
 -1      1532    8    0    1
 -2       626       731       837      2996      3341      3338
 -1      1533    8    0    1
 -2       621       620       838      2682      3342      3343
 -1      1534    8    0    1
 -2       728       734       839      3073      3344      3345
 -1      1535    8    0    1
 -2       721       725       840      3040      3346      3347
 -1      1536    8    0    1
 -2       735       740       841      3066      3348      3349
 -1      1537    8    0    1
 -2       733       717       842      3003      3350      3351
 -1      1538    8    0    1
 -2       719       714       843      3059      3352      3353
 -1      1539    8    0    1
 -2       607       589       829      2619      3315      3354
 -1      1540    8    0    1
 -2       722       739       844      3018      3355      3356
 -1      1541    8    0    1
 -2       727       722       845      3095      3357      3358
 -1      1542    8    0    1
 -2       742       621       846      3028      3359      3360
 -1      1543    8    0    1
 -2       621       838       846      3343      3361      3359
 -1      1544    8    0    1
 -2       725       756       840      3100      3362      3346
 -1      1545    8    0    1
 -2       743       617       847      3036      3363      3364
 -1      1546    8    0    1
 -2       617       747       847      3064      3365      3363
 -1      1547    8    0    1
 -2       736       721       848      3011      3366      3367
 -1      1548    8    0    1
 -2       731       715       849      2997      3368      3369
 -1      1549    8    0    1
 -2       837       731       849      3341      3369      3370
 -1      1550    8    0    1
 -2       715       833       849      3324      3371      3368
 -1      1551    8    0    1
 -2       757       628       827      3102      3310      3372
 -1      1552    8    0    1
 -2       723       671       850      2976      3373      3374
 -1      1553    8    0    1
 -2       671       797       850      3221      3375      3373
 -1      1554    8    0    1
 -2       657       656       851      2786      3376      3377
 -1      1555    8    0    1
 -2       660       659       852      2795      3378      3379
 -1      1556    8    0    1
 -2       824       624       825      3337      3305      3380
 -1      1557    8    0    1
 -2       618       751       853      3081      3381      3382
 -1      1558    8    0    1
 -2       618       853       747      3382      3383      3065
 -1      1559    8    0    1
 -2       756       735       841      3099      3349      3384
 -1      1560    8    0    1
 -2       657       851       785      3377      3385      3185
 -1      1561    8    0    1
 -2       838       620       854      3342      3386      3387
 -1      1562    8    0    1
 -2       620       726       854      2984      3388      3386
 -1      1563    8    0    1
 -2       753       658       785      3187      3186      3389
 -1      1564    8    0    1
 -2       596       563       720      3052      3051      2966
 -1      1565    8    0    1
 -2       696       697       710      2905      3390      3303
 -1      1566    8    0    1
 -2       826       727       845      3306      3358      3391
 -1      1567    8    0    1
 -2       707       709       855      2940      3392      3393
 -1      1568    8    0    1
 -2       825       737       856      3304      3394      3395
 -1      1569    8    0    1
 -2       737       832       856      3322      3396      3394
 -1      1570    8    0    1
 -2       734       826       857      3307      3397      3398
 -1      1571    8    0    1
 -2       734       857       839      3398      3399      3344
 -1      1572    8    0    1
 -2       829       746       858      3314      3400      3401
 -1      1573    8    0    1
 -2       722       844       845      3356      3402      3357
 -1      1574    8    0    1
 -2       709       706       859      2941      3403      3404
 -1      1575    8    0    1
 -2       706       828       859      3313      3405      3403
 -1      1576    8    0    1
 -2       710       697       716      3390      3406      3072
 -1      1577    8    0    1
 -2       716       697       698      3406      2908      3407
 -1      1578    8    0    1
 -2       716       698       835      3407      3331      3408
 -1      1579    8    0    1
 -2       848       721       840      3366      3347      3409
 -1      1580    8    0    1
 -2       851       656       784      3376      3183      3410
 -1      1581    8    0    1
 -2       660       852       786      3379      3411      3189
 -1      1582    8    0    1
 -2       832       719       843      3321      3353      3412
 -1      1583    8    0    1
 -2       749       607       858      3070      3413      3414
 -1      1584    8    0    1
 -2       718       729       817      3062      3415      3282
 -1      1585    8    0    1
 -2       842       717       748      3350      3068      3416
 -1      1586    8    0    1
 -2       795       627       860      3216      3417      3418
 -1      1587    8    0    1
 -2       627       723       860      2975      3419      3417
 -1      1588    8    0    1
 -2       751       733       861      3082      3420      3421
 -1      1589    8    0    1
 -2       733       842       861      3351      3422      3420
 -1      1590    8    0    1
 -2       746       824       786      3302      3423      3424
 -1      1591    8    0    1
 -2       754       707       862      3093      3425      3426
 -1      1592    8    0    1
 -2       707       855       862      3393      3427      3425
 -1      1593    8    0    1
 -2       726       622       863      2985      3428      3429
 -1      1594    8    0    1
 -2       854       726       863      3388      3429      3430
 -1      1595    8    0    1
 -2       622       755       863      3098      3431      3428
 -1      1596    8    0    1
 -2       739       743       864      3035      3432      3433
 -1      1597    8    0    1
 -2       739       864       844      3433      3434      3355
 -1      1598    8    0    1
 -2       619       753       785      3088      3389      3435
 -1      1599    8    0    1
 -2       730       744       865      3044      3436      3437
 -1      1600    8    0    1
 -2       729       728       866      3039      3438      3439
 -1      1601    8    0    1
 -2       817       729       866      3415      3439      3440
 -1      1602    8    0    1
 -2       728       839       866      3345      3441      3438
 -1      1603    8    0    1
 -2       714       736       867      3010      3442      3443
 -1      1604    8    0    1
 -2       736       848       867      3367      3444      3442
 -1      1605    8    0    1
 -2       713       750       868      3077      3445      3446
 -1      1606    8    0    1
 -2       830       713       868      3316      3446      3447
 -1      1607    8    0    1
 -2       750       794       868      3214      3448      3445
 -1      1608    8    0    1
 -2       741       730       869      3027      3449      3450
 -1      1609    8    0    1
 -2       730       865       869      3437      3451      3449
 -1      1610    8    0    1
 -2       714       867       843      3443      3452      3352
 -1      1611    8    0    1
 -2       832       843       870      3412      3453      3454
 -1      1612    8    0    1
 -2       759       758       871      3109      3455      3456
 -1      1613    8    0    1
 -2       760       759       872      3112      3457      3458
 -1      1614    8    0    1
 -2       759       871       872      3456      3459      3457
 -1      1615    8    0    1
 -2       761       760       873      3115      3460      3461
 -1      1616    8    0    1
 -2       760       872       873      3458      3462      3460
 -1      1617    8    0    1
 -2       762       761       874      3118      3463      3464
 -1      1618    8    0    1
 -2       761       873       874      3461      3465      3463
 -1      1619    8    0    1
 -2       763       762       875      3121      3466      3467
 -1      1620    8    0    1
 -2       762       874       875      3464      3468      3466
 -1      1621    8    0    1
 -2       764       763       876      3124      3469      3470
 -1      1622    8    0    1
 -2       763       875       876      3467      3471      3469
 -1      1623    8    0    1
 -2       765       764       877      3127      3472      3473
 -1      1624    8    0    1
 -2       764       876       877      3470      3474      3472
 -1      1625    8    0    1
 -2       766       765       878      3130      3475      3476
 -1      1626    8    0    1
 -2       765       877       878      3473      3477      3475
 -1      1627    8    0    1
 -2       767       766       879      3133      3478      3479
 -1      1628    8    0    1
 -2       766       878       879      3476      3480      3478
 -1      1629    8    0    1
 -2       768       767       880      3136      3481      3482
 -1      1630    8    0    1
 -2       767       879       880      3479      3483      3481
 -1      1631    8    0    1
 -2       769       768       881      3139      3484      3485
 -1      1632    8    0    1
 -2       768       880       881      3482      3486      3484
 -1      1633    8    0    1
 -2       770       769       882      3142      3487      3488
 -1      1634    8    0    1
 -2       769       881       882      3485      3489      3487
 -1      1635    8    0    1
 -2       771       770       883      3145      3490      3491
 -1      1636    8    0    1
 -2       770       882       883      3488      3492      3490
 -1      1637    8    0    1
 -2       772       771       884      3148      3493      3494
 -1      1638    8    0    1
 -2       771       883       884      3491      3495      3493
 -1      1639    8    0    1
 -2       773       772       885      3151      3496      3497
 -1      1640    8    0    1
 -2       772       884       885      3494      3498      3496
 -1      1641    8    0    1
 -2       774       773       886      3154      3499      3500
 -1      1642    8    0    1
 -2       773       885       886      3497      3501      3499
 -1      1643    8    0    1
 -2       775       774       887      3157      3502      3503
 -1      1644    8    0    1
 -2       774       886       887      3500      3504      3502
 -1      1645    8    0    1
 -2       776       775       888      3160      3505      3506
 -1      1646    8    0    1
 -2       775       887       888      3503      3507      3505
 -1      1647    8    0    1
 -2       777       776       889      3163      3508      3509
 -1      1648    8    0    1
 -2       776       888       889      3506      3510      3508
 -1      1649    8    0    1
 -2       778       777       890      3166      3511      3512
 -1      1650    8    0    1
 -2       777       889       890      3509      3513      3511
 -1      1651    8    0    1
 -2       779       778       891      3169      3514      3515
 -1      1652    8    0    1
 -2       778       890       891      3512      3516      3514
 -1      1653    8    0    1
 -2       780       779       892      3172      3517      3518
 -1      1654    8    0    1
 -2       779       891       892      3515      3519      3517
 -1      1655    8    0    1
 -2       781       780       893      3175      3520      3521
 -1      1656    8    0    1
 -2       780       892       893      3518      3522      3520
 -1      1657    8    0    1
 -2       782       781       894      3178      3523      3524
 -1      1658    8    0    1
 -2       781       893       894      3521      3525      3523
 -1      1659    8    0    1
 -2       783       782       895      3181      3526      3527
 -1      1660    8    0    1
 -2       782       894       895      3524      3528      3526
 -1      1661    8    0    1
 -2       784       783       861      3184      3529      3530
 -1      1662    8    0    1
 -2       659       753       852      3188      3531      3378
 -1      1663    8    0    1
 -2       824       825       896      3380      3532      3533
 -1      1664    8    0    1
 -2       788       787       896      3196      3534      3535
 -1      1665    8    0    1
 -2       789       788       897      3199      3536      3537
 -1      1666    8    0    1
 -2       790       789       898      3202      3538      3539
 -1      1667    8    0    1
 -2       789       897       898      3537      3540      3538
 -1      1668    8    0    1
 -2       791       790       899      3205      3541      3542
 -1      1669    8    0    1
 -2       790       898       899      3539      3543      3541
 -1      1670    8    0    1
 -2       792       791       900      3208      3544      3545
 -1      1671    8    0    1
 -2       791       899       900      3542      3546      3544
 -1      1672    8    0    1
 -2       793       792       901      3211      3547      3548
 -1      1673    8    0    1
 -2       792       900       901      3545      3549      3547
 -1      1674    8    0    1
 -2       744       742       902      3045      3550      3551
 -1      1675    8    0    1
 -2       744       902       865      3551      3552      3436
 -1      1676    8    0    1
 -2       799       800       903      3230      3553      3554
 -1      1677    8    0    1
 -2       798       799       904      3227      3555      3556
 -1      1678    8    0    1
 -2       799       903       904      3554      3557      3555
 -1      1679    8    0    1
 -2       801       802       905      3236      3558      3559
 -1      1680    8    0    1
 -2       802       803       906      3239      3560      3561
 -1      1681    8    0    1
 -2       802       906       905      3561      3562      3558
 -1      1682    8    0    1
 -2       803       804       907      3242      3563      3564
 -1      1683    8    0    1
 -2       803       907       906      3564      3565      3560
 -1      1684    8    0    1
 -2       804       805       908      3245      3566      3567
 -1      1685    8    0    1
 -2       804       908       907      3567      3568      3563
 -1      1686    8    0    1
 -2       805       806       909      3248      3569      3570
 -1      1687    8    0    1
 -2       805       909       908      3570      3571      3566
 -1      1688    8    0    1
 -2       806       807       910      3251      3572      3573
 -1      1689    8    0    1
 -2       806       910       909      3573      3574      3569
 -1      1690    8    0    1
 -2       807       808       911      3254      3575      3576
 -1      1691    8    0    1
 -2       807       911       910      3576      3577      3572
 -1      1692    8    0    1
 -2       808       809       912      3257      3578      3579
 -1      1693    8    0    1
 -2       808       912       911      3579      3580      3575
 -1      1694    8    0    1
 -2       809       810       913      3260      3581      3582
 -1      1695    8    0    1
 -2       809       913       912      3582      3583      3578
 -1      1696    8    0    1
 -2       810       811       914      3263      3584      3585
 -1      1697    8    0    1
 -2       810       914       913      3585      3586      3581
 -1      1698    8    0    1
 -2       811       812       915      3266      3587      3588
 -1      1699    8    0    1
 -2       811       915       914      3588      3589      3584
 -1      1700    8    0    1
 -2       812       813       916      3269      3590      3591
 -1      1701    8    0    1
 -2       812       916       915      3591      3592      3587
 -1      1702    8    0    1
 -2       813       814       917      3272      3593      3594
 -1      1703    8    0    1
 -2       813       917       916      3594      3595      3590
 -1      1704    8    0    1
 -2       814       815       918      3275      3596      3597
 -1      1705    8    0    1
 -2       814       918       917      3597      3598      3593
 -1      1706    8    0    1
 -2       816       817       866      3281      3440      3599
 -1      1707    8    0    1
 -2       842       748       851      3416      3600      3601
 -1      1708    8    0    1
 -2       820       821       919      3293      3602      3603
 -1      1709    8    0    1
 -2       818       819       920      3287      3604      3605
 -1      1710    8    0    1
 -2       821       822       921      3296      3606      3607
 -1      1711    8    0    1
 -2       821       921       919      3607      3608      3602
 -1      1712    8    0    1
 -2       855       709       859      3392      3404      3609
 -1      1713    8    0    1
 -2       826       845       922      3391      3610      3611
 -1      1714    8    0    1
 -2       858       746       786      3400      3424      3612
 -1      1715    8    0    1
 -2       845       844       923      3402      3613      3614
 -1      1716    8    0    1
 -2       848       840       924      3409      3615      3616
 -1      1717    8    0    1
 -2       828       831       925      3320      3617      3618
 -1      1718    8    0    1
 -2       757       827       926      3372      3619      3620
 -1      1719    8    0    1
 -2       756       841       920      3384      3621      3622
 -1      1720    8    0    1
 -2       748       619       785      3069      3435      3623
 -1      1721    8    0    1
 -2       867       848       927      3444      3624      3625
 -1      1722    8    0    1
 -2       848       924       927      3616      3626      3624
 -1      1723    8    0    1
 -2       786       824       787      3423      3627      3193
 -1      1724    8    0    1
 -2       819       820       928      3290      3628      3629
 -1      1725    8    0    1
 -2       920       819       928      3604      3629      3630
 -1      1726    8    0    1
 -2       820       919       928      3603      3631      3628
 -1      1727    8    0    1
 -2       841       740       835      3348      3632      3633
 -1      1728    8    0    1
 -2       843       867       929      3452      3634      3635
 -1      1729    8    0    1
 -2       843       929       870      3635      3636      3453
 -1      1730    8    0    1
 -2       833       795       930      3325      3637      3638
 -1      1731    8    0    1
 -2       745       754       931      3092      3639      3640
 -1      1732    8    0    1
 -2       823       745       931      3300      3640      3641
 -1      1733    8    0    1
 -2       754       862       931      3426      3642      3639
 -1      1734    8    0    1
 -2       758       757       932      3106      3643      3644
 -1      1735    8    0    1
 -2       758       932       871      3644      3645      3455
 -1      1736    8    0    1
 -2       785       851       748      3385      3600      3623
 -1      1737    8    0    1
 -2       840       756       933      3362      3646      3647
 -1      1738    8    0    1
 -2       756       920       933      3622      3648      3646
 -1      1739    8    0    1
 -2       800       801       934      3233      3649      3650
 -1      1740    8    0    1
 -2       903       800       934      3553      3650      3651
 -1      1741    8    0    1
 -2       801       905       934      3559      3652      3649
 -1      1742    8    0    1
 -2       797       796       935      3222      3653      3654
 -1      1743    8    0    1
 -2       740       716       835      3022      3408      3632
 -1      1744    8    0    1
 -2       787       824       896      3627      3533      3534
 -1      1745    8    0    1
 -2       849       833       936      3371      3655      3656
 -1      1746    8    0    1
 -2       833       930       936      3638      3657      3655
 -1      1747    8    0    1
 -2       847       747       937      3365      3658      3659
 -1      1748    8    0    1
 -2       747       853       937      3383      3660      3658
 -1      1749    8    0    1
 -2       796       836       938      3335      3661      3662
 -1      1750    8    0    1
 -2       796       938       935      3662      3663      3653
 -1      1751    8    0    1
 -2       783       895       861      3527      3664      3529
 -1      1752    8    0    1
 -2       850       797       939      3375      3665      3666
 -1      1753    8    0    1
 -2       797       935       939      3654      3667      3665
 -1      1754    8    0    1
 -2       838       854       940      3387      3668      3669
 -1      1755    8    0    1
 -2       788       896       897      3535      3670      3536
 -1      1756    8    0    1
 -2       831       834       941      3328      3671      3672
 -1      1757    8    0    1
 -2       831       941       925      3672      3673      3617
 -1      1758    8    0    1
 -2       865       902       942      3552      3674      3675
 -1      1759    8    0    1
 -2       902       742       846      3550      3360      3676
 -1      1760    8    0    1
 -2       794       793       943      3215      3677      3678
 -1      1761    8    0    1
 -2       868       794       943      3448      3678      3679
 -1      1762    8    0    1
 -2       793       901       943      3548      3680      3677
 -1      1763    8    0    1
 -2       743       847       944      3364      3681      3682
 -1      1764    8    0    1
 -2       743       944       864      3682      3683      3432
 -1      1765    8    0    1
 -2       853       751       861      3381      3421      3684
 -1      1766    8    0    1
 -2       798       904       945      3556      3685      3686
 -1      1767    8    0    1
 -2       798       945       836      3686      3687      3336
 -1      1768    8    0    1
 -2       816       866       839      3599      3441      3688
 -1      1769    8    0    1
 -2       918       815       857      3596      3689      3690
 -1      1770    8    0    1
 -2       855       859       946      3609      3691      3692
 -1      1771    8    0    1
 -2       815       816       857      3278      3693      3689
 -1      1772    8    0    1
 -2       869       865       947      3451      3694      3695
 -1      1773    8    0    1
 -2       865       942       947      3675      3696      3694
 -1      1774    8    0    1
 -2       841       835       818      3633      3332      3697
 -1      1775    8    0    1
 -2       920       841       818      3621      3697      3605
 -1      1776    8    0    1
 -2       832       870       948      3454      3698      3699
 -1      1777    8    0    1
 -2       832       948       856      3699      3700      3396
 -1      1778    8    0    1
 -2       924       840       949      3615      3701      3702
 -1      1779    8    0    1
 -2       840       933       949      3647      3703      3701
 -1      1780    8    0    1
 -2       822       823       931      3299      3641      3704
 -1      1781    8    0    1
 -2       755       837       950      3340      3705      3706
 -1      1782    8    0    1
 -2       863       755       950      3431      3706      3707
 -1      1783    8    0    1
 -2       837       849       950      3370      3708      3705
 -1      1784    8    0    1
 -2       932       757       926      3643      3620      3709
 -1      1785    8    0    1
 -2       922       845       923      3610      3614      3710
 -1      1786    8    0    1
 -2       825       856       897      3395      3711      3712
 -1      1787    8    0    1
 -2       857       826       951      3397      3713      3714
 -1      1788    8    0    1
 -2       826       922       951      3611      3715      3713
 -1      1789    8    0    1
 -2       923       844       952      3613      3716      3717
 -1      1790    8    0    1
 -2       844       864       952      3434      3718      3716
 -1      1791    8    0    1
 -2       723       850       860      3374      3719      3419
 -1      1792    8    0    1
 -2       859       828       953      3405      3720      3721
 -1      1793    8    0    1
 -2       946       859       953      3691      3721      3722
 -1      1794    8    0    1
 -2       828       925       953      3618      3723      3720
 -1      1795    8    0    1
 -2       822       931       921      3704      3724      3606
 -1      1796    8    0    1
 -2       862       855       954      3427      3725      3726
 -1      1797    8    0    1
 -2       855       946       954      3692      3727      3725
 -1      1798    8    0    1
 -2       816       839       857      3688      3399      3693
 -1      1799    8    0    1
 -2       846       838       955      3361      3728      3729
 -1      1800    8    0    1
 -2       838       940       955      3669      3730      3728
 -1      1801    8    0    1
 -2       929       867       927      3634      3625      3731
 -1      1802    8    0    1
 -2       930       795       956      3637      3732      3733
 -1      1803    8    0    1
 -2       795       860       956      3418      3734      3732
 -1      1804    8    0    1
 -2       842       851       784      3601      3410      3735
 -1      1805    8    0    1
 -2       830       868       943      3447      3679      3736
 -1      1806    8    0    1
 -2       825       897       896      3712      3670      3532
 -1      1807    8    0    1
 -2       827       741       869      3311      3450      3737
 -1      1808    8    0    1
 -2       830       943       957      3736      3738      3739
 -1      1809    8    0    1
 -2       834       830       957      3329      3739      3740
 -1      1810    8    0    1
 -2       943       901       957      3680      3741      3738
 -1      1811    8    0    1
 -2       842       784       861      3735      3530      3422
 -1      1812    8    0    1
 -2       753       749       852      3089      3742      3531
 -1      1813    8    0    1
 -2       907       908       958      3568      3743      3744
 -1      1814    8    0    1
 -2       940       854       959      3668      3745      3746
 -1      1815    8    0    1
 -2       854       863       959      3430      3747      3745
 -1      1816    8    0    1
 -2       904       903       960      3557      3748      3749
 -1      1817    8    0    1
 -2       873       872       961      3462      3750      3751
 -1      1818    8    0    1
 -2       874       873       962      3465      3752      3753
 -1      1819    8    0    1
 -2       873       961       962      3751      3754      3752
 -1      1820    8    0    1
 -2       875       874       963      3468      3755      3756
 -1      1821    8    0    1
 -2       874       962       963      3753      3757      3755
 -1      1822    8    0    1
 -2       876       875       964      3471      3758      3759
 -1      1823    8    0    1
 -2       875       963       964      3756      3760      3758
 -1      1824    8    0    1
 -2       877       876       965      3474      3761      3762
 -1      1825    8    0    1
 -2       876       964       965      3759      3763      3761
 -1      1826    8    0    1
 -2       878       877       966      3477      3764      3765
 -1      1827    8    0    1
 -2       877       965       966      3762      3766      3764
 -1      1828    8    0    1
 -2       879       878       967      3480      3767      3768
 -1      1829    8    0    1
 -2       878       966       967      3765      3769      3767
 -1      1830    8    0    1
 -2       880       879       968      3483      3770      3771
 -1      1831    8    0    1
 -2       879       967       968      3768      3772      3770
 -1      1832    8    0    1
 -2       881       880       969      3486      3773      3774
 -1      1833    8    0    1
 -2       880       968       969      3771      3775      3773
 -1      1834    8    0    1
 -2       882       881       970      3489      3776      3777
 -1      1835    8    0    1
 -2       881       969       970      3774      3778      3776
 -1      1836    8    0    1
 -2       883       882       971      3492      3779      3780
 -1      1837    8    0    1
 -2       882       970       971      3777      3781      3779
 -1      1838    8    0    1
 -2       884       883       972      3495      3782      3783
 -1      1839    8    0    1
 -2       883       971       972      3780      3784      3782
 -1      1840    8    0    1
 -2       885       884       973      3498      3785      3786
 -1      1841    8    0    1
 -2       884       972       973      3783      3787      3785
 -1      1842    8    0    1
 -2       886       885       974      3501      3788      3789
 -1      1843    8    0    1
 -2       885       973       974      3786      3790      3788
 -1      1844    8    0    1
 -2       887       886       975      3504      3791      3792
 -1      1845    8    0    1
 -2       886       974       975      3789      3793      3791
 -1      1846    8    0    1
 -2       888       887       976      3507      3794      3795
 -1      1847    8    0    1
 -2       887       975       976      3792      3796      3794
 -1      1848    8    0    1
 -2       889       888       977      3510      3797      3798
 -1      1849    8    0    1
 -2       888       976       977      3795      3799      3797
 -1      1850    8    0    1
 -2       890       889       978      3513      3800      3801
 -1      1851    8    0    1
 -2       889       977       978      3798      3802      3800
 -1      1852    8    0    1
 -2       891       890       979      3516      3803      3804
 -1      1853    8    0    1
 -2       890       978       979      3801      3805      3803
 -1      1854    8    0    1
 -2       892       891       980      3519      3806      3807
 -1      1855    8    0    1
 -2       891       979       980      3804      3808      3806
 -1      1856    8    0    1
 -2       893       892       981      3522      3809      3810
 -1      1857    8    0    1
 -2       892       980       981      3807      3811      3809
 -1      1858    8    0    1
 -2       894       893       982      3525      3812      3813
 -1      1859    8    0    1
 -2       893       981       982      3810      3814      3812
 -1      1860    8    0    1
 -2       895       894       983      3528      3815      3816
 -1      1861    8    0    1
 -2       894       982       983      3813      3817      3815
 -1      1862    8    0    1
 -2       898       897       948      3540      3818      3819
 -1      1863    8    0    1
 -2       827       869       926      3737      3820      3619
 -1      1864    8    0    1
 -2       902       846       984      3676      3821      3822
 -1      1865    8    0    1
 -2       942       902       984      3674      3822      3823
 -1      1866    8    0    1
 -2       846       955       984      3729      3824      3821
 -1      1867    8    0    1
 -2       899       898       985      3543      3825      3826
 -1      1868    8    0    1
 -2       898       948       985      3819      3827      3825
 -1      1869    8    0    1
 -2       900       899       986      3546      3828      3829
 -1      1870    8    0    1
 -2       899       985       986      3826      3830      3828
 -1      1871    8    0    1
 -2       901       900       987      3549      3831      3832
 -1      1872    8    0    1
 -2       900       986       987      3829      3833      3831
 -1      1873    8    0    1
 -2       861       895       853      3664      3834      3684
 -1      1874    8    0    1
 -2       906       907       988      3565      3835      3836
 -1      1875    8    0    1
 -2       907       958       988      3744      3837      3835
 -1      1876    8    0    1
 -2       905       906       989      3562      3838      3839
 -1      1877    8    0    1
 -2       906       988       989      3836      3840      3838
 -1      1878    8    0    1
 -2       908       909       990      3571      3841      3842
 -1      1879    8    0    1
 -2       908       990       958      3842      3843      3743
 -1      1880    8    0    1
 -2       909       910       991      3574      3844      3845
 -1      1881    8    0    1
 -2       909       991       990      3845      3846      3841
 -1      1882    8    0    1
 -2       910       911       992      3577      3847      3848
 -1      1883    8    0    1
 -2       910       992       991      3848      3849      3844
 -1      1884    8    0    1
 -2       911       912       993      3580      3850      3851
 -1      1885    8    0    1
 -2       911       993       992      3851      3852      3847
 -1      1886    8    0    1
 -2       912       913       994      3583      3853      3854
 -1      1887    8    0    1
 -2       912       994       993      3854      3855      3850
 -1      1888    8    0    1
 -2       913       914       995      3586      3856      3857
 -1      1889    8    0    1
 -2       913       995       994      3857      3858      3853
 -1      1890    8    0    1
 -2       914       915       996      3589      3859      3860
 -1      1891    8    0    1
 -2       914       996       995      3860      3861      3856
 -1      1892    8    0    1
 -2       915       916       997      3592      3862      3863
 -1      1893    8    0    1
 -2       915       997       996      3863      3864      3859
 -1      1894    8    0    1
 -2       916       917       998      3595      3865      3866
 -1      1895    8    0    1
 -2       916       998       997      3866      3867      3862
 -1      1896    8    0    1
 -2       933       920       928      3648      3630      3868
 -1      1897    8    0    1
 -2       919       921       999      3608      3869      3870
 -1      1898    8    0    1
 -2       897       856       948      3711      3700      3818
 -1      1899    8    0    1
 -2       921       931       862      3724      3642      3871
 -1      1900    8    0    1
 -2       922       923      1000      3710      3872      3873
 -1      1901    8    0    1
 -2       927       924      1001      3626      3874      3875
 -1      1902    8    0    1
 -2       852       749       858      3742      3414      3876
 -1      1903    8    0    1
 -2       871       932      1002      3645      3877      3878
 -1      1904    8    0    1
 -2       870       929      1003      3636      3879      3880
 -1      1905    8    0    1
 -2       918       857       951      3690      3714      3881
 -1      1906    8    0    1
 -2       929       927      1004      3731      3882      3883
 -1      1907    8    0    1
 -2      1003       929      1004      3879      3883      3884
 -1      1908    8    0    1
 -2       927      1001      1004      3875      3885      3882
 -1      1909    8    0    1
 -2       860       850      1005      3719      3886      3887
 -1      1910    8    0    1
 -2       860      1005       956      3887      3888      3734
 -1      1911    8    0    1
 -2       872       871      1006      3459      3889      3890
 -1      1912    8    0    1
 -2       871      1002      1006      3878      3891      3889
 -1      1913    8    0    1
 -2       926       869       947      3820      3695      3892
 -1      1914    8    0    1
 -2       852       858       786      3876      3612      3411
 -1      1915    8    0    1
 -2       938       836       945      3661      3687      3893
 -1      1916    8    0    1
 -2       940       959      1007      3746      3894      3895
 -1      1917    8    0    1
 -2       932       926       947      3709      3892      3896
 -1      1918    8    0    1
 -2       939       935      1008      3667      3897      3898
 -1      1919    8    0    1
 -2       960       903      1009      3748      3899      3900
 -1      1920    8    0    1
 -2       903       934      1009      3651      3901      3899
 -1      1921    8    0    1
 -2       959       863       950      3747      3707      3902
 -1      1922    8    0    1
 -2       853       895      1010      3834      3903      3904
 -1      1923    8    0    1
 -2       921       862       954      3871      3726      3905
 -1      1924    8    0    1
 -2       850       939      1005      3666      3906      3886
 -1      1925    8    0    1
 -2       834       957       941      3740      3907      3671
 -1      1926    8    0    1
 -2       864       944      1011      3683      3908      3909
 -1      1927    8    0    1
 -2       864      1011       952      3909      3910      3718
 -1      1928    8    0    1
 -2       945       904      1012      3685      3911      3912
 -1      1929    8    0    1
 -2       904       960      1012      3749      3913      3911
 -1      1930    8    0    1
 -2       933       928      1013      3868      3914      3915
 -1      1931    8    0    1
 -2       949       933      1013      3703      3915      3916
 -1      1932    8    0    1
 -2       928       919      1013      3631      3917      3914
 -1      1933    8    0    1
 -2       917       918      1014      3598      3918      3919
 -1      1934    8    0    1
 -2       901       987       957      3832      3920      3741
 -1      1935    8    0    1
 -2       947       942      1015      3696      3921      3922
 -1      1936    8    0    1
 -2      1001       924      1016      3874      3923      3924
 -1      1937    8    0    1
 -2       924       949      1016      3702      3925      3923
 -1      1938    8    0    1
 -2      1014       918       951      3918      3881      3926
 -1      1939    8    0    1
 -2       950       849       936      3708      3656      3927
 -1      1940    8    0    1
 -2       951       922      1017      3715      3928      3929
 -1      1941    8    0    1
 -2      1014       951      1017      3926      3929      3930
 -1      1942    8    0    1
 -2       922      1000      1017      3873      3931      3928
 -1      1943    8    0    1
 -2       953       925      1018      3723      3932      3933
 -1      1944    8    0    1
 -2       942       984      1019      3823      3934      3935
 -1      1945    8    0    1
 -2       942      1019      1015      3935      3936      3921
 -1      1946    8    0    1
 -2      1000       923      1020      3872      3937      3938
 -1      1947    8    0    1
 -2       923       952      1020      3717      3939      3937
 -1      1948    8    0    1
 -2       948       870       985      3698      3940      3827
 -1      1949    8    0    1
 -2       946       953      1016      3722      3941      3942
 -1      1950    8    0    1
 -2       917      1014       998      3919      3943      3865
 -1      1951    8    0    1
 -2       935       938      1021      3663      3944      3945
 -1      1952    8    0    1
 -2       935      1021      1008      3945      3946      3897
 -1      1953    8    0    1
 -2       870      1003       985      3880      3947      3940
 -1      1954    8    0    1
 -2       872      1006       961      3890      3948      3750
 -1      1955    8    0    1
 -2       940      1007      1022      3895      3949      3950
 -1      1956    8    0    1
 -2       940      1022       955      3950      3951      3730
 -1      1957    8    0    1
 -2       925       941      1023      3673      3952      3953
 -1      1958    8    0    1
 -2       925      1023      1018      3953      3954      3932
 -1      1959    8    0    1
 -2       936       930      1024      3657      3955      3956
 -1      1960    8    0    1
 -2       847       937      1025      3659      3957      3958
 -1      1961    8    0    1
 -2       847      1025       944      3958      3959      3681
 -1      1962    8    0    1
 -2       934       905      1026      3652      3960      3961
 -1      1963    8    0    1
 -2       934      1026      1009      3961      3962      3901
 -1      1964    8    0    1
 -2       607       829       858      3354      3401      3413
 -1      1965    8    0    1
 -2       930       956      1027      3733      3963      3964
 -1      1966    8    0    1
 -2       930      1027      1024      3964      3965      3955
 -1      1967    8    0    1
 -2       919       999      1013      3870      3966      3917
 -1      1968    8    0    1
 -2       946      1016      1028      3942      3967      3968
 -1      1969    8    0    1
 -2       946      1028       954      3968      3969      3727
 -1      1970    8    0    1
 -2      1026       905       989      3960      3839      3970
 -1      1971    8    0    1
 -2      1007       959      1024      3894      3971      3972
 -1      1972    8    0    1
 -2       932       947      1015      3896      3922      3973
 -1      1973    8    0    1
 -2       985      1003      1029      3947      3974      3975
 -1      1974    8    0    1
 -2       986       985      1029      3830      3975      3976
 -1      1975    8    0    1
 -2      1003      1004      1029      3884      3977      3974
 -1      1976    8    0    1
 -2       895       983      1010      3816      3978      3903
 -1      1977    8    0    1
 -2       938       945      1030      3893      3979      3980
 -1      1978    8    0    1
 -2      1021       938      1030      3944      3980      3981
 -1      1979    8    0    1
 -2       945      1012      1030      3912      3982      3979
 -1      1980    8    0    1
 -2       921       954       999      3905      3983      3869
 -1      1981    8    0    1
 -2       963       962      1031      3757      3984      3985
 -1      1982    8    0    1
 -2       964       963      1032      3760      3986      3987
 -1      1983    8    0    1
 -2       963      1031      1032      3985      3988      3986
 -1      1984    8    0    1
 -2       965       964      1033      3763      3989      3990
 -1      1985    8    0    1
 -2       964      1032      1033      3987      3991      3989
 -1      1986    8    0    1
 -2       966       965      1034      3766      3992      3993
 -1      1987    8    0    1
 -2       965      1033      1034      3990      3994      3992
 -1      1988    8    0    1
 -2       967       966      1035      3769      3995      3996
 -1      1989    8    0    1
 -2       966      1034      1035      3993      3997      3995
 -1      1990    8    0    1
 -2       968       967      1036      3772      3998      3999
 -1      1991    8    0    1
 -2       967      1035      1036      3996      4000      3998
 -1      1992    8    0    1
 -2       969       968      1037      3775      4001      4002
 -1      1993    8    0    1
 -2       968      1036      1037      3999      4003      4001
 -1      1994    8    0    1
 -2       970       969      1038      3778      4004      4005
 -1      1995    8    0    1
 -2       969      1037      1038      4002      4006      4004
 -1      1996    8    0    1
 -2       971       970      1039      3781      4007      4008
 -1      1997    8    0    1
 -2       970      1038      1039      4005      4009      4007
 -1      1998    8    0    1
 -2       972       971      1040      3784      4010      4011
 -1      1999    8    0    1
 -2       971      1039      1040      4008      4012      4010
 -1      2000    8    0    1
 -2       973       972      1041      3787      4013      4014
 -1      2001    8    0    1
 -2       972      1040      1041      4011      4015      4013
 -1      2002    8    0    1
 -2       974       973      1042      3790      4016      4017
 -1      2003    8    0    1
 -2       973      1041      1042      4014      4018      4016
 -1      2004    8    0    1
 -2       975       974      1043      3793      4019      4020
 -1      2005    8    0    1
 -2       974      1042      1043      4017      4021      4019
 -1      2006    8    0    1
 -2       976       975      1044      3796      4022      4023
 -1      2007    8    0    1
 -2       975      1043      1044      4020      4024      4022
 -1      2008    8    0    1
 -2       977       976      1045      3799      4025      4026
 -1      2009    8    0    1
 -2       976      1044      1045      4023      4027      4025
 -1      2010    8    0    1
 -2       978       977      1046      3802      4028      4029
 -1      2011    8    0    1
 -2       977      1045      1046      4026      4030      4028
 -1      2012    8    0    1
 -2       979       978      1047      3805      4031      4032
 -1      2013    8    0    1
 -2       978      1046      1047      4029      4033      4031
 -1      2014    8    0    1
 -2       980       979      1048      3808      4034      4035
 -1      2015    8    0    1
 -2       979      1047      1048      4032      4036      4034
 -1      2016    8    0    1
 -2       981       980      1049      3811      4037      4038
 -1      2017    8    0    1
 -2       980      1048      1049      4035      4039      4037
 -1      2018    8    0    1
 -2       982       981      1050      3814      4040      4041
 -1      2019    8    0    1
 -2       981      1049      1050      4038      4042      4040
 -1      2020    8    0    1
 -2      1007      1024      1051      3972      4043      4044
 -1      2021    8    0    1
 -2      1024      1027      1051      3965      4045      4043
 -1      2022    8    0    1
 -2       984       955      1052      3824      4046      4047
 -1      2023    8    0    1
 -2       955      1022      1052      3951      4048      4046
 -1      2024    8    0    1
 -2       962       961      1053      3754      4049      4050
 -1      2025    8    0    1
 -2       962      1053      1031      4050      4051      3984
 -1      2026    8    0    1
 -2       988       958      1054      3837      4052      4053
 -1      2027    8    0    1
 -2       958       990      1055      3843      4054      4055
 -1      2028    8    0    1
 -2       958      1055      1054      4055      4056      4052
 -1      2029    8    0    1
 -2       989       988      1056      3840      4057      4058
 -1      2030    8    0    1
 -2       988      1054      1056      4053      4059      4057
 -1      2031    8    0    1
 -2       991       992      1057      3849      4060      4061
 -1      2032    8    0    1
 -2       992       993      1058      3852      4062      4063
 -1      2033    8    0    1
 -2       992      1058      1057      4063      4064      4060
 -1      2034    8    0    1
 -2       993       994      1059      3855      4065      4066
 -1      2035    8    0    1
 -2       993      1059      1058      4066      4067      4062
 -1      2036    8    0    1
 -2       994       995      1060      3858      4068      4069
 -1      2037    8    0    1
 -2       994      1060      1059      4069      4070      4065
 -1      2038    8    0    1
 -2       995       996      1061      3861      4071      4072
 -1      2039    8    0    1
 -2       995      1061      1060      4072      4073      4068
 -1      2040    8    0    1
 -2       996       997      1062      3864      4074      4075
 -1      2041    8    0    1
 -2       996      1062      1061      4075      4076      4071
 -1      2042    8    0    1
 -2       997       998      1063      3867      4077      4078
 -1      2043    8    0    1
 -2       997      1063      1062      4078      4079      4074
 -1      2044    8    0    1
 -2      1016       949      1028      3925      4080      3967
 -1      2045    8    0    1
 -2       957       987       941      3920      4081      3907
 -1      2046    8    0    1
 -2       936      1024       959      3956      3971      4082
 -1      2047    8    0    1
 -2       936       959       950      4082      3902      3927
 -1      2048    8    0    1
 -2       956      1005      1064      3888      4083      4084
 -1      2049    8    0    1
 -2       956      1064      1027      4084      4085      3963
 -1      2050    8    0    1
 -2      1026       989      1065      3970      4086      4087
 -1      2051    8    0    1
 -2       989      1056      1065      4058      4088      4086
 -1      2052    8    0    1
 -2       998      1014      1066      3943      4089      4090
 -1      2053    8    0    1
 -2      1063       998      1066      4077      4090      4091
 -1      2054    8    0    1
 -2      1014      1017      1066      3930      4092      4089
 -1      2055    8    0    1
 -2      1002       932      1015      3877      3973      4093
 -1      2056    8    0    1
 -2      1005       939      1067      3906      4094      4095
 -1      2057    8    0    1
 -2       939      1008      1067      3898      4096      4094
 -1      2058    8    0    1
 -2       961      1006      1068      3948      4097      4098
 -1      2059    8    0    1
 -2       961      1068      1053      4098      4099      4049
 -1      2060    8    0    1
 -2      1002      1015      1069      4093      4100      4101
 -1      2061    8    0    1
 -2      1006      1002      1069      3891      4101      4102
 -1      2062    8    0    1
 -2      1015      1019      1069      3936      4103      4100
 -1      2063    8    0    1
 -2       990       991      1070      3846      4104      4105
 -1      2064    8    0    1
 -2       990      1070      1055      4105      4106      4054
 -1      2065    8    0    1
 -2       949      1013      1028      3916      4107      4080
 -1      2066    8    0    1
 -2       941       987      1023      4081      4108      3952
 -1      2067    8    0    1
 -2      1028      1013       999      4107      3966      4109
 -1      2068    8    0    1
 -2       937       853      1010      3660      3904      4110
 -1      2069    8    0    1
 -2      1005      1067      1064      4095      4111      4083
 -1      2070    8    0    1
 -2       960      1009      1071      3900      4112      4113
 -1      2071    8    0    1
 -2       991      1057      1070      4061      4114      4104
 -1      2072    8    0    1
 -2       982      1050      1025      4041      4115      4116
 -1      2073    8    0    1
 -2       983       982      1025      3817      4116      4117
 -1      2074    8    0    1
 -2      1006      1069      1068      4102      4118      4097
 -1      2075    8    0    1
 -2       952      1011      1072      3910      4119      4120
 -1      2076    8    0    1
 -2       952      1072      1020      4120      4121      3939
 -1      2077    8    0    1
 -2       954      1028       999      3969      4109      3983
 -1      2078    8    0    1
 -2      1012       960      1073      3913      4122      4123
 -1      2079    8    0    1
 -2       960      1071      1073      4113      4124      4122
 -1      2080    8    0    1
 -2       987       986      1074      3833      4125      4126
 -1      2081    8    0    1
 -2      1023       987      1074      4108      4126      4127
 -1      2082    8    0    1
 -2      1008      1021      1075      3946      4128      4129
 -1      2083    8    0    1
 -2      1001      1016      1076      3924      4130      4131
 -1      2084    8    0    1
 -2      1007      1051      1022      4044      4132      3949
 -1      2085    8    0    1
 -2      1017      1000      1077      3931      4133      4134
 -1      2086    8    0    1
 -2      1066      1017      1077      4092      4134      4135
 -1      2087    8    0    1
 -2      1000      1020      1077      3938      4136      4133
 -1      2088    8    0    1
 -2      1019       984      1052      3934      4047      4137
 -1      2089    8    0    1
 -2      1010       983      1025      3978      4117      4138
 -1      2090    8    0    1
 -2      1010      1025       937      4138      3957      4110
 -1      2091    8    0    1
 -2      1008      1075      1078      4129      4139      4140
 -1      2092    8    0    1
 -2      1008      1078      1067      4140      4141      4096
 -1      2093    8    0    1
 -2      1004      1001      1079      3885      4142      4143
 -1      2094    8    0    1
 -2      1029      1004      1079      3977      4143      4144
 -1      2095    8    0    1
 -2      1001      1076      1079      4131      4145      4142
 -1      2096    8    0    1
 -2       986      1029      1074      3976      4146      4125
 -1      2097    8    0    1
 -2      1009      1026      1080      3962      4147      4148
 -1      2098    8    0    1
 -2      1009      1080      1071      4148      4149      4112
 -1      2099    8    0    1
 -2      1080      1026      1065      4147      4087      4150
 -1      2100    8    0    1
 -2      1080      1065      1081      4150      4151      4152
 -1      2101    8    0    1
 -2      1070      1057      1082      4114      4153      4154
 -1      2102    8    0    1
 -2      1033      1032      1083      3991      4155      4156
 -1      2103    8    0    1
 -2      1034      1033      1084      3994      4157      4158
 -1      2104    8    0    1
 -2      1033      1083      1084      4156      4159      4157
 -1      2105    8    0    1
 -2      1035      1034      1085      3997      4160      4161
 -1      2106    8    0    1
 -2      1034      1084      1085      4158      4162      4160
 -1      2107    8    0    1
 -2      1036      1035      1086      4000      4163      4164
 -1      2108    8    0    1
 -2      1035      1085      1086      4161      4165      4163
 -1      2109    8    0    1
 -2      1037      1036      1087      4003      4166      4167
 -1      2110    8    0    1
 -2      1036      1086      1087      4164      4168      4166
 -1      2111    8    0    1
 -2      1038      1037      1088      4006      4169      4170
 -1      2112    8    0    1
 -2      1037      1087      1088      4167      4171      4169
 -1      2113    8    0    1
 -2      1039      1038      1089      4009      4172      4173
 -1      2114    8    0    1
 -2      1038      1088      1089      4170      4174      4172
 -1      2115    8    0    1
 -2      1040      1039      1090      4012      4175      4176
 -1      2116    8    0    1
 -2      1039      1089      1090      4173      4177      4175
 -1      2117    8    0    1
 -2      1041      1040      1091      4015      4178      4179
 -1      2118    8    0    1
 -2      1040      1090      1091      4176      4180      4178
 -1      2119    8    0    1
 -2      1042      1041      1092      4018      4181      4182
 -1      2120    8    0    1
 -2      1041      1091      1092      4179      4183      4181
 -1      2121    8    0    1
 -2      1043      1042      1093      4021      4184      4185
 -1      2122    8    0    1
 -2      1042      1092      1093      4182      4186      4184
 -1      2123    8    0    1
 -2      1044      1043      1094      4024      4187      4188
 -1      2124    8    0    1
 -2      1043      1093      1094      4185      4189      4187
 -1      2125    8    0    1
 -2      1045      1044      1095      4027      4190      4191
 -1      2126    8    0    1
 -2      1044      1094      1095      4188      4192      4190
 -1      2127    8    0    1
 -2      1046      1045      1096      4030      4193      4194
 -1      2128    8    0    1
 -2      1045      1095      1096      4191      4195      4193
 -1      2129    8    0    1
 -2      1047      1046      1097      4033      4196      4197
 -1      2130    8    0    1
 -2      1046      1096      1097      4194      4198      4196
 -1      2131    8    0    1
 -2      1048      1047      1098      4036      4199      4200
 -1      2132    8    0    1
 -2      1047      1097      1098      4197      4201      4199
 -1      2133    8    0    1
 -2      1049      1048      1099      4039      4202      4203
 -1      2134    8    0    1
 -2      1048      1098      1099      4200      4204      4202
 -1      2135    8    0    1
 -2      1050      1049      1100      4042      4205      4206
 -1      2136    8    0    1
 -2      1049      1099      1100      4203      4207      4205
 -1      2137    8    0    1
 -2      1051      1027      1101      4045      4208      4209
 -1      2138    8    0    1
 -2      1027      1064      1101      4085      4210      4208
 -1      2139    8    0    1
 -2      1052      1022      1102      4048      4211      4212
 -1      2140    8    0    1
 -2      1011       944      1103      3908      4213      4214
 -1      2141    8    0    1
 -2      1076      1016      1018      4130      4215      4216
 -1      2142    8    0    1
 -2      1071      1080      1104      4149      4217      4218
 -1      2143    8    0    1
 -2      1080      1081      1104      4152      4219      4217
 -1      2144    8    0    1
 -2      1059      1060      1105      4070      4220      4221
 -1      2145    8    0    1
 -2      1054      1055      1106      4056      4222      4223
 -1      2146    8    0    1
 -2      1056      1054      1107      4059      4224      4225
 -1      2147    8    0    1
 -2      1054      1106      1107      4223      4226      4224
 -1      2148    8    0    1
 -2      1058      1059      1108      4067      4227      4228
 -1      2149    8    0    1
 -2      1059      1105      1108      4221      4229      4227
 -1      2150    8    0    1
 -2      1057      1058      1109      4064      4230      4231
 -1      2151    8    0    1
 -2      1082      1057      1109      4153      4231      4232
 -1      2152    8    0    1
 -2      1058      1108      1109      4228      4233      4230
 -1      2153    8    0    1
 -2      1060      1061      1110      4073      4234      4235
 -1      2154    8    0    1
 -2      1060      1110      1105      4235      4236      4220
 -1      2155    8    0    1
 -2      1061      1062      1111      4076      4237      4238
 -1      2156    8    0    1
 -2      1061      1111      1110      4238      4239      4234
 -1      2157    8    0    1
 -2      1062      1063      1112      4079      4240      4241
 -1      2158    8    0    1
 -2      1062      1112      1111      4241      4242      4237
 -1      2159    8    0    1
 -2      1075      1021      1113      4128      4243      4244
 -1      2160    8    0    1
 -2      1021      1030      1113      3981      4245      4243
 -1      2161    8    0    1
 -2      1074      1029      1079      4146      4144      4246
 -1      2162    8    0    1
 -2      1019      1052      1114      4137      4247      4248
 -1      2163    8    0    1
 -2      1052      1102      1114      4212      4249      4247
 -1      2164    8    0    1
 -2      1022      1051      1102      4132      4250      4211
 -1      2165    8    0    1
 -2      1055      1070      1115      4106      4251      4252
 -1      2166    8    0    1
 -2      1055      1115      1106      4252      4253      4222
 -1      2167    8    0    1
 -2      1065      1056      1116      4088      4254      4255
 -1      2168    8    0    1
 -2      1065      1116      1081      4255      4256      4151
 -1      2169    8    0    1
 -2      1016       953      1018      3941      3933      4215
 -1      2170    8    0    1
 -2      1076      1018      1023      4216      3954      4257
 -1      2171    8    0    1
 -2      1032      1031      1117      3988      4258      4259
 -1      2172    8    0    1
 -2      1032      1117      1083      4259      4260      4155
 -1      2173    8    0    1
 -2      1069      1019      1114      4103      4248      4261
 -1      2174    8    0    1
 -2      1064      1067      1118      4111      4262      4263
 -1      2175    8    0    1
 -2      1101      1064      1118      4210      4263      4264
 -1      2176    8    0    1
 -2      1067      1078      1118      4141      4265      4262
 -1      2177    8    0    1
 -2      1031      1053      1119      4051      4266      4267
 -1      2178    8    0    1
 -2      1031      1119      1117      4267      4268      4258
 -1      2179    8    0    1
 -2      1053      1068      1120      4099      4269      4270
 -1      2180    8    0    1
 -2      1053      1120      1119      4270      4271      4266
 -1      2181    8    0    1
 -2      1068      1069      1114      4118      4261      4272
 -1      2182    8    0    1
 -2      1070      1082      1115      4154      4273      4251
 -1      2183    8    0    1
 -2      1051      1101      1121      4209      4274      4275
 -1      2184    8    0    1
 -2      1102      1051      1121      4250      4275      4276
 -1      2185    8    0    1
 -2      1101      1118      1121      4264      4277      4274
 -1      2186    8    0    1
 -2      1030      1012      1122      3982      4278      4279
 -1      2187    8    0    1
 -2      1030      1122      1113      4279      4280      4245
 -1      2188    8    0    1
 -2      1074      1079      1023      4246      4281      4127
 -1      2189    8    0    1
 -2      1076      1023      1079      4257      4281      4145
 -1      2190    8    0    1
 -2      1068      1114      1120      4272      4282      4269
 -1      2191    8    0    1
 -2      1011      1103      1123      4214      4283      4284
 -1      2192    8    0    1
 -2      1072      1011      1123      4119      4284      4285
 -1      2193    8    0    1
 -2      1071      1104      1124      4218      4286      4287
 -1      2194    8    0    1
 -2      1071      1124      1073      4287      4288      4124
 -1      2195    8    0    1
 -2      1063      1066      1125      4091      4289      4290
 -1      2196    8    0    1
 -2      1063      1125      1112      4290      4291      4240
 -1      2197    8    0    1
 -2      1056      1107      1116      4225      4292      4254
 -1      2198    8    0    1
 -2      1075      1113      1126      4244      4293      4294
 -1      2199    8    0    1
 -2      1077      1020      1127      4136      4295      4296
 -1      2200    8    0    1
 -2      1020      1072      1127      4121      4297      4295
 -1      2201    8    0    1
 -2      1012      1073      1122      4123      4298      4278
 -1      2202    8    0    1
 -2      1075      1126      1128      4294      4299      4300
 -1      2203    8    0    1
 -2      1075      1128      1078      4300      4301      4139
 -1      2204    8    0    1
 -2      1103       944      1025      4213      3959      4302
 -1      2205    8    0    1
 -2      1115      1082      1092      4273      4303      4304
 -1      2206    8    0    1
 -2      1050      1100      1123      4206      4305      4306
 -1      2207    8    0    1
 -2      1085      1084      1129      4162      4307      4308
 -1      2208    8    0    1
 -2      1086      1085      1124      4165      4309      4310
 -1      2209    8    0    1
 -2      1087      1086      1104      4168      4311      4312
 -1      2210    8    0    1
 -2      1088      1087      1081      4171      4313      4314
 -1      2211    8    0    1
 -2      1089      1088      1116      4174      4315      4316
 -1      2212    8    0    1
 -2      1090      1089      1107      4177      4317      4318
 -1      2213    8    0    1
 -2      1091      1090      1106      4180      4319      4320
 -1      2214    8    0    1
 -2      1092      1091      1115      4183      4321      4304
 -1      2215    8    0    1
 -2      1093      1092      1082      4186      4303      4322
 -1      2216    8    0    1
 -2      1094      1093      1109      4189      4323      4324
 -1      2217    8    0    1
 -2      1095      1094      1108      4192      4325      4326
 -1      2218    8    0    1
 -2      1096      1095      1105      4195      4327      4328
 -1      2219    8    0    1
 -2      1097      1096      1110      4198      4329      4330
 -1      2220    8    0    1
 -2      1098      1097      1111      4201      4331      4332
 -1      2221    8    0    1
 -2      1099      1098      1112      4204      4333      4334
 -1      2222    8    0    1
 -2      1100      1099      1125      4207      4335      4336
 -1      2223    8    0    1
 -2      1106      1115      1091      4253      4321      4320
 -1      2224    8    0    1
 -2      1119      1120      1130      4271      4337      4338
 -1      2225    8    0    1
 -2      1110      1111      1097      4239      4331      4330
 -1      2226    8    0    1
 -2      1105      1110      1096      4236      4329      4328
 -1      2227    8    0    1
 -2      1081      1087      1104      4313      4312      4219
 -1      2228    8    0    1
 -2      1126      1113      1131      4293      4339      4340
 -1      2229    8    0    1
 -2      1113      1122      1131      4280      4341      4339
 -1      2230    8    0    1
 -2      1108      1105      1095      4229      4327      4326
 -1      2231    8    0    1
 -2      1116      1107      1089      4292      4317      4316
 -1      2232    8    0    1
 -2      1081      1116      1088      4256      4315      4314
 -1      2233    8    0    1
 -2      1120      1114      1132      4282      4342      4343
 -1      2234    8    0    1
 -2      1130      1120      1132      4337      4343      4344
 -1      2235    8    0    1
 -2      1114      1102      1132      4249      4345      4342
 -1      2236    8    0    1
 -2      1107      1106      1090      4226      4319      4318
 -1      2237    8    0    1
 -2      1112      1098      1111      4333      4332      4242
 -1      2238    8    0    1
 -2      1122      1073      1133      4298      4346      4347
 -1      2239    8    0    1
 -2      1131      1122      1133      4341      4347      4348
 -1      2240    8    0    1
 -2      1073      1124      1133      4288      4349      4346
 -1      2241    8    0    1
 -2      1066      1077      1125      4135      4350      4289
 -1      2242    8    0    1
 -2      1083      1117      1126      4260      4351      4352
 -1      2243    8    0    1
 -2      1117      1119      1128      4268      4353      4354
 -1      2244    8    0    1
 -2      1093      1082      1109      4322      4232      4323
 -1      2245    8    0    1
 -2      1084      1083      1131      4159      4355      4356
 -1      2246    8    0    1
 -2      1104      1086      1124      4311      4310      4286
 -1      2247    8    0    1
 -2      1108      1094      1109      4325      4324      4233
 -1      2248    8    0    1
 -2      1083      1126      1131      4352      4340      4355
 -1      2249    8    0    1
 -2      1126      1117      1128      4351      4354      4299
 -1      2250    8    0    1
 -2      1050      1123      1103      4306      4283      4357
 -1      2251    8    0    1
 -2      1132      1102      1121      4345      4276      4358
 -1      2252    8    0    1
 -2      1128      1119      1130      4353      4338      4359
 -1      2253    8    0    1
 -2      1099      1112      1125      4334      4291      4335
 -1      2254    8    0    1
 -2      1072      1123      1100      4285      4305      4360
 -1      2255    8    0    1
 -2      1077      1127      1125      4296      4361      4350
 -1      2256    8    0    1
 -2      1072      1100      1127      4360      4362      4297
 -1      2257    8    0    1
 -2      1078      1128      1130      4301      4359      4363
 -1      2258    8    0    1
 -2      1118      1078      1130      4265      4363      4364
 -1      2259    8    0    1
 -2      1127      1100      1125      4362      4336      4361
 -1      2260    8    0    1
 -2      1025      1050      1103      4115      4357      4302
 -1      2261    8    0    1
 -2      1085      1129      1124      4308      4365      4309
 -1      2262    8    0    1
 -2      1084      1131      1129      4356      4366      4307
 -1      2263    8    0    1
 -2      1121      1118      1130      4277      4364      4367
 -1      2264    8    0    1
 -2      1130      1132      1121      4344      4358      4367
 -1      2265    8    0    1
 -2      1129      1131      1133      4366      4348      4368
 -1      2266    8    0    1
 -2      1124      1129      1133      4365      4368      4349
 -3
    1PSTEP                         1           1           1          
  100CL  101 1.000000000        4368                     0    1           1
 -4  DISP        4    1
 -5  D1          1    2    1    0
 -5  D2          1    2    2    0
 -5  D3          1    2    3    0
 -5  ALL         1    2    0    0    1ALL
 -1         1 1.19701E-02-3.54548E-04-5.08245E-14
 -1         2 1.29303E-02 3.42389E-04-5.28718E-14
 -1         3 1.54555E-02 1.24153E-03-8.19871E-14
 -1         4 1.46408E-02 1.57918E-04-8.58321E-14
 -1         5 0.00000E+00 0.00000E+00 0.00000E+00
 -1         6 0.00000E+00 0.00000E+00 0.00000E+00
 -1         7 0.00000E+00 0.00000E+00 0.00000E+00
 -1         8 0.00000E+00 0.00000E+00 0.00000E+00
 -1         9 0.00000E+00 0.00000E+00 0.00000E+00
 -1        10 0.00000E+00 0.00000E+00 0.00000E+00
 -1        11 0.00000E+00 0.00000E+00 0.00000E+00
 -1        12 0.00000E+00 0.00000E+00 0.00000E+00
 -1        13 0.00000E+00 0.00000E+00 0.00000E+00
 -1        14 0.00000E+00 0.00000E+00 0.00000E+00
 -1        15 0.00000E+00 0.00000E+00 0.00000E+00
 -1        16 0.00000E+00 0.00000E+00 0.00000E+00
 -1        17 0.00000E+00 0.00000E+00 0.00000E+00
 -1        18 0.00000E+00 0.00000E+00 0.00000E+00
 -1        19 0.00000E+00 0.00000E+00 0.00000E+00
 -1        20 0.00000E+00 0.00000E+00 0.00000E+00
 -1        21 0.00000E+00 0.00000E+00 0.00000E+00
 -1        22 0.00000E+00 0.00000E+00 0.00000E+00
 -1        23 4.11352E-04-2.60756E-04 3.35561E-17
 -1        24 7.03289E-04-4.01026E-04-2.69153E-17
 -1        25 9.73289E-04-4.98416E-04-1.80564E-16
 -1        26 1.23769E-03-5.67149E-04-4.26366E-16
 -1        27 1.50112E-03-6.16361E-04-7.63831E-16
 -1        28 1.76566E-03-6.51430E-04-1.19249E-15
 -1        29 2.03226E-03-6.76051E-04-1.70988E-15
 -1        30 2.30130E-03-6.92905E-04-2.31491E-15
 -1        31 2.57282E-03-7.03987E-04-3.00813E-15
 -1        32 2.84669E-03-7.10797E-04-3.78768E-15
 -1        33 3.12270E-03-7.14454E-04-4.64901E-15
 -1        34 3.40060E-03-7.15781E-04-5.58303E-15
 -1        35 3.68015E-03-7.15365E-04-6.59180E-15
 -1        36 3.96114E-03-7.13615E-04-7.67359E-15
 -1        37 4.24344E-03-7.10798E-04-8.82320E-15
 -1        38 4.52695E-03-7.07082E-04-1.00438E-14
 -1        39 4.81170E-03-7.02570E-04-1.13322E-14
 -1        40 5.09781E-03-6.97337E-04-1.26907E-14
 -1        41 5.38551E-03-6.91467E-04-1.41228E-14
 -1        42 5.67515E-03-6.85098E-04-1.56235E-14
 -1        43 5.96722E-03-6.78475E-04-1.72030E-14
 -1        44 6.26234E-03-6.72013E-04-1.88590E-14
 -1        45 6.56122E-03-6.66368E-04-2.05833E-14
 -1        46 6.86466E-03-6.62515E-04-2.23844E-14
 -1        47 7.17337E-03-6.61823E-04-2.42543E-14
 -1        48 7.48791E-03-6.66093E-04-2.61898E-14
 -1        49 7.80833E-03-6.77526E-04-2.81819E-14
 -1        50 8.13392E-03-6.98527E-04-3.02300E-14
 -1        51 8.46275E-03-7.31268E-04-3.23334E-14
 -1        52 8.79137E-03-7.76902E-04-3.44838E-14
 -1        53 9.11482E-03-8.34430E-04-3.66769E-14
 -1        54 9.42719E-03-8.99451E-04-3.89212E-14
 -1        55 9.72322E-03-9.63404E-04-4.12279E-14
 -1        56 1.00004E-02-1.01419E-03-4.35881E-14
 -1        57 1.02611E-02-1.03879E-03-4.59935E-14
 -1        58 1.05128E-02-1.02742E-03-4.84377E-14
 -1        59 1.07659E-02-9.77326E-04-5.09164E-14
 -1        60 1.10303E-02-8.93878E-04-5.34254E-14
 -1        61 1.13117E-02-7.88361E-04-5.59703E-14
 -1        62 1.16105E-02-6.73743E-04-5.85502E-14
 -1        63 1.19227E-02-5.60862E-04-6.11740E-14
 -1        64 1.22424E-02-4.56467E-04-6.38250E-14
 -1        65 1.25636E-02-3.63142E-04-6.65152E-14
 -1        66 1.28815E-02-2.80295E-04-6.92358E-14
 -1        67 1.31933E-02-2.05391E-04-7.19829E-14
 -1        68 1.34973E-02-1.34990E-04-7.47390E-14
 -1        69 1.37937E-02-6.54826E-05-7.75013E-14
 -1        70 1.40837E-02 6.32430E-06-8.02918E-14
 -1        71 1.43698E-02 8.23645E-05-8.31167E-14
 -1        72 4.13799E-04 2.61461E-04 3.58092E-17
 -1        73 7.03112E-04 4.03733E-04-2.05761E-17
 -1        74 9.73826E-04 5.00188E-04-1.67048E-16
 -1        75 1.23852E-03 5.68861E-04-4.03838E-16
 -1        76 1.50207E-03 6.18124E-04-7.28143E-16
 -1        77 1.76668E-03 6.53284E-04-1.13828E-15
 -1        78 2.03332E-03 6.78017E-04-1.63507E-15
 -1        79 2.30237E-03 6.94993E-04-2.21663E-15
 -1        80 2.57390E-03 7.06203E-04-2.88142E-15
 -1        81 2.84778E-03 7.13142E-04-3.63631E-15
 -1        82 3.12378E-03 7.16927E-04-4.47696E-15
 -1        83 3.40167E-03 7.18376E-04-5.39578E-15
 -1        84 3.68119E-03 7.18072E-04-6.38739E-15
 -1        85 3.96214E-03 7.16413E-04-7.45753E-15
 -1        86 4.24438E-03 7.13655E-04-8.60301E-15
 -1        87 4.52783E-03 7.09944E-04-9.82306E-15
 -1        88 4.81251E-03 7.05353E-04-1.11098E-14
 -1        89 5.09855E-03 6.99910E-04-1.24639E-14
 -1        90 5.38624E-03 6.93636E-04-1.38812E-14
 -1        91 5.67600E-03 6.86584E-04-1.53611E-14
 -1        92 5.96845E-03 6.78893E-04-1.69077E-14
 -1        93 6.26448E-03 6.70859E-04-1.85168E-14
 -1        94 6.56523E-03 6.63032E-04-2.01936E-14
 -1        95 6.87216E-03 6.56358E-04-2.19315E-14
 -1        96 7.18706E-03 6.52367E-04-2.37334E-14
 -1        97 7.51201E-03 6.53427E-04-2.55941E-14
 -1        98 7.84920E-03 6.63044E-04-2.75109E-14
 -1        99 8.20048E-03 6.86149E-04-2.94688E-14
 -1       100 8.56656E-03 7.29166E-04-3.14730E-14
 -1       101 8.94558E-03 7.99446E-04-3.35281E-14
 -1       102 9.33134E-03 9.03333E-04-3.56171E-14
 -1       103 9.71192E-03 1.04210E-03-3.77317E-14
 -1       104 1.00708E-02 1.20604E-03-3.98748E-14
 -1       105 1.03928E-02 1.36987E-03-4.20481E-14
 -1       106 1.06742E-02 1.49614E-03-4.42520E-14
 -1       107 1.09307E-02 1.55083E-03-4.64969E-14
 -1       108 1.11916E-02 1.52337E-03-4.87854E-14
 -1       109 1.14836E-02 1.43349E-03-5.11354E-14
 -1       110 1.18158E-02 1.31835E-03-5.35275E-14
 -1       111 1.21796E-02 1.21232E-03-5.59515E-14
 -1       112 1.25582E-02 1.13526E-03-5.84198E-14
 -1       113 1.29358E-02 1.09234E-03-6.09293E-14
 -1       114 1.33022E-02 1.07954E-03-6.34571E-14
 -1       115 1.36524E-02 1.08916E-03-6.60144E-14
 -1       116 1.39853E-02 1.11300E-03-6.85878E-14
 -1       117 1.43022E-02 1.14382E-03-7.11862E-14
 -1       118 1.46054E-02 1.17565E-03-7.38417E-14
 -1       119 1.48982E-02 1.20385E-03-7.65682E-14
 -1       120 1.51847E-02 1.22567E-03-7.93409E-14
 -1       121 1.54405E-02 1.15665E-03-8.22863E-14
 -1       122 1.54305E-02 1.07330E-03-8.25889E-14
 -1       123 1.54261E-02 9.95912E-04-8.28644E-14
 -1       124 1.54235E-02 9.27497E-04-8.31244E-14
 -1       125 1.54181E-02 8.68915E-04-8.33831E-14
 -1       126 1.54052E-02 8.19958E-04-8.36408E-14
 -1       127 1.53807E-02 7.76585E-04-8.39056E-14
 -1       128 1.53425E-02 7.36457E-04-8.41630E-14
 -1       129 1.52900E-02 6.96027E-04-8.44088E-14
 -1       130 1.52242E-02 6.52017E-04-8.46367E-14
 -1       131 1.51475E-02 6.01864E-04-8.48389E-14
 -1       132 1.50646E-02 5.45021E-04-8.50285E-14
 -1       133 1.49763E-02 4.79000E-04-8.52169E-14
 -1       134 1.48873E-02 4.05189E-04-8.53937E-14
 -1       135 1.48008E-02 3.24995E-04-8.55541E-14
 -1       136 1.47184E-02 2.41241E-04-8.56986E-14
 -1       137 1.28966E-02 5.22417E-04-5.26452E-14
 -1       138 1.27747E-02 6.82547E-04-5.22131E-14
 -1       139 1.25405E-02 8.45201E-04-5.15174E-14
 -1       140 1.22495E-02 9.73888E-04-5.07196E-14
 -1       141 1.18871E-02 1.07876E-03-4.97647E-14
 -1       142 1.14399E-02 1.15422E-03-4.86341E-14
 -1       143 1.09691E-02 1.18367E-03-4.74870E-14
 -1       144 1.04498E-02 1.16255E-03-4.62516E-14
 -1       145 9.94871E-03 1.08844E-03-4.50802E-14
 -1       146 9.52547E-03 9.81467E-04-4.41089E-14
 -1       147 9.16474E-03 8.47657E-04-4.32954E-14
 -1       148 8.87708E-03 6.96436E-04-4.26563E-14
 -1       149 8.65540E-03 5.23927E-04-4.21804E-14
 -1       150 8.53599E-03 3.58231E-04-4.19483E-14
 -1       151 8.50176E-03 1.82402E-04-4.19198E-14
 -1       152 8.56402E-03 1.42877E-05-4.21301E-14
 -1       153 8.71461E-03-1.39558E-04-4.25613E-14
 -1       154 8.96717E-03-2.85079E-04-4.32463E-14
 -1       155 9.29215E-03-4.03561E-04-4.41009E-14
 -1       156 9.65941E-03-4.87109E-04-4.50504E-14
 -1       157 1.01092E-02-5.43610E-04-4.62008E-14
 -1       158 1.05990E-02-5.58483E-04-4.74418E-14
 -1       159 1.10476E-02-5.33324E-04-4.85557E-14
 -1       160 1.15280E-02-4.64150E-04-4.97443E-14
 -1       161 1.22870E-02-2.41006E-04-5.15746E-14
 -1       162 1.25441E-02-1.12537E-04-5.21662E-14
 -1       163 1.27406E-02 2.78039E-05-5.25925E-14
 -1       164 1.28759E-02 1.86438E-04-5.28418E-14
 -1       165 2.40378E-04-1.25550E-04-1.30070E-17
 -1       166 2.25258E-04-9.46579E-05-2.74032E-17
 -1       167 2.19515E-04-7.28175E-05-3.55517E-17
 -1       168 2.16714E-04-5.51459E-05-4.02815E-17
 -1       169 2.15237E-04-3.99999E-05-4.29954E-17
 -1       170 2.14409E-04-2.59379E-05-4.44828E-17
 -1       171 2.13995E-04-1.26557E-05-4.53772E-17
 -1       172 2.13875E-04 2.72999E-07-4.59261E-17
 -1       173 2.14014E-04 1.32142E-05-4.57398E-17
 -1       174 2.14450E-04 2.65361E-05-4.48047E-17
 -1       175 2.15285E-04 4.04252E-05-4.33003E-17
 -1       176 2.16823E-04 5.59521E-05-4.03560E-17
 -1       177 2.19667E-04 7.38575E-05-3.53890E-17
 -1       178 2.25427E-04 9.60573E-05-2.67154E-17
 -1       179 2.39308E-04 1.27628E-04-1.17162E-17
 -1       180 2.97675E-04 1.85528E-04 3.94040E-18
 -1       181 4.68567E-04-2.63597E-04-3.69882E-17
 -1       182 7.66660E-04-3.82211E-04-1.64301E-16
 -1       183 1.05045E-03-4.65097E-04-3.79061E-16
 -1       184 1.32777E-03-5.23846E-04-6.82526E-16
 -1       185 1.60228E-03-5.65473E-04-1.07489E-15
 -1       186 1.87607E-03-5.94656E-04-1.55602E-15
 -1       187 2.15027E-03-6.14682E-04-2.12364E-15
 -1       188 2.42547E-03-6.27954E-04-2.77637E-15
 -1       189 2.70195E-03-6.36256E-04-3.51424E-15
 -1       190 2.97978E-03-6.40916E-04-4.33397E-15
 -1       191 3.25894E-03-6.42908E-04-5.23093E-15
 -1       192 3.53934E-03-6.42935E-04-6.20169E-15
 -1       193 3.82091E-03-6.41481E-04-7.24691E-15
 -1       194 4.10356E-03-6.38869E-04-8.36193E-15
 -1       195 4.38725E-03-6.35297E-04-9.54714E-15
 -1       196 4.67201E-03-6.30876E-04-1.08024E-14
 -1       197 4.95790E-03-6.25668E-04-1.21244E-14
 -1       198 5.24508E-03-6.19722E-04-1.35179E-14
 -1       199 5.53380E-03-6.13115E-04-1.49832E-14
 -1       200 5.82437E-03-6.06004E-04-1.65191E-14
 -1       201 6.11723E-03-5.98681E-04-1.81328E-14
 -1       202 6.41286E-03-5.91647E-04-1.98187E-14
 -1       203 6.71179E-03-5.85697E-04-2.15782E-14
 -1       204 7.01457E-03-5.82001E-04-2.34081E-14
 -1       205 7.32163E-03-5.82186E-04-2.53031E-14
 -1       206 7.63318E-03-5.88357E-04-2.72598E-14
 -1       207 7.94903E-03-6.03019E-04-2.92727E-14
 -1       208 8.26835E-03-6.28788E-04-3.13405E-14
 -1       209 8.58951E-03-6.67778E-04-3.34563E-14
 -1       210 8.90991E-03-7.20577E-04-3.56201E-14
 -1       211 9.22618E-03-7.84879E-04-3.78297E-14
 -1       212 9.53475E-03-8.54171E-04-4.00936E-14
 -1       213 9.83299E-03-9.17355E-04-4.24160E-14
 -1       214 1.01205E-02-9.60331E-04-4.47852E-14
 -1       215 1.04001E-02-9.69894E-04-4.71952E-14
 -1       216 1.06773E-02-9.38644E-04-4.96477E-14
 -1       217 1.09583E-02-8.68149E-04-5.21321E-14
 -1       218 1.12478E-02-7.68223E-04-5.46479E-14
 -1       219 1.15474E-02-6.52819E-04-5.72033E-14
 -1       220 1.18557E-02-5.35162E-04-5.97978E-14
 -1       221 1.21695E-02-4.24548E-04-6.24274E-14
 -1       222 1.24849E-02-3.25494E-04-6.50847E-14
 -1       223 1.27987E-02-2.38531E-04-6.77754E-14
 -1       224 1.31086E-02-1.61571E-04-7.04981E-14
 -1       225 1.34131E-02-9.11715E-05-7.32397E-14
 -1       226 1.37120E-02-2.34409E-05-7.59944E-14
 -1       227 1.40057E-02 4.53415E-05-7.87724E-14
 -1       228 1.42950E-02 1.18127E-04-8.15824E-14
 -1       229 6.04487E-04 3.31092E-04-6.57399E-17
 -1       230 8.93524E-04 4.32722E-04-2.19768E-16
 -1       231 1.17234E-03 5.04459E-04-4.60179E-16
 -1       232 1.44661E-03 5.55506E-04-7.86602E-16
 -1       233 1.71932E-03 5.91675E-04-1.19762E-15
 -1       234 1.99210E-03 6.16931E-04-1.69363E-15
 -1       235 2.26580E-03 6.34130E-04-2.27460E-15
 -1       236 2.54083E-03 6.45379E-04-2.93871E-15
 -1       237 2.81732E-03 6.52251E-04-3.68707E-15
 -1       238 3.09527E-03 6.55912E-04-4.52040E-15
 -1       239 3.37462E-03 6.57211E-04-5.43317E-15
 -1       240 3.65525E-03 6.56750E-04-6.42058E-15
 -1       241 3.93705E-03 6.54935E-04-7.48396E-15
 -1       242 4.21995E-03 6.52021E-04-8.62227E-15
 -1       243 4.50394E-03 6.48147E-04-9.83267E-15
 -1       244 4.78906E-03 6.43372E-04-1.11116E-14
 -1       245 5.07543E-03 6.37704E-04-1.24574E-14
 -1       246 5.36330E-03 6.31135E-04-1.38678E-14
 -1       247 5.65303E-03 6.23678E-04-1.53435E-14
 -1       248 5.94513E-03 6.15422E-04-1.68869E-14
 -1       249 6.24028E-03 6.06595E-04-1.84918E-14
 -1       250 6.53935E-03 5.97664E-04-2.01621E-14
 -1       251 6.84345E-03 5.89470E-04-2.18911E-14
 -1       252 7.15387E-03 5.83422E-04-2.36831E-14
 -1       253 7.47206E-03 5.81753E-04-2.55369E-14
 -1       254 7.79949E-03 5.87852E-04-2.74463E-14
 -1       255 8.13742E-03 6.06606E-04-2.94013E-14
 -1       256 8.48634E-03 6.44584E-04-3.14035E-14
 -1       257 8.84530E-03 7.09665E-04-3.34537E-14
 -1       258 9.21097E-03 8.09336E-04-3.55410E-14
 -1       259 9.57687E-03 9.46718E-04-3.76589E-14
 -1       260 9.93378E-03 1.11415E-03-3.98058E-14
 -1       261 1.02725E-02 1.28708E-03-4.19839E-14
 -1       262 1.05894E-02 1.42558E-03-4.41951E-14
 -1       263 1.08914E-02 1.49035E-03-4.64460E-14
 -1       264 1.11943E-02 1.46639E-03-4.87397E-14
 -1       265 1.15127E-02 1.37336E-03-5.10806E-14
 -1       266 1.18522E-02 1.25189E-03-5.34687E-14
 -1       267 1.22077E-02 1.13993E-03-5.58947E-14
 -1       268 1.25697E-02 1.05911E-03-5.83684E-14
 -1       269 1.29290E-02 1.01482E-03-6.08787E-14
 -1       270 1.32795E-02 1.00251E-03-6.34145E-14
 -1       271 1.36182E-02 1.01378E-03-6.59750E-14
 -1       272 1.39441E-02 1.03992E-03-6.85562E-14
 -1       273 1.42580E-02 1.07330E-03-7.11616E-14
 -1       274 1.45615E-02 1.10767E-03-7.38218E-14
 -1       275 1.48566E-02 1.13813E-03-7.65428E-14
 -1       276 1.51459E-02 1.16151E-03-7.93095E-14
 -1       277 1.51876E-02 1.10225E-03-8.00239E-14
 -1       278 1.51822E-02 1.02355E-03-8.03101E-14
 -1       279 1.51814E-02 9.50815E-04-8.05883E-14
 -1       280 1.51804E-02 8.84861E-04-8.08610E-14
 -1       281 1.51738E-02 8.26439E-04-8.11246E-14
 -1       282 1.51570E-02 7.72317E-04-8.13825E-14
 -1       283 1.51266E-02 7.21566E-04-8.16370E-14
 -1       284 1.50811E-02 6.71781E-04-8.18750E-14
 -1       285 1.50209E-02 6.20540E-04-8.20981E-14
 -1       286 1.49478E-02 5.65767E-04-8.23060E-14
 -1       287 1.48665E-02 5.07038E-04-8.24965E-14
 -1       288 1.47778E-02 4.41575E-04-8.26748E-14
 -1       289 1.46869E-02 3.70287E-04-8.28439E-14
 -1       290 1.45973E-02 2.93772E-04-8.30023E-14
 -1       291 1.44448E-02 2.06756E-04-8.22937E-14
 -1       292 1.29521E-02 4.02128E-04-5.38895E-14
 -1       293 1.28339E-02 5.06985E-04-5.33659E-14
 -1       294 1.25894E-02 6.21823E-04-5.28620E-14
 -1       295 1.22739E-02 7.96580E-04-5.17909E-14
 -1       296 1.19176E-02 9.63858E-04-5.07457E-14
 -1       297 1.15289E-02 1.12388E-03-4.95148E-14
 -1       298 1.11291E-02 1.23616E-03-4.81858E-14
 -1       299 1.07349E-02 1.26527E-03-4.67637E-14
 -1       300 1.03318E-02 1.17932E-03-4.52999E-14
 -1       301 9.90705E-03 1.01096E-03-4.41048E-14
 -1       302 9.50604E-03 8.22712E-04-4.31042E-14
 -1       303 9.13959E-03 6.35848E-04-4.22650E-14
 -1       304 8.82462E-03 4.57859E-04-4.15100E-14
 -1       305 8.59135E-03 3.41034E-04-4.12110E-14
 -1       306 8.47954E-03 2.36882E-04-4.09369E-14
 -1       307 8.50291E-03 1.47663E-04-4.11044E-14
 -1       308 8.65432E-03 4.76972E-05-4.14747E-14
 -1       309 8.92780E-03-6.68492E-05-4.19662E-14
 -1       310 9.26293E-03-2.40357E-04-4.30149E-14
 -1       311 9.62193E-03-4.01811E-04-4.41034E-14
 -1       312 1.00216E-02-5.41602E-04-4.52425E-14
 -1       313 1.04076E-02-6.32952E-04-4.66986E-14
 -1       314 1.07815E-02-6.20569E-04-4.81110E-14
 -1       315 1.11567E-02-5.37427E-04-4.95158E-14
 -1       316 1.15605E-02-3.66907E-04-5.09627E-14
 -1       317 1.19746E-02-1.96204E-04-5.18996E-14
 -1       318 1.23016E-02-3.88033E-05-5.26961E-14
 -1       319 1.25840E-02 9.91013E-05-5.33001E-14
 -1       320 1.27857E-02 1.93682E-04-5.35500E-14
 -1       321 1.29357E-02 3.14683E-04-5.39323E-14
 -1       322 4.55371E-04-1.64861E-04-1.22528E-16
 -1       323 4.74208E-04-2.13041E-04-9.84083E-17
 -1       324 4.40475E-04-9.40724E-05-1.47357E-16
 -1       325 4.37531E-04-6.49555E-05-1.53127E-16
 -1       326 4.35923E-04-3.79341E-05-1.56579E-16
 -1       327 4.35220E-04-1.20270E-05-1.58070E-16
 -1       328 4.35250E-04 1.35461E-05-1.58148E-16
 -1       329 4.36020E-04 3.95110E-05-1.56552E-16
 -1       330 4.37672E-04 6.61843E-05-1.52700E-16
 -1       331 4.40707E-04 9.54728E-05-1.46408E-16
 -1       332 4.46069E-04 1.28393E-04-1.36420E-16
 -1       333 4.55875E-04 1.67374E-04-1.20482E-16
 -1       334 4.75841E-04 2.17110E-04-9.53353E-17
 -1       335 5.31951E-04 2.70033E-04-8.53233E-17
 -1       336 8.24385E-04 3.73583E-04-2.42953E-16
 -1       337 1.28673E-02 2.99246E-04-5.47809E-14
 -1       338 8.63166E-04-3.57486E-04-3.19948E-16
 -1       339 1.14948E-03-4.26230E-04-5.92493E-16
 -1       340 1.43221E-03-4.75357E-04-9.51686E-16
 -1       341 1.71287E-03-5.10008E-04-1.39696E-15
 -1       342 1.99259E-03-5.33965E-04-1.92811E-15
 -1       343 2.27213E-03-5.50031E-04-2.54356E-15
 -1       344 2.55196E-03-5.60298E-04-3.24190E-15
 -1       345 2.83235E-03-5.66325E-04-4.02231E-15
 -1       346 3.11345E-03-5.69261E-04-4.88094E-15
 -1       347 3.39528E-03-5.69942E-04-5.81415E-15
 -1       348 3.67788E-03-5.68952E-04-6.82158E-15
 -1       349 3.96121E-03-5.66684E-04-7.90260E-15
 -1       350 4.24530E-03-5.63385E-04-9.05361E-15
 -1       351 4.53014E-03-5.59192E-04-1.02742E-14
 -1       352 4.81580E-03-5.54173E-04-1.15613E-14
 -1       353 5.10237E-03-5.48362E-04-1.29171E-14
 -1       354 5.39001E-03-5.41795E-04-1.43444E-14
 -1       355 5.67892E-03-5.34558E-04-1.58411E-14
 -1       356 5.96938E-03-5.26841E-04-1.74140E-14
 -1       357 6.26173E-03-5.19000E-04-1.90602E-14
 -1       358 6.55634E-03-5.11638E-04-2.07783E-14
 -1       359 6.85367E-03-5.05694E-04-2.25702E-14
 -1       360 7.15416E-03-5.02531E-04-2.44286E-14
 -1       361 7.45824E-03-5.04006E-04-2.63465E-14
 -1       362 7.76624E-03-5.12477E-04-2.83232E-14
 -1       363 8.07830E-03-5.30674E-04-3.03546E-14
 -1       364 8.39417E-03-5.61321E-04-3.24398E-14
 -1       365 8.71298E-03-6.06383E-04-3.45695E-14
 -1       366 9.03298E-03-6.65819E-04-3.67453E-14
 -1       367 9.35145E-03-7.35967E-04-3.89718E-14
 -1       368 9.66509E-03-8.08078E-04-4.12577E-14
 -1       369 9.97123E-03-8.68272E-04-4.35933E-14
 -1       370 1.02696E-02-9.00292E-04-4.59697E-14
 -1       371 1.05632E-02-8.91153E-04-4.83881E-14
 -1       372 1.08576E-02-8.37101E-04-5.08439E-14
 -1       373 1.11576E-02-7.45477E-04-5.33397E-14
 -1       374 1.14651E-02-6.31041E-04-5.58674E-14
 -1       375 1.17788E-02-5.09643E-04-5.84318E-14
 -1       376 1.20955E-02-3.93328E-04-6.10331E-14
 -1       377 1.24119E-02-2.88636E-04-6.36696E-14
 -1       378 1.27255E-02-1.97280E-04-6.63342E-14
 -1       379 1.30348E-02-1.17720E-04-6.90299E-14
 -1       380 1.33392E-02-4.66694E-05-7.17515E-14
 -1       381 1.36386E-02 1.98375E-05-7.44929E-14
 -1       382 1.39333E-02 8.57814E-05-7.72568E-14
 -1       383 1.41903E-02 1.44024E-04-7.97602E-14
 -1       384 1.10981E-03 4.47897E-04-4.84401E-16
 -1       385 1.39050E-03 5.00924E-04-8.09953E-16
 -1       386 1.66874E-03 5.38461E-04-1.21890E-15
 -1       387 1.94606E-03 5.64616E-04-1.71192E-15
 -1       388 2.22340E-03 5.82380E-04-2.28917E-15
 -1       389 2.50130E-03 5.93966E-04-2.94886E-15
 -1       390 2.78005E-03 6.01021E-04-3.69065E-15
 -1       391 3.05975E-03 6.04766E-04-4.51543E-15
 -1       392 3.34045E-03 6.06087E-04-5.42009E-15
 -1       393 3.62210E-03 6.05612E-04-6.40029E-15
 -1       394 3.90469E-03 6.03763E-04-7.45612E-15
 -1       395 4.18817E-03 6.00805E-04-8.58604E-15
 -1       396 4.47255E-03 5.96879E-04-9.78775E-15
 -1       397 4.75788E-03 5.92039E-04-1.10584E-14
 -1       398 5.04429E-03 5.86284E-04-1.23958E-14
 -1       399 5.33195E-03 5.79588E-04-1.37976E-14
 -1       400 5.62116E-03 5.71941E-04-1.52660E-14
 -1       401 5.91229E-03 5.63396E-04-1.68033E-14
 -1       402 6.20586E-03 5.54132E-04-1.84034E-14
 -1       403 6.50252E-03 5.44549E-04-2.00655E-14
 -1       404 6.80307E-03 5.35398E-04-2.17874E-14
 -1       405 7.10844E-03 5.27962E-04-2.35709E-14
 -1       406 7.41972E-03 5.24308E-04-2.54163E-14
 -1       407 7.73804E-03 5.27613E-04-2.73167E-14
 -1       408 8.06459E-03 5.42521E-04-2.92676E-14
 -1       409 8.40034E-03 5.75403E-04-3.12658E-14
 -1       410 8.74579E-03 6.34194E-04-3.33118E-14
 -1       411 9.10033E-03 7.27115E-04-3.53983E-14
 -1       412 9.46128E-03 8.59276E-04-3.75159E-14
 -1       413 9.82283E-03 1.02636E-03-3.96640E-14
 -1       414 1.01765E-02 1.20684E-03-4.18441E-14
 -1       415 1.05153E-02 1.35969E-03-4.40604E-14
 -1       416 1.08412E-02 1.43856E-03-4.63118E-14
 -1       417 1.11661E-02 1.42094E-03-4.86052E-14
 -1       418 1.15026E-02 1.32579E-03-5.09449E-14
 -1       419 1.18534E-02 1.19859E-03-5.33286E-14
 -1       420 1.22120E-02 1.08155E-03-5.57545E-14
 -1       421 1.25699E-02 9.97677E-04-5.82291E-14
 -1       422 1.29206E-02 9.52106E-04-6.07405E-14
 -1       423 1.32614E-02 9.39721E-04-6.32806E-14
 -1       424 1.35913E-02 9.51711E-04-6.58424E-14
 -1       425 1.39107E-02 9.79104E-04-6.84292E-14
 -1       426 1.42205E-02 1.01412E-03-7.10407E-14
 -1       427 1.45220E-02 1.05041E-03-7.37005E-14
 -1       428 1.48166E-02 1.08297E-03-7.64143E-14
 -1       429 1.50030E-02 1.09435E-03-7.82126E-14
 -1       430 1.49385E-02 8.94677E-04-7.83362E-14
 -1       431 1.49360E-02 9.65736E-04-7.80533E-14
 -1       432 1.49673E-02 1.02858E-03-7.81343E-14
 -1       433 1.49379E-02 8.30415E-04-7.86046E-14
 -1       434 1.49286E-02 7.69918E-04-7.88666E-14
 -1       435 1.49064E-02 7.12877E-04-7.91135E-14
 -1       436 1.48688E-02 6.57373E-04-7.93481E-14
 -1       437 1.48150E-02 6.01354E-04-7.95705E-14
 -1       438 1.47467E-02 5.42973E-04-7.97772E-14
 -1       439 1.46679E-02 4.81937E-04-7.99681E-14
 -1       440 1.45797E-02 4.15371E-04-8.01509E-14
 -1       441 1.44875E-02 3.44075E-04-8.03165E-14
 -1       442 1.43951E-02 2.68289E-04-8.04764E-14
 -1       443 1.27446E-02 4.98244E-04-5.43753E-14
 -1       444 1.29777E-02 3.68500E-04-5.50577E-14
 -1       445 1.29140E-02 4.28334E-04-5.49026E-14
 -1       446 1.23670E-02 6.65794E-04-5.31643E-14
 -1       447 1.27127E-02 2.35688E-04-5.45318E-14
 -1       448 1.16555E-02 1.03408E-03-5.06545E-14
 -1       449 1.20679E-02 8.18690E-04-5.20992E-14
 -1       450 4.45601E-04-1.26551E-04-1.37673E-16
 -1       451 1.12955E-02 1.20192E-03-4.91659E-14
 -1       452 1.09494E-02 1.29872E-03-4.76072E-14
 -1       453 1.05860E-02 1.27090E-03-4.57963E-14
 -1       454 1.01547E-02 1.08520E-03-4.41217E-14
 -1       455 9.77479E-03 8.77015E-04-4.29596E-14
 -1       456 9.39612E-03 6.57971E-04-4.18422E-14
 -1       457 9.06532E-03 4.89311E-04-4.10938E-14
 -1       458 8.68854E-03 3.18106E-04-4.02667E-14
 -1       459 8.52005E-03 2.48683E-04-3.99966E-14
 -1       460 8.45859E-03 1.89724E-04-4.00896E-14
 -1       461 8.55631E-03 1.32748E-04-4.02684E-14
 -1       462 8.75782E-03 5.41922E-05-4.07445E-14
 -1       463 9.15856E-03-1.18930E-04-4.18127E-14
 -1       464 9.51008E-03-2.94962E-04-4.30087E-14
 -1       465 9.84593E-03-4.56765E-04-4.41353E-14
 -1       466 1.02417E-02-6.19365E-04-4.56900E-14
 -1       467 1.06258E-02-6.70983E-04-4.76447E-14
 -1       468 1.09062E-02-6.18865E-04-4.90489E-14
 -1       469 1.12661E-02-4.66244E-04-5.06876E-14
 -1       470 1.17409E-02-2.15709E-04-5.23376E-14
 -1       471 1.20412E-02-6.18772E-05-5.31396E-14
 -1       472 1.24021E-02 1.15683E-04-5.41203E-14
 -1       473 8.93599E-03-1.10976E-05-4.05867E-14
 -1       474 1.14789E-02-3.38950E-04-5.20596E-14
 -1       475 9.31162E-04 3.46118E-04-4.09961E-16
 -1       476 6.65933E-04-7.51831E-05-3.30302E-16
 -1       477 6.69865E-04-1.15961E-04-3.21767E-16
 -1       478 6.63288E-04 1.10463E-06-3.36160E-16
 -1       479 6.64002E-04 3.87919E-05-3.34280E-16
 -1       480 6.66121E-04 7.68688E-05-3.28981E-16
 -1       481 6.70181E-04 1.17800E-04-3.19721E-16
 -1       482 6.77148E-04 1.62433E-04-3.05647E-16
 -1       483 6.89012E-04 2.12803E-04-2.83881E-16
 -1       484 9.76218E-04-3.28737E-04-4.95487E-16
 -1       485 1.28118E-02 3.02834E-04-5.58482E-14
 -1       486 1.21701E-03 4.06587E-04-7.06896E-16
 -1       487 7.12583E-04-2.51917E-04-2.77132E-16
 -1       488 1.26212E-03-3.83564E-04-8.22489E-16
 -1       489 1.54711E-03-4.23260E-04-1.23371E-15
 -1       490 1.83121E-03-4.51208E-04-1.72948E-15
 -1       491 2.11473E-03-4.70301E-04-2.30925E-15
 -1       492 2.39798E-03-4.82808E-04-2.97046E-15
 -1       493 2.68123E-03-4.90468E-04-3.71247E-15
 -1       494 2.96463E-03-4.94590E-04-4.53256E-15
 -1       495 3.24829E-03-4.96138E-04-5.42904E-15
 -1       496 3.53228E-03-4.95800E-04-6.39917E-15
 -1       497 3.81663E-03-4.94049E-04-7.44377E-15
 -1       498 4.10136E-03-4.91188E-04-8.56090E-15
 -1       499 4.38650E-03-4.87395E-04-9.74645E-15
 -1       500 4.67208E-03-4.82758E-04-1.09999E-14
 -1       501 4.95816E-03-4.77311E-04-1.23198E-14
 -1       502 5.24483E-03-4.71069E-04-1.37095E-14
 -1       503 5.53219E-03-4.64067E-04-1.51688E-14
 -1       504 5.82041E-03-4.56404E-04-1.67010E-14
 -1       505 6.10968E-03-4.48307E-04-1.83081E-14
 -1       506 6.40030E-03-4.40186E-04-1.99877E-14
 -1       507 6.69259E-03-4.32726E-04-2.17391E-14
 -1       508 6.98702E-03-4.26965E-04-2.35602E-14
 -1       509 7.28414E-03-4.24393E-04-2.54429E-14
 -1       510 7.58467E-03-4.27011E-04-2.73836E-14
 -1       511 7.88945E-03-4.37347E-04-2.93795E-14
 -1       512 8.19934E-03-4.58328E-04-3.14298E-14
 -1       513 8.51503E-03-4.92896E-04-3.35285E-14
 -1       514 8.83651E-03-5.43188E-04-3.56717E-14
 -1       515 9.16236E-03-6.09029E-04-3.78638E-14
 -1       516 9.48923E-03-6.85713E-04-4.01114E-14
 -1       517 9.81232E-03-7.61751E-04-4.24107E-14
 -1       518 1.01276E-02-8.18935E-04-4.47554E-14
 -1       519 1.04352E-02-8.37225E-04-4.71409E-14
 -1       520 1.07402E-02-8.04102E-04-4.95675E-14
 -1       521 1.10497E-02-7.22408E-04-5.20341E-14
 -1       522 1.13673E-02-6.08176E-04-5.45381E-14
 -1       523 1.16914E-02-4.81729E-04-5.70745E-14
 -1       524 1.20172E-02-3.59105E-04-5.96463E-14
 -1       525 1.23402E-02-2.48992E-04-6.22581E-14
 -1       526 1.26576E-02-1.53866E-04-6.49009E-14
 -1       527 1.29686E-02-7.22970E-05-6.75729E-14
 -1       528 1.32734E-02-9.37879E-07-7.02712E-14
 -1       529 1.35726E-02 6.42418E-05-7.29941E-14
 -1       530 1.38672E-02 1.27309E-04-7.57419E-14
 -1       531 1.28814E-02 4.56380E-04-5.60869E-14
 -1       532 1.78379E-03 4.80997E-04-1.54697E-15
 -1       533 2.06574E-03 5.02186E-04-2.09067E-15
 -1       534 2.34745E-03 5.16256E-04-2.71633E-15
 -1       535 2.62926E-03 5.25089E-04-3.42257E-15
 -1       536 2.91140E-03 5.30095E-04-4.20874E-15
 -1       537 3.19398E-03 5.32314E-04-5.07596E-15
 -1       538 3.47707E-03 5.32491E-04-6.02090E-15
 -1       539 3.76069E-03 5.31138E-04-7.04061E-15
 -1       540 4.04486E-03 5.28586E-04-8.13433E-15
 -1       541 4.32959E-03 5.25026E-04-9.30120E-15
 -1       542 4.61493E-03 5.20542E-04-1.05376E-14
 -1       543 4.90093E-03 5.15147E-04-1.18409E-14
 -1       544 5.18770E-03 5.08811E-04-1.32096E-14
 -1       545 5.47539E-03 5.01497E-04-1.46445E-14
 -1       546 5.76418E-03 4.93200E-04-1.61479E-14
 -1       547 6.05433E-03 4.84006E-04-1.77181E-14
 -1       548 6.34616E-03 4.74158E-04-1.93493E-14
 -1       549 6.64004E-03 4.64164E-04-2.10425E-14
 -1       550 6.93646E-03 4.54930E-04-2.27968E-14
 -1       551 7.23601E-03 4.47963E-04-2.46116E-14
 -1       552 7.53945E-03 4.45620E-04-2.64829E-14
 -1       553 7.84784E-03 4.51425E-04-2.84086E-14
 -1       554 8.16272E-03 4.70413E-04-3.03822E-14
 -1       555 8.48632E-03 5.09386E-04-3.24083E-14
 -1       556 8.82162E-03 5.76812E-04-3.44782E-14
 -1       557 9.17161E-03 6.81663E-04-3.65850E-14
 -1       558 9.53696E-03 8.29760E-04-3.87228E-14
 -1       559 9.91179E-03 1.01507E-03-4.08929E-14
 -1       560 1.02847E-02 1.20679E-03-4.30985E-14
 -1       561 1.06436E-02 1.34632E-03-4.53407E-14
 -1       562 1.09937E-02 1.37799E-03-4.76206E-14
 -1       563 1.13504E-02 1.29944E-03-4.99438E-14
 -1       564 1.17214E-02 1.16258E-03-5.23135E-14
 -1       565 1.20955E-02 1.02800E-03-5.47261E-14
 -1       566 1.24600E-02 9.28414E-04-5.71844E-14
 -1       567 1.28089E-02 8.71299E-04-5.96857E-14
 -1       568 1.31424E-02 8.51015E-04-6.22155E-14
 -1       569 1.34632E-02 8.58186E-04-6.47720E-14
 -1       570 1.37744E-02 8.83460E-04-6.73585E-14
 -1       571 1.40781E-02 9.18821E-04-6.99691E-14
 -1       572 1.43759E-02 9.57718E-04-7.26155E-14
 -1       573 1.46688E-02 9.94805E-04-7.53068E-14
 -1       574 1.46968E-02 7.66896E-04-7.63571E-14
 -1       575 1.46837E-02 7.06193E-04-7.66061E-14
 -1       576 1.46924E-02 9.00358E-04-7.58236E-14
 -1       577 1.46978E-02 8.31039E-04-7.60968E-14
 -1       578 1.46547E-02 6.47671E-04-7.68380E-14
 -1       579 1.46084E-02 5.89227E-04-7.70568E-14
 -1       580 1.45453E-02 5.28870E-04-7.72654E-14
 -1       581 1.44695E-02 4.66209E-04-7.74550E-14
 -1       582 1.43822E-02 3.98267E-04-7.76385E-14
 -1       583 1.42888E-02 3.25905E-04-7.78099E-14
 -1       584 1.41936E-02 2.49417E-04-7.79715E-14
 -1       585 1.25642E-02 2.13534E-04-5.54385E-14
 -1       586 1.50108E-03 4.50206E-04-1.08572E-15
 -1       587 1.30177E-02 4.02475E-04-5.66796E-14
 -1       588 1.25961E-02 5.66420E-04-5.51238E-14
 -1       589 1.10615E-02-5.59722E-04-5.02593E-14
 -1       590 1.00004E-02-5.34902E-04-4.42974E-14
 -1       591 8.43482E-03 1.99120E-04-3.89271E-14
 -1       592 9.62217E-03 7.52882E-04-4.16136E-14
 -1       593 1.29875E-02 3.66552E-04-5.64112E-14
 -1       594 6.63890E-04-3.65469E-05-3.34859E-16
 -1       595 1.22034E-02 7.40592E-04-5.33943E-14
 -1       596 1.11667E-02 1.27102E-03-4.87893E-14
 -1       597 1.14576E-02 1.14391E-03-5.02731E-14
 -1       598 1.03484E-02 1.18295E-03-4.43486E-14
 -1       599 9.95741E-03 9.57307E-04-4.27596E-14
 -1       600 9.22660E-03 5.32025E-04-4.04993E-14
 -1       601 8.84585E-03 3.56263E-04-3.96811E-14
 -1       602 8.56922E-03 2.50929E-04-3.90383E-14
 -1       603 9.36101E-03-2.08365E-04-4.17343E-14
 -1       604 8.61674E-03 1.06141E-04-3.93943E-14
 -1       605 1.04443E-02-6.85778E-04-4.66894E-14
 -1       606 9.65595E-03-3.59994E-04-4.28444E-14
 -1       607 1.07408E-02-6.70224E-04-4.84621E-14
 -1       608 1.19008E-02-9.79990E-05-5.38256E-14
 -1       609 1.22305E-02 7.06340E-05-5.48138E-14
 -1       610 1.18699E-02 9.18980E-04-5.20969E-14
 -1       611 7.03742E-04 2.90977E-04-2.24349E-16
 -1       612 8.45961E-03 1.63802E-04-3.91262E-14
 -1       613 1.08143E-02 1.33219E-03-4.67552E-14
 -1       614 6.76656E-04-1.60135E-04-3.08279E-16
 -1       615 1.12709E-02-4.57320E-04-5.16278E-14
 -1       616 1.40621E-02 1.69078E-04-7.76187E-14
 -1       617 8.74362E-03 4.74962E-05-3.92323E-14
 -1       618 9.11546E-03-1.02761E-04-4.05059E-14
 -1       619 1.02181E-02-6.46695E-04-4.52825E-14
 -1       620 8.99939E-04 7.41529E-05-5.70334E-16
 -1       621 8.97869E-04 2.51919E-05-5.75972E-16
 -1       622 9.11918E-04 1.78314E-04-5.41837E-16
 -1       623 9.24220E-04 2.36891E-04-5.15799E-16
 -1       624 1.16650E-02-2.36552E-04-5.36609E-14
 -1       625 1.09771E-03-2.94746E-04-6.90467E-16
 -1       626 1.04884E-03 3.14013E-04-5.96518E-16
 -1       627 2.19059E-03 4.37112E-04-2.48006E-15
 -1       628 1.38329E-03-3.37111E-04-1.06891E-15
 -1       629 1.66948E-03-3.67942E-04-1.52981E-15
 -1       630 1.95569E-03-3.89586E-04-2.07317E-15
 -1       631 2.24174E-03-4.04177E-04-2.69895E-15
 -1       632 2.52760E-03-4.13476E-04-3.40370E-15
 -1       633 2.81333E-03-4.18870E-04-4.18725E-15
 -1       634 3.09897E-03-4.21410E-04-5.04605E-15
 -1       635 3.38457E-03-4.21866E-04-5.97970E-15
 -1       636 3.67018E-03-4.20780E-04-6.98837E-15
 -1       637 3.95580E-03-4.18515E-04-8.06926E-15
 -1       638 4.24148E-03-4.15292E-04-9.22004E-15
 -1       639 4.52722E-03-4.11228E-04-1.04395E-14
 -1       640 4.81305E-03-4.06370E-04-1.17253E-14
 -1       641 5.09899E-03-4.00724E-04-1.30793E-14
 -1       642 5.38510E-03-3.94294E-04-1.45025E-14
 -1       643 5.67142E-03-3.87112E-04-1.59965E-14
 -1       644 5.95806E-03-3.79289E-04-1.75640E-14
 -1       645 6.24516E-03-3.71064E-04-1.92045E-14
 -1       646 6.53296E-03-3.62870E-04-2.09160E-14
 -1       647 6.82182E-03-3.55409E-04-2.26988E-14
 -1       648 7.11230E-03-3.49735E-04-2.45462E-14
 -1       649 7.40525E-03-3.47349E-04-2.64516E-14
 -1       650 7.70185E-03-3.50291E-04-2.84157E-14
 -1       651 8.00372E-03-3.61205E-04-3.04307E-14
 -1       652 8.31279E-03-3.83337E-04-3.24964E-14
 -1       653 8.63092E-03-4.20292E-04-3.46091E-14
 -1       654 8.95902E-03-4.75230E-04-3.67684E-14
 -1       655 9.29556E-03-5.48908E-04-3.89764E-14
 -1       656 9.63532E-03-6.35761E-04-4.12397E-14
 -1       657 9.97044E-03-7.19624E-04-4.35523E-14
 -1       658 1.02953E-02-7.73634E-04-4.59058E-14
 -1       659 1.06120E-02-7.71363E-04-4.83021E-14
 -1       660 1.09308E-02-7.04069E-04-5.07371E-14
 -1       661 1.12592E-02-5.88069E-04-5.32129E-14
 -1       662 1.15968E-02-4.52133E-04-5.57259E-14
 -1       663 1.19362E-02-3.19999E-04-5.82683E-14
 -1       664 1.22700E-02-2.03563E-04-6.08534E-14
 -1       665 1.25944E-02-1.05390E-04-6.34732E-14
 -1       666 1.29088E-02-2.31256E-05-6.61226E-14
 -1       667 1.32144E-02 4.73509E-05-6.88002E-14
 -1       668 1.35131E-02 1.10432E-04-7.14994E-14
 -1       669 1.38067E-02 1.70222E-04-7.42297E-14
 -1       670 1.90560E-03 4.20556E-04-1.88764E-15
 -1       671 2.76004E-03 4.54273E-04-3.90307E-15
 -1       672 3.04475E-03 4.57564E-04-4.73305E-15
 -1       673 3.32955E-03 4.58565E-04-5.64078E-15
 -1       674 3.61449E-03 4.57874E-04-6.62547E-15
 -1       675 3.89961E-03 4.55892E-04-7.68393E-15
 -1       676 4.18493E-03 4.52866E-04-8.81552E-15
 -1       677 4.47048E-03 4.48922E-04-1.00181E-14
 -1       678 4.75627E-03 4.44102E-04-1.12873E-14
 -1       679 5.04234E-03 4.38390E-04-1.26239E-14
 -1       680 5.32873E-03 4.31747E-04-1.40262E-14
 -1       681 5.61549E-03 4.24147E-04-1.54948E-14
 -1       682 5.90266E-03 4.15616E-04-1.70311E-14
 -1       683 6.19031E-03 4.06294E-04-1.86331E-14
 -1       684 6.47849E-03 3.96505E-04-2.02982E-14
 -1       685 6.76730E-03 3.86860E-04-2.20244E-14
 -1       686 7.05690E-03 3.78388E-04-2.38100E-14
 -1       687 7.34757E-03 3.72702E-04-2.56552E-14
 -1       688 7.63995E-03 3.72213E-04-2.75524E-14
 -1       689 7.93530E-03 3.80394E-04-2.95027E-14
 -1       690 8.23603E-03 4.02116E-04-3.15042E-14
 -1       691 8.54640E-03 4.44121E-04-3.35552E-14
 -1       692 8.87288E-03 5.15665E-04-3.56483E-14
 -1       693 9.22324E-03 6.28481E-04-3.77759E-14
 -1       694 9.60142E-03 7.93857E-04-3.99346E-14
 -1       695 1.04200E-02 1.23438E-03-4.43303E-14
 -1       696 1.15864E-02 1.13391E-03-5.12896E-14
 -1       697 1.19869E-02 9.70556E-04-5.36900E-14
 -1       698 1.23671E-02 8.52420E-04-5.61362E-14
 -1       699 1.27190E-02 7.87137E-04-5.86228E-14
 -1       700 1.30466E-02 7.62929E-04-6.11435E-14
 -1       701 1.33573E-02 7.67950E-04-6.36902E-14
 -1       702 1.36576E-02 7.92060E-04-6.62696E-14
 -1       703 1.39517E-02 8.27459E-04-6.88808E-14
 -1       704 1.42422E-02 8.67985E-04-7.15279E-14
 -1       705 1.44690E-02 8.84770E-04-7.36623E-14
 -1       706 1.44024E-02 5.80613E-04-7.45698E-14
 -1       707 1.44585E-02 6.99540E-04-7.41157E-14
 -1       708 1.43454E-02 5.20009E-04-7.47769E-14
 -1       709 1.44400E-02 6.39620E-04-7.43526E-14
 -1       710 1.17067E-02 1.04604E-03-5.18108E-14
 -1       711 1.42728E-02 4.56920E-04-7.49677E-14
 -1       712 1.41861E-02 3.88087E-04-7.51540E-14
 -1       713 1.40912E-02 3.14404E-04-7.53286E-14
 -1       714 1.27489E-02 2.84881E-04-5.70385E-14
 -1       715 1.62026E-03 3.96200E-04-1.37645E-15
 -1       716 1.20971E-02 8.40460E-04-5.37521E-14
 -1       717 9.76328E-03-4.56699E-04-4.27354E-14
 -1       718 9.76445E-03 8.50948E-04-4.13323E-14
 -1       719 1.24720E-02 1.76164E-04-5.64744E-14
 -1       720 1.13585E-02 1.22820E-03-4.99466E-14
 -1       721 1.30799E-02 3.95711E-04-5.82432E-14
 -1       722 8.37899E-03 1.68250E-04-3.78045E-14
 -1       723 2.47536E-03 4.47841E-04-3.15211E-15
 -1       724 1.06350E-02 1.30704E-03-4.56527E-14
 -1       725 1.30527E-02 4.45132E-04-5.81617E-14
 -1       726 9.04351E-04 1.24683E-04-5.59191E-16
 -1       727 8.43121E-03 2.04695E-04-3.78134E-14
 -1       728 8.97838E-03 4.14584E-04-3.89867E-14
 -1       729 9.39060E-03 6.26415E-04-4.01195E-14
 -1       730 9.03980E-04-1.22273E-04-5.62714E-16
 -1       731 1.33456E-03 3.61612E-04-9.45929E-16
 -1       732 1.40009E-02 2.09095E-04-7.60954E-14
 -1       733 9.51745E-03-3.26588E-04-4.16278E-14
 -1       734 8.64972E-03 2.82266E-04-3.79909E-14
 -1       735 1.28537E-02 5.23072E-04-5.73757E-14
 -1       736 1.29627E-02 3.54380E-04-5.76441E-14
 -1       737 1.21129E-02 1.22967E-06-5.56703E-14
 -1       738 1.01243E-02 1.07260E-03-4.28754E-14
 -1       739 8.45826E-03 1.33056E-04-3.80674E-14
 -1       740 1.24660E-02 6.67368E-04-5.54864E-14
 -1       741 9.11321E-04-1.75707E-04-5.46424E-16
 -1       742 8.97806E-04-2.31720E-05-5.76521E-16
 -1       743 8.53741E-03 9.02649E-05-3.79061E-14
 -1       744 8.99732E-04-7.18677E-05-5.72137E-16
 -1       745 1.44802E-02 8.13021E-04-7.39272E-14
 -1       746 1.10248E-02-5.93256E-04-5.06167E-14
 -1       747 8.88729E-03-3.43990E-05-3.91484E-14
 -1       748 9.97391E-03-5.92996E-04-4.37010E-14
 -1       749 1.06262E-02-7.04921E-04-4.79816E-14
 -1       750 1.39499E-02 2.44032E-04-7.47813E-14
 -1       751 9.27689E-03-2.26672E-04-4.03963E-14
 -1       752 9.38228E-04-2.47249E-04-5.29477E-16
 -1       753 1.04134E-02-7.11881E-04-4.65540E-14
 -1       754 1.44733E-02 7.54559E-04-7.40263E-14
 -1       755 1.16162E-03 2.43720E-04-8.14825E-16
 -1       756 1.31141E-02 5.08909E-04-5.98059E-14
 -1       757 1.51032E-03-2.86524E-04-1.33145E-15
 -1       758 1.79741E-03-3.09409E-04-1.83961E-15
 -1       759 2.08510E-03-3.25334E-04-2.42880E-15
 -1       760 2.37292E-03-3.35878E-04-3.09801E-15
 -1       761 2.66063E-03-3.42361E-04-3.84458E-15
 -1       762 2.94813E-03-3.45841E-04-4.66664E-15
 -1       763 3.23537E-03-3.47117E-04-5.56454E-15
 -1       764 3.52234E-03-3.46773E-04-6.53598E-15
 -1       765 3.80903E-03-3.45212E-04-7.58041E-15
 -1       766 4.09545E-03-3.42690E-04-8.69665E-15
 -1       767 4.38160E-03-3.39356E-04-9.88095E-15
 -1       768 4.66746E-03-3.35273E-04-1.11333E-14
 -1       769 4.95303E-03-3.30456E-04-1.24527E-14
 -1       770 5.23828E-03-3.24889E-04-1.38416E-14
 -1       771 5.52319E-03-3.18562E-04-1.52999E-14
 -1       772 5.80776E-03-3.11499E-04-1.68295E-14
 -1       773 6.09202E-03-3.03800E-04-1.84305E-14
 -1       774 6.37604E-03-2.95682E-04-2.01034E-14
 -1       775 6.66005E-03-2.87535E-04-2.18474E-14
 -1       776 6.94445E-03-2.79992E-04-2.36587E-14
 -1       777 7.22996E-03-2.74001E-04-2.55303E-14
 -1       778 7.51773E-03-2.70944E-04-2.74601E-14
 -1       779 7.80955E-03-2.72782E-04-2.94429E-14
 -1       780 8.10798E-03-2.82280E-04-3.14741E-14
 -1       781 8.41629E-03-3.03293E-04-3.35550E-14
 -1       782 8.73798E-03-3.40889E-04-3.56829E-14
 -1       783 9.07530E-03-4.00676E-04-3.78569E-14
 -1       784 9.42679E-03-4.86487E-04-4.00812E-14
 -1       785 1.01354E-02-6.97925E-04-4.46879E-14
 -1       786 1.11410E-02-5.83876E-04-5.19003E-14
 -1       787 1.14938E-02-4.32986E-04-5.43889E-14
 -1       788 1.18496E-02-2.85329E-04-5.69104E-14
 -1       789 1.21968E-02-1.59690E-04-5.94675E-14
 -1       790 1.25298E-02-5.80691E-05-6.20633E-14
 -1       791 1.28480E-02 2.40019E-05-6.46890E-14
 -1       792 1.31543E-02 9.25073E-05-6.73450E-14
 -1       793 1.34519E-02 1.52715E-04-7.00272E-14
 -1       794 1.37023E-02 1.98504E-04-7.23926E-14
 -1       795 2.03281E-03 3.57429E-04-2.24107E-15
 -1       796 3.18016E-03 3.83775E-04-5.26309E-15
 -1       797 2.89358E-03 3.81883E-04-4.39179E-15
 -1       798 3.75284E-03 3.82561E-04-7.23381E-15
 -1       799 4.03897E-03 3.80209E-04-8.33092E-15
 -1       800 4.32496E-03 3.76963E-04-9.49936E-15
 -1       801 4.61081E-03 3.72899E-04-1.07364E-14
 -1       802 4.89650E-03 3.68030E-04-1.20392E-14
 -1       803 5.18200E-03 3.62331E-04-1.34088E-14
 -1       804 5.46725E-03 3.55776E-04-1.48448E-14
 -1       805 5.75215E-03 3.48367E-04-1.63467E-14
 -1       806 6.03657E-03 3.40181E-04-1.79179E-14
 -1       807 6.32035E-03 3.31424E-04-1.95536E-14
 -1       808 6.60329E-03 3.22500E-04-2.12511E-14
 -1       809 6.88515E-03 3.14087E-04-2.30097E-14
 -1       810 7.16575E-03 3.07237E-04-2.48261E-14
 -1       811 7.44509E-03 3.03478E-04-2.67002E-14
 -1       812 7.72360E-03 3.04941E-04-2.86268E-14
 -1       813 8.00260E-03 3.14548E-04-3.06033E-14
 -1       814 8.28514E-03 3.36393E-04-3.26336E-14
 -1       815 8.57692E-03 3.76609E-04-3.47070E-14
 -1       816 8.88917E-03 4.46489E-04-3.68217E-14
 -1       817 9.30110E-03 6.06936E-04-3.90595E-14
 -1       818 1.29798E-02 6.69477E-04-6.00673E-14
 -1       819 1.32747E-02 6.76977E-04-6.26081E-14
 -1       820 1.35590E-02 7.02385E-04-6.51788E-14
 -1       821 1.38395E-02 7.38437E-04-6.77838E-14
 -1       822 1.41190E-02 7.80043E-04-7.04203E-14
 -1       823 1.43004E-02 7.96524E-04-7.21655E-14
 -1       824 1.13273E-02-4.59440E-04-5.26735E-14
 -1       825 1.18925E-02-1.44754E-04-5.55324E-14
 -1       826 8.41021E-03 2.19875E-04-3.63286E-14
 -1       827 1.14353E-03-2.53667E-04-7.90197E-16
 -1       828 1.41486E-02 5.13936E-04-7.23175E-14
 -1       829 1.08162E-02-6.58331E-04-4.90762E-14
 -1       830 1.38960E-02 3.08185E-04-7.28744E-14
 -1       831 1.40797E-02 4.51842E-04-7.25086E-14
 -1       832 1.24071E-02 1.15795E-04-5.75480E-14
 -1       833 1.74574E-03 3.39023E-04-1.68187E-15
 -1       834 1.39931E-02 3.83026E-04-7.26957E-14
 -1       835 1.26648E-02 6.91718E-04-5.75593E-14
 -1       836 3.46658E-03 3.83849E-04-6.21139E-15
 -1       837 1.24624E-03 3.00928E-04-8.83059E-16
 -1       838 1.13851E-03 5.90766E-05-8.74650E-16
 -1       839 8.75911E-03 3.46637E-04-3.73459E-14
 -1       840 1.32190E-02 4.40537E-04-6.03658E-14
 -1       841 1.27431E-02 6.25031E-04-5.76431E-14
 -1       842 9.54015E-03-4.13690E-04-4.11937E-14
 -1       843 1.26950E-02 2.47014E-04-5.81360E-14
 -1       844 8.31744E-03 1.33822E-04-3.64929E-14
 -1       845 8.30907E-03 1.71386E-04-3.64679E-14
 -1       846 1.13715E-03 1.19468E-06-8.78986E-16
 -1       847 8.64653E-03 2.71167E-05-3.78199E-14
 -1       848 1.30969E-02 3.81562E-04-5.95905E-14
 -1       849 1.49563E-03 3.24136E-04-1.25063E-15
 -1       850 2.60682E-03 3.77512E-04-3.59709E-15
 -1       851 9.78394E-03-5.90989E-04-4.23588E-14
 -1       852 1.07986E-02-7.01569E-04-4.94596E-14
 -1       853 9.03398E-03-1.50889E-04-3.90330E-14
 -1       854 1.14258E-03 1.17851E-04-8.63144E-16
 -1       855 1.42244E-02 6.31704E-04-7.18868E-14
 -1       856 1.21959E-02-1.64692E-05-5.74148E-14
 -1       857 8.47201E-03 2.66296E-04-3.56942E-14
 -1       858 1.07905E-02-6.85799E-04-4.92191E-14
 -1       859 1.41980E-02 5.73264E-04-7.21095E-14
 -1       860 2.31988E-03 3.69758E-04-2.87972E-15
 -1       861 9.31782E-03-3.27159E-04-3.99620E-14
 -1       862 1.42417E-02 6.84859E-04-7.18094E-14
 -1       863 1.14993E-03 1.79054E-04-8.43628E-16
 -1       864 8.35280E-03 1.01318E-04-3.63326E-14
 -1       865 1.14224E-03-1.15238E-04-8.67551E-16
 -1       866 9.02163E-03 4.61494E-04-3.82030E-14
 -1       867 1.29298E-02 3.27800E-04-5.89825E-14
 -1       868 1.37999E-02 2.54540E-04-7.26352E-14
 -1       869 1.14937E-03-1.76181E-04-8.50933E-16
 -1       870 1.26884E-02 2.01193E-04-5.95145E-14
 -1       871 1.92980E-03-2.47633E-04-2.16259E-15
 -1       872 2.21862E-03-2.58565E-04-2.79546E-15
 -1       873 2.50771E-03-2.65617E-04-3.50610E-15
 -1       874 2.79671E-03-2.69739E-04-4.29229E-15
 -1       875 3.08542E-03-2.71689E-04-5.15362E-15
 -1       876 3.37371E-03-2.72039E-04-6.08932E-15
 -1       877 3.66153E-03-2.71198E-04-7.09653E-15
 -1       878 3.94883E-03-2.69441E-04-8.17687E-15
 -1       879 4.23558E-03-2.66932E-04-9.32658E-15
 -1       880 4.52175E-03-2.63756E-04-1.05450E-14
 -1       881 4.80728E-03-2.59935E-04-1.18302E-14
 -1       882 5.09211E-03-2.55453E-04-1.31836E-14
 -1       883 5.37616E-03-2.50276E-04-1.46062E-14
 -1       884 5.65933E-03-2.44377E-04-1.61006E-14
 -1       885 5.94153E-03-2.37753E-04-1.76643E-14
 -1       886 6.22270E-03-2.30462E-04-1.92998E-14
 -1       887 6.50286E-03-2.22648E-04-2.10054E-14
 -1       888 6.78217E-03-2.14588E-04-2.27791E-14
 -1       889 7.06104E-03-2.06736E-04-2.46148E-14
 -1       890 7.34026E-03-1.99809E-04-2.65113E-14
 -1       891 7.62126E-03-1.94919E-04-2.84631E-14
 -1       892 7.90631E-03-1.93821E-04-3.04643E-14
 -1       893 8.19896E-03-1.99407E-04-3.25126E-14
 -1       894 8.50410E-03-2.16502E-04-3.46082E-14
 -1       895 8.82756E-03-2.52833E-04-3.67510E-14
 -1       896 1.16604E-02-3.24581E-04-5.51406E-14
 -1       897 1.21463E-02-9.85263E-05-5.80866E-14
 -1       898 1.24877E-02 6.20287E-06-6.06525E-14
 -1       899 1.28076E-02 8.54706E-05-6.32565E-14
 -1       900 1.31115E-02 1.49154E-04-6.58825E-14
 -1       901 1.34051E-02 2.04277E-04-6.85469E-14
 -1       902 1.13835E-03-5.65399E-05-8.76544E-16
 -1       903 4.17877E-03 3.04457E-04-8.98216E-15
 -1       904 3.89212E-03 3.06903E-04-7.84851E-15
 -1       905 4.75061E-03 2.97401E-04-1.14560E-14
 -1       906 5.03568E-03 2.92833E-04-1.27919E-14
 -1       907 5.32001E-03 2.87558E-04-1.41962E-14
 -1       908 5.60343E-03 2.81577E-04-1.56670E-14
 -1       909 5.88571E-03 2.74939E-04-1.72052E-14
 -1       910 6.16651E-03 2.67785E-04-1.88105E-14
 -1       911 6.44543E-03 2.60387E-04-2.04783E-14
 -1       912 6.72199E-03 2.53205E-04-2.22063E-14
 -1       913 6.99561E-03 2.46933E-04-2.39968E-14
 -1       914 7.26571E-03 2.42533E-04-2.58467E-14
 -1       915 7.53181E-03 2.41261E-04-2.77494E-14
 -1       916 7.79374E-03 2.44672E-04-2.97042E-14
 -1       917 8.05211E-03 2.54719E-04-3.17094E-14
 -1       918 8.30940E-03 2.74180E-04-3.37655E-14
 -1       919 1.37376E-02 6.54240E-04-6.66776E-14
 -1       920 1.32155E-02 5.88504E-04-6.15249E-14
 -1       921 1.40027E-02 6.96336E-04-6.93072E-14
 -1       922 8.23732E-03 1.79157E-04-3.50764E-14
 -1       923 8.19105E-03 1.38756E-04-3.50370E-14
 -1       924 1.33036E-02 4.21713E-04-6.21262E-14
 -1       925 1.38918E-02 4.48834E-04-7.00827E-14
 -1       926 1.28789E-03-2.08551E-04-1.03292E-15
 -1       927 1.31781E-02 3.75279E-04-6.15135E-14
 -1       928 1.34761E-02 6.17004E-04-6.40881E-14
 -1       929 1.29216E-02 2.90817E-04-6.03746E-14
 -1       930 1.87610E-03 2.78630E-04-2.00222E-15
 -1       931 1.42734E-02 7.39024E-04-7.19923E-14
 -1       932 1.64182E-03-2.31720E-04-1.60935E-15
 -1       933 1.33394E-02 5.02480E-04-6.21039E-14
 -1       934 4.46495E-03 3.01276E-04-1.01861E-14
 -1       935 3.02968E-03 3.08237E-04-4.88813E-15
 -1       936 1.62471E-03 2.70063E-04-1.53029E-15
 -1       937 8.77733E-03-7.19493E-05-3.77054E-14
 -1       938 3.31756E-03 3.09058E-04-5.79973E-15
 -1       939 2.74147E-03 3.05559E-04-4.05174E-15
 -1       940 1.38449E-03 9.99948E-05-1.22930E-15
 -1       941 1.38048E-02 3.81138E-04-7.02680E-14
 -1       942 1.38420E-03-9.71062E-05-1.23421E-15
 -1       943 1.36026E-02 2.29100E-04-7.05831E-14
 -1       944 8.42097E-03 5.41040E-05-3.62461E-14
 -1       945 3.60505E-03 3.08505E-04-6.78621E-15
 -1       946 1.39950E-02 5.65972E-04-6.96734E-14
 -1       947 1.39043E-03-1.64242E-04-1.21832E-15
 -1       948 1.24975E-02 9.00297E-05-5.93872E-14
 -1       949 1.34821E-02 4.80830E-04-6.38875E-14
 -1       950 1.32025E-03 2.48828E-04-1.04231E-15
 -1       951 8.25823E-03 2.13456E-04-3.44533E-14
 -1       952 8.18939E-03 1.12452E-04-3.48800E-14
 -1       953 1.39566E-02 5.09149E-04-6.98849E-14
 -1       954 1.40172E-02 6.16467E-04-6.96038E-14
 -1       955 1.38135E-03 3.39737E-05-1.23989E-15
 -1       956 2.16444E-03 2.91749E-04-2.60744E-15
 -1       957 1.37061E-02 2.98098E-04-7.06173E-14
 -1       958 5.45671E-03 2.14595E-04-1.49873E-14
 -1       959 1.39096E-03 1.67347E-04-1.20913E-15
 -1       960 4.03228E-03 2.31258E-04-8.46780E-15
 -1       961 2.35567E-03-1.89427E-04-3.17224E-15
 -1       962 2.64566E-03-1.93622E-04-3.92243E-15
 -1       963 2.93550E-03-1.95890E-04-4.74766E-15
 -1       964 3.22494E-03-1.96729E-04-5.64632E-15
 -1       965 3.51381E-03-1.96506E-04-6.61747E-15
 -1       966 3.80202E-03-1.95479E-04-7.66084E-15
 -1       967 4.08949E-03-1.93812E-04-8.77548E-15
 -1       968 4.37617E-03-1.91595E-04-9.96049E-15
 -1       969 4.66197E-03-1.88859E-04-1.12112E-14
 -1       970 4.94679E-03-1.85596E-04-1.25304E-14
 -1       971 5.23051E-03-1.81765E-04-1.39191E-14
 -1       972 5.51295E-03-1.77313E-04-1.53765E-14
 -1       973 5.79395E-03-1.72183E-04-1.69049E-14
 -1       974 6.07331E-03-1.66328E-04-1.85017E-14
 -1       975 6.35085E-03-1.59730E-04-2.01704E-14
 -1       976 6.62647E-03-1.52409E-04-2.19070E-14
 -1       977 6.90021E-03-1.44453E-04-2.37070E-14
 -1       978 7.17233E-03-1.36048E-04-2.55691E-14
 -1       979 7.44354E-03-1.27554E-04-2.74887E-14
 -1       980 7.71518E-03-1.19664E-04-2.94601E-14
 -1       981 7.98967E-03-1.13743E-04-3.14781E-14
 -1       982 8.27133E-03-1.12831E-04-3.35432E-14
 -1       983 8.56664E-03-1.22382E-04-3.56552E-14
 -1       984 1.38126E-03-3.13331E-05-1.24127E-15
 -1       985 1.28098E-02 1.61635E-04-6.19629E-14
 -1       986 1.31032E-02 2.16447E-04-6.45692E-14
 -1       987 1.33862E-02 2.63880E-04-6.72074E-14
 -1       988 5.17399E-03 2.18988E-04-1.35484E-14
 -1       989 4.88999E-03 2.22862E-04-1.21753E-14
 -1       990 5.73785E-03 2.09726E-04-1.64944E-14
 -1       991 6.01701E-03 2.04488E-04-1.80673E-14
 -1       992 6.29371E-03 1.99083E-04-1.97047E-14
 -1       993 6.56730E-03 1.93847E-04-2.14036E-14
 -1       994 6.83701E-03 1.89273E-04-2.31655E-14
 -1       995 7.10192E-03 1.86028E-04-2.49898E-14
 -1       996 7.36093E-03 1.84930E-04-2.68707E-14
 -1       997 7.61275E-03 1.86884E-04-2.88063E-14
 -1       998 7.85593E-03 1.92798E-04-3.07888E-14
 -1       999 1.38882E-02 6.18226E-04-6.81826E-14
 -1      1000 8.06971E-03 1.47070E-04-3.35142E-14
 -1      1001 1.33840E-02 4.03809E-04-6.39530E-14
 -1      1002 1.77709E-03-1.72649E-04-1.90238E-15
 -1      1003 1.29127E-02 2.39777E-04-6.16409E-14
 -1      1004 1.31721E-02 3.33517E-04-6.27988E-14
 -1      1005 2.45300E-03 3.00357E-04-3.29043E-15
 -1      1006 2.06595E-03-1.82673E-04-2.49778E-15
 -1      1007 1.63479E-03 1.45740E-04-1.63702E-15
 -1      1008 2.87897E-03 2.32259E-04-4.51451E-15
 -1      1009 4.31900E-03 2.29012E-04-9.63700E-15
 -1      1010 8.67368E-03-1.01990E-04-3.66245E-14
 -1      1011 8.21975E-03 7.72381E-05-3.47970E-14
 -1      1012 3.74485E-03 2.32878E-04-7.36806E-15
 -1      1013 1.36150E-02 5.60999E-04-6.52876E-14
 -1      1014 8.08896E-03 2.03600E-04-3.28214E-14
 -1      1015 1.63437E-03-1.42474E-04-1.64700E-15
 -1      1016 1.36025E-02 4.68890E-04-6.57326E-14
 -1      1017 8.07214E-03 1.73037E-04-3.31695E-14
 -1      1018 1.37128E-02 4.47787E-04-6.76809E-14
 -1      1019 1.62945E-03-7.01168E-05-1.66041E-15
 -1      1020 8.04243E-03 1.20967E-04-3.33630E-14
 -1      1021 3.16812E-03 2.33647E-04-5.39118E-15
 -1      1022 1.62964E-03 7.30901E-05-1.65596E-15
 -1      1023 1.36259E-02 3.82985E-04-6.78655E-14
 -1      1024 1.71184E-03 2.06120E-04-1.74259E-15
 -1      1025 8.51865E-03-2.40270E-05-3.61316E-14
 -1      1026 4.60495E-03 2.26205E-04-1.08731E-14
 -1      1027 2.00028E-03 2.19148E-04-2.31128E-15
 -1      1028 1.37297E-02 5.45798E-04-6.66117E-14
 -1      1029 1.31336E-02 2.77762E-04-6.36832E-14
 -1      1030 3.45678E-03 2.33746E-04-6.34231E-15
 -1      1031 2.78637E-03-1.20171E-04-4.34510E-15
 -1      1032 3.07665E-03-1.21124E-04-5.20740E-15
 -1      1033 3.36640E-03-1.21282E-04-6.14310E-15
 -1      1034 3.65544E-03-1.20844E-04-7.15026E-15
 -1      1035 3.94366E-03-1.19940E-04-8.22955E-15
 -1      1036 4.23095E-03-1.18648E-04-9.37912E-15
 -1      1037 4.51723E-03-1.17000E-04-1.05963E-14
 -1      1038 4.80237E-03-1.14990E-04-1.18810E-14
 -1      1039 5.08621E-03-1.12586E-04-1.32340E-14
 -1      1040 5.36857E-03-1.09730E-04-1.46573E-14
 -1      1041 5.64918E-03-1.06344E-04-1.61502E-14
 -1      1042 5.92776E-03-1.02335E-04-1.77111E-14
 -1      1043 6.20400E-03-9.75934E-05-1.93427E-14
 -1      1044 6.47756E-03-9.19936E-05-2.10417E-14
 -1      1045 6.74815E-03-8.53966E-05-2.28046E-14
 -1      1046 7.01553E-03-7.76529E-05-2.46325E-14
 -1      1047 7.27964E-03-6.86223E-05-2.65178E-14
 -1      1048 7.54068E-03-5.82326E-05-2.84580E-14
 -1      1049 7.79938E-03-4.66275E-05-3.04489E-14
 -1      1050 8.05760E-03-3.47493E-05-3.24862E-14
 -1      1051 1.92288E-03 1.56331E-04-2.19059E-15
 -1      1052 1.62792E-03 1.48500E-06-1.66340E-15
 -1      1053 2.49582E-03-1.18155E-04-3.55749E-15
 -1      1054 5.31184E-03 1.46877E-04-1.43071E-14
 -1      1055 5.59272E-03 1.43830E-04-1.57825E-14
 -1      1056 5.02918E-03 1.49652E-04-1.29008E-14
 -1      1057 6.14740E-03 1.37362E-04-1.89312E-14
 -1      1058 6.42003E-03 1.34369E-04-2.06027E-14
 -1      1059 6.68849E-03 1.32008E-04-2.23356E-14
 -1      1060 6.95179E-03 1.30798E-04-2.41333E-14
 -1      1061 7.20864E-03 1.31379E-04-2.59907E-14
 -1      1062 7.45738E-03 1.34463E-04-2.79033E-14
 -1      1063 7.69567E-03 1.40713E-04-2.98672E-14
 -1      1064 2.28957E-03 2.28034E-04-2.95758E-15
 -1      1065 4.74505E-03 1.52108E-04-1.15618E-14
 -1      1066 7.88744E-03 1.55770E-04-3.15031E-14
 -1      1067 2.58946E-03 2.29124E-04-3.71180E-15
 -1      1068 2.20543E-03-1.14712E-04-2.84398E-15
 -1      1069 1.84645E-03-1.24686E-04-2.06077E-15
 -1      1070 5.87141E-03 1.40603E-04-1.73239E-14
 -1      1071 4.17324E-03 1.55966E-04-9.09062E-15
 -1      1072 8.04293E-03 9.07093E-05-3.32859E-14
 -1      1073 3.88585E-03 1.57307E-04-7.95516E-15
 -1      1074 1.33575E-02 3.17242E-04-6.57433E-14
 -1      1075 3.01897E-03 1.57908E-04-4.98506E-15
 -1      1076 1.35908E-02 4.20366E-04-6.65630E-14
 -1      1077 7.96170E-03 1.36814E-04-3.24295E-14
 -1      1078 2.72886E-03 1.56324E-04-4.14266E-15
 -1      1079 1.33769E-02 3.55008E-04-6.51255E-14
 -1      1080 4.45968E-03 1.54221E-04-1.02931E-14
 -1      1081 4.60086E-03 8.03727E-05-1.09514E-14
 -1      1082 6.00538E-03 7.42998E-05-1.81576E-14
 -1      1083 3.21982E-03-4.57854E-05-5.67348E-15
 -1      1084 3.50952E-03-4.56780E-05-6.64438E-15
 -1      1085 3.79838E-03-4.53640E-05-7.68753E-15
 -1      1086 4.08630E-03-4.48763E-05-8.80163E-15
 -1      1087 4.37315E-03-4.42272E-05-9.98515E-15
 -1      1088 4.65882E-03-4.34109E-05-1.12372E-14
 -1      1089 4.94314E-03-4.24004E-05-1.25546E-14
 -1      1090 5.22589E-03-4.11479E-05-1.39419E-14
 -1      1091 5.50680E-03-3.95814E-05-1.53990E-14
 -1      1092 5.78555E-03-3.75995E-05-1.69251E-14
 -1      1093 6.06171E-03-3.50641E-05-1.85209E-14
 -1      1094 6.33483E-03-3.17902E-05-2.01816E-14
 -1      1095 6.60437E-03-2.75353E-05-2.19076E-14
 -1      1096 6.86975E-03-2.19879E-05-2.37003E-14
 -1      1097 7.13032E-03-1.47605E-05-2.55525E-14
 -1      1098 7.38540E-03-5.39355E-06-2.74599E-14
 -1      1099 7.63431E-03 6.54899E-06-2.94195E-14
 -1      1100 7.87596E-03 2.14618E-05-3.14278E-14
 -1      1101 2.21238E-03 1.63725E-04-2.82183E-15
 -1      1102 1.87766E-03 3.97469E-05-2.14039E-15
 -1      1103 8.27728E-03 2.29748E-06-3.44937E-14
 -1      1104 4.31495E-03 8.13308E-05-9.71524E-15
 -1      1105 6.81221E-03 7.44447E-05-2.32746E-14
 -1      1106 5.44983E-03 7.67215E-05-1.50702E-14
 -1      1107 5.16855E-03 7.80254E-05-1.36284E-14
 -1      1108 6.54783E-03 7.34423E-05-2.15048E-14
 -1      1109 6.27859E-03 7.35337E-05-1.97995E-14
 -1      1110 7.07062E-03 7.70775E-05-2.51071E-14
 -1      1111 7.32160E-03 8.19840E-05-2.69969E-14
 -1      1112 7.56321E-03 8.98722E-05-2.89388E-14
 -1      1113 3.30861E-03 1.58434E-04-5.90038E-15
 -1      1114 1.87753E-03-3.65409E-05-2.14344E-15
 -1      1115 5.72893E-03 7.54333E-05-1.65792E-14
 -1      1116 4.88547E-03 7.92597E-05-1.22561E-14
 -1      1117 2.92947E-03-4.56191E-05-4.77372E-15
 -1      1118 2.47051E-03 1.60931E-04-3.45179E-15
 -1      1119 2.63870E-03-4.50852E-05-3.94906E-15
 -1      1120 2.34789E-03-4.40697E-05-3.19875E-15
 -1      1121 2.17298E-03 9.88133E-05-2.76321E-15
 -1      1122 3.59761E-03 1.58171E-04-6.89047E-15
 -1      1123 8.03744E-03 3.71526E-05-3.28630E-14
 -1      1124 4.02791E-03 8.21048E-05-8.54653E-15
 -1      1125 7.75309E-03 1.06139E-04-3.05615E-14
 -1      1126 3.16113E-03 8.28388E-05-5.46215E-15
 -1      1127 7.94246E-03 1.06934E-04-3.23559E-14
 -1      1128 2.87077E-03 8.22574E-05-4.58227E-15
 -1      1129 3.65397E-03 2.97828E-05-7.14928E-15
 -1      1130 2.49306E-03 2.87949E-05-3.56059E-15
 -1      1131 3.45088E-03 8.29298E-05-6.41701E-15
 -1      1132 2.18481E-03 3.48550E-05-2.80793E-15
 -1      1133 3.73984E-03 8.26540E-05-7.44665E-15
 -1      1134 0.00000E+00 0.00000E+00 0.00000E+00
 -1      1135 0.00000E+00 0.00000E+00 0.00000E+00
 -1      1136 0.00000E+00 0.00000E+00 0.00000E+00
 -1      1137 0.00000E+00 0.00000E+00 0.00000E+00
 -1      1138 0.00000E+00 0.00000E+00 0.00000E+00
 -1      1139 0.00000E+00 0.00000E+00 0.00000E+00
 -1      1140 0.00000E+00 0.00000E+00 0.00000E+00
 -1      1141 0.00000E+00 0.00000E+00 0.00000E+00
 -1      1142 0.00000E+00 0.00000E+00 0.00000E+00
 -1      1143 0.00000E+00 0.00000E+00 0.00000E+00
 -1      1144 0.00000E+00 0.00000E+00 0.00000E+00
 -1      1145 0.00000E+00 0.00000E+00 0.00000E+00
 -1      1146 0.00000E+00 0.00000E+00 0.00000E+00
 -1      1147 0.00000E+00 0.00000E+00 0.00000E+00
 -1      1148 0.00000E+00 0.00000E+00 0.00000E+00
 -1      1149 0.00000E+00 0.00000E+00 0.00000E+00
 -1      1150 0.00000E+00 0.00000E+00 0.00000E+00
 -1      1151 2.11651E-04-1.48337E-04 1.51382E-17
 -1      1152 5.51573E-04-3.37541E-04-8.99888E-18
 -1      1153 8.33329E-04-4.59049E-04-1.14614E-16
 -1      1154 1.10282E-03-5.40727E-04-3.15205E-16
 -1      1155 1.36814E-03-5.97943E-04-6.07858E-16
 -1      1156 1.63284E-03-6.38585E-04-9.91272E-16
 -1      1157 1.89876E-03-6.67291E-04-1.46401E-15
 -1      1158 2.16676E-03-6.87167E-04-2.02501E-15
 -1      1159 2.43713E-03-7.00477E-04-2.67336E-15
 -1      1160 2.70988E-03-7.08921E-04-3.40944E-15
 -1      1161 2.98484E-03-7.13775E-04-4.22950E-15
 -1      1162 3.26181E-03-7.15983E-04-5.12685E-15
 -1      1163 3.54054E-03-7.16232E-04-6.09727E-15
 -1      1164 3.82081E-03-7.15002E-04-7.14352E-15
 -1      1165 4.10245E-03-7.12615E-04-8.26014E-15
 -1      1166 4.38536E-03-7.09275E-04-9.44378E-15
 -1      1167 4.66951E-03-7.05104E-04-1.06983E-14
 -1      1168 4.95497E-03-7.00175E-04-1.20219E-14
 -1      1169 5.24191E-03-6.94552E-04-1.34170E-14
 -1      1170 5.53062E-03-6.88328E-04-1.48843E-14
 -1      1171 5.82153E-03-6.81673E-04-1.64234E-14
 -1      1172 6.11517E-03-6.74894E-04-1.80421E-14
 -1      1173 6.41223E-03-6.68503E-04-1.97330E-14
 -1      1174 6.71342E-03-6.63295E-04-2.14945E-14
 -1      1175 7.01951E-03-6.60433E-04-2.33307E-14
 -1      1176 7.33110E-03-6.61519E-04-2.52317E-14
 -1      1177 7.64848E-03-6.68615E-04-2.71932E-14
 -1      1178 7.97133E-03-6.84157E-04-2.92105E-14
 -1      1179 8.29833E-03-7.10659E-04-3.12895E-14
 -1      1180 8.62684E-03-7.50104E-04-3.34168E-14
 -1      1181 8.95272E-03-8.02919E-04-3.55859E-14
 -1      1182 9.27059E-03-8.66646E-04-3.78043E-14
 -1      1183 9.57488E-03-9.34725E-04-4.00812E-14
 -1      1184 9.86165E-03-9.96237E-04-4.24148E-14
 -1      1185 1.01307E-02-1.03757E-03-4.47967E-14
 -1      1186 1.03869E-02-1.04616E-03-4.72207E-14
 -1      1187 1.06393E-02-1.01503E-03-4.96825E-14
 -1      1188 1.08981E-02-9.45650E-04-5.21772E-14
 -1      1189 1.11711E-02-8.47284E-04-5.47055E-14
 -1      1190 1.14613E-02-7.33252E-04-5.72661E-14
 -1      1191 1.17669E-02-6.16393E-04-5.98637E-14
 -1      1192 1.20827E-02-5.05912E-04-6.25026E-14
 -1      1193 1.24030E-02-4.06431E-04-6.51761E-14
 -1      1194 1.27223E-02-3.18647E-04-6.78838E-14
 -1      1195 1.30370E-02-2.40641E-04-7.06170E-14
 -1      1196 1.33448E-02-1.69108E-04-7.33643E-14
 -1      1197 1.36450E-02-1.00261E-04-7.61252E-14
 -1      1198 1.39382E-02-3.04559E-05-7.89027E-14
 -1      1199 1.42262E-02 4.31746E-05-8.17078E-14
 -1      1200 1.45045E-02 1.19271E-04-8.44776E-14
 -1      1201 2.28410E-04 1.60715E-04 1.82417E-17
 -1      1202 5.53746E-04 3.42174E-04-3.00866E-18
 -1      1203 8.34259E-04 4.61217E-04-1.04178E-16
 -1      1204 1.10372E-03 5.42414E-04-2.96760E-16
 -1      1205 1.36904E-03 5.99626E-04-5.78137E-16
 -1      1206 1.63379E-03 6.40358E-04-9.45085E-16
 -1      1207 1.89976E-03 6.69171E-04-1.39904E-15
 -1      1208 2.16780E-03 6.89166E-04-1.93816E-15
 -1      1209 2.43820E-03 7.02604E-04-2.56154E-15
 -1      1210 2.71095E-03 7.11181E-04-3.27032E-15
 -1      1211 2.98592E-03 7.16167E-04-4.06832E-15
 -1      1212 3.26287E-03 7.18506E-04-4.94755E-15
 -1      1213 3.54158E-03 7.18878E-04-5.90249E-15
 -1      1214 3.82182E-03 7.17757E-04-6.93404E-15
 -1      1215 4.10342E-03 7.15454E-04-8.04080E-15
 -1      1216 4.38628E-03 7.12159E-04-9.22354E-15
 -1      1217 4.67036E-03 7.07965E-04-1.04765E-14
 -1      1218 4.95576E-03 7.02911E-04-1.17976E-14
 -1      1219 5.24267E-03 6.97004E-04-1.31847E-14
 -1      1220 5.53145E-03 6.90262E-04-1.46322E-14
 -1      1221 5.82264E-03 6.82755E-04-1.61440E-14
 -1      1222 6.11699E-03 6.74664E-04-1.77210E-14
 -1      1223 6.41550E-03 6.66366E-04-1.93623E-14
 -1      1224 6.71947E-03 6.58549E-04-2.10707E-14
 -1      1225 7.03051E-03 6.52373E-04-2.28435E-14
 -1      1226 7.35053E-03 6.49706E-04-2.46745E-14
 -1      1227 7.68162E-03 6.53418E-04-2.65614E-14
 -1      1228 8.02575E-03 6.67738E-04-2.84960E-14
 -1      1229 8.38417E-03 6.98541E-04-3.04759E-14
 -1      1230 8.75633E-03 7.53272E-04-3.25077E-14
 -1      1231 9.13841E-03 8.39844E-04-3.45795E-14
 -1      1232 9.52163E-03 9.63575E-04-3.66816E-14
 -1      1233 9.89194E-03 1.12155E-03-3.88078E-14
 -1      1234 1.02331E-02 1.29604E-03-4.09635E-14
 -1      1235 1.05350E-02 1.45258E-03-4.31550E-14
 -1      1236 1.08029E-02 1.55010E-03-4.53800E-14
 -1      1237 1.10602E-02 1.56220E-03-4.76415E-14
 -1      1238 1.13360E-02 1.49435E-03-4.99645E-14
 -1      1239 1.16485E-02 1.37999E-03-5.23399E-14
 -1      1240 1.19972E-02 1.25996E-03-5.47459E-14
 -1      1241 1.23688E-02 1.16355E-03-5.71923E-14
 -1      1242 1.27468E-02 1.10269E-03-5.96796E-14
 -1      1243 1.31184E-02 1.07637E-03-6.21963E-14
 -1      1244 1.34764E-02 1.07733E-03-6.47381E-14
 -1      1245 1.38178E-02 1.09672E-03-6.73036E-14
 -1      1246 1.41427E-02 1.12644E-03-6.98920E-14
 -1      1247 1.44529E-02 1.15970E-03-7.25225E-14
 -1      1248 1.47510E-02 1.19105E-03-7.52113E-14
 -1      1249 1.50406E-02 1.21659E-03-7.79557E-14
 -1      1250 1.53190E-02 1.23492E-03-8.06660E-14
 -1      1251 1.54467E-02 1.20017E-03-8.21360E-14
 -1      1252 1.54339E-02 1.11568E-03-8.24401E-14
 -1      1253 1.54273E-02 1.03515E-03-8.27282E-14
 -1      1254 1.54252E-02 9.62242E-04-8.29916E-14
 -1      1255 1.54228E-02 8.98736E-04-8.32501E-14
 -1      1256 1.54150E-02 8.44926E-04-8.35054E-14
 -1      1257 1.53975E-02 7.98584E-04-8.37699E-14
 -1      1258 1.53667E-02 7.56638E-04-8.40319E-14
 -1      1259 1.53213E-02 7.16146E-04-8.42867E-14
 -1      1260 1.52615E-02 6.73726E-04-8.45254E-14
 -1      1261 1.51893E-02 6.26486E-04-8.47358E-14
 -1      1262 1.51083E-02 5.72857E-04-8.49301E-14
 -1      1263 1.50215E-02 5.11435E-04-8.51218E-14
 -1      1264 1.49317E-02 4.41555E-04-8.53025E-14
 -1      1265 1.48431E-02 3.64609E-04-8.54722E-14
 -1      1266 1.47584E-02 2.82572E-04-8.56296E-14
 -1      1267 1.46787E-02 1.98808E-04-8.57741E-14
 -1      1268 1.29659E-02 4.19345E-04-5.27949E-14
 -1      1269 1.28713E-02 5.68513E-04-5.24506E-14
 -1      1270 1.26691E-02 7.22569E-04-5.18972E-14
 -1      1271 1.23784E-02 8.76908E-04-5.11550E-14
 -1      1272 1.20351E-02 1.01584E-03-5.02788E-14
 -1      1273 1.16291E-02 1.13517E-03-4.92291E-14
 -1      1274 1.11839E-02 1.21017E-03-4.80811E-14
 -1      1275 1.07132E-02 1.22126E-03-4.68794E-14
 -1      1276 1.02254E-02 1.16056E-03-4.56650E-14
 -1      1277 9.77350E-03 1.04445E-03-4.45884E-14
 -1      1278 9.37492E-03 8.96622E-04-4.36885E-14
 -1      1279 9.03076E-03 7.34787E-04-4.29573E-14
 -1      1280 8.74832E-03 5.68584E-04-4.23896E-14
 -1      1281 8.55545E-03 4.10784E-04-4.20386E-14
 -1      1282 8.46591E-03 2.62422E-04-4.19041E-14
 -1      1283 8.48408E-03 1.15842E-04-4.19931E-14
 -1      1284 8.60926E-03-2.68594E-05-4.23212E-14
 -1      1285 8.83657E-03-1.72832E-04-4.28817E-14
 -1      1286 9.15087E-03-3.17758E-04-4.36595E-14
 -1      1287 9.51102E-03-4.42267E-04-4.45722E-14
 -1      1288 9.91631E-03-5.37818E-04-4.56299E-14
 -1      1289 1.03692E-02-5.92600E-04-4.68352E-14
 -1      1290 1.08145E-02-5.90750E-04-4.80204E-14
 -1      1291 1.12585E-02-5.29314E-04-4.91739E-14
 -1      1292 1.17132E-02-4.13086E-04-5.03130E-14
 -1      1293 1.20997E-02-2.76083E-04-5.12252E-14
 -1      1294 1.24057E-02-1.39466E-04-5.18951E-14
 -1      1295 1.26568E-02-1.38709E-06-5.24019E-14
 -1      1296 1.28459E-02 1.38189E-04-5.27454E-14
 -1      1297 1.29528E-02 2.75905E-04-5.28881E-14
 -1      1298 1.66680E-04-1.10352E-04 1.36881E-18
 -1      1299 1.12528E-04-5.69940E-05-1.61140E-17
 -1      1300 1.17607E-04-6.75983E-05-1.14248E-17
 -1      1301 1.08417E-04-4.35168E-05-2.39067E-17
 -1      1302 1.10276E-04-4.96295E-05-2.14943E-17
 -1      1303 2.26306E-04-1.07664E-04-5.04967E-17
 -1      1304 1.06839E-04-3.36342E-05-2.84332E-17
 -1      1305 1.07685E-04-3.83577E-05-2.71186E-17
 -1      1306 2.19098E-04-8.25042E-05-6.47269E-17
 -1      1307 1.06064E-04-2.53781E-05-3.12115E-17
 -1      1308 1.06492E-04-2.94105E-05-3.04525E-17
 -1      1309 2.15862E-04-6.33220E-05-7.34411E-17
 -1      1310 1.05670E-04-1.81114E-05-3.28378E-17
 -1      1311 1.05897E-04-2.16821E-05-3.23770E-17
 -1      1312 2.14220E-04-4.72334E-05-7.88079E-17
 -1      1313 1.05452E-04-1.12526E-05-3.38678E-17
 -1      1314 1.05574E-04-1.46410E-05-3.36374E-17
 -1      1315 2.13318E-04-3.27860E-05-8.20877E-17
 -1      1316 1.05354E-04-4.69508E-06-3.45454E-17
 -1      1317 1.05406E-04-7.95184E-06-3.44505E-17
 -1      1318 2.12826E-04-1.92108E-05-8.41476E-17
 -1      1319 1.05343E-04 1.74488E-06-3.48300E-17
 -1      1320 1.05341E-04-1.47212E-06-3.47622E-17
 -1      1321 2.12615E-04-6.16733E-06-8.52996E-17
 -1      1322 1.05414E-04 8.23439E-06-3.44234E-17
 -1      1323 1.05358E-04 4.97111E-06-3.45047E-17
 -1      1324 2.12623E-04 6.71588E-06-8.52589E-17
 -1      1325 1.05589E-04 1.49487E-05-3.37051E-17
 -1      1326 1.05463E-04 1.15456E-05-3.39355E-17
 -1      1327 2.12851E-04 1.97855E-05-8.41341E-17
 -1      1328 1.05918E-04 2.19731E-05-3.24990E-17
 -1      1329 1.05685E-04 1.83796E-05-3.29055E-17
 -1      1330 2.13356E-04 3.32999E-05-8.21148E-17
 -1      1331 1.06537E-04 2.98436E-05-3.02899E-17
 -1      1332 1.06100E-04 2.57653E-05-3.10488E-17
 -1      1333 2.14287E-04 4.78371E-05-7.85098E-17
 -1      1334 1.07721E-04 3.89434E-05-2.67662E-17
 -1      1335 1.06873E-04 3.41498E-05-2.81486E-17
 -1      1336 2.15979E-04 6.42556E-05-7.27635E-17
 -1      1337 1.10255E-04 5.03679E-05-2.07354E-17
 -1      1338 1.08419E-04 4.41857E-05-2.33781E-17
 -1      1339 2.19193E-04 8.37538E-05-6.36020E-17
 -1      1340 1.16923E-04 6.76343E-05-1.09233E-17
 -1      1341 1.12175E-04 5.77933E-05-1.56125E-17
 -1      1342 2.26293E-04 1.09484E-04-4.89382E-17
 -1      1343 1.57562E-04 1.09867E-04 4.52654E-18
 -1      1344 1.35644E-04 8.61034E-05-5.32614E-18
 -1      1345 2.56005E-04 1.52122E-04-3.16452E-17
 -1      1346 3.35045E-04 2.20757E-04-6.30193E-18
 -1      1347 4.21486E-04-2.61766E-04-2.30935E-17
 -1      1348 5.74556E-04-3.36837E-04-5.75440E-17
 -1      1349 7.21714E-04-3.97447E-04-1.16457E-16
 -1      1350 8.64849E-04-4.46747E-04-1.97935E-16
 -1      1351 6.11981E-04-3.30943E-04-1.13584E-16
 -1      1352 1.00484E-03-4.87818E-04-3.01693E-16
 -1      1353 1.14264E-03-5.21799E-04-4.28301E-16
 -1      1354 9.05156E-04-4.31650E-04-2.84725E-16
 -1      1355 1.27909E-03-5.50557E-04-5.77256E-16
 -1      1356 1.41469E-03-5.74570E-04-7.49035E-16
 -1      1357 1.18752E-03-5.01057E-04-5.44215E-16
 -1      1358 1.54988E-03-5.94901E-04-9.42863E-16
 -1      1359 1.68492E-03-6.11884E-04-1.15901E-15
 -1      1360 1.46437E-03-5.49783E-04-8.92488E-16
 -1      1361 1.82005E-03-6.26145E-04-1.39725E-15
 -1      1362 1.95537E-03-6.37975E-04-1.65719E-15
 -1      1363 1.73896E-03-5.84000E-04-1.32883E-15
 -1      1364 2.09102E-03-6.47773E-04-1.93895E-15
 -1      1365 2.22703E-03-6.55786E-04-2.24316E-15
 -1      1366 2.01317E-03-6.07676E-04-1.85255E-15
 -1      1367 2.36347E-03-6.62288E-04-2.56892E-15
 -1      1368 2.50033E-03-6.67478E-04-2.91500E-15
 -1      1369 2.28798E-03-6.23605E-04-2.46251E-15
 -1      1370 2.63765E-03-6.71550E-04-3.28352E-15
 -1      1371 2.77540E-03-6.74663E-04-3.67318E-15
 -1      1372 2.56387E-03-6.33836E-04-3.15793E-15
 -1      1373 2.91359E-03-6.76951E-04-4.08237E-15
 -1      1374 3.05220E-03-6.78539E-04-4.51154E-15
 -1      1375 2.84104E-03-6.39892E-04-3.93605E-15
 -1      1376 3.19121E-03-6.79519E-04-4.95952E-15
 -1      1377 3.33061E-03-6.79987E-04-5.42634E-15
 -1      1378 3.11954E-03-6.42896E-04-4.79343E-15
 -1      1379 3.47038E-03-6.80003E-04-5.91278E-15
 -1      1380 3.61049E-03-6.79637E-04-6.41635E-15
 -1      1381 3.39932E-03-6.43667E-04-5.72708E-15
 -1      1382 3.75094E-03-6.78926E-04-6.93854E-15
 -1      1383 3.89170E-03-6.77922E-04-7.48003E-15
 -1      1384 3.68030E-03-6.42781E-04-6.73531E-15
 -1      1385 4.03276E-03-6.76642E-04-8.03748E-15
 -1      1386 4.17412E-03-6.75124E-04-8.61220E-15
 -1      1387 3.96241E-03-6.40625E-04-7.81544E-15
 -1      1388 4.31578E-03-6.73372E-04-9.20504E-15
 -1      1389 4.45772E-03-6.71414E-04-9.81447E-15
 -1      1390 4.24558E-03-6.37447E-04-8.96555E-15
 -1      1391 4.59996E-03-6.69246E-04-1.04411E-14
 -1      1392 4.74250E-03-6.66889E-04-1.10859E-14
 -1      1393 4.52981E-03-6.33385E-04-1.01851E-14
 -1      1394 4.88536E-03-6.64334E-04-1.17476E-14
 -1      1395 5.02857E-03-6.61603E-04-1.24266E-14
 -1      1396 4.81516E-03-6.28515E-04-1.14734E-14
 -1      1397 5.17214E-03-6.58685E-04-1.31243E-14
 -1      1398 5.31611E-03-6.55608E-04-1.38395E-14
 -1      1399 5.10172E-03-6.22875E-04-1.28318E-14
 -1      1400 5.46053E-03-6.52367E-04-1.45721E-14
 -1      1401 5.60543E-03-6.48999E-04-1.53232E-14
 -1      1402 5.38972E-03-6.16512E-04-1.42612E-14
 -1      1403 5.75087E-03-6.45510E-04-1.60928E-14
 -1      1404 5.89691E-03-6.41958E-04-1.68812E-14
 -1      1405 5.67942E-03-6.09524E-04-1.57618E-14
 -1      1406 6.04363E-03-6.38367E-04-1.76884E-14
 -1      1407 6.19107E-03-6.34822E-04-1.85148E-14
 -1      1408 5.97120E-03-6.02113E-04-1.73369E-14
 -1      1409 6.33934E-03-6.31378E-04-1.93597E-14
 -1      1410 6.48849E-03-6.28153E-04-2.02212E-14
 -1      1411 6.26550E-03-5.94654E-04-1.89868E-14
 -1      1412 6.63861E-03-6.25251E-04-2.11017E-14
 -1      1413 6.78978E-03-6.22829E-04-2.20000E-14
 -1      1414 6.56284E-03-5.87773E-04-2.07096E-14
 -1      1415 6.94206E-03-6.21052E-04-2.29154E-14
 -1      1416 7.09552E-03-6.20123E-04-2.38489E-14
 -1      1417 6.86374E-03-5.82434E-04-2.25036E-14
 -1      1418 7.25021E-03-6.20286E-04-2.47986E-14
 -1      1419 7.40614E-03-6.21784E-04-2.57618E-14
 -1      1420 7.16866E-03-5.80039E-04-2.43659E-14
 -1      1421 7.56332E-03-6.24945E-04-2.67409E-14
 -1      1422 7.72170E-03-6.30041E-04-2.77342E-14
 -1      1423 7.47790E-03-5.82485E-04-2.62910E-14
 -1      1424 7.88120E-03-6.37469E-04-2.87425E-14
 -1      1425 8.04169E-03-6.47488E-04-2.97640E-14
 -1      1426 7.79146E-03-5.92166E-04-2.82748E-14
 -1      1427 8.20295E-03-6.60517E-04-3.07981E-14
 -1      1428 8.36473E-03-6.76729E-04-3.18493E-14
 -1      1429 8.10882E-03-6.11812E-04-3.03132E-14
 -1      1430 8.52668E-03-6.96450E-04-3.29103E-14
 -1      1431 8.68839E-03-7.19653E-04-3.39808E-14
 -1      1432 8.42877E-03-6.44056E-04-3.24046E-14
 -1      1433 8.84938E-03-7.46389E-04-3.50646E-14
 -1      1434 9.00914E-03-7.76284E-04-3.61597E-14
 -1      1435 8.74925E-03-6.90598E-04-3.45447E-14
 -1      1436 9.16712E-03-8.08886E-04-3.72673E-14
 -1      1437 9.32277E-03-8.43335E-04-3.83887E-14
 -1      1438 9.06735E-03-7.50923E-04-3.67321E-14
 -1      1439 9.47562E-03-8.78503E-04-3.95244E-14
 -1      1440 9.62529E-03-9.13017E-04-4.06737E-14
 -1      1441 9.37970E-03-8.20773E-04-3.89689E-14
 -1      1442 9.77156E-03-9.45116E-04-4.18371E-14
 -1      1443 9.91441E-03-9.73098E-04-4.30125E-14
 -1      1444 9.68320E-03-8.91062E-04-4.12627E-14
 -1      1445 1.00540E-02-9.94966E-04-4.42008E-14
 -1      1446 1.01909E-02-1.00916E-03-4.53995E-14
 -1      1447 9.97629E-03-9.48335E-04-4.36093E-14
 -1      1448 1.03257E-02-1.01412E-03-4.66080E-14
 -1      1449 1.04594E-02-1.00898E-03-4.78257E-14
 -1      1450 1.02601E-02-9.77687E-04-4.59980E-14
 -1      1451 1.05927E-02-9.93306E-04-4.90534E-14
 -1      1452 1.07268E-02-9.67269E-04-5.02891E-14
 -1      1453 1.05387E-02-9.67716E-04-4.84279E-14
 -1      1454 1.08625E-02-9.31742E-04-5.15342E-14
 -1      1455 1.10006E-02-8.87877E-04-5.27890E-14
 -1      1456 1.08179E-02-9.15176E-04-5.08948E-14
 -1      1457 1.11415E-02-8.37457E-04-5.40496E-14
 -1      1458 1.12856E-02-7.82136E-04-5.53179E-14
 -1      1459 1.11034E-02-8.26413E-04-5.33956E-14
 -1      1460 1.14330E-02-7.23891E-04-5.65976E-14
 -1      1461 1.15833E-02-6.64317E-04-5.78867E-14
 -1      1462 1.13982E-02-7.14548E-04-5.59318E-14
 -1      1463 1.17363E-02-6.04966E-04-5.91848E-14
 -1      1464 1.18914E-02-5.46999E-04-6.04903E-14
 -1      1465 1.17022E-02-5.94349E-04-5.85042E-14
 -1      1466 1.20482E-02-4.91267E-04-6.18070E-14
 -1      1467 1.22060E-02-4.38390E-04-6.31334E-14
 -1      1468 1.20131E-02-4.77746E-04-6.11161E-14
 -1      1469 1.23644E-02-3.88565E-04-6.44674E-14
 -1      1470 1.25227E-02-3.41947E-04-6.58096E-14
 -1      1471 1.23274E-02-3.71761E-04-6.37610E-14
 -1      1472 1.26806E-02-2.98279E-04-6.71584E-14
 -1      1473 1.28376E-02-2.57402E-04-6.85131E-14
 -1      1474 1.26417E-02-2.78684E-04-6.64371E-14
 -1      1475 1.29935E-02-2.18817E-04-6.98753E-14
 -1      1476 1.31480E-02-1.82186E-04-7.12444E-14
 -1      1477 1.29532E-02-1.97374E-04-6.91412E-14
 -1      1478 1.33010E-02-1.46928E-04-7.26186E-14
 -1      1479 1.34524E-02-1.12628E-04-7.39919E-14
 -1      1480 1.32603E-02-1.24728E-04-7.18725E-14
 -1      1481 1.36023E-02-7.87178E-05-7.53721E-14
 -1      1482 1.37506E-02-4.47782E-05-7.67583E-14
 -1      1483 1.35620E-02-5.68055E-05-7.46237E-14
 -1      1484 1.38975E-02-1.03233E-05-7.81481E-14
 -1      1485 1.40431E-02 2.50119E-05-7.95414E-14
 -1      1486 1.38583E-02 1.04196E-05-7.73900E-14
 -1      1487 1.41877E-02 6.15262E-05-8.09457E-14
 -1      1488 1.43315E-02 9.94129E-05-8.23585E-14
 -1      1489 1.41499E-02 8.05046E-05-8.01827E-14
 -1      1490 1.45430E-02 1.60652E-04-8.44121E-14
 -1      1491 1.45064E-02 1.77718E-04-8.36402E-14
 -1      1492 6.42985E-04 3.72054E-04-6.74103E-17
 -1      1493 4.92887E-04 3.03722E-04-2.56278E-17
 -1      1494 4.44820E-04 2.65931E-04-4.45336E-17
 -1      1495 9.28504E-04 4.72025E-04-2.18263E-16
 -1      1496 7.87676E-04 4.26533E-04-1.31744E-16
 -1      1497 7.44627E-04 3.90769E-04-1.54607E-16
 -1      1498 1.20331E-03 5.41431E-04-4.57208E-16
 -1      1499 1.06669E-03 5.09762E-04-3.26657E-16
 -1      1500 1.03061E-03 4.76209E-04-3.52352E-16
 -1      1501 1.47376E-03 5.90582E-04-7.82265E-16
 -1      1502 1.33876E-03 5.68151E-04-6.09051E-16
 -1      1503 1.30844E-03 5.36007E-04-6.36074E-16
 -1      1504 1.74317E-03 6.25392E-04-1.19293E-15
 -1      1505 1.60843E-03 6.09539E-04-9.76798E-16
 -1      1506 1.58258E-03 5.78234E-04-1.00464E-15
 -1      1507 2.01325E-03 6.49713E-04-1.68943E-15
 -1      1508 1.87804E-03 6.38692E-04-1.43037E-15
 -1      1509 1.85564E-03 6.07854E-04-1.45818E-15
 -1      1510 2.28478E-03 6.66276E-04-2.27017E-15
 -1      1511 2.14879E-03 6.58834E-04-1.96951E-15
 -1      1512 2.12903E-03 6.28236E-04-1.99675E-15
 -1      1513 2.55809E-03 6.77098E-04-2.93500E-15
 -1      1514 2.42120E-03 6.72305E-04-2.59189E-15
 -1      1515 2.40346E-03 6.41806E-04-2.61916E-15
 -1      1516 2.83326E-03 6.83689E-04-3.68646E-15
 -1      1517 2.69544E-03 6.80847E-04-3.29989E-15
 -1      1518 2.67925E-03 6.50365E-04-3.32502E-15
 -1      1519 3.11019E-03 6.87173E-04-4.52172E-15
 -1      1520 2.97151E-03 6.85764E-04-4.09396E-15
 -1      1521 2.95648E-03 6.55250E-04-4.11607E-15
 -1      1522 3.38875E-03 6.88368E-04-5.43585E-15
 -1      1523 3.24927E-03 6.88016E-04-4.96933E-15
 -1      1524 3.23513E-03 6.57444E-04-4.98821E-15
 -1      1525 3.66877E-03 6.87855E-04-6.42655E-15
 -1      1526 3.52858E-03 6.88297E-04-5.92165E-15
 -1      1527 3.51511E-03 6.57655E-04-5.93769E-15
 -1      1528 3.95011E-03 6.86025E-04-7.49285E-15
 -1      1529 3.80928E-03 6.87085E-04-6.95003E-15
 -1      1530 3.79632E-03 6.56370E-04-6.96321E-15
 -1      1531 4.23267E-03 6.83122E-04-8.63330E-15
 -1      1532 4.09124E-03 6.84695E-04-8.05408E-15
 -1      1533 4.07867E-03 6.53904E-04-8.06346E-15
 -1      1534 4.51641E-03 6.79281E-04-9.84809E-15
 -1      1535 4.37439E-03 6.81311E-04-9.23167E-15
 -1      1536 4.36213E-03 6.50443E-04-9.23792E-15
 -1      1537 4.80136E-03 6.74556E-04-1.11301E-14
 -1      1538 4.65873E-03 6.77023E-04-1.04808E-14
 -1      1539 4.64670E-03 6.46071E-04-1.04823E-14
 -1      1540 5.08768E-03 6.68955E-04-1.24814E-14
 -1      1541 4.94434E-03 6.71859E-04-1.17972E-14
 -1      1542 4.93247E-03 6.40808E-04-1.17952E-14
 -1      1543 5.37562E-03 6.62470E-04-1.38951E-14
 -1      1544 5.23143E-03 6.65813E-04-1.31806E-14
 -1      1545 5.21964E-03 6.34638E-04-1.31741E-14
 -1      1546 5.66559E-03 6.55118E-04-1.53732E-14
 -1      1547 5.52033E-03 6.58885E-04-1.46259E-14
 -1      1548 5.50851E-03 6.27545E-04-1.46171E-14
 -1      1549 5.95818E-03 6.46990E-04-1.69141E-14
 -1      1550 5.81152E-03 6.51122E-04-1.61352E-14
 -1      1551 5.79952E-03 6.19554E-04-1.61242E-14
 -1      1552 6.25415E-03 6.38320E-04-1.85229E-14
 -1      1553 6.10569E-03 6.42675E-04-1.77106E-14
 -1      1554 6.09326E-03 6.10792E-04-1.76977E-14
 -1      1555 6.55454E-03 6.29578E-04-2.01929E-14
 -1      1556 6.40373E-03 6.33883E-04-1.93496E-14
 -1      1557 6.39051E-03 6.01562E-04-1.93340E-14
 -1      1558 6.86060E-03 6.21614E-04-2.19300E-14
 -1      1559 6.70678E-03 6.25386E-04-2.10542E-14
 -1      1560 6.69226E-03 5.92463E-04-2.10346E-14
 -1      1561 7.17385E-03 6.15845E-04-2.37290E-14
 -1      1562 7.01622E-03 6.18289E-04-2.28216E-14
 -1      1563 6.99969E-03 5.84548E-04-2.27975E-14
 -1      1564 7.49596E-03 6.14529E-04-2.55838E-14
 -1      1565 7.33368E-03 6.14397E-04-2.46489E-14
 -1      1566 7.31414E-03 5.79559E-04-2.46213E-14
 -1      1567 7.82863E-03 6.21107E-04-2.74930E-14
 -1      1568 7.66087E-03 6.16517E-04-2.65325E-14
 -1      1569 7.63704E-03 5.80242E-04-2.65015E-14
 -1      1570 8.17315E-03 6.40575E-04-2.94479E-14
 -1      1571 7.99933E-03 6.28836E-04-2.84648E-14
 -1      1572 7.96967E-03 5.90728E-04-2.84315E-14
 -1      1573 8.52981E-03 6.79705E-04-3.14518E-14
 -1      1574 8.34997E-03 6.57245E-04-3.04433E-14
 -1      1575 8.31284E-03 6.16892E-04-3.04089E-14
 -1      1576 8.89695E-03 7.46674E-04-3.35027E-14
 -1      1577 8.71225E-03 7.09333E-04-3.24714E-14
 -1      1578 8.66629E-03 6.66415E-04-3.24349E-14
 -1      1579 9.26977E-03 8.49260E-04-3.55889E-14
 -1      1580 9.08309E-03 7.93422E-04-3.45420E-14
 -1      1581 9.02799E-03 7.47921E-04-3.45031E-14
 -1      1582 9.63969E-03 9.90565E-04-3.77060E-14
 -1      1583 9.45582E-03 9.15608E-04-3.66442E-14
 -1      1584 9.39330E-03 8.68174E-04-3.66057E-14
 -1      1585 9.99516E-03 1.16218E-03-3.98474E-14
 -1      1586 9.82008E-03 1.07408E-03-3.87731E-14
 -1      1587 9.75470E-03 1.02642E-03-3.87370E-14
 -1      1588 1.03256E-02 1.33803E-03-4.20242E-14
 -1      1589 1.01640E-02 1.25201E-03-4.09313E-14
 -1      1590 1.01030E-02 1.20688E-03-4.08974E-14
 -1      1591 1.06281E-02 1.47676E-03-4.42347E-14
 -1      1592 1.04800E-02 1.41457E-03-4.31247E-14
 -1      1593 1.04313E-02 1.37473E-03-4.30934E-14
 -1      1594 1.09126E-02 1.53861E-03-4.64820E-14
 -1      1595 1.07714E-02 1.51846E-03-4.53545E-14
 -1      1596 1.07405E-02 1.48476E-03-4.53246E-14
 -1      1597 1.11992E-02 1.50964E-03-4.87713E-14
 -1      1598 1.10542E-02 1.53441E-03-4.76207E-14
 -1      1599 1.10425E-02 1.50477E-03-4.75953E-14
 -1      1600 1.15061E-02 1.41136E-03-5.11222E-14
 -1      1601 1.13493E-02 1.46653E-03-4.99396E-14
 -1      1602 1.13531E-02 1.43737E-03-4.99147E-14
 -1      1603 1.18403E-02 1.28570E-03-5.35114E-14
 -1      1604 1.16699E-02 1.34926E-03-5.23127E-14
 -1      1605 1.16826E-02 1.31791E-03-5.22817E-14
 -1      1606 1.21964E-02 1.17143E-03-5.59367E-14
 -1      1607 1.20163E-02 1.22553E-03-5.47200E-14
 -1      1608 1.20305E-02 1.19122E-03-5.46910E-14
 -1      1609 1.25630E-02 1.09010E-03-5.84079E-14
 -1      1610 1.23792E-02 1.12622E-03-5.71651E-14
 -1      1611 1.23891E-02 1.08954E-03-5.71392E-14
 -1      1612 1.29288E-02 1.04637E-03-6.09090E-14
 -1      1613 1.27466E-02 1.06383E-03-5.96559E-14
 -1      1614 1.27492E-02 1.02585E-03-5.96279E-14
 -1      1615 1.32857E-02 1.03503E-03-6.34443E-14
 -1      1616 1.31087E-02 1.03723E-03-6.21726E-14
 -1      1617 1.31035E-02 9.98922E-04-6.21499E-14
 -1      1618 1.36297E-02 1.04719E-03-6.59974E-14
 -1      1619 1.34595E-02 1.03876E-03-6.47186E-14
 -1      1620 1.34476E-02 1.00085E-03-6.46962E-14
 -1      1621 1.39594E-02 1.07392E-03-6.85792E-14
 -1      1622 1.37964E-02 1.05924E-03-6.72861E-14
 -1      1623 1.37797E-02 1.02218E-03-6.72680E-14
 -1      1624 1.42756E-02 1.10755E-03-7.11926E-14
 -1      1625 1.41191E-02 1.09028E-03-6.98809E-14
 -1      1626 1.40997E-02 1.05433E-03-6.98657E-14
 -1      1627 1.45800E-02 1.14183E-03-7.38519E-14
 -1      1628 1.44291E-02 1.12492E-03-7.25147E-14
 -1      1629 1.44086E-02 1.09017E-03-7.25041E-14
 -1      1630 1.48750E-02 1.17188E-03-7.65680E-14
 -1      1631 1.47285E-02 1.15760E-03-7.52019E-14
 -1      1632 1.47081E-02 1.12405E-03-7.51907E-14
 -1      1633 1.51638E-02 1.19464E-03-7.93255E-14
 -1      1634 1.50200E-02 1.18421E-03-7.79420E-14
 -1      1635 1.50005E-02 1.15173E-03-7.79278E-14
 -1      1636 1.53109E-02 1.19285E-03-8.08152E-14
 -1      1637 1.53081E-02 1.09019E-03-8.13034E-14
 -1      1638 1.53127E-02 1.13090E-03-8.11549E-14
 -1      1639 1.53040E-02 1.01271E-03-8.15865E-14
 -1      1640 1.53053E-02 1.05069E-03-8.14503E-14
 -1      1641 1.51833E-02 1.06351E-03-8.01688E-14
 -1      1642 1.53035E-02 9.42135E-04-8.18583E-14
 -1      1643 1.53036E-02 9.76473E-04-8.17226E-14
 -1      1644 1.51814E-02 9.87848E-04-8.04535E-14
 -1      1645 1.53014E-02 8.79311E-04-8.21202E-14
 -1      1646 1.53030E-02 9.09751E-04-8.19913E-14
 -1      1647 1.51821E-02 9.18540E-04-8.07264E-14
 -1      1648 1.52927E-02 8.24654E-04-8.23801E-14
 -1      1649 1.52981E-02 8.51174E-04-8.22503E-14
 -1      1650 1.51798E-02 8.56330E-04-8.09935E-14
 -1      1651 1.52726E-02 7.74685E-04-8.26409E-14
 -1      1652 1.52843E-02 7.99091E-04-8.25093E-14
 -1      1653 1.51695E-02 7.99880E-04-8.12533E-14
 -1      1654 1.52385E-02 7.27990E-04-8.28922E-14
 -1      1655 1.52575E-02 7.51093E-04-8.27671E-14
 -1      1656 1.51466E-02 7.47216E-04-8.15054E-14
 -1      1657 1.51893E-02 6.81784E-04-8.31366E-14
 -1      1658 1.52158E-02 7.04997E-04-8.30173E-14
 -1      1659 1.51089E-02 6.96682E-04-8.17501E-14
 -1      1660 1.51257E-02 6.33363E-04-8.33629E-14
 -1      1661 1.51592E-02 6.58001E-04-8.32523E-14
 -1      1662 1.50557E-02 6.45907E-04-8.19836E-14
 -1      1663 1.50500E-02 5.80487E-04-8.35659E-14
 -1      1664 1.50892E-02 6.07593E-04-8.34670E-14
 -1      1665 1.49883E-02 5.92676E-04-8.21985E-14
 -1      1666 1.49669E-02 5.22687E-04-8.37563E-14
 -1      1667 1.50093E-02 5.52367E-04-8.36628E-14
 -1      1668 1.49100E-02 5.35747E-04-8.23972E-14
 -1      1669 1.48775E-02 4.57291E-04-8.39415E-14
 -1      1670 1.49226E-02 4.90831E-04-8.38516E-14
 -1      1671 1.48238E-02 4.73607E-04-8.25842E-14
 -1      1672 1.47868E-02 3.85375E-04-8.41159E-14
 -1      1673 1.48321E-02 4.22110E-04-8.40315E-14
 -1      1674 1.47328E-02 4.05253E-04-8.27631E-14
 -1      1675 1.46982E-02 3.07840E-04-8.42806E-14
 -1      1676 1.47420E-02 3.47222E-04-8.41994E-14
 -1      1677 1.46415E-02 3.31437E-04-8.29304E-14
 -1      1678 1.45806E-02 2.22637E-04-8.39995E-14
 -1      1679 1.46223E-02 2.63668E-04-8.39256E-14
 -1      1680 1.45202E-02 2.49518E-04-8.26570E-14
 -1      1681 1.43688E-02 1.61843E-04-8.19475E-14
 -1      1682 1.29652E-02 4.22236E-04-5.32660E-14
 -1      1683 1.29904E-02 3.76551E-04-5.33820E-14
 -1      1684 1.28212E-02 5.36151E-04-5.27848E-14
 -1      1685 1.29012E-02 4.83920E-04-5.30015E-14
 -1      1686 1.25450E-02 6.68393E-04-5.21963E-14
 -1      1687 1.26864E-02 5.97102E-04-5.25418E-14
 -1      1688 1.22194E-02 8.44638E-04-5.12712E-14
 -1      1689 1.23766E-02 7.68611E-04-5.16719E-14
 -1      1690 1.18507E-02 1.01355E-03-5.02750E-14
 -1      1691 1.20250E-02 9.35302E-04-5.07537E-14
 -1      1692 1.14471E-02 1.16854E-03-4.90931E-14
 -1      1693 1.16378E-02 1.10064E-03-4.96612E-14
 -1      1694 1.10444E-02 1.26235E-03-4.78527E-14
 -1      1695 1.12252E-02 1.22927E-03-4.84268E-14
 -1      1696 1.06330E-02 1.26577E-03-4.65215E-14
 -1      1697 1.08226E-02 1.27945E-03-4.71399E-14
 -1      1698 1.02128E-02 1.15846E-03-4.52013E-14
 -1      1699 1.04050E-02 1.22067E-03-4.57847E-14
 -1      1700 9.78736E-03 9.85297E-04-4.41181E-14
 -1      1701 9.97266E-03 1.06906E-03-4.45995E-14
 -1      1702 9.38713E-03 7.94854E-04-4.32058E-14
 -1      1703 9.56662E-03 8.84799E-04-4.36121E-14
 -1      1704 9.02868E-03 6.11749E-04-4.24629E-14
 -1      1705 9.18818E-03 6.93810E-04-4.27806E-14
 -1      1706 8.72594E-03 4.41274E-04-4.18441E-14
 -1      1707 8.86069E-03 5.11931E-04-4.20817E-14
 -1      1708 8.52307E-03 3.26186E-04-4.15797E-14
 -1      1709 8.59940E-03 3.77977E-04-4.16938E-14
 -1      1710 8.44214E-03 2.21868E-04-4.14296E-14
 -1      1711 8.46363E-03 2.65648E-04-4.14446E-14
 -1      1712 8.49731E-03 1.25047E-04-4.16160E-14
 -1      1713 8.45515E-03 1.69789E-04-4.15113E-14
 -1      1714 8.67561E-03 1.50926E-05-4.20213E-14
 -1      1715 8.57963E-03 6.78243E-05-4.18066E-14
 -1      1716 8.97478E-03-1.14481E-04-4.26110E-14
 -1      1717 8.82667E-03-4.52226E-05-4.22726E-14
 -1      1718 9.32419E-03-2.90430E-04-4.35659E-14
 -1      1719 9.15438E-03-2.13778E-04-4.31398E-14
 -1      1720 9.68903E-03-4.47502E-04-4.45866E-14
 -1      1721 9.51940E-03-3.78693E-04-4.41140E-14
 -1      1722 1.00969E-02-5.78784E-04-4.57354E-14
 -1      1723 9.91633E-03-5.21158E-04-4.51591E-14
 -1      1724 1.04967E-02-6.49735E-04-4.70884E-14
 -1      1725 1.03161E-02-6.27730E-04-4.64679E-14
 -1      1726 1.08749E-02-6.22448E-04-4.83523E-14
 -1      1727 1.07051E-02-6.41772E-04-4.77949E-14
 -1      1728 1.12727E-02-5.19116E-04-4.96432E-14
 -1      1729 1.10822E-02-5.79314E-04-4.90498E-14
 -1      1730 1.16901E-02-3.40708E-04-5.09058E-14
 -1      1731 1.14947E-02-4.28597E-04-5.03625E-14
 -1      1732 1.20832E-02-1.76005E-04-5.17478E-14
 -1      1733 1.19234E-02-2.52085E-04-5.13719E-14
 -1      1734 1.24032E-02-2.12496E-05-5.24370E-14
 -1      1735 1.22602E-02-9.07323E-05-5.21412E-14
 -1      1736 1.26740E-02 1.13520E-04-5.29463E-14
 -1      1737 1.25557E-02 5.40635E-05-5.27350E-14
 -1      1738 1.28693E-02 2.15848E-04-5.31978E-14
 -1      1739 1.27831E-02 1.63448E-04-5.30715E-14
 -1      1740 1.27057E-02 1.87873E-04-5.34269E-14
 -1      1741 1.29810E-02 3.25430E-04-5.34075E-14
 -1      1742 1.29471E-02 2.84704E-04-5.33903E-14
 -1      1743 1.20644E-02 8.52079E-04-5.12864E-14
 -1      1744 1.24247E-02 6.63415E-04-5.23354E-14
 -1      1745 1.52923E-02 1.16100E-03-8.07978E-14
 -1      1746 1.51651E-02 1.13276E-03-7.96663E-14
 -1      1747 1.29377E-02 4.24995E-04-5.36225E-14
 -1      1748 1.27338E-02 5.21662E-04-5.31126E-14
 -1      1749 1.29961E-02 3.58221E-04-5.39126E-14
 -1      1750 1.16818E-02 1.04389E-03-5.01499E-14
 -1      1751 1.12931E-02 1.20959E-03-4.88679E-14
 -1      1752 1.09174E-02 1.29839E-03-4.74890E-14
 -1      1753 1.05493E-02 1.26749E-03-4.60424E-14
 -1      1754 1.01620E-02 1.11628E-03-4.47122E-14
 -1      1755 9.74796E-03 9.08048E-04-4.36112E-14
 -1      1756 9.34845E-03 6.95066E-04-4.26867E-14
 -1      1757 8.98155E-03 4.99524E-04-4.18851E-14
 -1      1758 8.67957E-03 3.59364E-04-4.13584E-14
 -1      1759 8.48801E-03 2.65129E-04-4.10744E-14
 -1      1760 8.43872E-03 1.99430E-04-4.10211E-14
 -1      1761 8.53867E-03 1.28843E-04-4.12904E-14
 -1      1762 8.77596E-03 3.34511E-05-4.17259E-14
 -1      1763 9.10828E-03-1.12554E-04-4.24971E-14
 -1      1764 9.47705E-03-3.01388E-04-4.35675E-14
 -1      1765 9.86804E-03-4.77928E-04-4.46835E-14
 -1      1766 1.02433E-02-6.20522E-04-4.59845E-14
 -1      1767 1.05913E-02-6.73048E-04-4.74219E-14
 -1      1768 1.09502E-02-6.19043E-04-4.88282E-14
 -1      1769 1.13223E-02-4.69672E-04-5.02508E-14
 -1      1770 1.17244E-02-2.67294E-04-5.14426E-14
 -1      1771 1.21132E-02-8.19566E-05-5.23066E-14
 -1      1772 1.24407E-02 7.58062E-05-5.30020E-14
 -1      1773 2.85202E-04-1.76254E-04-2.40422E-17
 -1      1774 1.29064E-02 2.82841E-04-5.37443E-14
 -1      1775 3.32178E-04-1.16827E-04-1.04151E-16
 -1      1776 3.36306E-04-1.33071E-04-9.59248E-17
 -1      1777 3.42176E-04-1.52057E-04-8.62889E-17
 -1      1778 3.51719E-04-1.74054E-04-7.32243E-17
 -1      1779 4.58295E-04-1.88136E-04-1.39144E-16
 -1      1780 3.24592E-04-6.54230E-05-1.22284E-16
 -1      1781 3.25721E-04-7.67264E-05-1.19181E-16
 -1      1782 3.23112E-04-4.39205E-05-1.26675E-16
 -1      1783 3.23759E-04-5.44158E-05-1.24710E-16
 -1      1784 4.36553E-04-7.93306E-05-1.82783E-16
 -1      1785 3.22339E-04-2.37899E-05-1.29142E-16
 -1      1786 3.22666E-04-3.37101E-05-1.27977E-16
 -1      1787 4.34572E-04-5.13495E-05-1.88055E-16
 -1      1788 3.22051E-04-4.34071E-06-1.30158E-16
 -1      1789 3.22146E-04-1.40006E-05-1.29765E-16
 -1      1790 4.33566E-04-2.49408E-05-1.90806E-16
 -1      1791 3.22171E-04 1.49924E-05-1.29779E-16
 -1      1792 3.22059E-04 5.32243E-06-1.30240E-16
 -1      1793 4.33273E-04 7.57592E-07-1.91755E-16
 -1      1794 3.22728E-04 3.47557E-05-1.27963E-16
 -1      1795 3.22382E-04 2.48028E-05-1.29088E-16
 -1      1796 4.33624E-04 2.64850E-05-1.90725E-16
 -1      1797 3.23843E-04 5.52048E-05-1.24182E-16
 -1      1798 3.23188E-04 4.48367E-05-1.26228E-16
 -1      1799 4.34686E-04 5.27563E-05-1.87309E-16
 -1      1800 3.25880E-04 7.78643E-05-1.18259E-16
 -1      1801 3.24693E-04 6.62798E-05-1.21729E-16
 -1      1802 4.36719E-04 8.06486E-05-1.81428E-16
 -1      1803 3.29545E-04 1.03706E-04-1.08800E-16
 -1      1804 3.27409E-04 9.03544E-05-1.14194E-16
 -1      1805 4.40339E-04 1.11626E-04-1.72307E-16
 -1      1806 3.36555E-04 1.35161E-04-9.38241E-17
 -1      1807 3.32385E-04 1.18665E-04-1.02349E-16
 -1      1808 4.46775E-04 1.47398E-04-1.57779E-16
 -1      1809 3.52258E-04 1.77646E-04-7.03241E-17
 -1      1810 3.42774E-04 1.54806E-04-8.35784E-17
 -1      1811 4.59276E-04 1.91515E-04-1.35498E-16
 -1      1812 4.07641E-04 2.33722E-04-5.46980E-17
 -1      1813 3.78039E-04 2.02702E-04-6.52283E-17
 -1      1814 4.95791E-04 2.44047E-04-1.15508E-16
 -1      1815 5.58465E-04 3.02549E-04-9.98144E-17
 -1      1816 3.39975E-04-1.90943E-04-4.92092E-17
 -1      1817 8.53433E-04 4.07168E-04-2.56021E-16
 -1      1818 7.07056E-04 3.59426E-04-1.67333E-16
 -1      1819 6.73304E-04 3.28863E-04-1.77416E-16
 -1      1820 1.29372E-02 3.22500E-04-5.43602E-14
 -1      1821 1.28519E-02 2.88490E-04-5.41675E-14
 -1      1822 4.58892E-04-2.36763E-04-9.40139E-17
 -1      1823 8.07112E-04-3.74169E-04-2.64274E-16
 -1      1824 9.52352E-04-4.15351E-04-3.75703E-16
 -1      1825 1.09516E-03-4.50030E-04-5.08586E-16
 -1      1826 1.23680E-03-4.78906E-04-6.63654E-16
 -1      1827 1.00379E-03-3.97972E-04-4.70896E-16
 -1      1828 1.37717E-03-5.03362E-04-8.40379E-16
 -1      1829 1.51683E-03-5.23697E-04-1.03898E-15
 -1      1830 1.28943E-03-4.55896E-04-7.86385E-16
 -1      1831 1.65596E-03-5.40828E-04-1.25938E-15
 -1      1832 1.79476E-03-5.54992E-04-1.50121E-15
 -1      1833 1.57179E-03-4.96768E-04-1.18819E-15
 -1      1834 1.93345E-03-5.66793E-04-1.76459E-15
 -1      1835 2.07206E-03-5.76434E-04-2.04956E-15
 -1      1836 1.85235E-03-5.25191E-04-1.67585E-15
 -1      1837 2.21077E-03-5.84329E-04-2.35605E-15
 -1      1838 2.34957E-03-5.90646E-04-2.68358E-15
 -1      1839 2.13220E-03-5.44482E-04-2.24883E-15
 -1      1840 2.48858E-03-5.95678E-04-3.03193E-15
 -1      1841 2.62776E-03-5.99561E-04-3.40107E-15
 -1      1842 2.41201E-03-5.57074E-04-2.90569E-15
 -1      1843 2.76720E-03-6.02502E-04-3.79032E-15
 -1      1844 2.90685E-03-6.04610E-04-4.19954E-15
 -1      1845 2.69220E-03-5.64769E-04-3.64478E-15
 -1      1846 3.04677E-03-6.06030E-04-4.62853E-15
 -1      1847 3.18692E-03-6.06845E-04-5.07586E-15
 -1      1848 2.97299E-03-5.68901E-04-4.46362E-15
 -1      1849 3.32733E-03-6.07154E-04-5.54225E-15
 -1      1850 3.46798E-03-6.07021E-04-6.02822E-15
 -1      1851 3.25448E-03-5.70444E-04-5.35878E-15
 -1      1852 3.60888E-03-6.06508E-04-6.53262E-15
 -1      1853 3.75000E-03-6.05663E-04-7.05465E-15
 -1      1854 3.53671E-03-5.70091E-04-6.32969E-15
 -1      1855 3.89137E-03-6.04522E-04-7.59409E-15
 -1      1856 4.03295E-03-6.03118E-04-8.15203E-15
 -1      1857 3.81969E-03-5.68318E-04-7.37359E-15
 -1      1858 4.17477E-03-6.01469E-04-8.72742E-15
 -1      1859 4.31682E-03-5.99597E-04-9.31994E-15
 -1      1860 4.10340E-03-5.65429E-04-8.48917E-15
 -1      1861 4.45910E-03-5.97507E-04-9.92926E-15
 -1      1862 4.60162E-03-5.95214E-04-1.05556E-14
 -1      1863 4.38788E-03-5.61605E-04-9.67364E-15
 -1      1864 4.74439E-03-5.92715E-04-1.12007E-14
 -1      1865 4.88742E-03-5.90023E-04-1.18618E-14
 -1      1866 4.67315E-03-5.56934E-04-1.09281E-14
 -1      1867 5.03073E-03-5.87131E-04-1.25401E-14
 -1      1868 5.17436E-03-5.84053E-04-1.32364E-14
 -1      1869 4.95929E-03-5.51454E-04-1.22494E-14
 -1      1870 5.31830E-03-5.80784E-04-1.39512E-14
 -1      1871 5.46261E-03-5.77347E-04-1.46825E-14
 -1      1872 5.24643E-03-5.45184E-04-1.36412E-14
 -1      1873 5.60730E-03-5.73745E-04-1.54327E-14
 -1      1874 5.75245E-03-5.70012E-04-1.62013E-14
 -1      1875 5.53474E-03-5.38171E-04-1.51049E-14
 -1      1876 5.89805E-03-5.66171E-04-1.69880E-14
 -1      1877 6.04421E-03-5.62275E-04-1.77931E-14
 -1      1878 5.82447E-03-5.30532E-04-1.66396E-14
 -1      1879 6.19092E-03-5.58375E-04-1.86170E-14
 -1      1880 6.33829E-03-5.54551E-04-1.94598E-14
 -1      1881 6.11591E-03-5.22519E-04-1.82492E-14
 -1      1882 6.48632E-03-5.50899E-04-2.03198E-14
 -1      1883 6.63513E-03-5.47530E-04-2.11981E-14
 -1      1884 6.40941E-03-5.14594E-04-1.99312E-14
 -1      1885 6.78472E-03-5.44604E-04-2.20937E-14
 -1      1886 6.93520E-03-5.42271E-04-2.30061E-14
 -1      1887 6.70539E-03-5.07508E-04-2.16851E-14
 -1      1888 7.08657E-03-5.40766E-04-2.39358E-14
 -1      1889 7.23890E-03-5.40289E-04-2.48820E-14
 -1      1890 7.00428E-03-5.02405E-04-2.35086E-14
 -1      1891 7.39222E-03-5.41159E-04-2.58431E-14
 -1      1892 7.54653E-03-5.43623E-04-2.68171E-14
 -1      1893 7.30650E-03-5.00910E-04-2.53960E-14
 -1      1894 7.70188E-03-5.48079E-04-2.78082E-14
 -1      1895 7.85815E-03-5.54809E-04-2.88129E-14
 -1      1896 7.61243E-03-5.05180E-04-2.73440E-14
 -1      1897 8.01542E-03-5.64250E-04-2.98291E-14
 -1      1898 8.17340E-03-5.76682E-04-3.08592E-14
 -1      1899 7.92230E-03-5.17872E-04-2.93475E-14
 -1      1900 8.33225E-03-5.92491E-04-3.19024E-14
 -1      1901 8.49141E-03-6.11876E-04-3.29589E-14
 -1      1902 8.23611E-03-5.41907E-04-3.14037E-14
 -1      1903 8.65111E-03-6.35015E-04-3.40266E-14
 -1      1904 8.81056E-03-6.61887E-04-3.51047E-14
 -1      1905 8.55336E-03-5.79920E-04-3.35100E-14
 -1      1906 8.96999E-03-6.92250E-04-3.61978E-14
 -1      1907 9.12844E-03-7.25669E-04-3.73015E-14
 -1      1908 8.87284E-03-6.33231E-04-3.56650E-14
 -1      1909 9.28609E-03-7.61271E-04-3.84182E-14
 -1      1910 9.44204E-03-7.98019E-04-3.95485E-14
 -1      1911 9.19239E-03-7.00312E-04-3.78691E-14
 -1      1912 9.59632E-03-8.34327E-04-4.06909E-14
 -1      1913 9.74846E-03-8.68547E-04-4.18486E-14
 -1      1914 9.50891E-03-7.75016E-04-4.01237E-14
 -1      1915 9.89829E-03-8.98592E-04-4.30170E-14
 -1      1916 1.00461E-02-9.22517E-04-4.41985E-14
 -1      1917 9.81915E-03-8.45545E-04-4.24306E-14
 -1      1918 1.01917E-02-9.38320E-04-4.53921E-14
 -1      1919 1.03362E-02-9.44473E-04-4.65929E-14
 -1      1920 1.01213E-02-8.95680E-04-4.47861E-14
 -1      1921 1.04793E-02-9.39835E-04-4.78051E-14
 -1      1922 1.06227E-02-9.23944E-04-4.90266E-14
 -1      1923 1.04166E-02-9.09375E-04-4.71852E-14
 -1      1924 1.07661E-02-8.97059E-04-5.02566E-14
 -1      1925 1.09112E-02-8.60043E-04-5.14967E-14
 -1      1926 1.07098E-02-8.77326E-04-4.96229E-14
 -1      1927 1.10576E-02-8.14408E-04-5.27457E-14
 -1      1928 1.12062E-02-7.61908E-04-5.40023E-14
 -1      1929 1.10065E-02-8.01530E-04-5.20961E-14
 -1      1930 1.13568E-02-7.04650E-04-5.52674E-14
 -1      1931 1.15093E-02-6.44520E-04-5.65427E-14
 -1      1932 1.13103E-02-6.94250E-04-5.46072E-14
 -1      1933 1.16637E-02-5.83466E-04-5.78284E-14
 -1      1934 1.18193E-02-5.22913E-04-5.91220E-14
 -1      1935 1.16214E-02-5.72223E-04-5.71524E-14
 -1      1936 1.19761E-02-4.64177E-04-6.04249E-14
 -1      1937 1.21332E-02-4.08028E-04-6.17358E-14
 -1      1938 1.19370E-02-4.50339E-04-5.97364E-14
 -1      1939 1.22907E-02-3.55046E-04-6.30565E-14
 -1      1940 1.24478E-02-3.05445E-04-6.43863E-14
 -1      1941 1.22537E-02-3.38166E-04-6.23548E-14
 -1      1942 1.26047E-02-2.59210E-04-6.57215E-14
 -1      1943 1.27606E-02-2.16188E-04-6.70623E-14
 -1      1944 1.25688E-02-2.39657E-04-6.50071E-14
 -1      1945 1.29157E-02-1.75986E-04-6.84135E-14
 -1      1946 1.30696E-02-1.38267E-04-6.97698E-14
 -1      1947 1.28801E-02-1.54551E-04-6.76867E-14
 -1      1948 1.32225E-02-1.02452E-04-7.11308E-14
 -1      1949 1.33740E-02-6.81278E-05-7.24991E-14
 -1      1950 1.31869E-02-8.00873E-05-7.03955E-14
 -1      1951 1.35243E-02-3.46742E-05-7.38729E-14
 -1      1952 1.36733E-02-1.66419E-06-7.52521E-14
 -1      1953 1.34887E-02-1.23639E-05-7.31234E-14
 -1      1954 1.38211E-02 3.14696E-05-7.66371E-14
 -1      1955 1.39678E-02 6.51376E-05-7.80265E-14
 -1      1956 1.37857E-02 5.28002E-05-7.58831E-14
 -1      1957 1.40966E-02 9.44265E-05-7.92786E-14
 -1      1958 1.42415E-02 1.30226E-04-8.06804E-14
 -1      1959 1.43172E-02 1.74068E-04-8.10331E-14
 -1      1960 1.40615E-02 1.14112E-04-7.85187E-14
 -1      1961 1.13842E-03 4.80115E-04-4.97147E-16
 -1      1962 9.96684E-04 4.46875E-04-3.65810E-16
 -1      1963 9.64321E-04 4.17427E-04-3.76760E-16
 -1      1964 1.41746E-03 5.31549E-04-8.22855E-16
 -1      1965 1.27835E-03 5.08128E-04-6.49464E-16
 -1      1966 1.24874E-03 4.80000E-04-6.60130E-16
 -1      1967 1.69376E-03 5.67756E-04-1.23272E-15
 -1      1968 1.55577E-03 5.51312E-04-1.01720E-15
 -1      1969 1.52894E-03 5.24152E-04-1.02727E-15
 -1      1970 1.96923E-03 5.92900E-04-1.72742E-15
 -1      1971 1.83150E-03 5.81541E-04-1.46954E-15
 -1      1972 1.80711E-03 5.55023E-04-1.47835E-15
 -1      1973 2.24497E-03 6.09918E-04-2.30602E-15
 -1      1974 2.10702E-03 6.02301E-04-2.00602E-15
 -1      1975 2.08465E-03 5.76193E-04-2.01331E-15
 -1      1976 2.52153E-03 6.20963E-04-2.96756E-15
 -1      1977 2.38313E-03 6.16095E-04-2.62649E-15
 -1      1978 2.36239E-03 5.90240E-04-2.63132E-15
 -1      1979 2.79917E-03 6.27631E-04-3.71301E-15
 -1      1980 2.66021E-03 6.24776E-04-3.32954E-15
 -1      1981 2.64077E-03 5.99070E-04-3.33186E-15
 -1      1982 3.07800E-03 6.31104E-04-4.54077E-15
 -1      1983 2.93844E-03 6.29717E-04-4.11682E-15
 -1      1984 2.92003E-03 6.04091E-04-4.11501E-15
 -1      1985 3.35800E-03 6.32237E-04-5.44783E-15
 -1      1986 3.21786E-03 6.31927E-04-4.98493E-15
 -1      1987 3.20025E-03 6.06336E-04-4.97936E-15
 -1      1988 3.63911E-03 6.31636E-04-6.43218E-15
 -1      1989 3.49842E-03 6.32129E-04-5.93038E-15
 -1      1990 3.48143E-03 6.06547E-04-5.92141E-15
 -1      1991 3.92129E-03 6.29705E-04-7.49123E-15
 -1      1992 3.78007E-03 6.30821E-04-6.95209E-15
 -1      1993 3.76355E-03 6.05232E-04-6.93907E-15
 -1      1994 4.20448E-03 6.26694E-04-8.62442E-15
 -1      1995 4.06276E-03 6.28325E-04-8.04843E-15
 -1      1996 4.04659E-03 6.02720E-04-8.03130E-15
 -1      1997 4.48868E-03 6.22735E-04-9.82973E-15
 -1      1998 4.34645E-03 6.24828E-04-9.21842E-15
 -1      1999 4.33053E-03 5.99203E-04-9.19708E-15
 -1      2000 4.77395E-03 6.17874E-04-1.11044E-14
 -1      2001 4.63118E-03 6.20414E-04-1.04587E-14
 -1      2002 4.61541E-03 5.94764E-04-1.04330E-14
 -1      2003 5.06043E-03 6.12104E-04-1.24464E-14
 -1      2004 4.91703E-03 6.15100E-04-1.17671E-14
 -1      2005 4.90131E-03 5.89418E-04-1.17378E-14
 -1      2006 5.34832E-03 6.05394E-04-1.38531E-14
 -1      2007 5.20418E-03 6.08862E-04-1.31415E-14
 -1      2008 5.18839E-03 5.83135E-04-1.31074E-14
 -1      2009 5.63795E-03 5.97731E-04-1.53255E-14
 -1      2010 5.49289E-03 6.01672E-04-1.45811E-14
 -1      2011 5.47689E-03 5.75879E-04-1.45434E-14
 -1      2012 5.92979E-03 5.89164E-04-1.68621E-14
 -1      2013 5.78356E-03 5.93542E-04-1.60856E-14
 -1      2014 5.76713E-03 5.67647E-04-1.60447E-14
 -1      2015 6.22443E-03 5.79870E-04-1.84653E-14
 -1      2016 6.07671E-03 5.84575E-04-1.76555E-14
 -1      2017 6.05959E-03 5.58525E-04-1.76127E-14
 -1      2018 6.52263E-03 5.70251E-04-2.01294E-14
 -1      2019 6.37301E-03 5.75049E-04-1.92900E-14
 -1      2020 6.35482E-03 5.48763E-04-1.92427E-14
 -1      2021 6.82532E-03 5.61063E-04-2.18578E-14
 -1      2022 6.67333E-03 5.65521E-04-2.09862E-14
 -1      2023 6.65355E-03 5.38882E-04-2.09366E-14
 -1      2024 7.13360E-03 5.53610E-04-2.36472E-14
 -1      2025 6.97866E-03 5.56995E-04-2.27438E-14
 -1      2026 6.95663E-03 5.29835E-04-2.26900E-14
 -1      2027 7.44866E-03 5.50010E-04-2.54943E-14
 -1      2028 7.29017E-03 5.51145E-04-2.45633E-14
 -1      2029 7.26504E-03 5.23222E-04-2.45050E-14
 -1      2030 7.77174E-03 5.53550E-04-2.73972E-14
 -1      2031 7.60909E-03 5.50628E-04-2.64400E-14
 -1      2032 7.57986E-03 5.21599E-04-2.63768E-14
 -1      2033 8.10389E-03 5.69078E-04-2.93487E-14
 -1      2034 7.93659E-03 5.59466E-04-2.83678E-14
 -1      2035 7.90217E-03 5.28853E-04-2.83020E-14
 -1      2036 8.44572E-03 6.03311E-04-3.13486E-14
 -1      2037 8.27358E-03 5.83423E-04-3.03419E-14
 -1      2038 8.23302E-03 5.50595E-04-3.02751E-14
 -1      2039 8.79690E-03 6.64632E-04-3.33951E-14
 -1      2040 8.62028E-03 6.30125E-04-3.23668E-14
 -1      2041 8.57314E-03 5.94342E-04-3.22970E-14
 -1      2042 9.15562E-03 7.61654E-04-3.54788E-14
 -1      2043 8.97571E-03 7.08370E-04-3.44316E-14
 -1      2044 8.92269E-03 6.68996E-04-3.43607E-14
 -1      2045 9.51772E-03 8.99324E-04-3.75975E-14
 -1      2046 9.33696E-03 8.25606E-04-3.65343E-14
 -1      2047 9.28046E-03 7.82658E-04-3.64620E-14
 -1      2048 9.87626E-03 1.07195E-03-3.97426E-14
 -1      2049 9.69834E-03 9.82427E-04-3.86671E-14
 -1      2050 9.64262E-03 9.37439E-04-3.85948E-14
 -1      2051 1.02228E-02 1.25556E-03-4.19223E-14
 -1      2052 1.00517E-02 1.16475E-03-4.08284E-14
 -1      2053 1.00019E-02 1.12128E-03-4.07574E-14
 -1      2054 1.05517E-02 1.40734E-03-4.41375E-14
 -1      2055 1.03893E-02 1.33833E-03-4.30255E-14
 -1      2056 1.03491E-02 1.30085E-03-4.29563E-14
 -1      2057 1.08669E-02 1.48134E-03-4.63897E-14
 -1      2058 1.07096E-02 1.45565E-03-4.52585E-14
 -1      2059 1.06800E-02 1.42638E-03-4.51900E-14
 -1      2060 1.11819E-02 1.45781E-03-4.86818E-14
 -1      2061 1.10227E-02 1.48080E-03-4.75295E-14
 -1      2062 1.10022E-02 1.45723E-03-4.74619E-14
 -1      2063 1.15101E-02 1.35778E-03-5.10243E-14
 -1      2064 1.13435E-02 1.41463E-03-4.98478E-14
 -1      2065 1.13311E-02 1.39185E-03-4.97802E-14
 -1      2066 1.18550E-02 1.22678E-03-5.34126E-14
 -1      2067 1.16807E-02 1.29338E-03-5.22128E-14
 -1      2068 1.16754E-02 1.26816E-03-5.21425E-14
 -1      2069 1.22107E-02 1.10722E-03-5.58408E-14
 -1      2070 1.20323E-02 1.16401E-03-5.46226E-14
 -1      2071 1.20318E-02 1.13589E-03-5.45531E-14
 -1      2072 1.25688E-02 1.02233E-03-5.83112E-14
 -1      2073 1.23903E-02 1.06011E-03-5.70705E-14
 -1      2074 1.23911E-02 1.03005E-03-5.70013E-14
 -1      2075 1.29223E-02 9.76906E-04-6.08174E-14
 -1      2076 1.27467E-02 9.95034E-04-5.95605E-14
 -1      2077 1.27455E-02 9.64051E-04-5.94922E-14
 -1      2078 1.32669E-02 9.65390E-04-6.33543E-14
 -1      2079 1.30960E-02 9.67500E-04-6.20813E-14
 -1      2080 1.30908E-02 9.36255E-04-6.20138E-14
 -1      2081 1.36007E-02 9.78440E-04-6.59145E-14
 -1      2082 1.34353E-02 9.69415E-04-6.46332E-14
 -1      2083 1.34257E-02 9.38321E-04-6.45648E-14
 -1      2084 1.39235E-02 1.00675E-03-6.84986E-14
 -1      2085 1.37635E-02 9.91162E-04-6.72036E-14
 -1      2086 1.37500E-02 9.60501E-04-6.71406E-14
 -1      2087 1.42359E-02 1.04237E-03-7.11184E-14
 -1      2088 1.40809E-02 1.02402E-03-6.98027E-14
 -1      2089 1.40645E-02 9.94016E-04-6.97405E-14
 -1      2090 1.45390E-02 1.07884E-03-7.37812E-14
 -1      2091 1.43885E-02 1.06078E-03-7.24436E-14
 -1      2092 1.43703E-02 1.03163E-03-7.23812E-14
 -1      2093 1.48346E-02 1.11112E-03-7.64934E-14
 -1      2094 1.46876E-02 1.09571E-03-7.51320E-14
 -1      2095 1.46686E-02 1.06756E-03-7.50680E-14
 -1      2096 1.50729E-02 1.12904E-03-7.87648E-14
 -1      2097 1.49281E-02 1.11702E-03-7.73859E-14
 -1      2098 1.49089E-02 1.08979E-03-7.73235E-14
 -1      2099 1.50944E-02 1.09980E-03-7.91195E-14
 -1      2100 1.50610E-02 8.91613E-04-7.96009E-14
 -1      2101 1.50603E-02 9.25164E-04-7.94639E-14
 -1      2102 1.50593E-02 9.60248E-04-7.93261E-14
 -1      2103 1.50586E-02 9.96802E-04-7.91855E-14
 -1      2104 1.49377E-02 9.30296E-04-7.82022E-14
 -1      2105 1.50744E-02 1.02791E-03-7.92268E-14
 -1      2106 1.50760E-02 1.06694E-03-7.90799E-14
 -1      2107 1.49836E-02 1.06202E-03-7.81806E-14
 -1      2108 1.49509E-02 9.97621E-04-7.81019E-14
 -1      2109 1.50583E-02 8.29818E-04-7.98647E-14
 -1      2110 1.50605E-02 8.60078E-04-7.97321E-14
 -1      2111 1.49402E-02 8.62693E-04-7.84756E-14
 -1      2112 1.50459E-02 7.71797E-04-8.01221E-14
 -1      2113 1.50535E-02 8.00337E-04-7.99946E-14
 -1      2114 1.49366E-02 8.00302E-04-7.87360E-14
 -1      2115 1.50199E-02 7.17050E-04-8.03687E-14
 -1      2116 1.50347E-02 7.44202E-04-8.02480E-14
 -1      2117 1.49219E-02 7.41516E-04-7.89894E-14
 -1      2118 1.49783E-02 6.63554E-04-8.06083E-14
 -1      2119 1.50011E-02 6.90350E-04-8.04901E-14
 -1      2120 1.48925E-02 6.85199E-04-7.92307E-14
 -1      2121 1.49210E-02 6.09196E-04-8.08311E-14
 -1      2122 1.49515E-02 6.36670E-04-8.07206E-14
 -1      2123 1.48467E-02 6.29369E-04-7.94609E-14
 -1      2124 1.48497E-02 5.52112E-04-8.10386E-14
 -1      2125 1.48869E-02 5.81141E-04-8.09383E-14
 -1      2126 1.47851E-02 5.72081E-04-7.96768E-14
 -1      2127 1.47689E-02 4.92003E-04-8.12317E-14
 -1      2128 1.48104E-02 5.22638E-04-8.11358E-14
 -1      2129 1.47106E-02 5.12264E-04-7.98781E-14
 -1      2130 1.46797E-02 4.26035E-04-8.14138E-14
 -1      2131 1.47250E-02 4.59656E-04-8.13232E-14
 -1      2132 1.46261E-02 4.48408E-04-8.00645E-14
 -1      2133 1.45874E-02 3.55025E-04-8.15843E-14
 -1      2134 1.46337E-02 3.91135E-04-8.15000E-14
 -1      2135 1.45347E-02 3.79440E-04-8.02408E-14
 -1      2136 1.44958E-02 2.79280E-04-8.17445E-14
 -1      2137 1.45413E-02 3.17678E-04-8.16649E-14
 -1      2138 1.44413E-02 3.05906E-04-8.04063E-14
 -1      2139 1.26707E-02 5.04935E-04-5.36206E-14
 -1      2140 1.28010E-02 4.60527E-04-5.38694E-14
 -1      2141 1.30034E-02 3.71046E-04-5.44730E-14
 -1      2142 1.29948E-02 3.54515E-04-5.44982E-14
 -1      2143 1.28977E-02 4.23391E-04-5.41296E-14
 -1      2144 1.29663E-02 3.98012E-04-5.43940E-14
 -1      2145 1.28568E-02 4.29696E-04-5.46373E-14
 -1      2146 1.22904E-02 6.80445E-04-5.24903E-14
 -1      2147 1.24603E-02 5.96034E-04-5.30228E-14
 -1      2148 1.27647E-02 2.55480E-04-5.40431E-14
 -1      2149 1.26569E-02 2.19449E-04-5.39174E-14
 -1      2150 1.28161E-02 2.99384E-04-5.46597E-14
 -1      2151 1.15476E-02 1.08237E-03-5.01047E-14
 -1      2152 1.17235E-02 9.83762E-04-5.07218E-14
 -1      2153 1.19506E-02 8.62229E-04-5.14392E-14
 -1      2154 1.21257E-02 7.67329E-04-5.19643E-14
 -1      2155 1.21966E-02 7.06427E-04-5.26449E-14
 -1      2156 3.27137E-04-8.90365E-05-1.15251E-16
 -1      2157 3.29238E-04-1.02181E-04-1.10223E-16
 -1      2158 4.46305E-04-1.45166E-04-1.60286E-16
 -1      2159 4.40014E-04-1.10003E-04-1.73865E-16
 -1      2160 1.11885E-02 1.25087E-03-4.86912E-14
 -1      2161 1.13531E-02 1.17862E-03-4.93590E-14
 -1      2162 1.08520E-02 1.32540E-03-4.72012E-14
 -1      2163 1.10028E-02 1.30575E-03-4.79126E-14
 -1      2164 1.05023E-02 1.25947E-03-4.55627E-14
 -1      2165 1.06592E-02 1.31029E-03-4.62934E-14
 -1      2166 1.00924E-02 1.05424E-03-4.41228E-14
 -1      2167 1.02726E-02 1.15531E-03-4.47174E-14
 -1      2168 9.69861E-03 8.27012E-04-4.30399E-14
 -1      2169 9.88537E-03 9.38396E-04-4.35392E-14
 -1      2170 9.30809E-03 6.02156E-04-4.20564E-14
 -1      2171 9.49243E-03 7.04200E-04-4.24760E-14
 -1      2172 8.95376E-03 4.25892E-04-4.13020E-14
 -1      2173 9.12530E-03 5.09677E-04-4.16786E-14
 -1      2174 9.24715E-03 5.34740E-04-4.14691E-14
 -1      2175 8.62109E-03 2.92942E-04-4.07397E-14
 -1      2176 8.74721E-03 3.34941E-04-4.08873E-14
 -1      2177 8.46323E-03 2.32304E-04-4.04701E-14
 -1      2178 8.52746E-03 2.57242E-04-4.06042E-14
 -1      2179 8.57241E-03 2.53284E-04-4.01338E-14
 -1      2180 8.44404E-03 1.89498E-04-4.05981E-14
 -1      2181 8.42995E-03 2.06410E-04-4.05163E-14
 -1      2182 8.58456E-03 1.35307E-04-4.08753E-14
 -1      2183 8.49988E-03 1.63036E-04-4.06900E-14
 -1      2184 8.84293E-03 4.46349E-05-4.13615E-14
 -1      2185 8.69934E-03 9.39057E-05-4.11176E-14
 -1      2186 8.63307E-03 1.29118E-04-4.05131E-14
 -1      2187 9.24366E-03-1.36665E-04-4.24218E-14
 -1      2188 9.06539E-03-4.91051E-05-4.18999E-14
 -1      2189 9.61059E-03-3.30326E-04-4.35662E-14
 -1      2190 9.43461E-03-2.36313E-04-4.30234E-14
 -1      2191 9.97079E-03-5.08774E-04-4.46989E-14
 -1      2192 9.79500E-03-4.21780E-04-4.41304E-14
 -1      2193 9.71852E-03-3.68177E-04-4.35817E-14
 -1      2194 1.03401E-02-6.59288E-04-4.62088E-14
 -1      2195 1.01835E-02-6.01940E-04-4.54787E-14
 -1      2196 1.06862E-02-6.87971E-04-4.78974E-14
 -1      2197 1.05415E-02-6.91485E-04-4.71897E-14
 -1      2198 1.09855E-02-6.07382E-04-4.92983E-14
 -1      2199 1.08375E-02-6.59980E-04-4.85960E-14
 -1      2200 1.07561E-02-6.83227E-04-4.83632E-14
 -1      2201 1.13551E-02-4.20723E-04-5.08374E-14
 -1      2202 1.11781E-02-5.21427E-04-5.01125E-14
 -1      2203 1.18014E-02-1.77063E-04-5.21313E-14
 -1      2204 1.16096E-02-2.79332E-04-5.16598E-14
 -1      2205 1.21345E-02-6.18114E-06-5.29267E-14
 -1      2206 1.19681E-02-9.19703E-05-5.25291E-14
 -1      2207 1.18575E-02-1.14086E-04-5.27490E-14
 -1      2208 1.24823E-02 1.57282E-04-5.37130E-14
 -1      2209 1.23323E-02 9.19787E-05-5.34131E-14
 -1      2210 1.18251E-02 9.11621E-04-5.13946E-14
 -1      2211 1.29712E-02 3.49121E-04-5.49222E-14
 -1      2212 6.07795E-04-2.98182E-04-1.57074E-16
 -1      2213 6.63520E-04-2.92475E-04-2.18304E-16
 -1      2214 1.29951E-02 3.85329E-04-5.49795E-14
 -1      2215 1.25673E-02 5.35855E-04-5.37743E-14
 -1      2216 1.44183E-02 2.36931E-04-8.13932E-14
 -1      2217 1.25686E-02 2.16920E-04-5.43310E-14
 -1      2218 1.22090E-02 6.62917E-05-5.36367E-14
 -1      2219 1.10569E-02-5.70809E-04-4.98797E-14
 -1      2220 1.00868E-02-5.59529E-04-4.49211E-14
 -1      2221 8.95413E-03 1.40489E-05-4.12852E-14
 -1      2222 8.85065E-03 5.86284E-05-4.06758E-14
 -1      2223 9.05781E-03-2.45937E-05-4.12075E-14
 -1      2224 8.43724E-03 2.11980E-04-4.00459E-14
 -1      2225 8.85867E-03 3.57644E-04-4.06806E-14
 -1      2226 9.61800E-03 7.45136E-04-4.24052E-14
 -1      2227 1.00072E-02 9.85714E-04-4.35471E-14
 -1      2228 1.04058E-02 1.21484E-03-4.49694E-14
 -1      2229 1.14376E-02 1.13198E-03-4.99261E-14
 -1      2230 1.07664E-02 1.33265E-03-4.67144E-14
 -1      2231 1.10940E-02 1.28804E-03-4.84007E-14
 -1      2232 8.46418E-03 1.79100E-04-4.01831E-14
 -1      2233 9.35991E-03-1.76982E-04-4.24191E-14
 -1      2234 1.04453E-02-6.88093E-04-4.66785E-14
 -1      2235 1.14595E-02-3.44027E-04-5.15223E-14
 -1      2236 1.13410E-02-4.05495E-04-5.13832E-14
 -1      2237 1.15630E-02-2.68187E-04-5.22112E-14
 -1      2238 1.01645E-03 3.99869E-04-4.72522E-16
 -1      2239 8.72008E-04 3.63492E-04-3.48097E-16
 -1      2240 5.47867E-04-5.53382E-05-2.68326E-16
 -1      2241 5.48894E-04-7.20634E-05-2.65630E-16
 -1      2242 5.50301E-04-8.93925E-05-2.62011E-16
 -1      2243 5.52161E-04-1.07373E-04-2.57390E-16
 -1      2244 6.65371E-04-9.55480E-05-3.57800E-16
 -1      2245 5.46501E-04 8.86241E-06-2.71877E-16
 -1      2246 5.46481E-04-6.98676E-06-2.71999E-16
 -1      2247 5.47248E-04 4.08964E-05-2.69587E-16
 -1      2248 5.46753E-04 2.48105E-05-2.71037E-16
 -1      2249 6.61461E-04 1.99428E-05-3.67558E-16
 -1      2250 5.49057E-04 7.35384E-05-2.64383E-16
 -1      2251 5.48004E-04 5.70363E-05-2.67622E-16
 -1      2252 6.62775E-04 5.78223E-05-3.63818E-16
 -1      2253 5.52423E-04 1.09027E-04-2.55560E-16
 -1      2254 5.50513E-04 9.09449E-05-2.60358E-16
 -1      2255 6.65612E-04 9.73119E-05-3.55930E-16
 -1      2256 5.58270E-04 1.48371E-04-2.41967E-16
 -1      2257 5.54968E-04 1.28143E-04-2.49570E-16
 -1      2258 6.70668E-04 1.40098E-04-3.43407E-16
 -1      2259 5.68560E-04 1.93972E-04-2.20933E-16
 -1      2260 5.62740E-04 1.70254E-04-2.32534E-16
 -1      2261 6.79275E-04 1.87651E-04-3.24271E-16
 -1      2262 9.15077E-04-3.46451E-04-4.31106E-16
 -1      2263 1.05915E-03-3.79762E-04-5.70670E-16
 -1      2264 1.28586E-02 3.26444E-04-5.53181E-14
 -1      2265 1.27778E-02 3.05127E-04-5.51931E-14
 -1      2266 1.30186E-03 4.56772E-04-7.83146E-16
 -1      2267 1.15956E-03 4.30854E-04-6.17385E-16
 -1      2268 1.07165E-03 3.81390E-04-5.72445E-16
 -1      2269 5.88450E-04-2.38043E-04-2.04372E-16
 -1      2270 7.81225E-04-3.04893E-04-3.27266E-16
 -1      2271 8.40674E-04-2.93672E-04-4.05275E-16
 -1      2272 5.78937E-04-2.10248E-04-2.19876E-16
 -1      2273 1.20239E-03-4.08115E-04-7.31037E-16
 -1      2274 1.34519E-03-4.31960E-04-9.13047E-16
 -1      2275 1.11688E-03-3.60561E-04-6.74523E-16
 -1      2276 1.48734E-03-4.52143E-04-1.11624E-15
 -1      2277 1.62910E-03-4.68932E-04-1.34090E-15
 -1      2278 1.40318E-03-4.07271E-04-1.04334E-15
 -1      2279 1.77050E-03-4.83000E-04-1.58673E-15
 -1      2280 1.91165E-03-4.94559E-04-1.85329E-15
 -1      2281 1.68828E-03-4.40411E-04-1.49654E-15
 -1      2282 2.05266E-03-5.04101E-04-2.14101E-15
 -1      2283 2.19356E-03-5.11800E-04-2.45017E-15
 -1      2284 1.97244E-03-4.63297E-04-2.03331E-15
 -1      2285 2.33444E-03-5.18012E-04-2.77931E-15
 -1      2286 2.47531E-03-5.22878E-04-3.12954E-15
 -1      2287 2.25605E-03-4.78554E-04-2.65316E-15
 -1      2288 2.61624E-03-5.26655E-04-3.49963E-15
 -1      2289 2.75723E-03-5.29455E-04-3.88943E-15
 -1      2290 2.53945E-03-4.88191E-04-3.35437E-15
 -1      2291 2.89833E-03-5.31463E-04-4.29873E-15
 -1      2292 3.03952E-03-5.32763E-04-4.72764E-15
 -1      2293 2.82287E-03-4.93726E-04-4.13481E-15
 -1      2294 3.18084E-03-5.33487E-04-5.17549E-15
 -1      2295 3.32227E-03-5.33697E-04-5.64182E-15
 -1      2296 3.10647E-03-4.96282E-04-4.99263E-15
 -1      2297 3.46385E-03-5.33482E-04-6.12725E-15
 -1      2298 3.60555E-03-5.32888E-04-6.63163E-15
 -1      2299 3.39035E-03-4.96673E-04-5.92584E-15
 -1      2300 3.74740E-03-5.31970E-04-7.15357E-15
 -1      2301 3.88938E-03-5.30761E-04-7.69323E-15
 -1      2302 3.67455E-03-4.95467E-04-6.93380E-15
 -1      2303 4.03151E-03-5.29291E-04-8.25034E-15
 -1      2304 4.17377E-03-5.27583E-04-8.82622E-15
 -1      2305 3.95911E-03-4.93041E-04-8.01331E-15
 -1      2306 4.31619E-03-5.25649E-04-9.41907E-15
 -1      2307 4.45876E-03-5.23503E-04-1.00285E-14
 -1      2308 4.24407E-03-4.89624E-04-9.16343E-15
 -1      2309 4.60148E-03-5.21147E-04-1.06550E-14
 -1      2310 4.74438E-03-5.18590E-04-1.12994E-14
 -1      2311 4.52945E-03-4.85336E-04-1.03832E-14
 -1      2312 4.88745E-03-5.15826E-04-1.19601E-14
 -1      2313 5.03072E-03-5.12866E-04-1.26370E-14
 -1      2314 4.81531E-03-4.80227E-04-1.16699E-14
 -1      2315 5.17419E-03-5.09701E-04-1.33328E-14
 -1      2316 5.31790E-03-5.06345E-04-1.40464E-14
 -1      2317 5.10170E-03-4.74308E-04-1.30256E-14
 -1      2318 5.46184E-03-5.02797E-04-1.47767E-14
 -1      2319 5.60607E-03-4.99076E-04-1.55258E-14
 -1      2320 5.38874E-03-4.67589E-04-1.44507E-14
 -1      2321 5.75058E-03-4.95197E-04-1.62930E-14
 -1      2322 5.89544E-03-4.91191E-04-1.70781E-14
 -1      2323 5.67655E-03-4.60123E-04-1.59469E-14
 -1      2324 6.04064E-03-4.87098E-04-1.78820E-14
 -1      2325 6.18627E-03-4.82968E-04-1.87040E-14
 -1      2326 5.96531E-03-4.52054E-04-1.75167E-14
 -1      2327 6.33232E-03-4.78877E-04-1.95454E-14
 -1      2328 6.47889E-03-4.74905E-04-2.04032E-14
 -1      2329 6.25526E-03-4.43682E-04-1.91602E-14
 -1      2330 6.62598E-03-4.71176E-04-2.12802E-14
 -1      2331 6.77368E-03-4.67810E-04-2.21735E-14
 -1      2332 6.54669E-03-4.35538E-04-2.08759E-14
 -1      2333 6.92202E-03-4.64992E-04-2.30825E-14
 -1      2334 7.07109E-03-4.62895E-04-2.40097E-14
 -1      2335 6.84000E-03-4.28470E-04-2.26600E-14
 -1      2336 7.22093E-03-4.61775E-04-2.49525E-14
 -1      2337 7.37161E-03-4.61868E-04-2.59099E-14
 -1      2338 7.13568E-03-4.23739E-04-2.45104E-14
 -1      2339 7.52323E-03-4.63501E-04-2.68820E-14
 -1      2340 7.67580E-03-4.66981E-04-2.78687E-14
 -1      2341 7.43437E-03-4.23112E-04-2.64222E-14
 -1      2342 7.82948E-03-4.72687E-04-2.88684E-14
 -1      2343 7.98418E-03-4.80988E-04-2.98807E-14
 -1      2344 7.73686E-03-4.28909E-04-2.83906E-14
 -1      2345 8.14015E-03-4.92260E-04-3.09062E-14
 -1      2346 8.29714E-03-5.06898E-04-3.19446E-14
 -1      2347 8.04407E-03-4.43971E-04-3.04116E-14
 -1      2348 8.45547E-03-5.25175E-04-3.29972E-14
 -1      2349 8.61466E-03-5.47403E-04-3.40596E-14
 -1      2350 8.35686E-03-4.71435E-04-3.24856E-14
 -1      2351 8.77507E-03-5.73602E-04-3.51346E-14
 -1      2352 8.93593E-03-6.03780E-04-3.62226E-14
 -1      2353 8.67573E-03-5.14164E-04-3.46080E-14
 -1      2354 9.09750E-03-6.37505E-04-3.73209E-14
 -1      2355 9.25879E-03-6.74178E-04-3.84333E-14
 -1      2356 9.00010E-03-5.73570E-04-3.67765E-14
 -1      2357 9.41984E-03-7.12732E-04-3.95600E-14
 -1      2358 9.57966E-03-7.51599E-04-4.06979E-14
 -1      2359 9.32756E-03-6.47664E-04-3.89965E-14
 -1      2360 9.73804E-03-7.89024E-04-4.18472E-14
 -1      2361 9.89450E-03-8.22576E-04-4.30095E-14
 -1      2362 9.65362E-03-7.28422E-04-4.12677E-14
 -1      2363 1.00486E-02-8.50144E-04-4.41863E-14
 -1      2364 1.02010E-02-8.68968E-04-4.53734E-14
 -1      2365 9.97308E-03-8.00256E-04-4.35887E-14
 -1      2366 1.03510E-02-8.77314E-04-4.65677E-14
 -1      2367 1.05008E-02-8.73584E-04-4.77740E-14
 -1      2368 1.02833E-02-8.42230E-04-4.59538E-14
 -1      2369 1.06496E-02-8.57249E-04-4.89899E-14
 -1      2370 1.07998E-02-8.28635E-04-5.02145E-14
 -1      2371 1.05872E-02-8.36056E-04-4.83591E-14
 -1      2372 1.09508E-02-7.88754E-04-5.14496E-14
 -1      2373 1.11042E-02-7.39773E-04-5.26946E-14
 -1      2374 1.08924E-02-7.76288E-04-5.08051E-14
 -1      2375 1.12594E-02-6.83641E-04-5.39470E-14
 -1      2376 1.14167E-02-6.23118E-04-5.52084E-14
 -1      2377 1.12053E-02-6.73542E-04-5.32883E-14
 -1      2378 1.15756E-02-5.60243E-04-5.64817E-14
 -1      2379 1.17354E-02-4.97188E-04-5.77624E-14
 -1      2380 1.15268E-02-5.48163E-04-5.58101E-14
 -1      2381 1.18959E-02-4.35463E-04-5.90514E-14
 -1      2382 1.20562E-02-3.76224E-04-6.03487E-14
 -1      2383 1.18528E-02-4.19840E-04-5.83676E-14
 -1      2384 1.22164E-02-3.20264E-04-6.16552E-14
 -1      2385 1.23754E-02-2.67893E-04-6.29717E-14
 -1      2386 1.21782E-02-3.01339E-04-6.09583E-14
 -1      2387 1.25337E-02-2.19295E-04-6.42936E-14
 -1      2388 1.26905E-02-1.74257E-04-6.56251E-14
 -1      2389 1.24990E-02-1.97975E-04-6.35841E-14
 -1      2390 1.28462E-02-1.32551E-04-6.69619E-14
 -1      2391 1.30003E-02-9.37315E-05-6.83072E-14
 -1      2392 1.28135E-02-1.09822E-04-6.62391E-14
 -1      2393 1.31533E-02-5.73403E-05-6.96603E-14
 -1      2394 1.33048E-02-2.28682E-05-7.10159E-14
 -1      2395 1.31214E-02-3.40891E-05-6.89246E-14
 -1      2396 1.34551E-02 1.02336E-05-7.23798E-14
 -1      2397 1.36042E-02 4.24666E-05-7.37498E-14
 -1      2398 1.34233E-02 3.31967E-05-7.16370E-14
 -1      2399 1.37521E-02 7.43740E-05-7.51243E-14
 -1      2400 1.38990E-02 1.06432E-04-7.65097E-14
 -1      2401 1.37201E-02 9.62664E-05-7.43717E-14
 -1      2402 1.28262E-02 4.40342E-04-5.52333E-14
 -1      2403 1.29133E-02 4.17312E-04-5.54968E-14
 -1      2404 1.86490E-03 5.25056E-04-1.65380E-15
 -1      2405 1.72471E-03 5.12386E-04-1.40480E-15
 -1      2406 2.14491E-03 5.44114E-04-2.21376E-15
 -1      2407 2.00496E-03 5.35573E-04-1.92354E-15
 -1      2408 1.92430E-03 4.94401E-04-1.83199E-15
 -1      2409 2.42490E-03 5.56574E-04-2.85548E-15
 -1      2410 2.28489E-03 5.51065E-04-2.52400E-15
 -1      2411 2.20635E-03 5.11418E-04-2.41629E-15
 -1      2412 2.70525E-03 5.64211E-04-3.57934E-15
 -1      2413 2.56502E-03 5.60916E-04-3.20735E-15
 -1      2414 2.48826E-03 5.22372E-04-3.08183E-15
 -1      2415 2.98619E-03 5.68336E-04-4.38430E-15
 -1      2416 2.84565E-03 5.66652E-04-3.97165E-15
 -1      2417 2.77032E-03 5.28897E-04-3.82784E-15
 -1      2418 3.26780E-03 5.69906E-04-5.26890E-15
 -1      2419 3.12691E-03 5.69396E-04-4.81693E-15
 -1      2420 3.05274E-03 5.32203E-04-4.65455E-15
 -1      2421 3.55014E-03 5.69600E-04-6.23133E-15
 -1      2422 3.40889E-03 5.69956E-04-5.74055E-15
 -1      2423 3.33561E-03 5.33168E-04-5.55972E-15
 -1      2424 3.83321E-03 5.67876E-04-7.26849E-15
 -1      2425 3.69159E-03 5.68893E-04-6.74051E-15
 -1      2426 3.61899E-03 5.32406E-04-6.54197E-15
 -1      2427 4.11702E-03 5.65023E-04-8.37945E-15
 -1      2428 3.97503E-03 5.66577E-04-7.81459E-15
 -1      2429 3.90290E-03 5.30327E-04-7.59824E-15
 -1      2430 4.40157E-03 5.61197E-04-9.56292E-15
 -1      2431 4.25920E-03 5.63223E-04-8.96234E-15
 -1      2432 4.18737E-03 5.27179E-04-8.72810E-15
 -1      2433 4.68692E-03 5.56459E-04-1.08158E-14
 -1      2434 4.54414E-03 5.58938E-04-1.01807E-14
 -1      2435 4.47243E-03 5.23089E-04-9.92935E-15
 -1      2436 4.97317E-03 5.50799E-04-1.21365E-14
 -1      2437 4.82992E-03 5.53742E-04-1.14680E-14
 -1      2438 4.75813E-03 5.18091E-04-1.11987E-14
 -1      2439 5.26045E-03 5.44178E-04-1.35221E-14
 -1      2440 5.11666E-03 5.47607E-04-1.28209E-14
 -1      2441 5.04456E-03 5.12165E-04-1.25354E-14
 -1      2442 5.54898E-03 5.36555E-04-1.49745E-14
 -1      2443 5.40453E-03 5.40487E-04-1.42397E-14
 -1      2444 5.33183E-03 5.05259E-04-1.39377E-14
 -1      2445 5.83904E-03 5.27931E-04-1.64930E-14
 -1      2446 5.69378E-03 5.32358E-04-1.57261E-14
 -1      2447 5.62012E-03 4.97334E-04-1.54066E-14
 -1      2448 6.13102E-03 5.18413E-04-1.80775E-14
 -1      2449 5.98475E-03 5.23265E-04-1.72771E-14
 -1      2450 5.90966E-03 4.88404E-04-1.69423E-14
 -1      2451 6.42538E-03 5.08289E-04-1.97235E-14
 -1      2452 6.27785E-03 5.13393E-04-1.88932E-14
 -1      2453 6.20072E-03 4.78603E-04-1.85431E-14
 -1      2454 6.72269E-03 4.98146E-04-2.14333E-14
 -1      2455 6.57360E-03 5.03164E-04-2.05708E-14
 -1      2456 6.49364E-03 4.68263E-04-2.02057E-14
 -1      2457 7.02364E-03 4.89035E-04-2.32020E-14
 -1      2458 6.87262E-03 4.93373E-04-2.23094E-14
 -1      2459 6.78885E-03 4.58040E-04-2.19297E-14
 -1      2460 7.32900E-03 4.82703E-04-2.50295E-14
 -1      2461 7.17566E-03 4.85385E-04-2.41084E-14
 -1      2462 7.08684E-03 4.49081E-04-2.37135E-14
 -1      2463 7.63971E-03 4.81902E-04-2.69155E-14
 -1      2464 7.48358E-03 4.81405E-04-2.59660E-14
 -1      2465 7.38826E-03 4.43253E-04-2.55569E-14
 -1      2466 7.95686E-03 4.90763E-04-2.88519E-14
 -1      2467 7.79738E-03 4.84821E-04-2.78776E-14
 -1      2468 7.69398E-03 4.43449E-04-2.74555E-14
 -1      2469 8.28178E-03 5.15180E-04-3.08394E-14
 -1      2470 8.11828E-03 5.00597E-04-2.98409E-14
 -1      2471 8.00527E-03 4.53946E-04-2.94054E-14
 -1      2472 8.61607E-03 5.62960E-04-3.28734E-14
 -1      2473 8.44777E-03 5.35582E-04-3.18500E-14
 -1      2474 8.32404E-03 4.80780E-04-3.14050E-14
 -1      2475 8.96137E-03 6.43256E-04-3.49479E-14
 -1      2476 8.78753E-03 5.98384E-04-3.39056E-14
 -1      2477 8.65310E-03 5.31933E-04-3.34500E-14
 -1      2478 9.31843E-03 7.64356E-04-3.70585E-14
 -1      2479 9.13894E-03 6.98221E-04-3.59978E-14
 -1      2480 8.99599E-03 6.16983E-04-3.55361E-14
 -1      2481 9.68472E-03 9.28026E-04-3.92019E-14
 -1      2482 9.50140E-03 8.41203E-04-3.81272E-14
 -1      2483 9.35541E-03 7.45053E-04-3.76567E-14
 -1      2484 1.00520E-02 1.11982E-03-4.13792E-14
 -1      2485 9.86942E-03 1.02224E-03-4.02870E-14
 -1      2486 9.72913E-03 9.18357E-04-3.98131E-14
 -1      2487 1.04083E-02 1.30055E-03-4.35895E-14
 -1      2488 1.02321E-02 1.21534E-03-4.24795E-14
 -1      2489 1.01065E-02 1.12001E-03-4.20021E-14
 -1      2490 1.07478E-02 1.41305E-03-4.58376E-14
 -1      2491 1.05791E-02 1.36935E-03-4.47084E-14
 -1      2492 1.04716E-02 1.30235E-03-4.42258E-14
 -1      2493 1.10808E-02 1.41612E-03-4.81235E-14
 -1      2494 1.09125E-02 1.42872E-03-4.69756E-14
 -1      2495 1.08194E-02 1.39661E-03-4.64852E-14
 -1      2496 1.14245E-02 1.32193E-03-5.04563E-14
 -1      2497 1.12495E-02 1.37794E-03-4.92846E-14
 -1      2498 1.11650E-02 1.36593E-03-4.87881E-14
 -1      2499 1.17850E-02 1.18294E-03-5.28345E-14
 -1      2500 1.16034E-02 1.25399E-03-5.16390E-14
 -1      2501 1.15271E-02 1.24171E-03-5.11354E-14
 -1      2502 1.21514E-02 1.05215E-03-5.52570E-14
 -1      2503 1.19689E-02 1.11425E-03-5.40400E-14
 -1      2504 1.19032E-02 1.09240E-03-5.35278E-14
 -1      2505 1.25118E-02 9.57649E-04-5.77213E-14
 -1      2506 1.23333E-02 9.99735E-04-5.64840E-14
 -1      2507 1.22763E-02 9.68293E-04-5.59653E-14
 -1      2508 1.28609E-02 9.05293E-04-6.02221E-14
 -1      2509 1.26883E-02 9.26473E-04-5.89666E-14
 -1      2510 1.26349E-02 8.88183E-04-5.84422E-14
 -1      2511 1.31974E-02 8.89369E-04-6.27544E-14
 -1      2512 1.30308E-02 8.93402E-04-6.14841E-14
 -1      2513 1.29764E-02 8.50556E-04-6.09538E-14
 -1      2514 1.35226E-02 9.00081E-04-6.53168E-14
 -1      2515 1.33614E-02 8.92001E-04-6.40332E-14
 -1      2516 1.33033E-02 8.46253E-04-6.34985E-14
 -1      2517 1.38382E-02 9.27854E-04-6.79013E-14
 -1      2518 1.36815E-02 9.12354E-04-6.66064E-14
 -1      2519 1.36189E-02 8.64943E-04-6.60699E-14
 -1      2520 1.41456E-02 9.64499E-04-7.05202E-14
 -1      2521 1.39928E-02 9.45489E-04-6.92057E-14
 -1      2522 1.39260E-02 8.97571E-04-6.86700E-14
 -1      2523 1.44460E-02 1.00337E-03-7.31746E-14
 -1      2524 1.42965E-02 9.84007E-04-7.18413E-14
 -1      2525 1.42267E-02 9.36711E-04-7.13012E-14
 -1      2526 1.47405E-02 1.03919E-03-7.58767E-14
 -1      2527 1.45939E-02 1.02195E-03-7.45203E-14
 -1      2528 1.45221E-02 9.76369E-04-7.39706E-14
 -1      2529 1.48907E-02 1.05613E-03-7.72857E-14
 -1      2530 1.48153E-02 7.68884E-04-7.76093E-14
 -1      2531 1.48188E-02 7.99804E-04-7.74823E-14
 -1      2532 1.47980E-02 7.09632E-04-7.78580E-14
 -1      2533 1.48084E-02 7.38970E-04-7.77353E-14
 -1      2534 1.46942E-02 7.36227E-04-7.64849E-14
 -1      2535 1.48166E-02 8.98357E-04-7.70856E-14
 -1      2536 1.48139E-02 9.34286E-04-7.69446E-14
 -1      2537 1.48198E-02 8.31467E-04-7.73512E-14
 -1      2538 1.48188E-02 8.64119E-04-7.72181E-14
 -1      2539 1.46963E-02 8.65103E-04-7.59680E-14
 -1      2540 1.47001E-02 7.98483E-04-7.62306E-14
 -1      2541 1.47647E-02 6.52164E-04-7.80916E-14
 -1      2542 1.47834E-02 6.80865E-04-7.79764E-14
 -1      2543 1.46740E-02 6.76830E-04-7.67275E-14
 -1      2544 1.47145E-02 5.94468E-04-7.83144E-14
 -1      2545 1.47417E-02 6.23529E-04-7.82056E-14
 -1      2546 1.46365E-02 6.18553E-04-7.69547E-14
 -1      2547 1.46483E-02 5.34702E-04-7.85239E-14
 -1      2548 1.46833E-02 5.64995E-04-7.84201E-14
 -1      2549 1.45814E-02 5.59298E-04-7.71704E-14
 -1      2550 1.45705E-02 4.72594E-04-7.87142E-14
 -1      2551 1.46108E-02 5.04158E-04-7.86211E-14
 -1      2552 1.45112E-02 4.97833E-04-7.73690E-14
 -1      2553 1.44821E-02 4.05240E-04-7.88983E-14
 -1      2554 1.45273E-02 4.39483E-04-7.88078E-14
 -1      2555 1.44286E-02 4.32535E-04-7.75564E-14
 -1      2556 1.43887E-02 3.33478E-04-7.90693E-14
 -1      2557 1.44358E-02 3.69902E-04-7.89845E-14
 -1      2558 1.43371E-02 3.62325E-04-7.77354E-14
 -1      2559 1.42943E-02 2.57527E-04-7.92307E-14
 -1      2560 1.43414E-02 2.95982E-04-7.91494E-14
 -1      2561 1.42417E-02 2.87824E-04-7.79018E-14
 -1      2562 1.42916E-02 2.06315E-04-8.01300E-14
 -1      2563 1.26409E-02 2.60865E-04-5.49891E-14
 -1      2564 1.24816E-02 2.05980E-04-5.47841E-14
 -1      2565 1.27065E-02 2.90348E-04-5.56493E-14
 -1      2566 1.58422E-03 4.97018E-04-1.17687E-15
 -1      2567 1.44331E-03 4.78740E-04-9.69751E-16
 -1      2568 1.64162E-03 4.69141E-04-1.32983E-15
 -1      2569 1.29949E-02 3.92869E-04-5.57919E-14
 -1      2570 1.30250E-02 3.82997E-04-5.58718E-14
 -1      2571 1.24743E-02 5.70985E-04-5.41507E-14
 -1      2572 1.26654E-02 4.96379E-04-5.47543E-14
 -1      2573 1.11247E-02-5.29576E-04-5.04850E-14
 -1      2574 1.09668E-02-6.12365E-04-4.96665E-14
 -1      2575 1.01443E-02-5.94384E-04-4.50037E-14
 -1      2576 9.96959E-03-5.01513E-04-4.42276E-14
 -1      2577 8.41523E-03 1.97569E-04-3.95126E-14
 -1      2578 8.44508E-03 2.06703E-04-3.94663E-14
 -1      2579 9.55015E-03 6.80728E-04-4.17332E-14
 -1      2580 9.73373E-03 7.95828E-04-4.22911E-14
 -1      2581 1.30116E-02 3.69746E-04-5.57358E-14
 -1      2582 1.29592E-02 3.56782E-04-5.55997E-14
 -1      2583 1.30403E-02 3.84632E-04-5.65511E-14
 -1      2584 5.46692E-04-2.29181E-05-2.71403E-16
 -1      2585 5.47144E-04-3.89700E-05-2.70237E-16
 -1      2586 6.62625E-04-5.58517E-05-3.64780E-16
 -1      2587 6.61408E-04-1.77177E-05-3.67924E-16
 -1      2588 1.21078E-02 7.46977E-04-5.27612E-14
 -1      2589 1.22586E-02 6.69506E-04-5.32925E-14
 -1      2590 1.10487E-02 1.31514E-03-4.82109E-14
 -1      2591 1.11944E-02 1.25901E-03-4.89908E-14
 -1      2592 1.13470E-02 1.18615E-03-4.97342E-14
 -1      2593 1.15082E-02 1.09332E-03-5.04828E-14
 -1      2594 1.12858E-02 1.22937E-03-4.95416E-14
 -1      2595 1.02934E-02 1.15117E-03-4.42432E-14
 -1      2596 1.04808E-02 1.25498E-03-4.50814E-14
 -1      2597 9.91554E-03 9.11208E-04-4.28682E-14
 -1      2598 1.00875E-02 1.02535E-03-4.34456E-14
 -1      2599 9.82017E-03 8.47860E-04-4.21915E-14
 -1      2600 9.16860E-03 4.73642E-04-4.07991E-14
 -1      2601 9.33370E-03 5.58356E-04-4.11724E-14
 -1      2602 8.76199E-03 3.02270E-04-3.99764E-14
 -1      2603 8.95585E-03 3.77461E-04-4.03875E-14
 -1      2604 9.03555E-03 4.07147E-04-4.00936E-14
 -1      2605 8.52324E-03 2.28208E-04-3.95220E-14
 -1      2606 8.61093E-03 2.50419E-04-3.96551E-14
 -1      2607 9.46809E-03-2.25326E-04-4.23817E-14
 -1      2608 9.29259E-03-1.34520E-04-4.17854E-14
 -1      2609 8.67690E-03 1.18218E-04-4.00777E-14
 -1      2610 8.57278E-03 1.47014E-04-3.98406E-14
 -1      2611 1.05330E-02-7.08953E-04-4.71835E-14
 -1      2612 1.03719E-02-6.81692E-04-4.62003E-14
 -1      2613 9.78543E-03-4.01636E-04-4.34986E-14
 -1      2614 9.62897E-03-3.12091E-04-4.29391E-14
 -1      2615 9.53674E-03-2.68835E-04-4.22987E-14
 -1      2616 1.08025E-02-6.73856E-04-4.87714E-14
 -1      2617 1.06848E-02-7.01460E-04-4.80695E-14
 -1      2618 1.05903E-02-7.12837E-04-4.75858E-14
 -1      2619 1.08834E-02-6.46811E-04-4.93705E-14
 -1      2620 1.19330E-02-5.19415E-05-5.34929E-14
 -1      2621 1.17888E-02-1.33210E-04-5.30913E-14
 -1      2622 1.22964E-02 1.29729E-04-5.44740E-14
 -1      2623 1.21152E-02 4.25910E-05-5.39836E-14
 -1      2624 1.20476E-02 1.24291E-05-5.43296E-14
 -1      2625 1.17291E-02 9.64264E-04-5.13925E-14
 -1      2626 1.19244E-02 8.47952E-04-5.21159E-14
 -1      2627 7.57782E-04 3.34287E-04-2.59585E-16
 -1      2628 6.11390E-04 2.84922E-04-1.73052E-16
 -1      2629 5.84680E-04 2.58156E-04-1.77877E-16
 -1      2630 8.13620E-04 3.22965E-04-3.34978E-16
 -1      2631 8.48085E-03 1.73126E-04-3.97025E-14
 -1      2632 8.43038E-03 1.85113E-04-3.96132E-14
 -1      2633 1.07162E-02 1.33581E-03-4.62909E-14
 -1      2634 1.08681E-02 1.34710E-03-4.71956E-14
 -1      2635 1.23989E-02 6.16213E-04-5.42661E-14
 -1      2636 6.70291E-04-1.38025E-04-3.46023E-16
 -1      2637 5.54652E-04-1.26277E-04-2.51657E-16
 -1      2638 5.57791E-04-1.46280E-04-2.44325E-16
 -1      2639 1.29871E-02 4.08887E-04-5.63904E-14
 -1      2640 5.72200E-04 2.27965E-04-1.96322E-16
 -1      2641 8.50656E-03 1.57969E-04-3.92700E-14
 -1      2642 1.35763E-03 4.32746E-04-9.09971E-16
 -1      2643 5.71808E-04-1.85276E-04-2.32466E-16
 -1      2644 9.86232E-03-4.51878E-04-4.35792E-14
 -1      2645 1.23954E-02 1.76187E-04-5.51344E-14
 -1      2646 1.27581E-02 4.77603E-04-5.56110E-14
 -1      2647 1.48178E-02 1.01327E-03-7.67268E-14
 -1      2648 1.12321E-02-4.67753E-04-5.11693E-14
 -1      2649 1.11449E-02-5.21254E-04-5.09544E-14
 -1      2650 1.13389E-02-4.03415E-04-5.18568E-14
 -1      2651 1.48028E-02 9.80810E-04-7.66898E-14
 -1      2652 1.20125E-02 8.08540E-04-5.27581E-14
 -1      2653 1.41251E-02 1.55793E-04-7.86990E-14
 -1      2654 1.42290E-02 2.17698E-04-7.90527E-14
 -1      2655 1.41276E-02 2.09389E-04-7.78046E-14
 -1      2656 1.39967E-02 1.27592E-04-7.74504E-14
 -1      2657 8.75804E-03 8.85310E-05-3.99982E-14
 -1      2658 8.67310E-03 1.03478E-04-3.93258E-14
 -1      2659 8.83854E-03 5.27333E-05-3.99176E-14
 -1      2660 6.89483E-04 2.51322E-04-2.83288E-16
 -1      2661 1.16616E-02-2.06728E-04-5.29521E-14
 -1      2662 8.68296E-03 2.69671E-04-3.93642E-14
 -1      2663 8.46169E-03 2.07943E-04-3.89901E-14
 -1      2664 9.16429E-03-7.43908E-05-4.11692E-14
 -1      2665 9.04158E-03-2.75244E-05-4.05571E-14
 -1      2666 9.25419E-03-1.29045E-04-4.11284E-14
 -1      2667 9.44426E-03 6.16484E-04-4.10600E-14
 -1      2668 8.40545E-03 1.86367E-04-3.90341E-14
 -1      2669 1.29394E-02 3.55707E-04-5.61359E-14
 -1      2670 1.02557E-02-6.50888E-04-4.55000E-14
 -1      2671 1.01408E-02-6.09657E-04-4.48014E-14
 -1      2672 1.03416E-02-6.89324E-04-4.59969E-14
 -1      2673 1.09755E-02 1.34187E-03-4.77797E-14
 -1      2674 1.39646E-02 1.48010E-04-7.66862E-14
 -1      2675 1.16304E-02 1.03370E-03-5.11972E-14
 -1      2676 1.01849E-02 1.08727E-03-4.35592E-14
 -1      2677 1.46797E-02 9.46483E-04-7.55816E-14
 -1      2678 7.80329E-04 7.73780E-05-4.72617E-16
 -1      2679 7.79080E-04 5.55041E-05-4.76100E-16
 -1      2680 7.78241E-04 3.35793E-05-4.78296E-16
 -1      2681 7.77823E-04 1.19022E-05-4.79759E-16
 -1      2682 8.96677E-04 4.97049E-05-6.04172E-16
 -1      2683 7.91588E-04 1.73213E-04-4.44414E-16
 -1      2684 7.87608E-04 1.47791E-04-4.53766E-16
 -1      2685 8.03391E-04 2.28418E-04-4.18773E-16
 -1      2686 7.96800E-04 2.00024E-04-4.32935E-16
 -1      2687 9.14884E-04 2.07908E-04-5.57998E-16
 -1      2688 1.17503E-02-1.56265E-04-5.37561E-14
 -1      2689 1.15454E-02-2.78837E-04-5.28700E-14
 -1      2690 1.03366E-03-3.14325E-04-6.17236E-16
 -1      2691 1.17688E-03-3.40417E-04-7.82984E-16
 -1      2692 1.12971E-03 3.62025E-04-6.76976E-16
 -1      2693 9.86122E-04 3.32970E-04-5.25662E-16
 -1      2694 8.03025E-04 2.78325E-04-3.73413E-16
 -1      2695 2.26896E-03 4.78078E-04-2.62103E-15
 -1      2696 2.12715E-03 4.71370E-04-2.30729E-15
 -1      2697 1.32007E-03-3.62799E-04-9.69738E-16
 -1      2698 1.46329E-03-3.81751E-04-1.17750E-15
 -1      2699 1.23839E-03-3.19116E-04-8.96012E-16
 -1      2700 1.60631E-03-3.97787E-04-1.40563E-15
 -1      2701 1.74924E-03-4.11135E-04-1.65487E-15
 -1      2702 1.52495E-03-3.55407E-04-1.31488E-15
 -1      2703 1.89200E-03-4.22263E-04-1.92508E-15
 -1      2704 2.03465E-03-4.31358E-04-2.21549E-15
 -1      2705 1.81163E-03-3.81187E-04-1.81655E-15
 -1      2706 2.17720E-03-4.38793E-04-2.52658E-15
 -1      2707 2.31966E-03-4.44716E-04-2.85801E-15
 -1      2708 2.09809E-03-3.98851E-04-2.40037E-15
 -1      2709 2.46208E-03-4.49412E-04-3.20916E-15
 -1      2710 2.60444E-03-4.53000E-04-3.58043E-15
 -1      2711 2.38427E-03-4.10393E-04-3.06462E-15
 -1      2712 2.74680E-03-4.55691E-04-3.97166E-15
 -1      2713 2.88915E-03-4.57576E-04-4.38130E-15
 -1      2714 2.67023E-03-4.17401E-04-3.80848E-15
 -1      2715 3.03151E-03-4.58810E-04-4.81074E-15
 -1      2716 3.17388E-03-4.59460E-04-5.25875E-15
 -1      2717 2.95603E-03-4.21093E-04-4.62945E-15
 -1      2718 3.31629E-03-4.59634E-04-5.72495E-15
 -1      2719 3.45872E-03-4.59382E-04-6.21073E-15
 -1      2720 3.24174E-03-4.22374E-04-5.52554E-15
 -1      2721 3.60120E-03-4.58776E-04-6.71463E-15
 -1      2722 3.74371E-03-4.57848E-04-7.23695E-15
 -1      2723 3.52740E-03-4.21892E-04-6.49635E-15
 -1      2724 3.88628E-03-4.56644E-04-7.77700E-15
 -1      2725 4.02890E-03-4.55185E-04-8.33379E-15
 -1      2726 3.81306E-03-4.20089E-04-7.54026E-15
 -1      2727 4.17158E-03-4.53496E-04-8.90912E-15
 -1      2728 4.31431E-03-4.51587E-04-9.50210E-15
 -1      2729 4.09875E-03-4.17247E-04-8.65592E-15
 -1      2730 4.45710E-03-4.49471E-04-1.01112E-14
 -1      2731 4.59997E-03-4.47151E-04-1.07375E-14
 -1      2732 4.38449E-03-4.13526E-04-9.83999E-15
 -1      2733 4.74290E-03-4.44628E-04-1.13809E-14
 -1      2734 4.88592E-03-4.41906E-04-1.20413E-14
 -1      2735 4.67030E-03-4.08998E-04-1.10927E-14
 -1      2736 5.02902E-03-4.38981E-04-1.27192E-14
 -1      2737 5.17222E-03-4.35854E-04-1.34142E-14
 -1      2738 4.95621E-03-4.03677E-04-1.24131E-14
 -1      2739 5.31551E-03-4.32527E-04-1.41259E-14
 -1      2740 5.45894E-03-4.29004E-04-1.48557E-14
 -1      2741 5.24225E-03-3.97558E-04-1.38022E-14
 -1      2742 5.60248E-03-4.25294E-04-1.56039E-14
 -1      2743 5.74619E-03-4.21410E-04-1.63697E-14
 -1      2744 5.52848E-03-3.90644E-04-1.52621E-14
 -1      2745 5.89004E-03-4.17379E-04-1.71542E-14
 -1      2746 6.03411E-03-4.13228E-04-1.79565E-14
 -1      2747 5.81496E-03-3.82993E-04-1.67931E-14
 -1      2748 6.17837E-03-4.09008E-04-1.87770E-14
 -1      2749 6.32291E-03-4.04771E-04-1.96166E-14
 -1      2750 6.10181E-03-3.74764E-04-1.83969E-14
 -1      2751 6.46772E-03-4.00603E-04-2.04730E-14
 -1      2752 6.61288E-03-3.96589E-04-2.13475E-14
 -1      2753 6.38922E-03-3.66277E-04-2.00726E-14
 -1      2754 6.75842E-03-3.92860E-04-2.22396E-14
 -1      2755 6.90444E-03-3.89550E-04-2.31464E-14
 -1      2756 6.67747E-03-3.58082E-04-2.18191E-14
 -1      2757 7.05097E-03-3.86844E-04-2.40701E-14
 -1      2758 7.19815E-03-3.84939E-04-2.50099E-14
 -1      2759 6.96701E-03-3.51047E-04-2.36330E-14
 -1      2760 7.34607E-03-3.84078E-04-2.59644E-14
 -1      2761 7.49485E-03-3.84545E-04-2.69331E-14
 -1      2762 7.25855E-03-3.46444E-04-2.55083E-14
 -1      2763 7.64467E-03-3.86630E-04-2.79162E-14
 -1      2764 7.79562E-03-3.90728E-04-2.89122E-14
 -1      2765 7.55312E-03-3.46054E-04-2.74436E-14
 -1      2766 7.94800E-03-3.97152E-04-2.99211E-14
 -1      2767 8.10183E-03-4.06416E-04-3.09414E-14
 -1      2768 7.85216E-03-3.52257E-04-2.94324E-14
 -1      2769 8.25751E-03-4.18810E-04-3.19769E-14
 -1      2770 8.41492E-03-4.34932E-04-3.30251E-14
 -1      2771 8.15757E-03-3.68089E-04-3.14717E-14
 -1      2772 8.57454E-03-4.54963E-04-3.40837E-14
 -1      2773 8.73593E-03-4.79466E-04-3.51535E-14
 -1      2774 8.47142E-03-3.97171E-04-3.35621E-14
 -1      2775 8.89959E-03-5.08396E-04-3.62356E-14
 -1      2776 9.06457E-03-5.41877E-04-3.73298E-14
 -1      2777 8.79538E-03-4.43309E-04-3.56974E-14
 -1      2778 9.23115E-03-5.79456E-04-3.84379E-14
 -1      2779 9.39796E-03-6.20287E-04-3.95584E-14
 -1      2780 9.12929E-03-5.09134E-04-3.78816E-14
 -1      2781 9.56490E-03-6.63143E-04-4.06930E-14
 -1      2782 9.73039E-03-7.05586E-04-4.18367E-14
 -1      2783 9.46965E-03-5.93100E-04-4.01178E-14
 -1      2784 9.89390E-03-7.45650E-04-4.29929E-14
 -1      2785 1.00549E-02-7.79349E-04-4.41640E-14
 -1      2786 9.80879E-03-6.84581E-04-4.24048E-14
 -1      2787 1.02127E-02-8.04481E-04-4.53444E-14
 -1      2788 1.03687E-02-8.16813E-04-4.65332E-14
 -1      2789 1.01381E-02-7.60840E-04-4.47350E-14
 -1      2790 1.05219E-02-8.14793E-04-4.77331E-14
 -1      2791 1.06762E-02-7.97558E-04-4.89435E-14
 -1      2792 1.04551E-02-7.91525E-04-4.71099E-14
 -1      2793 1.08308E-02-7.65287E-04-5.01639E-14
 -1      2794 1.09882E-02-7.20322E-04-5.13939E-14
 -1      2795 1.07680E-02-7.55346E-04-4.95245E-14
 -1      2796 1.11479E-02-6.64530E-04-5.26341E-14
 -1      2797 1.13105E-02-6.02294E-04-5.38818E-14
 -1      2798 1.10890E-02-6.57896E-04-5.19792E-14
 -1      2799 1.14754E-02-5.35849E-04-5.51399E-14
 -1      2800 1.16415E-02-4.68806E-04-5.64090E-14
 -1      2801 1.14224E-02-5.24788E-04-5.44738E-14
 -1      2802 1.18085E-02-4.02880E-04-5.76847E-14
 -1      2803 1.19746E-02-3.39858E-04-5.89680E-14
 -1      2804 1.17630E-02-3.85462E-04-5.70038E-14
 -1      2805 1.21400E-02-2.80634E-04-6.02630E-14
 -1      2806 1.23034E-02-2.25592E-04-6.15654E-14
 -1      2807 1.21017E-02-2.58463E-04-5.95680E-14
 -1      2808 1.24652E-02-1.75007E-04-6.28748E-14
 -1      2809 1.26246E-02-1.28459E-04-6.41917E-14
 -1      2810 1.24322E-02-1.50331E-04-6.21693E-14
 -1      2811 1.27822E-02-8.58344E-05-6.55182E-14
 -1      2812 1.29375E-02-4.64539E-05-6.68529E-14
 -1      2813 1.27522E-02-6.04078E-05-6.48000E-14
 -1      2814 1.30911E-02-9.98401E-06-6.81929E-14
 -1      2815 1.32429E-02 2.42590E-05-6.95404E-14
 -1      2816 1.30624E-02 1.51485E-05-6.74644E-14
 -1      2817 1.33932E-02 5.67150E-05-7.08945E-14
 -1      2818 1.35420E-02 8.79844E-05-7.22540E-14
 -1      2819 1.33646E-02 8.09122E-05-7.01539E-14
 -1      2820 1.36897E-02 1.18537E-04-7.36190E-14
 -1      2821 1.38362E-02 1.48907E-04-7.49909E-14
 -1      2822 1.36606E-02 1.41283E-04-7.28671E-14
 -1      2823 1.98524E-03 4.63014E-04-2.01363E-15
 -1      2824 1.84321E-03 4.52850E-04-1.73989E-15
 -1      2825 2.04751E-03 4.31039E-04-2.19753E-15
 -1      2826 2.83601E-03 4.93120E-04-4.07882E-15
 -1      2827 2.69423E-03 4.90807E-04-3.68462E-15
 -1      2828 3.11971E-03 4.95691E-04-4.92622E-15
 -1      2829 2.97784E-03 4.94723E-04-4.49280E-15
 -1      2830 2.90231E-03 4.56974E-04-4.33124E-15
 -1      2831 3.40369E-03 4.96126E-04-5.85228E-15
 -1      2832 3.26167E-03 4.96140E-04-5.37963E-15
 -1      2833 3.18714E-03 4.58879E-04-5.19985E-15
 -1      2834 3.68798E-03 4.94977E-04-6.85374E-15
 -1      2835 3.54579E-03 4.95725E-04-6.34356E-15
 -1      2836 3.47206E-03 4.58848E-04-6.14543E-15
 -1      2837 3.97262E-03 4.92605E-04-7.92942E-15
 -1      2838 3.83026E-03 4.93928E-04-7.38251E-15
 -1      2839 3.75713E-03 4.57373E-04-7.16632E-15
 -1      2840 4.25765E-03 4.89221E-04-9.07741E-15
 -1      2841 4.11509E-03 4.91031E-04-8.49392E-15
 -1      2842 4.04239E-03 4.54765E-04-8.26082E-15
 -1      2843 4.54309E-03 4.84923E-04-1.02958E-14
 -1      2844 4.40031E-03 4.87182E-04-9.67772E-15
 -1      2845 4.32785E-03 4.51200E-04-9.42679E-15
 -1      2846 4.82900E-03 4.79727E-04-1.15821E-14
 -1      2847 4.68598E-03 4.82436E-04-1.09309E-14
 -1      2848 4.61355E-03 4.46752E-04-1.06630E-14
 -1      2849 5.11544E-03 4.73600E-04-1.29352E-14
 -1      2850 4.97214E-03 4.76781E-04-1.22505E-14
 -1      2851 4.89952E-03 4.41421E-04-1.19657E-14
 -1      2852 5.40249E-03 4.66489E-04-1.43533E-14
 -1      2853 5.25888E-03 4.70168E-04-1.36356E-14
 -1      2854 5.18579E-03 4.35168E-04-1.33347E-14
 -1      2855 5.69028E-03 4.58361E-04-1.58404E-14
 -1      2856 5.54628E-03 4.62550E-04-1.50891E-14
 -1      2857 5.47241E-03 4.27942E-04-1.47707E-14
 -1      2858 5.97895E-03 4.49251E-04-1.73914E-14
 -1      2859 5.83448E-03 4.53922E-04-1.66078E-14
 -1      2860 5.75941E-03 4.19724E-04-1.62731E-14
 -1      2861 6.26866E-03 4.39322E-04-1.90088E-14
 -1      2862 6.12364E-03 4.44372E-04-1.81917E-14
 -1      2863 6.04686E-03 4.10571E-04-1.78416E-14
 -1      2864 6.55963E-03 4.28957E-04-2.06873E-14
 -1      2865 6.41394E-03 4.34162E-04-1.98400E-14
 -1      2866 6.33481E-03 4.00684E-04-1.94749E-14
 -1      2867 6.85210E-03 4.18874E-04-2.24282E-14
 -1      2868 6.70562E-03 4.23825E-04-2.15503E-14
 -1      2869 6.62331E-03 3.90492E-04-2.11702E-14
 -1      2870 7.14643E-03 4.10296E-04-2.42267E-14
 -1      2871 6.99897E-03 4.14306E-04-2.33199E-14
 -1      2872 6.91246E-03 3.80769E-04-2.29263E-14
 -1      2873 7.44314E-03 4.05165E-04-2.60842E-14
 -1      2874 7.29440E-03 4.07157E-04-2.51479E-14
 -1      2875 7.20246E-03 3.72782E-04-2.47403E-14
 -1      2876 7.74307E-03 4.06425E-04-2.79956E-14
 -1      2877 7.59259E-03 4.04775E-04-2.70333E-14
 -1      2878 7.49373E-03 3.68488E-04-2.66116E-14
 -1      2879 8.04777E-03 4.18359E-04-2.99589E-14
 -1      2880 7.89467E-03 4.10720E-04-2.89706E-14
 -1      2881 7.78715E-03 3.70775E-04-2.85372E-14
 -1      2882 8.35985E-03 4.46964E-04-3.19710E-14
 -1      2883 8.20268E-03 4.30065E-04-3.09597E-14
 -1      2884 8.08459E-03 3.83768E-04-3.05132E-14
 -1      2885 8.68355E-03 5.00298E-04-3.40276E-14
 -1      2886 8.52003E-03 4.69798E-04-3.29931E-14
 -1      2887 8.38951E-03 4.13259E-04-3.25376E-14
 -1      2888 9.02457E-03 5.88433E-04-3.61245E-14
 -1      2889 8.85179E-03 5.38967E-04-3.50727E-14
 -1      2890 8.70776E-03 4.67296E-04-3.46065E-14
 -1      2891 9.38819E-03 7.22290E-04-3.82568E-14
 -1      2892 9.20401E-03 6.48645E-04-3.71862E-14
 -1      2893 9.04762E-03 5.57226E-04-3.67156E-14
 -1      2894 9.77347E-03 9.06246E-04-4.04247E-14
 -1      2895 9.57956E-03 8.08226E-04-3.93357E-14
 -1      2896 9.41689E-03 6.97458E-04-3.88581E-14
 -1      2897 1.05450E-02 1.31363E-03-4.48449E-14
 -1      2898 1.03610E-02 1.23330E-03-4.37222E-14
 -1      2899 1.09055E-02 1.37743E-03-4.72016E-14
 -1      2900 1.07258E-02 1.36294E-03-4.60592E-14
 -1      2901 1.16410E-02 1.15075E-03-5.18163E-14
 -1      2902 1.14474E-02 1.23160E-03-5.06278E-14
 -1      2903 1.20310E-02 9.95676E-04-5.42228E-14
 -1      2904 1.18374E-02 1.06893E-03-5.30128E-14
 -1      2905 1.17740E-02 1.04804E-03-5.24977E-14
 -1      2906 1.24069E-02 8.84897E-04-5.66743E-14
 -1      2907 1.22225E-02 9.34623E-04-5.54425E-14
 -1      2908 1.21719E-02 8.98341E-04-5.49202E-14
 -1      2909 1.27595E-02 8.22469E-04-5.91633E-14
 -1      2910 1.25866E-02 8.48197E-04-5.79156E-14
 -1      2911 1.25433E-02 8.05694E-04-5.73852E-14
 -1      2912 1.30910E-02 8.00664E-04-6.16861E-14
 -1      2913 1.29277E-02 8.07509E-04-6.04215E-14
 -1      2914 1.28847E-02 7.62816E-04-5.98875E-14
 -1      2915 1.34072E-02 8.07706E-04-6.42421E-14
 -1      2916 1.32507E-02 8.01341E-04-6.29603E-14
 -1      2917 1.32037E-02 7.56101E-04-6.24221E-14
 -1      2918 1.37132E-02 8.33659E-04-6.68229E-14
 -1      2919 1.35612E-02 8.18901E-04-6.55286E-14
 -1      2920 1.35086E-02 7.73336E-04-6.49857E-14
 -1      2921 1.40126E-02 8.70381E-04-6.94389E-14
 -1      2922 1.38636E-02 8.51105E-04-6.81263E-14
 -1      2923 1.38053E-02 8.05406E-04-6.75810E-14
 -1      2924 1.43072E-02 9.11380E-04-7.20831E-14
 -1      2925 1.41603E-02 8.90684E-04-7.07563E-14
 -1      2926 1.40973E-02 8.45355E-04-7.02086E-14
 -1      2927 1.45669E-02 9.39384E-04-7.44967E-14
 -1      2928 1.44220E-02 9.19473E-04-7.31503E-14
 -1      2929 1.43561E-02 8.75337E-04-7.25997E-14
 -1      2930 1.45813E-02 8.92565E-04-7.47499E-14
 -1      2931 1.45080E-02 5.84628E-04-7.58174E-14
 -1      2932 1.45314E-02 6.14209E-04-7.57096E-14
 -1      2933 1.45738E-02 7.02748E-04-7.53605E-14
 -1      2934 1.45794E-02 7.33316E-04-7.52370E-14
 -1      2935 1.44476E-02 5.23971E-04-7.60266E-14
 -1      2936 1.44800E-02 5.54703E-04-7.59238E-14
 -1      2937 1.43790E-02 5.50739E-04-7.46835E-14
 -1      2938 1.45502E-02 6.43481E-04-7.55957E-14
 -1      2939 1.45642E-02 6.72977E-04-7.54793E-14
 -1      2940 1.44541E-02 6.69010E-04-7.42376E-14
 -1      2941 1.44265E-02 6.10074E-04-7.44672E-14
 -1      2942 1.15596E-02 1.09616E-03-5.10544E-14
 -1      2943 1.17529E-02 9.78160E-04-5.19688E-14
 -1      2944 1.43730E-02 4.60926E-04-7.62160E-14
 -1      2945 1.44120E-02 4.92984E-04-7.61227E-14
 -1      2946 1.43134E-02 4.89189E-04-7.48836E-14
 -1      2947 1.42854E-02 3.92424E-04-7.64019E-14
 -1      2948 1.43304E-02 4.27272E-04-7.63105E-14
 -1      2949 1.42328E-02 4.23370E-04-7.50717E-14
 -1      2950 1.41908E-02 3.19378E-04-7.65760E-14
 -1      2951 1.42387E-02 3.56460E-04-7.64894E-14
 -1      2952 1.41408E-02 3.52081E-04-7.52522E-14
 -1      2953 1.27891E-02 3.18158E-04-5.64465E-14
 -1      2954 1.26653E-02 2.80391E-04-5.62414E-14
 -1      2955 1.70102E-03 4.40459E-04-1.48626E-15
 -1      2956 1.55858E-03 4.25642E-04-1.25338E-15
 -1      2957 1.76202E-03 4.11109E-04-1.64651E-15
 -1      2958 1.19622E-02 8.61154E-04-5.29370E-14
 -1      2959 1.21218E-02 7.71169E-04-5.35870E-14
 -1      2960 9.90463E-03-4.96719E-04-4.35273E-14
 -1      2961 9.74741E-03-4.05769E-04-4.28033E-14
 -1      2962 9.72573E-03 7.92564E-04-4.14799E-14
 -1      2963 9.88457E-03 8.97670E-04-4.20516E-14
 -1      2964 1.25107E-02 2.23330E-04-5.59609E-14
 -1      2965 1.23473E-02 1.54614E-04-5.56489E-14
 -1      2966 1.12476E-02 1.26641E-03-4.93798E-14
 -1      2967 1.13790E-02 1.19863E-03-5.01260E-14
 -1      2968 1.30744E-02 3.94461E-04-5.74676E-14
 -1      2969 1.30535E-02 3.86203E-04-5.73325E-14
 -1      2970 1.10566E-02 1.34976E-03-4.82155E-14
 -1      2971 8.39508E-03 1.75818E-04-3.84707E-14
 -1      2972 8.38133E-03 1.81637E-04-3.83723E-14
 -1      2973 2.55247E-03 4.87617E-04-3.31034E-15
 -1      2974 2.41073E-03 4.83451E-04-2.95575E-15
 -1      2975 2.33262E-03 4.44222E-04-2.82904E-15
 -1      2976 2.61750E-03 4.52420E-04-3.54081E-15
 -1      2977 6.88534E-04-2.04095E-04-3.24895E-16
 -1      2978 1.05125E-02 1.27521E-03-4.50068E-14
 -1      2979 1.06245E-02 1.31551E-03-4.57374E-14
 -1      2980 1.29857E-02 4.29628E-04-5.71288E-14
 -1      2981 1.30532E-02 4.13041E-04-5.74279E-14
 -1      2982 7.84484E-04 1.23527E-04-4.61233E-16
 -1      2983 7.82117E-04 1.00080E-04-4.67535E-16
 -1      2984 8.99761E-04 9.94985E-05-5.95322E-16
 -1      2985 9.05452E-04 1.51658E-04-5.80414E-16
 -1      2986 8.41008E-03 1.93759E-04-3.83775E-14
 -1      2987 8.47668E-03 2.08148E-04-3.84322E-14
 -1      2988 8.91979E-03 3.56656E-04-3.93404E-14
 -1      2989 9.10763E-03 4.40817E-04-3.97476E-14
 -1      2990 9.33243E-03 5.56783E-04-4.03150E-14
 -1      2991 9.52534E-03 6.67884E-04-4.08694E-14
 -1      2992 7.81850E-04-9.80268E-05-4.70124E-16
 -1      2993 7.84141E-04-1.21392E-04-4.64432E-16
 -1      2994 1.41592E-03 4.07867E-04-1.04092E-15
 -1      2995 1.27289E-03 3.86869E-04-8.48713E-16
 -1      2996 1.18959E-03 3.41564E-04-7.86128E-16
 -1      2997 1.47601E-03 3.82198E-04-1.17564E-15
 -1      2998 1.40309E-02 1.88862E-04-7.68644E-14
 -1      2999 1.40976E-02 2.28904E-04-7.70403E-14
 -1      3000 1.39337E-02 1.68731E-04-7.59264E-14
 -1      3001 9.61402E-03-3.31220E-04-4.22466E-14
 -1      3002 9.47410E-03-2.54171E-04-4.16938E-14
 -1      3003 9.66374E-03-3.88607E-04-4.21919E-14
 -1      3004 8.59962E-03 2.43735E-04-3.85229E-14
 -1      3005 8.73949E-03 2.87404E-04-3.88403E-14
 -1      3006 1.27321E-02 5.13735E-04-5.62530E-14
 -1      3007 1.28707E-02 4.67222E-04-5.67384E-14
 -1      3008 1.29974E-02 3.70687E-04-5.70329E-14
 -1      3009 1.29069E-02 3.51204E-04-5.67527E-14
 -1      3010 1.28804E-02 3.40902E-04-5.73479E-14
 -1      3011 1.30514E-02 3.83479E-04-5.79533E-14
 -1      3012 1.21491E-02 5.87261E-05-5.52509E-14
 -1      3013 1.19896E-02-2.49786E-05-5.47560E-14
 -1      3014 1.00740E-02 1.02108E-03-4.28276E-14
 -1      3015 1.02543E-02 1.13966E-03-4.36175E-14
 -1      3016 8.51796E-03 1.43452E-04-3.87391E-14
 -1      3017 8.44132E-03 1.62720E-04-3.86040E-14
 -1      3018 8.38818E-03 1.61591E-04-3.79442E-14
 -1      3019 1.07268E-02 1.34859E-03-4.62139E-14
 -1      3020 1.23239E-02 6.72816E-04-5.44512E-14
 -1      3021 1.25196E-02 5.92169E-04-5.53153E-14
 -1      3022 1.22733E-02 7.31590E-04-5.46301E-14
 -1      3023 1.04040E-02 1.22575E-03-4.43466E-14
 -1      3024 1.05363E-02 1.29556E-03-4.49976E-14
 -1      3025 7.87174E-04-1.45558E-04-4.57425E-16
 -1      3026 7.91062E-04-1.70739E-04-4.48521E-16
 -1      3027 9.04992E-04-1.49145E-04-5.85252E-16
 -1      3028 8.95661E-04 1.00939E-06-6.07397E-16
 -1      3029 7.77793E-04-9.72796E-06-4.80112E-16
 -1      3030 7.78153E-04-3.13885E-05-4.79272E-16
 -1      3031 1.14438E-02-3.48424E-04-5.26528E-14
 -1      3032 1.18729E-02-1.01197E-04-5.46737E-14
 -1      3033 1.39042E-02 1.89850E-04-7.51692E-14
 -1      3034 8.57114E-03 1.21285E-04-3.86594E-14
 -1      3035 8.48293E-03 1.28508E-04-3.79967E-14
 -1      3036 8.62833E-03 9.39590E-05-3.85785E-14
 -1      3037 8.64813E-04 2.66644E-04-4.52532E-16
 -1      3038 1.29775E-02 4.62797E-04-5.77780E-14
 -1      3039 9.19115E-03 4.93262E-04-3.95610E-14
 -1      3040 1.31046E-02 4.12907E-04-5.82138E-14
 -1      3041 9.82922E-04 2.75874E-04-5.83165E-16
 -1      3042 7.78923E-04-5.31862E-05-4.77279E-16
 -1      3043 7.80129E-04-7.53876E-05-4.74203E-16
 -1      3044 8.99479E-04-9.71490E-05-5.98276E-16
 -1      3045 8.96548E-04-4.75539E-05-6.05500E-16
 -1      3046 9.86485E-03 9.36741E-04-4.11245E-14
 -1      3047 9.69761E-03 8.14773E-04-4.06393E-14
 -1      3048 1.02246E-02 1.15231E-03-4.29986E-14
 -1      3049 1.00303E-02 1.04432E-03-4.18919E-14
 -1      3050 1.14561E-02 1.19068E-03-5.06315E-14
 -1      3051 1.13391E-02 1.27582E-03-4.99595E-14
 -1      3052 1.12454E-02 1.29652E-03-4.93792E-14
 -1      3053 1.45862E-02 8.56589E-04-7.48857E-14
 -1      3054 1.44756E-02 8.47516E-04-7.38055E-14
 -1      3055 1.45903E-02 8.22051E-04-7.50133E-14
 -1      3056 1.11215E-02-5.42048E-04-5.11335E-14
 -1      3057 1.10213E-02-5.90810E-04-5.04496E-14
 -1      3058 8.51038E-03 2.21754E-04-3.79132E-14
 -1      3059 1.26194E-02 2.57338E-04-5.67601E-14
 -1      3060 1.22846E-02 1.12609E-04-5.60792E-14
 -1      3061 1.41460E-02 2.68244E-04-7.69615E-14
 -1      3062 9.59747E-03 7.25854E-04-4.07321E-14
 -1      3063 8.92652E-03 8.11663E-06-3.98756E-14
 -1      3064 8.81879E-03 3.05583E-05-3.92016E-14
 -1      3065 9.00664E-03-4.20452E-05-3.98345E-14
 -1      3066 1.26726E-02 5.64102E-04-5.64393E-14
 -1      3067 1.00176E-02-5.70253E-04-4.40123E-14
 -1      3068 9.89424E-03-5.33334E-04-4.32283E-14
 -1      3069 1.01093E-02-6.31412E-04-4.45007E-14
 -1      3070 1.06757E-02-7.09961E-04-4.82375E-14
 -1      3071 1.05438E-02-7.20553E-04-4.73470E-14
 -1      3072 1.18823E-02 9.34047E-04-5.27899E-14
 -1      3073 8.80119E-03 3.18528E-04-3.84983E-14
 -1      3074 9.96619E-03 9.64963E-04-4.21110E-14
 -1      3075 1.39755E-02 2.26640E-04-7.54461E-14
 -1      3076 1.41207E-02 2.84677E-04-7.62991E-14
 -1      3077 1.40218E-02 2.79967E-04-7.50635E-14
 -1      3078 1.38788E-02 2.07968E-04-7.45126E-14
 -1      3079 1.14977E-02 1.14244E-03-5.07968E-14
 -1      3080 9.34592E-03-1.96700E-04-4.10784E-14
 -1      3081 9.21958E-03-1.47066E-04-4.04651E-14
 -1      3082 9.41315E-03-2.63856E-04-4.10232E-14
 -1      3083 8.03090E-04-2.03426E-04-4.41216E-16
 -1      3084 8.21644E-04-2.53947E-04-4.22324E-16
 -1      3085 9.52762E-04-2.88346E-04-5.42237E-16
 -1      3086 9.21212E-04-2.11368E-04-5.68420E-16
 -1      3087 1.04364E-02-7.16963E-04-4.66359E-14
 -1      3088 1.03307E-02-7.01408E-04-4.59290E-14
 -1      3089 1.05211E-02-7.30317E-04-4.72800E-14
 -1      3090 1.45871E-02 7.60693E-04-7.51941E-14
 -1      3091 1.45866E-02 7.92833E-04-7.50663E-14
 -1      3092 1.44790E-02 7.82753E-04-7.39857E-14
 -1      3093 1.44692E-02 7.26217E-04-7.40776E-14
 -1      3094 1.01520E-03-2.72478E-04-6.34936E-16
 -1      3095 8.36797E-03 1.81501E-04-3.78178E-14
 -1      3096 1.02905E-02 1.17146E-03-4.36095E-14
 -1      3097 1.04031E-03 2.43349E-04-6.84077E-16
 -1      3098 1.03373E-03 2.11619E-04-6.99785E-16
 -1      3099 1.29968E-02 4.97478E-04-5.85951E-14
 -1      3100 1.30910E-02 4.64830E-04-5.89941E-14
 -1      3101 1.06449E-02 1.34672E-03-4.55069E-14
 -1      3102 1.44460E-03-3.13779E-04-1.22448E-15
 -1      3103 1.58811E-03-3.28193E-04-1.45616E-15
 -1      3104 1.73171E-03-3.40388E-04-1.70859E-15
 -1      3105 1.87538E-03-3.50522E-04-1.98151E-15
 -1      3106 1.65246E-03-3.00101E-04-1.60119E-15
 -1      3107 2.01905E-03-3.58921E-04-2.27466E-15
 -1      3108 2.16270E-03-3.65738E-04-2.58777E-15
 -1      3109 1.94028E-03-3.19175E-04-2.14925E-15
 -1      3110 2.30631E-03-3.71245E-04-2.92100E-15
 -1      3111 2.44986E-03-3.75564E-04-3.27369E-15
 -1      3112 2.22834E-03-3.32085E-04-2.77788E-15
 -1      3113 2.59337E-03-3.78913E-04-3.64609E-15
 -1      3114 2.73681E-03-3.81388E-04-4.03806E-15
 -1      3115 2.51633E-03-3.40305E-04-3.48499E-15
 -1      3116 2.88020E-03-3.83153E-04-4.44863E-15
 -1      3117 3.02353E-03-3.84279E-04-4.87835E-15
 -1      3118 2.80411E-03-3.45036E-04-4.26907E-15
 -1      3119 3.16682E-03-3.84890E-04-5.32709E-15
 -1      3120 3.31005E-03-3.85035E-04-5.79384E-15
 -1      3121 3.09160E-03-3.47209E-04-5.12889E-15
 -1      3122 3.45325E-03-3.84800E-04-6.27922E-15
 -1      3123 3.59640E-03-3.84220E-04-6.78311E-15
 -1      3124 3.37880E-03-3.47512E-04-6.06363E-15
 -1      3125 3.73952E-03-3.83353E-04-7.30519E-15
 -1      3126 3.88260E-03-3.82217E-04-7.84510E-15
 -1      3127 3.66570E-03-3.46432E-04-7.07090E-15
 -1      3128 4.02564E-03-3.80851E-04-8.40207E-15
 -1      3129 4.16866E-03-3.79262E-04-8.97711E-15
 -1      3130 3.95231E-03-3.44292E-04-8.15030E-15
 -1      3131 4.31165E-03-3.77473E-04-9.57008E-15
 -1      3132 4.45461E-03-3.75484E-04-1.01791E-14
 -1      3133 4.23864E-03-3.41287E-04-9.29977E-15
 -1      3134 4.59754E-03-3.73304E-04-1.08050E-14
 -1      3135 4.74045E-03-3.70931E-04-1.14481E-14
 -1      3136 4.52467E-03-3.37514E-04-1.05188E-14
 -1      3137 4.88332E-03-3.68367E-04-1.21088E-14
 -1      3138 5.02618E-03-3.65606E-04-1.27865E-14
 -1      3139 4.81042E-03-3.33003E-04-1.18046E-14
 -1      3140 5.16901E-03-3.62650E-04-1.34803E-14
 -1      3141 5.31182E-03-3.59493E-04-1.41915E-14
 -1      3142 5.09584E-03-3.27745E-04-1.31592E-14
 -1      3143 5.45461E-03-3.56142E-04-1.49214E-14
 -1      3144 5.59739E-03-3.52594E-04-1.56690E-14
 -1      3145 5.38093E-03-3.21715E-04-1.45820E-14
 -1      3146 5.74014E-03-3.48867E-04-1.64342E-14
 -1      3147 5.88291E-03-3.44965E-04-1.72173E-14
 -1      3148 5.66567E-03-3.14909E-04-1.60767E-14
 -1      3149 6.02568E-03-3.40923E-04-1.80185E-14
 -1      3150 6.16849E-03-3.36760E-04-1.88373E-14
 -1      3151 5.95006E-03-3.07376E-04-1.76419E-14
 -1      3152 6.31132E-03-3.32536E-04-1.96753E-14
 -1      3153 6.45426E-03-3.28293E-04-2.05301E-14
 -1      3154 6.23415E-03-2.99260E-04-1.92792E-14
 -1      3155 6.59730E-03-3.24120E-04-2.14022E-14
 -1      3156 6.74054E-03-3.20096E-04-2.22923E-14
 -1      3157 6.51807E-03-2.90850E-04-2.09873E-14
 -1      3158 6.88400E-03-3.16347E-04-2.31977E-14
 -1      3159 7.02782E-03-3.13006E-04-2.41181E-14
 -1      3160 6.80213E-03-2.82639E-04-2.27641E-14
 -1      3161 7.17207E-03-3.10235E-04-2.50545E-14
 -1      3162 7.31692E-03-3.08250E-04-2.60064E-14
 -1      3163 7.08688E-03-2.75401E-04-2.46041E-14
 -1      3164 7.46252E-03-3.07248E-04-2.69729E-14
 -1      3165 7.60910E-03-3.07564E-04-2.79530E-14
 -1      3166 7.37326E-03-2.70282E-04-2.65038E-14
 -1      3167 7.75691E-03-3.09421E-04-2.89451E-14
 -1      3168 7.90620E-03-3.13322E-04-2.99500E-14
 -1      3169 7.66277E-03-2.68934E-04-2.84596E-14
 -1      3170 8.05738E-03-3.19501E-04-3.09681E-14
 -1      3171 8.21068E-03-3.28687E-04-3.19986E-14
 -1      3172 7.95767E-03-2.73703E-04-3.04667E-14
 -1      3173 8.36665E-03-3.41093E-04-3.30408E-14
 -1      3174 8.52537E-03-3.57687E-04-3.40954E-14
 -1      3175 8.26105E-03-2.87931E-04-3.25230E-14
 -1      3176 8.68749E-03-3.78622E-04-3.51606E-14
 -1      3177 8.85267E-03-4.04987E-04-3.62384E-14
 -1      3178 8.57660E-03-3.16244E-04-3.46263E-14
 -1      3179 9.02151E-03-4.36871E-04-3.73283E-14
 -1      3180 9.19283E-03-4.74646E-04-3.84300E-14
 -1      3181 8.90766E-03-3.64782E-04-3.67776E-14
 -1      3182 9.36715E-03-5.17687E-04-3.95470E-14
 -1      3183 9.54180E-03-5.65327E-04-4.06762E-14
 -1      3184 9.25518E-03-4.39000E-04-3.89785E-14
 -1      3185 1.00583E-02-7.15904E-04-4.41313E-14
 -1      3186 1.02232E-02-7.49515E-04-4.53058E-14
 -1      3187 1.03580E-02-7.52275E-04-4.62461E-14
 -1      3188 1.05202E-02-7.58131E-04-4.74365E-14
 -1      3189 1.10258E-02-6.56841E-04-5.13300E-14
 -1      3190 1.11937E-02-5.91374E-04-5.25650E-14
 -1      3191 1.13652E-02-5.18448E-04-5.38118E-14
 -1      3192 1.15389E-02-4.44299E-04-5.50662E-14
 -1      3193 1.13077E-02-5.15555E-04-5.31501E-14
 -1      3194 1.17139E-02-3.71319E-04-5.63292E-14
 -1      3195 1.18879E-02-3.02373E-04-5.76006E-14
 -1      3196 1.16649E-02-3.58092E-04-5.56571E-14
 -1      3197 1.20605E-02-2.38596E-04-5.88807E-14
 -1      3198 1.22300E-02-1.80269E-04-6.01716E-14
 -1      3199 1.20201E-02-2.17678E-04-5.81963E-14
 -1      3200 1.23968E-02-1.27677E-04-6.14696E-14
 -1      3201 1.25599E-02-8.00173E-05-6.27745E-14
 -1      3202 1.23629E-02-1.03168E-04-6.07710E-14
 -1      3203 1.27201E-02-3.71114E-05-6.40897E-14
 -1      3204 1.28771E-02 2.10658E-06-6.54120E-14
 -1      3205 1.26897E-02-1.20712E-05-6.33812E-14
 -1      3206 1.30316E-02 3.79409E-05-6.67401E-14
 -1      3207 1.31836E-02 7.13166E-05-6.80777E-14
 -1      3208 1.30024E-02 6.20351E-05-6.60190E-14
 -1      3209 1.33337E-02 1.02601E-04-6.94208E-14
 -1      3210 1.34821E-02 1.32524E-04-7.07701E-14
 -1      3211 1.33044E-02 1.25168E-04-6.86892E-14
 -1      3212 1.36083E-02 1.56083E-04-7.19538E-14
 -1      3213 1.37543E-02 1.84709E-04-7.33160E-14
 -1      3214 1.38270E-02 2.21811E-04-7.35910E-14
 -1      3215 1.35781E-02 1.76972E-04-7.12145E-14
 -1      3216 2.11105E-03 3.98433E-04-2.38401E-15
 -1      3217 1.96782E-03 3.90617E-04-2.08705E-15
 -1      3218 3.25501E-03 4.21775E-04-5.47445E-15
 -1      3219 3.11213E-03 4.21375E-04-5.02024E-15
 -1      3220 2.96922E-03 4.20459E-04-4.58493E-15
 -1      3221 2.82631E-03 4.18970E-04-4.16926E-15
 -1      3222 3.03674E-03 3.83654E-04-4.84064E-15
 -1      3223 3.82647E-03 4.19618E-04-7.47980E-15
 -1      3224 3.68361E-03 4.20631E-04-6.95016E-15
 -1      3225 4.11221E-03 4.16840E-04-8.59287E-15
 -1      3226 3.96934E-03 4.18349E-04-8.02772E-15
 -1      3227 3.89598E-03 3.81773E-04-7.79434E-15
 -1      3228 4.39798E-03 4.13162E-04-9.77692E-15
 -1      3229 4.25509E-03 4.15109E-04-9.17608E-15
 -1      3230 4.18208E-03 3.78889E-04-8.92565E-15
 -1      3231 4.68381E-03 4.08636E-04-1.10297E-14
 -1      3232 4.54089E-03 4.11005E-04-1.03948E-14
 -1      3233 4.46804E-03 3.75164E-04-1.01278E-14
 -1      3234 4.96968E-03 4.03252E-04-1.23503E-14
 -1      3235 4.82673E-03 4.06053E-04-1.16820E-14
 -1      3236 4.75385E-03 3.70633E-04-1.13979E-14
 -1      3237 5.25561E-03 3.96967E-04-1.37350E-14
 -1      3238 5.11263E-03 4.00225E-04-1.30344E-14
 -1      3239 5.03948E-03 3.65279E-04-1.27343E-14
 -1      3240 5.54157E-03 3.89740E-04-1.51889E-14
 -1      3241 5.39858E-03 3.93474E-04-1.44531E-14
 -1      3242 5.32489E-03 3.59064E-04-1.41373E-14
 -1      3243 5.82754E-03 3.81570E-04-1.67080E-14
 -1      3244 5.68455E-03 3.85772E-04-1.59410E-14
 -1      3245 5.60999E-03 3.51958E-04-1.56077E-14
 -1      3246 6.11347E-03 3.72543E-04-1.82937E-14
 -1      3247 5.97050E-03 3.77157E-04-1.74925E-14
 -1      3248 5.89468E-03 3.43983E-04-1.71444E-14
 -1      3249 6.39928E-03 3.62898E-04-1.99427E-14
 -1      3250 6.25637E-03 3.67782E-04-1.91100E-14
 -1      3251 6.17879E-03 3.35258E-04-1.87465E-14
 -1      3252 6.68489E-03 3.53107E-04-2.16548E-14
 -1      3253 6.54209E-03 3.57990E-04-2.07906E-14
 -1      3254 6.46212E-03 3.26059E-04-2.04116E-14
 -1      3255 6.97022E-03 3.43981E-04-2.34258E-14
 -1      3256 6.82756E-03 3.48409E-04-2.25334E-14
 -1      3257 6.74444E-03 3.16895E-04-2.21390E-14
 -1      3258 7.25533E-03 3.36797E-04-2.52554E-14
 -1      3259 7.11276E-03 3.40063E-04-2.43332E-14
 -1      3260 7.02552E-03 3.08592E-04-2.39261E-14
 -1      3261 7.54050E-03 3.33459E-04-2.71412E-14
 -1      3262 7.39782E-03 3.34516E-04-2.61916E-14
 -1      3263 7.30520E-03 3.02394E-04-2.57714E-14
 -1      3264 7.82664E-03 3.36687E-04-2.90797E-14
 -1      3265 7.68330E-03 3.34046E-04-2.81041E-14
 -1      3266 7.58365E-03 3.00069E-04-2.76717E-14
 -1      3267 8.11584E-03 3.50299E-04-3.10698E-14
 -1      3268 7.97060E-03 3.41862E-04-3.00679E-14
 -1      3269 7.86171E-03 3.04043E-04-2.96238E-14
 -1      3270 8.41227E-03 3.79693E-04-3.31061E-14
 -1      3271 8.26273E-03 3.62452E-04-3.20828E-14
 -1      3272 8.14162E-03 3.17638E-04-3.16265E-14
 -1      3273 8.72337E-03 4.32933E-04-3.51868E-14
 -1      3274 8.56538E-03 4.02302E-04-3.41415E-14
 -1      3275 8.42806E-03 3.45684E-04-3.36768E-14
 -1      3276 9.05979E-03 5.22562E-04-3.73068E-14
 -1      3277 8.88773E-03 4.71377E-04-3.62428E-14
 -1      3278 8.72998E-03 3.95972E-04-3.57679E-14
 -1      3279 9.46495E-03 6.90709E-04-3.95055E-14
 -1      3280 9.27245E-03 6.07006E-04-3.84227E-14
 -1      3281 9.09314E-03 5.03948E-04-3.79439E-14
 -1      3282 9.54165E-03 7.10310E-04-4.01986E-14
 -1      3283 1.30098E-02 7.08679E-04-6.06152E-14
 -1      3284 1.28507E-02 7.15512E-04-5.93547E-14
 -1      3285 1.33141E-02 7.16274E-04-6.31604E-14
 -1      3286 1.31638E-02 7.09753E-04-6.18844E-14
 -1      3287 1.31306E-02 6.62541E-04-6.13461E-14
 -1      3288 1.36071E-02 7.42460E-04-6.57345E-14
 -1      3289 1.34615E-02 7.27692E-04-6.44438E-14
 -1      3290 1.34193E-02 6.82392E-04-6.39011E-14
 -1      3291 1.38947E-02 7.79537E-04-6.83431E-14
 -1      3292 1.37513E-02 7.60035E-04-6.70337E-14
 -1      3293 1.37009E-02 7.15572E-04-6.64867E-14
 -1      3294 1.41800E-02 8.21879E-04-7.09831E-14
 -1      3295 1.40375E-02 8.00334E-04-6.96592E-14
 -1      3296 1.39804E-02 7.56323E-04-6.91069E-14
 -1      3297 1.43843E-02 8.39507E-04-7.29243E-14
 -1      3298 1.42724E-02 8.29973E-04-7.18553E-14
 -1      3299 1.42110E-02 7.86694E-04-7.12990E-14
 -1      3300 1.43915E-02 8.03941E-04-7.30517E-14
 -1      3301 1.12776E-02-4.62600E-04-5.21641E-14
 -1      3302 1.11620E-02-5.38123E-04-5.16541E-14
 -1      3303 1.16254E-02 1.09305E-03-5.15639E-14
 -1      3304 1.19820E-02-6.15176E-05-5.56115E-14
 -1      3305 1.17625E-02-1.79790E-04-5.46054E-14
 -1      3306 8.40933E-03 1.99917E-04-3.70804E-14
 -1      3307 8.51227E-03 2.30729E-04-3.71684E-14
 -1      3308 1.03831E-03-2.53146E-04-6.81353E-16
 -1      3309 1.11802E-03-2.75617E-04-7.67764E-16
 -1      3310 1.26079E-03-2.96455E-04-9.52390E-16
 -1      3311 1.02410E-03-2.14620E-04-6.92236E-16
 -1      3312 1.42494E-02 5.16977E-04-7.35535E-14
 -1      3313 1.42787E-02 5.47302E-04-7.34497E-14
 -1      3314 1.09108E-02-6.45171E-04-4.98552E-14
 -1      3315 1.09167E-02-6.34570E-04-4.96792E-14
 -1      3316 1.39945E-02 3.11221E-04-7.41068E-14
 -1      3317 1.40436E-02 3.49042E-04-7.40204E-14
 -1      3318 1.41781E-02 4.54403E-04-7.37453E-14
 -1      3319 1.42158E-02 4.86315E-04-7.36515E-14
 -1      3320 1.41193E-02 4.83955E-04-7.24245E-14
 -1      3321 1.24293E-02 1.65035E-04-5.70162E-14
 -1      3322 1.22562E-02 7.95763E-05-5.66150E-14
 -1      3323 1.82454E-03 3.81034E-04-1.80990E-15
 -1      3324 1.68118E-03 3.69510E-04-1.55201E-15
 -1      3325 1.88831E-03 3.50284E-04-1.97605E-15
 -1      3326 1.40910E-02 3.85530E-04-7.39329E-14
 -1      3327 1.41360E-02 4.20689E-04-7.38397E-14
 -1      3328 1.40405E-02 4.18903E-04-7.26146E-14
 -1      3329 1.39473E-02 3.47124E-04-7.27967E-14
 -1      3330 1.26849E-02 7.30068E-04-5.81011E-14
 -1      3331 1.25111E-02 7.57931E-04-5.68572E-14
 -1      3332 1.28255E-02 6.65344E-04-5.88190E-14
 -1      3333 3.54074E-03 4.21352E-04-6.43898E-15
 -1      3334 3.39788E-03 4.21754E-04-5.94713E-15
 -1      3335 3.32332E-03 3.84452E-04-5.74977E-15
 -1      3336 3.60973E-03 3.83702E-04-6.73459E-15
 -1      3337 1.14625E-02-3.54759E-04-5.31813E-14
 -1      3338 1.14498E-03 3.10652E-04-7.58928E-16
 -1      3339 1.08236E-03 2.71718E-04-7.13798E-16
 -1      3340 1.20148E-03 2.73108E-04-8.75629E-16
 -1      3341 1.28813E-03 3.32601E-04-9.40491E-16
 -1      3342 1.01677E-03 6.82332E-05-7.44454E-16
 -1      3343 1.01561E-03 4.12398E-05-7.47734E-16
 -1      3344 8.70261E-03 2.94842E-04-3.76787E-14
 -1      3345 8.86705E-03 3.56099E-04-3.81728E-14
 -1      3346 1.31561E-02 4.34044E-04-5.92695E-14
 -1      3347 1.31643E-02 4.16380E-04-5.93112E-14
 -1      3348 1.26053E-02 6.23449E-04-5.65751E-14
 -1      3349 1.27982E-02 5.55781E-04-5.75212E-14
 -1      3350 9.66826E-03-4.30821E-04-4.19768E-14
 -1      3351 9.55241E-03-3.66089E-04-4.14247E-14
 -1      3352 1.27238E-02 2.85616E-04-5.75897E-14
 -1      3353 1.25878E-02 2.34854E-04-5.73073E-14
 -1      3354 1.07710E-02-6.87095E-04-4.87822E-14
 -1      3355 8.37084E-03 1.44887E-04-3.72860E-14
 -1      3356 8.33186E-03 1.56020E-04-3.71555E-14
 -1      3357 8.32421E-03 1.69714E-04-3.71427E-14
 -1      3358 8.34978E-03 1.80261E-04-3.71477E-14
 -1      3359 1.01502E-03 1.44526E-05-7.49766E-16
 -1      3360 1.01498E-03-1.22357E-05-7.50254E-16
 -1      3361 1.13573E-03 3.01728E-05-9.06827E-16
 -1      3362 1.31947E-02 4.62661E-04-6.00978E-14
 -1      3363 8.69593E-03 5.94019E-05-3.85363E-14
 -1      3364 8.58516E-03 7.68399E-05-3.78740E-14
 -1      3365 8.76217E-03 1.89104E-05-3.84910E-14
 -1      3366 1.31077E-02 3.93072E-04-5.89260E-14
 -1      3367 1.30436E-02 3.77429E-04-5.86244E-14
 -1      3368 1.55628E-03 3.61469E-04-1.33915E-15
 -1      3369 1.41290E-03 3.45340E-04-1.11967E-15
 -1      3370 1.36912E-03 3.15120E-04-1.08460E-15
 -1      3371 1.61932E-03 3.33853E-04-1.48384E-15
 -1      3372 1.32472E-03-2.73641E-04-1.07057E-15
 -1      3373 2.68334E-03 4.16772E-04-3.77306E-15
 -1      3374 2.54035E-03 4.13786E-04-3.39611E-15
 -1      3375 2.74994E-03 3.80756E-04-4.00736E-15
 -1      3376 9.71673E-03-6.16076E-04-4.18149E-14
 -1      3377 9.88928E-03-6.65425E-04-4.29664E-14
 -1      3378 1.07006E-02-7.51016E-04-4.88907E-14
 -1      3379 1.08614E-02-7.13559E-04-5.01072E-14
 -1      3380 1.15868E-02-3.03903E-04-5.41112E-14
 -1      3381 9.16390E-03-1.72984E-04-3.97265E-14
 -1      3382 9.09384E-03-1.06491E-04-3.97819E-14
 -1      3383 8.97279E-03-7.57353E-05-3.91038E-14
 -1      3384 1.29499E-02 5.42093E-04-5.87329E-14
 -1      3385 9.97028E-03-6.56324E-04-4.35291E-14
 -1      3386 1.01856E-03 9.55055E-05-7.39209E-16
 -1      3387 1.13837E-03 8.85860E-05-8.98505E-16
 -1      3388 1.02101E-03 1.23288E-04-7.32067E-16
 -1      3389 1.02790E-02-7.20337E-04-4.56306E-14
 -1      3390 1.18323E-02 1.00030E-03-5.27604E-14
 -1      3391 8.33295E-03 1.85231E-04-3.64101E-14
 -1      3392 1.43352E-02 6.35259E-04-7.31216E-14
 -1      3393 1.43435E-02 6.64971E-04-7.30062E-14
 -1      3394 1.21398E-02 6.35889E-06-5.65468E-14
 -1      3395 1.20364E-02-6.85754E-05-5.64786E-14
 -1      3396 1.22916E-02 6.24330E-05-5.74883E-14
 -1      3397 8.43236E-03 2.29985E-04-3.60241E-14
 -1      3398 8.55933E-03 2.56412E-04-3.68485E-14
 -1      3399 8.60479E-03 2.87305E-04-3.65286E-14
 -1      3400 1.08950E-02-6.59748E-04-4.99271E-14
 -1      3401 1.07947E-02-6.89219E-04-4.91605E-14
 -1      3402 8.28469E-03 1.55037E-04-3.64899E-14
 -1      3403 1.43029E-02 5.76804E-04-7.33433E-14
 -1      3404 1.43217E-02 6.06085E-04-7.32320E-14
 -1      3405 1.41792E-02 5.43983E-04-7.22225E-14
 -1      3406 1.20202E-02 8.98507E-04-5.37346E-14
 -1      3407 1.22182E-02 8.31714E-04-5.49537E-14
 -1      3408 1.23860E-02 7.32127E-04-5.56563E-14
 -1      3409 1.31886E-02 4.13059E-04-5.99896E-14
 -1      3410 9.61356E-03-5.39439E-04-4.12291E-14
 -1      3411 1.09615E-02-6.61520E-04-5.06861E-14
 -1      3412 1.25527E-02 2.01562E-04-5.78485E-14
 -1      3413 1.07595E-02-6.96050E-04-4.88538E-14
 -1      3414 1.07061E-02-7.15191E-04-4.86114E-14
 -1      3415 9.35925E-03 6.00701E-04-3.95954E-14
 -1      3416 9.77389E-03-5.07967E-04-4.24513E-14
 -1      3417 2.25421E-03 4.04791E-04-2.70201E-15
 -1      3418 2.17569E-03 3.65277E-04-2.57453E-15
 -1      3419 2.39731E-03 4.09828E-04-3.03953E-15
 -1      3420 9.43467E-03-3.16011E-04-4.08087E-14
 -1      3421 9.31612E-03-2.68940E-04-4.01969E-14
 -1      3422 9.44076E-03-3.65198E-04-4.05919E-14
 -1      3423 1.12178E-02-5.32201E-04-5.23012E-14
 -1      3424 1.10723E-02-5.97053E-04-5.12674E-14
 -1      3425 1.43526E-02 6.91513E-04-7.29658E-14
 -1      3426 1.43588E-02 7.18899E-04-7.29250E-14
 -1      3427 1.42374E-02 6.57075E-04-7.18581E-14
 -1      3428 1.02842E-03 1.81171E-04-7.12809E-16
 -1      3429 1.02427E-03 1.51839E-04-7.23488E-16
 -1      3430 1.14391E-03 1.48688E-04-8.82500E-16
 -1      3431 1.15316E-03 2.11802E-04-8.57780E-16
 -1      3432 8.43112E-03 1.10891E-04-3.71249E-14
 -1      3433 8.39760E-03 1.29516E-04-3.72057E-14
 -1      3434 8.31992E-03 1.26112E-04-3.64211E-14
 -1      3435 1.01906E-02-6.82420E-04-4.49987E-14
 -1      3436 1.01829E-03-9.30327E-05-7.42299E-16
 -1      3437 1.02064E-03-1.20755E-04-7.36675E-16
 -1      3438 9.00898E-03 4.17795E-04-3.86036E-14
 -1      3439 9.20869E-03 5.17722E-04-3.91658E-14
 -1      3440 9.16714E-03 5.16040E-04-3.86394E-14
 -1      3441 8.88755E-03 3.82621E-04-3.77836E-14
 -1      3442 1.29578E-02 3.54435E-04-5.83200E-14
 -1      3443 1.28501E-02 3.25423E-04-5.80126E-14
 -1      3444 1.30337E-02 3.66196E-04-5.92955E-14
 -1      3445 1.38753E-02 2.49421E-04-7.37130E-14
 -1      3446 1.39471E-02 2.84896E-04-7.39867E-14
 -1      3447 1.38494E-02 2.82513E-04-7.27634E-14
 -1      3448 1.37520E-02 2.27685E-04-7.25222E-14
 -1      3449 1.02381E-03-1.49171E-04-7.29221E-16
 -1      3450 1.02785E-03-1.78414E-04-7.19490E-16
 -1      3451 1.14346E-03-1.45944E-04-8.88951E-16
 -1      3452 1.28262E-02 3.05729E-04-5.85655E-14
 -1      3453 1.26889E-02 2.38173E-04-5.88311E-14
 -1      3454 1.25506E-02 1.75738E-04-5.85373E-14
 -1      3455 1.86204E-03-2.79867E-04-2.02507E-15
 -1      3456 2.00629E-03-2.87121E-04-2.32029E-15
 -1      3457 2.15061E-03-2.93085E-04-2.63549E-15
 -1      3458 2.29498E-03-2.97874E-04-2.97023E-15
 -1      3459 2.07325E-03-2.54387E-04-2.49396E-15
 -1      3460 2.43934E-03-3.01683E-04-3.32469E-15
 -1      3461 2.58366E-03-3.04607E-04-3.69815E-15
 -1      3462 2.36249E-03-2.63152E-04-3.16514E-15
 -1      3463 2.72793E-03-3.06805E-04-4.08999E-15
 -1      3464 2.87212E-03-3.08348E-04-4.50149E-15
 -1      3465 2.65176E-03-2.68531E-04-3.91284E-15
 -1      3466 3.01623E-03-3.09360E-04-4.93195E-15
 -1      3467 3.16025E-03-3.09891E-04-5.38110E-15
 -1      3468 2.94078E-03-2.71389E-04-4.73613E-15
 -1      3469 3.30417E-03-3.10034E-04-5.84863E-15
 -1      3470 3.44798E-03-3.09823E-04-6.33399E-15
 -1      3471 3.22941E-03-2.72393E-04-5.63452E-15
 -1      3472 3.59170E-03-3.09322E-04-6.83760E-15
 -1      3473 3.73531E-03-3.08552E-04-7.35981E-15
 -1      3474 3.51756E-03-2.72031E-04-6.60572E-15
 -1      3475 3.87881E-03-3.07557E-04-7.89920E-15
 -1      3476 4.02221E-03-3.06346E-04-8.45568E-15
 -1      3477 3.80520E-03-2.70640E-04-7.64861E-15
 -1      3478 4.16550E-03-3.04947E-04-9.03105E-15
 -1      3479 4.30868E-03-3.03360E-04-9.62343E-15
 -1      3480 4.09228E-03-2.68435E-04-8.76320E-15
 -1      3481 4.45174E-03-3.01601E-04-1.02319E-14
 -1      3482 4.59469E-03-2.99663E-04-1.08578E-14
 -1      3483 4.37878E-03-2.65534E-04-9.94695E-15
 -1      3484 4.73752E-03-2.97557E-04-1.15011E-14
 -1      3485 4.88022E-03-2.95269E-04-1.21618E-14
 -1      3486 4.66467E-03-2.61984E-04-1.11988E-14
 -1      3487 5.02279E-03-2.92807E-04-1.28387E-14
 -1      3488 5.16522E-03-2.90156E-04-1.35322E-14
 -1      3489 4.94987E-03-2.57780E-04-1.25186E-14
 -1      3490 5.30750E-03-2.87323E-04-1.42443E-14
 -1      3491 5.44963E-03-2.84292E-04-1.49738E-14
 -1      3492 5.23433E-03-2.52891E-04-1.39070E-14
 -1      3493 5.59159E-03-2.81077E-04-1.57202E-14
 -1      3494 5.73340E-03-2.77665E-04-1.64854E-14
 -1      3495 5.51793E-03-2.47276E-04-1.53651E-14
 -1      3496 5.87502E-03-2.74077E-04-1.72676E-14
 -1      3497 6.01648E-03-2.70310E-04-1.80673E-14
 -1      3498 5.80059E-03-2.40910E-04-1.68946E-14
 -1      3499 6.15776E-03-2.66398E-04-1.88860E-14
 -1      3500 6.29890E-03-2.62349E-04-1.97222E-14
 -1      3501 6.08222E-03-2.33810E-04-1.84939E-14
 -1      3502 6.43987E-03-2.58217E-04-2.05752E-14
 -1      3503 6.58076E-03-2.54031E-04-2.14456E-14
 -1      3504 6.36280E-03-2.26063E-04-2.01648E-14
 -1      3505 6.72155E-03-2.49868E-04-2.23327E-14
 -1      3506 6.86235E-03-2.45790E-04-2.32356E-14
 -1      3507 6.64238E-03-2.17863E-04-2.19037E-14
 -1      3508 7.00320E-03-2.41896E-04-2.41540E-14
 -1      3509 7.14427E-03-2.38305E-04-2.50883E-14
 -1      3510 6.92126E-03-2.09554E-04-2.37059E-14
 -1      3511 7.28563E-03-2.35137E-04-2.60372E-14
 -1      3512 7.42755E-03-2.32604E-04-2.70007E-14
 -1      3513 7.20002E-03-2.01692E-04-2.55722E-14
 -1      3514 7.57019E-03-2.30839E-04-2.79767E-14
 -1      3515 7.71392E-03-2.30214E-04-2.89660E-14
 -1      3516 7.47978E-03-1.95141E-04-2.74954E-14
 -1      3517 7.85903E-03-2.30868E-04-2.99667E-14
 -1      3518 8.00601E-03-2.33430E-04-3.09813E-14
 -1      3519 7.76242E-03-1.91259E-04-2.94702E-14
 -1      3520 8.15534E-03-2.38048E-04-3.20079E-14
 -1      3521 8.30758E-03-2.45777E-04-3.30462E-14
 -1      3522 8.05097E-03-1.92242E-04-3.14946E-14
 -1      3523 8.46343E-03-2.56759E-04-3.40957E-14
 -1      3524 8.62334E-03-2.72600E-04-3.51567E-14
 -1      3525 8.34990E-03-2.01874E-04-3.35680E-14
 -1      3526 8.78832E-03-2.93496E-04-3.62308E-14
 -1      3527 8.95807E-03-3.21742E-04-3.73160E-14
 -1      3528 8.66515E-03-2.26447E-04-3.56867E-14
 -1      3529 9.20722E-03-3.59225E-04-3.89245E-14
 -1      3530 9.38963E-03-4.07096E-04-4.00418E-14
 -1      3531 1.06105E-02-7.37783E-04-4.80093E-14
 -1      3532 1.17548E-02-2.34633E-04-5.53473E-14
 -1      3533 1.14835E-02-3.90354E-04-5.39151E-14
 -1      3534 1.15660E-02-3.80937E-04-5.47757E-14
 -1      3535 1.17478E-02-3.02399E-04-5.60344E-14
 -1      3536 1.19873E-02-1.89811E-04-5.75098E-14
 -1      3537 1.21644E-02-1.26411E-04-5.87875E-14
 -1      3538 1.23373E-02-7.15640E-05-6.00727E-14
 -1      3539 1.25045E-02-2.31144E-05-6.13658E-14
 -1      3540 1.23161E-02-3.71834E-05-5.93755E-14
 -1      3541 1.26673E-02 1.91495E-05-6.26676E-14
 -1      3542 1.28256E-02 5.71923E-05-6.39780E-14
 -1      3543 1.26488E-02 5.28977E-05-6.19584E-14
 -1      3544 1.29803E-02 9.12500E-05-6.52976E-14
 -1      3545 1.31319E-02 1.22778E-04-6.66211E-14
 -1      3546 1.29614E-02 1.22243E-04-6.45751E-14
 -1      3547 1.32811E-02 1.52017E-04-6.79533E-14
 -1      3548 1.34283E-02 1.79882E-04-6.92947E-14
 -1      3549 1.32601E-02 1.79933E-04-6.72215E-14
 -1      3550 1.01550E-03-3.89527E-05-7.49184E-16
 -1      3551 1.01658E-03-6.58035E-05-7.46419E-16
 -1      3552 1.13812E-03-8.60097E-05-9.01934E-16
 -1      3553 4.25201E-03 3.40952E-04-9.26010E-15
 -1      3554 4.10888E-03 3.42514E-04-8.67652E-15
 -1      3555 3.96567E-03 3.43870E-04-8.11017E-15
 -1      3556 3.82239E-03 3.45016E-04-7.56182E-15
 -1      3557 4.03553E-03 3.05968E-04-8.42719E-15
 -1      3558 4.82370E-03 3.32807E-04-1.17666E-14
 -1      3559 4.68091E-03 3.35129E-04-1.11140E-14
 -1      3560 5.10894E-03 3.27582E-04-1.31186E-14
 -1      3561 4.96637E-03 3.30295E-04-1.24343E-14
 -1      3562 4.89335E-03 2.95215E-04-1.21341E-14
 -1      3563 5.39367E-03 3.21553E-04-1.45390E-14
 -1      3564 5.25137E-03 3.24672E-04-1.38201E-14
 -1      3565 5.17808E-03 2.90220E-04-1.35040E-14
 -1      3566 5.67773E-03 3.14707E-04-1.60277E-14
 -1      3567 5.53579E-03 3.18234E-04-1.52751E-14
 -1      3568 5.46198E-03 2.84496E-04-1.49424E-14
 -1      3569 5.96093E-03 3.07094E-04-1.75806E-14
 -1      3570 5.81945E-03 3.10996E-04-1.67956E-14
 -1      3571 5.74485E-03 2.78053E-04-1.64472E-14
 -1      3572 6.24300E-03 2.98865E-04-1.91988E-14
 -1      3573 6.10211E-03 3.03050E-04-1.83818E-14
 -1      3574 6.02638E-03 2.70970E-04-1.80180E-14
 -1      3575 6.52360E-03 2.90335E-04-2.08813E-14
 -1      3576 6.38349E-03 2.94624E-04-2.00331E-14
 -1      3577 6.30621E-03 2.63434E-04-1.96539E-14
 -1      3578 6.80235E-03 2.82036E-04-2.26252E-14
 -1      3579 6.66321E-03 2.86131E-04-2.17462E-14
 -1      3580 6.58386E-03 2.55790E-04-2.13527E-14
 -1      3581 7.07881E-03 2.74793E-04-2.44270E-14
 -1      3582 6.94085E-03 2.78242E-04-2.35183E-14
 -1      3583 6.85879E-03 2.48589E-04-2.31111E-14
 -1      3584 7.35266E-03 2.69780E-04-2.62886E-14
 -1      3585 7.21603E-03 2.71948E-04-2.53508E-14
 -1      3586 7.13037E-03 2.42631E-04-2.49297E-14
 -1      3587 7.62382E-03 2.68575E-04-2.82026E-14
 -1      3588 7.48850E-03 2.68612E-04-2.72385E-14
 -1      3589 7.39802E-03 2.38982E-04-2.68062E-14
 -1      3590 7.89292E-03 2.73232E-04-3.01696E-14
 -1      3591 7.75845E-03 2.70031E-04-2.91799E-14
 -1      3592 7.66135E-03 2.38968E-04-2.87357E-14
 -1      3593 8.16193E-03 2.86478E-04-3.21841E-14
 -1      3594 8.02705E-03 2.78525E-04-3.11704E-14
 -1      3595 7.92048E-03 2.44163E-04-3.07148E-14
 -1      3596 8.43549E-03 3.12484E-04-3.42456E-14
 -1      3597 8.29736E-03 2.97352E-04-3.32100E-14
 -1      3598 8.17683E-03 2.56529E-04-3.27419E-14
 -1      3599 8.95917E-03 4.37912E-04-3.75191E-14
 -1      3600 9.89036E-03-5.95584E-04-4.30405E-14
 -1      3601 9.68294E-03-5.09207E-04-4.17877E-14
 -1      3602 1.37895E-02 6.92411E-04-6.72427E-14
 -1      3603 1.36538E-02 6.72437E-04-6.59391E-14
 -1      3604 1.32451E-02 6.24990E-04-6.20787E-14
 -1      3605 1.31057E-02 6.15520E-04-6.08056E-14
 -1      3606 1.40619E-02 7.35579E-04-6.98751E-14
 -1      3607 1.39253E-02 7.13574E-04-6.85536E-14
 -1      3608 1.38721E-02 6.72178E-04-6.79986E-14
 -1      3609 1.42170E-02 6.01962E-04-7.20061E-14
 -1      3610 8.26095E-03 1.70077E-04-3.57792E-14
 -1      3611 8.30727E-03 1.89434E-04-3.57128E-14
 -1      3612 1.09593E-02-6.52114E-04-5.05646E-14
 -1      3613 8.23873E-03 1.39794E-04-3.57706E-14
 -1      3614 8.23603E-03 1.54164E-04-3.57585E-14
 -1      3615 1.32787E-02 4.30702E-04-6.12521E-14
 -1      3616 1.32100E-02 4.04507E-04-6.08620E-14
 -1      3617 1.39878E-02 4.50858E-04-7.13014E-14
 -1      3618 1.40240E-02 4.81875E-04-7.12060E-14
 -1      3619 1.21326E-03-2.33041E-04-9.36615E-16
 -1      3620 1.39679E-03-2.47927E-04-1.20550E-15
 -1      3621 1.29939E-02 5.83990E-04-5.95843E-14
 -1      3622 1.31663E-02 5.38901E-04-6.06756E-14
 -1      3623 1.00708E-02-6.58910E-04-4.42022E-14
 -1      3624 1.31459E-02 3.84435E-04-6.05594E-14
 -1      3625 1.30657E-02 3.61574E-04-6.02515E-14
 -1      3626 1.32557E-02 4.02838E-04-6.18282E-14
 -1      3627 1.13995E-02-4.47292E-04-5.35420E-14
 -1      3628 1.35183E-02 6.54125E-04-6.46420E-14
 -1      3629 1.33821E-02 6.38177E-04-6.33567E-14
 -1      3630 1.33498E-02 5.94787E-04-6.28128E-14
 -1      3631 1.36095E-02 6.30601E-04-6.53888E-14
 -1      3632 1.25582E-02 6.60548E-04-5.65323E-14
 -1      3633 1.27021E-02 6.44359E-04-5.76126E-14
 -1      3634 1.29301E-02 3.20957E-04-5.96848E-14
 -1      3635 1.28143E-02 2.84139E-04-5.92576E-14
 -1      3636 1.28123E-02 2.59841E-04-5.99538E-14
 -1      3637 1.95330E-03 3.18829E-04-2.14587E-15
 -1      3638 1.80930E-03 3.10317E-04-1.86517E-15
 -1      3639 1.43753E-02 7.46003E-04-7.30153E-14
 -1      3640 1.43775E-02 7.75141E-04-7.29673E-14
 -1      3641 1.42887E-02 7.66194E-04-7.20889E-14
 -1      3642 1.42604E-02 7.10453E-04-7.19111E-14
 -1      3643 1.57415E-03-2.60696E-04-1.49491E-15
 -1      3644 1.71798E-03-2.71104E-04-1.75008E-15
 -1      3645 1.78448E-03-2.41191E-04-1.90216E-15
 -1      3646 1.32401E-02 4.95811E-04-6.09580E-14
 -1      3647 1.32888E-02 4.65740E-04-6.12413E-14
 -1      3648 1.32923E-02 5.33959E-04-6.18228E-14
 -1      3649 4.53803E-03 3.37257E-04-1.04785E-14
 -1      3650 4.39506E-03 3.39201E-04-9.86048E-15
 -1      3651 4.32199E-03 3.03087E-04-9.59470E-15
 -1      3652 4.60795E-03 2.99498E-04-1.08307E-14
 -1      3653 3.10483E-03 3.46565E-04-5.09773E-15
 -1      3654 2.96109E-03 3.45741E-04-4.66124E-15
 -1      3655 1.68366E-03 3.05376E-04-1.63205E-15
 -1      3656 1.55819E-03 2.98822E-04-1.41426E-15
 -1      3657 1.74909E-03 2.76023E-04-1.78377E-15
 -1      3658 8.83949E-03-3.58021E-05-3.84361E-14
 -1      3659 8.71397E-03-6.37382E-06-3.77751E-14
 -1      3660 8.90696E-03-9.55573E-05-3.83797E-14
 -1      3661 3.39208E-03 3.46925E-04-6.02685E-15
 -1      3662 3.24850E-03 3.46946E-04-5.55341E-15
 -1      3663 3.17347E-03 3.09262E-04-5.35662E-15
 -1      3664 9.07313E-03-2.74709E-04-3.83606E-14
 -1      3665 2.81728E-03 3.44370E-04-4.24410E-15
 -1      3666 2.67340E-03 3.42392E-04-3.84575E-15
 -1      3667 2.88530E-03 3.07684E-04-4.48269E-15
 -1      3668 1.26138E-03 1.10575E-04-1.06648E-15
 -1      3669 1.25920E-03 7.90830E-05-1.07335E-15
 -1      3670 1.18958E-02-2.03500E-04-5.66196E-14
 -1      3671 1.39005E-02 3.82741E-04-7.14880E-14
 -1      3672 1.39461E-02 4.17740E-04-7.13948E-14
 -1      3673 1.38535E-02 4.17116E-04-7.01841E-14
 -1      3674 1.25898E-03-7.63545E-05-1.07673E-15
 -1      3675 1.26106E-03-1.07811E-04-1.07148E-15
 -1      3676 1.13565E-03-2.77092E-05-9.07816E-16
 -1      3677 1.35283E-02 1.92908E-04-7.03117E-14
 -1      3678 1.36526E-02 2.14558E-04-7.14928E-14
 -1      3679 1.37023E-02 2.42782E-04-7.16137E-14
 -1      3680 1.35049E-02 2.18308E-04-6.95696E-14
 -1      3681 8.52407E-03 5.70572E-05-3.70389E-14
 -1      3682 8.47570E-03 8.63415E-05-3.70829E-14
 -1      3683 8.37639E-03 8.90682E-05-3.62977E-14
 -1      3684 9.19066E-03-2.29317E-04-3.95129E-14
 -1      3685 3.74860E-03 3.08076E-04-7.32978E-15
 -1      3686 3.67902E-03 3.45922E-04-7.03155E-15
 -1      3687 3.53559E-03 3.46575E-04-6.51969E-15
 -1      3688 8.82824E-03 3.80702E-04-3.70938E-14
 -1      3689 8.52721E-03 3.08925E-04-3.52132E-14
 -1      3690 8.38912E-03 2.60084E-04-3.47362E-14
 -1      3691 1.40997E-02 5.69205E-04-7.08973E-14
 -1      3692 1.41124E-02 5.97754E-04-7.07876E-14
 -1      3693 8.66771E-03 3.32130E-04-3.62693E-14
 -1      3694 1.26398E-03-1.39736E-04-1.06450E-15
 -1      3695 1.26777E-03-1.72249E-04-1.05497E-15
 -1      3696 1.38527E-03-1.30921E-04-1.25514E-15
 -1      3697 1.28592E-02 6.34441E-04-5.88642E-14
 -1      3698 1.25909E-02 1.57128E-04-5.94623E-14
 -1      3699 1.24449E-02 1.14644E-04-5.84748E-14
 -1      3700 1.23451E-02 4.94812E-05-5.84077E-14
 -1      3701 1.33542E-02 4.57820E-04-6.21276E-14
 -1      3702 1.34046E-02 4.50540E-04-6.30125E-14
 -1      3703 1.34246E-02 4.87706E-04-6.29986E-14
 -1      3704 1.41996E-02 7.57180E-04-7.12144E-14
 -1      3705 1.28085E-03 2.76325E-04-9.88494E-16
 -1      3706 1.23893E-03 2.47941E-04-9.51930E-16
 -1      3707 1.23256E-03 2.13973E-04-9.68816E-16
 -1      3708 1.40576E-03 2.87191E-04-1.17166E-15
 -1      3709 1.46285E-03-2.22467E-04-1.33271E-15
 -1      3710 8.19307E-03 1.55941E-04-3.50668E-14
 -1      3711 1.21611E-02-5.12531E-05-5.77583E-14
 -1      3712 1.20107E-02-1.11693E-04-5.68153E-14
 -1      3713 8.32838E-03 2.06608E-04-3.53991E-14
 -1      3714 8.35285E-03 2.27931E-04-3.50842E-14
 -1      3715 8.23625E-03 1.88533E-04-3.47755E-14
 -1      3716 8.24397E-03 1.27807E-04-3.56917E-14
 -1      3717 8.17643E-03 1.28269E-04-3.49672E-14
 -1      3718 8.25626E-03 1.14237E-04-3.56112E-14
 -1      3719 2.46293E-03 3.74980E-04-3.25189E-15
 -1      3720 1.40554E-02 5.11795E-04-7.11068E-14
 -1      3721 1.40808E-02 5.40964E-04-7.10019E-14
 -1      3722 1.39830E-02 5.37563E-04-6.97928E-14
 -1      3723 1.39308E-02 4.80299E-04-6.99944E-14
 -1      3724 1.41395E-02 7.16006E-04-7.06547E-14
 -1      3725 1.41238E-02 6.23028E-04-7.07551E-14
 -1      3726 1.41312E-02 6.49084E-04-7.07186E-14
 -1      3727 1.40118E-02 5.89869E-04-6.96559E-14
 -1      3728 1.25775E-03 4.77938E-05-1.07813E-15
 -1      3729 1.25702E-03 1.67204E-05-1.08080E-15
 -1      3730 1.38094E-03 6.70991E-05-1.26318E-15
 -1      3731 1.30673E-02 3.45165E-04-6.09532E-14
 -1      3732 2.09734E-03 3.25860E-04-2.44685E-15
 -1      3733 2.01931E-03 2.86694E-04-2.31968E-15
 -1      3734 2.24140E-03 3.31545E-04-2.76781E-15
 -1      3735 9.49706E-03-4.48473E-04-4.06550E-14
 -1      3736 1.37516E-02 2.70388E-04-7.17339E-14
 -1      3737 1.14346E-03-2.15274E-04-8.50340E-16
 -1      3738 1.36561E-02 2.65504E-04-7.06072E-14
 -1      3739 1.38022E-02 3.03821E-04-7.17515E-14
 -1      3740 1.38531E-02 3.42444E-04-7.16648E-14
 -1      3741 1.35587E-02 2.54213E-04-6.95886E-14
 -1      3742 1.07123E-02-7.21281E-04-4.87305E-14
 -1      3743 5.52992E-03 2.47971E-04-1.53466E-14
 -1      3744 5.38858E-03 2.50700E-04-1.46092E-14
 -1      3745 1.26441E-03 1.42615E-04-1.05740E-15
 -1      3746 1.38567E-03 1.33926E-04-1.24766E-15
 -1      3747 1.26832E-03 1.75260E-04-1.04588E-15
 -1      3748 4.10555E-03 2.68103E-04-8.74530E-15
 -1      3749 3.96208E-03 2.69241E-04-8.17829E-15
 -1      3750 2.28598E-03-2.24854E-04-3.00683E-15
 -1      3751 2.43087E-03-2.27920E-04-3.36240E-15
 -1      3752 2.57576E-03-2.30309E-04-3.73688E-15
 -1      3753 2.72062E-03-2.32083E-04-4.12952E-15
 -1      3754 2.50002E-03-1.92226E-04-3.56146E-15
 -1      3755 2.86540E-03-2.33355E-04-4.54115E-15
 -1      3756 3.01008E-03-2.34172E-04-4.97238E-15
 -1      3757 2.79015E-03-1.95320E-04-4.34823E-15
 -1      3758 3.15465E-03-2.34621E-04-5.42167E-15
 -1      3759 3.29909E-03-2.34732E-04-5.88920E-15
 -1      3760 3.07995E-03-1.96756E-04-5.20951E-15
 -1      3761 3.44339E-03-2.34573E-04-6.37478E-15
 -1      3762 3.58754E-03-2.34159E-04-6.87823E-15
 -1      3763 3.36923E-03-1.96968E-04-6.14472E-15
 -1      3764 3.73153E-03-2.33541E-04-7.39986E-15
 -1      3765 3.87536E-03-2.32724E-04-7.93865E-15
 -1      3766 3.65787E-03-1.96267E-04-7.15149E-15
 -1      3767 4.01903E-03-2.31742E-04-8.49603E-15
 -1      3768 4.16252E-03-2.30592E-04-9.07123E-15
 -1      3769 3.94579E-03-1.94860E-04-8.23031E-15
 -1      3770 4.30583E-03-2.29297E-04-9.66271E-15
 -1      3771 4.44896E-03-2.27849E-04-1.02712E-14
 -1      3772 4.23292E-03-1.92869E-04-9.37931E-15
 -1      3773 4.59189E-03-2.26261E-04-1.08970E-14
 -1      3774 4.73461E-03-2.24519E-04-1.15402E-14
 -1      3775 4.51920E-03-1.90352E-04-1.05969E-14
 -1      3776 4.87712E-03-2.22633E-04-1.22006E-14
 -1      3777 5.01940E-03-2.20585E-04-1.28776E-14
 -1      3778 4.80454E-03-1.87316E-04-1.18824E-14
 -1      3779 5.16144E-03-2.18382E-04-1.35714E-14
 -1      3780 5.30321E-03-2.16004E-04-1.42833E-14
 -1      3781 5.08883E-03-1.83729E-04-1.32373E-14
 -1      3782 5.44471E-03-2.13459E-04-1.50125E-14
 -1      3783 5.58591E-03-2.10725E-04-1.57587E-14
 -1      3784 5.37192E-03-1.79539E-04-1.46603E-14
 -1      3785 5.72680E-03-2.07817E-04-1.65226E-14
 -1      3786 5.86736E-03-2.04709E-04-1.73038E-14
 -1      3787 5.65362E-03-1.74685E-04-1.61526E-14
 -1      3788 6.00756E-03-2.01427E-04-1.81043E-14
 -1      3789 6.14741E-03-1.97947E-04-1.89219E-14
 -1      3790 5.93376E-03-1.69106E-04-1.77154E-14
 -1      3791 6.28688E-03-1.94303E-04-1.97553E-14
 -1      3792 6.42599E-03-1.90480E-04-2.06068E-14
 -1      3793 6.21212E-03-1.62760E-04-1.93483E-14
 -1      3794 6.56471E-03-1.86524E-04-2.14754E-14
 -1      3795 6.70312E-03-1.82431E-04-2.23599E-14
 -1      3796 6.48857E-03-1.55634E-04-2.10487E-14
 -1      3797 6.84117E-03-1.78262E-04-2.32609E-14
 -1      3798 6.97901E-03-1.74037E-04-2.41765E-14
 -1      3799 6.76304E-03-1.47764E-04-2.28161E-14
 -1      3800 7.11663E-03-1.69827E-04-2.51077E-14
 -1      3801 7.25424E-03-1.65703E-04-2.60548E-14
 -1      3802 7.03569E-03-1.39256E-04-2.46468E-14
 -1      3803 7.39189E-03-1.61737E-04-2.70158E-14
 -1      3804 7.52991E-03-1.58097E-04-2.79892E-14
 -1      3805 7.30698E-03-1.30333E-04-2.65364E-14
 -1      3806 7.66843E-03-1.54849E-04-2.89750E-14
 -1      3807 7.80799E-03-1.52362E-04-2.99728E-14
 -1      3808 7.57793E-03-1.21425E-04-2.84809E-14
 -1      3809 7.94883E-03-1.50693E-04-3.09843E-14
 -1      3810 8.09176E-03-1.50557E-04-3.20071E-14
 -1      3811 7.85047E-03-1.13414E-04-3.04751E-14
 -1      3812 8.23722E-03-1.52112E-04-3.30420E-14
 -1      3813 8.38631E-03-1.56697E-04-3.40877E-14
 -1      3814 8.12796E-03-1.08077E-04-3.25171E-14
 -1      3815 8.53994E-03-1.64253E-04-3.51449E-14
 -1      3816 8.69923E-03-1.77963E-04-3.62144E-14
 -1      3817 8.41642E-03-1.09588E-04-3.46060E-14
 -1      3818 1.23160E-02 5.65847E-06-5.87498E-14
 -1      3819 1.24856E-02 5.37206E-05-6.00296E-14
 -1      3820 1.21656E-03-1.93021E-04-9.68071E-16
 -1      3821 1.25698E-03-1.41907E-05-1.08145E-15
 -1      3822 1.25762E-03-4.51870E-05-1.08008E-15
 -1      3823 1.38076E-03-6.43322E-05-1.26669E-15
 -1      3824 1.37936E-03 1.32123E-06-1.26953E-15
 -1      3825 1.26486E-02 9.31426E-05-6.13190E-14
 -1      3826 1.28056E-02 1.27931E-04-6.26163E-14
 -1      3827 1.26558E-02 1.36023E-04-6.06804E-14
 -1      3828 1.29578E-02 1.58097E-04-6.39208E-14
 -1      3829 1.31064E-02 1.85982E-04-6.52358E-14
 -1      3830 1.29593E-02 1.95385E-04-6.32715E-14
 -1      3831 1.32522E-02 2.11662E-04-6.65565E-14
 -1      3832 1.33960E-02 2.36308E-04-6.78843E-14
 -1      3833 1.32473E-02 2.43958E-04-6.58922E-14
 -1      3834 8.94578E-03-1.93126E-04-3.79056E-14
 -1      3835 5.24695E-03 2.53261E-04-1.38905E-14
 -1      3836 5.10502E-03 2.55672E-04-1.31883E-14
 -1      3837 5.31559E-03 2.16755E-04-1.42777E-14
 -1      3838 4.96285E-03 2.57915E-04-1.25028E-14
 -1      3839 4.82044E-03 2.60008E-04-1.18343E-14
 -1      3840 5.03221E-03 2.20960E-04-1.28726E-14
 -1      3841 5.81146E-03 2.42083E-04-1.68682E-14
 -1      3842 5.67088E-03 2.45105E-04-1.60993E-14
 -1      3843 5.59753E-03 2.12028E-04-1.57508E-14
 -1      3844 6.09122E-03 2.35705E-04-1.84564E-14
 -1      3845 5.95158E-03 2.38955E-04-1.76548E-14
 -1      3846 5.87767E-03 2.06843E-04-1.72903E-14
 -1      3847 6.36869E-03 2.29060E-04-2.01090E-14
 -1      3848 6.23026E-03 2.32411E-04-1.92745E-14
 -1      3849 6.15557E-03 2.01342E-04-1.88961E-14
 -1      3850 6.64329E-03 2.22522E-04-2.18232E-14
 -1      3851 6.50638E-03 2.25768E-04-2.09583E-14
 -1      3852 6.43063E-03 1.95782E-04-2.05646E-14
 -1      3853 6.91430E-03 2.16652E-04-2.35983E-14
 -1      3854 6.77927E-03 2.19488E-04-2.27037E-14
 -1      3855 6.70213E-03 1.90561E-04-2.22950E-14
 -1      3856 7.18088E-03 2.12215E-04-2.54335E-14
 -1      3857 7.04816E-03 2.14236E-04-2.45081E-14
 -1      3858 6.96919E-03 1.86246E-04-2.40877E-14
 -1      3859 7.44215E-03 2.10160E-04-2.73257E-14
 -1      3860 7.31219E-03 2.10873E-04-2.63729E-14
 -1      3861 7.23075E-03 1.83562E-04-2.59391E-14
 -1      3862 7.69726E-03 2.11557E-04-2.92699E-14
 -1      3863 7.57045E-03 2.10418E-04-2.82906E-14
 -1      3864 7.48555E-03 1.83332E-04-2.78465E-14
 -1      3865 7.94559E-03 2.17535E-04-3.12624E-14
 -1      3866 7.82214E-03 2.13975E-04-3.02605E-14
 -1      3867 7.73212E-03 1.86374E-04-2.98045E-14
 -1      3868 1.34104E-02 5.51887E-04-6.31034E-14
 -1      3869 1.39485E-02 6.54465E-04-6.87585E-14
 -1      3870 1.38195E-02 6.32457E-04-6.74455E-14
 -1      3871 1.41269E-02 6.88454E-04-7.05618E-14
 -1      3872 8.12027E-03 1.41619E-04-3.42831E-14
 -1      3873 8.14296E-03 1.59161E-04-3.43035E-14
 -1      3874 1.33519E-02 4.15496E-04-6.30423E-14
 -1      3875 1.32871E-02 3.93193E-04-6.27362E-14
 -1      3876 1.07897E-02-7.07840E-04-4.93502E-14
 -1      3877 1.70774E-03-2.03408E-04-1.78075E-15
 -1      3878 1.85194E-03-2.10376E-04-2.05767E-15
 -1      3879 1.29181E-02 2.74230E-04-6.10144E-14
 -1      3880 1.28035E-02 2.31118E-04-6.05836E-14
 -1      3881 8.27728E-03 2.34234E-04-3.41189E-14
 -1      3882 1.31819E-02 3.61081E-04-6.21659E-14
 -1      3883 1.30535E-02 3.20587E-04-6.15915E-14
 -1      3884 1.30518E-02 2.96736E-04-6.22299E-14
 -1      3885 1.32900E-02 3.74709E-04-6.33837E-14
 -1      3886 2.52945E-03 3.39666E-04-3.46695E-15
 -1      3887 2.38545E-03 3.36112E-04-3.10776E-15
 -1      3888 2.30805E-03 2.97291E-04-2.96346E-15
 -1      3889 1.99644E-03-2.16196E-04-2.35416E-15
 -1      3890 2.14116E-03-2.20971E-04-2.67078E-15
 -1      3891 1.92027E-03-1.78657E-04-2.21614E-15
 -1      3892 1.33717E-03-1.87592E-04-1.15226E-15
 -1      3893 3.46125E-03 3.09260E-04-6.30588E-15
 -1      3894 1.51105E-03 1.58187E-04-1.44219E-15
 -1      3895 1.50770E-03 1.22840E-04-1.45348E-15
 -1      3896 1.51409E-03-1.98184E-04-1.43517E-15
 -1      3897 2.95398E-03 2.70705E-04-4.72280E-15
 -1      3898 2.80950E-03 2.69541E-04-4.30358E-15
 -1      3899 4.24887E-03 2.66803E-04-9.32922E-15
 -1      3900 4.17573E-03 2.30330E-04-9.06333E-15
 -1      3901 4.39202E-03 2.65335E-04-9.92934E-15
 -1      3902 1.35303E-03 2.09065E-04-1.15331E-15
 -1      3903 8.75881E-03-1.68857E-04-3.67012E-14
 -1      3904 8.85279E-03-1.09004E-04-3.78338E-14
 -1      3905 1.40165E-02 6.53361E-04-6.94700E-14
 -1      3906 2.59679E-03 3.03952E-04-3.68469E-15
 -1      3907 1.37590E-02 3.42126E-04-7.04506E-14
 -1      3908 8.30799E-03 7.59038E-05-3.55279E-14
 -1      3909 8.27919E-03 9.67191E-05-3.55710E-14
 -1      3910 8.19282E-03 1.00683E-04-3.48483E-14
 -1      3911 3.81847E-03 2.70190E-04-7.62908E-15
 -1      3912 3.67471E-03 2.70949E-04-7.09810E-15
 -1      3913 3.88859E-03 2.32324E-04-7.92988E-15
 -1      3914 1.35559E-02 5.82629E-04-6.46948E-14
 -1      3915 1.34793E-02 5.27022E-04-6.36981E-14
 -1      3916 1.35582E-02 5.17182E-04-6.45952E-14
 -1      3917 1.36801E-02 6.03087E-04-6.59926E-14
 -1      3918 8.18724E-03 2.29255E-04-3.33036E-14
 -1      3919 8.06694E-03 2.22639E-04-3.22778E-14
 -1      3920 1.35474E-02 2.82450E-04-6.89123E-14
 -1      3921 1.50734E-03-1.19754E-04-1.46115E-15
 -1      3922 1.51058E-03-1.54992E-04-1.45249E-15
 -1      3923 1.34554E-02 4.44855E-04-6.39310E-14
 -1      3924 1.35033E-02 4.37779E-04-6.48492E-14
 -1      3925 1.35506E-02 4.74688E-04-6.48142E-14
 -1      3926 8.16798E-03 2.01851E-04-3.36456E-14
 -1      3927 1.47065E-03 2.61765E-04-1.30108E-15
 -1      3928 8.14895E-03 1.70790E-04-3.41295E-14
 -1      3929 8.15357E-03 1.86406E-04-3.38210E-14
 -1      3930 8.07251E-03 1.83141E-04-3.30086E-14
 -1      3931 8.06095E-03 1.56628E-04-3.33541E-14
 -1      3932 1.38048E-02 4.49164E-04-6.88875E-14
 -1      3933 1.38393E-02 4.78818E-04-6.87907E-14
 -1      3934 1.50343E-03-5.02462E-05-1.47124E-15
 -1      3935 1.50496E-03-8.48631E-05-1.46717E-15
 -1      3936 1.63011E-03-1.06513E-04-1.68176E-15
 -1      3937 8.10940E-03 1.30125E-04-3.42057E-14
 -1      3938 8.04544E-03 1.33287E-04-3.34494E-14
 -1      3939 8.10473E-03 1.18450E-04-3.41280E-14
 -1      3940 1.27440E-02 1.89362E-04-6.07425E-14
 -1      3941 1.37799E-02 4.88619E-04-6.78032E-14
 -1      3942 1.38011E-02 5.15453E-04-6.77052E-14
 -1      3943 7.96881E-03 1.93325E-04-3.18129E-14
 -1      3944 3.24264E-03 2.71761E-04-5.61720E-15
 -1      3945 3.09837E-03 2.71432E-04-5.16078E-15
 -1      3946 3.02327E-03 2.33497E-04-4.96521E-15
 -1      3947 1.28616E-02 2.08452E-04-6.18115E-14
 -1      3948 2.20990E-03-1.86908E-04-2.85018E-15
 -1      3949 1.63042E-03 1.09641E-04-1.67427E-15
 -1      3950 1.50520E-03 8.78094E-05-1.46203E-15
 -1      3951 1.50357E-03 5.30685E-05-1.46809E-15
 -1      3952 1.37170E-02 3.83376E-04-6.90725E-14
 -1      3953 1.37636E-02 4.17478E-04-6.89815E-14
 -1      3954 1.36763E-02 4.18011E-04-6.77859E-14
 -1      3955 1.79247E-03 2.42804E-04-1.89674E-15
 -1      3956 1.66648E-03 2.39206E-04-1.66205E-15
 -1      3957 8.64331E-03-3.33194E-05-3.69258E-14
 -1      3958 8.58483E-03 1.46985E-05-3.69842E-14
 -1      3959 8.46537E-03 2.71988E-05-3.61987E-14
 -1      3960 4.67782E-03 2.61937E-04-1.11825E-14
 -1      3961 4.53501E-03 2.63716E-04-1.05474E-14
 -1      3962 4.46212E-03 2.27751E-04-1.02660E-14
 -1      3963 2.08127E-03 2.55964E-04-2.48320E-15
 -1      3964 1.93677E-03 2.50011E-04-2.17996E-15
 -1      3965 1.85479E-03 2.13899E-04-2.04250E-15
 -1      3966 1.37535E-02 5.86656E-04-6.67425E-14
 -1      3967 1.36775E-02 5.05973E-04-6.61848E-14
 -1      3968 1.38660E-02 5.54510E-04-6.81469E-14
 -1      3969 1.38750E-02 5.78827E-04-6.81153E-14
 -1      3970 4.74765E-03 2.24625E-04-1.15348E-14
 -1      3971 1.54954E-03 1.87781E-04-1.49081E-15
 -1      3972 1.67169E-03 1.76188E-04-1.71648E-15
 -1      3973 1.63601E-03-1.87441E-04-1.65718E-15
 -1      3974 1.30269E-02 2.65677E-04-6.26694E-14
 -1      3975 1.29782E-02 2.29329E-04-6.28335E-14
 -1      3976 1.31195E-02 2.51963E-04-6.41358E-14
 -1      3977 1.31564E-02 3.11771E-04-6.32511E-14
 -1      3978 8.62146E-03-1.03730E-04-3.61495E-14
 -1      3979 3.53082E-03 2.71479E-04-6.58593E-15
 -1      3980 3.38680E-03 2.71768E-04-6.09262E-15
 -1      3981 3.31230E-03 2.34123E-04-5.87936E-15
 -1      3982 3.60077E-03 2.33644E-04-6.86754E-15
 -1      3983 1.39567E-02 6.15516E-04-6.89096E-14
 -1      3984 2.71517E-03-1.57364E-04-4.15634E-15
 -1      3985 2.86034E-03-1.58261E-04-4.56807E-15
 -1      3986 3.00542E-03-1.58854E-04-4.99932E-15
 -1      3987 3.15038E-03-1.59164E-04-5.44875E-15
 -1      3988 2.93113E-03-1.20965E-04-4.79011E-15
 -1      3989 3.29518E-03-1.59251E-04-5.91557E-15
 -1      3990 3.43982E-03-1.59126E-04-6.40122E-15
 -1      3991 3.22130E-03-1.21454E-04-5.68840E-15
 -1      3992 3.58428E-03-1.58834E-04-6.90534E-15
 -1      3993 3.72855E-03-1.58379E-04-7.42631E-15
 -1      3994 3.51081E-03-1.21260E-04-6.65936E-15
 -1      3995 3.87261E-03-1.57794E-04-7.96510E-15
 -1      3996 4.01646E-03-1.57074E-04-8.52238E-15
 -1      3997 3.79953E-03-1.20548E-04-7.70202E-15
 -1      3998 4.16009E-03-1.56245E-04-9.09720E-15
 -1      3999 4.30349E-03-1.55296E-04-9.68878E-15
 -1      4000 4.08736E-03-1.19416E-04-8.81558E-15
 -1      4001 4.44664E-03-1.54246E-04-1.02976E-14
 -1      4002 4.58953E-03-1.53078E-04-1.09231E-14
 -1      4003 4.37420E-03-1.17919E-04-9.99931E-15
 -1      4004 4.73216E-03-1.51806E-04-1.15658E-14
 -1      4005 4.87449E-03-1.50409E-04-1.22258E-14
 -1      4006 4.65995E-03-1.16068E-04-1.12506E-14
 -1      4007 5.01652E-03-1.48899E-04-1.29031E-14
 -1      4008 5.15821E-03-1.47250E-04-1.35971E-14
 -1      4009 4.94447E-03-1.13840E-04-1.25698E-14
 -1      4010 5.29955E-03-1.45473E-04-1.43083E-14
 -1      4011 5.44052E-03-1.43537E-04-1.50375E-14
 -1      4012 5.22758E-03-1.11186E-04-1.39577E-14
 -1      4013 5.58106E-03-1.41457E-04-1.57836E-14
 -1      4014 5.72117E-03-1.39197E-04-1.65464E-14
 -1      4015 5.50906E-03-1.08036E-04-1.54153E-14
 -1      4016 5.86080E-03-1.36774E-04-1.73272E-14
 -1      4017 5.99993E-03-1.34146E-04-1.81268E-14
 -1      4018 5.78862E-03-1.04298E-04-1.69420E-14
 -1      4019 6.13850E-03-1.31339E-04-1.89432E-14
 -1      4020 6.27653E-03-1.28304E-04-1.97754E-14
 -1      4021 6.06596E-03-9.98660E-05-1.85378E-14
 -1      4022 6.41393E-03-1.25072E-04-2.06246E-14
 -1      4023 6.55074E-03-1.21594E-04-2.14904E-14
 -1      4024 6.34075E-03-9.46129E-05-2.02027E-14
 -1      4025 6.68688E-03-1.17905E-04-2.23734E-14
 -1      4026 6.82241E-03-1.13955E-04-2.32728E-14
 -1      4027 6.61265E-03-8.83932E-05-2.19322E-14
 -1      4028 6.95726E-03-1.09785E-04-2.41866E-14
 -1      4029 7.09156E-03-1.05354E-04-2.51148E-14
 -1      4030 6.88137E-03-8.10397E-05-2.37270E-14
 -1      4031 7.22521E-03-1.00703E-04-2.60591E-14
 -1      4032 7.35847E-03-9.58202E-05-2.70174E-14
 -1      4033 7.14676E-03-7.23671E-05-2.55830E-14
 -1      4034 7.49125E-03-9.07425E-05-2.79879E-14
 -1      4035 7.62397E-03-8.55295E-05-2.89705E-14
 -1      4036 7.40885E-03-6.21963E-05-2.74955E-14
 -1      4037 7.75653E-03-8.01977E-05-2.99655E-14
 -1      4038 7.88973E-03-7.50512E-05-3.09744E-14
 -1      4039 7.66807E-03-5.04094E-05-2.94579E-14
 -1      4040 8.02342E-03-7.01991E-05-3.19950E-14
 -1      4041 8.15882E-03-6.58450E-05-3.30262E-14
 -1      4042 7.92564E-03-3.73092E-05-3.14721E-14
 -1      4043 1.81579E-03 1.82647E-04-1.98684E-15
 -1      4044 1.77735E-03 1.51929E-04-1.92987E-15
 -1      4045 1.96028E-03 1.88079E-04-2.27655E-15
 -1      4046 1.50274E-03 1.86074E-05-1.47147E-15
 -1      4047 1.50270E-03-1.57932E-05-1.47258E-15
 -1      4048 1.62701E-03 3.73597E-05-1.68737E-15
 -1      4049 2.42468E-03-1.54399E-04-3.38721E-15
 -1      4050 2.56993E-03-1.56088E-04-3.76210E-15
 -1      4051 2.64051E-03-1.19559E-04-3.96494E-15
 -1      4052 5.38409E-03 1.80748E-04-1.46661E-14
 -1      4053 5.24298E-03 1.82628E-04-1.39460E-14
 -1      4054 5.66495E-03 1.76712E-04-1.61567E-14
 -1      4055 5.52476E-03 1.78783E-04-1.54034E-14
 -1      4056 5.45251E-03 1.45275E-04-1.50554E-14
 -1      4057 5.10149E-03 1.84392E-04-1.32432E-14
 -1      4058 4.95964E-03 1.86057E-04-1.25569E-14
 -1      4059 5.17073E-03 1.48250E-04-1.36144E-14
 -1      4060 6.21971E-03 1.67917E-04-1.93353E-14
 -1      4061 6.08206E-03 1.70162E-04-1.85163E-14
 -1      4062 6.49239E-03 1.63619E-04-2.10211E-14
 -1      4063 6.35651E-03 1.65744E-04-2.01706E-14
 -1      4064 6.28383E-03 1.35437E-04-1.97765E-14
 -1      4065 6.76089E-03 1.59907E-04-2.27686E-14
 -1      4066 6.62721E-03 1.61685E-04-2.18868E-14
 -1      4067 6.55424E-03 1.32567E-04-2.14789E-14
 -1      4068 7.02415E-03 1.57352E-04-2.45785E-14
 -1      4069 6.89323E-03 1.58483E-04-2.36668E-14
 -1      4070 6.81990E-03 1.30541E-04-2.32447E-14
 -1      4071 7.28090E-03 1.56646E-04-2.64463E-14
 -1      4072 7.15341E-03 1.56776E-04-2.55047E-14
 -1      4073 7.07963E-03 1.29937E-04-2.50713E-14
 -1      4074 7.52947E-03 1.58518E-04-2.83683E-14
 -1      4075 7.40629E-03 1.57298E-04-2.74009E-14
 -1      4076 7.33192E-03 1.31434E-04-2.69548E-14
 -1      4077 7.76774E-03 1.63596E-04-3.03413E-14
 -1      4078 7.64999E-03 1.60752E-04-2.93490E-14
 -1      4079 7.57468E-03 1.35710E-04-2.88920E-14
 -1      4080 1.36095E-02 5.10791E-04-6.52550E-14
 -1      4081 1.36025E-02 3.26835E-04-6.87428E-14
 -1      4082 1.50527E-03 2.18198E-04-1.39412E-15
 -1      4083 2.37052E-03 2.64731E-04-3.14710E-15
 -1      4084 2.22587E-03 2.60834E-04-2.80547E-15
 -1      4085 2.14400E-03 2.24661E-04-2.64928E-15
 -1      4086 4.81748E-03 1.87603E-04-1.18890E-14
 -1      4087 4.67501E-03 1.89047E-04-1.12371E-14
 -1      4088 4.88731E-03 1.50914E-04-1.22432E-14
 -1      4089 7.97797E-03 1.74853E-04-3.21738E-14
 -1      4090 7.86585E-03 1.70531E-04-3.11588E-14
 -1      4091 7.78776E-03 1.45925E-04-3.06932E-14
 -1      4092 7.97429E-03 1.60821E-04-3.23449E-14
 -1      4093 1.70432E-03-1.57967E-04-1.79937E-15
 -1      4094 2.66492E-03 2.67837E-04-3.90470E-15
 -1      4095 2.52029E-03 2.65536E-04-3.52398E-15
 -1      4096 2.73378E-03 2.31380E-04-4.12641E-15
 -1      4097 2.13436E-03-1.49472E-04-2.69495E-15
 -1      4098 2.27947E-03-1.52205E-04-3.03166E-15
 -1      4099 2.34979E-03-1.16923E-04-3.21504E-15
 -1      4100 1.73895E-03-1.34539E-04-1.87497E-15
 -1      4101 1.81037E-03-1.49301E-04-2.00768E-15
 -1      4102 1.95487E-03-1.53802E-04-2.30046E-15
 -1      4103 1.73632E-03-9.71505E-05-1.88227E-15
 -1      4104 5.94367E-03 1.72377E-04-1.77132E-14
 -1      4105 5.80461E-03 1.74584E-04-1.69265E-14
 -1      4106 5.73229E-03 1.42053E-04-1.65631E-14
 -1      4107 1.36796E-02 5.50722E-04-6.59589E-14
 -1      4108 1.35132E-02 3.28771E-04-6.75502E-14
 -1      4109 1.38132E-02 5.79340E-04-6.74112E-14
 -1      4110 8.72833E-03-7.57704E-05-3.71746E-14
 -1      4111 2.43885E-03 2.29498E-04-3.34844E-15
 -1      4112 4.24608E-03 1.92682E-04-9.38308E-15
 -1      4113 4.10263E-03 1.93662E-04-8.79909E-15
 -1      4114 6.00959E-03 1.38705E-04-1.81366E-14
 -1      4115 8.28170E-03-1.96362E-05-3.43020E-14
 -1      4116 8.40059E-03-6.21853E-05-3.48434E-14
 -1      4117 8.54502E-03-6.42438E-05-3.59050E-14
 -1      4118 2.02463E-03-1.20717E-04-2.46277E-15
 -1      4119 8.12030E-03 8.87757E-05-3.40475E-14
 -1      4120 8.10950E-03 1.04332E-04-3.40881E-14
 -1      4121 8.03229E-03 1.07653E-04-3.33334E-14
 -1      4122 3.95898E-03 1.94507E-04-8.23194E-15
 -1      4123 3.81512E-03 1.95222E-04-7.68213E-15
 -1      4124 4.02959E-03 1.56791E-04-8.53502E-15
 -1      4125 1.32360E-02 2.73105E-04-6.51641E-14
 -1      4126 1.33733E-02 2.93659E-04-6.64813E-14
 -1      4127 1.34970E-02 3.53265E-04-6.68106E-14
 -1      4128 3.09314E-03 1.96078E-04-5.20989E-15
 -1      4129 2.94829E-03 1.95514E-04-4.77090E-15
 -1      4130 1.36060E-02 4.46794E-04-6.61590E-14
 -1      4131 1.34906E-02 4.13756E-04-6.52622E-14
 -1      4132 1.77432E-03 1.13999E-04-1.94191E-15
 -1      4133 8.00899E-03 1.40098E-04-3.29817E-14
 -1      4134 8.00654E-03 1.51893E-04-3.28113E-14
 -1      4135 7.91812E-03 1.43858E-04-3.19769E-14
 -1      4136 7.99338E-03 1.27973E-04-3.29053E-14
 -1      4137 1.62691E-03-3.43827E-05-1.68973E-15
 -1      4138 8.59483E-03-5.14385E-05-3.63873E-14
 -1      4139 2.87351E-03 1.57539E-04-4.57770E-15
 -1      4140 2.80333E-03 1.94594E-04-4.35029E-15
 -1      4141 2.65828E-03 1.93285E-04-3.94987E-15
 -1      4142 1.33872E-02 3.83728E-04-6.45446E-14
 -1      4143 1.32782E-02 3.48314E-04-6.39685E-14
 -1      4144 1.32628E-02 3.22471E-04-6.44148E-14
 -1      4145 1.34918E-02 3.91128E-04-6.58549E-14
 -1      4146 1.32494E-02 3.01886E-04-6.47201E-14
 -1      4147 4.53228E-03 1.90370E-04-1.06015E-14
 -1      4148 4.38930E-03 1.91588E-04-9.98398E-15
 -1      4149 4.31657E-03 1.55206E-04-9.70330E-15
 -1      4150 4.60252E-03 1.53239E-04-1.09393E-14
 -1      4151 4.67287E-03 1.16383E-04-1.12766E-14
 -1      4152 4.53020E-03 1.17194E-04-1.06406E-14
 -1      4153 6.07568E-03 1.05812E-04-1.85615E-14
 -1      4154 5.93807E-03 1.06928E-04-1.77576E-14
 -1      4155 3.14766E-03-8.36251E-05-5.46202E-15
 -1      4156 3.29269E-03-8.36536E-05-5.92885E-15
 -1      4157 3.43753E-03-8.35786E-05-6.41466E-15
 -1      4158 3.58218E-03-8.33990E-05-6.91851E-15
 -1      4159 3.36449E-03-4.58108E-05-6.17131E-15
 -1      4160 3.72661E-03-8.31414E-05-7.43992E-15
 -1      4161 3.87081E-03-8.27976E-05-7.97839E-15
 -1      4162 3.65388E-03-4.55906E-05-7.17814E-15
 -1      4163 4.01478E-03-8.23912E-05-8.53564E-15
 -1      4164 4.15848E-03-8.19104E-05-9.10987E-15
 -1      4165 3.94235E-03-4.51710E-05-8.25651E-15
 -1      4166 4.30192E-03-8.13718E-05-9.70155E-15
 -1      4167 4.44508E-03-8.07614E-05-1.03105E-14
 -1      4168 4.22981E-03-4.45939E-05-9.40479E-15
 -1      4169 4.58794E-03-8.00914E-05-1.09354E-14
 -1      4170 4.73049E-03-7.93448E-05-1.15782E-14
 -1      4171 4.51612E-03-4.38557E-05-1.06222E-14
 -1      4172 4.87269E-03-7.85311E-05-1.22384E-14
 -1      4173 5.01453E-03-7.76292E-05-1.29149E-14
 -1      4174 4.80115E-03-4.29390E-05-1.19076E-14
 -1      4175 5.15598E-03-7.66472E-05-1.36088E-14
 -1      4176 5.29701E-03-7.55590E-05-1.43199E-14
 -1      4177 5.08471E-03-4.18056E-05-1.32607E-14
 -1      4178 5.43757E-03-7.43721E-05-1.50486E-14
 -1      4179 5.57765E-03-7.30543E-05-1.57944E-14
 -1      4180 5.36655E-03-4.03949E-05-1.46832E-14
 -1      4181 5.71717E-03-7.16135E-05-1.65575E-14
 -1      4182 5.85612E-03-7.00095E-05-1.73378E-14
 -1      4183 5.64636E-03-3.86189E-05-1.61741E-14
 -1      4184 5.99442E-03-6.82512E-05-1.81345E-14
 -1      4185 6.13205E-03-6.62887E-05-1.89495E-14
 -1      4186 5.92377E-03-3.63556E-05-1.77330E-14
 -1      4187 6.26893E-03-6.41318E-05-1.97817E-14
 -1      4188 6.40503E-03-6.17194E-05-2.06283E-14
 -1      4189 6.19833E-03-3.34395E-05-1.93607E-14
 -1      4190 6.54025E-03-5.90611E-05-2.14928E-14
 -1      4191 6.67459E-03-5.60836E-05-2.23733E-14
 -1      4192 6.46952E-03-2.96495E-05-2.10547E-14
 -1      4193 6.80793E-03-5.27948E-05-2.32693E-14
 -1      4194 6.94030E-03-4.91096E-05-2.41812E-14
 -1      4195 6.73677E-03-2.46947E-05-2.28125E-14
 -1      4196 7.07154E-03-4.50309E-05-2.51081E-14
 -1      4197 7.20175E-03-4.04660E-05-2.60496E-14
 -1      4198 6.99943E-03-1.82002E-05-2.46348E-14
 -1      4199 7.33072E-03-3.54093E-05-2.70044E-14
 -1      4200 7.45865E-03-2.97811E-05-2.79721E-14
 -1      4201 7.25683E-03-9.69556E-06-2.65138E-14
 -1      4202 7.58523E-03-2.35776E-05-2.89521E-14
 -1      4203 7.71086E-03-1.66917E-05-2.99447E-14
 -1      4204 7.50820E-03 1.36732E-06-2.84468E-14
 -1      4205 7.83502E-03-9.11017E-06-3.09503E-14
 -1      4206 7.95861E-03-1.09597E-06-3.19693E-14
 -1      4207 7.75262E-03 1.55707E-05-3.04302E-14
 -1      4208 2.10504E-03 1.92575E-04-2.58574E-15
 -1      4209 2.06654E-03 1.60822E-04-2.52134E-15
 -1      4210 2.24997E-03 1.96242E-04-2.91442E-15
 -1      4211 1.75207E-03 5.73030E-05-1.91691E-15
 -1      4212 1.75119E-03 2.01146E-05-1.92103E-15
 -1      4213 8.34807E-03 3.66776E-05-3.53764E-14
 -1      4214 8.24071E-03 4.89220E-05-3.46574E-14
 -1      4215 1.36635E-02 4.59535E-04-6.67133E-14
 -1      4216 1.36564E-02 4.35391E-04-6.71329E-14
 -1      4217 4.38722E-03 1.17931E-04-1.00230E-14
 -1      4218 4.24397E-03 1.18607E-04-9.42260E-15
 -1      4219 4.45803E-03 8.08924E-05-1.03443E-14
 -1      4220 6.87977E-03 1.02330E-04-2.37213E-14
 -1      4221 6.74891E-03 1.02303E-04-2.28218E-14
 -1      4222 5.52099E-03 1.10350E-04-1.54444E-14
 -1      4223 5.38075E-03 1.11479E-04-1.47068E-14
 -1      4224 5.24002E-03 1.12555E-04-1.39868E-14
 -1      4225 5.09882E-03 1.13600E-04-1.32839E-14
 -1      4226 5.30940E-03 7.73300E-05-1.43597E-14
 -1      4227 6.61661E-03 1.02546E-04-2.19389E-14
 -1      4228 6.48301E-03 1.03125E-04-2.10710E-14
 -1      4229 6.67981E-03 7.35069E-05-2.23989E-14
 -1      4230 6.34825E-03 1.03862E-04-2.02185E-14
 -1      4231 6.21243E-03 1.04802E-04-1.93815E-14
 -1      4232 6.14209E-03 7.36905E-05-1.89876E-14
 -1      4233 6.41319E-03 7.31652E-05-2.06623E-14
 -1      4234 7.13645E-03 1.03803E-04-2.55648E-14
 -1      4235 7.00901E-03 1.02868E-04-2.46358E-14
 -1      4236 6.94090E-03 7.52008E-05-2.41993E-14
 -1      4237 7.38497E-03 1.07648E-04-2.74638E-14
 -1      4238 7.26185E-03 1.05464E-04-2.65081E-14
 -1      4239 7.19516E-03 7.88528E-05-2.60604E-14
 -1      4240 7.62295E-03 1.14549E-04-2.94168E-14
 -1      4241 7.50545E-03 1.10816E-04-2.84334E-14
 -1      4242 7.44080E-03 8.51784E-05-2.79752E-14
 -1      4243 3.23787E-03 1.96357E-04-5.66726E-15
 -1      4244 3.16355E-03 1.58505E-04-5.45604E-15
 -1      4245 3.38243E-03 1.96371E-04-6.14336E-15
 -1      4246 1.33710E-02 3.39799E-04-6.54409E-14
 -1      4247 1.75113E-03-1.70196E-05-1.92256E-15
 -1      4248 1.75192E-03-5.41943E-05-1.92115E-15
 -1      4249 1.87602E-03 1.60408E-06-2.16912E-15
 -1      4250 1.89815E-03 9.79146E-05-2.19455E-15
 -1      4251 5.79971E-03 1.08053E-04-1.69700E-14
 -1      4252 5.66065E-03 1.09216E-04-1.61989E-14
 -1      4253 5.58959E-03 7.59886E-05-1.58346E-14
 -1      4254 4.95721E-03 1.14582E-04-1.25974E-14
 -1      4255 4.81522E-03 1.15517E-04-1.19287E-14
 -1      4256 4.74333E-03 7.98339E-05-1.16140E-14
 -1      4257 1.36129E-02 4.04106E-04-6.72251E-14
 -1      4258 2.85716E-03-8.31556E-05-4.58168E-15
 -1      4259 3.00248E-03-8.34607E-05-5.01303E-15
 -1      4260 3.07433E-03-4.57996E-05-5.23648E-15
 -1      4261 1.86025E-03-8.09262E-05-2.12993E-15
 -1      4262 2.52921E-03 1.95349E-04-3.60606E-15
 -1      4263 2.37894E-03 1.95307E-04-3.22566E-15
 -1      4264 2.34062E-03 1.62960E-04-3.15325E-15
 -1      4265 2.59907E-03 1.59131E-04-3.81313E-15
 -1      4266 2.56630E-03-8.19965E-05-3.77560E-15
 -1      4267 2.71175E-03-8.26699E-05-4.16976E-15
 -1      4268 2.78358E-03-4.54765E-05-4.37560E-15
 -1      4269 2.27546E-03-7.99200E-05-3.04506E-15
 -1      4270 2.42084E-03-8.10810E-05-3.40074E-15
 -1      4271 2.49256E-03-4.47495E-05-3.58871E-15
 -1      4272 2.03991E-03-7.50148E-05-2.50830E-15
 -1      4273 5.86733E-03 7.47179E-05-1.73778E-14
 -1      4274 2.19156E-03 1.31508E-04-2.81776E-15
 -1      4275 2.04651E-03 1.28727E-04-2.49483E-15
 -1      4276 2.02390E-03 6.88918E-05-2.46821E-15
 -1      4277 2.32078E-03 1.29947E-04-3.12355E-15
 -1      4278 3.67107E-03 1.95779E-04-7.15077E-15
 -1      4279 3.52684E-03 1.96176E-04-6.63787E-15
 -1      4280 3.45299E-03 1.58564E-04-6.40875E-15
 -1      4281 1.35040E-02 3.71042E-04-6.65002E-14
 -1      4282 2.11139E-03-4.05725E-05-2.67103E-15
 -1      4283 8.14728E-03 2.74649E-05-3.36851E-14
 -1      4284 8.12540E-03 6.18599E-05-3.38355E-14
 -1      4285 8.03136E-03 6.85181E-05-3.30841E-14
 -1      4286 4.17150E-03 8.17806E-05-9.14186E-15
 -1      4287 4.10044E-03 1.19202E-04-8.83828E-15
 -1      4288 3.95667E-03 1.19726E-04-8.27096E-15
 -1      4289 7.81129E-03 1.29556E-04-3.10448E-14
 -1      4290 7.71818E-03 1.22011E-04-3.02271E-14
 -1      4291 7.65522E-03 9.75061E-05-2.97592E-14
 -1      4292 5.02721E-03 7.86334E-05-1.29534E-14
 -1      4293 3.23445E-03 1.20806E-04-5.70366E-15
 -1      4294 3.08944E-03 1.20620E-04-5.24570E-15
 -1      4295 7.98587E-03 1.14255E-04-3.28680E-14
 -1      4296 7.94302E-03 1.21463E-04-3.24041E-14
 -1      4297 7.98408E-03 1.00202E-04-3.28288E-14
 -1      4298 3.74170E-03 1.57940E-04-7.43551E-15
 -1      4299 3.01560E-03 8.27364E-05-5.03598E-15
 -1      4300 2.94428E-03 1.20234E-04-4.80552E-15
 -1      4301 2.79901E-03 1.19646E-04-4.38438E-15
 -1      4302 8.39121E-03-6.23261E-07-3.53189E-14
 -1      4303 5.89448E-03 1.90540E-05-1.75606E-14
 -1      4304 5.75617E-03 1.87704E-05-1.67763E-14
 -1      4305 7.95272E-03 3.23715E-05-3.21536E-14
 -1      4306 8.04249E-03 6.79953E-06-3.26869E-14
 -1      4307 3.58139E-03-7.92594E-06-6.91743E-15
 -1      4308 3.72589E-03-7.85698E-06-7.43864E-15
 -1      4309 3.91270E-03 1.85893E-05-8.13679E-15
 -1      4310 4.05662E-03 1.85633E-05-8.69903E-15
 -1      4311 4.20027E-03 1.85146E-05-9.27806E-15
 -1      4312 4.34364E-03 1.84761E-05-9.87456E-15
 -1      4313 4.48670E-03 1.84212E-05-1.04883E-14
 -1      4314 4.62944E-03 1.83826E-05-1.11183E-14
 -1      4315 4.77183E-03 1.83335E-05-1.17658E-14
 -1      4316 4.91386E-03 1.83106E-05-1.24311E-14
 -1      4317 5.05547E-03 1.82854E-05-1.31124E-14
 -1      4318 5.19666E-03 1.83023E-05-1.38109E-14
 -1      4319 5.33736E-03 1.83291E-05-1.45261E-14
 -1      4320 5.47755E-03 1.84224E-05-1.52587E-14
 -1      4321 5.61717E-03 1.85448E-05-1.60092E-14
 -1      4322 6.03204E-03 1.94939E-05-1.83609E-14
 -1      4323 6.16876E-03 2.00344E-05-1.91789E-14
 -1      4324 6.30459E-03 2.08059E-05-2.00127E-14
 -1      4325 6.43940E-03 2.17381E-05-2.08632E-14
 -1      4326 6.57315E-03 2.30030E-05-2.17296E-14
 -1      4327 6.70566E-03 2.45089E-05-2.26108E-14
 -1      4328 6.83689E-03 2.64826E-05-2.35083E-14
 -1      4329 6.96662E-03 2.87985E-05-2.44215E-14
 -1      4330 7.09483E-03 3.17567E-05-2.53491E-14
 -1      4331 7.22118E-03 3.51748E-05-2.62908E-14
 -1      4332 7.34571E-03 3.94569E-05-2.72464E-14
 -1      4333 7.46789E-03 4.43316E-05-2.82150E-14
 -1      4334 7.58784E-03 5.03533E-05-2.91960E-14
 -1      4335 7.68292E-03 5.96101E-05-3.00072E-14
 -1      4336 7.79744E-03 6.76053E-05-3.10105E-14
 -1      4337 2.41941E-03-7.90458E-06-3.40288E-15
 -1      4338 2.56494E-03-7.97615E-06-3.77763E-15
 -1      4339 3.37930E-03 1.20842E-04-6.18028E-15
 -1      4340 3.30580E-03 8.30312E-05-5.95300E-15
 -1      4341 3.52395E-03 1.20727E-04-6.67589E-15
 -1      4342 2.02959E-03-1.79130E-06-2.49158E-15
 -1      4343 2.26508E-03-4.21219E-06-3.02610E-15
 -1      4344 2.33803E-03 3.20493E-05-3.19741E-15
 -1      4345 2.02999E-03 3.75963E-05-2.48827E-15
 -1      4346 3.81265E-03 1.20152E-04-7.72128E-15
 -1      4347 3.66841E-03 1.20497E-04-7.18903E-15
 -1      4348 3.59528E-03 8.29110E-05-6.94404E-15
 -1      4349 3.88387E-03 8.24648E-05-8.00789E-15
 -1      4350 7.85262E-03 1.20449E-04-3.15025E-14
 -1      4351 3.04430E-03 1.84971E-05-5.14077E-15
 -1      4352 3.18953E-03 1.85713E-05-5.59420E-15
 -1      4353 2.75348E-03 1.82756E-05-4.28776E-15
 -1      4354 2.89894E-03 1.84133E-05-4.70476E-15
 -1      4355 3.33458E-03 1.86029E-05-6.06649E-15
 -1      4356 3.47944E-03 1.86287E-05-6.55759E-15
 -1      4357 8.16573E-03-1.08596E-05-3.34963E-14
 -1      4358 2.17772E-03 6.70129E-05-2.81097E-15
 -1      4359 2.68126E-03 5.54696E-05-4.07993E-15
 -1      4360 7.95566E-03 5.96088E-05-3.23646E-14
 -1      4361 7.84320E-03 1.06048E-04-3.14655E-14
 -1      4362 7.89813E-03 6.87293E-05-3.19071E-14
 -1      4363 2.60965E-03 9.23424E-05-3.87421E-15
 -1      4364 2.48014E-03 9.51030E-05-3.53484E-15
 -1      4365 3.84096E-03 5.61419E-05-7.85430E-15
 -1      4366 3.55217E-03 5.63966E-05-6.80106E-15
 -1      4367 2.33178E-03 6.46999E-05-3.17484E-15
 -1      4368 3.69668E-03 5.62940E-05-7.31858E-15
 -3
    1PSTEP                         2           1           1          
  100CL  101 1.000000000        4368                     0    1           1
 -4  STRESS      6    1
 -5  SXX         1    4    1    1
 -5  SYY         1    4    2    2
 -5  SZZ         1    4    3    3
 -5  SXY         1    4    1    2
 -5  SYZ         1    4    2    3
 -5  SZX         1    4    3    1
 -1         1 2.33695E+01 1.10335E+01 1.02511E+00-1.57485E+01-2.36533E-13 4.87055E-13
 -1         2-7.59328E-01-2.49537E+01-3.40587E+00-1.67631E-01-2.67460E-13-1.20629E-13
 -1         3 1.99760E+01-2.56051E-02 4.72642E-02-2.52766E-02-4.67429E-13-4.81401E-13
 -1         4 1.99860E+01-1.42705E-02 3.51679E-02 1.44785E-02 1.34855E-13 1.06998E-13
 -1         5 3.27652E+01 6.14213E+00 2.74250E+00 6.22417E+00-2.44596E-14 1.89114E-12
 -1         6 3.57495E+01 1.22626E+01 5.12551E+00-8.64649E+00-1.04139E-13 1.97331E-12
 -1         7 2.08156E+01 6.09884E+00-1.28812E-01-4.72611E+00-1.30729E-14 4.63560E-13
 -1         8 1.96696E+01 5.93434E+00 5.08898E-02-3.27597E+00-2.21073E-14-2.27492E-14
 -1         9 1.91364E+01 5.77163E+00 4.91543E-02-2.52801E+00-2.12712E-14-2.95761E-13
 -1        10 1.88949E+01 5.69208E+00 5.09803E-02-1.95269E+00-1.45448E-14-4.34264E-13
 -1        11 1.87747E+01 5.65154E+00 5.03415E-02-1.45756E+00-1.44515E-14-5.05841E-13
 -1        12 1.87122E+01 5.63021E+00 4.89092E-02-1.01626E+00-6.96557E-15-5.47069E-13
 -1        13 1.86792E+01 5.61894E+00 4.75136E-02-5.96030E-01-3.00790E-15-5.71017E-13
 -1        14 1.86654E+01 5.61420E+00 4.67883E-02-1.91429E-01 1.25464E-15-5.82052E-13
 -1        15 1.86659E+01 5.61436E+00 4.68289E-02 2.08445E-01 1.12247E-15-5.91601E-13
 -1        16 1.86807E+01 5.61942E+00 4.76436E-02 6.13874E-01 5.45321E-15-5.81351E-13
 -1        17 1.87149E+01 5.63094E+00 4.91462E-02 1.03604E+00 9.37206E-15-5.61913E-13
 -1        18 1.87788E+01 5.65270E+00 5.08761E-02 1.48042E+00 1.09392E-14-5.23008E-13
 -1        19 1.89009E+01 5.69376E+00 5.15564E-02 1.98171E+00 1.67540E-14-4.47664E-13
 -1        20 1.91412E+01 5.77413E+00 4.87673E-02 2.56529E+00 2.20830E-14-3.03576E-13
 -1        21 1.96651E+01 5.94892E+00 4.58505E-02 3.31002E+00 2.72421E-14-6.72162E-15
 -1        22 2.11986E+01 6.38064E+00 1.39583E-01 4.52370E+00 4.66294E-15 5.66547E-13
 -1        23 2.30257E+01-1.37899E+00-9.38192E-01-7.11391E-01-7.60711E-14 1.59564E-12
 -1        24 1.93617E+01-9.94790E-02-3.09828E-01 6.31572E-02-1.95729E-14 1.24022E-12
 -1        25 1.86721E+01-5.63205E-02-6.88018E-02 6.06757E-02-3.75611E-15 8.97310E-13
 -1        26 1.84683E+01-2.20853E-02-6.47626E-03 3.29408E-02 6.77410E-16 6.66663E-13
 -1        27 1.84783E+01-1.17979E-02 1.61511E-03 2.25468E-02-8.87224E-15 5.37020E-13
 -1        28 1.85909E+01-6.24453E-03 1.80670E-03 1.62215E-02-2.91851E-15 4.53317E-13
 -1        29 1.87490E+01-3.10398E-03 1.73836E-03 1.20506E-02 1.09236E-14 3.40412E-13
 -1        30 1.89216E+01-1.27210E-03 1.90764E-03 9.06737E-03 4.41449E-15 2.84736E-13
 -1        31 1.90913E+01-2.12060E-04 2.04176E-03 6.81484E-03-9.46559E-15 1.53398E-13
 -1        32 1.92485E+01 3.62872E-04 2.02979E-03 5.06346E-03-1.75504E-14-5.19311E-15
 -1        33 1.93893E+01 6.17696E-04 1.87417E-03 3.68574E-03 3.28298E-14-3.57583E-14
 -1        34 1.95128E+01 6.52810E-04 1.60581E-03 2.60382E-03-1.54492E-16 2.85064E-14
 -1        35 1.96205E+01 5.31300E-04 1.25173E-03 1.76695E-03-5.05314E-14-1.62814E-13
 -1        36 1.97159E+01 2.93109E-04 8.28190E-04 1.14201E-03 3.79772E-14-1.42913E-13
 -1        37 1.98034E+01-3.66419E-05 3.41465E-04 7.09925E-04-2.87406E-14 4.35702E-14
 -1        38 1.98889E+01-4.41768E-04-2.09408E-04 4.64816E-04-2.54429E-14-4.02648E-14
 -1        39 1.99788E+01-9.09861E-04-8.28975E-04 4.14342E-04-2.57121E-14-1.67047E-13
 -1        40 2.00809E+01-1.42679E-03-1.52039E-03 5.80285E-04 1.08638E-14-1.39701E-13
 -1        41 2.02035E+01-1.97007E-03-2.27817E-03 9.98440E-04 2.50548E-14-1.53374E-13
 -1        42 2.03555E+01-2.50036E-03-3.07734E-03 1.71648E-03-3.53777E-14-1.60705E-13
 -1        43 2.05461E+01-2.95063E-03-3.85688E-03 2.78752E-03-1.35851E-14-3.59967E-13
 -1        44 2.07837E+01-3.21295E-03-4.49535E-03 4.25530E-03 1.52687E-14-3.07438E-13
 -1        45 2.10743E+01-3.12467E-03-4.77731E-03 6.12473E-03-1.40034E-14-2.10202E-13
 -1        46 2.14189E+01-2.45936E-03-4.35346E-03 8.30815E-03-2.27546E-15-3.86915E-13
 -1        47 2.18096E+01-9.34406E-04-2.70953E-03 1.05366E-02 4.38163E-14-2.61071E-13
 -1        48 2.22240E+01 1.74138E-03 8.14777E-04 1.22316E-02-1.35222E-14-1.46320E-13
 -1        49 2.26190E+01 5.74616E-03 6.87466E-03 1.23577E-02 8.09463E-14-3.08423E-13
 -1        50 2.29253E+01 1.09146E-02 1.57157E-02 9.34429E-03-5.48256E-14-6.16236E-13
 -1        51 2.30467E+01 1.64132E-02 2.64322E-02 1.27786E-03 2.67227E-14-5.82353E-13
 -1        52 2.28723E+01 2.04470E-02 3.60129E-02-1.33044E-02-2.61720E-14-2.90310E-13
 -1        53 2.23089E+01 2.03782E-02 3.90075E-02-3.37882E-02 6.11484E-14-5.54216E-13
 -1        54 2.13365E+01 1.36941E-02 2.90340E-02-5.54423E-02-5.20612E-15-7.62820E-13
 -1        55 2.00694E+01-4.95500E-05 3.25663E-03-6.88921E-02-5.58400E-14-9.16139E-13
 -1        56 1.87813E+01-1.74752E-02-3.25907E-02-6.35853E-02 4.25188E-14-8.23532E-13
 -1        57 1.78420E+01-3.16349E-02-6.31580E-02-3.53716E-02-2.05875E-14-4.57672E-13
 -1        58 1.75636E+01-3.56397E-02-7.20585E-02 7.41395E-03-2.29883E-14-5.74866E-13
 -1        59 1.80365E+01-2.73507E-02-5.40143E-02 4.68664E-02 2.27177E-14-6.02407E-13
 -1        60 1.90769E+01-1.09492E-02-1.92338E-02 6.73449E-02-9.69543E-14-4.27120E-13
 -1        61 2.03281E+01 6.09021E-03 1.48587E-02 6.49005E-02 1.03209E-13-3.60614E-13
 -1        62 2.14351E+01 1.77526E-02 3.57050E-02 4.68049E-02-4.50891E-14-2.12139E-13
 -1        63 2.21734E+01 2.20212E-02 4.08441E-02 2.39633E-02-8.41631E-14-6.72129E-13
 -1        64 2.24785E+01 2.02498E-02 3.49343E-02 4.31051E-03-3.00924E-14-1.04317E-12
 -1        65 2.24035E+01 1.50941E-02 2.42482E-02-9.00369E-03 3.79231E-14-8.72480E-13
 -1        66 2.20568E+01 8.86049E-03 1.32385E-02-1.62072E-02-5.44413E-14-5.55360E-13
 -1        67 2.15565E+01 2.87335E-03 3.69073E-03-1.88326E-02 1.01817E-13-1.24211E-13
 -1        68 2.10089E+01-2.40484E-03-4.61983E-03-1.81968E-02 6.01369E-14 5.52605E-13
 -1        69 2.05056E+01-6.80454E-03-1.25410E-02-1.44618E-02-2.38633E-14 5.73083E-13
 -1        70 2.01330E+01-8.29424E-03-1.75936E-02-4.70929E-03 6.30881E-15 8.03619E-13
 -1        71 1.99729E+01 2.45125E-03-4.33362E-03 9.64712E-03-5.14993E-14 5.58098E-13
 -1        72 2.10383E+01-4.04845E-01-9.80324E-01-3.11467E-01 3.23873E-14 1.71563E-12
 -1        73 1.93262E+01-6.58802E-02-2.91136E-01-5.37953E-02 1.59729E-14 1.28098E-12
 -1        74 1.86815E+01-2.05033E-02-6.42685E-02-2.03170E-02 1.13530E-14 9.19148E-13
 -1        75 1.84774E+01-9.87650E-03-9.29691E-03-1.54114E-02 6.13810E-15 7.07497E-13
 -1        76 1.84872E+01-5.16675E-03 6.99846E-04-1.23302E-02-4.08186E-15 5.98485E-13
 -1        77 1.85989E+01-2.62290E-03 1.76394E-03-1.00372E-02 2.11273E-14 4.48260E-13
 -1        78 1.87559E+01-1.16516E-03 1.89029E-03-8.26729E-03-9.19073E-15 4.11301E-13
 -1        79 1.89274E+01-3.20317E-04 2.06759E-03-6.79607E-03-1.96082E-15 4.25542E-13
 -1        80 1.90958E+01 1.50456E-04 2.18054E-03-5.51499E-03-1.23388E-14 3.10839E-13
 -1        81 1.92519E+01 3.79516E-04 2.14767E-03-4.38052E-03 3.15863E-14 1.39373E-13
 -1        82 1.93914E+01 4.44922E-04 1.97387E-03-3.37247E-03 6.49759E-15 7.71130E-14
 -1        83 1.95135E+01 3.94107E-04 1.68910E-03-2.47734E-03 1.81904E-16 1.81199E-14
 -1        84 1.96199E+01 2.55459E-04 1.31867E-03-1.68292E-03 8.19134E-15-1.61393E-14
 -1        85 1.97137E+01 4.44379E-05 8.75711E-04-9.77189E-04-1.02865E-14-1.05601E-14
 -1        86 1.97998E+01-2.32954E-04 3.60684E-04-3.49040E-04 1.84829E-14-1.88482E-13
 -1        87 1.98841E+01-5.77930E-04-2.37748E-04 2.09931E-04-4.20044E-14-2.06115E-13
 -1        88 1.99737E+01-9.97129E-04-9.42096E-04 7.02631E-04 1.30985E-14-2.25069E-13
 -1        89 2.00774E+01-1.50066E-03-1.78561E-03 1.12236E-03-1.15310E-14-3.17409E-13
 -1        90 2.02056E+01-2.09920E-03-2.81162E-03 1.44662E-03-2.19075E-14-1.86471E-14
 -1        91 2.03709E+01-2.79885E-03-4.07136E-03 1.62731E-03 5.61075E-16-5.46017E-14
 -1        92 2.05884E+01-3.59147E-03-5.61737E-03 1.57519E-03-3.53525E-14-4.70118E-14
 -1        93 2.08764E+01-4.43690E-03-7.48593E-03 1.13573E-03-6.07641E-15-6.33610E-14
 -1        94 2.12558E+01-5.23141E-03-9.65505E-03 5.37999E-05 2.07580E-14-4.40775E-13
 -1        95 2.17498E+01-5.75580E-03-1.19519E-02-2.07063E-03 2.48208E-14-4.56828E-13
 -1        96 2.23807E+01-5.59987E-03-1.38659E-02-5.81856E-03-1.24877E-14-2.69243E-13
 -1        97 2.31641E+01-4.07773E-03-1.42138E-02-1.19211E-02-1.40588E-14 3.73122E-14
 -1        98 2.40953E+01-2.01180E-04-1.06545E-02-2.10100E-02-3.09551E-15 1.67996E-13
 -1        99 2.51268E+01 7.08954E-03 6.75147E-04-3.28372E-02-4.26150E-14-7.36043E-14
 -1       100 2.61332E+01 1.80857E-02 2.44844E-02-4.45321E-02 5.62171E-14-1.60351E-13
 -1       101 2.68720E+01 3.05054E-02 6.26223E-02-4.79010E-02-5.21087E-14-2.14722E-13
 -1       102 2.69736E+01 3.74079E-02 1.05559E-01-2.80986E-02-4.76017E-14 2.31586E-13
 -1       103 2.60323E+01 2.80810E-02 1.23279E-01 3.00175E-02 1.88651E-15 7.03909E-13
 -1       104 2.38754E+01-2.25249E-03 7.37850E-02 1.20797E-01 4.62833E-14 8.87658E-13
 -1       105 2.09531E+01-4.00621E-02-5.26932E-02 1.93601E-01 7.18208E-14 5.46278E-13
 -1       106 1.84626E+01-5.80919E-02-1.88923E-01 1.73785E-01-9.33914E-14 6.79873E-13
 -1       107 1.77412E+01-4.39443E-02-2.28938E-01 4.56649E-02-2.65144E-14 6.91543E-13
 -1       108 1.92028E+01-1.07474E-02-1.37053E-01-1.04537E-01 1.07053E-13-8.19830E-14
 -1       109 2.19669E+01 1.87408E-02 9.66957E-03-1.77463E-01-5.33272E-14-1.13437E-13
 -1       110 2.46237E+01 3.27057E-02 1.06365E-01-1.54659E-01-4.14078E-15 3.11327E-13
 -1       111 2.62344E+01 3.15471E-02 1.22947E-01-8.75692E-02 6.04317E-14 6.05314E-14
 -1       112 2.66277E+01 2.23099E-02 9.06508E-02-2.55857E-02-1.24210E-13 8.90156E-14
 -1       113 2.61073E+01 1.16001E-02 4.76020E-02 1.25890E-02 2.05414E-14 1.65685E-13
 -1       114 2.50841E+01 3.08504E-03 1.50006E-02 2.95623E-02-9.26225E-14-2.33858E-14
 -1       115 2.38824E+01-2.59334E-03-3.90121E-03 3.39572E-02 1.07565E-13-3.31027E-13
 -1       116 2.27029E+01-6.15442E-03-1.32745E-02 3.28296E-02 1.29423E-14 5.66804E-14
 -1       117 2.16552E+01-8.67419E-03-1.87617E-02 3.00834E-02-5.99925E-14-5.74905E-14
 -1       118 2.08044E+01-1.07698E-02-2.46524E-02 2.67088E-02-1.01557E-15 2.33190E-14
 -1       119 2.02143E+01-1.09780E-02-2.90287E-02 1.85804E-02-2.30058E-14-5.35593E-13
 -1       120 1.99718E+01 1.00007E-02-4.66841E-03-5.74125E-03 2.17581E-13-6.87380E-13
 -1       121 1.99988E+01-1.17641E-02-5.56028E-03-1.30927E-02-5.19521E-13 1.20271E-13
 -1       122 1.99877E+01 2.38425E-01-2.54071E-02 1.21062E-02 2.45593E-13 3.03399E-14
 -1       123 1.99932E+01 7.92680E-01-1.39661E-02 2.45922E-02 7.00663E-13 1.20254E-13
 -1       124 2.00004E+01 1.48088E+00 5.27324E-05 2.73239E-02 5.47816E-13 2.21317E-13
 -1       125 2.00069E+01 2.15930E+00 1.11946E-02 2.38473E-02 6.60680E-13-2.36970E-13
 -1       126 2.00121E+01 2.70589E+00 1.87022E-02 1.71509E-02 4.78263E-15 3.96882E-14
 -1       127 2.00145E+01 3.05733E+00 2.22628E-02 8.04383E-03-5.60724E-13 4.99156E-15
 -1       128 2.00147E+01 3.16171E+00 2.20753E-02-1.45202E-03-1.17481E-12 9.82087E-14
 -1       129 2.00127E+01 3.01889E+00 1.86289E-02-9.79043E-03-1.00380E-12 1.34210E-13
 -1       130 2.00091E+01 2.66524E+00 1.29978E-02-1.58521E-02-4.86772E-13 2.61430E-14
 -1       131 2.00047E+01 2.16271E+00 6.38486E-03-1.92775E-02-3.35640E-13-1.57790E-13
 -1       132 2.00001E+01 1.59403E+00-2.14914E-04-1.98572E-02-6.95490E-13 3.38411E-13
 -1       133 1.99959E+01 1.01444E+00-6.86597E-03-1.82269E-02-8.00198E-13 6.41235E-14
 -1       134 1.99912E+01 5.02746E-01-1.44864E-02-1.51110E-02-6.99327E-13 1.13355E-13
 -1       135 1.99918E+01 1.40148E-01-1.59992E-02-7.89653E-03-6.12062E-13-5.69260E-15
 -1       136 1.99917E+01-8.07300E-03-2.30227E-03 2.07432E-02-5.12802E-13-1.33605E-14
 -1       137-1.44895E+00-2.06105E+01-3.19021E+00-3.93801E+00-2.48968E-13 5.31415E-14
 -1       138-1.84343E+00-9.67852E+00-2.44571E+00-3.50639E+00 1.42281E-12 7.57810E-13
 -1       139 2.95348E+00 2.87799E+00-1.21131E+00 3.31594E+00 2.14723E-12 1.55215E-12
 -1       140 1.46576E+01 1.01200E+01 2.22120E-01 1.21312E+01 1.24384E-12 1.26937E-12
 -1       141 3.32606E+01 1.04271E+01 1.70283E+00 1.82252E+01 2.94986E-13 3.61655E-13
 -1       142 5.43220E+01 5.61957E+00 3.04241E+00 1.62047E+01-1.45065E-13-1.59706E-13
 -1       143 6.68493E+01 1.50323E+00 3.76817E+00 5.55745E+00 1.36537E-13-8.81101E-13
 -1       144 6.47015E+01 2.30285E+00 3.65058E+00-8.51834E+00 1.87260E-13-1.45772E-12
 -1       145 4.85281E+01 7.02284E+00 2.67359E+00-1.72432E+01 7.48068E-13-1.61010E-12
 -1       146 2.76661E+01 1.07137E+01 1.25617E+00-1.68707E+01 1.02585E-12-1.65923E-12
 -1       147 1.03620E+01 8.60433E+00-2.45732E-01-9.50861E+00 1.12632E-12-1.14869E-12
 -1       148 8.41636E-01-2.29772E-01-1.59620E+00-9.25648E-01 1.50907E-12-8.83349E-13
 -1       149-2.02011E+00-1.26932E+01-2.66185E+00 4.23212E+00 9.63729E-13-4.80796E-13
 -1       150-1.19393E+00-2.21506E+01-3.24537E+00 3.31138E+00 5.41789E-13-3.73503E-14
 -1       151-7.93481E-01-2.43362E+01-3.33659E+00-8.40620E-01 3.22492E-13 4.33681E-14
 -1       152-1.51449E+00-1.77627E+01-2.90326E+00-3.97348E+00-1.10195E-12-3.47646E-13
 -1       153-1.02058E+00-5.93148E+00-1.99975E+00-1.94920E+00-1.55476E-12-6.40404E-13
 -1       154 5.28481E+00 5.57409E+00-7.21026E-01 5.72246E+00-1.40993E-12-1.13909E-12
 -1       155 1.91441E+01 1.11258E+01 6.99746E-01 1.44247E+01-1.34781E-12-1.78652E-12
 -1       156 3.80737E+01 9.32186E+00 2.01098E+00 1.81030E+01-9.81548E-13-1.62759E-12
 -1       157 5.64912E+01 4.37167E+00 3.03495E+00 1.36349E+01-3.33261E-13-1.05782E-12
 -1       158 6.57260E+01 1.00756E+00 3.49921E+00 1.93972E+00 1.18863E-14-2.38712E-13
 -1       159 6.11188E+01 2.72795E+00 3.26939E+00-1.08132E+01-1.52958E-13 6.55587E-13
 -1       160 4.41902E+01 8.11281E+00 2.37623E+00-1.79645E+01-2.82413E-13 6.46649E-13
 -1       161 8.82262E+00 8.35169E+00-2.63741E-01-8.63703E+00-3.88078E-13 8.98170E-14
 -1       162 8.73102E-01 1.57441E-01-1.43711E+00-1.00993E+00-2.13662E-13 2.20379E-14
 -1       163-1.68209E+00-1.07533E+01-2.39599E+00 3.73743E+00 3.17191E-13 1.57707E-13
 -1       164-1.25880E+00-2.11072E+01-3.17694E+00 3.53182E+00 2.42029E-14-1.00045E-13
 -1       165 2.10102E+01 3.69389E+00-5.73560E-02-3.61136E+00-2.72535E-13 1.96679E-13
 -1       166 1.99890E+01 4.20758E+00-4.57322E-02-2.81072E+00-2.69750E-13-1.02952E-13
 -1       167 1.95082E+01 4.47688E+00-3.15926E-02-2.19568E+00-2.19739E-13-2.84795E-13
 -1       168 1.92680E+01 4.61500E+00-2.37372E-02-1.67688E+00-1.65719E-13-3.87178E-13
 -1       169 1.91391E+01 4.69673E+00-1.94862E-02-1.22023E+00-1.16077E-13-4.41712E-13
 -1       170 1.90660E+01 4.74791E+00-1.74159E-02-7.92848E-01-7.89392E-14-4.70144E-13
 -1       171 1.90294E+01 4.77584E+00-1.64244E-02-3.87298E-01-2.75190E-14-4.72493E-13
 -1       172 1.90187E+01 4.78439E+00-1.61374E-02 8.27254E-03 1.50156E-14-4.86128E-13
 -1       173 1.90310E+01 4.77455E+00-1.64707E-02 4.04187E-01 4.84521E-14-4.97474E-13
 -1       174 1.90697E+01 4.74495E+00-1.75235E-02 8.10832E-01 8.77414E-14-4.87632E-13
 -1       175 1.91434E+01 4.69244E+00-1.96901E-02 1.23265E+00 1.29128E-13-4.55220E-13
 -1       176 1.92778E+01 4.60520E+00-2.40083E-02 1.69958E+00 1.89756E-13-3.93607E-13
 -1       177 1.95233E+01 4.45935E+00-3.28525E-02 2.22804E+00 2.43108E-13-3.00780E-13
 -1       178 2.00114E+01 4.18363E+00-4.72174E-02 2.84820E+00 2.70820E-13-1.09239E-13
 -1       179 2.11319E+01 3.46356E+00-5.97912E-02 3.53787E+00 2.78376E-13 2.35020E-13
 -1       180 2.24155E+01 1.14348E+00-3.36464E-01 3.01566E+00 2.07972E-13 7.02577E-13
 -1       181 2.19677E+01 8.58289E-01 6.56072E-04-1.95989E+00-2.32866E-13 5.36737E-13
 -1       182 2.04426E+01 1.90158E-01-9.99290E-03-7.65181E-01-2.08942E-13 4.19325E-13
 -1       183 1.96661E+01 1.01725E-01 1.35612E-02-2.86685E-01-1.48587E-13 3.08384E-13
 -1       184 1.93256E+01 4.71236E-02 1.00115E-02-6.89888E-02-8.66651E-14 2.09066E-13
 -1       185 1.91950E+01 2.25264E-02 5.16053E-03 3.81945E-02-4.24975E-14 1.95094E-13
 -1       186 1.91808E+01 9.54350E-03 2.43637E-03 9.08492E-02-7.51415E-14 1.98540E-13
 -1       187 1.92289E+01 2.21738E-03 1.14207E-03 1.13439E-01-3.59810E-14 1.28674E-13
 -1       188 1.93080E+01-1.90264E-03 5.17617E-04 1.18828E-01-7.17940E-14 1.16731E-13
 -1       189 1.93998E+01-4.03236E-03 1.95153E-04 1.14573E-01-6.69906E-14 1.35052E-13
 -1       190 1.94935E+01-4.85669E-03 2.59549E-05 1.05453E-01-3.35260E-14 1.70344E-13
 -1       191 1.95838E+01-4.79191E-03-5.19814E-05 9.46461E-02-1.09114E-14-1.60183E-14
 -1       192 1.96682E+01-4.10017E-03-6.90336E-05 8.43466E-02-7.42918E-14-9.14444E-14
 -1       193 1.97468E+01-2.94531E-03-4.28027E-05 7.61268E-02 1.18686E-14-5.81000E-15
 -1       194 1.98216E+01-1.42459E-03 1.54380E-05 7.11734E-02 3.91973E-14-6.90280E-14
 -1       195 1.98955E+01 4.09375E-04 9.79063E-05 7.04428E-02-6.13251E-14-4.29773E-14
 -1       196 1.99727E+01 2.52956E-03 1.98456E-04 7.47581E-02-3.11867E-14 1.07247E-14
 -1       197 2.00581E+01 4.91417E-03 3.10909E-04 8.48520E-02-1.88581E-14-5.08931E-15
 -1       198 2.01574E+01 7.52144E-03 4.27270E-04 1.01348E-01-2.14272E-14-3.58799E-14
 -1       199 2.02766E+01 1.02558E-02 5.35656E-04 1.24667E-01-4.54942E-14-7.31002E-14
 -1       200 2.04219E+01 1.29210E-02 6.17957E-04 1.54825E-01-1.04979E-13-7.14078E-14
 -1       201 2.05988E+01 1.51555E-02 6.47529E-04 1.91102E-01 3.14787E-15-9.52761E-14
 -1       202 2.08117E+01 1.63487E-02 5.87850E-04 2.31519E-01-1.33871E-14-1.96978E-13
 -1       203 2.10616E+01 1.55454E-02 3.94075E-04 2.72115E-01-7.47709E-15-1.46358E-13
 -1       204 2.13449E+01 1.13697E-02 2.07668E-05 3.06022E-01 1.11516E-13-4.62251E-14
 -1       205 2.16501E+01 2.04765E-03-5.59895E-04 3.22517E-01 7.52492E-14 3.74190E-14
 -1       206 2.19547E+01-1.43046E-02-1.32724E-03 3.06484E-01-1.43890E-13 2.61089E-14
 -1       207 2.22229E+01-3.88591E-02-2.17196E-03 2.39257E-01-1.16737E-13-8.58771E-14
 -1       208 2.24044E+01-7.04303E-02-2.86695E-03 1.02449E-01-1.40825E-14-6.62315E-14
 -1       209 2.24389E+01-1.03007E-01-3.08041E-03-1.13347E-01 1.32267E-13-1.01777E-13
 -1       210 2.22679E+01-1.23596E-01-2.53916E-03-3.94345E-01-1.86007E-13-1.03784E-13
 -1       211 2.18591E+01-1.13313E-01-1.19141E-03-6.88063E-01-7.15396E-14-1.97069E-13
 -1       212 2.12374E+01-5.61171E-02 5.58209E-04-8.99234E-01-6.52343E-14-2.59636E-13
 -1       213 2.05118E+01 4.51858E-02 2.10997E-03-9.15723E-01 9.43941E-14-2.59607E-13
 -1       214 1.98681E+01 1.56814E-01 2.83074E-03-6.69279E-01 2.18920E-13-2.33862E-13
 -1       215 1.95094E+01 2.24279E-01 3.06215E-03-2.00593E-01-1.04335E-13-1.48529E-13
 -1       216 1.95578E+01 2.08610E-01 3.05286E-03 3.32439E-01-5.58009E-14-1.42302E-13
 -1       217 1.99846E+01 1.18840E-01 2.63772E-03 7.34339E-01 5.31188E-14-2.39563E-13
 -1       218 2.06263E+01 3.67338E-03 1.48623E-03 8.82297E-01-2.39033E-15 6.93347E-14
 -1       219 2.12730E+01-8.59569E-02-2.42919E-04 7.77793E-01 4.45555E-14-1.88683E-13
 -1       220 2.17588E+01-1.26843E-01-1.92677E-03 5.13275E-01-2.85119E-13-2.22904E-13
 -1       221 2.20041E+01-1.24537E-01-2.96154E-03 2.01794E-01-2.89464E-13-3.50923E-13
 -1       222 2.20077E+01-9.73008E-02-3.11659E-03-7.32024E-02 2.49175E-13-2.99273E-13
 -1       223 2.18168E+01-6.20040E-02-2.51680E-03-2.71030E-01 1.68885E-13-1.44538E-13
 -1       224 2.14985E+01-2.84381E-02-1.49095E-03-3.83451E-01 3.42002E-13-1.17824E-13
 -1       225 2.11204E+01 3.81640E-04-4.07081E-04-4.18118E-01 2.38723E-13-1.99086E-13
 -1       226 2.07424E+01 2.56010E-02 3.67626E-04-3.85699E-01 2.34615E-13-2.29270E-13
 -1       227 2.04139E+01 5.01238E-02 8.52403E-04-2.94126E-01 2.27354E-13 1.57766E-13
 -1       228 2.01632E+01 7.16790E-02 8.24139E-04-1.53733E-01-1.88945E-13 2.10625E-13
 -1       229 2.09589E+01 2.77042E-01-5.13409E-02 1.16570E+00 2.18828E-13 5.98542E-13
 -1       230 1.98633E+01 1.26828E-01 8.30825E-03 4.44016E-01 1.75786E-13 4.45852E-13
 -1       231 1.93560E+01 5.80379E-02 1.27362E-02 1.51029E-01 9.33134E-14 3.24559E-13
 -1       232 1.91453E+01 2.76906E-02 7.63156E-03 1.18199E-02 8.26841E-14 2.45411E-13
 -1       233 1.90946E+01 1.30527E-02 3.82846E-03-5.72677E-02 7.36551E-14 1.65869E-13
 -1       234 1.91294E+01 5.14105E-03 1.91460E-03-8.97371E-02-6.66383E-15 1.15446E-13
 -1       235 1.92079E+01 6.57453E-04 1.01844E-03-1.01701E-01 4.97783E-14 6.86103E-14
 -1       236 1.93055E+01-1.83732E-03 5.66258E-04-1.01966E-01 4.62503E-14 1.35280E-14
 -1       237 1.94079E+01-3.07543E-03 3.13704E-04-9.58607E-02 5.74702E-14 1.84591E-14
 -1       238 1.95075E+01-3.47816E-03 1.67385E-04-8.68283E-02 2.78836E-14 5.64581E-14
 -1       239 1.96005E+01-3.30367E-03 8.81174E-05-7.71937E-02 3.64239E-14 9.47747E-15
 -1       240 1.96861E+01-2.71135E-03 5.57044E-05-6.85953E-02 2.71425E-14 4.65605E-15
 -1       241 1.97655E+01-1.79355E-03 5.79775E-05-6.22545E-02 3.98752E-14-7.97569E-14
 -1       242 1.98416E+01-5.92742E-04 8.71520E-05-5.91655E-02 6.29383E-14-8.25442E-14
 -1       243 1.99186E+01 8.88288E-04 1.38172E-04-6.02369E-02 9.65320E-15-8.62365E-14
 -1       244 2.00018E+01 2.67973E-03 2.07560E-04-6.64048E-02 2.94421E-14-2.20187E-13
 -1       245 2.00980E+01 4.83939E-03 2.92306E-04-7.87244E-02 7.25846E-16-1.56723E-13
 -1       246 2.02153E+01 7.44652E-03 3.88442E-04-9.84391E-02-1.03369E-13-1.36791E-13
 -1       247 2.03632E+01 1.05914E-02 4.88928E-04-1.27021E-01 2.29575E-14-3.87439E-14
 -1       248 2.05531E+01 1.43541E-02 5.80330E-04-1.66156E-01-3.58544E-14-5.49508E-14
 -1       249 2.07979E+01 1.87595E-02 6.37892E-04-2.17620E-01 5.01329E-14-1.26957E-13
 -1       250 2.11119E+01 2.36844E-02 6.19282E-04-2.82942E-01 1.28455E-13-2.73423E-13
 -1       251 2.15100E+01 2.86762E-02 4.59884E-04-3.62651E-01-2.18441E-14-3.09383E-13
 -1       252 2.20048E+01 3.26214E-02 7.90843E-05-4.54778E-01-1.90987E-13-1.39929E-13
 -1       253 2.26028E+01 3.31943E-02-5.80902E-04-5.52118E-01-1.49310E-13 9.89740E-14
 -1       254 2.32960E+01 2.60898E-02-1.44978E-03-6.37730E-01 2.49398E-14 1.99366E-13
 -1       255 2.40495E+01 4.37592E-03-2.13638E-03-6.78685E-01 1.48645E-13 2.08948E-13
 -1       256 2.47858E+01-4.07861E-02-1.77978E-03-6.20356E-01-5.16095E-14 8.08984E-14
 -1       257 2.53688E+01-1.14926E-01 8.31628E-04-3.89239E-01-3.94515E-14 1.72038E-13
 -1       258 2.56047E+01-2.06462E-01 6.09528E-03 7.85216E-02-2.06252E-13 7.58101E-14
 -1       259 2.52865E+01-2.67266E-01 1.05358E-02 7.62275E-01-2.04813E-13 3.54587E-13
 -1       260 2.43162E+01-2.10231E-01 6.70191E-03 1.45186E+00 1.36800E-14 4.31658E-13
 -1       261 2.28859E+01 2.29336E-02-9.20230E-03 1.72269E+00 1.86627E-13 4.10890E-13
 -1       262 2.15754E+01 3.37272E-01-2.89650E-02 1.19269E+00-8.52270E-14 2.90798E-13
 -1       263 2.11043E+01 4.84512E-01-3.65433E-02-1.79493E-02 4.45893E-14 8.98305E-14
 -1       264 2.17589E+01 3.30414E-01-2.20856E-02-1.19870E+00 2.85791E-13 2.68240E-14
 -1       265 2.31152E+01 1.92815E-02 1.41182E-03-1.67358E+00-6.70651E-14-1.44275E-13
 -1       266 2.44255E+01-2.07158E-01 1.26312E-02-1.36013E+00-5.84992E-14-3.82673E-13
 -1       267 2.51826E+01-2.63357E-01 9.95046E-03-6.56452E-01 8.43336E-14-3.25096E-14
 -1       268 2.52762E+01-2.06234E-01 2.83467E-03 2.64684E-02-1.67023E-13-1.74923E-14
 -1       269 2.48468E+01-1.18791E-01-2.31961E-03 4.91353E-01 9.66631E-14-9.17625E-14
 -1       270 2.41067E+01-4.67439E-02-3.63314E-03 7.23869E-01-1.95458E-14-7.43685E-14
 -1       271 2.32396E+01-8.97825E-04-2.71862E-03 7.86093E-01 2.05033E-13 2.08579E-14
 -1       272 2.23737E+01 2.44581E-02-1.19092E-03 7.45128E-01-9.36959E-14-2.11705E-13
 -1       273 2.15889E+01 3.88289E-02-1.56556E-04 6.46010E-01-8.26622E-14 6.69701E-14
 -1       274 2.09349E+01 5.07765E-02-3.18769E-04 5.08840E-01 1.48460E-14 3.43413E-13
 -1       275 2.04468E+01 6.83824E-02-1.91851E-04 3.33919E-01 3.49910E-13 3.22690E-13
 -1       276 2.01358E+01 7.64326E-02 1.88874E-03 1.26939E-01 4.85241E-14 1.62639E-13
 -1       277 2.01022E+01 2.64800E-01 1.65651E-03 2.50222E-01 4.33965E-13 7.03530E-13
 -1       278 2.00635E+01 6.20558E-01 5.18034E-04 4.35469E-01 1.19805E-13-4.67313E-14
 -1       279 2.00166E+01 1.06734E+00 5.97778E-05 5.27880E-01-1.62678E-13 4.55162E-14
 -1       280 1.99770E+01 1.53658E+00-6.58281E-04 5.18417E-01-1.75208E-13 2.89333E-13
 -1       281 1.99469E+01 1.94894E+00-1.61650E-03 4.25052E-01-2.15474E-13-4.48676E-13
 -1       282 1.99276E+01 2.25700E+00-2.33119E-03 2.68520E-01-3.09297E-13-5.11732E-13
 -1       283 1.99212E+01 2.41015E+00-2.68910E-03 7.94393E-02-2.96658E-13-2.38711E-13
 -1       284 1.99273E+01 2.39328E+00-2.63916E-03-1.10357E-01-1.79306E-13 1.04056E-13
 -1       285 1.99432E+01 2.21770E+00-2.22300E-03-2.72797E-01-2.01572E-13 8.41213E-14
 -1       286 1.99649E+01 1.91650E+00-1.52512E-03-3.88224E-01-3.79075E-13 1.87144E-13
 -1       287 1.99878E+01 1.54302E+00-6.39464E-04-4.46748E-01-9.91598E-14-1.18071E-13
 -1       288 2.00103E+01 1.13406E+00 1.66033E-04-4.49335E-01-1.77805E-13 1.40178E-14
 -1       289 2.00311E+01 7.44369E-01 7.49883E-04-3.98011E-01-2.84436E-14 2.60315E-13
 -1       290 2.00538E+01 4.15543E-01 1.44857E-03-2.94044E-01-2.60941E-13-1.00418E-13
 -1       291 2.01087E+01 2.25611E-01 1.84115E-03-2.50285E-01-1.64934E-13-8.65457E-14
 -1       292-7.92955E-01-1.01067E+01-8.41742E-01 1.10569E+00 1.74374E-13 2.24237E-13
 -1       293 2.40835E+00-9.01471E+00-8.35773E-01 3.13949E+00 1.29202E-13 9.22554E-13
 -1       294 1.02462E+01-5.76516E+00-4.35942E-01 5.89803E+00 1.82937E-13 6.30267E-13
 -1       295 1.84344E+01-1.56010E+00-1.66301E-01 6.94764E+00 8.09686E-13 4.86555E-14
 -1       296 2.87240E+01 1.92982E+00 2.84492E-01 7.49567E+00 6.74572E-13-7.83262E-14
 -1       297 3.88418E+01 4.62681E+00 7.34146E-01 6.37882E+00 3.72299E-13-3.75366E-13
 -1       298 4.51586E+01 6.34642E+00 9.37827E-01 3.10185E+00 1.77039E-13-7.92227E-13
 -1       299 4.53535E+01 7.33159E+00 8.28912E-01-1.92515E-01 2.27429E-13-7.24601E-13
 -1       300 4.19334E+01 5.93883E+00 6.28545E-01-2.54359E+00 4.49515E-13-6.58779E-13
 -1       301 3.59103E+01 3.57481E+00 5.29791E-01-6.19021E+00 4.99933E-13-9.00613E-13
 -1       302 2.57113E+01 9.60724E-01 1.41430E-01-7.38096E+00 4.03316E-13-8.96061E-13
 -1       303 1.55489E+01-2.61785E+00-2.87453E-01-6.49062E+00 6.51840E-13-3.78642E-13
 -1       304 7.64355E+00-6.45304E+00-5.54578E-01-5.11459E+00 4.64268E-13-5.99675E-13
 -1       305 1.26109E+00-9.57627E+00-8.80389E-01-2.46931E+00 5.03458E-13-5.33407E-13
 -1       306-1.08568E+00-1.00861E+01-8.32631E-01-4.57484E-01 2.45606E-13-2.96041E-13
 -1       307-2.90978E-01-1.00494E+01-8.61682E-01 1.90122E+00-8.16153E-14-5.45175E-13
 -1       308 3.94931E+00-7.66761E+00-6.63739E-01 4.21487E+00-1.54016E-13-3.55264E-13
 -1       309 1.26261E+01-4.73218E+00-2.65905E-01 6.62743E+00-4.04593E-13-5.32338E-13
 -1       310 2.08188E+01-3.34285E-01-1.93705E-02 7.32816E+00-6.06182E-13-1.02970E-12
 -1       311 3.06370E+01 3.24756E+00 3.99674E-01 7.69105E+00-8.44561E-13-9.23484E-13
 -1       312 3.82385E+01 4.97054E+00 4.88789E-01 4.18991E+00-8.04037E-13-8.91343E-13
 -1       313 4.26431E+01 7.07766E+00 6.38709E-01 1.58540E+00-6.17617E-13-8.04246E-13
 -1       314 4.63061E+01 6.68145E+00 9.77210E-01-1.50357E+00-3.29112E-13-3.81604E-13
 -1       315 4.11072E+01 5.84616E+00 6.98077E-01-4.22294E+00-3.76088E-15-1.65978E-14
 -1       316 3.31795E+01 2.70820E+00 3.31807E-01-5.53491E+00-9.18848E-14 7.44960E-14
 -1       317 2.34124E+01 8.75331E-01 1.02420E-01-7.73604E+00-4.21885E-15 2.84550E-13
 -1       318 1.46543E+01-2.49011E+00-2.58744E-01-6.74971E+00 1.93678E-13-1.36113E-13
 -1       319 7.30391E+00-6.00713E+00-5.92235E-01-5.12593E+00 2.08333E-13-9.13852E-15
 -1       320 1.96517E+00-9.36556E+00-9.48659E-01-2.75788E+00-1.50463E-13-1.46536E-13
 -1       321-8.34015E-01-1.05823E+01-9.00536E-01-1.28130E+00 1.57652E-13-7.83262E-14
 -1       322 2.01442E+01 3.01501E+00-1.79036E-02-2.11148E+00-2.75140E-13-1.04472E-13
 -1       323 2.07531E+01 2.20827E+00-1.78567E-02-2.36472E+00-3.06116E-13 6.69152E-14
 -1       324 1.95858E+01 3.69131E+00-1.51118E-02-1.31795E+00-1.68946E-13-3.06093E-13
 -1       325 1.94629E+01 3.84845E+00-1.35823E-02-9.24436E-01-1.23659E-13-3.56471E-13
 -1       326 1.93947E+01 3.93917E+00-1.26941E-02-5.44453E-01-5.96104E-14-3.63681E-13
 -1       327 1.93645E+01 3.98047E+00-1.22970E-02-1.73449E-01-1.02909E-15-3.76014E-13
 -1       328 1.93658E+01 3.97885E+00-1.23194E-02 1.94595E-01 4.05386E-14-3.89872E-13
 -1       329 1.93988E+01 3.93393E+00-1.27662E-02 5.65958E-01 8.24454E-14-3.90338E-13
 -1       330 1.94689E+01 3.84063E+00-1.37734E-02 9.40251E-01 1.34100E-13-3.67364E-13
 -1       331 1.95947E+01 3.67837E+00-1.56593E-02 1.33458E+00 2.06264E-13-3.04287E-13
 -1       332 1.98089E+01 3.40972E+00-1.88350E-02 1.74007E+00 2.55914E-13-2.54367E-13
 -1       333 2.01779E+01 2.95504E+00-2.29422E-02 2.12870E+00 3.08446E-13-1.35925E-13
 -1       334 2.07461E+01 2.12938E+00-3.04702E-02 2.32356E+00 3.11138E-13 7.16562E-14
 -1       335 2.10918E+01 1.18773E+00-2.49270E-02 1.92313E+00 2.84254E-13 2.74973E-13
 -1       336 2.03876E+01 4.89229E-01 8.33405E-03 9.28637E-01 2.20594E-13 2.09601E-13
 -1       337 3.35226E+00-5.46383E+00-1.30368E-01-4.52528E+00 1.85060E-13 1.10287E-13
 -1       338 2.04548E+01 6.75144E-01 1.23541E-02-1.02696E+00-2.29092E-13 8.44951E-14
 -1       339 2.00328E+01 3.36853E-01 7.19429E-03-4.59109E-01-1.65512E-13 5.97092E-14
 -1       340 1.97783E+01 1.76347E-01 4.12369E-03-1.50524E-01-8.11278E-14 4.76368E-14
 -1       341 1.96424E+01 9.05895E-02 1.87816E-03 2.07994E-02-4.88539E-14 1.25423E-14
 -1       342 1.95870E+01 4.17207E-02 7.90464E-04 1.12356E-01-8.84451E-14 4.09107E-15
 -1       343 1.95821E+01 1.31713E-02 2.82093E-04 1.56305E-01-4.26187E-14-1.73602E-14
 -1       344 1.96072E+01-3.17176E-03 3.33212E-05 1.71795E-01-4.05158E-14 1.08253E-14
 -1       345 1.96487E+01-1.17062E-02-8.97892E-05 1.70857E-01-4.60341E-14 4.62460E-15
 -1       346 1.96983E+01-1.50174E-02-1.41377E-04 1.61429E-01-1.05058E-13-5.42424E-14
 -1       347 1.97508E+01-1.47121E-02-1.46352E-04 1.48936E-01-7.04698E-14-5.31802E-14
 -1       348 1.98041E+01-1.18117E-02-1.18523E-04 1.37209E-01-3.47224E-14-1.77872E-14
 -1       349 1.98576E+01-6.95929E-03-6.63740E-05 1.29047E-01 7.83259E-15 3.34675E-14
 -1       350 1.99120E+01-5.45895E-04 4.72541E-06 1.26590E-01 1.67756E-14 4.14674E-15
 -1       351 1.99694E+01 7.19485E-03 9.11918E-05 1.31565E-01-8.06128E-15-6.35253E-15
 -1       352 2.00325E+01 1.61005E-02 1.90059E-04 1.45421E-01-1.08603E-14 2.69578E-14
 -1       353 2.01045E+01 2.59845E-02 2.97711E-04 1.69363E-01-1.91267E-14 8.62295E-15
 -1       354 2.01893E+01 3.65188E-02 4.08318E-04 2.04269E-01-4.99738E-14 3.10063E-14
 -1       355 2.02908E+01 4.70785E-02 5.11867E-04 2.50470E-01-9.27583E-14-3.33618E-14
 -1       356 2.04132E+01 5.65353E-02 5.91698E-04 3.07340E-01-8.72624E-14 6.78292E-14
 -1       357 2.05599E+01 6.29920E-02 6.21779E-04 3.72657E-01-4.47314E-14-3.20266E-14
 -1       358 2.07336E+01 6.34715E-02 5.64408E-04 4.41693E-01 2.02157E-14-4.77090E-14
 -1       359 2.09352E+01 5.36324E-02 3.70118E-04 5.06021E-01 9.32739E-14-2.14869E-14
 -1       360 2.11630E+01 2.77018E-02-1.69980E-05 5.52170E-01 1.39284E-13-1.46849E-13
 -1       361 2.14111E+01-2.09603E-02-6.42967E-04 5.60504E-01 4.22087E-14-7.29561E-14
 -1       362 2.16681E+01-9.79378E-02-1.51298E-03 5.05209E-01-9.21959E-14 5.71816E-14
 -1       363 2.19149E+01-2.03490E-01-2.53769E-03 3.57079E-01-6.28558E-14 1.84276E-13
 -1       364 2.21219E+01-3.25319E-01-3.46542E-03 9.16480E-02 1.55574E-14 1.26989E-13
 -1       365 2.22479E+01-4.29746E-01-3.81480E-03-2.94685E-01-3.02655E-14-8.54618E-14
 -1       366 2.22423E+01-4.57995E-01-3.19906E-03-7.60531E-01-1.35632E-13 1.19373E-13
 -1       367 2.20618E+01-3.40643E-01-1.38243E-03-1.19672E+00-3.00499E-14 3.34603E-13
 -1       368 2.17054E+01-4.40455E-02 1.05481E-03-1.43031E+00-3.96840E-14 3.54223E-13
 -1       369 2.12557E+01 3.69989E-01 3.36940E-03-1.28968E+00-4.08180E-15 2.42827E-14
 -1       370 2.08811E+01 7.27853E-01 4.22167E-03-7.22935E-01 7.72186E-14-5.77641E-14
 -1       371 2.07595E+01 8.32450E-01 4.62031E-03 1.06875E-01-3.36701E-14 2.33768E-13
 -1       372 2.09459E+01 6.20192E-01 4.30864E-03 8.74605E-01 4.97324E-14 3.50489E-13
 -1       373 2.13302E+01 2.14084E-01 2.55208E-03 1.29480E+00 1.94356E-13 4.02610E-13
 -1       374 2.17226E+01-1.79825E-01-4.56892E-05 1.27940E+00-6.06376E-14 1.92630E-13
 -1       375 2.19768E+01-4.19624E-01-2.43291E-03 9.36875E-01-6.63629E-14 5.72312E-14
 -1       376 2.20421E+01-4.81622E-01-3.79809E-03 4.53660E-01-3.82681E-13 1.48536E-13
 -1       377 2.19392E+01-4.18186E-01-3.98756E-03-1.33503E-02-1.18628E-13 2.54224E-13
 -1       378 2.17181E+01-2.96787E-01-3.25501E-03-3.75954E-01 2.24089E-13-3.64962E-14
 -1       379 2.14295E+01-1.66118E-01-2.07894E-03-6.05666E-01 2.71824E-13 2.83518E-13
 -1       380 2.11147E+01-4.90134E-02-8.25300E-04-7.08322E-01 1.92425E-13 5.82471E-14
 -1       381 2.08039E+01 5.06274E-02 2.77686E-04-7.01873E-01-5.20109E-14 9.87384E-14
 -1       382 2.05198E+01 1.37750E-01 1.31669E-03-6.04541E-01 1.93617E-13-1.83105E-13
 -1       383 2.03006E+01 1.93666E-01 1.99132E-03-4.46140E-01 1.37330E-13-1.31838E-13
 -1       384 1.98853E+01 2.28403E-01 1.07967E-02 4.00095E-01 1.61233E-13 1.66743E-13
 -1       385 1.95961E+01 1.15269E-01 6.17342E-03 1.21488E-01 1.40988E-13 9.60699E-14
 -1       386 1.94609E+01 5.76099E-02 2.80489E-03-2.73020E-02 1.06334E-13 2.23303E-14
 -1       387 1.94207E+01 2.58478E-02 1.17730E-03-1.04279E-01 5.50151E-14-2.41707E-14
 -1       388 1.94364E+01 7.60463E-03 4.57848E-04-1.39869E-01 6.32871E-14-9.81690E-14
 -1       389 1.94830E+01-2.77318E-03 1.18855E-04-1.51157E-01 7.01696E-14-2.71706E-14
 -1       390 1.95448E+01-8.20225E-03-5.13212E-05-1.48568E-01 7.12351E-14-3.31669E-14
 -1       391 1.96123E+01-1.03548E-02-1.30676E-04-1.38843E-01 1.44103E-14-3.11779E-14
 -1       392 1.96804E+01-1.02499E-02-1.51655E-04-1.26535E-01 8.31184E-14-4.39586E-14
 -1       393 1.97467E+01-8.51871E-03-1.31120E-04-1.14848E-01 5.08127E-14-5.48447E-14
 -1       394 1.98111E+01-5.53497E-03-7.88657E-05-1.06152E-01 1.27591E-13-1.23007E-13
 -1       395 1.98750E+01-1.48634E-03-2.74540E-07-1.02334E-01 4.33402E-14-1.25739E-13
 -1       396 1.99410E+01 3.58330E-03 1.02514E-04-1.05056E-01 4.47631E-14-1.07532E-13
 -1       397 2.00132E+01 9.74519E-03 2.29767E-04-1.15953E-01 5.44396E-14-8.28421E-14
 -1       398 2.00963E+01 1.71620E-02 3.83357E-04-1.36782E-01 2.16748E-14-1.20640E-13
 -1       399 2.01964E+01 2.60608E-02 5.65704E-04-1.69532E-01-3.50433E-14-6.35092E-14
 -1       400 2.03204E+01 3.66909E-02 7.78029E-04-2.16475E-01-6.69137E-14-9.70850E-14
 -1       401 2.04764E+01 4.92440E-02 1.01719E-03-2.80120E-01 6.03793E-14-5.59286E-14
 -1       402 2.06736E+01 6.36974E-02 1.27005E-03-3.62997E-01 4.68990E-14-2.25236E-13
 -1       403 2.09216E+01 7.95083E-02 1.50396E-03-4.67120E-01 2.43598E-13-1.78785E-13
 -1       404 2.12301E+01 9.50444E-02 1.65247E-03-5.92865E-01-5.35333E-14-2.57132E-13
 -1       405 2.16078E+01 1.06589E-01 1.59841E-03-7.36847E-01-2.51224E-13-1.84907E-13
 -1       406 2.20599E+01 1.06771E-01 1.16432E-03-8.88207E-01-2.45987E-13-1.85721E-13
 -1       407 2.25857E+01 8.25210E-02 1.35636E-04-1.02274E+00-7.32235E-14-8.40622E-14
 -1       408 2.31737E+01 1.35726E-02-1.63845E-03-1.09497E+00 1.07229E-13 2.70461E-13
 -1       409 2.37960E+01-1.24968E-01-4.04008E-03-1.03080E+00 1.54313E-14 3.05572E-13
 -1       410 2.43995E+01-3.48156E-01-6.55387E-03-7.29922E-01 1.82742E-14 3.43711E-13
 -1       411 2.48926E+01-6.23960E-01-7.67125E-03-9.78653E-02-8.13169E-14 3.28273E-13
 -1       412 2.51317E+01-8.16680E-01-6.92532E-03 8.62160E-01-2.99206E-13 1.47409E-13
 -1       413 2.49517E+01-6.81840E-01-8.43465E-03 1.89940E+00 5.28488E-14 5.26077E-14
 -1       414 2.42782E+01-8.39030E-03-1.39509E-02 2.43243E+00 7.90689E-14 9.99175E-14
 -1       415 2.34056E+01 9.64813E-01-1.70196E-02 1.83661E+00 3.64552E-14 2.39066E-13
 -1       416 2.29506E+01 1.49859E+00-2.06028E-02 1.48312E-01 1.13269E-13 2.30679E-13
 -1       417 2.33144E+01 1.07334E+00-1.93081E-02-1.60910E+00 2.88014E-13 2.12582E-13
 -1       418 2.41515E+01 1.07701E-01-8.45340E-03-2.35394E+00 1.15480E-13-7.00525E-14
 -1       419 2.48079E+01-6.30669E-01-5.26615E-03-1.90497E+00-1.10671E-14-2.32218E-13
 -1       420 2.49613E+01-8.34805E-01-7.82323E-03-8.72253E-01-3.15261E-13-4.64502E-14
 -1       421 2.46667E+01-6.69386E-01-9.45669E-03 1.32858E-01-1.02583E-13 3.28428E-13
 -1       422 2.41003E+01-3.94810E-01-8.78408E-03 8.21151E-01 6.53709E-14 2.94254E-13
 -1       423 2.34134E+01-1.60911E-01-5.51061E-03 1.17080E+00 5.30676E-14 1.82350E-13
 -1       424 2.27020E+01-7.49414E-03-2.22549E-03 1.26797E+00 2.19189E-13-2.02509E-14
 -1       425 2.20248E+01 7.98747E-02 2.95321E-04 1.20768E+00 1.45157E-14-1.09927E-13
 -1       426 2.14169E+01 1.29683E-01 1.86777E-03 1.05637E+00-3.53231E-13-8.95062E-14
 -1       427 2.09004E+01 1.66542E-01 2.47785E-03 8.47944E-01-1.84178E-13 1.71857E-13
 -1       428 2.04848E+01 2.06167E-01 2.39144E-03 5.93630E-01 1.73237E-13 6.75765E-13
 -1       429 2.02716E+01 2.45288E-01 1.97367E-03 4.28841E-01 1.55354E-13 8.51291E-13
 -1       430 1.99798E+01 1.14459E+00 1.05905E-04 8.98803E-01-5.50912E-13 2.32509E-13
 -1       431 2.01346E+01 7.74448E-01 2.01015E-03 8.50804E-01-3.57286E-13-1.65923E-13
 -1       432 2.02282E+01 4.98451E-01 2.83369E-03 6.73045E-01-1.99211E-13-2.59115E-13
 -1       433 1.98478E+01 1.48180E+00-1.30474E-03 8.02517E-01-6.16972E-13-3.51218E-13
 -1       434 1.97497E+01 1.75436E+00-2.22088E-03 5.84649E-01-3.70536E-13-3.32382E-13
 -1       435 1.96986E+01 1.91834E+00-2.71651E-03 2.87342E-01 9.47547E-14-9.04664E-14
 -1       436 1.96979E+01 1.95349E+00-2.80452E-03-3.75658E-02-9.81017E-14-3.23966E-14
 -1       437 1.97421E+01 1.86088E+00-2.49339E-03-3.38402E-01-1.88705E-13 2.33887E-14
 -1       438 1.98175E+01 1.66164E+00-1.86788E-03-5.73809E-01-2.98455E-13 3.93693E-14
 -1       439 1.99057E+01 1.39531E+00-1.01806E-03-7.18016E-01-2.05057E-13 2.46057E-13
 -1       440 1.99959E+01 1.09042E+00-1.17581E-04-7.69298E-01 1.37202E-13 1.99116E-13
 -1       441 2.00793E+01 7.85598E-01 8.49046E-04-7.30559E-01 2.93099E-13 1.20370E-13
 -1       442 2.01540E+01 5.06697E-01 1.93987E-03-6.15514E-01 8.42097E-14-1.75291E-13
 -1       443 1.01532E+01-5.51866E+00-6.91224E-03 6.75580E+00-3.29278E-13 4.59639E-13
 -1       444 1.27347E+00-4.42371E+00-3.42530E-02-2.09088E-01 2.89268E-13-7.02216E-15
 -1       445 4.51308E+00-4.39977E+00 3.06668E-02 4.54708E+00-1.22541E-14 2.42806E-13
 -1       446 2.01505E+01-5.79141E+00 1.33422E-02 6.40953E+00-6.49342E-14-2.56434E-13
 -1       447 7.74250E+00-5.78469E+00-1.10287E-01-6.43515E+00 2.11775E-14-2.30448E-13
 -1       448 3.25220E+01-6.27182E-02 1.65550E-02 1.36934E+00 3.50526E-13-6.90004E-13
 -1       449 2.62940E+01-4.13287E+00-2.81674E-02 4.50700E+00 3.57020E-13-6.59819E-13
 -1       450 1.97865E+01 3.43961E+00-2.09383E-02-1.72794E+00-2.28399E-13-2.34617E-13
 -1       451 3.54715E+01 4.45739E+00 3.12316E-02-2.46160E-01 3.50470E-13-6.14633E-13
 -1       452 3.47575E+01 7.50615E+00-4.77059E-02-5.49240E-01 1.81410E-13-2.35756E-13
 -1       453 3.36602E+01 6.93933E+00-1.21797E-01 1.11947E+00 2.71408E-13-4.39787E-13
 -1       454 3.43437E+01 2.84660E+00 1.32217E-03 3.23521E-01 4.06765E-13-3.49193E-13
 -1       455 3.10282E+01-1.33501E+00 1.18246E-02-2.33804E+00 6.07153E-14-5.36543E-13
 -1       456 2.49113E+01-4.70266E+00-1.76901E-02-4.84974E+00 8.01720E-14-5.64104E-13
 -1       457 1.76581E+01-5.80042E+00-1.12795E-02-6.65969E+00 1.49727E-13-4.96755E-14
 -1       458 8.10530E+00-5.32081E+00-2.84187E-02-6.14469E+00 2.18575E-14-2.98914E-13
 -1       459 3.17812E+00-4.39760E+00-9.47161E-03-3.52708E+00 2.73448E-13-3.64000E-13
 -1       460 1.16941E+00-4.61805E+00-7.94697E-02 1.38451E+00 1.22236E-13-5.81146E-13
 -1       461 4.91601E+00-4.77635E+00-2.96710E-02 5.29900E+00 4.15501E-14-3.67123E-13
 -1       462 1.12164E+01-5.35387E+00-4.16025E-03 7.11174E+00 1.24220E-13-3.31263E-13
 -1       463 2.12778E+01-4.90176E+00-1.24274E-02 6.20428E+00-1.52378E-14-7.68580E-13
 -1       464 2.78660E+01-2.04742E+00 2.44491E-02 4.21357E+00-3.99562E-13-7.42767E-13
 -1       465 3.23982E+01 1.45609E+00 3.25911E-02 1.65627E+00-5.95003E-13-7.54091E-13
 -1       466 3.31214E+01 5.73981E+00-8.07869E-02-8.76087E-01-6.14966E-13-6.09457E-13
 -1       467 3.43951E+01 8.18873E+00-3.13615E-02-6.94675E-02-6.53450E-13-6.43895E-13
 -1       468 3.42939E+01 7.01888E+00-1.91411E-02 4.31768E-01-4.31336E-13-4.84217E-13
 -1       469 3.28296E+01 3.08707E+00-5.73030E-02-1.83339E-01 1.92207E-15 1.22125E-15
 -1       470 2.85249E+01-2.06031E+00-3.22760E-02-3.42665E+00 2.05072E-13-8.73052E-14
 -1       471 2.38025E+01-4.27063E+00 1.15588E-02-5.65445E+00 2.05599E-13 2.32897E-13
 -1       472 1.63083E+01-5.65400E+00-2.96629E-04-7.23169E+00 1.97550E-13-1.91786E-13
 -1       473 1.80447E+01-5.45736E+00 6.84727E-02 6.84829E+00 2.20740E-13-5.00943E-13
 -1       474 3.01439E+01-7.03156E-01-6.33437E-02 7.04573E-02 8.61221E-14-1.59484E-13
 -1       475 2.03705E+01 8.31791E-01 4.03233E-03 9.73684E-01 2.17734E-13-3.32137E-14
 -1       476 1.97363E+01 3.10353E+00-5.34888E-03-6.34814E-01-8.03870E-14-3.15531E-13
 -1       477 1.98311E+01 2.93052E+00-5.77669E-03-9.52040E-01-1.18880E-13-2.92215E-13
 -1       478 1.96694E+01 3.22624E+00-5.02394E-03 8.80859E-03 8.66940E-15-3.48835E-13
 -1       479 1.96877E+01 3.19321E+00-5.10505E-03 3.30826E-01 5.12103E-14-3.64891E-13
 -1       480 1.97408E+01 3.09639E+00-5.41872E-03 6.46634E-01 9.15589E-14-3.35941E-13
 -1       481 1.98384E+01 2.91858E+00-5.95770E-03 9.62594E-01 1.75078E-13-2.85703E-13
 -1       482 1.99925E+01 2.63351E+00-6.53126E-03 1.25814E+00 2.21924E-13-2.56913E-13
 -1       483 2.02329E+01 2.18754E+00-5.70465E-03 1.50309E+00 2.56946E-13-1.77515E-13
 -1       484 2.03411E+01 9.75554E-01 2.95169E-03-9.45390E-01-2.06837E-13-2.91361E-14
 -1       485 8.53187E+00-3.50483E+00 1.35747E-01-6.01967E+00 1.50754E-13 1.66811E-14
 -1       486 2.01085E+01 4.53542E-01 5.08120E-03 4.65922E-01 1.97001E-13-9.08918E-14
 -1       487 2.03903E+01 1.77142E+00-5.65366E-03-1.54799E+00-2.60057E-13-5.74244E-14
 -1       488 2.01694E+01 5.42905E-01 1.82793E-03-4.69983E-01-1.36264E-13-2.92422E-14
 -1       489 2.00221E+01 3.03972E-01 1.01975E-03-1.68153E-01-8.50713E-14-4.70533E-14
 -1       490 1.99217E+01 1.62322E-01 4.38891E-04 1.37959E-02-8.91427E-14-7.66723E-14
 -1       491 1.98634E+01 7.67856E-02 1.59842E-04 1.17259E-01-8.24945E-14-7.07701E-14
 -1       492 1.98370E+01 2.52664E-02 2.76489E-05 1.70215E-01-7.50751E-14-1.17107E-13
 -1       493 1.98325E+01-4.49938E-03-3.69814E-05 1.91544E-01-4.48024E-14-1.36402E-13
 -1       494 1.98423E+01-1.97555E-02-6.64895E-05 1.94205E-01-7.36756E-14-8.25036E-14
 -1       495 1.98611E+01-2.50237E-02-7.39434E-05 1.87241E-01-6.18563E-14-3.61967E-14
 -1       496 1.98853E+01-2.32168E-02-6.59973E-05 1.77075E-01 9.12710E-15 3.38252E-14
 -1       497 1.99132E+01-1.62213E-02-4.67325E-05 1.68369E-01 2.93758E-14 5.58782E-14
 -1       498 1.99440E+01-5.23973E-03-1.87597E-05 1.64608E-01-2.01478E-14 4.18930E-14
 -1       499 1.99779E+01 8.97558E-03 1.62601E-05 1.68507E-01 4.59829E-15 8.14141E-14
 -1       500 2.00159E+01 2.59309E-02 5.71598E-05 1.82263E-01-3.75790E-14 6.95425E-14
 -1       501 2.00593E+01 4.52014E-02 1.02808E-04 2.07693E-01-7.61654E-14-1.14620E-14
 -1       502 2.01101E+01 6.62166E-02 1.51497E-04 2.46225E-01-3.93436E-14-3.21049E-14
 -1       503 2.01706E+01 8.79922E-02 2.00208E-04 2.98763E-01-3.56288E-14 4.11669E-14
 -1       504 2.02434E+01 1.08785E-01 2.43627E-04 3.65354E-01-6.23986E-14-6.04486E-14
 -1       505 2.03314E+01 1.25648E-01 2.72935E-04 4.44649E-01-5.54267E-14-9.27097E-14
 -1       506 2.04381E+01 1.33896E-01 2.74456E-04 5.33106E-01-1.42617E-14 5.61688E-15
 -1       507 2.05675E+01 1.26538E-01 2.28558E-04 6.23883E-01 3.40477E-14 3.47719E-14
 -1       508 2.07244E+01 9.38905E-02 1.09620E-04 7.05469E-01 4.55759E-14 3.59334E-15
 -1       509 2.09145E+01 2.38607E-02-1.11709E-04 7.60152E-01 5.53286E-14-1.36771E-13
 -1       510 2.11445E+01-9.61582E-02-4.59006E-04 7.62737E-01 5.19247E-14-1.63750E-13
 -1       511 2.14196E+01-2.74189E-01-9.39000E-04 6.80460E-01 1.23035E-15-2.29172E-14
 -1       512 2.17394E+01-5.03423E-01-1.49405E-03 4.76120E-01-1.00928E-13-5.60910E-14
 -1       513 2.20878E+01-7.46217E-01-1.90988E-03 1.18077E-01-2.77207E-14-1.08885E-13
 -1       514 2.24193E+01-9.16476E-01-1.62320E-03-3.97803E-01 2.99129E-14 5.64774E-15
 -1       515 2.26494E+01-8.78519E-01-9.61564E-04-1.01034E+00 1.72388E-13 2.15503E-13
 -1       516 2.26753E+01-4.93926E-01-1.23215E-04-1.55057E+00-8.29895E-14 2.70700E-13
 -1       517 2.24501E+01 2.50426E-01-7.54641E-04-1.75087E+00-2.26475E-13 1.72696E-13
 -1       518 2.20784E+01 1.12268E+00-6.72400E-04-1.37190E+00 9.92626E-14 2.04398E-13
 -1       519 2.18076E+01 1.67367E+00-3.23898E-03-4.28272E-01 2.09938E-13 3.18339E-13
 -1       520 2.18580E+01 1.54092E+00-1.98496E-03 6.89077E-01 1.14023E-13 4.33061E-13
 -1       521 2.21699E+01 8.22048E-01-6.17749E-04 1.46041E+00 6.07514E-14 2.72376E-13
 -1       522 2.24934E+01-6.21624E-02-3.25942E-04 1.61293E+00-1.22387E-13 2.56895E-14
 -1       523 2.26104E+01-7.04860E-01-7.76003E-04 1.24326E+00-8.36162E-14 6.20273E-14
 -1       524 2.24761E+01-9.62995E-01-1.46075E-03 6.29062E-01-2.05930E-13 2.68981E-13
 -1       525 2.21697E+01-9.12938E-01-2.00690E-03 1.31534E-02-1.88778E-13 4.75096E-13
 -1       526 2.17923E+01-6.97513E-01-1.85942E-03-4.72613E-01-1.44398E-13 5.21842E-13
 -1       527 2.14160E+01-4.34952E-01-1.30886E-03-7.88697E-01 2.73108E-13 3.22055E-13
 -1       528 2.10754E+01-1.89544E-01-6.60653E-04-9.45450E-01 8.44497E-14 3.02082E-13
 -1       529 2.07800E+01 1.84580E-02-6.09519E-05-9.70019E-01-2.30550E-14 1.91654E-13
 -1       530 2.05287E+01 1.92522E-01 5.54749E-04-8.87173E-01-8.77609E-14 1.03003E-13
 -1       531 1.06552E+01-2.89824E+00 1.60970E-01 5.78718E+00-1.97307E-13 3.81209E-13
 -1       532 1.98061E+01 1.29200E-01 9.84485E-04-1.80761E-02 1.02334E-13-9.22884E-14
 -1       533 1.97485E+01 6.02952E-02 3.66771E-04-1.17193E-01 8.78248E-14-8.93972E-14
 -1       534 1.97304E+01 1.93253E-02 9.20980E-05-1.66505E-01 6.62088E-14-1.35145E-13
 -1       535 1.97379E+01-4.26003E-03-3.80751E-05-1.85210E-01 3.86561E-14-1.59057E-13
 -1       536 1.97608E+01-1.64507E-02-9.93015E-05-1.86013E-01-2.54432E-15-6.09822E-14
 -1       537 1.97926E+01-2.08800E-02-1.19579E-04-1.77594E-01 9.07542E-14-1.07360E-13
 -1       538 1.98291E+01-1.98253E-02-1.12018E-04-1.66045E-01 7.75746E-14-1.30073E-13
 -1       539 1.98683E+01-1.47052E-02-8.39783E-05-1.55789E-01 7.36197E-14-1.49333E-13
 -1       540 1.99098E+01-6.34620E-03-3.97318E-05-1.50198E-01 5.42772E-14-1.24865E-13
 -1       541 1.99540E+01 4.86249E-03 1.87183E-05-1.52033E-01 4.03124E-14-1.15470E-13
 -1       542 2.00026E+01 1.88670E-02 9.10677E-05-1.63772E-01-4.90203E-15-9.95551E-14
 -1       543 2.00578E+01 3.58721E-02 1.78269E-04-1.87854E-01 3.68906E-14-1.06311E-13
 -1       544 2.01226E+01 5.62669E-02 2.82037E-04-2.26852E-01-6.98617E-14 5.77704E-16
 -1       545 2.02005E+01 8.05291E-02 4.04168E-04-2.83569E-01-1.04709E-13 7.36140E-15
 -1       546 2.02951E+01 1.09071E-01 5.45273E-04-3.61031E-01 3.01035E-14-4.45373E-14
 -1       547 2.04108E+01 1.41959E-01 7.02517E-04-4.62315E-01 2.05531E-13-9.20692E-14
 -1       548 2.05519E+01 1.78398E-01 8.65522E-04-5.90117E-01 1.11650E-13-2.89292E-13
 -1       549 2.07229E+01 2.15791E-01 1.00945E-03-7.45855E-01 1.00173E-13-1.90896E-14
 -1       550 2.09285E+01 2.48108E-01 1.08453E-03-9.28027E-01-1.81905E-13-2.97233E-14
 -1       551 2.11747E+01 2.63271E-01 1.00296E-03-1.12939E+00-2.49955E-13-1.44297E-13
 -1       552 2.14705E+01 2.39465E-01 6.30152E-04-1.33244E+00-1.72283E-13-2.18013E-13
 -1       553 2.18317E+01 1.41243E-01-2.01018E-04-1.50267E+00-1.58380E-13-3.34291E-13
 -1       554 2.22862E+01-8.09508E-02-1.60071E-03-1.57980E+00-6.65747E-14-1.88228E-13
 -1       555 2.28771E+01-4.77660E-01-3.47170E-03-1.46851E+00-1.77205E-13 3.97859E-15
 -1       556 2.36482E+01-1.05342E+00-5.91840E-03-1.03902E+00-7.44499E-14 1.37821E-13
 -1       557 2.45929E+01-1.66427E+00-6.70379E-03-1.62078E-01-7.59803E-14 1.83800E-13
 -1       558 2.55439E+01-1.88314E+00-7.38580E-03 1.16580E+00 2.47473E-14-1.13051E-13
 -1       559 2.60719E+01-1.07059E+00-2.90158E-02 2.55990E+00-8.30135E-14 1.31353E-14
 -1       560 2.58687E+01 9.74348E-01-6.46293E-02 2.90172E+00-1.03221E-13 2.06781E-13
 -1       561 2.53214E+01 3.03405E+00-8.34120E-02 1.42246E+00 1.43992E-13 2.64878E-13
 -1       562 2.52243E+01 3.15992E+00-9.90414E-02-1.14337E+00 2.61641E-13-8.73442E-14
 -1       563 2.57783E+01 1.13870E+00-5.63320E-02-2.72097E+00 4.11709E-13-3.17857E-13
 -1       564 2.60136E+01-9.64309E-01-3.01762E-02-2.45790E+00-8.25737E-14-1.67611E-14
 -1       565 2.54835E+01-1.88302E+00-1.02357E-02-1.13894E+00-1.68165E-13 1.70689E-13
 -1       566 2.45206E+01-1.73447E+00-5.30505E-03 2.26806E-01-3.90033E-13-8.50435E-16
 -1       567 2.35241E+01-1.13878E+00-7.08259E-03 1.16294E+00 7.42870E-14 8.25507E-14
 -1       568 2.26956E+01-5.52540E-01-4.53499E-03 1.64818E+00 2.74978E-13-1.70865E-13
 -1       569 2.20455E+01-1.31365E-01-2.13125E-03 1.80056E+00 3.26650E-13-2.93093E-13
 -1       570 2.15350E+01 1.23847E-01-2.30659E-04 1.74387E+00 1.89415E-13 2.25027E-14
 -1       571 2.11223E+01 2.67897E-01 1.11902E-03 1.56727E+00-1.69548E-13-1.87452E-13
 -1       572 2.07805E+01 3.59217E-01 2.48841E-03 1.32329E+00-3.18652E-13-3.23963E-13
 -1       573 2.04857E+01 4.35269E-01 2.70028E-03 1.03122E+00-2.54833E-13-3.24051E-13
 -1       574 1.95662E+01 1.42259E+00-1.10227E-03 9.24846E-01-2.51205E-13 5.37775E-15
 -1       575 1.94086E+01 1.60141E+00-1.11323E-03 5.68691E-01 3.44633E-14 1.32871E-13
 -1       576 2.00957E+01 8.48688E-01 3.17898E-04 1.20333E+00-5.33503E-13-2.84445E-13
 -1       577 1.98061E+01 1.16043E+00-5.30307E-04 1.14831E+00-7.44859E-13 2.01906E-13
 -1       578 1.93551E+01 1.66658E+00-1.20651E-03 1.42209E-01 1.64251E-13-1.71216E-13
 -1       579 1.94050E+01 1.61168E+00-1.17836E-03-2.82547E-01 1.74302E-14-1.69131E-13
 -1       580 1.95370E+01 1.45375E+00-1.02044E-03-6.39754E-01 9.52477E-14 1.06151E-13
 -1       581 1.97126E+01 1.23114E+00-6.72286E-04-8.82416E-01-6.72292E-14 1.59056E-13
 -1       582 1.99030E+01 9.74423E-01-2.51257E-04-1.00263E+00-2.68009E-14 3.96162E-13
 -1       583 2.00784E+01 7.19064E-01 2.59464E-04-1.00320E+00 8.16994E-14 2.51487E-13
 -1       584 2.02314E+01 4.86810E-01 5.82978E-05-8.98517E-01-7.87943E-14-5.26908E-14
 -1       585 1.48336E+01-4.98631E+00 9.40324E-02-7.17999E+00-9.90041E-14-4.77118E-14
 -1       586 1.99210E+01 2.46258E-01 2.43787E-03 1.60498E-01 1.51292E-13-1.00573E-13
 -1       587 6.10959E+00-1.05281E+00 1.87859E-01 2.01396E+00-1.00095E-13-1.38153E-13
 -1       588 1.81921E+01-5.18368E+00 9.53581E-02 6.33660E+00-3.64125E-13-2.98650E-14
 -1       589 3.00208E+01 4.36510E+00-1.53461E-01 1.67180E+00-4.31738E-13-6.22578E-13
 -1       590 3.02712E+01 2.06633E+00-1.16478E-01-1.46616E+00-4.52804E-13-5.04388E-14
 -1       591 4.46777E+00-1.51493E+00 1.67121E-01-9.77022E-01 1.55279E-13-3.64361E-13
 -1       592 2.84607E+01-4.20485E+00-2.62951E-02-1.39199E+00-1.32545E-13-3.23463E-13
 -1       593 5.09347E+00-1.55068E+00 1.88187E-01-2.12554E+00-1.32764E-13 2.23821E-13
 -1       594 1.96848E+01 3.19763E+00-5.09993E-03-3.13302E-01-2.50649E-14-3.27711E-13
 -1       595 2.50554E+01-5.66225E+00 1.68680E-02 4.06363E+00-1.19731E-13-6.76941E-13
 -1       596 3.04829E+01 4.61570E+00-1.63459E-01-2.12914E+00 3.32540E-13 6.33521E-15
 -1       597 3.11036E+01 1.07018E+00-1.22517E-01-1.92261E+00 3.95038E-13-1.46466E-13
 -1       598 3.05827E+01 3.57785E+00-1.55099E-01 2.49675E+00 1.83659E-13-4.01228E-13
 -1       599 3.06215E+01-9.79350E-01-9.82013E-02 1.26403E+00-7.45931E-16-1.77039E-13
 -1       600 2.31280E+01-5.82505E+00 3.28541E-02-4.84029E+00-3.76366E-14-1.89699E-13
 -1       601 1.51763E+01-4.97538E+00 1.02054E-01-6.67697E+00-3.90382E-14-1.15449E-13
 -1       602 8.42096E+00-2.74486E+00 1.46253E-01-5.15314E+00-5.56014E-14-1.68573E-13
 -1       603 2.59761E+01-4.58723E+00-1.32715E-02 3.46405E+00-3.10516E-15-6.12538E-13
 -1       604 1.08409E+01-3.40909E+00 1.53922E-01 6.49305E+00 1.20313E-13-1.97370E-13
 -1       605 2.83221E+01 6.44541E+00-1.91668E-01-1.07481E+00-4.58272E-13-8.70033E-14
 -1       606 2.90944E+01-2.13458E+00-7.16015E-02 8.94461E-01-2.34172E-13-5.37390E-13
 -1       607 2.94167E+01 6.95778E+00-1.81917E-01 6.61137E-01-4.49085E-13-5.72932E-13
 -1       608 2.65358E+01-4.65807E+00-2.31665E-02-3.05192E+00 5.79918E-14-3.61378E-14
 -1       609 2.18835E+01-5.62454E+00 5.31027E-02-5.71972E+00 1.71509E-13 3.15692E-13
 -1       610 2.92342E+01-3.56922E+00-5.43652E-02 8.98811E-01 2.81069E-13-4.98337E-13
 -1       611 2.05822E+01 1.30512E+00-9.99120E-04 1.54944E+00 2.72687E-13 1.18974E-14
 -1       612 5.37243E+00-2.02219E+00 1.56413E-01 3.53071E+00 1.78170E-13-5.40651E-13
 -1       613 2.87491E+01 6.03668E+00-1.93069E-01 3.36810E-02 4.43395E-13-2.82480E-13
 -1       614 1.99804E+01 2.66209E+00-6.53950E-03-1.25583E+00-1.79090E-13-2.34978E-13
 -1       615 2.88742E+01 1.23818E+00-9.29901E-02 1.83173E+00-1.07667E-13-4.57197E-13
 -1       616 2.03798E+01 2.92106E-01 8.90663E-04-7.78477E-01-9.44219E-14 2.11464E-13
 -1       617 1.59298E+01-4.12472E+00 1.05042E-01 6.51449E+00 1.70919E-13-4.15619E-13
 -1       618 2.28655E+01-5.32586E+00 3.88749E-02 4.82920E+00 3.24182E-13-8.89032E-13
 -1       619 2.74935E+01 4.05943E+00-1.41108E-01-2.09736E+00-2.61492E-13 1.44065E-13
 -1       620 1.99645E+01 2.44894E+00-1.58766E-03 3.94750E-01 7.29220E-14-3.07470E-13
 -1       621 1.99330E+01 2.52395E+00-1.51278E-03 1.35923E-01 2.03123E-14-3.27514E-13
 -1       622 2.01224E+01 2.04567E+00-1.58209E-03 8.51544E-01 1.71148E-13-2.10030E-13
 -1       623 2.02393E+01 1.67563E+00-2.22952E-03 9.93593E-01 2.17897E-13-1.85802E-13
 -1       624 2.77025E+01-2.93722E+00-6.49071E-02-1.86078E-01 2.91395E-13-1.32068E-13
 -1       625 2.02916E+01 1.12230E+00 1.61326E-03-7.63199E-01-1.58054E-13-1.07445E-13
 -1       626 2.03182E+01 1.03625E+00 2.88139E-03 8.33409E-01 2.19741E-13-1.58041E-13
 -1       627 1.99733E+01 9.01244E-02 6.00233E-05-1.19569E-01 9.19607E-14-1.18421E-13
 -1       628 2.02399E+01 6.69425E-01-3.45722E-04-3.94967E-01-1.09073E-13-7.39824E-14
 -1       629 2.01678E+01 3.92456E-01 1.97291E-04-1.41016E-01-8.64178E-14-7.52805E-14
 -1       630 2.01026E+01 2.14158E-01 4.64528E-05 2.15371E-02-6.64310E-14-6.96549E-14
 -1       631 2.00531E+01 1.01605E-01 6.82664E-06 1.18032E-01-9.35609E-14-7.32953E-14
 -1       632 2.00191E+01 3.23930E-02-1.33254E-05 1.69343E-01-6.07662E-14-8.28571E-14
 -1       633 1.99981E+01-7.45438E-03-2.27608E-05 1.91444E-01-1.49112E-14-6.97748E-14
 -1       634 1.99872E+01-2.69332E-02-2.60100E-05 1.96180E-01-2.75008E-14-5.52299E-16
 -1       635 1.99838E+01-3.19926E-02-2.46987E-05 1.92254E-01 1.36312E-14-1.89333E-15
 -1       636 1.99859E+01-2.65936E-02-1.97889E-05 1.86072E-01-1.84744E-14-1.22112E-14
 -1       637 1.99921E+01-1.33472E-02-1.20392E-05 1.82419E-01-2.88825E-14-7.42182E-15
 -1       638 2.00018E+01 6.05860E-03-1.95825E-06 1.84960E-01 1.07617E-14 1.60358E-14
 -1       639 2.00144E+01 3.05303E-02 1.01022E-05 1.96607E-01-1.19829E-14-2.26394E-14
 -1       640 2.00301E+01 5.92707E-02 2.39231E-05 2.19752E-01-8.10158E-14-3.81817E-14
 -1       641 2.00492E+01 9.14667E-02 3.91682E-05 2.56373E-01-1.20828E-13 2.26395E-15
 -1       642 2.00723E+01 1.25927E-01 5.52978E-05 3.08009E-01-6.33932E-14-1.22960E-13
 -1       643 2.01008E+01 1.60633E-01 7.12892E-05 3.75585E-01-6.42392E-14-2.06663E-13
 -1       644 2.01364E+01 1.92168E-01 8.52949E-05 4.59082E-01-1.81429E-14-8.05067E-14
 -1       645 2.01823E+01 2.15016E-01 9.42047E-05 5.56987E-01-4.73002E-15-5.14280E-14
 -1       646 2.02433E+01 2.20750E-01 9.30908E-05 6.65520E-01 4.42734E-14-9.44809E-14
 -1       647 2.03269E+01 1.97252E-01 7.44751E-05 7.77569E-01 7.03323E-14-3.66791E-14
 -1       648 2.04450E+01 1.28346E-01 2.72786E-05 8.81271E-01-1.01853E-13-4.29385E-14
 -1       649 2.06146E+01-5.36802E-03-6.59305E-05 9.58173E-01 5.91352E-14-1.32184E-13
 -1       650 2.08586E+01-2.22863E-01-2.22463E-04 9.80947E-01 7.34113E-14-1.26994E-13
 -1       651 2.12032E+01-5.33527E-01-4.88865E-04 9.11089E-01 2.15052E-14-9.38337E-14
 -1       652 2.16684E+01-9.18781E-01-8.56423E-04 6.98825E-01-1.42433E-15 1.42871E-13
 -1       653 2.22481E+01-1.30347E+00-1.07429E-03 2.91078E-01 7.80293E-14 1.81560E-13
 -1       654 2.28777E+01-1.52238E+00 2.73414E-04-3.39887E-01 2.98145E-13 3.60287E-13
 -1       655 2.33987E+01-1.31719E+00-4.52541E-04-1.13177E+00-5.05212E-14 2.11264E-13
 -1       656 2.36066E+01-4.60277E-01-5.80415E-03-1.81931E+00-1.39216E-13 4.83162E-13
 -1       657 2.33938E+01 9.90545E-01-1.42276E-02-1.96774E+00-4.51080E-14 5.66820E-13
 -1       658 2.30087E+01 2.36041E+00-9.54198E-03-1.21073E+00 1.61243E-15 3.73760E-13
 -1       659 2.28301E+01 2.84166E+00-1.89761E-02 1.95059E-01-1.02590E-13-8.24991E-14
 -1       660 2.31233E+01 1.96952E+00-1.39135E-02 1.44843E+00 4.90927E-16-9.81485E-14
 -1       661 2.34970E+01 4.20538E-01-8.75117E-03 1.87534E+00-8.32435E-14-8.85395E-14
 -1       662 2.35605E+01-8.82692E-01-3.45075E-03 1.47007E+00-1.08558E-13-1.17663E-13
 -1       663 2.32163E+01-1.51071E+00-4.02107E-04 6.77711E-01-6.97822E-14-4.35418E-14
 -1       664 2.26279E+01-1.54203E+00-7.52055E-04-9.74872E-02-1.08364E-13 1.57301E-13
 -1       665 2.19952E+01-1.23512E+00-8.58942E-04-6.77759E-01-4.24338E-14 3.45439E-13
 -1       666 2.14422E+01-8.17440E-01-6.40247E-04-1.03157E+00-5.41489E-14 4.31716E-13
 -1       667 2.10097E+01-4.16258E-01-2.86444E-04-1.19627E+00 9.15692E-14-8.23288E-15
 -1       668 2.06903E+01-7.74670E-02 2.81367E-05-1.21896E+00-1.30815E-13-1.86703E-13
 -1       669 2.04581E+01 1.97271E-01 1.83318E-04-1.13657E+00-1.08208E-13-1.33531E-13
 -1       670 2.00263E+01 1.90403E-01 1.69855E-04-1.99291E-02 8.84935E-14-1.30213E-13
 -1       671 1.99287E+01-6.48891E-03-2.28311E-05-1.93291E-01-4.02923E-14-7.49319E-14
 -1       672 1.99268E+01-2.41364E-02-3.55044E-05-1.96957E-01 7.63429E-15-7.01043E-14
 -1       673 1.99331E+01-2.93358E-02-3.77827E-05-1.91549E-01 7.75713E-14 9.47363E-15
 -1       674 1.99452E+01-2.54853E-02-3.20888E-05-1.83586E-01 1.11788E-13-9.36733E-15
 -1       675 1.99615E+01-1.47154E-02-2.02141E-05-1.77955E-01 8.43757E-14 4.88454E-14
 -1       676 1.99812E+01 1.76030E-03-3.09536E-06-1.78486E-01-2.42348E-15 1.43856E-16
 -1       677 2.00043E+01 2.34157E-02 1.89605E-05-1.88386E-01-1.66601E-14 4.01264E-14
 -1       678 2.00309E+01 5.02487E-02 4.61593E-05-2.10560E-01 7.69679E-15 2.38839E-14
 -1       679 2.00616E+01 8.26385E-02 7.90353E-05-2.47850E-01-9.50627E-15 2.54938E-14
 -1       680 2.00971E+01 1.21191E-01 1.18452E-04-3.03178E-01-2.24477E-14-6.44677E-14
 -1       681 2.01380E+01 1.66528E-01 1.65235E-04-3.79594E-01 2.16804E-15-1.45396E-13
 -1       682 2.01848E+01 2.18952E-01 2.19772E-04-4.80206E-01 1.81536E-13-1.96033E-13
 -1       683 2.02375E+01 2.77862E-01 2.81173E-04-6.07951E-01 1.74523E-13-8.83198E-14
 -1       684 2.02964E+01 3.40728E-01 3.45726E-04-7.65129E-01 4.32033E-14-9.46621E-14
 -1       685 2.03618E+01 4.01340E-01 4.04175E-04-9.52609E-01-5.63126E-15-3.21466E-15
 -1       686 2.04365E+01 4.46940E-01 4.37310E-04-1.16856E+00-1.82693E-13-1.03797E-13
 -1       687 2.05286E+01 4.53893E-01 4.09584E-04-1.40649E+00-2.29430E-13-1.00869E-13
 -1       688 2.06586E+01 3.82046E-01 2.68489E-04-1.65215E+00-9.87289E-14-4.99991E-14
 -1       689 2.08698E+01 1.69574E-01-1.96607E-05-1.87843E+00-4.52037E-14-1.79692E-13
 -1       690 2.12440E+01-2.65791E-01-2.92034E-04-2.03613E+00-2.06236E-13-1.76462E-13
 -1       691 2.19180E+01-1.00377E+00 4.03224E-04-2.03214E+00-2.98775E-13-1.17129E-13
 -1       692 2.30412E+01-2.01925E+00-1.07571E-03-1.69877E+00-3.76244E-14 5.73455E-15
 -1       693 2.47165E+01-3.02277E+00 1.36055E-03-8.04617E-01 5.81336E-14-2.34194E-13
 -1       694 2.66032E+01-3.04352E+00-2.79071E-02 7.44876E-01-8.84423E-14-2.88018E-13
 -1       695 2.78913E+01 3.05867E+00-1.26362E-01 2.58816E+00 1.01016E-13-7.35141E-14
 -1       696 2.81396E+01-5.79984E-01-6.19047E-02-2.48126E+00 2.96430E-14-2.23602E-13
 -1       697 2.66929E+01-3.00712E+00-4.66291E-02-8.59444E-01-1.00722E-13-4.86566E-13
 -1       698 2.48235E+01-3.14333E+00-2.50542E-04 8.21859E-01-2.77930E-13-5.76498E-13
 -1       699 2.31108E+01-2.14365E+00-2.02424E-03 1.81399E+00-8.45027E-15-8.45746E-13
 -1       700 2.19313E+01-1.13077E+00-1.75559E-03 2.21749E+00 2.03067E-13-6.85680E-13
 -1       701 2.12099E+01-3.63640E-01-1.34432E-03 2.27374E+00 2.08424E-13-4.74271E-13
 -1       702 2.07975E+01 1.15311E-01-4.27498E-04 2.14408E+00 1.43305E-13-3.30724E-13
 -1       703 2.05571E+01 3.87523E-01 2.85842E-04 1.92377E+00 1.07786E-13-2.12925E-13
 -1       704 2.04007E+01 5.46110E-01 8.69907E-04 1.65534E+00-2.60671E-14-2.53290E-13
 -1       705 2.02169E+01 6.95092E-01 6.24343E-04 1.44377E+00-5.29428E-13-5.09327E-13
 -1       706 1.89465E+01 1.45971E+00-2.79564E-04-1.38582E-01 1.08649E-13-1.13434E-13
 -1       707 1.91212E+01 1.38158E+00-3.05704E-04 9.08539E-01-2.03273E-13 3.98950E-13
 -1       708 1.91135E+01 1.31337E+00-4.40974E-04-6.27044E-01 9.06880E-14-5.29374E-14
 -1       709 1.89420E+01 1.48610E+00-3.13655E-04 4.05489E-01 5.82627E-14 1.33201E-13
 -1       710 2.88096E+01-1.85321E+00-7.02752E-02-1.58932E+00 2.53504E-13-3.84952E-13
 -1       711 1.93846E+01 1.09043E+00-3.57073E-04-9.82141E-01 4.23601E-14-2.30723E-13
 -1       712 1.97011E+01 8.34378E-01-2.60021E-04-1.18259E+00-4.95455E-14 2.82010E-13
 -1       713 2.00054E+01 5.92531E-01-5.97966E-05-1.22391E+00-6.00534E-14 5.06437E-13
 -1       714 1.35817E+01-3.11969E+00 1.20314E-01-6.19895E+00-2.34361E-14 1.87329E-13
 -1       715 2.01043E+01 3.53298E-01 5.50292E-04 1.50999E-01 1.31731E-13-1.22812E-13
 -1       716 2.67103E+01-4.65966E+00-2.27276E-02 1.30216E+00-1.86015E-13-3.58547E-13
 -1       717 2.77380E+01-9.87964E-01-9.05585E-02-1.24757E+00-1.70055E-13 1.36197E-13
 -1       718 2.83482E+01-2.97594E+00-5.27031E-02 1.07921E+00-1.95307E-13-9.35883E-14
 -1       719 1.91626E+01-4.75291E+00 7.03795E-02-5.96823E+00 5.25031E-14-1.46824E-13
 -1       720 2.83292E+01 1.80318E+00-1.28302E-01-2.81482E+00 2.56455E-13-2.68847E-13
 -1       721 8.58193E+00 1.35328E-01 1.34756E-01-6.96780E-01-2.14483E-13 2.71269E-13
 -1       722 7.43290E+00-1.45765E-01 1.60545E-01 1.33653E+00 5.30583E-14-5.28980E-13
 -1       723 1.99426E+01 2.88654E-02 4.64422E-06-1.71623E-01 6.85099E-14-1.21721E-13
 -1       724 2.83329E+01 4.99399E+00-1.61149E-01 1.49797E+00 3.72792E-13-3.31693E-13
 -1       725 1.10736E+01-5.60927E-01 1.22134E-01 3.63406E+00 3.36380E-14 5.38354E-14
 -1       726 2.00273E+01 2.29448E+00-1.65621E-03 6.38986E-01 1.21867E-13-2.59033E-13
 -1       727 8.52592E+00-6.20192E-01 1.46605E-01-2.92530E+00 1.15324E-14-1.52871E-13
 -1       728 2.02575E+01-4.85410E+00 6.11442E-02-5.17750E+00-1.85095E-14-2.42691E-13
 -1       729 2.59123E+01-5.03582E+00-3.51411E-03-2.20647E+00-1.37799E-13-3.90276E-13
 -1       730 2.00223E+01 2.30449E+00-1.64901E-03-6.30038E-01-8.66501E-14-2.82880E-13
 -1       731 2.02045E+01 6.14480E-01 1.06341E-03 4.22024E-01 1.63606E-13-1.53362E-13
 -1       732 2.03373E+01 3.52405E-01 7.70449E-04-1.03280E+00 2.98265E-14-4.49046E-13
 -1       733 2.71047E+01-3.31155E+00-4.86282E-02 5.28771E-01 6.86129E-14-1.41387E-13
 -1       734 1.44377E+01-2.67423E+00 1.19161E-01-5.51156E+00-8.09353E-14-6.99787E-14
 -1       735 1.63052E+01-2.76740E+00 7.50778E-02 5.38534E+00-1.93102E-13-4.16542E-14
 -1       736 9.47292E+00-1.08578E+00 1.49167E-01-4.05948E+00-3.53866E-13 2.21649E-13
 -1       737 2.43874E+01-5.03171E+00 1.25081E-02-3.38056E+00 5.13469E-13-2.75413E-13
 -1       738 2.87004E+01 3.45283E-01-9.68992E-02 2.79011E+00-1.75294E-13-8.99211E-14
 -1       739 9.93791E+00-1.27858E+00 1.50305E-01 4.55070E+00 9.87196E-14-3.00170E-13
 -1       740 2.26456E+01-4.96579E+00 4.68557E-02 4.16768E+00-1.96319E-13-5.05729E-13
 -1       741 2.01151E+01 2.06398E+00-1.70186E-03-8.48762E-01-1.25565E-13-2.18676E-13
 -1       742 1.99321E+01 2.52564E+00-1.50659E-03-1.26768E-01-5.50782E-15-3.08033E-13
 -1       743 1.35384E+01-2.17863E+00 1.03192E-01 5.45381E+00 5.71002E-14-2.94882E-13
 -1       744 1.99615E+01 2.45464E+00-1.55604E-03-3.84957E-01-4.13050E-14-2.64671E-13
 -1       745 1.97659E+01 9.93167E-01-2.95235E-04 1.40755E+00-1.34605E-13 2.45112E-13
 -1       746 2.65670E+01 3.30986E+00-1.18234E-01 2.08371E+00-2.66169E-13-2.78737E-13
 -1       747 2.02036E+01-4.59997E+00 5.23677E-02 5.30889E+00 2.76373E-13-5.78535E-13
 -1       748 2.64036E+01 1.22861E+00-6.37086E-02-2.36236E+00-1.16795E-13 2.19403E-13
 -1       749 2.58800E+01 5.58068E+00-1.13529E-01 1.01877E-01-3.14443E-13 1.35762E-13
 -1       750 2.02277E+01 3.74483E-01 4.12534E-04-1.21765E+00-1.08132E-13-3.53615E-14
 -1       751 2.53120E+01-4.34001E+00 6.15714E-03 2.03028E+00 2.29378E-13-2.92743E-13
 -1       752 2.02553E+01 1.60132E+00-9.12206E-04-9.94669E-01-1.96367E-13-1.28834E-13
 -1       753 2.53667E+01 4.74545E+00-9.96824E-02-1.12284E+00-1.93411E-13 4.38016E-13
 -1       754 1.94108E+01 1.21309E+00-5.34894E-04 1.22487E+00-3.67295E-13 2.28939E-13
 -1       755 2.02661E+01 1.30702E+00-4.89853E-04 6.32747E-01 1.44770E-13-1.61247E-13
 -1       756 1.52829E+01-6.72150E-01 4.15341E-02 3.84422E+00-1.48901E-13-7.65516E-14
 -1       757 2.02919E+01 7.27648E-01 2.40729E-04-2.90610E-01-8.18519E-14-9.75525E-14
 -1       758 2.02646E+01 4.34765E-01 5.02413E-05-9.39635E-02-7.55829E-14-1.06151E-13
 -1       759 2.02248E+01 2.38035E-01-1.04029E-05 3.63231E-02-7.24142E-14-8.23459E-14
 -1       760 2.01839E+01 1.10654E-01-1.13018E-05 1.15668E-01-7.69436E-14-5.67233E-14
 -1       761 2.01469E+01 3.18159E-02-1.04805E-05 1.58672E-01-2.71729E-15-7.23745E-14
 -1       762 2.01156E+01-1.25763E-02-9.01180E-06 1.77853E-01 2.93509E-14-6.94554E-14
 -1       763 2.00900E+01-3.23177E-02-7.78511E-06 1.83076E-01-1.29239E-14-3.78341E-14
 -1       764 2.00695E+01-3.41750E-02-6.40098E-06 1.81869E-01-5.64757E-15-6.63782E-14
 -1       765 2.00533E+01-2.27606E-02-4.69731E-06 1.79949E-01 2.09121E-14-1.69843E-14
 -1       766 2.00404E+01-1.15460E-03-2.62813E-06 1.81700E-01-2.55964E-14-2.61126E-14
 -1       767 2.00297E+01 2.86276E-02-1.31216E-07 1.90576E-01-3.95752E-14-1.24284E-13
 -1       768 2.00203E+01 6.52269E-02 2.99450E-06 2.09402E-01-7.82249E-14-9.48251E-14
 -1       769 2.00114E+01 1.07536E-01 6.57708E-06 2.40571E-01-8.97415E-14-1.06315E-13
 -1       770 2.00023E+01 1.54267E-01 1.06102E-05 2.86134E-01-1.42872E-13-8.76805E-14
 -1       771 1.99927E+01 2.03435E-01 1.51023E-05 3.47791E-01-9.71003E-14-7.69642E-14
 -1       772 1.99831E+01 2.51734E-01 1.99996E-05 4.26764E-01 9.37804E-14-1.23472E-13
 -1       773 1.99751E+01 2.93753E-01 2.51351E-05 5.23558E-01 6.82354E-14-1.03103E-13
 -1       774 1.99725E+01 3.21044E-01 3.01392E-05 6.37586E-01 2.71447E-14 1.03946E-14
 -1       775 1.99821E+01 3.21072E-01 3.41559E-05 7.66608E-01 9.77225E-14-8.55037E-14
 -1       776 2.00161E+01 2.76254E-01 3.49095E-05 9.05894E-01-2.00591E-14-7.67225E-14
 -1       777 2.00942E+01 1.63519E-01 2.63833E-05 1.04684E+00 1.62770E-14-2.73746E-14
 -1       778 2.02463E+01-4.45893E-02-1.02086E-05 1.17450E+00-1.83403E-14-2.59119E-14
 -1       779 2.05147E+01-3.75104E-01-7.55198E-05 1.26299E+00 1.27314E-13 9.28091E-16
 -1       780 2.09525E+01-8.41887E-01-3.38743E-04 1.26764E+00 9.10737E-14 7.59173E-14
 -1       781 2.16103E+01-1.41618E+00-7.94652E-04 1.11678E+00 1.52223E-14 1.80410E-13
 -1       782 2.25088E+01-1.98199E+00-6.02191E-04 7.05829E-01 1.12299E-13 2.11200E-13
 -1       783 2.35503E+01-2.27285E+00-5.51447E-04-5.56215E-02 9.55629E-14 5.18747E-14
 -1       784 2.44736E+01-1.74669E+00-1.29432E-02-1.13291E+00 4.55001E-14 2.24825E-13
 -1       785 2.44052E+01 2.27226E+00-3.72450E-02-2.03713E+00-2.38472E-13 4.73065E-13
 -1       786 2.46765E+01 1.47578E+00-3.69494E-02 2.10034E+00-1.39109E-13-8.40803E-14
 -1       787 2.47536E+01-8.41843E-01-1.56973E-02 1.66438E+00-9.96358E-14-1.19011E-13
 -1       788 2.41595E+01-2.06742E+00-1.23392E-02 6.23686E-01-1.18961E-14 1.12140E-13
 -1       789 2.32323E+01-2.24491E+00 6.59627E-04-3.56043E-01 7.65143E-14 2.03015E-13
 -1       790 2.22521E+01-1.85024E+00-6.76510E-04-1.03030E+00 8.49362E-14 2.88785E-13
 -1       791 2.14604E+01-1.26120E+00-5.33985E-04-1.37459E+00-6.42048E-14 3.10215E-13
 -1       792 2.08986E+01-6.92864E-01-3.28965E-04-1.49138E+00-2.66440E-13 2.61530E-13
 -1       793 2.05349E+01-2.17377E-01 1.44452E-04-1.46248E+00-1.65079E-13 4.14962E-14
 -1       794 2.03508E+01 1.09649E-01 3.41576E-04-1.35850E+00-1.18402E-14 8.47704E-15
 -1       795 2.01727E+01 2.26691E-01 8.16996E-06-3.22113E-02 9.03185E-14-1.00031E-13
 -1       796 2.00479E+01-3.04169E-02-1.11413E-05-1.90531E-01 1.79035E-14-8.09918E-14
 -1       797 2.00669E+01-1.07802E-02-9.44467E-06-1.85604E-01-3.37994E-15-1.16043E-13
 -1       798 2.00275E+01-2.44581E-02-7.98423E-06-1.84588E-01 5.73474E-14-7.02183E-14
 -1       799 2.00233E+01-5.62195E-03-4.14116E-06-1.84536E-01 3.40814E-14-4.63079E-14
 -1       800 2.00219E+01 2.14779E-02 1.01178E-06-1.91771E-01 1.30105E-15-4.72718E-14
 -1       801 2.00220E+01 5.62831E-02 7.56644E-06-2.09489E-01 2.10846E-14-1.58334E-13
 -1       802 2.00226E+01 9.88900E-02 1.54043E-05-2.40593E-01 1.85260E-14-1.29960E-13
 -1       803 2.00223E+01 1.49825E-01 2.49316E-05-2.87867E-01 5.78506E-14-2.04148E-13
 -1       804 2.00195E+01 2.09790E-01 3.65113E-05-3.54070E-01-2.37560E-14-2.05681E-13
 -1       805 2.00119E+01 2.79311E-01 5.06401E-05-4.41942E-01 1.62989E-15-1.08479E-13
 -1       806 1.99965E+01 3.58194E-01 6.79326E-05-5.54131E-01 5.32751E-14 9.43293E-14
 -1       807 1.99697E+01 4.44629E-01 8.90567E-05-6.93046E-01 3.47446E-14 1.84207E-13
 -1       808 1.99277E+01 5.33707E-01 1.14494E-04-8.60704E-01 2.71249E-14 1.63027E-13
 -1       809 1.98674E+01 6.15030E-01 1.43862E-04-1.05865E+00-5.11850E-14 7.26985E-14
 -1       810 1.97896E+01 6.68981E-01 1.74446E-04-1.28815E+00-1.18134E-13-6.67958E-15
 -1       811 1.97036E+01 6.61280E-01 1.97633E-04-1.55069E+00-1.83811E-13-1.98368E-13
 -1       812 1.96378E+01 5.35961E-01 2.23473E-04-1.84852E+00-4.68989E-14-2.30133E-13
 -1       813 1.96565E+01 2.08534E-01 5.11671E-04-2.18308E+00-1.59244E-13-2.06947E-13
 -1       814 1.98818E+01-4.32043E-01 2.35601E-03-2.54580E+00-2.84871E-13-1.53944E-13
 -1       815 2.05501E+01-1.53330E+00 1.73537E-03-2.90072E+00-1.85611E-13-3.54233E-13
 -1       816 2.20393E+01-3.08338E+00 2.53317E-02-3.03382E+00 3.95476E-14-3.43969E-13
 -1       817 2.51304E+01-4.32523E+00 4.52094E-03-1.65107E+00-3.60059E-14-8.46996E-14
 -1       818 2.07251E+01-1.70564E+00 1.31414E-02 3.06507E+00-3.32703E-14-7.47722E-14
 -1       819 1.99867E+01-5.84600E-01-1.19036E-03 2.80538E+00 5.81856E-14 3.21152E-14
 -1       820 1.97449E+01 1.10855E-01-1.67196E-04 2.45895E+00 1.38197E-13 1.84338E-14
 -1       821 1.97202E+01 5.06330E-01 3.34606E-04 2.13361E+00 7.16409E-14 9.64241E-15
 -1       822 1.97851E+01 7.26149E-01 1.66765E-04 1.82565E+00-4.28580E-14-1.00371E-13
 -1       823 1.97539E+01 8.62632E-01-6.30831E-04 1.61622E+00-1.36177E-14 1.88672E-13
 -1       824 2.64591E+01 1.63525E-01-5.91570E-02 2.10281E+00-2.38365E-13-2.35464E-13
 -1       825 2.57455E+01-3.76521E+00-2.80426E-02-8.31338E-01 3.31896E-13 1.90320E-13
 -1       826 1.30849E+01-4.42360E-01 7.73879E-02-3.57646E+00-2.04083E-13-1.45890E-13
 -1       827 2.02736E+01 1.28192E+00 3.57303E-04-6.69303E-01-1.26348E-13-1.42641E-13
 -1       828 1.85378E+01 1.24002E+00-5.10129E-04-5.48371E-01-5.95648E-14-1.60326E-13
 -1       829 2.77354E+01 5.74427E+00-1.68545E-01 1.23153E+00-4.41806E-13-2.32821E-13
 -1       830 1.98348E+01 4.22897E-01-6.60288E-05-1.43322E+00-5.06237E-14 3.81036E-13
 -1       831 1.88953E+01 9.93360E-01-2.45056E-04-1.04557E+00-4.82832E-14 3.45178E-14
 -1       832 2.16169E+01-4.26910E+00 3.34003E-02-4.22406E+00 7.42531E-14-2.15137E-13
 -1       833 2.02218E+01 4.15607E-01 4.76344E-05 1.11793E-01 9.52977E-14-9.95478E-14
 -1       834 1.93667E+01 6.93667E-01-2.80871E-04-1.34461E+00-1.92603E-13-3.89417E-14
 -1       835 2.21823E+01-3.26997E+00 2.05990E-02 3.12747E+00-1.50404E-13-3.38498E-13
 -1       836 2.00353E+01-3.35893E-02-1.03828E-05-1.88155E-01 6.82437E-14-4.09555E-14
 -1       837 2.02785E+01 9.45028E-01 3.66954E-04 5.57191E-01 1.63324E-13-1.46067E-13
 -1       838 2.01438E+01 1.88901E+00-3.16197E-04 1.99517E-01 5.11598E-14-2.42809E-13
 -1       839 1.86915E+01-3.05331E+00 3.70826E-02-4.57667E+00 1.15116E-14-5.34784E-13
 -1       840 1.20483E+01 7.56626E-01 6.06725E-02 1.07792E+00 8.43726E-15 1.53433E-13
 -1       841 2.04556E+01-3.18217E+00 3.35241E-02 4.15933E+00-3.22715E-13-2.60689E-13
 -1       842 2.60912E+01-2.31247E+00-3.39866E-02-8.48143E-01 1.61294E-13 3.58115E-13
 -1       843 1.72249E+01-3.17312E+00 6.14855E-02-5.44017E+00 2.51778E-14-1.55771E-13
 -1       844 1.09806E+01 1.89220E-01 9.16609E-02 2.57425E+00-5.66136E-14-3.57957E-13
 -1       845 1.00364E+01 5.76513E-01 9.28037E-02-7.24874E-01-1.73772E-13-2.81233E-13
 -1       846 2.01323E+01 1.92730E+00-3.10173E-04 3.22718E-03 1.37011E-14-3.00832E-13
 -1       847 1.72543E+01-3.09753E+00 5.94516E-02 5.32381E+00 2.21975E-13-4.13336E-13
 -1       848 1.16142E+01 8.87153E-02 7.71582E-02-2.58252E+00-1.52471E-13 2.58588E-13
 -1       849 2.02519E+01 6.34518E-01-2.76521E-04 2.97355E-01 1.32091E-13-1.46093E-13
 -1       850 2.00934E+01 3.16077E-02-6.59865E-06-1.65277E-01-2.40325E-14-6.77047E-14
 -1       851 2.49045E+01-1.08614E-01-3.29649E-02-2.07166E+00-9.33923E-14 5.21871E-13
 -1       852 2.41170E+01 3.52661E+00-8.33584E-02 1.17345E+00 1.63411E-14 2.02801E-13
 -1       853 2.32207E+01-4.39573E+00-2.85930E-03 3.13510E+00 4.15714E-13-3.85139E-13
 -1       854 2.01757E+01 1.77587E+00-2.62283E-04 3.81793E-01 9.65251E-14-2.53180E-13
 -1       855 1.85128E+01 1.35464E+00-3.64292E-04 7.58609E-01-7.43472E-14 7.20777E-13
 -1       856 2.37913E+01-3.94633E+00 9.22701E-03-2.19794E+00 2.29024E-13 3.81833E-13
 -1       857 1.65245E+01-1.18887E+00 2.97854E-02-3.93610E+00-1.03468E-13-3.49209E-13
 -1       858 2.51302E+01 4.34485E+00-1.09494E-01 1.20224E+00-6.96491E-14 3.39460E-13
 -1       859 1.83823E+01 1.37878E+00-2.61029E-05 9.34789E-02-2.02569E-13-8.27864E-14
 -1       860 2.01287E+01 1.06116E-01-1.82539E-06-1.18842E-01 7.47372E-14-9.64650E-14
 -1       861 2.52109E+01-3.28036E+00 1.55870E-03 4.31202E-01 2.75844E-13 1.87830E-13
 -1       862 1.88503E+01 1.22408E+00 3.05304E-04 1.22147E+00-1.55927E-13 5.47697E-13
 -1       863 2.02227E+01 1.58501E+00 1.24000E-04 5.35488E-01 1.18786E-13-2.14662E-13
 -1       864 1.30876E+01-5.09421E-01 6.12695E-02 3.75760E+00 1.69422E-14-3.08888E-13
 -1       865 2.01730E+01 1.78243E+00-2.86817E-04-3.76498E-01-6.02995E-14-2.50574E-13
 -1       866 2.23031E+01-4.22751E+00 3.96296E-02-3.60752E+00 7.79047E-14-3.43790E-13
 -1       867 1.37655E+01-1.37137E+00 7.52434E-02-4.63087E+00-2.00567E-13-1.18835E-13
 -1       868 2.01014E+01 2.47249E-01-2.35669E-04-1.42556E+00-6.67992E-14 6.06410E-13
 -1       869 2.02148E+01 1.59752E+00-8.18011E-04-5.31008E-01-8.46397E-14-2.17392E-13
 -1       870 1.95157E+01-2.91502E+00 2.38060E-02-4.19523E+00 6.73689E-14-1.60865E-13
 -1       871 2.03343E+01 4.34289E-01-5.71468E-05-4.62543E-02-2.95180E-14-1.19269E-13
 -1       872 2.03087E+01 2.34573E-01-3.70062E-06 4.91581E-02-4.50794E-14-1.29164E-13
 -1       873 2.02724E+01 1.03834E-01-1.11635E-05 1.07550E-01-2.40156E-14-5.14745E-14
 -1       874 2.02326E+01 2.38234E-02-6.85832E-06 1.39234E-01-1.13551E-14-7.48613E-14
 -1       875 2.01933E+01-1.90898E-02-4.17529E-06 1.53615E-01 3.66669E-14-1.68937E-13
 -1       876 2.01562E+01-3.48402E-02-2.41500E-06 1.58271E-01 2.86964E-15-1.28574E-13
 -1       877 2.01219E+01-3.04576E-02-1.53369E-06 1.59153E-01-1.35335E-14-8.87195E-14
 -1       878 2.00901E+01-1.08055E-02-1.69622E-06 1.60908E-01-2.78765E-14-1.61858E-13
 -1       879 2.00597E+01 2.08567E-02-2.18682E-06 1.67191E-01-9.70647E-14-1.85513E-13
 -1       880 2.00294E+01 6.23857E-02-1.85872E-06 1.80991E-01-8.13967E-15-1.81238E-13
 -1       881 1.99976E+01 1.12266E-01-1.52304E-06 2.04873E-01-7.68693E-14-1.46225E-13
 -1       882 1.99624E+01 1.69125E-01-1.28707E-06 2.41140E-01-7.78607E-14-1.16419E-13
 -1       883 1.99225E+01 2.31189E-01-1.04212E-06 2.91948E-01-8.88052E-14-2.30666E-14
 -1       884 1.98765E+01 2.95656E-01-6.60604E-07 3.59353E-01-2.00600E-14 8.31121E-14
 -1       885 1.98241E+01 3.57916E-01 3.20636E-08 4.45317E-01 9.89072E-15 1.01547E-14
 -1       886 1.97666E+01 4.10630E-01 1.32325E-06 5.51685E-01 1.62462E-13-9.74576E-14
 -1       887 1.97080E+01 4.42620E-01 3.60698E-06 6.80121E-01 8.09390E-14-1.38840E-14
 -1       888 1.96567E+01 4.37651E-01 6.88988E-06 8.31982E-01 1.68266E-14 2.43982E-14
 -1       889 1.96283E+01 3.73209E-01 8.96935E-06 1.00793E+00-1.07786E-13-2.63603E-14
 -1       890 1.96486E+01 2.19656E-01 3.80328E-06 1.20683E+00 7.74494E-14-1.25123E-13
 -1       891 1.97591E+01-5.94384E-02-3.10885E-05 1.42272E+00 3.53978E-14-8.26287E-14
 -1       892 2.00236E+01-5.03620E-01 7.26073E-05 1.63754E+00 1.32809E-13-2.22606E-13
 -1       893 2.05324E+01-1.14204E+00-2.40488E-04 1.80149E+00 1.27482E-13-1.36373E-13
 -1       894 2.13916E+01-1.94789E+00 4.34711E-05 1.82021E+00 1.88134E-13-1.49762E-13
 -1       895 2.27175E+01-2.79274E+00 8.07538E-03 1.49693E+00 1.92190E-13-4.26243E-14
 -1       896 2.52494E+01-1.84868E+00-1.09791E-02 1.04272E+00 8.39216E-14-1.13841E-15
 -1       897 2.39273E+01-3.18779E+00 8.36675E-03-1.03493E+00 1.21782E-13 1.70769E-13
 -1       898 2.23841E+01-2.58889E+00 9.09965E-04-1.74909E+00 3.24828E-14 3.36841E-13
 -1       899 2.12748E+01-1.74761E+00 7.13869E-05-1.98031E+00-3.76513E-14 2.39457E-13
 -1       900 2.05749E+01-9.71660E-01 1.11894E-04-1.93779E+00 1.25644E-14 1.96970E-13
 -1       901 2.01824E+01-3.46335E-01-1.47710E-04-1.77411E+00-3.11132E-13 5.29796E-13
 -1       902 2.01424E+01 1.89220E+00-3.16962E-04-1.93022E-01-1.42288E-14-2.49583E-13
 -1       903 2.00545E+01 1.36865E-02-2.55083E-07-1.76518E-01 1.88549E-14-1.07609E-13
 -1       904 2.00774E+01-1.52688E-02-9.64568E-07-1.71654E-01 5.03895E-14-8.15844E-14
 -1       905 2.00079E+01 1.02856E-01 1.96023E-06-2.12105E-01-4.72960E-15-2.25130E-13
 -1       906 1.99795E+01 1.62762E-01 3.22614E-06-2.48085E-01 4.55892E-14-2.16547E-13
 -1       907 1.99438E+01 2.33509E-01 4.95678E-06-2.99294E-01 2.88738E-14-1.95776E-13
 -1       908 1.98967E+01 3.15689E-01 7.37207E-06-3.67845E-01-1.40590E-13-1.35034E-13
 -1       909 1.98332E+01 4.09438E-01 1.08386E-05-4.55675E-01-5.96776E-14 4.35606E-14
 -1       910 1.97472E+01 5.13732E-01 1.58823E-05-5.64541E-01 2.86975E-14 7.93170E-14
 -1       911 1.96314E+01 6.25316E-01 2.30500E-05-6.96114E-01 8.37525E-14 6.18562E-15
 -1       912 1.94777E+01 7.37068E-01 3.22801E-05-8.52402E-01 9.09879E-14 2.64034E-14
 -1       913 1.92782E+01 8.35517E-01 4.11988E-05-1.03685E+00-3.84816E-14-4.42694E-14
 -1       914 1.90273E+01 8.97153E-01 4.19055E-05-1.25667E+00-6.24091E-14-1.74690E-13
 -1       915 1.87263E+01 8.82988E-01-5.55139E-06-1.52697E+00-8.77500E-14-2.52867E-13
 -1       916 1.83926E+01 7.30834E-01-9.92011E-05-1.87675E+00-1.93669E-13-1.88301E-13
 -1       917 1.80767E+01 3.44452E-01-9.99319E-05-2.35653E+00-2.10665E-13-1.53993E-13
 -1       918 1.79369E+01-4.23470E-01 1.01670E-02-3.03740E+00-1.18884E-13-3.80159E-13
 -1       919 1.85991E+01 6.65009E-01 1.18060E-03 2.15754E+00 1.60441E-13 5.49857E-13
 -1       920 1.80664E+01-5.83347E-01 1.78392E-02 3.33254E+00 2.35420E-14-1.71386E-13
 -1       921 1.89583E+01 9.10564E-01 1.36083E-03 1.79989E+00 4.17041E-13 3.01032E-13
 -1       922 1.28228E+01 6.78683E-01 4.41327E-02-1.73881E+00-1.52570E-13-1.12754E-13
 -1       923 1.22161E+01 9.19482E-01 4.34861E-02 6.79170E-01-2.16536E-13-2.67080E-13
 -1       924 1.37832E+01 8.19409E-01 2.38496E-02-1.08995E+00 1.19045E-14 4.12062E-13
 -1       925 1.82149E+01 9.42122E-01-5.28640E-04-1.08457E+00-1.12431E-13 3.27773E-14
 -1       926 2.02842E+01 1.24617E+00-1.21191E-04-4.48380E-01-7.23524E-14-1.63987E-13
 -1       927 1.43820E+01 9.49409E-02 2.89635E-02-2.72997E+00 2.60954E-14 6.30902E-14
 -1       928 1.82740E+01 2.04344E-01-6.89064E-04 2.64737E+00-1.46055E-13 3.17827E-13
 -1       929 1.68139E+01-1.62447E+00 3.14755E-02-4.23215E+00-2.28077E-14-2.79683E-13
 -1       930 2.03037E+01 4.33068E-01-8.45999E-06 6.38840E-02 1.10296E-13-1.34109E-13
 -1       931 1.92913E+01 1.05571E+00-2.82305E-05 1.49162E+00-3.41870E-13-1.75472E-13
 -1       932 2.03381E+01 7.26984E-01-9.11027E-05-1.89094E-01-5.15048E-14-1.46280E-13
 -1       933 1.50060E+01 5.65408E-01 5.57657E-03 2.23453E+00-1.75996E-13-1.05516E-13
 -1       934 2.00320E+01 5.32266E-02 1.05939E-06-1.89075E-01 6.58264E-14-1.68911E-13
 -1       935 2.01618E+01-1.67677E-02 5.07631E-07-1.66247E-01-1.67629E-14-9.96845E-14
 -1       936 2.03121E+01 6.63750E-01 6.05316E-05 2.06846E-01 9.59363E-14-1.06901E-13
 -1       937 2.07357E+01-3.59331E+00 3.58155E-02 4.02916E+00 2.61972E-13-5.38923E-13
 -1       938 2.01301E+01-3.41360E-02-7.81690E-07-1.71122E-01-1.69056E-14-8.01523E-14
 -1       939 2.01973E+01 2.67458E-02 4.86428E-06-1.49903E-01 1.84588E-14-1.17403E-13
 -1       940 2.02907E+01 1.33902E+00 4.09432E-05 1.97429E-01 7.14677E-14-2.26378E-13
 -1       941 1.88636E+01 5.70123E-01 1.50735E-03-1.52771E+00-1.78188E-13-3.52917E-13
 -1       942 2.02895E+01 1.34289E+00 3.17310E-05-1.94047E-01 7.77482E-16-2.18196E-13
 -1       943 2.01249E+01-1.65723E-02 3.97191E-04-1.59219E+00-1.03371E-13 5.09520E-13
 -1       944 1.56506E+01-1.41072E+00 3.50290E-02 4.32905E+00 1.03074E-13-2.29690E-13
 -1       945 2.01022E+01-3.21382E-02-1.10734E-06-1.71210E-01 1.00064E-13-3.86416E-14
 -1       946 1.77598E+01 1.32468E+00-9.86750E-04 4.52314E-01-3.29707E-13 1.48768E-13
 -1       947 2.03035E+01 1.21055E+00 7.68625E-04-3.00514E-01-3.00182E-14-2.15573E-13
 -1       948 2.18716E+01-3.31745E+00 8.77981E-04-2.99791E+00-2.98949E-14 2.53750E-13
 -1       949 1.51189E+01 1.11548E+00 5.28255E-03 5.38904E-01-5.84813E-14 1.02708E-13
 -1       950 2.02921E+01 1.07442E+00-8.58763E-06 4.57030E-01 1.37682E-13-1.39169E-13
 -1       951 1.51300E+01 1.70014E-01 2.11093E-02-2.76479E+00-2.04286E-13-3.78950E-13
 -1       952 1.31113E+01 6.06985E-01 3.49953E-02 1.95204E+00-1.68248E-13-1.73948E-13
 -1       953 1.78116E+01 1.22582E+00 2.31560E-04-3.77636E-01-2.51876E-13 1.63277E-13
 -1       954 1.80913E+01 1.23326E+00-9.08215E-04 1.11039E+00 1.95632E-14 5.44233E-13
 -1       955 2.02810E+01 1.40737E+00-8.10133E-08 6.96041E-02 4.74372E-14-2.61103E-13
 -1       956 2.02729E+01 2.34905E-01-5.65160E-06-4.65314E-02 6.35550E-14-1.37674E-13
 -1       957 1.96447E+01 1.96561E-01-8.69862E-04-1.65739E+00-2.17660E-13 5.54633E-13
 -1       958 1.98359E+01 3.26396E-01-6.00861E-06-2.74910E-01-1.35973E-13-6.46284E-14
 -1       959 2.03060E+01 1.20164E+00-1.92645E-04 3.04885E-01 8.75384E-14-2.20109E-13
 -1       960 2.00981E+01 2.18638E-03 2.49438E-06-1.46036E-01 6.78253E-14-9.90512E-14
 -1       961 2.03642E+01 2.08382E-01 3.40406E-05 5.33566E-02-1.38616E-14-7.37710E-14
 -1       962 2.03276E+01 8.43545E-02-1.17330E-05 9.07784E-02 7.91926E-15-8.48085E-14
 -1       963 2.02838E+01 1.07172E-02-3.11733E-06 1.10939E-01-4.45093E-14-1.12265E-13
 -1       964 2.02374E+01-2.53412E-02-5.29880E-07 1.20172E-01-3.46640E-15-1.33665E-13
 -1       965 2.01909E+01-3.34227E-02 8.29898E-07 1.23767E-01-1.43645E-14-1.19962E-13
 -1       966 2.01452E+01-2.03358E-02 2.58239E-07 1.25991E-01-4.18676E-14-1.41009E-13
 -1       967 2.01000E+01 9.12324E-03-3.69507E-06 1.30210E-01-4.92948E-14-7.38314E-14
 -1       968 2.00539E+01 5.18317E-02-4.97305E-06 1.39203E-01 1.33562E-14-8.85457E-15
 -1       969 2.00051E+01 1.05716E-01-6.63721E-06 1.55378E-01-4.03237E-14-9.30810E-14
 -1       970 1.99511E+01 1.69236E-01-9.32823E-06 1.80954E-01-8.04199E-14-1.56750E-14
 -1       971 1.98893E+01 2.40855E-01-1.29300E-05 2.18136E-01-8.11009E-14-8.36360E-15
 -1       972 1.98171E+01 3.18427E-01-1.74505E-05 2.69266E-01 7.45404E-14-2.01279E-14
 -1       973 1.97321E+01 3.98483E-01-2.30326E-05 3.36991E-01 1.01768E-14 1.10510E-13
 -1       974 1.96328E+01 4.75400E-01-2.99171E-05 4.24448E-01 1.07035E-13 1.33225E-13
 -1       975 1.95195E+01 5.40409E-01-3.85365E-05 5.35544E-01 1.34806E-13 2.07712E-13
 -1       976 1.93949E+01 5.80445E-01-5.02145E-05 6.75330E-01-1.89785E-14 1.08459E-14
 -1       977 1.92665E+01 5.76819E-01-6.99350E-05 8.50498E-01-4.30991E-14-7.90456E-14
 -1       978 1.91491E+01 5.03690E-01-1.13038E-04 1.06981E+00-4.62537E-14-2.86093E-14
 -1       979 1.90693E+01 3.26327E-01-2.07451E-04 1.34402E+00 4.78816E-14-5.99609E-14
 -1       980 1.90738E+01-7.72693E-04-2.83824E-04 1.68332E+00-6.73188E-14-9.74074E-14
 -1       981 1.92369E+01-5.33439E-01-2.93495E-04 2.09344E+00 8.30431E-14-3.18655E-13
 -1       982 1.97305E+01-1.33904E+00 3.40406E-04 2.50546E+00 1.29554E-13-2.66693E-13
 -1       983 2.06902E+01-2.42913E+00-9.40971E-04 2.86535E+00 3.17832E-13-2.47496E-13
 -1       984 2.02804E+01 1.40871E+00-3.70518E-06-6.57198E-02 2.28225E-14-2.48641E-13
 -1       985 2.05102E+01-2.09872E+00 2.64231E-03-2.88414E+00-1.26419E-13 4.42652E-14
 -1       986 1.97860E+01-1.09068E+00 1.97980E-03-2.52126E+00-4.78896E-14 1.20056E-13
 -1       987 1.94860E+01-3.45217E-01 1.19139E-03-2.11642E+00 1.21058E-13 1.81807E-13
 -1       988 1.99086E+01 2.36855E-01-3.56475E-06-2.27830E-01 4.08398E-14-8.49889E-14
 -1       989 1.99667E+01 1.59932E-01-1.20846E-06-1.92941E-01 7.42313E-14-5.73362E-14
 -1       990 1.97428E+01 4.28764E-01-8.56483E-06-3.35225E-01-1.12909E-13-1.62575E-13
 -1       991 1.96217E+01 5.43403E-01-1.14162E-05-4.09464E-01 9.03765E-15-2.24897E-13
 -1       992 1.94638E+01 6.68248E-01-1.53430E-05-4.98038E-01 5.30321E-14-1.78770E-13
 -1       993 1.92581E+01 7.98723E-01-2.29729E-05-6.01426E-01 6.77861E-14 2.12301E-14
 -1       994 1.89912E+01 9.26402E-01-4.13342E-05-7.21125E-01 4.53697E-14 1.21597E-15
 -1       995 1.86473E+01 1.03724E+00-8.37208E-05-8.61750E-01 1.68525E-14-1.29519E-14
 -1       996 1.82066E+01 1.10910E+00-1.65708E-04-1.03531E+00 3.42403E-14-1.39694E-13
 -1       997 1.76467E+01 1.10734E+00-1.52531E-04-1.26776E+00-9.63538E-14-2.25327E-13
 -1       998 1.69381E+01 9.75971E-01-7.89242E-04-1.60701E+00-1.63501E-13-3.40508E-13
 -1       999 1.79763E+01 1.07761E+00-5.25284E-03 1.49458E+00 2.33075E-13 9.53159E-14
 -1      1000 1.39665E+01 1.12196E+00 1.95013E-02-5.14538E-01-2.56031E-13-1.95440E-13
 -1      1001 1.57319E+01 5.79036E-01 6.31212E-03-1.82493E+00 1.31793E-13-6.15393E-16
 -1      1002 2.03792E+01 6.79790E-01 1.63520E-04-1.03180E-01-2.89876E-14-1.23002E-13
 -1      1003 1.88690E+01-1.76237E+00 2.20849E-03-3.53335E+00-5.20561E-14 5.99638E-14
 -1      1004 1.67898E+01-4.60903E-01 9.89789E-03-3.06508E+00 2.48059E-13-3.93503E-13
 -1      1005 2.02352E+01 1.05984E-01-2.75313E-05-1.13520E-01 1.58268E-14-7.09299E-14
 -1      1006 2.03851E+01 3.97411E-01-3.71381E-04-9.01622E-03-5.12580E-15-8.96294E-14
 -1      1007 2.03662E+01 8.88647E-01 2.35690E-04 1.45046E-01 7.04069E-14-2.41178E-13
 -1      1008 2.02636E+01 1.57174E-02 1.59154E-05-1.25743E-01-2.06583E-14-8.31100E-14
 -1      1009 2.00580E+01 4.24840E-02 3.31336E-06-1.53913E-01 2.04939E-14-7.36481E-15
 -1      1010 2.07726E+01-2.95761E+00 1.91759E-02 3.33639E+00 1.79979E-13-4.09764E-13
 -1      1011 1.45979E+01-1.81603E-02 2.46282E-02 2.96708E+00 8.62758E-14-6.65952E-14
 -1      1012 2.01377E+01-2.43304E-02 9.10883E-07-1.42804E-01 5.50759E-14-1.50348E-13
 -1      1013 1.69068E+01 9.21019E-01 4.11285E-03 1.76831E+00-2.12764E-13-2.96879E-13
 -1      1014 1.60508E+01 6.43803E-01 4.95913E-03-2.14540E+00-2.56420E-13-3.24841E-13
 -1      1015 2.03649E+01 8.93703E-01-3.65005E-04-1.43348E-01-4.79462E-15-1.87806E-13
 -1      1016 1.61204E+01 1.12710E+00 2.75867E-03-4.33974E-01-1.05183E-13 2.96584E-13
 -1      1017 1.48551E+01 9.35602E-01 8.46110E-03-1.48214E+00-2.19483E-13-2.28841E-13
 -1      1018 1.72779E+01 9.25232E-01-5.21013E-03-1.07057E+00-1.62428E-13 7.55411E-14
 -1      1019 2.03736E+01 9.74702E-01 1.82645E-04-7.76995E-02 4.87880E-14-2.04195E-13
 -1      1020 1.40817E+01 1.10272E+00 1.82410E-02 5.26905E-01-2.64747E-13-3.49610E-13
 -1      1021 2.02205E+01-2.31237E-02 1.15869E-05-1.37056E-01-1.18494E-14-1.46808E-13
 -1      1022 2.03751E+01 9.71502E-01 1.66187E-04 8.08346E-02 7.91078E-14-2.03907E-13
 -1      1023 1.81297E+01 4.68725E-01 1.98521E-03-1.73786E+00-2.49765E-13-1.15689E-13
 -1      1024 2.03598E+01 7.01198E-01 4.55098E-04 1.42496E-01 9.37737E-14-1.58141E-13
 -1      1025 1.86202E+01-2.24963E+00 1.22179E-02 3.98133E+00 2.28632E-13-5.53062E-13
 -1      1026 2.00152E+01 9.52038E-02 1.08116E-06-1.68866E-01 4.04046E-14 2.21992E-14
 -1      1027 2.03601E+01 4.16274E-01 6.92450E-05 2.35909E-02 8.63986E-14-1.36061E-13
 -1      1028 1.68468E+01 1.18965E+00 1.85990E-03 9.88284E-01-2.31928E-13 7.20200E-14
 -1      1029 1.85477E+01-9.04250E-01 3.60932E-03-2.93133E+00 1.29755E-13 3.59976E-13
 -1      1030 2.01783E+01-3.42246E-02 5.79367E-06-1.41101E-01 3.67739E-14-1.89582E-13
 -1      1031 2.03543E+01 5.68950E-02-3.08955E-05 6.37787E-02-5.42846E-14-1.74717E-13
 -1      1032 2.03055E+01-4.42323E-03-2.17548E-05 7.40418E-02-3.01817E-14-8.19499E-14
 -1      1033 2.02529E+01-2.95308E-02-1.29699E-05 7.88471E-02-1.22846E-14-8.33452E-14
 -1      1034 2.01989E+01-2.72711E-02 7.80062E-06 8.12245E-02-1.23472E-14-5.90331E-14
 -1      1035 2.01442E+01-4.13258E-03-1.47502E-05 8.38809E-02 2.91622E-14-4.86421E-14
 -1      1036 2.00881E+01 3.57723E-02-1.68733E-05 8.88230E-02-8.66310E-14-1.28097E-13
 -1      1037 2.00286E+01 8.96466E-02-2.14397E-05 9.79544E-02-3.30379E-14-2.10919E-13
 -1      1038 1.99631E+01 1.55630E-01-2.88817E-05 1.13057E-01-8.69318E-15-1.08345E-13
 -1      1039 1.98885E+01 2.32326E-01-3.87731E-05 1.35969E-01-2.22095E-14 1.51894E-14
 -1      1040 1.98009E+01 3.18201E-01-5.07308E-05 1.68798E-01 2.30728E-16 1.45192E-13
 -1      1041 1.96965E+01 4.10942E-01-6.47506E-05 2.14130E-01 8.61010E-14 1.24760E-13
 -1      1042 1.95714E+01 5.06748E-01-8.11909E-05 2.75307E-01 8.26117E-14 6.35396E-14
 -1      1043 1.94222E+01 5.99513E-01-1.01027E-04 3.56814E-01 1.81999E-13 4.59525E-14
 -1      1044 1.92464E+01 6.79912E-01-1.26981E-04 4.64857E-01-6.61535E-14-1.96547E-14
 -1      1045 1.90432E+01 7.34361E-01-1.67701E-04 6.08208E-01-1.05914E-13-4.66182E-14
 -1      1046 1.88148E+01 7.43749E-01-2.51269E-04 7.99438E-01-4.40935E-14-1.01165E-13
 -1      1047 1.85681E+01 6.81725E-01-4.33910E-04 1.05650E+00-4.09683E-14-5.00170E-14
 -1      1048 1.83176E+01 5.12887E-01-9.35880E-04 1.40486E+00-2.58651E-14-1.19364E-14
 -1      1049 1.80993E+01 1.82099E-01-2.07986E-03 1.88302E+00-1.58062E-13-5.03563E-14
 -1      1050 1.79507E+01-3.55773E-01 5.80300E-05 2.51898E+00 1.10537E-14-2.24375E-13
 -1      1051 2.04002E+01 5.46659E-01-3.02870E-04 4.81510E-02 5.10529E-14-2.08487E-13
 -1      1052 2.03744E+01 1.00159E+00 6.34131E-05 9.16135E-04 4.86564E-14-2.47115E-13
 -1      1053 2.03941E+01 1.66779E-01 2.05618E-05 4.44523E-02-2.03098E-14-1.47107E-13
 -1      1054 1.98210E+01 3.13769E-01-3.53432E-05-1.76399E-01 3.75184E-14 7.92277E-14
 -1      1055 1.97139E+01 4.18609E-01-4.79758E-05-2.10292E-01 2.81328E-14-1.19804E-13
 -1      1056 1.99071E+01 2.22132E-01-2.45415E-05-1.49681E-01-4.55341E-15 2.61622E-14
 -1      1057 1.94047E+01 6.64794E-01-8.29529E-05-2.97443E-01-1.50793E-14-1.39628E-13
 -1      1058 1.91823E+01 8.01220E-01-1.11909E-04-3.48103E-01-1.71888E-15-1.24529E-13
 -1      1059 1.88966E+01 9.39652E-01-1.61003E-04-4.01143E-01 7.00892E-14-2.04097E-13
 -1      1060 1.85287E+01 1.07118E+00-2.49830E-04-4.55444E-01 5.35142E-15-1.65576E-13
 -1      1061 1.80525E+01 1.18328E+00-3.70959E-04-5.12476E-01-1.23857E-14 1.39868E-14
 -1      1062 1.74271E+01 1.26048E+00-3.49780E-04-5.80550E-01 3.35271E-14 7.53989E-14
 -1      1063 1.65903E+01 1.27409E+00 2.73738E-04-6.80996E-01-9.53517E-14-4.99937E-14
 -1      1064 2.03372E+01 2.21350E-01 3.04533E-05-5.45211E-02 7.55542E-15-1.05880E-13
 -1      1065 1.99781E+01 1.43685E-01-1.52763E-05-1.29963E-01 7.81287E-14-3.41169E-14
 -1      1066 1.57972E+01 1.19127E+00 4.90823E-03-9.76701E-01-1.53122E-13-5.04741E-14
 -1      1067 2.03051E+01 9.21858E-02 3.97255E-05-1.00916E-01 6.53193E-15-8.68238E-14
 -1      1068 2.04195E+01 3.35446E-01-1.03060E-04 1.09374E-02-9.82761E-15-1.44699E-13
 -1      1069 2.04037E+01 6.55582E-01 3.17438E-04-6.12764E-02 2.54980E-14-1.37783E-13
 -1      1070 1.95781E+01 5.36147E-01-6.32082E-05-2.50977E-01-3.73490E-14-1.54748E-13
 -1      1071 2.00944E+01 2.66579E-02 8.88257E-07-1.08564E-01-2.74574E-14-2.03764E-14
 -1      1072 1.46196E+01 8.27916E-01 2.56379E-03 1.56281E+00-1.11130E-13 3.11135E-13
 -1      1073 2.01465E+01-1.03320E-02-1.79985E-05-1.04303E-01 2.37433E-14-1.38168E-13
 -1      1074 1.83949E+01-2.26492E-01-3.28530E-03-2.36709E+00-9.81505E-14 2.16862E-13
 -1      1075 2.02981E+01 1.37865E-03 4.12792E-06-9.27556E-02 8.67090E-15-1.69345E-13
 -1      1076 1.70580E+01 7.39745E-01 1.49283E-03-1.44538E+00-5.43083E-14-1.32377E-13
 -1      1077 1.48603E+01 1.22146E+00 1.13096E-02-3.76055E-01-1.25749E-13-2.96016E-13
 -1      1078 2.03456E+01 6.72586E-02-1.32167E-04-7.82493E-02 2.41802E-14-1.41813E-13
 -1      1079 1.74734E+01 5.79873E-02 3.69837E-03-2.32252E+00-5.10539E-14-2.94310E-13
 -1      1080 2.00393E+01 7.83933E-02-7.25916E-06-1.16604E-01 6.23873E-14 3.17264E-15
 -1      1081 2.00056E+01 1.18263E-01-1.62969E-05-6.50492E-02 4.23936E-14-2.98015E-16
 -1      1082 1.94244E+01 6.24791E-01-1.01098E-04-1.13950E-01 2.82414E-15-1.90780E-13
 -1      1083 2.03028E+01-1.73677E-02 7.15510E-05 2.99996E-02-5.69945E-14-9.38158E-14
 -1      1084 2.02445E+01-2.90638E-02-1.79438E-05 3.14678E-02-5.86205E-14-1.48226E-13
 -1      1085 2.01860E+01-1.63982E-02 2.21886E-05 3.25743E-02 1.09229E-14-1.69658E-13
 -1      1086 2.01253E+01 1.75335E-02 4.47486E-05 3.45718E-02-6.37320E-14-1.49540E-13
 -1      1087 2.00608E+01 6.76065E-02 4.03294E-05 3.82580E-02-3.85817E-14-1.26671E-13
 -1      1088 1.99906E+01 1.31875E-01 4.30237E-05 4.45866E-02 3.22235E-14-8.09705E-14
 -1      1089 1.99112E+01 2.08940E-01 4.84224E-05 5.47138E-02 7.63325E-14-1.00259E-13
 -1      1090 1.98182E+01 2.97700E-01 5.89704E-05 7.01162E-02 8.97043E-14-2.51159E-14
 -1      1091 1.97068E+01 3.96793E-01 7.66900E-05 9.27808E-02 3.45696E-14-6.19003E-15
 -1      1092 1.95715E+01 5.03994E-01 1.04632E-04 1.25476E-01 3.29128E-14 8.85174E-14
 -1      1093 1.94063E+01 6.15564E-01 1.47901E-04 1.72118E-01 6.47640E-14 7.10515E-14
 -1      1094 1.92049E+01 7.25558E-01 2.14781E-04 2.38298E-01-2.27025E-14-1.28631E-13
 -1      1095 1.89604E+01 8.25123E-01 3.16936E-04 3.32044E-01-8.27995E-14-1.65058E-13
 -1      1096 1.86649E+01 9.01790E-01 4.64002E-04 4.64994E-01-1.07930E-13-1.24269E-13
 -1      1097 1.83093E+01 9.38676E-01 6.38054E-04 6.54259E-01-1.18734E-13-1.43707E-13
 -1      1098 1.78820E+01 9.12334E-01 4.50639E-04 9.26080E-01-6.50533E-14-1.86856E-13
 -1      1099 1.73631E+01 7.88875E-01-1.44009E-03 1.31423E+00-7.16445E-14-1.12550E-13
 -1      1100 1.67735E+01 5.31941E-01 3.03006E-03 1.88007E+00-1.98647E-13 9.30007E-15
 -1      1101 2.03917E+01 3.11116E-01 1.76002E-04-2.19521E-02-1.22858E-14-1.62606E-13
 -1      1102 2.04234E+01 6.69815E-01-3.18072E-04 1.95467E-02 3.73996E-14-2.02785E-13
 -1      1103 1.73778E+01-9.47919E-01 2.65912E-02 3.32183E+00 2.00275E-13-2.51415E-13
 -1      1104 2.00729E+01 5.62190E-02-1.17616E-05-6.02296E-02 4.40751E-14-3.06372E-14
 -1      1105 1.85968E+01 1.02096E+00-3.56738E-04-9.50953E-02-2.00032E-14-5.27902E-14
 -1      1106 1.97298E+01 3.85544E-01-4.56809E-05-9.25593E-02 4.57473E-14 3.31038E-14
 -1      1107 1.98392E+01 2.83371E-01-3.12130E-05-8.15089E-02 3.05720E-14 5.19596E-14
 -1      1108 1.89398E+01 8.91619E-01-2.28511E-04-1.14672E-01 7.75619E-15-1.53760E-13
 -1      1109 1.92103E+01 7.57065E-01-1.50978E-04-1.18982E-01-4.97697E-14-2.29023E-13
 -1      1110 1.81588E+01 1.13505E+00-5.77599E-04-5.28818E-02-4.98692E-14-2.62670E-14
 -1      1111 1.75927E+01 1.22145E+00-8.59149E-04 2.09777E-02-6.78317E-14 1.88907E-14
 -1      1112 1.68478E+01 1.27338E+00 3.22439E-03 1.41987E-01 7.27446E-14 7.57599E-14
 -1      1113 2.02484E+01-2.82393E-02 6.75418E-06-9.92360E-02 3.99365E-14-1.53961E-13
 -1      1114 2.04267E+01 6.65378E-01 1.32653E-05-1.73162E-02 4.38114E-14-2.66250E-13
 -1      1115 1.95942E+01 4.99907E-01-6.78681E-05-1.04075E-01 3.05141E-14-3.67356E-14
 -1      1116 1.99292E+01 1.94149E-01-2.21159E-05-7.21536E-02-4.56160E-14 1.00960E-13
 -1      1117 2.03562E+01 2.81958E-02 8.25879E-05 2.68969E-02 1.46952E-14-7.07744E-14
 -1      1118 2.03742E+01 1.64956E-01-4.54930E-04-5.71545E-02 5.69513E-15-1.62568E-13
 -1      1119 2.04011E+01 1.16339E-01-3.44878E-05 2.10244E-02 2.19019E-14-1.79634E-13
 -1      1120 2.04326E+01 2.61870E-01 3.11359E-04 1.04095E-02-8.75076E-15-2.26205E-13
 -1      1121 2.04294E+01 3.68156E-01 5.71620E-04-5.35433E-03 1.05649E-14-2.21145E-13
 -1      1122 2.01975E+01-2.99192E-02 2.33528E-07-1.02121E-01 1.23491E-14-1.69815E-13
 -1      1123 1.62578E+01 2.45735E-01 1.25583E-02 2.35893E+00-4.59534E-15-2.14808E-14
 -1      1124 2.01347E+01 8.49926E-03-6.15755E-05-5.71808E-02 2.79079E-14-5.43835E-14
 -1      1125 1.59854E+01 1.30794E+00 5.15684E-04 1.20995E-01 1.25787E-14-6.09339E-14
 -1      1126 2.03068E+01-1.26829E-02-1.48840E-05-5.14256E-02-1.59426E-14-2.29424E-13
 -1      1127 1.49469E+01 1.14189E+00 1.09380E-02 6.30682E-01-4.06889E-14-4.63293E-14
 -1      1128 2.03586E+01 3.92016E-02 4.62994E-05-4.44560E-02 3.79493E-14-2.61880E-13
 -1      1129 2.02179E+01-2.56935E-02 1.38480E-04-1.95263E-02-2.68828E-14-1.46111E-13
 -1      1130 2.04234E+01 1.82648E-01-3.48371E-05-1.05113E-02 8.75877E-15-2.34028E-13
 -1      1131 2.02512E+01-3.03478E-02-7.96674E-05-5.42525E-02-7.24362E-14-6.93895E-14
 -1      1132 2.04396E+01 3.78089E-01 7.67564E-05-7.11035E-04 3.58477E-14-2.39259E-13
 -1      1133 2.01920E+01-2.03323E-02 1.21843E-05-5.59226E-02-1.98700E-14-1.56517E-15
 -1      1134 2.79602E+01 9.08569E+00 2.32523E+00-6.69852E+00-2.65343E-14 1.19907E-12
 -1      1135 2.05448E+01 6.22634E+00 2.09603E-01-3.90509E+00-1.70697E-14 2.68917E-13
 -1      1136 1.94330E+01 5.85250E+00 7.53183E-02-2.88949E+00-1.33643E-14-1.48520E-13
 -1      1137 1.90253E+01 5.72569E+00 6.03100E-02-2.23663E+00-9.36751E-15-3.54594E-13
 -1      1138 1.88400E+01 5.66927E+00 5.75590E-02-1.70311E+00-5.92928E-15-4.62136E-13
 -1      1139 1.87475E+01 5.64095E+00 5.56439E-02-1.23555E+00-4.39405E-15-5.15544E-13
 -1      1140 1.86994E+01 5.62598E+00 5.38926E-02-8.05309E-01-2.38828E-15-5.47207E-13
 -1      1141 1.86758E+01 5.61853E+00 5.26351E-02-3.93335E-01-2.05348E-16-5.66905E-13
 -1      1142 1.86691E+01 5.61640E+00 5.22366E-02 8.48796E-03 3.65810E-16-5.78662E-13
 -1      1143 1.86768E+01 5.61887E+00 5.27449E-02 4.10720E-01 2.62290E-15-5.75581E-13
 -1      1144 1.87015E+01 5.62668E+00 5.41223E-02 8.24023E-01 3.47682E-15-5.61653E-13
 -1      1145 1.87514E+01 5.64231E+00 5.63102E-02 1.25683E+00 4.95784E-15-5.31120E-13
 -1      1146 1.88456E+01 5.67123E+00 5.84907E-02 1.72888E+00 7.19563E-15-4.74258E-13
 -1      1147 1.90309E+01 5.72739E+00 6.03979E-02 2.27003E+00 9.34669E-15-3.63157E-13
 -1      1148 1.94294E+01 5.84956E+00 6.91521E-02 2.93005E+00 1.37806E-14-1.45023E-13
 -1      1149 2.04509E+01 6.18123E+00 1.53146E-01 3.87966E+00 1.66533E-14 2.82153E-13
 -1      1150 2.52145E+01 7.99346E+00 1.43030E+00 5.84682E+00 3.51941E-14 1.17492E-12
 -1      1151 2.88098E+01 3.61634E+00 1.27147E+00-4.21723E+00-1.25427E-13 1.79545E-12
 -1      1152 2.02233E+01-1.77699E-01-6.16255E-01-1.10029E-01-4.33681E-14 1.50602E-12
 -1      1153 1.88277E+01-9.63529E-02-2.36355E-01 6.24684E-02-1.02453E-14 1.06852E-12
 -1      1154 1.84925E+01-4.80814E-02-5.96109E-02 4.04693E-02-5.42795E-15 7.87440E-13
 -1      1155 1.84361E+01-2.45989E-02-1.51766E-02 2.67493E-02-1.19978E-15 5.91902E-13
 -1      1156 1.85164E+01-1.30579E-02-4.95250E-03 1.89973E-02-5.52097E-15 5.00846E-13
 -1      1157 1.86616E+01-6.63341E-03-1.47221E-03 1.40301E-02-6.76911E-15 4.11317E-13
 -1      1158 1.88325E+01-2.89229E-03 5.38369E-04 1.05775E-02 6.73859E-15 3.10269E-13
 -1      1159 1.90068E+01-7.06239E-04 1.81120E-03 8.01381E-03-7.41676E-15 2.33105E-13
 -1      1160 1.91719E+01 5.17915E-04 2.48352E-03 6.03272E-03-5.61173E-15 6.22167E-14
 -1      1161 1.93217E+01 1.11549E-03 2.68345E-03 4.47303E-03 3.39281E-15-6.41709E-14
 -1      1162 1.94539E+01 1.28837E-03 2.53473E-03 3.24087E-03 1.18272E-14 2.74776E-14
 -1      1163 1.95691E+01 1.16306E-03 2.13234E-03 2.27674E-03-1.93006E-14-4.80592E-14
 -1      1164 1.96699E+01 8.19780E-04 1.53935E-03 1.54156E-03-8.49963E-15-2.26160E-13
 -1      1165 1.97604E+01 3.08716E-04 7.92509E-04 1.01102E-03 1.47815E-15-5.81956E-15
 -1      1166 1.98458E+01-3.39367E-04-9.03008E-05 6.73788E-04-2.10260E-14 1.30657E-15
 -1      1167 1.99321E+01-1.10451E-03-1.10238E-03 5.31453E-04-2.66959E-14-1.11590E-13
 -1      1168 2.00266E+01-1.96902E-03-2.23931E-03 5.98945E-04-4.50559E-15-1.20932E-13
 -1      1169 2.01372E+01-2.90757E-03-3.48739E-03 9.04632E-04 1.68125E-14-1.87667E-13
 -1      1170 2.02728E+01-3.87461E-03-4.80768E-03 1.48889E-03-1.70896E-14-1.19709E-13
 -1      1171 2.04424E+01-4.78787E-03-6.11294E-03 2.39935E-03-6.70926E-15-2.88809E-13
 -1      1172 2.06552E+01-5.50704E-03-7.23501E-03 3.67967E-03-4.94738E-15-3.79612E-13
 -1      1173 2.09187E+01-5.80803E-03-7.88074E-03 5.34680E-03 1.71578E-14-1.50104E-13
 -1      1174 2.12370E+01-5.35703E-03-7.57959E-03 7.34908E-03-3.26834E-14-3.45854E-13
 -1      1175 2.16076E+01-3.69636E-03-5.63823E-03 9.49591E-03 2.14581E-14-3.20651E-13
 -1      1176 2.20164E+01-2.69275E-04-1.14608E-03 1.13522E-02 3.47138E-16-1.97767E-13
 -1      1177 2.24317E+01 5.46503E-03 6.87710E-03 1.21073E-02 4.44289E-14-2.09419E-13
 -1      1178 2.27978E+01 1.37520E-02 1.90446E-02 1.04727E-02 1.31646E-14-4.45321E-13
 -1      1179 2.30310E+01 2.40265E-02 3.47310E-02 4.74731E-03-2.70231E-14-6.96420E-13
 -1      1180 2.30235E+01 3.42128E-02 5.08023E-02-6.69085E-03 3.65038E-14-3.96133E-13
 -1      1181 2.26654E+01 4.01526E-02 6.06200E-02-2.42083E-02 5.97612E-16-4.15862E-13
 -1      1182 2.18890E+01 3.61268E-02 5.49037E-02-4.51285E-02 7.14446E-15-6.53283E-13
 -1      1183 2.07335E+01 1.74819E-02 2.62804E-02-6.24759E-02 9.84434E-15-8.81038E-13
 -1      1184 1.93959E+01-1.44969E-02-2.31091E-02-6.63858E-02-2.08622E-15-9.36987E-13
 -1      1185 1.82181E+01-4.93794E-02-7.66166E-02-4.95517E-02 1.19973E-14-6.04891E-13
 -1      1186 1.75712E+01-7.02817E-02-1.08522E-01-1.40149E-02 1.89258E-15-5.04321E-13
 -1      1187 1.76773E+01-6.53827E-02-1.01108E-01 2.71306E-02-3.30725E-15-6.23165E-13
 -1      1188 1.84850E+01-3.74350E-02-5.84277E-02 5.71359E-02-1.57886E-14-4.98462E-13
 -1      1189 1.96975E+01-1.35820E-03-3.00894E-03 6.62533E-02-1.09089E-14-4.48475E-13
 -1      1190 2.09304E+01 2.71691E-02 4.10001E-02 5.61607E-02 1.59421E-14-1.76081E-13
 -1      1191 2.18796E+01 4.07527E-02 6.17904E-02 3.58863E-02-3.75594E-14-3.52433E-13
 -1      1192 2.24020E+01 4.07077E-02 6.12825E-02 1.47474E-02-1.81912E-14-9.11743E-13
 -1      1193 2.25018E+01 3.23876E-02 4.81192E-02-1.76294E-03-1.66273E-15-1.03284E-12
 -1      1194 2.22697E+01 2.09975E-02 3.07101E-02-1.21505E-02-2.41057E-14-5.95217E-13
 -1      1195 2.18253E+01 9.75735E-03 1.40254E-02-1.72233E-02-2.91412E-15-4.28813E-13
 -1      1196 2.12829E+01-9.98540E-05-4.81964E-04-1.83449E-02 7.39087E-14 2.25618E-13
 -1      1197 2.07413E+01-8.51758E-03-1.33942E-02-1.62636E-02 5.84949E-15 5.34069E-13
 -1      1198 2.02886E+01-1.53563E-02-2.43620E-02-1.01073E-02 7.79281E-15 6.45662E-13
 -1      1199 2.00159E+01-2.12786E-02-2.47230E-02 3.31781E-03-2.25594E-14 6.87753E-13
 -1      1200 1.99744E+01 8.83263E-03 1.71658E-02 9.03466E-03 3.45818E-14 3.24127E-13
 -1      1201 2.77895E+01 5.25733E-01 3.77261E-01 1.96667E+00-1.63203E-14 1.92213E-12
 -1      1202 2.00808E+01-6.62255E-02-5.73593E-01 1.29513E-01 1.12063E-14 1.52420E-12
 -1      1203 1.89023E+01-4.05955E-02-1.93226E-01 1.94367E-02 9.46725E-15 1.10538E-12
 -1      1204 1.85214E+01-2.14106E-02-5.05483E-02 1.47878E-03 1.80203E-14 8.12954E-13
 -1      1205 1.84487E+01-1.24001E-02-1.33913E-02-4.05302E-03-3.76045E-15 6.69579E-13
 -1      1206 1.85226E+01-7.40089E-03-4.64398E-03-5.49614E-03 8.52194E-15 5.30388E-13
 -1      1207 1.86647E+01-4.33676E-03-1.92241E-03-5.66369E-03 1.05007E-14 4.08458E-13
 -1      1208 1.88339E+01-2.38571E-03-3.55075E-04-5.35296E-03-1.08040E-14 4.44669E-13
 -1      1209 1.90070E+01-1.14698E-03 7.30857E-04-4.81492E-03-1.08267E-14 3.90018E-13
 -1      1210 1.91714E+01-3.93046E-04 1.38717E-03-4.16053E-03 2.05284E-14 2.20983E-13
 -1      1211 1.93205E+01 1.63929E-05 1.66996E-03-3.45422E-03 7.22507E-15 1.04148E-13
 -1      1212 1.94521E+01 1.70933E-04 1.65601E-03-2.73488E-03-1.05865E-15 3.93244E-14
 -1      1213 1.95667E+01 1.26823E-04 1.41020E-03-2.02424E-03 9.80520E-15 1.46025E-14
 -1      1214 1.96668E+01-8.36767E-05 9.73801E-04-1.33192E-03-1.06814E-14-2.17964E-14
 -1      1215 1.97564E+01-4.46997E-04 3.63980E-04-6.59195E-04 1.16163E-14-6.41568E-14
 -1      1216 1.98409E+01-9.65088E-04-4.24207E-04-2.16186E-06 5.65438E-15-2.59206E-13
 -1      1217 1.99268E+01-1.65334E-03-1.41620E-03 6.45064E-04-2.13892E-14-1.71234E-13
 -1      1218 2.00220E+01-2.53875E-03-2.65689E-03 1.28666E-03 1.75531E-14-3.33452E-13
 -1      1219 2.01361E+01-3.65725E-03-4.20948E-03 1.92002E-03-1.85519E-14-1.73889E-13
 -1      1220 2.02804E+01-5.04842E-03-6.15246E-03 2.52802E-03-9.39244E-15 3.09878E-14
 -1      1221 2.04687E+01-6.74409E-03-8.57104E-03 3.06635E-03-5.51100E-16-6.02970E-14
 -1      1222 2.07175E+01-8.74432E-03-1.15349E-02 3.44229E-03-1.97807E-14-1.50123E-14
 -1      1223 2.10464E+01-1.09696E-02-1.50460E-02 3.48032E-03 1.89101E-14-2.62018E-13
 -1      1224 2.14775E+01-1.31714E-02-1.89265E-02 2.86960E-03-5.06865E-15-4.83327E-13
 -1      1225 2.20343E+01-1.47788E-02-2.25952E-02 1.09442E-03 2.70643E-14-4.28615E-13
 -1      1226 2.27370E+01-1.46673E-02-2.46681E-02-2.62919E-03-2.96969E-14-1.13357E-13
 -1      1227 2.35943E+01-1.08939E-02-2.23555E-02-9.32500E-03-5.51555E-15 1.14103E-13
 -1      1228 2.45855E+01-6.18883E-04-1.08653E-02-1.99137E-02-2.86436E-14 4.83086E-14
 -1      1229 2.56319E+01 1.91355E-02 1.63060E-02-3.41318E-02 4.18047E-15-7.62723E-14
 -1      1230 2.65571E+01 4.88245E-02 6.41434E-02-4.82465E-02 2.92336E-14-1.78770E-13
 -1      1231 2.70539E+01 8.10534E-02 1.27301E-01-5.21141E-02-6.43123E-14-1.11322E-13
 -1      1232 2.67101E+01 9.54603E-02 1.77266E-01-2.93593E-02 1.25421E-15 4.95881E-13
 -1      1233 2.51805E+01 6.44043E-02 1.60796E-01 3.20305E-02 2.22287E-14 8.39273E-13
 -1      1234 2.25444E+01-1.76310E-02 3.72629E-02 1.16614E-01 1.75127E-14 6.36657E-13
 -1      1235 1.96360E+01-1.05630E-01-1.54468E-01 1.69969E-01-1.48232E-14 6.89809E-13
 -1      1236 1.78431E+01-1.30934E-01-2.88167E-01 1.36172E-01-4.99392E-14 7.28299E-13
 -1      1237 1.81784E+01-7.90315E-02-2.59930E-01 2.39948E-02 2.69212E-14 3.74450E-13
 -1      1238 2.04119E+01-1.84216E-03-1.00026E-01-9.08007E-02 5.25040E-14-2.10443E-13
 -1      1239 2.32832E+01 4.58704E-02 6.37442E-02-1.41846E-01-2.38694E-14 1.08885E-13
 -1      1240 2.55164E+01 5.60638E-02 1.41381E-01-1.23899E-01-1.16487E-15 1.88682E-13
 -1      1241 2.65419E+01 4.47604E-02 1.35618E-01-7.39748E-02-1.67418E-14-5.41442E-14
 -1      1242 2.64583E+01 2.79189E-02 9.11702E-02-2.63221E-02-3.00901E-14 2.39464E-13
 -1      1243 2.56552E+01 1.35791E-02 4.52001E-02 5.33412E-03-7.04749E-14 1.34733E-13
 -1      1244 2.45157E+01 3.46957E-03 1.28803E-02 2.14937E-02 5.37438E-14-1.93984E-13
 -1      1245 2.33058E+01-3.35045E-03-6.00731E-03 2.77200E-02 2.88259E-14-8.22120E-14
 -1      1246 2.21782E+01-8.67387E-03-1.71202E-02 2.91075E-02-4.55408E-15 9.65894E-15
 -1      1247 2.12159E+01-1.43063E-02-2.65383E-02 2.86743E-02-6.46438E-14 1.29410E-14
 -1      1248 2.04782E+01-2.05371E-02-3.66012E-02 2.61161E-02-5.50926E-15-2.55967E-13
 -1      1249 2.00403E+01-1.99748E-02-3.44619E-02 1.47048E-02 1.09924E-13-6.66960E-13
 -1      1250 1.99688E+01 1.08654E-02 2.39568E-02-1.14149E-02-5.13075E-14-5.99213E-13
 -1      1251 2.00111E+01-3.22060E-02 2.25565E-02-1.02812E-02-5.49834E-13-8.73149E-14
 -1      1252 1.99764E+01 5.11811E-02-3.47273E-02-3.02689E-03-3.18391E-13 1.00262E-13
 -1      1253 1.99817E+01 4.78732E-01-3.05766E-02 1.85165E-02 5.71293E-13 3.73946E-14
 -1      1254 1.99947E+01 1.12605E+00-9.95767E-03 2.59002E-02 7.20424E-13 2.73006E-14
 -1      1255 2.00078E+01 1.83398E+00 1.01654E-02 2.55237E-02 6.54306E-13-5.79686E-14
 -1      1256 2.00184E+01 2.46518E+00 2.54772E-02 2.02289E-02 3.07594E-13-1.09827E-13
 -1      1257 2.00251E+01 2.92627E+00 3.46479E-02 1.26130E-02-3.34302E-13-4.29387E-14
 -1      1258 2.00275E+01 3.15843E+00 3.77130E-02 3.35013E-03-7.99115E-13-1.46065E-13
 -1      1259 2.00256E+01 3.13567E+00 3.47653E-02-5.53741E-03-1.06344E-12 1.19335E-13
 -1      1260 2.00201E+01 2.87777E+00 2.71334E-02-1.27418E-02-9.10149E-13 6.22202E-14
 -1      1261 2.00124E+01 2.43619E+00 1.67204E-02-1.74585E-02-3.63758E-13-9.61684E-14
 -1      1262 2.00044E+01 1.88595E+00 5.54750E-03-1.94837E-02-4.91190E-13-3.46104E-15
 -1      1263 1.99964E+01 1.29800E+00-5.44992E-03-1.90649E-02-7.47444E-13 1.07534E-13
 -1      1264 1.99892E+01 7.39183E-01-1.64879E-02-1.63572E-02-8.55897E-13 1.01155E-13
 -1      1265 1.99834E+01 2.80302E-01-2.75421E-02-1.20865E-02-6.91348E-13 5.93802E-14
 -1      1266 1.99779E+01 2.61459E-02-2.25749E-02 9.88724E-03-4.54189E-13-9.03936E-14
 -1      1267 2.00089E+01-2.56673E-02 1.68980E-02 8.41781E-03-2.29735E-13 5.48183E-15
 -1      1268-1.21733E+00-2.45748E+01-3.80327E+00-2.31286E+00-4.15390E-13-7.70876E-14
 -1      1269-1.93595E+00-1.64758E+01-3.26449E+00-4.47192E+00 5.05596E-13 3.88745E-13
 -1      1270-8.05747E-02-3.65047E+00-2.05639E+00-6.72414E-01 2.00884E-12 1.24734E-12
 -1      1271 8.24029E+00 6.91889E+00-5.40087E-01 7.61095E+00 1.84852E-12 1.62048E-12
 -1      1272 2.40212E+01 1.10479E+01 1.20469E+00 1.56402E+01 6.73905E-13 7.17648E-13
 -1      1273 4.49746E+01 8.60812E+00 2.85993E+00 1.81653E+01 7.44960E-14 2.17604E-14
 -1      1274 6.30569E+01 3.86033E+00 4.18171E+00 1.15539E+01-4.45477E-14-4.30878E-13
 -1      1275 6.88863E+01 2.08599E+00 4.61473E+00-1.60943E+00 1.56042E-13-1.25433E-12
 -1      1276 5.88941E+01 5.25992E+00 3.96021E+00-1.37141E+01 4.17749E-13-1.59261E-12
 -1      1277 3.91655E+01 9.70508E+00 2.51431E+00-1.80018E+01 9.73777E-13-1.69664E-12
 -1      1278 1.88977E+01 1.04138E+01 6.92706E-01-1.35576E+01 1.12887E-12-1.41553E-12
 -1      1279 4.99017E+00 4.42868E+00-1.02305E+00-4.92252E+00 1.30584E-12-1.04872E-12
 -1      1280-1.15371E+00-6.96844E+00-2.41009E+00 2.28383E+00 1.33360E-12-7.43183E-13
 -1      1281-1.82476E+00-1.89113E+01-3.42540E+00 4.42164E+00 6.12288E-13-2.10859E-13
 -1      1282-1.09983E+00-2.50134E+01-3.79545E+00 1.39405E+00 6.00908E-13 2.07473E-15
 -1      1283-1.25090E+00-2.27916E+01-3.62035E+00-2.82364E+00-3.59490E-13-1.81993E-13
 -1      1284-1.65153E+00-1.28364E+01-2.81980E+00-3.68779E+00-1.43485E-12-5.54667E-13
 -1      1285 1.51452E+00-2.23280E-01-1.52956E+00 1.40145E+00-1.57097E-12-9.23817E-13
 -1      1286 1.17508E+01 8.94194E+00 1.73506E-02 1.01445E+01-1.41487E-12-1.40155E-12
 -1      1287 2.91750E+01 1.10976E+01 1.77315E+00 1.70596E+01-1.23213E-12-1.92069E-12
 -1      1288 4.89361E+01 7.62310E+00 3.20897E+00 1.67399E+01-5.93803E-13-1.38178E-12
 -1      1289 6.36103E+01 3.05767E+00 4.05337E+00 8.29125E+00-1.99833E-13-6.24722E-13
 -1      1290 6.62232E+01 1.88816E+00 4.18246E+00-4.71953E+00-9.31269E-14 2.53741E-13
 -1      1291 5.45782E+01 5.85007E+00 3.46090E+00-1.52802E+01-2.08528E-13 7.11875E-13
 -1      1292 3.44280E+01 1.05013E+01 2.14470E+00-1.76034E+01-2.85993E-13 6.34381E-13
 -1      1293 1.60215E+01 1.05122E+01 6.16617E-01-1.24794E+01-4.03233E-13 3.23297E-13
 -1      1294 4.37542E+00 4.48960E+00-9.11030E-01-4.58796E+00-2.43361E-13 9.79217E-14
 -1      1295-8.41094E-01-5.67075E+00-2.13114E+00 1.84317E+00-4.21885E-15 7.09433E-14
 -1      1296-1.75347E+00-1.71090E+01-3.18582E+00 4.35681E+00 2.46914E-13-6.48925E-14
 -1      1297-1.18140E+00-2.46506E+01-3.79714E+00 1.87681E+00-1.46494E-13-3.13603E-14
 -1      1298 2.22633E+01 1.83800E+00-7.25853E-01-2.79110E+00-4.69902E-14 1.00947E-12
 -1      1299 2.03567E+01 4.68988E+00-4.86594E-02-3.30822E+00-1.43094E-13 7.50788E-14
 -1      1300 2.08636E+01 4.81027E+00-1.13422E-01-4.16224E+00-1.75859E-13 2.93585E-13
 -1      1301 1.95303E+01 4.99313E+00-1.96011E-02-2.65616E+00-1.50255E-13-2.37761E-13
 -1      1302 1.98276E+01 5.08985E+00 2.27732E-04-3.04707E+00-1.66506E-13-1.01134E-13
 -1      1303 2.05234E+01 3.95266E+00-2.59064E-02-3.07629E+00-2.55126E-13 7.31498E-14
 -1      1304 1.91837E+01 5.08410E+00-3.63052E-03-2.07196E+00-1.22300E-13-3.96745E-13
 -1      1305 1.93324E+01 5.13918E+00 1.05851E-02-2.36508E+00-1.38181E-13-3.23810E-13
 -1      1306 1.97529E+01 4.36587E+00-2.42755E-02-2.49109E+00-2.35574E-13-1.87919E-13
 -1      1307 1.90098E+01 5.13096E+00 3.30959E-03-1.56632E+00-9.32457E-14-4.83991E-13
 -1      1308 1.90866E+01 5.16068E+00 1.25607E-02-1.81635E+00-1.02590E-13-4.44086E-13
 -1      1309 1.93925E+01 4.55553E+00-1.95360E-02-1.93275E+00-1.83483E-13-3.32328E-13
 -1      1310 1.89175E+01 5.16085E+00 6.63413E-03-1.11827E+00-6.14634E-14-5.33998E-13
 -1      1311 1.89593E+01 5.17700E+00 1.27438E-02-1.33991E+00-7.43086E-14-5.08951E-13
 -1      1312 1.92070E+01 4.66126E+00-1.60508E-02-1.44631E+00-1.35004E-13-4.08101E-13
 -1      1313 1.88668E+01 5.18081E+00 8.23314E-03-6.94604E-01-3.87643E-14-5.56845E-13
 -1      1314 1.88894E+01 5.18957E+00 1.20531E-02-9.05010E-01-4.92505E-14-5.45158E-13
 -1      1315 1.91052E+01 4.72675E+00-1.39410E-02-1.00526E+00-9.40550E-14-4.55549E-13
 -1      1316 1.88433E+01 5.19282E+00 9.31991E-03-2.89508E-01-1.08002E-14-5.70325E-13
 -1      1317 1.88530E+01 5.19659E+00 1.10938E-02-4.91831E-01-2.10045E-14-5.61547E-13
 -1      1318 1.90501E+01 4.76582E+00-1.29049E-02-5.89407E-01-5.00718E-14-4.62637E-13
 -1      1319 1.88397E+01 5.19776E+00 1.02479E-02 1.08330E-01 9.34441E-15-5.80211E-13
 -1      1320 1.88393E+01 5.19763E+00 1.01760E-02-9.15529E-02 5.82780E-15-5.75181E-13
 -1      1321 1.90263E+01 4.78386E+00-1.24682E-02-1.89311E-01-2.73913E-15-4.78267E-13
 -1      1322 1.88547E+01 5.19622E+00 1.11822E-02 5.09198E-01 3.13209E-14-5.79668E-13
 -1      1323 1.88443E+01 5.19217E+00 9.25371E-03 3.06454E-01 2.38954E-14-5.84591E-13
 -1      1324 1.90271E+01 4.78322E+00-1.24878E-02 2.05991E-01 2.82551E-14-4.89660E-13
 -1      1325 1.88927E+01 5.18841E+00 1.21105E-02 9.23866E-01 5.61582E-14-5.63632E-13
 -1      1326 1.88692E+01 5.17949E+00 8.16294E-03 7.12503E-01 4.64529E-14-5.72297E-13
 -1      1327 1.90527E+01 4.76374E+00-1.29745E-02 6.06790E-01 6.42652E-14-4.88307E-13
 -1      1328 1.89637E+01 5.17525E+00 1.29080E-02 1.35741E+00 7.88172E-14-5.29979E-13
 -1      1329 1.89209E+01 5.15866E+00 6.47603E-03 1.13437E+00 7.30379E-14-5.51862E-13
 -1      1330 1.91094E+01 4.72323E+00-1.39976E-02 1.02047E+00 1.07227E-13-4.67966E-13
 -1      1331 1.90952E+01 5.15659E+00 1.28241E-02 1.84228E+00 1.15583E-13-4.59605E-13
 -1      1332 1.90163E+01 5.12642E+00 3.16658E-03 1.58939E+00 1.03308E-13-4.97800E-13
 -1      1333 1.92139E+01 4.65478E+00-1.61437E-02 1.46388E+00 1.49553E-13-4.17770E-13
 -1      1334 1.93426E+01 5.13315E+00 1.01517E-02 2.39944E+00 1.50723E-13-3.37900E-13
 -1      1335 1.91931E+01 5.07623E+00-4.36280E-03 2.10216E+00 1.33390E-13-4.11858E-13
 -1      1336 1.94053E+01 4.54226E+00-1.99854E-02 1.95974E+00 2.05631E-13-3.43222E-13
 -1      1337 1.98529E+01 5.09896E+00 6.00835E-03 3.08539E+00 1.71071E-13-9.02403E-14
 -1      1338 1.95416E+01 4.98414E+00-2.05423E-02 2.69813E+00 1.49256E-13-2.39080E-13
 -1      1339 1.97732E+01 4.34620E+00-2.45695E-02 2.52963E+00 2.44738E-13-1.97183E-13
 -1      1340 2.10998E+01 4.90655E+00 8.25969E-03 4.05503E+00 1.57291E-13 3.62821E-13
 -1      1341 2.03312E+01 4.73348E+00-4.79884E-02 3.41763E+00 1.52517E-13 8.65835E-14
 -1      1342 2.05617E+01 3.91573E+00-2.24331E-02 3.17982E+00 2.63706E-13 6.94861E-14
 -1      1343 2.71991E+01 3.20521E+00 9.29071E-01 4.58272E+00 7.93116E-14 1.24006E-12
 -1      1344 2.20163E+01 3.52192E+00-1.82012E-01 3.88584E+00 8.16291E-14 6.25555E-13
 -1      1345 2.21085E+01 2.56171E+00-3.25886E-02 3.45772E+00 2.59172E-13 4.84168E-13
 -1      1346 2.14226E+01 3.59640E-01-7.63507E-01 1.18446E+00 1.38743E-13 1.19110E-12
 -1      1347 2.19968E+01 1.31409E-01-4.00859E-01-1.28632E+00-1.41456E-13 1.05443E-12
 -1      1348 2.06735E+01 3.06736E-01-1.64832E-01-8.06301E-01-1.35066E-13 8.80462E-13
 -1      1349 2.00754E+01 1.53469E-01-7.35394E-02-4.02691E-01-1.09898E-13 8.06559E-13
 -1      1350 1.96049E+01 9.11871E-02-1.49405E-02-3.30535E-01-1.02848E-13 6.51576E-13
 -1      1351 2.09677E+01 3.69200E-01-1.04234E-01-1.27497E+00-2.41356E-13 4.87055E-13
 -1      1352 1.92470E+01 6.45181E-02 3.02410E-03-1.35909E-01-7.29364E-14 5.87971E-13
 -1      1353 1.90920E+01 4.12825E-02 1.32072E-02-1.18092E-01-7.15886E-14 4.84755E-13
 -1      1354 1.99161E+01 1.33901E-01-3.51566E-02-5.05080E-01-1.76546E-13 3.70750E-13
 -1      1355 1.89311E+01 3.15067E-02 1.32446E-02-2.85798E-02-4.57503E-14 4.27148E-13
 -1      1356 1.89110E+01 1.93616E-02 1.10671E-02-1.92211E-02-4.73410E-14 3.62613E-13
 -1      1357 1.94379E+01 5.54749E-02-8.50640E-03-1.71073E-01-1.23620E-13 2.66447E-13
 -1      1358 1.88544E+01 1.59873E-02 8.78734E-03 2.43753E-02-3.24922E-14 3.64788E-13
 -1      1359 1.88959E+01 9.07169E-03 6.44309E-03 2.89929E-02-2.07200E-14 3.15853E-13
 -1      1360 1.92281E+01 2.43425E-02-3.50680E-03-1.23394E-02-6.47139E-14 2.01900E-13
 -1      1361 1.88955E+01 7.85581E-03 4.68654E-03 5.01594E-02-4.00955E-14 3.19958E-13
 -1      1362 1.89650E+01 3.53088E-03 3.65490E-03 5.20529E-02-3.51098E-14 2.72248E-13
 -1      1363 1.91703E+01 1.01702E-02-2.22846E-03 6.62942E-02-5.21471E-14 1.99269E-13
 -1      1364 1.89940E+01 3.21859E-03 2.46622E-03 6.09236E-02-4.07438E-15 2.31913E-13
 -1      1365 1.90738E+01 3.98986E-04 2.23468E-03 6.12100E-02-1.68915E-14 2.00152E-13
 -1      1366 1.91956E+01 2.80419E-03-1.33856E-03 1.03229E-01-5.28594E-14 1.74063E-13
 -1      1367 1.91172E+01 5.22930E-04 1.36549E-03 6.30728E-02-3.58971E-14 2.03711E-13
 -1      1368 1.91975E+01-1.33091E-03 1.47405E-03 6.24360E-02-4.22656E-14 1.50034E-13
 -1      1369 1.92641E+01-1.21117E-03-5.87217E-04 1.16808E-01-5.80546E-14 1.19246E-13
 -1      1370 1.92463E+01-9.84863E-04 7.90389E-04 6.03920E-02-4.19614E-14 1.36734E-13
 -1      1371 1.93218E+01-2.17806E-03 1.01864E-03 5.92795E-02-4.74680E-14 7.16653E-14
 -1      1372 1.93524E+01-3.30709E-03-5.05451E-05 1.17109E-01-6.59417E-14 1.14084E-13
 -1      1373 1.93709E+01-1.72078E-03 4.65195E-04 5.52879E-02-4.45866E-14 7.62285E-14
 -1      1374 1.94392E+01-2.44241E-03 7.24084E-04 5.40022E-02-8.67749E-15 3.42404E-14
 -1      1375 1.94468E+01-4.20491E-03 2.69388E-04 1.10238E-01-5.54162E-14 1.52772E-13
 -1      1376 1.94859E+01-1.93346E-03 2.73980E-04 4.93634E-02 1.65694E-14-1.81391E-14
 -1      1377 1.95463E+01-2.30898E-03 5.29857E-04 4.81145E-02-2.16239E-15-3.13068E-14
 -1      1378 1.95396E+01-4.31335E-03 4.14487E-04 1.00144E-01-1.15152E-14 8.46485E-14
 -1      1379 1.95897E+01-1.77836E-03 1.63743E-04 4.37249E-02-3.63221E-14-2.69611E-14
 -1      1380 1.96429E+01-1.89490E-03 4.05820E-04 4.26622E-02-7.65179E-14-1.06491E-13
 -1      1381 1.96272E+01-3.88005E-03 4.29507E-04 8.94954E-02-3.52451E-14-9.21939E-14
 -1      1382 1.96830E+01-1.35344E-03 1.05541E-04 3.91643E-02-2.07690E-14-9.18229E-14
 -1      1383 1.97304E+01-1.27334E-03 3.33614E-04 3.83991E-02 3.30360E-14-7.89958E-14
 -1      1384 1.97085E+01-3.05798E-03 3.48751E-04 8.01639E-02-5.40487E-14-5.83874E-14
 -1      1385 1.97684E+01-7.18598E-04 8.05828E-05 3.62782E-02 4.64238E-14-6.64696E-14
 -1      1386 1.98122E+01-4.87869E-04 3.00197E-04 3.58991E-02-1.27598E-15-2.60248E-14
 -1      1387 1.97847E+01-1.93863E-03 1.95424E-04 7.35215E-02 4.31514E-14-1.22338E-14
 -1      1388 1.98495E+01 9.20081E-05 7.48618E-05 3.55471E-02-4.26581E-14-8.09097E-15
 -1      1389 1.98926E+01 4.37029E-04 2.95010E-04 3.56310E-02-6.22088E-14-4.40433E-14
 -1      1390 1.98583E+01-5.71945E-04-1.58392E-05 7.06344E-02-6.66890E-15-7.39117E-14
 -1      1391 1.99314E+01 1.06002E-03 7.65262E-05 3.73868E-02-3.17840E-14-3.58998E-14
 -1      1392 1.99769E+01 1.48639E-03 3.08232E-04 3.80053E-02-3.92257E-14-9.33278E-14
 -1      1393 1.99329E+01 1.01832E-03-2.76140E-04 7.23897E-02-6.15938E-14-2.11346E-14
 -1      1394 2.00199E+01 2.17306E-03 7.42530E-05 4.21717E-02-9.11651E-15-7.43131E-14
 -1      1395 2.00714E+01 2.64431E-03 3.29361E-04 4.33927E-02-1.08228E-14-7.06760E-14
 -1      1396 2.00131E+01 2.81960E-03-5.79506E-04 7.95647E-02-1.65296E-14 2.44046E-14
 -1      1397 2.01214E+01 3.41314E-03 5.61439E-05 5.02290E-02-1.45428E-14-9.26430E-14
 -1      1398 2.01831E+01 3.88087E-03 3.45953E-04 5.21123E-02-7.47747E-15-9.92222E-14
 -1      1399 2.01043E+01 4.81272E-03-9.19820E-04 9.28404E-02-3.65511E-14-3.24205E-14
 -1      1400 2.02432E+01 4.74135E-03 9.15057E-06 6.17940E-02 1.87995E-14-1.17772E-13
 -1      1401 2.03194E+01 5.13481E-03 3.42609E-04 6.43785E-02-4.93286E-14-1.27014E-13
 -1      1402 2.02122E+01 6.94834E-03-1.28711E-03 1.12745E-01-1.60455E-14-6.31315E-14
 -1      1403 2.03928E+01 6.07684E-03-8.06006E-05 7.69143E-02-7.07873E-14-1.24949E-13
 -1      1404 2.04879E+01 6.28993E-03 3.00695E-04 8.01936E-02-6.32125E-14-2.24979E-13
 -1      1405 2.03432E+01 9.11406E-03-1.66266E-03 1.39509E-01-9.88888E-14-6.34069E-14
 -1      1406 2.05776E+01 7.26786E-03-2.25730E-04 9.52840E-02-2.27098E-14-2.10146E-13
 -1      1407 2.06953E+01 7.14388E-03 1.99842E-04 9.91661E-02-9.98800E-15-1.99625E-13
 -1      1408 2.05033E+01 1.10883E-02-2.01245E-03 1.72800E-01-3.89924E-14-8.29606E-14
 -1      1409 2.08036E+01 8.05350E-03-4.32272E-04 1.15985E-01 3.29478E-15-2.27375E-13
 -1      1410 2.09467E+01 7.36987E-03 2.30941E-05 1.20231E-01-2.77635E-14-2.04169E-13
 -1      1411 2.06976E+01 1.24780E-02-2.27831E-03 2.11294E-01 4.43103E-15-1.27393E-13
 -1      1412 2.10742E+01 8.01818E-03-6.88914E-04 1.37120E-01-3.09017E-14-2.34568E-13
 -1      1413 2.12427E+01 6.47802E-03-2.31672E-04 1.41252E-01-1.20091E-14-2.38461E-13
 -1      1414 2.09293E+01 1.26426E-02-2.36654E-03 2.52060E-01-3.12449E-14-1.99336E-13
 -1      1415 2.13877E+01 6.55008E-03-9.48752E-04 1.55332E-01 4.38792E-14-2.10320E-13
 -1      1416 2.15771E+01 3.79613E-03-5.31754E-04 1.58523E-01 7.47898E-14-1.56044E-13
 -1      1417 2.11974E+01 1.06198E-02-2.13531E-03 2.89726E-01 4.72426E-14-7.42324E-14
 -1      1418 2.17336E+01 2.83465E-03-1.10423E-03 1.65291E-01 7.20125E-14-1.08281E-13
 -1      1419 2.19324E+01-1.48397E-03-7.82804E-04 1.66248E-01 2.18739E-14-6.93482E-14
 -1      1420 2.14951E+01 5.10111E-03-1.38557E-03 3.15535E-01 1.03869E-13 9.75825E-15
 -1      1421 2.20891E+01-4.04990E-03-9.65166E-04 1.59352E-01-6.74085E-14-7.59965E-14
 -1      1422 2.22759E+01-1.01093E-02-8.07587E-04 1.56255E-01-1.76322E-14-1.74538E-13
 -1      1423 2.18060E+01-5.43744E-03 1.31266E-04 3.16570E-01-4.71199E-14 6.00136E-14
 -1      1424 2.24140E+01-1.48184E-02-2.66739E-04 1.27856E-01-1.07796E-14-2.36661E-13
 -1      1425 2.25551E+01-2.22951E-02-3.62148E-04 1.18493E-01-8.97552E-14-2.78918E-13
 -1      1426 2.21013E+01-2.22620E-02 2.66179E-03 2.75845E-01-1.04926E-13-1.14131E-13
 -1      1427 2.26484E+01-2.93037E-02 1.24242E-03 6.08987E-02-6.21682E-15-3.74391E-13
 -1      1428 2.26986E+01-3.68833E-02 7.62319E-04 4.32207E-02 2.54267E-14-3.41433E-13
 -1      1429 2.23377E+01-4.53278E-02 6.31324E-03 1.74552E-01-7.13826E-14-7.87751E-14
 -1      1430 2.27150E+01-4.53600E-02 3.58225E-03-4.74255E-02 6.68953E-14-3.39931E-13
 -1      1431 2.26237E+01-5.02502E-02 2.49652E-03-7.40490E-02 5.23366E-14-2.39721E-13
 -1      1432 2.24580E+01-7.15442E-02 1.07901E-02-1.77317E-03 4.38104E-14-4.64568E-14
 -1      1433 2.25320E+01-5.77187E-02 6.18139E-03-1.91781E-01-9.24755E-14-1.88651E-13
 -1      1434 2.22594E+01-5.56803E-02 4.19858E-03-2.24614E-01-7.01791E-14-3.03917E-13
 -1      1435 2.23993E+01-9.28518E-02 1.50169E-02-2.51771E-01 5.24407E-15-1.31648E-13
 -1      1436 2.20416E+01-5.79343E-02 7.69968E-03-3.47192E-01 2.08470E-14-3.78413E-13
 -1      1437 2.15833E+01-4.47087E-02 4.55372E-03-3.78247E-01-4.65461E-14-4.30905E-13
 -1      1438 2.21103E+01-9.60282E-02 1.68505E-02-5.43025E-01-1.53555E-13-1.63648E-13
 -1      1439 2.12521E+01-3.75191E-02 6.37860E-03-4.65706E-01-4.47333E-14-5.05450E-13
 -1      1440 2.06651E+01-1.20644E-02 2.17279E-03-4.82145E-01-6.11928E-14-5.92762E-13
 -1      1441 2.15813E+01-6.70692E-02 1.35035E-02-8.01347E-01-7.84455E-14-2.24583E-13
 -1      1442 2.02779E+01 5.18891E-03 1.41679E-03-4.87902E-01 2.16905E-15-5.67116E-13
 -1      1443 1.96886E+01 3.71967E-02-3.14284E-03-4.77025E-01 7.64835E-14-5.77403E-13
 -1      1444 2.08772E+01-1.60564E-03 3.22134E-03-9.20720E-01 1.73948E-14-2.94695E-13
 -1      1445 1.93447E+01 5.81739E-02-5.75931E-03-3.73247E-01 1.47359E-13-4.74752E-13
 -1      1446 1.89183E+01 8.43514E-02-9.22337E-03-3.31483E-01 1.08117E-13-3.31853E-13
 -1      1447 2.01523E+01 8.45734E-02-1.21084E-02-8.07036E-01 1.62348E-13-2.86833E-13
 -1      1448 1.87268E+01 9.75637E-02-1.12245E-02-1.35610E-01-6.94965E-14-2.36871E-13
 -1      1449 1.85998E+01 1.05099E-01-1.22475E-02-7.49000E-02-6.01654E-14-3.23242E-13
 -1      1450 1.96172E+01 1.55721E-01-2.59198E-02-4.43736E-01 5.25691E-14-1.46288E-13
 -1      1451 1.86266E+01 1.01913E-01-1.16717E-02 1.47572E-01-3.85482E-14-3.54172E-13
 -1      1452 1.88384E+01 8.67563E-02-9.83008E-03 2.03882E-01-5.65086E-15-3.27641E-13
 -1      1453 1.94523E+01 1.76228E-01-2.99365E-02 6.79488E-02-1.09513E-13-2.24588E-13
 -1      1454 1.90679E+01 6.92039E-02-7.17211E-03 3.72100E-01 1.06188E-13-4.16927E-13
 -1      1455 1.95383E+01 3.92278E-02-3.31457E-03 4.03348E-01 1.86656E-14-3.53460E-13
 -1      1456 1.97099E+01 1.34516E-01-2.16691E-02 5.45035E-01 4.81698E-14-1.48825E-13
 -1      1457 1.98826E+01 1.79018E-02-9.64550E-04 4.66158E-01-1.15254E-13-1.68116E-13
 -1      1458 2.04543E+01-1.31596E-02 3.42366E-03 4.65782E-01 1.14556E-14-2.32543E-13
 -1      1459 2.02830E+01 5.25522E-02-6.27976E-03 8.23265E-01-1.43193E-14-1.03889E-13
 -1      1460 2.08008E+01-2.77665E-02 3.50090E-03 4.23197E-01 9.82586E-14-2.57506E-13
 -1      1461 2.13138E+01-4.93131E-02 7.21186E-03 3.98981E-01-5.73751E-14-2.85307E-13
 -1      1462 2.09661E+01-3.07986E-02 8.00502E-03 8.41767E-01 7.83059E-14-8.71386E-14
 -1      1463 2.15741E+01-5.33441E-02 4.90823E-03 2.89010E-01-1.53625E-13-2.74933E-13
 -1      1464 2.19229E+01-6.22012E-02 7.44147E-03 2.54720E-01-2.37745E-13-4.88790E-13
 -1      1465 2.15577E+01-8.52513E-02 1.59990E-02 6.51127E-01-1.14751E-13-1.85543E-13
 -1      1466 2.20554E+01-5.80010E-02 4.02970E-03 1.24500E-01-1.76766E-13-5.90160E-13
 -1      1467 2.22055E+01-5.66996E-02 5.45919E-03 9.17391E-02-9.77447E-14-7.59402E-13
 -1      1468 2.19315E+01-1.02395E-01 1.73354E-02 3.57708E-01-3.52286E-13-3.21946E-13
 -1      1469 2.22101E+01-4.87701E-02 2.34396E-03-2.36064E-02 7.85457E-14-7.06886E-13
 -1      1470 2.21815E+01-4.17337E-02 2.96420E-03-4.85801E-02 1.36267E-13-6.52525E-13
 -1      1471 2.20510E+01-9.11955E-02 1.43595E-02 6.12880E-02-2.33494E-15-3.59151E-13
 -1      1472 2.20838E+01-3.36463E-02 9.31127E-04-1.31768E-01 9.32830E-14-4.51270E-13
 -1      1473 2.19248E+01-2.45550E-02 1.01816E-03-1.47285E-01 5.38220E-14-3.07239E-13
 -1      1474 2.19454E+01-6.59501E-02 9.70071E-03-1.76256E-01 2.63389E-13-1.95508E-13
 -1      1475 2.17604E+01-1.79990E-02 1.45529E-04-1.94700E-01 1.14848E-13-3.79988E-13
 -1      1476 2.15261E+01-8.93957E-03-1.50097E-04-2.01563E-01 1.98609E-13-1.64592E-13
 -1      1477 2.16768E+01-3.77992E-02 5.05968E-03-3.31308E-01 2.06671E-13-1.69281E-13
 -1      1478 2.13305E+01-4.03750E-03-2.54214E-04-2.16328E-01 2.48485E-13-9.40862E-14
 -1      1479 2.10718E+01 4.24256E-03-8.96510E-04-2.15955E-01 1.86129E-13 1.75440E-13
 -1      1480 2.13154E+01-1.21637E-02 1.08703E-03-4.04365E-01 3.23779E-13-1.51945E-13
 -1      1481 2.08765E+01 8.21567E-03-8.54615E-04-2.02486E-01 8.76812E-14 2.53216E-13
 -1      1482 2.06380E+01 1.56366E-02-1.76840E-03-1.95803E-01 1.91088E-14 2.14287E-13
 -1      1483 2.09259E+01 1.01777E-02-2.25711E-03-4.05080E-01 2.06261E-13-2.28263E-13
 -1      1484 2.04689E+01 1.96038E-02-2.16041E-03-1.57434E-01 1.14126E-13 4.53776E-13
 -1      1485 2.02910E+01 2.58275E-02-2.41438E-03-1.44374E-01 1.35718E-13 5.13209E-13
 -1      1486 2.05639E+01 3.09827E-02-4.97677E-03-3.42769E-01 1.86286E-13-6.62697E-14
 -1      1487 2.01652E+01 3.20742E-02-2.61622E-03-8.39783E-02-8.43405E-14 4.99987E-13
 -1      1488 2.00796E+01 3.02531E-02 2.99683E-04-6.61481E-02-1.32957E-13 4.08367E-13
 -1      1489 2.02712E+01 5.21198E-02-6.20531E-03-2.26572E-01 8.03502E-14 1.66984E-13
 -1      1490 1.99978E+01 8.40707E-03 2.69951E-03 5.27898E-03-2.80876E-13 2.82429E-13
 -1      1491 2.00573E+01 4.77085E-02-2.39348E-03-6.20291E-02-3.54078E-13 1.77668E-13
 -1      1492 2.02542E+01 7.54831E-02-1.52111E-01 4.84358E-01 1.25809E-13 9.30790E-13
 -1      1493 2.15252E+01 2.16114E-01-2.29289E-01 7.21370E-01 1.10009E-13 1.11701E-12
 -1      1494 2.17241E+01 8.81840E-01-8.54407E-02 2.06576E+00 2.10242E-13 7.05866E-13
 -1      1495 1.93246E+01 3.23753E-02-2.13401E-02 1.86519E-01 9.47541E-14 6.75036E-13
 -1      1496 1.97460E+01 1.13602E-01-6.27124E-02 2.38519E-01 9.33420E-14 8.29602E-13
 -1      1497 2.02979E+01 1.87698E-01-5.51803E-02 7.87115E-01 1.95177E-13 5.34060E-13
 -1      1498 1.89416E+01 1.50960E-02 5.66672E-03 5.40496E-02 4.97189E-14 5.09735E-13
 -1      1499 1.90809E+01 5.16030E-02 9.71856E-04 8.03431E-02 5.66561E-14 6.07681E-13
 -1      1500 1.95518E+01 7.18299E-02-1.21450E-02 2.99966E-01 1.41560E-13 4.01092E-13
 -1      1501 1.88297E+01 7.11140E-03 6.97925E-03-8.40552E-03 4.26451E-14 4.16960E-13
 -1      1502 1.88451E+01 2.58331E-02 1.10879E-02 5.96905E-03 3.32664E-14 4.71036E-13
 -1      1503 1.92153E+01 3.10192E-02-2.45025E-03 8.45367E-02 7.21402E-14 2.90691E-13
 -1      1504 1.88542E+01 3.20508E-03 4.78704E-03-3.86227E-02 4.68351E-14 3.02178E-13
 -1      1505 1.88113E+01 1.37827E-02 8.52248E-03-3.05312E-02 3.44416E-14 3.58560E-13
 -1      1506 1.90976E+01 1.32474E-02-1.60444E-03-2.03803E-02 8.51138E-14 2.05376E-13
 -1      1507 1.89468E+01 1.06196E-03 3.29621E-03-5.20539E-02-5.55328E-16 2.50873E-13
 -1      1508 1.88773E+01 7.26614E-03 5.37233E-03-4.76050E-02 1.55232E-14 2.75138E-13
 -1      1509 1.90977E+01 4.53820E-03-1.62054E-03-7.18477E-02 4.23335E-14 1.55406E-13
 -1      1510 1.90698E+01-1.62268E-04 2.51147E-03-5.60814E-02 2.09180E-14 2.49915E-13
 -1      1511 1.89905E+01 3.45857E-03 3.43898E-03-5.38774E-02 8.88970E-15 2.51394E-13
 -1      1512 1.91594E+01-7.75740E-05-1.36732E-03-9.45755E-02 1.34028E-14 9.47471E-14
 -1      1513 1.92016E+01-8.32086E-04 2.04152E-03-5.47846E-02 2.40216E-14 1.57360E-13
 -1      1514 1.91221E+01 1.17205E-03 2.34207E-03-5.39763E-02 2.13973E-14 2.08375E-13
 -1      1515 1.92507E+01-2.53585E-03-9.97806E-04-1.01049E-01 5.18651E-14 4.59988E-14
 -1      1516 1.93301E+01-1.13881E-03 1.68882E-03-5.06640E-02 4.98788E-14 8.72167E-14
 -1      1517 1.92555E+01-1.63647E-04 1.67076E-03-5.06931E-02 2.98818E-14 1.70353E-13
 -1      1518 1.93530E+01-3.71324E-03-6.67506E-04-9.83764E-02 5.32547E-14 2.72630E-14
 -1      1519 1.94493E+01-1.19736E-03 1.38623E-03-4.53471E-02 2.54376E-14 7.16129E-14
 -1      1520 1.93820E+01-8.63861E-04 1.22003E-03-4.58301E-02 2.65962E-14 1.04122E-13
 -1      1521 1.94554E+01-4.07926E-03-4.24179E-04-9.09733E-02 3.35128E-14 2.56366E-14
 -1      1522 1.95567E+01-1.08008E-03 1.11464E-03-3.99378E-02 6.15094E-15 1.10858E-14
 -1      1523 1.94973E+01-1.11902E-03 9.01467E-04-4.06010E-02 1.82640E-14 4.54619E-14
 -1      1524 1.95526E+01-3.91121E-03-2.67505E-04-8.17429E-02 4.68900E-14 3.68470E-14
 -1      1525 1.96527E+01-8.31648E-04 8.67788E-04-3.52168E-02 1.38150E-14-3.93956E-15
 -1      1526 1.96006E+01-1.04766E-03 6.74284E-04-3.58554E-02 1.84139E-14-1.40927E-14
 -1      1527 1.96424E+01-3.37928E-03-1.86663E-04-7.26790E-02 3.70212E-14-9.25957E-15
 -1      1528 1.97395E+01-4.76814E-04 6.41403E-04-3.17704E-02 8.61541E-16-5.04693E-14
 -1      1529 1.96931E+01-7.21119E-04 5.16202E-04-3.22207E-02 1.10896E-14-4.18168E-14
 -1      1530 1.97250E+01-2.58575E-03-1.72892E-04-6.52186E-02 2.65328E-14-1.07349E-14
 -1      1531 1.98209E+01-2.48527E-05 4.30422E-04-3.00822E-02 2.63908E-14-1.08744E-13
 -1      1532 1.97781E+01-1.76409E-04 4.13119E-04-3.02007E-02 3.45345E-14-5.67783E-14
 -1      1533 1.98027E+01-1.58531E-03-2.22292E-04-6.04728E-02 6.04617E-14-1.02708E-13
 -1      1534 1.99019E+01 5.27604E-04 2.28247E-04-3.06033E-02-2.52854E-14-1.57817E-13
 -1      1535 1.98598E+01 5.76641E-04 3.55324E-04-3.02493E-02 1.80151E-14-1.37307E-13
 -1      1536 1.98788E+01-3.96533E-04-3.36205E-04-5.93927E-02 4.34646E-14-5.88127E-14
 -1      1537 1.99889E+01 1.19455E-03 2.64030E-05-3.38092E-02 2.17402E-14-2.24388E-13
 -1      1538 1.99439E+01 1.55106E-03 3.35736E-04-3.28294E-02-1.57331E-14-2.10352E-13
 -1      1539 1.99583E+01 9.90857E-04-5.21329E-04-6.28976E-02 2.17182E-15-1.69927E-13
 -1      1540 2.00896E+01 1.99871E-03-1.85850E-04-4.02467E-02-5.63351E-15-2.33873E-13
 -1      1541 2.00374E+01 2.77973E-03 3.48686E-04-3.84609E-02 1.63151E-14-2.15970E-13
 -1      1542 2.00470E+01 2.61078E-03-7.89960E-04-7.19771E-02 3.10437E-14-2.25622E-13
 -1      1543 2.02132E+01 2.96905E-03-4.22106E-04-5.05704E-02-7.65273E-14-9.17496E-14
 -1      1544 2.01488E+01 4.31237E-03 3.88649E-04-4.77582E-02-6.38707E-14-2.02878E-13
 -1      1545 2.01525E+01 4.51593E-03-1.16033E-03-8.77725E-02-4.25721E-14-1.23299E-13
 -1      1546 2.03710E+01 4.13612E-03-6.99595E-04-6.55650E-02 2.01461E-14-3.17721E-14
 -1      1547 2.02881E+01 6.21054E-03 4.48492E-04-6.14541E-02 2.92258E-15-5.11795E-14
 -1      1548 2.02833E+01 6.77118E-03-1.65673E-03-1.11632E-01-5.01223E-14-1.12063E-13
 -1      1549 2.05760E+01 5.52256E-03-1.03977E-03-8.61390E-02-4.36552E-14-6.18112E-14
 -1      1550 2.04673E+01 8.53715E-03 5.16830E-04-8.03996E-02-3.50653E-15-8.96682E-14
 -1      1551 2.04500E+01 9.44150E-03-2.30874E-03-1.45125E-01 1.64890E-14-9.51837E-15
 -1      1552 2.08440E+01 7.12335E-03-1.46724E-03-1.13262E-01 3.75385E-14-8.48965E-14
 -1      1553 2.07007E+01 1.13332E-02 5.74155E-04-1.05513E-01-5.32885E-15-8.56268E-14
 -1      1554 2.06647E+01 1.25670E-02-3.14790E-03-1.89978E-01-2.10986E-14-8.75849E-14
 -1      1555 2.11926E+01 8.86639E-03-2.00306E-03-1.47787E-01 8.18282E-14-3.30529E-13
 -1      1556 2.10045E+01 1.45689E-02 5.88124E-04-1.37634E-01 6.93959E-14-1.71757E-13
 -1      1557 2.09409E+01 1.61109E-02-4.19815E-03-2.47855E-01 1.09343E-13-1.78098E-13
 -1      1558 2.16404E+01 1.05378E-02-2.64261E-03-1.90042E-01 1.24154E-14-3.81546E-13
 -1      1559 2.13967E+01 1.80451E-02 5.10665E-04-1.77180E-01 1.68687E-14-3.62863E-13
 -1      1560 2.12934E+01 1.98551E-02-5.45245E-03-3.19831E-01 5.31610E-14-2.95892E-13
 -1      1561 2.22046E+01 1.16505E-02-3.29767E-03-2.39014E-01-9.60746E-14-2.07818E-13
 -1      1562 2.18951E+01 2.12101E-02 2.85350E-04-2.23460E-01-6.38116E-14-2.86735E-13
 -1      1563 2.17363E+01 2.32019E-02-6.82120E-03-4.05298E-01-8.66815E-14-2.61302E-13
 -1      1564 2.28953E+01 1.12376E-02-3.66938E-03-2.90830E-01-8.00412E-14 7.74970E-14
 -1      1565 2.25136E+01 2.28486E-02-1.15151E-04-2.73386E-01-9.07863E-14-3.35149E-14
 -1      1566 2.22802E+01 2.48277E-02-8.02888E-03-4.99907E-01-1.85028E-13-2.00417E-14
 -1      1567 2.37045E+01 7.59286E-03-3.02274E-03-3.36224E-01-3.28860E-15 2.03827E-13
 -1      1568 2.32548E+01 2.06303E-02-5.87728E-04-3.19314E-01-1.97182E-14 1.58182E-13
 -1      1569 2.29259E+01 2.21517E-02-8.43498E-03-5.92016E-01-6.63510E-14 1.79134E-13
 -1      1570 2.45890E+01-1.86739E-03 7.59487E-05-3.56987E-01 6.56602E-14 5.63057E-14
 -1      1571 2.40964E+01 1.06715E-02-7.05960E-04-3.45928E-01 9.75567E-14 1.78604E-13
 -1      1572 2.36552E+01 1.07323E-02-6.79754E-03-6.57355E-01 9.28191E-14 2.12838E-13
 -1      1573 2.54446E+01-2.00682E-02 7.71520E-03-3.22676E-01 6.64833E-15-5.77455E-14
 -1      1574 2.49717E+01-1.22775E-02 4.89412E-04-3.27069E-01-3.60467E-14-3.27481E-14
 -1      1575 2.44158E+01-1.58008E-02-1.16623E-03-6.52910E-01 4.50950E-14 1.45111E-13
 -1      1576 2.60821E+01-4.79091E-02 2.14251E-02-1.92229E-01-5.52666E-14 2.85882E-14
 -1      1577 2.57444E+01-5.24810E-02 4.41715E-03-2.25995E-01-4.63431E-15 1.06859E-15
 -1      1578 2.51044E+01-6.36845E-02 1.05132E-02-5.14898E-01-6.33452E-14 1.35222E-13
 -1      1579 2.62257E+01-7.88037E-02 3.85812E-02 6.94280E-02-1.43796E-13 1.32857E-13
 -1      1580 2.61923E+01-1.06483E-01 1.18218E-02-7.04125E-03-1.15149E-13-7.82347E-14
 -1      1581 2.55554E+01-1.31506E-01 2.83566E-02-1.73026E-01-9.39717E-14 1.28237E-13
 -1      1582 2.55847E+01-9.26109E-02 4.71351E-02 4.48499E-01-1.07697E-13 5.07344E-13
 -1      1583 2.60325E+01-1.52623E-01 1.96322E-02 3.30516E-01-1.13770E-13 2.55806E-13
 -1      1584 2.55569E+01-1.96366E-01 4.62203E-02 3.99366E-01-2.06675E-13 1.53374E-13
 -1      1585 2.40435E+01-5.88486E-02 2.71122E-02 8.23211E-01 3.00940E-14 6.81066E-13
 -1      1586 2.50355E+01-1.47017E-01 1.84245E-02 6.99573E-01-4.53665E-14 6.02907E-13
 -1      1587 2.49300E+01-2.02993E-01 4.91386E-02 1.09410E+00-1.55201E-13 4.78936E-13
 -1      1588 2.19277E+01 3.32196E-02-3.00023E-02 9.54840E-01 1.42696E-13 4.55469E-13
 -1      1589 2.32482E+01-4.96325E-02-2.36898E-03 8.99329E-01 1.41411E-13 6.25611E-13
 -1      1590 2.36924E+01-8.38351E-02 2.27734E-02 1.59533E+00 1.46360E-13 4.18804E-13
 -1      1591 2.00958E+01 1.36072E-01-9.60060E-02 6.37985E-01-6.63185E-14 4.70665E-13
 -1      1592 2.12083E+01 1.15211E-01-3.93127E-02 7.14258E-01-8.85056E-15 4.86666E-13
 -1      1593 2.22318E+01 1.59862E-01-2.56425E-02 1.48536E+00-2.17881E-15 3.88876E-13
 -1      1594 1.95281E+01 1.63931E-01-1.16809E-01-4.58351E-02 3.46945E-15 3.71496E-13
 -1      1595 1.98451E+01 2.37568E-01-6.71495E-02 1.38260E-01-2.44076E-14 3.57575E-13
 -1      1596 2.12487E+01 3.82530E-01-6.48540E-02 6.10897E-01 2.81511E-14 1.68053E-13
 -1      1597 2.05558E+01 9.12765E-02-6.78274E-02-6.94171E-01 2.18943E-13-5.00155E-14
 -1      1598 1.98989E+01 2.18752E-01-5.85738E-02-5.14955E-01 1.65316E-13 2.85619E-13
 -1      1599 2.13058E+01 3.89209E-01-6.70567E-02-6.08310E-01 1.72827E-13 1.01620E-13
 -1      1600 2.25564E+01-1.58816E-02 1.20321E-02-9.38160E-01-6.61911E-14-1.54113E-13
 -1      1601 2.13127E+01 8.50726E-02-1.69668E-02-8.61194E-01 7.93116E-15-1.10689E-13
 -1      1602 2.23398E+01 1.66384E-01-3.68722E-02-1.45151E+00 1.00022E-13 7.60503E-15
 -1      1603 2.44925E+01-8.12692E-02 6.19351E-02-7.46451E-01-5.41182E-14 5.09315E-15
 -1      1604 2.32874E+01-5.21405E-02 2.42094E-02-7.78626E-01-6.74894E-14-1.72098E-13
 -1      1605 2.37278E+01-1.02706E-01-4.58504E-03-1.52864E+00-1.82450E-14-3.29417E-13
 -1      1606 2.56586E+01-8.88469E-02 6.58696E-02-3.50604E-01 9.72365E-14 3.71231E-15
 -1      1607 2.49181E+01-1.17524E-01 3.94274E-02-4.35237E-01 6.43964E-14 1.04278E-13
 -1      1608 2.48089E+01-2.40298E-01 1.28359E-02-1.01071E+00-1.00718E-14-2.35131E-13
 -1      1609 2.59069E+01-6.38987E-02 4.41662E-02 2.17165E-02-1.51965E-13-5.25899E-14
 -1      1610 2.57205E+01-1.14338E-01 3.17423E-02-6.13104E-02-4.03549E-14-4.31599E-15
 -1      1611 2.52611E+01-2.32933E-01 1.63301E-02-3.12241E-01-2.48759E-14-9.92262E-15
 -1      1612 2.54465E+01-3.37728E-02 1.92284E-02 2.67965E-01 5.42561E-14 3.08781E-14
 -1      1613 2.56862E+01-7.93587E-02 1.61103E-02 2.10465E-01-2.80470E-14 5.08942E-14
 -1      1614 2.51006E+01-1.55460E-01 1.29169E-02 2.61754E-01-5.35023E-14-8.82168E-14
 -1      1615 2.45793E+01-1.09464E-02 2.35425E-03 3.86489E-01-5.70897E-14-9.79564E-14
 -1      1616 2.50606E+01-4.20173E-02 3.22480E-03 3.55756E-01-7.90210E-15-3.66374E-14
 -1      1617 2.45112E+01-7.43063E-02 8.27765E-03 6.08871E-01 5.15421E-14-9.89625E-14
 -1      1618 2.35559E+01 2.79552E-03-5.98434E-03 4.14545E-01 1.60470E-13-1.75339E-13
 -1      1619 2.41278E+01-1.42717E-02-3.50393E-03 4.03067E-01 9.65678E-14-4.64906E-14
 -1      1620 2.36979E+01-1.68117E-02 4.76114E-03 7.54957E-01 1.13019E-13-1.40166E-14
 -1      1621 2.25407E+01 1.01923E-02-8.94307E-03 3.89454E-01-6.46932E-14-1.11640E-13
 -1      1622 2.31063E+01 3.19985E-03-5.56846E-03 3.89732E-01-4.43530E-14-2.68147E-13
 -1      1623 2.28211E+01 1.61812E-02 2.40048E-03 7.65212E-01 2.13297E-14-6.39766E-14
 -1      1624 2.16300E+01 1.45683E-02-9.91805E-03 3.35129E-01-3.41990E-14 1.84089E-14
 -1      1625 2.21343E+01 1.40865E-02-5.40165E-03 3.42594E-01-1.39736E-14-2.92960E-14
 -1      1626 2.19864E+01 3.31172E-02 4.48298E-04 6.95641E-01-6.64000E-14-1.79861E-13
 -1      1627 2.08829E+01 1.86958E-02-1.11978E-02 2.61358E-01-2.66944E-14 1.80331E-13
 -1      1628 2.12925E+01 2.27737E-02-5.05480E-03 2.74752E-01-7.95848E-14 1.45498E-13
 -1      1629 2.12582E+01 4.31625E-02-2.04262E-03 5.78686E-01-8.02370E-14 3.05196E-13
 -1      1630 2.03476E+01 2.44916E-02-1.17527E-02 1.66507E-01 1.37114E-13-1.11941E-13
 -1      1631 2.06321E+01 3.30384E-02-5.25710E-03 1.88304E-01 1.87773E-13 1.65659E-13
 -1      1632 2.06773E+01 5.41932E-02-5.18907E-03 4.24866E-01 1.96806E-13 3.39953E-13
 -1      1633 2.00698E+01 3.03632E-02-1.22047E-04 5.56962E-02 7.85347E-14-3.05287E-13
 -1      1634 2.01935E+01 4.14990E-02-3.68640E-03 8.32050E-02 4.78007E-14-2.27921E-13
 -1      1635 2.02685E+01 6.66736E-02-7.05094E-03 2.33079E-01 2.26469E-13 2.58767E-13
 -1      1636 2.00062E+01 1.75393E-02 4.14002E-03 3.32882E-04-1.34201E-13-2.54458E-13
 -1      1637 2.00403E+01 2.70965E-01-6.11065E-03 1.37730E-01 2.79845E-13 3.61720E-13
 -1      1638 2.00464E+01 1.36437E-01 1.28065E-03 1.08543E-01-2.53931E-14 3.65815E-13
 -1      1639 2.00220E+01 7.15182E-01-3.30484E-03 2.32850E-01 3.32255E-13 4.24370E-14
 -1      1640 2.00337E+01 4.53987E-01-4.00298E-03 2.17260E-01 2.79048E-13 1.81972E-15
 -1      1641 2.00748E+01 4.20440E-01-6.99871E-03 3.45672E-01 2.85757E-13 3.28906E-13
 -1      1642 2.00016E+01 1.26871E+00-5.87134E-04 2.75784E-01 1.72560E-13 3.43190E-14
 -1      1643 2.00138E+01 9.46068E-01-2.27223E-03 2.71696E-01 2.55062E-13 1.20953E-13
 -1      1644 2.00329E+01 8.31799E-01-4.69598E-03 4.87020E-01-6.00821E-14 2.38015E-14
 -1      1645 1.99840E+01 1.83206E+00 9.40991E-04 2.66136E-01 2.61477E-13 9.95362E-14
 -1      1646 1.99945E+01 1.51281E+00-4.12511E-04 2.72257E-01 1.60347E-13 2.99247E-13
 -1      1647 1.99983E+01 1.30457E+00 7.78685E-04 5.28135E-01-1.86718E-13 2.15225E-14
 -1      1648 1.99712E+01 2.30464E+00 1.48831E-03 2.13824E-01-1.69725E-14-8.82237E-14
 -1      1649 1.99787E+01 2.04639E+00 5.15545E-04 2.27245E-01 2.58647E-13-2.54179E-13
 -1      1650 1.99699E+01 1.76021E+00 5.72838E-03 4.75419E-01-2.05439E-13-1.31559E-13
 -1      1651 1.99637E+01 2.63205E+00 1.55610E-03 1.30038E-01-4.32766E-13-2.61547E-13
 -1      1652 1.99680E+01 2.46514E+00 1.01292E-03 1.48608E-01-1.23179E-13-2.64240E-13
 -1      1653 1.99501E+01 2.13181E+00 9.18738E-03 3.49365E-01-2.03980E-13-4.26870E-13
 -1      1654 1.99626E+01 2.76237E+00 1.26623E-03 3.11562E-02-6.72992E-13-1.08896E-13
 -1      1655 1.99630E+01 2.71168E+00 1.05589E-03 5.12514E-02-4.73223E-13-5.91775E-14
 -1      1656 1.99400E+01 2.36850E+00 1.10246E-02 1.74866E-01-3.93482E-13-3.72729E-13
 -1      1657 1.99671E+01 2.68741E+00 7.69059E-04-6.63760E-02-5.26107E-13 1.20487E-13
 -1      1658 1.99640E+01 2.75356E+00 8.82409E-04-4.79368E-02-7.17486E-13 1.50731E-13
 -1      1659 1.99399E+01 2.43706E+00 1.09772E-02-1.61826E-02-1.98431E-13-1.20007E-13
 -1      1660 1.99758E+01 2.42974E+00 1.88756E-04-1.48378E-01-3.83775E-13 8.57491E-14
 -1      1661 1.99702E+01 2.59617E+00 5.96861E-04-1.34102E-01-6.16038E-13 1.71658E-13
 -1      1662 1.99485E+01 2.33602E+00 9.28145E-03-1.93592E-01-1.93315E-13 1.17595E-13
 -1      1663 1.99865E+01 2.03554E+00-3.31658E-04-2.05243E-01-3.55046E-13 2.01271E-15
 -1      1664 1.99798E+01 2.27345E+00 3.56966E-04-1.96568E-01-4.04817E-13 1.17675E-13
 -1      1665 1.99633E+01 2.08908E+00 6.45792E-03-3.33308E-01-3.08813E-13 9.45849E-14
 -1      1666 1.99975E+01 1.57192E+00-6.75402E-04-2.32516E-01-3.33438E-13 9.28143E-14
 -1      1667 1.99905E+01 1.84200E+00 1.69354E-04-2.29745E-01-1.98480E-13-1.17317E-13
 -1      1668 1.99812E+01 1.74110E+00 3.23749E-03-4.20394E-01-3.10816E-13 8.66950E-15
 -1      1669 2.00081E+01 1.08410E+00-1.10377E-03-2.30925E-01-4.80244E-13 1.01637E-14
 -1      1670 2.00012E+01 1.36011E+00-7.94795E-05-2.33608E-01-4.60238E-13 2.90966E-13
 -1      1671 1.99991E+01 1.33950E+00 8.50454E-06-4.50971E-01-1.31674E-13 6.00797E-14
 -1      1672 2.00177E+01 6.39567E-01-1.88002E-03-2.01858E-01-4.19200E-13 2.07327E-13
 -1      1673 2.00113E+01 8.82812E-01-6.88960E-04-2.09373E-01-4.78216E-13 1.92256E-13
 -1      1674 2.00168E+01 9.30494E-01-2.96100E-03-4.26350E-01-1.52464E-13 3.35823E-14
 -1      1675 2.00286E+01 2.97788E-01-2.08255E-04-1.47116E-01-4.89110E-13 3.20815E-14
 -1      1676 2.00195E+01 4.71378E-01-2.15573E-03-1.59382E-01-4.55238E-13 1.91605E-14
 -1      1677 2.00345E+01 5.63839E-01-5.14361E-03-3.49528E-01-1.81006E-13-8.53571E-15
 -1      1678 2.00491E+01 1.18236E-01 3.55737E-03-1.02937E-01-3.60811E-13-6.25598E-14
 -1      1679 2.00458E+01 2.04233E-01-1.72076E-03-1.31094E-01-3.62921E-13-2.53649E-14
 -1      1680 2.00741E+01 3.07479E-01-4.44124E-03-2.71651E-01-2.10206E-13-5.13391E-14
 -1      1681 2.01364E+01 1.42784E-01-5.49765E-04-2.02965E-01-1.96440E-13-2.04372E-15
 -1      1682-6.05523E-01-1.47739E+01-1.66126E+00-1.02740E+00 3.38618E-15 1.60927E-13
 -1      1683-5.80749E-01-1.66438E+01-1.79680E+00 2.28070E-01-6.98053E-15 2.38143E-14
 -1      1684 8.80056E-01-9.05143E+00-1.33879E+00-1.10188E-01 6.79123E-13 7.40852E-13
 -1      1685 3.40647E-01-1.39403E+01-1.81099E+00-4.93612E-01 1.88738E-14 4.78322E-13
 -1      1686 7.27601E+00-1.55520E+00-5.90719E-01 4.43807E+00 1.14508E-12 9.78995E-13
 -1      1687 4.15401E+00-7.12122E+00-1.32613E+00 1.63384E+00 8.26561E-13 6.83120E-13
 -1      1688 1.65758E+01 4.48728E+00 1.42872E-01 9.17676E+00 1.11555E-12 6.35825E-13
 -1      1689 1.05045E+01 8.39730E-01-7.42781E-01 5.53873E+00 1.41931E-12 8.30780E-13
 -1      1690 3.04152E+01 6.37646E+00 9.29042E-01 1.25099E+01 4.82281E-13 1.80744E-13
 -1      1691 2.16010E+01 5.52711E+00 2.62741E-02 1.01068E+01 8.96616E-13 6.01963E-13
 -1      1692 4.54597E+01 5.26348E+00 1.62651E+00 1.12682E+01 1.30396E-13-2.77667E-13
 -1      1693 3.58545E+01 6.71098E+00 8.67668E-01 1.22660E+01 3.10751E-13-2.02061E-14
 -1      1694 5.45484E+01 3.70493E+00 1.86698E+00 4.69596E+00 1.92013E-13-8.30724E-13
 -1      1695 4.91763E+01 5.17500E+00 1.54757E+00 9.24001E+00 5.63299E-14-4.28768E-13
 -1      1696 5.38422E+01 4.11518E+00 1.65212E+00-3.72902E+00 2.25042E-13-1.05838E-12
 -1      1697 5.49294E+01 3.95718E+00 1.79432E+00 2.13865E+00 2.40363E-13-8.27949E-13
 -1      1698 4.47105E+01 5.50953E+00 1.15738E+00-9.44546E+00 5.64243E-13-1.17462E-12
 -1      1699 5.16344E+01 4.03401E+00 1.63909E+00-5.74729E+00 3.18578E-13-1.03872E-12
 -1      1700 3.15838E+01 6.36197E+00 5.50501E-01-1.15438E+01 6.95777E-13-1.19305E-12
 -1      1701 4.09455E+01 5.35173E+00 1.28192E+00-1.14954E+01 6.67522E-13-1.19815E-12
 -1      1702 1.78926E+01 4.44433E+00-2.47179E-01-8.77082E+00 7.59059E-13-9.85656E-13
 -1      1703 2.62256E+01 5.97372E+00 6.49929E-01-1.17214E+01 6.82898E-13-1.22791E-12
 -1      1704 7.99063E+00-1.13561E+00-9.59519E-01-4.08037E+00 1.07914E-12-6.30607E-13
 -1      1705 1.31479E+01 3.13977E+00-1.13892E-01-7.65889E+00 8.85514E-13-7.78044E-13
 -1      1706 2.71713E+00-8.87636E+00-1.46868E+00-7.47070E-01 7.53286E-13-5.93137E-13
 -1      1707 4.94600E+00-3.35568E+00-8.14412E-01-2.95333E+00 9.77662E-13-7.20368E-13
 -1      1708-2.17283E-02-1.49879E+01-1.83078E+00 5.41911E-01 4.81393E-13-2.58862E-13
 -1      1709 2.19368E-01-1.07823E+01-1.45601E+00 7.11518E-01 6.93445E-13-4.74454E-13
 -1      1710-6.71861E-01-1.63550E+01-1.74494E+00-3.51908E-01 2.54109E-13-1.18516E-13
 -1      1711-7.10353E-01-1.54268E+01-1.68910E+00 1.05123E+00 4.44200E-13-1.62398E-13
 -1      1712-3.66109E-01-1.34089E+01-1.54848E+00-7.25220E-01-5.17697E-13-4.72386E-13
 -1      1713-4.31167E-01-1.62820E+01-1.80058E+00 3.15566E-01 7.72160E-14-2.76917E-13
 -1      1714 2.02182E+00-6.61181E+00-1.06834E+00 1.16627E+00-8.17790E-13-4.30350E-13
 -1      1715 1.02630E+00-1.18859E+01-1.61768E+00 1.70983E-01-6.50924E-13-3.38701E-13
 -1      1716 9.43800E+00 2.63638E-01-3.23209E-01 5.88364E+00-8.86846E-13-7.65721E-13
 -1      1717 5.76306E+00-4.77588E+00-1.03195E+00 2.85122E+00-9.46909E-13-5.34517E-13
 -1      1718 1.98859E+01 5.51569E+00 3.95855E-01 1.04409E+01-1.01186E-12-1.36691E-12
 -1      1719 1.29729E+01 2.63459E+00-4.45024E-01 6.93005E+00-9.78218E-13-1.09301E-12
 -1      1720 3.34051E+01 6.36867E+00 9.88395E-01 1.25711E+01-9.23372E-13-1.22524E-12
 -1      1721 2.46555E+01 6.63653E+00 2.73243E-01 1.12132E+01-1.04139E-12-1.38023E-12
 -1      1722 4.58127E+01 4.65470E+00 1.33617E+00 8.82742E+00-5.45512E-13-9.96980E-13
 -1      1723 3.78611E+01 6.20267E+00 8.30459E-01 1.08641E+01-8.06244E-13-1.20748E-12
 -1      1724 5.28495E+01 3.88709E+00 1.62686E+00 2.07087E+00-3.08614E-13-5.28494E-13
 -1      1725 4.87162E+01 4.87465E+00 1.29386E+00 7.00259E+00-4.96353E-13-8.30669E-13
 -1      1726 5.29045E+01 4.09091E+00 1.68047E+00-5.70879E+00-2.55324E-13 9.78662E-14
 -1      1727 5.49062E+01 3.42031E+00 1.77611E+00-1.71328E-01-1.65756E-13-2.84106E-13
 -1      1728 4.22284E+01 6.05337E+00 1.08768E+00-1.08064E+01-1.15477E-13 2.57017E-13
 -1      1729 4.99267E+01 4.38421E+00 1.67514E+00-7.64872E+00-9.70612E-14 2.98650E-13
 -1      1730 2.83039E+01 6.06905E+00 3.75245E-01-1.07669E+01-1.24900E-13 3.52163E-13
 -1      1731 3.75682E+01 5.51896E+00 1.10237E+00-1.13885E+01-1.87517E-13 3.36176E-13
 -1      1732 1.58567E+01 4.35541E+00-2.73072E-01-8.44080E+00-2.10498E-13 1.48881E-13
 -1      1733 2.28759E+01 6.01750E+00 4.79571E-01-1.12986E+01-1.19238E-13 3.84137E-13
 -1      1734 7.61925E+00-1.00458E+00-8.82578E-01-4.21032E+00 4.90719E-14-3.39728E-14
 -1      1735 1.19520E+01 2.94824E+00-1.44697E-01-7.37460E+00-8.52651E-14-2.68674E-14
 -1      1736 2.71457E+00-7.87322E+00-1.40548E+00-9.88462E-01 2.13829E-13 1.10578E-13
 -1      1737 4.60356E+00-2.88611E+00-8.05060E-01-2.99899E+00 8.88178E-15-3.37508E-14
 -1      1738 2.56178E-01-1.44164E+01-1.85520E+00 4.95798E-01-3.39728E-14-1.71974E-13
 -1      1739 5.87313E-01-9.69507E+00-1.41916E+00 3.80426E-01 8.68194E-14 8.97615E-14
 -1      1740 4.28119E+00-8.06099E+00-9.90786E-01-3.90596E+00 2.77556E-15 3.79956E-14
 -1      1741-5.58378E-01-1.68167E+01-1.81071E+00-4.58819E-01-6.38933E-14-6.84452E-14
 -1      1742-6.13299E-01-1.52543E+01-1.71898E+00 7.71549E-01 9.94205E-14-7.89091E-14
 -1      1743 2.37740E+01 3.85741E-01 1.72560E-01 7.34553E+00 7.83706E-13-4.06342E-14
 -1      1744 1.40910E+01-4.05143E+00-4.50324E-01 6.20150E+00 5.48783E-13 4.06564E-13
 -1      1745 2.00487E+01 4.94114E-02-3.93656E-03 5.37044E-02-2.15052E-13 6.29715E-14
 -1      1746 2.01147E+01 1.64554E-01-2.35481E-03 1.85981E-01 2.36384E-13 4.52254E-13
 -1      1747 2.88176E-01-1.05375E+01-1.23273E+00 2.01158E+00 1.84186E-13 5.63549E-13
 -1      1748 5.94959E+00-7.75977E+00-8.52335E-01 4.55242E+00 1.59317E-13 7.72897E-13
 -1      1749-1.29911E+00-1.12630E+01-1.25819E+00-1.23393E-01 7.34274E-14 3.89688E-14
 -1      1750 3.44900E+01 3.74576E+00 8.36909E-01 7.10507E+00 4.91024E-13-2.35256E-13
 -1      1751 4.33787E+01 6.14207E+00 1.39367E+00 4.95550E+00 2.62790E-13-5.00044E-13
 -1      1752 4.68891E+01 7.67846E+00 1.56555E+00 1.43485E+00 2.24709E-13-8.40772E-13
 -1      1753 4.50811E+01 7.54199E+00 1.38263E+00-1.40898E+00 3.10973E-13-6.65190E-13
 -1      1754 4.03234E+01 5.36215E+00 1.12535E+00-4.57050E+00 5.41983E-13-8.96838E-13
 -1      1755 3.14915E+01 2.71555E+00 6.50865E-01-7.02783E+00 4.40703E-13-9.37250E-13
 -1      1756 2.06945E+01-7.35437E-01-2.29426E-02-6.99704E+00 5.52669E-13-6.31828E-13
 -1      1757 1.12937E+01-4.96160E+00-5.99900E-01-5.60803E+00 5.76095E-13-4.45866E-13
 -1      1758 4.02581E+00-8.53689E+00-9.81925E-01-3.75825E+00 5.07261E-13-6.42042E-13
 -1      1759-4.19884E-01-1.07799E+01-1.24585E+00-1.37526E+00 4.27880E-13-3.94740E-13
 -1      1760-1.17321E+00-1.10199E+01-1.23099E+00 7.07367E-01 2.97401E-14-4.39093E-13
 -1      1761 1.35676E+00-9.61474E+00-1.09052E+00 2.96545E+00-1.12854E-13-4.90358E-13
 -1      1762 7.98351E+00-6.31318E+00-5.83433E-01 5.51887E+00-3.11529E-13-4.48364E-13
 -1      1763 1.64461E+01-2.87381E+00-2.84247E-01 6.76520E+00-5.19584E-13-7.51066E-13
 -1      1764 2.59630E+01 1.74525E+00 3.47179E-01 7.59205E+00-7.51565E-13-1.05649E-12
 -1      1765 3.56197E+01 4.61937E+00 8.95366E-01 6.24735E+00-8.15764E-13-9.09384E-13
 -1      1766 4.16797E+01 6.77106E+00 1.12166E+00 2.95318E+00-7.24587E-13-8.23674E-13
 -1      1767 4.59345E+01 7.63779E+00 1.42341E+00 1.55093E-01-5.01932E-13-6.29607E-13
 -1      1768 4.50491E+01 7.02153E+00 1.42166E+00-3.04117E+00-1.95177E-13-1.53155E-13
 -1      1769 3.78782E+01 4.79410E+00 8.59930E-01-5.00922E+00-2.54970E-14 1.62093E-14
 -1      1770 2.91173E+01 2.29341E+00 5.60736E-01-7.09941E+00-6.38933E-14 3.50719E-13
 -1      1771 1.90664E+01-6.73616E-01-2.00864E-02-7.26638E+00 2.38698E-14 3.55271E-14
 -1      1772 1.08016E+01-4.46580E+00-5.25501E-01-5.85445E+00 2.37921E-13-4.34652E-14
 -1      1773 2.28560E+01 1.98490E+00-2.35576E-02-2.72313E+00-1.74593E-13 8.34999E-13
 -1      1774 1.08862E-01-1.09393E+01-1.28278E+00-1.87774E+00 3.94684E-14-1.67033E-13
 -1      1775 1.98244E+01 3.71345E+00-3.54585E-02-2.15425E+00-2.39276E-13-1.65597E-13
 -1      1776 2.00565E+01 3.56248E+00-4.02595E-02-2.44649E+00-2.75842E-13-7.99916E-14
 -1      1777 2.03613E+01 3.18145E+00-4.57767E-02-2.58624E+00-2.80678E-13 2.36824E-14
 -1      1778 2.05807E+01 2.80969E+00-1.42553E-01-2.85445E+00-2.89595E-13 1.62842E-13
 -1      1779 2.04222E+01 2.69274E+00-4.24642E-03-2.22579E+00-2.94143E-13-1.92277E-14
 -1      1780 1.93567E+01 4.18865E+00-2.00462E-02-1.27159E+00-1.44395E-13-3.38566E-13
 -1      1781 1.94301E+01 4.14902E+00-1.68960E-02-1.49610E+00-1.71073E-13-3.11404E-13
 -1      1782 1.92608E+01 4.29459E+00-1.67502E-02-8.60409E-01-1.00519E-13-3.77117E-13
 -1      1783 1.93032E+01 4.27060E+00-1.42475E-02-1.07130E+00-1.21329E-13-3.61914E-13
 -1      1784 1.95290E+01 3.78292E+00-8.95489E-03-1.12045E+00-1.47611E-13-3.34191E-13
 -1      1785 1.92099E+01 4.35501E+00-1.47975E-02-4.67259E-01-4.57226E-14-3.76543E-13
 -1      1786 1.92315E+01 4.34213E+00-1.33127E-02-6.67719E-01-6.96777E-14-3.80961E-13
 -1      1787 1.94324E+01 3.90310E+00-9.15447E-03-7.33887E-01-8.50084E-14-3.61731E-13
 -1      1788 1.91907E+01 4.38062E+00-1.36760E-02-8.37269E-02 1.17067E-14-3.89190E-13
 -1      1789 1.91971E+01 4.37669E+00-1.32239E-02-2.79351E-01-1.62012E-14-3.81639E-13
 -1      1790 1.93827E+01 3.96751E+00-9.15003E-03-3.58664E-01-3.48491E-14-3.69330E-13
 -1      1791 1.91987E+01 4.37530E+00-1.31808E-02 2.98414E-01 4.85694E-14-4.00149E-13
 -1      1792 1.91912E+01 4.37978E+00-1.37612E-02 1.02626E-01 2.54274E-14-3.94997E-13
 -1      1793 1.93681E+01 3.98691E+00-9.14410E-03 1.05614E-02 1.85518E-14-3.88195E-13
 -1      1794 1.92356E+01 4.33808E+00-1.33403E-02 6.87521E-01 8.65727E-14-4.00995E-13
 -1      1795 1.92126E+01 4.35181E+00-1.49238E-02 4.86548E-01 6.71147E-14-4.05027E-13
 -1      1796 1.93854E+01 3.96419E+00-9.18839E-03 3.79982E-01 6.48863E-14-3.90762E-13
 -1      1797 1.93084E+01 4.26464E+00-1.44212E-02 1.08550E+00 1.35709E-13-3.67111E-13
 -1      1798 1.92654E+01 4.28915E+00-1.69764E-02 8.77390E-01 1.08490E-13-3.87912E-13
 -1      1799 1.94377E+01 3.89668E+00-9.19542E-03 7.52498E-01 1.02763E-13-3.80496E-13
 -1      1800 1.94390E+01 4.13740E+00-1.74140E-02 1.51576E+00 2.03241E-13-3.11626E-13
 -1      1801 1.93630E+01 4.18003E+00-2.05015E-02 1.28612E+00 1.63217E-13-3.37235E-13
 -1      1802 1.95365E+01 3.77277E+00-9.24146E-03 1.13656E+00 1.65803E-13-3.33686E-13
 -1      1803 1.96670E+01 3.92086E+00-2.52047E-02 1.98097E+00 2.53026E-13-2.39975E-13
 -1      1804 1.95348E+01 3.99767E+00-2.68975E-02 1.72359E+00 2.18692E-13-2.84078E-13
 -1      1805 1.97088E+01 3.56571E+00-8.70214E-03 1.53651E+00 2.28483E-13-2.82503E-13
 -1      1806 2.00743E+01 3.52259E+00-4.51961E-02 2.47340E+00 2.94752E-13-9.56735E-14
 -1      1807 1.98349E+01 3.68307E+00-3.97147E-02 2.18432E+00 2.71992E-13-1.80991E-13
 -1      1808 2.00039E+01 3.22265E+00-5.27501E-03 1.93596E+00 2.80408E-13-1.90735E-13
 -1      1809 2.09184E+01 2.68174E+00-5.76574E-02 2.85893E+00 2.93524E-13 1.69233E-13
 -1      1810 2.04116E+01 3.09684E+00-5.04210E-02 2.61725E+00 2.88431E-13 6.61277E-15
 -1      1811 2.05157E+01 2.60981E+00 3.18509E-03 2.24590E+00 3.08970E-13-3.24844E-14
 -1      1812 2.17281E+01 1.21301E+00-1.22095E-01 2.33076E+00 2.50591E-13 5.18544E-13
 -1      1813 2.12719E+01 2.26303E+00 1.21501E-04 2.74150E+00 2.75334E-13 2.91406E-13
 -1      1814 2.09348E+01 1.68500E+00-2.29714E-02 2.14139E+00 2.95349E-13 1.74208E-13
 -1      1815 2.09491E+01 7.78686E-01-6.24654E-02 1.52511E+00 2.57502E-13 4.39834E-13
 -1      1816 2.17941E+01 2.45823E+00 9.09220E-02-3.04913E+00-2.38243E-13 4.03580E-13
 -1      1817 2.00976E+01 2.97911E-01-8.92534E-03 6.57999E-01 1.98064E-13 3.28421E-13
 -1      1818 2.06501E+01 4.40395E-01-1.24699E-02 1.03500E+00 2.12198E-13 4.01183E-13
 -1      1819 2.07417E+01 8.45119E-01 2.25746E-03 1.41626E+00 2.53207E-13 2.47361E-13
 -1      1820 1.24754E+00-7.69600E+00-4.42929E-01-2.77950E+00 2.18214E-13 3.10307E-14
 -1      1821 2.96977E+00-7.39784E+00-4.36987E-01-3.87385E+00 3.33067E-16-7.89646E-14
 -1      1822 2.15046E+01 1.74233E+00 7.94373E-02-2.33821E+00-2.63296E-13 2.95375E-13
 -1      1823 2.05176E+01 5.00553E-01 3.24029E-02-9.22790E-01-2.11144E-13 2.52630E-13
 -1      1824 2.00855E+01 3.52039E-01 7.56274E-03-6.30952E-01-1.88148E-13 1.92789E-13
 -1      1825 1.98908E+01 2.57355E-01 2.74261E-02-3.92430E-01-1.61356E-13 1.82790E-13
 -1      1826 1.96995E+01 1.77945E-01 1.04208E-02-2.54644E-01-1.27520E-13 1.31937E-13
 -1      1827 2.01960E+01 4.83381E-01-5.96190E-03-7.24158E-01-2.00510E-13 7.76696E-14
 -1      1828 1.95773E+01 1.32569E-01 1.66581E-02-1.21270E-01-8.08199E-14 1.28531E-13
 -1      1829 1.94987E+01 9.29605E-02 6.96056E-03-5.05467E-02-5.34286E-14 1.19846E-13
 -1      1830 1.98698E+01 2.43695E-01-5.76533E-03-2.97161E-01-1.30507E-13 4.39388E-14
 -1      1831 1.94336E+01 6.83465E-02 8.68341E-03 2.29582E-02-4.41812E-14 1.07915E-13
 -1      1832 1.94187E+01 4.67182E-02 4.10971E-03 5.91244E-02-5.26979E-14 1.05209E-13
 -1      1833 1.96866E+01 1.25095E-01-4.66808E-03-6.05728E-02-6.79621E-14 3.63765E-14
 -1      1834 1.93925E+01 3.24430E-02 4.24923E-03 9.79092E-02-9.06520E-14 9.86676E-14
 -1      1835 1.94119E+01 2.00914E-02 2.45247E-03 1.14749E-01-5.92960E-14 5.46666E-14
 -1      1836 1.95998E+01 6.09881E-02-3.48412E-03 6.91206E-02-7.64380E-14 1.58903E-14
 -1      1837 1.94103E+01 1.15644E-02 1.87943E-03 1.32881E-01-4.59040E-14 5.29399E-14
 -1      1838 1.94472E+01 4.54059E-03 1.49441E-03 1.38514E-01-5.23931E-14 4.68310E-14
 -1      1839 1.95755E+01 2.43611E-02-2.36661E-03 1.35862E-01-6.21640E-14-1.00369E-14
 -1      1840 1.94600E+01-4.76310E-04 5.93256E-04 1.44362E-01-6.14440E-14 8.19705E-14
 -1      1841 1.95045E+01-4.21589E-03 9.15602E-04 1.43580E-01-4.45245E-14 9.00705E-14
 -1      1842 1.95894E+01 3.28127E-03-1.48314E-03 1.64963E-01-4.77377E-14 1.16226E-16
 -1      1843 1.95252E+01-6.94734E-03-1.08262E-04 1.42393E-01-5.24415E-14 8.72716E-14
 -1      1844 1.95715E+01-8.55657E-03 5.67973E-04 1.38239E-01-2.32016E-14 1.00848E-13
 -1      1845 1.96252E+01-8.28600E-03-8.61354E-04 1.71836E-01-4.24867E-14 9.10068E-15
 -1      1846 1.95961E+01-9.73416E-03-4.68442E-04 1.33473E-01-6.24246E-14 7.78486E-14
 -1      1847 1.96411E+01-9.90830E-03 3.81400E-04 1.27976E-01-6.30834E-14 1.71534E-14
 -1      1848 1.96722E+01-1.36852E-02-4.60485E-04 1.66379E-01-8.36271E-14-4.75558E-14
 -1      1849 1.96671E+01-9.99491E-03-6.15641E-04 1.21993E-01-5.27260E-14-1.07318E-14
 -1      1850 1.97095E+01-9.16779E-03 3.17349E-04 1.16556E-01-5.07032E-14-5.93988E-14
 -1      1851 1.97241E+01-1.49130E-02-2.28343E-04 1.55226E-01-8.94979E-14-4.67324E-14
 -1      1852 1.97358E+01-8.46337E-03-6.25284E-04 1.11020E-01-4.58965E-14-4.96407E-14
 -1      1853 1.97756E+01-6.90565E-03 3.51992E-04 1.06647E-01-2.18562E-14-7.96104E-15
 -1      1854 1.97773E+01-1.32151E-02-1.21251E-04 1.42977E-01-4.80454E-14-5.39835E-14
 -1      1855 1.98019E+01-5.60338E-03-5.45293E-04 1.02775E-01 1.23811E-14-9.71871E-15
 -1      1856 1.98399E+01-3.47787E-03 4.69970E-04 1.00223E-01 2.54127E-14-2.22421E-14
 -1      1857 1.98307E+01-9.37675E-03-1.06897E-04 1.32928E-01-2.01422E-14 1.01644E-14
 -1      1858 1.98667E+01-1.69929E-03-4.07428E-04 9.89470E-02 2.15178E-14-5.48632E-14
 -1      1859 1.99045E+01 9.02027E-04 6.60969E-04 9.88179E-02-2.83221E-15-1.37673E-14
 -1      1860 1.98843E+01-3.88245E-03-1.62229E-04 1.27535E-01 9.70058E-15 6.19907E-15
 -1      1861 1.99327E+01 3.08036E-03-2.33368E-04 1.00895E-01-3.85447E-14-2.10467E-14
 -1      1862 1.99722E+01 6.10589E-03 9.16749E-04 1.03697E-01-4.11007E-15 1.32221E-14
 -1      1863 1.99398E+01 2.97800E-03-2.70787E-04 1.28726E-01-1.37380E-14-9.46454E-15
 -1      1864 2.00032E+01 8.62737E-03-3.86673E-05 1.09766E-01-1.06574E-14 2.99844E-14
 -1      1865 2.00470E+01 1.20351E-02 1.22776E-03 1.15942E-01-2.33010E-14 2.21815E-14
 -1      1866 1.99993E+01 1.10232E-02-4.20321E-04 1.38084E-01 6.53750E-15-1.16745E-14
 -1      1867 2.00823E+01 1.48354E-02 1.64265E-04 1.26537E-01-3.22967E-14-4.22965E-15
 -1      1868 2.01332E+01 1.85566E-02 1.57892E-03 1.36454E-01-6.60767E-15-1.39192E-14
 -1      1869 2.00661E+01 2.00933E-02-6.00685E-04 1.56936E-01-3.46763E-14 3.34045E-14
 -1      1870 2.01748E+01 2.15289E-02 3.63674E-04 1.51972E-01-5.86477E-15 1.90425E-15
 -1      1871 2.02357E+01 2.54209E-02 1.94401E-03 1.65864E-01-3.56404E-14 7.28045E-15
 -1      1872 2.01437E+01 2.99467E-02-8.01938E-04 1.86332E-01-2.31088E-14-2.36288E-16
 -1      1873 2.02857E+01 2.83709E-02 5.46316E-04 1.86459E-01-8.61373E-14-4.30859E-14
 -1      1874 2.03596E+01 3.21537E-02 2.27850E-03 2.04313E-01-1.01952E-13-6.96551E-14
 -1      1875 2.02360E+01 4.01286E-02-1.01260E-03 2.26888E-01-7.44567E-14 1.63913E-14
 -1      1876 2.04200E+01 3.47386E-02 6.95753E-04 2.29716E-01-7.55431E-14-6.45654E-15
 -1      1877 2.05095E+01 3.79107E-02 2.51064E-03 2.51080E-01-1.68271E-14-4.87520E-14
 -1      1878 2.03472E+01 4.97939E-02-1.21807E-03 2.78481E-01-9.03984E-14-1.51299E-15
 -1      1879 2.05822E+01 3.95617E-02 7.91439E-04 2.80305E-01-7.90058E-15-9.59127E-14
 -1      1880 2.06893E+01 4.12941E-02 2.53202E-03 3.03993E-01-1.72228E-14-1.09739E-13
 -1      1881 2.04812E+01 5.74761E-02-1.39933E-03 3.39719E-01-5.70313E-14 1.55946E-14
 -1      1882 2.07756E+01 4.11247E-02 8.09245E-04 3.34922E-01-2.53648E-14-1.11302E-13
 -1      1883 2.09006E+01 4.01466E-02 2.19081E-03 3.58605E-01 1.14889E-14-1.13565E-13
 -1      1884 2.06412E+01 6.08034E-02-1.53175E-03 4.07177E-01-4.31991E-14-3.01664E-14
 -1      1885 2.10012E+01 3.68689E-02 7.24142E-04 3.87438E-01 3.38915E-14-1.02309E-13
 -1      1886 2.11417E+01 3.13857E-02 1.29461E-03 4.07144E-01 1.28363E-13-6.82691E-14
 -1      1887 2.08293E+01 5.62040E-02-1.58365E-03 4.74337E-01 4.56937E-14-3.16605E-14
 -1      1888 2.12561E+01 2.32895E-02 5.15111E-04 4.27771E-01 1.63333E-13-1.07792E-13
 -1      1889 2.14058E+01 1.10370E-02-3.63496E-04 4.37369E-01 1.17502E-13-4.78552E-14
 -1      1890 2.10452E+01 3.87296E-02-1.51311E-03 5.30313E-01 1.50120E-13-1.13060E-13
 -1      1891 2.15314E+01-3.84291E-03 1.70335E-04 4.40846E-01 4.51068E-14-1.29501E-14
 -1      1892 2.16786E+01-2.52089E-02-2.93558E-03 4.31784E-01-6.78799E-14 3.21800E-14
 -1      1893 2.12853E+01 2.29754E-03-1.25983E-03 5.58597E-01 8.65025E-14-9.99170E-14
 -1      1894 2.18102E+01-4.85190E-02-3.14861E-04 4.06309E-01-1.31515E-13 3.38540E-14
 -1      1895 2.19366E+01-8.03773E-02-6.38231E-03 3.68124E-01-9.25880E-14-2.50420E-14
 -1      1896 2.15415E+01-5.90792E-02-7.29301E-04 5.36431E-01-3.51623E-14 1.11044E-14
 -1      1897 2.20648E+01-1.12160E-01-9.53535E-04 3.00326E-01-1.16826E-13 1.24268E-13
 -1      1898 2.21455E+01-1.52894E-01-1.02611E-02 2.22784E-01-7.68474E-14 8.14691E-14
 -1      1899 2.17983E+01-1.48223E-01 2.28890E-04 4.36100E-01-6.80124E-14 1.16717E-13
 -1      1900 2.22553E+01-1.89396E-01-1.79669E-03 1.01511E-01-1.72770E-14 7.30555E-14
 -1      1901 2.22617E+01-2.31404E-01-1.34801E-02-2.06125E-02 8.09600E-14 5.10893E-14
 -1      1902 2.20316E+01-2.59091E-01 1.82835E-03 2.30246E-01-1.60505E-14 1.10710E-13
 -1      1903 2.23311E+01-2.62355E-01-2.92239E-03-1.96762E-01 5.21892E-14-2.67953E-14
 -1      1904 2.22377E+01-2.89440E-01-1.42634E-02-3.55889E-01-8.62903E-14-8.08119E-14
 -1      1905 2.22051E+01-3.68866E-01 4.27727E-03-9.61355E-02-5.11084E-14 5.40818E-14
 -1      1906 2.22390E+01-2.96879E-01-4.43034E-03-5.67439E-01-1.86063E-13-6.38161E-16
 -1      1907 2.20348E+01-2.85537E-01-1.06984E-02-7.34570E-01-1.31469E-13 2.52316E-15
 -1      1908 2.22714E+01-4.31815E-01 7.40799E-03-5.25487E-01-4.50217E-14-7.95601E-14
 -1      1909 2.19429E+01-2.48105E-01-5.92410E-03-9.31029E-01-7.57844E-14 3.51759E-14
 -1      1910 2.16453E+01-1.78152E-01-2.20370E-03-1.05286E+00-4.60591E-14 5.06904E-14
 -1      1911 2.21801E+01-3.85431E-01 9.93461E-03-9.83549E-01-9.78792E-14 2.37508E-13
 -1      1912 2.14574E+01-8.54271E-02-6.18612E-03-1.15565E+00-4.09824E-14 2.79516E-14
 -1      1913 2.11211E+01 4.00751E-02 8.78104E-03-1.16832E+00 4.69242E-14 4.32640E-15
 -1      1914 2.19039E+01-1.80940E-01 9.25712E-03-1.32805E+00-4.69919E-14 3.52337E-13
 -1      1915 2.08805E+01 1.69059E-01-3.09454E-03-1.10110E+00 3.58468E-14-6.56298E-14
 -1      1916 2.05892E+01 3.08289E-01 1.67634E-02-9.64214E-01 9.74620E-14-1.19939E-13
 -1      1917 2.14809E+01 1.64599E-01 2.86586E-03-1.38183E+00-1.81018E-14 2.15786E-13
 -1      1918 2.03876E+01 4.19658E-01 3.95757E-03-7.05871E-01 1.49599E-13-2.02848E-13
 -1      1919 2.02272E+01 5.04096E-01 1.68407E-02-4.41112E-01 1.51632E-14-1.28842E-13
 -1      1920 2.10423E+01 5.36229E-01-7.69880E-03-1.02622E+00 6.33855E-14-6.69508E-14
 -1      1921 2.01620E+01 5.36752E-01 1.30573E-02-6.59555E-02-9.69728E-14-5.23435E-14
 -1      1922 2.01817E+01 5.16976E-01 9.78930E-03 2.36040E-01-6.17683E-14 4.02005E-14
 -1      1923 2.07762E+01 7.55893E-01-1.59809E-02-3.13981E-01 2.18488E-14 9.36378E-14
 -1      1924 2.02837E+01 4.50965E-01 1.81451E-02 5.83789E-01-3.55931E-14 9.65608E-14
 -1      1925 2.04719E+01 3.38532E-01 7.96416E-04 8.10024E-01-4.60205E-14 6.48717E-14
 -1      1926 2.08130E+01 7.05221E-01-1.36337E-02 5.02655E-01 1.83334E-14 3.87750E-13
 -1      1927 2.06803E+01 2.12258E-01 1.49083E-02 1.00276E+00 8.64760E-14 1.09554E-13
 -1      1928 2.09698E+01 6.87054E-02-5.32653E-03 1.08336E+00 1.60115E-13 3.34129E-13
 -1      1929 2.11214E+01 4.09448E-01-3.79079E-03 1.10688E+00 1.12967E-13 3.19590E-13
 -1      1930 2.11806E+01-5.39175E-02 5.04303E-03 1.08005E+00 2.88820E-14 2.28472E-13
 -1      1931 2.14809E+01-1.64780E-01-7.19025E-03 1.01765E+00 1.05337E-14 3.98102E-14
 -1      1932 2.15357E+01 2.34192E-02 5.92154E-03 1.30744E+00 6.22198E-14 3.24497E-13
 -1      1933 2.16153E+01-2.39820E-01-5.70242E-03 8.64970E-01 1.10567E-14 3.32217E-14
 -1      1934 2.18494E+01-2.89441E-01-6.35328E-03 7.13395E-01-1.41081E-13 6.24080E-14
 -1      1935 2.18751E+01-2.86284E-01 1.01972E-02 1.11945E+00-2.09494E-14 7.23139E-14
 -1      1936 2.18816E+01-3.09652E-01-1.25950E-02 4.94917E-01-3.60095E-13 9.20032E-14
 -1      1937 2.20074E+01-3.05334E-01-4.68930E-03 3.18128E-01-3.94158E-13 4.31131E-14
 -1      1938 2.20388E+01-4.36535E-01 9.43229E-03 6.97397E-01-2.47992E-13 7.38589E-14
 -1      1939 2.19509E+01-2.86910E-01-1.44169E-02 1.05656E-01-2.08928E-13 4.13292E-14
 -1      1940 2.19623E+01-2.51455E-01-3.09965E-03-4.98514E-02 9.48954E-14 8.03827E-14
 -1      1941 2.20161E+01-4.38461E-01 6.48000E-03 2.16448E-01-2.48138E-13 1.04324E-13
 -1      1942 2.18452E+01-2.15096E-01-1.24324E-02-2.15425E-01 2.51749E-13-1.13608E-13
 -1      1943 2.17611E+01-1.69481E-01-1.66436E-03-3.27091E-01 2.42885E-13-1.32793E-13
 -1      1944 2.18469E+01-3.49718E-01 3.44452E-03-2.00744E-01 4.37224E-14 1.46564E-13
 -1      1945 2.16108E+01-1.30073E-01-8.61536E-03-4.32318E-01 2.09173E-13 5.20404E-14
 -1      1946 2.14622E+01-8.65989E-02-2.34325E-04-4.95552E-01 3.43110E-13 2.04059E-13
 -1      1947 2.15842E+01-2.27249E-01 1.14969E-03-4.97059E-01 2.99874E-13 4.61135E-14
 -1      1948 2.13000E+01-5.10953E-02-4.57001E-03-5.42939E-01 3.26074E-13 6.00563E-14
 -1      1949 2.11197E+01-1.38435E-02 1.30006E-03-5.62004E-01 1.60946E-13-8.36289E-15
 -1      1950 2.12754E+01-1.06463E-01-4.06201E-04-6.62455E-01 2.13289E-13 2.13189E-13
 -1      1951 2.09606E+01 1.65701E-02-1.25353E-03-5.59695E-01-1.67937E-15-1.01388E-13
 -1      1952 2.07784E+01 4.82804E-02 2.77828E-03-5.40768E-01 1.67351E-13-1.21763E-13
 -1      1953 2.09568E+01-6.44593E-04-1.43077E-03-7.09691E-01 7.80453E-14 2.14058E-14
 -1      1954 2.06324E+01 7.49746E-02 8.62732E-04-4.97268E-01 3.22834E-13-3.16406E-13
 -1      1955 2.04728E+01 1.02803E-01 3.87055E-03-4.45509E-01 2.34645E-13-8.54794E-14
 -1      1956 2.06550E+01 9.02074E-02-1.91000E-03-6.57107E-01 4.70017E-14 2.90167E-14
 -1      1957 2.03594E+01 1.19955E-01 1.83027E-03-3.71541E-01 1.91025E-13-7.55247E-14
 -1      1958 2.02383E+01 1.40705E-01 5.00076E-03-2.96343E-01-4.85796E-14-1.65342E-14
 -1      1959 2.02025E+01 2.00078E-01-1.68861E-03-3.50232E-01-1.09359E-14-6.56162E-14
 -1      1960 2.04002E+01 1.64375E-01-1.95100E-03-5.26848E-01 2.34364E-13-1.81062E-13
 -1      1961 1.96142E+01 1.41991E-01 7.87640E-03 2.60440E-01 1.33121E-13 2.45397E-13
 -1      1962 1.98867E+01 2.04053E-01 1.64338E-02 4.33395E-01 1.69743E-13 3.04999E-13
 -1      1963 2.00989E+01 3.50510E-01-1.52234E-03 6.56176E-01 1.94671E-13 1.87371E-13
 -1      1964 1.93711E+01 7.18761E-02 6.94155E-03 5.75203E-02 1.11932E-13 1.74286E-13
 -1      1965 1.94866E+01 1.01756E-01 1.41977E-02 1.45993E-01 1.03874E-13 2.11995E-13
 -1      1966 1.97056E+01 1.65125E-01-1.94427E-03 2.57492E-01 1.43197E-13 1.40179E-13
 -1      1967 1.92800E+01 3.61470E-02 4.42682E-03-4.79280E-02 8.77918E-14 1.02998E-13
 -1      1968 1.93106E+01 5.19393E-02 8.34027E-03-7.50933E-04 1.00159E-13 1.36821E-13
 -1      1969 1.95048E+01 8.06522E-02-2.82566E-03 4.55286E-02 1.29619E-13 6.60140E-14
 -1      1970 1.92777E+01 1.63013E-02 2.86359E-03-1.00537E-01 1.65660E-14 5.22811E-14
 -1      1971 1.92629E+01 2.51200E-02 4.36101E-03-7.58899E-02 6.17768E-14 8.90152E-14
 -1      1972 1.94253E+01 3.75298E-02-2.85092E-03-6.64524E-02 7.94265E-14 1.47039E-15
 -1      1973 1.93246E+01 4.82100E-03 2.00033E-03-1.22975E-01 5.68406E-14-2.42365E-14
 -1      1974 1.92865E+01 9.78811E-03 2.16719E-03-1.11425E-01 1.10376E-14-1.90017E-15
 -1      1975 1.94185E+01 1.38706E-02-2.32467E-03-1.22314E-01 5.42917E-14-6.55799E-14
 -1      1976 1.93964E+01-1.73457E-03 1.47305E-03-1.27885E-01 6.37336E-14-1.02211E-14
 -1      1977 1.93479E+01 9.13817E-04 9.84411E-04-1.24111E-01 6.90292E-14 1.19026E-14
 -1      1978 1.94534E+01 5.49808E-04-1.71243E-03-1.45534E-01 6.68068E-14-5.68630E-14
 -1      1979 1.94783E+01-5.16081E-03 1.11377E-03-1.22980E-01 5.43047E-14-2.41577E-14
 -1      1980 1.94268E+01-3.97758E-03 3.32738E-04-1.23693E-01 4.11917E-14-1.07115E-14
 -1      1981 1.95100E+01-6.65793E-03-1.20396E-03-1.49764E-01 7.07429E-14-2.12724E-14
 -1      1982 1.95616E+01-6.49750E-03 8.61107E-04-1.13255E-01 4.11199E-15-3.60218E-15
 -1      1983 1.95112E+01-6.26483E-03-2.09699E-05-1.16290E-01 2.94941E-14-2.11875E-14
 -1      1984 1.95762E+01-9.98548E-03-8.31621E-04-1.43536E-01 4.60444E-14-3.17248E-14
 -1      1985 1.96419E+01-6.38256E-03 6.91559E-04-1.02091E-01 5.79119E-14 3.89120E-15
 -1      1986 1.95947E+01-6.77654E-03-1.89603E-04-1.05959E-01 6.05549E-14 2.32037E-14
 -1      1987 1.96450E+01-1.07254E-02-5.78095E-04-1.32473E-01 5.81947E-14-3.39966E-14
 -1      1988 1.97177E+01-5.21128E-03 5.94127E-04-9.18738E-02 4.94781E-14 7.53371E-16
 -1      1989 1.96741E+01-6.02652E-03-2.33784E-04-9.55006E-02 5.14393E-14-1.17751E-14
 -1      1990 1.97127E+01-9.66287E-03-4.19644E-04-1.20437E-01 5.48816E-14-6.42330E-14
 -1      1991 1.97895E+01-3.21590E-03 5.63474E-04-8.43761E-02 1.01020E-13-1.03396E-13
 -1      1992 1.97489E+01-4.32690E-03-1.89363E-04-8.69432E-02 7.06255E-14-3.68328E-14
 -1      1993 1.97782E+01-7.27201E-03-3.37138E-04-1.10205E-01 8.33447E-14-8.89221E-14
 -1      1994 1.98594E+01-5.09250E-04 5.98308E-04-8.10268E-02 5.33265E-14-1.11171E-13
 -1      1995 1.98205E+01-1.84772E-03-7.81602E-05-8.18560E-02 5.03287E-14-1.12026E-13
 -1      1996 1.98422E+01-3.81514E-03-3.17238E-04-1.03898E-01 8.99513E-14-1.22387E-13
 -1      1997 1.99311E+01 2.88883E-03 7.00931E-04-8.31072E-02 3.12401E-14-8.20072E-14
 -1      1998 1.98917E+01 1.34859E-03 8.71573E-05-8.15732E-02 5.82461E-14-9.44686E-14
 -1      1999 1.99068E+01 6.02291E-04-3.51455E-04-1.03282E-01 4.88454E-14-1.43054E-13
 -1      2000 2.00090E+01 7.03349E-03 8.76872E-04-9.19053E-02 2.68516E-14-1.06571E-13
 -1      2001 1.99665E+01 5.28512E-03 3.00246E-04-8.73656E-02 2.34597E-14-9.87685E-14
 -1      2002 1.99753E+01 5.99765E-03-4.35138E-04-1.09999E-01 4.44586E-14-1.09251E-13
 -1      2003 2.00991E+01 1.20395E-02 1.13425E-03-1.08835E-01-1.93254E-14-1.36646E-13
 -1      2004 2.00499E+01 1.00537E-02 5.58949E-04-1.00573E-01 2.30235E-14-1.45615E-13
 -1      2005 2.00521E+01 1.24863E-02-5.66646E-04-1.25736E-01 4.89099E-14-8.71307E-14
 -1      2006 2.02084E+01 1.80629E-02 1.48236E-03-1.35527E-01-6.25550E-14-1.01260E-13
 -1      2007 2.01485E+01 1.57979E-02 8.63199E-04-1.22705E-01-1.88826E-14-9.10857E-14
 -1      2008 2.01427E+01 2.02576E-02-7.46659E-04-1.52362E-01-1.97686E-14-9.96442E-14
 -1      2009 2.03451E+01 2.52715E-02 1.92849E-03-1.73866E-01-1.99715E-14-8.00693E-14
 -1      2010 2.02697E+01 2.26888E-02 1.21236E-03-1.55503E-01-7.04871E-14-1.44684E-13
 -1      2011 2.02534E+01 2.95419E-02-9.77630E-04-1.91998E-01-4.33052E-14-7.76952E-14
 -1      2012 2.05191E+01 3.37881E-02 2.47146E-03-2.25963E-01 9.10849E-15-4.59847E-14
 -1      2013 2.04225E+01 3.08807E-02 1.60123E-03-2.00936E-01 2.67165E-14-2.15354E-14
 -1      2014 2.03919E+01 4.05522E-02-1.26345E-03-2.47034E-01-9.63259E-15-7.74933E-14
 -1      2015 2.07413E+01 4.35780E-02 3.08904E-03-2.93977E-01 5.54418E-14-2.14885E-13
 -1      2016 2.06170E+01 4.04254E-02 2.01362E-03-2.61098E-01-1.84835E-14-1.39144E-13
 -1      2017 2.05668E+01 5.33699E-02-1.60946E-03-3.19994E-01 4.43948E-14-1.31901E-13
 -1      2018 2.10238E+01 5.42296E-02 3.71584E-03-3.79659E-01 1.64419E-13-2.68758E-13
 -1      2019 2.08647E+01 5.11023E-02 2.41228E-03-3.37880E-01 1.35421E-13-1.68548E-13
 -1      2020 2.07875E+01 6.77211E-02-2.02301E-03-4.13175E-01 1.66286E-13-1.83211E-13
 -1      2021 2.13785E+01 6.45479E-02 4.20819E-03-4.83391E-01-6.45246E-14-2.81820E-13
 -1      2022 2.11775E+01 6.20973E-02 2.72421E-03-4.32263E-01 4.15644E-14-3.31917E-13
 -1      2023 2.10638E+01 8.25516E-02-2.51431E-03-5.27835E-01 1.07868E-13-2.99344E-13
 -1      2024 2.18158E+01 7.18481E-02 4.29809E-03-6.02328E-01-2.29905E-13-1.89938E-13
 -1      2025 2.15669E+01 7.14290E-02 2.82341E-03-5.42916E-01-1.66726E-13-2.65453E-13
 -1      2026 2.14053E+01 9.52666E-02-3.09570E-03-6.62603E-01-1.73239E-13-2.09923E-13
 -1      2027 2.23406E+01 7.08578E-02 3.55467E-03-7.27096E-01-1.97227E-13-8.30330E-14
 -1      2028 2.20418E+01 7.50073E-02 2.52041E-03-6.63652E-01-2.56817E-13-1.44065E-13
 -1      2029 2.18193E+01 1.00483E-01-3.77273E-03-8.10609E-01-2.54260E-13-1.67096E-13
 -1      2030 2.29471E+01 5.23364E-02 1.41000E-03-8.36512E-01 2.16822E-14 2.81060E-14
 -1      2031 2.26043E+01 6.53097E-02 1.58155E-03-7.79217E-01-8.18096E-14-5.93969E-15
 -1      2032 2.23088E+01 8.82678E-02-4.51056E-03-9.54746E-01-1.39318E-13-1.66321E-13
 -1      2033 2.36107E+01 2.24651E-03-2.62829E-03-8.90417E-01 1.02517E-13 2.47443E-13
 -1      2034 2.32434E+01 3.00978E-02-1.84145E-04-8.59201E-01 7.93297E-14 2.03008E-13
 -1      2035 2.28688E+01 4.24180E-02-5.14742E-03-1.06080E+00 2.77533E-14 1.13753E-13
 -1      2036 2.42771E+01-9.58482E-02-8.43220E-03-8.23209E-01-1.95230E-14 1.89496E-13
 -1      2037 2.39261E+01-4.71010E-02-2.74750E-03-8.51362E-01 6.17596E-14 2.41980E-13
 -1      2038 2.34809E+01-5.90022E-02-5.22560E-03-1.06964E+00 5.16447E-14 3.07669E-13
 -1      2039 2.48528E+01-2.49539E-01-1.43203E-02-5.47018E-01 3.62731E-15 2.27700E-13
 -1      2040 2.45850E+01-1.80429E-01-5.74941E-03-6.79879E-01-5.78270E-14 2.36726E-13
 -1      2041 2.41054E+01-2.35048E-01-3.79526E-03-8.94140E-01-2.14629E-14 3.22278E-13
 -1      2042 2.52025E+01-4.30609E-01-1.61234E-02 1.65234E-02-1.50791E-13 1.40308E-13
 -1      2043 2.51059E+01-3.61732E-01-8.27613E-03-2.61991E-01-4.98247E-14 2.16820E-13
 -1      2044 2.46705E+01-4.76794E-01 5.77163E-04-4.34865E-01-1.20667E-14 3.54440E-13
 -1      2045 2.51645E+01-5.39646E-01-1.01349E-02 8.49927E-01-2.23965E-13 2.46032E-13
 -1      2046 2.53241E+01-5.24613E-01-9.79953E-03 4.34504E-01-2.63520E-13 8.92446E-14
 -1      2047 2.50569E+01-6.99885E-01 8.92457E-03 3.60727E-01-2.14367E-13 1.91165E-13
 -1      2048 2.46169E+01-4.10696E-01 5.16720E-04 1.71193E+00 3.58940E-14 1.83763E-13
 -1      2049 2.50620E+01-5.22382E-01-1.21850E-02 1.28280E+00-8.90902E-14 3.10727E-13
 -1      2050 2.50993E+01-7.15987E-01 1.62112E-02 1.37514E+00-1.06351E-13 1.52964E-13
 -1      2051 2.36068E+01 6.02189E-02 2.73398E-03 2.09026E+00 1.21703E-13 2.68625E-13
 -1      2052 2.42523E+01-1.90545E-01-1.49601E-02 1.90531E+00 1.22260E-13 2.21448E-13
 -1      2053 2.46672E+01-3.13513E-01 1.08475E-02 2.20092E+00 8.90180E-14 1.53211E-14
 -1      2054 2.25256E+01 6.78811E-01-1.45997E-02 1.49267E+00-8.34749E-14 2.75717E-13
 -1      2055 2.31386E+01 4.26592E-01-1.18173E-02 1.78287E+00 6.79838E-14 3.09093E-13
 -1      2056 2.38591E+01 4.78263E-01-1.23586E-02 2.19697E+00 5.40470E-14 1.68414E-13
 -1      2057 2.20348E+01 9.59203E-01-4.22501E-02 2.63777E-02 1.03369E-13 1.86032E-13
 -1      2058 2.23024E+01 9.25505E-01-3.86126E-03 7.10527E-01 3.18218E-14 2.07431E-13
 -1      2059 2.31529E+01 1.19923E+00-3.60640E-02 1.03035E+00 4.99253E-14 1.91448E-13
 -1      2060 2.25144E+01 6.39684E-01-4.53492E-02-1.43272E+00 3.07972E-13 8.74370E-14
 -1      2061 2.22697E+01 8.64336E-01 5.34421E-04-7.78191E-01 2.02532E-13 1.83971E-13
 -1      2062 2.31028E+01 1.25577E+00-3.67509E-02-7.61170E-01 1.89168E-13 3.38149E-13
 -1      2063 2.36195E+01 2.05438E-02-1.48302E-02-2.02405E+00-6.74200E-15-1.07754E-13
 -1      2064 2.30030E+01 3.11344E-01-1.22847E-03-1.76631E+00 1.19876E-13-3.28487E-14
 -1      2065 2.37266E+01 5.96218E-01-1.29756E-02-2.04119E+00 2.25341E-13 3.85317E-14
 -1      2066 2.46305E+01-4.23703E-01 1.44077E-02-1.63114E+00-2.62828E-14-2.94011E-13
 -1      2067 2.39818E+01-2.67663E-01-9.48879E-03-1.79193E+00-3.13864E-14-2.52312E-13
 -1      2068 2.44909E+01-2.39671E-01 4.11345E-03-2.16424E+00 6.31442E-14-2.35067E-13
 -1      2069 2.51034E+01-5.31596E-01 2.29377E-02-7.56117E-01-1.21500E-13-2.72798E-14
 -1      2070 2.46917E+01-5.32781E-01-1.64837E-02-1.11777E+00-1.60507E-13-2.74912E-13
 -1      2071 2.48926E+01-7.15901E-01 1.38420E-03-1.38903E+00-1.63343E-13-1.35386E-13
 -1      2072 2.50005E+01-4.16588E-01 1.64017E-02 9.04738E-02-1.51427E-13 1.83903E-13
 -1      2073 2.49123E+01-4.98684E-01-1.78623E-02-2.61354E-01-4.80831E-14 2.03787E-13
 -1      2074 2.48184E+01-7.47052E-01-6.21318E-03-3.53871E-01-2.31013E-13 1.88947E-13
 -1      2075 2.44900E+01-2.41375E-01 5.97227E-03 6.66492E-01 1.06727E-13 8.58515E-14
 -1      2076 2.46739E+01-3.31062E-01-1.45828E-02 4.22876E-01-3.93175E-14 1.40298E-13
 -1      2077 2.43879E+01-5.34008E-01-9.37357E-03 4.92951E-01-1.63168E-14 2.46558E-13
 -1      2078 2.37642E+01-9.51785E-02-8.31023E-04 9.54921E-01 2.40654E-14 1.00255E-13
 -1      2079 2.41173E+01-1.60948E-01-9.22984E-03 8.28044E-01 5.17789E-14 8.71516E-14
 -1      2080 2.37626E+01-2.80509E-01-7.26009E-03 1.00653E+00 3.46095E-14 2.28283E-13
 -1      2081 2.29672E+01-9.91030E-05-3.60745E-03 1.03145E+00 1.86529E-13-2.36000E-14
 -1      2082 2.33945E+01-3.88526E-02-3.78869E-03 9.91928E-01 8.83907E-14-1.93682E-14
 -1      2083 2.30624E+01-8.65989E-02-3.91229E-03 1.22483E+00 1.74518E-13 4.61575E-14
 -1      2084 2.21927E+01 5.42454E-02-3.62621E-03 9.77902E-01-2.29088E-14-1.68668E-13
 -1      2085 2.26254E+01 3.43972E-02 5.00701E-04 9.93281E-01 1.04387E-13 2.88918E-15
 -1      2086 2.23650E+01 3.40839E-02-1.45485E-03 1.24007E+00 1.57250E-13-1.50648E-14
 -1      2087 2.14970E+01 8.61702E-02-2.37857E-03 8.50106E-01-2.05867E-13-8.70181E-14
 -1      2088 2.18915E+01 7.58476E-02 3.38329E-03 8.98469E-01-1.65925E-13-1.74163E-13
 -1      2089 2.17182E+01 1.02358E-01-3.11375E-04 1.13297E+00-1.58069E-13-1.33465E-13
 -1      2090 2.09145E+01 1.11584E-01-9.95287E-04 6.75035E-01-4.50525E-14 2.92629E-13
 -1      2091 2.12439E+01 1.03380E-01 4.81835E-03 7.46575E-01-1.88428E-13 1.74747E-13
 -1      2092 2.11517E+01 1.44532E-01-4.41663E-04 9.53019E-01-3.30433E-13-7.07680E-15
 -1      2093 2.04691E+01 1.41404E-01 1.51400E-03 4.58779E-01 2.49684E-13 5.32835E-13
 -1      2094 2.07121E+01 1.29598E-01 4.51773E-03 5.53297E-01 1.58735E-13 4.44722E-13
 -1      2095 2.06826E+01 1.82307E-01-1.02974E-03 7.22891E-01 4.23676E-14 3.78261E-13
 -1      2096 2.02073E+01 1.66354E-01 4.24825E-03 2.71034E-01 1.13681E-13 5.93643E-13
 -1      2097 2.03680E+01 1.59021E-01 3.57494E-03 3.82319E-01 2.57586E-13 6.34341E-13
 -1      2098 2.03698E+01 2.20294E-01-1.94380E-03 5.11103E-01 1.61116E-13 9.03041E-13
 -1      2099 2.01850E+01 2.51381E-01-8.53047E-04 3.38183E-01 2.90543E-13 7.97484E-13
 -1      2100 1.99635E+01 1.33329E+00-3.87499E-03 7.05094E-01-2.81447E-13 2.81929E-13
 -1      2101 2.00127E+01 1.10982E+00 2.62055E-03 7.11528E-01-3.20789E-13 2.08748E-13
 -1      2102 2.00627E+01 9.17542E-01-1.59513E-03 6.90044E-01-2.49690E-13-1.00944E-13
 -1      2103 2.01141E+01 7.03657E-01 4.39673E-03 6.37148E-01-1.53608E-13-9.90779E-14
 -1      2104 2.00575E+01 9.59298E-01 8.09876E-04 8.83928E-01-4.85921E-13-1.08382E-14
 -1      2105 2.01389E+01 5.62108E-01 2.07494E-04 5.53998E-01-7.44808E-14-1.68090E-13
 -1      2106 2.01772E+01 3.83415E-01 4.32528E-03 4.53069E-01 1.20569E-13 3.16787E-13
 -1      2107 2.02551E+01 3.71526E-01 3.24148E-03 5.49001E-01 1.20539E-14 3.02913E-13
 -1      2108 2.01720E+01 6.35160E-01-9.25723E-04 7.62913E-01-3.26102E-13-2.03039E-13
 -1      2109 1.98836E+01 1.70375E+00-5.97657E-03 6.07534E-01-5.20729E-13-4.96534E-13
 -1      2110 1.99220E+01 1.50654E+00-1.06276E-03 6.61994E-01-4.06538E-13 3.74640E-14
 -1      2111 1.99175E+01 1.32215E+00 2.90895E-03 8.56894E-01-5.31758E-13 1.71489E-14
 -1      2112 1.98275E+01 1.99120E+00-7.29050E-03 4.18543E-01-3.43048E-13-4.57447E-13
 -1      2113 1.98526E+01 1.84355E+00-4.34487E-03 5.09909E-01-3.59777E-13-3.75138E-13
 -1      2114 1.98065E+01 1.63565E+00 5.13568E-03 6.98495E-01-4.84106E-13-2.94326E-13
 -1      2115 1.98030E+01 2.14932E+00-7.39009E-03 1.74981E-01-1.07808E-13-3.02446E-13
 -1      2116 1.98114E+01 2.07481E+00-6.95606E-03 2.85348E-01-1.49083E-13-2.75632E-13
 -1      2117 1.97350E+01 1.86002E+00 6.91056E-03 4.38556E-01-1.26116E-13-2.00235E-13
 -1      2118 1.98106E+01 2.16028E+00-6.42438E-03-8.14129E-02-1.05790E-13 1.10480E-14
 -1      2119 1.98026E+01 2.16659E+00-8.36048E-03 2.94748E-02-1.44623E-13-1.41553E-13
 -1      2120 1.97101E+01 1.96187E+00 7.48054E-03 1.24894E-01 2.71493E-14-1.68562E-13
 -1      2121 1.98450E+01 2.02963E+00-4.73855E-03-3.11104E-01-1.77452E-13 5.67602E-14
 -1      2122 1.98242E+01 2.11198E+00-8.35583E-03-2.16170E-01-1.31753E-13 1.69638E-13
 -1      2123 1.97308E+01 1.93122E+00 6.74239E-03-1.90279E-01-1.39825E-13 5.41516E-14
 -1      2124 1.98967E+01 1.78366E+00-2.78129E-03-4.84055E-01-3.10411E-13 1.14803E-13
 -1      2125 1.98686E+01 1.92700E+00-6.98496E-03-4.16692E-01-2.48870E-13 2.77989E-14
 -1      2126 1.97879E+01 1.77998E+00 4.98495E-03-4.60004E-01-2.59315E-13-3.09952E-14
 -1      2127 1.99542E+01 1.46802E+00-7.14732E-04-5.82950E-01-2.10563E-13 6.29039E-14
 -1      2128 1.99243E+01 1.64726E+00-4.69271E-03-5.48781E-01-3.46828E-13 2.43293E-13
 -1      2129 1.98667E+01 1.53977E+00 2.88772E-03-6.50299E-01-2.14818E-13 1.07032E-13
 -1      2130 2.00116E+01 1.11502E+00 1.22048E-03-6.07765E-01 5.26801E-14 1.24992E-13
 -1      2131 1.99827E+01 1.31240E+00-2.06854E-03-6.06195E-01 1.57964E-14 1.04204E-13
 -1      2132 1.99520E+01 1.24670E+00 7.02280E-04-7.48132E-01-1.10199E-13 2.44806E-13
 -1      2133 2.00642E+01 7.70466E-01 2.86848E-03-5.60915E-01 2.23058E-13 2.81196E-13
 -1      2134 2.00379E+01 9.59800E-01 3.32204E-04-5.90395E-01 1.54211E-13 5.49828E-14
 -1      2135 2.00358E+01 9.35328E-01-9.12593E-04-7.53897E-01 2.80942E-13 1.11688E-13
 -1      2136 2.01111E+01 4.61337E-01 1.95278E-03-4.51930E-01-3.89431E-14-1.83411E-13
 -1      2137 2.00859E+01 6.27621E-01 1.35118E-03-5.08484E-01 7.85123E-14 4.08963E-14
 -1      2138 2.01123E+01 6.39059E-01-1.72951E-03-6.75390E-01 1.08562E-13-1.05051E-14
 -1      2139 1.02473E+01-5.50310E+00-1.19147E-01 6.44177E+00-1.18461E-13 5.80286E-13
 -1      2140 6.34464E+00-7.02511E+00-3.93686E-01 4.96230E+00-1.34337E-13 6.93556E-13
 -1      2141 3.69340E-01-6.97276E+00-3.30080E-01 6.45315E-01 1.80689E-13 1.40665E-13
 -1      2142 3.23791E-01-7.32901E+00-4.01093E-01-9.96022E-01 2.31523E-13-7.23310E-14
 -1      2143 3.76855E+00-6.57050E+00-2.69455E-01 4.12303E+00 8.50431E-14 6.46927E-13
 -1      2144 1.88426E+00-6.85990E+00-3.17035E-01 2.71623E+00 9.06775E-14 2.67342E-13
 -1      2145 7.25154E+00-5.22873E+00-8.54092E-02 5.64070E+00-1.48326E-13 3.25878E-13
 -1      2146 1.95695E+01-3.77337E+00 1.42372E-02 6.67999E+00 3.72147E-13-9.58122E-14
 -1      2147 1.51734E+01-5.63025E+00-2.41319E-01 6.13374E+00 2.99205E-14 2.09111E-13
 -1      2148 4.90989E+00-7.44474E+00-5.16645E-01-4.57770E+00-9.43690E-14-1.73750E-13
 -1      2149 7.60783E+00-5.82119E+00-2.65016E-01-5.83790E+00 1.34337E-13-1.23512E-13
 -1      2150 5.49326E+00-5.90815E+00-2.23523E-01-5.46073E+00 2.35367E-14-5.05151E-14
 -1      2151 3.51739E+01 2.21687E+00 2.78602E-01 3.82625E+00 3.81695E-13-5.14033E-13
 -1      2152 3.06085E+01 5.35078E-01-2.16807E-02 4.21328E+00 4.82225E-13-3.66263E-13
 -1      2153 2.73064E+01-1.14804E+00 1.28120E-01 5.91423E+00 5.46563E-13-4.17666E-13
 -1      2154 2.23418E+01-3.08023E+00-2.19476E-01 5.69580E+00 5.39679E-13-3.53495E-13
 -1      2155 2.32947E+01-4.98696E+00 1.29800E-02 5.40672E+00 2.04670E-13-5.18030E-13
 -1      2156 1.95189E+01 4.01541E+00-2.70111E-02-1.70432E+00-1.96333E-13-2.76879E-13
 -1      2157 1.96461E+01 3.94581E+00-2.46504E-02-1.95569E+00-2.30383E-13-2.19054E-13
 -1      2158 1.99710E+01 3.24668E+00-1.39007E-02-1.91993E+00-2.46522E-13-1.64164E-13
 -1      2159 1.96981E+01 3.58464E+00-7.26467E-03-1.52225E+00-1.89256E-13-2.71160E-13
 -1      2160 3.95832E+01 5.29359E+00 2.82842E-01 1.55841E+00 2.52798E-13-6.66023E-13
 -1      2161 3.69182E+01 4.19132E+00 1.84842E-01 2.68241E+00 3.69538E-13-5.25691E-13
 -1      2162 3.92916E+01 7.18428E+00 1.27124E-01-8.27153E-02 1.54321E-13-4.64694E-13
 -1      2163 3.95310E+01 6.75134E+00 2.81129E-01 8.18319E-01 1.57707E-13-5.77149E-13
 -1      2164 3.74255E+01 6.23999E+00 7.33153E-02-2.77639E-01 3.16358E-13-4.67071E-13
 -1      2165 3.88738E+01 7.04495E+00 1.92641E-01 1.25145E-01 1.84630E-13-5.79009E-13
 -1      2166 3.51138E+01 2.88911E+00 1.51372E-01-2.58221E+00 4.46157E-13-6.15841E-13
 -1      2167 3.74859E+01 4.23892E+00 1.28767E-01-1.23600E+00 4.73649E-13-4.96270E-13
 -1      2168 2.83081E+01-4.97021E-01-7.85370E-02-4.71814E+00 2.59126E-13-7.28084E-13
 -1      2169 3.30332E+01 1.08910E+00 1.93553E-01-4.27935E+00 3.10946E-13-6.98774E-13
 -1      2170 2.03106E+01-3.83592E+00-2.49510E-01-5.72208E+00 2.96374E-13-4.40536E-13
 -1      2171 2.52904E+01-1.93878E+00 1.04414E-01-6.04637E+00 2.25597E-13-7.25253E-13
 -1      2172 1.26032E+01-5.92620E+00-2.96957E-01-5.90998E+00 2.25764E-13-2.20296E-13
 -1      2173 1.68933E+01-4.20886E+00-4.38367E-02-6.63746E+00 3.73701E-13-1.53710E-13
 -1      2174 2.14045E+01-5.32416E+00-1.26146E-02-5.76795E+00 1.74027E-13-3.41338E-13
 -1      2175 4.72899E+00-7.15288E+00-4.15793E-01-4.29360E+00 2.69174E-13-5.03125E-13
 -1      2176 8.02269E+00-5.75627E+00-1.76838E-01-5.78482E+00 2.37699E-13-4.86111E-13
 -1      2177 1.07621E+00-6.88319E+00-3.35121E-01-1.86928E+00 3.12528E-13-3.54383E-13
 -1      2178 2.49117E+00-6.80082E+00-3.23773E-01-3.26224E+00 4.03233E-13-4.93217E-13
 -1      2179 5.54375E+00-5.10779E+00-1.23049E-01-4.82983E+00 1.46994E-13-3.64153E-13
 -1      2180 5.89100E-01-7.13895E+00-3.83853E-01 1.86046E+00-3.01703E-14-4.92162E-13
 -1      2181 1.12989E-01-7.10968E+00-3.80199E-01 2.82327E-01 1.57464E-13-4.51750E-13
 -1      2182 4.63167E+00-6.13890E+00-2.47271E-01 4.93452E+00-4.03566E-14-4.11671E-13
 -1      2183 2.32418E+00-7.12508E+00-4.01448E-01 3.49673E+00 7.04992E-15-4.23661E-13
 -1      2184 1.17158E+01-5.15403E+00-1.74412E-01 6.78208E+00-1.57485E-13-4.92058E-13
 -1      2185 7.55302E+00-6.51224E+00-3.84484E-01 5.56242E+00-3.44169E-14-3.95226E-13
 -1      2186 8.00774E+00-5.27719E+00-6.68232E-02 6.23790E+00 6.26721E-14-4.06536E-13
 -1      2187 2.11953E+01-2.56495E+00 9.76185E-02 6.86106E+00-2.84661E-13-8.36109E-13
 -1      2188 1.69764E+01-4.54313E+00-1.11957E-01 6.50232E+00-2.29594E-13-6.46427E-13
 -1      2189 2.90629E+01 6.18787E-01 2.16854E-01 5.94066E+00-6.46705E-13-8.15459E-13
 -1      2190 2.42584E+01-1.34251E+00-1.22325E-01 5.75423E+00-4.87277E-13-9.19431E-13
 -1      2191 3.47874E+01 3.10144E+00 1.14357E-01 3.01490E+00-7.59504E-13-8.04024E-13
 -1      2192 3.16400E+01 2.00117E+00 1.22345E-01 4.44649E+00-7.51121E-13-8.70637E-13
 -1      2193 3.05326E+01-8.61584E-02 1.97989E-01 2.98668E+00-4.66863E-13-7.47957E-13
 -1      2194 3.73988E+01 6.35581E+00 1.71534E-01 6.47250E-01-6.18061E-13-6.78790E-13
 -1      2195 3.55464E+01 5.11533E+00 7.51530E-02 1.31022E+00-8.03746E-13-7.31359E-13
 -1      2196 3.98887E+01 7.31680E+00 3.35107E-01-4.35072E-01-4.89553E-13-5.54945E-13
 -1      2197 3.79506E+01 7.39163E+00 6.13156E-02 5.27497E-01-6.25833E-13-7.33316E-13
 -1      2198 3.72669E+01 6.09886E+00 9.99043E-02-1.55261E+00-1.91180E-13-2.77223E-13
 -1      2199 3.96244E+01 6.79146E+00 3.09315E-01-7.73063E-01-3.30569E-13-4.41258E-13
 -1      2200 3.49756E+01 8.05266E+00 2.81983E-01 1.93126E-01-5.55667E-13-5.22304E-13
 -1      2201 3.30383E+01 2.76513E+00 6.21597E-02-2.74932E+00-6.65093E-14-4.30767E-14
 -1      2202 3.66963E+01 4.58509E+00 3.22195E-01-2.38682E+00-1.14075E-14-3.13638E-14
 -1      2203 2.61554E+01-9.70335E-01-6.72517E-02-5.41288E+00 1.12022E-13 1.34448E-13
 -1      2204 3.03458E+01 2.76655E-01 5.38672E-02-4.38127E+00 6.90281E-14-6.53366E-14
 -1      2205 1.92194E+01-3.48091E+00-2.19298E-01-6.24300E+00 2.19935E-13 1.08802E-14
 -1      2206 2.36192E+01-1.74275E+00 9.03117E-02-6.64051E+00 1.10356E-13 2.38365E-13
 -1      2207 2.64959E+01-3.03304E+00 1.12215E-01-4.54909E+00 1.53433E-13 1.68698E-13
 -1      2208 1.18534E+01-5.79326E+00-3.23644E-01-6.21780E+00 1.80744E-13-6.80428E-14
 -1      2209 1.56751E+01-4.11768E+00-4.17748E-02-7.04598E+00 1.97065E-13-1.63314E-13
 -1      2210 2.98677E+01-2.01075E+00 1.35228E-01 3.04898E+00 3.53884E-13-5.75429E-13
 -1      2211 1.99258E+00-5.36424E+00-2.36586E-01-2.41503E+00 2.83523E-13 7.81597E-14
 -1      2212 2.07323E+01 1.10843E+00-2.07750E-02-1.61705E+00-2.56503E-13 2.39999E-13
 -1      2213 2.06235E+01 1.33002E+00-1.86629E-02-1.67910E+00-2.68608E-13 9.52346E-14
 -1      2214 2.56312E+00-4.74643E+00-1.42404E-01 2.22377E+00 1.28855E-13 1.41609E-13
 -1      2215 1.50982E+01-5.94612E+00-4.52863E-02 6.69266E+00-2.35256E-13 2.28206E-13
 -1      2216 2.01392E+01 3.66205E-01 2.67167E-03-4.30942E-01 2.81973E-14-1.23107E-13
 -1      2217 1.19865E+01-5.78767E+00-7.20694E-02-6.94766E+00 1.36890E-13-1.62675E-13
 -1      2218 2.00985E+01-5.09424E+00-2.88134E-04-6.45811E+00 2.41418E-13 7.96585E-15
 -1      2219 3.42125E+01 5.30872E+00 1.72684E-01 9.42353E-02-2.24293E-13-2.24487E-13
 -1      2220 3.34362E+01 3.85329E+00 1.63846E-01 4.33895E-01-6.85008E-13-6.81455E-13
 -1      2221 1.56964E+01-5.16899E+00-3.99016E-02 6.80286E+00-4.44089E-14-5.55389E-13
 -1      2222 1.49361E+01-5.18879E+00 1.57806E-01 7.13851E+00 1.55098E-13-4.07577E-13
 -1      2223 1.93133E+01-5.51463E+00-1.33141E-01 6.45768E+00 1.11494E-13-6.28851E-13
 -1      2224 1.84151E+00-4.82959E+00-1.68699E-01-1.10571E+00 2.36575E-13-5.23470E-13
 -1      2225 1.27096E+01-5.86105E+00-9.19254E-02-6.49282E+00 4.45199E-14-1.66409E-13
 -1      2226 2.82419E+01-2.94301E+00 1.10129E-01-3.59103E+00 8.43214E-14-5.73985E-13
 -1      2227 3.32735E+01 1.02239E+00 2.32818E-01-1.07144E+00 2.05745E-13-4.60298E-13
 -1      2228 3.47577E+01 5.24854E+00 1.66784E-01 7.57618E-01 3.70981E-13-3.81140E-13
 -1      2229 3.45754E+01 2.52983E+00 2.70619E-01 5.45427E-01 3.63598E-13-7.18536E-13
 -1      2230 3.48584E+01 7.67308E+00 1.90315E-01 2.76202E-01 2.16938E-13-3.60243E-13
 -1      2231 3.58909E+01 6.40741E+00 2.93838E-01-3.78768E-01 2.61569E-13-4.09089E-13
 -1      2232 2.82487E+00-4.98272E+00-1.70560E-01 3.38961E+00 6.15064E-14-4.08396E-13
 -1      2233 2.45869E+01-3.59236E+00-3.77780E-03 5.21871E+00-2.18048E-13-8.08631E-13
 -1      2234 3.43577E+01 7.32361E+00 1.56530E-01-4.91161E-01-6.09846E-13-6.04544E-13
 -1      2235 3.15227E+01 7.36759E-01 6.64867E-02-2.33027E+00 2.61215E-14-1.38223E-13
 -1      2236 3.12114E+01 1.05279E+00-1.44680E-01 2.34291E-02 7.75768E-14 1.83187E-15
 -1      2237 2.97341E+01-1.17550E+00 9.58644E-02-1.66239E+00 1.42109E-13-2.34590E-13
 -1      2238 2.01442E+01 5.06341E-01 3.73739E-03 6.79473E-01 1.86913E-13 5.77914E-14
 -1      2239 2.04124E+01 6.99877E-01 2.07959E-02 9.71028E-01 2.16459E-13 8.98739E-14
 -1      2240 1.95632E+01 3.51578E+00-1.10883E-02-5.92271E-01-6.74053E-14-3.39717E-13
 -1      2241 1.95984E+01 3.46999E+00-1.04271E-02-7.76782E-01-1.02263E-13-3.39619E-13
 -1      2242 1.96444E+01 3.38206E+00-1.26607E-02-9.41390E-01-1.19343E-13-3.26535E-13
 -1      2243 1.97049E+01 3.30110E+00-1.26648E-02-1.13090E+00-1.50189E-13-2.98410E-13
 -1      2244 1.97896E+01 3.03302E+00 3.29562E-04-7.93479E-01-9.36751E-14-3.05856E-13
 -1      2245 1.95165E+01 3.59825E+00-9.62624E-03 9.95479E-02 2.63927E-14-3.76506E-13
 -1      2246 1.95158E+01 3.59908E+00-9.63089E-03-8.01531E-02 2.92606E-15-3.66603E-13
 -1      2247 1.95423E+01 3.55882E+00-9.72932E-03 4.46074E-01 7.00836E-14-3.79688E-13
 -1      2248 1.95251E+01 3.58140E+00-1.01463E-02 2.65021E-01 4.41222E-14-3.83171E-13
 -1      2249 1.96828E+01 3.22096E+00-8.93189E-04 1.69806E-01 2.91692E-14-3.58453E-13
 -1      2250 1.96036E+01 3.46229E+00-1.06188E-02 7.90497E-01 1.15054E-13-3.62744E-13
 -1      2251 1.95676E+01 3.50930E+00-1.12160E-02 6.08857E-01 8.18476E-14-3.68301E-13
 -1      2252 1.97192E+01 3.15742E+00-4.98960E-04 4.88724E-01 7.13780E-14-3.48597E-13
 -1      2253 1.97133E+01 3.28857E+00-1.29572E-02 1.14424E+00 1.91598E-13-2.97415E-13
 -1      2254 1.96511E+01 3.37190E+00-1.28804E-02 9.54799E-01 1.51033E-13-3.30598E-13
 -1      2255 1.97955E+01 3.02377E+00 2.69116E-04 8.04854E-01 1.31194E-13-3.17603E-13
 -1      2256 1.98912E+01 3.00305E+00-1.81767E-02 1.49158E+00 2.40845E-13-2.66343E-13
 -1      2257 1.97923E+01 3.14430E+00-1.51823E-02 1.30105E+00 2.12543E-13-2.83234E-13
 -1      2258 1.99236E+01 2.79866E+00 1.95230E-03 1.11148E+00 1.99420E-13-2.67835E-13
 -1      2259 2.01681E+01 2.54362E+00-2.84087E-02 1.79607E+00 2.85235E-13-1.57667E-13
 -1      2260 2.00177E+01 2.78294E+00-1.70907E-02 1.62156E+00 2.52584E-13-2.14299E-13
 -1      2261 2.01169E+01 2.44810E+00 5.83816E-03 1.37752E+00 2.36455E-13-2.17254E-13
 -1      2262 2.03984E+01 8.54902E-01 1.29857E-02-1.00239E+00-2.11804E-13 1.96338E-14
 -1      2263 2.01875E+01 6.27999E-01-3.99868E-03-6.92306E-01-1.84019E-13 1.90610E-14
 -1      2264 6.06511E+00-4.32071E+00 4.58692E-02-5.19435E+00 1.60122E-13 6.95000E-14
 -1      2265 8.13032E+00-4.59620E+00 1.76558E-02-6.30299E+00 9.45910E-14-1.65007E-13
 -1      2266 1.98667E+01 2.68170E-01 4.72889E-03 2.86982E-01 1.72396E-13-1.25754E-14
 -1      2267 2.00277E+01 3.67910E-01 2.01750E-02 4.44121E-01 1.74420E-13 4.07768E-14
 -1      2268 2.02078E+01 6.34531E-01-2.21512E-03 7.06572E-01 2.11067E-13-6.03025E-14
 -1      2269 2.05454E+01 1.95503E+00-1.36916E-02-1.89977E+00-2.80978E-13-4.89192E-16
 -1      2270 2.04083E+01 1.21406E+00-7.24335E-03-1.28869E+00-2.48608E-13 8.44284E-15
 -1      2271 2.03797E+01 1.38014E+00 7.27691E-03-1.23886E+00-2.27851E-13-4.12439E-14
 -1      2272 2.02883E+01 2.38474E+00-4.83103E-03-1.84399E+00-2.67798E-13-7.03864E-14
 -1      2273 2.01217E+01 4.68823E-01 1.61409E-02-4.77007E-01-1.45794E-13 2.27268E-14
 -1      2274 1.99803E+01 3.44146E-01 9.65768E-06-3.05603E-01-1.05768E-13 4.20302E-15
 -1      2275 2.02426E+01 7.44580E-01-1.84957E-03-6.95997E-01-1.81804E-13-1.79712E-14
 -1      2276 1.99168E+01 2.59562E-01 1.08593E-02-1.67889E-01-8.63910E-14 9.27437E-15
 -1      2277 1.98378E+01 1.88208E-01 6.79480E-04-7.05998E-02-6.65258E-14-1.92930E-14
 -1      2278 2.00778E+01 4.16046E-01-3.87542E-03-3.12460E-01-1.09574E-13-3.65619E-14
 -1      2279 1.97936E+01 1.38830E-01 6.38694E-03 1.16632E-02-6.87689E-14-2.21807E-14
 -1      2280 1.97585E+01 9.66729E-02 7.29958E-04 6.51408E-02-8.29818E-14-2.77920E-14
 -1      2281 1.99574E+01 2.27641E-01-3.67382E-03-7.30554E-02-8.82142E-14-5.46494E-14
 -1      2282 1.97328E+01 6.70115E-02 3.58190E-03 1.11160E-01-7.31900E-14-3.33932E-14
 -1      2283 1.97256E+01 4.18197E-02 6.63590E-04 1.38097E-01-4.38659E-14-5.05224E-14
 -1      2284 1.98820E+01 1.15660E-01-2.96269E-03 6.81665E-02-9.34902E-14-7.91324E-14
 -1      2285 1.97143E+01 2.39589E-02 1.86551E-03 1.60970E-01-5.26053E-14-5.94832E-14
 -1      2286 1.97240E+01 9.23620E-03 5.74282E-04 1.71806E-01-4.68176E-14-6.52313E-14
 -1      2287 1.98429E+01 4.84092E-02-2.16306E-03 1.45410E-01-7.39271E-14-8.47387E-14
 -1      2288 1.97227E+01-1.10028E-03 8.07794E-04 1.80292E-01-4.24008E-14-7.93078E-14
 -1      2289 1.97419E+01-9.02723E-03 4.99350E-04 1.81673E-01-3.97344E-14-5.90793E-14
 -1      2290 1.98299E+01 8.68603E-03-1.49294E-03 1.81901E-01-6.29188E-14-1.38563E-13
 -1      2291 1.97471E+01-1.43398E-02 1.61972E-04 1.81754E-01-6.80841E-14-4.60427E-14
 -1      2292 1.97711E+01-1.76886E-02 4.57844E-04 1.78098E-01-9.34415E-14-6.92559E-14
 -1      2293 1.98343E+01-1.31914E-02-9.95921E-04 1.93446E-01-5.31611E-14-1.11905E-13
 -1      2294 1.97804E+01-1.95334E-02-2.16620E-04 1.73938E-01-7.04783E-14-7.72377E-14
 -1      2295 1.98066E+01-1.97035E-02 4.58828E-04 1.68283E-01-4.92878E-14-5.48242E-14
 -1      2296 1.98497E+01-2.30421E-02-6.55377E-04 1.90977E-01-7.89182E-14-7.09895E-14
 -1      2297 1.98184E+01-1.90837E-02-4.18676E-04 1.62832E-01-4.38781E-14-4.28619E-14
 -1      2298 1.98453E+01-1.69740E-02 5.05763E-04 1.57326E-01-9.27227E-15 1.44853E-15
 -1      2299 1.98719E+01-2.45299E-02-4.40593E-04 1.82184E-01-2.81823E-14-2.85825E-15
 -1      2300 1.98587E+01-1.45412E-02-5.04558E-04 1.52725E-01 5.41571E-15 2.68732E-14
 -1      2301 1.98861E+01-1.07234E-02 5.99750E-04 1.48941E-01 2.15312E-14 7.96524E-14
 -1      2302 1.98983E+01-2.00133E-02-3.22879E-04 1.72579E-01 3.11685E-14 5.38366E-14
 -1      2303 1.99007E+01-6.89470E-03-5.15570E-04 1.46791E-01-1.29757E-14 5.80871E-14
 -1      2304 1.99289E+01-1.72234E-03 7.40895E-04 1.45927E-01 1.71887E-15 5.62538E-14
 -1      2305 1.99278E+01-1.10055E-02-2.79039E-04 1.66216E-01-5.23891E-15 5.82366E-14
 -1      2306 1.99450E+01 3.23992E-03-4.80072E-04 1.47479E-01 6.76443E-15 4.51885E-14
 -1      2307 1.99748E+01 9.55096E-03 9.28118E-04 1.50495E-01-1.74688E-15 6.99146E-14
 -1      2308 1.99600E+01 1.53933E-03-2.91152E-04 1.66183E-01-6.79393E-15 4.51524E-14
 -1      2309 1.99928E+01 1.54723E-02-4.17096E-04 1.56767E-01-2.11568E-14 4.18906E-14
 -1      2310 2.00256E+01 2.27707E-02 1.15778E-03 1.64457E-01-2.08809E-14 5.28754E-14
 -1      2311 1.99957E+01 1.70158E-02-3.45567E-04 1.74925E-01-2.03451E-14 7.77711E-14
 -1      2312 2.00462E+01 2.94984E-02-3.38520E-04 1.76297E-01-4.42997E-14 2.58249E-14
 -1      2313 2.00837E+01 3.76195E-02 1.42136E-03 1.89313E-01-4.47356E-14 1.95371E-14
 -1      2314 2.00361E+01 3.49787E-02-4.31776E-04 1.94449E-01-6.77545E-14 9.82864E-15
 -1      2315 2.01078E+01 4.49462E-02-2.50229E-04 2.07396E-01-1.43691E-14-2.68424E-14
 -1      2316 2.01518E+01 5.36172E-02 1.70213E-03 2.26204E-01-4.81990E-14-1.62849E-14
 -1      2317 2.00828E+01 5.49425E-02-5.41649E-04 2.26378E-01-5.96795E-14-3.09070E-14
 -1      2318 2.01807E+01 6.11855E-02-1.52346E-04 2.50960E-01-8.96103E-14 1.85635E-14
 -1      2319 2.02331E+01 6.99047E-02 1.97061E-03 2.75725E-01-8.16404E-14 1.30383E-14
 -1      2320 2.01380E+01 7.61412E-02-6.69222E-04 2.71890E-01-3.02363E-14 1.35444E-14
 -1      2321 2.02682E+01 7.70820E-02-3.84870E-05 3.07183E-01-7.48189E-14-3.07096E-14
 -1      2322 2.03309E+01 8.49601E-02 2.17894E-03 3.37562E-01-7.58122E-14 1.03529E-14
 -1      2323 2.02042E+01 9.72229E-02-8.11303E-04 3.31477E-01-6.35751E-14 2.88929E-15
 -1      2324 2.03737E+01 9.06775E-02 1.05955E-04 3.75083E-01-8.05438E-14 5.31909E-14
 -1      2325 2.04484E+01 9.62370E-02 2.25439E-03 4.09895E-01-4.53651E-14-1.34985E-14
 -1      2326 2.02841E+01 1.15854E-01-9.69176E-04 4.04518E-01-4.72119E-14-8.84719E-14
 -1      2327 2.05007E+01 9.87937E-02 3.06293E-04 4.51779E-01-3.88619E-14-1.84272E-15
 -1      2328 2.05884E+01 9.97371E-02 2.09324E-03 4.88545E-01 3.37125E-14 7.97515E-15
 -1      2329 2.03811E+01 1.28229E-01-1.15154E-03 4.88609E-01-3.47630E-14-1.06158E-13
 -1      2330 2.06527E+01 9.65933E-02 6.00709E-04 5.31483E-01 6.11876E-14-2.11153E-14
 -1      2331 2.07533E+01 8.95908E-02 1.55785E-03 5.65835E-01 7.44794E-14 2.92488E-14
 -1      2332 2.04988E+01 1.28510E-01-1.37798E-03 5.78613E-01 8.38308E-15 4.79406E-14
 -1      2333 2.08324E+01 7.72296E-02 1.03903E-03 6.04219E-01 8.26506E-14-1.14748E-14
 -1      2334 2.09446E+01 5.78600E-02 4.82428E-04 6.29232E-01 8.70800E-14-7.24411E-14
 -1      2335 2.06416E+01 1.08355E-01-1.68043E-03 6.65419E-01 3.76336E-14 1.19209E-14
 -1      2336 2.10420E+01 3.19009E-02 1.67070E-03 6.54387E-01 7.43198E-14-1.37882E-13
 -1      2337 2.11621E+01-4.96502E-03-1.30151E-03 6.60037E-01 7.25419E-14-1.20673E-13
 -1      2338 2.08147E+01 5.68545E-02-2.09574E-03 7.34486E-01 4.11224E-14-7.56200E-14
 -1      2339 2.12818E+01-4.90381E-02 2.50969E-03 6.59580E-01 5.26141E-14-1.03224E-13
 -1      2340 2.14033E+01-1.07893E-01-3.90193E-03 6.32749E-01-9.99521E-15-2.21613E-14
 -1      2341 2.10242E+01-3.83682E-02-2.63538E-03 7.64412E-01 4.92669E-14-1.45374E-13
 -1      2342 2.15485E+01-1.72803E-01 3.45228E-03 5.90595E-01-7.16379E-14 4.15433E-14
 -1      2343 2.16613E+01-2.54445E-01-7.23178E-03 5.16417E-01-2.94066E-14 9.88635E-14
 -1      2344 2.12763E+01-1.87609E-01-3.21311E-03 7.26191E-01 2.81163E-14-1.12285E-13
 -1      2345 2.18319E+01-3.37299E-01 4.15648E-03 4.14486E-01-5.89327E-14 7.45068E-14
 -1      2346 2.19215E+01-4.33471E-01-1.07663E-02 2.80290E-01-2.40457E-14 3.74084E-14
 -1      2347 2.15740E+01-3.91304E-01-3.51635E-03 5.84622E-01-6.35231E-14 6.81660E-15
 -1      2348 2.21079E+01-5.19925E-01 3.92869E-03 1.03763E-01-2.44652E-14-4.64398E-14
 -1      2349 2.21559E+01-6.06264E-01-1.31544E-02-9.31235E-02-4.93902E-14-5.92314E-14
 -1      2350 2.19101E+01-6.26756E-01-2.84985E-03 3.04675E-01-7.06027E-14-1.56971E-13
 -1      2351 2.23319E+01-6.64400E-01 1.84564E-03-3.44579E-01 2.90783E-16-8.70489E-14
 -1      2352 2.23182E+01-6.96068E-01-1.21663E-02-5.84743E-01-2.63947E-14 2.48212E-14
 -1      2353 2.22557E+01-8.31262E-01-7.98985E-05-1.32873E-01-1.11935E-14 3.54477E-14
 -1      2354 2.24357E+01-6.76904E-01-3.26657E-03-8.78615E-01 7.45411E-15 1.33322E-13
 -1      2355 2.23478E+01-5.96979E-01-5.59284E-03-1.10838E+00 7.05247E-14 3.10908E-13
 -1      2356 2.25469E+01-8.92510E-01 5.39964E-03-7.01697E-01 1.16423E-13 6.45758E-14
 -1      2357 2.23486E+01-4.52109E-01-1.06324E-02-1.36090E+00 1.33287E-14 3.25160E-13
 -1      2358 2.21940E+01-2.27223E-01 6.19585E-03-1.49101E+00-3.01504E-14 4.36794E-13
 -1      2359 2.26862E+01-6.74792E-01 1.12853E-02-1.28911E+00 7.24583E-14 2.20585E-13
 -1      2360 2.20534E+01 4.50513E-02-1.66851E-02-1.57534E+00-1.55771E-13 3.19879E-13
 -1      2361 2.18711E+01 3.72480E-01 1.75214E-02-1.51285E+00-1.50076E-13 1.13758E-13
 -1      2362 2.25894E+01-1.07018E-01 1.20196E-02-1.67412E+00-1.85010E-13 2.55789E-13
 -1      2363 2.16504E+01 6.87008E-01-1.42855E-02-1.32239E+00 3.77977E-14 2.97644E-14
 -1      2364 2.15044E+01 9.77720E-01 1.97230E-02-1.03323E+00 9.15127E-14 5.79055E-14
 -1      2365 2.22770E+01 6.92676E-01 3.08895E-03-1.59389E+00-1.13854E-13 1.53838E-13
 -1      2366 2.13465E+01 1.17435E+00-2.85463E-03-5.80875E-01 8.18573E-14 1.22758E-13
 -1      2367 2.12994E+01 1.26047E+00 7.95386E-03-1.47849E-01 8.69756E-14 1.85411E-13
 -1      2368 2.19338E+01 1.39398E+00-9.39766E-03-9.23610E-01 1.76846E-13 2.86425E-13
 -1      2369 2.13292E+01 1.21346E+00 1.36591E-02 3.83525E-01-8.08988E-15 3.52932E-13
 -1      2370 2.13969E+01 1.03986E+00-7.51749E-03 7.81851E-01 7.87196E-14 4.05581E-13
 -1      2371 2.18144E+01 1.59243E+00-1.66372E-02 1.36212E-01 1.90693E-13 4.24344E-13
 -1      2372 2.15819E+01 7.81912E-01 2.09921E-02 1.15441E+00 1.04959E-13 3.40973E-13
 -1      2373 2.17286E+01 4.54602E-01-1.68550E-02 1.36523E+00 9.52479E-14 3.52205E-13
 -1      2374 2.20104E+01 1.17809E+00-6.40531E-03 1.10310E+00 6.93204E-14 3.20314E-13
 -1      2375 2.19254E+01 1.34480E-01 1.46637E-02 1.44947E+00 4.16210E-14 2.04007E-13
 -1      2376 2.20834E+01-1.73681E-01-1.58938E-02 1.43065E+00-1.07853E-13 1.08489E-13
 -1      2377 2.23513E+01 3.90922E-01 7.52272E-03 1.56801E+00-1.88773E-14 1.22511E-13
 -1      2378 2.21657E+01-4.10273E-01 1.83097E-03 1.26400E+00-6.14001E-14 6.73051E-14
 -1      2379 2.22763E+01-5.88148E-01-8.90230E-03 1.07896E+00-5.25283E-14 2.18938E-14
 -1      2380 2.25800E+01-3.69113E-01 1.27588E-02 1.44674E+00-1.38634E-13 1.48736E-15
 -1      2381 2.22162E+01-6.87341E-01-8.54385E-03 7.88399E-01-1.90175E-13 5.64931E-14
 -1      2382 2.22517E+01-7.24180E-01-1.92712E-03 5.36433E-01-2.59478E-13 1.06932E-13
 -1      2383 2.25640E+01-8.24529E-01 9.36735E-03 9.40355E-01-1.43818E-13 2.25230E-13
 -1      2384 2.20931E+01-7.10748E-01-1.29924E-02 2.39032E-01-2.68083E-13 1.95865E-13
 -1      2385 2.20547E+01-6.53260E-01 2.27628E-03-5.75154E-04-1.23586E-13 3.34944E-13
 -1      2386 2.23318E+01-9.34673E-01 3.27732E-03 3.16711E-01-2.14606E-13 3.06082E-13
 -1      2387 2.18545E+01-5.77837E-01-1.25551E-02-2.38397E-01-1.26542E-13 3.89215E-13
 -1      2388 2.17594E+01-4.79708E-01 3.98632E-03-4.22453E-01 2.13766E-14 2.56617E-13
 -1      2389 2.19807E+01-8.05920E-01-1.31511E-03-2.37420E-01-1.44389E-13 5.67670E-13
 -1      2390 2.15589E+01-3.85380E-01-9.59478E-03-5.79037E-01 2.63884E-13 1.59578E-13
 -1      2391 2.14285E+01-2.83222E-01 4.26705E-03-6.94421E-01 3.14972E-13 1.88511E-13
 -1      2392 2.15991E+01-5.68581E-01-3.31967E-03-6.38382E-01 6.58838E-14 4.04885E-13
 -1      2393 2.12475E+01-1.93974E-01-6.11254E-03-7.73544E-01 1.25442E-13 1.57593E-13
 -1      2394 2.11012E+01-1.04083E-01 4.09686E-03-8.23817E-01 9.17929E-14 1.71011E-13
 -1      2395 2.12390E+01-3.15090E-01-3.61441E-03-8.73634E-01 1.76841E-13 2.38929E-13
 -1      2396 2.09450E+01-2.77214E-02-3.15172E-03-8.38239E-01 1.48918E-13 7.24894E-14
 -1      2397 2.07980E+01 4.74525E-02 3.96354E-03-8.32791E-01 5.68228E-14 1.30587E-13
 -1      2398 2.09209E+01-8.84118E-02-3.10522E-03-9.63005E-01 2.82377E-14 2.89906E-13
 -1      2399 2.06646E+01 1.12276E-01-9.72102E-04-7.95336E-01-9.90074E-14 6.65413E-14
 -1      2400 2.05291E+01 1.73893E-01 3.51744E-03-7.42951E-01-7.02341E-14 2.70938E-14
 -1      2401 2.06477E+01 1.02523E-01-2.20973E-03-9.33467E-01-1.20327E-14 8.74812E-14
 -1      2402 1.03108E+01-4.19005E+00 4.82538E-02 6.34564E+00-2.12219E-13 4.02900E-13
 -1      2403 7.72278E+00-3.52020E+00 1.25424E-01 5.06596E+00-1.46383E-13 2.26458E-13
 -1      2404 1.96187E+01 7.28177E-02 2.07961E-03-6.46920E-02 7.86018E-14-7.39746E-14
 -1      2405 1.96463E+01 1.04405E-01 6.91086E-03-1.84360E-02 1.01975E-13-3.93101E-14
 -1      2406 1.95953E+01 3.13552E-02 1.37390E-03-1.30922E-01 7.03727E-14-1.07135E-13
 -1      2407 1.95922E+01 5.00529E-02 3.69306E-03-1.08141E-01 7.47757E-14-7.58613E-14
 -1      2408 1.97650E+01 9.03536E-02-3.20607E-03-7.02287E-02 9.76660E-14-8.73073E-14
 -1      2409 1.96081E+01 6.90949E-03 9.35926E-04-1.60427E-01 6.29064E-14-9.10524E-14
 -1      2410 1.95877E+01 1.78241E-02 1.83740E-03-1.51661E-01 6.89658E-14-1.03254E-13
 -1      2411 1.97314E+01 3.69815E-02-2.32381E-03-1.43460E-01 7.14532E-14-9.78013E-14
 -1      2412 1.96418E+01-6.82651E-03 6.54683E-04-1.67940E-01 6.23365E-14-8.62397E-14
 -1      2413 1.96126E+01-8.85265E-04 7.49425E-04-1.67344E-01 5.04637E-14-8.41993E-14
 -1      2414 1.97290E+01 5.78807E-03-1.57161E-03-1.76839E-01 5.70578E-14-1.73406E-13
 -1      2415 1.96866E+01-1.34793E-02 4.85577E-04-1.63129E-01 7.12479E-15-5.12889E-14
 -1      2416 1.96536E+01-1.08568E-02 1.10943E-04-1.66886E-01 6.10409E-14-4.59799E-14
 -1      2417 1.97463E+01-1.13763E-02-1.01981E-03-1.86166E-01 2.99543E-14-1.03857E-13
 -1      2418 1.97364E+01-1.52647E-02 4.08991E-04-1.52565E-01 9.29097E-14-9.40502E-14
 -1      2419 1.97026E+01-1.49386E-02-2.45512E-04-1.58076E-01 6.35088E-14-5.95476E-14
 -1      2420 1.97749E+01-1.92309E-02-6.48640E-04-1.82060E-01 3.39644E-14-7.24413E-14
 -1      2421 1.97878E+01-1.35710E-02 4.13738E-04-1.40867E-01 5.01082E-14-1.15485E-13
 -1      2422 1.97545E+01-1.49022E-02-4.17348E-04-1.46291E-01 8.91177E-14-1.18149E-13
 -1      2423 1.98098E+01-2.06632E-02-4.21106E-04-1.71861E-01 1.01502E-13-1.45623E-13
 -1      2424 1.98399E+01-9.25075E-03 4.93672E-04-1.31411E-01 9.44862E-14-1.63936E-13
 -1      2425 1.98072E+01-1.18549E-02-4.66315E-04-1.35379E-01 5.88670E-14-1.31875E-13
 -1      2426 1.98480E+01-1.74716E-02-3.03865E-04-1.60798E-01 5.94883E-14-1.28623E-13
 -1      2427 1.98929E+01-2.77898E-03 6.47140E-04-1.26814E-01 5.04712E-14-1.21192E-13
 -1      2428 1.98602E+01-6.45492E-03-4.33523E-04-1.28237E-01 1.06279E-13-1.13692E-13
 -1      2429 1.98883E+01-1.07431E-02-2.71215E-04-1.52748E-01 7.26651E-14-1.35534E-13
 -1      2430 1.99485E+01 5.65280E-03 8.76712E-04-1.29283E-01 4.71454E-14-1.37651E-13
 -1      2431 1.99145E+01 9.67117E-04-3.46833E-04-1.27206E-01 5.23834E-14-1.19341E-13
 -1      2432 1.99309E+01-1.06106E-03-3.04203E-04-1.50761E-01 4.05156E-14-1.25666E-13
 -1      2433 2.00094E+01 1.60733E-02 1.18852E-03-1.40873E-01 1.55823E-14-1.13721E-13
 -1      2434 1.99722E+01 1.03308E-02-2.25269E-04-1.34367E-01 1.09959E-14-9.94104E-14
 -1      2435 1.99769E+01 1.13695E-02-3.88805E-04-1.57446E-01 2.48511E-14-1.33633E-13
 -1      2436 2.00793E+01 2.86812E-02 1.59111E-03-1.63688E-01 4.66105E-14-1.18957E-13
 -1      2437 2.00364E+01 2.17512E-02-8.20253E-05-1.51766E-01 5.57990E-14-1.07155E-13
 -1      2438 2.00283E+01 2.66354E-02-5.14243E-04-1.75252E-01 6.34425E-15-1.02709E-13
 -1      2439 2.01625E+01 4.37919E-02 2.09350E-03-2.00013E-01-7.41672E-14-5.96556E-14
 -1      2440 2.01109E+01 3.54884E-02 7.32671E-05-1.81577E-01-6.65142E-15-5.23641E-14
 -1      2441 2.00876E+01 4.50420E-02-6.71287E-04-2.06680E-01 1.18726E-15-4.11727E-14
 -1      2442 2.02642E+01 6.17640E-02 2.70160E-03-2.52388E-01-6.54238E-14-3.56514E-14
 -1      2443 2.02004E+01 5.18883E-02 2.32703E-04-2.26203E-01-4.81639E-14-1.90624E-14
 -1      2444 2.01581E+01 6.70310E-02-8.50665E-04-2.54416E-01-1.12507E-13 3.95463E-16
 -1      2445 2.03904E+01 8.28723E-02 3.41185E-03-3.23579E-01 4.37833E-14-6.85361E-14
 -1      2446 2.03104E+01 7.12880E-02 3.88652E-04-2.88301E-01-2.35793E-14-5.60432E-14
 -1      2447 2.02434E+01 9.30577E-02-1.04201E-03-3.21377E-01-2.27013E-14-2.96808E-14
 -1      2448 2.05476E+01 1.07071E-01 4.19975E-03-4.16374E-01 1.18860E-13-1.61783E-13
 -1      2449 2.04470E+01 9.38465E-02 5.32967E-04-3.70675E-01 1.31853E-13-8.28374E-14
 -1      2450 2.03477E+01 1.23378E-01-1.23394E-03-4.10625E-01 9.32438E-14-6.90658E-14
 -1      2451 2.07428E+01 1.33554E-01 5.00060E-03-5.33081E-01 1.90743E-13-1.89855E-13
 -1      2452 2.06168E+01 1.19226E-01 6.57607E-04-4.75949E-01 9.46516E-14-2.69546E-13
 -1      2453 2.04752E+01 1.57651E-01-1.41690E-03-5.25075E-01 1.90595E-13-2.16196E-13
 -1      2454 2.09829E+01 1.59948E-01 5.67928E-03-6.74509E-01 2.94816E-14-7.03036E-14
 -1      2455 2.08268E+01 1.46000E-01 7.58421E-04-6.05845E-01 1.89749E-13-8.62050E-14
 -1      2456 2.06305E+01 1.94210E-01-1.59169E-03-6.66833E-01 1.02724E-13-1.86797E-13
 -1      2457 2.12742E+01 1.80937E-01 5.98772E-03-8.38050E-01-2.22630E-13-7.51597E-14
 -1      2458 2.10843E+01 1.70612E-01 8.45557E-04-7.59794E-01-1.29084E-13-9.55524E-14
 -1      2459 2.08182E+01 2.28776E-01-1.78862E-03-8.35949E-01-4.20346E-14-4.94910E-14
 -1      2460 2.16222E+01 1.86097E-01 5.51664E-03-1.01439E+00-2.41431E-13-1.41930E-13
 -1      2461 2.13965E+01 1.85631E-01 9.66111E-04-9.32428E-01-2.45826E-13-1.00579E-13
 -1      2462 2.10437E+01 2.52308E-01-2.10269E-03-1.02821E+00-2.51650E-13-5.72407E-14
 -1      2463 2.20306E+01 1.56994E-01 3.66554E-03-1.18229E+00-1.55584E-13-1.81672E-13
 -1      2464 2.17704E+01 1.77197E-01 1.24506E-03-1.10941E+00-1.78445E-13-2.08325E-13
 -1      2465 2.13141E+01 2.47807E-01-2.74555E-03-1.23148E+00-1.91064E-13-1.83420E-13
 -1      2466 2.25015E+01 6.46562E-02-3.13674E-04-1.30131E+00-1.85093E-14-8.00922E-14
 -1      2467 2.22138E+01 1.22034E-01 1.93884E-03-1.26107E+00-1.54657E-13-1.93174E-13
 -1      2468 2.16413E+01 1.86444E-01-4.09256E-03-1.42012E+00-1.76905E-13-2.89128E-13
 -1      2469 2.30349E+01-1.28701E-01-7.09692E-03-1.30383E+00-1.90852E-14 6.74118E-14
 -1      2470 2.27353E+01-1.38329E-02 3.44977E-03-1.33395E+00 4.62050E-14 4.10611E-14
 -1      2471 2.20458E+01 2.52607E-02-6.63981E-03-1.54718E+00-8.12878E-14-2.56354E-13
 -1      2472 2.36259E+01-4.53730E-01-1.67204E-02-1.09181E+00-8.52339E-14 2.34897E-13
 -1      2473 2.33423E+01-2.68355E-01 6.06913E-03-1.24276E+00-9.25718E-14 1.99122E-13
 -1      2474 2.25619E+01-2.86678E-01-1.06672E-02-1.53535E+00-1.43463E-13-1.32589E-13
 -1      2475 2.42518E+01-8.88123E-01-2.70285E-02-5.53377E-01-6.75892E-14 3.10380E-13
 -1      2476 2.40289E+01-6.55403E-01 8.77846E-03-8.72826E-01-2.52472E-14 2.75408E-13
 -1      2477 2.32342E+01-7.76632E-01-1.52677E-02-1.27183E+00-1.44901E-13 1.07343E-13
 -1      2478 2.48396E+01-1.27218E+00-3.14839E-02 3.73679E-01-1.81681E-13 1.82587E-13
 -1      2479 2.47417E+01-1.09896E+00 8.86750E-03-1.15432E-01-3.77563E-14 3.00764E-13
 -1      2480 2.40882E+01-1.37497E+00-1.70682E-02-6.24799E-01-4.93884E-14 1.62874E-13
 -1      2481 2.52307E+01-1.24180E+00-2.15875E-02 1.55451E+00 5.59847E-14-1.99103E-14
 -1      2482 2.53161E+01-1.33754E+00-1.69234E-03 1.01841E+00-1.14079E-13 3.26865E-14
 -1      2483 2.50513E+01-1.78541E+00-8.65199E-03 4.81273E-01-5.79380E-14 2.11376E-14
 -1      2484 2.52113E+01-3.91974E-01 9.06150E-04 2.46781E+00-1.35378E-14 7.99300E-14
 -1      2485 2.54693E+01-9.48498E-01-3.78270E-02 2.17993E+00-1.08824E-14 3.65198E-14
 -1      2486 2.58039E+01-1.48748E+00-1.76753E-02 1.87743E+00-2.62221E-14-1.10661E-13
 -1      2487 2.46996E+01 1.15105E+00 3.32415E-03 2.33771E+00-1.58623E-14 1.94853E-13
 -1      2488 2.50557E+01 3.25842E-01-6.95638E-02 2.62965E+00-1.83256E-14 1.61332E-13
 -1      2489 2.60704E+01-9.92017E-02-1.62440E-02 2.78657E+00-9.40255E-14 1.55972E-13
 -1      2490 2.41843E+01 2.31263E+00-3.21993E-02 7.60246E-01 1.12313E-13 2.51866E-13
 -1      2491 2.44027E+01 1.87939E+00-5.96894E-02 1.61784E+00 7.68968E-14 3.05563E-13
 -1      2492 2.57025E+01 2.04865E+00-5.20958E-02 2.24085E+00-1.99632E-14 2.89165E-13
 -1      2493 2.42819E+01 1.95483E+00-8.41188E-02-1.34299E+00 2.00645E-13 1.23914E-13
 -1      2494 2.41872E+01 2.35232E+00-2.84546E-02-4.73875E-01 1.60094E-13 2.11626E-13
 -1      2495 2.53921E+01 3.17126E+00-6.08267E-02 1.36590E-01 2.11775E-13 1.27863E-13
 -1      2496 2.49334E+01 4.63860E-01-6.83936E-02-2.50203E+00 3.03042E-13-5.14215E-14
 -1      2497 2.45945E+01 1.28663E+00-3.09213E-03-2.16569E+00 3.30028E-13 5.16991E-14
 -1      2498 2.55809E+01 2.20542E+00-5.00120E-02-2.04388E+00 3.79245E-13-2.68539E-13
 -1      2499 2.53524E+01-8.76396E-01-3.32965E-02-2.14923E+00-9.10617E-14-5.92204E-14
 -1      2500 2.50721E+01-3.05245E-01-6.47682E-03-2.40779E+00 2.80678E-15-3.18816E-14
 -1      2501 2.59957E+01 1.04082E-01-2.02568E-02-2.67569E+00 1.72140E-13-1.89123E-13
 -1      2502 2.51883E+01-1.34488E+00-9.87237E-04-1.00357E+00-2.20464E-13 1.28486E-13
 -1      2503 2.51055E+01-1.21882E+00-2.15104E-02-1.52778E+00-5.33835E-14 8.27155E-14
 -1      2504 2.57822E+01-1.41511E+00-1.76854E-03-1.81872E+00-1.73622E-13 1.29130E-13
 -1      2505 2.45853E+01-1.14691E+00 1.12554E-02 1.66323E-01-2.51597E-13 1.80783E-13
 -1      2506 2.46972E+01-1.30512E+00-2.94984E-02-3.27618E-01-4.25510E-13 3.13638E-14
 -1      2507 2.49900E+01-1.81279E+00-5.16330E-03-4.39526E-01-2.69096E-13 6.24791E-14
 -1      2508 2.38170E+01-7.13997E-01 8.78493E-03 9.79496E-01 1.27285E-15 2.07422E-13
 -1      2509 2.40666E+01-9.41178E-01-2.58601E-02 6.45489E-01 2.52055E-15 1.53229E-13
 -1      2510 2.39886E+01-1.45350E+00-1.75387E-02 7.19289E-01-1.41042E-13 4.96586E-14
 -1      2511 2.30640E+01-3.19262E-01 5.37195E-03 1.40157E+00 1.78243E-13 2.21355E-14
 -1      2512 2.33840E+01-5.05855E-01-1.63336E-02 1.23287E+00 1.64524E-13 1.30929E-13
 -1      2513 2.30805E+01-8.56625E-01-1.65225E-02 1.42352E+00 1.71309E-13-1.39662E-14
 -1      2514 2.23850E+01-4.69807E-02 2.84384E-03 1.53016E+00 2.73594E-13-1.11214E-13
 -1      2515 2.27267E+01-1.68433E-01-7.09044E-03 1.48512E+00 2.50254E-13-6.09174E-14
 -1      2516 2.23499E+01-3.49596E-01-1.16654E-02 1.73597E+00 3.14934E-13-3.06790E-13
 -1      2517 2.17921E+01 1.14349E-01 1.99034E-03 1.47343E+00 1.22123E-13-4.80482E-14
 -1      2518 2.21231E+01 4.47734E-02-4.56315E-04 1.50665E+00 1.87239E-13 4.81631E-14
 -1      2519 2.17762E+01-8.83561E-03-7.05438E-03 1.77890E+00 1.77897E-13-1.49767E-13
 -1      2520 2.12822E+01 2.06484E-01 2.38955E-03 1.30951E+00-2.66176E-13-1.37339E-13
 -1      2521 2.15822E+01 1.66408E-01 3.49844E-03 1.38919E+00-1.03489E-13-1.49931E-13
 -1      2522 2.13174E+01 1.91519E-01-4.14419E-03 1.65933E+00 7.53603E-14-3.91857E-14
 -1      2523 2.08506E+01 2.68876E-01 3.07807E-03 1.08058E+00-2.15499E-13-1.09911E-13
 -1      2524 2.11078E+01 2.40139E-01 5.42096E-03 1.19072E+00-3.51766E-13-5.42433E-14
 -1      2525 2.09389E+01 3.07901E-01-3.02905E-03 1.44738E+00-3.04396E-13-2.41271E-13
 -1      2526 2.04951E+01 3.26815E-01 4.23960E-03 8.06541E-01-1.01369E-13 5.01000E-14
 -1      2527 2.07037E+01 2.96820E-01 5.50856E-03 9.38931E-01-1.93657E-13-8.22755E-14
 -1      2528 2.06192E+01 3.90097E-01-3.87601E-03 1.17755E+00-2.51081E-13-3.50926E-13
 -1      2529 2.03628E+01 3.48522E-01 4.13540E-03 6.35471E-01 2.48026E-14 2.34322E-13
 -1      2530 1.96417E+01 1.57692E+00-7.64189E-03 7.48304E-01-3.08519E-13-1.45394E-13
 -1      2531 1.97189E+01 1.45047E+00 3.75346E-05 8.64539E-01-4.37178E-13-2.45825E-13
 -1      2532 1.95438E+01 1.74823E+00-6.86989E-03 4.21447E-01 8.38917E-14 1.28712E-13
 -1      2533 1.95843E+01 1.67188E+00-3.01743E-03 5.80061E-01-1.76788E-13-1.07434E-13
 -1      2534 1.94931E+01 1.52820E+00 5.46987E-03 7.51440E-01-1.40228E-13 3.93075E-14
 -1      2535 2.00139E+01 9.89426E-01-5.82037E-03 1.04471E+00-6.17674E-13-1.09206E-13
 -1      2536 2.01327E+01 8.16694E-01 6.24238E-03 1.02701E+00-4.52612E-13-1.99272E-13
 -1      2537 1.98063E+01 1.31138E+00-6.99078E-03 9.69361E-01-7.43219E-13-9.07980E-14
 -1      2538 1.99089E+01 1.15413E+00 3.11851E-03 1.02210E+00-7.32875E-13 1.67040E-13
 -1      2539 1.99567E+01 1.01156E+00 3.92838E-03 1.18107E+00-5.80977E-13-3.64963E-14
 -1      2540 1.96908E+01 1.30345E+00 4.35987E-03 1.04275E+00-5.10831E-13 1.03878E-13
 -1      2541 1.95240E+01 1.80062E+00-4.93423E-03 4.68402E-02 4.58851E-14-1.35605E-13
 -1      2542 1.95241E+01 1.78263E+00-5.86648E-03 2.20310E-01 1.38321E-13-1.19589E-13
 -1      2543 1.93907E+01 1.65298E+00 6.88734E-03 3.57096E-01 1.30614E-13-1.30407E-14
 -1      2544 1.95780E+01 1.73042E+00-2.48085E-03-3.14023E-01-1.34453E-13-1.08366E-13
 -1      2545 1.95417E+01 1.77067E+00-7.70787E-03-1.53611E-01-9.47064E-14-2.52101E-14
 -1      2546 1.93887E+01 1.65769E+00 6.60523E-03-7.19791E-02 1.16871E-13-1.11434E-13
 -1      2547 1.96865E+01 1.55560E+00-2.55088E-04-6.08082E-01-1.11940E-13 6.15740E-14
 -1      2548 1.96254E+01 1.64562E+00-7.98499E-03-4.83026E-01-1.21850E-13-6.79318E-15
 -1      2549 1.94776E+01 1.54757E+00 4.96899E-03-4.65643E-01-2.91842E-14-9.91284E-14
 -1      2550 1.98210E+01 1.31441E+00 1.56604E-03-7.99526E-01-7.85999E-14 1.81886E-13
 -1      2551 1.97500E+01 1.43678E+00-6.81229E-03-7.23263E-01-1.64423E-13 1.11940E-13
 -1      2552 1.96291E+01 1.35142E+00 2.81455E-03-7.66683E-01 6.92239E-14 1.25160E-13
 -1      2553 1.99618E+01 1.03607E+00 2.80918E-03-8.83800E-01 3.70719E-14 3.65393E-13
 -1      2554 1.98904E+01 1.17832E+00-4.72601E-03-8.57272E-01-1.35332E-13 3.29258E-13
 -1      2555 1.98086E+01 1.10587E+00 5.33339E-04-9.48451E-01-8.09794E-14 2.27524E-13
 -1      2556 2.00908E+01 7.57171E-01 3.21565E-03-8.63161E-01 1.86561E-13 1.43959E-13
 -1      2557 2.00265E+01 9.02028E-01-2.42902E-03-8.83880E-01 1.12877E-13 2.21113E-13
 -1      2558 1.99898E+01 8.45237E-01-1.17772E-03-1.00714E+00 2.11842E-15 3.28901E-13
 -1      2559 2.02020E+01 5.03445E-01 3.98837E-03-7.53326E-01-8.73498E-14-9.04229E-14
 -1      2560 2.01478E+01 6.37988E-01 1.79223E-04-8.13997E-01 3.18240E-14-3.51516E-14
 -1      2561 2.01544E+01 6.01492E-01-1.83277E-04-9.53592E-01 9.81035E-14 2.08631E-14
 -1      2562 2.02264E+01 3.40641E-01 7.02971E-04-5.33937E-01 1.39973E-13-7.26103E-14
 -1      2563 1.14131E+01-5.25695E+00 2.03549E-02-6.79402E+00-2.86438E-14-1.35947E-13
 -1      2564 1.53694E+01-5.33903E+00 1.47850E-03-7.23242E+00 7.70495E-14-1.55681E-13
 -1      2565 1.16836E+01-4.32080E+00 1.08718E-01-6.65703E+00-1.43219E-14-7.49678E-14
 -1      2566 1.96999E+01 1.43337E-01 3.26693E-03 6.15971E-02 1.28785E-13-4.26869E-14
 -1      2567 1.97788E+01 1.98106E-01 1.23851E-02 1.47814E-01 1.53814E-13-1.19427E-14
 -1      2568 1.98458E+01 1.81043E-01-3.89263E-03 6.70788E-02 1.28407E-13-9.83059E-14
 -1      2569 5.18877E+00-2.67042E+00 9.49430E-02 3.29747E+00-3.36953E-14-2.50355E-14
 -1      2570 3.79986E+00-2.52528E+00 1.22878E-01 8.51780E-01 1.34056E-13-1.06304E-13
 -1      2571 1.89830E+01-5.64460E+00 4.08843E-03 6.46388E+00-2.61291E-13-1.05631E-13
 -1      2572 1.43899E+01-5.19058E+00 8.40882E-02 6.53738E+00-3.43642E-13 2.67245E-13
 -1      2573 3.14570E+01 3.69409E+00-1.23148E-01 8.47817E-01-2.08306E-13-2.57766E-13
 -1      2574 3.20368E+01 5.58918E+00-1.22459E-01 9.23922E-01-4.57634E-13-5.43232E-13
 -1      2575 3.14672E+01 3.80438E+00-1.75627E-01-1.14010E+00-5.00544E-13-3.70648E-13
 -1      2576 3.15422E+01 1.77987E+00-7.01120E-03-2.33790E-02-4.61201E-13-3.67761E-13
 -1      2577 2.85725E+00-2.97547E+00 6.01994E-02 2.66419E-01 1.71703E-13-5.56277E-13
 -1      2578 3.71676E+00-2.94333E+00 5.71274E-02-2.28223E+00 1.95927E-13-3.35232E-13
 -1      2579 2.67705E+01-4.37548E+00-2.33950E-02-3.01541E+00-1.74166E-14-4.56579E-13
 -1      2580 2.94796E+01-2.93465E+00-7.63687E-02-1.92891E+00-4.67126E-14-3.78975E-13
 -1      2581 3.24385E+00-2.81831E+00 1.08041E-01-1.10023E+00 6.12271E-14 4.67959E-14
 -1      2582 4.13531E+00-3.43089E+00 4.80247E-02-3.41454E+00 8.08520E-14 1.33837E-13
 -1      2583 5.59518E+00-1.41151E+00 1.61247E-01 1.16918E-02-1.82663E-13 4.60187E-14
 -1      2584 1.95231E+01 3.58445E+00-1.00962E-02-2.45634E-01-1.35705E-14-3.57746E-13
 -1      2585 1.95389E+01 3.56378E+00-9.65577E-03-4.26565E-01-4.57973E-14-3.45923E-13
 -1      2586 1.97153E+01 3.16316E+00-5.55221E-04-4.74055E-01-5.34054E-14-3.16854E-13
 -1      2587 1.96814E+01 3.22308E+00-9.06889E-04-1.52239E-01-1.08624E-14-3.42085E-13
 -1      2588 2.55413E+01-4.96045E+00-4.22609E-02 4.37359E+00 1.16213E-13-7.04908E-13
 -1      2589 2.26288E+01-5.58852E+00 1.70282E-02 5.12524E+00-5.79814E-14-5.65520E-13
 -1      2590 3.23075E+01 5.95771E+00-2.21108E-01-1.23704E+00 2.44138E-13-8.83599E-14
 -1      2591 3.30048E+01 4.49390E+00-8.42949E-02-1.31998E+00 3.30791E-13-2.44804E-13
 -1      2592 3.29445E+01 2.60281E+00-1.44808E-01-9.58579E-01 3.81944E-13-4.09034E-13
 -1      2593 3.18529E+01 6.04658E-01-5.67819E-02-4.71180E-01 4.05814E-13-4.68681E-13
 -1      2594 3.11658E+01 2.99583E+00-3.51306E-02-2.01056E+00 3.72924E-13-6.88338E-14
 -1      2595 3.25807E+01 3.26352E+00-4.47462E-02 1.59975E+00 3.14027E-13-3.66290E-13
 -1      2596 3.19511E+01 5.18070E+00-1.89477E-01 1.77289E+00 2.81331E-13-4.14391E-13
 -1      2597 3.08965E+01-1.16402E+00-4.80721E-02-3.75072E-01-1.90351E-14-3.63043E-13
 -1      2598 3.20779E+01 7.30533E-01-1.65375E-01 7.01825E-01 1.54599E-13-2.23793E-13
 -1      2599 2.97757E+01-2.54876E+00 1.72297E-02-5.88566E-02-4.35962E-14-2.65510E-13
 -1      2600 2.05754E+01-5.72869E+00 3.91397E-02-5.60904E+00 1.20626E-13-1.82535E-13
 -1      2601 2.37865E+01-5.35743E+00-5.51968E-02-4.91113E+00 2.48135E-14-3.83624E-13
 -1      2602 1.17395E+01-5.03648E+00 6.46820E-02-6.33406E+00 2.77556E-17-1.63008E-13
 -1      2603 1.61825E+01-5.54021E+00-1.90157E-02-6.72842E+00 3.67484E-14-1.11681E-13
 -1      2604 1.92611E+01-5.49229E+00 8.65228E-02-5.88685E+00 1.07692E-14-1.63859E-13
 -1      2605 5.94397E+00-3.46776E+00 9.72791E-02-4.25675E+00 8.06299E-14-2.28040E-13
 -1      2606 8.19631E+00-4.02053E+00 3.16700E-02-5.70870E+00-1.06859E-14-1.80023E-13
 -1      2607 2.67873E+01-3.39985E+00-6.88923E-03 3.91743E+00-1.94345E-13-7.22672E-13
 -1      2608 2.37091E+01-4.64147E+00-2.82724E-03 4.85407E+00 3.04756E-14-7.11098E-13
 -1      2609 1.09183E+01-4.46058E+00 3.51987E-02 6.83188E+00 1.77358E-13-2.47830E-13
 -1      2610 8.02861E+00-4.03034E+00 8.54610E-02 5.83402E+00 1.00614E-13-2.50744E-13
 -1      2611 3.12187E+01 7.25952E+00-1.40842E-01-4.68172E-01-5.50671E-13-4.57360E-13
 -1      2612 3.05405E+01 6.13579E+00-1.84444E-01-1.07793E+00-4.66460E-13-4.19900E-13
 -1      2613 3.03727E+01-4.75775E-01-1.10637E-01 1.36306E+00-3.62016E-13-6.58251E-13
 -1      2614 2.85299E+01-2.11838E+00-4.19851E-02 2.43259E+00-2.98817E-13-6.24722E-13
 -1      2615 2.77388E+01-3.36167E+00 2.07087E-02 2.19038E+00-1.46716E-13-6.12316E-13
 -1      2616 3.17698E+01 6.94779E+00-1.39619E-01 6.86717E-01-4.69902E-13-6.17090E-13
 -1      2617 3.16731E+01 7.47612E+00-1.80594E-01 1.76772E-01-5.59330E-13-6.60444E-13
 -1      2618 2.91502E+01 6.91027E+00-8.51806E-02-2.37242E-01-4.76119E-13-3.30170E-13
 -1      2619 3.00231E+01 5.86483E+00-8.43130E-02 1.20721E+00-4.30544E-13-6.77888E-13
 -1      2620 2.52573E+01-4.43643E+00-6.79214E-04-4.23539E+00 1.02640E-13 8.00471E-14
 -1      2621 2.73612E+01-3.46881E+00-7.26989E-02-3.36145E+00 1.42372E-13-1.45439E-14
 -1      2622 1.92039E+01-5.55475E+00 3.87248E-02-6.37136E+00 1.42247E-13-3.12389E-14
 -1      2623 2.26276E+01-5.07882E+00-1.49786E-02-5.72128E+00 1.64951E-13 1.89126E-13
 -1      2624 2.43744E+01-5.16182E+00 6.10026E-02-4.41890E+00 1.26676E-13 1.05818E-13
 -1      2625 3.05631E+01-1.99018E+00-1.08466E-01 1.23717E+00 3.10821E-13-6.33993E-13
 -1      2626 2.79058E+01-3.77969E+00-3.02302E-02 2.60237E+00 2.67092E-13-5.56777E-13
 -1      2627 2.04868E+01 8.74852E-01-7.32031E-03 1.22818E+00 2.50027E-13 1.08574E-13
 -1      2628 2.08376E+01 1.25688E+00-6.05282E-03 1.72883E+00 2.78409E-13 1.36630E-13
 -1      2629 2.06439E+01 1.71555E+00-1.57918E-02 1.92308E+00 2.93322E-13 4.69728E-14
 -1      2630 2.04462E+01 1.05786E+00-9.39491E-03 1.24314E+00 2.48713E-13-6.85563E-15
 -1      2631 5.04699E+00-3.39989E+00 4.01268E-02 4.46121E+00 3.92464E-14-3.72313E-13
 -1      2632 3.35252E+00-3.21873E+00 5.80098E-02 2.38287E+00 1.77081E-13-5.46674E-13
 -1      2633 3.09639E+01 6.44517E+00-2.35105E-01 6.38381E-01 3.77365E-13-4.03060E-13
 -1      2634 3.17474E+01 6.73400E+00-1.19177E-01-4.31402E-01 3.56326E-13-2.24709E-13
 -1      2635 2.16857E+01-5.60047E+00 7.50813E-02 5.23786E+00-2.34646E-13-3.91607E-13
 -1      2636 1.99150E+01 2.81565E+00 2.62554E-03-1.10003E+00-1.47545E-13-2.62434E-13
 -1      2637 1.97838E+01 3.15998E+00-1.45342E-02-1.28572E+00-1.66802E-13-2.70056E-13
 -1      2638 1.98775E+01 3.03647E+00-1.75155E-02-1.48475E+00-2.06439E-13-2.41230E-13
 -1      2639 8.31470E+00-2.04506E+00 1.84195E-01 3.97125E+00-1.69614E-13 6.88338E-14
 -1      2640 2.04204E+01 2.11564E+00-1.27756E-02 1.87614E+00 2.84721E-13-6.34336E-14
 -1      2641 8.03890E+00-2.79857E+00 1.46260E-01 5.12497E+00 1.04083E-13-3.11140E-13
 -1      2642 1.99916E+01 3.40142E-01-3.56667E-03 3.06361E-01 1.77938E-13-9.29205E-14
 -1      2643 2.01124E+01 2.62119E+00-1.16923E-02-1.68008E+00-2.39105E-13-1.46553E-13
 -1      2644 3.00608E+01 4.67150E-02 3.45359E-03-2.66547E-01-3.49491E-13-2.50633E-13
 -1      2645 1.84805E+01-5.36702E+00 9.06314E-02-6.56111E+00 4.42979E-14 1.51133E-13
 -1      2646 1.45188E+01-4.09933E+00 1.52842E-01 6.16350E+00-2.51271E-13 2.78430E-13
 -1      2647 2.03524E+01 4.65160E-01 2.06465E-03 8.51480E-01-2.44423E-13-3.30009E-13
 -1      2648 3.07688E+01 1.94959E+00-1.02444E-01 9.17688E-01-4.49224E-14-1.97009E-13
 -1      2649 2.93859E+01 2.78329E+00-1.22183E-01 1.76716E+00-2.89130E-13-5.48880E-13
 -1      2650 2.95254E+01 5.12611E-01-1.93252E-02 9.23698E-01-1.62370E-14-1.60066E-13
 -1      2651 2.02878E+01 5.97363E-01-1.32898E-03 9.40860E-01-2.71502E-13-2.19873E-13
 -1      2652 2.73582E+01-4.61114E+00 3.32121E-02 2.47790E+00 6.10484E-14-5.55472E-13
 -1      2653 2.03475E+01 2.51398E-01 4.54850E-03-6.10392E-01 1.19752E-13 5.95111E-14
 -1      2654 2.02582E+01 3.97781E-01-3.84194E-05-7.01042E-01 2.39500E-15-1.96734E-14
 -1      2655 2.03050E+01 3.83648E-01-1.05276E-03-8.39987E-01-1.54794E-13 8.69396E-14
 -1      2656 2.04536E+01 2.09928E-01 8.35715E-04-6.90239E-01 7.04710E-14 2.42514E-15
 -1      2657 1.38836E+01-4.69227E+00 1.00455E-01 6.85507E+00 1.71918E-13-3.38021E-13
 -1      2658 1.35033E+01-3.76884E+00 1.44420E-01 6.57446E+00 1.18183E-13-3.14387E-13
 -1      2659 1.67028E+01-4.92252E+00-1.46879E-02 6.58998E+00 1.91736E-13-4.54400E-13
 -1      2660 2.04348E+01 1.80786E+00 1.25461E-02 1.56395E+00 2.59875E-13-8.56312E-14
 -1      2661 2.85014E+01-2.76263E+00-2.62340E-02-1.46094E+00 5.69024E-14-1.60261E-13
 -1      2662 1.18354E+01-3.92882E+00 1.44373E-01-5.94327E+00-4.27991E-14-1.31423E-13
 -1      2663 6.34697E+00-2.16025E+00 1.62392E-01-3.15179E+00 4.04260E-14-2.49939E-13
 -1      2664 2.22544E+01-5.22467E+00 3.57348E-02 5.50097E+00 1.64785E-13-8.62338E-13
 -1      2665 2.05780E+01-5.19933E+00 1.25353E-01 5.94232E+00 2.47746E-13-7.09993E-13
 -1      2666 2.42710E+01-5.10253E+00-4.63801E-02 4.10887E+00 1.80966E-13-7.44779E-13
 -1      2667 2.60089E+01-5.05619E+00 4.68170E-02-3.13189E+00-1.34004E-13-3.02175E-13
 -1      2668 4.85875E+00-1.82198E+00 1.60891E-01 1.28414E+00 2.17444E-13-5.20362E-13
 -1      2669 6.58897E+00-2.65117E+00 1.26338E-01-4.13794E+00 3.38618E-14 1.50380E-13
 -1      2670 3.01532E+01 4.78920E+00-1.12102E-01-1.52684E+00-3.56215E-13-2.52048E-13
 -1      2671 2.89212E+01 3.18341E+00-1.12320E-01-1.74900E+00-3.36120E-13-8.80962E-14
 -1      2672 2.79885E+01 5.29830E+00-1.34290E-01-1.66626E+00-3.43447E-13 7.42670E-14
 -1      2673 2.99678E+01 5.61165E+00-7.55416E-02-1.08698E+00 3.65846E-13-1.35662E-13
 -1      2674 2.04503E+01 2.40665E-01-1.08723E-03-8.32759E-01-1.44835E-13 2.47722E-13
 -1      2675 3.05419E+01-1.18485E+00-6.63953E-03-5.69494E-01 3.76844E-13-3.26295E-13
 -1      2676 3.09461E+01 1.40900E+00-3.92849E-02 1.94881E+00 8.62366E-14-2.63262E-13
 -1      2677 2.02967E+01 6.43444E-01 3.65434E-03 1.13025E+00-3.56150E-13-2.60521E-13
 -1      2678 1.98489E+01 2.76458E+00-6.30320E-03 5.16978E-01 7.93692E-14-3.15203E-13
 -1      2679 1.98244E+01 2.81434E+00-5.70453E-03 3.65904E-01 6.30599E-14-3.34500E-13
 -1      2680 1.98076E+01 2.85189E+00-5.61712E-03 2.30152E-01 3.72043E-14-3.45699E-13
 -1      2681 1.97992E+01 2.86879E+00-5.43960E-03 7.53290E-02 1.64620E-14-3.34493E-13
 -1      2682 1.99542E+01 2.50074E+00 3.65905E-03 2.65613E-01 5.08733E-14-3.21922E-13
 -1      2683 2.00453E+01 2.32362E+00-1.07007E-02 1.04740E+00 2.02907E-13-2.37288E-13
 -1      2684 1.99817E+01 2.47247E+00-6.34125E-03 9.11669E-01 1.76213E-13-2.48803E-13
 -1      2685 2.02168E+01 1.90825E+00-1.19340E-02 1.22903E+00 2.42520E-13-1.90588E-13
 -1      2686 2.01252E+01 2.14585E+00-4.85279E-03 1.13561E+00 2.18523E-13-2.15316E-13
 -1      2687 2.01907E+01 1.88617E+00 6.38913E-03 9.28037E-01 1.94606E-13-1.93843E-13
 -1      2688 2.72397E+01-3.61978E+00 1.50300E-02-1.56331E+00 1.52286E-13-1.79190E-13
 -1      2689 2.86174E+01-1.97486E+00-1.61609E-01-2.44363E-01 1.74747E-13-1.17101E-13
 -1      2690 2.03117E+01 1.06015E+00 3.22582E-03-8.59202E-01-1.82366E-13-6.58820E-14
 -1      2691 2.02244E+01 8.16334E-01-5.60596E-03-6.13860E-01-1.46910E-13-6.64952E-14
 -1      2692 2.02107E+01 7.26719E-01-3.45893E-03 6.44729E-01 2.09883E-13-1.22545E-13
 -1      2693 2.03528E+01 9.51438E-01 9.17779E-03 9.08370E-01 2.16030E-13-9.64642E-14
 -1      2694 2.03363E+01 1.50004E+00-1.90224E-03 1.26876E+00 2.37131E-13-1.04694E-13
 -1      2695 1.98540E+01 5.13601E-02 1.09121E-04-1.44085E-01 7.85970E-14-1.11420E-13
 -1      2696 1.98675E+01 8.26530E-02 3.16066E-03-1.15108E-01 9.46772E-14-8.63749E-14
 -1      2697 2.02159E+01 6.27310E-01 8.55880E-03-4.39997E-01-1.21225E-13-6.25734E-14
 -1      2698 2.01307E+01 4.76401E-01-3.35599E-03-2.80216E-01-9.37320E-14-6.39238E-14
 -1      2699 2.02587E+01 8.83816E-01-2.83468E-03-5.71096E-01-1.36786E-13-9.04154E-14
 -1      2700 2.01054E+01 3.63179E-01 6.64751E-03-1.60054E-01-8.86038E-14-6.57069E-14
 -1      2701 2.00463E+01 2.68610E-01-1.77860E-03-6.21363E-02-9.10371E-14-8.47142E-14
 -1      2702 2.01951E+01 5.30347E-01-1.51212E-03-2.62846E-01-9.78161E-14-6.43992E-14
 -1      2703 2.00203E+01 1.98770E-01 4.49806E-03 1.34933E-02-8.70547E-14-7.75388E-14
 -1      2704 1.99849E+01 1.39798E-01-7.94248E-04 7.05737E-02-8.91916E-14-6.65764E-14
 -1      2705 2.01269E+01 3.00052E-01-2.09721E-03-5.63893E-02-7.97403E-14-6.58394E-14
 -1      2706 1.99642E+01 9.63327E-02 2.88584E-03 1.14673E-01-8.79092E-14-5.49835E-14
 -1      2707 1.99467E+01 5.99245E-02-2.24678E-04 1.45019E-01-7.99521E-14-8.45860E-14
 -1      2708 2.00709E+01 1.55253E-01-1.92777E-03 7.21204E-02-8.02932E-14-8.05658E-14
 -1      2709 1.99321E+01 3.34416E-02 1.71452E-03 1.67739E-01-8.75954E-14-9.23768E-14
 -1      2710 1.99272E+01 1.19256E-02 1.06326E-04 1.81115E-01-5.44076E-14-1.08539E-13
 -1      2711 2.00307E+01 6.50066E-02-1.56022E-03 1.45226E-01-8.69832E-14-5.85685E-14
 -1      2712 1.99180E+01-3.18885E-03 8.98147E-04 1.90141E-01-2.26179E-14-9.30980E-14
 -1      2713 1.99214E+01-1.45803E-02 3.06777E-04 1.93336E-01-2.91400E-14-7.19539E-14
 -1      2714 2.00046E+01 1.10100E-02-1.19053E-03 1.81348E-01-3.32273E-14-9.71711E-14
 -1      2715 1.99164E+01-2.18605E-02 3.43011E-04 1.94328E-01-4.70778E-14-5.47466E-14
 -1      2716 1.99251E+01-2.62014E-02 4.40444E-04 1.92122E-01-5.10611E-14-2.04020E-14
 -1      2717 1.99897E+01-1.82465E-02-8.83724E-04 1.94339E-01-2.45510E-14-2.94345E-14
 -1      2718 1.99234E+01-2.79528E-02-2.51008E-05 1.89220E-01-4.18870E-14 8.95512E-15
 -1      2719 1.99355E+01-2.72675E-02 5.45270E-04 1.85027E-01 8.37703E-15 5.68557E-15
 -1      2720 1.99834E+01-3.02222E-02-6.51150E-04 1.94431E-01-5.08876E-15 1.97247E-14
 -1      2721 1.99361E+01-2.50129E-02-2.63785E-04 1.81269E-01 1.86334E-14 2.59140E-14
 -1      2722 1.99504E+01-2.06330E-02 6.44534E-04 1.77576E-01 1.45362E-14 1.64077E-14
 -1      2723 1.99832E+01-2.98532E-02-4.86078E-04 1.89146E-01 4.88488E-15-1.28769E-14
 -1      2724 1.99529E+01-1.53714E-02-4.16405E-04 1.75227E-01-1.34931E-14-3.55938E-15
 -1      2725 1.99690E+01-8.15710E-03 7.52927E-04 1.73895E-01-1.14835E-14 5.24988E-15
 -1      2726 1.99878E+01-2.04061E-02-3.76895E-04 1.84054E-01-3.59999E-14-3.26107E-14
 -1      2727 1.99729E+01-5.32410E-04-5.14762E-04 1.74694E-01 1.63070E-15-9.75954E-15
 -1      2728 1.99909E+01 8.97089E-03 8.79602E-04 1.77166E-01 1.50484E-14 2.60998E-14
 -1      2729 1.99959E+01-4.01314E-03-3.11803E-04 1.83362E-01-4.85401E-15 3.42270E-14
 -1      2730 1.99961E+01 1.85417E-02-5.81157E-04 1.82499E-01-1.64066E-14 2.90697E-14
 -1      2731 2.00164E+01 2.99738E-02 1.02911E-03 1.89939E-01-2.49742E-14 3.94439E-14
 -1      2732 2.00072E+01 1.79490E-02-2.80802E-04 1.90345E-01 1.72126E-16-3.32363E-15
 -1      2733 2.00229E+01 4.11836E-02-6.29541E-04 2.00950E-01-5.96206E-14 1.87874E-14
 -1      2734 2.00461E+01 5.42423E-02 1.20129E-03 2.14308E-01-8.21284E-14-2.20297E-14
 -1      2735 2.00213E+01 4.45462E-02-2.76193E-04 2.07650E-01-4.46481E-14-4.49265E-14
 -1      2736 2.00541E+01 6.67708E-02-6.65874E-04 2.31949E-01-9.20543E-14-2.94594E-14
 -1      2737 2.00812E+01 8.10703E-02 1.39027E-03 2.51969E-01-9.11171E-14-2.52694E-14
 -1      2738 2.00387E+01 7.49820E-02-2.93106E-04 2.37459E-01-1.00675E-13-4.06253E-14
 -1      2739 2.00912E+01 9.44385E-02-6.87426E-04 2.76986E-01-6.73440E-14-6.47161E-14
 -1      2740 2.01232E+01 1.09337E-01 1.58297E-03 3.04133E-01-2.80390E-14-6.86716E-14
 -1      2741 2.00597E+01 1.08260E-01-3.30488E-04 2.81533E-01-9.27436E-14 1.06224E-16
 -1      2742 2.01358E+01 1.22726E-01-6.80846E-04 3.36971E-01-4.84560E-14-5.28805E-14
 -1      2743 2.01740E+01 1.37104E-01 1.75706E-03 3.71275E-01-7.65647E-14-1.36055E-13
 -1      2744 2.00853E+01 1.42775E-01-3.93054E-04 3.41117E-01-7.28287E-14-1.89287E-13
 -1      2745 2.01902E+01 1.49122E-01-6.18915E-04 4.11909E-01-4.52342E-14-7.99441E-14
 -1      2746 2.02360E+01 1.61110E-01 1.87848E-03 4.52702E-01-3.83889E-14-1.24893E-13
 -1      2747 2.01171E+01 1.75803E-01-4.94634E-04 4.16683E-01-2.77991E-14-1.54133E-13
 -1      2748 2.02574E+01 1.69504E-01-4.55974E-04 5.00348E-01-3.46383E-14-7.59782E-14
 -1      2749 2.03123E+01 1.76140E-01 1.89862E-03 5.45877E-01 3.45318E-17-4.50982E-14
 -1      2750 2.01575E+01 2.02859E-01-6.63294E-04 5.07491E-01-1.43576E-14-7.60680E-14
 -1      2751 2.03418E+01 1.77465E-01-1.22606E-04 5.98587E-01 1.34490E-15-3.28647E-14
 -1      2752 2.04075E+01 1.74341E-01 1.75098E-03 6.45496E-01 2.54065E-14-4.45043E-14
 -1      2753 2.02104E+01 2.16930E-01-9.48126E-04 6.10934E-01 2.71671E-14-7.73188E-14
 -1      2754 2.04493E+01 1.63651E-01 4.78382E-04 6.99589E-01 4.12145E-14-1.56141E-15
 -1      2755 2.05277E+01 1.44637E-01 1.34636E-03 7.42263E-01 5.17430E-14 1.10300E-14
 -1      2756 2.02817E+01 2.07673E-01-1.42613E-03 7.21619E-01 7.59680E-14-7.13797E-14
 -1      2757 2.05883E+01 1.15373E-01 1.46930E-03 7.91577E-01-6.04604E-14-4.13525E-14
 -1      2758 2.06817E+01 7.26993E-02 5.64769E-04 8.21432E-01-3.52169E-14-1.07959E-13
 -1      2759 2.03808E+01 1.60830E-01-2.20414E-03 8.30127E-01-4.78463E-14-5.07429E-14
 -1      2760 2.07703E+01 1.71259E-02 2.97489E-03 8.56359E-01 2.81167E-14-1.37009E-13
 -1      2761 2.08812E+01-5.76605E-02-7.52951E-04 8.61225E-01 2.93237E-14-1.79234E-13
 -1      2762 2.05219E+01 5.84622E-02-3.40390E-03 9.21389E-01-2.25989E-14-6.84433E-14
 -1      2763 2.10103E+01-1.46754E-01 5.05954E-03 8.67598E-01 7.41978E-14-1.46261E-13
 -1      2764 2.11402E+01-2.59999E-01-2.80382E-03 8.31616E-01 8.84683E-14-1.18315E-13
 -1      2765 2.07246E+01-1.18782E-01-5.10197E-03 9.72631E-01 7.13390E-14-1.32488E-13
 -1      2766 2.13236E+01-3.85280E-01 7.55566E-03 7.89756E-01 4.39350E-14-1.03379E-13
 -1      2767 2.14711E+01-5.35198E-01-5.73063E-03 6.94629E-01-6.41406E-14-8.89105E-14
 -1      2768 2.10136E+01-3.85132E-01-7.18719E-03 9.51057E-01 7.88301E-14-1.39549E-13
 -1      2769 2.17187E+01-6.87124E-01 9.82675E-03 5.79882E-01-4.99279E-14-6.17828E-14
 -1      2770 2.18754E+01-8.53586E-01-9.31029E-03 4.09262E-01-2.88322E-15-2.37880E-14
 -1      2771 2.14134E+01-7.35619E-01-9.07497E-03 8.12490E-01-4.62548E-15 2.74205E-14
 -1      2772 2.21820E+01-9.99367E-01 1.04966E-02 1.96975E-01 4.28762E-14 3.99867E-14
 -1      2773 2.23272E+01-1.13053E+00-1.20389E-02-5.38311E-02 5.02411E-14 1.17161E-13
 -1      2774 2.19341E+01-1.12236E+00-9.34023E-03 5.05065E-01 1.55972E-14 1.63926E-13
 -1      2775 2.26545E+01-1.20276E+00 7.62670E-03-3.72742E-01 1.81342E-13 1.90154E-13
 -1      2776 2.27536E+01-1.20825E+00-1.09000E-02-6.78238E-01 2.33922E-13 3.24666E-13
 -1      2777 2.25458E+01-1.42258E+00-5.07817E-03-1.35663E-02 2.16000E-13 2.57636E-13
 -1      2778 2.30129E+01-1.10861E+00-3.00998E-03-1.06417E+00 8.47378E-14 2.65873E-13
 -1      2779 2.30306E+01-8.80491E-01-3.08271E-03-1.34573E+00-6.89273E-14 1.85975E-13
 -1      2780 2.31428E+01-1.41897E+00 5.74311E-03-7.31205E-01 9.53833E-14 2.82681E-13
 -1      2781 2.31087E+01-5.29746E-01-2.04368E-02-1.66448E+00-1.64876E-13 2.68743E-13
 -1      2782 2.30342E+01-3.56352E-02 9.26914E-03-1.78722E+00-1.23867E-13 2.89800E-13
 -1      2783 2.35336E+01-8.75190E-01 1.25409E-02-1.48811E+00-9.22583E-14 2.20807E-13
 -1      2784 2.28809E+01 5.28008E-01-3.53600E-02-1.83125E+00-1.00857E-13 3.42570E-13
 -1      2785 2.27566E+01 1.14211E+00 1.75996E-02-1.65963E+00 1.86552E-14 3.82504E-13
 -1      2786 2.35480E+01 2.89594E-01 1.11465E-02-1.93396E+00-1.02333E-13 5.74105E-13
 -1      2787 2.25148E+01 1.67105E+00-3.05329E-02-1.28197E+00 9.62788E-14 4.12615E-13
 -1      2788 2.24260E+01 2.07892E+00 8.92932E-03-8.17968E-01 1.69286E-13 4.19520E-13
 -1      2789 2.32334E+01 1.69639E+00-8.04071E-03-1.63209E+00-6.14959E-16 5.44328E-13
 -1      2790 2.23152E+01 2.24029E+00-1.57921E-02-1.14305E-01 1.38833E-13 2.16788E-13
 -1      2791 2.23495E+01 2.14391E+00-1.77497E-02 4.48802E-01 1.10948E-13 2.17050E-13
 -1      2792 2.29209E+01 2.61704E+00-1.66130E-02-5.41048E-01-5.15785E-14 1.47816E-13
 -1      2793 2.25078E+01 1.81877E+00 1.37886E-02 1.05474E+00 5.19289E-14 6.53245E-14
 -1      2794 2.26107E+01 1.30342E+00-3.35017E-02 1.43720E+00 9.63682E-15 4.23260E-14
 -1      2795 2.30090E+01 2.40379E+00-1.87600E-02 8.49698E-01-6.30173E-14-1.18189E-13
 -1      2796 2.28495E+01 7.09407E-01 1.74500E-02 1.66391E+00 1.10398E-14 3.55792E-14
 -1      2797 2.29536E+01 9.74694E-02-3.12559E-02 1.71843E+00-6.33969E-14-2.23010E-14
 -1      2798 2.33467E+01 1.20732E+00-1.05900E-03 1.71223E+00-5.48867E-14-1.08741E-13
 -1      2799 2.30295E+01-4.17581E-01 5.60593E-03 1.54610E+00-1.22879E-13-5.02639E-14
 -1      2800 2.30596E+01-8.32787E-01-1.53048E-02 1.34124E+00-5.75677E-14 6.29016E-15
 -1      2801 2.35743E+01-2.11447E-01 1.39060E-02 1.70326E+00-1.32977E-13-1.16549E-13
 -1      2802 2.29071E+01-1.09575E+00-6.23284E-03 9.66418E-01-1.19316E-13 8.54008E-14
 -1      2803 2.28410E+01-1.23648E+00 1.84751E-04 6.51903E-01-1.80209E-13 1.27345E-13
 -1      2804 2.34134E+01-1.18666E+00 1.21670E-02 1.08031E+00-4.00953E-14-1.09851E-15
 -1      2805 2.25456E+01-1.26586E+00-1.13532E-02 2.69145E-01-1.57929E-13 1.84154E-13
 -1      2806 2.24086E+01-1.20702E+00 8.07712E-03-3.61217E-02-1.37205E-13 2.79595E-13
 -1      2807 2.29193E+01-1.52826E+00 1.89211E-03 2.83019E-01-1.01483E-13-3.21922E-14
 -1      2808 2.20791E+01-1.09624E+00-1.09174E-02-3.31690E-01-1.22008E-13 4.37570E-13
 -1      2809 2.19092E+01-9.40621E-01 1.01475E-02-5.66736E-01-1.35189E-13 4.74944E-13
 -1      2810 2.22930E+01-1.39804E+00-6.15475E-03-3.98437E-01-3.95432E-14 2.40062E-13
 -1      2811 2.16168E+01-7.78587E-01-7.83273E-03-7.52667E-01-1.02187E-13 4.55873E-13
 -1      2812 2.14444E+01-6.02942E-01 9.14487E-03-9.02452E-01 1.03367E-13 3.53193E-13
 -1      2813 2.16958E+01-1.03609E+00-8.63202E-03-8.63985E-01-6.12800E-14 4.52019E-13
 -1      2814 2.12137E+01-4.42578E-01-4.72149E-03-9.93334E-01 1.90125E-13 2.62818E-13
 -1      2815 2.10552E+01-2.84302E-01 7.18493E-03-1.06488E+00 1.12546E-13 2.47495E-13
 -1      2816 2.12059E+01-6.24783E-01-7.83489E-03-1.12098E+00 6.67699E-14 2.17368E-13
 -1      2817 2.08838E+01-1.46953E-01-2.53776E-03-1.08314E+00-2.55716E-14 1.81884E-13
 -1      2818 2.07445E+01-1.57312E-02 5.22250E-03-1.09065E+00-1.85680E-13 5.07428E-14
 -1      2819 2.08352E+01-2.52644E-01-5.67257E-03-1.21262E+00-4.69793E-14-1.08301E-13
 -1      2820 2.06184E+01 9.83166E-02-1.12074E-03-1.05479E+00-1.48361E-13 1.15270E-13
 -1      2821 2.04998E+01 2.03615E-01 3.38260E-03-1.00943E+00-2.71226E-14 6.46511E-14
 -1      2822 2.05637E+01 5.77732E-02-3.28332E-03-1.18192E+00-1.32152E-13-1.72926E-13
 -1      2823 1.98901E+01 1.19795E-01-2.23465E-04-7.00540E-02 8.71513E-14-1.01032E-13
 -1      2824 1.99256E+01 1.71047E-01 5.19593E-03-1.42070E-02 9.39179E-14-1.01031E-13
 -1      2825 1.99914E+01 1.37119E-01-2.36986E-03-7.22174E-02 8.75714E-14-1.26128E-13
 -1      2826 1.98460E+01-1.23896E-02 3.82343E-04-1.90144E-01-2.83219E-14-7.02079E-14
 -1      2827 1.98361E+01-2.54371E-03 8.72414E-04-1.87882E-01 3.24420E-16-1.08883E-13
 -1      2828 1.98606E+01-2.27201E-02 4.51187E-04-1.87637E-01 3.80045E-14-5.86978E-14
 -1      2829 1.98454E+01-1.87909E-02 2.81413E-04-1.90655E-01-5.10185E-15-3.89944E-14
 -1      2830 1.99247E+01-1.63793E-02-9.33424E-04-1.95673E-01-1.65168E-14-7.89305E-14
 -1      2831 1.98819E+01-2.42601E-02 5.21241E-04-1.79101E-01 8.29849E-14-3.55909E-14
 -1      2832 1.98637E+01-2.45359E-02-9.13983E-05-1.84096E-01 9.22054E-14-4.50344E-14
 -1      2833 1.99278E+01-2.74646E-02-6.58629E-04-1.94483E-01 4.25198E-14-4.18118E-14
 -1      2834 1.99076E+01-1.93451E-02 6.10599E-04-1.69994E-01 9.16387E-14-4.16854E-14
 -1      2835 1.98876E+01-2.27410E-02-3.16773E-04-1.74560E-01 8.34113E-14-2.61961E-14
 -1      2836 1.99376E+01-2.79272E-02-4.77132E-04-1.87562E-01 9.69158E-14-1.26007E-15
 -1      2837 1.99365E+01-9.40179E-03 7.31626E-04-1.64434E-01 4.93977E-14-4.12949E-14
 -1      2838 1.99151E+01-1.52720E-02-4.46090E-04-1.66739E-01 8.34714E-14-4.40264E-14
 -1      2839 1.99522E+01-2.05033E-02-3.69687E-04-1.80585E-01 1.03347E-13 3.95907E-15
 -1      2840 1.99687E+01 4.80639E-03 8.94275E-04-1.65708E-01 8.28962E-15-5.18073E-14
 -1      2841 1.99455E+01-3.21645E-03-5.17288E-04-1.64260E-01 2.01245E-14-6.91247E-14
 -1      2842 1.99703E+01-6.84203E-03-3.19035E-04-1.77890E-01 4.08892E-14 4.75292E-14
 -1      2843 2.00048E+01 2.30179E-02 1.10743E-03-1.76653E-01 8.46980E-15-4.48418E-14
 -1      2844 1.99791E+01 1.29169E-02-5.58913E-04-1.70128E-01 2.10066E-14-1.29802E-14
 -1      2845 1.99917E+01 1.22056E-02-3.09789E-04-1.82979E-01-1.68347E-14-2.51964E-15
 -1      2846 2.00460E+01 4.53540E-02 1.37906E-03-1.99935E-01 2.21091E-14-3.94525E-14
 -1      2847 2.00168E+01 3.30617E-02-5.93144E-04-1.87048E-01 8.07557E-15-9.18251E-15
 -1      2848 2.00164E+01 3.63918E-02-3.28123E-04-1.98896E-01 7.35847E-15 3.63051E-14
 -1      2849 2.00942E+01 7.22093E-02 1.71552E-03-2.38254E-01-4.01502E-14 1.88803E-14
 -1      2850 2.00598E+01 5.74820E-02-6.37726E-04-2.17675E-01 1.91014E-14-1.64463E-14
 -1      2851 2.00449E+01 6.59198E-02-3.60832E-04-2.28508E-01 9.73675E-15 8.57397E-16
 -1      2852 2.01512E+01 1.04124E-01 2.12013E-03-2.94461E-01-8.78509E-14-3.24408E-14
 -1      2853 2.01100E+01 8.66582E-02-7.07173E-04-2.64765E-01-4.57792E-14 3.48230E-15
 -1      2854 2.00778E+01 1.01298E-01-3.93897E-04-2.74692E-01-3.03635E-14 3.17756E-15
 -1      2855 2.02195E+01 1.41595E-01 2.59064E-03-3.71580E-01 2.31371E-14-1.01379E-13
 -1      2856 2.01694E+01 1.21136E-01-8.12920E-04-3.31257E-01-7.08864E-14-9.27274E-14
 -1      2857 2.01159E+01 1.43158E-01-4.11998E-04-3.40433E-01-1.16677E-14-1.56329E-13
 -1      2858 2.03011E+01 1.84763E-01 3.11523E-03-4.72680E-01 1.73561E-13-1.59134E-13
 -1      2859 2.02402E+01 1.61290E-01-9.61605E-04-4.20228E-01 1.13806E-13-1.29511E-13
 -1      2860 2.01596E+01 1.91983E-01-3.99337E-04-4.28818E-01 1.13824E-13-1.34150E-13
 -1      2861 2.03983E+01 2.32843E-01 3.66685E-03-6.00547E-01 1.72013E-13-1.48537E-13
 -1      2862 2.03244E+01 2.06898E-01-1.15011E-03-5.34694E-01 2.24637E-13-8.84795E-14
 -1      2863 2.02094E+01 2.47648E-01-3.43560E-04-5.42883E-01 1.45187E-13-1.79941E-13
 -1      2864 2.05134E+01 2.83125E-01 4.19578E-03-7.57004E-01 5.81424E-14-8.48967E-14
 -1      2865 2.04243E+01 2.56403E-01-1.35495E-03-6.77154E-01 5.92032E-14-1.34964E-13
 -1      2866 2.02654E+01 3.08605E-01-2.46174E-04-6.85273E-01 1.39435E-13-7.79394E-14
 -1      2867 2.06490E+01 3.29261E-01 4.62100E-03-9.41710E-01-9.14490E-14-5.75412E-14
 -1      2868 2.05425E+01 3.05598E-01-1.51214E-03-8.48728E-01 3.93830E-14-5.02447E-14
 -1      2869 2.03279E+01 3.70485E-01-1.45127E-04-8.57615E-01 2.38646E-15-9.29402E-14
 -1      2870 2.08095E+01 3.58485E-01 4.82051E-03-1.15015E+00-2.02779E-13-1.47507E-13
 -1      2871 2.06829E+01 3.45438E-01-1.48204E-03-1.04767E+00-1.67667E-13-3.34744E-14
 -1      2872 2.03982E+01 4.23743E-01-1.58148E-04-1.05949E+00-1.09640E-13-3.84973E-15
 -1      2873 2.10037E+01 3.47570E-01 4.61914E-03-1.37044E+00-2.04244E-13-1.25169E-13
 -1      2874 2.08532E+01 3.58658E-01-9.93634E-04-1.26692E+00-2.05223E-13-1.32696E-13
 -1      2875 2.04810E+01 4.50003E-01-5.56419E-04-1.28685E+00-2.05576E-13-1.31992E-13
 -1      2876 2.12504E+01 2.58001E-01 3.76514E-03-1.57853E+00-1.00602E-13-2.08958E-13
 -1      2877 2.10689E+01 3.15214E-01 4.34502E-04-1.49019E+00-9.75578E-14-1.17325E-13
 -1      2878 2.05893E+01 4.16939E-01-1.86773E-03-1.52948E+00-1.70372E-13-3.89062E-14
 -1      2879 2.15859E+01 3.30566E-02 1.88369E-03-1.73137E+00-6.59411E-14-2.04116E-13
 -1      2880 2.13612E+01 1.67880E-01 3.58648E-03-1.68590E+00-7.71277E-14-2.44665E-13
 -1      2881 2.07527E+01 2.72718E-01-4.96340E-03-1.76695E+00-6.40890E-14-1.35321E-13
 -1      2882 2.20729E+01-3.95555E-01-1.83105E-03-1.75761E+00-1.81366E-13-1.48082E-13
 -1      2883 2.17868E+01-1.47325E-01 9.60229E-03-1.79803E+00-1.43630E-13-1.86821E-13
 -1      2884 2.10298E+01-5.60548E-02-1.09584E-02-1.96157E+00-1.25577E-13-1.95010E-13
 -1      2885 2.27990E+01-1.06939E+00-8.58278E-03-1.54569E+00-1.63690E-13-4.34490E-14
 -1      2886 2.24345E+01-6.93311E-01 1.94403E-02-1.73111E+00-1.80391E-13-8.28374E-14
 -1      2887 2.15251E+01-6.52688E-01-2.06058E-02-2.04427E+00-2.42037E-13-1.38546E-13
 -1      2888 2.38345E+01-1.90201E+00-1.92332E-02-9.45208E-01-5.19463E-14 1.19746E-13
 -1      2889 2.34005E+01-1.46746E+00 2.98041E-02-1.33824E+00-2.37481E-14 5.46139E-14
 -1      2890 2.23891E+01-1.54504E+00-3.20794E-02-1.88317E+00-2.08045E-13-7.80188E-14
 -1      2891 2.51627E+01-2.48967E+00-1.96134E-02 1.86264E-01 3.40648E-14-1.20377E-13
 -1      2892 2.47153E+01-2.26734E+00 3.33427E-02-4.41623E-01-3.23436E-14-9.76216E-16
 -1      2893 2.37668E+01-2.57184E+00-3.83620E-02-1.29118E+00 1.90948E-14-1.13238E-13
 -1      2894 2.65185E+01-1.98464E+00-4.30820E-03 1.71729E+00-7.04992E-14-1.58797E-13
 -1      2895 2.61506E+01-2.46024E+00 1.03241E-02 9.80965E-01-5.75495E-15-1.48475E-13
 -1      2896 2.55936E+01-3.05804E+00-1.79600E-02-2.76687E-02 5.74193E-15-2.55025E-13
 -1      2897 2.66003E+01 3.23642E+00-6.68006E-02 1.99771E+00 1.35378E-13 3.84241E-14
 -1      2898 2.67378E+01 1.86830E+00-1.56039E-01 2.69779E+00 1.87350E-14 3.56104E-14
 -1      2899 2.67856E+01 4.51244E+00-1.98146E-01-5.02587E-01 3.44474E-13-1.94122E-13
 -1      2900 2.69167E+01 4.47953E+00-1.33848E-01 7.28078E-01 3.09086E-13-1.10308E-13
 -1      2901 2.70065E+01-8.94947E-01-8.33592E-02-2.46626E+00-1.86517E-14-1.65153E-13
 -1      2902 2.70158E+01 4.82133E-01-4.81045E-02-2.60732E+00 1.28224E-13-3.13107E-13
 -1      2903 2.61214E+01-2.43222E+00-1.46786E-02-1.00292E+00-1.69875E-13-2.51882E-13
 -1      2904 2.64186E+01-1.91155E+00-3.35271E-02-1.66859E+00-4.53700E-14-2.35065E-13
 -1      2905 2.74738E+01-1.91932E+00-4.87891E-02-1.71467E+00-3.14748E-14-3.22381E-13
 -1      2906 2.47279E+01-2.34851E+00 3.13832E-02 4.95103E-01-3.33683E-13-3.16631E-13
 -1      2907 2.51828E+01-2.52506E+00-2.05506E-02-1.57332E-01-2.30160E-13-3.39062E-13
 -1      2908 2.57456E+01-3.04312E+00-1.92620E-03-3.88031E-02-1.49787E-13-5.65258E-13
 -1      2909 2.33696E+01-1.56887E+00 2.90546E-02 1.45857E+00 2.61362E-14-3.27184E-13
 -1      2910 2.38262E+01-1.99557E+00-1.96101E-02 1.03709E+00-2.42422E-13-3.70915E-13
 -1      2911 2.38460E+01-2.68026E+00-4.37892E-02 1.35929E+00-2.00383E-13-6.20014E-13
 -1      2912 2.23522E+01-7.91885E-01 1.88728E-02 1.91293E+00 1.91581E-13-4.12346E-13
 -1      2913 2.27414E+01-1.17616E+00-1.09850E-02 1.70006E+00 1.73552E-13-2.97050E-13
 -1      2914 2.24276E+01-1.67119E+00-3.40115E-02 2.03639E+00 1.35037E-13-7.99998E-13
 -1      2915 2.16503E+01-2.18341E-01 9.58260E-03 2.02589E+00 3.19074E-13-3.02677E-13
 -1      2916 2.19640E+01-4.83706E-01-3.44802E-03 1.96640E+00 2.81713E-13-3.43308E-13
 -1      2917 2.15134E+01-7.68934E-01-2.33173E-02 2.25682E+00 1.86495E-13-5.96602E-13
 -1      2918 2.11784E+01 1.35237E-01 4.12348E-03 1.93787E+00 1.59555E-13-1.68102E-13
 -1      2919 2.14294E+01-2.15532E-02 1.11470E-03 1.97440E+00 2.20717E-13-2.39720E-13
 -1      2920 2.09737E+01-1.32976E-01-1.24551E-02 2.21398E+00 1.87749E-13-3.48796E-13
 -1      2921 2.08466E+01 3.36679E-01 1.93765E-03 1.74169E+00 3.44633E-14-1.71611E-13
 -1      2922 2.10512E+01 2.48811E-01 3.23311E-03 1.83454E+00 1.67937E-13-1.52698E-13
 -1      2923 2.06632E+01 2.47316E-01-5.84666E-03 2.03653E+00 1.11240E-13-3.71697E-13
 -1      2924 2.05993E+01 4.57237E-01 2.93844E-03 1.48374E+00-3.44522E-13-2.22403E-13
 -1      2925 2.07654E+01 4.03322E-01 4.36170E-03 1.60969E+00-2.23598E-13-2.59011E-13
 -1      2926 2.04696E+01 4.63938E-01-3.15915E-03 1.79113E+00 8.86168E-14-1.97040E-13
 -1      2927 2.03708E+01 5.72685E-01 4.08049E-03 1.23691E+00-3.94091E-13-3.42213E-13
 -1      2928 2.05065E+01 5.27044E-01 5.70856E-03 1.38857E+00-4.38729E-13-4.28306E-13
 -1      2929 2.02864E+01 6.11836E-01-6.77529E-03 1.54823E+00-2.66695E-13-2.77714E-13
 -1      2930 2.01380E+01 7.61127E-01-7.58943E-03 1.32272E+00-5.56178E-13-4.25811E-13
 -1      2931 1.91805E+01 1.53151E+00-9.05353E-04-2.13326E-01 1.35996E-13-1.62374E-13
 -1      2932 1.91440E+01 1.55374E+00-5.70076E-03 6.96481E-03 1.77304E-13-1.04683E-13
 -1      2933 1.92503E+01 1.48060E+00-6.75596E-03 7.33039E-01-1.24680E-13 1.66266E-13
 -1      2934 1.93544E+01 1.40007E+00 1.49609E-04 9.16479E-01-1.91865E-13 1.30413E-13
 -1      2935 1.93376E+01 1.38402E+00 2.09590E-03-6.33562E-01 8.70142E-14 5.49666E-14
 -1      2936 1.92445E+01 1.45150E+00-7.73814E-03-4.49191E-01 8.32336E-14-1.41816E-13
 -1      2937 1.90359E+01 1.39939E+00 5.61231E-03-3.87488E-01 3.30358E-14-1.69747E-13
 -1      2938 1.91433E+01 1.56774E+00-4.43381E-03 2.68806E-01 6.59018E-14-8.85633E-14
 -1      2939 1.91788E+01 1.53839E+00-2.33711E-03 4.90311E-01 5.19869E-14 1.60369E-13
 -1      2940 1.90364E+01 1.44884E+00 6.39548E-03 6.61798E-01-1.18249E-13 4.28453E-13
 -1      2941 1.89522E+01 1.48879E+00 7.30917E-03 1.32976E-01 1.17092E-13-7.17400E-14
 -1      2942 2.97768E+01-5.33603E-01-1.53052E-01-1.72105E+00 3.31096E-13-2.01991E-13
 -1      2943 2.91484E+01-2.54438E+00-1.82529E-02-4.76653E-01 3.06172E-13-4.38677E-13
 -1      2944 1.95649E+01 1.16499E+00 4.17605E-03-9.30152E-01-3.63892E-14-1.34902E-13
 -1      2945 1.94426E+01 1.26185E+00-7.84967E-03-8.05954E-01 1.54447E-13 7.08933E-15
 -1      2946 1.92528E+01 1.20885E+00 3.00809E-03-8.11513E-01 1.12473E-13 4.29149E-14
 -1      2947 1.98189E+01 9.10852E-01 5.00926E-03-1.08930E+00-7.12662E-14 3.45044E-13
 -1      2948 1.96889E+01 1.02517E+00-6.35728E-03-1.02920E+00-1.10211E-13 2.78671E-13
 -1      2949 1.95425E+01 9.62940E-01-1.60304E-04-1.08994E+00-7.48506E-14-5.70665E-14
 -1      2950 2.00548E+01 6.64641E-01 4.58688E-03-1.10879E+00-1.12616E-14 3.35688E-13
 -1      2951 1.99395E+01 7.79241E-01-3.84144E-03-1.11261E+00-4.10373E-14 4.02723E-13
 -1      2952 1.98506E+01 7.09260E-01-2.03505E-03-1.21071E+00-8.56277E-14 4.76891E-13
 -1      2953 1.11696E+01-3.25017E+00 1.42832E-01-6.05584E+00 4.28407E-14 1.39028E-13
 -1      2954 1.39889E+01-4.11050E+00 4.50040E-02-6.72376E+00-7.20812E-14 8.46545E-14
 -1      2955 1.99590E+01 2.31516E-01-8.21141E-04 6.42802E-02 1.10955E-13-1.11930E-13
 -1      2956 2.00247E+01 3.15134E-01 7.82293E-03 1.62153E-01 1.37456E-13-1.08430E-13
 -1      2957 2.00555E+01 2.66778E-01-2.72587E-03 6.19245E-02 1.07923E-13-1.31515E-13
 -1      2958 2.77522E+01-4.27507E+00-1.21724E-01 1.17093E+00 3.47083E-14-3.29875E-13
 -1      2959 2.60389E+01-4.93279E+00 5.33750E-02 2.53259E+00-1.98008E-13-4.93466E-13
 -1      2960 2.87752E+01 4.45217E-01-1.53838E-01-1.34935E+00-3.62724E-13 3.79419E-14
 -1      2961 2.84751E+01-1.49655E+00-7.01421E-02-2.91850E-01-1.99139E-13-2.00284E-13
 -1      2962 2.84689E+01-3.43291E+00-2.30478E-03-6.08812E-02-1.24047E-13-1.32047E-13
 -1      2963 2.91789E+01-2.14368E+00-1.74471E-01 1.02909E+00-5.31311E-14-1.25067E-13
 -1      2964 1.72119E+01-4.76852E+00 1.43462E-01-6.48597E+00-1.99701E-14-9.79078E-14
 -1      2965 2.02296E+01-5.30481E+00-3.29995E-02-5.88663E+00 1.55168E-13 1.92811E-13
 -1      2966 2.93857E+01 3.02733E+00-1.65979E-01-2.45010E+00 2.94487E-13-1.04847E-13
 -1      2967 2.96939E+01 1.54562E+00-1.15207E-01-2.40563E+00 3.21076E-13-1.66422E-13
 -1      2968 7.19363E+00-5.26605E-01 8.70963E-02 6.16327E-01-1.92220E-13 7.66331E-14
 -1      2969 7.05448E+00-6.73617E-01 1.90566E-01-1.43455E+00-2.45366E-13 2.59404E-13
 -1      2970 2.76904E+01 4.04818E+00-1.18102E-01-1.70522E+00 3.23408E-13-2.03053E-13
 -1      2971 6.34993E+00-1.08802E+00 1.27537E-01 2.44045E+00 1.78760E-13-5.81701E-13
 -1      2972 5.91869E+00-8.19015E-01 1.39497E-01 1.85380E-01 9.85002E-14-4.40148E-13
 -1      2973 1.98418E+01 1.03898E-02 2.84955E-04-1.79131E-01 4.53678E-14-1.53597E-13
 -1      2974 1.98409E+01 2.88268E-02 1.78237E-03-1.66910E-01 7.63503E-14-1.29881E-13
 -1      2975 1.99518E+01 5.72445E-02-1.81431E-03-1.47200E-01 9.13050E-14-1.29060E-13
 -1      2976 1.99313E+01 9.62444E-03-1.31850E-03-1.83445E-01 2.36342E-15-9.92002E-14
 -1      2977 2.01802E+01 2.27248E+00 3.28906E-04-1.42496E+00-2.18728E-13-1.48067E-13
 -1      2978 2.94489E+01 4.42312E+00-1.52980E-01 1.92632E+00 2.97984E-13-3.83818E-13
 -1      2979 3.08319E+01 5.84331E+00-1.49560E-01 1.29369E+00 3.66207E-13-3.87801E-13
 -1      2980 1.06511E+01-1.81438E+00 5.02723E-02 4.70777E+00-6.85424E-14 2.15550E-13
 -1      2981 8.73723E+00-7.53128E-01 1.86757E-01 2.82012E+00-3.75394E-14-6.85563E-15
 -1      2982 1.99264E+01 2.59554E+00-7.88974E-03 7.95643E-01 1.50591E-13-2.74389E-13
 -1      2983 1.98832E+01 2.68763E+00-6.13559E-03 6.46468E-01 1.08290E-13-2.91847E-13
 -1      2984 2.00022E+01 2.38809E+00 4.33541E-03 5.17653E-01 9.18265E-14-2.84619E-13
 -1      2985 2.00827E+01 2.19039E+00 5.64335E-03 7.46900E-01 1.43159E-13-2.37135E-13
 -1      2986 6.59378E+00-1.02229E+00 1.76036E-01-1.92310E+00 7.02320E-14-2.02643E-13
 -1      2987 8.26743E+00-1.76482E+00 6.53778E-02-4.05938E+00 3.51108E-15-1.66783E-13
 -1      2988 1.79121E+01-4.78607E+00 1.30916E-01-5.82531E+00-1.73750E-14-1.59830E-13
 -1      2989 2.14123E+01-5.50267E+00-5.57337E-02-5.09786E+00 1.58207E-15-1.59085E-13
 -1      2990 2.47383E+01-5.26039E+00 8.53440E-02-3.36205E+00-1.41220E-13-2.69659E-13
 -1      2991 2.69324E+01-4.73568E+00-9.89827E-02-1.86859E+00-1.63460E-13-3.71175E-13
 -1      2992 1.98783E+01 2.69606E+00-6.13033E-03-6.36120E-01-8.11459E-14-3.00767E-13
 -1      2993 1.99207E+01 2.60636E+00-7.73128E-03-7.85829E-01-1.03353E-13-2.91302E-13
 -1      2994 2.00677E+01 4.15537E-01-1.59961E-03 2.89606E-01 1.64751E-13-1.18310E-13
 -1      2995 2.01690E+01 5.53913E-01 1.04638E-02 4.52477E-01 1.80621E-13-1.13969E-13
 -1      2996 2.02525E+01 8.21489E-01 6.84539E-04 6.19215E-01 1.93817E-13-1.54831E-13
 -1      2997 2.01451E+01 4.77816E-01-1.94274E-03 2.82082E-01 1.58449E-13-1.37013E-13
 -1      2998 2.03639E+01 3.29001E-01 2.47532E-03-9.02166E-01-6.50241E-14 2.32767E-14
 -1      2999 2.02837E+01 4.17381E-01-1.62826E-04-9.66754E-01 3.43620E-14-1.91520E-13
 -1      3000 2.04354E+01 2.69548E-01 4.81137E-04-9.58441E-01 3.32790E-14-1.07195E-13
 -1      3001 2.79433E+01-2.80369E+00-1.05085E-01 7.75282E-01-7.35670E-14-3.20799E-13
 -1      3002 2.66442E+01-3.88545E+00-2.94594E-02 1.93839E+00-1.50921E-15-3.38105E-13
 -1      3003 2.76224E+01-2.17360E+00-2.80277E-02-3.77004E-01-3.20612E-14 4.69069E-15
 -1      3004 1.16165E+01-2.62369E+00 1.76177E-01-5.32470E+00-5.66769E-14-1.02682E-13
 -1      3005 1.46006E+01-3.87049E+00 4.46646E-02-6.14364E+00-5.34017E-14-9.54653E-14
 -1      3006 1.69495E+01-4.03702E+00-1.00557E-02 5.89372E+00-2.43069E-13-7.65499E-14
 -1      3007 1.37045E+01-2.75894E+00 1.50752E-01 5.51849E+00-1.49949E-13 1.98799E-13
 -1      3008 7.24295E+00-1.28211E+00 1.49045E-01-3.09484E+00-2.11539E-13 2.23876E-13
 -1      3009 8.90842E+00-2.30197E+00 1.21051E-01-5.07718E+00-1.22791E-13 1.20570E-13
 -1      3010 1.15126E+01-2.12011E+00 1.54205E-01-5.17749E+00-2.25708E-13 1.99799E-13
 -1      3011 9.02539E+00-4.61467E-01 1.63055E-01-2.32593E+00-3.08958E-13 2.42667E-13
 -1      3012 2.33235E+01-5.17717E+00 9.64859E-02-4.42624E+00 3.31984E-13 2.15244E-14
 -1      3013 2.52000E+01-5.00374E+00-9.66617E-02-3.31815E+00 2.49981E-13-2.38295E-13
 -1      3014 2.97845E+01-1.61262E-01-4.49456E-02 2.12323E+00-8.12683E-14-1.38167E-13
 -1      3015 2.94666E+01 1.81796E+00-1.92292E-01 2.58039E+00-4.51583E-14-2.35006E-13
 -1      3016 1.02007E+01-2.39823E+00 1.06254E-01 5.51561E+00 9.41885E-14-2.35256E-13
 -1      3017 7.77486E+00-1.60056E+00 1.77643E-01 4.04302E+00 1.29799E-13-3.57603E-13
 -1      3018 8.70971E+00-7.24851E-01 1.83672E-01 3.00371E+00 1.03660E-13-3.92769E-13
 -1      3019 2.86415E+01 5.55540E+00-1.24238E-01 8.01318E-01 3.93546E-13-3.16705E-13
 -1      3020 2.36429E+01-5.51647E+00-5.43463E-02 4.21025E+00-1.82562E-13-5.79793E-13
 -1      3021 2.05636E+01-4.96548E+00 1.03617E-01 5.15321E+00-2.28956E-13-4.39454E-13
 -1      3022 2.47067E+01-4.94627E+00-1.18796E-02 2.83512E+00-2.57225E-13-3.73149E-13
 -1      3023 2.92431E+01 3.29008E+00-1.30062E-01 2.52891E+00 1.00753E-13-2.04919E-13
 -1      3024 2.80854E+01 4.11766E+00-1.41261E-01 2.08740E+00 2.53603E-13-2.23613E-13
 -1      3025 1.99737E+01 2.48509E+00-6.80975E-03-9.03396E-01-1.18949E-13-2.54918E-13
 -1      3026 2.00275E+01 2.34040E+00-1.41934E-02-1.04158E+00-1.58492E-13-2.33994E-13
 -1      3027 2.00770E+01 2.20276E+00 5.64732E-03-7.39652E-01-9.92826E-14-2.50173E-13
 -1      3028 1.99378E+01 2.53834E+00 3.44748E-03 4.58535E-03 1.15161E-14-3.13136E-13
 -1      3029 1.97985E+01 2.86963E+00-5.49200E-03-6.20108E-02 1.86799E-15-3.29223E-13
 -1      3030 1.98059E+01 2.85499E+00-5.54870E-03-2.16925E-01-1.67939E-14-3.23818E-13
 -1      3031 2.84306E+01-7.91739E-01-3.28720E-02 9.55022E-01 1.14207E-13-1.84686E-13
 -1      3032 2.61888E+01-4.13689E+00-5.47776E-03-1.80987E+00 4.02563E-13-3.75061E-13
 -1      3033 2.03915E+01 2.73149E-01-2.24479E-03-1.08624E+00-5.48687E-14-3.59633E-13
 -1      3034 1.23961E+01-2.75401E+00 1.74674E-01 5.92681E+00 7.51482E-14-2.66703E-13
 -1      3035 1.17395E+01-1.76204E+00 1.15671E-01 5.08991E+00 5.65936E-14-3.27155E-13
 -1      3036 1.45426E+01-3.20501E+00 6.22010E-02 5.94071E+00 1.22055E-13-3.09947E-13
 -1      3037 2.02896E+01 1.58732E+00-1.22611E-03 1.16764E+00 2.39418E-13-1.59093E-13
 -1      3038 1.38330E+01-1.67981E+00 1.47488E-01 4.57933E+00-6.80705E-14 9.88515E-14
 -1      3039 2.32211E+01-5.05303E+00 3.63196E-02-3.76080E+00-5.42622E-14-2.77552E-13
 -1      3040 9.73432E+00-1.40849E-01 1.67485E-01 1.55196E+00-3.52877E-14 1.49436E-13
 -1      3041 2.02791E+01 1.36594E+00 1.98342E-03 9.21289E-01 2.18783E-13-1.73260E-13
 -1      3042 1.98213E+01 2.81945E+00-5.70671E-03-3.52284E-01-2.95083E-14-2.91130E-13
 -1      3043 1.98452E+01 2.77108E+00-6.21043E-03-5.06156E-01-6.44073E-14-2.89801E-13
 -1      3044 1.99982E+01 2.39582E+00 4.31822E-03-5.08357E-01-6.76207E-14-2.77187E-13
 -1      3045 1.99523E+01 2.50431E+00 3.66168E-03-2.56135E-01-2.27313E-14-2.88480E-13
 -1      3046 2.71976E+01-1.82017E+00-1.82763E-02 1.95122E+00-1.47889E-13-1.09412E-13
 -1      3047 2.73733E+01-3.03339E+00-5.51690E-02 9.00655E-01-2.17336E-13-2.76421E-13
 -1      3048 2.72093E+01 8.13418E-01-6.39818E-02 2.84853E+00-1.23832E-13 5.90500E-14
 -1      3049 2.71330E+01-6.10370E-01-1.36013E-01 2.60434E+00-1.13118E-13-2.69333E-14
 -1      3050 2.82824E+01 6.78559E-01-7.47537E-02-2.66577E+00 1.56319E-13-2.54768E-13
 -1      3051 2.69901E+01 1.42058E+00-9.93568E-02-2.69226E+00 2.87631E-13-4.27821E-13
 -1      3052 2.77905E+01 2.62087E+00-1.49258E-01-2.39926E+00 3.70662E-13-2.84127E-13
 -1      3053 1.99474E+01 9.25017E-01 2.74296E-03 1.30266E+00-3.43181E-13-6.91780E-14
 -1      3054 2.00027E+01 8.51980E-01 6.48991E-03 1.43192E+00-2.76159E-13-1.44813E-13
 -1      3055 1.97687E+01 1.06685E+00-7.57848E-03 1.27470E+00-4.34718E-13 1.59404E-13
 -1      3056 2.76992E+01 2.42210E+00-9.95434E-02 1.90466E+00-1.99105E-13-4.93924E-13
 -1      3057 2.82458E+01 3.68952E+00-1.61737E-01 1.89587E+00-3.39506E-13-4.84876E-13
 -1      3058 1.14531E+01-1.63546E+00 1.59240E-01-4.36397E+00-4.05787E-14-9.19265E-14
 -1      3059 1.64302E+01-3.95765E+00 1.20115E-01-6.16388E+00 3.12111E-14-2.92821E-14
 -1      3060 2.19084E+01-4.92648E+00 6.05425E-02-4.75948E+00 2.98955E-13-1.11935E-13
 -1      3061 2.02008E+01 5.26988E-01-4.36012E-04-1.02211E+00 9.38670E-14-1.37867E-13
 -1      3062 2.72723E+01-4.04831E+00-1.80489E-02-6.05438E-01-1.42518E-13-1.77573E-13
 -1      3063 1.92546E+01-4.98720E+00 8.81528E-02 6.01039E+00 1.78163E-13-5.63737E-13
 -1      3064 1.81248E+01-4.32688E+00 9.90910E-02 5.99664E+00 2.10804E-13-5.36987E-13
 -1      3065 2.13295E+01-5.05746E+00-2.03930E-02 5.01947E+00 2.68272E-13-6.95357E-13
 -1      3066 1.95653E+01-3.87886E+00 1.13244E-01 4.84876E+00-1.85241E-13-3.70662E-13
 -1      3067 2.81942E+01 1.57168E+00-1.09756E-01-1.96364E+00-2.95527E-13 9.27036E-15
 -1      3068 2.72319E+01 2.48356E-01-1.24742E-02-1.83346E+00-1.34115E-13 9.09758E-14
 -1      3069 2.68218E+01 2.59963E+00-1.34858E-01-2.25597E+00-1.96454E-13 1.26482E-13
 -1      3070 2.75295E+01 6.21854E+00-1.66306E-01 4.18477E-01-3.15914E-13-1.28441E-13
 -1      3071 2.70442E+01 6.06539E+00-1.60543E-01-4.70347E-01-4.00152E-13 7.23640E-14
 -1      3072 2.80146E+01-3.33534E+00-2.06290E-02-2.28185E-01 3.75290E-14-3.99181E-13
 -1      3073 1.73713E+01-3.79190E+00 1.19436E-01-5.38633E+00-5.98827E-14-1.98799E-13
 -1      3074 2.87329E+01-1.30246E+00-2.59758E-02 2.02677E+00-1.74138E-13-1.18100E-13
 -1      3075 2.02870E+01 3.68320E-01 2.86423E-03-1.12382E+00-1.71190E-13-3.12330E-13
 -1      3076 2.01421E+01 5.44742E-01-1.90080E-03-1.11354E+00 3.34732E-14 1.91703E-13
 -1      3077 2.01157E+01 4.76266E-01-1.46792E-03-1.22431E+00 3.22045E-14 2.77983E-13
 -1      3078 2.03467E+01 2.80163E-01 1.98919E-04-1.17552E+00-2.03345E-13-2.54124E-13
 -1      3079 2.94853E+01 1.08432E-01-1.13356E-01-2.17495E+00 2.44971E-13-1.30729E-13
 -1      3080 2.57095E+01-4.53166E+00 1.91146E-03 2.73734E+00 7.77850E-14-3.97279E-13
 -1      3081 2.41549E+01-4.76992E+00 2.79130E-02 3.46365E+00 2.43680E-13-5.73888E-13
 -1      3082 2.62226E+01-3.87441E+00-1.84221E-02 1.24866E+00 1.65585E-13-2.21087E-13
 -1      3083 2.01414E+01 2.12928E+00 1.27279E-03-1.14326E+00-1.82492E-13-1.84233E-13
 -1      3084 2.02903E+01 1.68119E+00-1.09989E-02-1.24989E+00-2.26879E-13-9.96992E-14
 -1      3085 2.02863E+01 1.30278E+00-1.31267E-03-9.76904E-01-2.03990E-13-7.99638E-14
 -1      3086 2.02040E+01 1.85649E+00 8.81347E-03-9.30738E-01-1.63490E-13-1.77286E-13
 -1      3087 2.68640E+01 5.36551E+00-1.79196E-01-1.06569E+00-2.50966E-13 2.48405E-13
 -1      3088 2.64556E+01 4.46279E+00-1.18633E-01-1.58880E+00-2.00756E-13 4.64392E-13
 -1      3089 2.57051E+01 5.30319E+00-7.03278E-02-5.34371E-01-2.66551E-13 2.62042E-13
 -1      3090 1.94712E+01 1.30710E+00-7.68855E-03 1.07038E+00-2.87050E-13 1.69739E-13
 -1      3091 1.96205E+01 1.18857E+00 1.01572E-03 1.18548E+00-4.87079E-13 1.59119E-13
 -1      3092 1.95961E+01 1.11228E+00 5.36390E-03 1.32108E+00-2.82994E-13 1.48564E-13
 -1      3093 1.92729E+01 1.30804E+00 5.41387E-03 1.07272E+00-2.62020E-13 3.73673E-13
 -1      3094 2.02754E+01 1.36695E+00 2.29932E-03-8.82128E-01-1.81150E-13-1.18048E-13
 -1      3095 7.92419E+00-3.09271E-01 1.98708E-01-7.93947E-01-1.03962E-14-3.32290E-13
 -1      3096 2.84066E+01 1.70640E+00-9.93798E-02 2.70841E+00-6.29774E-14-4.00235E-14
 -1      3097 2.02420E+01 1.48123E+00-5.85438E-03 8.03885E-01 1.79344E-13-1.78330E-13
 -1      3098 2.02025E+01 1.66856E+00-6.70793E-04 7.47780E-01 1.56053E-13-1.80439E-13
 -1      3099 1.55447E+01-1.83981E+00-4.72937E-02 4.61693E+00-2.01571E-13-4.36248E-14
 -1      3100 1.34082E+01-5.68926E-01 1.28098E-01 3.67856E+00-1.03070E-13-5.39846E-15
 -1      3101 2.66584E+01 3.88154E+00-1.78992E-01 1.45159E+00 2.62013E-13-1.06241E-13
 -1      3102 2.02755E+01 7.15577E-01 6.92991E-03-3.45791E-01-9.26417E-14-7.51152E-14
 -1      3103 2.02274E+01 5.50022E-01-4.20515E-03-2.16988E-01-8.06608E-14-8.78407E-14
 -1      3104 2.02227E+01 4.24617E-01 4.29180E-03-1.20943E-01-8.40279E-14-8.65132E-14
 -1      3105 2.01833E+01 3.17062E-01-2.29638E-03-3.58548E-02-6.99581E-14-8.31476E-14
 -1      3106 2.02737E+01 5.81857E-01-2.63266E-04-1.89975E-01-8.06776E-14-1.04879E-13
 -1      3107 2.01693E+01 2.34271E-01 3.13927E-03 2.60490E-02-7.16225E-14-8.00816E-14
 -1      3108 2.01395E+01 1.64775E-01-1.25379E-03 7.77608E-02-8.71017E-14-8.90621E-14
 -1      3109 2.02403E+01 3.34574E-01-8.56523E-04-2.63746E-02-7.90000E-14-9.97528E-14
 -1      3110 2.01229E+01 1.11971E-01 2.20245E-03 1.14610E-01-8.88072E-14-7.92118E-14
 -1      3111 2.01023E+01 6.83101E-02-5.52235E-04 1.43087E-01-5.64071E-14-7.17770E-14
 -1      3112 2.02000E+01 1.72692E-01-1.03400E-03 7.78561E-02-7.09046E-14-6.48442E-14
 -1      3113 2.00862E+01 3.60197E-02 1.41478E-03 1.62353E-01-2.49230E-14-8.76952E-14
 -1      3114 2.00735E+01 1.03483E-02-8.82769E-05 1.75602E-01-1.83827E-14-8.21851E-14
 -1      3115 2.01616E+01 6.98095E-02-9.87811E-04 1.38429E-01-4.36268E-14-5.97170E-14
 -1      3116 2.00591E+01-7.60155E-03 8.04761E-04 1.83469E-01-1.11394E-14-5.82783E-14
 -1      3117 2.00524E+01-2.05698E-02 2.17911E-04 1.87516E-01-1.57653E-14-3.48230E-14
 -1      3118 2.01281E+01 8.44510E-03-8.60575E-04 1.69041E-01 9.23388E-15-6.15727E-14
 -1      3119 2.00401E+01-2.83459E-02 3.51295E-04 1.88818E-01-1.74652E-14-1.74893E-14
 -1      3120 2.00379E+01-3.22217E-02 4.23553E-04 1.88127E-01 9.48182E-15-3.53731E-14
 -1      3121 2.01002E+01-2.33878E-02-7.13136E-04 1.80877E-01 1.41540E-14-5.29712E-14
 -1      3122 2.00276E+01-3.26537E-02 1.87633E-05 1.86531E-01 1.50504E-14-4.74159E-14
 -1      3123 2.00287E+01-2.98915E-02 5.69547E-04 1.84406E-01-2.20902E-14-5.09484E-14
 -1      3124 2.00777E+01-3.39856E-02-5.71753E-04 1.82610E-01-1.82847E-14-5.09651E-14
 -1      3125 2.00201E+01-2.48876E-02-2.27489E-04 1.82689E-01-2.79068E-14-1.38515E-14
 -1      3126 2.00237E+01-1.71295E-02 6.84152E-04 1.81604E-01-6.65251E-15-1.47635E-14
 -1      3127 2.00599E+01-2.90397E-02-4.45577E-04 1.80837E-01-2.05536E-15-4.11591E-14
 -1      3128 2.00164E+01-7.95470E-03-4.16804E-04 1.81893E-01-2.27458E-14 1.32920E-14
 -1      3129 2.00221E+01 3.72525E-03 7.87040E-04 1.83746E-01-8.56591E-15-1.77160E-15
 -1      3130 2.00457E+01-1.23914E-02-3.35453E-04 1.80591E-01 6.39792E-15-7.58807E-15
 -1      3131 2.00156E+01 1.62460E-02-5.72070E-04 1.87718E-01-2.66512E-14-2.86984E-14
 -1      3132 2.00231E+01 3.11488E-02 8.91461E-04 1.94013E-01-2.15127E-14-5.71068E-14
 -1      3133 2.00342E+01 1.34178E-02-2.39370E-04 1.85776E-01-3.31880E-14-8.43393E-14
 -1      3134 2.00171E+01 4.64568E-02-7.09142E-04 2.03044E-01-4.16270E-14-5.88770E-14
 -1      3135 2.00263E+01 6.40795E-02 1.00549E-03 2.15008E-01-8.56420E-14-7.26021E-14
 -1      3136 2.00244E+01 4.67068E-02-1.54929E-04 1.99519E-01-5.47417E-14-9.63519E-14
 -1      3137 2.00203E+01 8.17100E-02-8.36629E-04 2.30270E-01-8.23630E-14-8.81860E-14
 -1      3138 2.00314E+01 1.01561E-01 1.13258E-03 2.48915E-01-1.01679E-13-5.03294E-14
 -1      3139 2.00155E+01 8.62476E-02-8.11632E-05 2.24423E-01-8.30395E-14-1.53278E-13
 -1      3140 2.00251E+01 1.20956E-01-9.55014E-04 2.71414E-01-1.26413E-13-2.77951E-14
 -1      3141 2.00385E+01 1.42342E-01 1.27244E-03 2.97523E-01-1.00168E-13-5.00243E-14
 -1      3142 2.00066E+01 1.30844E-01-2.04068E-05 2.62711E-01-1.23246E-13-1.00367E-13
 -1      3143 2.00318E+01 1.62628E-01-1.05474E-03 3.28092E-01-8.71705E-14-1.20822E-13
 -1      3144 2.00480E+01 1.84398E-01 1.42140E-03 3.62146E-01-5.37490E-14-1.53059E-13
 -1      3145 1.99975E+01 1.78857E-01 1.90371E-05 3.16259E-01-1.35936E-13-6.44366E-14
 -1      3146 2.00413E+01 2.04108E-01-1.11320E-03 4.01366E-01 4.04308E-14-1.48335E-13
 -1      3147 2.00612E+01 2.24329E-01 1.57308E-03 4.43388E-01 4.20268E-14-4.48188E-14
 -1      3148 1.99880E+01 2.27627E-01 1.89271E-05 3.86537E-01 2.51927E-14-1.10961E-13
 -1      3149 2.00552E+01 2.41056E-01-1.09016E-03 4.91452E-01 1.88983E-14-5.96700E-14
 -1      3150 2.00803E+01 2.56620E-01 1.71914E-03 5.40758E-01 3.19627E-14-7.48837E-14
 -1      3151 1.99791E+01 2.72770E-01-5.47533E-05 4.74422E-01 6.09587E-14-1.17301E-13
 -1      3152 2.00772E+01 2.66602E-01-9.21282E-04 5.97252E-01-8.60983E-15-5.17738E-14
 -1      3153 2.01097E+01 2.72762E-01 1.84914E-03 6.52102E-01 3.25195E-14-4.27886E-14
 -1      3154 1.99734E+01 3.07302E-01-2.60036E-04 5.79890E-01 4.07071E-14-8.27859E-14
 -1      3155 2.01133E+01 2.70430E-01-5.09546E-04 7.15680E-01 7.47109E-14-5.62209E-14
 -1      3156 2.01568E+01 2.60334E-01 1.94670E-03 7.72801E-01 9.30069E-14-6.68082E-14
 -1      3157 1.99760E+01 3.20644E-01-6.89717E-04 7.01556E-01 7.41286E-14 8.49970E-15
 -1      3158 2.01737E+01 2.37928E-01 2.84937E-04 8.40691E-01 2.44267E-14-6.84472E-14
 -1      3159 2.02337E+01 2.02311E-01 1.97542E-03 8.94643E-01-2.77832E-14-2.88042E-14
 -1      3160 1.99960E+01 2.97595E-01-1.48340E-03 8.35975E-01 3.52567E-14-1.27737E-13
 -1      3161 2.02743E+01 1.49820E-01 1.65368E-03 9.61874E-01-3.61421E-14 1.67291E-14
 -1      3162 2.03588E+01 7.72066E-02 1.84011E-03 1.00422E+00 3.22167E-14 3.87281E-15
 -1      3163 2.00487E+01 2.17612E-01-2.83610E-03 9.76552E-01 9.61732E-15-6.51448E-14
 -1      3164 2.04391E+01-1.68305E-02 3.83191E-03 1.06229E+00 4.98882E-14-7.22061E-14
 -1      3165 2.05586E+01-1.38629E-01 1.31720E-03 1.08049E+00 6.40894E-15-6.74280E-14
 -1      3166 2.01583E+01 5.51419E-02-4.99069E-03 1.11164E+00-6.96974E-15-1.00597E-14
 -1      3167 2.07009E+01-2.84411E-01 7.06041E-03 1.11510E+00 6.50977E-14-7.44019E-14
 -1      3168 2.08668E+01-4.64094E-01-7.85035E-05 1.09131E+00 8.99194E-14 1.64280E-14
 -1      3169 2.03601E+01-2.17433E-01-8.16637E-03 1.22109E+00 4.45314E-14-5.96551E-14
 -1      3170 2.10990E+01-6.64189E-01 1.12763E-02 1.07870E+00 5.37360E-14 9.95426E-14
 -1      3171 2.13189E+01-8.97192E-01-3.03439E-03 9.89039E-01 4.40151E-14 1.84420E-13
 -1      3172 2.07017E+01-6.20885E-01-1.23845E-02 1.27016E+00 1.35065E-13 8.26207E-14
 -1      3173 2.16669E+01-1.13350E+00 1.57826E-02 8.92996E-01-4.20449E-14 1.88646E-13
 -1      3174 2.19350E+01-1.38549E+00-8.20510E-03 7.10709E-01 1.72915E-14 2.23724E-13
 -1      3175 2.12366E+01-1.14720E+00-1.68704E-02 1.20087E+00 2.23822E-14 5.10180E-14
 -1      3176 2.24056E+01-1.60048E+00 1.85550E-02 4.82821E-01 1.00758E-13 1.87636E-13
 -1      3177 2.26912E+01-1.77912E+00-1.24931E-02 1.88262E-01 2.16006E-13 2.64228E-13
 -1      3178 2.20048E+01-1.72298E+00-1.94111E-02 9.27210E-01 8.00378E-14 2.28195E-13
 -1      3179 2.32309E+01-1.85935E+00 1.39580E-02-2.05016E-01 1.63768E-13 1.64673E-13
 -1      3180 2.34730E+01-1.80081E+00-1.27986E-02-5.94525E-01 1.41978E-14 1.76300E-13
 -1      3181 2.29783E+01-2.14413E+00-1.67311E-02 3.43532E-01 9.72156E-14 1.20049E-13
 -1      3182 2.39271E+01-1.54735E+00-7.31647E-03-1.12017E+00-5.13868E-15 2.25162E-13
 -1      3183 2.40424E+01-1.06573E+00-8.61852E-03-1.47866E+00-2.10890E-14 4.02178E-13
 -1      3184 2.40263E+01-2.00401E+00 8.57008E-03-6.00025E-01 6.50959E-14 1.27388E-13
 -1      3185 2.38470E+01 1.52112E+00-7.10191E-02-1.96565E+00-9.48408E-14 4.35276E-13
 -1      3186 2.37100E+01 2.42054E+00 4.03232E-03-1.57750E+00-1.03473E-13 2.58875E-13
 -1      3187 2.40933E+01 3.42619E+00-6.16563E-02-1.16137E+00-1.93481E-13 2.52939E-13
 -1      3188 2.40073E+01 3.81688E+00-5.78585E-02-4.33195E-01-2.48884E-13 1.06923E-13
 -1      3189 2.39093E+01 1.84929E+00 3.76357E-04 1.76788E+00-2.30163E-14-6.57291E-14
 -1      3190 2.40302E+01 8.14871E-01-6.47967E-02 1.94639E+00-1.23325E-13-1.38408E-13
 -1      3191 2.41425E+01-1.05860E-01 6.16212E-03 1.78482E+00-1.10564E-13-1.16329E-13
 -1      3192 2.41104E+01-9.14467E-01-3.51124E-02 1.54899E+00-1.21529E-13-1.03485E-13
 -1      3193 2.47876E+01 2.98735E-01-1.07928E-02 1.92604E+00-1.15664E-13-2.40391E-13
 -1      3194 2.38714E+01-1.44614E+00-6.75939E-03 1.05712E+00-9.41434E-14 1.45812E-14
 -1      3195 2.36858E+01-1.78207E+00-3.06839E-03 6.47478E-01-3.25608E-14 4.64103E-14
 -1      3196 2.44816E+01-1.46894E+00-4.56537E-03 1.15398E+00-3.83456E-14 6.33547E-14
 -1      3197 2.32143E+01-1.89146E+00-1.18967E-02 1.59126E-01 4.36782E-14 9.46007E-14
 -1      3198 2.29475E+01-1.85788E+00 1.57776E-02-2.16695E-01-2.60875E-14 2.00830E-13
 -1      3199 2.36783E+01-2.13420E+00 8.80909E-04 1.26246E-01-8.25728E-16 1.56546E-13
 -1      3200 2.24353E+01-1.72461E+00-1.24647E-02-5.71949E-01-3.53639E-14 2.66190E-13
 -1      3201 2.21499E+01-1.50294E+00 1.75388E-02-8.39648E-01 5.40585E-14 3.27242E-13
 -1      3202 2.26944E+01-2.07244E+00-1.56220E-02-7.12384E-01 8.36096E-14 1.79703E-13
 -1      3203 2.17298E+01-1.27082E+00-7.00889E-03-1.03388E+00-9.12237E-15 3.63441E-13
 -1      3204 2.14745E+01-1.00771E+00 1.40288E-02-1.19056E+00-6.16172E-14 4.10291E-13
 -1      3205 2.18077E+01-1.57719E+00-1.77494E-02-1.21445E+00 4.30103E-14 3.45466E-13
 -1      3206 2.11749E+01-7.70605E-01-2.96398E-03-1.26715E+00-1.57843E-13 3.19059E-13
 -1      3207 2.09717E+01-5.31973E-01 9.84881E-03-1.33474E+00-9.02334E-14 9.28486E-14
 -1      3208 2.11411E+01-9.92561E-01-1.44726E-02-1.44021E+00-1.92821E-13 2.83681E-13
 -1      3209 2.07756E+01-3.28346E-01-9.18385E-04-1.33465E+00-7.64790E-14-9.26407E-14
 -1      3210 2.06240E+01-1.34007E-01 6.00610E-03-1.33610E+00-9.45503E-14-8.41330E-14
 -1      3211 2.06911E+01-4.63969E-01-9.11158E-03-1.48200E+00-2.17874E-13 1.35852E-13
 -1      3212 2.05231E+01 7.88066E-03-2.40267E-04-1.29084E+00 2.34895E-15-1.98694E-13
 -1      3213 2.04123E+01 1.62967E-01 3.83526E-03-1.24486E+00-2.92852E-14-1.69064E-13
 -1      3214 2.02816E+01 2.42487E-01-1.92697E-03-1.28769E+00-1.10393E-13-7.53036E-14
 -1      3215 2.04289E+01-5.75912E-02-4.53958E-03-1.41196E+00-5.47562E-14 6.74680E-14
 -1      3216 2.00741E+01 1.53096E-01-1.07864E-03-7.67112E-02 9.22681E-14-1.15332E-13
 -1      3217 2.01061E+01 2.17637E-01 3.65783E-03-2.26308E-02 9.58390E-14-9.89155E-14
 -1      3218 1.99916E+01-2.99944E-02 4.43858E-04-1.91492E-01 3.21281E-14-6.11241E-14
 -1      3219 1.99890E+01-2.59106E-02 3.58856E-04-1.92904E-01 3.21142E-14-9.53268E-14
 -1      3220 1.99979E+01-1.83410E-02 2.61714E-04-1.91791E-01 4.53993E-15-1.00785E-13
 -1      3221 2.00002E+01-6.05614E-03 8.56488E-04-1.88191E-01-2.64430E-14-7.96538E-14
 -1      3222 2.00547E+01-2.15943E-02-7.86742E-04-1.88528E-01 2.73828E-14-9.69764E-14
 -1      3223 1.99955E+01-1.86658E-02 6.98998E-04-1.81691E-01 7.66299E-14-2.06237E-14
 -1      3224 1.99868E+01-2.51675E-02-2.43157E-04-1.83762E-01 1.01464E-13-5.57754E-14
 -1      3225 2.00033E+01-6.16930E-04 8.18953E-04-1.81948E-01 2.11377E-14 1.59758E-14
 -1      3226 1.99926E+01-1.08813E-02-4.30327E-04-1.81069E-01 6.15006E-14 2.42867E-14
 -1      3227 2.00242E+01-1.54919E-02-3.59336E-04-1.84330E-01 2.94208E-14-7.14970E-14
 -1      3228 2.00142E+01 2.41226E-02 9.53894E-04-1.90550E-01-3.34298E-14-2.93145E-14
 -1      3229 2.00015E+01 1.04819E-02-5.84666E-04-1.85056E-01 2.70241E-14-1.95057E-14
 -1      3230 2.00216E+01 7.57372E-03-2.68903E-04-1.87777E-01 4.13277E-14-3.47561E-14
 -1      3231 2.00277E+01 5.52981E-02 1.11345E-03-2.10541E-01 1.66912E-14-5.62986E-14
 -1      3232 2.00129E+01 3.83332E-02-7.31497E-04-1.98941E-01-1.95106E-16-3.15040E-14
 -1      3233 2.00212E+01 3.86060E-02-1.87424E-04-2.00127E-01-1.29237E-14-1.31979E-13
 -1      3234 2.00435E+01 9.31606E-02 1.30318E-03-2.44784E-01 1.81791E-15-6.31924E-14
 -1      3235 2.00263E+01 7.26843E-02-8.92010E-04-2.25645E-01-6.19661E-15-2.90489E-14
 -1      3236 2.00217E+01 7.73886E-02-1.02698E-04-2.24420E-01 1.31930E-14-1.43354E-13
 -1      3237 2.00612E+01 1.38278E-01 1.52500E-03-2.96121E-01 1.43295E-15-1.42054E-13
 -1      3238 2.00413E+01 1.13963E-01-1.08393E-03-2.67994E-01 3.05536E-14-9.34852E-14
 -1      3239 2.00222E+01 1.24251E-01 1.77087E-07-2.63493E-01 4.99094E-14-1.75178E-13
 -1      3240 2.00803E+01 1.91301E-01 1.77695E-03-3.67438E-01-1.85968E-14-1.54510E-13
 -1      3241 2.00574E+01 1.62809E-01-1.32206E-03-3.28844E-01-9.95983E-15-1.50343E-13
 -1      3242 2.00210E+01 1.79829E-01 1.38352E-04-3.20117E-01 1.31583E-14-2.48987E-13
 -1      3243 2.00999E+01 2.52619E-01 2.05360E-03-4.61641E-01 1.04370E-13-8.96065E-14
 -1      3244 2.00737E+01 2.19795E-01-1.61734E-03-4.11105E-01 8.98461E-15-8.59448E-14
 -1      3245 2.00163E+01 2.44760E-01 3.30434E-04-3.97042E-01-3.05171E-14-1.44869E-13
 -1      3246 2.01185E+01 3.21794E-01 2.34820E-03-5.81497E-01 7.74953E-14 5.15707E-15
 -1      3247 2.00890E+01 2.84988E-01-1.97395E-03-5.17669E-01 1.15368E-13-2.73709E-14
 -1      3248 2.00055E+01 3.19238E-01 5.93650E-04-4.96968E-01 3.98952E-14 2.59382E-15
 -1      3249 2.01343E+01 3.96607E-01 2.65861E-03-7.29343E-01 6.01053E-14 7.47075E-14
 -1      3250 2.01015E+01 3.57220E-01-2.38309E-03-6.51216E-01 1.06011E-13 5.28493E-14
 -1      3251 1.99855E+01 4.02283E-01 9.36382E-04-6.22432E-01 6.06855E-14 1.08499E-13
 -1      3252 2.01458E+01 4.71452E-01 3.00026E-03-9.06627E-01 1.79400E-15 8.90723E-14
 -1      3253 2.01093E+01 4.32841E-01-2.81139E-03-8.13895E-01 1.96757E-14 5.75062E-14
 -1      3254 1.99523E+01 4.90544E-01 1.34212E-03-7.75654E-01 2.67164E-14 1.79837E-13
 -1      3255 2.01529E+01 5.34726E-01 3.42948E-03-1.11327E+00-1.57212E-13-1.31450E-14
 -1      3256 2.01115E+01 5.03672E-01-3.17974E-03-1.00686E+00-2.42414E-14 5.64211E-14
 -1      3257 1.99025E+01 5.76334E-01 1.73808E-03-9.58416E-01 1.00634E-14 1.14304E-13
 -1      3258 2.01606E+01 5.64824E-01 4.07477E-03-1.34684E+00-1.81532E-13-9.37634E-14
 -1      3259 2.01100E+01 5.53739E-01-3.32506E-03-1.22967E+00-1.55574E-13-2.83326E-14
 -1      3260 1.98344E+01 6.44513E-01 1.93788E-03-1.17210E+00-1.07690E-13 6.74180E-14
 -1      3261 2.01847E+01 5.24555E-01 5.16134E-03-1.60136E+00-1.84533E-13-1.39539E-13
 -1      3262 2.01146E+01 5.54492E-01-2.93062E-03-1.47950E+00-1.97919E-13-1.53791E-13
 -1      3263 1.97520E+01 6.67817E-01 1.54416E-03-1.41805E+00-1.57417E-13-1.17876E-13
 -1      3264 2.02627E+01 3.54821E-01 6.98586E-03-1.86518E+00-6.59603E-14-1.70831E-13
 -1      3265 2.01511E+01 4.58704E-01-1.38134E-03-1.74963E+00-1.00054E-13-1.57569E-13
 -1      3266 1.96721E+01 6.00459E-01-1.87590E-04-1.69807E+00-1.01547E-13-2.57218E-13
 -1      3267 2.04695E+01-2.87317E-02 9.91600E-03-2.11551E+00-1.88091E-13-2.10512E-13
 -1      3268 2.02759E+01 1.95006E-01 2.56662E-03-2.02589E+00-1.02660E-13-1.79867E-13
 -1      3269 1.96371E+01 3.70963E-01-4.43204E-03-2.01413E+00-1.06022E-13-1.96854E-13
 -1      3270 2.09396E+01-7.25317E-01 1.51706E-02-2.30354E+00-3.36575E-13-1.43658E-13
 -1      3271 2.05960E+01-3.30677E-01 1.15268E-02-2.27723E+00-2.32038E-13-1.55148E-13
 -1      3272 1.97351E+01-1.21406E-01-1.23938E-02-2.36304E+00-2.14452E-13-1.89623E-13
 -1      3273 2.18652E+01-1.80939E+00 1.42809E-02-2.32090E+00-1.12122E-13-2.08102E-13
 -1      3274 2.12978E+01-1.22308E+00 2.69473E-02-2.43160E+00-2.55416E-13-1.56659E-13
 -1      3275 2.01245E+01-9.91132E-01-2.40394E-02-2.72290E+00-2.60561E-13-1.81702E-13
 -1      3276 2.33934E+01-3.12445E+00-9.49098E-03-1.92723E+00 3.28695E-14-2.78192E-13
 -1      3277 2.26276E+01-2.44493E+00 5.11167E-02-2.26226E+00 3.10082E-15-1.99663E-13
 -1      3278 2.11566E+01-2.35545E+00-3.39010E-02-2.98533E+00-7.92873E-14-4.69609E-13
 -1      3279 2.58779E+01-3.71467E+00-3.06242E-02-4.39126E-01-8.29198E-14-2.06706E-13
 -1      3280 2.50137E+01-3.59976E+00 4.29013E-02-1.19672E+00 5.84949E-15-2.24385E-13
 -1      3281 2.33981E+01-3.74973E+00-2.67672E-02-2.37943E+00 1.83794E-14-1.76900E-13
 -1      3282 2.67968E+01-3.82192E+00-1.54130E-02-3.35393E-01-1.48000E-13-9.74568E-14
 -1      3283 2.14077E+01-1.37361E+00 3.27079E-02 2.61252E+00 1.01258E-13-3.96433E-13
 -1      3284 2.19693E+01-1.96333E+00 8.47264E-03 2.46825E+00 3.45991E-14-5.41893E-13
 -1      3285 2.06378E+01-4.51186E-01 1.18529E-02 2.52415E+00 8.38578E-14-2.51647E-13
 -1      3286 2.09962E+01-8.75324E-01 8.78836E-03 2.53069E+00 2.08535E-13-2.88411E-13
 -1      3287 2.02677E+01-1.21400E+00-3.76055E-02 2.96096E+00 7.07559E-14-3.06786E-14
 -1      3288 2.02865E+01 1.22083E-01 3.04091E-03 2.29588E+00 1.67136E-13-1.64160E-13
 -1      3289 2.04987E+01-1.27099E-01 9.71327E-03 2.37336E+00 1.28704E-13-2.23782E-13
 -1      3290 1.98256E+01-2.47112E-01-1.61388E-02 2.62865E+00 5.42359E-14-1.29168E-14
 -1      3291 2.01445E+01 4.50143E-01-2.33858E-04 2.02678E+00 6.72987E-14-1.50382E-13
 -1      3292 2.02684E+01 3.10900E-01 6.81527E-03 2.14115E+00 9.86744E-14-1.91122E-13
 -1      3293 1.97182E+01 3.06168E-01-5.80249E-03 2.29559E+00 1.23762E-13 5.03249E-15
 -1      3294 2.01023E+01 6.39015E-01 9.76900E-04 1.74083E+00 1.72777E-13-2.72397E-13
 -1      3295 2.01769E+01 5.56238E-01 4.94727E-03 1.87380E+00 9.35846E-14-6.39099E-14
 -1      3296 1.97507E+01 6.16548E-01-1.38159E-03 1.97927E+00-1.01186E-14 1.15597E-15
 -1      3297 2.00010E+01 7.82541E-01 2.68523E-03 1.52892E+00-2.11574E-13-1.84278E-13
 -1      3298 2.00879E+01 7.07768E-01 5.37845E-03 1.64255E+00 1.25650E-13-5.49867E-14
 -1      3299 1.97611E+01 7.93034E-01-1.89961E-03 1.71934E+00-4.96619E-14-1.09789E-14
 -1      3300 1.97439E+01 9.20464E-01-7.08657E-03 1.50834E+00-1.53957E-14 2.86021E-13
 -1      3301 2.75057E+01 5.49239E-01-1.54469E-01 1.89508E+00-1.95940E-13-4.09117E-13
 -1      3302 2.64918E+01 1.75952E+00-8.17971E-02 2.13049E+00-2.91780E-13-2.87090E-13
 -1      3303 2.84713E+01-1.14050E+00-3.44872E-02-1.99718E+00 1.64951E-13-2.44721E-13
 -1      3304 2.51355E+01-4.22727E+00 4.11058E-02-2.05221E+00 3.99188E-13-2.44249E-14
 -1      3305 2.65732E+01-3.56640E+00-1.31816E-01-5.75850E-01 3.17826E-13 3.99368E-14
 -1      3306 1.09884E+01-4.75435E-01 1.51313E-01-3.27608E+00-1.14068E-13-1.11910E-13
 -1      3307 1.35291E+01-1.56928E+00 4.16332E-02-4.50117E+00-1.59595E-13-7.40519E-14
 -1      3308 2.02486E+01 1.43053E+00-6.94000E-03-8.24597E-01-1.69436E-13-1.41017E-13
 -1      3309 2.02907E+01 1.21964E+00 8.64342E-03-7.19656E-01-1.42728E-13-1.36264E-13
 -1      3310 2.02546E+01 9.56659E-01-5.23508E-03-5.31943E-01-1.10728E-13-1.18521E-13
 -1      3311 2.02028E+01 1.66892E+00-6.75335E-04-7.69927E-01-1.35090E-13-1.74461E-13
 -1      3312 1.88399E+01 1.27887E+00 3.22848E-03-5.87503E-01 1.50159E-15-1.71781E-13
 -1      3313 1.87277E+01 1.33929E+00-7.72135E-03-3.38061E-01-3.38864E-14-9.09369E-14
 -1      3314 2.71011E+01 4.61439E+00-1.29511E-01 1.68095E+00-3.50053E-13-2.33612E-13
 -1      3315 2.89762E+01 5.15331E+00-1.44032E-01 1.46460E+00-4.51195E-13-5.24150E-13
 -1      3316 1.99368E+01 5.17535E-01 5.66743E-03-1.32289E+00-8.51926E-14 4.88197E-13
 -1      3317 1.97509E+01 6.23437E-01-5.20351E-03-1.30885E+00-2.42061E-14 3.00525E-13
 -1      3318 1.91622E+01 1.04899E+00 6.74898E-03-1.01027E+00-1.55783E-14-2.07762E-14
 -1      3319 1.89834E+01 1.14169E+00-9.22696E-03-8.30768E-01 5.39302E-14 1.20902E-13
 -1      3320 1.87206E+01 1.12311E+00 3.63701E-03-8.04997E-01 5.87814E-15-7.12944E-14
 -1      3321 2.06054E+01-4.40406E+00 1.20595E-01-5.02951E+00 9.53543E-14-1.45099E-13
 -1      3322 2.27710E+01-4.70068E+00-3.46951E-02-3.84942E+00 3.58755E-13-1.62702E-13
 -1      3323 2.01248E+01 2.94849E-01-1.97326E-03 4.49971E-02 9.82283E-14-1.27555E-13
 -1      3324 2.01700E+01 3.95954E-01 4.52571E-03 1.35695E-01 1.16257E-13-1.26594E-13
 -1      3325 2.01916E+01 3.17793E-01-1.47854E-03 3.67651E-02 9.29152E-14-8.76060E-14
 -1      3326 1.95570E+01 7.74564E-01 7.82883E-03-1.25763E+00-6.60380E-14 1.03605E-13
 -1      3327 1.93536E+01 8.83536E-01-8.03160E-03-1.16007E+00-4.30508E-14-1.28347E-13
 -1      3328 1.91297E+01 8.41118E-01-9.48918E-04-1.20623E+00-1.58950E-13-8.18576E-14
 -1      3329 1.95927E+01 5.48997E-01-4.97731E-03-1.39919E+00-1.59516E-13 2.15234E-13
 -1      3330 2.27964E+01-2.59359E+00 5.51643E-02 2.40989E+00-3.76053E-14-6.40332E-13
 -1      3331 2.35562E+01-3.30322E+00-3.51647E-03 2.04130E+00-2.38597E-13-5.09794E-13
 -1      3332 2.13308E+01-2.45090E+00-2.20616E-02 3.06549E+00-9.88836E-14-1.34483E-13
 -1      3333 1.99912E+01-2.90771E-02 5.80389E-04-1.86293E-01 8.54572E-14-3.42971E-14
 -1      3334 1.99852E+01-3.09907E-02 7.30936E-06-1.89313E-01 6.21793E-14-3.04387E-14
 -1      3335 2.00395E+01-3.27638E-02-6.11304E-04-1.89508E-01 3.07418E-14-7.38912E-14
 -1      3336 2.00297E+01-2.96068E-02-4.70515E-04-1.86314E-01 7.45231E-14-3.93039E-14
 -1      3337 2.72685E+01-1.08014E+00 1.31333E-02 1.12608E+00 3.48263E-14-1.85935E-13
 -1      3338 2.02910E+01 9.89791E-01-1.32983E-04 6.92500E-01 1.89471E-13-1.61838E-13
 -1      3339 2.02676E+01 1.30587E+00 2.63860E-03 7.73805E-01 1.86000E-13-1.61198E-13
 -1      3340 2.02751E+01 1.12893E+00 1.00638E-03 5.98956E-01 1.51628E-13-1.47955E-13
 -1      3341 2.02305E+01 7.76538E-01-3.95799E-03 4.85777E-01 1.56540E-13-1.57129E-13
 -1      3342 2.00496E+01 2.16051E+00-4.30335E-03 2.93113E-01 7.05525E-14-2.77199E-13
 -1      3343 2.00366E+01 2.19937E+00-3.32140E-03 1.71170E-01 2.97609E-14-2.98281E-13
 -1      3344 1.66286E+01-2.88287E+00 6.61899E-02-5.05134E+00-3.18565E-14-3.15317E-13
 -1      3345 1.92986E+01-3.95487E+00 1.07340E-02-4.90166E+00-1.75554E-14-4.57155E-13
 -1      3346 1.12836E+01 3.16057E-02-3.89428E-03 2.31471E+00 1.89397E-14-3.52496E-15
 -1      3347 1.04531E+01 5.13003E-01 1.41581E-01 2.11380E-01-2.24482E-14 1.68490E-13
 -1      3348 2.14456E+01-4.04925E+00 2.49717E-02 4.12542E+00-2.42889E-13-3.49325E-13
 -1      3349 1.85520E+01-2.95039E+00 9.40459E-02 4.73920E+00-3.05381E-13-2.28231E-13
 -1      3350 2.68080E+01-1.82051E+00-1.19999E-01-9.63304E-01-2.06953E-14 2.65094E-13
 -1      3351 2.65929E+01-2.71533E+00-1.45916E-02-1.71274E-01 8.73503E-14 9.66241E-14
 -1      3352 1.55263E+01-3.08870E+00 1.21084E-01-5.76423E+00 3.20299E-14 3.04479E-14
 -1      3353 1.79456E+01-4.04705E+00-1.45004E-02-5.73712E+00 2.82829E-14-2.09527E-13
 -1      3354 2.86166E+01 6.28294E+00-1.74310E-01 9.11161E-01-4.45116E-13-3.59004E-13
 -1      3355 1.03815E+01-5.67434E-01 8.65979E-02 3.54315E+00 5.72251E-14-3.66610E-13
 -1      3356 9.26897E+00 3.41247E-02 1.26691E-01 1.98218E+00 4.37931E-14-4.10685E-13
 -1      3357 8.70958E+00 1.91469E-01 1.02728E-01 2.98883E-01-1.09101E-13-3.63085E-13
 -1      3358 9.15307E+00-6.60446E-02 5.95138E-02-1.80071E+00-9.04068E-14-2.56420E-13
 -1      3359 2.00296E+01 2.21817E+00-3.67767E-03 6.60480E-02 1.42079E-14-3.08278E-13
 -1      3360 2.00292E+01 2.21907E+00-3.63530E-03-5.82137E-02-6.88767E-16-2.97366E-13
 -1      3361 2.01438E+01 1.92275E+00 4.98560E-03 1.01641E-01 2.74502E-14-2.79589E-13
 -1      3362 1.35924E+01 1.13115E-01 8.07049E-02 2.55391E+00-9.85097E-14 4.35207E-14
 -1      3363 1.66850E+01-3.53744E+00 1.27820E-01 5.89573E+00 2.24765E-13-4.27366E-13
 -1      3364 1.53657E+01-2.67440E+00 6.34030E-02 5.45950E+00 1.77296E-13-3.20750E-13
 -1      3365 1.85834E+01-3.89577E+00 2.44592E-02 5.29736E+00 2.72907E-13-5.20972E-13
 -1      3366 9.93902E+00 3.17334E-02 3.10732E-02-1.67253E+00-2.12001E-13 2.56239E-13
 -1      3367 1.06741E+01-5.10492E-01 1.27727E-01-3.32117E+00-2.77646E-13 1.99979E-13
 -1      3368 2.01756E+01 4.87025E-01-2.92615E-03 2.23305E-01 1.36315E-13-1.37667E-13
 -1      3369 2.02327E+01 6.34832E-01 4.13633E-03 3.62784E-01 1.41033E-13-1.54381E-13
 -1      3370 2.02598E+01 7.89966E-01-6.95955E-04 4.22526E-01 1.53464E-13-1.48793E-13
 -1      3371 2.02306E+01 5.26614E-01-7.56811E-04 2.01374E-01 1.11467E-13-1.22316E-13
 -1      3372 2.02789E+01 9.91565E-01-1.42096E-03-4.71364E-01-9.52536E-14-1.08613E-13
 -1      3373 2.00122E+01 1.06364E-02-7.90286E-06-1.79882E-01-4.37924E-14-6.80958E-14
 -1      3374 2.00216E+01 3.44526E-02 1.54978E-03-1.66634E-01 2.04584E-14-8.22427E-14
 -1      3375 2.00766E+01 9.11796E-03-9.95758E-04-1.76295E-01-3.25996E-14-9.13623E-14
 -1      3376 2.42022E+01-3.78598E-01-4.74691E-02-1.90680E+00-1.72692E-13 5.69093E-13
 -1      3377 2.41711E+01 5.57983E-01 3.51786E-03-2.02584E+00-1.43724E-13 5.48971E-13
 -1      3378 2.34625E+01 3.28092E+00-2.51635E-02 6.77565E-01-8.79574E-14-5.69779E-14
 -1      3379 2.36169E+01 2.66478E+00-5.87737E-02 1.26603E+00 5.60940E-14 5.71739E-14
 -1      3380 2.64225E+01-1.84587E+00-7.36961E-03 7.61189E-01 1.07404E-13-7.36564E-14
 -1      3381 2.41544E+01-4.44880E+00-4.84945E-02 2.57202E+00 3.42896E-13-3.84789E-13
 -1      3382 2.31542E+01-4.80509E+00 5.06918E-02 3.92325E+00 3.99604E-13-6.83341E-13
 -1      3383 2.17996E+01-4.43785E+00 4.41050E-02 4.27484E+00 3.98057E-13-5.17529E-13
 -1      3384 1.78665E+01-1.97072E+00 5.96232E-02 4.13473E+00-2.38174E-13-2.76758E-13
 -1      3385 2.47535E+01 1.09619E+00-1.96858E-02-2.11827E+00-1.87921E-13 5.23269E-13
 -1      3386 2.00697E+01 2.10499E+00-3.06540E-03 3.91846E-01 8.41119E-14-2.77409E-13
 -1      3387 2.01658E+01 1.84793E+00 5.30485E-03 2.91543E-01 7.68851E-14-2.46573E-13
 -1      3388 2.00947E+01 2.02487E+00-5.30507E-03 5.05400E-01 1.12099E-13-2.55921E-13
 -1      3389 2.48776E+01 3.48374E+00-5.92680E-02-1.66961E+00-2.26680E-13 4.91693E-13
 -1      3390 2.76498E+01-2.63952E+00-1.10295E-01-1.13724E+00 2.95649E-14-4.35409E-13
 -1      3391 1.15675E+01 9.82183E-02 1.20409E-01-2.24524E+00-1.87288E-13-1.78281E-13
 -1      3392 1.87159E+01 1.41127E+00-5.64285E-03 5.76630E-01-3.41986E-14 4.36732E-13
 -1      3393 1.88264E+01 1.36695E+00 3.69434E-04 8.34720E-01-1.40547E-13 6.24402E-13
 -1      3394 2.41304E+01-4.45322E+00 2.62410E-02-2.75068E+00 3.84724E-13 1.29428E-13
 -1      3395 2.47124E+01-3.83739E+00 1.36415E-03-1.52418E+00 2.54763E-13 3.01668E-13
 -1      3396 2.27094E+01-4.13776E+00 2.74869E-04-3.25478E+00 1.57555E-13 6.10388E-14
 -1      3397 1.47800E+01-8.15943E-01 3.55727E-02-3.76258E+00-1.49096E-13-2.44971E-13
 -1      3398 1.56500E+01-1.87626E+00 9.89002E-02-4.57949E+00-5.80994E-14-2.13274E-13
 -1      3399 1.74516E+01-2.16037E+00-9.58093E-03-4.28237E+00-4.63535E-14-4.41876E-13
 -1      3400 2.59131E+01 3.98132E+00-7.52246E-02 1.59637E+00-1.86129E-13 1.02130E-13
 -1      3401 2.63505E+01 4.91408E+00-1.66526E-01 1.20897E+00-2.26014E-13 9.56839E-14
 -1      3402 1.04681E+01 4.31034E-01 1.23013E-01 9.78779E-01-1.23717E-13-3.01925E-13
 -1      3403 1.86679E+01 1.41447E+00-1.11022E-03-2.57137E-02-3.25645E-14-9.57526E-14
 -1      3404 1.86611E+01 1.42516E+00-3.67302E-03 2.53768E-01-3.35503E-14-5.14237E-15
 -1      3405 1.84662E+01 1.32175E+00 6.48295E-03-2.32524E-01-1.28004E-13-1.37259E-13
 -1      3406 2.67650E+01-3.69272E+00-1.77056E-02 1.67104E-01-1.26663E-13-4.39794E-13
 -1      3407 2.57360E+01-3.87467E+00 1.99008E-02 1.06359E+00-1.69923E-13-4.88276E-13
 -1      3408 2.42059E+01-4.14224E+00-2.22458E-02 2.34862E+00-1.86663E-13-3.83998E-13
 -1      3409 1.16945E+01 4.90746E-01 8.52639E-02-7.29255E-01-1.08247E-15 2.72220E-13
 -1      3410 2.47428E+01-9.12630E-01 4.35828E-03-1.62949E+00 1.35742E-14 2.99544E-13
 -1      3411 2.44973E+01 2.59134E+00-2.21864E-02 1.64055E+00-7.20153E-14 3.71543E-14
 -1      3412 1.95169E+01-3.78005E+00 5.98297E-02-4.91431E+00 3.80529E-14-2.16771E-13
 -1      3413 2.70785E+01 5.52009E+00-1.54902E-01 9.08470E-01-2.27832E-13-3.52877E-14
 -1      3414 2.56151E+01 4.92781E+00-8.47357E-02 6.25026E-01-1.85740E-13 1.88558E-13
 -1      3415 2.55889E+01-4.59091E+00 5.31523E-02-1.88086E+00-9.10036E-14-2.34885E-13
 -1      3416 2.64142E+01-6.04973E-01-3.42858E-02-1.67003E+00 5.65069E-14 2.42681E-13
 -1      3417 2.00560E+01 1.04518E-01 2.49114E-03-1.16666E-01 8.58768E-14-1.07272E-13
 -1      3418 2.01453E+01 1.64355E-01-1.40236E-03-7.76127E-02 8.53843E-14-1.09457E-13
 -1      3419 2.00368E+01 6.41309E-02-4.27389E-04-1.45935E-01 7.13996E-14-1.12317E-13
 -1      3420 2.60617E+01-3.34991E+00-3.89284E-02 5.24365E-01 1.78729E-13 5.59622E-14
 -1      3421 2.53727E+01-3.70602E+00 5.59661E-02 1.19966E+00 3.15366E-13-2.48378E-14
 -1      3422 2.56537E+01-2.76266E+00-4.37571E-04-2.20870E-01 1.90599E-13 2.58207E-13
 -1      3423 2.55257E+01 1.02171E+00-1.69511E-03 2.05462E+00-1.90334E-13-7.54830E-14
 -1      3424 2.55654E+01 2.19345E+00-1.20621E-01 2.05745E+00-2.06682E-13-1.03310E-13
 -1      3425 1.89728E+01 1.28934E+00-7.57453E-03 1.06020E+00-2.04772E-13 4.75325E-13
 -1      3426 1.91443E+01 1.21975E+00 1.78458E-03 1.22046E+00-3.30060E-13 4.39258E-13
 -1      3427 1.86960E+01 1.29693E+00 6.77841E-03 9.98822E-01-8.78442E-14 6.22272E-13
 -1      3428 2.01612E+01 1.80225E+00-6.68144E-03 6.86623E-01 1.43070E-13-2.07725E-13
 -1      3429 2.01262E+01 1.93031E+00-2.84175E-03 5.91419E-01 1.20341E-13-2.35561E-13
 -1      3430 2.02066E+01 1.69564E+00 5.82955E-03 4.60126E-01 1.06108E-13-2.39243E-13
 -1      3431 2.02536E+01 1.46199E+00 5.79574E-03 5.88728E-01 1.30969E-13-1.83986E-13
 -1      3432 1.31940E+01-1.35277E+00 4.96821E-02 4.57100E+00 3.65818E-14-2.99705E-13
 -1      3433 1.16930E+01-8.48048E-01 1.36113E-01 4.09583E+00 7.55299E-14-3.53786E-13
 -1      3434 1.20396E+01-2.13224E-01 6.14024E-02 3.22359E+00-3.34177E-14-3.97668E-13
 -1      3435 2.58541E+01 3.02962E+00-1.10421E-01-2.06593E+00-3.15130E-13 4.49307E-13
 -1      3436 2.00667E+01 2.11114E+00-3.09192E-03-3.84281E-01-4.84809E-14-2.62610E-13
 -1      3437 2.00907E+01 2.03328E+00-5.29335E-03-4.98544E-01-7.61305E-14-2.67769E-13
 -1      3438 2.14231E+01-4.44780E+00 9.57544E-02-4.31254E+00 4.49571E-14-3.42882E-13
 -1      3439 2.39024E+01-4.71898E+00-2.55893E-02-2.97464E+00-8.72219E-15-3.93728E-13
 -1      3440 2.35980E+01-4.32265E+00-2.25131E-02-2.72437E+00 8.30586E-15-1.63532E-13
 -1      3441 2.06555E+01-3.63001E+00 8.62725E-02-4.04970E+00 6.66169E-14-4.62661E-13
 -1      3442 1.16498E+01-1.22995E+00 9.66637E-02-4.37285E+00-2.80082E-13 1.20889E-13
 -1      3443 1.35770E+01-2.27455E+00 6.11335E-02-5.42082E+00-1.36370E-13 2.59237E-14
 -1      3444 1.27421E+01-6.35964E-01 1.05852E-01-3.63354E+00-1.82736E-13 7.25947E-14
 -1      3445 2.01730E+01 3.20188E-01 3.31501E-03-1.31706E+00-4.68603E-14 2.29213E-13
 -1      3446 2.00427E+01 4.21291E-01-2.49436E-03-1.32485E+00-4.77863E-14 5.45433E-13
 -1      3447 1.99625E+01 3.28442E-01-3.12023E-03-1.43185E+00-1.82053E-14 5.67466E-13
 -1      3448 2.02323E+01 1.74312E-01 6.32451E-04-1.39039E+00-1.08314E-13 3.14029E-13
 -1      3449 2.01220E+01 1.94057E+00-2.87430E-03-5.84753E-01-8.32740E-14-2.52362E-13
 -1      3450 2.01553E+01 1.81811E+00-6.70498E-03-6.84072E-01-9.78032E-14-2.18329E-13
 -1      3451 2.02025E+01 1.70359E+00 5.34420E-03-4.54888E-01-7.78506E-14-2.40805E-13
 -1      3452 1.55493E+01-2.26261E+00 1.05242E-01-5.05094E+00-9.51392E-14-1.50095E-13
 -1      3453 1.84829E+01-2.98563E+00 7.57610E-02-4.78928E+00 4.88325E-14-1.03483E-13
 -1      3454 2.03890E+01-3.65599E+00-2.28806E-02-4.23465E+00 1.12115E-14-1.83343E-13
 -1      3455 2.03034E+01 4.41874E-01 2.57580E-03-7.24084E-02-4.96265E-14-1.09355E-13
 -1      3456 2.02787E+01 3.30452E-01-2.10411E-03-5.04597E-03-4.51077E-14-1.09489E-13
 -1      3457 2.02704E+01 2.42249E-01 2.11677E-03 4.08174E-02-6.01774E-14-1.05738E-13
 -1      3458 2.02462E+01 1.68585E-01-1.23382E-03 8.26746E-02-6.40647E-14-9.01379E-14
 -1      3459 2.03194E+01 3.33640E-01-9.04302E-05 3.31264E-03-3.83395E-14-1.32852E-13
 -1      3460 2.02312E+01 1.11642E-01 1.56116E-03 1.10001E-01-5.96437E-14-4.53956E-14
 -1      3461 2.02101E+01 6.52590E-02-5.85017E-04 1.33504E-01-6.72257E-15-4.92367E-14
 -1      3462 2.02879E+01 1.68243E-01-4.22518E-04 7.97289E-02-3.87573E-14-8.76261E-14
 -1      3463 2.01922E+01 3.08141E-02 1.04252E-03 1.47679E-01-5.69899E-15-7.52059E-14
 -1      3464 2.01748E+01 4.21974E-03-1.24212E-04 1.59001E-01 1.33408E-14-9.39840E-14
 -1      3465 2.02498E+01 6.28211E-02-5.75108E-04 1.24313E-01-7.04797E-15-4.70575E-14
 -1      3466 2.01562E+01-1.39883E-02 6.08917E-04 1.64772E-01 4.11634E-14-1.32311E-13
 -1      3467 2.01425E+01-2.62320E-02 1.89680E-04 1.68820E-01 5.41940E-15-1.13507E-13
 -1      3468 2.02105E+01 1.44161E-03-5.96550E-04 1.46983E-01 6.78824E-15-1.20361E-13
 -1      3469 2.01243E+01-3.26454E-02 2.58813E-04 1.69982E-01-1.28410E-15-9.07744E-14
 -1      3470 2.01138E+01-3.43838E-02 4.00471E-04 1.70534E-01 4.72762E-15-8.07326E-14
 -1      3471 2.01726E+01-2.77662E-02-5.48853E-04 1.56217E-01 2.31125E-14-1.74994E-13
 -1      3472 2.00965E+01-3.21004E-02-2.33222E-05 1.70049E-01-5.82822E-15-7.67111E-14
 -1      3473 2.00886E+01-2.59984E-02 5.43269E-04 1.69989E-01 3.72707E-15-4.06178E-14
 -1      3474 2.01373E+01-3.33018E-02-4.60090E-04 1.58764E-01-5.28530E-15-1.04489E-13
 -1      3475 2.00721E+01-1.71379E-02-2.57031E-04 1.70161E-01-3.20417E-15-9.63180E-14
 -1      3476 2.00662E+01-4.99740E-03 6.44889E-04 1.71706E-01-2.94252E-14-8.66152E-14
 -1      3477 2.01047E+01-2.11277E-02-3.48806E-04 1.59911E-01-3.71429E-14-9.19670E-14
 -1      3478 2.00501E+01 9.02694E-03-4.61192E-04 1.74348E-01-6.91597E-14-1.18102E-13
 -1      3479 2.00456E+01 2.60218E-02 7.26046E-04 1.79245E-01-5.22192E-14-1.63779E-13
 -1      3480 2.00740E+01 4.69390E-03-2.21719E-04 1.63793E-01-5.19782E-14-1.77021E-13
 -1      3481 2.00292E+01 4.42792E-02-6.50848E-04 1.85838E-01-2.14027E-14-1.70222E-13
 -1      3482 2.00257E+01 6.53361E-02 8.01955E-04 1.95512E-01-5.56077E-14-1.23444E-13
 -1      3483 2.00441E+01 4.14579E-02-8.38835E-05 1.73720E-01-3.49780E-14-2.00541E-13
 -1      3484 2.00083E+01 8.71581E-02-8.36470E-04 2.07334E-01-7.07883E-14-1.24963E-13
 -1      3485 2.00052E+01 1.11652E-01 8.82778E-04 2.22987E-01-7.10228E-14-1.21627E-13
 -1      3486 2.00135E+01 8.73366E-02 6.14220E-05 1.92461E-01-5.66729E-14-1.55888E-13
 -1      3487 1.99860E+01 1.36411E-01-1.02310E-03 2.41187E-01-9.93321E-14-1.09569E-13
 -1      3488 1.99831E+01 1.63646E-01 9.76881E-04 2.63848E-01-1.25484E-13-1.16449E-13
 -1      3489 1.99804E+01 1.40886E-01 2.09546E-04 2.22443E-01-6.53874E-14-1.54704E-13
 -1      3490 1.99612E+01 1.90509E-01-1.20857E-03 2.89499E-01-1.39668E-13-7.48487E-14
 -1      3491 1.99583E+01 2.19443E-01 1.09241E-03 3.20026E-01-1.25996E-13-5.01290E-14
 -1      3492 1.99434E+01 2.00528E-01 3.51922E-04 2.65895E-01-9.97927E-14-5.03400E-14
 -1      3493 1.99332E+01 2.47072E-01-1.38160E-03 3.54140E-01-6.80388E-14 1.78675E-14
 -1      3494 1.99305E+01 2.75986E-01 1.23968E-03 3.93169E-01 5.10041E-14-6.10908E-14
 -1      3495 1.99008E+01 2.63966E-01 4.72354E-04 3.24919E-01-4.91658E-14 4.78430E-14
 -1      3496 1.99020E+01 3.02177E-01-1.51886E-03 4.36682E-01 4.82457E-14-8.55761E-14
 -1      3497 1.99004E+01 3.28263E-01 1.43456E-03 4.84530E-01 3.05124E-14-7.79901E-14
 -1      3498 1.98519E+01 3.27469E-01 5.41800E-04 4.01526E-01 1.17836E-14 3.71948E-14
 -1      3499 1.98694E+01 3.49502E-01-1.58018E-03 5.38262E-01 1.24845E-13-1.28133E-13
 -1      3500 1.98706E+01 3.68376E-01 1.70229E-03 5.94776E-01 1.26089E-13-5.44990E-14
 -1      3501 1.97971E+01 3.85021E-01 5.10982E-04 4.97621E-01 7.36097E-14-6.60320E-14
 -1      3502 1.98391E+01 3.79326E-01-1.50068E-03 6.59354E-01 6.13589E-14 1.70392E-14
 -1      3503 1.98467E+01 3.84469E-01 2.07993E-03 7.23685E-01 9.64219E-14-6.23779E-14
 -1      3504 1.97387E+01 4.27287E-01 2.99716E-04 6.14960E-01 1.30383E-13-6.50352E-14
 -1      3505 1.98192E+01 3.77411E-01-1.17711E-03 7.99409E-01 7.63237E-14-4.72156E-14
 -1      3506 1.98392E+01 3.59605E-01 2.61216E-03 8.69675E-01-8.51561E-15-1.87146E-14
 -1      3507 1.96827E+01 4.40439E-01-2.18660E-04 7.55061E-01 6.50417E-14-8.36444E-15
 -1      3508 1.98239E+01 3.23972E-01-4.44178E-04 9.56218E-01-9.42909E-14-5.65078E-14
 -1      3509 1.98660E+01 2.70886E-01 3.32886E-03 1.02893E+00-2.46905E-14-1.12559E-13
 -1      3510 1.96405E+01 4.04908E-01-1.23994E-03 9.18951E-01-5.42348E-14 2.80226E-14
 -1      3511 1.98764E+01 1.93140E-01 9.67432E-04 1.12463E+00 5.65914E-14-1.29583E-13
 -1      3512 1.99552E+01 8.94251E-02 4.17332E-03 1.19361E+00 3.12780E-14-1.14561E-13
 -1      3513 1.96318E+01 2.94316E-01-3.05936E-03 1.10645E+00-2.26544E-14-9.23851E-14
 -1      3514 2.00134E+01-4.61281E-02 3.48484E-03 1.29375E+00-5.82379E-16-9.17387E-14
 -1      3515 2.01491E+01-2.17370E-01 4.88933E-03 1.34804E+00 8.51942E-14-6.82465E-14
 -1      3516 1.96892E+01 7.51732E-02-6.10723E-03 1.31419E+00 5.36727E-14-8.99663E-14
 -1      3517 2.02886E+01-4.25429E-01 7.85096E-03 1.44095E+00 1.39149E-13-1.46312E-13
 -1      3518 2.05053E+01-6.78291E-01 4.49460E-03 1.46118E+00 1.23924E-13-1.20789E-13
 -1      3519 1.98634E+01-2.91192E-01-1.08933E-02 1.53054E+00 8.54262E-14-1.60328E-13
 -1      3520 2.07746E+01-9.64478E-01 1.44503E-02 1.51886E+00 1.05834E-13-8.36814E-14
 -1      3521 2.10930E+01-1.29446E+00 1.74262E-03 1.47131E+00 1.15296E-13-9.31655E-15
 -1      3522 2.02300E+01-8.41339E-01-1.82223E-02 1.72338E+00 1.31975E-13-1.39023E-13
 -1      3523 2.15469E+01-1.63482E+00 2.32900E-02 1.44303E+00 1.19616E-13 2.90655E-14
 -1      3524 2.19758E+01-1.99737E+00-3.51405E-03 1.27848E+00 1.44868E-13 3.86921E-14
 -1      3525 2.08870E+01-1.57331E+00-2.68654E-02 1.82022E+00 1.49051E-13-1.43044E-13
 -1      3526 2.26538E+01-2.30885E+00 3.29317E-02 1.07476E+00 1.34438E-13 5.99997E-14
 -1      3527 2.31297E+01-2.57669E+00-8.34957E-03 7.55950E-01 1.63715E-13 7.80170E-15
 -1      3528 2.19296E+01-2.39448E+00-3.37758E-02 1.67841E+00 1.73869E-13-1.29388E-13
 -1      3529 2.43441E+01-2.74802E+00 1.21164E-02 1.56560E-01 1.83999E-13 8.09411E-14
 -1      3530 2.48245E+01-2.46515E+00-2.25335E-02-3.88104E-01 1.04574E-13 1.87886E-13
 -1      3531 2.47500E+01 4.34441E+00-7.68292E-02 6.48302E-02-1.50741E-13 2.93768E-13
 -1      3532 2.56533E+01-2.69968E+00 2.38138E-02 2.16213E-01 2.47927E-13-1.82111E-14
 -1      3533 2.57609E+01-1.05852E+00-9.74850E-02 1.51375E+00 8.98587E-16-1.23252E-13
 -1      3534 2.49772E+01-1.28863E+00-1.98087E-04 1.29576E+00-4.06428E-14 4.74386E-14
 -1      3535 2.46677E+01-2.04361E+00-3.60500E-02 7.96916E-01 4.18138E-14 9.67317E-14
 -1      3536 2.41012E+01-2.60036E+00 6.80986E-03-1.67356E-01 7.57996E-14 1.46429E-13
 -1      3537 2.36101E+01-2.66191E+00 2.15125E-02-6.51112E-01 7.74933E-14 2.55639E-13
 -1      3538 2.28236E+01-2.45908E+00-1.06934E-02-1.06743E+00 4.90918E-14 2.64306E-13
 -1      3539 2.23681E+01-2.15758E+00 2.85068E-02-1.35742E+00 4.18810E-14 2.72879E-13
 -1      3540 2.30387E+01-2.92275E+00-3.20702E-02-1.42480E+00 7.99747E-14 3.74100E-13
 -1      3541 2.17871E+01-1.82592E+00-2.04052E-03-1.51817E+00 5.19068E-14 1.56578E-13
 -1      3542 2.14081E+01-1.46381E+00 1.96982E-02-1.65399E+00 4.04017E-15 1.65139E-13
 -1      3543 2.17352E+01-2.20876E+00-3.27206E-02-1.88239E+00-1.64187E-14 2.54637E-13
 -1      3544 2.10398E+01-1.12910E+00 3.15698E-03-1.66594E+00-9.90256E-14 2.40950E-13
 -1      3545 2.07641E+01-8.09191E-01 1.15974E-02-1.69990E+00-1.65681E-13 3.02773E-13
 -1      3546 2.08585E+01-1.38410E+00-2.36049E-02-1.96614E+00 2.12016E-15 2.61549E-13
 -1      3547 2.05574E+01-5.28978E-01 3.42837E-03-1.64163E+00-2.74996E-13 4.34227E-13
 -1      3548 2.03767E+01-2.72787E-01 5.34539E-03-1.61278E+00-2.80939E-13 3.64139E-13
 -1      3549 2.03413E+01-6.74396E-01-1.40756E-02-1.85891E+00-9.34243E-14 2.86959E-13
 -1      3550 2.00353E+01 2.20177E+00-3.35009E-03-1.63284E-01-6.45272E-15-2.75266E-13
 -1      3551 2.00474E+01 2.16502E+00-4.25153E-03-2.84993E-01-3.02726E-14-2.53978E-13
 -1      3552 2.01637E+01 1.85275E+00 5.27369E-03-2.85570E-01-4.00635E-14-2.45439E-13
 -1      3553 2.00391E+01 1.89277E-02 7.76216E-04-1.84543E-01-2.09886E-15-4.41436E-14
 -1      3554 2.00390E+01 3.19499E-03-4.73423E-04-1.80402E-01 2.87225E-14-6.90237E-14
 -1      3555 2.00513E+01-9.43689E-03 6.82919E-04-1.78521E-01 3.06277E-14-8.49010E-14
 -1      3556 2.00528E+01-2.01934E-02-2.58271E-04-1.77828E-01 3.42363E-14-7.37311E-14
 -1      3557 2.00649E+01-1.16476E-03-2.54826E-04-1.73826E-01 2.69748E-14-9.15914E-14
 -1      3558 2.00160E+01 1.02773E-01 9.52710E-04-2.26665E-01-9.93756E-17-1.94189E-13
 -1      3559 2.00143E+01 7.78765E-02-8.92245E-04-2.10971E-01-1.25380E-14-2.21262E-13
 -1      3560 2.00016E+01 1.58431E-01 1.04398E-03-2.68217E-01 5.56945E-14-1.76588E-13
 -1      3561 2.00000E+01 1.28718E-01-1.13484E-03-2.44672E-01 5.27756E-14-1.76733E-13
 -1      3562 1.99942E+01 1.32998E-01 2.59511E-04-2.29503E-01 2.72932E-14-2.07071E-13
 -1      3563 1.99822E+01 2.23995E-01 1.13529E-03-3.26806E-01-8.30637E-15-2.17236E-13
 -1      3564 1.99816E+01 1.89126E-01-1.42110E-03-2.94101E-01 4.50923E-14-1.72297E-13
 -1      3565 1.99628E+01 1.98591E-01 5.11083E-04-2.73006E-01 4.35094E-14-1.84640E-13
 -1      3566 1.99545E+01 3.00007E-01 1.22159E-03-4.04837E-01-7.61949E-14-1.43439E-13
 -1      3567 1.99561E+01 2.59734E-01-1.76504E-03-3.61710E-01-6.52265E-14-1.84486E-13
 -1      3568 1.99223E+01 2.75400E-01 8.32578E-04-3.32803E-01-4.40282E-14-2.10095E-13
 -1      3569 1.99146E+01 3.86422E-01 1.29953E-03-5.04580E-01-1.86166E-14 9.44566E-14
 -1      3570 1.99199E+01 3.40865E-01-2.17880E-03-4.49859E-01-3.60044E-14-3.78155E-14
 -1      3571 1.98682E+01 3.63817E-01 1.24582E-03-4.10919E-01-1.16521E-13-3.59072E-14
 -1      3572 1.98576E+01 4.81818E-01 1.37636E-03-6.28099E-01 1.24801E-14 1.22016E-13
 -1      3573 1.98684E+01 4.31903E-01-2.67238E-03-5.60767E-01 4.46227E-14 7.18556E-14
 -1      3574 1.97950E+01 4.63431E-01 1.77177E-03-5.09204E-01-7.61955E-15 6.21031E-14
 -1      3575 1.97780E+01 5.82150E-01 1.48760E-03-7.77235E-01 3.98393E-14 4.67163E-14
 -1      3576 1.97961E+01 5.30298E-01-3.25333E-03-6.96490E-01 2.02361E-14 6.46610E-14
 -1      3577 1.96961E+01 5.72132E-01 2.42368E-03-6.29363E-01 4.89850E-14 6.37707E-14
 -1      3578 1.96703E+01 6.78789E-01 1.72900E-03-9.53802E-01 4.23146E-14 5.08906E-14
 -1      3579 1.96971E+01 6.29988E-01-3.92597E-03-8.59040E-01 7.99329E-14 5.34699E-14
 -1      3580 1.95637E+01 6.84747E-01 3.19367E-03-7.73210E-01 9.83785E-14-1.89735E-19
 -1      3581 1.95313E+01 7.55488E-01 2.30863E-03-1.16027E+00-9.48393E-14-4.91297E-14
 -1      3582 1.95661E+01 7.18942E-01-4.68778E-03-1.05088E+00-4.47693E-14-1.45256E-15
 -1      3583 1.93899E+01 7.90962E-01 4.02762E-03-9.43405E-01 1.84181E-14 1.83761E-14
 -1      3584 1.93636E+01 7.83884E-01 3.61301E-03-1.40128E+00-1.43295E-13-1.63479E-13
 -1      3585 1.94009E+01 7.75443E-01-5.51056E-03-1.27612E+00-1.06421E-13-1.03510E-13
 -1      3586 1.91674E+01 8.72197E-01 4.77746E-03-1.14513E+00-7.21714E-14-1.48760E-13
 -1      3587 1.91835E+01 7.17236E-01 6.28004E-03-1.68608E+00-4.42449E-14-3.06200E-13
 -1      3588 1.92078E+01 7.62727E-01-6.27770E-03-1.54276E+00-9.63153E-14-2.05535E-13
 -1      3589 1.88933E+01 8.96954E-01 5.10028E-03-1.38931E+00-5.30680E-14-1.78023E-13
 -1      3590 1.90341E+01 4.82905E-01 1.13864E-02-2.03097E+00-1.49940E-13-1.92922E-13
 -1      3591 1.90114E+01 6.22023E-01-6.53066E-03-1.86576E+00-1.00462E-13-1.94768E-13
 -1      3592 1.85750E+01 8.14166E-01 4.31455E-03-1.69770E+00-1.53758E-13-2.53552E-13
 -1      3593 1.90033E+01-2.59850E-02 1.90095E-02-2.45819E+00-2.10467E-13-1.79219E-13
 -1      3594 1.88734E+01 2.64499E-01-4.69810E-03-2.26891E+00-1.55983E-13-1.42906E-13
 -1      3595 1.82422E+01 5.44434E-01 1.44914E-03-2.10910E+00-1.96408E-13-1.60449E-13
 -1      3596 1.92840E+01-9.46874E-01 3.10610E-02-2.96694E+00-1.99976E-13-3.72144E-13
 -1      3597 1.89267E+01-4.36171E-01 3.49399E-03-2.76708E+00-2.08855E-13-2.71697E-13
 -1      3598 1.79925E+01-3.43937E-02 9.61522E-04-2.68569E+00-1.69377E-13-3.01157E-13
 -1      3599 2.21634E+01-3.61609E+00 3.47283E-02-3.30737E+00 5.61357E-14-2.89009E-13
 -1      3600 2.55501E+01 4.16081E-01-1.06439E-01-2.13963E+00-7.91103E-14 4.78423E-13
 -1      3601 2.55638E+01-1.09928E+00-1.32822E-02-1.50055E+00 1.25157E-13 4.40436E-13
 -1      3602 1.91595E+01 5.75572E-01-4.98942E-03 2.14461E+00 1.56802E-13 2.75926E-13
 -1      3603 1.91855E+01 3.99022E-01 1.27461E-02 2.30724E+00 1.29921E-13 2.80653E-13
 -1      3604 1.90726E+01-5.49473E-01 2.06242E-02 3.02753E+00 7.61370E-15 1.19371E-14
 -1      3605 1.93438E+01-1.18657E+00 3.09406E-03 3.26575E+00 1.67158E-14-1.31552E-13
 -1      3606 1.93741E+01 8.10861E-01-4.03322E-03 1.81389E+00 1.14745E-13 5.00777E-14
 -1      3607 1.93440E+01 7.11258E-01 6.16802E-03 1.96145E+00 2.42911E-13 1.30204E-13
 -1      3608 1.87922E+01 7.91596E-01 3.87878E-03 1.97353E+00 3.07739E-13 4.89958E-13
 -1      3609 1.84527E+01 1.38149E+00 7.47786E-03 4.29183E-01-2.07766E-13 2.76012E-13
 -1      3610 1.14948E+01 6.49488E-01 8.34237E-02-1.27100E+00-1.40353E-13-1.37841E-13
 -1      3611 1.28112E+01 7.13229E-02 1.76326E-02-2.63619E+00-1.74585E-13-1.95441E-13
 -1      3612 2.49278E+01 2.93529E+00-7.04257E-02 1.73001E+00-1.53912E-13 1.81362E-13
 -1      3613 1.15296E+01 5.31726E-01 4.43351E-02 1.59672E+00-1.48318E-13-2.19935E-13
 -1      3614 1.11092E+01 7.50085E-01 5.46473E-02 2.50806E-02-1.84554E-13-2.56128E-13
 -1      3615 1.27953E+01 7.51931E-01 3.49812E-03-1.18844E-01 6.90403E-14 2.96933E-13
 -1      3616 1.27461E+01 5.32650E-01 7.77968E-02-1.79939E+00-5.57878E-14 3.58550E-13
 -1      3617 1.85833E+01 9.78629E-01 9.07735E-03-1.05991E+00-2.01867E-14 2.45850E-14
 -1      3618 1.83496E+01 1.07781E+00-1.20184E-02-8.10002E-01-7.63956E-14-5.28304E-14
 -1      3619 2.02771E+01 1.27522E+00 1.91564E-03-5.57117E-01-9.25202E-14-1.44916E-13
 -1      3620 2.02841E+01 9.72878E-01-4.93725E-03-3.69000E-01-7.30283E-14-1.30222E-13
 -1      3621 1.89845E+01-1.86081E+00-1.90424E-02 3.77458E+00-1.32924E-13-2.25899E-13
 -1      3622 1.68443E+01-5.81647E-01 7.57992E-02 3.54686E+00-5.12845E-14-1.71716E-13
 -1      3623 2.54088E+01 1.91534E+00-1.20125E-02-2.13509E+00-2.47240E-13 5.47345E-13
 -1      3624 1.30070E+01 5.38280E-02 2.21265E-02-2.63860E+00-2.58248E-14 2.26423E-13
 -1      3625 1.39866E+01-6.22986E-01 3.00727E-02-3.65780E+00-7.43954E-14-4.93078E-14
 -1      3626 1.41384E+01 4.58828E-01 4.97522E-02-1.87426E+00 3.31939E-15 3.26333E-13
 -1      3627 2.55240E+01-4.41869E-01-5.11873E-02 1.82898E+00-1.60478E-13-2.06751E-13
 -1      3628 1.90133E+01 1.51122E-01-3.54231E-03 2.54220E+00-3.88902E-14 2.63825E-13
 -1      3629 1.91613E+01-1.70141E-01 2.15695E-02 2.72871E+00-1.25924E-13 2.10062E-13
 -1      3630 1.81567E+01-2.46520E-01-2.05636E-02 2.96657E+00-8.67444E-14 4.90869E-14
 -1      3631 1.84315E+01 4.41893E-01 1.23601E-03 2.39327E+00 9.16221E-15 4.64239E-13
 -1      3632 2.24519E+01-3.96599E+00 9.32092E-02 3.54362E+00-1.85407E-13-3.24179E-13
 -1      3633 2.13349E+01-3.28088E+00-1.25565E-02 3.62633E+00-2.23486E-13-2.18367E-13
 -1      3634 1.53363E+01-1.49809E+00 5.26476E-02-4.40988E+00-1.17331E-13-2.49578E-13
 -1      3635 1.68979E+01-2.41754E+00 6.21113E-03-4.83299E+00-2.16216E-14-2.28997E-13
 -1      3636 1.82331E+01-2.26944E+00 5.63617E-02-4.24208E+00 5.55094E-14-2.17645E-13
 -1      3637 2.02377E+01 3.23789E-01-1.98247E-03 1.57174E-02 9.12681E-14-1.13778E-13
 -1      3638 2.02675E+01 4.32398E-01 2.99904E-03 9.03843E-02 9.78286E-14-1.01627E-13
 -1      3639 1.93365E+01 1.12538E+00-7.12116E-03 1.35417E+00-3.34106E-13 5.17257E-14
 -1      3640 1.95422E+01 1.02364E+00 7.54328E-04 1.44541E+00-2.66153E-13 1.79935E-14
 -1      3641 1.95238E+01 9.61330E-01 1.27173E-03 1.55459E+00-3.05412E-13-5.08874E-14
 -1      3642 1.90598E+01 1.14588E+00-8.05658E-04 1.36258E+00-1.81588E-13 2.84075E-13
 -1      3643 2.03205E+01 7.39891E-01 4.64657E-03-2.41951E-01-6.98583E-14-1.35498E-13
 -1      3644 2.02991E+01 5.73236E-01-3.24246E-03-1.41981E-01-6.45501E-14-1.34217E-13
 -1      3645 2.03345E+01 5.79637E-01 8.38278E-05-1.15405E-01-4.73519E-14-1.27832E-13
 -1      3646 1.49457E+01-1.00978E-01-4.01310E-02 3.02829E+00-1.51625E-13-3.19259E-14
 -1      3647 1.35908E+01 6.56678E-01 4.00362E-02 1.68685E+00-1.80812E-13 4.44471E-14
 -1      3648 1.65917E+01-1.96355E-02 3.39691E-02 2.86145E+00-6.30164E-14-1.58541E-13
 -1      3649 2.00279E+01 5.63921E-02 8.64088E-04-1.99647E-01 3.49331E-14-1.86364E-13
 -1      3650 2.00266E+01 3.60734E-02-6.77610E-04-1.90449E-01 2.60660E-14-1.06588E-13
 -1      3651 2.00427E+01 3.32495E-02-1.08831E-04-1.82412E-01 4.77765E-14-1.24132E-13
 -1      3652 2.00198E+01 7.80158E-02 5.83348E-05-2.00097E-01 2.43864E-14-2.07256E-13
 -1      3653 2.01058E+01-2.42313E-02 2.10975E-04-1.78879E-01 7.79425E-15-6.60221E-14
 -1      3654 2.01163E+01-1.16895E-02 6.98119E-04-1.74870E-01-2.82887E-15-9.79366E-14
 -1      3655 2.02637E+01 5.35031E-01-2.61062E-03 1.59406E-01 9.83600E-14-9.03381E-14
 -1      3656 2.02882E+01 6.60320E-01 4.35532E-03 2.54023E-01 1.13704E-13-1.21311E-13
 -1      3657 2.03025E+01 5.49858E-01-4.37848E-04 1.32605E-01 1.06148E-13-1.16902E-13
 -1      3658 2.05405E+01-4.06590E+00 6.26403E-02 4.65297E+00 3.01953E-13-5.72843E-13
 -1      3659 1.90275E+01-3.39609E+00 2.75179E-02 4.72757E+00 2.40599E-13-5.09228E-13
 -1      3660 2.18682E+01-4.06574E+00-1.96822E-02 3.62188E+00 3.23859E-13-4.16889E-13
 -1      3661 2.00837E+01-3.37992E-02 4.23130E-04-1.80112E-01 2.28539E-14-7.63222E-14
 -1      3662 2.00904E+01-3.12059E-02 3.00166E-04-1.80081E-01-2.28395E-15-6.73839E-14
 -1      3663 2.01436E+01-2.63154E-02-6.15312E-04-1.69012E-01 1.80469E-15-7.99495E-14
 -1      3664 2.38040E+01-3.11666E+00-2.23215E-02 9.99668E-01 2.75985E-13 2.48482E-14
 -1      3665 2.01329E+01 6.39370E-03-1.01861E-04-1.68250E-01-1.04760E-14-1.19034E-13
 -1      3666 2.01481E+01 3.25560E-02 1.20855E-03-1.56163E-01-1.39870E-14-9.54494E-14
 -1      3667 2.01768E+01 3.95097E-03-6.99777E-04-1.58728E-01-4.87093E-15-1.25631E-13
 -1      3668 2.02270E+01 1.54839E+00-4.09874E-03 2.85360E-01 8.55697E-14-2.49114E-13
 -1      3669 2.02165E+01 1.60727E+00-2.04650E-03 2.01933E-01 5.78407E-14-2.32611E-13
 -1      3670 2.47018E+01-2.58614E+00 1.93362E-02 4.60058E-02 6.11707E-14-2.01471E-14
 -1      3671 1.91543E+01 6.48524E-01 1.39410E-02-1.42455E+00-2.51059E-13-2.49665E-13
 -1      3672 1.88529E+01 7.67488E-01-1.09310E-02-1.27976E+00-1.83779E-13-1.86988E-13
 -1      3673 1.85426E+01 7.46395E-01-9.78641E-04-1.32013E+00-1.32619E-13-1.70591E-13
 -1      3674 2.02151E+01 1.61075E+00-2.09678E-03-1.97009E-01-8.18620E-15-2.34403E-13
 -1      3675 2.02253E+01 1.55394E+00-3.94148E-03-2.80846E-01-3.40560E-14-2.32238E-13
 -1      3676 2.01431E+01 1.92431E+00 4.98778E-03-9.51273E-02 3.07806E-15-2.76123E-13
 -1      3677 2.03434E+01-1.20273E-01 3.02847E-03-1.52419E+00-1.90484E-13 3.26845E-13
 -1      3678 2.02488E+01 5.27663E-02 3.01276E-03-1.47034E+00-6.94559E-14 2.87186E-13
 -1      3679 2.01131E+01 1.21592E-01 1.82377E-03-1.50627E+00-3.19945E-14 5.28137E-13
 -1      3680 2.01483E+01-1.77459E-01-5.23259E-04-1.67951E+00-2.64724E-13 5.70705E-13
 -1      3681 1.63167E+01-2.26077E+00 1.77020E-02 4.80596E+00 1.45373E-13-3.04395E-13
 -1      3682 1.47298E+01-1.72234E+00 1.10672E-01 4.83325E+00 9.01119E-14-2.56781E-13
 -1      3683 1.43123E+01-1.00753E+00 2.38596E-02 4.10426E+00 9.52918E-14-2.23058E-13
 -1      3684 2.43475E+01-3.91869E+00-6.91550E-03 1.80890E+00 3.59636E-13-8.26457E-14
 -1      3685 2.00883E+01-2.42358E-02-3.85276E-04-1.71325E-01 8.06369E-14-6.19835E-14
 -1      3686 2.00658E+01-2.77041E-02 5.71251E-04-1.78349E-01 8.94603E-14-6.25337E-14
 -1      3687 2.00696E+01-3.25756E-02-8.89280E-06-1.79186E-01 1.08866E-13-3.74438E-14
 -1      3688 2.05754E+01-3.04733E+00 8.11742E-02-3.81411E+00 2.73774E-14-4.16700E-13
 -1      3689 1.86818E+01-1.39443E+00 3.10838E-02-3.45937E+00-1.62697E-13-4.23991E-13
 -1      3690 1.72896E+01-8.07054E-01 1.98173E-02-3.44859E+00-1.09136E-13-3.24071E-13
 -1      3691 1.80647E+01 1.34471E+00-2.54976E-03 2.66262E-01-2.94201E-13 6.95786E-14
 -1      3692 1.81399E+01 1.33460E+00-9.80472E-04 6.05057E-01-1.98790E-13 4.23300E-13
 -1      3693 1.93023E+01-2.18830E+00 4.63710E-02-3.66367E+00-6.21586E-14-4.43020E-13
 -1      3694 2.02382E+01 1.49077E+00-1.30253E-03-3.42939E-01-4.74074E-14-2.35780E-13
 -1      3695 2.02523E+01 1.39934E+00-2.56952E-03-4.09768E-01-6.49654E-14-2.24470E-13
 -1      3696 2.03021E+01 1.29086E+00 5.25217E-03-2.49516E-01-1.87335E-14-2.21124E-13
 -1      3697 2.06501E+01-2.33130E+00 5.88184E-02 3.50082E+00-1.81560E-13-7.03621E-14
 -1      3698 2.07153E+01-3.12552E+00 1.23903E-02-3.64841E+00 1.38500E-14 8.54048E-14
 -1      3699 2.18415E+01-3.70923E+00 6.19412E-02-3.55935E+00-6.68042E-15-1.73798E-15
 -1      3700 2.27194E+01-3.69447E+00-3.59901E-02-2.63028E+00 1.13042E-13 3.06382E-13
 -1      3701 1.37821E+01 9.46338E-01 5.20928E-02 7.76834E-01-6.86959E-14 1.80671E-13
 -1      3702 1.43837E+01 9.76943E-01-2.31961E-03-2.22730E-01-4.00179E-14 2.67827E-13
 -1      3703 1.50434E+01 8.61351E-01 1.07221E-02 1.28924E+00-9.44696E-14 1.33244E-14
 -1      3704 1.95308E+01 8.93558E-01 2.61835E-03 1.65851E+00-2.97226E-13-1.98647E-13
 -1      3705 2.02885E+01 1.02037E+00 2.86292E-03 5.11034E-01 1.47475E-13-1.40887E-13
 -1      3706 2.02720E+01 1.19196E+00-2.08641E-03 5.42347E-01 1.41576E-13-1.51492E-13
 -1      3707 2.02601E+01 1.32639E+00-9.91626E-04 5.01215E-01 1.28364E-13-1.82656E-13
 -1      3708 2.02710E+01 8.43831E-01-3.41037E-03 3.77140E-01 1.35076E-13-1.39309E-13
 -1      3709 2.03106E+01 9.77430E-01-6.61880E-04-3.13078E-01-6.45487E-14-1.58906E-13
 -1      3710 1.25071E+01 8.40056E-01 7.22008E-02-5.39930E-01-1.84533E-13-1.73531E-13
 -1      3711 2.38863E+01-3.45983E+00 4.66433E-02-1.60152E+00 2.00946E-13 1.92726E-13
 -1      3712 2.46765E+01-3.57996E+00-5.68700E-02-1.03029E+00 2.04801E-13 8.30959E-14
 -1      3713 1.42738E+01-1.01477E-01 8.71141E-02-3.13007E+00-1.82450E-13-3.18898E-13
 -1      3714 1.57142E+01-4.72934E-01 1.17254E-02-3.29148E+00-1.72820E-13-3.20931E-13
 -1      3715 1.39429E+01 3.93181E-01 1.29693E-02-2.31318E+00-1.72366E-13-3.14006E-13
 -1      3716 1.21879E+01 4.23786E-01 9.62221E-02 2.21365E+00-1.43067E-13-2.65662E-13
 -1      3717 1.26449E+01 7.35710E-01 2.77078E-02 1.36743E+00-1.79980E-13-1.90434E-13
 -1      3718 1.30053E+01 3.71647E-02 2.73717E-02 2.82152E+00-9.72586E-14-2.54026E-13
 -1      3719 2.01066E+01 6.72000E-02-1.21914E-03-1.43436E-01 3.33746E-14-8.98024E-14
 -1      3720 1.81855E+01 1.23529E+00 4.30700E-03-4.63885E-01-1.63421E-13-1.16784E-14
 -1      3721 1.80783E+01 1.28657E+00-8.58525E-03-1.40629E-01-2.31183E-13 2.44008E-14
 -1      3722 1.77955E+01 1.28562E+00 7.52526E-03 3.06230E-02-2.80301E-13 2.10674E-13
 -1      3723 1.80077E+01 1.09685E+00 5.88836E-03-7.41325E-01-2.06081E-13 8.62794E-14
 -1      3724 1.91382E+01 9.86188E-01 4.22558E-03 1.63802E+00 7.74527E-14 3.13564E-14
 -1      3725 1.82795E+01 1.28042E+00-1.11190E-02 9.26553E-01 6.69583E-14 7.42857E-13
 -1      3726 1.84869E+01 1.23643E+00 5.49828E-03 1.16767E+00-3.82667E-14 5.47326E-13
 -1      3727 1.79396E+01 1.29213E+00 9.43963E-03 7.83718E-01-1.09076E-13 3.56295E-13
 -1      3728 2.02081E+01 1.64033E+00-3.33705E-03 1.30668E-01 4.92653E-14-2.41536E-13
 -1      3729 2.02042E+01 1.66019E+00-2.64847E-03 3.98815E-02 3.26744E-14-2.92196E-13
 -1      3730 2.02914E+01 1.38750E+00 5.14922E-03 1.34208E-01 5.29815E-14-2.29023E-13
 -1      3731 1.55586E+01-7.22075E-01 5.46998E-02-3.53177E+00-4.30420E-14-1.81626E-13
 -1      3732 2.02273E+01 2.37731E-01 2.53902E-03-3.70559E-02 7.68168E-14-1.30820E-13
 -1      3733 2.02852E+01 3.32330E-01-5.15089E-04 6.34502E-03 9.38085E-14-1.39858E-13
 -1      3734 2.02010E+01 1.66129E-01-1.23216E-03-8.30502E-02 6.56464E-14-1.24114E-13
 -1      3735 2.52370E+01-2.08341E+00-5.06491E-02-9.62129E-01 9.31043E-14 2.70015E-13
 -1      3736 1.99662E+01 2.05412E-01-9.14498E-04-1.51403E+00-2.47148E-14 4.24575E-13
 -1      3737 2.02493E+01 1.45864E+00 3.80106E-03-6.05469E-01-1.02559E-13-1.66559E-13
 -1      3738 1.98766E+01 7.58256E-02-6.17656E-03-1.62771E+00-1.82128E-13 6.31294E-13
 -1      3739 1.97610E+01 3.23653E-01 8.53282E-03-1.53980E+00-1.75452E-13 4.43413E-13
 -1      3740 1.94793E+01 4.42188E-01-6.91689E-03-1.50476E+00-2.72639E-13 1.93799E-13
 -1      3741 1.99151E+01-6.15991E-02 5.83996E-03-1.70946E+00-2.60495E-13 6.50042E-13
 -1      3742 2.49815E+01 4.43748E+00-1.32538E-01 6.63254E-01-2.03476E-13 2.61374E-13
 -1      3743 1.98656E+01 3.22558E-01 5.57530E-04-3.20911E-01-1.26809E-13-8.55425E-14
 -1      3744 1.98876E+01 2.77415E-01-1.61752E-03-2.88022E-01-1.70043E-14-1.42709E-13
 -1      3745 2.02404E+01 1.48397E+00-1.34495E-03 3.46169E-01 8.30146E-14-2.31853E-13
 -1      3746 2.03030E+01 1.28580E+00 5.13312E-03 2.52050E-01 7.40966E-14-2.27130E-13
 -1      3747 2.02547E+01 1.38917E+00-3.64215E-03 4.13674E-01 1.08009E-13-2.12384E-13
 -1      3748 2.00771E+01 8.89216E-03 5.81974E-04-1.61629E-01 3.38116E-14-1.17185E-13
 -1      3749 2.00879E+01-6.99594E-03-3.00785E-04-1.58634E-01 5.08031E-14-9.13173E-14
 -1      3750 2.03388E+01 2.25692E-01 1.37963E-03 5.00569E-02-1.52932E-14-9.75139E-14
 -1      3751 2.03180E+01 1.53247E-01-1.00799E-03 8.05649E-02-1.27515E-14-7.75122E-14
 -1      3752 2.03021E+01 9.71010E-02 9.87343E-04 9.80309E-02-7.48830E-15-7.43410E-14
 -1      3753 2.02804E+01 5.23114E-02-4.64642E-04 1.15328E-01 4.30787E-15-4.93195E-14
 -1      3754 2.03441E+01 1.45792E-01-8.23335E-05 7.28922E-02-6.28456E-15-9.15386E-14
 -1      3755 2.02599E+01 1.93330E-02 6.81896E-04 1.24135E-01-1.35483E-14-7.06420E-14
 -1      3756 2.02392E+01-5.07323E-03-7.15861E-05 1.32695E-01 1.11774E-14-1.10568E-13
 -1      3757 2.03037E+01 4.68165E-02-3.15214E-04 1.01454E-01-1.73848E-14-9.40534E-14
 -1      3758 2.02167E+01-2.09720E-02 3.94439E-04 1.36138E-01 2.78797E-14-1.39522E-13
 -1      3759 2.01976E+01-3.03053E-02 1.93800E-04 1.39672E-01-1.63988E-15-1.23742E-13
 -1      3760 2.02586E+01-8.05261E-03-4.10704E-04 1.15895E-01-2.97978E-14-1.28521E-13
 -1      3761 2.01745E+01-3.35649E-02 1.40214E-04 1.40464E-01-1.51237E-14-1.10429E-13
 -1      3762 2.01573E+01-3.16508E-02 3.66671E-04 1.41895E-01-1.19097E-14-1.20708E-13
 -1      3763 2.02124E+01-3.00477E-02-4.06885E-04 1.22113E-01-6.61828E-15-1.26106E-13
 -1      3764 2.01341E+01-2.53968E-02-8.87148E-05 1.42207E-01-3.37666E-14-1.18971E-13
 -1      3765 2.01185E+01-1.49163E-02 4.73065E-04 1.43837E-01-4.27231E-14-1.44799E-13
 -1      3766 2.01666E+01-2.74202E-02-3.38369E-04 1.24858E-01-3.19981E-14-1.14551E-13
 -1      3767 2.00952E+01-1.32003E-03-3.02289E-04 1.45385E-01-5.25905E-14-1.39086E-13
 -1      3768 2.00806E+01 1.59207E-02 5.38432E-04 1.49020E-01-9.14798E-14-1.40090E-13
 -1      3769 2.01216E+01-5.96682E-03-2.14368E-04 1.27955E-01-5.30512E-14-1.02818E-13
 -1      3770 2.00566E+01 3.54389E-02-5.11040E-04 1.53208E-01-4.61070E-14-8.48614E-14
 -1      3771 2.00422E+01 5.82614E-02 5.84126E-04 1.60331E-01 1.30608E-14-8.61480E-14
 -1      3772 2.00765E+01 3.03157E-02-5.76263E-05 1.34454E-01-1.30144E-14-4.99264E-14
 -1      3773 2.00166E+01 8.27467E-02-7.23642E-04 1.68384E-01-3.02877E-14-1.04363E-13
 -1      3774 2.00017E+01 1.10334E-01 6.22933E-04 1.80260E-01-7.89372E-14-1.05820E-13
 -1      3775 2.00296E+01 7.88388E-02 1.29273E-04 1.46943E-01-1.71989E-14-5.18394E-14
 -1      3776 1.99733E+01 1.39056E-01-9.48694E-04 1.93307E-01-7.49173E-14-8.59516E-14
 -1      3777 1.99570E+01 1.70702E-01 6.67845E-04 2.11072E-01-5.98077E-14-5.62402E-14
 -1      3778 1.99788E+01 1.37793E-01 3.39199E-04 1.67728E-01-5.75040E-14-6.63691E-14
 -1      3779 1.99245E+01 2.02898E-01-1.19053E-03 2.30233E-01-4.84341E-14-6.08580E-14
 -1      3780 1.99060E+01 2.37730E-01 7.32877E-04 2.54950E-01-3.97754E-14-1.03926E-14
 -1      3781 1.99217E+01 2.05637E-01 5.64313E-04 1.99015E-01-9.04587E-14-2.06910E-14
 -1      3782 1.98680E+01 2.72304E-01-1.44884E-03 2.81409E-01 2.88105E-14-9.77076E-16
 -1      3783 1.98468E+01 3.08964E-01 8.35681E-04 3.14103E-01 2.21771E-14 5.07562E-14
 -1      3784 1.98554E+01 2.80522E-01 7.93508E-04 2.43069E-01 5.35159E-15-1.87739E-15
 -1      3785 1.98020E+01 3.44138E-01-1.71797E-03 3.49175E-01-4.03706E-15 1.00671E-13
 -1      3786 1.97780E+01 3.80392E-01 1.00193E-03 3.90852E-01 1.69925E-14 1.02252E-13
 -1      3787 1.97775E+01 3.59628E-01 1.00814E-03 3.02380E-01 3.37118E-14 1.83311E-14
 -1      3788 1.97259E+01 4.13286E-01-1.98516E-03 4.36063E-01 4.95380E-14 1.07899E-13
 -1      3789 1.96997E+01 4.45575E-01 1.27120E-03 4.87719E-01 1.08629E-13 7.53712E-14
 -1      3790 1.96860E+01 4.38386E-01 1.17696E-03 3.79829E-01 4.79967E-14 1.12843E-13
 -1      3791 1.96402E+01 4.71707E-01-2.22708E-03 5.44910E-01 1.30304E-13 8.44587E-14
 -1      3792 1.96141E+01 4.94605E-01 1.70415E-03 6.07545E-01 1.10592E-13 8.55274E-14
 -1      3793 1.95802E+01 5.09553E-01 1.24894E-03 4.78924E-01 1.26202E-13 1.92868E-13
 -1      3794 1.95487E+01 5.07312E-01-2.40214E-03 6.79008E-01 5.05673E-14 6.46390E-14
 -1      3795 1.95270E+01 5.12915E-01 2.38937E-03 7.53622E-01 3.56469E-15 3.36278E-14
 -1      3796 1.94612E+01 5.62141E-01 1.14169E-03 6.04124E-01 6.68596E-14 1.23361E-13
 -1      3797 1.94596E+01 5.02724E-01-2.43336E-03 8.42265E-01-3.59351E-14 1.86155E-15
 -1      3798 1.94503E+01 4.79987E-01 3.44428E-03 9.29769E-01-5.45687E-14 4.43971E-15
 -1      3799 1.93341E+01 5.80150E-01 7.20515E-04 7.61272E-01-3.90199E-14-6.59568E-14
 -1      3800 1.93884E+01 4.33985E-01-2.16992E-03 1.03919E+00-7.11066E-14-3.13652E-14
 -1      3801 1.94047E+01 3.68080E-01 5.00388E-03 1.14001E+00 2.03082E-14-5.14290E-14
 -1      3802 1.92091E+01 5.41114E-01-2.40828E-04 9.58071E-01-4.58625E-14-7.38220E-14
 -1      3803 1.93621E+01 2.69476E-01-1.29186E-03 1.27421E+00 6.28581E-14-9.75116E-14
 -1      3804 1.94249E+01 1.41273E-01 7.12327E-03 1.38709E+00 3.79948E-14-3.16954E-14
 -1      3805 1.91060E+01 4.14428E-01-2.12531E-03 1.20427E+00 6.36702E-15-6.27865E-14
 -1      3806 1.94263E+01-3.04598E-02 8.94980E-04 1.54883E+00 7.54930E-15-7.74564E-14
 -1      3807 1.95675E+01-2.43763E-01 1.00458E-02 1.66746E+00 4.18272E-14-1.40252E-13
 -1      3808 1.90593E+01 1.59285E-01-5.60095E-03 1.51060E+00-1.72197E-14-4.19905E-14
 -1      3809 1.96552E+01-5.10657E-01 6.45786E-03 1.85484E+00 1.08973E-13-2.28505E-13
 -1      3810 1.99132E+01-8.39062E-01 1.01648E-02 1.96228E+00 1.01535E-13-2.11542E-13
 -1      3811 1.91272E+01-2.76404E-01-1.16286E-02 1.88332E+00 3.95425E-15-2.20375E-13
 -1      3812 2.01724E+01-1.20972E+00 1.91878E-02 2.13936E+00 7.18074E-14-2.43505E-13
 -1      3813 2.05925E+01-1.64825E+00 1.23647E-02 2.19271E+00 1.55560E-13-2.09370E-13
 -1      3814 1.94167E+01-9.77333E-01-2.67096E-02 2.31156E+00 9.60248E-14-3.39354E-13
 -1      3815 2.11156E+01-2.15150E+00 2.71358E-02 2.31075E+00 2.42042E-13-2.02004E-13
 -1      3816 2.17700E+01-2.66329E+00 4.14299E-03 2.19963E+00 2.38831E-13-1.01398E-13
 -1      3817 2.01132E+01-1.87505E+00-2.50214E-02 2.68557E+00 2.27855E-13-1.76713E-13
 -1      3818 2.29408E+01-3.29927E+00-3.07072E-03-2.04082E+00 9.31789E-14 2.43708E-13
 -1      3819 2.22211E+01-2.88139E+00 3.96400E-02-2.32761E+00 1.38843E-14 3.11282E-13
 -1      3820 2.02467E+01 1.42353E+00-1.48508E-03-4.93421E-01-7.77824E-14-1.84176E-13
 -1      3821 2.02039E+01 1.66078E+00-2.68490E-03-3.47831E-02 2.74190E-14-2.73695E-13
 -1      3822 2.02073E+01 1.64257E+00-3.28101E-03-1.25526E-01 3.75936E-15-2.49214E-13
 -1      3823 2.02906E+01 1.38995E+00 5.10059E-03-1.30513E-01 8.47295E-15-2.26603E-13
 -1      3824 2.02863E+01 1.42203E+00 5.05191E-03 1.88814E-03 4.07497E-14-2.61958E-13
 -1      3825 2.14984E+01-2.37154E+00 1.11037E-02-2.34800E+00 3.38167E-14 1.73050E-13
 -1      3826 2.09499E+01-1.88144E+00 2.42514E-02-2.41051E+00-1.01082E-13 2.27504E-13
 -1      3827 2.10470E+01-2.73269E+00-4.09532E-02-2.94881E+00-4.21061E-14 1.43759E-13
 -1      3828 2.05731E+01-1.42204E+00 1.45451E-02-2.26534E+00-1.50474E-13 1.80891E-13
 -1      3829 2.02183E+01-1.01712E+00 1.11755E-02-2.21323E+00-3.24909E-14 6.61980E-14
 -1      3830 2.00537E+01-1.60897E+00-2.40163E-02-2.71356E+00-1.26858E-13 5.30982E-14
 -1      3831 2.00587E+01-6.58176E-01 1.07306E-02-2.03264E+00 8.36440E-14 1.60094E-13
 -1      3832 1.98517E+01-3.51559E-01-5.94371E-04-1.93409E+00-1.08155E-13 2.58272E-13
 -1      3833 1.95917E+01-7.36141E-01-1.77960E-02-2.31397E+00 3.31119E-14 1.93470E-13
 -1      3834 2.30353E+01-3.50057E+00 4.14058E-02 2.20755E+00 2.72114E-13-1.84140E-13
 -1      3835 1.99260E+01 2.36714E-01 6.15358E-04-2.63368E-01 1.25662E-14-1.52849E-13
 -1      3836 1.99425E+01 1.97690E-01-1.28387E-03-2.38585E-01 1.42963E-14-1.84085E-13
 -1      3837 1.98750E+01 2.82708E-01 1.07757E-03-2.50836E-01-3.12113E-14-8.87101E-14
 -1      3838 1.99733E+01 1.62821E-01 6.41736E-04-2.20519E-01 7.12204E-14-1.88829E-13
 -1      3839 1.99862E+01 1.29677E-01-9.98593E-04-2.02906E-01 6.97955E-14-1.36829E-13
 -1      3840 1.99393E+01 1.99048E-01 6.88785E-04-2.09901E-01 5.47674E-14-1.06291E-13
 -1      3841 1.97866E+01 4.20514E-01 4.60165E-04-3.94616E-01-1.04246E-13-5.76853E-14
 -1      3842 1.98167E+01 3.69240E-01-2.01348E-03-3.52818E-01-1.71523E-13-9.44847E-14
 -1      3843 1.97935E+01 3.79202E-01 1.56513E-03-3.04500E-01-1.52076E-13-1.23651E-13
 -1      3844 1.96822E+01 5.29788E-01 3.20675E-04-4.85679E-01 9.67054E-16-8.95642E-14
 -1      3845 1.97235E+01 4.72934E-01-2.48957E-03-4.34310E-01-1.26842E-14-8.83594E-14
 -1      3846 1.96882E+01 4.88394E-01 2.17885E-03-3.71761E-01-2.70227E-14-1.79972E-13
 -1      3847 1.95442E+01 6.47757E-01 1.54022E-04-5.95120E-01 9.56507E-14-7.62337E-14
 -1      3848 1.96003E+01 5.86906E-01-3.07360E-03-5.33613E-01 5.73939E-14-3.59602E-14
 -1      3849 1.95511E+01 6.09015E-01 2.95126E-03-4.53163E-01 1.43259E-14-2.06564E-13
 -1      3850 1.93631E+01 7.68694E-01 1.42483E-05-7.24174E-01 7.92160E-14 1.97931E-14
 -1      3851 1.94380E+01 7.07136E-01-3.81521E-03-6.51841E-01 1.10111E-13 1.84271E-14
 -1      3852 1.93722E+01 7.37797E-01 3.92029E-03-5.49129E-01 7.18815E-14-9.10265E-14
 -1      3853 1.91284E+01 8.81948E-01 3.22116E-05-8.75330E-01 2.31827E-14 2.64972E-14
 -1      3854 1.92258E+01 8.25635E-01-4.80728E-03-7.90798E-01 7.02680E-14 5.60221E-14
 -1      3855 1.91397E+01 8.68301E-01 5.13059E-03-6.60594E-01 4.96828E-14 3.08348E-14
 -1      3856 1.88295E+01 9.69329E-01 4.84487E-04-1.05457E+00-2.95104E-14-8.50274E-14
 -1      3857 1.89515E+01 9.28232E-01-6.21780E-03-9.54583E-01-1.38079E-14 2.58625E-14
 -1      3858 1.88391E+01 9.89375E-01 6.63965E-03-7.90489E-01 2.34825E-14-5.65607E-15
 -1      3859 1.84578E+01 1.00118E+00 1.83051E-03-1.27566E+00-4.44729E-14-1.85075E-13
 -1      3860 1.86027E+01 9.91415E-01-8.31197E-03-1.15287E+00 2.40954E-14-1.05549E-13
 -1      3861 1.84532E+01 1.08307E+00 8.52985E-03-9.46851E-01 3.82453E-14-8.31390E-14
 -1      3862 1.80113E+01 9.30947E-01 5.04998E-03-1.56672E+00-1.78991E-13-2.16157E-13
 -1      3863 1.81682E+01 9.77691E-01-1.14025E-02-1.40638E+00-1.15382E-13-2.16255E-13
 -1      3864 1.79607E+01 1.12102E+00 1.08333E-02-1.14848E+00-5.46495E-14-2.04643E-13
 -1      3865 1.75018E+01 6.86141E-01 1.13923E-02-1.98028E+00-2.12204E-13-2.63962E-13
 -1      3866 1.76434E+01 8.28325E-01-1.57891E-02-1.75580E+00-1.76538E-13-2.50022E-13
 -1      3867 1.73343E+01 1.05799E+00 1.25409E-02-1.43194E+00-1.29950E-13-2.62058E-13
 -1      3868 1.67122E+01 3.74681E-01 3.97761E-03 2.51376E+00-1.35743E-13 3.37794E-15
 -1      3869 1.84663E+01 9.92255E-01-2.63333E-03 1.65494E+00 3.65947E-13 3.04285E-13
 -1      3870 1.82748E+01 8.84004E-01 2.77709E-03 1.81634E+00 2.21834E-13 3.80028E-13
 -1      3871 1.88700E+01 1.06381E+00-5.64746E-03 1.50366E+00 1.82998E-13 4.13085E-13
 -1      3872 1.30932E+01 1.01938E+00 2.79558E-02 4.11196E-02-2.49579E-13-2.82996E-13
 -1      3873 1.33740E+01 9.02411E-01 2.29141E-02-1.08673E+00-2.12069E-13-1.05436E-13
 -1      3874 1.47286E+01 6.52776E-01-1.12898E-02-1.48706E+00 6.89483E-14 2.63980E-13
 -1      3875 1.51253E+01 3.40294E-01 3.06802E-02-2.26379E+00 2.48152E-14 3.31853E-15
 -1      3876 2.46435E+01 3.91365E+00-1.01392E-01 1.21294E+00-6.51562E-15 3.28657E-13
 -1      3877 2.03580E+01 7.09095E-01 4.60230E-04-1.46402E-01-3.08229E-14-1.34189E-13
 -1      3878 2.03547E+01 5.51928E-01-2.24397E-03-7.45563E-02-2.56020E-14-1.14896E-13
 -1      3879 1.78870E+01-1.70065E+00 1.69721E-02-3.85626E+00 6.24500E-15-1.53991E-14
 -1      3880 1.91197E+01-2.34813E+00-1.01103E-02-3.84547E+00-1.30950E-14-1.05721E-13
 -1      3881 1.64755E+01-1.80786E-01-1.66955E-02-2.94743E+00-1.48509E-13-3.27752E-13
 -1      3882 1.55601E+01-2.15019E-01-6.41462E-04-2.91918E+00 1.20926E-13-1.91120E-13
 -1      3883 1.67556E+01-1.04758E+00 7.29361E-03-3.63925E+00 1.13398E-13-2.56526E-13
 -1      3884 1.78676E+01-1.09528E+00 3.26148E-02-3.32381E+00 1.11546E-13-1.33627E-13
 -1      3885 1.62423E+01 8.00056E-02 1.77464E-02-2.43504E+00 1.55910E-13-2.90669E-13
 -1      3886 2.01650E+01 6.59870E-02-5.72427E-04-1.39871E-01 3.02160E-15-6.76060E-14
 -1      3887 2.01856E+01 1.11068E-01 1.82335E-03-1.14328E-01 4.34929E-14-7.90121E-14
 -1      3888 2.02508E+01 1.69057E-01-7.01217E-04-8.16105E-02 4.02043E-14-1.06075E-13
 -1      3889 2.03626E+01 4.21536E-01 1.60758E-03-2.89563E-02-2.29827E-14-1.12672E-13
 -1      3890 2.03457E+01 3.12718E-01-1.79059E-03 1.97520E-02-2.72753E-14-1.19001E-13
 -1      3891 2.03818E+01 5.35468E-01-1.63901E-04-5.33257E-02-2.38319E-14-1.00013E-13
 -1      3892 2.02991E+01 1.23972E+00 5.11236E-03-3.73055E-01-5.34056E-14-1.91094E-13
 -1      3893 2.01143E+01-3.38351E-02-5.07736E-04-1.71249E-01 2.59821E-14-5.32489E-14
 -1      3894 2.03323E+01 1.03686E+00-2.62047E-03 2.20040E-01 8.03744E-14-2.35818E-13
 -1      3895 2.03307E+01 1.10784E+00-7.00461E-04 1.75091E-01 7.32953E-14-2.34310E-13
 -1      3896 2.03199E+01 9.56705E-01-2.97361E-03-2.47349E-01-3.13980E-14-1.65664E-13
 -1      3897 2.02133E+01-1.60028E-03-7.85262E-05-1.46413E-01-2.61278E-14-9.22375E-14
 -1      3898 2.02324E+01 2.37080E-02 8.43543E-04-1.36713E-01 9.97424E-15-7.82597E-14
 -1      3899 2.00561E+01 2.71815E-02-5.20162E-04-1.65194E-01 3.52859E-14-8.80253E-14
 -1      3900 2.00775E+01 2.21298E-02-8.20998E-05-1.49727E-01 5.37982E-14-4.04757E-14
 -1      3901 2.00456E+01 4.90420E-02 6.25144E-04-1.71760E-01 3.91248E-14-1.11033E-13
 -1      3902 2.03046E+01 1.15414E+00 4.40162E-03 3.85175E-01 1.20750E-13-1.70388E-13
 -1      3903 2.18566E+01-2.90287E+00 1.43744E-02 2.43430E+00 1.81761E-13-1.75249E-13
 -1      3904 2.18401E+01-3.61935E+00 1.27259E-02 3.25887E+00 2.46678E-13-3.32338E-13
 -1      3905 1.85003E+01 1.08096E+00 1.08371E-03 1.47443E+00 1.86379E-13 3.68788E-13
 -1      3906 2.02132E+01 6.52678E-02-7.15033E-04-1.32772E-01 1.74417E-14-9.09293E-14
 -1      3907 1.92315E+01 3.69027E-01-9.85337E-03-1.60814E+00-1.53842E-13-8.76090E-15
 -1      3908 1.50047E+01-7.32480E-01 1.87273E-03 3.64009E+00 9.68921E-14-1.49228E-13
 -1      3909 1.39546E+01-1.98791E-01 9.10495E-02 3.32822E+00 5.75408E-15-1.78923E-13
 -1      3910 1.37938E+01 2.55135E-01 6.94341E-03 2.49385E+00-4.83806E-14-1.24151E-13
 -1      3911 2.01084E+01-1.91486E-02 5.07920E-04-1.57639E-01 7.22059E-14-8.72793E-14
 -1      3912 2.01206E+01-2.81543E-02-6.92770E-05-1.56601E-01 6.68851E-14-8.81271E-14
 -1      3913 2.01168E+01-1.14826E-02-2.51462E-04-1.44280E-01 5.80646E-14-1.35931E-13
 -1      3914 1.75765E+01 5.85727E-01 1.17724E-02 2.19817E+00-1.52469E-13-2.32609E-14
 -1      3915 1.60554E+01 7.72438E-01 2.49779E-02 1.98394E+00-1.74634E-13-2.09333E-13
 -1      3916 1.59656E+01 9.91037E-01-1.01755E-02 1.19614E+00-6.00769E-14-1.10577E-13
 -1      3917 1.77356E+01 7.67733E-01-1.04985E-02 1.97168E+00-8.59293E-14 8.37111E-14
 -1      3918 1.69499E+01 1.36411E-01 1.57834E-02-2.61776E+00-1.74560E-13-3.32946E-13
 -1      3919 1.70375E+01 4.56868E-01-1.97799E-02-2.27129E+00-2.66154E-13-2.30410E-13
 -1      3920 1.95820E+01-5.40758E-02 7.81737E-03-1.86976E+00-6.65342E-15 3.10285E-13
 -1      3921 2.03287E+01 1.11108E+00-1.22527E-03-1.71820E-01 3.26877E-15-2.08998E-13
 -1      3922 2.03300E+01 1.04288E+00-3.37789E-03-2.18767E-01-1.72056E-14-2.00363E-13
 -1      3923 1.50727E+01 9.83659E-01 3.18029E-02-7.43018E-01-6.52635E-14 3.11513E-13
 -1      3924 1.58904E+01 8.70212E-01 2.45816E-03-1.08873E+00 1.99485E-14 2.06625E-13
 -1      3925 1.55350E+01 1.08176E+00-2.80312E-02 2.10835E-02-1.41062E-13 1.97869E-13
 -1      3926 1.56538E+01 4.45286E-01 3.99883E-02-2.43291E+00-2.37687E-13-2.93553E-13
 -1      3927 2.02994E+01 8.62458E-01-1.07438E-03 3.25654E-01 1.17676E-13-1.13465E-13
 -1      3928 1.39523E+01 8.32978E-01 4.80329E-02-1.58556E+00-2.12524E-13-1.89621E-13
 -1      3929 1.49304E+01 5.63650E-01 5.15905E-03-2.09767E+00-2.17505E-13-3.36118E-13
 -1      3930 1.53774E+01 7.59110E-01-2.14291E-02-1.83069E+00-2.12607E-13-2.85046E-13
 -1      3931 1.43988E+01 1.00319E+00 4.89409E-03-1.02950E+00-2.53461E-13-1.69234E-13
 -1      3932 1.77781E+01 9.43051E-01 6.42683E-03-1.07520E+00-1.71865E-13 4.89630E-14
 -1      3933 1.75163E+01 1.07620E+00-1.31932E-02-7.09166E-01-2.19531E-13 1.07969E-13
 -1      3934 2.03253E+01 1.18488E+00-1.99734E-03-7.50148E-02 3.79907E-14-2.26545E-13
 -1      3935 2.03265E+01 1.15096E+00-3.20190E-03-1.32252E-01 2.35553E-14-2.06977E-13
 -1      3936 2.03746E+01 9.44531E-01 3.92411E-03-1.11684E-01 1.85808E-14-1.99899E-13
 -1      3937 1.32425E+01 1.02088E+00 4.67445E-02 5.76898E-01-2.39281E-13-3.60840E-13
 -1      3938 1.40275E+01 1.09851E+00 1.84797E-02 3.29998E-02-2.31549E-13-3.39550E-13
 -1      3939 1.35477E+01 8.42576E-01 7.97107E-03 1.21113E+00-2.35379E-13-2.32038E-13
 -1      3940 2.00893E+01-2.46482E+00 2.71828E-02-3.46601E+00-4.25784E-14-1.19671E-14
 -1      3941 1.70195E+01 1.16398E+00 1.08190E-03-4.00385E-01-1.06908E-13 1.99224E-13
 -1      3942 1.69566E+01 1.23785E+00 8.00420E-04 4.88809E-02-1.84288E-13 2.36552E-13
 -1      3943 1.65514E+01 8.26340E-01 1.61773E-02-1.86084E+00-2.29900E-13-3.79933E-13
 -1      3944 2.01761E+01-2.89685E-02 2.04511E-04-1.54552E-01-1.40825E-14-1.07012E-13
 -1      3945 2.01927E+01-1.84592E-02 4.91840E-04-1.50808E-01-1.79296E-14-1.15158E-13
 -1      3946 2.02398E+01-4.49867E-03-4.71421E-04-1.31815E-01-9.71005E-15-1.18196E-13
 -1      3947 1.97368E+01-1.93258E+00 9.19830E-03-3.21400E+00-1.51013E-13 5.30071E-14
 -1      3948 2.03735E+01 3.04265E-01 4.57126E-04 2.36079E-02-1.32989E-14-8.32577E-14
 -1      3949 2.03765E+01 9.40721E-01 4.24577E-03 1.14836E-01 6.78112E-14-2.21793E-13
 -1      3950 2.03265E+01 1.14734E+00-3.64860E-03 1.34138E-01 7.95251E-14-2.08905E-13
 -1      3951 2.03252E+01 1.18358E+00-2.03841E-03 7.79907E-02 6.31086E-14-2.32541E-13
 -1      3952 1.85376E+01 5.41892E-01 1.79516E-02-1.63018E+00-1.73906E-13-2.67697E-13
 -1      3953 1.81261E+01 7.01547E-01-1.33313E-02-1.40056E+00-1.81662E-13-5.92216E-14
 -1      3954 1.76986E+01 7.03075E-01 1.89625E-03-1.41840E+00-2.24682E-13 4.03830E-14
 -1      3955 2.03313E+01 5.61184E-01-1.97109E-03 1.04145E-01 1.08253E-13-1.41487E-13
 -1      3956 2.03383E+01 6.89502E-01 2.01695E-03 1.77821E-01 9.60422E-14-1.32181E-13
 -1      3957 1.95789E+01-2.92448E+00 1.02650E-02 4.01092E+00 2.54453E-13-5.88147E-13
 -1      3958 1.80689E+01-2.60576E+00 7.79985E-02 4.60953E+00 1.92381E-13-4.92165E-13
 -1      3959 1.71517E+01-1.86813E+00 1.55443E-02 4.23314E+00 1.28137E-13-4.29223E-13
 -1      3960 2.00120E+01 1.00388E-01 6.43891E-04-1.90640E-01 2.22625E-14-9.32450E-14
 -1      3961 2.00230E+01 7.28972E-02-7.48454E-04-1.79143E-01 4.84607E-14-9.08098E-14
 -1      3962 2.00367E+01 6.88717E-02 1.23847E-04-1.61047E-01 3.16171E-14-7.77555E-15
 -1      3963 2.03162E+01 3.20509E-01-1.59666E-03-1.10319E-02 7.28172E-14-1.39697E-13
 -1      3964 2.03342E+01 4.30073E-01 1.77423E-03 4.52020E-02 1.05078E-13-1.41245E-13
 -1      3965 2.03597E+01 5.57612E-01 6.72325E-04 8.14026E-02 1.02405E-13-1.36943E-13
 -1      3966 1.74990E+01 1.00741E+00 1.37544E-02 1.62170E+00-3.78356E-14-5.95613E-14
 -1      3967 1.64550E+01 1.18319E+00 1.13025E-02 3.11265E-01-1.30489E-13 2.71153E-13
 -1      3968 1.72773E+01 1.23568E+00-1.49802E-02 7.10304E-01-2.59155E-13 9.71526E-14
 -1      3969 1.75078E+01 1.19981E+00 1.40814E-03 1.03870E+00-1.53779E-13 2.78335E-13
 -1      3970 1.99918E+01 1.27878E-01 3.76539E-04-1.80483E-01 4.85681E-14 7.59601E-15
 -1      3971 2.03337E+01 9.43332E-01-5.64629E-04 2.22106E-01 8.55512E-14-1.97740E-13
 -1      3972 2.03602E+01 7.98248E-01 3.74902E-04 1.42642E-01 7.20247E-14-2.07982E-13
 -1      3973 2.03539E+01 8.23008E-01 2.35871E-03-1.68729E-01-2.29072E-14-1.47976E-13
 -1      3974 1.86873E+01-1.33563E+00-8.00830E-04-3.23409E+00 3.52426E-14 1.96869E-13
 -1      3975 1.95244E+01-1.50029E+00 1.38507E-02-2.93938E+00-1.09983E-13 1.59917E-13
 -1      3976 1.91861E+01-1.00256E+00 3.42975E-03-2.71782E+00 5.27701E-14 3.07473E-13
 -1      3977 1.76715E+01-7.09289E-01-5.43220E-03-3.01055E+00 2.22592E-13 3.34715E-15
 -1      3978 2.07259E+01-2.72574E+00-9.18731E-03 3.09399E+00 2.88695E-13-3.59771E-13
 -1      3979 2.01411E+01-3.29548E-02 3.89257E-04-1.56611E-01 3.87627E-14-1.06338E-13
 -1      3980 2.01553E+01-3.34726E-02 1.88791E-04-1.55498E-01 4.95464E-15-1.30313E-13
 -1      3981 2.01975E+01-2.93874E-02-4.50041E-04-1.39273E-01 1.25300E-14-1.82611E-13
 -1      3982 2.01565E+01-2.98715E-02-3.82905E-04-1.41967E-01 3.51305E-14-1.78293E-13
 -1      3983 1.80154E+01 1.14166E+00-1.14099E-02 1.30571E+00 7.59540E-14 2.13908E-13
 -1      3984 2.03422E+01 7.25179E-02 5.31040E-04 7.65343E-02-2.25734E-14-1.42519E-13
 -1      3985 2.03194E+01 3.28946E-02-2.67904E-04 8.76860E-02-6.02009E-14-1.66938E-13
 -1      3986 2.02958E+01 4.45384E-03 3.78640E-04 9.17851E-02-4.43423E-14-1.39160E-13
 -1      3987 2.02721E+01-1.51950E-02 2.42223E-05 9.74953E-02-1.63826E-14-1.36769E-13
 -1      3988 2.03282E+01 2.55574E-02-2.93461E-04 6.91887E-02-4.36049E-14-1.43562E-13
 -1      3989 2.02461E+01-2.66755E-02 2.14450E-04 9.89186E-02-1.31484E-14-1.30430E-13
 -1      3990 2.02226E+01-3.13942E-02 2.05246E-04 1.01706E-01-9.02431E-15-1.29221E-13
 -1      3991 2.02775E+01-1.76571E-02-3.71239E-04 7.65612E-02-2.90678E-14-6.58454E-14
 -1      3992 2.01956E+01-3.00683E-02 4.51014E-05 1.02054E-01-2.28092E-14-1.09199E-13
 -1      3993 2.01727E+01-2.34042E-02 3.09779E-04 1.03985E-01-2.34222E-14-9.80670E-14
 -1      3994 2.02244E+01-2.90189E-02-3.38119E-04 8.00613E-02-1.69283E-14-8.34442E-14
 -1      3995 2.01451E+01-1.23588E-02-1.37115E-04 1.04693E-01-5.61873E-15-1.17355E-13
 -1      3996 2.01227E+01 3.11157E-03 3.55370E-04 1.07337E-01 5.41693E-15-4.81412E-14
 -1      3997 2.01705E+01-1.60826E-02-2.26634E-04 8.24958E-02 8.57044E-15-4.24229E-14
 -1      3998 2.00940E+01 2.19358E-02-3.36166E-04 1.09451E-01-3.62755E-14-8.06607E-14
 -1      3999 2.00714E+01 4.45897E-02 3.72534E-04 1.14192E-01-2.86396E-14-6.73144E-14
 -1      4000 2.01156E+01 1.55921E-02-9.79969E-05 8.62038E-02-1.44939E-14-7.42206E-14
 -1      4001 2.00408E+01 6.98412E-02-5.45962E-04 1.18716E-01-2.76219E-14-1.20462E-13
 -1      4002 2.00170E+01 9.85935E-02 3.68757E-04 1.26712E-01-4.07186E-14-1.61325E-13
 -1      4003 2.00584E+01 6.27400E-02 1.05098E-04 9.31580E-02-6.81297E-14-1.65426E-13
 -1      4004 1.99832E+01 1.29379E-01-7.80077E-04 1.34579E-01-1.00825E-14-1.19866E-13
 -1      4005 1.99571E+01 1.63461E-01 3.59424E-04 1.46898E-01-4.35359E-14-7.35996E-14
 -1      4006 1.99966E+01 1.22971E-01 3.53278E-04 1.05201E-01-1.74030E-14-1.70454E-13
 -1      4007 1.99184E+01 1.99057E-01-1.04679E-03 1.59069E-01-6.14346E-14-5.00245E-14
 -1      4008 1.98886E+01 2.37751E-01 3.60058E-04 1.76774E-01-7.48766E-14-2.41880E-14
 -1      4009 1.99275E+01 1.94653E-01 6.36802E-04 1.24124E-01-2.09865E-14-5.49493E-14
 -1      4010 1.98431E+01 2.77317E-01-1.35246E-03 1.94346E-01-6.00136E-14 5.53874E-14
 -1      4011 1.98084E+01 3.19650E-01 3.88889E-04 2.18572E-01 3.88029E-14 2.75522E-14
 -1      4012 1.98473E+01 2.76323E-01 9.50772E-04 1.51894E-01-3.96676E-15 7.30611E-14
 -1      4013 1.97542E+01 3.61907E-01-1.70403E-03 2.42874E-01 8.60352E-14 1.98485E-14
 -1      4014 1.97134E+01 4.06308E-01 4.71009E-04 2.74916E-01 6.35134E-14 6.20755E-14
 -1      4015 1.97524E+01 3.66056E-01 1.28845E-03 1.90848E-01 3.78446E-14 1.27048E-13
 -1      4016 1.96485E+01 4.49162E-01-2.10946E-03 3.07643E-01 3.45082E-14 7.97855E-14
 -1      4017 1.96011E+01 4.93066E-01 6.43785E-04 3.49067E-01 1.00776E-13 4.74504E-14
 -1      4018 1.96388E+01 4.60789E-01 1.63842E-03 2.43935E-01 7.00146E-14 6.62196E-14
 -1      4019 1.95236E+01 5.33178E-01-2.57879E-03 3.92456E-01 1.58085E-13 8.76088E-14
 -1      4020 1.94698E+01 5.72576E-01 9.64334E-04 4.45251E-01 1.67777E-13 1.34724E-13
 -1      4021 1.95028E+01 5.55557E-01 1.98198E-03 3.15048E-01 1.38302E-13 5.14954E-14
 -1      4022 1.93783E+01 6.04854E-01-3.12501E-03 5.02348E-01 4.59086E-14 8.03081E-14
 -1      4023 1.93199E+01 6.33774E-01 1.51979E-03 5.69149E-01-4.32448E-14-1.97982E-14
 -1      4024 1.93414E+01 6.42626E-01 2.28896E-03 4.09501E-01 6.31261E-14 9.62834E-15
 -1      4025 1.92139E+01 6.50800E-01-3.76301E-03 6.44192E-01-8.59033E-14-8.10115E-14
 -1      4026 1.91549E+01 6.60706E-01 2.43988E-03 7.28577E-01-6.43070E-14-8.95310E-14
 -1      4027 1.91530E+01 7.10509E-01 2.50870E-03 5.34735E-01-1.00480E-13-2.77826E-14
 -1      4028 1.90352E+01 6.52061E-01-4.50142E-03 8.27538E-01-5.07060E-14-8.61533E-14
 -1      4029 1.89836E+01 6.31129E-01 3.90385E-03 9.34343E-01-5.17610E-14-4.85341E-14
 -1      4030 1.89379E+01 7.42807E-01 2.54663E-03 7.01347E-01-5.91805E-14-7.10377E-14
 -1      4031 1.88536E+01 5.82574E-01-5.31201E-03 1.06558E+00-4.90988E-14-2.41478E-14
 -1      4032 1.88236E+01 5.14808E-01 6.19843E-03 1.20100E+00 1.14878E-14-7.59790E-14
 -1      4033 1.87003E+01 7.16678E-01 2.21166E-03 9.24517E-01-4.27603E-14-9.28209E-14
 -1      4034 1.86910E+01 4.07356E-01-5.99665E-03 1.37611E+00 1.54273E-14-6.82194E-14
 -1      4035 1.87069E+01 2.71155E-01 9.70549E-03 1.54701E+00-7.21930E-14-7.71739E-14
 -1      4036 1.84503E+01 6.00888E-01 1.14357E-03 1.22564E+00-1.07659E-14-1.59147E-14
 -1      4037 1.85904E+01 7.84988E-02-5.67083E-03 1.78150E+00-1.15533E-13-1.06161E-13
 -1      4038 1.86896E+01-1.57846E-01 1.37706E-02 1.99257E+00-2.54988E-14-1.45680E-13
 -1      4039 1.82094E+01 3.51569E-01-1.55747E-03 1.63641E+00-1.20658E-13-6.04850E-14
 -1      4040 1.86339E+01-4.38785E-01 8.93076E-03 2.29787E+00 4.94060E-14-2.88800E-13
 -1      4041 1.88583E+01-8.59813E-01 6.77848E-03 2.54984E+00 1.33372E-13-2.71299E-13
 -1      4042 1.80400E+01-1.02301E-01-3.36088E-03 2.19083E+00-8.39853E-14-1.09232E-13
 -1      4043 2.03795E+01 6.23613E-01-1.01160E-04 9.32905E-02 8.26524E-14-1.91694E-13
 -1      4044 2.03812E+01 7.13095E-01-1.07924E-03 9.47938E-02 6.77409E-14-2.17879E-13
 -1      4045 2.03779E+01 4.83489E-01-3.61801E-04 3.47724E-02 7.09104E-14-1.76507E-13
 -1      4046 2.03247E+01 1.19741E+00-2.55560E-03 3.17233E-02 5.46658E-14-2.46889E-13
 -1      4047 2.03244E+01 1.19819E+00-2.53476E-03-2.88842E-02 3.44889E-14-2.51312E-13
 -1      4048 2.03797E+01 1.00018E+00 4.91137E-03 4.11777E-02 6.86891E-14-2.18856E-13
 -1      4049 2.03807E+01 1.90228E-01 8.17330E-04 4.81040E-02-1.63989E-14-1.06149E-13
 -1      4050 2.03607E+01 1.23776E-01-6.98258E-04 6.77381E-02 1.18750E-15-1.30811E-13
 -1      4051 2.03730E+01 1.11378E-01 2.31483E-05 5.45698E-02-3.45258E-14-1.71807E-13
 -1      4052 1.98272E+01 3.20696E-01 2.85888E-05-2.24962E-01-6.08871E-14 1.64606E-14
 -1      4053 1.98627E+01 2.73428E-01-1.31539E-03-2.03010E-01 6.71927E-14 3.63487E-14
 -1      4054 1.97263E+01 4.24009E-01-1.99946E-04-2.71651E-01-4.01123E-14-1.82787E-13
 -1      4055 1.97721E+01 3.70269E-01-1.65418E-03-2.43868E-01-8.67034E-14-7.78952E-14
 -1      4056 1.97718E+01 3.67875E-01 1.59249E-03-1.93051E-01 3.92888E-14-1.68037E-14
 -1      4057 1.99072E+01 2.30279E-01 1.92136E-04-1.88381E-01 4.12100E-14 1.44807E-14
 -1      4058 1.99355E+01 1.89491E-01-1.02185E-03-1.71900E-01 7.91253E-15 2.72296E-14
 -1      4059 1.98669E+01 2.69074E-01 1.09354E-03-1.62739E-01 2.00957E-14 5.42869E-14
 -1      4060 1.94298E+01 6.65843E-01-9.12859E-04-3.95396E-01 2.01820E-14-1.50217E-13
 -1      4061 1.95082E+01 6.01075E-01-2.53605E-03-3.55757E-01 2.58750E-14-2.00884E-13
 -1      4062 1.92139E+01 7.98625E-01-1.41514E-03-4.71522E-01 1.57314E-14-8.21454E-14
 -1      4063 1.93165E+01 7.31156E-01-3.15495E-03-4.26122E-01 1.20506E-14-1.96035E-13
 -1      4064 1.93050E+01 7.37387E-01 3.95678E-03-3.22672E-01 1.67076E-14-1.47146E-13
 -1      4065 1.89353E+01 9.31043E-01-2.00233E-03-5.56741E-01 4.27342E-14-1.49095E-13
 -1      4066 1.90687E+01 8.64751E-01-4.00974E-03-5.05333E-01 6.53819E-14-1.12699E-13
 -1      4067 1.90548E+01 8.76258E-01 5.21560E-03-3.74620E-01 2.71637E-14-1.42721E-13
 -1      4068 1.85764E+01 1.05191E+00-2.62664E-03-6.52723E-01 1.44353E-14-9.51999E-14
 -1      4069 1.87484E+01 9.92848E-01-5.29605E-03-5.93714E-01 3.97458E-15-1.52712E-13
 -1      4070 1.87334E+01 1.01314E+00 6.88854E-03-4.28345E-01 2.21323E-14-2.21077E-13
 -1      4071 1.81140E+01 1.14456E+00-3.10677E-03-7.66012E-01 7.13774E-15-8.46769E-14
 -1      4072 1.83339E+01 1.10151E+00-7.36963E-03-6.94564E-01 2.22877E-14-5.95421E-14
 -1      4073 1.83190E+01 1.13756E+00 9.23006E-03-4.83932E-01-3.02059E-16-5.64075E-14
 -1      4074 1.75171E+01 1.18494E+00-2.61239E-03-9.13772E-01-3.82809E-14-1.05817E-13
 -1      4075 1.77945E+01 1.17059E+00-1.07240E-02-8.18590E-01-3.22691E-15-4.40609E-14
 -1      4076 1.77800E+01 1.23570E+00 1.28125E-02-5.45911E-01 2.30311E-14 1.07278E-13
 -1      4077 1.67432E+01 1.13606E+00 2.02718E-03-1.13463E+00-1.53020E-13-1.77964E-13
 -1      4078 1.70876E+01 1.17081E+00-1.51281E-02-9.93379E-01-8.27981E-14-1.42534E-13
 -1      4079 1.70628E+01 1.28856E+00 1.73456E-02-6.29663E-01-4.08402E-14-3.40706E-14
 -1      4080 1.60518E+01 1.17473E+00 2.85436E-02 7.75587E-01-1.32787E-13 3.41940E-14
 -1      4081 1.91116E+01 1.18214E-01-7.74990E-03-1.82924E+00 4.62544E-14-3.31308E-14
 -1      4082 2.03143E+01 9.24327E-01-1.93580E-03 2.62735E-01 9.11520E-14-1.70018E-13
 -1      4083 2.02863E+01 1.59804E-01-1.03612E-03-8.40275E-02 9.51179E-15-1.08051E-13
 -1      4084 2.03073E+01 2.32808E-01 1.54069E-03-4.88939E-02 3.16279E-14-1.24194E-13
 -1      4085 2.03475E+01 3.17291E-01 2.01880E-05-1.63960E-02 4.65159E-14-1.20764E-13
 -1      4086 1.99723E+01 1.52669E-01 3.04491E-04-1.61323E-01 6.34591E-14 5.37236E-15
 -1      4087 1.99958E+01 1.18247E-01-7.63713E-04-1.49742E-01 6.90228E-14 1.72806E-14
 -1      4088 1.99443E+01 1.83574E-01 6.87537E-04-1.39537E-01 2.79075E-14-5.79288E-15
 -1      4089 1.58939E+01 9.32133E-01 5.26228E-03-1.54632E+00-2.12177E-13-2.24683E-13
 -1      4090 1.63117E+01 1.05037E+00-2.33678E-02-1.31218E+00-1.55465E-13-1.87573E-13
 -1      4091 1.62508E+01 1.25668E+00 2.38886E-02-8.19465E-01-1.35155E-13-4.96714E-14
 -1      4092 1.53886E+01 1.09562E+00 3.13477E-02-1.21624E+00-1.73112E-13-1.54845E-13
 -1      4093 2.03703E+01 7.87127E-01-6.85323E-04-1.25367E-01-1.63764E-14-1.52620E-13
 -1      4094 2.02516E+01 5.71996E-02-4.92057E-04-1.25699E-01 2.18807E-14-9.04880E-14
 -1      4095 2.02724E+01 1.02686E-01 1.20944E-03-1.05942E-01 1.24847E-14-8.60815E-14
 -1      4096 2.02821E+01 5.28202E-02-4.55094E-04-1.13998E-01-1.32063E-14-7.08288E-14
 -1      4097 2.04058E+01 3.73562E-01 2.33151E-03 5.70821E-04-4.46073E-15-1.08079E-13
 -1      4098 2.03899E+01 2.70471E-01-1.49916E-03 3.16219E-02-2.40929E-14-1.00918E-13
 -1      4099 2.04047E+01 2.53943E-01 5.34942E-04 2.83574E-02-1.50864E-14-1.45393E-13
 -1      4100 2.03807E+01 7.72086E-01-1.51958E-03-1.00244E-01 4.28390E-15-1.62136E-13
 -1      4101 2.03943E+01 6.75268E-01 3.25442E-03-8.22910E-02-1.49168E-14-1.32866E-13
 -1      4102 2.03913E+01 5.18450E-01-2.79150E-03-3.48479E-02 1.37180E-14-1.12547E-13
 -1      4103 2.03883E+01 8.11153E-01-1.26467E-03-7.35490E-02 4.17062E-14-1.65428E-13
 -1      4104 1.95968E+01 5.39668E-01-5.09271E-04-3.28575E-01-4.07794E-15-1.84042E-13
 -1      4105 1.96567E+01 4.79853E-01-2.05255E-03-2.94826E-01-3.46185E-14-1.83050E-13
 -1      4106 1.96522E+01 4.79763E-01 2.20986E-03-2.30375E-01-1.06770E-14-1.72999E-13
 -1      4107 1.68190E+01 1.04804E+00-1.14269E-02 1.36490E+00-2.35598E-13-7.47216E-14
 -1      4108 1.87937E+01 4.87723E-02-2.57146E-04-1.96328E+00-5.13491E-14 3.20001E-14
 -1      4109 1.74103E+01 1.12390E+00-7.03920E-03 1.25586E+00-8.36603E-14 6.95714E-14
 -1      4110 2.07718E+01-3.20074E+00 6.56662E-02 3.65219E+00 2.01461E-13-4.56512E-13
 -1      4111 2.03195E+01 1.55034E-01-3.10917E-04-7.87693E-02 8.85141E-15-9.86493E-14
 -1      4112 2.00767E+01 3.53472E-02 4.06718E-04-1.31442E-01-2.44497E-14-1.54422E-14
 -1      4113 2.00963E+01 1.39667E-02-3.16680E-04-1.27196E-01 2.32652E-14-5.66458E-14
 -1      4114 1.94999E+01 6.03734E-01 2.98097E-03-2.74017E-01-2.86984E-14-1.56113E-13
 -1      4115 1.81676E+01-1.21691E+00-4.71042E-04 3.19949E+00 1.65432E-13-3.47455E-13
 -1      4116 1.92425E+01-1.73837E+00 1.89972E-02 3.15811E+00 2.22927E-13-3.45498E-13
 -1      4117 1.97359E+01-2.34665E+00 1.82245E-02 3.43519E+00 2.96966E-13-3.95061E-13
 -1      4118 2.04111E+01 4.88803E-01-9.07858E-04-2.11806E-02 1.05450E-14-1.43835E-13
 -1      4119 1.45327E+01 4.01811E-01-6.35755E-03 2.21444E+00 3.32720E-14 9.66952E-14
 -1      4120 1.39533E+01 7.62200E-01 5.07915E-02 1.73045E+00-1.16993E-13 4.12136E-14
 -1      4121 1.43032E+01 9.51138E-01-1.82707E-03 1.07348E+00-2.11951E-13 1.23738E-14
 -1      4122 2.01229E+01-3.45537E-03 3.84703E-04-1.25491E-01 5.42722E-14-1.40592E-13
 -1      4123 2.01425E+01-1.73968E-02-1.22564E-04-1.23262E-01 3.70725E-14-1.62230E-13
 -1      4124 2.01197E+01 7.93132E-03-1.21113E-04-1.06323E-01 3.58194E-15-8.55279E-14
 -1      4125 1.91263E+01-6.39791E-01 1.92073E-02-2.45245E+00 7.25520E-14 3.49876E-13
 -1      4126 1.89898E+01-2.76957E-01 1.19473E-02-2.23995E+00-2.79236E-15 2.50425E-13
 -1      4127 1.82279E+01 1.07833E-01-1.32509E-02-2.05281E+00-2.32364E-13-1.59855E-14
 -1      4128 2.02599E+01-1.14225E-02-1.04047E-05-1.15300E-01 3.67796E-15-1.61573E-13
 -1      4129 2.02824E+01 1.02368E-02 5.73751E-04-1.08442E-01-3.85916E-15-1.53931E-13
 -1      4130 1.65480E+01 9.19896E-01-4.09642E-03-9.81863E-01-6.67496E-14 1.12797E-13
 -1      4131 1.64656E+01 6.87647E-01 2.66371E-02-1.62316E+00 9.76183E-14-7.71078E-14
 -1      4132 2.03906E+01 7.54896E-01-4.97164E-04 7.12643E-02 5.72161E-14-2.04023E-13
 -1      4133 1.44608E+01 1.19647E+00 3.70808E-02-4.42237E-01-2.03583E-13-2.76900E-13
 -1      4134 1.48407E+01 1.08275E+00 1.28487E-02-9.09242E-01-1.60503E-13-2.20321E-13
 -1      4135 1.52951E+01 1.18170E+00-1.05912E-02-6.82853E-01-9.50446E-14-1.05912E-13
 -1      4136 1.44373E+01 1.13376E+00-9.57312E-04 5.84266E-02-1.96438E-13-3.76300E-13
 -1      4137 2.03792E+01 1.00015E+00 4.53473E-03-3.84766E-02 4.80364E-14-2.33583E-13
 -1      4138 1.97233E+01-2.67162E+00 9.46619E-03 3.66895E+00 2.12216E-13-5.12273E-13
 -1      4139 2.03188E+01 3.40844E-02-4.18364E-04-8.62176E-02 1.51469E-14-1.65445E-13
 -1      4140 2.03041E+01 4.08859E-02-2.77172E-04-1.02192E-01-4.97166E-15-1.24516E-13
 -1      4141 2.03270E+01 8.25638E-02 9.42600E-04-8.81293E-02 1.98227E-14-9.47746E-14
 -1      4142 1.65790E+01 2.73454E-01-1.46317E-02-2.11144E+00 8.01668E-14-2.36522E-13
 -1      4143 1.71673E+01-1.81838E-01 1.81271E-02-2.67910E+00 9.53031E-14-4.20780E-13
 -1      4144 1.80116E+01-3.95959E-01 1.66838E-02-2.62148E+00 5.83756E-14 6.65791E-14
 -1      4145 1.72359E+01 4.14912E-01 8.72871E-04-1.86993E+00-3.28756E-14-2.56098E-13
 -1      4146 1.84485E+01-5.66284E-01-7.12741E-03-2.64082E+00 7.99872E-14 2.96087E-13
 -1      4147 2.00274E+01 8.76550E-02 3.74914E-04-1.42795E-01 6.51552E-14 1.38928E-14
 -1      4148 2.00482E+01 5.95959E-02-5.32183E-04-1.35358E-01 4.30795E-14 4.87806E-14
 -1      4149 2.00668E+01 5.25021E-02 8.82621E-05-1.12382E-01 1.00807E-14 6.81160E-15
 -1      4150 2.00094E+01 1.11329E-01 3.56216E-04-1.23033E-01 6.70814E-14-3.01947E-14
 -1      4151 1.99916E+01 1.31143E-01 2.30901E-05-9.73891E-02 8.09553E-14-5.80616E-14
 -1      4152 2.00220E+01 9.75249E-02-4.52071E-04-9.09646E-02 7.74712E-14-2.30387E-14
 -1      4153 1.94112E+01 6.41810E-01-1.90026E-03-2.03813E-01-4.51116E-14-1.40523E-13
 -1      4154 1.94991E+01 5.77815E-01-1.86056E-03-1.85366E-01-1.13547E-14-1.32869E-13
 -1      4155 2.03042E+01-1.03634E-02 1.74560E-04 5.10660E-02-2.48930E-14-5.73930E-14
 -1      4156 2.02782E+01-2.32477E-02 3.12773E-04 5.50113E-02-1.09097E-14-3.96529E-14
 -1      4157 2.02493E+01-2.93265E-02 7.27255E-05 5.42947E-02-2.79831E-14-8.02241E-14
 -1      4158 2.02222E+01-2.80873E-02 2.18007E-04 5.65896E-02-2.22743E-14-7.01140E-14
 -1      4159 2.02716E+01-2.47590E-02-6.08542E-04 3.05088E-02-5.88022E-14-1.06682E-13
 -1      4160 2.01927E+01-2.15404E-02 3.19999E-05 5.66795E-02 3.94119E-15-8.61060E-14
 -1      4161 2.01657E+01-9.76091E-03 3.06267E-04 5.87539E-02 1.27456E-14-1.00090E-13
 -1      4162 2.02132E+01-2.32886E-02-3.41213E-04 3.20721E-02-1.65220E-14-1.45407E-13
 -1      4163 2.01346E+01 6.37525E-03-1.77997E-04 5.88387E-02-1.77768E-14-1.26193E-13
 -1      4164 2.01070E+01 2.71114E-02 3.06279E-04 6.18979E-02-8.02932E-14-1.71823E-13
 -1      4165 2.01546E+01 3.19647E-05-2.37268E-04 3.31872E-02-2.29676E-14-1.60433E-13
 -1      4166 2.00741E+01 5.09669E-02-3.66657E-04 6.32846E-02-8.92614E-14-1.64457E-13
 -1      4167 2.00450E+01 7.90372E-02 2.48975E-04 6.80171E-02-3.62554E-14-1.54810E-13
 -1      4168 2.00928E+01 4.23026E-02 6.36132E-05 3.61126E-02-5.46267E-14-1.61493E-13
 -1      4169 2.00090E+01 1.09570E-01-6.07157E-04 7.11847E-02 3.27318E-14-1.62156E-13
 -1      4170 1.99771E+01 1.44082E-01 1.81158E-04 7.84085E-02 3.37537E-14-9.68292E-14
 -1      4171 2.00268E+01 1.00074E-01 5.60731E-04 4.11314E-02-3.85626E-15-1.07800E-13
 -1      4172 1.99362E+01 1.80537E-01-8.99694E-04 8.39795E-02 2.76607E-14-6.12043E-14
 -1      4173 1.98999E+01 2.20880E-01 1.16927E-04 9.45523E-02 2.39635E-14 3.60366E-14
 -1      4174 1.99536E+01 1.71429E-01 1.15733E-03 4.93537E-02 5.38869E-14-1.14249E-13
 -1      4175 1.98520E+01 2.62598E-01-1.25310E-03 1.03327E-01 4.14003E-14 6.46127E-14
 -1      4176 1.98096E+01 3.08141E-01 7.16637E-05 1.18230E-01 6.30143E-14 1.29727E-13
 -1      4177 1.98693E+01 2.55124E-01 1.85190E-03 6.20962E-02 9.29500E-14-7.47504E-14
 -1      4178 1.97521E+01 3.54272E-01-1.68224E-03 1.31274E-01 1.25302E-14 1.55106E-13
 -1      4179 1.97018E+01 4.04066E-01 6.61161E-05 1.51716E-01 4.15762E-14 1.58533E-13
 -1      4180 1.97694E+01 3.49941E-01 2.65403E-03 8.10845E-02 5.66651E-14-5.49094E-16
 -1      4181 1.96317E+01 4.53243E-01-2.20854E-03 1.70490E-01 3.18257E-14 1.91217E-13
 -1      4182 1.95717E+01 5.05693E-01 1.30817E-04 1.98047E-01 3.99182E-14 1.36620E-13
 -1      4183 1.96486E+01 4.54109E-01 3.57893E-03 1.08685E-01 3.68609E-14 3.66678E-14
 -1      4184 1.94860E+01 5.55668E-01-2.86386E-03 2.24584E-01 1.02455E-13 1.29515E-13
 -1      4185 1.94148E+01 6.08173E-01 3.11963E-04 2.61397E-01 1.56298E-13 5.67856E-14
 -1      4186 1.95014E+01 5.64672E-01 4.65054E-03 1.48223E-01 3.73426E-14 9.56376E-14
 -1      4187 1.93099E+01 6.55409E-01-3.69763E-03 2.98558E-01 7.28555E-14-1.28025E-14
 -1      4188 1.92268E+01 7.03977E-01 6.80178E-04 3.47621E-01-5.97999E-14-4.07965E-14
 -1      4189 1.93217E+01 6.76832E-01 5.90984E-03 2.04422E-01 5.54198E-14-1.01543E-14
 -1      4190 1.90988E+01 7.43199E-01-4.78924E-03 3.99458E-01-1.07054E-13-5.93261E-14
 -1      4191 1.90039E+01 7.82043E-01 1.34390E-03 4.65042E-01-1.01974E-13-7.65539E-14
 -1      4192 1.91031E+01 7.83263E-01 7.43000E-03 2.84043E-01-8.79676E-14-1.68187E-13
 -1      4193 1.88484E+01 8.05720E-01-6.27004E-03 5.37357E-01-8.80073E-14-5.33867E-14
 -1      4194 1.87437E+01 8.26814E-01 2.46929E-03 6.25629E-01-6.52252E-14-8.27748E-14
 -1      4195 1.88385E+01 8.73433E-01 9.33859E-03 3.96839E-01-6.41309E-14-1.71887E-13
 -1      4196 1.85551E+01 8.24514E-01-8.35923E-03 7.26861E-01-4.78757E-14-1.15650E-13
 -1      4197 1.84458E+01 8.17029E-01 4.32774E-03 8.46701E-01-5.45706E-14-9.82480E-14
 -1      4198 1.85200E+01 9.32900E-01 1.18449E-02 5.57055E-01-1.25646E-13-1.17041E-13
 -1      4199 1.82171E+01 7.74011E-01-1.14645E-02 9.89316E-01-4.94953E-14-1.19757E-13
 -1      4200 1.81120E+01 7.22919E-01 6.75996E-03 1.15337E+00-1.38132E-14-6.54204E-14
 -1      4201 1.81383E+01 9.42325E-01 1.52673E-02 7.85961E-01-1.10880E-13-1.73119E-13
 -1      4202 1.78358E+01 6.22388E-01-1.53387E-02 1.35295E+00-5.88345E-14-7.78864E-14
 -1      4203 1.77543E+01 5.07940E-01 1.16527E-02 1.58014E+00-1.41049E-13-7.71622E-14
 -1      4204 1.76860E+01 8.72724E-01 2.02971E-02 1.11473E+00-4.96239E-14-2.18708E-13
 -1      4205 1.74093E+01 3.21414E-01-2.28410E-02 1.87615E+00-2.25099E-13-8.87808E-14
 -1      4206 1.73708E+01 7.09844E-02 4.16191E-03 2.20358E+00-1.48845E-13-1.73950E-13
 -1      4207 1.71214E+01 6.93404E-01 2.27552E-02 1.57614E+00-1.52602E-13-4.86512E-14
 -1      4208 2.03762E+01 3.63021E-01-2.55224E-04 9.27918E-04 2.97639E-14-1.58077E-13
 -1      4209 2.03956E+01 4.28451E-01 5.95225E-04 1.26360E-02 1.24048E-14-1.83546E-13
 -1      4210 2.03637E+01 2.65756E-01-6.36815E-04-3.92039E-02 2.52118E-15-1.30321E-13
 -1      4211 2.03968E+01 8.14467E-01-2.48934E-03 4.67532E-02 6.20557E-14-1.94747E-13
 -1      4212 2.03975E+01 8.29511E-01-1.91159E-03 1.25126E-02 3.96098E-14-2.30177E-13
 -1      4213 1.66520E+01-1.14744E+00 6.54476E-02 3.81007E+00 1.32274E-13-2.55368E-13
 -1      4214 1.59598E+01-5.37638E-01 1.41905E-03 3.22511E+00 1.51693E-13-1.77582E-13
 -1      4215 1.67150E+01 1.03364E+00 7.62502E-03-7.87812E-01-9.43265E-14 1.32839E-13
 -1      4216 1.71573E+01 8.11165E-01-9.03841E-03-1.26456E+00-1.13822E-13-3.55335E-14
 -1      4217 2.00560E+01 6.76741E-02 1.64693E-04-8.85072E-02 5.48513E-14-4.60641E-14
 -1      4218 2.00835E+01 4.10141E-02-2.38711E-04-8.42352E-02 3.26529E-14-1.47695E-14
 -1      4219 2.00398E+01 8.72704E-02 2.64716E-04-6.27715E-02 5.08995E-14-3.83583E-14
 -1      4220 1.85532E+01 1.03816E+00-5.34715E-03-2.71012E-01 1.56160E-14-8.69855E-14
 -1      4221 1.87418E+01 9.76169E-01-3.55759E-03-2.55400E-01 6.49718E-14-7.30086E-14
 -1      4222 1.97203E+01 4.00896E-01-8.02874E-04-1.50464E-01 5.41360E-14 6.96778E-15
 -1      4223 1.97741E+01 3.47709E-01-1.20734E-03-1.35928E-01 5.02846E-14 4.06404E-14
 -1      4224 1.98291E+01 2.97984E-01-4.45759E-04-1.28328E-01 2.42380E-14 6.20280E-14
 -1      4225 1.98722E+01 2.51179E-01-9.31792E-04-1.16523E-01 2.21412E-14 3.95359E-14
 -1      4226 1.97908E+01 3.36718E-01 2.28149E-03-8.70448E-02 3.24302E-14 1.59943E-14
 -1      4227 1.89115E+01 9.09733E-01-3.83750E-03-2.54620E-01 7.63706E-14-1.48323E-13
 -1      4228 1.90575E+01 8.42969E-01-2.80059E-03-2.36733E-01 2.78837E-14-7.96845E-14
 -1      4229 1.87965E+01 9.66150E-01 9.17873E-03-1.05538E-01 1.54779E-14-1.14349E-13
 -1      4230 1.91916E+01 7.74863E-01-2.72913E-03-2.31031E-01 1.39714E-14-1.40558E-13
 -1      4231 1.93048E+01 7.07918E-01-2.27192E-03-2.12163E-01-2.29993E-14-1.50670E-13
 -1      4232 1.93338E+01 6.96845E-01 5.57571E-03-1.16690E-01-2.71585E-14-2.03028E-13
 -1      4233 1.90966E+01 8.32010E-01 7.16215E-03-1.17231E-01-2.44313E-14-1.82880E-13
 -1      4234 1.80919E+01 1.14876E+00-7.46406E-03-2.77170E-01-2.53928E-14-1.75891E-14
 -1      4235 1.83368E+01 1.09773E+00-4.75514E-03-2.64247E-01-6.82237E-15-6.21908E-14
 -1      4236 1.84153E+01 1.09074E+00 1.18769E-02-7.49734E-02-6.41637E-14-3.43473E-14
 -1      4237 1.74892E+01 1.22730E+00-1.05108E-02-2.72080E-01-8.55880E-15 8.11636E-14
 -1      4238 1.78120E+01 1.19463E+00-6.73167E-03-2.60026E-01-5.02593E-14 1.61051E-14
 -1      4239 1.79266E+01 1.19502E+00 1.57856E-02-1.74100E-02-4.79818E-14-3.78913E-14
 -1      4240 1.66981E+01 1.26299E+00-7.64704E-03-2.55530E-01 1.83620E-15 2.23202E-14
 -1      4241 1.71198E+01 1.25237E+00-9.19054E-03-2.41573E-01 6.13550E-14 7.10987E-14
 -1      4242 1.72922E+01 1.26715E+00 2.27905E-02 7.72585E-02-3.00844E-15 6.84496E-14
 -1      4243 2.02355E+01-2.46922E-02 3.06488E-04-1.17500E-01 1.43588E-14-1.41470E-13
 -1      4244 2.02714E+01-1.41712E-02-3.91011E-04-9.62433E-02 2.14838E-14-1.48862E-13
 -1      4245 2.02141E+01-3.12320E-02 2.13104E-04-1.20575E-01 4.17429E-14-1.81403E-13
 -1      4246 1.79104E+01-9.86723E-02-1.13374E-02-2.34411E+00-1.45783E-13 1.03916E-14
 -1      4247 2.03963E+01 8.30129E-01-2.17506E-03-1.13922E-02 4.88324E-14-2.61846E-13
 -1      4248 2.03953E+01 8.17906E-01-2.07421E-03-4.37075E-02 4.35660E-14-2.28052E-13
 -1      4249 2.04288E+01 6.80261E-01 3.85810E-03 2.15755E-03 4.22806E-14-2.46598E-13
 -1      4250 2.04162E+01 6.22163E-01 2.94259E-03 3.63860E-02 3.77153E-14-2.00725E-13
 -1      4251 1.95839E+01 5.16062E-01-1.27530E-03-1.76151E-01 9.10134E-16-5.97877E-14
 -1      4252 1.96524E+01 4.56950E-01-1.51353E-03-1.59275E-01 5.75525E-14-2.28273E-14
 -1      4253 1.96711E+01 4.46001E-01 3.19886E-03-9.83533E-02 4.76358E-14 4.19342E-14
 -1      4254 1.99175E+01 2.07995E-01-1.76729E-04-1.10568E-01-5.64361E-16 4.01280E-14
 -1      4255 1.99530E+01 1.67728E-01-6.81580E-04-1.01556E-01 1.91300E-14 3.80830E-14
 -1      4256 1.99695E+01 1.56865E-01 8.29612E-04-6.86626E-02-2.76229E-14 5.87638E-14
 -1      4257 1.75941E+01 5.99451E-01-8.17992E-04-1.59039E+00-2.12459E-13-4.29481E-14
 -1      4258 2.03551E+01 4.32930E-02 1.93590E-04 4.43308E-02-1.85733E-14-1.08475E-13
 -1      4259 2.03310E+01 1.17678E-02 2.06345E-04 5.11681E-02-9.00154E-15-6.20012E-14
 -1      4260 2.03263E+01 3.50493E-03-8.38579E-04 2.79445E-02-2.31541E-14-1.05140E-13
 -1      4261 2.04191E+01 6.73244E-01 3.61117E-03-4.11956E-02 3.79552E-14-1.94652E-13
 -1      4262 2.03391E+01 1.27851E-01-5.72826E-04-8.02229E-02 1.41291E-14-1.17285E-13
 -1      4263 2.03573E+01 1.95203E-01 5.46938E-04-5.54417E-02 8.44835E-15-1.18033E-13
 -1      4264 2.03811E+01 2.33830E-01-1.28115E-03-4.02537E-02-5.62370E-15-1.60152E-13
 -1      4265 2.03583E+01 1.16116E-01-6.95810E-04-6.97368E-02 2.67558E-14-1.31253E-13
 -1      4266 2.03976E+01 1.43114E-01 1.96285E-04 3.23434E-02-6.32182E-15-1.56841E-13
 -1      4267 2.03779E+01 8.62356E-02-1.50674E-04 4.30968E-02-2.04473E-14-1.64782E-13
 -1      4268 2.03762E+01 7.11346E-02-5.27790E-04 2.31173E-02 1.47384E-14-1.33343E-13
 -1      4269 2.04271E+01 3.02114E-01 1.13175E-03 1.05030E-02-7.97080E-15-1.90628E-13
 -1      4270 2.04123E+01 2.13130E-01-9.93847E-04 2.78374E-02-1.93873E-14-1.89688E-13
 -1      4271 2.04149E+01 1.90348E-01 3.27004E-04 1.58126E-02 1.20647E-14-2.13204E-13
 -1      4272 2.04242E+01 4.91738E-01-1.69138E-03-7.27475E-03 2.12664E-14-2.14064E-13
 -1      4273 1.95217E+01 5.66827E-01 4.28106E-03-1.09117E-01 1.69478E-14-1.18041E-13
 -1      4274 2.04117E+01 3.45208E-01 2.08862E-03-1.30771E-02-1.98053E-15-1.87781E-13
 -1      4275 2.04113E+01 4.54846E-01-1.97749E-03 1.78729E-02 1.79811E-14-2.04684E-13
 -1      4276 2.04257E+01 5.14925E-01-9.71015E-04 1.08576E-02 2.56373E-14-2.05941E-13
 -1      4277 2.04016E+01 2.63533E-01-3.59461E-04-2.90096E-02 2.52700E-15-2.19593E-13
 -1      4278 2.01683E+01-2.67927E-02 3.24329E-04-1.22861E-01 3.50588E-14-1.71253E-13
 -1      4279 2.01887E+01-3.16508E-02 8.31519E-05-1.21117E-01 3.00314E-14-1.56561E-13
 -1      4280 2.02213E+01-2.96437E-02-3.55265E-04-1.00738E-01 8.99192E-15-1.77346E-13
 -1      4281 1.78491E+01 2.71187E-01 1.42730E-02-2.00796E+00-1.51971E-13-1.32385E-13
 -1      4282 2.04317E+01 4.51831E-01-2.74235E-04-2.98780E-03 1.74573E-14-2.40207E-13
 -1      4283 1.67084E+01-3.33664E-01 3.72621E-03 2.84284E+00 1.22374E-13-1.36467E-13
 -1      4284 1.55399E+01 1.69004E-01 5.52194E-02 2.64644E+00 9.74448E-14-4.77196E-14
 -1      4285 1.54785E+01 5.22848E-01 1.46854E-02 1.98479E+00-3.82593E-14 1.54467E-13
 -1      4286 2.01031E+01 3.21807E-02-1.86292E-04-5.90055E-02 2.58018E-14-2.96868E-14
 -1      4287 2.01147E+01 1.83419E-02 2.52118E-04-8.32512E-02 6.23316E-16-2.18835E-14
 -1      4288 2.01409E+01-5.67393E-04 2.11998E-05-8.04567E-02 1.89921E-14-5.23051E-14
 -1      4289 1.58923E+01 1.23139E+00-1.42783E-03-4.21519E-01-1.01913E-13-8.51224E-14
 -1      4290 1.62570E+01 1.24903E+00-2.18857E-02-3.09844E-01-3.82340E-14-5.44749E-14
 -1      4291 1.65158E+01 1.32111E+00 3.53956E-02 1.35320E-01 4.81169E-14-1.73576E-14
 -1      4292 1.98883E+01 2.40157E-01 1.49844E-03-7.68516E-02 1.00214E-14 8.34900E-14
 -1      4293 2.02773E+01-2.05065E-02 8.98767E-05-7.60929E-02 2.74225E-14-1.74685E-13
 -1      4294 2.03031E+01-4.48193E-03 5.07630E-04-7.12523E-02 2.02784E-15-1.88053E-13
 -1      4295 1.45913E+01 1.14216E+00 4.28639E-02 5.66382E-01-1.42125E-13-2.15048E-13
 -1      4296 1.49403E+01 1.15932E+00 1.57644E-02 1.04618E-01-9.68191E-14-2.58366E-13
 -1      4297 1.47064E+01 9.61002E-01-1.95394E-02 1.11133E+00-9.33899E-14 1.51780E-13
 -1      4298 2.01708E+01-2.06691E-02-2.99678E-04-1.03188E-01 2.51360E-14-1.84517E-13
 -1      4299 2.03293E+01 1.17590E-02-8.98652E-04-4.92835E-02 1.04636E-14-2.54253E-13
 -1      4300 2.03278E+01 1.95679E-02-2.13956E-04-7.01034E-02 1.41922E-14-1.99650E-13
 -1      4301 2.03534E+01 5.35830E-02 3.95073E-04-6.10557E-02 2.45211E-14-2.22151E-13
 -1      4302 1.78944E+01-1.63636E+00-1.32273E-02 3.67646E+00 2.02578E-13-3.76718E-13
 -1      4303 1.94850E+01 5.60906E-01-3.75248E-03 1.01410E-02 3.40048E-14-1.25850E-13
 -1      4304 1.95719E+01 5.02956E-01-1.91757E-03 1.01419E-02 2.69797E-14-7.94956E-14
 -1      4305 1.65565E+01 3.65588E-01 7.04388E-03 2.10501E+00-1.43034E-13-4.36747E-14
 -1      4306 1.70499E+01-1.17203E-01-2.53831E-02 2.47142E+00-5.94845E-14-1.40449E-13
 -1      4307 2.02325E+01-2.71789E-02 1.77112E-04 6.08187E-03-5.70988E-14-1.72637E-13
 -1      4308 2.02029E+01-2.11468E-02 2.16058E-04 6.84271E-03 8.72999E-15-1.77771E-13
 -1      4309 2.01618E+01-3.69997E-03 1.18685E-04-1.23859E-02 2.69906E-14-1.28690E-13
 -1      4310 2.01313E+01 1.42430E-02 2.09151E-04-1.09575E-02-1.31682E-14-7.25108E-14
 -1      4311 2.00998E+01 3.66972E-02-5.86475E-05-1.24499E-02-1.73751E-14-3.53975E-14
 -1      4312 2.00669E+01 6.27325E-02-1.94536E-06-1.07902E-02 7.56864E-15-4.71562E-14
 -1      4313 2.00325E+01 9.25260E-02-4.03548E-04-1.26971E-02 1.45358E-15-3.10455E-14
 -1      4314 1.99966E+01 1.25805E-01-3.04844E-04-1.02128E-02-1.74927E-14 1.30348E-15
 -1      4315 1.99575E+01 1.62271E-01-8.48866E-04-1.26610E-02-4.39163E-14 2.50741E-14
 -1      4316 1.99169E+01 2.02261E-01-6.50231E-04-8.87260E-03 1.03043E-14-3.60786E-14
 -1      4317 1.98707E+01 2.44973E-01-1.38936E-03-1.17240E-02 5.94909E-14-4.57932E-14
 -1      4318 1.98232E+01 2.91290E-01-1.03370E-03-6.01029E-03 5.63440E-14-5.82947E-14
 -1      4319 1.97672E+01 3.39863E-01-2.03643E-03-8.84967E-03 3.69049E-14-5.74906E-14
 -1      4320 1.97103E+01 3.92016E-01-1.45562E-03-3.44901E-04 4.26536E-14-5.99316E-14
 -1      4321 1.96409E+01 4.45841E-01-2.81230E-03-2.39357E-03 2.66461E-14-1.15798E-13
 -1      4322 1.94008E+01 6.21429E-01-2.42386E-03 2.84947E-02 1.55793E-14-1.33363E-13
 -1      4323 1.92914E+01 6.81546E-01-4.91445E-03 3.24131E-02-3.23836E-14-1.27559E-13
 -1      4324 1.91886E+01 7.42940E-01-2.98710E-03 5.91631E-02-2.79939E-14-2.03019E-13
 -1      4325 1.90505E+01 8.02119E-01-6.39565E-03 6.96336E-02-4.71253E-14-1.68530E-13
 -1      4326 1.89255E+01 8.60586E-01-3.63955E-03 1.08494E-01-5.75705E-14-1.71070E-13
 -1      4327 1.87504E+01 9.14277E-01-8.36795E-03 1.29064E-01-5.73045E-14-1.46565E-13
 -1      4328 1.85987E+01 9.64533E-01-4.45492E-03 1.85400E-01-8.14719E-14-1.38212E-13
 -1      4329 1.83752E+01 1.00647E+00-1.11429E-02 2.20704E-01-1.08267E-13-9.20900E-14
 -1      4330 1.81913E+01 1.04159E+00-5.59451E-03 3.02337E-01-1.00555E-13-7.43815E-14
 -1      4331 1.79022E+01 1.06347E+00-1.53050E-02 3.58363E-01-9.96671E-14-5.11700E-14
 -1      4332 1.76781E+01 1.07449E+00-7.54577E-03 4.77152E-01-6.83544E-14-4.13170E-14
 -1      4333 1.72957E+01 1.06752E+00-2.13485E-02 5.62313E-01-1.00055E-14-9.39439E-15
 -1      4334 1.70113E+01 1.03341E+00-1.40802E-02 7.39865E-01 1.16970E-14 1.03766E-14
 -1      4335 1.65791E+01 1.02190E+00-2.47585E-02 7.79290E-01-1.28838E-14 7.24533E-14
 -1      4336 1.62456E+01 9.47198E-01-6.19844E-03 1.02009E+00-3.75190E-14 1.11163E-13
 -1      4337 2.04270E+01 2.23102E-01-2.41123E-04-1.42969E-03 4.17553E-16-2.25100E-13
 -1      4338 2.04124E+01 1.49395E-01 1.85616E-06 5.95386E-03 2.45891E-14-2.03800E-13
 -1      4339 2.02503E+01-2.84430E-02 3.34781E-04-7.58261E-02 1.66975E-15-1.10684E-13
 -1      4340 2.02759E+01-2.29217E-02-9.05728E-04-5.36812E-02-4.53198E-14-1.50106E-13
 -1      4341 2.02244E+01-2.95401E-02 2.83917E-04-7.84730E-02-2.18037E-14-1.11315E-13
 -1      4342 2.04338E+01 5.15655E-01-1.23391E-03-5.54074E-03 4.92350E-14-2.55011E-13
 -1      4343 2.04363E+01 3.21198E-01 3.05746E-04 5.07560E-03 1.83158E-14-2.28272E-13
 -1      4344 2.04289E+01 2.79406E-01-2.07750E-04-5.97054E-03 7.22897E-15-2.31052E-13
 -1      4345 2.04300E+01 5.17061E-01-1.64752E-03 6.57875E-03 4.15301E-14-2.26074E-13
 -1      4346 2.01700E+01-1.53853E-02 1.09435E-04-8.05599E-02-5.95089E-15-4.96791E-14
 -1      4347 2.01955E+01-2.51179E-02-9.83116E-06-7.85824E-02-1.76075E-14-8.45493E-14
 -1      4348 2.02196E+01-2.57246E-02-2.51340E-04-5.48148E-02-4.85562E-14-3.84414E-14
 -1      4349 2.01624E+01-7.38778E-03-3.79470E-04-5.66481E-02 2.95364E-14-2.88824E-14
 -1      4350 1.54807E+01 1.26758E+00 1.22506E-02-1.34063E-01-6.25459E-14-2.32821E-13
 -1      4351 2.03354E+01 7.50535E-03 3.10071E-04-1.15585E-02-1.11680E-14-1.46901E-13
 -1      4352 2.03086E+01-1.28982E-02 7.57267E-04-9.66636E-03-7.46282E-14-1.82790E-13
 -1      4353 2.03831E+01 7.78878E-02 1.58802E-04-1.11831E-02 4.09238E-14-2.18464E-13
 -1      4354 2.03611E+01 3.67271E-02 7.87689E-04-7.59988E-03 3.00508E-14-1.68212E-13
 -1      4355 2.02805E+01-2.39881E-02 2.88631E-04-1.20441E-02-1.02545E-13-1.08028E-13
 -1      4356 2.02511E+01-2.81775E-02 4.57323E-04-1.09123E-02-8.95249E-14-1.43299E-13
 -1      4357 1.76820E+01-5.88952E-01 3.48226E-02 2.86666E+00 1.00605E-13-2.36567E-13
 -1      4358 2.04381E+01 3.80329E-01 3.15893E-03-3.02373E-03 2.32786E-14-2.27794E-13
 -1      4359 2.03890E+01 1.08076E-01-3.15580E-04-2.57482E-02 2.92101E-14-2.48753E-13
 -1      4360 1.58087E+01 6.91373E-01 2.62096E-02 1.74243E+00-1.64182E-13 2.09529E-13
 -1      4361 1.55057E+01 1.25669E+00 2.06506E-02 3.55912E-01-1.08768E-14-7.69181E-14
 -1      4362 1.57567E+01 8.33223E-01-1.69739E-02 1.31208E+00-9.12838E-14 1.22002E-13
 -1      4363 2.03872E+01 1.24601E-01-2.93753E-04-4.23239E-02 1.59265E-14-2.09779E-13
 -1      4364 2.04031E+01 1.81860E-01 1.54551E-03-3.29249E-02 1.12511E-14-2.20571E-13
 -1      4365 2.01749E+01-9.78712E-03-2.02934E-04-3.80286E-02 3.25482E-14-1.05164E-13
 -1      4366 2.02335E+01-2.85739E-02-4.62858E-04-3.74453E-02-7.34533E-14-9.70899E-14
 -1      4367 2.04249E+01 2.72688E-01-7.77469E-04-1.26864E-02 1.01475E-14-2.30021E-13
 -1      4368 2.02044E+01-2.21128E-02 3.01298E-04-3.77571E-02-1.46253E-14-6.75554E-14
 -3
    1PSTEP                         3           1           1          
  100CL  101 1.000000000        4368                     0    1           1
 -4  TOSTRAIN    6    1
 -5  EXX         1    4    1    1
 -5  EYY         1    4    2    2
 -5  EZZ         1    4    3    3
 -5  EXY         1    4    1    2
 -5  EYZ         1    4    2    3
 -5  EZX         1    4    3    1
 -1         1 9.40569E-05 1.76910E-05-4.42657E-05-9.74908E-05-1.46452E-18 3.01459E-18
 -1         2 3.68979E-05-1.12877E-04 2.05145E-05-1.03771E-06-1.65578E-18-7.46739E-19
 -1         3 9.50929E-05-2.87266E-05-2.82755E-05-1.56474E-07-2.89361E-18-2.98010E-18
 -1         4 9.51414E-05-2.86696E-05-2.83635E-05 8.96286E-08 8.34824E-19 6.62363E-19
 -1         5 1.43332E-04-2.14770E-05-4.25224E-05 3.85306E-05-1.51301E-19 1.17067E-17
 -1         6 1.45396E-04 2.57527E-10-4.41815E-05-5.35259E-05-6.44698E-19 1.22156E-17
 -1         7 9.05932E-05-5.10411E-07-3.90626E-05-2.92569E-05-8.02564E-20 2.86951E-18
 -1         8 8.51143E-05 8.66591E-08-3.63347E-05-2.02798E-05-1.36769E-19-1.40862E-19
 -1         9 8.28102E-05 7.60663E-08-3.53488E-05-1.56496E-05-1.31634E-19-1.83092E-18
 -1        10 8.17712E-05 3.96452E-08-3.48814E-05-1.20881E-05-9.00436E-20-2.68830E-18
 -1        11 8.12577E-05 1.91889E-08-3.46549E-05-9.02301E-06-8.94579E-20-3.13139E-18
 -1        12 8.09925E-05 8.98811E-09-3.45419E-05-6.29112E-06-4.31110E-20-3.38661E-18
 -1        13 8.08536E-05 4.41717E-09-3.44854E-05-3.68971E-06-1.86215E-20-3.53487E-18
 -1        14 8.07958E-05 2.56547E-09-3.44624E-05-1.18504E-06 7.76764E-21-3.60318E-18
 -1        15 8.07979E-05 2.55343E-09-3.44631E-05 1.29037E-06 6.94935E-21-3.66230E-18
 -1        16 8.08600E-05 4.35336E-09-3.44876E-05 3.80017E-06 3.37556E-20-3.59884E-18
 -1        17 8.10040E-05 8.26285E-09-3.45457E-05 6.41357E-06 5.80267E-20-3.47851E-18
 -1        18 8.12750E-05 1.80672E-08-3.46599E-05 9.16450E-06 6.77395E-20-3.23767E-18
 -1        19 8.17968E-05 3.81540E-08-3.48898E-05 1.22677E-05 1.03709E-19-2.77125E-18
 -1        20 8.28303E-05 8.15812E-08-3.53612E-05 1.58804E-05 1.36663E-19-1.87928E-18
 -1        21 8.50794E-05 1.69689E-07-3.63731E-05 2.04906E-05 1.68507E-19-4.16072E-20
 -1        22 9.16310E-05-9.90837E-08-3.87342E-05 2.80039E-05 2.85874E-20 3.50727E-18
 -1        23 1.12957E-04-3.81202E-05-3.53915E-05-4.40385E-06-4.71003E-19 9.87757E-18
 -1        24 9.27834E-05-2.76907E-05-2.89929E-05 3.90973E-07-1.21109E-19 7.67748E-18
 -1        25 8.90933E-05-2.68443E-05-2.69215E-05 3.75611E-07-2.32421E-20 5.55480E-18
 -1        26 8.79851E-05-2.64792E-05-2.63826E-05 2.03919E-07 4.20125E-21 4.12698E-18
 -1        27 8.80065E-05-2.64561E-05-2.63730E-05 1.39575E-07-5.49252E-20 3.32443E-18
 -1        28 8.85343E-05-2.65907E-05-2.65409E-05 1.00419E-07-1.80654E-20 2.80627E-18
 -1        29 8.92829E-05-2.68016E-05-2.67716E-05 7.45987E-08 6.76221E-20 2.10731E-18
 -1        30 9.01021E-05-2.70397E-05-2.70200E-05 5.61313E-08 2.73277E-20 1.76264E-18
 -1        31 9.09081E-05-2.72771E-05-2.72632E-05 4.21871E-08-5.85965E-20 9.49607E-19
 -1        32 9.16563E-05-2.74991E-05-2.74888E-05 3.13452E-08-1.08646E-19-3.21492E-20
 -1        33 9.23265E-05-2.76987E-05-2.76910E-05 2.28165E-08 2.03232E-19-2.21358E-19
 -1        34 9.29147E-05-2.78746E-05-2.78687E-05 1.61189E-08-9.56298E-22 1.76464E-19
 -1        35 9.34285E-05-2.80286E-05-2.80241E-05 1.09383E-08-3.12813E-19-1.00790E-18
 -1        36 9.38835E-05-2.81653E-05-2.81620E-05 7.06958E-09 2.35097E-19-8.84698E-19
 -1        37 9.43016E-05-2.82913E-05-2.82889E-05 4.39478E-09-1.77918E-19 2.69719E-19
 -1        38 9.47098E-05-2.84145E-05-2.84130E-05 2.87743E-09-1.57504E-19-2.49258E-19
 -1        39 9.51398E-05-2.85444E-05-2.85439E-05 2.56498E-09-1.59170E-19-1.03410E-18
 -1        40 9.56276E-05-2.86916E-05-2.86922E-05 3.59224E-09 6.72526E-20-8.64813E-19
 -1        41 9.62130E-05-2.88682E-05-2.88701E-05 6.18082E-09 1.55101E-19-9.49455E-19
 -1        42 9.69387E-05-2.90867E-05-2.90903E-05 1.06259E-08-2.19005E-19-9.94839E-19
 -1        43 9.78482E-05-2.93601E-05-2.93657E-05 1.72561E-08-8.40985E-20-2.22837E-18
 -1        44 9.89809E-05-2.96999E-05-2.97078E-05 2.63423E-08 9.45214E-20-1.90319E-18
 -1        45 1.00365E-04-3.01142E-05-3.01244E-05 3.79150E-08-8.66876E-20-1.30125E-18
 -1        46 1.02005E-04-3.06039E-05-3.06157E-05 5.14314E-08-1.40863E-20-2.39519E-18
 -1        47 1.03860E-04-3.11571E-05-3.11681E-05 6.52268E-08 2.71244E-19-1.61618E-18
 -1        48 1.05825E-04-3.17414E-05-3.17472E-05 7.57194E-08-8.37090E-20-9.05799E-19
 -1        49 1.07692E-04-3.22953E-05-3.22884E-05 7.65002E-08 5.01097E-19-1.90929E-18
 -1        50 1.09130E-04-3.27209E-05-3.26912E-05 5.78456E-08-3.39399E-19-3.81479E-18
 -1        51 1.09685E-04-3.28834E-05-3.28214E-05 7.91059E-09 1.65434E-19-3.60504E-18
 -1        52 1.08835E-04-3.26288E-05-3.25324E-05-8.23606E-08-1.62012E-19-1.79715E-18
 -1        53 1.06148E-04-3.18286E-05-3.17133E-05-2.09165E-07 3.78537E-19-3.43088E-18
 -1        54 1.01541E-04-3.04569E-05-3.03619E-05-3.43214E-07-3.22286E-20-4.72227E-18
 -1        55 9.55640E-05-2.86755E-05-2.86550E-05-4.26475E-07-3.45677E-19-5.67135E-18
 -1        56 8.95063E-05-2.68671E-05-2.69606E-05-3.93624E-07 2.63214E-19-5.09807E-18
 -1        57 8.50974E-05-2.55490E-05-2.57441E-05-2.18967E-07-1.27444E-19-2.83318E-18
 -1        58 8.37901E-05-2.51577E-05-2.53831E-05 4.58959E-08-1.42313E-19-3.55867E-18
 -1        59 8.60045E-05-2.58195E-05-2.59846E-05 2.90125E-07 1.40624E-19-3.72913E-18
 -1        60 9.08855E-05-2.72774E-05-2.73287E-05 4.16897E-07-6.00191E-19-2.64413E-18
 -1        61 9.67704E-05-2.90323E-05-2.89781E-05 4.01765E-07 6.38910E-19-2.23245E-18
 -1        62 1.01995E-04-3.05880E-05-3.04769E-05 2.89744E-07-2.79116E-19-1.31332E-18
 -1        63 1.05498E-04-3.16297E-05-3.15132E-05 1.48344E-07-5.21006E-19-4.16079E-18
 -1        64 1.06962E-04-3.20657E-05-3.19748E-05 2.66841E-08-1.86286E-19-6.45774E-18
 -1        65 1.06627E-04-3.19677E-05-3.19111E-05-5.57371E-08 2.34760E-19-5.40107E-18
 -1        66 1.05001E-04-3.14864E-05-3.14593E-05-1.00330E-07-3.37019E-19-3.43795E-18
 -1        67 1.02641E-04-3.07866E-05-3.07815E-05-1.16583E-07 6.30297E-19-7.68927E-19
 -1        68 1.00052E-04-3.00175E-05-3.00312E-05-1.12647E-07 3.72276E-19 3.42091E-18
 -1        69 9.76733E-05-2.93082E-05-2.93437E-05-8.95254E-08-1.47723E-19 3.54767E-18
 -1        70 9.59086E-05-2.87759E-05-2.88334E-05-2.91527E-08 3.90541E-20 4.97479E-18
 -1        71 9.51116E-05-2.85148E-05-2.85568E-05 5.97203E-08-3.18804E-19 3.45489E-18
 -1        72 1.02161E-04-3.05821E-05-3.41445E-05-1.92813E-06 2.00456E-19 1.06207E-17
 -1        73 9.25394E-05-2.75066E-05-2.89011E-05-3.33019E-07 9.88911E-20 7.92999E-18
 -1        74 8.90808E-05-2.66937E-05-2.69647E-05-1.25772E-07 7.02781E-20 5.69000E-18
 -1        75 8.80150E-05-2.64300E-05-2.64264E-05-9.54036E-08 3.79974E-20 4.37974E-18
 -1        76 8.80406E-05-2.64359E-05-2.63995E-05-7.63301E-08-2.52687E-20 3.70492E-18
 -1        77 8.85673E-05-2.65848E-05-2.65577E-05-6.21353E-08 1.30788E-19 2.77494E-18
 -1        78 8.93129E-05-2.68024E-05-2.67835E-05-5.11785E-08-5.68944E-20 2.54615E-18
 -1        79 9.01278E-05-2.70436E-05-2.70288E-05-4.20709E-08-1.21385E-20 2.63431E-18
 -1        80 9.09291E-05-2.72821E-05-2.72696E-05-3.41404E-08-7.63832E-20 1.92425E-18
 -1        81 9.16721E-05-2.75040E-05-2.74930E-05-2.71175E-08 1.95534E-19 8.62781E-19
 -1        82 9.23366E-05-2.77027E-05-2.76932E-05-2.08772E-08 4.02231E-20 4.77368E-19
 -1        83 9.29187E-05-2.78770E-05-2.78690E-05-1.53359E-08 1.12606E-21 1.12171E-19
 -1        84 9.34258E-05-2.80291E-05-2.80225E-05-1.04181E-08 5.07083E-20-9.99077E-20
 -1        85 9.38737E-05-2.81635E-05-2.81584E-05-6.04926E-09-6.36786E-20-6.53725E-20
 -1        86 9.42847E-05-2.82871E-05-2.82834E-05-2.16073E-09 1.14418E-19-1.16679E-18
 -1        87 9.46872E-05-2.84082E-05-2.84061E-05 1.29958E-09-2.60027E-19-1.27595E-18
 -1        88 9.51155E-05-2.85372E-05-2.85369E-05 4.34962E-09 8.10861E-20-1.39328E-18
 -1        89 9.56112E-05-2.86865E-05-2.86883E-05 6.94797E-09-7.13815E-20-1.96491E-18
 -1        90 9.62240E-05-2.88711E-05-2.88755E-05 8.95529E-09-1.35617E-19-1.15435E-19
 -1        91 9.70139E-05-2.91087E-05-2.91166E-05 1.00738E-08 3.47230E-21-3.38010E-19
 -1        92 9.80533E-05-2.94211E-05-2.94337E-05 9.75121E-09-2.18848E-19-2.91027E-19
 -1        93 9.94286E-05-2.98339E-05-2.98528E-05 7.03072E-09-3.76146E-20-3.92236E-19
 -1        94 1.01240E-04-3.03766E-05-3.04040E-05 3.33047E-10 1.28502E-19-2.72860E-18
 -1        95 1.03596E-04-3.10815E-05-3.11198E-05-1.28182E-08 1.53654E-19-2.82796E-18
 -1        96 1.06603E-04-3.19794E-05-3.20305E-05-3.60196E-08-7.73050E-20-1.66672E-18
 -1        97 1.10331E-04-3.30907E-05-3.31534E-05-7.37975E-08-8.70310E-20 2.30955E-19
 -1        98 1.14755E-04-3.44076E-05-3.44723E-05-1.30062E-07-1.91627E-20 1.03999E-18
 -1        99 1.19640E-04-3.58626E-05-3.59024E-05-2.03278E-07-2.63807E-19-4.55651E-19
 -1       100 1.24383E-04-3.72820E-05-3.72424E-05-2.75675E-07 3.48006E-19-9.92670E-19
 -1       101 1.27829E-04-3.83328E-05-3.81340E-05-2.96530E-07-3.22572E-19-1.32924E-18
 -1       102 1.28242E-04-3.85064E-05-3.80845E-05-1.73943E-07-2.94672E-19 1.43362E-18
 -1       103 1.23747E-04-3.72314E-05-3.66421E-05 1.85822E-07 1.16781E-20 4.35743E-18
 -1       104 1.13590E-04-3.42238E-05-3.37531E-05 7.47789E-07 2.86521E-19 5.49486E-18
 -1       105 9.99093E-05-3.00485E-05-3.01267E-05 1.19848E-06 4.44601E-19 3.38136E-18
 -1       106 8.82699E-05-2.63818E-05-2.71917E-05 1.07581E-06-5.78136E-19 4.20872E-18
 -1       107 8.48717E-05-2.52268E-05-2.63720E-05 2.82688E-07-1.64146E-19 4.28092E-18
 -1       108 9.16529E-05-2.72879E-05-2.80698E-05-6.47135E-07 6.62717E-19-5.07320E-19
 -1       109 1.04564E-04-3.13059E-05-3.13620E-05-1.09858E-06-3.30124E-19-7.02349E-19
 -1       110 1.17057E-04-3.51730E-05-3.47170E-05-9.57414E-07-2.56443E-20 1.92737E-18
 -1       111 1.24705E-04-3.75031E-05-3.69373E-05-5.42095E-07 3.74102E-19 3.74706E-19
 -1       112 1.26637E-04-3.80628E-05-3.76397E-05-1.58388E-07-7.68924E-19 5.51045E-19
 -1       113 1.24236E-04-3.73089E-05-3.70860E-05 7.79321E-08 1.27166E-19 1.02566E-18
 -1       114 1.19422E-04-3.58412E-05-3.57674E-05 1.83005E-07-5.73377E-19-1.44776E-19
 -1       115 1.13735E-04-3.41245E-05-3.41326E-05 2.10211E-07 6.65881E-19-2.04921E-18
 -1       116 1.08137E-04-3.24431E-05-3.24871E-05 2.03231E-07 8.01195E-20 3.50857E-19
 -1       117 1.03159E-04-3.09505E-05-3.10130E-05 1.86231E-07-3.71380E-19-3.55873E-19
 -1       118 9.91193E-05-2.97367E-05-2.98226E-05 1.65340E-07-6.28988E-21 1.44366E-19
 -1       119 9.63155E-05-2.88883E-05-2.90001E-05 1.15022E-07-1.42413E-19-3.31558E-18
 -1       120 9.50963E-05-2.84769E-05-2.85677E-05-3.55411E-08 1.34693E-18-4.25521E-18
 -1       121 9.52572E-05-2.86178E-05-2.85794E-05-8.10498E-08-3.21608E-18 7.44536E-19
 -1       122 9.48750E-05-2.73821E-05-2.90154E-05 7.49431E-08 1.52033E-18 1.87817E-19
 -1       123 9.40935E-05-2.47672E-05-2.97607E-05 1.52237E-07 4.33748E-18 7.44426E-19
 -1       124 9.31244E-05-2.15203E-05-3.06873E-05 1.69148E-07 3.39124E-18 1.37006E-18
 -1       125 9.21701E-05-1.83149E-05-3.16126E-05 1.47626E-07 4.08991E-18-1.46696E-18
 -1       126 9.14034E-05-1.57302E-05-3.23652E-05 1.06172E-07 2.95998E-20 2.45685E-19
 -1       127 9.09079E-05-1.40653E-05-3.28538E-05 4.97952E-08-3.47115E-18 3.08969E-20
 -1       128 9.07600E-05-1.35683E-05-3.30041E-05-8.98871E-09-7.27266E-18 6.07955E-19
 -1       129 9.09593E-05-1.42406E-05-3.28136E-05-6.06074E-08-6.21402E-18 8.30824E-19
 -1       130 9.14556E-05-1.59115E-05-3.23301E-05-9.81319E-08-3.01335E-18 1.61837E-19
 -1       131 9.21618E-05-1.82886E-05-3.16373E-05-1.19337E-07-2.07777E-18-9.76795E-19
 -1       132 9.29619E-05-2.09807E-05-3.08499E-05-1.22925E-07-4.30540E-18 2.09492E-18
 -1       133 9.37794E-05-2.37251E-05-3.00475E-05-1.12833E-07-4.95362E-18 3.96955E-19
 -1       134 9.44985E-05-2.61441E-05-2.93460E-05-9.35443E-08-4.32916E-18 7.01720E-19
 -1       135 9.50217E-05-2.78695E-05-2.88361E-05-4.88833E-08-3.78897E-18-3.52383E-20
 -1       136 9.52134E-05-2.85947E-05-2.85590E-05 1.28410E-07-3.17449E-18-8.27088E-20
 -1       137 2.71013E-05-9.15179E-05 1.63220E-05-2.43782E-05-1.54118E-18 3.29231E-19
 -1       138 8.54210E-06-3.99609E-05 4.81368E-06-2.17062E-05 8.80914E-18 4.69087E-18
 -1       139 1.16832E-05 1.12159E-05-1.40988E-05 2.05272E-05 1.32925E-17 9.60832E-18
 -1       140 5.50238E-05 2.69337E-05-3.43389E-05 7.50979E-05 7.69995E-18 7.85665E-18
 -1       141 1.41055E-04-2.95001E-07-5.43022E-05 1.12823E-04 1.82620E-18 2.23786E-18
 -1       142 2.46302E-04-5.51893E-05-7.11432E-05 1.00315E-04-8.97749E-19-9.88487E-19
 -1       143 3.10799E-04-9.37238E-05-7.97028E-05 3.44033E-05 8.45021E-19-5.45415E-18
 -1       144 2.99598E-04-8.66799E-05-7.83368E-05-5.27326E-05 1.15911E-18-9.02387E-18
 -1       145 2.17234E-04-3.97031E-05-6.66271E-05-1.06744E-04 4.63168E-18-9.96746E-18
 -1       146 1.14644E-04 9.69998E-06-4.88465E-05-1.04438E-04 6.34936E-18-1.02720E-17
 -1       147 3.74021E-05 2.65211E-05-2.82649E-05-5.88628E-05 6.97235E-18-7.11169E-18
 -1       148 6.61631E-06-1.62086E-08-8.47502E-06-5.73020E-06 9.34235E-18-5.46866E-18
 -1       149 1.23162E-05-5.37554E-05 8.34357E-06 2.61988E-05 5.96608E-18-2.97616E-18
 -1       150 3.05946E-05-9.91373E-05 1.78952E-05 2.04990E-05 3.35340E-18-2.31240E-19
 -1       151 3.57540E-05-1.09986E-04 2.00110E-05-5.20384E-06 1.99582E-18 2.68483E-19
 -1       152 2.23109E-05-7.82730E-05 1.37137E-05-2.45977E-05-6.82137E-18-2.15194E-18
 -1       153 6.47044E-06-2.39304E-05 4.08894E-07-1.20665E-05-9.62441E-18-3.96454E-18
 -1       154 1.82328E-05 2.00236E-05-1.89462E-05 3.54248E-05-8.72698E-18-7.05113E-18
 -1       155 7.42688E-05 2.46317E-05-3.99106E-05 8.92956E-05-8.34412E-18-1.10601E-17
 -1       156 1.65113E-04-1.28740E-05-5.81318E-05 1.12066E-04-6.07704E-18-1.00763E-17
 -1       157 2.58425E-04-6.42199E-05-7.24948E-05 8.44067E-05-2.06321E-18-6.54693E-18
 -1       158 3.06543E-04-9.40952E-05-7.86707E-05 1.20078E-05 7.37183E-20-1.47775E-18
 -1       159 2.82474E-04-7.89928E-05-7.56410E-05-6.69391E-05-9.46837E-19 4.05750E-18
 -1       160 1.95445E-04-2.78910E-05-6.34031E-05-1.11209E-04-1.74838E-18 4.00223E-18
 -1       161 3.04582E-05 2.75430E-05-2.57906E-05-5.34673E-05-2.40219E-18 5.56924E-19
 -1       162 5.98573E-06 1.55544E-06-8.31558E-06-6.25193E-06-1.32264E-18 1.36372E-19
 -1       163 1.07748E-05-4.53806E-05 6.35544E-06 2.31365E-05 1.96427E-18 9.76417E-19
 -1       164 2.86973E-05-9.41736E-05 1.68231E-05 2.18636E-05 1.49501E-19-6.19340E-19
 -1       165 9.48537E-05-1.23427E-05-3.55647E-05-2.23561E-05-1.68709E-18 1.21745E-18
 -1       166 8.92403E-05-8.45432E-06-3.47843E-05-1.73997E-05-1.66989E-18-6.37339E-19
 -1       167 8.65460E-05-6.50530E-06-3.44149E-05-1.35923E-05-1.36029E-18-1.76299E-18
 -1       168 8.51934E-05-5.51561E-06-3.42316E-05-1.03807E-05-1.02588E-18-2.39681E-18
 -1       169 8.44567E-05-4.94833E-06-3.41439E-05-7.55380E-06-7.18573E-19-2.73441E-18
 -1       170 8.40328E-05-4.60321E-06-3.41029E-05-4.90811E-06-4.88670E-19-2.91041E-18
 -1       171 8.38168E-05-4.41921E-06-3.40856E-05-2.39756E-06-1.70356E-19-2.92496E-18
 -1       172 8.37532E-05-4.36364E-06-3.40812E-05 5.12110E-08 9.29531E-20-3.00938E-18
 -1       173 8.38267E-05-4.42770E-06-3.40864E-05 2.50211E-06 2.99941E-19-3.07960E-18
 -1       174 8.40545E-05-4.62237E-06-3.41043E-05 5.01943E-06 5.43162E-19-3.01867E-18
 -1       175 8.44835E-05-4.97460E-06-3.41449E-05 7.63066E-06 7.99363E-19-2.81801E-18
 -1       176 8.52543E-05-5.57584E-06-3.42328E-05 1.05212E-05 1.17468E-18-2.43660E-18
 -1       177 8.66444E-05-6.60847E-06-3.44173E-05 1.37926E-05 1.50495E-18-1.86194E-18
 -1       178 8.93832E-05-8.59822E-06-3.47892E-05 1.76317E-05 1.67652E-18-6.76290E-19
 -1       179 9.57655E-05-1.36099E-05-3.54211E-05 2.19011E-05 1.72332E-18 1.45496E-18
 -1       180 1.05588E-04-2.60964E-05-3.52580E-05 1.86684E-05 1.28747E-18 4.34930E-18
 -1       181 1.03381E-04-2.72962E-05-3.26054E-05-1.21327E-05-1.44157E-18 3.32265E-18
 -1       182 9.70882E-05-2.82839E-05-2.95229E-05-4.73683E-06-1.29338E-18 2.59582E-18
 -1       183 9.34835E-05-2.76294E-05-2.81752E-05-1.77472E-06-9.19805E-19 1.90905E-18
 -1       184 9.19451E-05-2.73979E-05-2.76277E-05-4.27074E-07-5.36496E-19 1.29422E-18
 -1       185 9.13653E-05-2.73216E-05-2.74291E-05 2.36442E-07-2.63078E-19 1.20772E-18
 -1       186 9.13200E-05-2.73592E-05-2.74032E-05 5.62400E-07-4.65162E-19 1.22906E-18
 -1       187 9.15613E-05-2.74609E-05-2.74676E-05 7.02239E-07-2.22739E-19 7.96553E-19
 -1       188 9.19448E-05-2.75927E-05-2.75777E-05 7.35601E-07-4.44439E-19 7.22618E-19
 -1       189 9.23852E-05-2.77334E-05-2.77072E-05 7.09258E-07-4.14704E-19 8.36039E-19
 -1       190 9.28333E-05-2.78711E-05-2.78409E-05 6.52801E-07-2.07542E-19 1.05451E-18
 -1       191 9.32630E-05-2.79996E-05-2.79702E-05 5.85905E-07-6.75467E-20-9.91606E-20
 -1       192 9.36639E-05-2.81168E-05-2.80919E-05 5.22146E-07-4.59902E-19-5.66084E-19
 -1       193 9.40368E-05-2.82237E-05-2.82058E-05 4.71261E-07 7.34722E-20-3.59669E-20
 -1       194 9.43905E-05-2.83234E-05-2.83144E-05 4.40597E-07 2.42650E-19-4.27316E-19
 -1       195 9.47397E-05-2.84203E-05-2.84223E-05 4.36074E-07-3.79632E-19-2.66050E-19
 -1       196 9.51041E-05-2.85206E-05-2.85351E-05 4.62788E-07-1.93060E-19 6.63910E-20
 -1       197 9.55074E-05-2.86315E-05-2.86600E-05 5.25275E-07-1.16741E-19-3.15052E-20
 -1       198 9.59762E-05-2.87611E-05-2.88050E-05 6.27395E-07-1.32644E-19-2.22114E-19
 -1       199 9.65398E-05-2.89185E-05-2.89787E-05 7.71749E-07-2.81631E-19-4.52525E-19
 -1       200 9.72276E-05-2.91134E-05-2.91896E-05 9.58443E-07-6.49869E-19-4.42048E-19
 -1       201 9.80671E-05-2.93557E-05-2.94455E-05 1.18301E-06 1.94871E-20-5.89805E-19
 -1       202 9.90790E-05-2.96540E-05-2.97515E-05 1.43321E-06-8.28736E-20-1.21939E-18
 -1       203 1.00271E-04-3.00146E-05-3.01084E-05 1.68452E-06-4.62868E-20-9.06026E-19
 -1       204 1.01626E-04-3.04387E-05-3.05089E-05 1.89442E-06 6.90338E-19-2.86157E-19
 -1       205 1.03093E-04-3.09181E-05-3.09343E-05 1.99654E-06 4.65829E-19 2.31644E-19
 -1       206 1.04569E-04-3.14301E-05-3.13497E-05 1.89728E-06-8.90746E-19 1.61627E-19
 -1       207 1.05882E-04-3.19289E-05-3.17018E-05 1.48112E-06-7.22656E-19-5.31621E-19
 -1       208 1.06793E-04-3.23376E-05-3.19194E-05 6.34207E-07-8.71749E-20-4.10004E-19
 -1       209 1.07003E-04-3.25416E-05-3.19230E-05-7.01669E-07 8.18796E-19-6.30050E-19
 -1       210 1.06218E-04-3.23962E-05-3.16468E-05-2.44119E-06-1.15147E-18-6.42473E-19
 -1       211 1.04254E-04-3.17651E-05-3.10710E-05-4.25944E-06-4.42863E-19-1.21995E-18
 -1       212 1.01210E-04-3.06072E-05-3.02563E-05-5.56668E-06-4.03830E-19-1.60726E-18
 -1       213 9.76079E-05-2.90905E-05-2.93571E-05-5.66876E-06 5.84347E-19-1.60708E-18
 -1       214 9.43820E-05-2.76403E-05-2.85936E-05-4.14316E-06 1.35523E-18-1.44772E-18
 -1       215 9.25770E-05-2.68069E-05-2.81763E-05-1.24177E-06-6.45873E-19-9.19462E-19
 -1       216 9.28299E-05-2.69507E-05-2.82232E-05 2.05796E-06-3.45427E-19-8.80928E-19
 -1       217 9.49910E-05-2.79872E-05-2.87066E-05 4.54591E-06 3.28831E-19-1.48301E-18
 -1       218 9.82133E-05-2.94508E-05-2.94644E-05 5.46184E-06-1.47969E-20 4.29214E-19
 -1       219 1.01423E-04-3.07990E-05-3.02684E-05 4.81491E-06 2.75818E-19-1.16805E-18
 -1       220 1.03797E-04-3.16853E-05-3.09120E-05 3.17741E-06-1.76502E-18-1.37988E-18
 -1       221 1.04964E-04-3.20233E-05-3.12706E-05 1.24920E-06-1.79192E-18-2.17238E-18
 -1       222 1.04942E-04-3.18984E-05-3.13154E-05-4.53158E-07 1.54251E-18-1.85264E-18
 -1       223 1.03982E-04-3.14586E-05-3.10903E-05-1.67780E-06 1.04548E-18-8.94759E-19
 -1       224 1.02417E-04-3.08454E-05-3.06786E-05-2.37375E-06 2.11716E-18-7.29388E-19
 -1       225 1.00573E-04-3.01696E-05-3.01745E-05-2.58835E-06 1.47781E-18-1.23243E-18
 -1       226 9.87363E-05-2.95106E-05-2.96668E-05-2.38766E-06 1.45238E-18-1.41929E-18
 -1       227 9.71362E-05-2.89252E-05-2.92303E-05-1.82078E-06 1.40743E-18 9.76648E-19
 -1       228 9.59116E-05-2.84644E-05-2.89030E-05-9.51678E-07-1.16966E-18 1.30387E-18
 -1       229 9.94820E-05-2.85487E-05-3.05816E-05 7.21624E-06 1.35464E-18 3.70528E-18
 -1       230 9.43942E-05-2.77841E-05-2.85178E-05 2.74867E-06 1.08823E-18 2.76002E-18
 -1       231 9.20704E-05-2.73933E-05-2.76737E-05 9.34942E-07 5.77653E-19 2.00919E-18
 -1       232 9.11179E-05-2.72295E-05-2.73537E-05 7.31705E-08 5.11854E-19 1.51920E-18
 -1       233 9.09023E-05-2.72212E-05-2.72783E-05-3.54514E-07 4.55960E-19 1.02680E-18
 -1       234 9.10824E-05-2.73060E-05-2.73260E-05-5.55515E-07-4.12517E-20 7.14665E-19
 -1       235 9.14637E-05-2.74381E-05-2.74359E-05-6.29579E-07 3.08151E-19 4.24732E-19
 -1       236 9.19325E-05-2.75888E-05-2.75739E-05-6.31217E-07 2.86312E-19 8.37450E-20
 -1       237 9.24228E-05-2.77407E-05-2.77198E-05-5.93424E-07 3.55768E-19 1.14270E-19
 -1       238 9.28977E-05-2.78847E-05-2.78621E-05-5.37508E-07 1.72613E-19 3.49503E-19
 -1       239 9.33403E-05-2.80166E-05-2.79956E-05-4.77866E-07 2.25481E-19 5.86702E-20
 -1       240 9.37470E-05-2.81359E-05-2.81188E-05-4.24637E-07 1.68025E-19 2.88228E-20
 -1       241 9.41238E-05-2.82450E-05-2.82336E-05-3.85385E-07 2.46846E-19-4.93734E-19
 -1       242 9.44844E-05-2.83481E-05-2.83439E-05-3.66262E-07 3.89618E-19-5.10988E-19
 -1       243 9.48488E-05-2.84510E-05-2.84557E-05-3.72895E-07 5.97580E-20-5.33845E-19
 -1       244 9.52426E-05-2.85616E-05-2.85769E-05-4.11078E-07 1.82261E-19-1.36306E-18
 -1       245 9.56977E-05-2.86889E-05-2.87170E-05-4.87341E-07 4.49304E-21-9.70192E-19
 -1       246 9.62522E-05-2.88441E-05-2.88878E-05-6.09385E-07-6.39903E-19-8.46803E-19
 -1       247 9.69519E-05-2.90406E-05-2.91031E-05-7.86320E-07 1.42117E-19-2.39843E-19
 -1       248 9.78505E-05-2.92940E-05-2.93793E-05-1.02858E-06-2.21958E-19-3.40171E-19
 -1       249 9.90097E-05-2.96228E-05-2.97350E-05-1.34717E-06 3.10346E-19-7.85922E-19
 -1       250 1.00498E-04-3.00480E-05-3.01908E-05-1.75155E-06 7.95196E-19-1.69262E-18
 -1       251 1.02387E-04-3.05927E-05-3.07673E-05-2.24498E-06-1.35227E-19-1.91523E-18
 -1       252 1.04738E-04-3.12803E-05-3.14817E-05-2.81529E-06-1.18230E-18-8.66220E-19
 -1       253 1.07586E-04-3.21309E-05-3.23399E-05-3.41787E-06-9.24304E-19 6.12693E-19
 -1       254 1.10898E-04-3.31536E-05-3.33241E-05-3.94785E-06 1.54389E-19 1.23417E-18
 -1       255 1.14518E-04-3.43326E-05-3.43729E-05-4.20138E-06 9.20186E-19 1.29350E-18
 -1       256 1.18089E-04-3.56000E-05-3.53586E-05-3.84030E-06-3.19480E-19 5.00812E-19
 -1       257 1.20967E-04-3.67896E-05-3.60730E-05-2.40958E-06-2.44223E-19 1.06500E-18
 -1       258 1.22213E-04-3.75699E-05-3.62541E-05 4.86086E-07-1.27680E-18 4.69302E-19
 -1       259 1.20779E-04-3.74114E-05-3.56917E-05 4.71885E-06-1.26790E-18 2.19506E-18
 -1       260 1.16082E-04-3.57481E-05-3.44052E-05 8.98772E-06 8.46834E-20 2.67223E-18
 -1       261 1.08961E-04-3.25718E-05-3.27708E-05 1.06643E-05 1.15531E-18 2.54359E-18
 -1       262 1.02300E-04-2.91746E-05-3.14418E-05 7.38332E-06-5.27609E-19 1.80017E-18
 -1       263 9.98567E-05-2.77896E-05-3.10152E-05-1.11115E-07 2.76014E-19 5.56114E-19
 -1       264 1.03174E-04-2.94792E-05-3.16614E-05-7.42051E-06 1.76917E-18 1.66018E-19
 -1       265 1.10043E-04-3.29320E-05-3.30426E-05-1.03603E-05-4.15167E-19-8.93183E-19
 -1       266 1.16590E-04-3.58980E-05-3.45374E-05-8.41983E-06-3.62136E-19-2.36894E-18
 -1       267 1.20279E-04-3.72435E-05-3.55516E-05-4.06375E-06 5.22050E-19-2.01253E-19
 -1       268 1.20653E-04-3.70949E-05-3.58007E-05 1.63852E-07-1.03394E-18-1.08288E-19
 -1       269 1.18491E-04-3.60578E-05-3.53368E-05 3.04171E-06 5.98389E-19-5.68048E-19
 -1       270 1.14866E-04-3.46555E-05-3.43887E-05 4.48109E-06-1.20998E-19-4.60376E-19
 -1       271 1.10670E-04-3.31998E-05-3.32111E-05 4.86629E-06 1.26925E-18 1.29123E-19
 -1       272 1.06508E-04-3.18443E-05-3.20030E-05 4.61269E-06-5.80021E-19-1.31056E-18
 -1       273 1.02749E-04-3.06562E-05-3.08975E-05 3.99911E-06-5.11719E-19 4.14575E-19
 -1       274 9.96178E-05-2.96647E-05-2.99810E-05 3.14996E-06 9.19014E-20 2.12589E-18
 -1       275 9.72683E-05-2.88838E-05-2.93083E-05 2.06712E-06 2.16610E-18 1.99761E-18
 -1       276 9.57727E-05-2.84041E-05-2.88656E-05 7.85816E-07 3.00387E-19 1.00682E-18
 -1       277 9.53439E-05-2.74588E-05-2.90878E-05 1.54899E-06 2.68645E-18 4.35519E-18
 -1       278 9.46533E-05-2.57079E-05-2.95462E-05 2.69576E-06 7.41649E-19-2.89289E-19
 -1       279 9.37924E-05-2.35127E-05-3.01197E-05 3.26783E-06-1.00706E-18 2.81767E-19
 -1       280 9.29345E-05-2.12206E-05-3.07368E-05 3.20925E-06-1.08461E-18 1.79111E-18
 -1       281 9.22033E-05-1.92126E-05-3.12875E-05 2.63127E-06-1.33389E-18-2.77752E-18
 -1       282 9.16723E-05-1.77170E-05-3.17033E-05 1.66227E-06-1.91470E-18-3.16787E-18
 -1       283 9.14236E-05-1.69781E-05-3.19147E-05 4.91767E-07-1.83645E-18-1.47773E-18
 -1       284 9.14766E-05-1.70672E-05-3.18991E-05-6.83160E-07-1.10999E-18 6.44155E-19
 -1       285 9.18026E-05-1.79266E-05-3.16690E-05-1.68874E-06-1.24783E-18 5.20751E-19
 -1       286 9.23352E-05-1.93929E-05-3.12664E-05-2.40329E-06-2.34665E-18 1.15851E-18
 -1       287 9.29766E-05-2.12054E-05-3.07614E-05-2.76558E-06-6.13847E-19-7.30913E-19
 -1       288 9.36667E-05-2.31861E-05-3.02054E-05-2.78160E-06-1.10069E-18 8.67772E-20
 -1       289 9.43218E-05-2.50723E-05-2.96757E-05-2.46387E-06-1.76080E-19 1.61147E-18
 -1       290 9.48987E-05-2.66716E-05-2.92351E-05-1.82027E-06-1.61535E-18-6.21637E-19
 -1       291 9.54306E-05-2.76549E-05-2.90402E-05-1.54938E-06-1.02102E-18-5.35758E-19
 -1       292 1.18646E-05-4.57916E-05 1.15626E-05 6.84476E-06 1.07970E-18 1.38808E-18
 -1       293 2.55404E-05-4.51737E-05 5.45778E-06 1.94349E-05 8.00023E-19 5.71117E-18
 -1       294 5.76501E-05-4.14678E-05-8.47738E-06 3.65116E-05 1.13227E-18 3.90165E-18
 -1       295 9.02490E-05-3.35263E-05-2.48980E-05 4.30092E-05 5.01316E-18 3.00697E-19
 -1       296 1.33618E-04-3.22510E-05-4.24364E-05 4.64018E-05 4.17587E-18-4.84715E-19
 -1       297 1.77303E-04-3.45047E-05-5.86021E-05 3.94880E-05 2.30482E-18-2.32341E-18
 -1       298 2.04635E-04-3.56310E-05-6.91127E-05 1.92019E-05 1.09606E-18-4.90411E-18
 -1       299 2.04311E-04-3.10626E-05-7.13172E-05-1.19176E-06 1.40840E-18-4.48564E-18
 -1       300 1.90301E-04-3.25226E-05-6.53958E-05-1.57460E-05 2.78314E-18-4.07825E-18
 -1       301 1.65138E-04-3.50344E-05-5.38845E-05-3.83203E-05 3.09463E-18-5.57432E-18
 -1       302 1.20860E-04-3.23576E-05-3.74295E-05-4.56917E-05 2.49621E-18-5.54743E-18
 -1       303 7.81929E-05-3.42680E-05-1.98418E-05-4.01800E-05 4.03526E-18-2.34332E-18
 -1       304 4.64087E-05-4.08559E-05-4.34158E-06-3.16617E-05 2.87377E-18-3.71239E-18
 -1       305 2.09433E-05-4.61451E-05 7.68650E-06-1.52862E-05 3.11666E-18-3.30195E-18
 -1       306 1.04283E-05-4.52888E-05 1.19948E-05-2.83205E-06 1.52029E-18-1.83287E-18
 -1       307 1.42016E-05-4.62074E-05 1.06687E-05 1.17694E-05-5.05467E-19-3.37469E-18
 -1       308 3.07082E-05-4.12061E-05 2.15120E-06 2.60920E-05-9.52912E-19-2.19937E-18
 -1       309 6.72645E-05-4.01916E-05-1.25433E-05 4.10269E-05-2.50574E-18-3.29533E-18
 -1       310 9.96426E-05-3.13054E-05-2.93559E-05 4.53648E-05-3.75257E-18-6.37371E-18
 -1       311 1.40680E-04-2.88735E-05-4.65033E-05 4.76112E-05-5.22852E-18-5.71599E-18
 -1       312 1.74289E-04-3.16555E-05-5.93997E-05 2.59375E-05-4.97732E-18-5.51800E-18
 -1       313 1.92039E-04-2.81280E-05-6.79882E-05 9.81440E-06-3.82361E-18-4.97865E-18
 -1       314 2.09564E-04-3.57312E-05-7.10431E-05-9.30781E-06-2.03680E-18-2.36237E-18
 -1       315 1.86400E-04-3.18830E-05-6.37521E-05-2.61420E-05-2.30816E-20-1.02491E-19
 -1       316 1.53655E-04-3.49771E-05-4.96881E-05-3.42638E-05-5.68677E-19 4.61633E-19
 -1       317 1.10091E-04-2.94243E-05-3.42090E-05-4.78898E-05-2.60463E-20 1.76183E-18
 -1       318 7.37092E-05-3.24227E-05-1.86095E-05-4.17839E-05 1.19855E-18-8.43115E-19
 -1       319 4.42082E-05-3.81935E-05-4.67271E-06-3.17320E-05 1.28982E-18-5.68306E-20
 -1       320 2.40926E-05-4.60501E-05 6.05456E-06-1.70726E-05-9.30889E-19-9.06987E-19
 -1       321 1.24325E-05-4.79138E-05 1.20207E-05-7.93183E-06 9.76258E-19-4.85138E-19
 -1       322 9.16433E-05-1.43947E-05-3.31699E-05-1.30711E-05-1.70325E-18-6.46703E-19
 -1       323 9.56950E-05-1.91062E-05-3.28870E-05-1.46387E-05-1.89501E-18 4.14245E-19
 -1       324 8.80142E-05-1.03805E-05-3.33250E-05-8.15872E-06-1.04586E-18-1.89487E-18
 -1       325 8.72021E-05-9.45878E-06-3.33666E-05-5.72270E-06-7.65508E-19-2.20672E-18
 -1       326 8.67463E-05-8.93059E-06-3.33945E-05-3.37042E-06-3.69017E-19-2.25136E-18
 -1       327 8.65432E-05-8.69143E-06-3.34085E-05-1.07373E-06-6.37048E-21-2.32770E-18
 -1       328 8.65518E-05-8.70100E-06-3.34082E-05 1.20464E-06 2.50953E-19-2.41349E-18
 -1       329 8.67738E-05-8.96141E-06-3.33933E-05 3.50355E-06 5.10376E-19-2.41639E-18
 -1       330 8.72421E-05-9.50432E-06-3.33649E-05 5.82060E-06 8.30140E-19-2.27416E-18
 -1       331 8.80758E-05-1.04540E-05-3.33219E-05 8.26168E-06 1.27687E-18-1.88368E-18
 -1       332 8.94840E-05-1.20348E-05-3.32591E-05 1.07719E-05 1.58422E-18-1.57466E-18
 -1       333 9.18966E-05-1.47212E-05-3.31563E-05 1.31777E-05 1.90943E-18-8.41415E-19
 -1       334 9.57927E-05-1.94539E-05-3.28244E-05 1.43839E-05 1.92609E-18 4.43627E-19
 -1       335 9.87758E-05-2.44396E-05-3.19465E-05 1.19051E-05 1.75967E-18 1.70220E-18
 -1       336 9.63728E-05-2.68073E-05-2.97843E-05 5.74871E-06 1.36558E-18 1.29753E-18
 -1       337 2.39548E-05-3.06209E-05 2.39574E-06-2.80136E-05 1.14551E-18 6.82391E-19
 -1       338 9.64215E-05-2.60238E-05-3.01267E-05-6.35736E-06-1.41820E-18 5.23064E-19
 -1       339 9.49030E-05-2.70246E-05-2.90653E-05-2.84210E-06-1.02460E-18 3.69629E-19
 -1       340 9.39245E-05-2.74208E-05-2.84870E-05-9.31812E-07-5.02219E-19 2.94894E-19
 -1       341 9.34033E-05-2.76319E-05-2.81811E-05 1.28758E-07-3.02428E-19 7.76408E-20
 -1       342 9.32109E-05-2.77839E-05-2.80373E-05 6.95539E-07-5.47517E-19 2.53252E-20
 -1       343 9.32290E-05-2.79122E-05-2.79920E-05 9.67605E-07-2.63830E-19-1.07468E-19
 -1       344 9.33721E-05-2.80254E-05-2.80056E-05 1.06349E-06-2.50812E-19 6.70137E-20
 -1       345 9.35823E-05-2.81252E-05-2.80533E-05 1.05769E-06-2.84973E-19 2.86284E-20
 -1       346 9.38229E-05-2.82117E-05-2.81196E-05 9.99320E-07-6.50358E-19-3.35786E-19
 -1       347 9.40729E-05-2.82853E-05-2.81952E-05 9.21987E-07-4.36241E-19-3.29211E-19
 -1       348 9.43224E-05-2.83477E-05-2.82753E-05 8.49392E-07-2.14948E-19-1.10111E-19
 -1       349 9.45699E-05-2.84010E-05-2.83583E-05 7.98860E-07 4.84875E-20 2.07180E-19
 -1       350 9.48200E-05-2.84484E-05-2.84450E-05 7.83650E-07 1.03849E-19 2.56704E-20
 -1       351 9.50822E-05-2.84936E-05-2.85376E-05 8.14451E-07-4.99031E-20-3.93252E-20
 -1       352 9.53695E-05-2.85414E-05-2.86399E-05 9.00227E-07-6.72302E-20 1.66882E-19
 -1       353 9.56981E-05-2.85974E-05-2.87564E-05 1.04844E-06-1.18404E-19 5.33801E-20
 -1       354 9.60866E-05-2.86685E-05-2.88920E-05 1.26452E-06-3.09362E-19 1.91944E-19
 -1       355 9.65549E-05-2.87634E-05-2.90517E-05 1.55053E-06-5.74218E-19-2.06526E-19
 -1       356 9.71239E-05-2.88933E-05-2.92396E-05 1.90258E-06-5.40196E-19 4.19895E-19
 -1       357 9.78134E-05-2.90722E-05-2.94583E-05 2.30693E-06-2.76908E-19-1.98260E-19
 -1       358 9.86400E-05-2.93180E-05-2.97074E-05 2.73429E-06 1.25145E-19-2.95341E-19
 -1       359 9.96145E-05-2.96526E-05-2.99823E-05 3.13251E-06 5.77410E-19-1.33014E-19
 -1       360 1.00737E-04-3.01009E-05-3.02725E-05 3.41820E-06 8.62234E-19-9.09067E-19
 -1       361 1.01988E-04-3.06861E-05-3.05604E-05 3.46979E-06 2.61292E-19-4.51633E-19
 -1       362 1.03324E-04-3.14187E-05-3.08217E-05 3.12748E-06-5.70736E-19 3.53981E-19
 -1       363 1.04651E-04-3.22724E-05-3.10284E-05 2.21049E-06-3.89106E-19 1.14076E-18
 -1       364 1.05812E-04-3.31470E-05-3.11545E-05 5.67345E-07 9.63062E-20 7.86118E-19
 -1       365 1.06562E-04-3.38236E-05-3.11869E-05-1.82424E-06-1.87361E-19-5.29049E-19
 -1       366 1.06575E-04-3.39511E-05-3.11357E-05-4.70805E-06-8.39629E-19 7.38979E-19
 -1       367 1.05545E-04-3.31370E-05-3.10368E-05-7.40825E-06-1.86024E-19 2.07135E-18
 -1       368 1.03421E-04-3.12190E-05-3.09398E-05-8.85430E-06-2.45663E-19 2.19281E-18
 -1       369 1.00684E-04-2.86082E-05-3.08778E-05-7.98375E-06-2.52679E-20 1.50320E-19
 -1       370 9.83879E-05-2.63702E-05-3.08498E-05-4.47531E-06 4.78014E-19-3.57588E-19
 -1       371 9.76589E-05-2.56990E-05-3.08236E-05 6.61607E-07-2.08433E-19 1.44713E-18
 -1       372 9.88504E-05-2.69756E-05-3.07882E-05 5.41422E-06 3.07870E-19 2.16969E-18
 -1       373 1.01263E-04-2.94559E-05-3.07654E-05 8.01543E-06 1.20316E-18 2.49234E-18
 -1       374 1.03698E-04-3.18886E-05-3.07757E-05 7.92011E-06-3.75375E-19 1.19248E-18
 -1       375 1.05255E-04-3.33902E-05-3.08076E-05 5.79970E-06-4.10818E-19 3.54288E-19
 -1       376 1.05656E-04-3.37767E-05-3.08187E-05 2.80837E-06-2.36898E-18 9.19511E-19
 -1       377 1.05076E-04-3.33274E-05-3.07634E-05-8.26445E-08-7.34369E-19 1.57377E-18
 -1       378 1.03848E-04-3.24345E-05-3.06174E-05-2.32733E-06 1.38722E-18-2.25928E-19
 -1       379 1.02286E-04-3.14017E-05-3.03862E-05-3.74936E-06 1.68272E-18 1.75511E-18
 -1       380 1.00617E-04-3.03960E-05-3.00977E-05-4.38485E-06 1.19120E-18 3.60578E-19
 -1       381 9.89934E-05-2.94791E-05-2.97908E-05-4.34493E-06-3.21973E-19 6.11237E-19
 -1       382 9.75146E-05-2.86599E-05-2.95045E-05-3.74240E-06 1.19858E-18-1.13351E-18
 -1       383 9.63899E-05-2.80815E-05-2.92680E-05-2.76182E-06 8.50138E-19-8.16140E-19
 -1       384 9.43504E-05-2.73354E-05-2.86825E-05 2.47678E-06 9.98126E-19 1.03222E-18
 -1       385 9.31413E-05-2.74544E-05-2.81297E-05 7.52067E-07 8.72786E-19 5.94725E-19
 -1       386 9.25848E-05-2.75310E-05-2.78703E-05-1.69012E-07 6.58261E-19 1.38235E-19
 -1       387 9.24410E-05-2.76225E-05-2.77752E-05-6.45538E-07 3.40570E-19-1.49628E-19
 -1       388 9.25427E-05-2.77307E-05-2.77750E-05-8.65856E-07 3.91777E-19-6.07712E-19
 -1       389 9.27798E-05-2.78462E-05-2.78283E-05-9.35732E-07 4.34383E-19-1.68199E-19
 -1       390 9.30821E-05-2.79601E-05-2.79096E-05-9.19707E-07 4.40979E-19-2.05319E-19
 -1       391 9.34070E-05-2.80667E-05-2.80034E-05-8.59502E-07 8.92064E-20-1.93006E-19
 -1       392 9.37312E-05-2.81635E-05-2.81010E-05-7.83310E-07 5.14543E-19-2.72125E-19
 -1       393 9.40445E-05-2.82500E-05-2.81981E-05-7.10962E-07 3.14555E-19-3.39515E-19
 -1       394 9.43466E-05-2.83278E-05-2.82940E-05-6.57129E-07 7.89851E-19-7.61469E-19
 -1       395 9.46448E-05-2.83999E-05-2.83907E-05-6.33494E-07 2.68297E-19-7.78383E-19
 -1       396 9.49520E-05-2.84703E-05-2.84918E-05-6.50346E-07 2.77105E-19-6.65672E-19
 -1       397 9.52866E-05-2.85442E-05-2.86031E-05-7.17803E-07 3.37007E-19-5.12832E-19
 -1       398 9.56716E-05-2.86278E-05-2.87317E-05-8.46744E-07 1.34177E-19-7.46817E-19
 -1       399 9.61351E-05-2.87286E-05-2.88865E-05-1.04949E-06-2.16935E-19-3.93152E-19
 -1       400 9.67101E-05-2.88555E-05-2.90778E-05-1.34009E-06-4.14228E-19-6.01002E-19
 -1       401 9.74350E-05-2.90190E-05-2.93175E-05-1.73408E-06 3.73776E-19-3.46225E-19
 -1       402 9.83528E-05-2.92322E-05-2.96186E-05-2.24712E-06 2.90326E-19-1.39432E-18
 -1       403 9.95108E-05-2.95115E-05-2.99944E-05-2.89169E-06 1.50799E-18-1.10676E-18
 -1       404 1.00958E-04-2.98785E-05-3.04566E-05-3.67011E-06-3.31398E-19-1.59177E-18
 -1       405 1.02740E-04-3.03629E-05-3.10129E-05-4.56143E-06-1.55520E-18-1.14466E-18
 -1       406 1.04893E-04-3.10074E-05-3.16611E-05-5.49843E-06-1.52278E-18-1.14970E-18
 -1       407 1.07433E-04-3.18725E-05-3.23825E-05-6.33125E-06-4.53289E-19-5.20385E-19
 -1       408 1.10334E-04-3.30383E-05-3.31324E-05-6.77839E-06 6.63798E-19 1.67428E-18
 -1       409 1.13499E-04-3.45836E-05-3.38350E-05-6.38115E-06 9.55278E-20 1.89162E-18
 -1       410 1.16695E-04-3.65049E-05-3.43902E-05-4.51857E-06 1.13135E-19 2.12773E-18
 -1       411 1.19439E-04-3.85211E-05-3.47060E-05-6.05833E-07-5.03396E-19 2.03217E-18
 -1       412 1.20851E-04-3.97815E-05-3.47687E-05 5.33718E-06-1.85223E-18 9.12536E-19
 -1       413 1.19804E-04-3.88801E-05-3.47114E-05 1.17582E-05 3.27163E-19 3.25658E-19
 -1       414 1.15643E-04-3.47032E-05-3.47376E-05 1.50579E-05 4.89473E-19 6.18546E-19
 -1       415 1.10101E-04-2.88178E-05-3.48959E-05 1.13695E-05 2.25648E-19 1.47991E-18
 -1       416 1.07177E-04-2.56210E-05-3.50255E-05 9.18121E-07 7.01198E-19 1.42800E-18
 -1       417 1.09515E-04-2.81675E-05-3.49315E-05-9.96112E-06 1.78294E-18 1.31596E-18
 -1       418 1.14866E-04-3.39773E-05-3.46963E-05-1.45720E-05 7.14886E-19-4.33648E-19
 -1       419 1.19042E-04-3.84356E-05-3.45640E-05-1.17927E-05-6.85137E-20-1.43753E-18
 -1       420 1.20067E-04-3.96231E-05-3.45037E-05-5.39966E-06-1.95161E-18-2.87544E-19
 -1       421 1.18430E-04-3.84122E-05-3.43269E-05 8.22454E-07-6.35027E-19 2.03313E-18
 -1       422 1.15340E-04-3.62965E-05-3.39068E-05 5.08332E-06 4.04675E-19 1.82157E-18
 -1       423 1.11730E-04-3.42061E-05-3.32441E-05 7.24782E-06 3.28513E-19 1.12883E-18
 -1       424 1.08119E-04-3.24639E-05-3.24313E-05 7.84936E-06 1.35688E-18-1.25363E-19
 -1       425 1.04765E-04-3.10840E-05-3.15766E-05 7.47608E-06 8.98587E-20-6.80497E-19
 -1       426 1.01797E-04-2.99807E-05-3.07719E-05 6.53946E-06-2.18667E-18-5.54088E-19
 -1       427 9.92841E-05-2.90681E-05-3.00838E-05 5.24918E-06-1.14015E-18 1.06387E-18
 -1       428 9.72486E-05-2.82856E-05-2.95471E-05 3.67486E-06 1.07242E-18 4.18331E-18
 -1       429 9.61783E-05-2.77942E-05-2.93005E-05 2.65473E-06 9.61713E-19 5.26990E-18
 -1       430 9.35069E-05-2.30924E-05-3.01773E-05 5.56402E-06-3.41041E-18 1.43934E-18
 -1       431 9.47700E-05-2.50788E-05-2.98606E-05 5.26688E-06-2.21177E-18-1.02714E-18
 -1       432 9.56089E-05-2.65280E-05-2.95961E-05 4.16647E-06-1.23321E-18-1.60404E-18
 -1       433 9.23985E-05-2.12960E-05-3.04771E-05 4.96796E-06-3.81935E-18-2.17420E-18
 -1       434 9.15433E-05-1.98566E-05-3.07307E-05 3.61925E-06-2.29380E-18-2.05760E-18
 -1       435 9.10662E-05-1.90020E-05-3.08943E-05 1.77879E-06 5.86577E-19-5.60031E-19
 -1       436 9.10128E-05-1.88335E-05-3.09439E-05-2.32550E-07-6.07297E-19-2.00547E-19
 -1       437 9.13549E-05-1.93380E-05-3.08732E-05-2.09487E-06-1.16817E-18 1.44787E-19
 -1       438 9.19981E-05-2.03955E-05-3.06934E-05-3.55215E-06-1.84758E-18 2.43712E-19
 -1       439 9.27974E-05-2.17910E-05-3.04349E-05-4.44486E-06-1.26940E-18 1.52321E-18
 -1       440 9.36608E-05-2.33729E-05-3.01238E-05-4.76232E-06 8.49347E-19 1.23262E-18
 -1       441 9.44923E-05-2.49450E-05-2.98030E-05-4.52251E-06 1.81443E-18 7.45150E-19
 -1       442 9.52446E-05-2.63813E-05-2.95060E-05-3.81033E-06 5.21299E-19-1.08514E-18
 -1       443 5.62424E-05-4.07741E-05-6.65373E-06 4.18216E-05-2.03860E-18 2.84545E-18
 -1       444 1.24327E-05-2.28356E-05 4.33723E-06-1.29436E-06 1.79067E-18-4.29869E-20
 -1       445 2.77324E-05-2.74423E-05-1.58496E-08 2.81486E-05-7.59153E-20 1.50338E-18
 -1       446 1.04209E-04-5.63836E-05-2.04494E-05 3.96780E-05-4.01917E-19-1.58731E-18
 -1       447 4.52905E-05-3.84493E-05-3.32205E-06-3.98367E-05 1.31078E-19-1.42656E-18
 -1       448 1.54933E-04-4.67824E-05-4.62916E-05 8.47686E-06 2.16995E-18-4.27106E-18
 -1       449 1.31154E-04-5.72030E-05-3.17929E-05 2.79005E-05 2.21033E-18-4.08439E-18
 -1       450 8.93378E-05-1.18575E-05-3.32799E-05-1.06968E-05-1.41390E-18-1.45240E-18
 -1       451 1.62500E-04-2.94926E-05-5.68926E-05-1.52385E-06 2.16967E-18-3.80477E-18
 -1       452 1.54857E-04-1.38418E-05-6.06038E-05-3.40005E-06 1.12317E-18-1.45941E-18
 -1       453 1.50547E-04-1.48676E-05-5.85793E-05 6.93005E-06 1.68020E-18-2.72236E-18
 -1       454 1.59473E-04-3.55091E-05-5.31227E-05 2.00275E-06 2.51807E-18-2.16195E-18
 -1       455 1.49644E-04-5.07001E-05-4.23626E-05-1.44736E-05 3.75871E-19-3.32175E-18
 -1       456 1.25369E-04-5.79560E-05-2.89538E-05-3.00222E-05 4.96361E-19-3.49221E-18
 -1       457 9.23888E-05-5.28309E-05-1.69933E-05-4.12267E-05 9.26972E-19-3.07420E-19
 -1       458 4.62384E-05-3.68756E-05-4.11317E-06-3.80386E-05 1.35419E-19-1.85050E-18
 -1       459 2.14297E-05-2.54676E-05 1.69701E-06-2.18343E-05 1.69264E-18-2.25321E-18
 -1       460 1.22794E-05-2.35478E-05 4.54820E-06 8.57080E-06 7.56586E-19-3.59756E-18
 -1       461 3.02753E-05-2.97250E-05-3.40806E-07 3.28033E-05 2.57074E-19-2.27312E-18
 -1       462 6.10658E-05-4.15121E-05-8.39489E-06 4.40251E-05 7.68788E-19-2.05067E-18
 -1       463 1.08343E-04-5.37207E-05-2.34535E-05 3.84074E-05-9.43383E-20-4.75784E-18
 -1       464 1.35585E-04-4.95931E-05-3.67673E-05 2.60840E-05-2.47371E-18-4.59780E-18
 -1       465 1.52150E-04-3.93959E-05-4.82080E-05 1.02531E-05-3.68332E-18-4.66800E-18
 -1       466 1.49637E-04-1.98685E-05-5.59007E-05-5.42339E-06-3.80699E-18-3.77290E-18
 -1       467 1.52133E-04-1.00972E-05-6.09835E-05-4.30037E-07-4.04554E-18-3.98604E-18
 -1       468 1.53305E-04-1.55407E-05-5.91094E-05 2.67285E-06-2.66995E-18-2.99749E-18
 -1       469 1.52003E-04-3.21172E-05-5.15824E-05-1.13496E-06 1.19643E-20 7.83505E-21
 -1       470 1.38822E-04-5.05148E-05-3.79603E-05-2.12126E-05 1.26952E-18-5.40407E-19
 -1       471 1.19430E-04-5.43564E-05-2.78476E-05-3.50037E-05 1.27298E-18 1.44186E-18
 -1       472 8.57360E-05-5.02209E-05-1.52218E-05-4.47676E-05 1.22301E-18-1.18721E-18
 -1       473 9.36257E-05-5.18634E-05-1.76559E-05 4.23942E-05 1.36674E-18-3.10107E-18
 -1       474 1.44637E-04-4.63206E-05-4.23599E-05 4.36164E-07 5.33101E-19-9.87164E-19
 -1       475 9.58082E-05-2.51455E-05-3.02698E-05 6.02757E-06 1.34788E-18-2.05609E-19
 -1       476 8.95562E-05-1.34083E-05-3.26537E-05-3.92980E-06-4.97634E-19-1.95329E-18
 -1       477 9.02556E-05-1.43671E-05-3.25441E-05-5.89358E-06-7.35924E-19-1.80895E-18
 -1       478 8.90621E-05-1.27289E-05-3.27320E-05 5.45294E-08 5.36676E-20-2.15946E-18
 -1       479 8.91964E-05-1.29122E-05-3.27113E-05 2.04797E-06 3.17016E-19-2.25884E-18
 -1       480 8.95883E-05-1.34487E-05-3.26504E-05 4.00297E-06 5.66794E-19-2.07964E-18
 -1       481 9.03076E-05-1.44340E-05-3.25383E-05 5.95892E-06 1.08382E-18-1.76864E-18
 -1       482 9.14495E-05-1.60108E-05-3.23540E-05 7.78848E-06 1.37382E-18-1.59042E-18
 -1       483 9.32304E-05-1.84792E-05-3.20564E-05 9.30482E-06 1.59061E-18-1.09890E-18
 -1       484 9.54647E-05-2.44175E-05-3.04384E-05-5.85241E-06-1.28042E-18-1.80366E-19
 -1       485 4.54409E-05-2.90720E-05-6.53507E-06-3.72646E-05 9.33060E-19 1.03497E-19
 -1       486 9.50995E-05-2.65739E-05-2.93501E-05 2.88428E-06 1.21953E-18-5.62664E-19
 -1       487 9.45740E-05-2.06856E-05-3.16865E-05-9.58280E-06-1.60987E-18-3.55481E-19
 -1       488 9.52668E-05-2.62308E-05-2.95804E-05-2.90942E-06-8.43537E-19-1.81024E-19
 -1       489 9.49076E-05-2.71570E-05-2.90324E-05-1.04095E-06-5.26632E-19-2.91282E-19
 -1       490 9.46326E-05-2.76872E-05-2.86893E-05 8.54030E-08-5.51836E-19-4.74639E-19
 -1       491 9.44779E-05-2.80109E-05-2.84853E-05 7.25886E-07-5.10681E-19-4.38101E-19
 -1       492 9.44257E-05-2.82183E-05-2.83745E-05 1.05371E-06-4.64750E-19-7.24947E-19
 -1       493 9.44470E-05-2.83535E-05-2.83259E-05 1.18575E-06-2.77348E-19-8.44395E-19
 -1       494 9.45155E-05-2.84401E-05-2.83182E-05 1.20222E-06-4.56087E-19-5.10737E-19
 -1       495 9.46123E-05-2.84920E-05-2.83375E-05 1.15911E-06-3.82920E-19-2.24075E-19
 -1       496 9.47252E-05-2.85180E-05-2.83747E-05 1.09618E-06 5.65011E-20 2.09394E-19
 -1       497 9.48480E-05-2.85246E-05-2.84245E-05 1.04228E-06 1.81850E-19 3.45913E-19
 -1       498 9.49790E-05-2.85164E-05-2.84840E-05 1.01900E-06-1.24725E-19 2.59337E-19
 -1       499 9.51202E-05-2.84972E-05-2.85526E-05 1.04314E-06 2.84656E-20 5.03992E-19
 -1       500 9.52766E-05-2.84707E-05-2.86309E-05 1.12830E-06-2.32632E-19 4.30501E-19
 -1       501 9.54558E-05-2.84411E-05-2.87202E-05 1.28572E-06-4.71500E-19-7.09555E-20
 -1       502 9.56677E-05-2.84136E-05-2.88226E-05 1.52425E-06-2.43556E-19-1.98745E-19
 -1       503 9.59245E-05-2.83964E-05-2.89399E-05 1.84949E-06-2.20559E-19 2.54843E-19
 -1       504 9.62412E-05-2.84014E-05-2.90733E-05 2.26171E-06-3.86277E-19-3.74206E-19
 -1       505 9.66363E-05-2.84469E-05-2.92231E-05 2.75259E-06-3.43118E-19-5.73917E-19
 -1       506 9.71327E-05-2.85601E-05-2.93873E-05 3.30018E-06-8.82863E-20 3.47713E-20
 -1       507 9.77594E-05-2.87799E-05-2.95618E-05 3.86214E-06 2.10772E-19 2.15255E-19
 -1       508 9.85532E-05-2.91593E-05-2.97398E-05 4.36719E-06 2.82136E-19 2.22445E-20
 -1       509 9.95590E-05-2.97641E-05-2.99125E-05 4.70570E-06 3.42511E-19-8.46680E-19
 -1       510 1.00826E-04-3.06636E-05-3.00712E-05 4.72170E-06 3.21439E-19-1.01369E-18
 -1       511 1.02391E-04-3.19037E-05-3.02122E-05 4.21237E-06 7.61668E-21-1.41869E-19
 -1       512 1.04242E-04-3.34514E-05-3.03442E-05 2.94741E-06-6.24790E-19-3.47230E-19
 -1       513 1.06249E-04-3.51047E-05-3.04970E-05 7.30955E-07-1.71604E-19-6.74048E-19
 -1       514 1.08070E-04-3.63894E-05-3.07260E-05-2.46259E-06 1.85176E-19 3.49613E-20
 -1       515 1.09111E-04-3.65383E-05-3.11058E-05-6.25446E-06 1.06717E-18 1.33406E-18
 -1       516 1.08683E-04-3.47451E-05-3.16882E-05-9.59875E-06-5.13745E-19 1.67576E-18
 -1       517 1.06549E-04-3.08780E-05-3.24330E-05-1.08387E-05-1.40199E-18 1.06908E-18
 -1       518 1.03532E-04-2.61934E-05-3.31476E-05-8.49274E-06 6.14482E-19 1.26532E-18
 -1       519 1.01460E-04-2.31793E-05-3.35602E-05-2.65121E-06 1.29962E-18 1.97067E-18
 -1       520 1.01887E-04-2.38852E-05-3.34365E-05 4.26572E-06 7.05858E-19 2.68086E-18
 -1       521 1.04397E-04-2.77558E-05-3.28485E-05 9.04064E-06 3.76078E-19 1.68614E-18
 -1       522 1.07201E-04-3.24290E-05-3.20462E-05 9.98483E-06-7.57634E-19 1.59032E-19
 -1       523 1.08677E-04-3.56559E-05-3.12973E-05 7.69639E-06-5.17623E-19 3.83978E-19
 -1       524 1.08407E-04-3.66923E-05-3.07399E-05 3.89419E-06-1.27481E-18 1.66512E-18
 -1       525 1.06877E-04-3.60155E-05-3.03764E-05 8.14256E-08-1.16863E-18 2.94107E-18
 -1       526 1.04772E-04-3.44507E-05-3.01443E-05-2.92570E-06-8.93892E-19 3.23045E-18
 -1       527 1.02604E-04-3.26635E-05-2.99791E-05-4.88241E-06 1.69067E-18 1.99367E-18
 -1       528 1.00631E-04-3.10094E-05-2.98401E-05-5.85279E-06 5.22784E-19 1.87003E-18
 -1       529 9.89262E-05-2.95978E-05-2.97124E-05-6.00488E-06-1.42722E-19 1.18643E-18
 -1       530 9.74798E-05-2.84107E-05-2.95991E-05-5.49202E-06-5.43282E-19 6.37639E-19
 -1       531 5.46494E-05-2.92528E-05-1.03148E-05 3.58254E-05-1.22147E-18 2.35983E-18
 -1       532 9.41290E-05-2.76807E-05-2.84744E-05-1.11899E-07 6.33494E-19-5.71309E-19
 -1       533 9.39538E-05-2.79255E-05-2.82965E-05-7.25477E-07 5.43678E-19-5.53411E-19
 -1       534 9.39267E-05-2.80944E-05-2.82135E-05-1.03075E-06 4.09864E-19-8.36609E-19
 -1       535 9.39961E-05-2.82172E-05-2.81911E-05-1.14654E-06 2.39299E-19-9.84639E-19
 -1       536 9.41229E-05-2.83080E-05-2.82067E-05-1.15151E-06-1.57505E-20-3.77509E-19
 -1       537 9.42804E-05-2.83744E-05-2.82459E-05-1.09939E-06 5.61812E-19-6.64611E-19
 -1       538 9.44528E-05-2.84215E-05-2.82995E-05-1.02790E-06 4.80223E-19-8.05214E-19
 -1       539 9.46323E-05-2.84532E-05-2.83627E-05-9.64407E-07 4.55741E-19-9.24444E-19
 -1       540 9.48175E-05-2.84727E-05-2.84336E-05-9.29795E-07 3.36002E-19-7.72974E-19
 -1       541 9.50121E-05-2.84826E-05-2.85126E-05-9.41155E-07 2.49553E-19-7.14812E-19
 -1       542 9.52234E-05-2.84854E-05-2.86017E-05-1.01382E-06-3.03458E-20-6.16293E-19
 -1       543 9.54620E-05-2.84835E-05-2.87045E-05-1.16290E-06 2.28370E-19-6.58115E-19
 -1       544 9.57414E-05-2.84791E-05-2.88257E-05-1.40432E-06-4.32477E-19 3.57626E-21
 -1       545 9.60770E-05-2.84749E-05-2.89709E-05-1.75543E-06-6.48201E-19 4.55706E-20
 -1       546 9.64869E-05-2.84744E-05-2.91463E-05-2.23495E-06 1.86355E-19-2.75707E-19
 -1       547 9.69906E-05-2.84833E-05-2.93578E-05-2.86195E-06 1.27234E-18-5.69952E-19
 -1       548 9.76101E-05-2.85116E-05-2.96106E-05-3.65311E-06 6.91168E-19-1.79085E-18
 -1       549 9.83705E-05-2.85779E-05-2.99075E-05-4.61720E-06 6.20121E-19-1.18174E-19
 -1       550 9.93035E-05-2.87179E-05-3.02471E-05-5.74493E-06-1.12608E-18-1.84001E-19
 -1       551 1.00454E-04-2.89974E-05-3.06209E-05-6.99148E-06-1.54734E-18-8.93269E-19
 -1       552 1.01898E-04-2.95328E-05-3.10113E-05-8.24843E-06-1.06651E-18-1.34960E-18
 -1       553 1.03759E-04-3.05153E-05-3.13909E-05-9.30225E-06-9.80446E-19-2.06942E-18
 -1       554 1.06243E-04-3.22206E-05-3.17294E-05-9.77971E-06-4.12129E-19-1.16522E-18
 -1       555 1.09626E-04-3.49512E-05-3.20157E-05-9.09080E-06-1.09698E-18 2.46289E-20
 -1       556 1.14124E-04-3.87909E-05-3.23064E-05-6.43202E-06-4.60879E-19 8.53179E-19
 -1       557 1.19496E-04-4.30482E-05-3.27871E-05-1.00334E-06-4.70357E-19 1.13781E-18
 -1       558 1.24338E-04-4.54481E-05-3.38363E-05 7.21686E-06 1.53205E-19-6.99843E-19
 -1       559 1.25723E-04-4.23022E-05-3.58544E-05 1.58470E-05-5.13891E-19 8.13052E-20
 -1       560 1.21885E-04-3.22233E-05-3.86550E-05 1.79630E-05-6.38914E-19 1.28010E-18
 -1       561 1.16363E-04-2.16064E-05-4.09050E-05 8.80572E-06 8.91396E-19 1.63971E-18
 -1       562 1.15743E-04-2.08461E-05-4.10206E-05-7.07799E-06 1.61971E-18-5.40705E-19
 -1       563 1.21208E-04-3.13234E-05-3.87211E-05-1.68441E-05 2.54866E-18-1.96768E-18
 -1       564 1.25295E-04-4.17111E-05-3.59284E-05-1.52156E-05-5.11174E-19-1.03758E-19
 -1       565 1.24055E-04-4.53572E-05-3.37638E-05-7.05056E-06-1.04103E-18 1.05665E-18
 -1       566 1.19250E-04-4.32813E-05-3.25769E-05 1.40404E-06-2.41450E-18-5.26702E-21
 -1       567 1.13656E-04-3.90184E-05-3.20127E-05 7.19913E-06 4.59876E-19 5.11031E-19
 -1       568 1.08870E-04-3.50470E-05-3.16546E-05 1.02030E-05 1.70224E-18-1.05774E-18
 -1       569 1.05169E-04-3.21161E-05-3.13161E-05 1.11463E-05 2.02212E-18-1.81439E-18
 -1       570 1.02371E-04-3.01742E-05-3.09423E-05 1.07954E-05 1.17257E-18 1.39304E-19
 -1       571 1.00198E-04-2.89006E-05-3.05521E-05 9.70216E-06-1.04958E-18-1.16042E-18
 -1       572 9.84379E-05-2.79794E-05-3.01877E-05 8.19178E-06-1.97261E-18-2.00548E-18
 -1       573 9.69254E-05-2.71965E-05-2.98743E-05 6.38373E-06-1.57754E-18-2.00603E-18
 -1       574 9.11419E-05-2.11760E-05-2.99893E-05 5.72524E-06-1.55508E-18 3.32906E-20
 -1       575 9.01360E-05-2.00993E-05-3.00197E-05 3.52047E-06 2.13344E-19 8.22536E-19
 -1       576 9.44811E-05-2.46673E-05-2.99191E-05 7.44915E-06-3.30264E-18-1.76085E-18
 -1       577 9.26576E-05-2.27678E-05-2.99547E-05 7.10859E-06-4.61103E-18 1.24989E-18
 -1       578 8.97880E-05-1.97123E-05-3.00367E-05 8.80342E-07 1.01679E-18-1.05991E-18
 -1       579 9.01038E-05-2.00450E-05-3.00294E-05-1.74910E-06 1.07901E-19-1.04700E-18
 -1       580 9.09579E-05-2.09859E-05-2.99916E-05-3.96038E-06 5.89629E-19 6.57127E-19
 -1       581 9.21118E-05-2.22974E-05-2.99229E-05-5.46258E-06-4.16181E-19 9.84630E-19
 -1       582 9.33843E-05-2.37923E-05-2.98260E-05-6.20673E-06-1.65910E-19 2.45243E-18
 -1       583 9.45840E-05-2.52597E-05-2.97095E-05-6.21031E-06 5.05758E-19 1.55682E-18
 -1       584 9.56446E-05-2.65840E-05-2.95972E-05-5.56225E-06-4.87774E-19-3.26181E-19
 -1       585 7.76254E-05-4.50696E-05-1.36199E-05-4.44475E-05-6.12987E-19-2.95376E-19
 -1       586 9.45068E-05-2.72894E-05-2.87988E-05 9.93557E-07 9.36574E-19-6.22596E-19
 -1       587 3.03289E-05-1.40097E-05-6.32940E-06 1.24674E-05-6.19578E-19-8.54868E-19
 -1       588 9.38983E-05-5.08092E-05-1.81294E-05 3.92266E-05-2.25411E-18-1.84944E-19
 -1       589 1.36939E-04-2.18814E-05-4.98534E-05 1.03493E-05-2.67276E-18-3.85426E-18
 -1       590 1.41363E-04-3.32385E-05-4.67511E-05-9.07625E-06-2.80299E-18-3.12343E-19
 -1       591 2.32005E-05-1.38352E-05-3.42252E-06-6.04823E-06 9.61277E-19-2.25533E-18
 -1       592 1.41572E-04-6.06437E-05-3.47764E-05-8.61708E-06-8.20629E-19-2.00254E-18
 -1       593 2.62011E-05-1.49294E-05-4.16500E-06-1.31581E-05-8.21873E-19 1.38553E-18
 -1       594 8.91765E-05-1.28871E-05-3.27135E-05-1.93949E-06-1.55164E-19-2.02869E-18
 -1       595 1.27376E-04-6.27806E-05-2.76242E-05 2.51558E-05-7.41048E-19-4.19051E-18
 -1       596 1.38796E-04-2.13339E-05-5.09192E-05-1.31804E-05 2.05866E-18 3.92547E-20
 -1       597 1.46759E-04-3.91626E-05-4.65460E-05-1.19019E-05 2.44546E-18-9.06696E-19
 -1       598 1.40742E-04-2.64306E-05-4.95393E-05 1.54560E-05 1.13693E-18-2.48387E-18
 -1       599 1.47356E-04-4.82682E-05-4.28135E-05 7.82496E-06-4.65868E-21-1.09574E-18
 -1       600 1.18408E-04-6.08252E-05-2.45620E-05-2.99637E-05-2.33040E-19-1.17429E-18
 -1       601 7.92299E-05-4.55185E-05-1.40867E-05-4.13336E-05-2.41510E-19-7.14631E-19
 -1       602 4.38121E-05-2.53096E-05-7.41226E-06-3.19004E-05-3.44054E-19-1.04365E-18
 -1       603 1.30268E-04-5.89337E-05-3.06187E-05 2.14441E-05-1.92435E-20-3.79201E-18
 -1       604 5.62738E-05-3.19407E-05-9.88397E-06 4.01951E-05 7.44701E-19-1.22174E-18
 -1       605 1.25933E-04-9.49387E-06-5.05805E-05-6.65357E-06-2.83703E-18-5.38541E-19
 -1       606 1.41697E-04-5.16258E-05-3.88550E-05 5.53714E-06-1.44966E-18-3.32683E-18
 -1       607 1.30400E-04-8.63174E-06-5.28299E-05 4.09275E-06-2.78012E-18-3.54669E-18
 -1       608 1.33048E-04-6.00564E-05-3.13642E-05-1.88928E-05 3.58983E-19-2.23670E-19
 -1       609 1.12166E-04-5.81215E-05-2.29742E-05-3.54078E-05 1.06176E-18 1.95428E-18
 -1       610 1.44387E-04-5.86818E-05-3.69231E-05 5.56407E-06 1.73998E-18-3.08489E-18
 -1       611 9.61477E-05-2.31869E-05-3.12724E-05 9.59175E-06 1.68805E-18 7.36505E-20
 -1       612 2.82484E-05-1.75278E-05-4.04122E-06 2.18568E-05 1.10289E-18-3.34694E-18
 -1       613 1.28553E-04-1.20483E-05-5.06134E-05 2.08501E-07 2.74470E-18-1.74872E-18
 -1       614 9.13513E-05-1.58575E-05-3.23776E-05-7.77421E-06-1.10865E-18-1.45463E-18
 -1       615 1.35860E-04-3.52199E-05-4.34605E-05 1.13393E-05-6.66641E-19-2.83020E-18
 -1       616 9.66281E-05-2.77243E-05-2.95271E-05-4.81915E-06-5.84516E-19 1.30906E-18
 -1       617 8.15988E-05-4.25485E-05-1.63643E-05 4.03278E-05 1.05810E-18-2.57281E-18
 -1       618 1.16436E-04-5.80817E-05-2.48715E-05 2.98951E-05 2.00675E-18-5.50355E-18
 -1       619 1.25324E-04-1.97443E-05-4.57476E-05-1.29837E-05-1.61863E-18 8.91807E-19
 -1       620 9.15728E-05-1.68568E-05-3.20267E-05 2.44369E-06 4.51422E-19-1.90338E-18
 -1       621 9.13156E-05-1.64548E-05-3.20886E-05 8.41427E-07 1.25743E-19-2.02747E-18
 -1       622 9.29011E-05-1.90028E-05-3.16763E-05 5.27147E-06 1.05949E-18-1.30019E-18
 -1       623 9.39869E-05-2.09309E-05-3.13176E-05 6.15081E-06 1.34889E-18-1.15020E-18
 -1       624 1.36206E-04-5.34691E-05-3.56881E-05-1.15191E-06 1.80388E-18-8.17599E-19
 -1       625 9.50209E-05-2.36460E-05-3.05836E-05-4.72457E-06-9.78428E-19-6.65137E-19
 -1       626 9.52689E-05-2.40956E-05-3.04926E-05 5.15920E-06 1.36030E-18-9.78350E-19
 -1       627 9.49824E-05-2.81043E-05-2.86618E-05-7.40192E-07 5.69281E-19-7.33085E-19
 -1       628 9.54245E-05-2.57259E-05-2.98721E-05-2.44504E-06-6.75214E-19-4.57986E-19
 -1       629 9.54763E-05-2.69426E-05-2.93709E-05-8.72958E-07-5.34968E-19-4.66022E-19
 -1       630 9.54207E-05-2.76983E-05-2.90237E-05 1.33325E-07-4.11239E-19-4.31197E-19
 -1       631 9.53456E-05-2.81634E-05-2.87924E-05 7.30674E-07-5.79187E-19-4.53733E-19
 -1       632 9.52827E-05-2.84444E-05-2.86450E-05 1.04831E-06-3.76172E-19-5.12925E-19
 -1       633 9.52399E-05-2.86042E-05-2.85582E-05 1.18513E-06-9.23076E-20-4.31939E-19
 -1       634 9.52158E-05-2.86814E-05-2.85148E-05 1.21445E-06-1.70243E-19-3.41899E-21
 -1       635 9.52066E-05-2.87006E-05-2.85027E-05 1.19014E-06 8.43838E-20-1.17206E-20
 -1       636 9.52088E-05-2.86778E-05-2.85133E-05 1.15188E-06-1.14365E-19-7.55930E-20
 -1       637 9.52197E-05-2.86237E-05-2.85412E-05 1.12926E-06-1.78797E-19-4.59446E-20
 -1       638 9.52379E-05-2.85451E-05-2.85826E-05 1.14499E-06 6.66201E-20 9.92692E-20
 -1       639 9.52632E-05-2.84467E-05-2.86356E-05 1.21709E-06-7.41801E-20-1.40149E-19
 -1       640 9.52968E-05-2.83322E-05-2.86990E-05 1.36037E-06-5.01526E-19-2.36363E-19
 -1       641 9.53415E-05-2.82062E-05-2.87722E-05 1.58707E-06-7.47980E-19 1.40150E-20
 -1       642 9.54025E-05-2.80752E-05-2.88544E-05 1.90672E-06-3.92434E-19-7.61180E-19
 -1       643 9.54884E-05-2.79506E-05-2.89445E-05 2.32505E-06-3.97671E-19-1.27934E-18
 -1       644 9.56130E-05-2.78513E-05-2.90404E-05 2.84194E-06-1.12313E-19-4.98375E-19
 -1       645 9.57989E-05-2.78081E-05-2.91386E-05 3.44801E-06-2.92810E-20-3.18364E-19
 -1       646 9.60810E-05-2.78679E-05-2.92339E-05 4.11989E-06 2.74074E-19-5.84882E-19
 -1       647 9.65131E-05-2.80993E-05-2.93199E-05 4.81352E-06 4.35390E-19-2.27061E-19
 -1       648 9.71739E-05-2.85961E-05-2.93904E-05 5.45549E-06-6.30521E-19-2.65810E-19
 -1       649 9.81726E-05-2.94749E-05-2.94421E-05 5.93155E-06 3.66075E-19-8.18283E-19
 -1       650 9.96454E-05-3.08590E-05-2.94807E-05 6.07253E-06 4.54450E-19-7.86155E-19
 -1       651 1.01730E-04-3.28302E-05-2.95304E-05 5.64008E-06 1.33128E-19-5.80875E-19
 -1       652 1.04497E-04-3.53288E-05-2.96464E-05 4.32606E-06-8.81650E-21 8.84440E-19
 -1       653 1.07807E-04-3.79884E-05-2.99260E-05 1.80191E-06 4.83040E-19 1.12394E-18
 -1       654 1.11116E-04-3.99322E-05-3.05062E-05-2.10406E-06 1.84566E-18 2.23035E-18
 -1       655 1.13305E-04-3.96985E-05-3.15472E-05-7.00620E-06-3.12749E-19 1.30782E-18
 -1       656 1.13078E-04-3.59072E-05-3.30938E-05-1.12624E-05-8.61813E-19 2.99099E-18
 -1       657 1.10004E-04-2.86825E-05-3.49025E-05-1.21813E-05-2.79243E-19 3.50888E-18
 -1       658 1.06207E-04-2.16159E-05-3.62870E-05-7.49499E-06 9.98407E-21 2.31375E-18
 -1       659 1.04682E-04-1.90556E-05-3.67643E-05 1.20751E-06-6.35076E-19-5.10688E-19
 -1       660 1.07317E-04-2.36348E-05-3.59132E-05 8.96647E-06 3.01755E-21-6.07591E-19
 -1       661 1.11302E-04-3.15520E-05-3.42096E-05 1.16092E-05-5.15316E-19-5.48108E-19
 -1       662 1.13459E-04-3.78563E-05-3.24134E-05 9.10044E-06-6.72026E-19-7.28391E-19
 -1       663 1.12712E-04-4.03594E-05-3.10099E-05 4.19535E-06-4.31984E-19-2.69544E-19
 -1       664 1.09956E-04-3.96674E-05-3.01262E-05-6.03492E-07-6.70826E-19 9.73769E-19
 -1       665 1.06505E-04-3.73020E-05-2.96614E-05-4.19565E-06-2.62687E-19 2.13843E-18
 -1       666 1.03274E-04-3.45234E-05-2.94670E-05-6.38591E-06-3.35207E-19 2.67253E-18
 -1       667 1.00641E-04-3.19957E-05-2.94206E-05-7.40548E-06 5.66857E-19-5.09654E-20
 -1       668 9.86361E-05-2.99266E-05-2.94468E-05-7.54594E-06-8.09804E-19-1.15578E-18
 -1       669 9.71375E-05-2.82867E-05-2.95068E-05-7.03588E-06-6.69856E-19-8.26623E-19
 -1       670 9.50911E-05-2.77026E-05-2.88802E-05-1.23370E-07 5.47816E-19-8.06080E-19
 -1       671 9.49080E-05-2.85005E-05-2.84604E-05-1.19656E-06-2.49429E-19-4.63864E-19
 -1       672 9.49240E-05-2.85817E-05-2.84325E-05-1.21926E-06 4.72598E-20-4.33979E-19
 -1       673 9.49616E-05-2.86155E-05-2.84342E-05-1.18578E-06 4.80203E-19 5.86462E-20
 -1       674 9.50136E-05-2.86145E-05-2.84569E-05-1.13648E-06 6.92023E-19-5.79882E-20
 -1       675 9.50757E-05-2.85864E-05-2.84955E-05-1.10163E-06 5.22325E-19 3.02377E-19
 -1       676 9.51461E-05-2.85362E-05-2.85471E-05-1.10491E-06-1.50025E-20 8.90537E-22
 -1       677 9.52249E-05-2.84660E-05-2.86109E-05-1.16620E-06-1.03134E-19 2.48402E-19
 -1       678 9.53133E-05-2.83763E-05-2.86871E-05-1.30347E-06 4.76468E-20 1.47853E-19
 -1       679 9.54133E-05-2.82660E-05-2.87771E-05-1.53431E-06-5.88484E-20 1.57819E-19
 -1       680 9.55273E-05-2.81333E-05-2.88827E-05-1.87682E-06-1.38962E-19-3.99086E-19
 -1       681 9.56573E-05-2.79759E-05-2.90057E-05-2.34987E-06 1.34212E-20-9.00071E-19
 -1       682 9.58049E-05-2.77931E-05-2.91471E-05-2.97270E-06 1.12380E-18-1.21354E-18
 -1       683 9.59719E-05-2.75880E-05-2.93064E-05-3.76351E-06 1.08038E-18-5.46742E-19
 -1       684 9.61622E-05-2.73728E-05-2.94799E-05-4.73651E-06 2.67449E-19-5.86003E-19
 -1       685 9.63872E-05-2.71778E-05-2.96597E-05-5.89710E-06-3.48602E-20-1.98999E-20
 -1       686 9.66776E-05-2.70674E-05-2.98314E-05-7.23393E-06-1.13096E-18-6.42551E-19
 -1       687 9.71064E-05-2.71658E-05-2.99731E-05-8.70681E-06-1.42028E-18-6.24424E-19
 -1       688 9.78279E-05-2.76933E-05-3.00567E-05-1.02276E-05-6.11179E-19-3.09518E-19
 -1       689 9.91379E-05-2.90065E-05-3.00564E-05-1.16284E-05-2.79833E-19-1.11238E-18
 -1       690 1.01542E-04-3.16139E-05-2.99703E-05-1.26046E-05-1.27670E-18-1.09238E-18
 -1       691 1.05805E-04-3.60918E-05-2.98756E-05-1.25799E-05-1.84956E-18-7.25086E-19
 -1       692 1.12606E-04-4.25299E-05-3.00365E-05-1.05162E-05-2.32913E-19 3.55042E-20
 -1       693 1.22014E-04-4.97054E-05-3.09846E-05-4.98096E-06 3.59879E-19-1.44978E-18
 -1       694 1.31070E-04-5.24576E-05-3.37895E-05 4.61114E-06-5.47488E-19-1.78297E-18
 -1       695 1.28627E-04-2.50992E-05-4.48160E-05 1.60219E-05 6.25322E-19-4.55095E-19
 -1       696 1.34915E-04-4.28729E-05-3.96657E-05-1.53602E-05 1.83541E-19-1.38420E-18
 -1       697 1.31472E-04-5.23858E-05-3.40589E-05-5.32037E-06-6.23549E-19-3.01207E-18
 -1       698 1.22698E-04-5.04300E-05-3.09729E-05 5.08770E-06-1.72054E-18-3.56880E-18
 -1       699 1.13117E-04-4.32204E-05-2.99627E-05 1.12294E-05-5.23010E-20-5.23557E-18
 -1       700 1.06053E-04-3.67126E-05-2.97235E-05 1.37273E-05 1.25708E-18-4.24469E-18
 -1       701 1.01521E-04-3.20295E-05-2.97867E-05 1.40755E-05 1.29024E-18-2.93596E-18
 -1       702 9.88716E-05-2.91610E-05-2.98775E-05 1.32728E-05 8.87124E-19-2.04734E-18
 -1       703 9.73371E-05-2.75224E-05-2.99196E-05 1.19090E-05 6.67247E-19-1.31810E-18
 -1       704 9.63648E-05-2.65446E-05-2.99199E-05 1.02473E-05-1.61368E-19-1.56799E-18
 -1       705 9.52772E-05-2.55723E-05-2.98713E-05 8.93763E-06-3.27741E-18-3.15298E-18
 -1       706 8.81364E-05-2.01150E-05-2.91530E-05-8.57889E-07 6.72589E-19-7.02210E-19
 -1       707 8.90799E-05-2.07366E-05-2.92911E-05 5.62429E-06-1.25836E-18 2.46969E-18
 -1       708 8.91410E-05-2.10502E-05-2.91833E-05-3.88170E-06 5.61403E-19-3.27708E-19
 -1       709 8.80775E-05-1.99829E-05-2.91845E-05 2.51017E-06 3.60674E-19 8.24579E-19
 -1       710 1.39936E-04-4.98810E-05-3.88438E-05-9.83866E-06 1.56934E-18-2.38302E-18
 -1       711 9.07502E-05-2.24992E-05-2.92517E-05-6.07992E-06 2.62229E-19-1.42828E-18
 -1       712 9.26234E-05-2.41709E-05-2.93377E-05-7.32082E-06-3.06710E-19 1.74578E-18
 -1       713 9.44176E-05-2.57575E-05-2.94260E-05-7.57659E-06-3.71759E-19 3.13509E-18
 -1       714 6.89597E-05-3.44300E-05-1.43728E-05-3.83744E-05-1.45028E-19 1.15967E-18
 -1       715 9.52294E-05-2.70389E-05-2.92226E-05 9.34753E-07 8.15480E-19-7.60266E-19
 -1       716 1.33881E-04-6.03140E-05-3.16092E-05 8.06099E-06-1.15155E-18-2.21960E-18
 -1       717 1.33627E-04-4.42010E-05-3.86456E-05-7.72307E-06-1.05276E-18 8.43036E-19
 -1       718 1.39318E-04-5.45933E-05-3.64971E-05 6.68085E-06-1.20906E-18-5.79291E-19
 -1       719 9.79398E-05-5.01086E-05-2.02501E-05-3.69462E-05 3.24917E-19-9.08893E-19
 -1       720 1.32508E-04-3.17005E-05-4.36573E-05-1.74251E-05 1.58745E-18-1.66442E-18
 -1       721 4.04805E-05-1.18080E-05-1.18115E-05-4.31340E-06-1.32776E-18 1.67930E-18
 -1       722 3.53736E-05-1.15419E-05-9.64569E-06 8.27374E-06 3.28450E-19-3.27452E-18
 -1       723 9.49236E-05-2.83520E-05-2.85307E-05-1.06243E-06 4.24109E-19-7.53512E-19
 -1       724 1.28015E-04-1.64645E-05-4.83772E-05 9.27313E-06 2.30769E-18-2.05337E-18
 -1       725 5.33582E-05-1.86650E-05-1.44365E-05 2.24965E-05 2.08238E-19 3.33387E-19
 -1       726 9.20929E-05-1.76820E-05-3.18962E-05 3.95563E-06 7.54415E-19-1.60354E-18
 -1       727 4.12762E-05-1.53426E-05-1.05958E-05-1.81090E-05 7.14022E-20-9.46400E-19
 -1       728 1.03312E-04-5.21414E-05-2.17137E-05-3.20512E-05-1.14561E-19-1.50241E-18
 -1       729 1.30591E-04-6.09926E-05-2.98403E-05-1.36591E-05-8.53015E-19-2.41595E-18
 -1       730 9.20544E-05-1.76271E-05-3.19032E-05-3.90024E-06-5.36405E-19-1.75116E-18
 -1       731 9.53323E-05-2.59389E-05-2.97363E-05 2.61253E-06 1.01280E-18-9.49382E-19
 -1       732 9.63398E-05-2.73763E-05-2.95531E-05-6.39352E-06 1.84640E-19-2.77981E-18
 -1       733 1.33870E-04-5.44208E-05-3.42218E-05 3.27334E-06 4.24762E-19-8.75250E-19
 -1       734 7.24012E-05-3.35300E-05-1.62375E-05-3.41192E-05-5.01020E-19-4.33151E-19
 -1       735 8.14902E-05-3.65785E-05-1.89823E-05 3.33378E-05-1.19540E-18-2.57869E-19
 -1       736 4.64472E-05-1.89162E-05-1.12713E-05-2.51301E-05-2.19063E-18 1.37198E-18
 -1       737 1.23301E-04-5.88176E-05-2.75915E-05-2.09273E-05 3.17864E-18-1.70493E-18
 -1       738 1.36314E-04-3.92179E-05-4.19552E-05 1.72721E-05-1.08510E-18-5.56659E-19
 -1       739 4.89352E-05-2.05002E-05-1.16547E-05 2.81710E-05 6.11068E-19-1.85823E-18
 -1       740 1.14863E-04-5.60643E-05-2.50337E-05 2.57999E-05-1.21533E-18-3.13068E-18
 -1       741 9.28399E-05-1.89049E-05-3.16925E-05-5.25424E-06-7.77310E-19-1.35370E-18
 -1       742 9.13088E-05-1.64454E-05-3.20896E-05-7.84756E-07-3.40962E-20-1.90687E-18
 -1       743 6.74336E-05-2.98624E-05-1.57369E-05 3.37617E-05 3.53491E-19-1.82549E-18
 -1       744 9.15503E-05-1.68254E-05-3.20304E-05-2.38306E-06-2.55698E-19-1.63844E-18
 -1       745 9.27048E-05-2.35072E-05-2.96572E-05 8.71338E-06-8.33267E-19 1.51736E-18
 -1       746 1.21950E-04-2.20227E-05-4.32443E-05 1.28991E-05-1.64766E-18-1.72556E-18
 -1       747 1.02704E-04-5.08418E-05-2.20416E-05 3.28645E-05 1.71083E-18-3.58141E-18
 -1       748 1.24067E-04-3.17780E-05-3.97780E-05-1.46241E-05-7.23035E-19 1.35823E-18
 -1       749 1.15428E-04-1.02346E-05-4.54845E-05 6.30670E-07-1.94653E-18 8.40442E-19
 -1       750 9.57869E-05-2.71141E-05-2.94297E-05-7.53782E-06-6.69390E-19-2.18905E-19
 -1       751 1.26724E-04-5.68355E-05-2.99306E-05 1.25684E-05 1.41995E-18-1.81223E-18
 -1       752 9.41677E-05-2.13095E-05-3.12282E-05-6.15747E-06-1.21560E-18-7.97541E-19
 -1       753 1.14157E-04-1.34983E-05-4.34920E-05-6.95089E-06-1.19736E-18 2.71153E-18
 -1       754 9.07001E-05-2.19523E-05-2.94652E-05 7.58253E-06-2.27373E-18 1.41724E-18
 -1       755 9.46387E-05-2.27269E-05-3.08211E-05 3.91701E-06 8.96200E-19-9.98198E-19
 -1       756 7.36764E-05-2.50927E-05-2.06747E-05 2.37975E-05-9.21769E-19-4.73902E-19
 -1       757 9.55883E-05-2.55238E-05-3.00268E-05-1.79901E-06-5.06703E-19-6.03897E-19
 -1       758 9.58770E-05-2.68792E-05-2.95703E-05-5.81679E-07-4.67894E-19-6.57128E-19
 -1       759 9.59686E-05-2.77591E-05-2.92327E-05 2.24857E-07-4.48278E-19-5.09761E-19
 -1       760 9.59557E-05-2.83072E-05-2.89922E-05 7.16040E-07-4.76318E-19-3.51144E-19
 -1       761 9.58922E-05-2.86298E-05-2.88268E-05 9.82254E-07-1.68213E-20-4.48033E-19
 -1       762 9.58064E-05-2.87964E-05-2.87186E-05 1.10099E-06 1.81696E-19-4.29962E-19
 -1       763 9.57127E-05-2.88539E-05-2.86538E-05 1.13332E-06-8.00049E-20-2.34211E-19
 -1       764 9.56180E-05-2.88335E-05-2.86220E-05 1.12585E-06-3.49612E-20-4.10912E-19
 -1       765 9.55246E-05-2.87560E-05-2.86151E-05 1.11397E-06 1.29456E-19-1.05141E-19
 -1       766 9.54320E-05-2.86346E-05-2.86275E-05 1.12481E-06-1.58454E-19-1.61649E-19
 -1       767 9.53386E-05-2.84775E-05-2.86547E-05 1.17976E-06-2.44989E-19-7.69379E-19
 -1       768 9.52416E-05-2.82898E-05-2.86936E-05 1.29630E-06-4.84249E-19-5.87013E-19
 -1       769 9.51386E-05-2.80756E-05-2.87413E-05 1.48925E-06-5.55543E-19-6.58142E-19
 -1       770 9.50284E-05-2.78401E-05-2.87950E-05 1.77131E-06-8.84445E-19-5.42784E-19
 -1       771 9.49127E-05-2.75923E-05-2.88515E-05 2.15299E-06-6.01097E-19-4.76445E-19
 -1       772 9.47980E-05-2.73486E-05-2.89068E-05 2.64187E-06 5.80545E-19-7.64348E-19
 -1       773 9.47000E-05-2.71371E-05-2.89554E-05 3.24108E-06 4.22410E-19-6.38259E-19
 -1       774 9.46483E-05-2.70034E-05-2.89906E-05 3.94696E-06 1.68039E-19 6.43476E-20
 -1       775 9.46942E-05-2.70170E-05-2.90044E-05 4.74567E-06 6.04949E-19-5.29309E-19
 -1       776 9.49203E-05-2.72790E-05-2.89890E-05 5.60792E-06-1.24175E-19-4.74948E-19
 -1       777 9.54532E-05-2.79274E-05-2.89395E-05 6.48045E-06 1.00763E-19-1.69462E-19
 -1       778 9.64748E-05-2.91356E-05-2.88597E-05 7.27069E-06-1.13535E-19-1.60407E-19
 -1       779 9.82252E-05-3.10929E-05-2.87713E-05 7.81853E-06 7.88132E-19 5.74549E-21
 -1       780 1.00977E-04-3.39407E-05-2.87311E-05 7.84732E-06 5.63791E-19 4.69964E-19
 -1       781 1.04930E-04-3.76144E-05-2.88525E-05 6.91342E-06 9.42332E-20 1.11682E-18
 -1       782 1.10017E-04-4.15926E-05-2.93268E-05 4.36942E-06 6.95183E-19 1.30743E-18
 -1       783 1.15392E-04-4.44656E-05-3.03990E-05-3.44323E-07 5.91583E-19 3.21130E-19
 -1       784 1.19055E-04-4.32613E-05-3.25286E-05-7.01326E-06 2.81658E-19 1.39177E-18
 -1       785 1.13022E-04-2.39911E-05-3.82880E-05-1.26108E-05-1.47628E-18 2.92854E-18
 -1       786 1.15452E-04-2.81719E-05-3.75364E-05 1.30021E-05-8.61148E-19-5.20498E-19
 -1       787 1.19099E-04-3.93487E-05-3.42344E-05 1.03033E-05-6.16795E-19-7.36740E-19
 -1       788 1.18016E-04-4.43408E-05-3.16188E-05 3.86091E-06-7.36422E-20 6.94196E-19
 -1       789 1.13836E-04-4.38800E-05-2.99788E-05-2.20408E-06 4.73660E-19 1.25676E-18
 -1       790 1.08606E-04-4.05983E-05-2.91487E-05-6.37805E-06 5.25794E-19 1.78771E-18
 -1       791 1.03995E-04-3.66626E-05-2.88585E-05-8.50938E-06-3.97456E-19 1.92038E-18
 -1       792 1.00507E-04-3.31540E-05-2.88669E-05-9.23233E-06-1.64939E-18 1.61899E-18
 -1       793 9.80955E-05-3.03709E-05-2.90243E-05-9.05344E-06-1.02192E-18 2.56881E-19
 -1       794 9.67512E-05-2.85509E-05-2.92275E-05-8.40976E-06-7.32963E-20 5.24770E-20
 -1       795 9.57365E-05-2.77386E-05-2.91419E-05-1.99403E-07 5.59114E-19-6.19241E-19
 -1       796 9.55099E-05-2.87848E-05-2.85965E-05-1.17947E-06 1.10831E-19-5.01378E-19
 -1       797 9.55719E-05-2.87183E-05-2.86516E-05-1.14898E-06-2.09234E-20-7.18363E-19
 -1       798 9.54038E-05-2.87271E-05-2.85758E-05-1.14269E-06 3.55008E-19-4.34685E-19
 -1       799 9.53573E-05-2.86315E-05-2.85968E-05-1.14237E-06 2.10980E-19-2.86668E-19
 -1       800 9.53115E-05-2.85004E-05-2.86333E-05-1.18715E-06 8.05412E-21-2.92635E-19
 -1       801 9.52623E-05-2.83348E-05-2.86832E-05-1.29684E-06 1.30524E-19-9.80165E-19
 -1       802 9.52042E-05-2.81328E-05-2.87449E-05-1.48939E-06 1.14685E-19-8.04516E-19
 -1       803 9.51303E-05-2.78899E-05-2.88172E-05-1.78203E-06 3.58123E-19-1.26377E-18
 -1       804 9.50312E-05-2.76003E-05-2.88988E-05-2.19186E-06-1.47061E-19-1.27326E-18
 -1       805 9.48956E-05-2.72584E-05-2.89872E-05-2.73583E-06 1.00898E-20-6.71538E-19
 -1       806 9.47095E-05-2.68608E-05-2.90778E-05-3.43033E-06 3.29798E-19 5.83943E-19
 -1       807 9.44585E-05-2.64110E-05-2.91629E-05-4.29029E-06 2.15085E-19 1.14033E-18
 -1       808 9.41311E-05-2.59268E-05-2.92300E-05-5.32817E-06 1.67916E-19 1.00921E-18
 -1       809 9.37280E-05-2.54535E-05-2.92600E-05-6.55357E-06-3.16859E-19 4.50038E-19
 -1       810 9.32800E-05-2.50854E-05-2.92256E-05-7.97425E-06-7.31309E-19-4.13499E-20
 -1       811 9.28815E-05-2.49993E-05-2.90917E-05-9.59948E-06-1.13788E-18-1.22799E-18
 -1       812 9.27475E-05-2.55022E-05-2.88186E-05-1.14432E-05-2.90327E-19-1.42464E-18
 -1       813 9.33037E-05-2.70884E-05-2.83762E-05-1.35143E-05-9.85796E-19-1.28110E-18
 -1       814 9.52890E-05-3.04633E-05-2.77741E-05-1.57597E-05-1.76349E-18-9.52991E-19
 -1       815 1.00046E-04-3.66612E-05-2.71586E-05-1.79569E-05-1.14902E-18-2.19288E-18
 -1       816 1.09318E-04-4.62036E-05-2.69592E-05-1.87808E-05 2.44814E-19-2.12933E-18
 -1       817 1.25841E-04-5.65034E-05-2.97002E-05-1.02209E-05-2.22902E-19-5.24340E-19
 -1       818 1.01109E-04-3.77481E-05-2.71081E-05 1.89742E-05-2.05958E-19-4.62882E-19
 -1       819 9.60117E-05-3.13346E-05-2.77230E-05 1.73666E-05 3.60196E-19 1.98810E-19
 -1       820 9.38652E-05-2.76789E-05-2.83662E-05 1.52221E-05 8.55507E-19 1.14114E-19
 -1       821 9.31820E-05-2.57611E-05-2.88935E-05 1.32081E-05 4.43490E-19 5.96908E-20
 -1       822 9.31770E-05-2.48067E-05-2.93009E-05 1.13016E-05-2.65311E-19-6.21346E-19
 -1       823 9.28350E-05-2.41113E-05-2.94553E-05 1.00052E-05-8.43007E-20 1.16797E-18
 -1       824 1.25847E-04-3.69355E-05-3.83140E-05 1.30174E-05-1.47558E-18-1.45764E-18
 -1       825 1.28016E-04-5.46687E-05-3.15339E-05-5.14638E-06 2.05460E-18 1.17817E-18
 -1       826 6.28303E-05-2.09097E-05-1.76922E-05-2.21400E-05-1.26338E-18-9.03096E-19
 -1       827 9.47093E-05-2.28585E-05-3.07920E-05-4.14330E-06-7.82152E-19-8.83014E-19
 -1       828 8.65043E-05-2.05769E-05-2.82564E-05-3.39468E-06-3.68734E-19-9.92492E-19
 -1       829 1.24108E-04-1.20275E-05-4.86307E-05 7.62374E-06-2.73491E-18-1.44120E-18
 -1       830 9.38474E-05-2.63216E-05-2.89399E-05-8.87232E-06-3.13384E-19 2.35880E-18
 -1       831 8.85591E-05-2.22627E-05-2.84136E-05-6.47257E-06-2.98896E-19 2.13682E-19
 -1       832 1.08989E-04-5.12580E-05-2.46235E-05-2.61489E-05 4.59654E-19-1.33179E-18
 -1       833 9.57005E-05-2.69093E-05-2.94818E-05 6.92051E-07 5.89938E-19-6.16249E-19
 -1       834 9.12319E-05-2.43631E-05-2.86590E-05-8.32377E-06-1.19230E-18-2.41067E-19
 -1       835 1.10272E-04-4.72897E-05-2.69195E-05 1.93605E-05-9.31062E-19-2.09548E-18
 -1       836 9.54540E-05-2.87817E-05-2.85739E-05-1.16477E-06 4.22461E-19-2.53534E-19
 -1       837 9.52139E-05-2.44697E-05-3.03176E-05 3.44928E-06 1.01105E-18-9.04224E-19
 -1       838 9.32247E-05-1.97811E-05-3.14770E-05 1.23511E-06 3.16704E-19-1.50310E-18
 -1       839 9.33163E-05-4.12948E-05-2.21638E-05-2.83318E-05 7.12964E-20-3.31062E-18
 -1       840 5.62055E-05-1.36956E-05-1.80039E-05 6.67284E-06 5.22265E-20 9.49815E-19
 -1       841 1.01906E-04-4.44234E-05-2.45167E-05 2.57482E-05-1.99777E-18-1.61379E-18
 -1       842 1.27596E-04-4.82364E-05-3.41315E-05-5.25041E-06 9.98503E-19 2.21692E-18
 -1       843 8.64685E-05-3.98049E-05-1.97812E-05-3.36772E-05 1.55854E-19-9.64321E-19
 -1       844 5.18874E-05-1.49165E-05-1.55204E-05 1.59358E-05-3.50457E-19-2.21589E-18
 -1       845 4.68362E-05-1.17250E-05-1.47194E-05-4.48732E-06-1.07573E-18-1.74100E-18
 -1       846 9.31155E-05-1.95824E-05-3.15153E-05 1.99778E-08 8.48161E-20-1.86229E-18
 -1       847 8.65035E-05-3.94841E-05-1.99409E-05 3.29569E-05 1.37413E-18-2.55874E-18
 -1       848 5.50688E-05-1.62795E-05-1.63511E-05-1.59870E-05-9.43859E-19 1.60075E-18
 -1       849 9.55314E-05-2.59093E-05-2.98390E-05 1.84077E-06 8.17704E-19-9.04383E-19
 -1       850 9.56377E-05-2.85543E-05-2.87500E-05-1.02315E-06-1.48773E-19-4.19124E-19
 -1       851 1.18795E-04-3.60480E-05-3.55797E-05-1.28246E-05-5.78140E-19 3.23063E-18
 -1       852 1.09924E-04-1.75403E-05-3.98878E-05 7.26424E-06 1.01207E-19 1.25543E-18
 -1       853 1.16858E-04-5.41003E-05-2.69064E-05 1.94077E-05 2.57348E-18-2.38419E-18
 -1       854 9.35384E-05-2.03656E-05-3.13607E-05 2.36348E-06 5.97537E-19-1.56730E-18
 -1       855 8.62213E-05-1.99956E-05-2.83837E-05 4.69615E-06-4.60244E-19 4.46195E-18
 -1       856 1.18916E-04-5.27928E-05-2.83060E-05-1.36063E-05 1.41777E-18 2.36373E-18
 -1       857 8.03440E-05-2.93103E-05-2.17662E-05-2.43663E-05-6.40506E-19-2.16178E-18
 -1       858 1.13617E-04-1.50542E-05-4.26287E-05 7.44246E-06-4.31087E-19 2.10142E-18
 -1       859 8.55652E-05-1.96948E-05-2.82303E-05 5.78679E-07-1.25400E-18-5.12488E-19
 -1       860 9.56993E-05-2.82499E-05-2.89069E-05-7.35688E-07 4.62659E-19-5.97164E-19
 -1       861 1.24736E-04-5.16385E-05-3.13219E-05 2.66934E-06 1.70761E-18 1.16275E-18
 -1       862 8.80143E-05-2.11005E-05-2.86763E-05 7.56151E-06-9.65264E-19 3.39050E-18
 -1       863 9.40341E-05-2.13421E-05-3.11533E-05 3.31493E-06 7.35340E-19-1.32886E-18
 -1       864 6.29619E-05-2.12098E-05-1.76770E-05 2.32613E-05 1.04887E-19-1.91219E-18
 -1       865 9.35158E-05-2.03303E-05-3.13662E-05-2.33070E-06-3.73283E-19-1.55118E-18
 -1       866 1.12188E-04-5.20492E-05-2.56335E-05-2.23322E-05 4.82253E-19-2.12822E-18
 -1       867 6.74018E-05-2.63029E-05-1.73477E-05-2.86673E-05-1.24159E-18-7.35569E-19
 -1       868 9.53680E-05-2.75386E-05-2.90706E-05-8.82491E-06-4.13519E-19 3.75396E-18
 -1       869 9.39798E-05-2.12698E-05-3.11643E-05-3.28720E-06-5.23960E-19-1.34576E-18
 -1       870 9.70623E-05-4.17947E-05-2.36019E-05-2.59705E-05 4.17056E-19-9.95830E-19
 -1       871 9.62098E-05-2.69809E-05-2.96697E-05-2.86336E-07-1.82730E-19-7.38335E-19
 -1       872 9.63731E-05-2.78954E-05-2.93476E-05 3.04312E-07-2.79063E-19-7.99584E-19
 -1       873 9.63869E-05-2.84661E-05-2.91089E-05 6.65785E-07-1.48668E-19-3.18652E-19
 -1       874 9.63117E-05-2.87903E-05-2.89378E-05 8.61928E-07-7.02933E-20-4.63427E-19
 -1       875 9.61856E-05-2.89384E-05-2.88203E-05 9.50952E-07 2.26985E-19-1.04580E-18
 -1       876 9.60317E-05-2.89605E-05-2.87448E-05 9.79773E-07 1.77644E-20-7.95936E-19
 -1       877 9.58623E-05-2.88907E-05-2.87021E-05 9.85235E-07-8.37786E-20-5.49216E-19
 -1       878 9.56826E-05-2.87516E-05-2.86847E-05 9.96099E-07-1.72569E-19-1.00198E-18
 -1       879 9.54927E-05-2.85574E-05-2.86865E-05 1.03499E-06-6.00876E-19-1.14841E-18
 -1       880 9.52890E-05-2.83164E-05-2.87026E-05 1.12042E-06-5.03884E-20-1.12195E-18
 -1       881 9.50661E-05-2.80333E-05-2.87283E-05 1.26826E-06-4.75858E-19-9.05201E-19
 -1       882 9.48177E-05-2.77124E-05-2.87594E-05 1.49277E-06-4.81995E-19-7.20687E-19
 -1       883 9.45387E-05-2.73598E-05-2.87910E-05 1.80730E-06-5.49746E-19-1.42793E-19
 -1       884 9.42275E-05-2.69871E-05-2.88173E-05 2.22457E-06-1.24181E-19 5.14503E-19
 -1       885 9.38890E-05-2.66157E-05-2.88314E-05 2.75673E-06 6.12282E-20 6.28625E-20
 -1       886 9.35398E-05-2.62826E-05-2.88245E-05 3.41519E-06 1.00572E-18-6.03309E-19
 -1       887 9.32151E-05-2.60465E-05-2.87865E-05 4.21027E-06 5.01051E-19-8.59482E-20
 -1       888 9.29783E-05-2.59970E-05-2.87062E-05 5.15037E-06 1.04165E-19 1.51036E-19
 -1       889 9.29349E-05-2.62632E-05-2.85735E-05 6.23958E-06-6.67249E-19-1.63183E-19
 -1       890 9.32508E-05-2.70234E-05-2.83832E-05 7.47087E-06 4.79449E-19-7.74571E-19
 -1       891 9.41760E-05-2.85103E-05-2.81425E-05 8.80734E-06 2.19129E-19-5.11511E-19
 -1       892 9.60699E-05-3.10035E-05-2.78854E-05 1.01372E-05 8.22150E-19-1.37803E-18
 -1       893 9.94054E-05-3.47700E-05-2.77017E-05 1.11521E-05 7.89174E-19-8.44215E-19
 -1       894 1.04647E-04-3.98352E-05-2.77765E-05 1.12680E-05 1.16464E-18-9.27099E-19
 -1       895 1.12157E-04-4.57639E-05-2.84255E-05 9.26669E-06 1.18975E-18-2.63860E-19
 -1       896 1.22892E-04-4.48582E-05-3.34819E-05 6.45493E-06 5.19496E-19-7.04262E-21
 -1       897 1.18482E-04-4.93738E-05-2.95881E-05-6.40672E-06 7.53882E-19 1.05714E-18
 -1       898 1.10288E-04-4.43066E-05-2.82745E-05-1.08277E-05 2.01082E-19 2.08520E-18
 -1       899 1.03805E-04-3.87147E-05-2.78957E-05-1.22590E-05-2.33080E-19 1.48235E-18
 -1       900 9.93637E-05-3.40198E-05-2.80041E-05-1.19958E-05 7.77804E-20 1.21934E-18
 -1       901 9.66017E-05-3.04810E-05-2.83380E-05-1.09826E-05-1.92606E-18 3.27969E-18
 -1       902 9.32135E-05-1.97640E-05-3.14795E-05-1.19490E-06-8.80832E-20-1.54504E-18
 -1       903 9.54781E-05-2.85841E-05-2.86688E-05-1.09273E-06 1.16721E-19-6.66152E-19
 -1       904 9.56283E-05-2.87547E-05-2.86601E-05-1.06262E-06 3.11935E-19-5.05046E-19
 -1       905 9.51286E-05-2.80929E-05-2.87296E-05-1.31303E-06-2.92785E-20-1.39366E-18
 -1       906 9.49080E-05-2.77671E-05-2.87747E-05-1.53577E-06 2.82219E-19-1.34053E-18
 -1       907 9.46368E-05-2.73792E-05-2.88247E-05-1.85277E-06 1.78743E-19-1.21195E-18
 -1       908 9.42951E-05-2.69206E-05-2.88748E-05-2.27713E-06-8.70322E-19-8.35926E-19
 -1       909 9.38589E-05-2.63834E-05-2.89180E-05-2.82085E-06-3.69433E-19 2.69661E-19
 -1       910 9.33003E-05-2.57640E-05-2.89441E-05-3.49478E-06 1.77651E-19 4.91010E-19
 -1       911 9.25895E-05-2.50672E-05-2.89380E-05-4.30928E-06 5.18468E-19 3.82919E-20
 -1       912 9.16980E-05-2.43155E-05-2.88781E-05-5.27678E-06 5.63259E-19 1.63450E-19
 -1       913 9.06073E-05-2.35617E-05-2.87337E-05-6.41858E-06-2.38219E-19-2.74048E-19
 -1       914 8.93245E-05-2.29098E-05-2.84633E-05-7.77936E-06-3.86342E-19-1.08141E-18
 -1       915 8.79114E-05-2.25471E-05-2.80133E-05-9.45267E-06-5.43214E-19-1.56537E-18
 -1       916 8.65397E-05-2.27948E-05-2.73196E-05-1.16180E-05-1.19890E-18-1.16567E-18
 -1       917 8.55877E-05-2.41835E-05-2.63164E-05-1.45880E-05-1.30412E-18-9.53292E-19
 -1       918 8.60040E-05-2.76551E-05-2.49707E-05-1.88029E-05-7.35954E-19-2.35337E-18
 -1       919 8.76155E-05-2.34051E-05-2.75146E-05 1.33562E-05 9.93205E-19 3.40388E-18
 -1       920 8.68382E-05-2.86124E-05-2.48908E-05 2.06300E-05 1.45747E-19-1.06095E-18
 -1       921 8.89750E-05-2.27492E-05-2.83776E-05 1.11422E-05 2.58169E-18 1.86353E-18
 -1       922 6.00282E-05-1.51495E-05-1.90776E-05-1.07640E-05-9.44488E-19-6.97995E-19
 -1       923 5.67961E-05-1.31352E-05-1.85580E-05 4.20438E-06-1.34046E-18-1.65338E-18
 -1       924 6.44295E-05-1.58224E-05-2.07473E-05-6.74728E-06 7.36852E-20 2.55086E-18
 -1       925 8.53925E-05-2.15342E-05-2.73697E-05-6.71403E-06-6.96004E-19 2.02906E-19
 -1       926 9.48112E-05-2.30431E-05-3.07582E-05-2.77569E-06-4.47896E-19-1.01516E-18
 -1       927 6.83089E-05-2.01351E-05-2.05435E-05-1.68998E-05 1.61541E-19 3.90535E-19
 -1       928 8.67281E-05-2.51317E-05-2.64009E-05 1.63885E-05-9.04147E-19 1.96750E-18
 -1       929 8.23419E-05-3.18004E-05-2.15493E-05-2.61990E-05-1.41193E-19-1.73139E-18
 -1       930 9.60654E-05-2.69430E-05-2.96239E-05 3.95473E-07 6.82783E-19-8.30197E-19
 -1       931 9.03551E-05-2.25318E-05-2.90673E-05 9.23384E-06-2.11634E-18-1.08626E-18
 -1       932 9.58099E-05-2.55925E-05-3.00935E-05-1.17058E-06-3.18839E-19-9.05545E-19
 -1       933 7.06417E-05-1.87528E-05-2.22184E-05 1.38328E-05-1.08951E-18-6.53188E-19
 -1       934 9.53145E-05-2.83637E-05-2.86932E-05-1.17046E-06 4.07497E-19-1.04564E-18
 -1       935 9.60325E-05-2.88824E-05-2.87786E-05-1.02915E-06-1.03770E-19-6.17095E-19
 -1       936 9.57761E-05-2.58567E-05-2.99652E-05 1.28048E-06 5.93892E-19-6.61771E-19
 -1       937 1.03824E-04-4.67846E-05-2.43186E-05 2.49424E-05 1.62175E-18-3.33620E-18
 -1       938 9.59063E-05-2.89198E-05-2.87085E-05-1.05933E-06-1.04654E-19-4.96181E-19
 -1       939 9.61392E-05-2.87259E-05-2.88914E-05-9.27971E-07 1.14269E-19-7.26778E-19
 -1       940 9.47093E-05-2.26104E-05-3.08994E-05 1.22218E-06 4.42419E-19-1.40139E-18
 -1       941 8.90101E-05-2.42353E-05-2.77553E-05-9.45727E-06-1.10307E-18-2.18472E-18
 -1       942 9.46980E-05-2.25903E-05-3.09032E-05-1.20124E-06 4.81265E-21-1.35074E-18
 -1       943 9.58558E-05-2.88293E-05-2.87242E-05-9.85642E-06-6.39915E-19 3.15417E-18
 -1       944 7.64921E-05-2.91258E-05-2.01759E-05 2.67989E-05 6.38077E-19-1.42188E-18
 -1       945 9.57705E-05-2.88704E-05-2.86715E-05-1.05987E-06 6.19441E-19-2.39210E-19
 -1       946 8.26794E-05-1.90617E-05-2.72682E-05 2.80004E-06-2.04104E-18 9.20946E-19
 -1       947 9.49531E-05-2.32416E-05-3.07308E-05-1.86033E-06-1.85827E-19-1.33450E-18
 -1       948 1.08889E-04-4.70438E-05-2.65018E-05-1.85585E-05-1.85062E-19 1.57084E-18
 -1       949 7.03936E-05-1.62941E-05-2.31668E-05 3.33608E-06-3.62028E-19 6.35801E-19
 -1       950 9.50944E-05-2.38725E-05-3.05237E-05 2.82923E-06 8.52319E-19-8.61524E-19
 -1       951 7.17745E-05-2.08348E-05-2.17566E-05-1.71153E-05-1.26464E-18-2.34591E-18
 -1       952 6.15177E-05-1.58900E-05-1.94309E-05 1.20841E-05-1.04154E-18-1.07681E-18
 -1       953 8.30655E-05-1.96082E-05-2.71952E-05-2.33774E-06-1.55923E-18 1.01076E-18
 -1       954 8.43884E-05-1.99707E-05-2.76108E-05 6.87383E-06 1.21104E-19 3.36906E-18
 -1       955 9.45654E-05-2.22710E-05-3.09833E-05 4.30882E-07 2.93659E-19-1.61635E-18
 -1       956 9.62018E-05-2.78426E-05-2.92968E-05-2.88051E-07 3.93436E-19-8.52267E-19
 -1       957 9.32666E-05-2.71266E-05-2.83488E-05-1.02601E-05-1.34742E-18 3.43344E-18
 -1       958 9.39905E-05-2.67827E-05-2.88033E-05-1.70182E-06-8.41735E-19-4.00081E-19
 -1       959 9.49789E-05-2.32862E-05-3.07261E-05 1.88738E-06 5.41905E-19-1.36258E-18
 -1       960 9.57019E-05-2.87011E-05-2.87146E-05-9.04030E-07 4.19871E-19-6.13174E-19
 -1       961 9.66746E-05-2.80995E-05-2.93892E-05 3.30303E-07-8.58100E-20-4.56678E-19
 -1       962 9.66775E-05-2.86377E-05-2.91599E-05 5.61961E-07 4.90239E-20-5.25005E-19
 -1       963 9.65742E-05-2.89258E-05-2.89922E-05 6.86763E-07-2.75534E-19-6.94974E-19
 -1       964 9.64046E-05-2.90312E-05-2.88743E-05 7.43924E-07-2.14586E-20-8.27452E-19
 -1       965 9.61948E-05-2.90033E-05-2.87964E-05 7.66176E-07-8.89233E-20-7.42624E-19
 -1       966 9.59586E-05-2.88757E-05-2.87498E-05 7.79942E-07-2.59181E-19-8.72915E-19
 -1       967 9.57011E-05-2.86708E-05-2.87273E-05 8.06060E-07-3.05158E-19-4.57052E-19
 -1       968 9.54207E-05-2.84016E-05-2.87225E-05 8.61732E-07 8.26813E-20-5.48140E-20
 -1       969 9.51112E-05-2.80752E-05-2.87297E-05 9.61862E-07-2.49623E-19-5.76216E-19
 -1       970 9.47635E-05-2.76957E-05-2.87434E-05 1.12019E-06-4.97838E-19-9.70360E-20
 -1       971 9.43670E-05-2.72664E-05-2.87575E-05 1.35036E-06-5.02053E-19-5.17747E-20
 -1       972 9.39123E-05-2.67938E-05-2.87651E-05 1.66689E-06 4.61440E-19-1.24601E-19
 -1       973 9.33932E-05-2.62911E-05-2.87581E-05 2.08613E-06 6.29992E-20 6.84109E-19
 -1       974 9.28106E-05-2.57831E-05-2.87262E-05 2.62754E-06 6.62596E-19 8.24724E-19
 -1       975 9.21779E-05-2.53115E-05-2.86572E-05 3.31527E-06 8.34513E-19 1.28584E-18
 -1       976 9.15275E-05-2.49429E-05-2.85364E-05 4.18062E-06-1.17486E-19 6.71414E-20
 -1       977 9.09214E-05-2.47767E-05-2.83480E-05 5.26499E-06-2.66804E-19-4.89330E-19
 -1       978 9.04669E-05-2.49572E-05-2.80760E-05 6.62263E-06-2.86332E-19-1.77105E-19
 -1       979 9.03404E-05-2.56877E-05-2.77091E-05 8.32010E-06 2.96410E-19-3.71187E-19
 -1       980 9.08291E-05-2.72515E-05-2.72485E-05 1.04206E-05-4.16736E-19-6.02998E-19
 -1       981 9.23668E-05-3.00211E-05-2.67206E-05 1.29594E-05 5.14078E-19-1.97262E-18
 -1       982 9.58670E-05-3.45633E-05-2.62718E-05 1.55100E-05 8.02005E-19-1.65096E-18
 -1       983 1.01997E-04-4.11234E-05-2.60918E-05 1.77379E-05 1.96753E-18-1.53212E-18
 -1       984 9.45609E-05-2.22638E-05-3.09844E-05-4.06837E-07 1.41282E-19-1.53920E-18
 -1       985 1.00662E-04-3.92979E-05-2.62895E-05-1.78542E-05-7.82587E-19 2.74018E-19
 -1       986 9.57741E-05-3.34622E-05-2.66981E-05-1.56078E-05-2.96462E-19 7.43200E-19
 -1       987 9.32820E-05-2.94828E-05-2.73383E-05-1.31017E-05 7.49405E-19 1.12547E-18
 -1       988 9.44643E-05-2.73129E-05-2.87792E-05-1.41038E-06 2.52818E-19-5.26122E-19
 -1       989 9.48511E-05-2.77623E-05-2.87524E-05-1.19440E-06 4.59527E-19-3.54939E-19
 -1       990 9.34007E-05-2.61622E-05-2.88165E-05-2.07520E-06-6.98959E-19-1.00642E-18
 -1       991 9.26606E-05-2.54434E-05-2.88074E-05-2.53478E-06 5.59473E-20-1.39222E-18
 -1       992 9.17303E-05-2.46233E-05-2.87602E-05-3.08309E-06 3.28294E-19-1.10667E-18
 -1       993 9.05641E-05-2.37081E-05-2.86527E-05-3.72311E-06 4.19628E-19 1.31425E-19
 -1       994 8.91110E-05-2.27188E-05-2.84539E-05-4.46411E-06 2.80861E-19 7.52758E-21
 -1       995 8.73148E-05-2.16996E-05-2.81211E-05-5.33464E-06 1.04324E-19-8.01780E-20
 -1       996 8.51140E-05-2.07278E-05-2.75947E-05-6.40906E-06 2.11964E-19-8.64773E-19
 -1       997 8.24502E-05-1.99363E-05-2.67922E-05-7.84801E-06-5.96477E-19-1.39488E-18
 -1       998 7.92647E-05-1.95487E-05-2.55954E-05-9.94817E-06-1.01215E-18-2.10791E-18
 -1       999 8.40697E-05-2.05415E-05-2.72449E-05 9.25218E-06 1.44284E-18 5.90049E-19
 -1      1000 6.48766E-05-1.46374E-05-2.14621E-05-3.18524E-06-1.58496E-18-1.20985E-18
 -1      1001 7.40776E-05-1.97259E-05-2.32713E-05-1.12972E-05 8.15858E-19-3.81496E-21
 -1      1002 9.60724E-05-2.58763E-05-3.00835E-05-6.38732E-07-1.79447E-19-7.61441E-19
 -1      1003 9.23667E-05-3.53510E-05-2.44275E-05-2.18731E-05-3.22252E-19 3.71202E-19
 -1      1004 8.05957E-05-2.61943E-05-2.32799E-05-1.89743E-05 1.53561E-18-2.43597E-18
 -1      1005 9.62067E-05-2.84027E-05-2.90590E-05-7.02740E-07 9.79755E-20-4.39090E-19
 -1      1006 9.65046E-05-2.72286E-05-2.96910E-05-5.58147E-08-3.17311E-20-5.54849E-19
 -1      1007 9.57119E-05-2.48632E-05-3.03629E-05 8.97905E-07 4.35852E-19-1.49301E-18
 -1      1008 9.64707E-05-2.88731E-05-2.89703E-05-7.78412E-07-1.27885E-19-5.14490E-19
 -1      1009 9.54536E-05-2.84520E-05-2.87150E-05-9.52794E-07 1.26867E-19-4.55916E-20
 -1      1010 1.03115E-04-4.37863E-05-2.53586E-05 2.06538E-05 1.11415E-18-2.53664E-18
 -1      1011 6.95044E-05-2.09758E-05-2.07109E-05 1.83676E-05 5.34093E-19-4.12244E-19
 -1      1012 9.59286E-05-2.88840E-05-2.87334E-05-8.84023E-07 3.40946E-19-9.30724E-19
 -1      1013 7.91869E-05-1.97726E-05-2.54487E-05 1.09467E-05-1.31712E-18-1.83783E-18
 -1      1014 7.55057E-05-1.98711E-05-2.38259E-05-1.32810E-05-1.58736E-18-2.01092E-18
 -1      1015 9.56993E-05-2.48364E-05-3.03711E-05-8.87394E-07-2.96810E-20-1.16261E-18
 -1      1016 7.51497E-05-1.76659E-05-2.46262E-05-2.68651E-06-6.51137E-19 1.83599E-18
 -1      1017 6.93901E-05-1.67785E-05-2.25179E-05-9.17516E-06-1.35871E-18-1.41664E-18
 -1      1018 8.09612E-05-2.02693E-05-2.60292E-05-6.62731E-06-1.00551E-18 4.67637E-19
 -1      1019 9.56244E-05-2.44640E-05-3.04967E-05-4.80997E-07 3.02021E-19-1.26406E-18
 -1      1020 6.54542E-05-1.48917E-05-2.16051E-05 3.26179E-06-1.63891E-18-2.16426E-18
 -1      1021 9.63210E-05-2.89965E-05-2.88533E-05-8.48439E-07-7.33537E-20-9.08810E-19
 -1      1022 9.56361E-05-2.44813E-05-3.04943E-05 5.00405E-07 4.89715E-19-1.26228E-18
 -1      1023 8.56595E-05-2.36704E-05-2.65597E-05-1.07582E-05-1.54616E-18-7.16171E-19
 -1      1024 9.59489E-05-2.57470E-05-3.00849E-05 8.82120E-07 5.80504E-19-9.78970E-19
 -1      1025 9.18638E-05-3.73302E-05-2.33283E-05 2.46463E-05 1.41534E-18-3.42373E-18
 -1      1026 9.51746E-05-2.81398E-05-2.87292E-05-1.04536E-06 2.50124E-19 1.37424E-19
 -1      1027 9.63580E-05-2.71037E-05-2.96802E-05 1.46039E-07 5.34849E-19-8.42285E-19
 -1      1028 7.85207E-05-1.84045E-05-2.57575E-05 6.11795E-06-1.43574E-18 4.45836E-19
 -1      1029 8.96089E-05-3.08078E-05-2.51877E-05-1.81463E-05 8.03246E-19 2.22842E-18
 -1      1030 9.61361E-05-2.89891E-05-2.87772E-05-8.73485E-07 2.27648E-19-1.17360E-18
 -1      1031 9.68438E-05-2.88065E-05-2.91589E-05 3.94820E-07-3.36048E-19-1.08158E-18
 -1      1032 9.66994E-05-2.90289E-05-2.90017E-05 4.58354E-07-1.86839E-19-5.07309E-19
 -1      1033 9.64846E-05-2.90733E-05-2.88906E-05 4.88101E-07-7.60476E-20-5.15946E-19
 -1      1034 9.62243E-05-2.89855E-05-2.88166E-05 5.02819E-07-7.64352E-20-3.65443E-19
 -1      1035 9.59309E-05-2.87971E-05-2.87717E-05 5.19263E-07 1.80528E-19-3.01118E-19
 -1      1036 9.56064E-05-2.85269E-05-2.87484E-05 5.49857E-07-5.36287E-19-7.92983E-19
 -1      1037 9.52461E-05-2.81853E-05-2.87404E-05 6.06384E-07-2.04520E-19-1.30569E-18
 -1      1038 9.48403E-05-2.77776E-05-2.87412E-05 6.99876E-07-5.38149E-20-6.70706E-19
 -1      1039 9.43753E-05-2.73058E-05-2.87442E-05 8.41710E-07-1.37487E-19 9.40296E-20
 -1      1040 9.38357E-05-2.67717E-05-2.87419E-05 1.04494E-06 1.42835E-21 8.98805E-19
 -1      1041 9.32061E-05-2.61809E-05-2.87253E-05 1.32557E-06 5.33006E-19 7.72327E-19
 -1      1042 9.24735E-05-2.55460E-05-2.86835E-05 1.70428E-06 5.11406E-19 3.93340E-19
 -1      1043 9.16304E-05-2.48911E-05-2.86029E-05 2.20885E-06 1.12666E-18 2.84468E-19
 -1      1044 9.06784E-05-2.42570E-05-2.84668E-05 2.87769E-06-4.09522E-19-1.21672E-19
 -1      1045 8.96333E-05-2.37074E-05-2.82545E-05 3.76510E-06-6.55656E-19-2.88589E-19
 -1      1046 8.85321E-05-2.33363E-05-2.79420E-05 4.94890E-06-2.72960E-19-6.26262E-19
 -1      1047 8.74461E-05-2.32789E-05-2.75018E-05 6.54021E-06-2.53613E-19-3.09629E-19
 -1      1048 8.64953E-05-2.37244E-05-2.69052E-05 8.69675E-06-1.60118E-19-7.38917E-20
 -1      1049 8.59299E-05-2.49860E-05-2.61262E-05 1.16568E-05-9.78477E-19-3.11729E-19
 -1      1050 8.59877E-05-2.73381E-05-2.51353E-05 1.55937E-05 6.84293E-20-1.38899E-18
 -1      1051 9.63634E-05-2.65396E-05-2.99255E-05 2.98078E-07 3.16042E-19-1.29063E-18
 -1      1052 9.55900E-05-2.43369E-05-3.05368E-05 5.67131E-09 3.01206E-19-1.52976E-18
 -1      1053 9.68766E-05-2.83403E-05-2.93726E-05 2.75181E-07-1.25727E-19-9.10660E-19
 -1      1054 9.39376E-05-2.68215E-05-2.87641E-05-1.09199E-06 2.32257E-19 4.90457E-19
 -1      1055 9.32776E-05-2.61692E-05-2.87609E-05-1.30180E-06 1.74156E-19-7.41642E-19
 -1      1056 9.44782E-05-2.73808E-05-2.87561E-05-9.26597E-07-2.81878E-20 1.61956E-19
 -1      1057 9.14538E-05-2.45552E-05-2.86711E-05-1.84131E-06-9.33481E-20-8.64365E-19
 -1      1058 9.01997E-05-2.35878E-05-2.85484E-05-2.15492E-06-1.06409E-20-7.70893E-19
 -1      1059 8.86415E-05-2.25203E-05-2.83382E-05-2.48326E-06 4.33885E-19-1.26346E-18
 -1      1060 8.67021E-05-2.13684E-05-2.80010E-05-2.81942E-06 3.31280E-20-1.02500E-18
 -1      1061 8.42742E-05-2.01540E-05-2.74814E-05-3.17247E-06-7.66732E-20 8.65846E-20
 -1      1062 8.11861E-05-1.88931E-05-2.66982E-05-3.59388E-06 2.07550E-19 4.66755E-19
 -1      1063 7.71808E-05-1.76337E-05-2.55192E-05-4.21569E-06-5.90272E-19-3.09482E-19
 -1      1064 9.65273E-05-2.79991E-05-2.93691E-05-3.37511E-07 4.67718E-20-6.55450E-19
 -1      1065 9.49288E-05-2.78560E-05-2.87455E-05-8.04535E-07 4.83654E-19-2.11200E-19
 -1      1066 7.35159E-05-1.69017E-05-2.42459E-05-6.04624E-06-9.47897E-19-3.12458E-19
 -1      1067 9.65590E-05-2.85683E-05-2.91387E-05-6.24717E-07 4.04358E-20-5.37481E-19
 -1      1068 9.67566E-05-2.75732E-05-2.96504E-05 6.77074E-08-6.08379E-20-8.95759E-19
 -1      1069 9.62236E-05-2.60268E-05-3.00832E-05-3.79330E-07 1.57845E-19-8.52941E-19
 -1      1070 9.24634E-05-2.54156E-05-2.87350E-05-1.55367E-06-2.31208E-19-9.57965E-19
 -1      1071 9.56496E-05-2.85794E-05-2.87444E-05-6.72062E-07-1.69974E-19-1.26140E-19
 -1      1072 6.84308E-05-1.69464E-05-2.20557E-05 9.67452E-06-6.87955E-19 1.92608E-18
 -1      1073 9.59505E-05-2.88299E-05-2.87660E-05-6.45683E-07 1.46982E-19-8.55326E-19
 -1      1074 8.79230E-05-2.73523E-05-2.59705E-05-1.46534E-05-6.07598E-19 1.34248E-18
 -1      1075 9.66557E-05-2.89907E-05-2.89993E-05-5.74201E-07 5.36770E-20-1.04833E-18
 -1      1076 8.01698E-05-2.08481E-05-2.54183E-05-8.94760E-06-3.36191E-19-8.19478E-19
 -1      1077 6.90023E-05-1.54287E-05-2.29201E-05-2.32796E-06-7.78445E-19-1.83247E-18
 -1      1078 9.67880E-05-2.87447E-05-2.91619E-05-4.84400E-07 1.49687E-19-8.77891E-19
 -1      1079 8.31185E-05-2.46911E-05-2.50272E-05-1.43775E-05-3.16047E-19-1.82192E-18
 -1      1080 9.53131E-05-2.82542E-05-2.87396E-05-7.21833E-07 3.86207E-19 1.96402E-20
 -1      1081 9.50957E-05-2.80162E-05-2.87484E-05-4.02686E-07 2.62436E-19-1.84499E-21
 -1      1082 9.16045E-05-2.47737E-05-2.86421E-05-7.05405E-07 1.74828E-20-1.18102E-18
 -1      1083 9.67049E-05-2.90869E-05-2.89789E-05 1.85712E-07-3.52823E-19-5.80764E-19
 -1      1084 9.64439E-05-2.90591E-05-2.88793E-05 1.94801E-07-3.62889E-19-9.17588E-19
 -1      1085 9.61474E-05-2.89153E-05-2.88137E-05 2.01650E-07 6.76182E-20-1.05026E-18
 -1      1086 9.58096E-05-2.86670E-05-2.87753E-05 2.14016E-07-3.94531E-19-9.25726E-19
 -1      1087 9.54312E-05-2.83365E-05-2.87547E-05 2.36835E-07-2.38839E-19-7.84152E-19
 -1      1088 9.50050E-05-2.79301E-05-2.87462E-05 2.76012E-07 1.99479E-19-5.01246E-19
 -1      1089 9.45165E-05-2.74496E-05-2.87428E-05 3.38704E-07 4.72535E-19-6.20653E-19
 -1      1090 9.39469E-05-2.68941E-05-2.87367E-05 4.34053E-07 5.55312E-19-1.55479E-19
 -1      1091 9.32747E-05-2.62631E-05-2.87190E-05 5.74358E-07 2.14003E-19-3.83192E-20
 -1      1092 9.24773E-05-2.55594E-05-2.86787E-05 7.76753E-07 2.03746E-19 5.47965E-19
 -1      1093 9.15314E-05-2.47922E-05-2.86020E-05 1.06549E-06 4.00920E-19 4.39842E-19
 -1      1094 9.04152E-05-2.39809E-05-2.84711E-05 1.47518E-06-1.40539E-19-7.96284E-19
 -1      1095 8.91082E-05-2.31575E-05-2.82635E-05 2.05551E-06-5.12569E-19-1.02179E-18
 -1      1096 8.75915E-05-2.23705E-05-2.79502E-05 2.87853E-06-6.68138E-19-7.69283E-19
 -1      1097 8.58454E-05-2.16872E-05-2.74941E-05 4.05017E-06-7.35020E-19-8.89613E-19
 -1      1098 8.38485E-05-2.12019E-05-2.68469E-05 5.73288E-06-4.02711E-19-1.15673E-18
 -1      1099 8.15567E-05-2.10459E-05-2.59383E-05 8.13571E-06-4.43517E-19-6.96736E-19
 -1      1100 7.91097E-05-2.14335E-05-2.47077E-05 1.16385E-05-1.22972E-18 5.75685E-20
 -1      1101 9.66586E-05-2.76497E-05-2.95746E-05-1.35894E-07-7.60551E-20-1.00661E-18
 -1      1102 9.62979E-05-2.59863E-05-3.01347E-05 1.21003E-07 2.31521E-19-1.25534E-18
 -1      1103 8.40675E-05-2.93773E-05-2.33446E-05 2.05637E-05 1.23980E-18-1.55638E-18
 -1      1104 9.55049E-05-2.84078E-05-2.87559E-05-3.72850E-07 2.72846E-19-1.89659E-19
 -1      1105 8.70981E-05-2.17046E-05-2.80270E-05-5.88685E-07-1.23829E-19-3.26798E-19
 -1      1106 9.34006E-05-2.63494E-05-2.87364E-05-5.72986E-07 2.83197E-19 2.04929E-19
 -1      1107 9.40675E-05-2.69922E-05-2.87466E-05-5.04579E-07 1.89255E-19 3.21655E-19
 -1      1108 8.89161E-05-2.28107E-05-2.83317E-05-7.09872E-07 4.80154E-20-9.51846E-19
 -1      1109 9.03964E-05-2.38380E-05-2.85255E-05-7.36557E-07-3.08098E-19-1.41776E-18
 -1      1110 8.48499E-05-2.05353E-05-2.75654E-05-3.27364E-07-3.08715E-19-1.62603E-19
 -1      1111 8.20312E-05-1.93148E-05-2.68815E-05 1.29862E-07-4.19912E-19 1.16942E-19
 -1      1112 7.84037E-05-1.80091E-05-2.58720E-05 8.78964E-07 4.50321E-19 4.68993E-19
 -1      1113 9.64611E-05-2.90607E-05-2.88859E-05-6.14318E-07 2.47226E-19-9.53091E-19
 -1      1114 9.63194E-05-2.60125E-05-3.01315E-05-1.07195E-07 2.71213E-19-1.64822E-18
 -1      1115 9.25918E-05-2.56111E-05-2.87062E-05-6.44273E-07 1.88897E-19-2.27411E-19
 -1      1116 9.46236E-05-2.75457E-05-2.87478E-05-4.46665E-07-2.82385E-19 6.24989E-19
 -1      1117 9.68937E-05-2.89461E-05-2.91201E-05 1.66505E-07 9.09702E-20-4.38127E-19
 -1      1118 9.67848E-05-2.83198E-05-2.93437E-05-3.53814E-07 3.52555E-20-1.00637E-18
 -1      1119 9.69822E-05-2.85905E-05-2.93109E-05 1.30151E-07 1.35583E-19-1.11202E-18
 -1      1120 9.69236E-05-2.79429E-05-2.95621E-05 6.44396E-08-5.41716E-20-1.40032E-18
 -1      1121 9.67561E-05-2.74325E-05-2.97081E-05-3.31459E-08 6.54014E-20-1.36900E-18
 -1      1122 9.62213E-05-2.89960E-05-2.88108E-05-6.32175E-07 7.64470E-20-1.05123E-18
 -1      1123 7.70491E-05-2.20732E-05-2.35167E-05 1.46029E-05-2.84467E-20-1.32973E-19
 -1      1124 9.58673E-05-2.87232E-05-2.87762E-05-3.53976E-07 1.72764E-19-3.36659E-19
 -1      1125 7.42517E-05-1.66087E-05-2.47023E-05 7.49015E-07 7.78688E-20-3.77210E-19
 -1      1126 9.67173E-05-2.90701E-05-2.89917E-05-3.18349E-07-9.86919E-20-1.42024E-18
 -1      1127 6.95288E-05-1.59308E-05-2.29319E-05 3.90422E-06-2.51883E-19-2.86798E-19
 -1      1128 9.68897E-05-2.88971E-05-2.91395E-05-2.75204E-07 2.34924E-19-1.62116E-18
 -1      1129 9.63121E-05-2.90052E-05-2.88453E-05-1.20877E-07-1.66418E-19-9.04499E-19
 -1      1130 9.69932E-05-2.83064E-05-2.94373E-05-6.50702E-08 5.42210E-20-1.44875E-18
 -1      1131 9.64776E-05-2.90746E-05-2.88873E-05-3.35849E-07-4.48414E-19-4.29554E-19
 -1      1132 9.67912E-05-2.73991E-05-2.97392E-05-4.40165E-09 2.21915E-19-1.48113E-18
 -1      1133 9.61815E-05-2.89426E-05-2.88166E-05-3.46188E-07-1.23005E-19-9.68921E-21
 -1      1134 1.16843E-04 2.57527E-10-4.18503E-05-4.14670E-05-1.64324E-19 7.42255E-18
 -1      1135 8.86382E-05 7.18937E-11-3.72464E-05-2.41744E-05-1.05456E-19 1.66458E-18
 -1      1136 8.40696E-05 4.14421E-11-3.57634E-05-1.78873E-05-8.25857E-20-9.19454E-19
 -1      1137 8.23310E-05 3.20240E-11-3.50714E-05-1.38458E-05-5.79423E-20-2.19512E-18
 -1      1138 8.15330E-05 2.73383E-11-3.47391E-05-1.05431E-05-3.66871E-20-2.86084E-18
 -1      1139 8.11359E-05 2.46257E-11-3.45757E-05-7.64862E-06-2.71845E-20-3.19146E-18
 -1      1140 8.09304E-05 2.29724E-11-3.44938E-05-4.98524E-06-1.47834E-20-3.38746E-18
 -1      1141 8.08306E-05 2.20797E-11-3.44555E-05-2.43493E-06-1.27386E-21-3.50942E-18
 -1      1142 8.08023E-05 2.18102E-11-3.44448E-05 5.25445E-08 2.26813E-21-3.58220E-18
 -1      1143 8.08349E-05 2.21239E-11-3.44570E-05 2.54255E-06 1.62359E-20-3.56312E-18
 -1      1144 8.09392E-05 2.30713E-11-3.44968E-05 5.10110E-06 2.15265E-20-3.47690E-18
 -1      1145 8.11514E-05 2.47831E-11-3.45800E-05 7.78035E-06 3.07049E-20-3.28789E-18
 -1      1146 8.15556E-05 2.76495E-11-3.47455E-05 1.07026E-05 4.45486E-20-2.93588E-18
 -1      1147 8.23549E-05 3.24995E-11-3.50813E-05 1.40526E-05 5.78100E-20-2.24810E-18
 -1      1148 8.40654E-05 4.19131E-11-3.57834E-05 1.81384E-05 8.52327E-20-8.97789E-19
 -1      1149 8.83362E-05 6.67185E-11-3.73167E-05 2.40170E-05 1.03020E-19 1.74666E-18
 -1      1150 1.06606E-04 1.63885E-10-4.06290E-05 3.61946E-05 2.17264E-19 7.27347E-18
 -1      1151 1.30207E-04-2.57525E-05-4.02684E-05-2.61066E-05-7.76412E-19 1.11143E-17
 -1      1152 9.74359E-05-2.88563E-05-3.15712E-05-6.81130E-07-2.68509E-19 9.32308E-18
 -1      1153 9.01312E-05-2.70179E-05-2.78846E-05 3.86709E-07-6.33819E-20 6.61468E-18
 -1      1154 8.82131E-05-2.65616E-05-2.66330E-05 2.50524E-07-3.35968E-20 4.87462E-18
 -1      1155 8.78475E-05-2.64327E-05-2.63743E-05 1.65591E-07-7.42643E-21 3.66411E-18
 -1      1156 8.81989E-05-2.65071E-05-2.64569E-05 1.17603E-07-3.41758E-20 3.10051E-18
 -1      1157 8.88764E-05-2.66889E-05-2.66570E-05 8.68533E-08-4.19041E-20 2.54623E-18
 -1      1158 8.96821E-05-2.69182E-05-2.68969E-05 6.54798E-08 4.17147E-20 1.92070E-18
 -1      1159 9.05070E-05-2.71585E-05-2.71429E-05 4.96093E-08-4.59132E-20 1.44303E-18
 -1      1160 9.12906E-05-2.73895E-05-2.73774E-05 3.73454E-08-3.47392E-20 3.85149E-19
 -1      1161 9.20025E-05-2.76009E-05-2.75912E-05 2.76902E-08 2.10029E-20-3.97252E-19
 -1      1162 9.26320E-05-2.77887E-05-2.77810E-05 2.00625E-08 7.32161E-20 1.70098E-19
 -1      1163 9.31815E-05-2.79534E-05-2.79474E-05 1.40941E-08-1.19480E-19-2.97510E-19
 -1      1164 9.36630E-05-2.80982E-05-2.80938E-05 9.54301E-09-5.26167E-20-1.40004E-18
 -1      1165 9.40958E-05-2.82289E-05-2.82259E-05 6.25868E-09 9.15043E-21-3.60279E-20
 -1      1166 9.45042E-05-2.83526E-05-2.83510E-05 4.17107E-09-1.30161E-19 8.08983E-21
 -1      1167 9.49179E-05-2.84781E-05-2.84781E-05 3.28995E-09-1.65260E-19-6.90793E-19
 -1      1168 9.53707E-05-2.86156E-05-2.86173E-05 3.70775E-09-2.78917E-20-7.48629E-19
 -1      1169 9.59007E-05-2.87763E-05-2.87799E-05 5.60010E-09 1.04077E-19-1.16175E-18
 -1      1170 9.65493E-05-2.89727E-05-2.89784E-05 9.21695E-09-1.05792E-19-7.41053E-19
 -1      1171 9.73604E-05-2.92175E-05-2.92257E-05 1.48531E-08-4.15336E-20-1.78786E-18
 -1      1172 9.83762E-05-2.95233E-05-2.95340E-05 2.27789E-08-3.06264E-20-2.34997E-18
 -1      1173 9.96323E-05-2.99002E-05-2.99130E-05 3.30992E-08 1.06214E-19-9.29215E-19
 -1      1174 1.01147E-04-3.03533E-05-3.03670E-05 4.54943E-08-2.02327E-19-2.14101E-18
 -1      1175 1.02907E-04-3.08776E-05-3.08896E-05 5.87842E-08 1.32835E-19-1.98500E-18
 -1      1176 1.04842E-04-3.14516E-05-3.14571E-05 7.02755E-08 2.14907E-21-1.22427E-18
 -1      1177 1.06800E-04-3.20291E-05-3.20204E-05 7.49502E-08 2.75036E-19-1.29641E-18
 -1      1178 1.08514E-04-3.25301E-05-3.24973E-05 6.48308E-08 8.14947E-20-2.75673E-18
 -1      1179 1.09587E-04-3.28366E-05-3.27703E-05 2.93881E-08-1.67284E-19-4.31117E-18
 -1      1180 1.09514E-04-3.28004E-05-3.26977E-05-4.14196E-08 2.25979E-19-2.45223E-18
 -1      1181 1.07786E-04-3.22745E-05-3.21478E-05-1.49861E-07 3.70577E-21-2.57442E-18
 -1      1182 1.04103E-04-3.11764E-05-3.10602E-05-2.79367E-07 4.42310E-20-4.04416E-18
 -1      1183 9.86684E-05-2.95736E-05-2.95191E-05-3.86755E-07 6.09409E-20-5.45405E-18
 -1      1184 9.24152E-05-2.77445E-05-2.77978E-05-4.10960E-07-1.29139E-20-5.80038E-18
 -1      1185 8.69327E-05-2.61515E-05-2.63201E-05-3.06749E-07 7.42709E-20-3.74452E-18
 -1      1186 8.39277E-05-2.52813E-05-2.55180E-05-8.67590E-08 1.17261E-20-3.12198E-18
 -1      1187 8.44154E-05-2.54202E-05-2.56413E-05 1.67951E-07-2.04744E-20-3.85763E-18
 -1      1188 8.81606E-05-2.65019E-05-2.66318E-05 3.53698E-07-9.77364E-20-3.08569E-18
 -1      1189 9.38039E-05-2.81415E-05-2.81517E-05 4.10139E-07-6.75319E-20-2.77636E-18
 -1      1190 9.95714E-05-2.98298E-05-2.97442E-05 3.47662E-07 9.86959E-20-1.09003E-18
 -1      1191 1.04042E-04-3.11507E-05-3.10205E-05 2.22153E-07-2.32501E-19-2.18172E-18
 -1      1192 1.06530E-04-3.18965E-05-3.17692E-05 9.12933E-08-1.12606E-19-5.64411E-18
 -1      1193 1.07037E-04-3.20600E-05-3.19626E-05-1.09135E-08-1.02934E-20-6.39380E-18
 -1      1194 1.05972E-04-3.17578E-05-3.16976E-05-7.52174E-08-1.49230E-19-3.68469E-18
 -1      1195 1.03896E-04-3.11525E-05-3.11261E-05-1.06620E-07-1.80408E-20-2.65457E-18
 -1      1196 1.01348E-04-3.04039E-05-3.04062E-05-1.13563E-07 4.57530E-19 1.39668E-18
 -1      1197 9.87994E-05-2.96519E-05-2.96820E-05-1.00679E-07 3.62123E-20 3.30614E-18
 -1      1198 9.66693E-05-2.90221E-05-2.90778E-05-6.25689E-08 4.82412E-20 3.99698E-18
 -1      1199 9.53795E-05-2.86602E-05-2.86815E-05 2.05388E-08-1.39654E-19 4.25752E-18
 -1      1200 9.50789E-05-2.85173E-05-2.84657E-05 5.59289E-08 2.14081E-19 2.00650E-18
 -1      1201 1.31041E-04-3.77348E-05-3.86539E-05 1.21746E-05-1.00903E-19 1.18991E-17
 -1      1202 9.65369E-05-2.81828E-05-3.13236E-05 8.01748E-07 6.93244E-20 9.43574E-18
 -1      1203 9.03452E-05-2.69206E-05-2.78655E-05 1.20323E-07 5.85975E-20 6.84290E-18
 -1      1204 8.82999E-05-2.64889E-05-2.66692E-05 9.15434E-09 1.11550E-19 5.03254E-18
 -1      1205 8.78878E-05-2.63952E-05-2.64013E-05-2.50901E-08-2.32818E-20 4.14504E-18
 -1      1206 8.82201E-05-2.64895E-05-2.64724E-05-3.40237E-08 5.27568E-20 3.28336E-18
 -1      1207 8.88886E-05-2.66818E-05-2.66669E-05-3.50610E-08 6.50044E-20 2.52855E-18
 -1      1208 8.96891E-05-2.69164E-05-2.69038E-05-3.31374E-08-6.68821E-20 2.75272E-18
 -1      1209 9.05103E-05-2.71594E-05-2.71478E-05-2.98066E-08-6.70223E-20 2.41443E-18
 -1      1210 9.12910E-05-2.73916E-05-2.73806E-05-2.57557E-08 1.27081E-19 1.36800E-18
 -1      1211 9.20002E-05-2.76031E-05-2.75928E-05-2.13833E-08 4.47266E-20 6.44728E-19
 -1      1212 9.26265E-05-2.77903E-05-2.77811E-05-1.69302E-08-6.55365E-21 2.43439E-19
 -1      1213 9.31725E-05-2.79538E-05-2.79459E-05-1.25310E-08 6.06989E-20 9.03960E-20
 -1      1214 9.36499E-05-2.80971E-05-2.80906E-05-8.24523E-09-6.61232E-20-1.34928E-19
 -1      1215 9.40781E-05-2.82260E-05-2.82210E-05-4.08073E-09 7.19107E-20-3.97161E-19
 -1      1216 9.44823E-05-2.83481E-05-2.83447E-05-1.33830E-11 3.50033E-20-1.60461E-18
 -1      1217 9.48939E-05-2.84727E-05-2.84712E-05 3.99325E-09-1.32409E-19-1.06002E-18
 -1      1218 9.53505E-05-2.86112E-05-2.86120E-05 7.96502E-09 1.08662E-19-2.06423E-18
 -1      1219 9.58976E-05-2.87773E-05-2.87807E-05 1.18858E-08-1.14845E-19-1.07645E-18
 -1      1220 9.65895E-05-2.89873E-05-2.89941E-05 1.56497E-08-5.81429E-20 1.91831E-19
 -1      1221 9.74920E-05-2.92609E-05-2.92722E-05 1.89822E-08-3.41212E-21-3.73270E-19
 -1      1222 9.86839E-05-2.96217E-05-2.96389E-05 2.13094E-08-1.22451E-19-9.29321E-20
 -1      1223 1.00258E-04-3.00970E-05-3.01223E-05 2.15448E-08 1.17063E-19-1.62201E-18
 -1      1224 1.02320E-04-3.07179E-05-3.07535E-05 1.77642E-08-3.13766E-20-2.99201E-18
 -1      1225 1.04978E-04-3.15156E-05-3.15640E-05 6.77496E-09 1.67540E-19-2.65333E-18
 -1      1226 1.08328E-04-3.25161E-05-3.25780E-05-1.62760E-08-1.83837E-19-7.01714E-19
 -1      1227 1.12401E-04-3.37261E-05-3.37971E-05-5.77262E-08-3.41460E-20 7.06373E-19
 -1      1228 1.17090E-04-3.51095E-05-3.51730E-05-1.23275E-07-1.77317E-19 2.99056E-19
 -1      1229 1.22006E-04-3.65492E-05-3.65667E-05-2.11292E-07 2.58792E-20-4.72168E-19
 -1      1230 1.26301E-04-3.77979E-05-3.77030E-05-2.98669E-07 1.80967E-19-1.10668E-18
 -1      1231 1.28531E-04-3.84444E-05-3.81581E-05-3.22611E-07-3.98125E-19-6.89141E-19
 -1      1232 1.26802E-04-3.79560E-05-3.74496E-05-1.81748E-07 7.76226E-21 3.06965E-18
 -1      1233 1.19586E-04-3.58952E-05-3.52985E-05 1.98284E-07 1.37610E-19 5.19538E-18
 -1      1234 1.07326E-04-3.23435E-05-3.20037E-05 7.21897E-07 1.08414E-19 3.94124E-18
 -1      1235 9.38761E-05-2.83337E-05-2.86360E-05 1.05219E-06-9.17641E-20 4.27010E-18
 -1      1236 8.55661E-05-2.57020E-05-2.66754E-05 8.42969E-07-3.09114E-19 4.50854E-18
 -1      1237 8.70478E-05-2.59741E-05-2.70939E-05 1.48539E-07 1.66654E-19 2.31796E-18
 -1      1238 9.73452E-05-2.90258E-05-2.96336E-05-5.62100E-07 3.25019E-19-1.30274E-18
 -1      1239 1.10716E-04-3.31344E-05-3.30237E-05-8.78093E-07-1.47761E-19 6.73921E-19
 -1      1240 1.21225E-04-3.63871E-05-3.58589E-05-7.66991E-07-7.21301E-21 1.16827E-18
 -1      1241 1.26133E-04-3.78977E-05-3.73352E-05-4.57940E-07-1.03649E-19-3.35266E-19
 -1      1242 1.25822E-04-3.77949E-05-3.74034E-05-1.62946E-07-1.86278E-19 1.48239E-18
 -1      1243 1.22083E-04-3.66502E-05-3.64544E-05 3.30208E-08-4.36267E-19 8.34010E-19
 -1      1244 1.16718E-04-3.50243E-05-3.49661E-05 1.33056E-07 3.32699E-19-1.20080E-18
 -1      1245 1.10993E-04-3.33014E-05-3.33178E-05 1.71600E-07 1.78446E-19-5.08934E-19
 -1      1246 1.05647E-04-3.17000E-05-3.17523E-05 1.80189E-07-2.81903E-20 5.97688E-20
 -1      1247 1.01087E-04-3.03387E-05-3.04144E-05 1.77508E-07-4.00175E-19 8.01505E-20
 -1      1248 9.75967E-05-2.93000E-05-2.93995E-05 1.61671E-07-3.41047E-20-1.58456E-18
 -1      1249 9.55078E-05-2.86749E-05-2.87646E-05 9.10298E-08 6.80488E-19-4.12880E-18
 -1      1250 9.50396E-05-2.85093E-05-2.84282E-05-7.06637E-08-3.17619E-19-3.70941E-18
 -1      1251 9.53050E-05-2.87729E-05-2.84339E-05-6.36458E-08-3.40373E-18-5.40521E-19
 -1      1252 9.51020E-05-2.82443E-05-2.87761E-05-1.87379E-08-1.97099E-18 6.20670E-19
 -1      1253 9.45108E-05-2.62220E-05-2.93748E-05 1.14626E-07 3.53659E-18 2.31486E-19
 -1      1254 9.36184E-05-2.31875E-05-3.02199E-05 1.60334E-07 4.45976E-18 1.69003E-19
 -1      1255 9.26407E-05-1.98638E-05-3.11541E-05 1.58004E-07 4.05046E-18-3.58855E-19
 -1      1256 9.17677E-05-1.68952E-05-3.19981E-05 1.25226E-07 1.90412E-18-6.79883E-19
 -1      1257 9.11278E-05-1.47222E-05-3.26227E-05 7.80807E-08-2.06950E-18-2.65818E-19
 -1      1258 9.08033E-05-1.36245E-05-3.29432E-05 2.07389E-08-4.94690E-18-9.04209E-19
 -1      1259 9.08306E-05-1.37258E-05-3.29219E-05-3.42792E-08-6.58323E-18 7.38743E-19
 -1      1260 9.11838E-05-1.49352E-05-3.25820E-05-7.88780E-08-5.63424E-18 3.85175E-19
 -1      1261 9.17929E-05-1.70121E-05-3.19898E-05-1.08076E-07-2.25182E-18-5.95329E-19
 -1      1262 9.25570E-05-1.96049E-05-3.12456E-05-1.20614E-07-3.04069E-18-2.14248E-20
 -1      1263 9.33744E-05-2.23775E-05-3.04465E-05-1.18021E-07-4.62702E-18 6.65687E-19
 -1      1264 9.41542E-05-2.50125E-05-2.96905E-05-1.01259E-07-5.29838E-18 6.26197E-19
 -1      1265 9.47978E-05-2.71735E-05-2.90792E-05-7.48213E-08-4.27979E-18 3.67592E-19
 -1      1266 9.51276E-05-2.83831E-05-2.86847E-05 6.12067E-08-2.81164E-18-5.59580E-19
 -1      1267 9.52930E-05-2.87305E-05-2.84670E-05 5.21102E-08-1.42217E-18 3.39318E-20
 -1      1268 3.47433E-05-1.09851E-04 1.87351E-05-1.43177E-05-2.57159E-18-4.77118E-19
 -1      1269 1.89816E-05-7.10270E-05 1.07573E-05-2.76833E-05 3.12979E-18 2.40706E-18
 -1      1270 7.76897E-06-1.43304E-05-4.46225E-06-4.16256E-06 1.24361E-17 7.71986E-18
 -1      1271 3.01269E-05 2.19468E-05-2.42278E-05 4.71154E-05 1.14451E-17 1.00306E-17
 -1      1272 9.68829E-05 1.65721E-05-4.43621E-05 9.68200E-05 4.16994E-18 4.43845E-18
 -1      1273 1.97782E-04-2.73441E-05-6.29281E-05 1.12452E-04 4.61633E-19 1.33831E-19
 -1      1274 2.88782E-04-7.76726E-05-7.56831E-05 7.15241E-05-2.75709E-19-2.66731E-18
 -1      1275 3.18457E-04-9.50682E-05-7.94140E-05-9.96315E-06 9.65565E-19-7.76507E-18
 -1      1276 2.67277E-04-6.47447E-05-7.27905E-05-8.48970E-05 2.58642E-18-9.85777E-18
 -1      1277 1.69046E-04-1.33280E-05-5.78423E-05-1.11439E-04 6.02833E-18-1.05032E-17
 -1      1278 7.41229E-05 2.16029E-05-3.85750E-05-8.39278E-05 6.98463E-18-8.76340E-18
 -1      1279 1.88975E-05 1.54216E-05-1.83272E-05-3.04727E-05 8.08408E-18-6.49251E-18
 -1      1280 7.90403E-06-2.80919E-05 1.26429E-07 1.41380E-05 8.25518E-18-4.60108E-18
 -1      1281 2.32202E-05-8.25535E-05 1.33115E-05 2.73721E-05 3.78793E-18-1.30549E-18
 -1      1282 3.59183E-05-1.12118E-04 1.92311E-05 8.62986E-06 3.71975E-18 1.29702E-20
 -1      1283 3.17747E-05-1.01573E-04 1.71068E-05-1.74797E-05-2.22600E-18-1.12677E-18
 -1      1284 1.45016E-05-5.47383E-05 7.26948E-06-2.28292E-05-8.88368E-18-3.43345E-18
 -1      1285 9.71607E-06-1.04175E-06-9.12826E-06 8.67567E-06-9.72224E-18-5.71917E-18
 -1      1286 4.31570E-05 2.57691E-05-2.94784E-05 6.27991E-05-8.75663E-18-8.67870E-18
 -1      1287 1.20542E-04 8.63388E-06-4.90887E-05 1.05607E-04-7.62923E-18-1.18906E-17
 -1      1288 2.17555E-04-3.81925E-05-6.55180E-05 1.03628E-04-3.67612E-18-8.55249E-18
 -1      1289 2.92748E-04-8.21021E-05-7.59382E-05 5.13268E-05-1.23701E-18-3.86713E-18
 -1      1290 3.06676E-04-9.15882E-05-7.73854E-05-2.92162E-05-5.76406E-19 1.57061E-18
 -1      1291 2.46595E-04-5.50555E-05-6.98455E-05-9.45917E-05-1.29088E-18 4.40627E-18
 -1      1292 1.45877E-04-2.24051E-06-5.39718E-05-1.08973E-04-1.77030E-18 3.92515E-18
 -1      1293 6.03947E-05 2.62895E-05-3.49691E-05-7.72534E-05-2.49705E-18 2.00408E-18
 -1      1294 1.57231E-05 1.64299E-05-1.70025E-05-2.84017E-05-1.50772E-18 6.05629E-19
 -1      1295 7.14036E-06-2.27575E-05-8.45647E-07 1.14101E-05-2.71051E-20 4.39610E-19
 -1      1296 2.06428E-05-7.44155E-05 1.17759E-05 2.69707E-05 1.52974E-18-4.01494E-19
 -1      1297 3.50139E-05-1.10272E-04 1.88212E-05 1.16183E-05-9.07172E-19-1.94156E-19
 -1      1298 1.04427E-04-2.20154E-05-3.78869E-05-1.72783E-05-2.90744E-19 6.24899E-18
 -1      1299 9.03062E-05-6.67867E-06-3.60125E-05-2.04795E-05-8.85785E-19 4.64756E-19
 -1      1300 9.26409E-05-6.73710E-06-3.72171E-05-2.57662E-05-1.08865E-18 1.81747E-18
 -1      1301 8.58964E-05-4.09561E-06-3.51268E-05-1.64429E-05-9.30122E-19-1.47188E-18
 -1      1302 8.71457E-05-4.08813E-06-3.55953E-05-1.88628E-05-1.03063E-18-6.26063E-19
 -1      1303 9.21208E-05-1.04599E-05-3.50892E-05-1.90437E-05-1.57937E-18 4.52792E-19
 -1      1304 8.40932E-05-3.19011E-06-3.46856E-05-1.28264E-05-7.57089E-19-2.45605E-18
 -1      1305 8.47024E-05-3.16062E-06-3.49090E-05-1.46410E-05-8.55344E-19-2.00456E-18
 -1      1306 8.78593E-05-7.39397E-06-3.45710E-05-1.54210E-05-1.45830E-18-1.16324E-18
 -1      1307 8.31880E-05-2.72840E-06-3.44710E-05-9.69627E-06-5.77233E-19-2.99611E-18
 -1      1308 8.34984E-05-2.70993E-06-3.45792E-05-1.12441E-05-6.35076E-19-2.74910E-18
 -1      1309 8.58655E-05-5.98271E-06-3.43046E-05-1.19647E-05-1.13584E-18-2.05728E-18
 -1      1310 8.27013E-05-2.45904E-06-3.43661E-05-6.92260E-06-3.80483E-19-3.30573E-18
 -1      1311 8.28687E-05-2.45062E-06-3.44198E-05-8.29466E-06-4.59992E-19-3.15066E-18
 -1      1312 8.48259E-05-5.21917E-06-3.41740E-05-8.95333E-06-8.35730E-19-2.52633E-18
 -1      1313 8.24290E-05-2.29380E-06-3.43145E-05-4.29993E-06-2.39968E-19-3.44715E-18
 -1      1314 8.25188E-05-2.28988E-06-3.43412E-05-5.60245E-06-3.04882E-19-3.37480E-18
 -1      1315 8.42447E-05-4.76494E-06-3.41121E-05-6.22304E-06-5.82246E-19-2.82006E-18
 -1      1316 8.22983E-05-2.20460E-06-3.42929E-05-1.79219E-06-6.68587E-20-3.53059E-18
 -1      1317 8.23366E-05-2.20303E-06-3.43037E-05-3.04467E-06-1.30026E-19-3.47624E-18
 -1      1318 8.39250E-05-4.50165E-06-3.40842E-05-3.64871E-06-3.09966E-19-2.86392E-18
 -1      1319 8.22727E-05-2.17718E-06-3.42904E-05 6.70613E-07 5.78464E-20-3.59178E-18
 -1      1320 8.22713E-05-2.17722E-06-3.42900E-05-5.66756E-07 3.60767E-20-3.56064E-18
 -1      1321 8.37852E-05-4.38232E-06-3.40739E-05-1.17193E-06-1.69572E-20-2.96071E-18
 -1      1322 8.23451E-05-2.20735E-06-3.43052E-05 3.15218E-06 1.93891E-19-3.58842E-18
 -1      1323 8.23040E-05-2.20899E-06-3.42937E-05 1.89710E-06 1.47924E-19-3.61888E-18
 -1      1324 8.37901E-05-4.38655E-06-3.40743E-05 1.27518E-06 1.74912E-19-3.03120E-18
 -1      1325 8.25357E-05-2.30010E-06-3.43439E-05 5.71917E-06 3.47654E-19-3.48915E-18
 -1      1326 8.24426E-05-2.30349E-06-3.43165E-05 4.41073E-06 2.87564E-19-3.54278E-18
 -1      1327 8.39404E-05-4.51517E-06-3.40853E-05 3.75632E-06 3.97833E-19-3.02285E-18
 -1      1328 8.28915E-05-2.46533E-06-3.44227E-05 8.40300E-06 4.87931E-19-3.28082E-18
 -1      1329 8.27207E-05-2.47405E-06-3.43685E-05 7.02229E-06 4.52147E-19-3.41628E-18
 -1      1330 8.42698E-05-4.78759E-06-3.41133E-05 6.31721E-06 6.63783E-19-2.89691E-18
 -1      1331 8.35446E-05-2.74195E-06-3.45843E-05 1.14046E-05 7.15505E-19-2.84516E-18
 -1      1332 8.32257E-05-2.75910E-06-3.44745E-05 9.83911E-06 6.39536E-19-3.08161E-18
 -1      1333 8.48681E-05-5.25974E-06-3.41750E-05 9.06209E-06 9.25804E-19-2.58615E-18
 -1      1334 8.47600E-05-3.20321E-06-3.49170E-05 1.48537E-05 9.32980E-19-2.09175E-18
 -1      1335 8.41504E-05-3.24004E-06-3.46913E-05 1.30134E-05 8.25778E-19-2.54961E-18
 -1      1336 8.59456E-05-6.06346E-06-3.43059E-05 1.21317E-05 1.27296E-18-2.12473E-18
 -1      1337 8.72450E-05-4.08916E-06-3.56170E-05 1.91001E-05 1.05890E-18-5.58671E-19
 -1      1338 8.59642E-05-4.15318E-06-3.51345E-05 1.67027E-05 9.23954E-19-1.48003E-18
 -1      1339 8.79844E-05-7.51618E-06-3.45733E-05 1.56596E-05 1.51506E-18-1.22060E-18
 -1      1340 9.34541E-05-6.78984E-06-3.71126E-05 2.51026E-05 9.73453E-19 2.24591E-18
 -1      1341 9.01218E-05-6.43565E-06-3.60352E-05 2.11568E-05 9.44177E-19 5.36066E-19
 -1      1342 9.23508E-05-1.06954E-05-3.50745E-05 1.96846E-05 1.63250E-18 4.30187E-19
 -1      1343 1.23614E-04-2.49203E-05-3.90106E-05 2.83692E-05 4.91067E-19 7.67666E-18
 -1      1344 1.00068E-04-1.44208E-05-3.73499E-05 2.40552E-05 5.05255E-19 3.87263E-18
 -1      1345 1.01665E-04-1.93384E-05-3.53983E-05 2.14050E-05 1.60445E-18 2.99723E-18
 -1      1346 1.02590E-04-2.78005E-05-3.47533E-05 7.33236E-06 8.58918E-19 7.37342E-18
 -1      1347 1.05132E-04-3.02256E-05-3.35206E-05-7.96293E-06-8.75620E-19 6.52724E-18
 -1      1348 9.82424E-05-2.78374E-05-3.07566E-05-4.99139E-06-8.36127E-19 5.45050E-18
 -1      1349 9.54829E-05-2.78433E-05-2.92486E-05-2.49285E-06-6.80273E-19 4.99299E-18
 -1      1350 9.32476E-05-2.75514E-05-2.82084E-05-2.04617E-06-6.36651E-19 4.03360E-18
 -1      1351 9.94678E-05-2.80469E-05-3.09777E-05-7.89267E-06-1.49406E-18 3.01512E-18
 -1      1352 9.15559E-05-2.71928E-05-2.75735E-05-8.41343E-07-4.51508E-19 3.63978E-18
 -1      1353 9.08363E-05-2.70965E-05-2.72703E-05-7.31043E-07-4.43157E-19 3.00091E-18
 -1      1354 9.46974E-05-2.77637E-05-2.88102E-05-3.12668E-06-1.09288E-18 2.29512E-18
 -1      1355 9.00844E-05-2.69134E-05-2.70264E-05-1.76922E-07-2.83217E-19 2.64428E-18
 -1      1356 9.00088E-05-2.69393E-05-2.69907E-05-1.18988E-07-2.93070E-19 2.24474E-18
 -1      1357 9.24944E-05-2.74921E-05-2.78882E-05-1.05903E-06-7.65268E-19 1.64944E-18
 -1      1358 8.97474E-05-2.68713E-05-2.69158E-05 1.50895E-07-2.01144E-19 2.25824E-18
 -1      1359 8.99585E-05-2.69602E-05-2.69765E-05 1.79480E-07-1.28263E-19 1.95531E-18
 -1      1360 9.15324E-05-2.73477E-05-2.75201E-05-7.63866E-08-4.00613E-19 1.24986E-18
 -1      1361 8.99605E-05-2.69628E-05-2.69824E-05 3.10511E-07-2.48209E-19 1.98070E-18
 -1      1362 9.02991E-05-2.70812E-05-2.70804E-05 3.22232E-07-2.17345E-19 1.68534E-18
 -1      1363 9.12756E-05-2.73345E-05-2.74112E-05 4.10393E-07-3.22814E-19 1.23356E-18
 -1      1364 9.04397E-05-2.71226E-05-2.71272E-05 3.77146E-07-2.52222E-20 1.43565E-18
 -1      1365 9.08240E-05-2.72496E-05-2.72382E-05 3.78919E-07-1.04566E-19 1.23903E-18
 -1      1366 9.14053E-05-2.74070E-05-2.74326E-05 6.39034E-07-3.27223E-19 1.07754E-18
 -1      1367 9.10317E-05-2.73098E-05-2.73046E-05 3.90450E-07-2.22220E-19 1.26107E-18
 -1      1368 9.14165E-05-2.74334E-05-2.74161E-05 3.86509E-07-2.61644E-19 9.28785E-19
 -1      1369 9.17363E-05-2.75251E-05-2.75212E-05 7.23099E-07-3.59386E-19 7.38189E-19
 -1      1370 9.16493E-05-2.75005E-05-2.74895E-05 3.73856E-07-2.59761E-19 8.46451E-19
 -1      1371 9.20103E-05-2.76144E-05-2.75946E-05 3.66968E-07-2.93850E-19 4.43640E-19
 -1      1372 9.21592E-05-2.76620E-05-2.76418E-05 7.24959E-07-4.08210E-19 7.06237E-19
 -1      1373 9.22442E-05-2.76816E-05-2.76680E-05 3.42258E-07-2.76012E-19 4.71890E-19
 -1      1374 9.25701E-05-2.77829E-05-2.77633E-05 3.34300E-07-5.37178E-20 2.11965E-19
 -1      1375 9.26096E-05-2.78016E-05-2.77739E-05 6.82424E-07-3.43052E-19 9.45732E-19
 -1      1376 9.27925E-05-2.78466E-05-2.78330E-05 3.05583E-07 1.02572E-19-1.12288E-19
 -1      1377 9.30804E-05-2.79351E-05-2.79175E-05 2.97852E-07-1.33863E-20-1.93807E-19
 -1      1378 9.30515E-05-2.79349E-05-2.79057E-05 6.19938E-07-7.12844E-20 5.24015E-19
 -1      1379 9.32866E-05-2.79940E-05-2.79820E-05 2.70678E-07-2.24851E-19-1.66905E-19
 -1      1380 9.35396E-05-2.80709E-05-2.80566E-05 2.64099E-07-4.73682E-19-6.59227E-19
 -1      1381 9.34677E-05-2.80579E-05-2.80312E-05 5.54019E-07-2.18184E-19-5.70724E-19
 -1      1382 9.37304E-05-2.81252E-05-2.81162E-05 2.42446E-07-1.28570E-19-5.68429E-19
 -1      1383 9.39558E-05-2.81929E-05-2.81829E-05 2.37709E-07 2.04508E-19-4.89021E-19
 -1      1384 9.38539E-05-2.81701E-05-2.81490E-05 4.96253E-07-3.34587E-19-3.61445E-19
 -1      1385 9.41359E-05-2.82440E-05-2.82391E-05 2.24579E-07 2.87386E-19-4.11478E-19
 -1      1386 9.43441E-05-2.83059E-05-2.83010E-05 2.22232E-07-7.89901E-21-1.61107E-19
 -1      1387 9.42154E-05-2.82734E-05-2.82602E-05 4.55133E-07 2.67128E-19-7.57330E-20
 -1      1388 9.45213E-05-2.83561E-05-2.83563E-05 2.20054E-07-2.64074E-19-5.00866E-20
 -1      1389 9.47255E-05-2.84163E-05-2.84172E-05 2.20573E-07-3.85102E-19-2.72649E-19
 -1      1390 9.45641E-05-2.83717E-05-2.83682E-05 4.37261E-07-4.12836E-20-4.57549E-19
 -1      1391 9.49100E-05-2.84685E-05-2.84746E-05 2.31442E-07-1.96758E-19-2.22237E-19
 -1      1392 9.51254E-05-2.85318E-05-2.85391E-05 2.35271E-07-2.42826E-19-5.77744E-19
 -1      1393 9.49175E-05-2.84703E-05-2.84783E-05 4.48127E-07-3.81295E-19-1.30833E-19
 -1      1394 9.53295E-05-2.85896E-05-2.86025E-05 2.61063E-07-5.64356E-20-4.60034E-19
 -1      1395 9.55738E-05-2.86613E-05-2.86756E-05 2.68622E-07-6.69981E-20-4.37519E-19
 -1      1396 9.52974E-05-2.85759E-05-2.85970E-05 4.92543E-07-1.02326E-19 1.51076E-19
 -1      1397 9.58111E-05-2.87287E-05-2.87494E-05 3.10941E-07-9.00270E-20-5.73504E-19
 -1      1398 9.61038E-05-2.88150E-05-2.88369E-05 3.22600E-07-4.62890E-20-6.14232E-19
 -1      1399 9.57290E-05-2.86961E-05-2.87316E-05 5.74726E-07-2.26269E-19-2.00698E-19
 -1      1400 9.63894E-05-2.88963E-05-2.89256E-05 3.82534E-07 1.16378E-19-7.29066E-19
 -1      1401 9.67511E-05-2.90037E-05-2.90334E-05 3.98534E-07-3.05368E-19-7.86279E-19
 -1      1402 9.62406E-05-2.88397E-05-2.88907E-05 6.97946E-07-9.93287E-20-3.90814E-19
 -1      1403 9.71002E-05-2.91036E-05-2.91417E-05 4.76136E-07-4.38207E-19-7.73493E-19
 -1      1404 9.75518E-05-2.92388E-05-2.92759E-05 4.96437E-07-3.91315E-19-1.39273E-18
 -1      1405 9.68619E-05-2.90160E-05-2.90827E-05 8.63629E-07-6.12167E-19-3.92519E-19
 -1      1406 9.79785E-05-2.93616E-05-2.94080E-05 5.89853E-07-1.40584E-19-1.30090E-18
 -1      1407 9.85388E-05-2.95311E-05-2.95740E-05 6.13886E-07-6.18309E-20-1.23577E-18
 -1      1408 9.76219E-05-2.92348E-05-2.93159E-05 1.06971E-06-2.41381E-19-5.13565E-19
 -1      1409 9.90539E-05-2.96805E-05-2.97330E-05 7.18005E-07 2.03958E-20-1.40756E-18
 -1      1410 9.97357E-05-2.98888E-05-2.99343E-05 7.44284E-07-1.71869E-19-1.26390E-18
 -1      1411 9.85456E-05-2.95054E-05-2.95967E-05 1.30801E-06 2.74301E-20-7.88624E-19
 -1      1412 1.00343E-04-3.00669E-05-3.01208E-05 8.48839E-07-1.91298E-19-1.45208E-18
 -1      1413 1.01147E-04-3.03155E-05-3.03571E-05 8.74415E-07-7.43412E-20-1.47619E-18
 -1      1414 9.96485E-05-2.98354E-05-2.99283E-05 1.56037E-06-1.93420E-19-1.23398E-18
 -1      1415 1.01838E-04-3.05213E-05-3.05677E-05 9.61579E-07 2.71633E-19-1.30198E-18
 -1      1416 1.02743E-04-3.08055E-05-3.08323E-05 9.81334E-07 4.62985E-19-9.66001E-19
 -1      1417 1.00928E-04-3.02284E-05-3.03074E-05 1.79354E-06 2.92455E-19-4.59537E-19
 -1      1418 1.03491E-04-3.10330E-05-3.10574E-05 1.02323E-06 4.45792E-19-6.70314E-19
 -1      1419 1.04443E-04-3.13380E-05-3.13337E-05 1.02916E-06 1.35410E-19-4.29307E-19
 -1      1420 1.02352E-04-3.06810E-05-3.07212E-05 1.95331E-06 6.42996E-19 6.04090E-20
 -1      1421 1.05194E-04-3.15738E-05-3.15547E-05 9.86462E-07-4.17291E-19-4.70454E-19
 -1      1422 1.06091E-04-3.18697E-05-3.18121E-05 9.67290E-07-1.09152E-19-1.08048E-18
 -1      1423 1.03846E-04-3.11775E-05-3.11430E-05 1.95972E-06-2.91694E-19 3.71517E-19
 -1      1424 1.06755E-04-3.20902E-05-3.20002E-05 7.91492E-07-6.67303E-20-1.46504E-18
 -1      1425 1.07438E-04-3.23273E-05-3.21915E-05 7.33525E-07-5.55630E-19-1.72662E-18
 -1      1426 1.05272E-04-3.16831E-05-3.15288E-05 1.70761E-06-6.49542E-19-7.06526E-19
 -1      1427 1.07890E-04-3.24962E-05-3.23071E-05 3.76992E-07-3.84871E-20-2.31765E-18
 -1      1428 1.08140E-04-3.26033E-05-3.23703E-05 2.67557E-07 1.57409E-19-2.11364E-18
 -1      1429 1.06426E-04-3.21358E-05-3.18161E-05 1.08056E-06-4.41893E-19-4.87654E-19
 -1      1430 1.08226E-04-3.26711E-05-3.23681E-05-2.93586E-07 4.14120E-19-2.10434E-18
 -1      1431 1.07800E-04-3.25625E-05-3.22360E-05-4.58399E-07 3.23987E-19-1.48398E-18
 -1      1432 1.07030E-04-3.24390E-05-3.19293E-05-1.09767E-08 2.71216E-19-2.87591E-19
 -1      1433 1.07369E-04-3.24722E-05-3.20767E-05-1.18721E-06-5.72462E-19-1.16783E-18
 -1      1434 1.06071E-04-3.20703E-05-3.16996E-05-1.39047E-06-4.34448E-19-1.88138E-18
 -1      1435 1.06775E-04-3.24626E-05-3.17949E-05-1.55858E-06 3.24652E-20-8.14964E-19
 -1      1436 1.05032E-04-3.17749E-05-3.13686E-05-2.14928E-06 1.29050E-19-2.34255E-18
 -1      1437 1.02835E-04-3.10527E-05-3.07477E-05-2.34153E-06-2.88143E-19-2.66754E-18
 -1      1438 1.05400E-04-3.20675E-05-3.13687E-05-3.36158E-06-9.50583E-19-1.01306E-18
 -1      1439 1.01245E-04-3.05479E-05-3.02761E-05-2.88294E-06-2.76924E-19-3.12899E-18
 -1      1440 9.84194E-05-2.95821E-05-2.94940E-05-2.98471E-06-3.78812E-19-3.66948E-18
 -1      1441 1.02845E-04-3.11691E-05-3.06703E-05-4.96072E-06-4.85608E-19-1.39026E-18
 -1      1442 9.65522E-05-2.89458E-05-2.89691E-05-3.02035E-06 1.34268E-20-3.51077E-18
 -1      1443 9.37066E-05-2.79450E-05-2.81947E-05-2.95301E-06 4.73472E-19-3.57440E-18
 -1      1444 9.94131E-05-2.98369E-05-2.98070E-05-5.69969E-06 1.07684E-19-1.82427E-18
 -1      1445 9.20430E-05-2.73501E-05-2.77459E-05-2.31058E-06 9.12221E-19-2.93894E-18
 -1      1446 8.99798E-05-2.66113E-05-2.71906E-05-2.05204E-06 6.69302E-19-2.05428E-18
 -1      1447 9.58597E-05-2.83689E-05-2.89674E-05-4.99594E-06 1.00502E-18-1.77562E-18
 -1      1448 8.90517E-05-2.62719E-05-2.69453E-05-8.39489E-07-4.30193E-19-1.46635E-18
 -1      1449 8.84381E-05-2.60532E-05-2.67797E-05-4.63667E-07-3.72456E-19-2.00102E-18
 -1      1450 9.32299E-05-2.72460E-05-2.83705E-05-2.74694E-06 3.25439E-19-9.05594E-19
 -1      1451 8.85689E-05-2.61074E-05-2.68105E-05 9.13539E-07-2.38625E-19-2.19249E-18
 -1      1452 8.95970E-05-2.64849E-05-2.70828E-05 1.26213E-06-3.49798E-20-2.02822E-18
 -1      1453 9.24211E-05-2.69071E-05-2.81833E-05 4.20636E-07-6.77931E-19-1.39030E-18
 -1      1454 9.07107E-05-2.69000E-05-2.73728E-05 2.30348E-06 6.57347E-19-2.58096E-18
 -1      1455 9.29884E-05-2.77204E-05-2.79837E-05 2.49691E-06 1.15547E-19-2.18807E-18
 -1      1456 9.36955E-05-2.74855E-05-2.84524E-05 3.37403E-06 2.98189E-19-9.21301E-19
 -1      1457 9.46547E-05-2.83170E-05-2.84338E-05 2.88574E-06-7.13476E-19-1.04077E-18
 -1      1458 9.74156E-05-2.92881E-05-2.91854E-05 2.88342E-06 7.09150E-20-1.43953E-18
 -1      1459 9.65195E-05-2.87165E-05-2.90807E-05 5.09640E-06-8.86407E-20-6.43123E-19
 -1      1460 9.90860E-05-2.98526E-05-2.96591E-05 2.61979E-06 6.08262E-19-1.59409E-18
 -1      1461 1.01554E-04-3.06934E-05-3.03435E-05 2.46988E-06-3.55178E-19-1.76622E-18
 -1      1462 9.98714E-05-3.01097E-05-2.98695E-05 5.21094E-06 4.84751E-19-5.39408E-19
 -1      1463 1.02803E-04-3.10812E-05-3.07206E-05 1.78911E-06-9.51013E-19-1.70195E-18
 -1      1464 1.04473E-04-3.16253E-05-3.11942E-05 1.57684E-06-1.47175E-18-3.02584E-18
 -1      1465 1.02755E-04-3.12256E-05-3.05988E-05 4.03078E-06-7.10363E-19-1.14860E-18
 -1      1466 1.05103E-04-3.17897E-05-3.14057E-05 7.70713E-07-1.09427E-18-3.65337E-18
 -1      1467 1.05813E-04-3.19999E-05-3.16151E-05 5.67909E-07-6.05089E-19-4.70107E-18
 -1      1468 1.04557E-04-3.18431E-05-3.11019E-05 2.21438E-06-2.18082E-18-1.99300E-18
 -1      1469 1.05829E-04-3.19642E-05-3.16478E-05-1.46135E-07 4.86237E-19-4.37596E-18
 -1      1470 1.05681E-04-3.18908E-05-3.16141E-05-3.00734E-07 8.43555E-19-4.03944E-18
 -1      1471 1.05115E-04-3.19563E-05-3.13028E-05 3.79402E-07-1.44525E-20-2.22332E-18
 -1      1472 1.05208E-04-3.17098E-05-3.14958E-05-8.15706E-07 5.77465E-19-2.79357E-18
 -1      1473 1.04438E-04-3.14396E-05-3.12813E-05-9.11763E-07 3.33182E-19-1.90196E-18
 -1      1474 1.04582E-04-3.16785E-05-3.12102E-05-1.09111E-06 1.63051E-18-1.21028E-18
 -1      1475 1.03646E-04-3.11722E-05-3.10599E-05-1.20528E-06 7.10965E-19-2.35230E-18
 -1      1476 1.02518E-04-3.07939E-05-3.07395E-05-1.24777E-06 1.22949E-18-1.01891E-18
 -1      1477 1.03270E-04-3.11542E-05-3.08888E-05-2.05095E-06 1.27939E-18-1.04793E-18
 -1      1478 1.01580E-04-3.04910E-05-3.04676E-05-1.33918E-06 1.53824E-18-5.82428E-19
 -1      1479 1.00337E-04-3.00811E-05-3.01129E-05-1.33687E-06 1.15222E-18 1.08606E-18
 -1      1480 1.01518E-04-3.05100E-05-3.04280E-05-2.50321E-06 2.00435E-18-9.40614E-19
 -1      1481 9.94013E-05-2.97832E-05-2.98393E-05-1.25348E-06 5.42786E-19 1.56754E-18
 -1      1482 9.82566E-05-2.94059E-05-2.95137E-05-1.21211E-06 1.18292E-19 1.32655E-18
 -1      1483 9.96358E-05-2.98424E-05-2.99194E-05-2.50764E-06 1.27685E-18-1.41305E-18
 -1      1484 9.74460E-05-2.91448E-05-2.92796E-05-9.74591E-07 7.06492E-19 2.80909E-18
 -1      1485 9.65902E-05-2.88606E-05-2.90355E-05-8.93743E-07 8.40161E-19 3.17701E-18
 -1      1486 9.78860E-05-2.92223E-05-2.94449E-05-2.12191E-06 1.15320E-18-4.10242E-19
 -1      1487 9.59827E-05-2.86509E-05-2.88657E-05-5.19865E-07-5.22107E-19 3.09515E-18
 -1      1488 9.55735E-05-2.85415E-05-2.87269E-05-4.09488E-07-8.23069E-19 2.52799E-18
 -1      1489 9.64637E-05-2.87017E-05-2.90628E-05-1.40259E-06 4.97405E-19 1.03371E-18
 -1      1490 9.52117E-05-2.85321E-05-2.85674E-05 3.26794E-08-1.73876E-18 1.74837E-18
 -1      1491 9.54464E-05-2.84227E-05-2.87329E-05-3.83990E-07-2.19191E-18 1.09985E-18
 -1      1492 9.65578E-05-2.83578E-05-2.97667E-05 2.99841E-06 7.78794E-19 5.76210E-18
 -1      1493 1.02520E-04-2.93936E-05-3.21509E-05 4.46562E-06 6.81014E-19 6.91475E-18
 -1      1494 1.02310E-04-2.67131E-05-3.27010E-05 1.27880E-05 1.30157E-18 4.36974E-18
 -1      1495 9.20064E-05-2.74220E-05-2.77545E-05 1.15464E-06 5.86570E-19 4.17881E-18
 -1      1496 9.39559E-05-2.75780E-05-2.86695E-05 1.47655E-06 5.77875E-19 5.13561E-18
 -1      1497 9.64675E-05-2.80244E-05-2.95279E-05 4.87262E-06 1.20829E-18 3.30609E-18
 -1      1498 9.01683E-05-2.69956E-05-2.70540E-05 3.34593E-07 3.07791E-19 3.15549E-18
 -1      1499 9.07863E-05-2.70141E-05-2.73275E-05 4.97362E-07 3.50731E-19 3.76183E-18
 -1      1500 9.30186E-05-2.75718E-05-2.80916E-05 1.85693E-06 8.76322E-19 2.48298E-18
 -1      1501 8.96451E-05-2.68757E-05-2.68765E-05-5.20342E-08 2.63986E-19 2.58120E-18
 -1      1502 8.96858E-05-2.68144E-05-2.69057E-05 3.69513E-08 2.05932E-19 2.91591E-18
 -1      1503 9.14608E-05-2.72993E-05-2.75065E-05 5.23323E-07 4.46578E-19 1.79951E-18
 -1      1504 8.97706E-05-2.69262E-05-2.69164E-05-2.39093E-07 2.89930E-19 1.87065E-18
 -1      1505 8.95459E-05-2.68199E-05-2.68524E-05-1.89003E-07 2.13212E-19 2.21968E-18
 -1      1506 9.09243E-05-2.72169E-05-2.73089E-05-1.26164E-07 5.26894E-19 1.27137E-18
 -1      1507 9.02168E-05-2.70666E-05-2.70527E-05-3.22239E-07-3.43776E-21 1.55303E-18
 -1      1508 8.98738E-05-2.69406E-05-2.69524E-05-2.94697E-07 9.60956E-20 1.70322E-18
 -1      1509 9.09371E-05-2.72584E-05-2.72966E-05-4.44771E-07 2.62066E-19 9.62028E-19
 -1      1510 9.08051E-05-2.72469E-05-2.72303E-05-3.47171E-07 1.29493E-19 1.54709E-18
 -1      1511 9.04213E-05-2.71178E-05-2.71179E-05-3.33527E-07 5.50319E-20 1.55624E-18
 -1      1512 9.12373E-05-2.73690E-05-2.73770E-05-5.85468E-07 8.29691E-20 5.86529E-19
 -1      1513 9.14342E-05-2.74377E-05-2.74199E-05-3.39143E-07 1.48705E-19 9.74138E-19
 -1      1514 9.10525E-05-2.73150E-05-2.73078E-05-3.34139E-07 1.32459E-19 1.28995E-18
 -1      1515 9.16751E-05-2.75117E-05-2.75022E-05-6.25542E-07 3.21070E-19 2.84754E-19
 -1      1516 9.20474E-05-2.76223E-05-2.76048E-05-3.13635E-07 3.08773E-19 5.39907E-19
 -1      1517 9.16909E-05-2.75111E-05-2.74997E-05-3.13814E-07 1.84983E-19 1.05456E-18
 -1      1518 9.21632E-05-2.76638E-05-2.76450E-05-6.08997E-07 3.29672E-19 1.68770E-19
 -1      1519 9.26153E-05-2.77924E-05-2.77764E-05-2.80720E-07 1.57471E-19 4.43318E-19
 -1      1520 9.22946E-05-2.76944E-05-2.76815E-05-2.83710E-07 1.64643E-19 6.44566E-19
 -1      1521 9.26514E-05-2.78123E-05-2.77897E-05-5.63168E-07 2.07460E-19 1.58702E-19
 -1      1522 9.31270E-05-2.79449E-05-2.79313E-05-2.47234E-07 3.80771E-20 6.86262E-20
 -1      1523 9.28446E-05-2.78599E-05-2.78474E-05-2.51339E-07 1.13063E-19 2.81430E-19
 -1      1524 9.31137E-05-2.79506E-05-2.79280E-05-5.06027E-07 2.90271E-19 2.28101E-19
 -1      1525 9.35841E-05-2.80804E-05-2.80699E-05-2.18009E-07 8.55211E-20-2.43869E-20
 -1      1526 9.33366E-05-2.80068E-05-2.79961E-05-2.21962E-07 1.13991E-19-8.72411E-20
 -1      1527 9.35403E-05-2.80764E-05-2.80566E-05-4.49918E-07 2.29178E-19-5.73211E-20
 -1      1528 9.39973E-05-2.82025E-05-2.81955E-05-1.96674E-07 5.33335E-21-3.12429E-19
 -1      1529 9.37772E-05-2.81372E-05-2.81296E-05-1.99462E-07 6.86500E-20-2.58865E-19
 -1      1530 9.39327E-05-2.81907E-05-2.81758E-05-4.03734E-07 1.64250E-19-6.64544E-20
 -1      1531 9.43846E-05-2.83163E-05-2.83135E-05-1.86223E-07 1.63371E-19-6.73176E-19
 -1      1532 9.41810E-05-2.82558E-05-2.82522E-05-1.86957E-07 2.13785E-19-3.51485E-19
 -1      1533 9.43010E-05-2.82968E-05-2.82883E-05-3.74356E-07 3.74287E-19-6.35809E-19
 -1      1534 9.47700E-05-2.84291E-05-2.84310E-05-1.89449E-07-1.56528E-19-9.76962E-19
 -1      1535 9.45689E-05-2.83688E-05-2.83702E-05-1.87258E-07 1.11522E-19-8.49995E-19
 -1      1536 9.46620E-05-2.83997E-05-2.83993E-05-3.67669E-07 2.69066E-19-3.64079E-19
 -1      1537 9.51836E-05-2.85500E-05-2.85572E-05-2.09295E-07 1.34582E-19-1.38907E-18
 -1      1538 9.49681E-05-2.84843E-05-2.84919E-05-2.03230E-07-9.73956E-20-1.30218E-18
 -1      1539 9.50386E-05-2.85063E-05-2.85157E-05-3.89366E-07 1.34448E-20-1.05193E-18
 -1      1540 9.56622E-05-2.86897E-05-2.87032E-05-2.49146E-07-3.48739E-20-1.44778E-18
 -1      1541 9.54118E-05-2.86121E-05-2.86272E-05-2.38091E-07 1.00998E-19-1.33696E-18
 -1      1542 9.54595E-05-2.86251E-05-2.86461E-05-4.45573E-07 1.92176E-19-1.39671E-18
 -1      1543 9.62499E-05-2.88613E-05-2.88823E-05-3.13055E-07-4.73741E-19-5.67974E-19
 -1      1544 9.59399E-05-2.87640E-05-2.87883E-05-2.95646E-07-3.95391E-19-1.25591E-18
 -1      1545 9.59593E-05-2.87661E-05-2.88012E-05-5.43353E-07-2.63542E-19-7.63282E-19
 -1      1546 9.69997E-05-2.90807E-05-2.91106E-05-4.05879E-07 1.24714E-19-1.96685E-19
 -1      1547 9.66004E-05-2.89540E-05-2.89897E-05-3.80430E-07 1.80921E-20-3.16825E-19
 -1      1548 9.65801E-05-2.89416E-05-2.89938E-05-6.91054E-07-3.10281E-19-6.93724E-19
 -1      1549 9.79748E-05-2.93666E-05-2.94072E-05-5.33242E-07-2.70246E-19-3.82644E-19
 -1      1550 9.74505E-05-2.91991E-05-2.92488E-05-4.97712E-07-2.17085E-20-5.55088E-19
 -1      1551 9.73710E-05-2.91661E-05-2.92388E-05-8.98390E-07 1.02072E-19-5.89232E-20
 -1      1552 9.92492E-05-2.97412E-05-2.97944E-05-7.01147E-07 2.32385E-19-5.25549E-19
 -1      1553 9.85577E-05-2.95193E-05-2.95859E-05-6.53178E-07-3.29847E-20-5.30071E-19
 -1      1554 9.83897E-05-2.94566E-05-2.95539E-05-1.17605E-06-1.30612E-19-5.42192E-19
 -1      1555 1.00907E-04-3.02300E-05-3.02973E-05-9.14870E-07 5.06555E-19-2.04613E-18
 -1      1556 9.99999E-05-2.99379E-05-3.00245E-05-8.52020E-07 4.29595E-19-1.06326E-18
 -1      1557 9.97015E-05-2.98328E-05-2.99586E-05-1.53434E-06 6.76887E-19-1.10252E-18
 -1      1558 1.03038E-04-3.08609E-05-3.09425E-05-1.17645E-06 7.68567E-20-2.36194E-18
 -1      1559 1.01863E-04-3.04815E-05-3.05901E-05-1.09683E-06 1.04423E-19-2.24629E-18
 -1      1560 1.01376E-04-3.03168E-05-3.04734E-05-1.97990E-06 3.29092E-19-1.83171E-18
 -1      1561 1.05724E-04-3.16607E-05-3.17532E-05-1.47961E-06-5.94749E-19-1.28649E-18
 -1      1562 1.04232E-04-3.11782E-05-3.13077E-05-1.38333E-06-3.95025E-19-1.77501E-18
 -1      1563 1.03483E-04-3.09316E-05-3.11175E-05-2.50899E-06-5.36602E-19-1.61759E-18
 -1      1564 1.09014E-04-3.26488E-05-3.27411E-05-1.80037E-06-4.95491E-19 4.79712E-19
 -1      1565 1.07175E-04-3.20534E-05-3.21955E-05-1.69239E-06-5.62013E-19-2.07470E-19
 -1      1566 1.06072E-04-3.16991E-05-3.19025E-05-3.09466E-06-1.14541E-18-1.24064E-19
 -1      1567 1.12872E-04-3.38231E-05-3.38888E-05-2.08139E-06-2.03586E-20 1.26179E-18
 -1      1568 1.10708E-04-3.31220E-05-3.32534E-05-1.97671E-06-1.22064E-19 9.79210E-19
 -1      1569 1.09152E-04-3.26338E-05-3.28232E-05-3.66486E-06-4.10745E-19 1.10892E-18
 -1      1570 1.17093E-04-3.51361E-05-3.51240E-05-2.20992E-06 4.06468E-19 3.48554E-19
 -1      1571 1.14731E-04-3.43716E-05-3.44421E-05-2.14146E-06 6.03923E-19 1.10566E-18
 -1      1572 1.12638E-04-3.37324E-05-3.38409E-05-4.06934E-06 5.74595E-19 1.31757E-18
 -1      1573 1.21183E-04-3.64561E-05-3.62841E-05-1.99752E-06 4.11589E-20-3.57501E-19
 -1      1574 1.18930E-04-3.57331E-05-3.56540E-05-2.02471E-06-2.23147E-19-2.02706E-19
 -1      1575 1.16290E-04-3.49533E-05-3.48627E-05-4.04183E-06 2.79157E-19 8.98318E-19
 -1      1576 1.24238E-04-3.75189E-05-3.70897E-05-1.18999E-06-3.42122E-19 1.76964E-19
 -1      1577 1.22661E-04-3.70339E-05-3.66816E-05-1.39902E-06-2.86932E-20 6.60421E-21
 -1      1578 1.19621E-04-3.61817E-05-3.57224E-05-3.18746E-06-3.92130E-19 8.37074E-19
 -1      1579 1.24942E-04-3.78956E-05-3.71690E-05 4.29792E-07-8.90152E-19 8.22443E-19
 -1      1580 1.24861E-04-3.79416E-05-3.72092E-05-4.35887E-08-7.12818E-19-4.84323E-19
 -1      1581 1.21840E-04-3.71745E-05-3.61848E-05-1.07111E-06-5.81740E-19 7.93845E-19
 -1      1582 1.21897E-04-3.70579E-05-3.61928E-05 2.77642E-06-6.66681E-19 3.14064E-18
 -1      1583 1.24155E-04-3.79442E-05-3.68778E-05 2.04605E-06-7.04295E-19 1.58358E-18
 -1      1584 1.21914E-04-3.75109E-05-3.60092E-05 2.47226E-06-1.27940E-18 9.49458E-19
 -1      1585 1.14538E-04-3.46669E-05-3.41347E-05 5.09607E-06 1.86294E-19 4.21600E-18
 -1      1586 1.19401E-04-3.64915E-05-3.54673E-05 4.33069E-06-2.80844E-19 3.73229E-18
 -1      1587 1.18934E-04-3.66511E-05-3.50903E-05 6.77298E-06-9.60787E-19 2.96488E-18
 -1      1588 1.04413E-04-3.11242E-05-3.15156E-05 5.91092E-06 8.83356E-19 2.81935E-18
 -1      1589 1.10780E-04-3.34447E-05-3.31521E-05 5.56727E-06 8.75406E-19 3.87263E-18
 -1      1590 1.12908E-04-3.42780E-05-3.36180E-05 9.87584E-06 9.06049E-19 2.59256E-18
 -1      1591 9.56369E-05-2.79231E-05-2.93598E-05 3.94943E-06-4.10546E-19 2.91363E-18
 -1      1592 1.00883E-04-2.96928E-05-3.06494E-05 4.42160E-06-5.47924E-20 3.01247E-18
 -1      1593 1.05674E-04-3.09618E-05-3.21102E-05 9.19509E-06-1.34864E-20 2.40735E-18
 -1      1594 9.29238E-05-2.69499E-05-2.86878E-05-2.83741E-07 2.14405E-20 2.29972E-18
 -1      1595 9.42569E-05-2.71229E-05-2.90093E-05 8.55897E-07-1.51090E-19 2.21359E-18
 -1      1596 1.00730E-04-2.84410E-05-3.12105E-05 3.78174E-06 1.74277E-19 1.04034E-18
 -1      1597 9.78512E-05-2.88339E-05-2.98188E-05-4.29725E-06 1.35539E-18-3.09485E-19
 -1      1598 9.45278E-05-2.73016E-05-2.90184E-05-3.18782E-06 1.02337E-18 1.76808E-18
 -1      1599 1.00996E-04-2.84877E-05-3.13122E-05-3.76573E-06 1.06986E-18 6.29068E-19
 -1      1600 1.07417E-04-3.23162E-05-3.21434E-05-5.80766E-06-4.09757E-19-9.53971E-19
 -1      1601 1.01392E-04-3.00173E-05-3.06490E-05-5.33120E-06 4.91081E-20-6.85250E-19
 -1      1602 1.06195E-04-3.10690E-05-3.23272E-05-8.98552E-06 6.19168E-19 4.70897E-20
 -1      1603 1.16659E-04-3.54648E-05-3.45783E-05-4.62089E-06-3.35021E-19 3.15520E-20
 -1      1604 1.10932E-04-3.35506E-05-3.30779E-05-4.82007E-06-4.17792E-19-1.06536E-18
 -1      1605 1.13143E-04-3.43794E-05-3.37719E-05-9.46304E-06-1.12940E-19-2.03923E-18
 -1      1606 1.22217E-04-3.71723E-05-3.62145E-05-2.17040E-06 6.01929E-19 2.29758E-20
 -1      1607 1.18769E-04-3.62132E-05-3.52416E-05-2.69432E-06 3.98648E-19 6.45598E-19
 -1      1608 1.18462E-04-3.66038E-05-3.50368E-05-6.25679E-06-6.23363E-20-1.45557E-18
 -1      1609 1.23394E-04-3.73773E-05-3.67083E-05 1.34435E-07-9.40743E-19-3.25562E-19
 -1      1610 1.22596E-04-3.73333E-05-3.64290E-05-3.79541E-07-2.49809E-19-2.67345E-20
 -1      1611 1.20600E-04-3.72198E-05-3.56767E-05-1.93292E-06-1.54014E-19-6.14264E-20
 -1      1612 1.21194E-04-3.65404E-05-3.62123E-05 1.65883E-06 3.35862E-19 1.91138E-19
 -1      1613 1.22405E-04-3.70955E-05-3.65045E-05 1.30288E-06-1.73629E-19 3.15066E-19
 -1      1614 1.19731E-04-3.66168E-05-3.55745E-05 1.62038E-06-3.31216E-19-5.46098E-19
 -1      1615 1.17057E-04-3.51688E-05-3.50865E-05 2.39255E-06-3.53413E-19-6.06396E-19
 -1      1616 1.19392E-04-3.60056E-05-3.57255E-05 2.20230E-06-4.89162E-20-2.26780E-19
 -1      1617 1.16814E-04-3.53817E-05-3.48704E-05 3.76920E-06 3.19067E-19-6.12630E-19
 -1      1618 1.12176E-04-3.36295E-05-3.36838E-05 2.56623E-06 9.93384E-19-1.08545E-18
 -1      1619 1.14920E-04-3.45312E-05-3.44646E-05 2.49518E-06 5.97801E-19-2.87779E-19
 -1      1620 1.12864E-04-3.39410E-05-3.38074E-05 4.67354E-06 6.99641E-19-8.67746E-20
 -1      1621 1.07335E-04-3.21397E-05-3.22582E-05 2.41091E-06-4.00479E-19-6.91126E-19
 -1      1622 1.10033E-04-3.29858E-05-3.30401E-05 2.41263E-06-2.74566E-19-1.65995E-18
 -1      1623 1.08645E-04-3.25279E-05-3.26132E-05 4.73702E-06 1.32042E-19-3.96067E-19
 -1      1624 1.02993E-04-3.08164E-05-3.09680E-05 2.07461E-06-2.11709E-19 1.13979E-19
 -1      1625 1.05389E-04-3.15457E-05-3.16663E-05 2.12082E-06-8.65049E-20-1.81397E-19
 -1      1626 1.04649E-04-3.12520E-05-3.14543E-05 4.30635E-06-4.11039E-19-1.11342E-18
 -1      1627 9.94316E-05-2.97277E-05-2.99127E-05 1.61793E-06-1.65251E-19 1.11634E-18
 -1      1628 1.01367E-04-3.03022E-05-3.04744E-05 1.70085E-06-4.92669E-19 9.00700E-19
 -1      1629 1.01171E-04-3.01604E-05-3.04402E-05 3.58234E-06-4.96712E-19 1.88931E-18
 -1      1630 9.68754E-05-2.89347E-05-2.91590E-05 1.03076E-06 8.48803E-19-6.92966E-19
 -1      1631 9.82083E-05-2.93095E-05-2.95466E-05 1.16569E-06 1.16240E-18 1.02551E-18
 -1      1632 9.83932E-05-2.92735E-05-2.96411E-05 2.63013E-06 1.21831E-18 2.10447E-18
 -1      1633 9.55273E-05-2.85264E-05-2.87151E-05 3.44786E-07 4.86168E-19-1.88988E-18
 -1      1634 9.61056E-05-2.86450E-05-2.89247E-05 5.15079E-07 2.95912E-19-1.41094E-18
 -1      1635 9.64314E-05-2.86274E-05-2.90838E-05 1.44287E-06 1.40195E-18 1.60189E-18
 -1      1636 9.52364E-05-2.85026E-05-2.85856E-05 2.06070E-09-8.30767E-19-1.57521E-18
 -1      1637 9.50516E-05-2.73300E-05-2.90452E-05 8.52614E-07 1.73237E-18 2.23921E-18
 -1      1638 9.52623E-05-2.79898E-05-2.88265E-05 6.71932E-07-1.57194E-19 2.26457E-18
 -1      1639 9.43261E-05-2.51926E-05-2.96403E-05 1.44145E-06 2.05683E-18 2.62703E-19
 -1      1640 9.47555E-05-2.64519E-05-2.92871E-05 1.34494E-06 1.72743E-18 1.12612E-20
 -1      1641 9.50037E-05-2.66662E-05-2.93123E-05 2.13987E-06 1.76897E-18 2.03608E-18
 -1      1642 9.34342E-05-2.25314E-05-3.03890E-05 1.70723E-06 1.06819E-18 2.12451E-19
 -1      1643 9.39554E-05-2.40828E-05-2.99535E-05 1.68192E-06 1.57898E-18 7.48756E-19
 -1      1644 9.42131E-05-2.46508E-05-2.98291E-05 3.01489E-06-3.71940E-19 1.47341E-19
 -1      1645 9.25431E-05-1.98258E-05-3.11613E-05 1.64751E-06 1.61865E-18 6.16177E-19
 -1      1646 9.30513E-05-2.13591E-05-3.07267E-05 1.68540E-06 9.92617E-19 1.85248E-18
 -1      1647 9.33651E-05-2.23578E-05-3.04289E-05 3.26941E-06-1.15587E-18 1.33234E-19
 -1      1648 9.18063E-05-1.75579E-05-3.18155E-05 1.32367E-06-1.05065E-19-5.46148E-19
 -1      1649 9.22123E-05-1.87970E-05-3.14619E-05 1.40675E-06 1.60113E-18-1.57349E-18
 -1      1650 9.25719E-05-2.01546E-05-3.10157E-05 2.94307E-06-1.27176E-18-8.14419E-19
 -1      1651 9.13031E-05-1.59883E-05-3.22723E-05 8.04994E-07-2.67902E-18-1.61910E-18
 -1      1652 9.15628E-05-1.67885E-05-3.20426E-05 9.19956E-07-7.62528E-19-1.63577E-18
 -1      1653 9.19421E-05-1.83618E-05-3.15019E-05 2.16274E-06-1.26273E-18-2.64253E-18
 -1      1654 9.11118E-05-1.53656E-05-3.24582E-05 1.92872E-07-4.16614E-18-6.74122E-19
 -1      1655 9.11866E-05-1.56073E-05-3.23874E-05 3.17270E-07-2.92948E-18-3.66342E-19
 -1      1656 9.15530E-05-1.72229E-05-3.18168E-05 1.08250E-06-2.43584E-18-2.30736E-18
 -1      1657 9.12411E-05-1.57283E-05-3.23599E-05-4.10899E-07-3.25685E-18 7.45869E-19
 -1      1658 9.11319E-05-1.54091E-05-3.24495E-05-2.96752E-07-4.44158E-18 9.33093E-19
 -1      1659 9.14545E-05-1.68961E-05-3.19148E-05-1.00178E-07-1.22838E-18-7.42904E-19
 -1      1660 9.16513E-05-1.69669E-05-3.20070E-05-9.18529E-07-2.37575E-18 5.30828E-19
 -1      1661 9.13864E-05-1.61670E-05-3.22348E-05-8.30155E-07-3.81358E-18 1.06265E-18
 -1      1662 9.16426E-05-1.73872E-05-3.17909E-05-1.19843E-06-1.19671E-18 7.27965E-19
 -1      1663 9.22664E-05-1.88586E-05-3.14617E-05-1.27055E-06-2.19790E-18 1.24590E-20
 -1      1664 9.18934E-05-1.77171E-05-3.17886E-05-1.21685E-06-2.50601E-18 7.28462E-19
 -1      1665 9.20696E-05-1.85802E-05-3.14726E-05-2.06334E-06-1.91170E-18 5.85521E-19
 -1      1666 9.29815E-05-2.10815E-05-3.08167E-05-1.43938E-06-2.06414E-18 5.74565E-19
 -1      1667 9.25612E-05-1.97867E-05-3.11885E-05-1.42223E-06-1.22867E-18-7.26249E-19
 -1      1668 9.26567E-05-2.02582E-05-3.10165E-05-2.60244E-06-1.92410E-18 5.36675E-20
 -1      1669 9.37297E-05-2.34191E-05-3.01370E-05-1.42954E-06-2.97295E-18 6.29183E-20
 -1      1670 9.33010E-05-2.20963E-05-3.05166E-05-1.44614E-06-2.84909E-18 1.80122E-18
 -1      1671 9.33202E-05-2.21916E-05-3.04837E-05-2.79173E-06-8.15124E-19 3.71923E-19
 -1      1672 9.44113E-05-2.55484E-05-2.95193E-05-1.24960E-06-2.59504E-18 1.28345E-18
 -1      1673 9.40319E-05-2.43828E-05-2.98521E-05-1.29612E-06-2.96037E-18 1.19015E-18
 -1      1674 9.39928E-05-2.41602E-05-2.99387E-05-2.63931E-06-9.43818E-19 2.07891E-19
 -1      1675 9.49494E-05-2.71940E-05-2.90388E-05-9.10718E-07-3.02783E-18 1.98603E-19
 -1      1676 9.46608E-05-2.63516E-05-2.92830E-05-9.86650E-07-2.81813E-18 1.18616E-19
 -1      1677 9.46043E-05-2.59284E-05-2.94507E-05-2.16375E-06-1.12052E-18-5.28420E-20
 -1      1678 9.52981E-05-2.80837E-05-2.87936E-05-6.37229E-07-2.23359E-18-3.87276E-19
 -1      1679 9.51670E-05-2.76619E-05-2.89368E-05-8.11531E-07-2.24665E-18-1.57020E-19
 -1      1680 9.51582E-05-2.72068E-05-2.91377E-05-1.68165E-06-1.30127E-18-3.17814E-19
 -1      1681 9.56843E-05-2.80855E-05-2.89729E-05-1.25645E-06-1.21606E-18-1.26534E-20
 -1      1682 2.05953E-05-6.71134E-05 1.40598E-05-6.36008E-06 2.11758E-20 9.96323E-19
 -1      1683 2.35783E-05-7.58598E-05 1.60503E-05 1.41186E-06-4.29869E-20 1.47384E-19
 -1      1684 1.90339E-05-4.24467E-05 5.29822E-06-6.82118E-07 4.20467E-18 4.58637E-18
 -1      1685 2.41240E-05-6.42818E-05 1.08043E-05-3.05570E-06 1.17738E-19 2.96139E-18
 -1      1686 3.77133E-05-1.69561E-05-1.09855E-05 2.74737E-05 7.08628E-18 6.05883E-18
 -1      1687 3.18487E-05-3.79504E-05-2.07603E-06 1.01143E-05 5.11777E-18 4.22924E-18
 -1      1688 7.23179E-05-2.51580E-06-2.94098E-05 5.68085E-05 6.90755E-18 3.93616E-18
 -1      1689 4.98831E-05-9.94666E-06-1.97432E-05 3.42874E-05 8.78881E-18 5.14318E-18
 -1      1690 1.34398E-04-1.44133E-05-4.81355E-05 7.74420E-05 2.98664E-18 1.11724E-18
 -1      1691 9.49285E-05-4.57654E-06-3.86293E-05 6.25656E-05 5.54976E-18 3.72525E-18
 -1      1692 2.06632E-04-4.22018E-05-6.47164E-05 6.97556E-05 8.07434E-19-1.71778E-18
 -1      1693 1.59909E-04-2.05032E-05-5.66761E-05 7.59321E-05 1.92361E-18-1.23667E-19
 -1      1694 2.51794E-04-6.29509E-05-7.43287E-05 2.90702E-05 1.18860E-18-5.14191E-18
 -1      1695 2.24569E-04-4.78198E-05-7.02753E-05 5.72000E-05 3.48978E-19-2.65291E-18
 -1      1696 2.48153E-04-5.96816E-05-7.49291E-05-2.30844E-05 1.39337E-18-6.55180E-18
 -1      1697 2.53352E-04-6.21901E-05-7.55792E-05 1.32392E-05 1.48781E-18-5.12529E-18
 -1      1698 2.03383E-04-3.92897E-05-6.62316E-05-5.84719E-05 3.49316E-18-7.27093E-18
 -1      1699 2.37773E-04-5.68953E-05-7.17210E-05-3.55785E-05 1.97253E-18-6.43025E-18
 -1      1700 1.40524E-04-1.56110E-05-5.15867E-05-7.14614E-05 4.30716E-18-7.38528E-18
 -1      1701 1.85502E-04-3.48405E-05-6.00346E-05-7.11622E-05 4.13225E-18-7.41831E-18
 -1      1702 7.92069E-05-4.04424E-06-3.30869E-05-5.42956E-05 4.69764E-18-6.10372E-18
 -1      1703 1.15422E-04-9.94736E-06-4.29042E-05-7.25613E-05 4.22669E-18-7.60297E-18
 -1      1704 4.10437E-05-1.54521E-05-1.43620E-05-2.52594E-05 6.68055E-18-3.90313E-18
 -1      1705 5.82862E-05-3.66871E-06-2.38104E-05-4.74122E-05 5.48030E-18-4.81623E-18
 -1      1706 2.77173E-05-4.40519E-05 1.80518E-06-4.62472E-06 4.66376E-18-3.67168E-18
 -1      1707 2.95097E-05-2.18817E-05-6.15004E-06-1.82825E-05 6.05290E-18-4.45920E-18
 -1      1708 2.39232E-05-6.87244E-05 1.27243E-05 3.35469E-06 2.97944E-18-1.60269E-18
 -1      1709 1.85280E-05-4.95779E-05 8.15659E-06 4.40463E-06 4.29192E-18-2.93740E-18
 -1      1710 2.26577E-05-7.44284E-05 1.60149E-05-2.17848E-06 1.57291E-18-7.33531E-19
 -1      1711 2.10687E-05-7.00332E-05 1.50098E-05 6.50760E-06 2.74947E-18-1.00543E-18
 -1      1712 1.96243E-05-6.11167E-05 1.23049E-05-4.48946E-06-3.20433E-18-2.92406E-18
 -1      1713 2.37791E-05-7.43453E-05 1.53018E-05 1.95350E-06 4.78150E-19-1.71397E-18
 -1      1714 2.05994E-05-3.28469E-05 1.46980E-06 7.21979E-06-5.06187E-18-2.66434E-18
 -1      1715 2.41780E-05-5.57547E-05 7.81045E-06 1.05847E-06-4.02849E-18-2.09672E-18
 -1      1716 4.50280E-05-1.17657E-05-1.53986E-05 3.64225E-05-5.48877E-18-4.74000E-18
 -1      1717 3.57400E-05-2.95010E-05-6.32427E-06 1.76504E-05-5.86147E-18-3.30893E-18
 -1      1718 8.62498E-05-2.70876E-06-3.44030E-05 6.46341E-05-6.26296E-18-8.46186E-18
 -1      1719 5.86476E-05-5.35126E-06-2.44155E-05 4.29003E-05-6.05544E-18-6.76610E-18
 -1      1720 1.48562E-04-1.88066E-05-5.21130E-05 7.78210E-05-5.71663E-18-7.58433E-18
 -1      1721 1.07536E-04-4.00996E-06-4.34018E-05 6.94152E-05-6.44761E-18-8.54487E-18
 -1      1722 2.09597E-04-4.51903E-05-6.57335E-05 5.46459E-05-3.37708E-18-6.17148E-18
 -1      1723 1.70244E-04-2.57372E-05-5.89937E-05 6.72542E-05-4.99157E-18-7.47422E-18
 -1      1724 2.43787E-04-5.93135E-05-7.33054E-05 1.28197E-05-1.91048E-18-3.27166E-18
 -1      1725 2.23170E-04-4.82303E-05-7.03971E-05 4.33494E-05-3.07282E-18-5.14107E-18
 -1      1726 2.43682E-04-5.84981E-05-7.34198E-05-3.53401E-05-1.58035E-18 6.05629E-19
 -1      1727 2.54035E-04-6.46876E-05-7.48660E-05-1.06060E-06-1.02618E-18-1.75873E-18
 -1      1728 1.90886E-04-3.30546E-05-6.37946E-05-6.68968E-05-7.14896E-19 1.59073E-18
 -1      1729 2.29090E-04-5.28397E-05-6.96101E-05-4.73492E-05-6.00758E-19 1.84823E-18
 -1      1730 1.25574E-04-1.20700E-05-4.73173E-05-6.66523E-05-7.73341E-19 2.18026E-18
 -1      1731 1.69437E-04-2.89630E-05-5.63037E-05-7.05002E-05-1.16107E-18 2.08031E-18
 -1      1732 6.96761E-05-1.52225E-06-3.01748E-05-5.22526E-05-1.30274E-18 9.21572E-19
 -1      1733 9.96514E-05-4.71021E-06-3.89926E-05-6.99436E-05-7.37766E-19 2.37847E-18
 -1      1734 3.89781E-05-1.44075E-05-1.36523E-05-2.60639E-05 3.02391E-19-2.10911E-19
 -1      1735 5.29091E-05-2.82831E-06-2.19751E-05-4.56523E-05-5.27702E-19-1.65171E-19
 -1      1736 2.61818E-05-3.93616E-05 6.76711E-07-6.11905E-06 1.32391E-18 6.84403E-19
 -1      1737 2.71948E-05-1.91698E-05-6.28712E-06-1.85652E-05 5.75982E-20-2.08794E-19
 -1      1738 2.44651E-05-6.63653E-05 1.13946E-05 3.06923E-06-2.10064E-19-1.06461E-18
 -1      1739 1.86742E-05-4.49786E-05 6.25318E-06 2.35502E-06 5.37866E-19 5.55759E-19
 -1      1740 3.33177E-05-4.30863E-05 6.81684E-07-2.41797E-05 1.86347E-20 2.35158E-19
 -1      1741 2.39516E-05-7.66951E-05 1.61991E-05-2.84031E-06-3.95247E-19-4.23940E-19
 -1      1742 2.13270E-05-6.93075E-05 1.44823E-05 4.77626E-06 6.15793E-19-4.88738E-19
 -1      1743 1.12412E-04-3.23726E-05-3.36923E-05 4.54723E-05 4.85265E-18-2.53263E-19
 -1      1744 7.35310E-05-3.87792E-05-1.64866E-05 3.83902E-05 3.39914E-18 2.51653E-18
 -1      1745 9.54049E-05-2.84000E-05-2.87303E-05 3.32456E-07-1.33127E-18 3.89825E-19
 -1      1746 9.55527E-05-2.79484E-05-2.89816E-05 1.15131E-06 1.46332E-18 2.79966E-18
 -1      1747 1.81869E-05-4.88291E-05 8.77172E-06 1.24527E-05 1.14053E-18 3.48935E-18
 -1      1748 4.06344E-05-4.42331E-05-1.47277E-06 2.81816E-05 9.85099E-19 4.78445E-18
 -1      1749 1.17011E-05-4.99799E-05 1.19545E-05-7.63859E-07 4.54857E-19 2.41404E-19
 -1      1750 1.57692E-04-3.26301E-05-5.06373E-05 4.39838E-05 3.03979E-18-1.45605E-18
 -1      1751 1.95800E-04-3.47125E-05-6.41074E-05 3.06769E-05 1.62662E-18-3.09591E-18
 -1      1752 2.10076E-04-3.26569E-05-7.04987E-05 8.88238E-06 1.39168E-18-5.20459E-18
 -1      1753 2.01922E-04-3.04625E-05-6.85919E-05-8.72223E-06 1.92573E-18-4.11785E-18
 -1      1754 1.82748E-04-3.36784E-05-5.99062E-05-2.82936E-05 3.35510E-18-5.55145E-18
 -1      1755 1.45150E-04-3.29864E-05-4.57678E-05-4.35056E-05 2.72787E-18-5.80302E-18
 -1      1756 9.96289E-05-3.30329E-05-2.86223E-05-4.33150E-05 3.42201E-18-3.91160E-18
 -1      1757 6.17247E-05-3.89036E-05-1.19026E-05-3.47164E-05 3.56686E-18-2.76006E-18
 -1      1758 3.27688E-05-4.50002E-05 1.76856E-06-2.32654E-05 3.14037E-18-3.97438E-18
 -1      1759 1.51801E-05-4.89531E-05 1.00670E-05-8.51352E-06 2.64846E-18-2.44327E-18
 -1      1760 1.19146E-05-4.90413E-05 1.15569E-05 4.37894E-06 1.84018E-19-2.71813E-18
 -1      1761 2.17540E-05-4.61648E-05 6.60415E-06 1.83575E-05-6.97955E-19-3.03577E-18
 -1      1762 4.78690E-05-4.06343E-05-5.16443E-06 3.41644E-05-1.92869E-18-2.77552E-18
 -1      1763 8.28264E-05-3.67732E-05-2.07426E-05 4.18798E-05-3.21534E-18-4.64936E-18
 -1      1764 1.20644E-04-2.92753E-05-3.79300E-05 4.69984E-05-4.65233E-18-6.53994E-18
 -1      1765 1.61739E-04-3.01673E-05-5.32207E-05 3.86741E-05-5.05033E-18-5.62853E-18
 -1      1766 1.87200E-04-2.89017E-05-6.38742E-05 1.82816E-05-4.48504E-18-5.09871E-18
 -1      1767 2.05791E-04-3.12838E-05-6.97538E-05 9.60098E-07-3.10819E-18-3.89741E-18
 -1      1768 2.02458E-04-3.29509E-05-6.76168E-05-1.88263E-05-1.20745E-18-9.48253E-19
 -1      1769 1.72295E-04-3.25112E-05-5.68656E-05-3.10094E-05-1.57628E-19 1.00797E-19
 -1      1770 1.34577E-04-3.14762E-05-4.22023E-05-4.39487E-05-3.95564E-19 2.17264E-18
 -1      1771 9.17832E-05-3.04167E-05-2.63710E-05-4.49824E-05 1.49078E-19 2.18958E-19
 -1      1772 5.85666E-05-3.59458E-05-1.15535E-05-3.62418E-05 1.47299E-18-2.69356E-19
 -1      1773 1.06036E-04-2.31659E-05-3.55992E-05-1.68575E-05-1.08077E-18 5.16881E-18
 -1      1774 1.79786E-05-5.04151E-05 9.36362E-06-1.16241E-05 2.44793E-19-1.03380E-18
 -1      1775 8.91476E-05-1.05868E-05-3.37944E-05-1.33358E-05-1.48124E-18-1.02512E-18
 -1      1776 9.04753E-05-1.16304E-05-3.39331E-05-1.51449E-05-1.70761E-18-4.95117E-19
 -1      1777 9.24789E-05-1.38724E-05-3.38505E-05-1.60101E-05-1.73754E-18 1.46616E-19
 -1      1778 9.41933E-05-1.58179E-05-3.40937E-05-1.76704E-05-1.79275E-18 1.00797E-18
 -1      1779 9.34080E-05-1.63460E-05-3.30416E-05-1.37787E-05-1.82088E-18-1.18982E-19
 -1      1780 8.62194E-05-7.67780E-06-3.37316E-05-7.87174E-06-8.93873E-19-2.09588E-18
 -1      1781 8.66212E-05-7.97587E-06-3.37649E-05-9.26159E-06-1.05902E-18-1.92774E-18
 -1      1782 8.56068E-05-7.04105E-06-3.37303E-05-5.32634E-06-6.22260E-19-2.33453E-18
 -1      1783 8.58394E-05-7.21944E-06-3.37447E-05-6.63189E-06-7.51085E-19-2.24043E-18
 -1      1784 8.76040E-05-9.87192E-06-3.33454E-05-6.93614E-06-9.13782E-19-2.06880E-18
 -1      1785 8.52753E-05-6.68339E-06-3.37346E-05-2.89256E-06-2.83045E-19-2.33099E-18
 -1      1786 8.53948E-05-6.77780E-06-3.37401E-05-4.13350E-06-4.31337E-19-2.35831E-18
 -1      1787 8.69727E-05-9.16137E-06-3.33801E-05-4.54311E-06-5.26243E-19-2.23928E-18
 -1      1788 8.51460E-05-6.53573E-06-3.37385E-05-5.18309E-07 7.24701E-20-2.40927E-18
 -1      1789 8.51811E-05-6.56412E-06-3.37398E-05-1.72932E-06-1.00294E-19-2.36253E-18
 -1      1790 8.66439E-05-8.78362E-06-3.34010E-05-2.22030E-06-2.15732E-19-2.28633E-18
 -1      1791 8.51910E-05-6.57315E-06-3.37400E-05 1.84733E-06 3.00668E-19-2.47711E-18
 -1      1792 8.51497E-05-6.54029E-06-3.37384E-05 6.35304E-07 1.57408E-19-2.44521E-18
 -1      1793 8.65468E-05-8.67043E-06-3.34079E-05 6.53801E-08 1.14845E-19-2.40311E-18
 -1      1794 8.54198E-05-6.80282E-06-3.37402E-05 4.25608E-06 5.35926E-19-2.48234E-18
 -1      1795 8.52932E-05-6.70241E-06-3.37345E-05 3.01196E-06 4.15473E-19-2.50731E-18
 -1      1796 8.66615E-05-8.80325E-06-3.34003E-05 2.35227E-06 4.01677E-19-2.41902E-18
 -1      1797 8.58729E-05-7.25499E-06-3.37444E-05 6.71976E-06 8.40103E-19-2.27259E-18
 -1      1798 8.56370E-05-7.07324E-06-3.37302E-05 5.43146E-06 6.71603E-19-2.40136E-18
 -1      1799 8.70069E-05-9.19939E-06-3.33786E-05 4.65832E-06 6.36149E-19-2.35545E-18
 -1      1800 8.66809E-05-8.04317E-06-3.37635E-05 9.38325E-06 1.25816E-18-1.92912E-18
 -1      1801 8.62628E-05-7.72728E-06-3.37306E-05 7.96169E-06 1.01039E-18-2.08762E-18
 -1      1802 8.76545E-05-9.93053E-06-3.33430E-05 7.03584E-06 1.02640E-18-2.06570E-18
 -1      1803 8.80870E-05-9.38888E-06-3.38169E-05 1.22631E-05 1.56636E-18-1.48559E-18
 -1      1804 8.73501E-05-8.83184E-06-3.37458E-05 1.06698E-05 1.35381E-18-1.75860E-18
 -1      1805 8.87698E-05-1.11634E-05-3.32907E-05 9.51172E-06 1.41442E-18-1.74883E-18
 -1      1806 9.06243E-05-1.18388E-05-3.39251E-05 1.53115E-05 1.82465E-18-5.92314E-19
 -1      1807 8.92471E-05-1.07404E-05-3.37862E-05 1.35220E-05 1.68377E-18-1.12041E-18
 -1      1808 9.06604E-05-1.32235E-05-3.32059E-05 1.19845E-05 1.73586E-18-1.18074E-18
 -1      1809 9.58629E-05-1.70309E-05-3.39891E-05 1.76981E-05 1.81704E-18 1.04773E-18
 -1      1810 9.28462E-05-1.43406E-05-3.38236E-05 1.62020E-05 1.78553E-18 4.09223E-20
 -1      1811 9.39610E-05-1.68850E-05-3.30213E-05 1.39032E-05 1.91267E-18-2.01064E-19
 -1      1812 1.01909E-04-2.50895E-05-3.33544E-05 1.44285E-05 1.55129E-18 3.20994E-18
 -1      1813 9.80618E-05-1.96123E-05-3.36208E-05 1.69712E-05 1.70446E-18 1.80397E-18
 -1      1814 9.73151E-05-2.18502E-05-3.24233E-05 1.32563E-05 1.82835E-18 1.07846E-18
 -1      1815 9.87343E-05-2.61300E-05-3.13371E-05 9.44115E-06 1.59406E-18 2.72279E-18
 -1      1816 1.00140E-04-1.95585E-05-3.42133E-05-1.88756E-05-1.47491E-18 2.49822E-18
 -1      1817 9.52902E-05-2.72795E-05-2.91790E-05 4.07333E-06 1.22615E-18 2.03309E-18
 -1      1818 9.77226E-05-2.73852E-05-3.01887E-05 6.40715E-06 1.31356E-18 2.48351E-18
 -1      1819 9.75594E-05-2.56098E-05-3.08276E-05 8.76731E-06 1.56749E-18 1.53128E-18
 -1      1820 1.75677E-05-3.77970E-05 7.10289E-06-1.72064E-05 1.35102E-18 1.91429E-19
 -1      1821 2.53344E-05-3.88461E-05 4.24493E-06-2.39810E-05 2.11758E-21-4.88314E-19
 -1      1822 9.98004E-05-2.25376E-05-3.28316E-05-1.44746E-05-1.62993E-18 1.82853E-18
 -1      1823 9.69414E-05-2.69736E-05-2.98716E-05-5.71251E-06-1.30708E-18 1.56390E-18
 -1      1824 9.51314E-05-2.70280E-05-2.91604E-05-3.90589E-06-1.16472E-18 1.19348E-18
 -1      1825 9.43113E-05-2.72291E-05-2.86525E-05-2.42933E-06-9.98864E-19 1.13158E-18
 -1      1826 9.35382E-05-2.73097E-05-2.83468E-05-1.57637E-06-7.89408E-19 8.16758E-19
 -1      1827 9.54894E-05-2.65411E-05-2.95704E-05-4.48288E-06-1.24127E-18 4.80815E-19
 -1      1828 9.30120E-05-2.73601E-05-2.80776E-05-7.50719E-07-5.00309E-19 7.95672E-19
 -1      1829 9.27082E-05-2.74226E-05-2.79549E-05-3.12908E-07-3.30747E-19 7.41900E-19
 -1      1830 9.42782E-05-2.72167E-05-2.87610E-05-1.83957E-06-8.07897E-19 2.72000E-19
 -1      1831 9.24310E-05-2.74493E-05-2.78186E-05 1.42122E-07-2.73503E-19 6.68041E-19
 -1      1832 9.23972E-05-2.75243E-05-2.77881E-05 3.66008E-07-3.26227E-19 6.51292E-19
 -1      1833 9.35738E-05-2.75214E-05-2.83247E-05-3.74974E-07-4.20716E-19 2.25187E-19
 -1      1834 9.22929E-05-2.75552E-05-2.77297E-05 6.06105E-07-5.61180E-19 6.10802E-19
 -1      1835 9.24056E-05-2.76392E-05-2.77484E-05 7.10348E-07-3.67070E-19 3.38413E-19
 -1      1836 9.32502E-05-2.77043E-05-2.81034E-05 4.27890E-07-4.73188E-19 9.83683E-20
 -1      1837 9.24107E-05-2.76766E-05-2.77365E-05 8.22598E-07-2.84168E-19 3.27724E-19
 -1      1838 9.25970E-05-2.77622E-05-2.77810E-05 8.57468E-07-3.24338E-19 2.89907E-19
 -1      1839 9.31853E-05-2.78456E-05-2.80111E-05 8.41049E-07-3.84824E-19-6.21341E-20
 -1      1840 9.26666E-05-2.78031E-05-2.77965E-05 8.93667E-07-3.80368E-19 5.07437E-19
 -1      1841 9.28831E-05-2.78849E-05-2.78531E-05 8.88828E-07-2.75628E-19 5.57579E-19
 -1      1842 9.32805E-05-2.79672E-05-2.79967E-05 1.02120E-06-2.95519E-19 7.19647E-22
 -1      1843 9.29874E-05-2.79261E-05-2.78838E-05 8.81478E-07-3.24638E-19 5.40252E-19
 -1      1844 9.32089E-05-2.80008E-05-2.79443E-05 8.55765E-07-1.43629E-19 6.24298E-19
 -1      1845 9.34664E-05-2.80742E-05-2.80283E-05 1.06375E-06-2.63013E-19 5.63376E-20
 -1      1846 9.33292E-05-2.80401E-05-2.79827E-05 8.26264E-07-3.86438E-19 4.81920E-19
 -1      1847 9.35424E-05-2.81064E-05-2.80427E-05 7.92235E-07-3.90516E-19 1.06188E-19
 -1      1848 9.36975E-05-2.81677E-05-2.80858E-05 1.02997E-06-5.17692E-19-2.94393E-19
 -1      1849 9.36678E-05-2.81425E-05-2.80845E-05 7.55197E-07-3.26399E-19-6.64348E-20
 -1      1850 9.38673E-05-2.82005E-05-2.81418E-05 7.21536E-07-3.13877E-19-3.67707E-19
 -1      1851 9.39459E-05-2.82480E-05-2.81571E-05 9.60925E-07-5.54034E-19-2.89296E-19
 -1      1852 9.39928E-05-2.82334E-05-2.81848E-05 6.87264E-07-2.84121E-19-3.07300E-19
 -1      1853 9.41787E-05-2.82842E-05-2.82393E-05 6.60197E-07-1.35300E-19-4.92826E-20
 -1      1854 9.41969E-05-2.83161E-05-2.82350E-05 8.85098E-07-2.97424E-19-3.34183E-19
 -1      1855 9.43034E-05-2.83143E-05-2.82830E-05 6.36223E-07 7.66447E-20-6.01635E-20
 -1      1856 9.44801E-05-2.83600E-05-2.83355E-05 6.20426E-07 1.57317E-19-1.37689E-19
 -1      1857 9.44453E-05-2.83740E-05-2.83166E-05 8.22886E-07-1.24690E-19 6.29222E-20
 -1      1858 9.46063E-05-2.83885E-05-2.83805E-05 6.12529E-07 1.33205E-19-3.39630E-19
 -1      1859 9.47809E-05-2.84316E-05-2.84331E-05 6.11730E-07-1.75327E-20-8.52260E-20
 -1      1860 9.46931E-05-2.84245E-05-2.84014E-05 7.89504E-07 6.00511E-20 3.83752E-20
 -1      1861 9.49133E-05-2.84602E-05-2.84807E-05 6.24587E-07-2.38610E-19-1.30289E-19
 -1      1862 9.50957E-05-2.85040E-05-2.85361E-05 6.41937E-07-2.54435E-20 8.18510E-20
 -1      1863 9.49475E-05-2.84708E-05-2.84909E-05 7.96875E-07-8.50446E-20-5.85899E-20
 -1      1864 9.52409E-05-2.85348E-05-2.85885E-05 6.79501E-07-6.59745E-20 1.85618E-19
 -1      1865 9.54428E-05-2.85830E-05-2.86499E-05 7.17739E-07-1.44244E-19 1.37314E-19
 -1      1866 9.52198E-05-2.85174E-05-2.85882E-05 8.54805E-07 4.04702E-20-7.22708E-20
 -1      1867 9.56087E-05-2.86186E-05-2.87095E-05 7.83325E-07-1.99932E-19-2.61836E-20
 -1      1868 9.58434E-05-2.86755E-05-2.87806E-05 8.44717E-07-4.09041E-20-8.61668E-20
 -1      1869 9.55251E-05-2.85693E-05-2.86974E-05 9.71511E-07-2.14663E-19 2.06790E-19
 -1      1870 9.60394E-05-2.87192E-05-2.88502E-05 9.40778E-07-3.63054E-20 1.17882E-20
 -1      1871 9.63213E-05-2.87899E-05-2.89352E-05 1.02677E-06-2.20631E-19 4.50695E-20
 -1      1872 9.58806E-05-2.86329E-05-2.88233E-05 1.15348E-06-1.43055E-19-1.46277E-21
 -1      1873 9.65573E-05-2.88453E-05-2.90175E-05 1.15427E-06-5.33231E-19-2.66722E-19
 -1      1874 9.69012E-05-2.89352E-05-2.91202E-05 1.26479E-06-6.31132E-19-4.31198E-19
 -1      1875 9.63061E-05-2.87160E-05-2.89707E-05 1.40455E-06-4.60922E-19 1.01470E-19
 -1      1876 9.71873E-05-2.90069E-05-2.92177E-05 1.42205E-06-4.67647E-19-3.99690E-20
 -1      1877 9.76067E-05-2.91224E-05-2.93415E-05 1.55430E-06-1.04168E-19-3.01798E-19
 -1      1878 9.68221E-05-2.88286E-05-2.91444E-05 1.72393E-06-5.59609E-19-9.36622E-21
 -1      1879 9.79526E-05-2.92158E-05-2.94558E-05 1.73522E-06-4.89079E-20-5.93745E-19
 -1      1880 9.84578E-05-2.93631E-05-2.96031E-05 1.88186E-06-1.06618E-19-6.79337E-19
 -1      1881 9.74494E-05-2.89832E-05-2.93476E-05 2.10303E-06-3.53051E-19 9.65381E-20
 -1      1882 9.88715E-05-2.94847E-05-2.97343E-05 2.07332E-06-1.57020E-19-6.89015E-19
 -1      1883 9.94661E-05-2.96699E-05-2.99049E-05 2.21994E-06 7.11210E-20-7.03021E-19
 -1      1884 9.82070E-05-2.91958E-05-2.95816E-05 2.52062E-06-2.67423E-19-1.86745E-19
 -1      1885 9.99521E-05-2.98272E-05-3.00510E-05 2.39842E-06 2.09804E-19-6.33339E-19
 -1      1886 1.00628E-04-3.00549E-05-3.02411E-05 2.52042E-06 7.94629E-19-4.22619E-19
 -1      1887 9.91091E-05-2.94863E-05-2.98440E-05 2.93637E-06 2.82866E-19-1.95993E-19
 -1      1888 1.01185E-04-3.02557E-05-3.03967E-05 2.64811E-06 1.01111E-18-6.67283E-19
 -1      1889 1.01917E-04-3.05267E-05-3.05972E-05 2.70752E-06 7.27393E-19-2.96246E-19
 -1      1890 1.00162E-04-2.98780E-05-3.01271E-05 3.28289E-06 9.29314E-19-6.99895E-19
 -1      1891 1.02536E-04-3.07777E-05-3.07529E-05 2.72905E-06 2.79233E-19-8.01670E-20
 -1      1892 1.03272E-04-3.10853E-05-3.09475E-05 2.67295E-06-4.20209E-19 1.99210E-19
 -1      1893 1.01357E-04-3.03949E-05-3.04169E-05 3.45798E-06 5.35491E-19-6.18534E-19
 -1      1894 1.03928E-04-3.13880E-05-3.10896E-05 2.51525E-06-8.14144E-19 2.09574E-19
 -1      1895 1.04584E-04-3.17116E-05-3.12536E-05 2.27886E-06-5.73163E-19-1.55020E-19
 -1      1896 1.02664E-04-3.10538E-05-3.06926E-05 3.32076E-06-2.17673E-19 6.87420E-20
 -1      1897 1.05232E-04-3.20538E-05-3.13654E-05 1.85916E-06-7.23204E-19 7.69280E-19
 -1      1898 1.05688E-04-3.23498E-05-3.14669E-05 1.37914E-06-4.75721E-19 5.04335E-19
 -1      1899 1.04013E-04-3.18466E-05-3.09276E-05 2.69966E-06-4.21032E-19 7.22531E-19
 -1      1900 1.06251E-04-3.26925E-05-3.15312E-05 6.28404E-07-1.06954E-19 4.52249E-19
 -1      1901 1.06358E-04-3.28852E-05-3.15361E-05-1.27601E-07 5.01185E-19 3.16267E-19
 -1      1902 1.05280E-04-3.27100E-05-3.10948E-05 1.42533E-06-9.93576E-20 6.85346E-19
 -1      1903 1.06718E-04-3.31468E-05-3.15408E-05-1.21805E-06 3.23077E-19-1.65875E-19
 -1      1904 1.06328E-04-3.31261E-05-3.14226E-05-2.20312E-06-5.34170E-19-5.00264E-19
 -1      1905 1.06259E-04-3.34842E-05-3.11742E-05-5.95125E-07-3.16393E-19 3.34792E-19
 -1      1906 1.06331E-04-3.31774E-05-3.13670E-05-3.51272E-06-1.15182E-18-3.94979E-21
 -1      1907 1.05351E-04-3.28227E-05-3.11213E-05-4.54734E-06-8.13853E-19 1.56205E-20
 -1      1908 1.06661E-04-3.38831E-05-3.11641E-05-3.25302E-06-2.78704E-19-4.92515E-19
 -1      1909 1.04853E-04-3.25200E-05-3.10208E-05-5.76351E-06-4.69147E-19 2.17754E-19
 -1      1910 1.03331E-04-3.17671E-05-3.06779E-05-6.51770E-06-2.85123E-19 3.13799E-19
 -1      1911 1.06156E-04-3.35354E-05-3.10879E-05-6.08864E-06-6.05920E-19 1.47029E-18
 -1      1912 1.02309E-04-3.10514E-05-3.05609E-05-7.15404E-06-2.53700E-19 1.73040E-19
 -1      1913 1.00507E-04-2.99948E-05-3.01885E-05-7.23246E-06 2.90486E-19 2.67874E-20
 -1      1914 1.04549E-04-3.21661E-05-3.09887E-05-8.22127E-06-2.90900E-19 2.18114E-18
 -1      1915 9.91941E-05-2.90199E-05-3.00856E-05-6.81631E-06 2.21913E-19-4.06278E-19
 -1      1916 9.75796E-05-2.79691E-05-2.97738E-05-5.96895E-06 6.03339E-19-7.42484E-19
 -1      1917 1.02051E-04-2.99073E-05-3.09085E-05-8.55421E-06-1.12060E-19 1.33582E-18
 -1      1918 9.64785E-05-2.71324E-05-2.97058E-05-4.36968E-06 9.26085E-19-1.25573E-18
 -1      1919 9.55758E-05-2.65196E-05-2.95359E-05-2.73069E-06 9.38685E-20-7.97593E-19
 -1      1920 9.94462E-05-2.74959E-05-3.08631E-05-6.35278E-06 3.92381E-19-4.14456E-19
 -1      1921 9.52243E-05-2.62656E-05-2.95075E-05-4.08296E-07-6.00315E-19-3.24031E-19
 -1      1922 9.53508E-05-2.63832E-05-2.95229E-05 1.46120E-06-3.82369E-19 2.48859E-19
 -1      1923 9.78771E-05-2.60579E-05-3.08362E-05-1.94369E-06 1.35254E-19 5.79661E-19
 -1      1924 9.59190E-05-2.68552E-05-2.95346E-05 3.61393E-06-2.20341E-19 5.97754E-19
 -1      1925 9.70004E-05-2.76346E-05-2.97254E-05 5.01444E-06-2.84881E-19 4.01593E-19
 -1      1926 9.81217E-05-2.63552E-05-3.08053E-05 3.11168E-06 1.13489E-19 2.40036E-18
 -1      1927 9.81529E-05-2.85538E-05-2.97755E-05 6.20757E-06 5.35335E-19 6.78195E-19
 -1      1928 9.97655E-05-2.96220E-05-3.00803E-05 6.70649E-06 9.91187E-19 2.06841E-18
 -1      1929 9.99984E-05-2.82182E-05-3.07764E-05 6.85210E-06 6.99325E-19 1.97842E-18
 -1      1930 1.00930E-04-3.05220E-05-3.01570E-05 6.68605E-06 1.78792E-19 1.41435E-18
 -1      1931 1.02536E-04-3.14615E-05-3.04859E-05 6.29971E-06 6.52050E-20 2.46444E-19
 -1      1932 1.02509E-04-3.06623E-05-3.07706E-05 8.09365E-06 3.85171E-19 2.00879E-18
 -1      1933 1.03281E-04-3.20128E-05-3.05635E-05 5.35458E-06 6.84475E-20 2.05660E-19
 -1      1934 1.04467E-04-3.25826E-05-3.08302E-05 4.41625E-06-8.73364E-19 3.86330E-19
 -1      1935 1.04562E-04-3.26280E-05-3.07927E-05 6.92990E-06-1.29685E-19 4.47655E-19
 -1      1936 1.04659E-04-3.27160E-05-3.08771E-05 3.06377E-06-2.22917E-18 5.69540E-19
 -1      1937 1.05240E-04-3.28864E-05-3.10253E-05 1.96936E-06-2.44002E-18 2.66891E-19
 -1      1938 1.05557E-04-3.35762E-05-3.08154E-05 4.31722E-06-1.53519E-18 4.57220E-19
 -1      1939 1.04959E-04-3.27041E-05-3.10172E-05 6.54060E-07-1.29336E-18 2.55848E-19
 -1      1940 1.04946E-04-3.25677E-05-3.10302E-05-3.08604E-07 5.87444E-19 4.97604E-19
 -1      1941 1.05456E-04-3.35487E-05-3.07943E-05 1.33991E-06-1.53609E-18 6.45814E-19
 -1      1942 1.04350E-04-3.22139E-05-3.09593E-05-1.33358E-06 1.55845E-18-7.03290E-19
 -1      1943 1.03869E-04-3.18920E-05-3.08532E-05-2.02485E-06 1.50357E-18-8.22049E-19
 -1      1944 1.04527E-04-3.28800E-05-3.06938E-05-1.24270E-06 2.70660E-19 9.07300E-19
 -1      1945 1.03107E-04-3.14797E-05-3.07278E-05-2.67626E-06 1.29489E-18 3.22152E-19
 -1      1946 1.02325E-04-3.10724E-05-3.05377E-05-3.06770E-06 2.12401E-18 1.26323E-18
 -1      1947 1.03105E-04-3.19184E-05-3.05045E-05-3.07703E-06 1.85637E-18 2.85465E-19
 -1      1948 1.01508E-04-3.06653E-05-3.03773E-05-3.36105E-06 2.01856E-18 3.71776E-19
 -1      1949 1.00588E-04-3.02388E-05-3.01451E-05-3.47907E-06 9.96330E-19-5.17716E-20
 -1      1950 1.01464E-04-3.08998E-05-3.02433E-05-4.10091E-06 1.32036E-18 1.31974E-18
 -1      1951 9.97905E-05-2.98630E-05-2.99734E-05-3.46478E-06-1.03964E-20-6.27641E-19
 -1      1952 9.88718E-05-2.94575E-05-2.97392E-05-3.34761E-06 1.03598E-18-7.53768E-19
 -1      1953 9.97972E-05-2.99393E-05-2.99442E-05-4.39332E-06 4.83137E-19 1.32513E-19
 -1      1954 9.81412E-05-2.91191E-05-2.95779E-05-3.07832E-06 1.99850E-18-1.95871E-18
 -1      1955 9.73373E-05-2.87629E-05-2.93753E-05-2.75791E-06 1.45256E-18-5.29159E-19
 -1      1956 9.82312E-05-2.90749E-05-2.96452E-05-4.06780E-06 2.90962E-19 1.79627E-19
 -1      1957 9.67757E-05-2.85163E-05-2.92475E-05-2.30002E-06 1.18253E-18-4.67536E-19
 -1      1958 9.61647E-05-2.82490E-05-2.90891E-05-1.83451E-06-3.00731E-19-1.02355E-19
 -1      1959 9.59189E-05-2.79055E-05-2.91546E-05-2.16810E-06-6.76973E-20-4.06195E-19
 -1      1960 9.69120E-05-2.83577E-05-2.93873E-05-3.26144E-06 1.45082E-18-1.12086E-18
 -1      1961 9.31869E-05-2.73554E-05-2.81856E-05 1.61225E-06 8.24077E-19 1.51911E-18
 -1      1962 9.43838E-05-2.74614E-05-2.86229E-05 2.68292E-06 1.05082E-18 1.88808E-18
 -1      1963 9.52103E-05-2.70414E-05-2.92206E-05 4.06204E-06 1.20512E-18 1.15991E-18
 -1      1964 9.21309E-05-2.73407E-05-2.77427E-05 3.56078E-07 6.92913E-19 1.07891E-18
 -1      1965 9.26277E-05-2.73737E-05-2.79157E-05 9.03768E-07 6.43020E-19 1.31235E-18
 -1      1966 9.36029E-05-2.73617E-05-2.83959E-05 1.59400E-06 8.86460E-19 8.67772E-19
 -1      1967 9.17514E-05-2.73770E-05-2.75734E-05-2.96697E-07 5.43471E-19 6.37607E-19
 -1      1968 9.18690E-05-2.73511E-05-2.76210E-05-4.64863E-09 6.20031E-19 8.46987E-19
 -1      1969 9.27686E-05-2.74758E-05-2.79926E-05 2.81844E-07 8.02400E-19 4.08660E-19
 -1      1970 9.17711E-05-2.74660E-05-2.75492E-05-6.22370E-07 1.02552E-19 3.23643E-19
 -1      1971 9.16858E-05-2.74050E-05-2.75335E-05-4.69794E-07 3.82427E-19 5.51043E-19
 -1      1972 9.24517E-05-2.75676E-05-2.78176E-05-4.11372E-07 4.91686E-19 9.10395E-21
 -1      1973 9.20123E-05-2.75865E-05-2.76040E-05-7.61274E-07 3.51870E-19-1.50037E-19
 -1      1974 9.18236E-05-2.75087E-05-2.75559E-05-6.89772E-07 6.83276E-20-1.17625E-20
 -1      1975 9.24528E-05-2.76714E-05-2.77717E-05-7.57185E-07 3.36091E-19-4.05969E-19
 -1      1976 9.23643E-05-2.77195E-05-2.76997E-05-7.91671E-07 3.94541E-19-6.32735E-20
 -1      1977 9.21302E-05-2.76369E-05-2.76365E-05-7.68305E-07 4.27324E-19 7.36811E-20
 -1      1978 9.26367E-05-2.77855E-05-2.77995E-05-9.00926E-07 4.13565E-19-3.52009E-19
 -1      1979 9.27595E-05-2.78523E-05-2.78134E-05-7.61305E-07 3.36172E-19-1.49548E-19
 -1      1980 9.25137E-05-2.77720E-05-2.77453E-05-7.65716E-07 2.54996E-19-6.63085E-20
 -1      1981 9.29159E-05-2.79014E-05-2.78676E-05-9.27110E-07 4.37932E-19-1.31686E-19
 -1      1982 9.31584E-05-2.79773E-05-2.79317E-05-7.01101E-07 2.54552E-20-2.22991E-20
 -1      1983 9.29196E-05-2.79030E-05-2.78643E-05-7.19893E-07 1.82582E-19-1.31161E-19
 -1      1984 9.32356E-05-2.80124E-05-2.79557E-05-8.88559E-07 2.85036E-19-1.96391E-19
 -1      1985 9.35409E-05-2.80912E-05-2.80474E-05-6.31993E-07 3.58502E-19 2.40884E-20
 -1      1986 9.33180E-05-2.80244E-05-2.79836E-05-6.55937E-07 3.74864E-19 1.43642E-19
 -1      1987 9.35639E-05-2.81146E-05-2.80517E-05-8.20069E-07 3.60253E-19-2.10455E-19
 -1      1988 9.39002E-05-2.81937E-05-2.81578E-05-5.68742E-07 3.06293E-19 4.66370E-21
 -1      1989 9.36951E-05-2.81342E-05-2.80984E-05-5.91194E-07 3.18434E-19-7.28935E-20
 -1      1990 9.38845E-05-2.82064E-05-2.81492E-05-7.45562E-07 3.39743E-19-3.97633E-19
 -1      1991 9.42393E-05-2.82868E-05-2.82634E-05-5.22328E-07 6.25364E-19-6.40072E-19
 -1      1992 9.40490E-05-2.82331E-05-2.82075E-05-5.38220E-07 4.37205E-19-2.28012E-19
 -1      1993 9.41928E-05-2.82887E-05-2.82458E-05-6.82223E-07 5.15943E-19-5.50470E-19
 -1      1994 9.45687E-05-2.83739E-05-2.83671E-05-5.01594E-07 3.30116E-19-6.88204E-19
 -1      1995 9.43863E-05-2.83238E-05-2.83128E-05-5.06728E-07 3.11558E-19-6.93491E-19
 -1      1996 9.44925E-05-2.83637E-05-2.83420E-05-6.43177E-07 5.56841E-19-7.57634E-19
 -1      1997 9.49048E-05-2.84602E-05-2.84738E-05-5.14473E-07 1.93391E-19-5.07664E-19
 -1      1998 9.47204E-05-2.84104E-05-2.84182E-05-5.04977E-07 3.60571E-19-5.84806E-19
 -1      1999 9.47938E-05-2.84349E-05-2.84408E-05-6.39365E-07 3.02376E-19-8.85570E-19
 -1      2000 9.52698E-05-2.85521E-05-2.85902E-05-5.68938E-07 1.66224E-19-6.59726E-19
 -1      2001 9.50704E-05-2.84988E-05-2.85296E-05-5.40835E-07 1.45227E-19-6.11424E-19
 -1      2002 9.51125E-05-2.85070E-05-2.85468E-05-6.80944E-07 2.75220E-19-6.76315E-19
 -1      2003 9.56913E-05-2.86573E-05-2.87248E-05-6.73743E-07-1.19633E-19-8.45904E-19
 -1      2004 9.54608E-05-2.85957E-05-2.86545E-05-6.22596E-07 1.42527E-19-9.01427E-19
 -1      2005 9.54692E-05-2.85856E-05-2.86664E-05-7.78368E-07 3.02776E-19-5.39381E-19
 -1      2006 9.62024E-05-2.87852E-05-2.88878E-05-8.38975E-07-3.87245E-19-6.26847E-19
 -1      2007 9.59215E-05-2.87096E-05-2.88021E-05-7.59604E-07-1.16893E-19-5.63864E-19
 -1      2008 9.58896E-05-2.86777E-05-2.88077E-05-9.43191E-07-1.22377E-19-6.16845E-19
 -1      2009 9.68427E-05-2.89469E-05-2.90914E-05-1.07631E-06-1.23634E-19-4.95667E-19
 -1      2010 9.64885E-05-2.88505E-05-2.89834E-05-9.62635E-07-4.36348E-19-8.95661E-19
 -1      2011 9.64041E-05-2.87914E-05-2.89803E-05-1.18856E-06-2.68080E-19-4.80970E-19
 -1      2012 9.76583E-05-2.91557E-05-2.93495E-05-1.39882E-06 5.63848E-20-2.84668E-19
 -1      2013 9.72037E-05-2.90303E-05-2.92115E-05-1.24389E-06 1.65390E-19-1.33314E-19
 -1      2014 9.70484E-05-2.89364E-05-2.91953E-05-1.52926E-06-5.96315E-20-4.79720E-19
 -1      2015 9.87016E-05-2.94274E-05-2.96780E-05-1.81986E-06 3.43212E-19-1.33024E-18
 -1      2016 9.81157E-05-2.92633E-05-2.95011E-05-1.61632E-06-1.14422E-19-8.61366E-19
 -1      2017 9.78632E-05-2.91247E-05-2.94651E-05-1.98091E-06 2.74824E-19-8.16529E-19
 -1      2018 1.00031E-04-2.97811E-05-3.00938E-05-2.35027E-06 1.01784E-18-1.66374E-18
 -1      2019 9.92791E-05-2.95668E-05-2.98682E-05-2.09164E-06 8.38324E-19-1.04339E-18
 -1      2020 9.88941E-05-2.93710E-05-2.98028E-05-2.55775E-06 1.02939E-18-1.13416E-18
 -1      2021 1.01704E-04-3.02394E-05-3.06129E-05-2.99242E-06-3.99437E-19-1.74460E-18
 -1      2022 1.00752E-04-2.99617E-05-3.03292E-05-2.67591E-06 2.57299E-19-2.05472E-18
 -1      2023 1.00189E-04-2.96945E-05-3.02211E-05-3.26755E-06 6.67756E-19-1.85308E-18
 -1      2024 1.03776E-04-3.08294E-05-3.12475E-05-3.72869E-06-1.42322E-18-1.17581E-18
 -1      2025 1.02594E-04-3.04738E-05-3.08985E-05-3.36091E-06-1.03211E-18-1.64328E-18
 -1      2026 1.01798E-04-3.01209E-05-3.07298E-05-4.10183E-06-1.07243E-18-1.29952E-18
 -1      2027 1.06277E-04-3.15827E-05-3.19994E-05-4.50107E-06-1.22093E-18-5.14017E-19
 -1      2028 1.04850E-04-3.11348E-05-3.15835E-05-4.10832E-06-1.58982E-18-8.91828E-19
 -1      2029 1.03763E-04-3.06865E-05-3.13319E-05-5.01806E-06-1.57399E-18-1.03440E-18
 -1      2030 1.09195E-04-3.25344E-05-3.28497E-05-5.17841E-06 1.34222E-19 1.73992E-19
 -1      2031 1.07544E-04-3.19831E-05-3.23776E-05-4.82372E-06-5.06441E-19-3.67731E-20
 -1      2032 1.06113E-04-3.14430E-05-3.20173E-05-5.91033E-06-8.62447E-19-1.02960E-18
 -1      2033 1.12433E-04-3.37152E-05-3.37453E-05-5.51210E-06 6.34627E-19 1.53179E-18
 -1      2034 1.10640E-04-3.30613E-05-3.32487E-05-5.31886E-06 4.91089E-19 1.25671E-18
 -1      2035 1.08846E-04-3.24604E-05-3.27549E-05-6.56683E-06 1.71806E-19 7.04185E-19
 -1      2036 1.15754E-04-3.51260E-05-3.45848E-05-5.09605E-06-1.20854E-19 1.17307E-18
 -1      2037 1.14005E-04-3.44006E-05-3.41260E-05-5.27034E-06 3.82323E-19 1.49796E-18
 -1      2038 1.11905E-04-3.38176E-05-3.34847E-05-6.62160E-06 3.19705E-19 1.90461E-18
 -1      2039 1.18724E-04-3.66719E-05-3.52158E-05-3.38630E-06 2.24464E-20 1.40957E-18
 -1      2040 1.17338E-04-3.59725E-05-3.48911E-05-4.20878E-06-3.57964E-19 1.46545E-18
 -1      2041 1.15129E-04-3.55502E-05-3.41186E-05-5.53515E-06-1.32858E-19 1.99505E-18
 -1      2042 1.20650E-04-3.80310E-05-3.54652E-05 1.02288E-07-9.33477E-19 8.68576E-19
 -1      2043 1.20081E-04-3.75763E-05-3.53883E-05-1.62185E-06-3.08452E-19 1.34222E-18
 -1      2044 1.18159E-04-3.75149E-05-3.45597E-05-2.69202E-06-7.46845E-20 2.19415E-18
 -1      2045 1.20616E-04-3.85045E-05-3.52266E-05 5.26145E-06-1.38645E-18 1.52307E-18
 -1      2046 1.21355E-04-3.86615E-05-3.54746E-05 2.68979E-06-1.63131E-18 5.52464E-19
 -1      2047 1.20305E-04-3.91410E-05-3.47532E-05 2.23307E-06-1.32704E-18 1.18340E-18
 -1      2048 1.17809E-04-3.71235E-05-3.45779E-05 1.05977E-05 2.22194E-19 1.13762E-18
 -1      2049 1.20106E-04-3.82729E-05-3.51146E-05 7.94115E-06-5.51538E-19 1.92356E-18
 -1      2050 1.20520E-04-3.92888E-05-3.47561E-05 8.51276E-06-6.58370E-19 9.46917E-19
 -1      2051 1.12323E-04-3.34411E-05-3.37970E-05 1.29397E-05 7.53423E-19 1.66291E-18
 -1      2052 1.15781E-04-3.55321E-05-3.44451E-05 1.17948E-05 7.56851E-19 1.37082E-18
 -1      2053 1.17895E-04-3.67473E-05-3.47394E-05 1.36248E-05 5.51058E-19 9.48412E-20
 -1      2054 1.06316E-04-2.89262E-05-3.32187E-05 9.24031E-06-5.16756E-19 1.70680E-18
 -1      2055 1.09591E-04-3.10068E-05-3.37208E-05 1.10368E-05 4.20830E-19 1.91339E-18
 -1      2056 1.12949E-04-3.17894E-05-3.48266E-05 1.36003E-05 3.34604E-19 1.04257E-18
 -1      2057 1.03618E-04-2.68503E-05-3.30497E-05 1.63291E-07 6.39880E-19 1.15165E-18
 -1      2058 1.04885E-04-2.74479E-05-3.32011E-05 4.39850E-06 1.96935E-19 1.28409E-18
 -1      2059 1.08590E-04-2.73134E-05-3.49605E-05 6.37837E-06 3.09061E-19 1.18513E-18
 -1      2060 1.06362E-04-2.90525E-05-3.32931E-05-8.86920E-06 1.90649E-18 5.41307E-19
 -1      2061 1.04811E-04-2.76988E-05-3.30461E-05-4.81737E-06 1.25377E-18 1.13889E-18
 -1      2062 1.08272E-04-2.69716E-05-3.49730E-05-4.71201E-06 1.17105E-18 2.09328E-18
 -1      2063 1.12465E-04-3.36231E-05-3.38421E-05-1.25299E-05-4.17428E-20-6.67091E-19
 -1      2064 1.09095E-04-3.13771E-05-3.33121E-05-1.09343E-05 7.42094E-19-2.03367E-19
 -1      2065 1.12150E-04-3.10374E-05-3.48086E-05-1.26359E-05 1.39496E-18 2.38546E-19
 -1      2066 1.17873E-04-3.72246E-05-3.45125E-05-1.00976E-05-1.62697E-19-1.82005E-18
 -1      2067 1.14595E-04-3.55207E-05-3.39225E-05-1.10929E-05-1.94298E-19-1.56193E-18
 -1      2068 1.16960E-04-3.61341E-05-3.46250E-05-1.33977E-05 3.90884E-19-1.45518E-18
 -1      2069 1.20267E-04-3.84261E-05-3.49933E-05-4.68072E-06-7.52152E-19-1.68867E-19
 -1      2070 1.18364E-04-3.77873E-05-3.45912E-05-6.91955E-06-9.93570E-19-1.70186E-18
 -1      2071 1.19557E-04-3.89719E-05-3.45316E-05-8.59874E-06-1.01119E-18-8.38099E-19
 -1      2072 1.19622E-04-3.77221E-05-3.50417E-05 5.60076E-07-9.37394E-19 1.13844E-18
 -1      2073 1.19368E-04-3.79381E-05-3.49616E-05-1.61791E-06-2.97679E-19 1.26155E-18
 -1      2074 1.19259E-04-3.90033E-05-3.44172E-05-2.19063E-06-1.43007E-18 1.16967E-18
 -1      2075 1.16956E-04-3.61437E-05-3.46125E-05 4.12590E-06 6.60686E-19 5.31460E-19
 -1      2076 1.17989E-04-3.68041E-05-3.48450E-05 2.61780E-06-2.43390E-19 8.68507E-19
 -1      2077 1.16909E-04-3.73694E-05-3.41217E-05 3.05160E-06-1.01009E-19 1.52631E-18
 -1      2078 1.13300E-04-3.44009E-05-3.38169E-05 5.91141E-06 1.48969E-19 6.20624E-19
 -1      2079 1.15088E-04-3.52066E-05-3.42674E-05 5.12599E-06 3.20529E-19 5.39507E-19
 -1      2080 1.13566E-04-3.52719E-05-3.35804E-05 6.23093E-06 2.14246E-19 1.41317E-18
 -1      2081 1.09373E-04-3.28056E-05-3.28274E-05 6.38519E-06 1.15470E-18-1.46100E-19
 -1      2082 1.11463E-04-3.36003E-05-3.33833E-05 6.14051E-06 5.47177E-19-1.19908E-19
 -1      2083 1.09950E-04-3.33531E-05-3.28413E-05 7.58230E-06 1.08035E-18 2.85735E-19
 -1      2084 1.05607E-04-3.14404E-05-3.17986E-05 6.05368E-06-1.41817E-19-1.04413E-18
 -1      2085 1.07690E-04-3.21589E-05-3.23687E-05 6.14888E-06 6.46208E-19 1.78803E-20
 -1      2086 1.06453E-04-3.17856E-05-3.20056E-05 7.67664E-06 9.73451E-19-9.32597E-20
 -1      2087 1.02247E-04-3.02963E-05-3.08444E-05 5.26256E-06-1.27442E-18-5.38686E-19
 -1      2088 1.04132E-04-3.09172E-05-3.13658E-05 5.56195E-06-1.02715E-18-1.07815E-18
 -1      2089 1.03274E-04-3.05382E-05-3.11737E-05 7.01365E-06-9.78525E-19-8.26214E-19
 -1      2090 9.94350E-05-2.93451E-05-3.00420E-05 4.17879E-06-2.78896E-19 1.81151E-18
 -1      2091 1.01007E-04-2.98630E-05-3.04732E-05 4.62165E-06-1.16647E-18 1.08176E-18
 -1      2092 1.00517E-04-2.95279E-05-3.04253E-05 5.89964E-06-2.04554E-18-4.38091E-20
 -1      2093 9.72676E-05-2.85703E-05-2.94363E-05 2.84006E-06 1.54566E-18 3.29850E-18
 -1      2094 9.84375E-05-2.89781E-05-2.97524E-05 3.42517E-06 9.82651E-19 2.75304E-18
 -1      2095 9.82295E-05-2.86770E-05-2.98119E-05 4.47504E-06 2.62276E-19 2.34162E-18
 -1      2096 9.59814E-05-2.80814E-05-2.90849E-05 1.67783E-06 7.03740E-19 3.67493E-18
 -1      2097 9.67581E-05-2.83450E-05-2.93073E-05 2.36674E-06 1.59458E-18 3.92687E-18
 -1      2098 9.66870E-05-2.80479E-05-2.94236E-05 3.16397E-06 9.97385E-19 5.59025E-18
 -1      2099 9.57612E-05-2.76374E-05-2.91989E-05 2.09351E-06 1.79860E-18 4.93680E-18
 -1      2100 9.31652E-05-2.21648E-05-3.04425E-05 4.36486E-06-1.74229E-18 1.74528E-18
 -1      2101 9.37095E-05-2.33085E-05-3.01626E-05 4.40470E-06-1.98584E-18 1.29225E-18
 -1      2102 9.42281E-05-2.42895E-05-2.99794E-05 4.27170E-06-1.54570E-18-6.24889E-19
 -1      2103 9.47701E-05-2.53900E-05-2.97188E-05 3.94425E-06-9.50905E-19-6.13338E-19
 -1      2104 9.41404E-05-2.40867E-05-3.00202E-05 5.47193E-06-3.00808E-18-6.70943E-20
 -1      2105 9.50961E-05-2.60934E-05-2.95718E-05 3.42951E-06-4.61074E-19-1.04056E-18
 -1      2106 9.55279E-05-2.70049E-05-2.93517E-05 2.80471E-06 7.46382E-19 1.96106E-18
 -1      2107 9.59172E-05-2.71712E-05-2.94511E-05 3.39858E-06 7.46183E-20 1.87518E-18
 -1      2108 9.51513E-05-2.57913E-05-2.97290E-05 4.72279E-06-2.01873E-18-1.25691E-18
 -1      2109 9.22582E-05-2.02834E-05-3.08675E-05 3.76092E-06-3.22356E-18-3.07378E-18
 -1      2110 9.27161E-05-2.12845E-05-3.06173E-05 4.09806E-06-2.51666E-18 2.31922E-19
 -1      2111 9.29525E-05-2.21618E-05-3.03286E-05 5.30458E-06-3.29183E-18 1.06160E-19
 -1      2112 9.15826E-05-1.88327E-05-3.12043E-05 2.59098E-06-2.12363E-18-2.83182E-18
 -1      2113 9.19089E-05-1.95759E-05-3.10152E-05 3.15658E-06-2.22719E-18-2.32229E-18
 -1      2114 9.19728E-05-2.05136E-05-3.06072E-05 4.32402E-06-2.99685E-18-1.82202E-18
 -1      2115 9.12402E-05-1.80446E-05-3.13957E-05 1.08322E-06-6.67386E-19-1.87228E-18
 -1      2116 9.13860E-05-1.84120E-05-3.12992E-05 1.76644E-06-9.22892E-19-1.70629E-18
 -1      2117 9.13089E-05-1.93454E-05-3.08171E-05 2.71487E-06-7.80721E-19-1.23955E-18
 -1      2118 9.12592E-05-1.80046E-05-3.14175E-05-5.03985E-07-6.54892E-19 6.83946E-20
 -1      2119 9.12151E-05-1.79604E-05-3.14244E-05 1.82463E-07-8.95286E-19-8.76275E-19
 -1      2120 9.10442E-05-1.88257E-05-3.09243E-05 7.73152E-07 1.68067E-19-1.04348E-18
 -1      2121 9.16075E-05-1.86784E-05-3.12721E-05-1.92588E-06-1.09851E-18 3.51370E-19
 -1      2122 9.13957E-05-1.82513E-05-3.13772E-05-1.33820E-06-8.15611E-19 1.05014E-18
 -1      2123 9.11877E-05-1.90002E-05-3.09136E-05-1.17792E-06-8.65587E-19 3.35227E-19
 -1      2124 9.22022E-05-1.99263E-05-3.09852E-05-2.99653E-06-1.92159E-18 7.10684E-19
 -1      2125 9.18693E-05-1.91975E-05-3.11698E-05-2.57952E-06-1.54062E-18 1.72093E-19
 -1      2126 9.16781E-05-1.97994E-05-3.07875E-05-2.84764E-06-1.60528E-18-1.91876E-19
 -1      2127 9.29241E-05-2.15145E-05-3.06066E-05-3.60874E-06-1.30349E-18 3.89405E-19
 -1      2128 9.25312E-05-2.06125E-05-3.08389E-05-3.39722E-06-2.14703E-18 1.50610E-18
 -1      2129 9.23996E-05-2.10529E-05-3.05670E-05-4.02566E-06-1.32982E-18 6.62577E-19
 -1      2130 9.36989E-05-2.32802E-05-3.01751E-05-3.76235E-06 3.26114E-19 7.73761E-19
 -1      2131 9.32837E-05-2.22942E-05-3.04314E-05-3.75263E-06 9.77860E-20 6.45074E-19
 -1      2132 9.32277E-05-2.25672E-05-3.02806E-05-4.63129E-06-6.82186E-19 1.51547E-18
 -1      2133 9.44389E-05-2.49983E-05-2.97501E-05-3.47233E-06 1.38083E-18 1.74074E-18
 -1      2134 9.40468E-05-2.40555E-05-2.99951E-05-3.65483E-06 9.54641E-19 3.40368E-19
 -1      2135 9.40736E-05-2.41673E-05-2.99631E-05-4.66698E-06 1.73917E-18 6.91400E-19
 -1      2136 9.51054E-05-2.65361E-05-2.93799E-05-2.79766E-06-2.41076E-19-1.13541E-18
 -1      2137 9.47486E-05-2.57074E-05-2.95843E-05-3.14776E-06 4.86023E-19 2.53169E-19
 -1      2138 9.48622E-05-2.56862E-05-2.96530E-05-4.18098E-06 6.72050E-19-6.50313E-20
 -1      2139 5.68287E-05-4.06741E-05-7.34485E-06 3.98776E-05-7.33954E-19 3.59237E-18
 -1      2140 4.08109E-05-4.19543E-05-9.02602E-07 3.07190E-05-8.31786E-19 4.29350E-18
 -1      2141 1.21914E-05-3.32597E-05 7.86165E-06 3.99481E-06 1.11840E-18 8.70750E-19
 -1      2142 1.25849E-05-3.47896E-05 8.09750E-06-6.16585E-06 1.43329E-18-4.48080E-19
 -1      2143 2.77168E-05-3.62868E-05 2.71967E-06 2.55235E-05 5.26007E-19 4.00520E-18
 -1      2144 1.92254E-05-3.49051E-05 5.59837E-06 1.68148E-05 5.61583E-19 1.65553E-18
 -1      2145 4.21228E-05-3.51360E-05-3.29644E-06 3.49186E-05-9.18395E-19 2.01763E-18
 -1      2146 9.85583E-05-4.59452E-05-2.24981E-05 4.13523E-05 2.30478E-18-5.93135E-19
 -1      2147 8.06425E-05-4.81423E-05-1.47823E-05 3.79708E-05 1.86347E-19 1.29427E-18
 -1      2148 3.47538E-05-4.17272E-05 1.16100E-06-2.83381E-05-5.84876E-19-1.07563E-18
 -1      2149 4.49224E-05-3.82097E-05-3.81433E-06-3.61394E-05 8.31363E-19-7.64553E-19
 -1      2150 3.49179E-05-3.56622E-05-4.71706E-07-3.38045E-05 1.45690E-19-3.12767E-19
 -1      2151 1.63930E-04-4.00899E-05-5.20887E-05 2.36863E-05 2.36290E-18-3.18230E-18
 -1      2152 1.45021E-04-4.11474E-05-4.45940E-05 2.60822E-05 2.98473E-18-2.26624E-18
 -1      2153 1.31487E-04-4.46590E-05-3.67589E-05 3.66119E-05 3.38347E-18-2.58514E-18
 -1      2154 1.11103E-04-4.62711E-05-2.85617E-05 3.52597E-05 3.34154E-18-2.18916E-18
 -1      2155 1.18033E-04-5.70441E-05-2.60921E-05 3.34702E-05 1.26695E-18-3.20687E-18
 -1      2156 8.72496E-05-8.72459E-06-3.37491E-05-1.05506E-05-1.21539E-18-1.71404E-18
 -1      2157 8.79514E-05-9.24110E-06-3.38202E-05-1.21066E-05-1.42619E-18-1.35603E-18
 -1      2158 9.04816E-05-1.30497E-05-3.32343E-05-1.18853E-05-1.52609E-18-1.01625E-18
 -1      2159 8.86898E-05-1.10600E-05-3.32956E-05-9.42348E-06-1.17159E-18-1.67862E-18
 -1      2160 1.80525E-04-3.17439E-05-6.27628E-05 9.64728E-06 1.56489E-18-4.12336E-18
 -1      2161 1.69549E-04-3.30457E-05-5.78477E-05 1.66054E-05 2.28752E-18-3.25388E-18
 -1      2162 1.76658E-04-2.21017E-05-6.57888E-05-5.12047E-07 9.55877E-19-2.87668E-18
 -1      2163 1.78197E-04-2.47253E-05-6.47789E-05 5.06578E-06 9.76205E-19-3.57257E-18
 -1      2164 1.69198E-04-2.38555E-05-6.20301E-05-1.71872E-06 1.95919E-18-2.89135E-18
 -1      2165 1.74774E-04-2.22618E-05-6.46809E-05 7.74710E-07 1.14265E-18-3.58438E-18
 -1      2166 1.62865E-04-3.66211E-05-5.35690E-05-1.59851E-05 2.76191E-18-3.81165E-18
 -1      2167 1.72265E-04-3.35499E-05-5.89937E-05-7.65146E-06 2.93200E-18-3.07219E-18
 -1      2168 1.35623E-04-4.26947E-05-4.01041E-05-2.92075E-05 1.60428E-18-4.50833E-18
 -1      2169 1.55469E-04-4.22806E-05-4.78244E-05-2.64912E-05 1.92488E-18-4.32664E-18
 -1      2170 1.02553E-04-4.69249E-05-2.47233E-05-3.54224E-05 1.83510E-18-2.72660E-18
 -1      2171 1.23051E-04-4.55106E-05-3.28622E-05-3.74299E-05 1.39633E-18-4.48970E-18
 -1      2172 6.89057E-05-4.58004E-05-1.09527E-05-3.65856E-05 1.39718E-18-1.36367E-18
 -1      2173 8.65194E-05-4.41128E-05-1.83293E-05-4.10890E-05 2.31409E-18-9.51218E-19
 -1      2174 1.09550E-04-5.59130E-05-2.30320E-05-3.57064E-05 1.07743E-18-2.11314E-18
 -1      2175 3.33314E-05-4.02231E-05 1.48273E-06-2.65794E-05 1.66569E-18-3.11454E-18
 -1      2176 4.66792E-05-3.86192E-05-4.07983E-06-3.58108E-05 1.47172E-18-3.00940E-18
 -1      2177 1.54367E-05-3.38358E-05 6.69987E-06-1.15718E-05 1.93484E-18-2.19382E-18
 -1      2178 2.20407E-05-3.54811E-05 4.61487E-06-2.01948E-05 2.49621E-18-3.05355E-18
 -1      2179 3.38714E-05-3.20667E-05-1.20874E-06-2.98989E-05 9.10137E-19-2.25438E-18
 -1      2180 1.35521E-05-3.42882E-05 7.52906E-06 1.15171E-05-1.86983E-19-3.04635E-18
 -1      2181 1.12379E-05-3.34739E-05 8.18480E-06 1.74774E-06 9.74750E-19-2.79648E-18
 -1      2182 3.11787E-05-3.54963E-05 9.75699E-07 3.05470E-05-2.49451E-19-2.54872E-18
 -1      2183 2.18197E-05-3.66757E-05 4.94678E-06 2.16464E-05 4.31987E-20-2.62241E-18
 -1      2184 6.34017E-05-4.10308E-05-1.02045E-05 4.19843E-05-9.75358E-19-3.04609E-18
 -1      2185 4.58192E-05-4.12514E-05-3.31772E-06 3.44340E-05-2.13876E-19-2.44665E-18
 -1      2186 4.57664E-05-3.64736E-05-4.21900E-06 3.86156E-05 3.87941E-19-2.51675E-18
 -1      2187 1.04455E-04-4.26326E-05-2.61500E-05 4.24732E-05-1.76183E-18-5.17537E-18
 -1      2188 8.74902E-05-4.57260E-05-1.82950E-05 4.02525E-05-1.42132E-18-4.00138E-18
 -1      2189 1.37201E-04-3.88816E-05-4.13698E-05 3.67755E-05-4.00414E-18-5.04705E-18
 -1      2190 1.17609E-04-4.08730E-05-3.33195E-05 3.56215E-05-3.01628E-18-5.68994E-18
 -1      2191 1.61060E-04-3.50909E-05-5.35824E-05 1.86636E-05-4.70167E-18-4.97632E-18
 -1      2192 1.47633E-04-3.58454E-05-4.74763E-05 2.75259E-05-4.64989E-18-5.38882E-18
 -1      2193 1.45233E-04-4.43111E-05-4.25521E-05 1.84889E-05-2.89029E-18-4.62988E-18
 -1      2194 1.68765E-04-2.34062E-05-6.16898E-05 4.00678E-06-3.82562E-18-4.20213E-18
 -1      2195 1.61854E-04-2.65292E-05-5.77303E-05 8.11087E-06-4.97568E-18-4.52697E-18
 -1      2196 1.79015E-04-2.26208E-05-6.58407E-05-2.69331E-06-3.03068E-18-3.43525E-18
 -1      2197 1.70070E-04-1.91045E-05-6.44826E-05 3.26546E-06-3.87433E-18-4.53967E-18
 -1      2198 1.68606E-04-2.43390E-05-6.14754E-05-9.61137E-06-1.18331E-18-1.71609E-18
 -1      2199 1.78544E-04-2.47079E-05-6.48355E-05-4.78563E-06-2.04601E-18-2.73168E-18
 -1      2200 1.54644E-04-1.20221E-05-6.01262E-05 1.19554E-06-3.43980E-18-3.23312E-18
 -1      2201 1.53286E-04-3.41190E-05-5.08517E-05-1.70196E-05-4.11605E-19-2.66815E-19
 -1      2202 1.67734E-04-3.10498E-05-5.74392E-05-1.47756E-05-7.03037E-20-1.93971E-19
 -1      2203 1.26032E-04-4.18894E-05-3.62989E-05-3.35083E-05 6.93720E-19 8.32633E-19
 -1      2204 1.44032E-04-4.21107E-05-4.34898E-05-2.71222E-05 4.27328E-19-4.04035E-19
 -1      2205 9.68069E-05-4.37188E-05-2.35278E-05-3.86471E-05 1.36118E-18 6.81862E-20
 -1      2206 1.14833E-04-4.21695E-05-3.08220E-05-4.11079E-05 6.83979E-19 1.47638E-18
 -1      2207 1.30344E-04-5.24546E-05-3.29840E-05-2.81610E-05 9.49947E-19 1.04397E-18
 -1      2208 6.51834E-05-4.40581E-05-1.01986E-05-3.84911E-05 1.11935E-18-4.21293E-19
 -1      2209 8.05855E-05-4.19413E-05-1.67095E-05-4.36180E-05 1.22057E-18-1.01072E-18
 -1      2210 1.44906E-04-5.24363E-05-3.91517E-05 1.88746E-05 2.19064E-18-3.56177E-18
 -1      2211 1.74897E-05-2.80526E-05 3.69006E-06-1.49502E-05 1.75495E-18 4.83656E-19
 -1      2212 9.71716E-05-2.43097E-05-3.13000E-05-1.00103E-05-1.58782E-18 1.48570E-18
 -1      2213 9.63336E-05-2.31020E-05-3.14510E-05-1.03944E-05-1.66283E-18 5.89535E-19
 -1      2214 1.91894E-05-2.60602E-05 2.44089E-06 1.37662E-05 7.97693E-19 8.76679E-19
 -1      2215 8.04552E-05-4.98190E-05-1.32900E-05 4.14307E-05-1.45690E-18 1.41292E-18
 -1      2216 9.53741E-05-2.70303E-05-2.92808E-05-2.66774E-06 1.74555E-19-7.62093E-19
 -1      2217 6.54494E-05-4.45809E-05-9.19860E-06-4.30093E-05 8.47033E-19-1.00686E-18
 -1      2218 1.02985E-04-5.29701E-05-2.14361E-05-3.99788E-05 1.49374E-18 4.95514E-20
 -1      2219 1.55086E-04-2.38421E-05-5.56366E-05 5.83362E-07-1.38808E-18-1.38998E-18
 -1      2220 1.53481E-04-2.96511E-05-5.24905E-05 2.68601E-06-4.24025E-18-4.21844E-18
 -1      2221 8.21861E-05-4.69807E-05-1.52292E-05 4.21129E-05-2.75286E-19-3.43811E-18
 -1      2222 7.83113E-05-4.62712E-05-1.31732E-05 4.41908E-05 9.60112E-19-2.52305E-18
 -1      2223 1.00036E-04-5.36603E-05-2.03464E-05 3.99761E-05 6.90332E-19-3.89270E-18
 -1      2224 1.59095E-05-2.53878E-05 3.46536E-06-6.84486E-06 1.46441E-18-3.24032E-18
 -1      2225 6.90260E-05-4.59350E-05-1.02213E-05-4.01936E-05 2.75286E-19-1.03020E-18
 -1      2226 1.38532E-04-5.45172E-05-3.56169E-05-2.22302E-05 5.21984E-19-3.55330E-18
 -1      2227 1.56652E-04-4.29977E-05-4.78855E-05-6.63274E-06 1.27370E-18-2.84942E-18
 -1      2228 1.57777E-04-2.48991E-05-5.63576E-05 4.69001E-06 2.29694E-18-2.35920E-18
 -1      2229 1.60644E-04-3.77332E-05-5.17188E-05 3.37646E-06 2.25088E-18-4.44819E-18
 -1      2230 1.54759E-04-1.35310E-05-5.98529E-05 1.70982E-06 1.34297E-18-2.23005E-18
 -1      2231 1.61336E-04-2.11809E-05-5.90269E-05-2.34475E-06 1.61910E-18-2.53220E-18
 -1      2232 2.08136E-05-2.75191E-05 2.27045E-06 2.09833E-05 3.80741E-19-2.52839E-18
 -1      2233 1.22218E-04-5.22252E-05-3.00102E-05 3.23063E-05-1.35017E-18-5.00554E-18
 -1      2234 1.52922E-04-1.44317E-05-5.87994E-05-3.04052E-06-3.77523E-18-3.74283E-18
 -1      2235 1.48961E-04-4.16191E-05-4.57684E-05-1.44255E-05 1.61730E-19-8.55080E-19
 -1      2236 1.47328E-04-3.93677E-05-4.67806E-05 1.45037E-07 4.80374E-19 1.14349E-20
 -1      2237 1.43133E-04-4.82118E-05-4.03415E-05-1.02910E-05 8.79763E-19-1.45203E-18
 -1      2238 9.51963E-05-2.63717E-05-2.94830E-05 4.20626E-06 1.15709E-18 3.57759E-19
 -1      2239 9.61725E-05-2.58576E-05-3.00614E-05 6.01112E-06 1.33999E-18 5.56358E-19
 -1      2240 8.81515E-05-1.11898E-05-3.30228E-05-3.66644E-06-4.17271E-19-2.10301E-18
 -1      2241 8.83833E-05-1.14590E-05-3.30044E-05-4.80865E-06-6.33059E-19-2.10240E-18
 -1      2242 8.87313E-05-1.19403E-05-3.29552E-05-5.82766E-06-7.38791E-19-2.02140E-18
 -1      2243 8.91352E-05-1.24123E-05-3.29260E-05-7.00081E-06-9.29739E-19-1.84730E-18
 -1      2244 8.99030E-05-1.38284E-05-3.26022E-05-4.91201E-06-5.79894E-19-1.89340E-18
 -1      2245 8.78092E-05-1.07325E-05-3.30669E-05 6.16249E-07 1.63383E-19-2.33077E-18
 -1      2246 8.78048E-05-1.07275E-05-3.30672E-05-4.96186E-07 1.81136E-20-2.26945E-18
 -1      2247 8.79886E-05-1.09570E-05-3.30480E-05 2.76141E-06 4.33851E-19-2.35046E-18
 -1      2248 8.78749E-05-1.08242E-05-3.30576E-05 1.64061E-06 2.73137E-19-2.37200E-18
 -1      2249 8.91276E-05-1.27791E-05-3.27239E-05 1.05118E-06 1.80571E-19-2.21900E-18
 -1      2250 8.84194E-05-1.15028E-05-3.30018E-05 4.89356E-06 7.12237E-19-2.24556E-18
 -1      2251 8.81819E-05-1.12268E-05-3.30204E-05 3.76912E-06 5.06676E-19-2.27995E-18
 -1      2252 8.93912E-05-1.31343E-05-3.26833E-05 3.02544E-06 4.41863E-19-2.15797E-18
 -1      2253 8.91932E-05-1.24834E-05-3.29215E-05 7.08336E-06 1.18608E-18-1.84114E-18
 -1      2254 8.87782E-05-1.19980E-05-3.29514E-05 5.91066E-06 9.34964E-19-2.04656E-18
 -1      2255 8.99443E-05-1.38808E-05-3.25977E-05 4.98243E-06 8.12152E-19-1.96611E-18
 -1      2256 9.04559E-05-1.40898E-05-3.27926E-05 9.23360E-06 1.49095E-18-1.64880E-18
 -1      2257 8.97791E-05-1.32802E-05-3.28389E-05 8.05413E-06 1.31574E-18-1.75334E-18
 -1      2258 9.08735E-05-1.51382E-05-3.24511E-05 6.88058E-06 1.23451E-18-1.65802E-18
 -1      2259 9.24455E-05-1.66586E-05-3.25806E-05 1.11185E-05 1.76574E-18-9.76020E-19
 -1      2260 9.13710E-05-1.53202E-05-3.26537E-05 1.00382E-05 1.56362E-18-1.32661E-18
 -1      2261 9.22893E-05-1.70892E-05-3.22080E-05 8.52751E-06 1.46377E-18-1.34490E-18
 -1      2262 9.58953E-05-2.50881E-05-3.03000E-05-6.20525E-06-1.31118E-18 1.21543E-19
 -1      2263 9.52393E-05-2.58430E-05-2.97554E-05-4.28571E-06-1.13917E-18 1.17995E-19
 -1      2264 3.49884E-05-2.93048E-05-2.27358E-06-3.21555E-05 9.91029E-19 4.30293E-19
 -1      2265 4.52566E-05-3.35266E-05-4.96466E-06-3.90185E-05 5.85723E-19-1.02173E-18
 -1      2266 9.42135E-05-2.71108E-05-2.87416E-05 1.77656E-06 1.06722E-18-7.78443E-20
 -1      2267 9.48157E-05-2.68879E-05-2.90405E-05 2.74932E-06 1.07975E-18 2.52422E-19
 -1      2268 9.53242E-05-2.58435E-05-2.97853E-05 4.37402E-06 1.30660E-18-3.73303E-19
 -1      2269 9.50620E-05-2.00214E-05-3.22087E-05-1.17605E-05-1.73940E-18-3.01755E-21
 -1      2270 9.54586E-05-2.33632E-05-3.09236E-05-7.97758E-06-1.53900E-18 5.22662E-20
 -1      2271 9.50643E-05-2.25522E-05-3.10509E-05-7.66916E-06-1.41051E-18-2.55319E-19
 -1      2272 9.32110E-05-1.76205E-05-3.24130E-05-1.14152E-05-1.65780E-18-4.35706E-19
 -1      2273 9.51248E-05-2.65358E-05-2.93382E-05-2.95290E-06-9.02532E-19 1.40689E-19
 -1      2274 9.46525E-05-2.69045E-05-2.90348E-05-1.89183E-06-6.54755E-19 2.60181E-20
 -1      2275 9.53324E-05-2.53698E-05-2.99905E-05-4.30855E-06-1.12546E-18-1.11250E-19
 -1      2276 9.44555E-05-2.72320E-05-2.87716E-05-1.03931E-06-5.34801E-19 5.74130E-20
 -1      2277 9.41958E-05-2.74444E-05-2.86053E-05-4.37047E-07-4.11825E-19-1.19434E-19
 -1      2278 9.50196E-05-2.66958E-05-2.92953E-05-1.93428E-06-6.78319E-19-2.26336E-19
 -1      2279 9.40476E-05-2.76245E-05-2.84444E-05 7.22005E-08-4.25711E-19-1.37310E-19
 -1      2280 9.39488E-05-2.77671E-05-2.83610E-05 4.03252E-07-5.13697E-19-1.72046E-19
 -1      2281 9.47151E-05-2.74213E-05-2.88532E-05-4.52248E-07-5.46088E-19-3.38306E-19
 -1      2282 9.38647E-05-2.78757E-05-2.82684E-05 6.88131E-07-4.53081E-19-2.06720E-19
 -1      2283 9.38708E-05-2.79813E-05-2.82360E-05 8.54886E-07-2.71551E-19-3.12758E-19
 -1      2284 9.45150E-05-2.78478E-05-2.85821E-05 4.21983E-07-5.78749E-19-4.89867E-19
 -1      2285 9.38407E-05-2.80519E-05-2.81886E-05 9.96481E-07-3.25652E-19-3.68230E-19
 -1      2286 9.39097E-05-2.81340E-05-2.81876E-05 1.06356E-06-2.89823E-19-4.03813E-19
 -1      2287 9.44239E-05-2.81134E-05-2.84265E-05 9.00158E-07-4.57644E-19-5.24573E-19
 -1      2288 9.39179E-05-2.81816E-05-2.81698E-05 1.11609E-06-2.62481E-19-4.90953E-19
 -1      2289 9.40210E-05-2.82464E-05-2.81874E-05 1.12464E-06-2.45975E-19-3.65729E-19
 -1      2290 9.44178E-05-2.82849E-05-2.83479E-05 1.12606E-06-3.89498E-19-8.57773E-19
 -1      2291 9.40540E-05-2.82786E-05-2.81889E-05 1.12514E-06-4.21473E-19-2.85026E-19
 -1      2292 9.41729E-05-2.83294E-05-2.82170E-05 1.10251E-06-5.78447E-19-4.28727E-19
 -1      2293 9.44692E-05-2.83961E-05-2.83206E-05 1.19752E-06-3.29092E-19-6.92747E-19
 -1      2294 9.42207E-05-2.83504E-05-2.82309E-05 1.07676E-06-4.36294E-19-4.78138E-19
 -1      2295 9.43446E-05-2.83896E-05-2.82648E-05 1.04175E-06-3.05115E-19-3.39388E-19
 -1      2296 9.45562E-05-2.84655E-05-2.83269E-05 1.18224E-06-4.88541E-19-4.39459E-19
 -1      2297 9.44010E-05-2.84022E-05-2.82867E-05 1.00801E-06-2.71626E-19-2.65335E-19
 -1      2298 9.45251E-05-2.84320E-05-2.83238E-05 9.73924E-07-5.73997E-20 8.96705E-21
 -1      2299 9.46637E-05-2.85046E-05-2.83555E-05 1.12780E-06-1.74462E-19-1.76938E-20
 -1      2300 9.45867E-05-2.84381E-05-2.83512E-05 9.45441E-07 3.35259E-20 1.66358E-19
 -1      2301 9.47100E-05-2.84606E-05-2.83905E-05 9.22015E-07 1.33288E-19 4.93086E-19
 -1      2302 9.47830E-05-2.85210E-05-2.83991E-05 1.06835E-06 1.92948E-19 3.33274E-19
 -1      2303 9.47760E-05-2.84617E-05-2.84222E-05 9.08706E-07-8.03260E-20 3.59587E-19
 -1      2304 9.49008E-05-2.84791E-05-2.84638E-05 9.03359E-07 1.06406E-20 3.48238E-19
 -1      2305 9.49102E-05-2.85202E-05-2.84538E-05 1.02896E-06-3.24314E-20 3.60512E-19
 -1      2306 9.49722E-05-2.84767E-05-2.84997E-05 9.12964E-07 4.18751E-20 2.79739E-19
 -1      2307 9.51031E-05-2.84913E-05-2.85446E-05 9.31634E-07-1.08140E-20 4.32805E-19
 -1      2308 9.50460E-05-2.85066E-05-2.85179E-05 1.02875E-06-4.20577E-20 2.79515E-19
 -1      2309 9.51822E-05-2.84868E-05-2.85852E-05 9.70460E-07-1.30971E-19 2.59323E-19
 -1      2310 9.53258E-05-2.85012E-05-2.86350E-05 1.01807E-06-1.29262E-19 3.27324E-19
 -1      2311 9.51940E-05-2.84838E-05-2.85913E-05 1.08287E-06-1.25946E-19 4.81440E-19
 -1      2312 9.54164E-05-2.84965E-05-2.86812E-05 1.09136E-06-2.74236E-19 1.59869E-19
 -1      2313 9.55807E-05-2.85138E-05-2.87379E-05 1.17194E-06-2.76934E-19 1.20944E-19
 -1      2314 9.53607E-05-2.84558E-05-2.86750E-05 1.20373E-06-4.19433E-19 6.08440E-20
 -1      2315 9.56877E-05-2.85111E-05-2.87909E-05 1.28388E-06-8.89515E-20-1.66167E-19
 -1      2316 9.58819E-05-2.85354E-05-2.88568E-05 1.40031E-06-2.98375E-19-1.00811E-19
 -1      2317 9.55547E-05-2.84273E-05-2.87708E-05 1.40139E-06-3.69445E-19-1.91329E-19
 -1      2318 9.60114E-05-2.85380E-05-2.89177E-05 1.55356E-06-5.54731E-19 1.14917E-19
 -1      2319 9.62456E-05-2.85744E-05-2.89950E-05 1.70687E-06-5.05393E-19 8.07133E-20
 -1      2320 9.57875E-05-2.84051E-05-2.88805E-05 1.68313E-06-1.87177E-19 8.38465E-20
 -1      2321 9.64050E-05-2.85874E-05-2.90648E-05 1.90161E-06-4.63164E-19-1.90107E-19
 -1      2322 9.66894E-05-2.86427E-05-2.91552E-05 2.08967E-06-4.69314E-19 6.40895E-20
 -1      2323 9.60726E-05-2.83990E-05-2.90059E-05 2.05200E-06-3.93560E-19 1.78861E-20
 -1      2324 9.68877E-05-2.86736E-05-2.92343E-05 2.32194E-06-4.98604E-19 3.29277E-19
 -1      2325 9.72324E-05-2.87569E-05-2.93387E-05 2.53744E-06-2.80831E-19-8.35623E-20
 -1      2326 9.64271E-05-2.84243E-05-2.91475E-05 2.50416E-06-2.92264E-19-5.47683E-19
 -1      2327 9.74809E-05-2.88167E-05-2.94264E-05 2.79673E-06-2.40574E-19-1.14073E-20
 -1      2328 9.78944E-05-2.89400E-05-2.95445E-05 3.02433E-06 2.08696E-19 4.93701E-20
 -1      2329 9.68714E-05-2.85036E-05-2.93046E-05 3.02472E-06-2.15200E-19-6.57170E-19
 -1      2330 9.82072E-05-2.90447E-05-2.96389E-05 3.29013E-06 3.78780E-19-1.30714E-19
 -1      2331 9.86951E-05-2.92232E-05-2.97682E-05 3.50279E-06 4.61063E-19 1.81064E-19
 -1      2332 9.74318E-05-2.86701E-05-2.94742E-05 3.58189E-06 5.18951E-20 2.96775E-19
 -1      2333 9.90902E-05-2.93943E-05-2.98660E-05 3.74040E-06 5.11647E-19-7.10345E-20
 -1      2334 9.96527E-05-2.96460E-05-3.00012E-05 3.89525E-06 5.39067E-19-4.48445E-19
 -1      2335 9.81408E-05-2.89696E-05-2.96508E-05 4.11926E-06 2.32970E-19 7.37961E-20
 -1      2336 1.00152E-04-2.99105E-05-3.00976E-05 4.05097E-06 4.60075E-19-8.53553E-19
 -1      2337 1.00781E-04-3.02533E-05-3.02306E-05 4.08594E-06 4.49069E-19-7.47025E-19
 -1      2338 9.90392E-05-2.94615E-05-2.98264E-05 4.54682E-06 2.54567E-19-4.68124E-19
 -1      2339 1.01408E-04-3.06396E-05-3.03205E-05 4.08312E-06 3.25706E-19-6.39008E-19
 -1      2340 1.02080E-04-3.10843E-05-3.04406E-05 3.91701E-06-6.18752E-20-1.37189E-19
 -1      2341 1.00174E-04-3.02135E-05-2.99923E-05 4.73207E-06 3.04986E-19-8.99933E-19
 -1      2342 1.02854E-04-3.16114E-05-3.05203E-05 3.65606E-06-4.43471E-19 2.57173E-19
 -1      2343 1.03523E-04-3.21461E-05-3.06157E-05 3.19687E-06-1.82042E-19 6.12012E-19
 -1      2344 1.01588E-04-3.12835E-05-3.01420E-05 4.49547E-06 1.74053E-19-6.95099E-19
 -1      2345 1.04437E-04-3.28005E-05-3.06867E-05 2.56587E-06-3.64821E-19 4.61233E-19
 -1      2346 1.05023E-04-3.33652E-05-3.07485E-05 1.73513E-06-1.48854E-19 2.31576E-19
 -1      2347 1.03297E-04-3.26783E-05-3.02777E-05 3.61909E-06-3.93238E-19 4.21977E-20
 -1      2348 1.06013E-04-3.40642E-05-3.08213E-05 6.42344E-07-1.51450E-19-2.87485E-19
 -1      2349 1.06389E-04-3.45194E-05-3.08478E-05-5.76479E-07-3.05751E-19-3.66671E-19
 -1      2350 1.05233E-04-3.42806E-05-3.04183E-05 1.88608E-06-4.37063E-19-9.71726E-19
 -1      2351 1.07289E-04-3.50691E-05-3.09447E-05-2.13311E-06 1.79995E-21-5.38874E-19
 -1      2352 1.07289E-04-3.51804E-05-3.09467E-05-3.61984E-06-1.63398E-19 1.53655E-19
 -1      2353 1.07167E-04-3.57522E-05-3.06068E-05-8.22545E-07-6.92937E-20 2.19438E-19
 -1      2354 1.07808E-04-3.52697E-05-3.10996E-05-5.43905E-06 4.61434E-20 8.25328E-19
 -1      2355 1.07279E-04-3.47602E-05-3.10993E-05-6.86139E-06 4.36581E-19 1.92467E-18
 -1      2356 1.08633E-04-3.64676E-05-3.09091E-05-4.34384E-06 7.20717E-19 3.99754E-19
 -1      2357 1.07083E-04-3.40643E-05-3.13314E-05-8.42463E-06 8.25080E-20 2.01290E-18
 -1      2358 1.06002E-04-3.27966E-05-3.13516E-05-9.23005E-06-1.86645E-19 2.70396E-18
 -1      2359 1.08977E-04-3.56383E-05-3.13911E-05-7.98021E-06 4.48553E-19 1.36553E-18
 -1      2360 1.04976E-04-3.12665E-05-3.16486E-05-9.75208E-06-9.64297E-19 1.98020E-18
 -1      2361 1.03591E-04-2.94957E-05-3.16931E-05-9.36524E-06-9.29041E-19 7.04222E-19
 -1      2362 1.07704E-04-3.27973E-05-3.20604E-05-1.03636E-05-1.14530E-18 1.58346E-18
 -1      2363 1.02136E-04-2.76372E-05-3.19786E-05-8.18625E-06 2.33983E-19 1.84256E-19
 -1      2364 1.00977E-04-2.60930E-05-3.20234E-05-6.39616E-06 5.66506E-19 3.58460E-19
 -1      2365 1.05087E-04-2.85302E-05-3.27991E-05-9.86691E-06-7.04816E-19 9.52328E-19
 -1      2366 9.99763E-05-2.48988E-05-3.21862E-05-3.59589E-06 5.06724E-19 7.59928E-19
 -1      2367 9.96138E-05-2.44369E-05-3.21905E-05-9.15257E-07 5.38422E-19 1.14778E-18
 -1      2368 1.02469E-04-2.46826E-05-3.33702E-05-5.71759E-06 1.09476E-18 1.77310E-18
 -1      2369 9.98145E-05-2.47114E-05-3.21387E-05 2.37420E-06-5.00808E-20 2.18482E-18
 -1      2370 1.00415E-04-2.56045E-05-3.20883E-05 4.84003E-06 4.87315E-19 2.51075E-18
 -1      2371 1.01627E-04-2.35566E-05-3.35175E-05 8.43218E-07 1.18047E-18 2.62689E-18
 -1      2372 1.01624E-04-2.71378E-05-3.18483E-05 7.14637E-06 6.49754E-19 2.11079E-18
 -1      2373 1.02844E-04-2.88519E-05-3.17705E-05 8.45144E-06 5.89630E-19 2.18031E-18
 -1      2374 1.03138E-04-2.58243E-05-3.31569E-05 6.82870E-06 4.29136E-19 1.98290E-18
 -1      2375 1.04194E-04-3.07026E-05-3.14443E-05 8.97292E-06 2.57654E-19 1.26290E-18
 -1      2376 1.05430E-04-3.23521E-05-3.13754E-05 8.85639E-06-6.67662E-19 6.71596E-19
 -1      2377 1.05865E-04-3.00796E-05-3.24530E-05 9.70674E-06-1.16863E-19 7.58406E-19
 -1      2378 1.06134E-04-3.36215E-05-3.10704E-05 7.82475E-06-3.80095E-19 4.16651E-19
 -1      2379 1.06931E-04-3.46113E-05-3.10255E-05 6.67930E-06-3.25173E-19 1.35534E-19
 -1      2380 1.08033E-04-3.40330E-05-3.16690E-05 8.95601E-06-8.58209E-19 9.20652E-21
 -1      2381 1.06786E-04-3.49983E-05-3.07963E-05 4.88057E-06-1.17727E-18 3.49720E-19
 -1      2382 1.06998E-04-3.52339E-05-3.07628E-05 3.32077E-06-1.60629E-18 6.61958E-19
 -1      2383 1.08612E-04-3.61741E-05-3.10118E-05 5.82124E-06-8.90299E-19 1.39428E-18
 -1      2384 1.06239E-04-3.49275E-05-3.06081E-05 1.47972E-06-1.65957E-18 1.21249E-18
 -1      2385 1.05952E-04-3.46207E-05-3.05626E-05-3.56047E-09-7.65054E-19 2.07346E-18
 -1      2386 1.07673E-04-3.63581E-05-3.05517E-05 1.96059E-06-1.32852E-18 1.89479E-18
 -1      2387 1.04913E-04-3.39544E-05-3.04551E-05-1.47579E-06-7.83357E-19 2.40943E-18
 -1      2388 1.04296E-04-3.33749E-05-3.03806E-05-2.61519E-06 1.32332E-19 1.58858E-18
 -1      2389 1.05823E-04-3.52369E-05-3.02560E-05-1.46974E-06-8.93836E-19 3.51415E-18
 -1      2390 1.03226E-04-3.26199E-05-3.02936E-05-3.58452E-06 1.63357E-18 9.87867E-19
 -1      2391 1.02439E-04-3.19669E-05-3.01872E-05-4.29880E-06 1.94982E-18 1.16697E-18
 -1      2392 1.03670E-04-3.35587E-05-3.00594E-05-3.95189E-06 4.07852E-19 2.50643E-18
 -1      2393 1.01464E-04-3.12685E-05-3.01056E-05-4.78860E-06 7.76547E-19 9.75577E-19
 -1      2394 1.00625E-04-3.06460E-05-2.99763E-05-5.09982E-06 5.68242E-19 1.05864E-18
 -1      2395 1.01593E-04-3.18367E-05-2.99085E-05-5.40821E-06 1.09473E-18 1.47908E-18
 -1      2396 9.97820E-05-3.00489E-05-2.98968E-05-5.18910E-06 9.21872E-19 4.48744E-19
 -1      2397 9.89644E-05-2.94911E-05-2.97603E-05-5.15537E-06 3.51760E-19 8.08397E-19
 -1      2398 9.97542E-05-3.03036E-05-2.97755E-05-5.96146E-06 1.74805E-19 1.79466E-18
 -1      2399 9.82440E-05-2.89849E-05-2.96859E-05-4.92351E-06-6.12904E-19 4.11923E-19
 -1      2400 9.75040E-05-2.85042E-05-2.95589E-05-4.59922E-06-4.34782E-19 1.67723E-19
 -1      2401 9.81792E-05-2.90054E-05-2.96537E-05-5.77861E-06-7.44888E-20 5.41550E-19
 -1      2402 5.50158E-05-3.47512E-05-8.51414E-06 3.92825E-05-1.31396E-18 2.49388E-18
 -1      2403 4.16248E-05-2.79746E-05-5.40643E-06 3.13607E-05-9.06008E-19 1.40226E-18
 -1      2404 9.33155E-05-2.76830E-05-2.81209E-05-4.00475E-07 4.86584E-19-4.57939E-19
 -1      2405 9.33947E-05-2.75788E-05-2.81823E-05-1.14128E-07 6.31272E-19-2.43348E-19
 -1      2406 9.32644E-05-2.78460E-05-2.80316E-05-8.10472E-07 4.35640E-19-6.63219E-19
 -1      2407 9.32195E-05-2.77558E-05-2.80428E-05-6.69447E-07 4.62897E-19-4.69618E-19
 -1      2408 9.39946E-05-2.78009E-05-2.83801E-05-4.34749E-07 6.04600E-19-5.40474E-19
 -1      2409 9.33606E-05-2.79800E-05-2.80170E-05-9.93119E-07 3.89420E-19-5.63658E-19
 -1      2410 9.32466E-05-2.79002E-05-2.79991E-05-9.38853E-07 4.26931E-19-6.39191E-19
 -1      2411 9.39093E-05-2.80082E-05-2.82515E-05-8.88085E-07 4.42330E-19-6.05437E-19
 -1      2412 9.35413E-05-2.80932E-05-2.80469E-05-1.03963E-06 3.85892E-19-5.33865E-19
 -1      2413 9.33934E-05-2.80233E-05-2.80131E-05-1.03594E-06 3.12394E-19-5.21234E-19
 -1      2414 9.39418E-05-2.81545E-05-2.82001E-05-1.09472E-06 3.53215E-19-1.07346E-18
 -1      2415 9.37644E-05-2.81886E-05-2.81022E-05-1.00985E-06 4.41060E-20-3.17503E-19
 -1      2416 9.36041E-05-2.81285E-05-2.80606E-05-1.03311E-06 3.77873E-19-2.84638E-19
 -1      2417 9.40475E-05-2.82617E-05-2.81976E-05-1.15246E-06 1.85431E-19-6.42922E-19
 -1      2418 9.40040E-05-2.82681E-05-2.81711E-05-9.44453E-07 5.75155E-19-5.82215E-19
 -1      2419 9.38434E-05-2.82173E-05-2.81263E-05-9.78566E-07 3.93150E-19-3.68628E-19
 -1      2420 9.41946E-05-2.83405E-05-2.82255E-05-1.12704E-06 2.10256E-19-4.48446E-19
 -1      2421 9.42466E-05-2.83336E-05-2.82470E-05-8.72035E-07 3.10194E-19-7.14907E-19
 -1      2422 9.40909E-05-2.82911E-05-2.82014E-05-9.05609E-07 5.51681E-19-7.31396E-19
 -1      2423 9.43623E-05-2.83975E-05-2.82722E-05-1.06390E-06 6.28343E-19-9.01476E-19
 -1      2424 9.44880E-05-2.83874E-05-2.83271E-05-8.13496E-07 5.84914E-19-1.01484E-18
 -1      2425 9.43376E-05-2.83518E-05-2.82813E-05-8.38062E-07 3.64414E-19-8.16370E-19
 -1      2426 9.45396E-05-2.84370E-05-2.83307E-05-9.95417E-07 3.68261E-19-7.96237E-19
 -1      2427 9.47309E-05-2.84325E-05-2.84113E-05-7.85038E-07 3.12441E-19-7.50234E-19
 -1      2428 9.45822E-05-2.84018E-05-2.83646E-05-7.93849E-07 6.57919E-19-7.03805E-19
 -1      2429 9.47221E-05-2.84627E-05-2.83978E-05-9.45581E-07 4.49832E-19-8.39023E-19
 -1      2430 9.49834E-05-2.84722E-05-2.85017E-05-8.00322E-07 2.91852E-19-8.52123E-19
 -1      2431 9.48301E-05-2.84442E-05-2.84523E-05-7.87463E-07 3.24278E-19-7.38780E-19
 -1      2432 9.49112E-05-2.84774E-05-2.84727E-05-9.33282E-07 2.50811E-19-7.77932E-19
 -1      2433 9.52583E-05-2.85100E-05-2.86022E-05-8.72074E-07 9.64622E-20-7.03986E-19
 -1      2434 9.50913E-05-2.84822E-05-2.85476E-05-8.31794E-07 6.80693E-20-6.15398E-19
 -1      2435 9.51126E-05-2.84838E-05-2.85566E-05-9.74664E-07 1.53840E-19-8.27252E-19
 -1      2436 9.55723E-05-2.85504E-05-2.87181E-05-1.01331E-06 2.88541E-19-7.36399E-19
 -1      2437 9.53803E-05-2.85197E-05-2.86548E-05-9.39506E-07 3.45423E-19-6.63343E-19
 -1      2438 9.53355E-05-2.84843E-05-2.86523E-05-1.08489E-06 3.92739E-20-6.35817E-19
 -1      2439 9.59461E-05-2.85980E-05-2.88561E-05-1.23817E-06-4.59130E-19-3.69297E-19
 -1      2440 9.57153E-05-2.85609E-05-2.87802E-05-1.12405E-06-4.11754E-20-3.24159E-19
 -1      2441 9.55919E-05-2.84811E-05-2.87641E-05-1.27945E-06 7.34929E-21-2.54879E-19
 -1      2442 9.64040E-05-2.86586E-05-2.90242E-05-1.56240E-06-4.05005E-19-2.20699E-19
 -1      2443 9.61180E-05-2.86110E-05-2.89308E-05-1.40031E-06-2.98158E-19-1.18005E-19
 -1      2444 9.58964E-05-2.84769E-05-2.88971E-05-1.57496E-06-6.96470E-19 2.44804E-21
 -1      2445 9.69739E-05-2.87394E-05-2.92313E-05-2.00311E-06 2.71039E-19-4.24271E-19
 -1      2446 9.66139E-05-2.86760E-05-2.91149E-05-1.78472E-06-1.45966E-19-3.46934E-19
 -1      2447 9.62659E-05-2.84746E-05-2.90571E-05-1.98947E-06-1.40531E-19-1.83738E-19
 -1      2448 9.76870E-05-2.88499E-05-2.94867E-05-2.57755E-06 7.35802E-19-1.00151E-18
 -1      2449 9.72318E-05-2.87639E-05-2.93415E-05-2.29466E-06 8.16233E-19-5.12803E-19
 -1      2450 9.67194E-05-2.84789E-05-2.92503E-05-2.54197E-06 5.77223E-19-4.27550E-19
 -1      2451 9.85774E-05-2.90038E-05-2.97996E-05-3.30003E-06 1.18079E-18-1.17529E-18
 -1      2452 9.80038E-05-2.88857E-05-2.96197E-05-2.94635E-06 5.85938E-19-1.66862E-18
 -1      2453 9.72779E-05-2.84976E-05-2.94823E-05-3.25046E-06 1.17987E-18-1.33835E-18
 -1      2454 9.96819E-05-2.92220E-05-3.01770E-05-4.17553E-06 1.82507E-19-4.35213E-19
 -1      2455 9.89656E-05-2.90584E-05-2.99575E-05-3.75047E-06 1.17464E-18-5.33650E-19
 -1      2456 9.79652E-05-2.85450E-05-2.97571E-05-4.12801E-06 6.35911E-19-1.15636E-18
 -1      2457 1.01039E-04-2.95387E-05-3.06217E-05-5.18793E-06-1.37819E-18-4.65274E-19
 -1      2458 1.00157E-04-2.93092E-05-3.03602E-05-4.70349E-06-7.99091E-19-5.91515E-19
 -1      2459 9.88099E-05-2.86483E-05-3.00756E-05-5.17492E-06-2.60214E-19-3.06373E-19
 -1      2460 1.02689E-04-3.00106E-05-3.11285E-05-6.27957E-06-1.49457E-18-8.78616E-19
 -1      2461 1.01621E-04-2.96838E-05-3.08270E-05-5.77217E-06-1.52178E-18-6.22630E-19
 -1      2462 9.98505E-05-2.88579E-05-3.04328E-05-6.36510E-06-1.55783E-18-3.54347E-19
 -1      2463 1.04678E-04-3.07300E-05-3.16791E-05-7.31896E-06-9.63141E-19-1.12463E-18
 -1      2464 1.03414E-04-3.02586E-05-3.13478E-05-6.86778E-06-1.10466E-18-1.28963E-18
 -1      2465 1.01146E-04-2.92648E-05-3.08159E-05-7.62346E-06-1.18277E-18-1.13546E-18
 -1      2466 1.07058E-04-3.18366E-05-3.22388E-05-8.05575E-06-1.14582E-19-4.95809E-19
 -1      2467 1.05603E-04-3.11557E-05-3.18992E-05-7.80661E-06-9.57401E-19-1.19584E-18
 -1      2468 1.02793E-04-3.00224E-05-3.12020E-05-8.79120E-06-1.09513E-18-1.78984E-18
 -1      2469 1.09884E-04-3.35097E-05-3.27569E-05-8.07134E-06-1.18146E-19 4.17308E-19
 -1      2470 1.08278E-04-3.25498E-05-3.24428E-05-8.25778E-06 2.86032E-19 2.54189E-19
 -1      2471 1.04953E-04-3.13642E-05-3.15617E-05-9.57775E-06-5.03209E-19-1.58695E-18
 -1      2472 1.13176E-04-3.58880E-05-3.31828E-05-6.75880E-06-5.27635E-19 1.45412E-18
 -1      2473 1.11529E-04-3.46327E-05-3.29339E-05-7.69329E-06-5.73067E-19 1.23265E-18
 -1      2474 1.07863E-04-3.35812E-05-3.18726E-05-9.50454E-06-8.88106E-19-8.20787E-19
 -1      2475 1.16792E-04-3.88359E-05-3.35054E-05-3.42567E-06-4.18408E-19 1.92140E-18
 -1      2476 1.15347E-04-3.74605E-05-3.33490E-05-5.40321E-06-1.56281E-19 1.70491E-18
 -1      2477 1.11770E-04-3.68681E-05-3.21549E-05-7.87323E-06-8.96998E-19 6.64500E-19
 -1      2478 1.20146E-04-4.14982E-05-3.38177E-05 2.31325E-06-1.12470E-18 1.13030E-18
 -1      2479 1.19375E-04-4.05911E-05-3.37331E-05-7.14579E-07-2.33731E-19 1.86187E-18
 -1      2480 1.16694E-04-4.09348E-05-3.25287E-05-3.86780E-06-3.05739E-19 1.00827E-18
 -1      2481 1.21951E-04-4.19264E-05-3.43727E-05 9.62319E-06 3.46582E-19-1.23260E-19
 -1      2482 1.22466E-04-4.25327E-05-3.42631E-05 6.30442E-06-7.06207E-19 2.02344E-19
 -1      2483 1.21855E-04-4.42772E-05-3.32783E-05 2.97931E-06-3.58662E-19 1.30851E-19
 -1      2484 1.20613E-04-3.78840E-05-3.54519E-05 1.52769E-05-8.38033E-20 4.94810E-19
 -1      2485 1.22692E-04-4.08474E-05-3.52099E-05 1.34948E-05-6.73557E-20 2.26062E-19
 -1      2486 1.25026E-04-4.39207E-05-3.48220E-05 1.16222E-05-1.62319E-19-6.85058E-19
 -1      2487 1.15968E-04-2.98087E-05-3.69137E-05 1.44715E-05-9.82029E-20 1.20623E-18
 -1      2488 1.18947E-04-3.41428E-05-3.65906E-05 1.62788E-05-1.13436E-19 9.98744E-19
 -1      2489 1.24310E-04-3.76927E-05-3.71791E-05 1.72502E-05-5.82018E-19 9.65538E-19
 -1      2490 1.11905E-04-2.34904E-05-3.80060E-05 4.70628E-06 6.95308E-19 1.55917E-18
 -1      2491 1.13604E-04-2.58262E-05-3.78300E-05 1.00152E-05 4.76033E-19 1.89157E-18
 -1      2492 1.19540E-04-2.68879E-05-3.98925E-05 1.38719E-05-1.23508E-19 1.79010E-18
 -1      2493 1.12955E-04-2.52595E-05-3.78815E-05-8.31374E-06 1.24212E-18 7.67058E-19
 -1      2494 1.11857E-04-2.33110E-05-3.80491E-05-2.93351E-06 9.91134E-19 1.31007E-18
 -1      2495 1.16471E-04-2.10862E-05-4.10944E-05 8.45559E-07 1.31094E-18 7.91526E-19
 -1      2496 1.18166E-04-3.33126E-05-3.66075E-05-1.54888E-05 1.87594E-18-3.18306E-19
 -1      2497 1.15283E-04-2.90037E-05-3.69877E-05-1.34066E-05 2.04294E-18 3.20046E-19
 -1      2498 1.18734E-04-2.59706E-05-3.99328E-05-1.26526E-05 2.34771E-18-1.66238E-18
 -1      2499 1.22025E-04-4.03434E-05-3.51242E-05-1.33048E-05-5.63710E-19-3.66606E-19
 -1      2500 1.19836E-04-3.72615E-05-3.54120E-05-1.49054E-05 1.73774E-20-1.97345E-19
 -1      2501 1.23669E-04-3.66121E-05-3.73819E-05-1.65638E-05 1.06559E-18-1.17075E-18
 -1      2502 1.21867E-04-4.23861E-05-3.40668E-05-6.21255E-06-1.36480E-18 7.95390E-19
 -1      2503 1.21322E-04-4.16382E-05-3.42263E-05-9.45766E-06-3.30465E-19 5.12040E-19
 -1      2504 1.24796E-04-4.35677E-05-3.48185E-05-1.12587E-05-1.07481E-18 7.99374E-19
 -1      2505 1.18695E-04-4.05994E-05-3.34298E-05 1.02962E-06-1.55750E-18 1.11914E-18
 -1      2506 1.19512E-04-4.14545E-05-3.35577E-05-2.02811E-06-2.63411E-18 1.94156E-19
 -1      2507 1.21597E-04-4.43249E-05-3.31348E-05-2.72087E-06-1.66584E-18 3.86775E-19
 -1      2508 1.14422E-04-3.74368E-05-3.29624E-05 6.06355E-06 7.87807E-21 1.28404E-18
 -1      2509 1.15984E-04-3.88257E-05-3.31594E-05 3.99588E-06 1.56106E-20 9.48563E-19
 -1      2510 1.16333E-04-4.11658E-05-3.22765E-05 4.45274E-06-8.73119E-19 3.07410E-19
 -1      2511 1.10277E-04-3.44765E-05-3.24669E-05 8.67637E-06 1.10341E-18 1.37031E-19
 -1      2512 1.12098E-04-3.57912E-05-3.27608E-05 7.63207E-06 1.01848E-18 8.10508E-19
 -1      2513 1.11154E-04-3.70277E-05-3.18270E-05 8.81228E-06 1.06048E-18-8.64588E-20
 -1      2514 1.06658E-04-3.22064E-05-3.18979E-05 9.47245E-06 1.69368E-18-6.88469E-19
 -1      2515 1.08473E-04-3.32586E-05-3.22598E-05 9.19357E-06 1.54919E-18-3.77108E-19
 -1      2516 1.06944E-04-3.35765E-05-3.14845E-05 1.07465E-05 1.94959E-18-1.89918E-18
 -1      2517 1.03606E-04-3.05899E-05-3.12854E-05 9.12121E-06 7.56002E-19-2.97442E-19
 -1      2518 1.05285E-04-3.13905E-05-3.16705E-05 9.32685E-06 1.15910E-18 2.98152E-19
 -1      2519 1.03719E-04-3.11408E-05-3.11298E-05 1.10123E-05 1.10127E-18-9.27129E-19
 -1      2520 1.01046E-04-2.94233E-05-3.06868E-05 8.10646E-06-1.64776E-18-8.50193E-19
 -1      2521 1.02530E-04-3.00443E-05-3.10528E-05 8.59977E-06-6.40649E-19-9.28140E-19
 -1      2522 1.01244E-04-2.95355E-05-3.07468E-05 1.02720E-05 4.66516E-19-2.42578E-19
 -1      2523 9.89000E-05-2.85106E-05-3.01560E-05 6.68928E-06-1.33404E-18-6.80402E-19
 -1      2524 1.00163E-04-2.90182E-05-3.04713E-05 7.37113E-06-2.17760E-18-3.35793E-19
 -1      2525 9.92735E-05-2.84422E-05-3.03670E-05 8.96000E-06-1.88436E-18-1.49358E-18
 -1      2526 9.71229E-05-2.77285E-05-2.97254E-05 4.99287E-06-6.27522E-19 3.10142E-19
 -1      2527 9.81570E-05-2.81711E-05-2.99745E-05 5.81243E-06-1.19883E-18-5.09325E-19
 -1      2528 9.76350E-05-2.75929E-05-3.00318E-05 7.28958E-06-1.55431E-18-2.17240E-18
 -1      2529 9.64617E-05-2.74359E-05-2.95679E-05 3.93387E-06 1.53541E-19 1.45057E-18
 -1      2530 9.12901E-05-2.05395E-05-3.03487E-05 4.63236E-06-1.90988E-18-9.00057E-19
 -1      2531 9.18271E-05-2.12628E-05-3.02417E-05 5.35191E-06-2.70634E-18-1.52178E-18
 -1      2532 9.05778E-05-1.95849E-05-3.04498E-05 2.60896E-06 5.19329E-19 7.96792E-19
 -1      2533 9.08744E-05-2.00119E-05-3.03803E-05 3.59085E-06-1.09440E-18-6.65066E-19
 -1      2534 9.06336E-05-2.05780E-05-3.00044E-05 4.65177E-06-8.68077E-19 2.43331E-19
 -1      2535 9.38993E-05-2.38715E-05-3.00325E-05 6.46725E-06-3.82370E-18-6.76039E-19
 -1      2536 9.46942E-05-2.48808E-05-2.98979E-05 6.35767E-06-2.80188E-18-1.23359E-18
 -1      2537 9.24525E-05-2.20401E-05-3.02015E-05 6.00080E-06-4.60088E-18-5.62084E-19
 -1      2538 9.31512E-05-2.29499E-05-3.00752E-05 6.32730E-06-4.53684E-18 1.03406E-18
 -1      2539 9.35813E-05-2.36983E-05-2.99360E-05 7.31137E-06-3.59652E-18-2.25930E-19
 -1      2540 9.18972E-05-2.19290E-05-2.99710E-05 6.45511E-06-3.16229E-18 6.43056E-19
 -1      2541 9.04062E-05-1.93100E-05-3.04872E-05 2.89963E-07 2.84051E-19-8.39459E-19
 -1      2542 9.04335E-05-1.93944E-05-3.04661E-05 1.36383E-06 8.56273E-19-7.40310E-19
 -1      2543 8.99657E-05-1.98396E-05-3.00297E-05 2.21059E-06 8.08561E-19-8.07295E-20
 -1      2544 9.07599E-05-1.97249E-05-3.04524E-05-1.94395E-06-8.32328E-19-6.70835E-19
 -1      2545 9.05370E-05-1.94739E-05-3.04829E-05-9.50924E-07-5.86277E-19-1.56061E-19
 -1      2546 8.99495E-05-1.98138E-05-3.00348E-05-4.45585E-07 7.23485E-19-6.89828E-19
 -1      2547 9.15234E-05-2.07156E-05-3.03471E-05-3.76431E-06-6.92963E-19 3.81170E-19
 -1      2548 9.11149E-05-2.01886E-05-3.04252E-05-2.99016E-06-7.54308E-19-4.20555E-20
 -1      2549 9.05323E-05-2.04628E-05-3.00122E-05-2.88255E-06-1.80665E-19-6.13652E-19
 -1      2550 9.25058E-05-2.20589E-05-3.01860E-05-4.94945E-06-4.86570E-19 1.12596E-18
 -1      2551 9.20047E-05-2.13627E-05-3.02992E-05-4.47734E-06-1.01786E-18 6.92961E-19
 -1      2552 9.15371E-05-2.16102E-05-2.99587E-05-4.74614E-06 4.28530E-19 7.74799E-19
 -1      2553 9.35722E-05-2.35872E-05-2.99836E-05-5.47115E-06 2.29492E-19 2.26196E-18
 -1      2554 9.30395E-05-2.27970E-05-3.01207E-05-5.30692E-06-8.37769E-19 2.03826E-18
 -1      2555 9.27463E-05-2.30328E-05-2.98753E-05-5.87137E-06-5.01301E-19 1.40848E-18
 -1      2556 9.45843E-05-2.51002E-05-2.97675E-05-5.34338E-06 1.15490E-18 8.91178E-19
 -1      2557 9.40792E-05-2.43104E-05-2.99095E-05-5.47164E-06 6.98764E-19 1.36880E-18
 -1      2558 9.39839E-05-2.45303E-05-2.97700E-05-6.23465E-06 1.31141E-20 2.03605E-18
 -1      2559 9.54749E-05-2.64683E-05-2.95602E-05-4.66345E-06-5.40737E-19-5.59761E-19
 -1      2560 9.50304E-05-2.57448E-05-2.96932E-05-5.03903E-06 1.97005E-19-2.17605E-19
 -1      2561 9.51145E-05-2.59276E-05-2.96522E-05-5.90319E-06 6.07307E-19 1.29153E-19
 -1      2562 9.58286E-05-2.72738E-05-2.93782E-05-3.30532E-06 8.66497E-19-4.49492E-19
 -1      2563 6.18290E-05-4.13666E-05-8.69759E-06-4.20582E-05-1.77453E-19-8.41527E-19
 -1      2564 8.08126E-05-4.73823E-05-1.43220E-05-4.47721E-05 4.77091E-19-9.63765E-19
 -1      2565 6.16534E-05-3.74214E-05-1.00006E-05-4.12102E-05-8.89385E-20-4.64174E-19
 -1      2566 9.35998E-05-2.74649E-05-2.83320E-05 3.81315E-07 7.97242E-19-2.64252E-19
 -1      2567 9.38838E-05-2.73297E-05-2.84794E-05 9.15037E-07 9.52187E-19-7.39301E-20
 -1      2568 9.42509E-05-2.74835E-05-2.86284E-05 4.15249E-07 7.94900E-19-6.08563E-19
 -1      2569 2.83877E-05-2.02645E-05-3.14554E-06 2.04129E-05-2.08370E-19-1.55007E-19
 -1      2570 2.15266E-05-1.76290E-05-1.23570E-06 5.27293E-06 8.29894E-19-6.57298E-19
 -1      2571 9.84531E-05-5.40035E-05-1.90354E-05 4.00145E-05-1.61804E-18-6.53896E-19
 -1      2572 7.58185E-05-4.53942E-05-1.27415E-05 4.04695E-05-2.12732E-18 1.65436E-18
 -1      2573 1.44694E-04-2.71717E-05-5.08022E-05 5.24839E-06-1.28961E-18-1.59581E-18
 -1      2574 1.44747E-04-1.89768E-05-5.43345E-05 5.71952E-06-2.83311E-18-3.36251E-18
 -1      2575 1.44660E-04-2.65861E-05-5.12243E-05-7.05779E-06-3.09845E-18-2.29461E-18
 -1      2576 1.47668E-04-3.65747E-05-4.76364E-05-1.44727E-07-2.85471E-18-2.27598E-18
 -1      2577 1.77706E-05-1.83367E-05 4.55547E-07 1.64926E-06 1.06292E-18-3.44319E-18
 -1      2578 2.18220E-05-1.94071E-05-8.32859E-07-1.41281E-05 1.21274E-18-2.07523E-18
 -1      2579 1.33763E-04-5.90458E-05-3.21043E-05-1.86669E-05-1.07997E-19-2.82718E-18
 -1      2580 1.44681E-04-5.59792E-05-3.82851E-05-1.19409E-05-2.89262E-19-2.34628E-18
 -1      2581 1.93187E-05-1.82089E-05-9.34205E-08-6.81098E-06 3.79021E-19 2.89685E-19
 -1      2582 2.45246E-05-2.23138E-05-7.77626E-07-2.11376E-05 5.00385E-19 8.28398E-19
 -1      2583 2.84298E-05-1.49449E-05-5.20884E-06 7.23780E-08-1.13076E-18 2.85027E-19
 -1      2584 8.78607E-05-1.08069E-05-3.30588E-05-1.52059E-06-8.40076E-20-2.21462E-18
 -1      2585 8.79650E-05-1.09285E-05-3.30498E-05-2.64064E-06-2.83507E-19-2.14143E-18
 -1      2586 8.93643E-05-1.31012E-05-3.26861E-05-2.93463E-06-3.30605E-19-1.96148E-18
 -1      2587 8.91178E-05-1.27670E-05-3.27250E-05-9.42430E-07-6.72439E-20-2.11767E-18
 -1      2588 1.28772E-04-6.00484E-05-2.96025E-05 2.70746E-05 7.19554E-19-4.36391E-18
 -1      2589 1.15716E-04-5.89632E-05-2.42622E-05 3.17277E-05-3.58718E-19-3.50079E-18
 -1      2590 1.45650E-04-1.74676E-05-5.57174E-05-7.65785E-06 1.51195E-18-5.46972E-19
 -1      2591 1.50866E-04-2.56298E-05-5.39710E-05-8.17132E-06 2.04791E-18-1.51492E-18
 -1      2592 1.53367E-04-3.44624E-05-5.14715E-05-5.93406E-06 2.36449E-18-2.53178E-18
 -1      2593 1.50898E-04-4.25437E-05-4.66383E-05-2.91683E-06 2.51209E-18-2.90088E-18
 -1      2594 1.44179E-04-3.02066E-05-4.89697E-05-1.24463E-05 2.30901E-18-4.25740E-19
 -1      2595 1.50548E-04-3.09394E-05-5.14192E-05 9.90323E-06 1.94373E-18-2.26793E-18
 -1      2596 1.45018E-04-2.07038E-05-5.39478E-05 1.09750E-05 1.74192E-18-2.56535E-18
 -1      2597 1.48858E-04-4.96122E-05-4.27039E-05-2.32187E-06-1.17817E-19-2.24803E-18
 -1      2598 1.51944E-04-4.21106E-05-4.76567E-05 4.34463E-06 9.57147E-19-1.38532E-18
 -1      2599 1.45406E-04-5.46983E-05-3.88136E-05-3.64351E-07-2.69932E-19-1.64367E-18
 -1      2600 1.06106E-04-5.67288E-05-2.10232E-05-3.47226E-05 7.46448E-19-1.12994E-18
 -1      2601 1.21002E-04-5.94135E-05-2.65901E-05-3.04022E-05 1.53313E-19-2.37497E-18
 -1      2602 6.30049E-05-4.08463E-05-9.26772E-06-3.92109E-05 4.23516E-22-1.00903E-18
 -1      2603 8.50015E-05-4.94727E-05-1.52939E-05-4.16521E-05 2.27217E-19-6.91391E-19
 -1      2604 9.94420E-05-5.37932E-05-1.92577E-05-3.64424E-05 6.67038E-20-1.01441E-18
 -1      2605 3.31196E-05-2.51435E-05-3.07421E-06-2.63513E-05 4.98902E-19-1.41179E-18
 -1      2606 4.47284E-05-3.08996E-05-5.81459E-06-3.53396E-05-6.60686E-20-1.11427E-18
 -1      2607 1.32425E-04-5.44474E-05-3.34434E-05 2.42507E-05-1.20353E-18-4.47360E-18
 -1      2608 1.19535E-04-5.59684E-05-2.72530E-05 3.00490E-05 1.88888E-19-4.40203E-18
 -1      2609 5.83139E-05-3.68887E-05-9.05770E-06 4.22926E-05 1.09818E-18-1.53419E-18
 -1      2610 4.38670E-05-3.07836E-05-5.30486E-06 3.61154E-05 6.22569E-19-1.55261E-18
 -1      2611 1.38491E-04-9.82776E-06-5.56396E-05-2.89821E-06-3.40910E-18-2.83126E-18
 -1      2612 1.36929E-04-1.41477E-05-5.32730E-05-6.67293E-06-2.88754E-18-2.59933E-18
 -1      2613 1.45469E-04-4.54971E-05-4.32367E-05 8.43801E-06-2.24106E-18-4.07465E-18
 -1      2614 1.38943E-04-5.07845E-05-3.79306E-05 1.50589E-05-1.85003E-18-3.86755E-18
 -1      2615 1.36863E-04-5.56645E-05-3.47259E-05 1.35595E-05-9.08390E-19-3.79047E-18
 -1      2616 1.41559E-04-1.21012E-05-5.59757E-05 4.25111E-06-2.90935E-18-3.81980E-18
 -1      2617 1.40402E-04-9.38874E-06-5.67875E-05 1.09430E-06-3.46225E-18-4.08846E-18
 -1      2618 1.29060E-04-8.61539E-06-5.19206E-05-1.46864E-06-2.94725E-18-2.04392E-18
 -1      2619 1.34709E-04-1.48419E-05-5.16699E-05 7.47320E-06-2.66498E-18-4.19641E-18
 -1      2620 1.26612E-04-5.72067E-05-2.97473E-05-2.62191E-05 6.35063E-19 4.95514E-19
 -1      2621 1.35351E-04-5.55018E-05-3.44782E-05-2.08090E-05 8.81338E-19-8.99973E-20
 -1      2622 9.93269E-05-5.39406E-05-1.93143E-05-3.94417E-05 8.80491E-19-1.93441E-19
 -1      2623 1.15027E-04-5.64887E-05-2.51411E-05-3.54175E-05 1.02110E-18 1.17081E-18
 -1      2624 1.23355E-04-5.94878E-05-2.71561E-05-2.73551E-05 7.84247E-19 6.55074E-19
 -1      2625 1.48537E-04-5.29837E-05-4.13350E-05 7.65869E-06 1.92414E-18-3.92430E-18
 -1      2626 1.38328E-04-5.78208E-05-3.46099E-05 1.61099E-05 1.65373E-18-3.44679E-18
 -1      2627 9.63170E-05-2.50905E-05-3.05515E-05 7.60301E-06 1.54777E-18 6.72127E-19
 -1      2628 9.74398E-05-2.37742E-05-3.15924E-05 1.07023E-05 1.72350E-18 8.45789E-19
 -1      2629 9.58762E-05-2.12995E-05-3.20173E-05 1.19048E-05 1.81579E-18 2.90810E-19
 -1      2630 9.58651E-05-2.41580E-05-3.07649E-05 7.69562E-06 1.53964E-18-4.24418E-20
 -1      2631 2.88330E-05-2.34573E-05-2.16192E-06 2.76170E-05 2.42675E-19-2.30541E-18
 -1      2632 2.04797E-05-2.01995E-05 8.51096E-08 1.47511E-05 1.09606E-18-3.38474E-18
 -1      2633 1.38576E-04-1.32070E-05-5.45611E-05 3.95188E-06 2.33506E-18-2.49525E-18
 -1      2634 1.41728E-04-1.31165E-05-5.55409E-05-2.67059E-06 2.20610E-18-1.39115E-18
 -1      2635 1.11159E-04-5.77558E-05-2.26214E-05 3.24249E-05-1.45245E-18-2.42421E-18
 -1      2636 9.08072E-05-1.50459E-05-3.24598E-05-6.80972E-06-9.13377E-19-1.62459E-18
 -1      2637 8.97152E-05-1.31943E-05-3.28461E-05-7.95923E-06-1.03258E-18-1.67178E-18
 -1      2638 9.03421E-05-1.39120E-05-3.28177E-05-9.19134E-06-1.27796E-18-1.49333E-18
 -1      2639 4.22522E-05-2.18797E-05-8.07951E-06 2.45839E-05-1.04990E-18 4.25846E-19
 -1      2640 9.42357E-05-1.90792E-05-3.22551E-05 1.16142E-05 1.76255E-18-3.92653E-19
 -1      2641 4.20695E-05-2.50196E-05-6.78970E-06 3.17260E-05 6.44169E-19-1.92615E-18
 -1      2642 9.47172E-05-2.69346E-05-2.90623E-05 1.89652E-06 1.10152E-18-5.75218E-19
 -1      2643 9.20454E-05-1.62334E-05-3.25322E-05-1.04005E-05-1.48017E-18-9.07232E-19
 -1      2644 1.43075E-04-4.27265E-05-4.29943E-05-1.65005E-06-2.16343E-18-1.55176E-18
 -1      2645 9.55401E-05-5.20874E-05-1.83020E-05-4.06164E-05 2.74015E-19 9.35521E-19
 -1      2646 7.47748E-05-4.04801E-05-1.41571E-05 3.81550E-05-1.55558E-18 1.72350E-18
 -1      2647 9.62489E-05-2.68628E-05-2.97296E-05 5.27106E-06-1.51310E-18-2.04292E-18
 -1      2648 1.43879E-04-3.45253E-05-4.72283E-05 5.68092E-06-2.78144E-19-1.21930E-18
 -1      2649 1.36131E-04-2.85516E-05-4.65379E-05 1.09396E-05-1.78999E-18-3.39798E-18
 -1      2650 1.39892E-04-3.97105E-05-4.30034E-05 5.71813E-06-1.00479E-19-9.91134E-19
 -1      2651 9.57573E-05-2.61362E-05-2.98423E-05 5.82437E-06-1.68073E-18-1.36112E-18
 -1      2652 1.36817E-04-6.10884E-05-3.23377E-05 1.53394E-05 3.77988E-19-3.43832E-18
 -1      2653 9.65274E-05-2.78773E-05-2.94054E-05-3.77862E-06 7.41320E-19 3.68402E-19
 -1      2654 9.58995E-05-2.70461E-05-2.95088E-05-4.33978E-06 1.48272E-20-1.21789E-19
 -1      2655 9.61437E-05-2.71787E-05-2.95602E-05-5.19992E-06-9.58248E-19 5.38198E-19
 -1      2656 9.70971E-05-2.82210E-05-2.95154E-05-4.27291E-06 4.36249E-19 1.50125E-20
 -1      2657 7.26722E-05-4.23214E-05-1.26521E-05 4.24362E-05 1.06430E-18-2.09238E-18
 -1      2658 6.94791E-05-3.74436E-05-1.32187E-05 4.06990E-05 7.31836E-19-1.94606E-18
 -1      2659 8.65903E-05-4.72807E-05-1.68989E-05 4.07951E-05 1.18712E-18-2.81289E-18
 -1      2660 9.47079E-05-2.06016E-05-3.17155E-05 9.68158E-06 1.60875E-18-5.30097E-19
 -1      2661 1.39705E-04-5.38342E-05-3.68946E-05-9.04390E-06 3.52233E-19-9.92087E-19
 -1      2662 6.17653E-05-3.58226E-05-1.06076E-05-3.67917E-05-2.64910E-19-8.13363E-19
 -1      2663 3.30778E-05-1.95860E-05-5.20774E-06-1.95111E-05 2.50298E-19-1.54711E-18
 -1      2664 1.13386E-04-5.67225E-05-2.41581E-05 3.40536E-05 1.02004E-18-5.33843E-18
 -1      2665 1.05239E-04-5.43349E-05-2.13726E-05 3.67858E-05 1.53355E-18-4.39520E-18
 -1      2666 1.22932E-04-5.89043E-05-2.76043E-05 2.54358E-05 1.12041E-18-4.61045E-18
 -1      2667 1.31008E-04-6.12996E-05-2.97095E-05-1.93879E-05-8.29775E-19-1.87078E-18
 -1      2668 2.55099E-05-1.58470E-05-3.57209E-06 7.94946E-06 1.34601E-18-3.22063E-18
 -1      2669 3.49829E-05-2.22179E-05-5.02382E-06-2.56158E-05 2.09641E-19 9.31101E-19
 -1      2670 1.36905E-04-2.01102E-05-5.04516E-05-9.45188E-06-2.20525E-18-1.56034E-18
 -1      2671 1.33333E-04-2.59965E-05-4.63986E-05-1.08271E-05-2.08052E-18-5.45489E-19
 -1      2672 1.25902E-04-1.45618E-05-4.81921E-05-1.03149E-05-2.12605E-18 4.59780E-19
 -1      2673 1.34795E-04-1.59810E-05-5.11875E-05-6.72890E-06 2.26497E-18-8.39727E-19
 -1      2674 9.70403E-05-2.80672E-05-2.95638E-05-5.15517E-06-8.96598E-19 1.53351E-18
 -1      2675 1.47140E-04-4.92639E-05-4.19702E-05-3.52544E-06 2.33281E-18-2.01975E-18
 -1      2676 1.45406E-04-3.74431E-05-4.64086E-05 1.20641E-05 5.33737E-19-1.62969E-18
 -1      2677 9.57264E-05-2.59365E-05-2.98971E-05 6.99676E-06-2.20474E-18-1.61275E-18
 -1      2678 9.05781E-05-1.51819E-05-3.23350E-05 3.20034E-06 4.91333E-19-1.95125E-18
 -1      2679 9.03894E-05-1.49108E-05-3.23682E-05 2.26512E-06 3.90371E-19-2.07071E-18
 -1      2680 9.02560E-05-1.47082E-05-3.23975E-05 1.42475E-06 2.30312E-19-2.14004E-18
 -1      2681 9.01913E-05-1.46159E-05-3.24087E-05 4.66323E-07 1.01908E-19-2.07067E-18
 -1      2682 9.14423E-05-1.66029E-05-3.20611E-05 1.64427E-06 3.14930E-19-1.99285E-18
 -1      2683 9.21499E-05-1.75561E-05-3.20066E-05 6.48393E-06 1.25609E-18-1.46893E-18
 -1      2684 9.16280E-05-1.67626E-05-3.21076E-05 5.64367E-06 1.09084E-18-1.54021E-18
 -1      2685 9.35616E-05-1.97772E-05-3.16641E-05 7.60828E-06 1.50131E-18-1.17983E-18
 -1      2686 9.27756E-05-1.85250E-05-3.18389E-05 7.02999E-06 1.35276E-18-1.33291E-18
 -1      2687 9.34426E-05-1.98712E-05-3.15080E-05 5.74499E-06 1.20470E-18-1.19998E-18
 -1      2688 1.34863E-04-5.61724E-05-3.36712E-05-9.67765E-06 9.42721E-19-1.10940E-18
 -1      2689 1.39325E-04-5.00552E-05-3.88303E-05-1.51272E-06 1.08169E-18-7.24848E-19
 -1      2690 9.52034E-05-2.39730E-05-3.05159E-05-5.31887E-06-1.12893E-18-4.07842E-19
 -1      2691 9.51487E-05-2.49967E-05-3.00849E-05-3.80008E-06-9.09439E-19-4.11638E-19
 -1      2692 9.52080E-05-2.54069E-05-2.99270E-05 3.99118E-06 1.29928E-18-7.58611E-19
 -1      2693 9.55458E-05-2.45579E-05-3.03909E-05 5.62324E-06 1.33733E-18-5.97157E-19
 -1      2694 9.46994E-05-2.19061E-05-3.12038E-05 7.85422E-06 1.46796E-18-6.48106E-19
 -1      2695 9.44693E-05-2.81184E-05-2.84357E-05-8.91953E-07 4.86553E-19-6.89746E-19
 -1      2696 9.44846E-05-2.79931E-05-2.84852E-05-7.12571E-07 5.86097E-19-5.34702E-19
 -1      2697 9.53577E-05-2.59049E-05-2.97352E-05-2.72379E-06-7.50439E-19-3.87360E-19
 -1      2698 9.51846E-05-2.64847E-05-2.94547E-05-1.73467E-06-5.80246E-19-3.95719E-19
 -1      2699 9.52115E-05-2.47283E-05-3.02171E-05-3.53536E-06-8.46773E-19-5.59715E-19
 -1      2700 9.52119E-05-2.70021E-05-2.92092E-05-9.90809E-07-5.48500E-19-4.06757E-19
 -1      2701 9.50772E-05-2.73559E-05-2.90297E-05-3.84653E-07-5.63563E-19-5.24422E-19
 -1      2702 9.54115E-05-2.63225E-05-2.96149E-05-1.62714E-06-6.05529E-19-3.98662E-19
 -1      2703 9.50446E-05-2.76604E-05-2.88630E-05 8.35299E-08-5.38910E-19-4.80003E-19
 -1      2704 9.49675E-05-2.78830E-05-2.87533E-05 4.36885E-07-5.52138E-19-4.12140E-19
 -1      2705 9.54168E-05-2.73209E-05-2.91914E-05-3.49076E-07-4.93630E-19-4.07578E-19
 -1      2706 9.49259E-05-2.80657E-05-2.86442E-05 7.09879E-07-5.44200E-19-3.40374E-19
 -1      2707 9.48989E-05-2.82096E-05-2.85819E-05 8.97739E-07-4.94941E-19-5.23628E-19
 -1      2708 9.53567E-05-2.79307E-05-2.89037E-05 4.46460E-07-4.97053E-19-4.98740E-19
 -1      2709 9.48647E-05-2.83177E-05-2.85141E-05 1.03838E-06-5.42257E-19-5.71856E-19
 -1      2710 9.48741E-05-2.84107E-05-2.84839E-05 1.12119E-06-3.36809E-19-6.71911E-19
 -1      2711 9.52935E-05-2.83035E-05-2.87155E-05 8.99016E-07-5.38467E-19-3.62567E-19
 -1      2712 9.48509E-05-2.84708E-05-2.84454E-05 1.17706E-06-1.40016E-19-5.76321E-19
 -1      2713 9.48840E-05-2.85290E-05-2.84368E-05 1.19684E-06-1.80391E-19-4.45429E-19
 -1      2714 9.52459E-05-2.85238E-05-2.85994E-05 1.12263E-06-2.05693E-19-6.01535E-19
 -1      2715 9.48709E-05-2.85566E-05-2.84192E-05 1.20298E-06-2.91434E-19-3.38908E-19
 -1      2716 9.49184E-05-2.85899E-05-2.84249E-05 1.18933E-06-3.16092E-19-1.26298E-19
 -1      2717 9.52165E-05-2.86424E-05-2.85349E-05 1.20305E-06-1.51982E-19-1.82214E-19
 -1      2718 9.49132E-05-2.85950E-05-2.84222E-05 1.17136E-06-2.59301E-19 5.54364E-20
 -1      2719 9.49689E-05-2.86098E-05-2.84377E-05 1.14541E-06 5.18578E-20 3.51964E-20
 -1      2720 9.52030E-05-2.86906E-05-2.85076E-05 1.20362E-06-3.15018E-20 1.22105E-19
 -1      2721 9.49698E-05-2.85988E-05-2.84456E-05 1.12214E-06 1.15349E-19 1.60420E-19
 -1      2722 9.50306E-05-2.85998E-05-2.84681E-05 1.09928E-06 8.99859E-20 1.01571E-19
 -1      2723 9.52016E-05-2.86889E-05-2.85071E-05 1.17091E-06 3.02397E-20-7.97140E-20
 -1      2724 9.50361E-05-2.85767E-05-2.84841E-05 1.08474E-06-8.35290E-20-2.20342E-20
 -1      2725 9.51012E-05-2.85671E-05-2.85119E-05 1.07649E-06-7.10882E-20 3.24993E-20
 -1      2726 9.52095E-05-2.86506E-05-2.85266E-05 1.13938E-06-2.22856E-19-2.01876E-19
 -1      2727 9.51105E-05-2.85345E-05-2.85344E-05 1.08144E-06 1.00948E-20-6.04162E-20
 -1      2728 9.51808E-05-2.85170E-05-2.85671E-05 1.09674E-06 9.31569E-20 1.61570E-19
 -1      2729 9.52248E-05-2.85843E-05-2.85613E-05 1.13510E-06-3.00487E-20 2.11882E-19
 -1      2730 9.51939E-05-2.84767E-05-2.85951E-05 1.12976E-06-1.01565E-19 1.79956E-19
 -1      2731 9.52718E-05-2.84536E-05-2.86327E-05 1.17581E-06-1.54602E-19 2.44177E-19
 -1      2732 9.52469E-05-2.84958E-05-2.86086E-05 1.17833E-06 1.06556E-21-2.05749E-20
 -1      2733 9.52892E-05-2.84071E-05-2.86660E-05 1.24397E-06-3.69080E-19 1.16303E-19
 -1      2734 9.53785E-05-2.83807E-05-2.87091E-05 1.32667E-06-5.08414E-19-1.36374E-19
 -1      2735 9.52765E-05-2.83894E-05-2.86669E-05 1.28545E-06-2.76393E-19-2.78116E-19
 -1      2736 9.54015E-05-2.83299E-05-2.87473E-05 1.43588E-06-5.69860E-19-1.82368E-19
 -1      2737 9.55072E-05-2.83034E-05-2.87967E-05 1.55981E-06-5.64058E-19-1.56430E-19
 -1      2738 9.53155E-05-2.82692E-05-2.87352E-05 1.46998E-06-6.23223E-19-2.51490E-19
 -1      2739 9.55384E-05-2.82510E-05-2.88399E-05 1.71467E-06-4.16892E-19-4.00623E-19
 -1      2740 9.56665E-05-2.82291E-05-2.88962E-05 1.88273E-06-1.73574E-19-4.25110E-19
 -1      2741 9.53680E-05-2.81407E-05-2.88129E-05 1.74282E-06-5.74127E-19 6.57560E-22
 -1      2742 9.57102E-05-2.81800E-05-2.89439E-05 2.08601E-06-2.99966E-19-3.27355E-19
 -1      2743 9.58684E-05-2.81697E-05-2.90075E-05 2.29837E-06-4.73972E-19-8.42246E-19
 -1      2744 9.54409E-05-2.80128E-05-2.88991E-05 2.11168E-06-4.50844E-19-1.17178E-18
 -1      2745 9.59314E-05-2.81321E-05-2.90591E-05 2.54991E-06-2.80022E-19-4.94892E-19
 -1      2746 9.61290E-05-2.81440E-05-2.91298E-05 2.80244E-06-2.37645E-19-7.73147E-19
 -1      2747 9.55454E-05-2.79009E-05-2.89923E-05 2.57947E-06-1.72090E-19-9.54158E-19
 -1      2748 9.62225E-05-2.81314E-05-2.91835E-05 3.09739E-06-2.14428E-19-4.70341E-19
 -1      2749 9.64711E-05-2.81816E-05-2.92602E-05 3.37924E-06 2.13930E-22-2.79179E-19
 -1      2750 9.56995E-05-2.78296E-05-2.90895E-05 3.14161E-06-8.88801E-20-4.70897E-19
 -1      2751 9.66126E-05-2.82145E-05-2.93139E-05 3.70554E-06 8.32568E-21-2.03448E-19
 -1      2752 9.69270E-05-2.83259E-05-2.93943E-05 3.99593E-06 1.57278E-19-2.75503E-19
 -1      2753 9.59314E-05-2.78376E-05-2.91864E-05 3.78197E-06 1.68177E-19-4.78640E-19
 -1      2754 9.71431E-05-2.84347E-05-2.94448E-05 4.33079E-06 2.55137E-19-9.66581E-21
 -1      2755 9.75423E-05-2.86384E-05-2.95255E-05 4.59496E-06 3.20313E-19 6.82807E-20
 -1      2756 9.62849E-05-2.79829E-05-2.92773E-05 4.46717E-06 4.70278E-19-4.41874E-19
 -1      2757 9.78724E-05-2.88645E-05-2.95696E-05 4.90024E-06-3.74279E-19-2.55992E-19
 -1      2758 9.83794E-05-2.91998E-05-2.96464E-05 5.08505E-06-2.18010E-19-6.68317E-19
 -1      2759 9.68250E-05-2.83465E-05-2.93557E-05 5.13888E-06-2.96191E-19-3.14123E-19
 -1      2760 9.88777E-05-2.95946E-05-2.96822E-05 5.30127E-06 1.74056E-19-8.48152E-19
 -1      2761 9.95175E-05-3.01037E-05-2.97514E-05 5.33139E-06 1.81528E-19-1.10954E-18
 -1      2762 9.76446E-05-2.90337E-05-2.94167E-05 5.70384E-06-1.39898E-19-4.23697E-19
 -1      2763 1.00252E-04-3.07208E-05-2.97810E-05 5.37085E-06 4.59319E-19-9.05424E-19
 -1      2764 1.01043E-04-3.14343E-05-2.98422E-05 5.14810E-06 5.47660E-19-7.32424E-19
 -1      2765 9.88653E-05-3.01648E-05-2.94611E-05 6.02105E-06 4.41623E-19-8.20161E-19
 -1      2766 1.02081E-04-3.23077E-05-2.98759E-05 4.88896E-06 2.71979E-19-6.39965E-19
 -1      2767 1.03016E-04-3.32134E-05-2.99357E-05 4.30009E-06-3.97061E-19-5.50399E-19
 -1      2768 1.00625E-04-3.18431E-05-2.95034E-05 5.88750E-06 4.87996E-19-8.63877E-19
 -1      2769 1.04390E-04-3.43128E-05-2.99983E-05 3.58975E-06-3.09078E-19-3.82466E-19
 -1      2770 1.05401E-04-3.53019E-05-3.00754E-05 2.53353E-06-1.78489E-20-1.47260E-19
 -1      2771 1.03032E-04-3.40805E-05-2.95828E-05 5.02970E-06-2.86331E-20 1.69747E-19
 -1      2772 1.07041E-04-3.64624E-05-3.02109E-05 1.21937E-06 2.65423E-19 2.47536E-19
 -1      2773 1.07952E-04-3.72622E-05-3.03382E-05-3.33240E-07 3.11017E-19 7.25283E-19
 -1      2774 1.06065E-04-3.66657E-05-2.97756E-05 3.12659E-06 9.65545E-20 1.01478E-18
 -1      2775 1.09586E-04-3.81018E-05-3.06090E-05-2.30745E-06 1.12259E-18 1.17714E-18
 -1      2776 1.10092E-04-3.82432E-05-3.08310E-05-4.19862E-06 1.44809E-18 2.00984E-18
 -1      2777 1.09401E-04-3.89753E-05-3.02002E-05-8.39816E-08 1.33715E-18 1.59489E-18
 -1      2778 1.11173E-04-3.81505E-05-3.13062E-05-6.58769E-06 5.24570E-19 1.64588E-18
 -1      2779 1.10932E-04-3.70892E-05-3.16577E-05-8.33069E-06-4.26691E-19 1.15128E-18
 -1      2780 1.12223E-04-3.98263E-05-3.10067E-05-4.52651E-06 5.90470E-19 1.74993E-18
 -1      2781 1.10827E-04-3.55058E-05-3.23530E-05-1.03039E-05-1.02066E-18 1.66365E-18
 -1      2782 1.09724E-04-3.30889E-05-3.28109E-05-1.10637E-05-7.66796E-19 1.79400E-18
 -1      2783 1.13297E-04-3.78049E-05-3.23094E-05-9.21209E-06-5.71124E-19 1.36690E-18
 -1      2784 1.08253E-04-3.01222E-05-3.36097E-05-1.13363E-05-6.24359E-19 2.12067E-18
 -1      2785 1.06708E-04-2.70959E-05-3.40572E-05-1.02739E-05 1.15474E-19 2.36788E-18
 -1      2786 1.11704E-04-3.22769E-05-3.40007E-05-1.19721E-05-6.33481E-19 3.55398E-18
 -1      2787 1.04870E-04-2.41630E-05-3.46966E-05-7.93599E-06 5.96009E-19 2.55428E-18
 -1      2788 1.03808E-04-2.21503E-05-3.49645E-05-5.06361E-06 1.04797E-18 2.59703E-18
 -1      2789 1.08223E-04-2.51010E-05-3.56523E-05-1.01034E-05-3.81496E-21 3.36965E-18
 -1      2790 1.03085E-04-2.11883E-05-3.51545E-05-7.07602E-07 8.59447E-19 1.34202E-18
 -1      2791 1.03389E-04-2.16934E-05-3.50751E-05 2.77830E-06 6.86825E-19 1.34365E-18
 -1      2792 1.05432E-04-2.02583E-05-3.65619E-05-3.34934E-06-3.19292E-19 9.15047E-19
 -1      2793 1.04562E-04-2.35129E-05-3.46866E-05 6.52935E-06 3.21475E-19 4.04389E-19
 -1      2794 1.05856E-04-2.60463E-05-3.43225E-05 8.89698E-06 5.96563E-20 2.62014E-19
 -1      2795 1.06159E-04-2.13965E-05-3.63933E-05 5.26003E-06-3.90098E-19-7.31643E-19
 -1      2796 1.07769E-04-2.92890E-05-3.35725E-05 1.03004E-05 6.83450E-20 2.20253E-19
 -1      2797 1.09209E-04-3.22821E-05-3.30790E-05 1.06379E-05-3.92459E-19-1.38053E-19
 -1      2798 1.09451E-04-2.76017E-05-3.50822E-05 1.05995E-05-3.39806E-19-6.73160E-19
 -1      2799 1.10253E-04-3.48958E-05-3.22760E-05 9.57110E-06-7.60680E-19-3.11157E-19
 -1      2800 1.11019E-04-3.68860E-05-3.18254E-05 8.30292E-06-3.56369E-19 3.89391E-20
 -1      2801 1.12541E-04-3.47043E-05-3.33092E-05 1.05440E-05-8.23194E-19-7.21497E-19
 -1      2802 1.10656E-04-3.79334E-05-3.11887E-05 5.98259E-06-7.38623E-19 5.28671E-19
 -1      2803 1.10533E-04-3.85183E-05-3.08627E-05 4.03559E-06-1.11558E-18 7.88327E-19
 -1      2804 1.13170E-04-3.91158E-05-3.16945E-05 6.68766E-06-2.48208E-19-6.79942E-21
 -1      2805 1.09185E-04-3.82198E-05-3.04537E-05 1.66614E-06-9.77660E-19 1.14000E-18
 -1      2806 1.08421E-04-3.77716E-05-3.02496E-05-2.23610E-07-8.49365E-19 1.73083E-18
 -1      2807 1.11320E-04-4.00220E-05-3.05496E-05 1.75202E-06-6.28225E-19-1.99285E-19
 -1      2808 1.06720E-04-3.67462E-05-3.00275E-05-2.05332E-06-7.55290E-19 2.70877E-18
 -1      2809 1.05659E-04-3.57926E-05-2.99068E-05-3.50837E-06-8.36888E-19 2.94013E-18
 -1      2810 1.08163E-04-3.84957E-05-2.98793E-05-2.46652E-06-2.44792E-19 1.48609E-18
 -1      2811 1.04060E-04-3.45775E-05-2.98061E-05-4.65937E-06-6.32587E-19 2.82207E-18
 -1      2812 1.02964E-04-3.35190E-05-2.97299E-05-5.58661E-06 6.39890E-19 2.18643E-18
 -1      2813 1.04806E-04-3.59154E-05-2.95550E-05-5.34848E-06-3.79353E-19 2.79821E-18
 -1      2814 1.01657E-04-3.24061E-05-2.96955E-05-6.14921E-06 1.17697E-18 1.62697E-18
 -1      2815 1.00659E-04-3.14430E-05-2.96385E-05-6.59210E-06 6.96715E-19 1.53211E-18
 -1      2816 1.01884E-04-3.32581E-05-2.94389E-05-6.93939E-06 4.13338E-19 1.34561E-18
 -1      2817 9.96604E-05-3.05302E-05-2.96362E-05-6.70514E-06-1.58301E-19 1.12595E-18
 -1      2818 9.87984E-05-2.97174E-05-2.95877E-05-6.75167E-06-1.14944E-18 3.14121E-19
 -1      2819 9.95842E-05-3.09595E-05-2.94307E-05-7.50672E-06-2.90824E-19-6.70432E-19
 -1      2820 9.80442E-05-2.89851E-05-2.96007E-05-6.52964E-06-9.18428E-19 7.13576E-19
 -1      2821 9.73225E-05-2.83207E-05-2.95602E-05-6.24884E-06-1.67902E-19 4.00222E-19
 -1      2822 9.78446E-05-2.90969E-05-2.94749E-05-7.31667E-06-8.18082E-19-1.07049E-18
 -1      2823 9.45441E-05-2.78437E-05-2.85867E-05-4.33667E-07 5.39508E-19-6.25435E-19
 -1      2824 9.46322E-05-2.76581E-05-2.86848E-05-8.79483E-08 5.81397E-19-6.25428E-19
 -1      2825 9.50048E-05-2.79029E-05-2.87664E-05-4.47060E-07 5.42109E-19-7.80791E-19
 -1      2826 9.45217E-05-2.84109E-05-2.83318E-05-1.17708E-06-1.75326E-19-4.34620E-19
 -1      2827 9.44598E-05-2.83506E-05-2.83294E-05-1.16308E-06 2.00829E-21-6.74041E-19
 -1      2828 9.46062E-05-2.84811E-05-2.83377E-05-1.16156E-06 2.35266E-19-3.63368E-19
 -1      2829 9.45286E-05-2.84405E-05-2.83225E-05-1.18025E-06-3.15828E-20-2.41394E-19
 -1      2830 9.49043E-05-2.85405E-05-2.84449E-05-1.21131E-06-1.02247E-19-4.88617E-19
 -1      2831 9.47098E-05-2.85190E-05-2.83656E-05-1.10872E-06 5.13716E-19-2.20325E-19
 -1      2832 9.46245E-05-2.84935E-05-2.83422E-05-1.13964E-06 5.70796E-19-2.78784E-19
 -1      2833 9.49347E-05-2.85982E-05-2.84322E-05-1.20394E-06 2.63218E-19-2.58835E-19
 -1      2834 9.48248E-05-2.85324E-05-2.84089E-05-1.05234E-06 5.67287E-19-2.58052E-19
 -1      2835 9.47357E-05-2.85187E-05-2.83798E-05-1.08061E-06 5.16355E-19-1.62166E-19
 -1      2836 9.49817E-05-2.86147E-05-2.84447E-05-1.16110E-06 5.99955E-19-7.80039E-21
 -1      2837 9.49482E-05-2.85266E-05-2.84638E-05-1.01792E-06 3.05795E-19-2.55635E-19
 -1      2838 9.48561E-05-2.85222E-05-2.84304E-05-1.03219E-06 5.16728E-19-2.72545E-19
 -1      2839 9.50401E-05-2.86002E-05-2.84756E-05-1.11791E-06 6.39764E-19 2.45086E-20
 -1      2840 9.50809E-05-2.85051E-05-2.85293E-05-1.02581E-06 5.13167E-20-3.20712E-19
 -1      2841 9.49840E-05-2.85082E-05-2.84915E-05-1.01685E-06 1.24580E-19-4.27915E-19
 -1      2842 9.51069E-05-2.85611E-05-2.85207E-05-1.10123E-06 2.53124E-19 2.94229E-19
 -1      2843 9.52264E-05-2.84702E-05-2.86059E-05-1.09356E-06 5.24321E-20-2.77592E-19
 -1      2844 9.51210E-05-2.84793E-05-2.85627E-05-1.05317E-06 1.30041E-19-8.03538E-20
 -1      2845 9.51815E-05-2.85010E-05-2.85785E-05-1.13273E-06-1.04215E-19-1.55977E-20
 -1      2846 9.53905E-05-2.84232E-05-2.86954E-05-1.23769E-06 1.36866E-19-2.44230E-19
 -1      2847 9.52715E-05-2.84371E-05-2.86454E-05-1.15792E-06 4.99917E-20-5.68441E-20
 -1      2848 9.52647E-05-2.84211E-05-2.86484E-05-1.23126E-06 4.55524E-20 2.24746E-19
 -1      2849 9.55809E-05-2.83646E-05-2.88009E-05-1.47490E-06-2.48549E-19 1.16878E-19
 -1      2850 9.54417E-05-2.83822E-05-2.87420E-05-1.34751E-06 1.18247E-19-1.01811E-19
 -1      2851 9.53582E-05-2.83212E-05-2.87315E-05-1.41457E-06 6.02752E-20 5.30771E-21
 -1      2852 9.58065E-05-2.82947E-05-2.89261E-05-1.82286E-06-5.43839E-19-2.00824E-19
 -1      2853 9.56393E-05-2.83150E-05-2.88558E-05-1.63902E-06-2.83395E-19 2.15572E-20
 -1      2854 9.54646E-05-2.81997E-05-2.88292E-05-1.70047E-06-1.87964E-19 1.96705E-20
 -1      2855 9.60771E-05-2.82144E-05-2.90749E-05-2.30026E-06 1.43230E-19-6.27587E-19
 -1      2856 9.58731E-05-2.82355E-05-2.89904E-05-2.05064E-06-4.38821E-19-5.74027E-19
 -1      2857 9.55860E-05-2.80547E-05-2.89434E-05-2.10744E-06-7.22287E-20-9.67752E-19
 -1      2858 9.64033E-05-2.81261E-05-2.92506E-05-2.92612E-06 1.07442E-18-9.85116E-19
 -1      2859 9.61527E-05-2.81451E-05-2.91495E-05-2.60141E-06 7.04516E-19-8.01734E-19
 -1      2860 9.57245E-05-2.78847E-05-2.90756E-05-2.65459E-06 7.04623E-19-8.30450E-19
 -1      2861 9.67969E-05-2.80369E-05-2.94556E-05-3.71767E-06 1.06484E-18-9.19515E-19
 -1      2862 9.64887E-05-2.80479E-05-2.93358E-05-3.31001E-06 1.39061E-18-5.47730E-19
 -1      2863 9.58821E-05-2.76908E-05-2.92260E-05-3.36070E-06 8.98775E-19-1.11392E-18
 -1      2864 9.72724E-05-2.79626E-05-2.96893E-05-4.68621E-06 3.59929E-19-5.25551E-19
 -1      2865 9.68940E-05-2.79546E-05-2.95502E-05-4.19191E-06 3.66496E-19-8.35489E-19
 -1      2866 9.60616E-05-2.74807E-05-2.93927E-05-4.24216E-06 8.63167E-19-4.82482E-19
 -1      2867 9.78516E-05-2.79373E-05-2.99470E-05-5.82963E-06-5.66112E-19-3.56207E-19
 -1      2868 9.73868E-05-2.78890E-05-2.97901E-05-5.25403E-06 2.43799E-19-3.11039E-19
 -1      2869 9.62706E-05-2.72755E-05-2.95698E-05-5.30904E-06 1.47735E-20-5.75344E-19
 -1      2870 9.85738E-05-2.80277E-05-3.02170E-05-7.11996E-06-1.25530E-18-9.13138E-19
 -1      2871 9.79987E-05-2.79000E-05-3.00476E-05-6.48558E-06-1.03794E-18-2.07222E-19
 -1      2872 9.65291E-05-2.71222E-05-2.97464E-05-6.55878E-06-6.78726E-19-2.38316E-20
 -1      2873 9.95146E-05-2.83568E-05-3.04799E-05-8.48365E-06-1.26437E-18-7.74858E-19
 -1      2874 9.87899E-05-2.80809E-05-3.03074E-05-7.84285E-06-1.27043E-18-8.21449E-19
 -1      2875 9.68865E-05-2.71149E-05-2.99041E-05-7.96623E-06-1.27261E-18-8.17096E-19
 -1      2876 1.00818E-04-2.91345E-05-3.07083E-05-9.77187E-06-6.22775E-19-1.29355E-18
 -1      2877 9.98772E-05-2.85980E-05-3.05467E-05-9.22497E-06-6.03929E-19-7.26300E-19
 -1      2878 9.74514E-05-2.74252E-05-3.00178E-05-9.46819E-06-1.05469E-18-2.40848E-19
 -1      2879 1.02740E-04-3.06823E-05-3.08753E-05-1.07180E-05-4.08207E-19-1.26358E-18
 -1      2880 1.01475E-04-2.97217E-05-3.07388E-05-1.04365E-05-4.77457E-19-1.51459E-18
 -1      2881 9.84397E-05-2.83409E-05-3.00599E-05-1.09383E-05-3.96742E-19-8.37700E-19
 -1      2882 1.05677E-04-3.34137E-05-3.09764E-05-1.08805E-05-1.12275E-18-9.16695E-19
 -1      2883 1.03943E-04-3.18392E-05-3.08677E-05-1.11307E-05-8.89140E-19-1.15651E-18
 -1      2884 1.00238E-04-3.02939E-05-3.00147E-05-1.21431E-05-7.77384E-19-1.20721E-18
 -1      2885 1.10106E-04-3.76500E-05-3.10831E-05-9.56857E-06-1.01333E-18-2.68969E-19
 -1      2886 1.07794E-04-3.53785E-05-3.09663E-05-1.07164E-05-1.11670E-18-5.12802E-19
 -1      2887 1.03462E-04-3.38287E-05-2.99158E-05-1.26550E-05-1.49832E-18-8.57666E-19
 -1      2888 1.16242E-04-4.30791E-05-3.14238E-05-5.85129E-06-3.21571E-19 7.41289E-19
 -1      2889 1.13485E-04-4.04598E-05-3.11910E-05-8.28437E-06-1.47013E-19 3.38089E-19
 -1      2890 1.08868E-04-3.92959E-05-2.99299E-05-1.16577E-05-1.28790E-18-4.82968E-19
 -1      2891 1.23407E-04-4.77743E-05-3.24835E-05 1.15306E-06 2.10891E-19-7.45190E-19
 -1      2892 1.20883E-04-4.61521E-05-3.19097E-05-2.73386E-06-2.00225E-19-6.04173E-21
 -1      2893 1.16904E-04-4.61446E-05-3.04612E-05-7.99303E-06 1.18214E-19-7.00986E-19
 -1      2894 1.29120E-04-4.73280E-05-3.50689E-05 1.06308E-05-4.36420E-19-9.83048E-19
 -1      2895 1.28027E-04-4.90882E-05-3.37943E-05 6.07264E-06-3.56217E-20-9.19137E-19
 -1      2896 1.26269E-04-5.10988E-05-3.22792E-05-1.71282E-07 3.55423E-20-1.57872E-18
 -1      2897 1.22140E-04-2.24934E-05-4.29420E-05 1.23667E-05 8.38033E-19 2.37831E-19
 -1      2898 1.24877E-04-2.90773E-05-4.16089E-05 1.67006E-05 1.15991E-19 2.20414E-19
 -1      2899 1.21387E-04-1.64943E-05-4.56551E-05-3.11126E-06 2.13251E-18-1.20168E-18
 -1      2900 1.21967E-04-1.69301E-05-4.54891E-05 4.50715E-06 1.91334E-18-6.82894E-19
 -1      2901 1.30000E-04-4.27233E-05-3.76992E-05-1.52673E-05-1.15461E-19-1.02234E-18
 -1      2902 1.28026E-04-3.62294E-05-3.95118E-05-1.61405E-05 7.93829E-19-1.93826E-18
 -1      2903 1.27883E-04-4.88774E-05-3.39116E-05-6.20853E-06-1.05160E-18-1.55924E-18
 -1      2904 1.28582E-04-4.67956E-05-3.51697E-05-1.03294E-05-2.80897E-19-1.45516E-18
 -1      2905 1.33639E-04-4.83182E-05-3.67388E-05-1.06146E-05-1.94871E-19-1.99572E-18
 -1      2906 1.21062E-04-4.65538E-05-3.18211E-05 3.06492E-06-2.06566E-18-1.96010E-18
 -1      2907 1.23555E-04-4.79702E-05-3.24661E-05-9.73962E-07-1.42480E-18-2.09895E-18
 -1      2908 1.26948E-04-5.12677E-05-3.24413E-05-2.40210E-07-9.27269E-19-3.49921E-18
 -1      2909 1.13483E-04-4.08974E-05-3.10055E-05 9.02924E-06 1.61800E-19-2.02542E-18
 -1      2910 1.16337E-04-4.35121E-05-3.12800E-05 6.42008E-06-1.50070E-18-2.29614E-18
 -1      2911 1.17444E-04-4.67663E-05-3.04453E-05 8.41463E-06-1.24047E-18-3.83818E-18
 -1      2912 1.07543E-04-3.57295E-05-3.07106E-05 1.18419E-05 1.18598E-18-2.55262E-18
 -1      2913 1.09988E-04-3.80728E-05-3.08598E-05 1.05242E-05 1.07437E-18-1.83888E-18
 -1      2914 1.09234E-04-3.99490E-05-2.98140E-05 1.26062E-05 8.35943E-19-4.95237E-18
 -1      2915 1.03395E-04-3.19825E-05-3.05715E-05 1.25412E-05 1.97522E-18-1.87371E-18
 -1      2916 1.05286E-04-3.36756E-05-3.07025E-05 1.21730E-05 1.74393E-18-2.12524E-18
 -1      2917 1.03576E-04-3.43617E-05-2.97460E-05 1.39708E-05 1.15449E-18-3.69325E-18
 -1      2918 1.00650E-04-2.96167E-05-3.04284E-05 1.19963E-05 9.87718E-19-1.04063E-18
 -1      2919 1.02074E-04-3.07177E-05-3.05774E-05 1.22225E-05 1.36634E-18-1.48398E-18
 -1      2920 1.00083E-04-3.05779E-05-2.98318E-05 1.37056E-05 1.16226E-18-2.15921E-18
 -1      2921 9.87856E-05-2.81803E-05-3.02525E-05 1.07819E-05 2.13344E-19-1.06235E-18
 -1      2922 9.98835E-05-2.88929E-05-3.04131E-05 1.13567E-05 1.03961E-18-9.45269E-19
 -1      2923 9.80515E-05-2.83329E-05-2.99001E-05 1.26071E-05 6.88629E-19-2.30098E-18
 -1      2924 9.74344E-05-2.72544E-05-3.00667E-05 9.18507E-06-2.13275E-18-1.37678E-18
 -1      2925 9.83006E-05-2.77505E-05-3.02203E-05 9.96472E-06-1.38418E-18-1.60340E-18
 -1      2926 9.68158E-05-2.70285E-05-2.99200E-05 1.10880E-05 5.48580E-19-1.21977E-18
 -1      2927 9.61797E-05-2.63798E-05-2.98998E-05 7.65709E-06-2.43962E-18-2.11846E-18
 -1      2928 9.68889E-05-2.67934E-05-3.00207E-05 8.59591E-06-2.71594E-18-2.65142E-18
 -1      2929 9.57378E-05-2.60575E-05-2.98870E-05 9.58431E-06-1.65097E-18-1.71918E-18
 -1      2930 9.48185E-05-2.51332E-05-2.98920E-05 8.18824E-06-3.44300E-18-2.63597E-18
 -1      2931 8.91490E-05-2.01065E-05-2.95929E-05-1.32059E-06 8.41881E-19-1.00517E-18
 -1      2932 8.89504E-05-1.99417E-05-2.95953E-05 4.31155E-08 1.09760E-18-6.48033E-19
 -1      2933 8.95624E-05-2.04402E-05-2.96477E-05 4.53786E-06-7.71828E-19 1.02926E-18
 -1      2934 9.01633E-05-2.09823E-05-2.96485E-05 5.67344E-06-1.18774E-18 8.07319E-19
 -1      2935 9.01037E-05-2.10376E-05-2.95923E-05-3.92205E-06 5.38659E-19 3.40270E-19
 -1      2936 8.95781E-05-2.05692E-05-2.96026E-05-2.78070E-06 5.15256E-19-8.77910E-19
 -1      2937 8.86398E-05-2.05384E-05-2.91665E-05-2.39873E-06 2.04508E-19-1.05081E-18
 -1      2938 8.89251E-05-1.98758E-05-2.96082E-05 1.66404E-06 4.07963E-19-5.48249E-19
 -1      2939 8.91331E-05-2.00692E-05-2.96071E-05 3.03526E-06 3.21824E-19 9.92761E-19
 -1      2940 8.85707E-05-2.03048E-05-2.92342E-05 4.09685E-06-7.32017E-19 2.65233E-18
 -1      2941 8.81112E-05-1.99955E-05-2.91666E-05 8.23186E-07 7.24853E-19-4.44104E-19
 -1      2942 1.42775E-04-4.48605E-05-4.25048E-05-1.06541E-05 2.04961E-18-1.25043E-18
 -1      2943 1.42463E-04-5.37306E-05-3.80927E-05-2.95071E-06 1.89537E-18-2.71559E-18
 -1      2944 9.14960E-05-2.24083E-05-2.95943E-05-5.75809E-06-2.25266E-19-8.35108E-19
 -1      2945 9.07924E-05-2.17552E-05-2.96152E-05-4.98924E-06 9.56101E-19 4.38869E-20
 -1      2946 8.99490E-05-2.17519E-05-2.92167E-05-5.02365E-06 6.96261E-19 2.65663E-19
 -1      2947 9.30676E-05-2.39825E-05-2.95901E-05-6.74330E-06-4.41172E-19 2.13599E-18
 -1      2948 9.23014E-05-2.32362E-05-2.96219E-05-6.37126E-06-6.82259E-19 1.72511E-18
 -1      2949 9.16841E-05-2.33322E-05-2.92942E-05-6.74725E-06-4.63361E-19-3.53269E-19
 -1      2950 9.45431E-05-2.54914E-05-2.95774E-05-6.86395E-06-6.97143E-20 2.07807E-18
 -1      2951 9.38422E-05-2.47688E-05-2.96165E-05-6.88757E-06-2.54040E-19 2.49305E-18
 -1      2952 9.35165E-05-2.49777E-05-2.93810E-05-7.49487E-06-5.30076E-19 2.95218E-18
 -1      2953 5.76274E-05-3.16376E-05-1.06333E-05-3.74885E-05 2.65121E-19 8.60480E-19
 -1      2954 7.24215E-05-3.96222E-05-1.38977E-05-4.16233E-05-4.45963E-19 5.23890E-19
 -1      2955 9.47133E-05-2.74092E-05-2.88475E-05 3.97925E-07 6.86863E-19-6.92902E-19
 -1      2956 9.48945E-05-2.71173E-05-2.90197E-05 1.00381E-06 8.50918E-19-6.71236E-19
 -1      2957 9.51250E-05-2.73764E-05-2.90448E-05 3.83342E-07 6.68093E-19-8.14143E-19
 -1      2958 1.38434E-04-5.98296E-05-3.41184E-05 7.24863E-06 2.14882E-19-2.04198E-18
 -1      2959 1.30966E-04-6.07642E-05-2.98975E-05 1.56779E-05-1.22576E-18-3.05477E-18
 -1      2960 1.36608E-04-3.87675E-05-4.24760E-05-8.35313E-06-2.24548E-18 2.34840E-19
 -1      2961 1.37834E-04-4.77050E-05-3.88748E-05-1.80669E-06-1.23275E-18-1.23995E-18
 -1      2962 1.40474E-04-5.70137E-05-3.57766E-05-3.76883E-07-7.67902E-19-8.17493E-19
 -1      2963 1.42259E-04-5.16429E-05-3.94526E-05 6.37053E-06-3.28940E-19-7.74082E-19
 -1      2964 8.85687E-05-4.75006E-05-1.70931E-05-4.01512E-05-1.23667E-19-6.06158E-19
 -1      2965 1.03957E-04-5.41133E-05-2.14783E-05-3.64411E-05 9.60641E-19 1.19358E-18
 -1      2966 1.35844E-04-2.73267E-05-4.70948E-05-1.51673E-05 1.82303E-18-6.49145E-19
 -1      2967 1.39356E-04-3.48952E-05-4.51765E-05-1.48920E-05 1.98756E-18-1.03010E-18
 -1      2968 3.48832E-05-1.29087E-05-9.10958E-06 3.81536E-06-1.18993E-18 4.74550E-19
 -1      2969 3.42828E-05-1.35578E-05-8.20807E-06-8.88054E-06-1.51897E-18 1.60555E-18
 -1      2970 1.26245E-04-2.01119E-05-4.59032E-05-1.05561E-05 2.00239E-18-1.25694E-18
 -1      2971 3.16099E-05-1.44346E-05-6.90970E-06 1.51076E-05 1.10660E-18-3.60074E-18
 -1      2972 2.91550E-05-1.25546E-05-6.62098E-06 1.14759E-06 6.09771E-19-2.72469E-18
 -1      2973 9.44697E-05-2.82964E-05-2.83590E-05-1.10890E-06 2.80849E-19-9.50839E-19
 -1      2974 9.44367E-05-2.82094E-05-2.83768E-05-1.03325E-06 4.72645E-19-8.04024E-19
 -1      2975 9.49294E-05-2.82274E-05-2.85930E-05-9.11239E-07 5.65221E-19-7.98940E-19
 -1      2976 9.48991E-05-2.84256E-05-2.84933E-05-1.13561E-06 1.46308E-20-6.14097E-19
 -1      2977 9.28493E-05-1.80080E-05-3.20737E-05-8.82117E-06-1.35403E-18-9.16605E-19
 -1      2978 1.34133E-04-2.07889E-05-4.91171E-05 1.19248E-05 1.84484E-18-2.37593E-18
 -1      2979 1.38685E-04-1.60066E-05-5.31053E-05 8.00856E-06 2.26708E-18-2.40081E-18
 -1      2980 5.32396E-05-2.39275E-05-1.23845E-05 2.91434E-05-4.24311E-19 1.33450E-18
 -1      2981 4.24150E-05-1.63349E-05-1.05165E-05 1.74579E-05-2.32405E-19-4.23516E-20
 -1      2982 9.11911E-05-1.60953E-05-3.22118E-05 4.92541E-06 9.32227E-19-1.69860E-18
 -1      2983 9.08510E-05-1.55975E-05-3.22732E-05 4.00194E-06 6.70366E-19-1.80667E-18
 -1      2984 9.18310E-05-1.72090E-05-3.19656E-05 3.20452E-06 5.68450E-19-1.76193E-18
 -1      2985 9.24945E-05-1.82671E-05-3.17918E-05 4.62367E-06 8.86220E-19-1.46798E-18
 -1      2986 3.26079E-05-1.45392E-05-7.12100E-06-1.19049E-05 4.34740E-19-1.25424E-18
 -1      2987 4.17965E-05-2.03079E-05-8.97812E-06-2.51295E-05 2.17052E-20-1.03253E-18
 -1      2988 9.19458E-05-4.85665E-05-1.81280E-05-3.60615E-05-1.07467E-19-9.89546E-19
 -1      2989 1.09904E-04-5.67126E-05-2.29934E-05-3.15582E-05 9.74088E-21-9.84835E-19
 -1      2990 1.25195E-04-6.05119E-05-2.74192E-05-2.08127E-05-8.74350E-19-1.66929E-18
 -1      2991 1.35156E-04-6.08843E-05-3.21809E-05-1.15675E-05-1.01183E-18-2.29758E-18
 -1      2992 9.08157E-05-1.55504E-05-3.22783E-05-3.93789E-06-5.02332E-19-1.86189E-18
 -1      2993 9.11480E-05-1.60358E-05-3.22183E-05-4.86465E-06-6.39803E-19-1.80330E-18
 -1      2994 9.49691E-05-2.66871E-05-2.92694E-05 1.79280E-06 1.01989E-18-7.32396E-19
 -1      2995 9.52365E-05-2.61901E-05-2.95543E-05 2.80105E-06 1.11813E-18-7.05516E-19
 -1      2996 9.52661E-05-2.50213E-05-3.01025E-05 3.83324E-06 1.19982E-18-9.58476E-19
 -1      2997 9.52495E-05-2.65007E-05-2.94706E-05 1.74622E-06 9.80873E-19-8.48173E-19
 -1      2998 9.64976E-05-2.75282E-05-2.95496E-05-5.58484E-06-4.02530E-19 1.44094E-19
 -1      2999 9.59929E-05-2.69889E-05-2.95737E-05-5.98467E-06 2.12717E-19-1.18560E-18
 -1      3000 9.69257E-05-2.79106E-05-2.95762E-05-5.93321E-06 2.06013E-19-6.63585E-19
 -1      3001 1.37219E-04-5.31197E-05-3.64141E-05 4.79936E-06-4.55386E-19-1.98587E-18
 -1      3002 1.32470E-04-5.65232E-05-3.26527E-05 1.19996E-05-9.37030E-21-2.09302E-18
 -1      3003 1.34680E-04-4.97710E-05-3.64889E-05-2.33384E-06-1.98470E-19 2.89579E-20
 -1      3004 5.88132E-05-2.93405E-05-1.20080E-05-3.29624E-05-3.50883E-19-6.35486E-19
 -1      3005 7.49922E-05-3.93527E-05-1.51161E-05-3.80320E-05-3.30660E-19-5.91017E-19
 -1      3006 8.64936E-05-4.34231E-05-1.84943E-05 3.64850E-05-1.50475E-18-4.73809E-19
 -1      3007 6.89856E-05-3.29311E-05-1.49187E-05 3.41621E-05-9.28189E-19 1.23074E-18
 -1      3008 3.61089E-05-1.66653E-05-7.80575E-06-1.91585E-05-1.30951E-18 1.38596E-18
 -1      3009 4.55366E-05-2.38610E-05-8.86136E-06-3.14302E-05-7.60106E-19 7.46448E-19
 -1      3010 5.76304E-05-2.67627E-05-1.26836E-05-3.20511E-05-1.39734E-18 1.23699E-18
 -1      3011 4.34043E-05-1.53238E-05-1.14577E-05-1.43986E-05-1.91265E-18 1.50221E-18
 -1      3012 1.18322E-04-5.81103E-05-2.54638E-05-2.74005E-05 2.05517E-18 1.33196E-19
 -1      3013 1.27287E-04-5.96893E-05-2.93122E-05-2.05409E-05 1.54764E-18-1.47521E-18
 -1      3014 1.42126E-04-4.32530E-05-4.25329E-05 1.31438E-05-5.03138E-19-8.55397E-19
 -1      3015 1.37995E-04-3.31634E-05-4.56079E-05 1.59739E-05-2.79627E-19-1.45467E-18
 -1      3016 5.18488E-05-2.61443E-05-1.06404E-05 3.41442E-05 5.82759E-19-1.45647E-18
 -1      3017 3.90559E-05-1.89825E-05-7.97451E-06 2.50282E-05 8.03464E-19-2.21393E-18
 -1      3018 4.22479E-05-1.61565E-05-1.05323E-05 1.85944E-05 6.41680E-19-2.43151E-18
 -1      3019 1.28629E-04-1.42846E-05-4.94443E-05 4.96054E-06 2.43607E-18-1.96062E-18
 -1      3020 1.20544E-04-5.99669E-05-2.61537E-05 2.60634E-05-1.13015E-18-3.58922E-18
 -1      3021 1.04867E-04-5.31698E-05-2.17896E-05 3.19008E-05-1.41730E-18-2.72043E-18
 -1      3022 1.24734E-04-5.88319E-05-2.82857E-05 1.75507E-05-1.59242E-18-2.30999E-18
 -1      3023 1.34739E-04-2.59230E-05-4.70953E-05 1.56552E-05 6.23734E-19-1.26854E-18
 -1      3024 1.28059E-04-2.03122E-05-4.66770E-05 1.29220E-05 1.56998E-18-1.38426E-18
 -1      3025 9.15724E-05-1.66903E-05-3.21164E-05-5.59245E-06-7.36354E-19-1.57806E-18
 -1      3026 9.20460E-05-1.74457E-05-3.20218E-05-6.44791E-06-9.81144E-19-1.44853E-18
 -1      3027 9.24499E-05-1.82001E-05-3.18013E-05-4.57880E-06-6.14606E-19-1.54869E-18
 -1      3028 9.13106E-05-1.64001E-05-3.20923E-05 2.83855E-08 7.12899E-20-1.93846E-18
 -1      3029 9.01872E-05-1.46109E-05-3.24093E-05-3.83876E-07 1.15637E-20-2.03805E-18
 -1      3030 9.02433E-05-1.46911E-05-3.23992E-05-1.34287E-06-1.03962E-19-2.00459E-18
 -1      3031 1.36562E-04-4.43384E-05-3.96407E-05 5.91204E-06 7.07008E-19-1.14318E-18
 -1      3032 1.30626E-04-5.71042E-05-3.15288E-05-1.12040E-05 2.49208E-18-2.32177E-18
 -1      3033 9.67154E-05-2.78268E-05-2.95316E-05-6.72435E-06-3.39664E-19-2.22630E-18
 -1      3034 6.27137E-05-3.10725E-05-1.29426E-05 3.66898E-05 4.65233E-19-1.65087E-18
 -1      3035 5.82545E-05-2.53267E-05-1.37027E-05 3.15089E-05 3.50301E-19-2.02515E-18
 -1      3036 7.37401E-05-3.61259E-05-1.59003E-05 3.67758E-05 7.55606E-19-1.91874E-18
 -1      3037 9.43512E-05-2.14247E-05-3.12586E-05 7.22824E-06 1.48211E-18-9.84858E-19
 -1      3038 6.80603E-05-2.79712E-05-1.66593E-05 2.83483E-05-4.21505E-19 6.11928E-19
 -1      3039 1.17744E-04-5.72870E-05-2.57815E-05-2.32812E-05-3.35954E-19-1.71817E-18
 -1      3040 4.63159E-05-1.48162E-05-1.29074E-05 9.60735E-06-2.18429E-19 9.25066E-19
 -1      3041 9.46129E-05-2.24685E-05-3.09120E-05 5.70322E-06 1.35437E-18-1.07256E-18
 -1      3042 9.03677E-05-1.48821E-05-3.23712E-05-2.18081E-06-1.82671E-19-1.80223E-18
 -1      3043 9.05510E-05-1.51458E-05-3.23385E-05-3.13334E-06-3.98712E-19-1.79401E-18
 -1      3044 9.18006E-05-1.71663E-05-3.19708E-05-3.14697E-06-4.18604E-19-1.71592E-18
 -1      3045 9.14280E-05-1.65832E-05-3.20634E-05-1.58560E-06-1.40718E-19-1.78583E-18
 -1      3046 1.32139E-04-4.74951E-05-3.63406E-05 1.20790E-05-9.15537E-19-6.77203E-19
 -1      3047 1.34761E-04-5.34706E-05-3.50340E-05 5.57548E-06-1.34544E-18-1.71117E-18
 -1      3048 1.28497E-04-3.49056E-05-4.03371E-05 1.76337E-05-7.66565E-19 3.65495E-19
 -1      3049 1.30271E-04-4.14736E-05-3.85371E-05 1.61221E-05-7.00284E-19-1.66733E-19
 -1      3050 1.33815E-04-3.70654E-05-4.17287E-05-1.65024E-05 9.67735E-19-1.57728E-18
 -1      3051 1.26637E-04-3.16507E-05-4.10599E-05-1.66664E-05 1.78057E-18-2.64843E-18
 -1      3052 1.28805E-04-2.70071E-05-4.41556E-05-1.48526E-05 2.29461E-18-1.75892E-18
 -1      3053 9.36623E-05-2.40954E-05-2.98047E-05 8.06406E-06-2.12445E-18-4.28244E-19
 -1      3054 9.40244E-05-2.45275E-05-2.97614E-05 8.86426E-06-1.70955E-18-8.96462E-19
 -1      3055 9.26233E-05-2.31499E-05-2.98011E-05 7.89100E-06-2.69111E-18 9.86790E-19
 -1      3056 1.28583E-04-2.78943E-05-4.35045E-05 1.17907E-05-1.23254E-18-3.05763E-18
 -1      3057 1.29464E-04-2.25510E-05-4.63921E-05 1.17363E-05-2.10181E-18-3.00167E-18
 -1      3058 5.66473E-05-2.43769E-05-1.32669E-05-2.70150E-05-2.51198E-19-5.68994E-19
 -1      3059 8.37211E-05-4.24892E-05-1.72459E-05-3.81573E-05 1.93124E-19-1.81318E-19
 -1      3060 1.11277E-04-5.48436E-05-2.39715E-05-2.94634E-05 1.85066E-18-6.92906E-19
 -1      3061 9.54423E-05-2.63483E-05-2.96133E-05-6.32732E-06 5.81082E-19-8.53460E-19
 -1      3062 1.35677E-04-5.82124E-05-3.32631E-05-3.74795E-06-8.82291E-19-1.09924E-18
 -1      3063 9.86873E-05-5.13811E-05-1.99623E-05 3.72072E-05 1.10305E-18-3.48980E-18
 -1      3064 9.23481E-05-4.66383E-05-1.92394E-05 3.71221E-05 1.30507E-18-3.32413E-18
 -1      3065 1.08823E-04-5.45247E-05-2.33428E-05 3.10729E-05 1.66077E-18-4.30460E-18
 -1      3066 9.85477E-05-4.65830E-05-2.18700E-05 3.00161E-05-1.14683E-18-2.29459E-18
 -1      3067 1.32170E-04-3.26365E-05-4.30453E-05-1.21559E-05-1.82938E-18 5.73865E-20
 -1      3068 1.29339E-04-3.77022E-05-3.93168E-05-1.13500E-05-8.30198E-19 5.63171E-19
 -1      3069 1.24202E-04-2.57451E-05-4.26728E-05-1.39655E-05-1.21613E-18 7.83082E-19
 -1      3070 1.22447E-04-9.47813E-06-4.90034E-05 2.59057E-06-1.95580E-18-7.95126E-19
 -1      3071 1.20346E-04-9.52239E-06-4.80639E-05-2.91167E-06-2.47736E-18 4.47961E-19
 -1      3072 1.38197E-04-5.58740E-05-3.53544E-05-1.41257E-06 2.32312E-19-2.47101E-18
 -1      3073 8.79669E-05-4.30434E-05-1.88304E-05-3.33439E-05-3.70683E-19-1.23069E-18
 -1      3074 1.38721E-04-4.72121E-05-3.93101E-05 1.25467E-05-1.07796E-18-7.31095E-19
 -1      3075 9.60745E-05-2.72316E-05-2.94940E-05-6.95697E-06-1.05975E-18-1.93347E-18
 -1      3076 9.51392E-05-2.61777E-05-2.95617E-05-6.89337E-06 2.07215E-19 1.18673E-18
 -1      3077 9.51106E-05-2.64666E-05-2.94240E-05-7.57908E-06 1.99361E-19 1.72085E-18
 -1      3078 9.64888E-05-2.77330E-05-2.94661E-05-7.27706E-06-1.25880E-18-1.57315E-18
 -1      3079 1.40413E-04-4.14435E-05-4.28165E-05-1.34640E-05 1.51661E-18-8.09340E-19
 -1      3080 1.28897E-04-5.83100E-05-3.02450E-05 1.69455E-05 4.81591E-19-2.45936E-18
 -1      3081 1.21798E-04-5.72608E-05-2.75599E-05 2.14416E-05 1.50851E-18-3.55269E-18
 -1      3082 1.30431E-04-5.58841E-05-3.20137E-05 7.72978E-06 1.02504E-18-1.36870E-18
 -1      3083 9.28677E-05-1.86358E-05-3.18092E-05-7.07734E-06-1.12971E-18-1.14048E-18
 -1      3084 9.42344E-05-2.09647E-05-3.14402E-05-7.73738E-06-1.40449E-18-6.17183E-19
 -1      3085 9.47420E-05-2.27748E-05-3.08477E-05-6.04750E-06-1.26279E-18-4.95013E-19
 -1      3086 9.35448E-05-2.00350E-05-3.14730E-05-5.76171E-06-1.01208E-18-1.09749E-18
 -1      3087 1.20515E-04-1.25710E-05-4.68954E-05-6.59716E-06-1.55378E-18 1.53774E-18
 -1      3088 1.19773E-04-1.63728E-05-4.47340E-05-9.83541E-06-1.24281E-18 2.87480E-18
 -1      3089 1.14930E-04-1.13678E-05-4.46324E-05-3.30801E-06-1.65013E-18 1.62216E-18
 -1      3090 9.08636E-05-2.15807E-05-2.97199E-05 6.62618E-06-1.77698E-18 1.05077E-18
 -1      3091 9.17317E-05-2.23709E-05-2.97225E-05 7.33870E-06-3.01525E-18 9.85024E-19
 -1      3092 9.17182E-05-2.27055E-05-2.95579E-05 8.17811E-06-1.75187E-18 9.19683E-19
 -1      3093 8.98995E-05-2.13117E-05-2.93756E-05 6.64062E-06-1.62203E-18 2.31322E-18
 -1      3094 9.45936E-05-2.24589E-05-3.09067E-05-5.46079E-06-1.12141E-18-7.30773E-19
 -1      3095 3.78922E-05-1.30769E-05-9.93223E-06-4.91491E-06-6.43745E-20-2.05713E-18
 -1      3096 1.32974E-04-3.23132E-05-4.34919E-05 1.67664E-05-3.89847E-19-2.47757E-19
 -1      3097 9.42826E-05-2.18553E-05-3.10610E-05 4.97643E-06 1.11023E-18-1.10395E-18
 -1      3098 9.38197E-05-2.09142E-05-3.12476E-05 4.62912E-06 9.66046E-19-1.11700E-18
 -1      3099 7.67180E-05-3.09001E-05-1.98036E-05 2.85810E-05-1.24781E-18-2.70098E-19
 -1      3100 6.44785E-05-2.20468E-05-1.77319E-05 2.27720E-05-6.38028E-19-3.33519E-20
 -1      3101 1.21655E-04-1.93442E-05-4.44808E-05 8.98601E-06 1.62196E-18-6.57721E-19
 -1      3102 9.55179E-05-2.55674E-05-2.99543E-05-2.14061E-06-5.73496E-19-4.65000E-19
 -1      3103 9.55412E-05-2.62711E-05-2.97020E-05-1.34326E-06-4.99329E-19-5.43776E-19
 -1      3104 9.56859E-05-2.68737E-05-2.94757E-05-7.48697E-07-5.20173E-19-5.35558E-19
 -1      3105 9.56611E-05-2.73201E-05-2.92971E-05-2.21958E-07-4.33074E-19-5.14723E-19
 -1      3106 9.57106E-05-2.61913E-05-2.97949E-05-1.17604E-06-4.99432E-19-6.49253E-19
 -1      3107 9.57050E-05-2.77022E-05-2.91330E-05 1.61255E-07-4.43377E-19-4.95743E-19
 -1      3108 9.56686E-05-2.79842E-05-2.90120E-05 4.81376E-07-5.39201E-19-5.51337E-19
 -1      3109 9.59058E-05-2.73203E-05-2.93968E-05-1.63271E-07-4.89048E-19-6.17517E-19
 -1      3110 9.56601E-05-2.82169E-05-2.88964E-05 7.09489E-07-5.49759E-19-4.90358E-19
 -1      3111 9.56286E-05-2.83916E-05-2.88178E-05 8.85776E-07-3.49187E-19-4.44334E-19
 -1      3112 9.59453E-05-2.80333E-05-2.91088E-05 4.81967E-07-4.38933E-19-4.01416E-19
 -1      3113 9.55953E-05-2.85251E-05-2.87393E-05 1.00504E-06-1.54285E-19-5.42875E-19
 -1      3114 9.55734E-05-2.86270E-05-2.86916E-05 1.08706E-06-1.13798E-19-5.08765E-19
 -1      3115 9.59092E-05-2.84684E-05-2.89067E-05 8.56939E-07-2.70071E-19-3.69676E-19
 -1      3116 9.55293E-05-2.86932E-05-2.86412E-05 1.13576E-06-6.89579E-20-3.60771E-19
 -1      3117 9.55167E-05-2.87446E-05-2.86159E-05 1.16082E-06-9.75946E-20-2.15571E-19
 -1      3118 9.58371E-05-2.87129E-05-2.87705E-05 1.04644E-06 5.71621E-20-3.81164E-19
 -1      3119 9.54691E-05-2.87642E-05-2.85866E-05 1.16887E-06-1.08118E-19-1.08267E-19
 -1      3120 9.54639E-05-2.87796E-05-2.85775E-05 1.16459E-06 5.86969E-20-2.18977E-19
 -1      3121 9.57497E-05-2.88249E-05-2.86846E-05 1.11972E-06 8.76201E-20-3.27917E-19
 -1      3122 9.54161E-05-2.87664E-05-2.85641E-05 1.15472E-06 9.31691E-20-2.93527E-19
 -1      3123 9.54166E-05-2.87556E-05-2.85670E-05 1.14156E-06-1.36749E-19-3.15395E-19
 -1      3124 9.56577E-05-2.88435E-05-2.86367E-05 1.13044E-06-1.13191E-19-3.15498E-19
 -1      3125 9.53696E-05-2.87183E-05-2.85657E-05 1.13093E-06-1.72756E-19-8.57472E-20
 -1      3126 9.53745E-05-2.86879E-05-2.85776E-05 1.12422E-06-4.11822E-20-9.13933E-20
 -1      3127 9.55653E-05-2.87946E-05-2.86176E-05 1.11947E-06-1.27237E-20-2.54794E-19
 -1      3128 9.53282E-05-2.86322E-05-2.85855E-05 1.12600E-06-1.40808E-19 8.22836E-20
 -1      3129 9.53368E-05-2.85864E-05-2.86045E-05 1.13748E-06-5.30271E-20-1.09670E-20
 -1      3130 9.54738E-05-2.86952E-05-2.86206E-05 1.11795E-06 3.96061E-20-4.69738E-20
 -1      3131 9.52901E-05-2.85156E-05-2.86197E-05 1.16206E-06-1.64984E-19-1.77657E-19
 -1      3132 9.53023E-05-2.84574E-05-2.86447E-05 1.20103E-06-1.33174E-19-3.53518E-19
 -1      3133 9.53819E-05-2.85560E-05-2.86405E-05 1.15004E-06-2.05450E-19-5.22101E-19
 -1      3134 9.52540E-05-2.83736E-05-2.86656E-05 1.25694E-06-2.57691E-19-3.64477E-19
 -1      3135 9.52703E-05-2.83053E-05-2.86957E-05 1.33100E-06-5.30165E-19-4.49441E-19
 -1      3136 9.52877E-05-2.83836E-05-2.86737E-05 1.23512E-06-3.38877E-19-5.96464E-19
 -1      3137 9.52191E-05-2.82101E-05-2.87211E-05 1.42548E-06-5.09866E-19-5.45914E-19
 -1      3138 9.52410E-05-2.81343E-05-2.87560E-05 1.54090E-06-6.29442E-19-3.11563E-19
 -1      3139 9.51886E-05-2.81827E-05-2.87171E-05 1.38929E-06-5.14054E-19-9.48867E-19
 -1      3140 9.51863E-05-2.80300E-05-2.87847E-05 1.68018E-06-7.82560E-19-1.72065E-19
 -1      3141 9.52163E-05-2.79504E-05-2.88237E-05 1.84181E-06-6.20090E-19-3.09674E-19
 -1      3142 9.50828E-05-2.79578E-05-2.87679E-05 1.62630E-06-7.62951E-19-6.21319E-19
 -1      3143 9.51588E-05-2.78410E-05-2.88542E-05 2.03105E-06-5.39627E-19-7.47947E-19
 -1      3144 9.52014E-05-2.77640E-05-2.88967E-05 2.24186E-06-3.32732E-19-9.47505E-19
 -1      3145 9.49705E-05-2.77161E-05-2.88232E-05 1.95779E-06-8.41507E-19-3.98893E-19
 -1      3146 9.51445E-05-2.76568E-05-2.89272E-05 2.48465E-06 2.50286E-19-9.18262E-19
 -1      3147 9.52066E-05-2.75928E-05-2.89718E-05 2.74478E-06 2.60166E-19-2.77450E-19
 -1      3148 9.48556E-05-2.74703E-05-2.88793E-05 2.39285E-06 1.55955E-19-6.86902E-19
 -1      3149 9.51583E-05-2.75009E-05-2.89999E-05 3.04232E-06 1.16990E-19-3.69386E-19
 -1      3150 9.52513E-05-2.74666E-05-2.90445E-05 3.34755E-06 1.97865E-19-4.63565E-19
 -1      3151 9.47491E-05-2.72426E-05-2.89316E-05 2.93690E-06 3.77363E-19-7.26150E-19
 -1      3152 9.52263E-05-2.74109E-05-2.90670E-05 3.69727E-06-5.32990E-20-3.20505E-19
 -1      3153 9.53682E-05-2.74319E-05-2.91090E-05 4.03682E-06 2.01311E-19-2.64882E-19
 -1      3154 9.46730E-05-2.70698E-05-2.89737E-05 3.58980E-06 2.51996E-19-5.12484E-19
 -1      3155 9.53922E-05-2.74449E-05-2.91221E-05 4.43040E-06 4.62496E-19-3.48034E-19
 -1      3156 9.56102E-05-2.75586E-05-2.91581E-05 4.78400E-06 5.75757E-19-4.13575E-19
 -1      3157 9.46668E-05-2.70093E-05-2.89985E-05 4.34296E-06 4.58891E-19 5.26172E-20
 -1      3158 9.57250E-05-2.76870E-05-2.91581E-05 5.20428E-06 1.51213E-19-4.23721E-19
 -1      3159 9.60591E-05-2.79447E-05-2.91849E-05 5.53827E-06-1.71991E-19-1.78312E-19
 -1      3160 9.47960E-05-2.71465E-05-2.89979E-05 5.17509E-06 2.18256E-19-7.90755E-19
 -1      3161 9.63280E-05-2.82522E-05-2.91695E-05 5.95446E-06-2.23737E-19 1.03561E-19
 -1      3162 9.68338E-05-2.87190E-05-2.91855E-05 6.21658E-06 1.99437E-19 2.39748E-20
 -1      3163 9.51633E-05-2.76007E-05-2.89654E-05 6.04532E-06 5.95358E-20-4.03277E-19
 -1      3164 9.73476E-05-2.92843E-05-2.91564E-05 6.57608E-06 3.08833E-19-4.46990E-19
 -1      3165 9.80941E-05-3.00314E-05-2.91651E-05 6.68876E-06 3.96749E-20-4.17412E-19
 -1      3166 9.59202E-05-2.85278E-05-2.89001E-05 6.88159E-06-4.31455E-20-6.22745E-20
 -1      3167 9.89720E-05-3.09372E-05-2.91328E-05 6.90298E-06 4.02986E-19-4.60584E-19
 -1      3168 1.00029E-04-3.20195E-05-2.91471E-05 6.75575E-06 5.56645E-19 1.01698E-19
 -1      3169 9.72750E-05-3.01096E-05-2.88141E-05 7.55916E-06 2.75671E-19-3.69294E-19
 -1      3170 1.01404E-04-3.33204E-05-2.91389E-05 6.67767E-06 3.32652E-19 6.16217E-19
 -1      3171 1.02805E-04-3.47236E-05-2.91884E-05 6.12262E-06 2.72476E-19 1.14165E-18
 -1      3172 9.94840E-05-3.25127E-05-2.87458E-05 7.86289E-06 8.36115E-19 5.11461E-19
 -1      3173 1.04773E-04-3.63729E-05-2.92583E-05 5.52807E-06-2.60278E-19 1.16781E-18
 -1      3174 1.06443E-04-3.79215E-05-2.93955E-05 4.39963E-06 1.07042E-19 1.38496E-18
 -1      3175 1.02790E-04-3.57768E-05-2.87795E-05 7.43397E-06 1.38559E-19 3.15824E-19
 -1      3176 1.08953E-04-3.96559E-05-2.96333E-05 2.98889E-06 6.23744E-19 1.16156E-18
 -1      3177 1.10613E-04-4.08701E-05-2.99339E-05 1.16543E-06 1.33718E-18 1.63570E-18
 -1      3178 1.07274E-04-3.96124E-05-2.90665E-05 5.73987E-06 4.95473E-19 1.41263E-18
 -1      3179 1.13259E-04-4.20610E-05-3.04643E-05-1.26915E-06 1.01380E-18 1.01940E-18
 -1      3180 1.14367E-04-4.20899E-05-3.10213E-05-3.68039E-06 8.78929E-20 1.09139E-18
 -1      3181 1.12507E-04-4.30124E-05-2.98427E-05 2.12663E-06 6.01810E-19 7.43161E-19
 -1      3182 1.16160E-04-4.15394E-05-3.20059E-05-6.93438E-06-3.18200E-20 1.39386E-18
 -1      3183 1.16023E-04-3.94090E-05-3.28649E-05-9.15362E-06-1.30562E-19 2.48967E-18
 -1      3184 1.17261E-04-4.38784E-05-3.14196E-05-3.71444E-06 4.02976E-19 7.88601E-19
 -1      3185 1.11486E-04-2.67223E-05-3.65784E-05-1.21683E-05-5.87126E-19 2.69456E-18
 -1      3186 1.09441E-04-2.23508E-05-3.73101E-05-9.76546E-06-6.40542E-19 1.60256E-18
 -1      3187 1.09923E-04-1.80157E-05-3.96071E-05-7.18946E-06-1.19776E-18 1.56581E-18
 -1      3188 1.08950E-04-1.60379E-05-4.00243E-05-2.68168E-06-1.54065E-18 6.61926E-19
 -1      3189 1.11211E-04-2.53505E-05-3.67961E-05 1.09440E-05-1.42513E-19-4.06900E-19
 -1      3190 1.13358E-04-3.03560E-05-3.58015E-05 1.20491E-05-7.63455E-19-8.56810E-19
 -1      3191 1.15107E-04-3.50022E-05-3.43087E-05 1.10489E-05-6.84456E-19-7.20142E-19
 -1      3192 1.16168E-04-3.87479E-05-3.33043E-05 9.58899E-06-7.52322E-19-6.40625E-19
 -1      3193 1.17625E-04-3.39730E-05-3.58891E-05 1.19231E-05-7.15994E-19-1.48814E-18
 -1      3194 1.15749E-04-4.09787E-05-3.20683E-05 6.54410E-06-5.82794E-19 9.02613E-20
 -1      3195 1.15340E-04-4.23185E-05-3.13056E-05 4.00820E-06-2.01566E-19 2.87301E-19
 -1      3196 1.18684E-04-4.19621E-05-3.28970E-05 7.14369E-06-2.37378E-19 3.92189E-19
 -1      3197 1.13263E-04-4.21532E-05-3.05178E-05 9.85065E-07 2.70390E-19 5.85622E-19
 -1      3198 1.11906E-04-4.16518E-05-3.00530E-05-1.34145E-06-1.61493E-19 1.24323E-18
 -1      3199 1.15802E-04-4.39903E-05-3.07731E-05 7.81520E-07-5.11032E-21 9.69095E-19
 -1      3200 1.09316E-04-4.02451E-05-2.96461E-05-3.54063E-06-2.18920E-19 1.64784E-18
 -1      3201 1.07598E-04-3.88247E-05-2.94122E-05-5.19782E-06 3.34648E-19 2.02578E-18
 -1      3202 1.11052E-04-4.22670E-05-2.95344E-05-4.41000E-06 5.17581E-19 1.11245E-18
 -1      3203 1.05301E-04-3.70841E-05-2.92604E-05-6.40024E-06-5.64741E-20 2.24987E-18
 -1      3204 1.03679E-04-3.54965E-05-2.91715E-05-7.37012E-06-3.81439E-19 2.53990E-18
 -1      3205 1.06125E-04-3.86390E-05-2.89853E-05-7.51803E-06 2.66256E-19 2.13860E-18
 -1      3206 1.01938E-04-3.39151E-05-2.91630E-05-7.84425E-06-9.77120E-19 1.97512E-18
 -1      3207 1.00611E-04-3.25068E-05-2.91527E-05-8.26269E-06-5.58588E-19 5.74777E-19
 -1      3208 1.02111E-04-3.49074E-05-2.88526E-05-8.91557E-06-1.19365E-18 1.75612E-18
 -1      3209 9.94020E-05-3.12417E-05-2.92148E-05-8.26215E-06-4.73441E-19-5.73490E-19
 -1      3210 9.83922E-05-3.01095E-05-2.92428E-05-8.27108E-06-5.85311E-19-5.20824E-19
 -1      3211 9.92048E-05-3.17551E-05-2.89393E-05-9.17431E-06-1.34874E-18 8.40986E-19
 -1      3212 9.77183E-05-2.92809E-05-2.93312E-05-7.99094E-06 1.45414E-20-1.23001E-18
 -1      3213 9.69632E-05-2.83899E-05-2.93750E-05-7.70627E-06-1.81289E-19-1.04659E-18
 -1      3214 9.62353E-05-2.78162E-05-2.93293E-05-7.97141E-06-6.83384E-19-4.66165E-19
 -1      3215 9.73694E-05-2.94520E-05-2.91235E-05-8.74069E-06-3.38966E-19 4.17659E-19
 -1      3216 9.53736E-05-2.79467E-05-2.89011E-05-4.74879E-07 5.71184E-19-7.13960E-19
 -1      3217 9.54272E-05-2.76919E-05-2.90165E-05-1.40096E-07 5.93289E-19-6.12334E-19
 -1      3218 9.52401E-05-2.87028E-05-2.85144E-05-1.18543E-06 1.98888E-19-3.78388E-19
 -1      3219 9.52220E-05-2.86796E-05-2.85169E-05-1.19417E-06 1.98802E-19-5.90118E-19
 -1      3220 9.52539E-05-2.86561E-05-2.85410E-05-1.18728E-06 2.81043E-20-6.23909E-19
 -1      3221 9.52467E-05-2.86018E-05-2.85590E-05-1.16499E-06-1.63694E-19-4.93095E-19
 -1      3222 9.55304E-05-2.87512E-05-2.86224E-05-1.16708E-06 1.69513E-19-6.00330E-19
 -1      3223 9.52422E-05-2.86548E-05-2.85350E-05-1.12475E-06 4.74375E-19-1.27670E-19
 -1      3224 9.52117E-05-2.86721E-05-2.85178E-05-1.13757E-06 6.28111E-19-3.45276E-19
 -1      3225 9.52537E-05-2.85803E-05-2.85714E-05-1.12635E-06 1.30852E-19 9.88976E-20
 -1      3226 9.52190E-05-2.86121E-05-2.85474E-05-1.12090E-06 3.80718E-19 1.50346E-19
 -1      3227 9.53758E-05-2.86792E-05-2.85855E-05-1.14109E-06 1.82129E-19-4.42600E-19
 -1      3228 9.52699E-05-2.84782E-05-2.86216E-05-1.17959E-06-2.06946E-19-1.81471E-19
 -1      3229 9.52310E-05-2.85228E-05-2.85913E-05-1.14558E-06 1.67292E-19-1.20750E-19
 -1      3230 9.53307E-05-2.85659E-05-2.86144E-05-1.16243E-06 2.55838E-19-2.15157E-19
 -1      3231 9.52892E-05-2.83492E-05-2.86846E-05-1.30335E-06 1.03326E-19-3.48515E-19
 -1      3232 9.52456E-05-2.84062E-05-2.86480E-05-1.23154E-06-1.20779E-21-1.95025E-19
 -1      3233 9.52840E-05-2.84176E-05-2.86577E-05-1.23888E-06-8.00037E-20-8.17012E-19
 -1      3234 9.53101E-05-2.81917E-05-2.87604E-05-1.51533E-06 1.12537E-20-3.91191E-19
 -1      3235 9.52607E-05-2.82616E-05-2.87171E-05-1.39685E-06-3.83599E-20-1.79827E-19
 -1      3236 9.52312E-05-2.82338E-05-2.87135E-05-1.38927E-06 8.16711E-20-8.87432E-19
 -1      3237 9.53298E-05-2.80026E-05-2.88491E-05-1.83313E-06 8.87074E-21-8.79379E-19
 -1      3238 9.52736E-05-2.80862E-05-2.87984E-05-1.65901E-06 1.89142E-19-5.78718E-19
 -1      3239 9.51662E-05-2.80114E-05-2.87806E-05-1.63115E-06 3.08963E-19-1.08444E-18
 -1      3240 9.53448E-05-2.77778E-05-2.89510E-05-2.27462E-06-1.15123E-19-9.56493E-19
 -1      3241 9.52809E-05-2.78763E-05-2.88924E-05-2.03570E-06-6.16560E-20-9.30697E-19
 -1      3242 9.50811E-05-2.77453E-05-2.88577E-05-1.98167E-06 8.14559E-20-1.54135E-18
 -1      3243 9.53499E-05-2.75141E-05-2.90652E-05-2.85778E-06 6.46098E-19-5.54707E-19
 -1      3244 9.52776E-05-2.76278E-05-2.89985E-05-2.54494E-06 5.56191E-20-5.32039E-19
 -1      3245 9.49656E-05-2.74297E-05-2.89428E-05-2.45788E-06-1.88916E-19-8.96811E-19
 -1      3246 9.53392E-05-2.72117E-05-2.91892E-05-3.59974E-06 4.79733E-19 3.19247E-20
 -1      3247 9.52575E-05-2.73386E-05-2.91151E-05-3.20462E-06 7.14183E-19-1.69439E-19
 -1      3248 9.48076E-05-2.70600E-05-2.90326E-05-3.07647E-06 2.46970E-19 1.60570E-20
 -1      3249 9.53073E-05-2.68785E-05-2.93172E-05-4.51498E-06 3.72080E-19 4.62475E-19
 -1      3250 9.52143E-05-2.70119E-05-2.92380E-05-4.03134E-06 6.56256E-19 3.27162E-19
 -1      3251 9.45928E-05-2.66363E-05-2.91209E-05-3.85315E-06 3.75672E-19 6.71664E-19
 -1      3252 9.52546E-05-2.65390E-05-2.94389E-05-5.61245E-06 1.11059E-20 5.51400E-19
 -1      3253 9.51443E-05-2.66624E-05-2.93593E-05-5.03840E-06 1.21802E-19 3.55991E-19
 -1      3254 9.43083E-05-2.61693E-05-2.91977E-05-4.80167E-06 1.65387E-19 1.11327E-18
 -1      3255 9.51976E-05-2.62485E-05-2.95375E-05-6.89166E-06-9.73218E-19-8.13741E-20
 -1      3256 9.50541E-05-2.63277E-05-2.94654E-05-6.23294E-06-1.50066E-19 3.49274E-19
 -1      3257 9.39481E-05-2.56902E-05-2.92472E-05-5.93305E-06 6.22974E-20 7.07595E-19
 -1      3258 9.51902E-05-2.61171E-05-2.95884E-05-8.33755E-06-1.12377E-18-5.80439E-19
 -1      3259 9.49758E-05-2.60870E-05-2.95355E-05-7.61226E-06-9.63075E-19-1.75392E-19
 -1      3260 9.35261E-05-2.52685E-05-2.92464E-05-7.25588E-06-6.66655E-19 4.17349E-19
 -1      3261 9.53609E-05-2.63448E-05-2.95601E-05-9.91320E-06-1.14235E-18-8.63810E-19
 -1      3262 9.49959E-05-2.60905E-05-2.95412E-05-9.15878E-06-1.22521E-18-9.52037E-19
 -1      3263 9.31010E-05-2.50393E-05-2.91638E-05-8.77839E-06-9.74488E-19-7.29710E-19
 -1      3264 9.59721E-05-2.72671E-05-2.94203E-05-1.15464E-05-4.08326E-19-1.05753E-18
 -1      3265 9.53043E-05-2.66010E-05-2.94492E-05-1.08310E-05-6.19380E-19-9.75427E-19
 -1      3266 9.28192E-05-2.52434E-05-2.89617E-05-1.05119E-05-6.28624E-19-1.59230E-18
 -1      3267 9.75007E-05-2.93931E-05-2.91539E-05-1.30960E-05-1.16437E-18-1.30317E-18
 -1      3268 9.62696E-05-2.80406E-05-2.92319E-05-1.25412E-05-6.35512E-19-1.11346E-18
 -1      3269 9.29862E-05-2.62801E-05-2.86040E-05-1.24685E-05-6.56328E-19-1.21862E-18
 -1      3270 1.00727E-04-3.33893E-05-2.88053E-05-1.42600E-05-2.08356E-18-8.89314E-19
 -1      3271 9.85322E-05-3.10140E-05-2.88956E-05-1.40971E-05-1.43643E-18-9.60443E-19
 -1      3272 9.41678E-05-2.87534E-05-2.80786E-05-1.46284E-05-1.32756E-18-1.17386E-18
 -1      3273 1.06684E-04-3.98725E-05-2.85831E-05-1.43675E-05-6.94077E-19-1.28825E-18
 -1      3274 1.03127E-04-3.62880E-05-2.85498E-05-1.50527E-05-1.58115E-18-9.69800E-19
 -1      3275 9.72811E-05-3.34346E-05-2.74478E-05-1.68561E-05-1.61299E-18-1.12483E-18
 -1      3276 1.15874E-04-4.82839E-05-2.90008E-05-1.19305E-05 2.03486E-19-1.72216E-18
 -1      3277 1.11170E-04-4.40407E-05-2.85889E-05-1.40045E-05 1.91972E-20-1.23601E-18
 -1      3278 1.04159E-04-4.13917E-05-2.70202E-05-1.84806E-05-4.90842E-19-2.90710E-18
 -1      3279 1.28579E-04-5.46136E-05-3.18076E-05-2.71840E-06-5.13328E-19-1.27962E-18
 -1      3280 1.24194E-04-5.29368E-05-3.03870E-05-7.40829E-06 3.62206E-20-1.38905E-18
 -1      3281 1.16815E-04-5.12435E-05-2.81966E-05-1.47298E-05 1.13794E-19-1.09510E-18
 -1      3282 1.33086E-04-5.64588E-05-3.28946E-05-2.07624E-06-9.16192E-19-6.03299E-19
 -1      3283 1.03857E-04-3.71702E-05-2.84644E-05 1.61727E-05 6.26834E-19-2.45412E-18
 -1      3284 1.07408E-04-4.07460E-05-2.85396E-05 1.52797E-05 2.14180E-19-3.35457E-18
 -1      3285 9.89030E-05-3.16481E-05-2.87816E-05 1.56257E-05 5.19117E-19-1.55781E-18
 -1      3286 1.01220E-04-3.41753E-05-2.87022E-05 1.56662E-05 1.29093E-18-1.78540E-18
 -1      3287 9.83007E-05-3.46810E-05-2.73986E-05 1.83297E-05 4.38015E-19-1.89907E-19
 -1      3288 9.64237E-05-2.84037E-05-2.91406E-05 1.42126E-05 1.03465E-18-1.01623E-18
 -1      3289 9.77804E-05-2.99029E-05-2.90560E-05 1.46922E-05 7.96738E-19-1.38532E-18
 -1      3290 9.47836E-05-2.94759E-05-2.80461E-05 1.62726E-05 3.35747E-19-7.99602E-20
 -1      3291 9.52837E-05-2.66341E-05-2.94221E-05 1.25467E-05 4.16611E-19-9.30937E-19
 -1      3292 9.60625E-05-2.74842E-05-2.93666E-05 1.32547E-05 6.10841E-19-1.18314E-18
 -1      3293 9.34673E-05-2.67027E-05-2.86339E-05 1.42108E-05 7.66145E-19 3.11531E-20
 -1      3294 9.48111E-05-2.56761E-05-2.96258E-05 1.07765E-05 1.06957E-18-1.68627E-18
 -1      3295 9.52790E-05-2.61825E-05-2.95953E-05 1.15997E-05 5.79333E-19-3.95633E-19
 -1      3296 9.31722E-05-2.52774E-05-2.91026E-05 1.22526E-05-6.26388E-20 7.15609E-21
 -1      3297 9.41211E-05-2.48503E-05-2.96780E-05 9.46475E-06-1.30974E-18-1.14077E-18
 -1      3298 9.46381E-05-2.53344E-05-2.96825E-05 1.01682E-05 7.77836E-19-3.40394E-19
 -1      3299 9.29703E-05-2.44511E-05-2.93721E-05 1.06435E-05-3.07431E-19-6.79646E-20
 -1      3300 9.27137E-05-2.38123E-05-2.95542E-05 9.33737E-06-9.53065E-20 1.77061E-18
 -1      3301 1.30416E-04-3.64578E-05-4.08140E-05 1.17315E-05-1.21300E-18-2.53252E-18
 -1      3302 1.23755E-04-2.93500E-05-4.07486E-05 1.31888E-05-1.80640E-18-1.77723E-18
 -1      3303 1.37256E-04-4.60550E-05-3.92083E-05-1.23635E-05 1.02110E-18-1.51492E-18
 -1      3304 1.25673E-04-5.60965E-05-2.96732E-05-1.27042E-05 2.47114E-18-1.51169E-19
 -1      3305 1.31822E-04-5.47563E-05-3.34946E-05-3.56478E-06 1.96750E-18 2.47228E-19
 -1      3306 5.27888E-05-1.81779E-05-1.42980E-05-2.02805E-05-7.06134E-19-6.92873E-19
 -1      3307 6.66065E-05-2.68595E-05-1.68871E-05-2.78644E-05-9.88011E-19-4.58245E-19
 -1      3308 9.43881E-05-2.21046E-05-3.10032E-05-5.10465E-06-1.04889E-18-8.72965E-19
 -1      3309 9.48677E-05-2.31912E-05-3.06879E-05-4.45501E-06-8.83551E-19-8.43539E-19
 -1      3310 9.50915E-05-2.43722E-05-3.03268E-05-3.29298E-06-6.85456E-19-7.33705E-19
 -1      3311 9.38207E-05-2.09130E-05-3.12486E-05-4.76621E-06-8.36268E-19-1.07999E-18
 -1      3312 8.78822E-05-2.08289E-05-2.87257E-05-3.63692E-06 9.29648E-21-1.06340E-18
 -1      3313 8.72773E-05-2.03653E-05-2.87039E-05-2.09276E-06-2.09773E-19-5.62942E-19
 -1      3314 1.22646E-04-1.65576E-05-4.59246E-05 1.04059E-05-2.16713E-18-1.44615E-18
 -1      3315 1.30826E-04-1.66493E-05-4.94424E-05 9.06655E-06-2.79288E-18-3.24477E-18
 -1      3316 9.41896E-05-2.60248E-05-2.91935E-05-8.18932E-06-5.27383E-19 3.02217E-18
 -1      3317 9.31686E-05-2.52394E-05-2.91309E-05-8.10241E-06-1.49847E-19 1.86039E-18
 -1      3318 8.97405E-05-2.23891E-05-2.88410E-05-6.25408E-06-9.64375E-20-1.28614E-19
 -1      3319 8.87794E-05-2.16694E-05-2.87941E-05-5.14285E-06 3.33855E-19 7.48440E-19
 -1      3320 8.75361E-05-2.14008E-05-2.83308E-05-4.98332E-06 3.63885E-20-4.41346E-19
 -1      3321 1.04240E-04-5.05803E-05-2.25705E-05-3.11351E-05 5.90329E-19-8.98212E-19
 -1      3322 1.15198E-04-5.48646E-05-2.59799E-05-2.38298E-05 2.22092E-18-1.00720E-18
 -1      3323 9.54141E-05-2.73429E-05-2.91804E-05 2.78553E-07 6.08080E-19-7.89629E-19
 -1      3324 9.54755E-05-2.69352E-05-2.93584E-05 8.40019E-07 7.19685E-19-7.83678E-19
 -1      3325 9.56985E-05-2.73297E-05-2.93061E-05 2.27593E-07 5.75189E-19-5.42322E-19
 -1      3326 9.20109E-05-2.42614E-05-2.90078E-05-7.78530E-06-4.08807E-19 6.41367E-19
 -1      3327 9.09091E-05-2.34291E-05-2.89484E-05-7.18142E-06-2.66506E-19-7.94531E-19
 -1      3328 8.98935E-05-2.33215E-05-2.85342E-05-7.46712E-06-9.83977E-19-5.06737E-19
 -1      3329 9.25213E-05-2.53682E-05-2.87975E-05-8.66163E-06-9.87483E-19 1.33240E-18
 -1      3330 1.12181E-04-4.49955E-05-2.85985E-05 1.49184E-05-2.32788E-19-3.96396E-18
 -1      3331 1.16896E-04-4.93763E-05-2.89496E-05 1.26366E-05-1.47704E-18-3.15587E-18
 -1      3332 1.05108E-04-4.21120E-05-2.70763E-05 1.89768E-05-6.12138E-19-8.32514E-19
 -1      3333 9.52370E-05-2.86982E-05-2.85146E-05-1.15325E-06 5.29021E-19-2.12315E-19
 -1      3334 9.52117E-05-2.86978E-05-2.85059E-05-1.17194E-06 3.84920E-19-1.88430E-19
 -1      3335 9.54739E-05-2.87830E-05-2.85840E-05-1.17315E-06 1.90307E-19-4.57421E-19
 -1      3336 9.54227E-05-2.87542E-05-2.85739E-05-1.15337E-06 4.61333E-19-2.43310E-19
 -1      3337 1.31374E-04-4.41172E-05-3.73494E-05 6.97095E-06 2.15570E-19-1.15085E-18
 -1      3338 9.52099E-05-2.42736E-05-3.04017E-05 4.28690E-06 1.17291E-18-1.00185E-18
 -1      3339 9.46432E-05-2.27391E-05-3.08067E-05 4.79022E-06 1.15143E-18-9.97891E-19
 -1      3340 9.49338E-05-2.35900E-05-3.05724E-05 3.70782E-06 9.38650E-19-9.15913E-19
 -1      3341 9.52321E-05-2.51973E-05-3.00289E-05 3.00719E-06 9.69057E-19-9.72701E-19
 -1      3342 9.23939E-05-1.83480E-05-3.17492E-05 1.81451E-06 4.36753E-19-1.71599E-18
 -1      3343 9.22751E-05-1.81458E-05-3.17815E-05 1.05962E-06 1.84234E-19-1.84650E-18
 -1      3344 8.32076E-05-3.75777E-05-1.93216E-05-3.12702E-05-1.97094E-19-1.95199E-18
 -1      3345 9.75324E-05-4.64174E-05-2.18684E-05-3.03436E-05-1.08632E-19-2.82999E-18
 -1      3346 5.36917E-05-1.59633E-05-1.61831E-05 1.43291E-05 1.17261E-19-2.17052E-20
 -1      3347 4.88417E-05-1.26924E-05-1.49917E-05 1.30854E-06-1.38960E-19 1.04302E-18
 -1      3348 1.07871E-04-4.99544E-05-2.47330E-05 2.55383E-05-1.50364E-18-2.16253E-18
 -1      3349 9.24234E-05-4.06867E-05-2.18402E-05 2.93379E-05-1.89047E-18-1.41285E-18
 -1      3350 1.30429E-04-4.67948E-05-3.62679E-05-5.96331E-06-1.28061E-19 1.64102E-18
 -1      3351 1.30533E-04-5.08992E-05-3.41803E-05-1.06027E-06 5.40764E-19 5.98217E-19
 -1      3352 7.81742E-05-3.70615E-05-1.71914E-05-3.56833E-05 1.98259E-19 1.88571E-19
 -1      3353 9.12577E-05-4.48876E-05-1.99242E-05-3.55155E-05 1.75018E-19-1.29713E-18
 -1      3354 1.27543E-04-1.07131E-05-5.06866E-05 5.64052E-06-2.75540E-18-2.22235E-18
 -1      3355 5.01228E-05-1.76565E-05-1.36078E-05 2.19338E-05 3.54245E-19-2.26962E-18
 -1      3356 4.39082E-05-1.32599E-05-1.26868E-05 1.22706E-05 2.71103E-19-2.54226E-18
 -1      3357 4.10539E-05-1.16773E-05-1.22266E-05 1.85023E-06-6.75376E-19-2.24781E-18
 -1      3358 4.35954E-05-1.34753E-05-1.26981E-05-1.11473E-05-5.59677E-19-1.58745E-18
 -1      3359 9.22155E-05-1.80457E-05-3.18000E-05 4.08868E-07 8.79536E-20-1.90839E-18
 -1      3360 9.22123E-05-1.80410E-05-3.18006E-05-3.60370E-07-4.26391E-21-1.84084E-18
 -1      3361 9.31688E-05-1.96280E-05-3.14998E-05 6.29207E-07 1.69930E-19-1.73079E-18
 -1      3362 6.44490E-05-1.89944E-05-1.91951E-05 1.58099E-05-6.09837E-19 2.69409E-19
 -1      3363 8.43232E-05-4.08632E-05-1.81735E-05 3.64974E-05 1.39130E-18-2.64565E-18
 -1      3364 7.69000E-05-3.47768E-05-1.78285E-05 3.37969E-05 1.09754E-18-1.98566E-18
 -1      3365 9.40230E-05-4.51340E-05-2.08659E-05 3.27932E-05 1.68930E-18-3.22505E-18
 -1      3366 4.72390E-05-1.40919E-05-1.40960E-05-1.03538E-05-1.31238E-18 1.58618E-18
 -1      3367 5.13756E-05-1.78620E-05-1.39112E-05-2.05596E-05-1.71879E-18 1.23794E-18
 -1      3368 9.53827E-05-2.64989E-05-2.95320E-05 1.38236E-06 8.43856E-19-8.52227E-19
 -1      3369 9.54333E-05-2.58867E-05-2.97910E-05 2.24581E-06 8.73061E-19-9.55691E-19
 -1      3370 9.53478E-05-2.51799E-05-3.00744E-05 2.61564E-06 9.50012E-19-9.21098E-19
 -1      3371 9.55849E-05-2.63921E-05-2.96568E-05 1.24660E-06 6.90034E-19-7.57195E-19
 -1      3372 9.51515E-05-2.42460E-05-3.03931E-05-2.91796E-06-5.89665E-19-6.72366E-19
 -1      3373 9.52810E-05-2.85382E-05-2.86041E-05-1.11356E-06-2.71096E-19-4.21545E-19
 -1      3374 9.52896E-05-2.84405E-05-2.86441E-05-1.03154E-06 1.26647E-19-5.09121E-19
 -1      3375 9.55912E-05-2.86360E-05-2.86986E-05-1.09135E-06-2.01807E-19-5.65576E-19
 -1      3376 1.15857E-04-3.63096E-05-3.42598E-05-1.18040E-05-1.06904E-18 3.52295E-18
 -1      3377 1.14298E-04-3.18780E-05-3.53104E-05-1.25409E-05-8.89729E-19 3.39839E-18
 -1      3378 1.07075E-04-1.78585E-05-3.83247E-05 4.19445E-06-5.44457E-19-3.52723E-19
 -1      3379 1.08738E-04-2.09650E-05-3.78251E-05 7.83731E-06 3.47270E-19 3.53924E-19
 -1      3380 1.28469E-04-4.65258E-05-3.51445E-05 4.71212E-06 6.64901E-19-4.55915E-19
 -1      3381 1.21446E-04-5.56218E-05-2.83818E-05 1.59220E-05 2.12268E-18-2.38204E-18
 -1      3382 1.17050E-04-5.60312E-05-2.59716E-05 2.42868E-05 2.47365E-18-4.23023E-18
 -1      3383 1.10084E-04-5.23378E-05-2.45924E-05 2.64633E-05 2.46423E-18-3.20378E-18
 -1      3384 8.78089E-05-3.49932E-05-2.24244E-05 2.55960E-05-1.47441E-18-1.71326E-18
 -1      3385 1.16336E-04-3.01140E-05-3.70218E-05-1.31131E-05-1.16335E-18 3.23932E-18
 -1      3386 9.25673E-05-1.86429E-05-3.16927E-05 2.42571E-06 5.20693E-19-1.71730E-18
 -1      3387 9.33802E-05-2.00162E-05-3.14229E-05 1.80479E-06 4.75955E-19-1.52641E-18
 -1      3388 9.28038E-05-1.90568E-05-3.16246E-05 3.12866E-06 6.93946E-19-1.58427E-18
 -1      3389 1.13573E-04-1.88655E-05-4.07984E-05-1.03357E-05-1.40343E-18 3.04384E-18
 -1      3390 1.35594E-04-5.19113E-05-3.62542E-05-7.04008E-06 1.82986E-19-2.69542E-18
 -1      3391 5.47711E-05-1.62293E-05-1.60920E-05-1.38991E-05-1.15939E-18-1.10363E-18
 -1      3392 8.71155E-05-2.00086E-05-2.87800E-05 3.56961E-06-2.11706E-19 2.70358E-18
 -1      3393 8.76964E-05-2.03862E-05-2.88460E-05 5.16731E-06-8.70055E-19 3.86534E-18
 -1      3394 1.21231E-04-5.57153E-05-2.79853E-05-1.70280E-05 2.38162E-18 8.01187E-19
 -1      3395 1.23158E-04-5.35787E-05-2.98150E-05-9.43543E-06 1.57710E-18 1.86748E-18
 -1      3396 1.14051E-04-5.21460E-05-2.65296E-05-2.01487E-05 9.75332E-19 3.77856E-19
 -1      3397 7.14957E-05-2.50505E-05-1.97792E-05-2.32922E-05-9.22948E-19-1.51651E-18
 -1      3398 7.70627E-05-3.14329E-05-1.92058E-05-2.83492E-05-3.59671E-19-1.32031E-18
 -1      3399 8.62030E-05-3.52047E-05-2.18903E-05-2.65099E-05-2.86932E-19-2.73549E-18
 -1      3400 1.17815E-04-1.79526E-05-4.30645E-05 9.88226E-06-1.15212E-18 6.32231E-19
 -1      3401 1.18696E-04-1.40052E-05-4.54566E-05 7.48407E-06-1.39909E-18 5.92394E-19
 -1      3402 4.90566E-05-1.30776E-05-1.49844E-05 6.05911E-06-7.65870E-19-1.86903E-18
 -1      3403 8.68756E-05-1.99313E-05-2.86944E-05-1.59180E-07-2.01590E-19-5.92754E-19
 -1      3404 8.68318E-05-1.98670E-05-2.87122E-05 1.57094E-06-2.07693E-19-3.18332E-20
 -1      3405 8.60366E-05-2.00954E-05-2.82376E-05-1.43944E-06-7.92403E-19-8.49699E-19
 -1      3406 1.32753E-04-5.57948E-05-3.30448E-05 1.03446E-06-7.84128E-19-2.72258E-18
 -1      3407 1.28059E-04-5.52450E-05-3.11357E-05 6.58415E-06-1.05190E-18-3.02266E-18
 -1      3408 1.21215E-04-5.42730E-05-2.87683E-05 1.45391E-05-1.15555E-18-2.37715E-18
 -1      3409 5.48655E-05-1.44914E-05-1.70015E-05-4.51444E-06-6.69685E-21 1.68517E-18
 -1      3410 1.19120E-04-3.96989E-05-3.40224E-05-1.00873E-05 8.40416E-20 1.85432E-18
 -1      3411 1.12984E-04-2.26247E-05-3.88037E-05 1.01558E-05-4.45804E-19 2.29996E-19
 -1      3412 9.82520E-05-4.59669E-05-2.21963E-05-3.04219E-05 2.35555E-19-1.34194E-18
 -1      3413 1.21281E-04-1.21761E-05-4.73070E-05 5.62386E-06-1.41052E-18-2.18429E-19
 -1      3414 1.15058E-04-1.30063E-05-4.40363E-05 3.86921E-06-1.14995E-18 1.16729E-18
 -1      3415 1.28335E-04-5.84930E-05-2.97441E-05-1.16434E-05-5.63330E-19-1.45409E-18
 -1      3416 1.26695E-04-4.05664E-05-3.70336E-05-1.03383E-05 3.49772E-19 1.50232E-18
 -1      3417 9.53521E-05-2.81574E-05-2.87889E-05-7.22218E-07 5.31618E-19-6.64067E-19
 -1      3418 9.56972E-05-2.79943E-05-2.90205E-05-4.80459E-07 5.28569E-19-6.77588E-19
 -1      3419 9.53224E-05-2.83180E-05-2.87177E-05-9.03408E-07 4.41997E-19-6.95297E-19
 -1      3420 1.28944E-04-5.31273E-05-3.26308E-05 3.24607E-06 1.10641E-18 3.46463E-19
 -1      3421 1.26037E-04-5.39744E-05-3.06859E-05 7.42648E-06 1.95227E-18-1.53789E-19
 -1      3422 1.26108E-04-4.98030E-05-3.27036E-05-1.36729E-06 1.17989E-18 1.59840E-18
 -1      3423 1.20094E-04-3.15976E-05-3.79329E-05 1.27191E-05-1.17828E-18-4.67245E-19
 -1      3424 1.18779E-04-2.59046E-05-4.02298E-05 1.27366E-05-1.27939E-18-6.39510E-19
 -1      3425 8.85155E-05-2.09534E-05-2.89820E-05 6.56313E-06-1.26764E-18 2.94249E-18
 -1      3426 8.94181E-05-2.15432E-05-2.90830E-05 7.55521E-06-2.04323E-18 2.71921E-18
 -1      3427 8.71663E-05-2.05425E-05-2.85291E-05 6.18319E-06-5.43797E-19 3.85216E-18
 -1      3428 9.34407E-05-2.02101E-05-3.14082E-05 4.25052E-06 8.85673E-19-1.28592E-18
 -1      3429 9.30853E-05-1.95557E-05-3.15228E-05 3.66117E-06 7.44968E-19-1.45824E-18
 -1      3430 9.37911E-05-2.08004E-05-3.12611E-05 2.84840E-06 6.56860E-19-1.48103E-18
 -1      3431 9.43487E-05-2.19801E-05-3.09946E-05 3.64450E-06 8.10762E-19-1.13896E-18
 -1      3432 6.46902E-05-2.53613E-05-1.66795E-05 2.82967E-05 2.26449E-19-1.85532E-18
 -1      3433 5.66981E-05-2.09371E-05-1.48447E-05 2.53552E-05 4.67562E-19-2.19006E-18
 -1      3434 5.75484E-05-1.83025E-05-1.66025E-05 1.99556E-05-2.06861E-19-2.46180E-18
 -1      3435 1.18944E-04-2.23498E-05-4.17882E-05-1.27891E-05-1.95077E-18 2.78144E-18
 -1      3436 9.25443E-05-1.86092E-05-3.16974E-05-2.37888E-06-3.00120E-19-1.62568E-18
 -1      3437 9.27731E-05-1.90112E-05-3.16309E-05-3.08623E-06-4.71284E-19-1.65762E-18
 -1      3438 1.08232E-04-5.19212E-05-2.37945E-05-2.66967E-05 2.78303E-19-2.12259E-18
 -1      3439 1.20599E-04-5.65811E-05-2.75268E-05-1.84144E-05-5.39454E-20-2.43735E-18
 -1      3440 1.18579E-04-5.42633E-05-2.76434E-05-1.68651E-05 5.14043E-20-1.01235E-18
 -1      3441 1.03422E-04-4.69169E-05-2.39113E-05-2.50696E-05 4.12399E-19-2.86411E-18
 -1      3442 5.70941E-05-2.26375E-05-1.44252E-05-2.70700E-05-1.73382E-18 7.48565E-19
 -1      3443 6.78144E-05-3.03143E-05-1.58553E-05-3.35575E-05-8.44227E-19 1.60725E-19
 -1      3444 6.14338E-05-2.13826E-05-1.67904E-05-2.24933E-05-1.13121E-18 4.49510E-19
 -1      3445 9.55997E-05-2.72986E-05-2.92602E-05-8.15320E-06-2.90088E-19 1.41894E-18
 -1      3446 9.48434E-05-2.66228E-05-2.92462E-05-8.20144E-06-2.95820E-19 3.37649E-18
 -1      3447 9.45948E-05-2.69494E-05-2.90019E-05-8.86384E-06-1.12699E-19 3.51288E-18
 -1      3448 9.60946E-05-2.80742E-05-2.91494E-05-8.60715E-06-6.70515E-19 1.94399E-18
 -1      3449 9.30511E-05-1.95009E-05-3.15317E-05-3.61990E-06-5.15506E-19-1.56224E-18
 -1      3450 9.33899E-05-2.01260E-05-3.14225E-05-4.23473E-06-6.05448E-19-1.35156E-18
 -1      3451 9.37612E-05-2.07561E-05-3.12690E-05-2.81597E-06-4.81932E-19-1.49070E-18
 -1      3452 7.71262E-05-3.31380E-05-1.84798E-05-3.12677E-05-5.88926E-19-9.29089E-19
 -1      3453 9.21710E-05-4.07297E-05-2.17782E-05-2.96479E-05 3.02285E-19-6.40608E-19
 -1      3454 1.02346E-04-4.65039E-05-2.40132E-05-2.62145E-05 6.94038E-20-1.13498E-18
 -1      3455 9.60480E-05-2.69044E-05-2.96238E-05-4.48243E-07-3.07212E-19-6.76959E-19
 -1      3456 9.60960E-05-2.73929E-05-2.94516E-05-3.12370E-08-2.79238E-19-6.77792E-19
 -1      3457 9.61768E-05-2.78072E-05-2.92938E-05 2.52679E-07-3.72527E-19-6.54569E-19
 -1      3458 9.61714E-05-2.81186E-05-2.91699E-05 5.11795E-07-3.96591E-19-5.57996E-19
 -1      3459 9.62826E-05-2.74388E-05-2.95048E-05 2.05068E-08-2.37340E-19-8.22416E-19
 -1      3460 9.61775E-05-2.83724E-05-2.90538E-05 6.80958E-07-3.69223E-19-2.81020E-19
 -1      3461 9.61462E-05-2.85600E-05-2.89676E-05 8.26452E-07-4.16160E-20-3.04799E-19
 -1      3462 9.63693E-05-2.81810E-05-2.92251E-05 4.93560E-07-2.39926E-19-5.42448E-19
 -1      3463 9.61077E-05-2.87007E-05-2.88850E-05 9.14204E-07-3.52795E-20-4.65560E-19
 -1      3464 9.60648E-05-2.88009E-05-2.88278E-05 9.84293E-07 8.25859E-20-5.81805E-19
 -1      3465 9.63388E-05-2.86283E-05-2.90208E-05 7.69557E-07-4.36303E-20-2.91308E-19
 -1      3466 9.60010E-05-2.88621E-05-2.87717E-05 1.02002E-06 2.54821E-19-8.19071E-19
 -1      3467 9.59539E-05-2.89002E-05-2.87366E-05 1.04508E-06 3.35486E-20-7.02660E-19
 -1      3468 9.62390E-05-2.88644E-05-2.88770E-05 9.09894E-07 4.20225E-20-7.45093E-19
 -1      3469 9.58764E-05-2.89049E-05-2.87012E-05 1.05227E-06-7.94915E-21-5.61937E-19
 -1      3470 9.58286E-05-2.88983E-05-2.86830E-05 1.05569E-06 2.92661E-20-4.99773E-19
 -1      3471 9.61004E-05-2.89494E-05-2.87809E-05 9.67055E-07 1.43077E-19-1.08329E-18
 -1      3472 9.57435E-05-2.88621E-05-2.86635E-05 1.05268E-06-3.60795E-20-4.74878E-19
 -1      3473 9.56963E-05-2.88226E-05-2.86582E-05 1.05231E-06 2.30723E-20-2.51444E-19
 -1      3474 9.59403E-05-2.89255E-05-2.87222E-05 9.82826E-07-3.27186E-20-6.46837E-19
 -1      3475 9.56062E-05-2.87556E-05-2.86511E-05 1.05338E-06-1.98353E-20-5.96254E-19
 -1      3476 9.55593E-05-2.86907E-05-2.86557E-05 1.06294E-06-1.82156E-19-5.36189E-19
 -1      3477 9.57673E-05-2.88211E-05-2.86925E-05 9.89926E-07-2.29932E-19-5.69319E-19
 -1      3478 9.54642E-05-2.85993E-05-2.86580E-05 1.07930E-06-4.28132E-19-7.31110E-19
 -1      3479 9.54169E-05-2.85137E-05-2.86702E-05 1.10961E-06-3.23262E-19-1.01387E-18
 -1      3480 9.55841E-05-2.86545E-05-2.86849E-05 1.01396E-06-3.21770E-19-1.09585E-18
 -1      3481 9.53150E-05-2.84014E-05-2.86795E-05 1.15043E-06-1.32493E-19-1.05376E-18
 -1      3482 9.52658E-05-2.82981E-05-2.86976E-05 1.21031E-06-3.44238E-19-7.64176E-19
 -1      3483 9.53890E-05-2.84369E-05-2.86941E-05 1.07541E-06-2.16531E-19-1.24144E-18
 -1      3484 9.51543E-05-2.81671E-05-2.87118E-05 1.28349E-06-4.38213E-19-7.73583E-19
 -1      3485 9.51022E-05-2.80485E-05-2.87342E-05 1.38039E-06-4.39665E-19-7.52931E-19
 -1      3486 9.51773E-05-2.81749E-05-2.87151E-05 1.19142E-06-3.50832E-19-9.65023E-19
 -1      3487 9.49780E-05-2.79004E-05-2.87512E-05 1.49306E-06-6.14913E-19-6.78282E-19
 -1      3488 9.49222E-05-2.77694E-05-2.87764E-05 1.63335E-06-7.76807E-19-7.20873E-19
 -1      3489 9.49434E-05-2.78729E-05-2.87438E-05 1.37703E-06-4.04779E-19-9.57692E-19
 -1      3490 9.47829E-05-2.76071E-05-2.87939E-05 1.79214E-06-8.64614E-19-4.63349E-19
 -1      3491 9.47243E-05-2.74684E-05-2.88201E-05 1.98111E-06-7.79977E-19-3.10323E-19
 -1      3492 9.46814E-05-2.75361E-05-2.87753E-05 1.64602E-06-6.17764E-19-3.11629E-19
 -1      3493 9.45689E-05-2.72975E-05-2.88355E-05 2.19229E-06-4.21193E-19 1.10609E-19
 -1      3494 9.45110E-05-2.71597E-05-2.88605E-05 2.43390E-06 3.15740E-19-3.78181E-19
 -1      3495 9.43879E-05-2.71734E-05-2.88046E-05 2.01140E-06-3.04360E-19 2.96171E-19
 -1      3496 9.43421E-05-2.69904E-05-2.88704E-05 2.70327E-06 2.98664E-19-5.29757E-19
 -1      3497 9.42928E-05-2.68680E-05-2.88912E-05 2.99947E-06 1.88886E-19-4.82796E-19
 -1      3498 9.40643E-05-2.68013E-05-2.88251E-05 2.48564E-06 7.29461E-20 2.30254E-19
 -1      3499 9.41189E-05-2.67182E-05-2.88916E-05 3.33210E-06 7.72849E-19-7.93205E-19
 -1      3500 9.40931E-05-2.66348E-05-2.89047E-05 3.68195E-06 7.80549E-19-3.37375E-19
 -1      3501 9.37209E-05-2.64488E-05-2.88291E-05 3.08051E-06 4.55679E-19-4.08769E-19
 -1      3502 9.39321E-05-2.65331E-05-2.88906E-05 4.08172E-06 3.79841E-19 1.05480E-19
 -1      3503 9.39558E-05-2.65246E-05-2.88918E-05 4.47996E-06 5.96897E-19-3.86149E-19
 -1      3504 9.33829E-05-2.61639E-05-2.88071E-05 3.80690E-06 8.07135E-19-4.02599E-19
 -1      3505 9.38398E-05-2.65143E-05-2.88579E-05 4.94872E-06 4.72480E-19-2.92287E-19
 -1      3506 9.39550E-05-2.66331E-05-2.88430E-05 5.38370E-06-5.27153E-20-1.15852E-19
 -1      3507 9.30982E-05-2.60205E-05-2.87484E-05 4.67419E-06 4.02639E-19-5.17799E-20
 -1      3508 9.39372E-05-2.67765E-05-2.87848E-05 5.91944E-06-5.83706E-19-3.49810E-19
 -1      3509 9.42081E-05-2.70948E-05-2.87511E-05 6.36956E-06-1.52846E-19-6.96792E-19
 -1      3510 9.29493E-05-2.61279E-05-2.86421E-05 5.68874E-06-3.35739E-19 1.73473E-19
 -1      3511 9.43723E-05-2.74765E-05-2.86662E-05 6.96198E-06 3.50328E-19-8.02179E-19
 -1      3512 9.48911E-05-2.80876E-05-2.86153E-05 7.38903E-06 1.93626E-19-7.09187E-19
 -1      3513 9.30686E-05-2.66395E-05-2.84804E-05 6.84946E-06-1.40242E-19-5.71907E-19
 -1      3514 9.53626E-05-2.88151E-05-2.85080E-05 8.00893E-06-3.60527E-21-5.67906E-19
 -1      3515 9.62518E-05-2.98266E-05-2.84507E-05 8.34501E-06 5.27393E-19-4.22478E-19
 -1      3516 9.36593E-05-2.77607E-05-2.82639E-05 8.13544E-06 3.32260E-19-5.56935E-19
 -1      3517 9.72090E-05-3.10208E-05-2.83386E-05 8.92015E-06 8.61400E-19-9.05743E-19
 -1      3518 9.86068E-05-3.25297E-05-2.83029E-05 9.04543E-06 7.67149E-19-7.47740E-19
 -1      3519 9.50190E-05-2.97473E-05-2.80121E-05 9.47476E-06 5.28829E-19-9.92504E-19
 -1      3520 1.00284E-04-3.42914E-05-2.82314E-05 9.40244E-06 6.55168E-19-5.18028E-19
 -1      3521 1.02289E-04-3.62994E-05-2.82753E-05 9.10811E-06 7.13739E-19-5.76743E-20
 -1      3522 9.75614E-05-3.28804E-05-2.77849E-05 1.06685E-05 8.16990E-19-8.60617E-19
 -1      3523 1.04906E-04-3.85993E-05-2.83349E-05 8.93303E-06 7.40474E-19 1.79930E-19
 -1      3524 1.07505E-04-4.09002E-05-2.85573E-05 7.91440E-06 8.96801E-19 2.39520E-19
 -1      3525 1.01748E-04-3.72921E-05-2.77189E-05 1.12680E-05 9.22692E-19-8.85507E-19
 -1      3526 1.11127E-04-4.34042E-05-2.89074E-05 6.65330E-06 8.32238E-19 3.71427E-19
 -1      3527 1.13834E-04-4.53004E-05-2.94012E-05 4.67969E-06 1.01349E-18 4.82966E-20
 -1      3528 1.07896E-04-4.26820E-05-2.80681E-05 1.03902E-05 1.07633E-18-8.00982E-19
 -1      3529 1.19833E-04-4.78804E-05-3.07939E-05 9.69181E-07 1.13904E-18 5.01066E-19
 -1      3530 1.21766E-04-4.71701E-05-3.20492E-05-2.40255E-06 6.47358E-19 1.16310E-18
 -1      3531 1.11760E-04-1.45597E-05-4.19292E-05 4.01330E-07-9.33113E-19 1.81858E-18
 -1      3532 1.25981E-04-4.95372E-05-3.26775E-05 1.33846E-06 1.53476E-18-1.12735E-19
 -1      3533 1.24323E-04-4.17026E-05-3.57534E-05 9.37081E-06 5.54542E-21-7.63018E-19
 -1      3534 1.20780E-04-4.18178E-05-3.38418E-05 8.02139E-06-2.51595E-19 2.93659E-19
 -1      3535 1.20436E-04-4.49196E-05-3.24918E-05 4.93329E-06 2.58845E-19 5.98823E-19
 -1      3536 1.18473E-04-4.68227E-05-3.06831E-05-1.03602E-06 4.69235E-19 9.06464E-19
 -1      3537 1.16201E-04-4.64351E-05-2.98235E-05-4.03069E-06 4.79719E-19 1.58254E-18
 -1      3538 1.12212E-04-4.42997E-05-2.91430E-05-6.60788E-06 3.03903E-19 1.63618E-18
 -1      3539 1.09556E-04-4.22693E-05-2.87364E-05-8.40309E-06 2.59262E-19 1.68925E-18
 -1      3540 1.13929E-04-4.67845E-05-2.88898E-05-8.82020E-06 4.95082E-19 2.31586E-18
 -1      3541 1.06359E-04-3.98163E-05-2.85257E-05-9.39817E-06 3.21328E-19 9.69292E-19
 -1      3542 1.04006E-04-3.75816E-05-2.83980E-05-1.02390E-05 2.50123E-20 1.02229E-18
 -1      3543 1.06703E-04-4.15215E-05-2.80507E-05-1.16529E-05-1.01640E-19 1.57633E-18
 -1      3544 1.01798E-04-3.54380E-05-2.84288E-05-1.03130E-05-6.13014E-19 1.49160E-18
 -1      3545 1.00016E-04-3.35329E-05-2.84518E-05-1.05232E-05-1.02564E-18 1.87431E-18
 -1      3546 1.01337E-04-3.63551E-05-2.79330E-05-1.21713E-05 1.31257E-20 1.61912E-18
 -1      3547 9.86433E-05-3.18916E-05-2.85957E-05-1.01625E-05-1.70236E-18 2.68807E-18
 -1      3548 9.74141E-05-3.04162E-05-2.86945E-05-9.98385E-06-1.73915E-18 2.25419E-18
 -1      3549 9.78468E-05-3.22503E-05-2.81626E-05-1.15075E-05-5.78342E-19 1.77641E-18
 -1      3550 9.22658E-05-1.81325E-05-3.17833E-05-1.01080E-06-3.99457E-20-1.70403E-18
 -1      3551 9.23771E-05-1.83235E-05-3.17523E-05-1.76424E-06-1.87402E-19-1.57225E-18
 -1      3552 9.33633E-05-1.99902E-05-3.14270E-05-1.76782E-06-2.48012E-19-1.51938E-18
 -1      3553 9.53962E-05-2.85383E-05-2.86507E-05-1.14241E-06-1.29929E-20-2.73270E-19
 -1      3554 9.54198E-05-2.86112E-05-2.86339E-05-1.11677E-06 1.77806E-19-4.27289E-19
 -1      3555 9.54950E-05-2.86907E-05-2.86280E-05-1.10513E-06 1.89600E-19-5.25577E-19
 -1      3556 9.55189E-05-2.87427E-05-2.86193E-05-1.10084E-06 2.11939E-19-4.56431E-19
 -1      3557 9.55493E-05-2.86694E-05-2.86637E-05-1.07607E-06 1.66987E-19-5.66994E-19
 -1      3558 9.51663E-05-2.81063E-05-2.87366E-05-1.40316E-06-6.15151E-22-1.20212E-18
 -1      3559 9.51962E-05-2.82197E-05-2.87073E-05-1.30601E-06-7.76162E-20-1.36972E-18
 -1      3560 9.50180E-05-2.78208E-05-2.87951E-05-1.66039E-06 3.44775E-19-1.09317E-18
 -1      3561 9.50560E-05-2.79569E-05-2.87608E-05-1.51464E-06 3.26706E-19-1.09406E-18
 -1      3562 9.50199E-05-2.79301E-05-2.87519E-05-1.42073E-06 1.68958E-19-1.28187E-18
 -1      3563 9.48316E-05-2.74809E-05-2.88605E-05-2.02308E-06-5.14204E-20-1.34480E-18
 -1      3564 9.48824E-05-2.76425E-05-2.88221E-05-1.82062E-06 2.79143E-19-1.06660E-18
 -1      3565 9.47767E-05-2.75734E-05-2.87996E-05-1.69004E-06 2.69344E-19-1.14301E-18
 -1      3566 9.45911E-05-2.70796E-05-2.89292E-05-2.50613E-06-4.71683E-19-8.87954E-19
 -1      3567 9.46606E-05-2.72694E-05-2.88882E-05-2.23916E-06-4.03783E-19-1.14206E-18
 -1      3568 9.44736E-05-2.71502E-05-2.88499E-05-2.06021E-06-2.72555E-19-1.30059E-18
 -1      3569 9.42777E-05-2.66112E-05-2.89953E-05-3.12359E-06-1.15245E-19 5.84732E-19
 -1      3570 9.43728E-05-2.68307E-05-2.89543E-05-2.78484E-06-2.22884E-19-2.34096E-19
 -1      3571 9.40890E-05-2.66525E-05-2.88970E-05-2.54379E-06-7.21323E-19-2.22283E-19
 -1      3572 9.38699E-05-2.60757E-05-2.90498E-05-3.88823E-06 7.72578E-20 7.55339E-19
 -1      3573 9.39980E-05-2.63229E-05-2.90131E-05-3.47142E-06 2.76236E-19 4.44821E-19
 -1      3574 9.35974E-05-2.60743E-05-2.89322E-05-3.15221E-06-4.71687E-20 3.84448E-19
 -1      3575 9.33472E-05-2.54843E-05-2.90789E-05-4.81145E-06 2.46624E-19 2.89197E-19
 -1      3576 9.35141E-05-2.57502E-05-2.90532E-05-4.31161E-06 1.25271E-19 4.00283E-19
 -1      3577 9.29700E-05-2.54163E-05-2.89430E-05-3.89605E-06 3.03240E-19 3.94771E-19
 -1      3578 9.26961E-05-2.48706E-05-2.90619E-05-5.90449E-06 2.61948E-19 3.15037E-19
 -1      3579 9.29012E-05-2.51331E-05-2.90574E-05-5.31787E-06 4.94823E-19 3.31004E-19
 -1      3580 9.21778E-05-2.46920E-05-2.89112E-05-4.78654E-06 6.09010E-19-1.24077E-24
 -1      3581 9.19236E-05-2.43076E-05-2.89701E-05-7.18263E-06-5.87101E-19-3.04136E-19
 -1      3582 9.21514E-05-2.45213E-05-2.90009E-05-6.50543E-06-2.77144E-19-8.99176E-21
 -1      3583 9.11970E-05-2.39391E-05-2.88106E-05-5.84012E-06 1.14016E-19 1.13756E-19
 -1      3584 9.10826E-05-2.39347E-05-2.87649E-05-8.67459E-06-8.87064E-19-1.01201E-18
 -1      3585 9.12852E-05-2.40151E-05-2.88496E-05-7.89977E-06-6.58795E-19-6.40779E-19
 -1      3586 9.00205E-05-2.32355E-05-2.86052E-05-7.08891E-06-4.46775E-19-9.20897E-19
 -1      3587 9.03163E-05-2.39985E-05-2.83997E-05-1.04376E-05-2.73897E-19-1.89553E-18
 -1      3588 9.03849E-05-2.37987E-05-2.85592E-05-9.55042E-06-5.96238E-19-1.27236E-18
 -1      3589 8.86795E-05-2.27265E-05-2.82475E-05-8.60049E-06-3.28516E-19-1.10204E-18
 -1      3590 8.99327E-05-2.49084E-05-2.78273E-05-1.25727E-05-9.28202E-19-1.19428E-18
 -1      3591 8.96510E-05-2.41877E-05-2.80788E-05-1.15499E-05-6.21910E-19-1.20571E-18
 -1      3592 8.72831E-05-2.26649E-05-2.76783E-05-1.05096E-05-9.51835E-19-1.56961E-18
 -1      3593 9.05018E-05-2.72985E-05-2.70199E-05-1.52173E-05-1.30289E-18-1.10945E-18
 -1      3594 8.95023E-05-2.56958E-05-2.73622E-05-1.40456E-05-9.65607E-19-8.84656E-19
 -1      3595 8.60880E-05-2.34699E-05-2.68312E-05-1.30563E-05-1.21586E-18-9.93255E-19
 -1      3596 9.31368E-05-3.21018E-05-2.60480E-05-1.83668E-05-1.23795E-18-2.30375E-18
 -1      3597 9.07450E-05-2.91201E-05-2.63983E-05-1.71296E-05-1.29291E-18-1.68193E-18
 -1      3598 8.57266E-05-2.58688E-05-2.56499E-05-1.66257E-05-1.04852E-18-1.86430E-18
 -1      3599 1.10656E-04-4.89311E-05-2.63307E-05-2.04742E-05 3.47489E-19-1.78910E-18
 -1      3600 1.21225E-04-3.43667E-05-3.76014E-05-1.32453E-05-4.89744E-19 2.96170E-18
 -1      3601 1.23322E-04-4.17355E-05-3.50126E-05-9.28913E-06 7.74797E-19 2.72649E-18
 -1      3602 9.04206E-05-2.46228E-05-2.82167E-05 1.32761E-05 9.70681E-19 1.70811E-18
 -1      3603 9.07715E-05-2.55260E-05-2.79173E-05 1.42829E-05 8.04275E-19 1.73738E-18
 -1      3604 9.15773E-05-2.98926E-05-2.63634E-05 1.87419E-05 4.71361E-20 7.38970E-20
 -1      3605 9.38041E-05-3.32888E-05-2.59242E-05 2.02165E-05 1.03497E-19-8.14366E-19
 -1      3606 9.11052E-05-2.38103E-05-2.88549E-05 1.12288E-05 7.10324E-19 3.10006E-19
 -1      3607 9.10895E-05-2.42562E-05-2.86210E-05 1.21423E-05 1.50374E-18 8.06026E-19
 -1      3608 8.83505E-05-2.30821E-05-2.79584E-05 1.22171E-05 1.90505E-18 3.03308E-18
 -1      3609 8.58857E-05-1.97931E-05-2.82989E-05 2.65685E-06-1.28617E-18 1.70864E-18
 -1      3610 5.36903E-05-1.34476E-05-1.69518E-05-7.86807E-06-8.68864E-19-8.53227E-19
 -1      3611 6.08788E-05-1.79873E-05-1.83197E-05-1.63193E-05-1.08076E-18-1.20988E-18
 -1      3612 1.14611E-04-2.15329E-05-4.01398E-05 1.07096E-05-9.52806E-19 1.12274E-18
 -1      3613 5.40801E-05-1.40022E-05-1.70194E-05 9.88448E-06-9.18157E-19-1.36150E-18
 -1      3614 5.17515E-05-1.23766E-05-1.66817E-05 1.55261E-07-1.14248E-18-1.58554E-18
 -1      3615 5.98508E-05-1.47034E-05-1.93365E-05-7.35703E-07 4.27388E-19 1.83811E-18
 -1      3616 5.98236E-05-1.57834E-05-1.85992E-05-1.11391E-05-3.45351E-19 2.21960E-18
 -1      3617 8.70808E-05-2.19004E-05-2.79024E-05-6.56136E-06-1.24963E-19 1.52193E-19
 -1      3618 8.58564E-05-2.10641E-05-2.78106E-05-5.01430E-06-4.72925E-19-3.27046E-19
 -1      3619 9.47330E-05-2.28975E-05-3.07799E-05-3.44882E-06-5.72744E-19-8.97096E-19
 -1      3620 9.52082E-05-2.43375E-05-3.03906E-05-2.28429E-06-4.52079E-19-8.06138E-19
 -1      3621 9.30880E-05-3.59546E-05-2.45531E-05 2.33664E-05-8.22856E-19-1.39840E-18
 -1      3622 8.09337E-05-2.69414E-05-2.28714E-05 2.19568E-05-3.17469E-19-1.06299E-18
 -1      3623 1.18275E-04-2.71604E-05-3.90916E-05-1.32172E-05-1.53059E-18 3.38837E-18
 -1      3624 6.18296E-05-1.83567E-05-1.85530E-05-1.63342E-05-1.59865E-19 1.40163E-18
 -1      3625 6.74501E-05-2.29905E-05-1.89477E-05-2.26435E-05-4.60561E-19-3.05249E-19
 -1      3626 6.65991E-05-1.80839E-05-2.06162E-05-1.16026E-05 2.05439E-20 2.02016E-18
 -1      3627 1.22247E-04-3.84938E-05-3.60753E-05 1.13223E-05-9.93444E-19-1.27989E-18
 -1      3628 9.03285E-05-2.64371E-05-2.73946E-05 1.57374E-05-2.40748E-19 1.63320E-18
 -1      3629 9.14566E-05-2.82143E-05-2.70275E-05 1.68920E-05-7.79529E-19 1.30038E-18
 -1      3630 8.68421E-05-2.70827E-05-2.56839E-05 1.83645E-05-5.36987E-19 3.03871E-19
 -1      3631 8.71358E-05-2.42282E-05-2.69561E-05 1.48155E-05 5.67198E-20 2.87386E-18
 -1      3632 1.12446E-04-5.10929E-05-2.59645E-05 2.19367E-05-1.14773E-18-2.00683E-18
 -1      3633 1.06300E-04-4.60837E-05-2.58512E-05 2.24487E-05-1.38350E-18-1.35181E-18
 -1      3634 7.50949E-05-2.91180E-05-1.95182E-05-2.72992E-05-7.26344E-19-1.54499E-18
 -1      3635 8.39110E-05-3.56609E-05-2.06567E-05-2.99185E-05-1.33858E-19-1.41759E-18
 -1      3636 8.99856E-05-3.69346E-05-2.25368E-05-2.62605E-05 3.43631E-19-1.34734E-18
 -1      3637 9.59104E-05-2.73663E-05-2.93830E-05 9.72980E-08 5.64993E-19-7.04342E-19
 -1      3638 9.58898E-05-2.68988E-05-2.95570E-05 5.59522E-07 6.05606E-19-6.29116E-19
 -1      3639 9.04809E-05-2.22544E-05-2.92651E-05 8.38294E-06-2.06828E-18 3.20207E-19
 -1      3640 9.15947E-05-2.30441E-05-2.93762E-05 8.94776E-06-1.64761E-18 1.11389E-19
 -1      3641 9.15952E-05-2.33152E-05-2.92584E-05 9.62363E-06-1.89064E-18-3.15017E-19
 -1      3642 8.91251E-05-2.17706E-05-2.88691E-05 8.43500E-06-1.12412E-18 1.75856E-18
 -1      3643 9.57007E-05-2.55127E-05-3.00642E-05-1.49779E-06-4.32457E-19-8.38797E-19
 -1      3644 9.58482E-05-2.62644E-05-2.98331E-05-8.78932E-07-3.99596E-19-8.30866E-19
 -1      3645 9.60029E-05-2.62893E-05-2.98770E-05-7.14415E-07-2.93131E-19-7.91341E-19
 -1      3646 7.13715E-05-2.17745E-05-2.13978E-05 1.87466E-05-9.38643E-19-1.97623E-19
 -1      3647 6.37227E-05-1.63456E-05-2.01629E-05 1.04424E-05-1.11932E-18 2.75206E-19
 -1      3648 7.89876E-05-2.38445E-05-2.35126E-05 1.77137E-05-3.90105E-19-9.81417E-19
 -1      3649 9.52891E-05-2.83440E-05-2.86877E-05-1.23591E-06 2.16253E-19-1.15368E-18
 -1      3650 9.53144E-05-2.84368E-05-2.86643E-05-1.17897E-06 1.61361E-19-6.59832E-19
 -1      3651 9.53940E-05-2.84739E-05-2.86804E-05-1.12922E-06 2.95759E-19-7.68433E-19
 -1      3652 9.52211E-05-2.82284E-05-2.87110E-05-1.23869E-06 1.50964E-19-1.28301E-18
 -1      3653 9.57763E-05-2.88383E-05-2.86870E-05-1.10734E-06 4.82501E-20-4.08708E-19
 -1      3654 9.58077E-05-2.87943E-05-2.87176E-05-1.08253E-06-1.75120E-20-6.06275E-19
 -1      3655 9.57330E-05-2.63966E-05-2.97248E-05 9.86798E-07 6.08895E-19-5.59235E-19
 -1      3656 9.56611E-05-2.58450E-05-2.99058E-05 1.57252E-06 7.03883E-19-7.50973E-19
 -1      3657 9.58939E-05-2.63846E-05-2.97912E-05 8.20890E-07 6.57109E-19-7.23680E-19
 -1      3658 1.03531E-04-4.87944E-05-2.32368E-05 2.88041E-05 1.86919E-18-3.54618E-18
 -1      3659 9.54193E-05-4.33933E-05-2.21995E-05 2.92659E-05 1.48945E-18-3.15237E-18
 -1      3660 1.09971E-04-5.05729E-05-2.55258E-05 2.24211E-05 2.00487E-18-2.58074E-18
 -1      3661 9.56841E-05-2.88525E-05-2.86406E-05-1.11498E-06 1.41477E-19-4.72471E-19
 -1      3662 9.57126E-05-2.88496E-05-2.86545E-05-1.11478E-06-1.41388E-20-4.17138E-19
 -1      3663 9.59604E-05-2.89010E-05-2.87419E-05-1.04627E-06 1.11717E-20-4.94925E-19
 -1      3664 1.17837E-04-4.88151E-05-2.96597E-05 6.18842E-06 1.70849E-18 1.53816E-19
 -1      3665 9.58620E-05-2.87307E-05-2.87709E-05-1.04155E-06-6.48513E-20-7.36877E-19
 -1      3666 9.58951E-05-2.86297E-05-2.88237E-05-9.66721E-07-8.65865E-20-5.90877E-19
 -1      3667 9.60752E-05-2.88041E-05-2.88329E-05-9.82599E-07-3.01532E-20-7.77718E-19
 -1      3668 9.41130E-05-2.15166E-05-3.11272E-05 1.76651E-06 5.29718E-19-1.54214E-18
 -1      3669 9.39759E-05-2.12241E-05-3.11866E-05 1.25006E-06 3.58061E-19-1.43997E-18
 -1      3670 1.21295E-04-4.76309E-05-3.15018E-05 2.84798E-07 3.78652E-19-1.24726E-19
 -1      3671 9.02644E-05-2.42949E-05-2.82233E-05-8.81866E-06-1.55417E-18-1.54555E-18
 -1      3672 8.86951E-05-2.32625E-05-2.80812E-05-7.92230E-06-1.13768E-18-1.15754E-18
 -1      3673 8.72333E-05-2.29338E-05-2.75604E-05-8.17223E-06-8.20973E-19-1.05604E-18
 -1      3674 9.39644E-05-2.12055E-05-3.11898E-05-1.21958E-06-5.06766E-20-1.45107E-18
 -1      3675 9.40966E-05-2.14879E-05-3.11319E-05-1.73857E-06-2.10823E-19-1.43766E-18
 -1      3676 9.31633E-05-1.96196E-05-3.15011E-05-5.88884E-07 1.90548E-20-1.70933E-18
 -1      3677 9.70410E-05-2.96391E-05-2.88758E-05-9.43546E-06-1.17919E-18 2.02333E-18
 -1      3678 9.63429E-05-2.86798E-05-2.89878E-05-9.10213E-06-4.29965E-19 1.77782E-18
 -1      3679 9.56003E-05-2.81566E-05-2.88980E-05-9.32455E-06-1.98061E-19 3.26942E-18
 -1      3680 9.61983E-05-2.96275E-05-2.85322E-05-1.03970E-05-1.63877E-18 3.53294E-18
 -1      3681 8.09029E-05-3.41004E-05-1.99956E-05 2.97512E-05 8.99920E-19-1.88436E-18
 -1      3682 7.24444E-05-2.94023E-05-1.80551E-05 2.99201E-05 5.57824E-19-1.58956E-18
 -1      3683 6.95592E-05-2.52780E-05-1.88932E-05 2.54073E-05 5.89906E-19-1.38080E-18
 -1      3684 1.21549E-04-5.34327E-05-2.92169E-05 1.11979E-05 2.22637E-18-5.11634E-19
 -1      3685 9.56939E-05-2.88125E-05-2.86648E-05-1.06058E-06 4.99181E-19-3.83707E-19
 -1      3686 9.55902E-05-2.87982E-05-2.86231E-05-1.10407E-06 5.53802E-19-3.87113E-19
 -1      3687 9.56158E-05-2.88259E-05-2.86243E-05-1.10925E-06 6.73930E-19-2.31795E-19
 -1      3688 1.02216E-04-4.40205E-05-2.46536E-05-2.36112E-05 1.69486E-19-2.57959E-18
 -1      3689 9.09088E-05-3.33729E-05-2.45483E-05-2.14152E-05-1.00718E-18-2.62470E-18
 -1      3690 8.34562E-05-2.85709E-05-2.34522E-05-2.13484E-05-6.75601E-19-2.00616E-18
 -1      3691 8.41049E-05-1.93997E-05-2.77399E-05 1.64829E-06-1.82124E-18 4.30723E-19
 -1      3692 8.44752E-05-1.95575E-05-2.78253E-05 3.74559E-06-1.23060E-18 2.62043E-18
 -1      3693 9.49756E-05-3.80614E-05-2.42278E-05-2.26798E-05-3.84791E-19-2.74248E-18
 -1      3694 9.42448E-05-2.18110E-05-3.10476E-05-2.12296E-06-2.93474E-19-1.45959E-18
 -1      3695 9.44443E-05-2.22647E-05-3.09432E-05-2.53666E-06-4.02166E-19-1.38957E-18
 -1      3696 9.48252E-05-2.28636E-05-3.08221E-05-1.54462E-06-1.15969E-19-1.36887E-18
 -1      3697 1.01580E-04-4.06856E-05-2.58897E-05 2.16717E-05-1.12396E-18-4.35573E-19
 -1      3698 1.03091E-04-4.44944E-05-2.50692E-05-2.25854E-05 8.57621E-20 5.28697E-19
 -1      3699 1.09217E-04-4.89536E-05-2.56083E-05-2.20341E-05-4.13590E-20-1.07484E-20
 -1      3700 1.13517E-04-4.99976E-05-2.73498E-05-1.62827E-05 6.99784E-19 1.89665E-18
 -1      3701 6.42027E-05-1.52568E-05-2.07926E-05 4.80897E-06-4.25257E-19 1.11844E-18
 -1      3702 6.71014E-05-1.58927E-05-2.19548E-05-1.37881E-06-2.47727E-19 1.65799E-18
 -1      3703 7.03893E-05-1.74042E-05-2.26700E-05 7.98103E-06-5.84817E-19 8.24732E-20
 -1      3704 9.17235E-05-2.36498E-05-2.91652E-05 1.02670E-05-1.83997E-18-1.22972E-18
 -1      3705 9.51501E-05-2.41287E-05-3.04276E-05 3.16355E-06 9.12939E-19-8.72159E-19
 -1      3706 9.48337E-05-2.32810E-05-3.06728E-05 3.35738E-06 8.76420E-19-9.37807E-19
 -1      3707 9.45833E-05-2.26254E-05-3.08426E-05 3.10276E-06 7.94633E-19-1.13073E-18
 -1      3708 9.53280E-05-2.49355E-05-3.01803E-05 2.33468E-06 8.36184E-19-8.62392E-19
 -1      3709 9.53217E-05-2.43597E-05-3.04146E-05-1.93810E-06-3.99587E-19-9.83702E-19
 -1      3710 5.82545E-05-1.39702E-05-1.87236E-05-3.34242E-06-1.14235E-18-1.07420E-18
 -1      3711 1.18620E-04-5.06653E-05-2.89586E-05-9.91415E-06 1.24395E-18 1.19307E-18
 -1      3712 1.22702E-04-5.22183E-05-3.04087E-05-6.37797E-06 1.26781E-18 5.14394E-19
 -1      3713 6.79909E-05-2.09988E-05-1.98313E-05-1.93766E-05-1.12945E-18-1.97414E-18
 -1      3714 7.54886E-05-2.47177E-05-2.17174E-05-2.03758E-05-1.06984E-18-1.98673E-18
 -1      3715 6.58148E-05-1.80647E-05-2.04184E-05-1.43197E-05-1.06704E-18-1.94389E-18
 -1      3716 5.72948E-05-1.55307E-05-1.75585E-05 1.37035E-05-8.85646E-19-1.64457E-18
 -1      3717 5.91234E-05-1.46004E-05-1.89833E-05 8.46504E-06-1.11416E-18-1.17894E-18
 -1      3718 6.18377E-05-1.84411E-05-1.85017E-05 1.74665E-05-6.02075E-19-1.57257E-18
 -1      3719 9.56514E-05-2.84020E-05-2.88255E-05-8.87937E-07 2.06605E-19-5.55920E-19
 -1      3720 8.48269E-05-2.01031E-05-2.77235E-05-2.87167E-06-1.01165E-18-7.22956E-20
 -1      3721 8.42614E-05-1.96873E-05-2.77050E-05-8.70559E-07-1.43113E-18 1.51053E-19
 -1      3722 8.28932E-05-1.93109E-05-2.72229E-05 1.89571E-07-1.73520E-18 1.30417E-18
 -1      3723 8.41754E-05-2.05105E-05-2.72641E-05-4.58915E-06-1.27574E-18 5.34111E-19
 -1      3724 8.97192E-05-2.26501E-05-2.87289E-05 1.01401E-05 4.79469E-19 1.94111E-19
 -1      3725 8.52321E-05-2.00005E-05-2.79957E-05 5.73580E-06 4.14504E-19 4.59864E-18
 -1      3726 8.62586E-05-2.05299E-05-2.81500E-05 7.22841E-06-2.36890E-19 3.38821E-18
 -1      3727 8.35674E-05-1.94885E-05-2.74290E-05 4.85159E-06-6.75228E-19 2.20563E-18
 -1      3728 9.38905E-05-2.10529E-05-3.12279E-05 8.08899E-07 3.04976E-19-1.49522E-18
 -1      3729 9.38427E-05-2.09537E-05-3.12475E-05 2.46885E-07 2.02270E-19-1.80883E-18
 -1      3730 9.46364E-05-2.23880E-05-3.09454E-05 8.30813E-07 3.27981E-19-1.41776E-18
 -1      3731 7.50421E-05-2.57432E-05-2.09346E-05-2.18633E-05-2.66458E-19-1.12438E-18
 -1      3732 9.59772E-05-2.77677E-05-2.92237E-05-2.29394E-07 4.75532E-19-8.09839E-19
 -1      3733 9.61220E-05-2.73956E-05-2.94560E-05 3.92787E-08 5.80720E-19-8.65790E-19
 -1      3734 9.59598E-05-2.80658E-05-2.91018E-05-5.14120E-07 4.06382E-19-7.68327E-19
 -1      3735 1.23225E-04-4.59015E-05-3.33177E-05-5.95604E-06 5.76366E-19 1.67154E-18
 -1      3736 9.47848E-05-2.75436E-05-2.88209E-05-9.37257E-06-1.52996E-19 2.62832E-18
 -1      3737 9.43359E-05-2.19871E-05-3.09932E-05-3.74814E-06-6.34891E-19-1.03108E-18
 -1      3738 9.45511E-05-2.80253E-05-2.85329E-05-1.00763E-05-1.12746E-18 3.90801E-18
 -1      3739 9.36255E-05-2.67010E-05-2.86517E-05-9.53207E-06-1.08613E-18 2.74494E-18
 -1      3740 9.21368E-05-2.57120E-05-2.84922E-05-9.31516E-06-1.68776E-18 1.19971E-18
 -1      3741 9.49133E-05-2.87518E-05-2.83343E-05-1.05824E-05-1.61259E-18 4.02407E-18
 -1      3742 1.12810E-04-1.43676E-05-4.26582E-05 4.10586E-06-1.25964E-18 1.61799E-18
 -1      3743 9.41365E-05-2.68442E-05-2.88376E-05-1.98659E-06-7.85011E-19-5.29549E-19
 -1      3744 9.43091E-05-2.70876E-05-2.88149E-05-1.78299E-06-1.05265E-19-8.83439E-19
 -1      3745 9.42649E-05-2.18464E-05-3.10412E-05 2.14295E-06 5.13900E-19-1.43528E-18
 -1      3746 9.48367E-05-2.28887E-05-3.08167E-05 1.56031E-06 4.58693E-19-1.40604E-18
 -1      3747 9.44717E-05-2.23150E-05-3.09372E-05 2.56084E-06 6.68628E-19-1.31476E-18
 -1      3748 9.55915E-05-2.86400E-05-2.86914E-05-1.00056E-06 2.09310E-19-7.25433E-19
 -1      3749 9.56673E-05-2.87299E-05-2.86885E-05-9.82018E-07 3.14496E-19-5.65298E-19
 -1      3750 9.65269E-05-2.79826E-05-2.93712E-05 3.09876E-07-9.46725E-20-6.03657E-19
 -1      3751 9.65347E-05-2.82945E-05-2.92494E-05 4.98735E-07-7.89378E-20-4.79837E-19
 -1      3752 9.65364E-05-2.85420E-05-2.91370E-05 6.06858E-07-4.63563E-20-4.60206E-19
 -1      3753 9.64993E-05-2.87223E-05-2.90490E-05 7.13934E-07 2.66677E-20-3.05311E-19
 -1      3754 9.66687E-05-2.83687E-05-2.92717E-05 4.51237E-07-3.89045E-20-5.66668E-19
 -1      3755 9.64473E-05-2.88517E-05-2.89671E-05 7.68452E-07-8.38704E-20-4.37308E-19
 -1      3756 9.63844E-05-2.89372E-05-2.89062E-05 8.21447E-07 6.91932E-20-6.84469E-19
 -1      3757 9.66180E-05-2.87819E-05-2.90737E-05 6.28050E-07-1.07620E-19-5.82235E-19
 -1      3758 9.62992E-05-2.89814E-05-2.88491E-05 8.42757E-07 1.72589E-19-8.63707E-19
 -1      3759 9.62220E-05-2.89983E-05-2.88095E-05 8.64633E-07-1.01516E-20-7.66024E-19
 -1      3760 9.64817E-05-2.89787E-05-2.89313E-05 7.17445E-07-1.84463E-19-7.95604E-19
 -1      3761 9.61167E-05-2.89807E-05-2.87721E-05 8.69540E-07-9.36231E-20-6.83605E-19
 -1      3762 9.60317E-05-2.89473E-05-2.87491E-05 8.78400E-07-7.37269E-20-7.47243E-19
 -1      3763 9.62929E-05-2.90173E-05-2.88338E-05 7.55939E-07-4.09703E-20-7.80657E-19
 -1      3764 9.59132E-05-2.88838E-05-2.87272E-05 8.80326E-07-2.09031E-19-7.36485E-19
 -1      3765 9.58228E-05-2.88124E-05-2.87171E-05 8.90419E-07-2.64477E-19-8.96376E-19
 -1      3766 9.60712E-05-2.89396E-05-2.87719E-05 7.72930E-07-1.98084E-19-7.09123E-19
 -1      3767 9.56938E-05-2.87133E-05-2.87070E-05 9.00000E-07-3.25560E-19-8.61011E-19
 -1      3768 9.55982E-05-2.86115E-05-2.87067E-05 9.22505E-07-5.66303E-19-8.67226E-19
 -1      3769 9.58260E-05-2.87733E-05-2.87377E-05 7.92102E-07-3.28412E-19-6.36491E-19
 -1      3770 9.54577E-05-2.84828E-05-2.87053E-05 9.48433E-07-2.85424E-19-5.25332E-19
 -1      3771 9.53552E-05-2.83552E-05-2.87122E-05 9.92528E-07 8.08525E-20-5.33297E-19
 -1      3772 9.55590E-05-2.85362E-05-2.87243E-05 8.32336E-07-8.05655E-20-3.09068E-19
 -1      3773 9.52001E-05-2.82001E-05-2.87168E-05 1.04237E-06-1.87495E-19-6.46059E-19
 -1      3774 9.50879E-05-2.80494E-05-2.87286E-05 1.11590E-06-4.88659E-19-6.55078E-19
 -1      3775 9.52663E-05-2.82385E-05-2.87257E-05 9.09647E-07-1.06469E-19-3.20911E-19
 -1      3776 9.49137E-05-2.78698E-05-2.87365E-05 1.19666E-06-4.63774E-19-5.32081E-19
 -1      3777 9.47887E-05-2.76981E-05-2.87507E-05 1.30664E-06-3.70238E-19-3.48154E-19
 -1      3778 9.49400E-05-2.78855E-05-2.87364E-05 1.03832E-06-3.55977E-19-4.10856E-19
 -1      3779 9.45903E-05-2.74956E-05-2.87590E-05 1.42525E-06-2.99830E-19-3.76740E-19
 -1      3780 9.44499E-05-2.73062E-05-2.87733E-05 1.57826E-06-2.46229E-19-6.43351E-20
 -1      3781 9.45705E-05-2.74811E-05-2.87506E-05 1.23200E-06-5.59983E-19-1.28087E-19
 -1      3782 9.42224E-05-2.70840E-05-2.87787E-05 1.74205E-06 1.78351E-19-6.04858E-21
 -1      3783 9.40658E-05-2.68825E-05-2.87899E-05 1.94445E-06 1.37287E-19 3.14205E-19
 -1      3784 9.41476E-05-2.70301E-05-2.87618E-05 1.50472E-06 3.31288E-20-1.16219E-20
 -1      3785 9.38062E-05-2.66474E-05-2.87884E-05 2.16156E-06-2.49913E-20 6.23200E-19
 -1      3786 9.36361E-05-2.64443E-05-2.87929E-05 2.41956E-06 1.05192E-19 6.32990E-19
 -1      3787 9.36633E-05-2.65425E-05-2.87625E-05 1.87188E-06 2.08692E-19 1.13478E-19
 -1      3788 9.33451E-05-2.62089E-05-2.87797E-05 2.69944E-06 3.06664E-19 6.67948E-19
 -1      3789 9.31698E-05-2.60225E-05-2.87729E-05 3.01921E-06 6.72463E-19 4.66584E-19
 -1      3790 9.31150E-05-2.60370E-05-2.87435E-05 2.35132E-06 2.97122E-19 6.98552E-19
 -1      3791 9.28542E-05-2.58081E-05-2.87419E-05 3.37325E-06 8.06644E-19 5.22839E-19
 -1      3792 9.26914E-05-2.56673E-05-2.87186E-05 3.76099E-06 6.84616E-19 5.29456E-19
 -1      3793 9.25091E-05-2.55470E-05-2.86936E-05 2.96477E-06 7.81252E-19 1.19394E-18
 -1      3794 9.23680E-05-2.55076E-05-2.86629E-05 4.20338E-06 3.13036E-19 4.00146E-19
 -1      3795 9.22497E-05-2.54567E-05-2.86171E-05 4.66528E-06 2.20671E-20 2.08172E-19
 -1      3796 9.18679E-05-2.51265E-05-2.85994E-05 3.73981E-06 4.13893E-19 7.63663E-19
 -1      3797 9.19501E-05-2.54021E-05-2.85292E-05 5.21402E-06-2.22455E-19 1.15240E-20
 -1      3798 9.19297E-05-2.55054E-05-2.84554E-05 5.75571E-06-3.37806E-19 2.74841E-20
 -1      3799 9.12371E-05-2.48585E-05-2.84454E-05 4.71264E-06-2.41552E-19-4.08304E-19
 -1      3800 9.17087E-05-2.56280E-05-2.83280E-05 6.43309E-06-4.40184E-19-1.94165E-19
 -1      3801 9.18702E-05-2.59753E-05-2.82229E-05 7.05720E-06 1.25718E-19-3.18371E-19
 -1      3802 9.06992E-05-2.48645E-05-2.82157E-05 5.93092E-06-2.83910E-19-4.56993E-19
 -1      3803 9.18175E-05-2.63751E-05-2.80513E-05 7.88795E-06 3.89122E-19-6.03643E-19
 -1      3804 9.22877E-05-2.70874E-05-2.79178E-05 8.58672E-06 2.35206E-19-1.96210E-19
 -1      3805 9.03918E-05-2.53177E-05-2.78964E-05 7.45499E-06 3.94151E-20-3.88679E-19
 -1      3806 9.25486E-05-2.78982E-05-2.77041E-05 9.58799E-06 4.67341E-20-4.79491E-19
 -1      3807 9.35125E-05-2.91287E-05-2.75575E-05 1.03224E-05 2.58931E-19-8.68224E-19
 -1      3808 9.05388E-05-2.64610E-05-2.74817E-05 9.35132E-06-1.06599E-19-2.59942E-19
 -1      3809 9.43165E-05-3.05198E-05-2.73186E-05 1.14823E-05 6.74595E-19-1.41456E-18
 -1      3810 9.60088E-05-3.24575E-05-2.72003E-05 1.21475E-05 6.28550E-19-1.30954E-18
 -1      3811 9.14934E-05-2.86242E-05-2.69851E-05 1.16587E-05 2.44788E-20-1.36423E-18
 -1      3812 9.77600E-05-3.46057E-05-2.69982E-05 1.32436E-05 4.44520E-19-1.50741E-18
 -1      3813 1.00397E-04-3.72843E-05-2.70044E-05 1.35739E-05 9.62992E-19-1.29610E-18
 -1      3814 9.38949E-05-3.23540E-05-2.64692E-05 1.43096E-05 5.94442E-19-2.10076E-18
 -1      3815 1.03585E-04-4.04491E-05-2.69623E-05 1.43047E-05 1.49835E-18-1.25050E-18
 -1      3816 1.07465E-04-4.37882E-05-2.72755E-05 1.36168E-05 1.47848E-18-6.27701E-19
 -1      3817 9.84915E-05-3.76262E-05-2.61736E-05 1.66250E-05 1.41054E-18-1.09394E-18
 -1      3818 1.13960E-04-4.84790E-05-2.80740E-05-1.26336E-05 5.76829E-19 1.50866E-18
 -1      3819 1.09875E-04-4.55220E-05-2.74394E-05-1.44090E-05 8.59540E-20 1.92698E-18
 -1      3820 9.43815E-05-2.21430E-05-3.09646E-05-3.05451E-06-4.81509E-19-1.14014E-18
 -1      3821 9.38405E-05-2.09504E-05-3.12481E-05-2.15324E-07 1.69737E-19-1.69430E-18
 -1      3822 9.38836E-05-2.10412E-05-3.12298E-05-7.77067E-07 2.32722E-20-1.54275E-18
 -1      3823 9.46288E-05-2.23750E-05-3.09479E-05-8.07935E-07 5.24513E-20-1.40278E-18
 -1      3824 9.45626E-05-2.22161E-05-3.09878E-05 1.16885E-08 2.52260E-19-1.62164E-18
 -1      3825 1.05745E-04-4.20209E-05-2.72712E-05-1.45353E-05 2.09336E-19 1.07127E-18
 -1      3826 1.02415E-04-3.89223E-05-2.71252E-05-1.49222E-05-6.25746E-19 1.40835E-18
 -1      3827 1.04186E-04-4.30215E-05-2.63584E-05-1.82545E-05-2.60648E-19 8.89940E-19
 -1      3828 9.99778E-05-3.61825E-05-2.72894E-05-1.40235E-05-9.31510E-19 1.11980E-18
 -1      3829 9.77149E-05-3.37428E-05-2.73771E-05-1.37010E-05-2.01133E-19 4.09796E-19
 -1      3830 9.78265E-05-3.62756E-05-2.64639E-05-1.67983E-05-7.85317E-19 3.28703E-19
 -1      3831 9.64426E-05-3.18048E-05-2.76640E-05-1.25830E-05 5.17794E-19 9.91054E-19
 -1      3832 9.50348E-05-3.00327E-05-2.78601E-05-1.19729E-05-6.69530E-19 1.59882E-18
 -1      3833 9.43711E-05-3.14682E-05-2.70213E-05-1.43246E-05 2.04978E-19 1.19767E-18
 -1      3834 1.14634E-04-4.96362E-05-2.77096E-05 1.36658E-05 1.68451E-18-1.13992E-18
 -1      3835 9.45466E-05-2.73394E-05-2.88009E-05-1.63037E-06 7.77908E-20-9.46209E-19
 -1      3836 9.46835E-05-2.75460E-05-2.87778E-05-1.47695E-06 8.85010E-20-1.13957E-18
 -1      3837 9.42375E-05-2.70482E-05-2.87916E-05-1.55279E-06-1.93213E-19-5.49158E-19
 -1      3838 9.48774E-05-2.77588E-05-2.87628E-05-1.36512E-06 4.40888E-19-1.16894E-18
 -1      3839 9.49888E-05-2.79328E-05-2.87418E-05-1.25609E-06 4.32068E-19-8.47037E-19
 -1      3840 9.46638E-05-2.75379E-05-2.87658E-05-1.29939E-06 3.39036E-19-6.57991E-19
 -1      3841 9.36205E-05-2.62648E-05-2.88651E-05-2.44286E-06-6.45330E-19-3.57099E-19
 -1      3842 9.38408E-05-2.65485E-05-2.88467E-05-2.18411E-06-1.06181E-18-5.84905E-19
 -1      3843 9.37109E-05-2.64730E-05-2.88107E-05-1.88500E-06-9.41424E-19-7.65461E-19
 -1      3844 9.29674E-05-2.55951E-05-2.88727E-05-3.00658E-06 5.98672E-21-5.54445E-19
 -1      3845 9.32494E-05-2.59208E-05-2.88639E-05-2.68859E-06-7.85212E-20-5.46987E-19
 -1      3846 9.30527E-05-2.58035E-05-2.88134E-05-2.30138E-06-1.67283E-19-1.11411E-18
 -1      3847 9.21419E-05-2.48359E-05-2.88449E-05-3.68408E-06 5.92123E-19-4.71923E-19
 -1      3848 9.25008E-05-2.52013E-05-2.88535E-05-3.30332E-06 3.55296E-19-2.22611E-19
 -1      3849 9.22261E-05-2.50342E-05-2.87861E-05-2.80529E-06 8.86841E-20-1.27873E-18
 -1      3850 9.11070E-05-2.40011E-05-2.87596E-05-4.48298E-06 4.90384E-19 1.22529E-19
 -1      3851 9.15572E-05-2.43958E-05-2.87969E-05-4.03521E-06 6.81639E-19 1.14073E-19
 -1      3852 9.11889E-05-2.41668E-05-2.87099E-05-3.39937E-06 4.44981E-19-5.63497E-19
 -1      3853 8.98274E-05-2.31265E-05-2.85860E-05-5.41871E-06 1.43512E-19 1.64030E-19
 -1      3854 9.03787E-05-2.35269E-05-2.86678E-05-4.89542E-06 4.34993E-19 3.46804E-19
 -1      3855 8.98935E-05-2.32150E-05-2.85584E-05-4.08939E-06 3.07560E-19 1.90882E-19
 -1      3856 8.82787E-05-2.22841E-05-2.82817E-05-6.52829E-06-1.82684E-19-5.26359E-19
 -1      3857 8.89283E-05-2.26446E-05-2.84293E-05-5.90932E-06-8.54777E-20 1.60101E-19
 -1      3858 8.82874E-05-2.22112E-05-2.82948E-05-4.89350E-06 1.45369E-19-3.50137E-20
 -1      3859 8.64613E-05-2.16033E-05-2.77898E-05-7.89694E-06-2.75309E-19-1.14570E-18
 -1      3860 8.71798E-05-2.18424E-05-2.80311E-05-7.13679E-06 1.49161E-19-6.53397E-19
 -1      3861 8.63128E-05-2.12164E-05-2.78683E-05-5.86146E-06 2.36756E-19-5.14670E-19
 -1      3862 8.44311E-05-2.13046E-05-2.70363E-05-9.69875E-06-1.10804E-18-1.33811E-18
 -1      3863 8.51350E-05-2.12827E-05-2.74056E-05-8.70618E-06-7.14266E-19-1.33872E-18
 -1      3864 8.39102E-05-2.03354E-05-2.72080E-05-7.10967E-06-3.38306E-19-1.26684E-18
 -1      3865 8.23454E-05-2.17515E-05-2.59285E-05-1.22589E-05-1.31365E-18-1.63405E-18
 -1      3866 8.28554E-05-2.12379E-05-2.64634E-05-1.08693E-05-1.09285E-18-1.54776E-18
 -1      3867 8.10149E-05-1.97431E-05-2.62150E-05-8.86441E-06-8.04451E-19-1.62226E-18
 -1      3868 7.90410E-05-2.20961E-05-2.43909E-05 1.55614E-05-8.40316E-19 2.09177E-20
 -1      3869 8.65211E-05-2.16517E-05-2.78105E-05 1.02449E-05 2.26539E-18 1.88367E-18
 -1      3870 8.57559E-05-2.19012E-05-2.73565E-05 1.12440E-05 1.37326E-18 2.35255E-18
 -1      3871 8.83454E-05-2.18833E-05-2.85038E-05 9.30838E-06 1.13285E-18 2.55719E-18
 -1      3872 6.08524E-05-1.38903E-05-2.00277E-05 2.54550E-07-1.54501E-18-1.75188E-18
 -1      3873 6.23637E-05-1.48412E-05-2.02857E-05-6.72735E-06-1.31281E-18-6.52665E-19
 -1      3874 6.92199E-05-1.79163E-05-2.20272E-05-9.20561E-06 4.26812E-19 1.63416E-18
 -1      3875 7.14951E-05-2.00309E-05-2.19476E-05-1.40140E-05 1.53614E-19 2.05538E-20
 -1      3876 1.11904E-04-1.64237E-05-4.12787E-05 7.50866E-06-4.03399E-20 2.03455E-18
 -1      3877 9.59292E-05-2.57069E-05-3.00936E-05-9.06301E-07-1.90808E-19-8.30691E-19
 -1      3878 9.61420E-05-2.64467E-05-2.98773E-05-4.61539E-07-1.58489E-19-7.11261E-19
 -1      3879 8.75814E-05-3.36754E-05-2.30425E-05-2.38721E-05 3.86641E-20-9.53441E-20
 -1      3880 9.44153E-05-3.84810E-05-2.40076E-05-2.38053E-05-8.10654E-20-6.54452E-19
 -1      3881 7.87367E-05-2.43734E-05-2.33576E-05-1.82460E-05-9.19348E-19-2.02895E-18
 -1      3882 7.44036E-05-2.32516E-05-2.19245E-05-1.80711E-05 7.48585E-19-1.18312E-18
 -1      3883 8.12748E-05-2.89355E-05-2.24053E-05-2.25287E-05 7.01985E-19-1.58801E-18
 -1      3884 8.66020E-05-3.07874E-05-2.38052E-05-2.05760E-05 6.90524E-19-8.27220E-19
 -1      3885 7.72045E-05-2.28476E-05-2.32330E-05-1.50741E-05 9.65161E-19-1.79938E-18
 -1      3886 9.59303E-05-2.84921E-05-2.89041E-05-8.65869E-07 1.87051E-20-4.18513E-19
 -1      3887 9.59608E-05-2.83103E-05-2.89866E-05-7.07744E-07 2.69241E-19-4.89122E-19
 -1      3888 9.61919E-05-2.81237E-05-2.91746E-05-5.05208E-07 2.48884E-19-6.56653E-19
 -1      3889 9.63603E-05-2.70844E-05-2.96840E-05-1.79253E-07-1.42274E-19-6.97490E-19
 -1      3890 9.64401E-05-2.75736E-05-2.95205E-05 1.22275E-07-1.68847E-19-7.36672E-19
 -1      3891 9.62913E-05-2.65667E-05-2.98825E-05-3.30112E-07-1.47531E-19-6.19129E-19
 -1      3892 9.48841E-05-2.31026E-05-3.07454E-05-2.30939E-06-3.30606E-19-1.18296E-18
 -1      3893 9.58312E-05-2.88950E-05-2.86887E-05-1.06012E-06 1.60842E-19-3.29636E-19
 -1      3894 9.53432E-05-2.41050E-05-3.05399E-05 1.36215E-06 4.97556E-19-1.45982E-18
 -1      3895 9.52313E-05-2.37675E-05-3.06298E-05 1.08390E-06 4.53733E-19-1.45049E-18
 -1      3896 9.53987E-05-2.44684E-05-3.04092E-05-1.53121E-06-1.94369E-19-1.02554E-18
 -1      3897 9.62564E-05-2.88837E-05-2.88743E-05-9.06368E-07-1.61743E-19-5.70994E-19
 -1      3898 9.63096E-05-2.87917E-05-2.89333E-05-8.46317E-07 6.17454E-20-4.84465E-19
 -1      3899 9.54671E-05-2.85214E-05-2.86929E-05-1.02263E-06 2.18436E-19-5.44919E-19
 -1      3900 9.55755E-05-2.85766E-05-2.87141E-05-9.26879E-07 3.33036E-19-2.50564E-19
 -1      3901 9.53845E-05-2.84040E-05-2.87037E-05-1.06328E-06 2.42201E-19-6.87350E-19
 -1      3902 9.50337E-05-2.35170E-05-3.06344E-05 2.38442E-06 7.47498E-19-1.05478E-18
 -1      3903 1.08205E-04-4.50674E-05-2.70082E-05 1.50695E-05 1.12519E-18-1.08487E-18
 -1      3904 1.09153E-04-4.84533E-05-2.59691E-05 2.01740E-05 1.52707E-18-2.05736E-18
 -1      3905 8.65507E-05-2.12831E-05-2.79680E-05 9.12740E-06 1.15377E-18 2.28298E-18
 -1      3906 9.61611E-05-2.85642E-05-2.89726E-05-8.21924E-07 1.07973E-19-5.62895E-19
 -1      3907 9.10652E-05-2.57022E-05-2.80476E-05-9.95515E-06-9.52353E-19-5.42341E-20
 -1      3908 7.24948E-05-2.49260E-05-2.03800E-05 2.25339E-05 5.99812E-19-9.23769E-19
 -1      3909 6.66043E-05-2.10118E-05-1.92176E-05 2.06032E-05 3.56151E-20-1.10765E-18
 -1      3910 6.53103E-05-1.85004E-05-2.00368E-05 1.54381E-05-2.99506E-19-7.68590E-19
 -1      3911 9.57809E-05-2.88182E-05-2.86965E-05-9.75861E-07 4.46989E-19-5.40300E-19
 -1      3912 9.58525E-05-2.88776E-05-2.87038E-05-9.69433E-07 4.14051E-19-5.45549E-19
 -1      3913 9.58110E-05-2.87926E-05-2.87231E-05-8.93160E-07 3.59448E-19-8.41476E-19
 -1      3914 8.28439E-05-2.23369E-05-2.58899E-05 1.36077E-05-9.43851E-19-1.43999E-19
 -1      3915 7.53153E-05-1.92937E-05-2.39209E-05 1.22815E-05-1.08107E-18-1.29587E-18
 -1      3916 7.46255E-05-1.80743E-05-2.42722E-05 7.40466E-06-3.71900E-19-6.84530E-19
 -1      3917 8.33735E-05-2.16657E-05-2.64833E-05 1.22056E-05-5.31942E-19 5.18210E-19
 -1      3918 8.04966E-05-2.35872E-05-2.43339E-05-1.62052E-05-1.08060E-18-2.06109E-18
 -1      3919 8.05065E-05-2.21355E-05-2.50861E-05-1.40604E-05-1.64762E-18-1.42635E-18
 -1      3920 9.33139E-05-2.82430E-05-2.78599E-05-1.15747E-05-4.11878E-20 1.92082E-18
 -1      3921 9.52180E-05-2.37485E-05-3.06341E-05-1.06365E-06 2.02350E-20-1.29380E-18
 -1      3922 9.53246E-05-2.40720E-05-3.05488E-05-1.35427E-06-1.06511E-19-1.24034E-18
 -1      3923 7.03242E-05-1.68938E-05-2.27863E-05-4.59963E-06-4.04023E-19 1.92842E-18
 -1      3924 7.44218E-05-1.85602E-05-2.39320E-05-6.73978E-06 1.23488E-19 1.27910E-18
 -1      3925 7.24707E-05-1.70015E-05-2.38717E-05 1.30517E-07-8.73238E-19 1.22490E-18
 -1      3926 7.38489E-05-2.02994E-05-2.28083E-05-1.50609E-05-1.47140E-18-1.81723E-18
 -1      3927 9.54332E-05-2.48906E-05-3.02363E-05 2.01595E-06 7.28472E-19-7.02400E-19
 -1      3928 6.51807E-05-1.60338E-05-2.08930E-05-9.81535E-06-1.31563E-18-1.17383E-18
 -1      3929 7.02847E-05-1.86525E-05-2.21098E-05-1.29856E-05-1.34646E-18-2.08076E-18
 -1      3930 7.21718E-05-1.83223E-05-2.31542E-05-1.13329E-05-1.31614E-18-1.76458E-18
 -1      3931 6.71258E-05-1.57997E-05-2.19796E-05-6.37310E-06-1.56905E-18-1.04766E-18
 -1      3932 8.33010E-05-2.09157E-05-2.67138E-05-6.65598E-06-1.06393E-18 3.03104E-19
 -1      3933 8.18925E-05-1.98797E-05-2.66236E-05-4.39008E-06-1.35900E-18 6.68379E-19
 -1      3934 9.50972E-05-2.33910E-05-3.07383E-05-4.64377E-07 2.35180E-19-1.40242E-18
 -1      3935 9.51532E-05-2.35525E-05-3.06973E-05-8.18703E-07 1.45819E-19-1.28129E-18
 -1      3936 9.56670E-05-2.46144E-05-3.04372E-05-6.91378E-07 1.15024E-19-1.23747E-18
 -1      3937 6.15346E-05-1.41234E-05-2.01537E-05 3.57127E-06-1.48126E-18-2.23378E-18
 -1      3938 6.52021E-05-1.48348E-05-2.15206E-05 2.04285E-07-1.43339E-18-2.10195E-18
 -1      3939 6.32978E-05-1.53530E-05-2.05196E-05 7.49750E-06-1.45711E-18-1.43644E-18
 -1      3940 9.91455E-05-4.04750E-05-2.50483E-05-2.14563E-05-2.63573E-19-7.40835E-20
 -1      3941 7.93808E-05-1.87723E-05-2.59712E-05-2.47857E-06-6.61816E-19 1.23329E-18
 -1      3942 7.89762E-05-1.83303E-05-2.59883E-05 3.02596E-07-1.14083E-18 1.46437E-18
 -1      3943 7.76125E-05-1.97330E-05-2.47483E-05-1.15195E-05-1.42319E-18-2.35197E-18
 -1      3944 9.61179E-05-2.89613E-05-2.87807E-05-9.56751E-07-8.71771E-20-6.62453E-19
 -1      3945 9.61812E-05-2.89353E-05-2.88180E-05-9.33571E-07-1.10992E-19-7.12882E-19
 -1      3946 9.63871E-05-2.89348E-05-2.89098E-05-8.15995E-07-6.01099E-20-7.31689E-19
 -1      3947 9.67325E-05-3.74114E-05-2.53908E-05-1.98962E-05-9.34840E-19 3.28139E-19
 -1      3948 9.65814E-05-2.76568E-05-2.95375E-05 1.46144E-07-8.23262E-20-5.15405E-19
 -1      3949 9.56810E-05-2.46357E-05-3.04329E-05 7.10891E-07 4.19783E-19-1.37300E-18
 -1      3950 9.51588E-05-2.35691E-05-3.06942E-05 8.30381E-07 4.92298E-19-1.29322E-18
 -1      3951 9.50989E-05-2.33971E-05-3.07366E-05 4.82799E-07 3.90672E-19-1.43954E-18
 -1      3952 8.74747E-05-2.39275E-05-2.71710E-05-1.00916E-05-1.07656E-18-1.65717E-18
 -1      3953 8.53314E-05-2.25346E-05-2.69601E-05-8.67012E-06-1.12457E-18-3.66610E-19
 -1      3954 8.32719E-05-2.19384E-05-2.62790E-05-8.78056E-06-1.39089E-18 2.49991E-19
 -1      3955 9.60168E-05-2.63696E-05-2.98558E-05 6.44708E-07 6.70136E-19-8.75872E-19
 -1      3956 9.58611E-05-2.57742E-05-3.00301E-05 1.10080E-06 5.94547E-19-8.18263E-19
 -1      3957 9.73961E-05-4.19106E-05-2.37432E-05 2.48295E-05 1.57518E-18-3.64091E-18
 -1      3958 8.96537E-05-3.83326E-05-2.17188E-05 2.85352E-05 1.19098E-18-3.04675E-18
 -1      3959 8.43214E-05-3.34205E-05-2.17597E-05 2.62052E-05 7.93220E-19-2.65714E-18
 -1      3960 9.51508E-05-2.81114E-05-2.87289E-05-1.18015E-06 1.37815E-19-5.77231E-19
 -1      3961 9.52447E-05-2.82561E-05-2.87120E-05-1.10898E-06 2.99995E-19-5.62156E-19
 -1      3962 9.53141E-05-2.82960E-05-2.87216E-05-9.96955E-07 1.95725E-19-4.81343E-20
 -1      3963 9.62882E-05-2.74946E-05-2.94886E-05-6.82926E-08 4.50773E-19-8.64789E-19
 -1      3964 9.62127E-05-2.70035E-05-2.96548E-05 2.79822E-07 6.50485E-19-8.74374E-19
 -1      3965 9.61536E-05-2.64310E-05-2.98787E-05 5.03921E-07 6.33939E-19-8.47741E-19
 -1      3966 8.18697E-05-2.02210E-05-2.63722E-05 1.00391E-05-2.34219E-19-3.68711E-19
 -1      3967 7.66508E-05-1.78890E-05-2.51436E-05 1.92688E-06-8.07791E-19 1.67856E-18
 -1      3968 8.05288E-05-1.87762E-05-2.65184E-05 4.39712E-06-1.60429E-18 6.01420E-19
 -1      3969 8.16545E-05-1.92998E-05-2.67185E-05 6.43004E-06-9.51965E-19 1.72302E-18
 -1      3970 9.50156E-05-2.79512E-05-2.87405E-05-1.11727E-06 3.00660E-19 4.70230E-20
 -1      3971 9.54802E-05-2.45552E-05-3.03984E-05 1.37494E-06 5.29603E-19-1.22411E-18
 -1      3972 9.58127E-05-2.52854E-05-3.02246E-05 8.83021E-07 4.45867E-19-1.28751E-18
 -1      3973 9.57444E-05-2.51613E-05-3.02415E-05-1.04451E-06-1.41806E-19-9.16043E-19
 -1      3974 9.08964E-05-3.30551E-05-2.47919E-05-2.00206E-05 2.18171E-19 1.21870E-18
 -1      3975 9.50969E-05-3.50561E-05-2.56828E-05-1.81961E-05-6.80844E-19 9.89955E-19
 -1      3976 9.27898E-05-3.21877E-05-2.59602E-05-1.68246E-05 3.26673E-19 1.90341E-18
 -1      3977 8.51711E-05-2.86148E-05-2.42576E-05-1.86367E-05 1.37795E-18 2.07225E-20
 -1      3978 1.02602E-04-4.25750E-05-2.57583E-05 1.91533E-05 1.78717E-18-2.22717E-18
 -1      3979 9.59567E-05-2.89305E-05-2.87241E-05-9.69496E-07 2.39959E-19-6.58284E-19
 -1      3980 9.60250E-05-2.89529E-05-2.87445E-05-9.62604E-07 3.06717E-20-8.06702E-19
 -1      3981 9.62211E-05-2.89928E-05-2.88137E-05-8.62164E-07 7.75666E-20-1.13045E-18
 -1      3982 9.60263E-05-2.89366E-05-2.87541E-05-8.78845E-07 2.17474E-19-1.10372E-18
 -1      3983 8.41730E-05-2.02835E-05-2.74216E-05 8.08295E-06 4.70189E-19 1.32419E-18
 -1      3984 9.67634E-05-2.87158E-05-2.91614E-05 4.73784E-07-1.39740E-19-8.82258E-19
 -1      3985 9.67124E-05-2.88707E-05-2.90760E-05 5.42818E-07-3.72672E-19-1.03342E-18
 -1      3986 9.66399E-05-2.89734E-05-2.89986E-05 5.68193E-07-2.74500E-19-8.61469E-19
 -1      3987 9.65554E-05-2.90325E-05-2.89383E-05 6.03543E-07-1.01416E-19-8.46663E-19
 -1      3988 9.67647E-05-2.89181E-05-2.90782E-05 4.28311E-07-2.69935E-19-8.88714E-19
 -1      3989 9.64478E-05-2.90503E-05-2.88839E-05 6.12353E-07-8.13951E-20-8.07423E-19
 -1      3990 9.63429E-05-2.90393E-05-2.88437E-05 6.29606E-07-5.58648E-20-7.99937E-19
 -1      3991 9.65852E-05-2.90514E-05-2.89444E-05 4.73951E-07-1.79944E-19-4.07615E-19
 -1      3992 9.62122E-05-2.89940E-05-2.88076E-05 6.31764E-07-1.41200E-19-6.75996E-19
 -1      3993 9.60937E-05-2.89301E-05-2.87833E-05 6.43719E-07-1.44995E-19-6.07081E-19
 -1      3994 9.63487E-05-2.90297E-05-2.88522E-05 4.95617E-07-1.04794E-19-5.16559E-19
 -1      3995 9.59467E-05-2.88373E-05-2.87616E-05 6.48097E-07-3.47826E-20-7.26481E-19
 -1      3996 9.58174E-05-2.87324E-05-2.87495E-05 6.64468E-07 3.35334E-20-2.98017E-19
 -1      3997 9.60731E-05-2.88912E-05-2.87931E-05 5.10689E-07 5.30550E-20-2.62618E-19
 -1      3998 9.56547E-05-2.86007E-05-2.87386E-05 6.77555E-07-2.24563E-19-4.99328E-19
 -1      3999 9.55139E-05-2.84616E-05-2.87354E-05 7.06901E-07-1.77293E-19-4.16708E-19
 -1      4000 9.57663E-05-2.86621E-05-2.87593E-05 5.33643E-07-8.97243E-20-4.59461E-19
 -1      4001 9.53332E-05-2.82963E-05-2.87320E-05 7.34910E-07-1.70993E-19-7.45719E-19
 -1      4002 9.51778E-05-2.81268E-05-2.87348E-05 7.84409E-07-2.52068E-19-9.98679E-19
 -1      4003 9.54262E-05-2.83562E-05-2.87439E-05 5.76693E-07-4.21755E-19-1.02407E-18
 -1      4004 9.49743E-05-2.79302E-05-2.87359E-05 8.33107E-07-6.24152E-20-7.42028E-19
 -1      4005 9.47996E-05-2.77322E-05-2.87419E-05 9.09369E-07-2.69508E-19-4.55616E-19
 -1      4006 9.50459E-05-2.79816E-05-2.87406E-05 6.51242E-07-1.07733E-19-1.05519E-18
 -1      4007 9.45665E-05-2.75054E-05-2.87442E-05 9.84716E-07-3.80309E-19-3.09676E-19
 -1      4008 9.43673E-05-2.72806E-05-2.87502E-05 1.09431E-06-4.63522E-19-1.49735E-19
 -1      4009 9.46137E-05-2.75418E-05-2.87428E-05 7.68387E-07-1.29917E-19-3.40163E-19
 -1      4010 9.40969E-05-2.70249E-05-2.87499E-05 1.20309E-06-3.71513E-19 3.42874E-19
 -1      4011 9.38685E-05-2.67761E-05-2.87525E-05 1.35306E-06 2.40208E-19 1.70561E-19
 -1      4012 9.41149E-05-2.70388E-05-2.87435E-05 9.40298E-07-2.45559E-20 4.52283E-19
 -1      4013 9.35531E-05-2.64945E-05-2.87454E-05 1.50351E-06 5.32599E-19 1.22872E-19
 -1      4014 9.32925E-05-2.62279E-05-2.87403E-05 1.70186E-06 3.93178E-19 3.84277E-19
 -1      4015 9.35342E-05-2.64764E-05-2.87345E-05 1.18144E-06 2.34276E-19 7.86489E-19
 -1      4016 9.29257E-05-2.59274E-05-2.87210E-05 1.90446E-06 2.13622E-19 4.93910E-19
 -1      4017 9.26332E-05-2.56545E-05-2.87029E-05 2.16089E-06 6.23851E-19 2.93740E-19
 -1      4018 9.28573E-05-2.58635E-05-2.87058E-05 1.51008E-06 4.33424E-19 4.09931E-19
 -1      4019 9.22114E-05-2.53482E-05-2.86648E-05 2.42949E-06 9.78620E-19 5.42340E-19
 -1      4020 9.18939E-05-2.50888E-05-2.86273E-05 2.75631E-06 1.03862E-18 8.34008E-19
 -1      4021 9.20739E-05-2.52184E-05-2.86453E-05 1.95030E-06 8.56158E-19 3.18781E-19
 -1      4022 9.14181E-05-2.47986E-05-2.85623E-05 3.10977E-06 2.84196E-19 4.97145E-19
 -1      4023 9.10917E-05-2.45840E-05-2.84979E-05 3.52330E-06-2.67706E-19-1.22560E-19
 -1      4024 9.11808E-05-2.45738E-05-2.85378E-05 2.53501E-06 3.90781E-19 5.96042E-20
 -1      4025 9.05704E-05-2.43440E-05-2.83961E-05 3.98786E-06-5.31782E-19-5.01499E-19
 -1      4026 9.02664E-05-2.42214E-05-2.82964E-05 4.51024E-06-3.98091E-19-5.54240E-19
 -1      4027 9.01862E-05-2.39816E-05-2.83645E-05 3.31027E-06-6.22017E-19-1.71987E-19
 -1      4028 8.97189E-05-2.40817E-05-2.81461E-05 5.12285E-06-3.13894E-19-5.33330E-19
 -1      4029 8.94910E-05-2.41197E-05-2.80025E-05 5.78403E-06-3.20425E-19-3.00450E-19
 -1      4030 8.91157E-05-2.35206E-05-2.81032E-05 4.34167E-06-3.66356E-19-4.39757E-19
 -1      4031 8.89544E-05-2.41520E-05-2.77913E-05 6.59644E-06-3.03945E-19-1.49487E-19
 -1      4032 8.88918E-05-2.44482E-05-2.75968E-05 7.43475E-06 7.11148E-20-4.70346E-19
 -1      4033 8.80219E-05-2.33051E-05-2.77280E-05 5.72320E-06-2.64707E-19-5.74606E-19
 -1      4034 8.84313E-05-2.47530E-05-2.73119E-05 8.51880E-06 9.55017E-20-4.22311E-19
 -1      4035 8.86794E-05-2.54469E-05-2.70653E-05 9.57672E-06-4.46908E-19-4.77743E-19
 -1      4036 8.69987E-05-2.34979E-05-2.72106E-05 7.58731E-06-6.66457E-20-9.85199E-20
 -1      4037 8.84216E-05-2.61758E-05-2.66968E-05 1.10284E-05-7.15207E-19-6.57185E-19
 -1      4038 8.92041E-05-2.74708E-05-2.64084E-05 1.23350E-05-1.57849E-19-9.01830E-19
 -1      4039 8.62115E-05-2.43371E-05-2.65231E-05 1.01302E-05-7.46931E-19-3.74432E-19
 -1      4040 8.93467E-05-2.87220E-05-2.59504E-05 1.42249E-05 3.05845E-19-1.78781E-18
 -1      4041 9.10203E-05-3.10445E-05-2.56799E-05 1.57847E-05 8.25639E-19-1.67947E-18
 -1      4042 8.60559E-05-2.62538E-05-2.56414E-05 1.35623E-05-5.19906E-19-6.76195E-19
 -1      4043 9.61546E-05-2.61439E-05-3.00050E-05 5.77513E-07 5.11657E-19-1.18668E-18
 -1      4044 9.60362E-05-2.57188E-05-3.01399E-05 5.86819E-07 4.19348E-19-1.34877E-18
 -1      4045 9.63473E-05-2.68084E-05-2.98037E-05 2.15258E-07 4.38969E-19-1.09266E-18
 -1      4046 9.50776E-05-2.33298E-05-3.07581E-05 1.96383E-07 3.38407E-19-1.52836E-18
 -1      4047 9.50747E-05-2.33256E-05-3.07586E-05-1.78807E-07 2.13503E-19-1.55574E-18
 -1      4048 9.56103E-05-2.43581E-05-3.05193E-05 2.54909E-07 4.25218E-19-1.35482E-18
 -1      4049 9.67780E-05-2.82106E-05-2.93831E-05 2.97786E-07-1.01517E-19-6.57115E-19
 -1      4050 9.67799E-05-2.84963E-05-2.92669E-05 4.19331E-07 7.35121E-21-8.09780E-19
 -1      4051 9.68549E-05-2.85739E-05-2.92632E-05 3.37813E-07-2.13731E-19-1.06357E-18
 -1      4052 9.39571E-05-2.67975E-05-2.87826E-05-1.39262E-06-3.76920E-19 1.01899E-19
 -1      4053 9.41957E-05-2.70714E-05-2.87722E-05-1.25673E-06 4.15955E-19 2.25016E-19
 -1      4054 9.33291E-05-2.61610E-05-2.87870E-05-1.68165E-06-2.48315E-19-1.13154E-18
 -1      4055 9.36260E-05-2.64802E-05-2.87826E-05-1.50966E-06-5.36736E-19-4.82208E-19
 -1      4056 9.36235E-05-2.64959E-05-2.87633E-05-1.19508E-06 2.43216E-19-1.04023E-19
 -1      4057 9.44668E-05-2.73425E-05-2.87669E-05-1.16617E-06 2.55110E-19 8.96423E-20
 -1      4058 9.46615E-05-2.75754E-05-2.87548E-05-1.06414E-06 4.89823E-20 1.68564E-19
 -1      4059 9.42184E-05-2.71016E-05-2.87605E-05-1.00743E-06 1.24402E-19 3.36062E-19
 -1      4060 9.15728E-05-2.45848E-05-2.87124E-05-2.44769E-06 1.24936E-19-9.29917E-19
 -1      4061 9.20413E-05-2.50030E-05-2.87397E-05-2.20231E-06 1.60179E-19-1.24357E-18
 -1      4062 9.03559E-05-2.36434E-05-2.85961E-05-2.91895E-06 9.73850E-20-5.08519E-19
 -1      4063 9.09434E-05-2.41088E-05-2.86546E-05-2.63790E-06 7.45994E-20-1.21355E-18
 -1      4064 9.08693E-05-2.40728E-05-2.86131E-05-1.99749E-06 1.03428E-19-9.10904E-19
 -1      4065 8.88410E-05-2.26141E-05-2.83901E-05-3.44649E-06 2.64545E-19-9.22971E-19
 -1      4066 8.95737E-05-2.31174E-05-2.84955E-05-3.12825E-06 4.04744E-19-6.97659E-19
 -1      4067 8.94781E-05-2.30560E-05-2.84482E-05-2.31908E-06 1.68156E-19-8.83511E-19
 -1      4068 8.69601E-05-2.15249E-05-2.80530E-05-4.04066E-06 8.93620E-20-5.89332E-19
 -1      4069 8.78674E-05-2.20481E-05-2.82270E-05-3.67537E-06 2.46053E-20-9.45357E-19
 -1      4070 8.77496E-05-2.19474E-05-2.81766E-05-2.65166E-06 1.37009E-19-1.36857E-18
 -1      4071 8.46263E-05-2.04223E-05-2.75270E-05-4.74198E-06 4.41872E-20-5.24191E-19
 -1      4072 8.57413E-05-2.09355E-05-2.78000E-05-4.29968E-06 1.37970E-19-3.68594E-19
 -1      4073 8.55951E-05-2.07663E-05-2.77511E-05-2.99577E-06-1.86922E-21-3.49189E-19
 -1      4074 8.17255E-05-1.93781E-05-2.67296E-05-5.65668E-06-2.36976E-19-6.55058E-19
 -1      4075 8.30786E-05-1.98311E-05-2.71440E-05-5.06746E-06-1.99748E-20-2.72757E-19
 -1      4076 8.28830E-05-1.95340E-05-2.71043E-05-3.37945E-06 1.42574E-19 6.64100E-19
 -1      4077 7.81039E-05-1.85120E-05-2.55322E-05-7.02387E-06-9.47272E-19-1.10168E-18
 -1      4078 7.97187E-05-1.88140E-05-2.61555E-05-6.14949E-06-5.12561E-19-8.82355E-19
 -1      4079 7.93861E-05-1.82643E-05-2.61337E-05-3.89791E-06-2.52818E-19-2.10914E-19
 -1      4080 7.47183E-05-1.73780E-05-2.44734E-05 4.80125E-06-8.22018E-19 2.11667E-19
 -1      4081 9.08500E-05-2.67284E-05-2.75081E-05-1.13239E-05 2.86338E-19-2.05097E-19
 -1      4082 9.54169E-05-2.46160E-05-3.03501E-05 1.62645E-06 5.64274E-19-1.05250E-18
 -1      4083 9.63746E-05-2.82180E-05-2.92137E-05-5.20170E-07 5.88826E-20-6.68886E-19
 -1      4084 9.63665E-05-2.79040E-05-2.93356E-05-3.02676E-07 1.95792E-19-7.68820E-19
 -1      4085 9.64397E-05-2.75570E-05-2.95211E-05-1.01499E-07 2.87956E-19-7.47590E-19
 -1      4086 9.48875E-05-2.78052E-05-2.87485E-05-9.98666E-07 3.92842E-19 3.32574E-20
 -1      4087 9.50503E-05-2.80013E-05-2.87380E-05-9.26977E-07 4.27284E-19 1.06975E-19
 -1      4088 9.47096E-05-2.76187E-05-2.87508E-05-8.63801E-07 1.72761E-19-3.58607E-20
 -1      4089 7.43459E-05-1.82743E-05-2.40121E-05-9.57243E-06-1.31348E-18-1.39090E-18
 -1      4090 7.62075E-05-1.82673E-05-2.49142E-05-8.12302E-06-9.62410E-19-1.16117E-18
 -1      4091 7.55555E-05-1.72654E-05-2.48970E-05-5.07288E-06-8.36677E-19-3.07489E-19
 -1      4092 7.16689E-05-1.68112E-05-2.33996E-05-7.52912E-06-1.07164E-18-9.58568E-19
 -1      4093 9.58781E-05-2.53513E-05-3.02282E-05-7.76082E-07-1.01377E-19-9.44789E-19
 -1      4094 9.63554E-05-2.86578E-05-2.90150E-05-7.78139E-07 1.35452E-19-5.60164E-19
 -1      4095 9.63870E-05-2.84734E-05-2.91016E-05-6.55830E-07 7.72860E-20-5.32886E-19
 -1      4096 9.65067E-05-2.87223E-05-2.90521E-05-7.05705E-07-8.17531E-20-4.38464E-19
 -1      4097 9.66336E-05-2.73756E-05-2.96737E-05 3.53365E-09-2.76146E-20-6.69062E-19
 -1      4098 9.67105E-05-2.78383E-05-2.95220E-05 1.95755E-07-1.49147E-19-6.24729E-19
 -1      4099 9.68018E-05-2.79411E-05-2.95098E-05 1.75546E-07-9.33922E-20-9.00052E-19
 -1      4100 9.59501E-05-2.54365E-05-3.02255E-05-6.20556E-07 2.65193E-20-1.00370E-18
 -1      4101 9.61462E-05-2.59237E-05-3.00838E-05-5.09420E-07-9.23422E-20-8.22506E-19
 -1      4102 9.63650E-05-2.66577E-05-2.98844E-05-2.15725E-07 8.49208E-20-6.96721E-19
 -1      4103 9.59299E-05-2.52616E-05-3.02909E-05-4.55303E-07 2.58181E-19-1.02408E-18
 -1      4104 9.25480E-05-2.54249E-05-2.87688E-05-2.03403E-06-2.52443E-20-1.13931E-18
 -1      4105 9.29206E-05-2.57930E-05-2.87762E-05-1.82511E-06-2.14305E-19-1.13317E-18
 -1      4106 9.28932E-05-2.57931E-05-2.87494E-05-1.42613E-06-6.60955E-20-1.07094E-18
 -1      4107 7.86096E-05-1.90202E-05-2.55788E-05 8.44939E-06-1.45846E-18-4.62562E-19
 -1      4108 8.94244E-05-2.66155E-05-2.69190E-05-1.21536E-05-3.17874E-19 1.98097E-19
 -1      4109 8.13106E-05-1.95099E-05-2.65109E-05 7.77438E-06-5.17898E-19 4.30682E-19
 -1      4110 1.03392E-04-4.50095E-05-2.47888E-05 2.26088E-05 1.24713E-18-2.82602E-18
 -1      4111 9.65383E-05-2.82891E-05-2.92508E-05-4.87620E-07 5.47946E-20-6.10686E-19
 -1      4112 9.55521E-05-2.85132E-05-2.87295E-05-8.13689E-07-1.51355E-19-9.55946E-20
 -1      4113 9.56770E-05-2.86420E-05-2.87304E-05-7.87406E-07 1.44022E-19-3.50665E-19
 -1      4114 9.19900E-05-2.49863E-05-2.87053E-05-1.69629E-06-1.77657E-19-9.66416E-19
 -1      4115 8.82516E-05-3.17479E-05-2.42176E-05 1.98063E-05 1.02410E-18-2.15091E-18
 -1      4116 9.40871E-05-3.57944E-05-2.49154E-05 1.95502E-05 1.38004E-18-2.13880E-18
 -1      4117 9.73068E-05-3.93947E-05-2.47550E-05 2.12655E-05 1.83836E-18-2.44562E-18
 -1      4118 9.64989E-05-2.68298E-05-2.98614E-05-1.31118E-07 6.52777E-20-8.90408E-19
 -1      4119 6.86385E-05-1.88386E-05-2.13653E-05 1.37084E-05 2.05965E-19 5.98614E-19
 -1      4120 6.52829E-05-1.63763E-05-2.07803E-05 1.07123E-05-7.24253E-19 2.55142E-19
 -1      4121 6.67545E-05-1.59014E-05-2.18007E-05 6.64537E-06-1.31208E-18 7.65903E-20
 -1      4122 9.58278E-05-2.87640E-05-2.87403E-05-7.76847E-07 3.35971E-19-8.70333E-19
 -1      4123 9.59418E-05-2.88577E-05-2.87508E-05-7.63052E-07 2.29497E-19-1.00428E-18
 -1      4124 9.57971E-05-2.87045E-05-2.87544E-05-6.58188E-07 2.21739E-20-5.29459E-19
 -1      4125 9.19643E-05-3.03974E-05-2.63179E-05-1.51819E-05 4.49131E-19 2.16590E-18
 -1      4126 9.08063E-05-2.84642E-05-2.66758E-05-1.38664E-05-1.72864E-20 1.55025E-18
 -1      4127 8.66643E-05-2.55074E-05-2.62570E-05-1.27079E-05-1.43844E-18-9.89606E-20
 -1      4128 9.64920E-05-2.89971E-05-2.89264E-05-7.13764E-07 2.27683E-20-1.00021E-18
 -1      4129 9.65672E-05-2.89269E-05-2.89867E-05-6.71307E-07-2.38901E-20-9.52904E-19
 -1      4130 7.74918E-05-1.92537E-05-2.49737E-05-6.07820E-06-4.13206E-19 6.98269E-19
 -1      4131 7.73874E-05-2.02859E-05-2.43778E-05-1.00482E-05 6.04307E-19-4.77336E-19
 -1      4132 9.60203E-05-2.55339E-05-3.02102E-05 4.41160E-07 3.54195E-19-1.26300E-18
 -1      4133 6.70985E-05-1.50137E-05-2.21909E-05-2.73766E-06-1.26028E-18-1.71413E-18
 -1      4134 6.91050E-05-1.60635E-05-2.26866E-05-5.62864E-06-9.93595E-19-1.36389E-18
 -1      4135 7.11609E-05-1.62079E-05-2.35888E-05-4.22719E-06-5.88370E-19-6.55643E-19
 -1      4136 6.71310E-05-1.52246E-05-2.22490E-05 3.61688E-07-1.21604E-18-2.32947E-18
 -1      4137 9.56085E-05-2.43570E-05-3.05203E-05-2.38189E-07 2.97368E-19-1.44599E-18
 -1      4138 9.77235E-05-4.09117E-05-2.43145E-05 2.27125E-05 1.31371E-18-3.17122E-18
 -1      4139 9.67083E-05-2.88640E-05-2.90776E-05-5.33728E-07 9.37666E-20-1.02418E-18
 -1      4140 9.66283E-05-2.88108E-05-2.90656E-05-6.32620E-07-3.07770E-20-7.70812E-19
 -1      4141 9.66759E-05-2.86468E-05-2.91520E-05-5.45562E-07 1.22712E-19-5.86700E-19
 -1      4142 7.85780E-05-2.23613E-05-2.41447E-05-1.30708E-05 4.96269E-19-1.46418E-18
 -1      4143 8.19829E-05-2.54165E-05-2.41786E-05-1.65849E-05 5.89974E-19-2.60483E-18
 -1      4144 8.63113E-05-2.76402E-05-2.50857E-05-1.62282E-05 3.61372E-19 4.12158E-19
 -1      4145 8.14815E-05-2.26481E-05-2.52112E-05-1.15757E-05-2.03518E-19-1.58537E-18
 -1      4146 8.86693E-05-2.90414E-05-2.55800E-05-1.63479E-05 4.95162E-19 1.83292E-18
 -1      4147 9.52430E-05-2.81938E-05-2.87341E-05-8.83972E-07 4.03342E-19 8.60033E-20
 -1      4148 9.53834E-05-2.83558E-05-2.87280E-05-8.37933E-07 2.66683E-19 3.01975E-19
 -1      4149 9.54810E-05-2.84169E-05-2.87414E-05-6.95698E-07 6.24041E-20 4.21669E-20
 -1      4150 9.51235E-05-2.80553E-05-2.87423E-05-7.61631E-07 4.15266E-19-1.86920E-19
 -1      4151 9.50105E-05-2.79349E-05-2.87466E-05-6.02885E-07 5.01152E-19-3.59429E-19
 -1      4152 9.52043E-05-2.81378E-05-2.87444E-05-5.63114E-07 4.79584E-19-1.42620E-19
 -1      4153 9.15201E-05-2.46713E-05-2.86562E-05-1.26170E-06-2.79262E-19-8.69903E-19
 -1      4154 9.20302E-05-2.51018E-05-2.86902E-05-1.14751E-06-7.02911E-20-8.22520E-19
 -1      4155 9.67012E-05-2.90556E-05-2.89904E-05 3.16123E-07-1.54099E-19-3.55290E-19
 -1      4156 9.65955E-05-2.90800E-05-2.89341E-05 3.40546E-07-6.75365E-20-2.45470E-19
 -1      4157 9.64669E-05-2.90673E-05-2.88853E-05 3.36110E-07-1.73229E-19-4.96625E-19
 -1      4158 9.63360E-05-2.90229E-05-2.88477E-05 3.50316E-07-1.37889E-19-4.34039E-19
 -1      4159 9.65678E-05-2.90765E-05-2.89270E-05 1.88864E-07-3.64014E-19-6.60410E-19
 -1      4160 9.61864E-05-2.89493E-05-2.88158E-05 3.50873E-07 2.43978E-20-5.33037E-19
 -1      4161 9.60407E-05-2.88551E-05-2.87927E-05 3.63715E-07 7.89014E-20-6.19604E-19
 -1      4162 9.62873E-05-2.89865E-05-2.88444E-05 1.98541E-07-1.02279E-19-9.00142E-19
 -1      4163 9.58701E-05-2.87331E-05-2.87736E-05 3.64239E-07-1.10047E-19-7.81195E-19
 -1      4164 9.57084E-05-2.85956E-05-2.87615E-05 3.83177E-07-4.97053E-19-1.06367E-18
 -1      4165 9.59748E-05-2.87919E-05-2.87935E-05 2.05445E-07-1.42180E-19-9.93157E-19
 -1      4166 9.55186E-05-2.84340E-05-2.87518E-05 3.91762E-07-5.52571E-19-1.01807E-18
 -1      4167 9.53389E-05-2.82596E-05-2.87474E-05 4.21058E-07-2.24438E-19-9.58348E-19
 -1      4168 9.56193E-05-2.85026E-05-2.87641E-05 2.23554E-07-3.38166E-19-9.99716E-19
 -1      4169 9.51251E-05-2.80616E-05-2.87437E-05 4.40667E-07 2.02626E-19-1.00382E-18
 -1      4170 9.49228E-05-2.78528E-05-2.87436E-05 4.85386E-07 2.08952E-19-5.99419E-19
 -1      4171 9.52221E-05-2.81340E-05-2.87501E-05 2.54623E-07-2.38721E-20-6.67331E-19
 -1      4172 9.46776E-05-2.76193E-05-2.87425E-05 5.19873E-07 1.71233E-19-3.78884E-19
 -1      4173 9.44459E-05-2.73768E-05-2.87435E-05 5.85324E-07 1.48346E-19 2.23083E-19
 -1      4174 9.47708E-05-2.76905E-05-2.87446E-05 3.05523E-07 3.33585E-19-7.07259E-19
 -1      4175 9.41600E-05-2.71078E-05-2.87411E-05 6.39644E-07 2.56287E-19 3.99983E-19
 -1      4176 9.38913E-05-2.68322E-05-2.87393E-05 7.31902E-07 3.90088E-19 8.03072E-19
 -1      4177 9.42488E-05-2.71725E-05-2.87404E-05 3.84405E-07 5.75405E-19-4.62741E-19
 -1      4178 9.35538E-05-2.65278E-05-2.87314E-05 8.12650E-07 7.75681E-20 9.60183E-19
 -1      4179 9.32406E-05-2.62213E-05-2.87223E-05 9.39196E-07 2.57376E-19 9.81392E-19
 -1      4180 9.36362E-05-2.65794E-05-2.87292E-05 5.01952E-07 3.50784E-19-3.39920E-21
 -1      4181 9.28400E-05-2.58838E-05-2.87033E-05 1.05541E-06 1.97016E-19 1.18372E-18
 -1      4182 9.24759E-05-2.55517E-05-2.86814E-05 1.22600E-06 2.47113E-19 8.45745E-19
 -1      4183 9.29110E-05-2.59121E-05-2.87011E-05 6.72813E-07 2.28186E-19 2.26991E-19
 -1      4184 9.20006E-05-2.51870E-05-2.86445E-05 1.39028E-06 6.34247E-19 8.01762E-19
 -1      4185 9.15822E-05-2.48398E-05-2.86028E-05 1.61817E-06 9.67562E-19 3.51530E-19
 -1      4186 9.20506E-05-2.51769E-05-2.86437E-05 9.17571E-07 2.31169E-19 5.92042E-19
 -1      4187 9.10209E-05-2.44593E-05-2.85395E-05 1.84822E-06 4.51010E-19-7.92536E-20
 -1      4188 9.05494E-05-2.41155E-05-2.84693E-05 2.15194E-06-3.70189E-19-2.52550E-19
 -1      4189 9.10330E-05-2.43879E-05-2.85413E-05 1.26547E-06 3.43074E-19-6.28597E-20
 -1      4190 8.98919E-05-2.37381E-05-2.83685E-05 2.47283E-06-6.62715E-19-3.67256E-19
 -1      4191 8.93758E-05-2.34264E-05-2.82593E-05 2.87883E-06-6.31267E-19-4.73905E-19
 -1      4192 8.98376E-05-2.35709E-05-2.83737E-05 1.75836E-06-5.44561E-19-1.04116E-18
 -1      4193 8.86122E-05-2.30806E-05-2.81072E-05 3.32650E-06-5.44807E-19-3.30489E-19
 -1      4194 8.80713E-05-2.28431E-05-2.79462E-05 3.87294E-06-4.03775E-19-5.12415E-19
 -1      4195 8.84460E-05-2.27663E-05-2.81154E-05 2.45662E-06-3.97002E-19-1.06406E-18
 -1      4196 8.71918E-05-2.25691E-05-2.77250E-05 4.49961E-06-2.96374E-19-7.15927E-19
 -1      4197 8.66635E-05-2.24666E-05-2.74976E-05 5.24148E-06-3.37818E-19-6.08202E-19
 -1      4198 8.68409E-05-2.20317E-05-2.77335E-05 3.44844E-06-7.77811E-19-7.24540E-19
 -1      4199 8.56588E-05-2.23223E-05-2.71848E-05 6.12434E-06-3.06399E-19-7.41351E-19
 -1      4200 8.52053E-05-2.24415E-05-2.68749E-05 7.13991E-06-8.55115E-20-4.04982E-19
 -1      4201 8.50050E-05-2.14464E-05-2.71854E-05 4.86548E-06-6.86402E-19-1.07169E-18
 -1      4202 8.40652E-05-2.24941E-05-2.64419E-05 8.37538E-06-3.64214E-19-4.82152E-19
 -1      4203 8.38022E-05-2.29612E-05-2.60335E-05 9.78182E-06-8.73160E-19-4.77670E-19
 -1      4204 8.29431E-05-2.11388E-05-2.64157E-05 6.90073E-06-3.07195E-19-1.35391E-18
 -1      4205 8.24747E-05-2.33072E-05-2.54383E-05 1.16142E-05-1.39347E-18-5.49598E-19
 -1      4206 8.26109E-05-2.44834E-05-2.48971E-05 1.36412E-05-9.21420E-19-1.07684E-18
 -1      4207 8.05073E-05-2.11897E-05-2.53413E-05 9.75708E-06-9.44686E-19-3.01173E-19
 -1      4208 9.65113E-05-2.73798E-05-2.96287E-05 5.74425E-09 1.84253E-19-9.78573E-19
 -1      4209 9.65088E-05-2.70971E-05-2.97457E-05 7.82226E-08 7.67920E-20-1.13624E-18
 -1      4210 9.65911E-05-2.78245E-05-2.94736E-05-2.42691E-07 1.56072E-20-8.06748E-19
 -1      4211 9.59677E-05-2.52563E-05-3.03137E-05 2.89425E-07 3.84154E-19-1.20558E-18
 -1      4212 9.59487E-05-2.51865E-05-3.03334E-05 7.74592E-08 2.45203E-19-1.42490E-18
 -1      4213 8.08407E-05-2.93460E-05-2.18377E-05 2.35862E-05 8.18839E-19-1.58085E-18
 -1      4214 7.67649E-05-2.53619E-05-2.20249E-05 1.99649E-05 9.39062E-19-1.09931E-18
 -1      4215 7.81076E-05-1.89673E-05-2.53189E-05-4.87693E-06-5.83930E-19 8.22337E-19
 -1      4216 8.05554E-05-2.06348E-05-2.57122E-05-7.82823E-06-7.04606E-19-2.19969E-19
 -1      4217 9.54078E-05-2.83294E-05-2.87473E-05-5.47902E-07 3.39555E-19-2.85159E-19
 -1      4218 9.55774E-05-2.84951E-05-2.87504E-05-5.21456E-07 2.02137E-19-9.14301E-20
 -1      4219 9.53024E-05-2.82130E-05-2.87516E-05-3.88586E-07 3.15092E-19-2.37456E-19
 -1      4220 8.68732E-05-2.15533E-05-2.80131E-05-1.67770E-06 9.66705E-20-5.38483E-19
 -1      4221 8.78572E-05-2.21205E-05-2.81855E-05-1.58105E-06 4.02206E-19-4.51959E-19
 -1      4222 9.33345E-05-2.62617E-05-2.87484E-05-9.31443E-07 3.35128E-19 4.31339E-20
 -1      4223 9.36676E-05-2.65913E-05-2.87513E-05-8.41458E-07 3.11286E-19 2.51584E-19
 -1      4224 9.39992E-05-2.69077E-05-2.87551E-05-7.94412E-07 1.50045E-19 3.83983E-19
 -1      4225 9.42719E-05-2.71914E-05-2.87521E-05-7.21331E-07 1.37065E-19 2.44746E-19
 -1      4226 9.37578E-05-2.66725E-05-2.87428E-05-5.38849E-07 2.00758E-19 9.90125E-20
 -1      4227 8.87605E-05-2.26788E-05-2.83343E-05-1.57622E-06 4.72771E-19-9.18191E-19
 -1      4228 8.95495E-05-2.32068E-05-2.84425E-05-1.46549E-06 1.72613E-19-4.93285E-19
 -1      4229 8.81140E-05-2.22646E-05-2.81887E-05-6.53328E-07 9.58165E-20-7.07873E-19
 -1      4230 9.02853E-05-2.37228E-05-2.85364E-05-1.43019E-06 8.64892E-20-8.70118E-19
 -1      4231 9.09195E-05-2.42040E-05-2.86004E-05-1.31339E-06-1.42376E-19-9.32722E-19
 -1      4232 9.10621E-05-2.43093E-05-2.85886E-05-7.22367E-07-1.68124E-19-1.25684E-18
 -1      4233 8.97374E-05-2.33291E-05-2.84353E-05-7.25716E-07-1.51241E-19-1.13211E-18
 -1      4234 8.45213E-05-2.03645E-05-2.75221E-05-1.71581E-06-1.57193E-19-1.08883E-19
 -1      4235 8.57569E-05-2.09614E-05-2.77863E-05-1.63582E-06-4.22336E-20-3.84991E-19
 -1      4236 8.61165E-05-2.11305E-05-2.78091E-05-4.64121E-07-3.97204E-19-2.12628E-19
 -1      4237 8.15436E-05-1.91253E-05-2.67879E-05-1.68430E-06-5.29834E-20 5.02440E-19
 -1      4238 8.31223E-05-1.97474E-05-2.71845E-05-1.60968E-06-3.11130E-19 9.96978E-20
 -1      4239 8.36351E-05-1.99414E-05-2.72414E-05-1.07776E-07-2.97030E-19-2.34562E-19
 -1      4240 7.77214E-05-1.78293E-05-2.56951E-05-1.58185E-06 1.13704E-20 1.38178E-19
 -1      4241 7.97468E-05-1.84800E-05-2.62897E-05-1.49545E-06 3.79817E-19 4.40134E-19
 -1      4242 8.05011E-05-1.87017E-05-2.64049E-05 4.78267E-07-1.86265E-20 4.23737E-19
 -1      4243 9.63945E-05-2.90259E-05-2.88712E-05-7.27382E-07 8.88880E-20-8.75768E-19
 -1      4244 9.65512E-05-2.90261E-05-2.89407E-05-5.95792E-07 1.32995E-19-9.21527E-19
 -1      4245 9.63018E-05-2.90263E-05-2.88316E-05-7.46417E-07 2.58409E-19-1.12297E-18
 -1      4246 8.54447E-05-2.60399E-05-2.54993E-05-1.45112E-05-9.02466E-19 6.43282E-20
 -1      4247 9.59423E-05-2.51814E-05-3.03338E-05-7.05230E-08 3.02296E-19-1.62095E-18
 -1      4248 9.59549E-05-2.52384E-05-3.03144E-05-2.70570E-07 2.69694E-19-1.41175E-18
 -1      4249 9.63029E-05-2.59502E-05-3.01375E-05 1.33562E-08 2.61737E-19-1.52656E-18
 -1      4250 9.63272E-05-2.62076E-05-3.00408E-05 2.25247E-07 2.33476E-19-1.24259E-18
 -1      4251 9.25212E-05-2.55177E-05-2.87203E-05-1.09046E-06 5.63434E-21-3.70114E-19
 -1      4252 9.29323E-05-2.58968E-05-2.87349E-05-9.85990E-07 3.56278E-19-1.41312E-19
 -1      4253 9.30302E-05-2.59823E-05-2.87235E-05-6.08854E-07 2.94888E-19 2.59593E-19
 -1      4254 9.45486E-05-2.74629E-05-2.87516E-05-6.84466E-07-3.49365E-21 2.48412E-19
 -1      4255 9.47757E-05-2.77046E-05-2.87472E-05-6.28681E-07 1.18424E-19 2.35752E-19
 -1      4256 9.48678E-05-2.77821E-05-2.87481E-05-4.25054E-07-1.70999E-19 3.63776E-19
 -1      4257 8.29263E-05-2.22787E-05-2.59947E-05-9.84527E-06-1.31522E-18-2.65868E-19
 -1      4258 9.68667E-05-2.88728E-05-2.91396E-05 2.74428E-07-1.14977E-19-6.71510E-19
 -1      4259 9.67974E-05-2.89886E-05-2.90602E-05 3.16755E-07-5.57238E-20-3.83817E-19
 -1      4260 9.67880E-05-2.90196E-05-2.90465E-05 1.72990E-07-1.43335E-19-6.50866E-19
 -1      4261 9.62668E-05-2.59694E-05-3.01147E-05-2.55021E-07 2.34960E-19-1.20499E-18
 -1      4262 9.66712E-05-2.84463E-05-2.92413E-05-4.96618E-07 8.74660E-20-7.26049E-19
 -1      4263 9.66601E-05-2.81532E-05-2.93582E-05-3.43211E-07 5.22993E-20-7.30682E-19
 -1      4264 9.67206E-05-2.80005E-05-2.94560E-05-2.49190E-07-3.48135E-20-9.91416E-19
 -1      4265 9.67792E-05-2.85293E-05-2.92524E-05-4.31704E-07 1.65631E-19-8.12518E-19
 -1      4266 9.69267E-05-2.84582E-05-2.93429E-05 2.00221E-07-3.91352E-20-9.70921E-19
 -1      4267 9.69147E-05-2.87004E-05-2.92352E-05 2.66790E-07-1.26579E-19-1.02008E-18
 -1      4268 9.69288E-05-2.87694E-05-2.92130E-05 1.43107E-07 9.12379E-20-8.25459E-19
 -1      4269 9.68385E-05-2.77445E-05-2.96077E-05 6.50186E-08-4.93431E-20-1.18008E-18
 -1      4270 9.68986E-05-2.81442E-05-2.94697E-05 1.72327E-07-1.20017E-19-1.17426E-18
 -1      4271 9.69415E-05-2.82582E-05-2.94345E-05 9.78874E-08 7.46861E-20-1.31983E-18
 -1      4272 9.65579E-05-2.68334E-05-2.98879E-05-4.50342E-08 1.31649E-19-1.32516E-18
 -1      4273 9.21445E-05-2.51950E-05-2.86775E-05-6.75485E-07 1.04916E-19-7.30730E-19
 -1      4274 9.67024E-05-2.75187E-05-2.96428E-05-8.09534E-08-1.22605E-20-1.16245E-18
 -1      4275 9.65496E-05-2.69902E-05-2.98182E-05 1.10642E-07 1.11312E-19-1.26709E-18
 -1      4276 9.65311E-05-2.67262E-05-2.99198E-05 6.72136E-08 1.58707E-19-1.27487E-18
 -1      4277 9.67747E-05-2.78898E-05-2.95234E-05-1.79583E-07 1.56432E-20-1.35938E-18
 -1      4278 9.60775E-05-2.89400E-05-2.87721E-05-7.60568E-07 2.17031E-19-1.06014E-18
 -1      4279 9.61816E-05-2.89918E-05-2.87953E-05-7.49769E-07 1.85909E-19-9.69185E-19
 -1      4280 9.63347E-05-2.90282E-05-2.88469E-05-6.23616E-07 5.56643E-20-1.09786E-18
 -1      4281 8.45878E-05-2.42277E-05-2.58181E-05-1.24303E-05-9.40775E-19-8.19522E-19
 -1      4282 9.66489E-05-2.70362E-05-2.98350E-05-1.84959E-08 1.08069E-19-1.48700E-18
 -1      4283 8.00351E-05-2.54633E-05-2.33747E-05 1.75985E-05 7.57568E-19-8.44796E-19
 -1      4284 7.36791E-05-2.14739E-05-2.21783E-05 1.63827E-05 6.03236E-19-2.95396E-19
 -1      4285 7.29390E-05-1.96433E-05-2.27891E-05 1.22868E-05-2.36848E-19 9.56231E-19
 -1      4286 9.56832E-05-2.85652E-05-2.87655E-05-3.65272E-07 1.59725E-19-1.83776E-19
 -1      4287 9.57576E-05-2.86483E-05-2.87602E-05-5.15364E-07 3.85864E-21-1.35469E-19
 -1      4288 9.59099E-05-2.87755E-05-2.87718E-05-4.98065E-07 1.17570E-19-3.23794E-19
 -1      4289 7.39204E-05-1.68375E-05-2.44692E-05-2.60941E-06-6.30894E-19-5.26947E-19
 -1      4290 7.56611E-05-1.72452E-05-2.51128E-05-1.91808E-06-2.36684E-19-3.37222E-19
 -1      4291 7.67086E-05-1.73535E-05-2.53127E-05 8.37698E-07 2.97864E-19-1.07447E-19
 -1      4292 9.43608E-05-2.72703E-05-2.87478E-05-4.75748E-07 6.20372E-20 5.16843E-19
 -1      4293 9.65878E-05-2.90654E-05-2.89379E-05-4.71051E-07 1.69758E-19-1.08138E-18
 -1      4294 9.66872E-05-2.90265E-05-2.89956E-05-4.41085E-07 1.25533E-20-1.16414E-18
 -1      4295 6.77896E-05-1.54671E-05-2.22723E-05 3.50618E-06-8.79824E-19-1.33125E-18
 -1      4296 6.94654E-05-1.58452E-05-2.29243E-05 6.47637E-07-5.99357E-19-1.59941E-18
 -1      4297 6.86854E-05-1.64050E-05-2.24750E-05 6.87963E-06-5.78129E-19 9.39591E-19
 -1      4298 9.60812E-05-2.89134E-05-2.87873E-05-6.38786E-07 1.55604E-19-1.14225E-18
 -1      4299 9.67906E-05-2.89845E-05-2.90629E-05-3.05088E-07 6.47745E-20-1.57395E-18
 -1      4300 9.67714E-05-2.89462E-05-2.90687E-05-4.33973E-07 8.78564E-20-1.23593E-18
 -1      4301 9.68436E-05-2.88216E-05-2.91509E-05-3.77964E-07 1.51797E-19-1.37522E-18
 -1      4302 8.75680E-05-3.33367E-05-2.32888E-05 2.27590E-05 1.25406E-18-2.33207E-18
 -1      4303 9.19899E-05-2.51594E-05-2.86549E-05 6.27776E-08 2.10507E-19-7.79071E-19
 -1      4304 9.24836E-05-2.55621E-05-2.86875E-05 6.27829E-08 1.67017E-19-4.92115E-19
 -1      4305 7.83080E-05-2.19213E-05-2.41408E-05 1.30310E-05-8.85448E-19-2.70369E-19
 -1      4306 8.13939E-05-2.48789E-05-2.43105E-05 1.52993E-05-3.68234E-19-8.69446E-19
 -1      4307 9.63837E-05-2.90332E-05-2.88639E-05 3.76497E-08-3.53469E-19-1.06871E-18
 -1      4308 9.62341E-05-2.89623E-05-2.88300E-05 4.23596E-08 5.40428E-20-1.10049E-18
 -1      4309 9.60137E-05-2.88204E-05-2.87967E-05-7.66748E-08 1.67084E-19-7.96655E-19
 -1      4310 9.58426E-05-2.86915E-05-2.87783E-05-6.78321E-08-8.15177E-20-4.48877E-19
 -1      4311 9.56610E-05-2.85392E-05-2.87667E-05-7.70707E-08-1.07560E-19-2.19127E-19
 -1      4312 9.54672E-05-2.83683E-05-2.87567E-05-6.67967E-08 4.68534E-20-2.91920E-19
 -1      4313 9.52613E-05-2.81767E-05-2.87520E-05-7.86008E-08 8.99843E-21-1.92187E-19
 -1      4314 9.50427E-05-2.79671E-05-2.87478E-05-6.32222E-08-1.08288E-19 8.06899E-21
 -1      4315 9.48052E-05-2.77368E-05-2.87466E-05-7.83776E-08-2.71863E-19 1.55220E-19
 -1      4316 9.45542E-05-2.74886E-05-2.87447E-05-5.49256E-08 6.37883E-20-2.23343E-19
 -1      4317 9.42746E-05-2.72183E-05-2.87434E-05-7.25770E-08 3.68277E-19-2.83482E-19
 -1      4318 9.39816E-05-2.69303E-05-2.87399E-05-3.72065E-08 3.48796E-19-3.60872E-19
 -1      4319 9.36469E-05-2.66175E-05-2.87341E-05-5.47837E-08 2.28458E-19-3.55894E-19
 -1      4320 9.33006E-05-2.62887E-05-2.87245E-05-2.13510E-09 2.64046E-19-3.71005E-19
 -1      4321 9.28953E-05-2.59314E-05-2.87088E-05-1.48173E-08 1.64952E-19-7.16843E-19
 -1      4322 9.15004E-05-2.47528E-05-2.86147E-05 1.76396E-07 9.64433E-20-8.25579E-19
 -1      4323 9.08973E-05-2.43067E-05-2.85562E-05 2.00652E-07-2.00471E-19-7.89653E-19
 -1      4324 9.03174E-05-2.38703E-05-2.84879E-05 3.66248E-07-1.73296E-19-1.25678E-18
 -1      4325 8.95801E-05-2.33863E-05-2.83914E-05 4.31065E-07-2.91727E-19-1.04328E-18
 -1      4326 8.88971E-05-2.29332E-05-2.82831E-05 6.71631E-07-3.56388E-19-1.05900E-18
 -1      4327 8.79936E-05-2.24207E-05-2.81323E-05 7.98966E-07-3.54743E-19-9.07310E-19
 -1      4328 8.71937E-05-2.19702E-05-2.79687E-05 1.14771E-06-5.04350E-19-8.55596E-19
 -1      4329 8.60792E-05-2.14417E-05-2.77412E-05 1.36626E-06-6.70221E-19-5.70081E-19
 -1      4330 8.51451E-05-2.10196E-05-2.75022E-05 1.87161E-06-6.22486E-19-4.60456E-19
 -1      4331 8.37513E-05-2.04886E-05-2.71667E-05 2.21844E-06-6.16987E-19-3.16767E-19
 -1      4332 8.26572E-05-2.01270E-05-2.68253E-05 2.95380E-06-4.23150E-19-2.55770E-19
 -1      4333 8.08659E-05-1.95942E-05-2.63348E-05 3.48098E-06-6.19389E-20-5.81541E-20
 -1      4334 7.95500E-05-1.93608E-05-2.58452E-05 4.58012E-06 7.24031E-20 6.42372E-20
 -1      4335 7.75237E-05-1.87829E-05-2.52622E-05 4.82417E-06-7.97634E-20 4.48527E-19
 -1      4336 7.60157E-05-1.86887E-05-2.45907E-05 6.31482E-06-2.32262E-19 6.88150E-19
 -1      4337 9.69530E-05-2.81187E-05-2.95013E-05-8.85046E-09 2.58473E-21-1.39347E-18
 -1      4338 9.69887E-05-2.84492E-05-2.93740E-05 3.68572E-08 1.52219E-19-1.26162E-18
 -1      4339 9.64704E-05-2.90650E-05-2.88868E-05-4.69400E-07 1.03367E-20-6.85184E-19
 -1      4340 9.65859E-05-2.90734E-05-2.89371E-05-3.32312E-07-2.80551E-19-9.29225E-19
 -1      4341 9.63484E-05-2.90331E-05-2.88484E-05-4.85785E-07-1.34975E-19-6.89091E-19
 -1      4342 9.65691E-05-2.67339E-05-2.99337E-05-3.42998E-08 3.04788E-19-1.57864E-18
 -1      4343 9.68565E-05-2.76656E-05-2.96521E-05 3.14204E-08 1.13383E-19-1.41311E-18
 -1      4344 9.68818E-05-2.78534E-05-2.95843E-05-3.69605E-08 4.47508E-20-1.43032E-18
 -1      4345 9.65492E-05-2.67211E-05-2.99322E-05 4.07256E-08 2.57091E-19-1.39951E-18
 -1      4346 9.60693E-05-2.88877E-05-2.87917E-05-4.98704E-07-3.68389E-20-3.07537E-19
 -1      4347 9.62052E-05-2.89704E-05-2.88149E-05-4.86463E-07-1.08998E-19-5.23401E-19
 -1      4348 9.63208E-05-2.90072E-05-2.88496E-05-3.39330E-07-3.00586E-19-2.37971E-19
 -1      4349 9.60227E-05-2.88381E-05-2.87947E-05-3.50679E-07 1.82844E-19-1.78796E-19
 -1      4350 7.18892E-05-1.60967E-05-2.38677E-05-8.29912E-07-3.87188E-19-1.44127E-18
 -1      4351 9.68243E-05-2.90153E-05-2.90599E-05-7.15524E-08-6.91354E-20-9.09389E-19
 -1      4352 9.67249E-05-2.90748E-05-2.89902E-05-5.98394E-08-4.61984E-19-1.13156E-18
 -1      4353 9.69508E-05-2.87480E-05-2.92292E-05-6.92286E-08 2.53338E-19-1.35240E-18
 -1      4354 9.69039E-05-2.89135E-05-2.91360E-05-4.70469E-08 1.86029E-19-1.04131E-18
 -1      4355 9.66075E-05-2.90867E-05-2.89365E-05-7.45585E-08-6.34801E-19-6.68744E-19
 -1      4356 9.64736E-05-2.90650E-05-2.88878E-05-6.75522E-08-5.54201E-19-8.87088E-19
 -1      4357 8.49918E-05-2.81143E-05-2.42529E-05 1.77460E-05 6.22794E-19-1.46446E-18
 -1      4358 9.67765E-05-2.73907E-05-2.97256E-05-1.87183E-08 1.44106E-19-1.41015E-18
 -1      4359 9.69365E-05-2.86120E-05-2.92830E-05-1.59394E-07 1.80825E-19-1.53990E-18
 -1      4360 7.42543E-05-1.93290E-05-2.34467E-05 1.07865E-05-1.01636E-18 1.29709E-18
 -1      4361 7.20121E-05-1.61963E-05-2.38480E-05 2.20327E-06-6.73308E-20-4.76160E-19
 -1      4362 7.38659E-05-1.85176E-05-2.37807E-05 8.12241E-06-5.65090E-19 7.55246E-19
 -1      4363 9.69042E-05-2.85308E-05-2.93039E-05-2.62005E-07 9.85925E-20-1.29863E-18
 -1      4364 9.68958E-05-2.82835E-05-2.93998E-05-2.03821E-07 6.96495E-20-1.36544E-18
 -1      4365 9.60853E-05-2.88676E-05-2.88083E-05-2.35415E-07 2.01489E-19-6.51018E-19
 -1      4366 9.63916E-05-2.90404E-05-2.88664E-05-2.31805E-07-4.54711E-19-6.01032E-19
 -1      4367 9.68728E-05-2.78788E-05-2.95716E-05-7.85351E-08 6.28177E-20-1.42394E-18
 -1      4368 9.62425E-05-2.89691E-05-2.88304E-05-2.33734E-07-9.05379E-20-4.18200E-19
 -3
    1PSTEP                         4           1           1          
  100CL  101 1.000000000        4368                     0    1           1
 -4  ERROR       1    1
 -5  STR(%)      1    1    0    0
 -1         1 1.25764E+01
 -1         2 2.52276E+01
 -1         3 1.07614E-01
 -1         4 8.60685E-02
 -1         5 1.40419E+01
 -1         6 1.31460E+01
 -1         7 1.31460E+01
 -1         8 3.66303E+00
 -1         9 1.82242E+00
 -1        10 1.29056E+00
 -1        11 1.04520E+00
 -1        12 8.98858E-01
 -1        13 8.08778E-01
 -1        14 7.54391E-01
 -1        15 7.56340E-01
 -1        16 8.13042E-01
 -1        17 9.00414E-01
 -1        18 1.05184E+00
 -1        19 1.30676E+00
 -1        20 1.83429E+00
 -1        21 3.50480E+00
 -1        22 8.64319E+00
 -1        23 1.31460E+01
 -1        24 4.32019E+00
 -1        25 3.34446E+00
 -1        26 2.11551E+00
 -1        27 1.36736E+00
 -1        28 1.01780E+00
 -1        29 7.80155E-01
 -1        30 6.02199E-01
 -1        31 4.64422E-01
 -1        32 3.58142E-01
 -1        33 2.82369E-01
 -1        34 2.22745E-01
 -1        35 1.77229E-01
 -1        36 1.43794E-01
 -1        37 1.20483E-01
 -1        38 1.09182E-01
 -1        39 1.23635E-01
 -1        40 1.49658E-01
 -1        41 1.84924E-01
 -1        42 2.28735E-01
 -1        43 2.79042E-01
 -1        44 3.31718E-01
 -1        45 3.79712E-01
 -1        46 4.74845E-01
 -1        47 5.95161E-01
 -1        48 7.33703E-01
 -1        49 8.40864E-01
 -1        50 8.68620E-01
 -1        51 8.96274E-01
 -1        52 9.22098E-01
 -1        53 1.04970E+00
 -1        54 1.33903E+00
 -1        55 2.14837E+00
 -1        56 2.89137E+00
 -1        57 3.04093E+00
 -1        58 3.04449E+00
 -1        59 3.04449E+00
 -1        60 2.67208E+00
 -1        61 1.80387E+00
 -1        62 1.19708E+00
 -1        63 8.39363E-01
 -1        64 8.23649E-01
 -1        65 8.01697E-01
 -1        66 8.01697E-01
 -1        67 6.73866E-01
 -1        68 5.75434E-01
 -1        69 5.68299E-01
 -1        70 4.62424E-01
 -1        71 3.78098E-01
 -1        72 1.40419E+01
 -1        73 3.39648E+00
 -1        74 2.41557E+00
 -1        75 1.66885E+00
 -1        76 1.14832E+00
 -1        77 9.08302E-01
 -1        78 7.34768E-01
 -1        79 5.93007E-01
 -1        80 4.75873E-01
 -1        81 3.79741E-01
 -1        82 3.07270E-01
 -1        83 2.50260E-01
 -1        84 2.05469E-01
 -1        85 1.72401E-01
 -1        86 1.50380E-01
 -1        87 1.48982E-01
 -1        88 1.65053E-01
 -1        89 1.91043E-01
 -1        90 2.26041E-01
 -1        91 2.68461E-01
 -1        92 3.47579E-01
 -1        93 4.45198E-01
 -1        94 5.59168E-01
 -1        95 6.83083E-01
 -1        96 8.02834E-01
 -1        97 8.92708E-01
 -1        98 9.21451E-01
 -1        99 1.24370E+00
 -1       100 1.56379E+00
 -1       101 1.71154E+00
 -1       102 2.10153E+00
 -1       103 2.10153E+00
 -1       104 2.67627E+00
 -1       105 3.83850E+00
 -1       106 4.95748E+00
 -1       107 5.58996E+00
 -1       108 5.58996E+00
 -1       109 4.61816E+00
 -1       110 2.40828E+00
 -1       111 1.62438E+00
 -1       112 1.94364E+00
 -1       113 2.02706E+00
 -1       114 2.02706E+00
 -1       115 1.81863E+00
 -1       116 1.49146E+00
 -1       117 1.16625E+00
 -1       118 9.64375E-01
 -1       119 7.40486E-01
 -1       120 4.20080E-01
 -1       121 2.00703E-01
 -1       122 2.00703E-01
 -1       123 1.45824E-01
 -1       124 5.98619E-02
 -1       125 1.07941E-01
 -1       126 1.53789E-01
 -1       127 1.68996E-01
 -1       128 1.68996E-01
 -1       129 1.56744E-01
 -1       130 1.20571E-01
 -1       131 7.00207E-02
 -1       132 3.84197E-02
 -1       133 8.09475E-02
 -1       134 1.14996E-01
 -1       135 1.82894E-01
 -1       136 2.05514E-01
 -1       137 2.52276E+01
 -1       138 4.76008E+01
 -1       139 4.76008E+01
 -1       140 2.15612E+01
 -1       141 1.19703E+01
 -1       142 1.27526E+01
 -1       143 1.30500E+01
 -1       144 1.38205E+01
 -1       145 1.38205E+01
 -1       146 1.30630E+01
 -1       147 2.91398E+01
 -1       148 2.92985E+01
 -1       149 2.79424E+01
 -1       150 2.50738E+01
 -1       151 2.50738E+01
 -1       152 2.50231E+01
 -1       153 4.32850E+01
 -1       154 4.32850E+01
 -1       155 1.69272E+01
 -1       156 1.33915E+01
 -1       157 1.34372E+01
 -1       158 1.34372E+01
 -1       159 1.27540E+01
 -1       160 1.27540E+01
 -1       161 2.90277E+01
 -1       162 2.95024E+01
 -1       163 2.72365E+01
 -1       164 2.46323E+01
 -1       165 6.07758E+00
 -1       166 2.29687E+00
 -1       167 1.50721E+00
 -1       168 1.15661E+00
 -1       169 9.72715E-01
 -1       170 8.64008E-01
 -1       171 7.96291E-01
 -1       172 7.56340E-01
 -1       173 7.99671E-01
 -1       174 8.67116E-01
 -1       175 9.80505E-01
 -1       176 1.17164E+00
 -1       177 1.52646E+00
 -1       178 2.25969E+00
 -1       179 3.93087E+00
 -1       180 1.40419E+01
 -1       181 4.32019E+00
 -1       182 3.34446E+00
 -1       183 2.11551E+00
 -1       184 1.45112E+00
 -1       185 1.03049E+00
 -1       186 7.80155E-01
 -1       187 6.02199E-01
 -1       188 4.75793E-01
 -1       189 3.78052E-01
 -1       190 2.99577E-01
 -1       191 2.44820E-01
 -1       192 1.98771E-01
 -1       193 1.61093E-01
 -1       194 1.30890E-01
 -1       195 1.09182E-01
 -1       196 1.07146E-01
 -1       197 1.24222E-01
 -1       198 1.50244E-01
 -1       199 1.84924E-01
 -1       200 2.28735E-01
 -1       201 2.79042E-01
 -1       202 3.52972E-01
 -1       203 4.34971E-01
 -1       204 5.09342E-01
 -1       205 6.03694E-01
 -1       206 7.33703E-01
 -1       207 8.40864E-01
 -1       208 8.68620E-01
 -1       209 8.96274E-01
 -1       210 9.22098E-01
 -1       211 1.04970E+00
 -1       212 1.40596E+00
 -1       213 2.14837E+00
 -1       214 2.89137E+00
 -1       215 3.04093E+00
 -1       216 3.04449E+00
 -1       217 2.67208E+00
 -1       218 1.81773E+00
 -1       219 1.19708E+00
 -1       220 8.39363E-01
 -1       221 8.23649E-01
 -1       222 7.83760E-01
 -1       223 8.01697E-01
 -1       224 6.73866E-01
 -1       225 5.75434E-01
 -1       226 5.68299E-01
 -1       227 4.62424E-01
 -1       228 3.78098E-01
 -1       229 3.39648E+00
 -1       230 2.41557E+00
 -1       231 1.66885E+00
 -1       232 1.14832E+00
 -1       233 9.08302E-01
 -1       234 7.34768E-01
 -1       235 5.93007E-01
 -1       236 4.75873E-01
 -1       237 3.79741E-01
 -1       238 3.07270E-01
 -1       239 2.50260E-01
 -1       240 2.05469E-01
 -1       241 1.72401E-01
 -1       242 1.50380E-01
 -1       243 1.43479E-01
 -1       244 1.48982E-01
 -1       245 1.65053E-01
 -1       246 1.91043E-01
 -1       247 2.41740E-01
 -1       248 3.08176E-01
 -1       249 3.88263E-01
 -1       250 4.80876E-01
 -1       251 5.80832E-01
 -1       252 6.83083E-01
 -1       253 8.02834E-01
 -1       254 8.92708E-01
 -1       255 1.08509E+00
 -1       256 1.27693E+00
 -1       257 1.56379E+00
 -1       258 1.71154E+00
 -1       259 2.10153E+00
 -1       260 2.09559E+00
 -1       261 2.67627E+00
 -1       262 3.83850E+00
 -1       263 4.95748E+00
 -1       264 5.58996E+00
 -1       265 4.61816E+00
 -1       266 2.40828E+00
 -1       267 1.48737E+00
 -1       268 1.62438E+00
 -1       269 1.94364E+00
 -1       270 2.02706E+00
 -1       271 1.81863E+00
 -1       272 1.49146E+00
 -1       273 1.16625E+00
 -1       274 9.64375E-01
 -1       275 7.40486E-01
 -1       276 4.44917E-01
 -1       277 2.44983E-01
 -1       278 2.44983E-01
 -1       279 2.19794E-01
 -1       280 1.76131E-01
 -1       281 2.72618E-01
 -1       282 3.17671E-01
 -1       283 3.18107E-01
 -1       284 3.18107E-01
 -1       285 2.80848E-01
 -1       286 2.05460E-01
 -1       287 1.14089E-01
 -1       288 1.30066E-01
 -1       289 1.88572E-01
 -1       290 1.88572E-01
 -1       291 2.21899E-01
 -1       292 2.97690E+01
 -1       293 2.94402E+01
 -1       294 4.76008E+01
 -1       295 2.24271E+01
 -1       296 1.16102E+01
 -1       297 1.19703E+01
 -1       298 1.27526E+01
 -1       299 1.30500E+01
 -1       300 1.38205E+01
 -1       301 1.20967E+01
 -1       302 1.30630E+01
 -1       303 2.92985E+01
 -1       304 2.92985E+01
 -1       305 2.48618E+01
 -1       306 2.80303E+01
 -1       307 2.80303E+01
 -1       308 3.79241E+01
 -1       309 4.32850E+01
 -1       310 1.69272E+01
 -1       311 1.09984E+01
 -1       312 1.33915E+01
 -1       313 1.34372E+01
 -1       314 1.20016E+01
 -1       315 1.27540E+01
 -1       316 1.21156E+01
 -1       317 1.25764E+01
 -1       318 2.95024E+01
 -1       319 2.95024E+01
 -1       320 2.45398E+01
 -1       321 2.97690E+01
 -1       322 1.04522E+00
 -1       323 2.47915E+00
 -1       324 7.90851E-01
 -1       325 6.93583E-01
 -1       326 6.31545E-01
 -1       327 5.87669E-01
 -1       328 5.90905E-01
 -1       329 6.34326E-01
 -1       330 7.00758E-01
 -1       331 7.95686E-01
 -1       332 9.30905E-01
 -1       333 1.15854E+00
 -1       334 1.32766E+00
 -1       335 2.20207E+00
 -1       336 1.91584E+00
 -1       337 3.26362E+01
 -1       338 1.73234E+00
 -1       339 1.27123E+00
 -1       340 9.11538E-01
 -1       341 6.61219E-01
 -1       342 5.43951E-01
 -1       343 4.48484E-01
 -1       344 3.64973E-01
 -1       345 2.99577E-01
 -1       346 2.45588E-01
 -1       347 1.99789E-01
 -1       348 1.61722E-01
 -1       349 1.30890E-01
 -1       350 1.07334E-01
 -1       351 9.37401E-02
 -1       352 1.05087E-01
 -1       353 1.24222E-01
 -1       354 1.50244E-01
 -1       355 1.89868E-01
 -1       356 2.53005E-01
 -1       357 3.22979E-01
 -1       358 3.95282E-01
 -1       359 4.61695E-01
 -1       360 5.22300E-01
 -1       361 5.87277E-01
 -1       362 6.41967E-01
 -1       363 6.33615E-01
 -1       364 5.21871E-01
 -1       365 4.38483E-01
 -1       366 5.73129E-01
 -1       367 1.02535E+00
 -1       368 1.40761E+00
 -1       369 1.81448E+00
 -1       370 1.97929E+00
 -1       371 1.87968E+00
 -1       372 1.94415E+00
 -1       373 1.67404E+00
 -1       374 1.31459E+00
 -1       375 8.91229E-01
 -1       376 5.82537E-01
 -1       377 4.68690E-01
 -1       378 4.81130E-01
 -1       379 5.05837E-01
 -1       380 4.30840E-01
 -1       381 4.31811E-01
 -1       382 4.08456E-01
 -1       383 3.23475E-01
 -1       384 1.13270E+00
 -1       385 8.94841E-01
 -1       386 7.07980E-01
 -1       387 5.49862E-01
 -1       388 4.43265E-01
 -1       389 3.78201E-01
 -1       390 3.16173E-01
 -1       391 2.60613E-01
 -1       392 2.16516E-01
 -1       393 1.81566E-01
 -1       394 1.54119E-01
 -1       395 1.33464E-01
 -1       396 1.22574E-01
 -1       397 1.21818E-01
 -1       398 1.28274E-01
 -1       399 1.58968E-01
 -1       400 2.01933E-01
 -1       401 2.90582E-01
 -1       402 4.04326E-01
 -1       403 5.46398E-01
 -1       404 7.16931E-01
 -1       405 9.09788E-01
 -1       406 1.10794E+00
 -1       407 1.27808E+00
 -1       408 1.42604E+00
 -1       409 1.46990E+00
 -1       410 1.47563E+00
 -1       411 1.30840E+00
 -1       412 1.26181E+00
 -1       413 1.44999E+00
 -1       414 2.43080E+00
 -1       415 2.86518E+00
 -1       416 3.16207E+00
 -1       417 3.19454E+00
 -1       418 2.81370E+00
 -1       419 1.80346E+00
 -1       420 1.25021E+00
 -1       421 1.21187E+00
 -1       422 1.36675E+00
 -1       423 1.47380E+00
 -1       424 1.41539E+00
 -1       425 1.24314E+00
 -1       426 1.05889E+00
 -1       427 8.22030E-01
 -1       428 6.64759E-01
 -1       429 4.44917E-01
 -1       430 2.72509E-01
 -1       431 4.79638E-01
 -1       432 4.79638E-01
 -1       433 3.73449E-01
 -1       434 4.55404E-01
 -1       435 4.55404E-01
 -1       436 4.48867E-01
 -1       437 4.46722E-01
 -1       438 3.67886E-01
 -1       439 2.53934E-01
 -1       440 1.72165E-01
 -1       441 2.24008E-01
 -1       442 2.98541E-01
 -1       443 2.94402E+01
 -1       444 3.43472E+01
 -1       445 3.43472E+01
 -1       446 1.70349E+01
 -1       447 2.13714E+01
 -1       448 7.16123E+00
 -1       449 9.97942E+00
 -1       450 9.17413E-01
 -1       451 9.80845E+00
 -1       452 1.11575E+01
 -1       453 1.14874E+01
 -1       454 8.34837E+00
 -1       455 7.01983E+00
 -1       456 1.19653E+01
 -1       457 2.07938E+01
 -1       458 2.13962E+01
 -1       459 3.47742E+01
 -1       460 3.47742E+01
 -1       461 2.45621E+01
 -1       462 2.44302E+01
 -1       463 1.39480E+01
 -1       464 8.36069E+00
 -1       465 6.86530E+00
 -1       466 9.95574E+00
 -1       467 1.15664E+01
 -1       468 1.13450E+01
 -1       469 8.37181E+00
 -1       470 5.90946E+00
 -1       471 1.17764E+01
 -1       472 1.98491E+01
 -1       473 1.39150E+01
 -1       474 4.66327E+00
 -1       475 1.05084E+00
 -1       476 4.85678E-01
 -1       477 5.10218E-01
 -1       478 4.31698E-01
 -1       479 4.57378E-01
 -1       480 4.86683E-01
 -1       481 5.10534E-01
 -1       482 5.10534E-01
 -1       483 6.06399E-01
 -1       484 8.03958E-01
 -1       485 2.13714E+01
 -1       486 8.94841E-01
 -1       487 8.75300E-01
 -1       488 7.06134E-01
 -1       489 5.92555E-01
 -1       490 4.80851E-01
 -1       491 3.82692E-01
 -1       492 3.29592E-01
 -1       493 2.80886E-01
 -1       494 2.34959E-01
 -1       495 1.94008E-01
 -1       496 1.59631E-01
 -1       497 1.29472E-01
 -1       498 1.04438E-01
 -1       499 8.34595E-02
 -1       500 7.89446E-02
 -1       501 9.15750E-02
 -1       502 1.13886E-01
 -1       503 1.63690E-01
 -1       504 2.21328E-01
 -1       505 2.86276E-01
 -1       506 3.56212E-01
 -1       507 4.26233E-01
 -1       508 4.88039E-01
 -1       509 5.41944E-01
 -1       510 6.00292E-01
 -1       511 6.46842E-01
 -1       512 6.46990E-01
 -1       513 7.09984E-01
 -1       514 8.32295E-01
 -1       515 9.66577E-01
 -1       516 1.20774E+00
 -1       517 1.40169E+00
 -1       518 1.72908E+00
 -1       519 1.86396E+00
 -1       520 1.76428E+00
 -1       521 1.62080E+00
 -1       522 1.34725E+00
 -1       523 1.20627E+00
 -1       524 9.36871E-01
 -1       525 7.95803E-01
 -1       526 6.62508E-01
 -1       527 5.13121E-01
 -1       528 4.61929E-01
 -1       529 3.88417E-01
 -1       530 3.29159E-01
 -1       531 1.88163E+01
 -1       532 5.49862E-01
 -1       533 4.43265E-01
 -1       534 3.78201E-01
 -1       535 3.16173E-01
 -1       536 2.60613E-01
 -1       537 2.16516E-01
 -1       538 1.77968E-01
 -1       539 1.45144E-01
 -1       540 1.17546E-01
 -1       541 9.81704E-02
 -1       542 8.82589E-02
 -1       543 1.04029E-01
 -1       544 1.27214E-01
 -1       545 1.82473E-01
 -1       546 2.61236E-01
 -1       547 3.60796E-01
 -1       548 4.84727E-01
 -1       549 6.35154E-01
 -1       550 8.10939E-01
 -1       551 1.00483E+00
 -1       552 1.19961E+00
 -1       553 1.36416E+00
 -1       554 1.49367E+00
 -1       555 1.74828E+00
 -1       556 1.94712E+00
 -1       557 2.04036E+00
 -1       558 2.40900E+00
 -1       559 2.80876E+00
 -1       560 3.26013E+00
 -1       561 5.04388E+00
 -1       562 7.02457E+00
 -1       563 4.22336E+00
 -1       564 2.34596E+00
 -1       565 2.40148E+00
 -1       566 2.03112E+00
 -1       567 1.79752E+00
 -1       568 1.60095E+00
 -1       569 1.33229E+00
 -1       570 1.18559E+00
 -1       571 9.99807E-01
 -1       572 7.76798E-01
 -1       573 5.80927E-01
 -1       574 5.97011E-01
 -1       575 6.34835E-01
 -1       576 5.23606E-01
 -1       577 5.18716E-01
 -1       578 6.34835E-01
 -1       579 6.16208E-01
 -1       580 5.68434E-01
 -1       581 4.25633E-01
 -1       582 3.12425E-01
 -1       583 3.38840E-01
 -1       584 3.05758E-01
 -1       585 1.55608E+01
 -1       586 7.07980E-01
 -1       587 3.43472E+01
 -1       588 1.39941E+01
 -1       589 5.77716E+00
 -1       590 4.42560E+00
 -1       591 3.47742E+01
 -1       592 6.42751E+00
 -1       593 3.26362E+01
 -1       594 4.57218E-01
 -1       595 8.01933E+00
 -1       596 7.02457E+00
 -1       597 4.83333E+00
 -1       598 5.68815E+00
 -1       599 3.72585E+00
 -1       600 1.05735E+01
 -1       601 1.60410E+01
 -1       602 2.13962E+01
 -1       603 6.98768E+00
 -1       604 1.76018E+01
 -1       605 7.88343E+00
 -1       606 3.89613E+00
 -1       607 7.50254E+00
 -1       608 6.05142E+00
 -1       609 9.90003E+00
 -1       610 5.12818E+00
 -1       611 1.32909E+00
 -1       612 2.45621E+01
 -1       613 8.20242E+00
 -1       614 7.17543E-01
 -1       615 4.05869E+00
 -1       616 2.98541E-01
 -1       617 1.08110E+01
 -1       618 7.84078E+00
 -1       619 5.30836E+00
 -1       620 3.58514E-01
 -1       621 3.43213E-01
 -1       622 3.61569E-01
 -1       623 3.37263E-01
 -1       624 4.14571E+00
 -1       625 4.08515E-01
 -1       626 5.44513E-01
 -1       627 3.32056E-01
 -1       628 4.00623E-01
 -1       629 3.87249E-01
 -1       630 3.46674E-01
 -1       631 2.97045E-01
 -1       632 2.47020E-01
 -1       633 2.14698E-01
 -1       634 1.80989E-01
 -1       635 1.51305E-01
 -1       636 1.23581E-01
 -1       637 9.80175E-02
 -1       638 7.41681E-02
 -1       639 5.11301E-02
 -1       640 5.79813E-02
 -1       641 8.47761E-02
 -1       642 1.28692E-01
 -1       643 1.80078E-01
 -1       644 2.39782E-01
 -1       645 3.07870E-01
 -1       646 3.83111E-01
 -1       647 4.62276E-01
 -1       648 5.39195E-01
 -1       649 6.13372E-01
 -1       650 7.23804E-01
 -1       651 8.36094E-01
 -1       652 9.14248E-01
 -1       653 1.09049E+00
 -1       654 1.33089E+00
 -1       655 1.43349E+00
 -1       656 1.60018E+00
 -1       657 1.85406E+00
 -1       658 2.67870E+00
 -1       659 3.44766E+00
 -1       660 2.17481E+00
 -1       661 1.62080E+00
 -1       662 1.47652E+00
 -1       663 1.27962E+00
 -1       664 1.24287E+00
 -1       665 9.63054E-01
 -1       666 7.02702E-01
 -1       667 5.94687E-01
 -1       668 4.61929E-01
 -1       669 3.88417E-01
 -1       670 4.00415E-01
 -1       671 2.40768E-01
 -1       672 2.04443E-01
 -1       673 1.70603E-01
 -1       674 1.40282E-01
 -1       675 1.13559E-01
 -1       676 8.98364E-02
 -1       677 6.79926E-02
 -1       678 7.25639E-02
 -1       679 9.21168E-02
 -1       680 1.44587E-01
 -1       681 2.09795E-01
 -1       682 2.91289E-01
 -1       683 3.92925E-01
 -1       684 5.18738E-01
 -1       685 6.72671E-01
 -1       686 8.58074E-01
 -1       687 1.07664E+00
 -1       688 1.32623E+00
 -1       689 1.59667E+00
 -1       690 1.86415E+00
 -1       691 2.36051E+00
 -1       692 2.83212E+00
 -1       693 3.68070E+00
 -1       694 3.67476E+00
 -1       695 3.64707E+00
 -1       696 2.45437E+00
 -1       697 2.44118E+00
 -1       698 4.74805E+00
 -1       699 2.89704E+00
 -1       700 2.22915E+00
 -1       701 1.71716E+00
 -1       702 1.44552E+00
 -1       703 1.15462E+00
 -1       704 8.71362E-01
 -1       705 6.88394E-01
 -1       706 8.06991E-01
 -1       707 8.53750E-01
 -1       708 8.06991E-01
 -1       709 8.53750E-01
 -1       710 3.23054E+00
 -1       711 6.58636E-01
 -1       712 5.02090E-01
 -1       713 4.44550E-01
 -1       714 1.17441E+01
 -1       715 4.67611E-01
 -1       716 4.96829E+00
 -1       717 2.68745E+00
 -1       718 3.71889E+00
 -1       719 8.68552E+00
 -1       720 4.22336E+00
 -1       721 1.33431E+01
 -1       722 1.47958E+01
 -1       723 2.77104E-01
 -1       724 5.16857E+00
 -1       725 1.35544E+01
 -1       726 3.61569E-01
 -1       727 1.65151E+01
 -1       728 8.44186E+00
 -1       729 6.80718E+00
 -1       730 3.61708E-01
 -1       731 5.18475E-01
 -1       732 3.38840E-01
 -1       733 3.00865E+00
 -1       734 1.29965E+01
 -1       735 1.03587E+01
 -1       736 1.59701E+01
 -1       737 6.76769E+00
 -1       738 3.26013E+00
 -1       739 1.46077E+01
 -1       740 7.65860E+00
 -1       741 4.20575E-01
 -1       742 3.42761E-01
 -1       743 8.97378E+00
 -1       744 3.57950E-01
 -1       745 6.03578E-01
 -1       746 4.30251E+00
 -1       747 7.14471E+00
 -1       748 4.23277E+00
 -1       749 5.58395E+00
 -1       750 3.38840E-01
 -1       751 4.46311E+00
 -1       752 4.45214E-01
 -1       753 3.87186E+00
 -1       754 7.45131E-01
 -1       755 2.39773E-01
 -1       756 8.08535E+00
 -1       757 2.35440E-01
 -1       758 2.57181E-01
 -1       759 2.50859E-01
 -1       760 2.28650E-01
 -1       761 1.99404E-01
 -1       762 1.72158E-01
 -1       763 1.49191E-01
 -1       764 1.24106E-01
 -1       765 9.84070E-02
 -1       766 7.26168E-02
 -1       767 4.65425E-02
 -1       768 4.09735E-02
 -1       769 5.80367E-02
 -1       770 9.41557E-02
 -1       771 1.38726E-01
 -1       772 1.89856E-01
 -1       773 2.48907E-01
 -1       774 3.26407E-01
 -1       775 4.16986E-01
 -1       776 5.19099E-01
 -1       777 6.32094E-01
 -1       778 7.57488E-01
 -1       779 9.17617E-01
 -1       780 1.15142E+00
 -1       781 1.37863E+00
 -1       782 1.56150E+00
 -1       783 2.85489E+00
 -1       784 2.07261E+00
 -1       785 3.65493E+00
 -1       786 2.35115E+00
 -1       787 1.94498E+00
 -1       788 1.48468E+00
 -1       789 1.86381E+00
 -1       790 1.34396E+00
 -1       791 1.14331E+00
 -1       792 8.93835E-01
 -1       793 6.66227E-01
 -1       794 4.23669E-01
 -1       795 2.89512E-01
 -1       796 1.62640E-01
 -1       797 1.89923E-01
 -1       798 1.06068E-01
 -1       799 7.98267E-02
 -1       800 5.57240E-02
 -1       801 3.91542E-02
 -1       802 5.77455E-02
 -1       803 9.88300E-02
 -1       804 1.48530E-01
 -1       805 2.15302E-01
 -1       806 3.04587E-01
 -1       807 4.17594E-01
 -1       808 5.58677E-01
 -1       809 7.30870E-01
 -1       810 9.33475E-01
 -1       811 1.17785E+00
 -1       812 1.52363E+00
 -1       813 2.06025E+00
 -1       814 2.81724E+00
 -1       815 5.33813E+00
 -1       816 7.04042E+00
 -1       817 4.62814E+00
 -1       818 3.72840E+00
 -1       819 2.69339E+00
 -1       820 1.91777E+00
 -1       821 1.37756E+00
 -1       822 9.62592E-01
 -1       823 8.02900E-01
 -1       824 2.47819E+00
 -1       825 3.20830E+00
 -1       826 1.00514E+01
 -1       827 2.59836E-01
 -1       828 1.08814E+00
 -1       829 5.18848E+00
 -1       830 6.73313E-01
 -1       831 9.65258E-01
 -1       832 5.98106E+00
 -1       833 3.08249E-01
 -1       834 7.69394E-01
 -1       835 4.74805E+00
 -1       836 1.34235E-01
 -1       837 2.83267E-01
 -1       838 2.88986E-01
 -1       839 7.18576E+00
 -1       840 8.95954E+00
 -1       841 6.86496E+00
 -1       842 2.07261E+00
 -1       843 6.71716E+00
 -1       844 1.00660E+01
 -1       845 1.00660E+01
 -1       846 2.82189E-01
 -1       847 6.81986E+00
 -1       848 8.95954E+00
 -1       849 2.73053E-01
 -1       850 2.19325E-01
 -1       851 1.85406E+00
 -1       852 3.44766E+00
 -1       853 4.59028E+00
 -1       854 2.88986E-01
 -1       855 1.14657E+00
 -1       856 3.68798E+00
 -1       857 7.04042E+00
 -1       858 5.18848E+00
 -1       859 1.10596E+00
 -1       860 2.56708E-01
 -1       861 3.26610E+00
 -1       862 1.14657E+00
 -1       863 2.79138E-01
 -1       864 5.91727E+00
 -1       865 2.89049E-01
 -1       866 4.73467E+00
 -1       867 8.95541E+00
 -1       868 4.15209E-01
 -1       869 2.81065E-01
 -1       870 4.04852E+00
 -1       871 1.76554E-01
 -1       872 1.83929E-01
 -1       873 1.75901E-01
 -1       874 1.58953E-01
 -1       875 1.37320E-01
 -1       876 1.20989E-01
 -1       877 1.01787E-01
 -1       878 8.10496E-02
 -1       879 5.94063E-02
 -1       880 6.03581E-02
 -1       881 6.47400E-02
 -1       882 9.30779E-02
 -1       883 1.36334E-01
 -1       884 1.87650E-01
 -1       885 2.47712E-01
 -1       886 3.16356E-01
 -1       887 3.91886E-01
 -1       888 4.81862E-01
 -1       889 5.97602E-01
 -1       890 7.71005E-01
 -1       891 1.00847E+00
 -1       892 1.27425E+00
 -1       893 1.60746E+00
 -1       894 2.13203E+00
 -1       895 2.94038E+00
 -1       896 1.97159E+00
 -1       897 2.74890E+00
 -1       898 2.41534E+00
 -1       899 1.84179E+00
 -1       900 1.36085E+00
 -1       901 1.08793E+00
 -1       902 2.89049E-01
 -1       903 6.46086E-02
 -1       904 8.81942E-02
 -1       905 5.91039E-02
 -1       906 8.95817E-02
 -1       907 1.39901E-01
 -1       908 2.03837E-01
 -1       909 2.85135E-01
 -1       910 3.88747E-01
 -1       911 5.20847E-01
 -1       912 6.89283E-01
 -1       913 9.04121E-01
 -1       914 1.17785E+00
 -1       915 1.52363E+00
 -1       916 1.98111E+00
 -1       917 2.76154E+00
 -1       918 4.20774E+00
 -1       919 2.30964E+00
 -1       920 5.41418E+00
 -1       921 1.40728E+00
 -1       922 7.09858E+00
 -1       923 7.09858E+00
 -1       924 5.32507E+00
 -1       925 1.42390E+00
 -1       926 1.50231E-01
 -1       927 5.32507E+00
 -1       928 4.25442E+00
 -1       929 5.12171E+00
 -1       930 2.09564E-01
 -1       931 9.62592E-01
 -1       932 1.46926E-01
 -1       933 5.41418E+00
 -1       934 5.40374E-02
 -1       935 1.51894E-01
 -1       936 1.70456E-01
 -1       937 5.06169E+00
 -1       938 1.32851E-01
 -1       939 1.75912E-01
 -1       940 2.17648E-01
 -1       941 1.37232E+00
 -1       942 2.17751E-01
 -1       943 6.95504E-01
 -1       944 5.01115E+00
 -1       945 1.11136E-01
 -1       946 2.47046E+00
 -1       947 2.04389E-01
 -1       948 3.32314E+00
 -1       949 5.18461E+00
 -1       950 1.41217E-01
 -1       951 4.65459E+00
 -1       952 4.03643E+00
 -1       953 2.47046E+00
 -1       954 1.88825E+00
 -1       955 2.17648E-01
 -1       956 2.11320E-01
 -1       957 1.12041E+00
 -1       958 1.74124E-01
 -1       959 2.04010E-01
 -1       960 7.19476E-02
 -1       961 1.36651E-01
 -1       962 1.35282E-01
 -1       963 1.25233E-01
 -1       964 1.10060E-01
 -1       965 9.63793E-02
 -1       966 8.18524E-02
 -1       967 7.04974E-02
 -1       968 7.27318E-02
 -1       969 7.79295E-02
 -1       970 8.81472E-02
 -1       971 1.22075E-01
 -1       972 1.69205E-01
 -1       973 2.26934E-01
 -1       974 2.97163E-01
 -1       975 3.81696E-01
 -1       976 4.81862E-01
 -1       977 5.97602E-01
 -1       978 7.46177E-01
 -1       979 9.72213E-01
 -1       980 1.34736E+00
 -1       981 1.90866E+00
 -1       982 2.48322E+00
 -1       983 2.58688E+00
 -1       984 2.17751E-01
 -1       985 2.41534E+00
 -1       986 2.12595E+00
 -1       987 1.97464E+00
 -1       988 1.21185E-01
 -1       989 8.26415E-02
 -1       990 2.41124E-01
 -1       991 3.26417E-01
 -1       992 4.35817E-01
 -1       993 5.77905E-01
 -1       994 7.66363E-01
 -1       995 1.02447E+00
 -1       996 1.39187E+00
 -1       997 1.94167E+00
 -1       998 2.72837E+00
 -1       999 2.14445E+00
 -1      1000 3.79688E+00
 -1      1001 3.69338E+00
 -1      1002 9.42290E-02
 -1      1003 3.19528E+00
 -1      1004 4.10900E+00
 -1      1005 1.97763E-01
 -1      1006 1.25031E-01
 -1      1007 1.43798E-01
 -1      1008 1.39424E-01
 -1      1009 6.81043E-02
 -1      1010 3.10117E+00
 -1      1011 4.56345E+00
 -1      1012 9.00512E-02
 -1      1013 4.25442E+00
 -1      1014 3.59438E+00
 -1      1015 1.42572E-01
 -1      1016 3.69338E+00
 -1      1017 3.74535E+00
 -1      1018 2.21957E+00
 -1      1019 1.53573E-01
 -1      1020 3.79688E+00
 -1      1021 1.21489E-01
 -1      1022 1.53521E-01
 -1      1023 1.97464E+00
 -1      1024 1.16628E-01
 -1      1025 4.61184E+00
 -1      1026 7.32331E-02
 -1      1027 1.43532E-01
 -1      1028 2.97028E+00
 -1      1029 2.78113E+00
 -1      1030 1.06660E-01
 -1      1031 1.03170E-01
 -1      1032 9.69643E-02
 -1      1033 8.63378E-02
 -1      1034 7.59666E-02
 -1      1035 7.78150E-02
 -1      1036 7.95316E-02
 -1      1037 8.45505E-02
 -1      1038 9.36635E-02
 -1      1039 1.12521E-01
 -1      1040 1.38768E-01
 -1      1041 1.88188E-01
 -1      1042 2.51382E-01
 -1      1043 3.32388E-01
 -1      1044 4.36642E-01
 -1      1045 5.71458E-01
 -1      1046 7.46177E-01
 -1      1047 9.72213E-01
 -1      1048 1.26364E+00
 -1      1049 1.86870E+00
 -1      1050 2.65641E+00
 -1      1051 9.18891E-02
 -1      1052 1.53573E-01
 -1      1053 1.01894E-01
 -1      1054 1.35542E-01
 -1      1055 1.84863E-01
 -1      1056 1.03737E-01
 -1      1057 3.25310E-01
 -1      1058 4.25865E-01
 -1      1059 5.58072E-01
 -1      1060 7.39295E-01
 -1      1061 1.00437E+00
 -1      1062 1.44187E+00
 -1      1063 1.79871E+00
 -1      1064 1.52221E-01
 -1      1065 8.73052E-02
 -1      1066 2.10554E+00
 -1      1067 1.52302E-01
 -1      1068 9.17838E-02
 -1      1069 9.74217E-02
 -1      1070 2.46871E-01
 -1      1071 7.51790E-02
 -1      1072 3.81766E+00
 -1      1073 7.18108E-02
 -1      1074 1.97464E+00
 -1      1075 1.08886E-01
 -1      1076 2.29545E+00
 -1      1077 2.04323E+00
 -1      1078 1.19052E-01
 -1      1079 2.66044E+00
 -1      1080 7.92719E-02
 -1      1081 8.73052E-02
 -1      1082 2.72126E-01
 -1      1083 8.55461E-02
 -1      1084 7.77673E-02
 -1      1085 1.03199E-01
 -1      1086 7.95316E-02
 -1      1087 8.45505E-02
 -1      1088 9.36635E-02
 -1      1089 1.12521E-01
 -1      1090 1.42064E-01
 -1      1091 1.88548E-01
 -1      1092 2.51913E-01
 -1      1093 3.38898E-01
 -1      1094 4.60029E-01
 -1      1095 6.32413E-01
 -1      1096 8.85016E-01
 -1      1097 1.26922E+00
 -1      1098 1.88779E+00
 -1      1099 2.69052E+00
 -1      1100 3.81766E+00
 -1      1101 9.49867E-02
 -1      1102 1.02290E-01
 -1      1103 4.56345E+00
 -1      1104 7.92719E-02
 -1      1105 6.32413E-01
 -1      1106 1.64478E-01
 -1      1107 1.29479E-01
 -1      1108 4.60029E-01
 -1      1109 3.52223E-01
 -1      1110 8.85016E-01
 -1      1111 1.26922E+00
 -1      1112 1.88779E+00
 -1      1113 9.62569E-02
 -1      1114 1.02290E-01
 -1      1115 2.11009E-01
 -1      1116 1.03737E-01
 -1      1117 8.71273E-02
 -1      1118 1.19052E-01
 -1      1119 9.48123E-02
 -1      1120 6.64892E-02
 -1      1121 9.49867E-02
 -1      1122 8.39650E-02
 -1      1123 3.24795E+00
 -1      1124 1.03199E-01
 -1      1125 2.70192E+00
 -1      1126 8.71273E-02
 -1      1127 3.81766E+00
 -1      1128 9.48123E-02
 -1      1129 1.03199E-01
 -1      1130 1.19052E-01
 -1      1131 8.55461E-02
 -1      1132 6.62327E-02
 -1      1133 1.01580E-01
 -1      1134 1.31460E+01
 -1      1135 8.40454E+00
 -1      1136 2.74273E+00
 -1      1137 1.55649E+00
 -1      1138 1.16788E+00
 -1      1139 9.72031E-01
 -1      1140 8.53818E-01
 -1      1141 7.81585E-01
 -1      1142 7.55365E-01
 -1      1143 7.84691E-01
 -1      1144 8.56728E-01
 -1      1145 9.76126E-01
 -1      1146 1.17930E+00
 -1      1147 1.57052E+00
 -1      1148 2.66955E+00
 -1      1149 6.07399E+00
 -1      1150 1.13425E+01
 -1      1151 1.31460E+01
 -1      1152 8.73312E+00
 -1      1153 3.83233E+00
 -1      1154 2.72999E+00
 -1      1155 1.74144E+00
 -1      1156 1.19258E+00
 -1      1157 8.98980E-01
 -1      1158 6.91177E-01
 -1      1159 5.33311E-01
 -1      1160 4.11282E-01
 -1      1161 3.20256E-01
 -1      1162 2.52557E-01
 -1      1163 1.99987E-01
 -1      1164 1.60511E-01
 -1      1165 1.32138E-01
 -1      1166 1.14832E-01
 -1      1167 1.16408E-01
 -1      1168 1.36647E-01
 -1      1169 1.67291E-01
 -1      1170 2.06830E-01
 -1      1171 2.53889E-01
 -1      1172 3.05380E-01
 -1      1173 3.55715E-01
 -1      1174 4.27278E-01
 -1      1175 5.35003E-01
 -1      1176 6.64432E-01
 -1      1177 7.87283E-01
 -1      1178 8.54742E-01
 -1      1179 8.82447E-01
 -1      1180 9.09186E-01
 -1      1181 9.85900E-01
 -1      1182 1.19437E+00
 -1      1183 1.74370E+00
 -1      1184 2.51987E+00
 -1      1185 2.96615E+00
 -1      1186 3.04271E+00
 -1      1187 3.04449E+00
 -1      1188 2.85828E+00
 -1      1189 2.23798E+00
 -1      1190 1.50048E+00
 -1      1191 1.01822E+00
 -1      1192 8.31506E-01
 -1      1193 8.12673E-01
 -1      1194 8.01697E-01
 -1      1195 7.37782E-01
 -1      1196 6.24650E-01
 -1      1197 5.71867E-01
 -1      1198 5.15362E-01
 -1      1199 4.20261E-01
 -1      1200 2.32083E-01
 -1      1201 1.40419E+01
 -1      1202 8.71918E+00
 -1      1203 2.90602E+00
 -1      1204 2.04221E+00
 -1      1205 1.40858E+00
 -1      1206 1.02831E+00
 -1      1207 8.21535E-01
 -1      1208 6.63887E-01
 -1      1209 5.34440E-01
 -1      1210 4.27807E-01
 -1      1211 3.43505E-01
 -1      1212 2.78765E-01
 -1      1213 2.27865E-01
 -1      1214 1.88935E-01
 -1      1215 1.61390E-01
 -1      1216 1.49681E-01
 -1      1217 1.57018E-01
 -1      1218 1.78048E-01
 -1      1219 2.08542E-01
 -1      1220 2.47251E-01
 -1      1221 3.08020E-01
 -1      1222 3.96389E-01
 -1      1223 5.02183E-01
 -1      1224 6.21126E-01
 -1      1225 7.42959E-01
 -1      1226 8.47771E-01
 -1      1227 9.07079E-01
 -1      1228 1.08258E+00
 -1      1229 1.40375E+00
 -1      1230 1.63767E+00
 -1      1231 1.90654E+00
 -1      1232 2.10153E+00
 -1      1233 2.38890E+00
 -1      1234 3.25739E+00
 -1      1235 4.39799E+00
 -1      1236 5.27372E+00
 -1      1237 5.58996E+00
 -1      1238 5.10406E+00
 -1      1239 3.51322E+00
 -1      1240 2.01633E+00
 -1      1241 1.78401E+00
 -1      1242 1.98535E+00
 -1      1243 2.02706E+00
 -1      1244 1.92285E+00
 -1      1245 1.65505E+00
 -1      1246 1.32886E+00
 -1      1247 1.06531E+00
 -1      1248 8.52431E-01
 -1      1249 5.80283E-01
 -1      1250 2.63847E-01
 -1      1251 1.54159E-01
 -1      1252 2.00703E-01
 -1      1253 1.73264E-01
 -1      1254 1.02843E-01
 -1      1255 8.39017E-02
 -1      1256 1.30865E-01
 -1      1257 1.61393E-01
 -1      1258 1.68996E-01
 -1      1259 1.62870E-01
 -1      1260 1.38657E-01
 -1      1261 9.52957E-02
 -1      1262 5.42202E-02
 -1      1263 5.96836E-02
 -1      1264 9.79717E-02
 -1      1265 1.48945E-01
 -1      1266 1.94204E-01
 -1      1267 1.45791E-01
 -1      1268 2.52276E+01
 -1      1269 3.64142E+01
 -1      1270 4.76008E+01
 -1      1271 3.45810E+01
 -1      1272 1.67658E+01
 -1      1273 1.23615E+01
 -1      1274 1.29013E+01
 -1      1275 1.34352E+01
 -1      1276 1.38205E+01
 -1      1277 1.34418E+01
 -1      1278 2.11014E+01
 -1      1279 2.92191E+01
 -1      1280 2.86205E+01
 -1      1281 2.65081E+01
 -1      1282 2.50738E+01
 -1      1283 2.50485E+01
 -1      1284 3.41540E+01
 -1      1285 4.32850E+01
 -1      1286 3.01061E+01
 -1      1287 1.51594E+01
 -1      1288 1.34143E+01
 -1      1289 1.34372E+01
 -1      1290 1.30956E+01
 -1      1291 1.27540E+01
 -1      1292 1.26652E+01
 -1      1293 2.08021E+01
 -1      1294 2.92650E+01
 -1      1295 2.83694E+01
 -1      1296 2.59344E+01
 -1      1297 2.49300E+01
 -1      1298 1.31460E+01
 -1      1299 4.87031E+00
 -1      1300 9.61181E+00
 -1      1301 2.05964E+00
 -1      1302 2.97995E+00
 -1      1303 4.18722E+00
 -1      1304 1.39888E+00
 -1      1305 1.66481E+00
 -1      1306 1.90204E+00
 -1      1307 1.10091E+00
 -1      1308 1.22358E+00
 -1      1309 1.33191E+00
 -1      1310 9.35787E-01
 -1      1311 1.00896E+00
 -1      1312 1.06466E+00
 -1      1313 8.36393E-01
 -1      1314 8.81433E-01
 -1      1315 9.18361E-01
 -1      1316 7.75341E-01
 -1      1317 8.02534E-01
 -1      1318 8.30149E-01
 -1      1319 7.56340E-01
 -1      1320 7.55365E-01
 -1      1321 7.76315E-01
 -1      1322 8.06356E-01
 -1      1323 7.78006E-01
 -1      1324 7.78006E-01
 -1      1325 8.83765E-01
 -1      1326 8.40079E-01
 -1      1327 8.33394E-01
 -1      1328 1.01617E+00
 -1      1329 9.40459E-01
 -1      1330 9.23811E-01
 -1      1331 1.23920E+00
 -1      1332 1.11174E+00
 -1      1333 1.07607E+00
 -1      1334 1.68037E+00
 -1      1335 1.41661E+00
 -1      1336 1.34905E+00
 -1      1337 2.88225E+00
 -1      1338 2.04699E+00
 -1      1339 1.89307E+00
 -1      1340 6.28703E+00
 -1      1341 3.71784E+00
 -1      1342 3.09528E+00
 -1      1343 1.40419E+01
 -1      1344 1.13425E+01
 -1      1345 8.98638E+00
 -1      1346 1.40419E+01
 -1      1347 8.73312E+00
 -1      1348 4.32019E+00
 -1      1349 3.83233E+00
 -1      1350 3.34446E+00
 -1      1351 3.83233E+00
 -1      1352 2.72999E+00
 -1      1353 2.11551E+00
 -1      1354 2.72999E+00
 -1      1355 1.78332E+00
 -1      1356 1.40924E+00
 -1      1357 1.78332E+00
 -1      1358 1.19893E+00
 -1      1359 1.02415E+00
 -1      1360 1.24080E+00
 -1      1361 8.98980E-01
 -1      1362 7.80155E-01
 -1      1363 9.05323E-01
 -1      1364 6.91177E-01
 -1      1365 6.02199E-01
 -1      1366 6.91177E-01
 -1      1367 5.38996E-01
 -1      1368 4.70108E-01
 -1      1369 5.38996E-01
 -1      1370 4.21237E-01
 -1      1371 3.68097E-01
 -1      1372 4.26922E-01
 -1      1373 3.28860E-01
 -1      1374 2.90973E-01
 -1      1375 3.38815E-01
 -1      1376 2.63594E-01
 -1      1377 2.33782E-01
 -1      1378 2.72198E-01
 -1      1379 2.10758E-01
 -1      1380 1.88000E-01
 -1      1381 2.21795E-01
 -1      1382 1.69161E-01
 -1      1383 1.52443E-01
 -1      1384 1.79932E-01
 -1      1385 1.37342E-01
 -1      1386 1.25686E-01
 -1      1387 1.45991E-01
 -1      1388 1.14832E-01
 -1      1389 1.09182E-01
 -1      1390 1.20036E-01
 -1      1391 1.08164E-01
 -1      1392 1.15390E-01
 -1      1393 1.08164E-01
 -1      1394 1.23928E-01
 -1      1395 1.36940E-01
 -1      1396 1.15684E-01
 -1      1397 1.49951E-01
 -1      1398 1.67584E-01
 -1      1399 1.37233E-01
 -1      1400 1.84924E-01
 -1      1401 2.06830E-01
 -1      1402 1.67584E-01
 -1      1403 2.28735E-01
 -1      1404 2.53889E-01
 -1      1405 2.06830E-01
 -1      1406 2.79042E-01
 -1      1407 3.05380E-01
 -1      1408 2.53889E-01
 -1      1409 3.42345E-01
 -1      1410 3.66342E-01
 -1      1411 3.16007E-01
 -1      1412 4.07341E-01
 -1      1413 4.54908E-01
 -1      1414 3.93971E-01
 -1      1415 4.92093E-01
 -1      1416 5.52251E-01
 -1      1417 4.72156E-01
 -1      1418 5.99428E-01
 -1      1419 6.68699E-01
 -1      1420 5.56518E-01
 -1      1421 7.33703E-01
 -1      1422 7.87283E-01
 -1      1423 6.68699E-01
 -1      1424 8.40864E-01
 -1      1425 8.54742E-01
 -1      1426 7.87283E-01
 -1      1427 8.68620E-01
 -1      1428 8.82447E-01
 -1      1429 8.54742E-01
 -1      1430 8.96274E-01
 -1      1431 9.09186E-01
 -1      1432 8.82447E-01
 -1      1433 9.22098E-01
 -1      1434 9.85900E-01
 -1      1435 9.09186E-01
 -1      1436 1.04970E+00
 -1      1437 1.19437E+00
 -1      1438 9.85900E-01
 -1      1439 1.37250E+00
 -1      1440 1.77716E+00
 -1      1441 1.22783E+00
 -1      1442 2.14837E+00
 -1      1443 2.51987E+00
 -1      1444 1.77716E+00
 -1      1445 2.89137E+00
 -1      1446 2.96615E+00
 -1      1447 2.51987E+00
 -1      1448 3.04093E+00
 -1      1449 3.04271E+00
 -1      1450 2.96615E+00
 -1      1451 3.04449E+00
 -1      1452 3.04449E+00
 -1      1453 3.04271E+00
 -1      1454 2.85828E+00
 -1      1455 2.67208E+00
 -1      1456 2.85828E+00
 -1      1457 2.24491E+00
 -1      1458 1.81080E+00
 -1      1459 2.24491E+00
 -1      1460 1.50048E+00
 -1      1461 1.19708E+00
 -1      1462 1.50741E+00
 -1      1463 1.01822E+00
 -1      1464 8.39363E-01
 -1      1465 1.01822E+00
 -1      1466 8.31506E-01
 -1      1467 8.23649E-01
 -1      1468 8.31506E-01
 -1      1469 8.03705E-01
 -1      1470 7.92729E-01
 -1      1471 8.03705E-01
 -1      1472 8.01697E-01
 -1      1473 8.01697E-01
 -1      1474 7.92729E-01
 -1      1475 7.37782E-01
 -1      1476 6.73866E-01
 -1      1477 7.37782E-01
 -1      1478 6.24650E-01
 -1      1479 5.75434E-01
 -1      1480 6.24650E-01
 -1      1481 5.71867E-01
 -1      1482 5.68299E-01
 -1      1483 5.71867E-01
 -1      1484 5.15362E-01
 -1      1485 4.62424E-01
 -1      1486 5.15362E-01
 -1      1487 4.20261E-01
 -1      1488 3.78098E-01
 -1      1489 4.20261E-01
 -1      1490 2.91806E-01
 -1      1491 2.91806E-01
 -1      1492 3.39648E+00
 -1      1493 8.71918E+00
 -1      1494 8.71918E+00
 -1      1495 2.41557E+00
 -1      1496 2.90602E+00
 -1      1497 2.90602E+00
 -1      1498 1.66885E+00
 -1      1499 2.04221E+00
 -1      1500 2.04221E+00
 -1      1501 1.14832E+00
 -1      1502 1.40858E+00
 -1      1503 1.40858E+00
 -1      1504 9.08302E-01
 -1      1505 1.02831E+00
 -1      1506 1.02831E+00
 -1      1507 7.34768E-01
 -1      1508 8.21535E-01
 -1      1509 8.21535E-01
 -1      1510 5.93007E-01
 -1      1511 6.63887E-01
 -1      1512 6.63887E-01
 -1      1513 4.75873E-01
 -1      1514 5.34440E-01
 -1      1515 5.34440E-01
 -1      1516 3.79741E-01
 -1      1517 4.27807E-01
 -1      1518 4.27807E-01
 -1      1519 3.07270E-01
 -1      1520 3.43505E-01
 -1      1521 3.43505E-01
 -1      1522 2.50260E-01
 -1      1523 2.78765E-01
 -1      1524 2.78765E-01
 -1      1525 2.05469E-01
 -1      1526 2.27865E-01
 -1      1527 2.27865E-01
 -1      1528 1.72401E-01
 -1      1529 1.88935E-01
 -1      1530 1.88935E-01
 -1      1531 1.50380E-01
 -1      1532 1.61390E-01
 -1      1533 1.61390E-01
 -1      1534 1.46231E-01
 -1      1535 1.46930E-01
 -1      1536 1.46930E-01
 -1      1537 1.57018E-01
 -1      1538 1.48982E-01
 -1      1539 1.46231E-01
 -1      1540 1.78048E-01
 -1      1541 1.65053E-01
 -1      1542 1.57018E-01
 -1      1543 2.08542E-01
 -1      1544 1.91043E-01
 -1      1545 1.78048E-01
 -1      1546 2.55101E-01
 -1      1547 2.33891E-01
 -1      1548 2.16392E-01
 -1      1549 3.27878E-01
 -1      1550 2.88319E-01
 -1      1551 2.74958E-01
 -1      1552 4.16731E-01
 -1      1553 3.67921E-01
 -1      1554 3.48220E-01
 -1      1555 5.20022E-01
 -1      1556 4.63037E-01
 -1      1557 4.34570E-01
 -1      1558 6.31958E-01
 -1      1559 5.70000E-01
 -1      1560 5.30854E-01
 -1      1561 7.42959E-01
 -1      1562 6.83083E-01
 -1      1563 6.31958E-01
 -1      1564 8.47771E-01
 -1      1565 8.02834E-01
 -1      1566 7.42959E-01
 -1      1567 9.07079E-01
 -1      1568 8.92708E-01
 -1      1569 8.47771E-01
 -1      1570 1.16440E+00
 -1      1571 1.00327E+00
 -1      1572 9.88899E-01
 -1      1573 1.42036E+00
 -1      1574 1.26031E+00
 -1      1575 1.18101E+00
 -1      1576 1.63767E+00
 -1      1577 1.56379E+00
 -1      1578 1.42036E+00
 -1      1579 1.90654E+00
 -1      1580 1.71154E+00
 -1      1581 1.63767E+00
 -1      1582 2.10153E+00
 -1      1583 2.10153E+00
 -1      1584 1.90654E+00
 -1      1585 2.38593E+00
 -1      1586 2.09856E+00
 -1      1587 2.09856E+00
 -1      1588 3.25739E+00
 -1      1589 2.67627E+00
 -1      1590 2.38593E+00
 -1      1591 4.39799E+00
 -1      1592 3.83850E+00
 -1      1593 3.25739E+00
 -1      1594 5.27372E+00
 -1      1595 4.95748E+00
 -1      1596 4.39799E+00
 -1      1597 5.58996E+00
 -1      1598 5.58996E+00
 -1      1599 5.27372E+00
 -1      1600 4.61816E+00
 -1      1601 5.10406E+00
 -1      1602 5.10406E+00
 -1      1603 2.40828E+00
 -1      1604 3.51322E+00
 -1      1605 3.51322E+00
 -1      1606 1.55588E+00
 -1      1607 1.94783E+00
 -1      1608 1.94783E+00
 -1      1609 1.78401E+00
 -1      1610 1.62438E+00
 -1      1611 1.55588E+00
 -1      1612 1.98535E+00
 -1      1613 1.94364E+00
 -1      1614 1.78401E+00
 -1      1615 2.02706E+00
 -1      1616 2.02706E+00
 -1      1617 1.98535E+00
 -1      1618 1.81863E+00
 -1      1619 1.92285E+00
 -1      1620 1.92285E+00
 -1      1621 1.49146E+00
 -1      1622 1.65505E+00
 -1      1623 1.65505E+00
 -1      1624 1.16625E+00
 -1      1625 1.32886E+00
 -1      1626 1.32886E+00
 -1      1627 9.64375E-01
 -1      1628 1.06531E+00
 -1      1629 1.06531E+00
 -1      1630 7.40486E-01
 -1      1631 8.52431E-01
 -1      1632 8.52431E-01
 -1      1633 4.32498E-01
 -1      1634 5.92702E-01
 -1      1635 5.92702E-01
 -1      1636 3.10391E-01
 -1      1637 2.22843E-01
 -1      1638 2.22843E-01
 -1      1639 1.95403E-01
 -1      1640 2.22843E-01
 -1      1641 2.44983E-01
 -1      1642 1.39828E-01
 -1      1643 1.82809E-01
 -1      1644 2.32388E-01
 -1      1645 1.42036E-01
 -1      1646 1.17996E-01
 -1      1647 1.97962E-01
 -1      1648 2.13204E-01
 -1      1649 1.90280E-01
 -1      1650 2.24375E-01
 -1      1651 2.43334E-01
 -1      1652 2.35730E-01
 -1      1653 2.95145E-01
 -1      1654 2.43552E-01
 -1      1655 2.43552E-01
 -1      1656 3.17889E-01
 -1      1657 2.37425E-01
 -1      1658 2.43552E-01
 -1      1659 3.18107E-01
 -1      1660 2.00709E-01
 -1      1661 2.18796E-01
 -1      1662 2.99478E-01
 -1      1663 1.37740E-01
 -1      1664 1.63015E-01
 -1      1665 2.43154E-01
 -1      1666 7.62543E-02
 -1      1667 9.20548E-02
 -1      1668 1.59774E-01
 -1      1669 1.05507E-01
 -1      1670 8.42429E-02
 -1      1671 1.22077E-01
 -1      1672 1.51784E-01
 -1      1673 1.34760E-01
 -1      1674 1.59319E-01
 -1      1675 1.85733E-01
 -1      1676 1.51784E-01
 -1      1677 1.88572E-01
 -1      1678 2.13707E-01
 -1      1679 2.02397E-01
 -1      1680 2.05235E-01
 -1      1681 2.99998E-01
 -1      1682 2.74983E+01
 -1      1683 2.74983E+01
 -1      1684 3.85205E+01
 -1      1685 2.73339E+01
 -1      1686 4.76008E+01
 -1      1687 4.76008E+01
 -1      1688 2.19942E+01
 -1      1689 3.50139E+01
 -1      1690 1.17902E+01
 -1      1691 1.65857E+01
 -1      1692 1.23615E+01
 -1      1693 1.19703E+01
 -1      1694 1.29013E+01
 -1      1695 1.27526E+01
 -1      1696 1.34352E+01
 -1      1697 1.30500E+01
 -1      1698 1.38205E+01
 -1      1699 1.38205E+01
 -1      1700 1.25799E+01
 -1      1701 1.29586E+01
 -1      1702 2.11014E+01
 -1      1703 1.30630E+01
 -1      1704 2.92985E+01
 -1      1705 2.92191E+01
 -1      1706 2.86205E+01
 -1      1707 2.92985E+01
 -1      1708 2.49678E+01
 -1      1709 2.64021E+01
 -1      1710 2.65520E+01
 -1      1711 2.65520E+01
 -1      1712 2.65267E+01
 -1      1713 2.65520E+01
 -1      1714 4.06045E+01
 -1      1715 3.14736E+01
 -1      1716 4.32850E+01
 -1      1717 4.32850E+01
 -1      1718 1.69272E+01
 -1      1719 3.01061E+01
 -1      1720 1.21950E+01
 -1      1721 1.39628E+01
 -1      1722 1.34143E+01
 -1      1723 1.33915E+01
 -1      1724 1.34372E+01
 -1      1725 1.34372E+01
 -1      1726 1.23778E+01
 -1      1727 1.27194E+01
 -1      1728 1.27540E+01
 -1      1729 1.27540E+01
 -1      1730 1.23460E+01
 -1      1731 1.24348E+01
 -1      1732 2.08021E+01
 -1      1733 1.25764E+01
 -1      1734 2.95024E+01
 -1      1735 2.92650E+01
 -1      1736 2.83694E+01
 -1      1737 2.95024E+01
 -1      1738 2.45861E+01
 -1      1739 2.58882E+01
 -1      1740 2.70211E+01
 -1      1741 2.74983E+01
 -1      1742 2.72007E+01
 -1      1743 1.70187E+01
 -1      1744 3.50139E+01
 -1      1745 3.22810E-01
 -1      1746 3.44950E-01
 -1      1747 2.96046E+01
 -1      1748 3.85205E+01
 -1      1749 2.97690E+01
 -1      1750 1.17902E+01
 -1      1751 1.23615E+01
 -1      1752 1.29013E+01
 -1      1753 1.34352E+01
 -1      1754 1.29586E+01
 -1      1755 1.25799E+01
 -1      1756 2.11808E+01
 -1      1757 2.92985E+01
 -1      1758 2.70802E+01
 -1      1759 2.64460E+01
 -1      1760 2.80303E+01
 -1      1761 3.29772E+01
 -1      1762 4.06045E+01
 -1      1763 3.01061E+01
 -1      1764 1.39628E+01
 -1      1765 1.21950E+01
 -1      1766 1.34143E+01
 -1      1767 1.27194E+01
 -1      1768 1.23778E+01
 -1      1769 1.24348E+01
 -1      1770 1.23460E+01
 -1      1771 2.10394E+01
 -1      1772 2.95024E+01
 -1      1773 9.61181E+00
 -1      1774 2.71544E+01
 -1      1775 1.27621E+00
 -1      1776 1.67104E+00
 -1      1777 2.38801E+00
 -1      1778 4.27837E+00
 -1      1779 1.76219E+00
 -1      1780 8.81783E-01
 -1      1781 9.73730E-01
 -1      1782 7.78796E-01
 -1      1783 8.33149E-01
 -1      1784 7.42217E-01
 -1      1785 7.13918E-01
 -1      1786 7.47777E-01
 -1      1787 6.62564E-01
 -1      1788 6.72005E-01
 -1      1789 6.91980E-01
 -1      1790 6.09607E-01
 -1      1791 6.95288E-01
 -1      1792 6.73623E-01
 -1      1793 5.89287E-01
 -1      1794 7.50721E-01
 -1      1795 7.16998E-01
 -1      1796 6.12615E-01
 -1      1797 8.40632E-01
 -1      1798 7.83937E-01
 -1      1799 6.67542E-01
 -1      1800 9.83663E-01
 -1      1801 8.88096E-01
 -1      1802 7.48222E-01
 -1      1803 1.22868E+00
 -1      1804 1.05127E+00
 -1      1805 8.63296E-01
 -1      1806 1.70912E+00
 -1      1807 1.34250E+00
 -1      1808 1.04472E+00
 -1      1809 2.62927E+00
 -1      1810 1.79367E+00
 -1      1811 1.24310E+00
 -1      1812 8.12198E+00
 -1      1813 3.06647E+00
 -1      1814 1.76486E+00
 -1      1815 2.79927E+00
 -1      1816 5.19888E+00
 -1      1817 2.16570E+00
 -1      1818 2.65616E+00
 -1      1819 2.05895E+00
 -1      1820 3.12026E+01
 -1      1821 2.85880E+01
 -1      1822 3.39967E+00
 -1      1823 2.53840E+00
 -1      1824 1.92393E+00
 -1      1825 1.69337E+00
 -1      1826 1.36118E+00
 -1      1827 1.50179E+00
 -1      1828 1.18133E+00
 -1      1829 9.71015E-01
 -1      1830 1.09139E+00
 -1      1831 8.45855E-01
 -1      1832 7.20687E-01
 -1      1833 7.86379E-01
 -1      1834 6.62053E-01
 -1      1835 5.73075E-01
 -1      1836 6.02585E-01
 -1      1837 5.25342E-01
 -1      1838 4.62138E-01
 -1      1839 4.96218E-01
 -1      1840 4.20383E-01
 -1      1841 3.71512E-01
 -1      1842 4.06728E-01
 -1      1843 3.38815E-01
 -1      1844 2.99577E-01
 -1      1845 3.32275E-01
 -1      1846 2.72583E-01
 -1      1847 2.45204E-01
 -1      1848 2.72583E-01
 -1      1849 2.22304E-01
 -1      1850 1.99280E-01
 -1      1851 2.22688E-01
 -1      1852 1.80246E-01
 -1      1853 1.61407E-01
 -1      1854 1.80755E-01
 -1      1855 1.45991E-01
 -1      1856 1.30890E-01
 -1      1857 1.46306E-01
 -1      1858 1.19112E-01
 -1      1859 1.08258E-01
 -1      1860 1.19112E-01
 -1      1861 1.01461E-01
 -1      1862 1.00443E-01
 -1      1863 1.00537E-01
 -1      1864 1.06116E-01
 -1      1865 1.14655E-01
 -1      1866 9.94135E-02
 -1      1867 1.24222E-01
 -1      1868 1.37233E-01
 -1      1869 1.14655E-01
 -1      1870 1.50244E-01
 -1      1871 1.67584E-01
 -1      1872 1.37233E-01
 -1      1873 1.87396E-01
 -1      1874 2.09302E-01
 -1      1875 1.70056E-01
 -1      1876 2.40870E-01
 -1      1877 2.66023E-01
 -1      1878 2.21437E-01
 -1      1879 3.01010E-01
 -1      1880 3.37975E-01
 -1      1881 2.87992E-01
 -1      1882 3.74127E-01
 -1      1883 4.15127E-01
 -1      1884 3.59131E-01
 -1      1885 4.48333E-01
 -1      1886 4.85519E-01
 -1      1887 4.28489E-01
 -1      1888 5.15821E-01
 -1      1889 5.62997E-01
 -1      1890 4.91998E-01
 -1      1891 5.95486E-01
 -1      1892 6.60490E-01
 -1      1893 5.54789E-01
 -1      1894 6.87835E-01
 -1      1895 7.41416E-01
 -1      1896 6.14622E-01
 -1      1897 7.37240E-01
 -1      1898 7.51118E-01
 -1      1899 6.37791E-01
 -1      1900 6.95246E-01
 -1      1901 7.09073E-01
 -1      1902 5.77743E-01
 -1      1903 6.67378E-01
 -1      1904 6.80291E-01
 -1      1905 4.80177E-01
 -1      1906 7.47613E-01
 -1      1907 8.11415E-01
 -1      1908 5.05806E-01
 -1      1909 1.03753E+00
 -1      1910 1.21565E+00
 -1      1911 7.99239E-01
 -1      1912 1.40678E+00
 -1      1913 1.77799E+00
 -1      1914 1.21648E+00
 -1      1915 1.98143E+00
 -1      1916 2.35293E+00
 -1      1917 1.61105E+00
 -1      1918 2.43533E+00
 -1      1919 2.51011E+00
 -1      1920 1.89689E+00
 -1      1921 2.46031E+00
 -1      1922 2.46209E+00
 -1      1923 1.92949E+00
 -1      1924 2.49432E+00
 -1      1925 2.30812E+00
 -1      1926 1.91192E+00
 -1      1927 2.17306E+00
 -1      1928 1.74589E+00
 -1      1929 1.80910E+00
 -1      1930 1.56616E+00
 -1      1931 1.25583E+00
 -1      1932 1.49431E+00
 -1      1933 1.04416E+00
 -1      1934 8.65296E-01
 -1      1935 1.10291E+00
 -1      1936 7.10950E-01
 -1      1937 7.03093E-01
 -1      1938 7.36883E-01
 -1      1939 6.46169E-01
 -1      1940 6.26225E-01
 -1      1941 5.25613E-01
 -1      1942 6.32445E-01
 -1      1943 6.41414E-01
 -1      1944 4.74910E-01
 -1      1945 6.53767E-01
 -1      1946 5.89851E-01
 -1      1947 4.93483E-01
 -1      1948 5.52353E-01
 -1      1949 5.03137E-01
 -1      1950 4.68338E-01
 -1      1951 5.03623E-01
 -1      1952 5.00055E-01
 -1      1953 4.31326E-01
 -1      1954 4.88377E-01
 -1      1955 4.35440E-01
 -1      1956 4.20133E-01
 -1      1957 3.92949E-01
 -1      1958 3.50786E-01
 -1      1959 2.72687E-01
 -1      1960 3.65965E-01
 -1      1961 1.40077E+00
 -1      1962 1.77413E+00
 -1      1963 1.52427E+00
 -1      1964 1.02158E+00
 -1      1965 1.28184E+00
 -1      1966 1.01377E+00
 -1      1967 8.08141E-01
 -1      1968 9.28149E-01
 -1      1969 8.01410E-01
 -1      1970 6.42315E-01
 -1      1971 7.29082E-01
 -1      1972 6.28921E-01
 -1      1973 5.18136E-01
 -1      1974 5.89016E-01
 -1      1975 4.96564E-01
 -1      1976 4.27037E-01
 -1      1977 4.85604E-01
 -1      1978 4.10733E-01
 -1      1979 3.47957E-01
 -1      1980 3.96023E-01
 -1      1981 3.47187E-01
 -1      1982 2.83941E-01
 -1      1983 3.20177E-01
 -1      1984 2.88393E-01
 -1      1985 2.33388E-01
 -1      1986 2.61893E-01
 -1      1987 2.38565E-01
 -1      1988 1.93517E-01
 -1      1989 2.15913E-01
 -1      1990 1.99041E-01
 -1      1991 1.63260E-01
 -1      1992 1.79794E-01
 -1      1993 1.67842E-01
 -1      1994 1.41922E-01
 -1      1995 1.52933E-01
 -1      1996 1.43791E-01
 -1      1997 1.33026E-01
 -1      1998 1.36477E-01
 -1      1999 1.28019E-01
 -1      2000 1.35400E-01
 -1      2001 1.32649E-01
 -1      2002 1.22196E-01
 -1      2003 1.46664E-01
 -1      2004 1.38628E-01
 -1      2005 1.25046E-01
 -1      2006 1.75006E-01
 -1      2007 1.62011E-01
 -1      2008 1.43621E-01
 -1      2009 2.21837E-01
 -1      2010 1.96488E-01
 -1      2011 1.80451E-01
 -1      2012 2.99379E-01
 -1      2013 2.66161E-01
 -1      2014 2.46258E-01
 -1      2015 3.96295E-01
 -1      2016 3.56251E-01
 -1      2017 3.47454E-01
 -1      2018 5.13637E-01
 -1      2019 4.67330E-01
 -1      2020 4.75362E-01
 -1      2021 6.48882E-01
 -1      2022 5.98904E-01
 -1      2023 6.31664E-01
 -1      2024 7.96435E-01
 -1      2025 7.45310E-01
 -1      2026 8.13359E-01
 -1      2027 9.55387E-01
 -1      2028 8.95511E-01
 -1      2029 1.00886E+00
 -1      2030 1.08539E+00
 -1      2031 1.04046E+00
 -1      2032 1.19301E+00
 -1      2033 1.25557E+00
 -1      2034 1.15938E+00
 -1      2035 1.35206E+00
 -1      2036 1.37341E+00
 -1      2037 1.27749E+00
 -1      2038 1.44797E+00
 -1      2039 1.51971E+00
 -1      2040 1.37628E+00
 -1      2041 1.47276E+00
 -1      2042 1.50997E+00
 -1      2043 1.43610E+00
 -1      2044 1.39202E+00
 -1      2045 1.68167E+00
 -1      2046 1.48667E+00
 -1      2047 1.28511E+00
 -1      2048 1.77279E+00
 -1      2049 1.77576E+00
 -1      2050 1.35590E+00
 -1      2051 2.55354E+00
 -1      2052 2.26319E+00
 -1      2053 1.94039E+00
 -1      2054 3.35184E+00
 -1      2055 2.77073E+00
 -1      2056 2.64799E+00
 -1      2057 4.05977E+00
 -1      2058 3.50028E+00
 -1      2059 3.01363E+00
 -1      2060 4.39225E+00
 -1      2061 4.07601E+00
 -1      2062 3.17831E+00
 -1      2063 3.71593E+00
 -1      2064 4.20183E+00
 -1      2065 3.00412E+00
 -1      2066 2.10587E+00
 -1      2067 3.21081E+00
 -1      2068 2.30858E+00
 -1      2069 1.36879E+00
 -1      2070 1.82925E+00
 -1      2071 1.52684E+00
 -1      2072 1.41813E+00
 -1      2073 1.34962E+00
 -1      2074 1.23104E+00
 -1      2075 1.65519E+00
 -1      2076 1.49557E+00
 -1      2077 1.28931E+00
 -1      2078 1.75043E+00
 -1      2079 1.70872E+00
 -1      2080 1.42027E+00
 -1      2081 1.61701E+00
 -1      2082 1.72123E+00
 -1      2083 1.44459E+00
 -1      2084 1.36730E+00
 -1      2085 1.53089E+00
 -1      2086 1.32926E+00
 -1      2087 1.11257E+00
 -1      2088 1.27518E+00
 -1      2089 1.15102E+00
 -1      2090 8.93203E-01
 -1      2091 9.94139E-01
 -1      2092 9.40462E-01
 -1      2093 7.02623E-01
 -1      2094 8.14567E-01
 -1      2095 7.43395E-01
 -1      2096 4.44917E-01
 -1      2097 5.92702E-01
 -1      2098 5.54838E-01
 -1      2099 3.44950E-01
 -1      2100 2.24320E-01
 -1      2101 2.46151E-01
 -1      2102 3.49716E-01
 -1      2103 3.62310E-01
 -1      2104 3.76073E-01
 -1      2105 3.62310E-01
 -1      2106 3.62310E-01
 -1      2107 4.62277E-01
 -1      2108 4.79638E-01
 -1      2109 3.23034E-01
 -1      2110 2.74790E-01
 -1      2111 3.22979E-01
 -1      2112 3.86538E-01
 -1      2113 3.64011E-01
 -1      2114 4.14427E-01
 -1      2115 3.86756E-01
 -1      2116 3.86538E-01
 -1      2117 4.55404E-01
 -1      2118 3.83487E-01
 -1      2119 3.83487E-01
 -1      2120 4.52136E-01
 -1      2121 3.63785E-01
 -1      2122 3.82414E-01
 -1      2123 4.47795E-01
 -1      2124 2.86673E-01
 -1      2125 3.24367E-01
 -1      2126 4.07304E-01
 -1      2127 1.84011E-01
 -1      2128 2.29697E-01
 -1      2129 3.10910E-01
 -1      2130 1.51115E-01
 -1      2131 1.43127E-01
 -1      2132 2.13050E-01
 -1      2133 2.06290E-01
 -1      2134 1.77037E-01
 -1      2135 1.98086E-01
 -1      2136 2.43556E-01
 -1      2137 2.43556E-01
 -1      2138 2.61274E-01
 -1      2139 3.85205E+01
 -1      2140 2.94402E+01
 -1      2141 3.20581E+01
 -1      2142 3.20581E+01
 -1      2143 3.18937E+01
 -1      2144 3.20581E+01
 -1      2145 3.18937E+01
 -1      2146 1.97310E+01
 -1      2147 3.23178E+01
 -1      2148 2.29556E+01
 -1      2149 2.54369E+01
 -1      2150 2.70038E+01
 -1      2151 9.56576E+00
 -1      2152 9.38571E+00
 -1      2153 1.07948E+01
 -1      2154 1.62033E+01
 -1      2155 1.35072E+01
 -1      2156 1.03701E+00
 -1      2157 1.21231E+00
 -1      2158 9.81315E-01
 -1      2159 8.54132E-01
 -1      2160 1.12805E+01
 -1      2161 1.08894E+01
 -1      2162 1.21038E+01
 -1      2163 1.19551E+01
 -1      2164 1.26539E+01
 -1      2165 1.22687E+01
 -1      2166 1.02226E+01
 -1      2167 1.10844E+01
 -1      2168 1.00414E+01
 -1      2169 9.55828E+00
 -1      2170 2.06319E+01
 -1      2171 1.25141E+01
 -1      2172 2.50462E+01
 -1      2173 2.50462E+01
 -1      2174 1.63795E+01
 -1      2175 2.31290E+01
 -1      2176 2.53474E+01
 -1      2177 3.14022E+01
 -1      2178 2.98180E+01
 -1      2179 2.80852E+01
 -1      2180 3.14022E+01
 -1      2181 3.14022E+01
 -1      2182 3.12431E+01
 -1      2183 2.62962E+01
 -1      2184 3.38576E+01
 -1      2185 3.11771E+01
 -1      2186 2.44962E+01
 -1      2187 1.54376E+01
 -1      2188 2.86165E+01
 -1      2189 9.67957E+00
 -1      2190 1.26440E+01
 -1      2191 1.01284E+01
 -1      2192 8.93187E+00
 -1      2193 7.61299E+00
 -1      2194 1.16965E+01
 -1      2195 1.16736E+01
 -1      2196 1.17840E+01
 -1      2197 1.25018E+01
 -1      2198 1.20495E+01
 -1      2199 1.16733E+01
 -1      2200 1.14557E+01
 -1      2201 1.02437E+01
 -1      2202 1.05629E+01
 -1      2203 9.24295E+00
 -1      2204 9.01253E+00
 -1      2205 2.06394E+01
 -1      2206 1.21764E+01
 -1      2207 8.84295E+00
 -1      2208 2.46757E+01
 -1      2209 2.46757E+01
 -1      2210 8.57033E+00
 -1      2211 3.34917E+01
 -1      2212 2.91181E+00
 -1      2213 2.10575E+00
 -1      2214 3.43472E+01
 -1      2215 2.32376E+01
 -1      2216 2.60220E-01
 -1      2217 2.06102E+01
 -1      2218 1.58128E+01
 -1      2219 9.85843E+00
 -1      2220 8.41052E+00
 -1      2221 2.86000E+01
 -1      2222 1.91726E+01
 -1      2223 1.39315E+01
 -1      2224 3.47742E+01
 -1      2225 2.10950E+01
 -1      2226 9.49254E+00
 -1      2227 7.68410E+00
 -1      2228 9.91787E+00
 -1      2229 8.48484E+00
 -1      2230 1.13224E+01
 -1      2231 1.04830E+01
 -1      2232 2.96681E+01
 -1      2233 1.11544E+01
 -1      2234 1.07611E+01
 -1      2235 8.38944E+00
 -1      2236 6.51754E+00
 -1      2237 5.28637E+00
 -1      2238 1.09177E+00
 -1      2239 1.48334E+00
 -1      2240 5.58611E-01
 -1      2241 5.89631E-01
 -1      2242 6.01901E-01
 -1      2243 6.50535E-01
 -1      2244 4.97948E-01
 -1      2245 5.11302E-01
 -1      2246 5.09684E-01
 -1      2247 5.45852E-01
 -1      2248 5.24142E-01
 -1      2249 4.44538E-01
 -1      2250 5.93721E-01
 -1      2251 5.60504E-01
 -1      2252 4.72031E-01
 -1      2253 6.53110E-01
 -1      2254 6.05646E-01
 -1      2255 4.98609E-01
 -1      2256 7.20720E-01
 -1      2257 6.53110E-01
 -1      2258 5.10534E-01
 -1      2259 8.82470E-01
 -1      2260 7.68652E-01
 -1      2261 5.58467E-01
 -1      2262 1.26815E+00
 -1      2263 1.03760E+00
 -1      2264 2.70038E+01
 -1      2265 2.13714E+01
 -1      2266 8.94841E-01
 -1      2267 1.01377E+00
 -1      2268 9.72840E-01
 -1      2269 1.67723E+00
 -1      2270 1.30382E+00
 -1      2271 8.39629E-01
 -1      2272 9.60258E-01
 -1      2273 9.88684E-01
 -1      2274 8.08836E-01
 -1      2275 7.55046E-01
 -1      2276 7.52046E-01
 -1      2277 6.26887E-01
 -1      2278 6.49344E-01
 -1      2279 5.71035E-01
 -1      2280 5.12401E-01
 -1      2281 5.36703E-01
 -1      2282 4.63321E-01
 -1      2283 4.15588E-01
 -1      2284 4.31771E-01
 -1      2285 3.89038E-01
 -1      2286 3.47282E-01
 -1      2287 3.56142E-01
 -1      2288 3.22929E-01
 -1      2289 2.90232E-01
 -1      2290 3.05239E-01
 -1      2291 2.67268E-01
 -1      2292 2.40274E-01
 -1      2293 2.57923E-01
 -1      2294 2.19798E-01
 -1      2295 1.96898E-01
 -1      2296 2.14484E-01
 -1      2297 1.79710E-01
 -1      2298 1.60676E-01
 -1      2299 1.76819E-01
 -1      2300 1.45597E-01
 -1      2301 1.30181E-01
 -1      2302 1.44551E-01
 -1      2303 1.17664E-01
 -1      2304 1.05886E-01
 -1      2305 1.16955E-01
 -1      2306 9.53967E-02
 -1      2307 8.85998E-02
 -1      2308 9.39489E-02
 -1      2309 8.63423E-02
 -1      2310 9.20158E-02
 -1      2311 8.12021E-02
 -1      2312 9.83310E-02
 -1      2313 1.07899E-01
 -1      2314 8.52598E-02
 -1      2315 1.19054E-01
 -1      2316 1.32065E-01
 -1      2317 1.02730E-01
 -1      2318 1.56967E-01
 -1      2319 1.76779E-01
 -1      2320 1.38788E-01
 -1      2321 2.05598E-01
 -1      2322 2.37166E-01
 -1      2323 1.92509E-01
 -1      2324 2.69640E-01
 -1      2325 3.04627E-01
 -1      2326 2.53802E-01
 -1      2327 3.39596E-01
 -1      2328 3.75747E-01
 -1      2329 3.21244E-01
 -1      2330 4.10757E-01
 -1      2331 4.43964E-01
 -1      2332 3.91222E-01
 -1      2333 4.74867E-01
 -1      2334 5.05170E-01
 -1      2335 4.57136E-01
 -1      2336 5.32122E-01
 -1      2337 5.64610E-01
 -1      2338 5.14992E-01
 -1      2339 5.93785E-01
 -1      2340 6.21129E-01
 -1      2341 5.71118E-01
 -1      2342 6.44404E-01
 -1      2343 6.40229E-01
 -1      2344 6.23567E-01
 -1      2345 6.40303E-01
 -1      2346 5.84431E-01
 -1      2347 6.46916E-01
 -1      2348 6.15928E-01
 -1      2349 5.74234E-01
 -1      2350 6.78487E-01
 -1      2351 6.35389E-01
 -1      2352 7.02712E-01
 -1      2353 7.71140E-01
 -1      2354 7.69853E-01
 -1      2355 9.95963E-01
 -1      2356 8.99436E-01
 -1      2357 1.11654E+00
 -1      2358 1.30767E+00
 -1      2359 1.08716E+00
 -1      2360 1.40465E+00
 -1      2361 1.60809E+00
 -1      2362 1.30471E+00
 -1      2363 1.77178E+00
 -1      2364 1.85419E+00
 -1      2365 1.56539E+00
 -1      2366 1.92163E+00
 -1      2367 1.87182E+00
 -1      2368 1.79652E+00
 -1      2369 1.82198E+00
 -1      2370 1.85422E+00
 -1      2371 1.81412E+00
 -1      2372 1.78248E+00
 -1      2373 1.64742E+00
 -1      2374 1.69254E+00
 -1      2375 1.51065E+00
 -1      2376 1.33092E+00
 -1      2377 1.48403E+00
 -1      2378 1.26043E+00
 -1      2379 1.04875E+00
 -1      2380 1.27676E+00
 -1      2381 9.14050E-01
 -1      2382 7.59704E-01
 -1      2383 1.07157E+00
 -1      2384 6.89170E-01
 -1      2385 6.32246E-01
 -1      2386 8.66337E-01
 -1      2387 5.65599E-01
 -1      2388 5.71819E-01
 -1      2389 7.29156E-01
 -1      2390 4.97126E-01
 -1      2391 5.09479E-01
 -1      2392 5.87815E-01
 -1      2393 4.83883E-01
 -1      2394 4.46384E-01
 -1      2395 4.87525E-01
 -1      2396 4.09628E-01
 -1      2397 4.10114E-01
 -1      2398 4.25173E-01
 -1      2399 3.80485E-01
 -1      2400 3.68807E-01
 -1      2401 3.58788E-01
 -1      2402 2.41283E+01
 -1      2403 2.65817E+01
 -1      2404 5.49862E-01
 -1      2405 6.28921E-01
 -1      2406 4.43265E-01
 -1      2407 4.96564E-01
 -1      2408 4.96564E-01
 -1      2409 3.78201E-01
 -1      2410 4.10733E-01
 -1      2411 4.10733E-01
 -1      2412 3.16173E-01
 -1      2413 3.47187E-01
 -1      2414 3.47187E-01
 -1      2415 2.60613E-01
 -1      2416 2.88393E-01
 -1      2417 2.88393E-01
 -1      2418 2.16516E-01
 -1      2419 2.38565E-01
 -1      2420 2.38565E-01
 -1      2421 1.79767E-01
 -1      2422 1.97242E-01
 -1      2423 1.97242E-01
 -1      2424 1.49631E-01
 -1      2425 1.63355E-01
 -1      2426 1.61556E-01
 -1      2427 1.25505E-01
 -1      2428 1.35832E-01
 -1      2429 1.31345E-01
 -1      2430 1.10372E-01
 -1      2431 1.15817E-01
 -1      2432 1.07858E-01
 -1      2433 1.05039E-01
 -1      2434 1.05416E-01
 -1      2435 9.32146E-02
 -1      2436 1.16151E-01
 -1      2437 1.12924E-01
 -1      2438 9.61439E-02
 -1      2439 1.43091E-01
 -1      2440 1.27744E-01
 -1      2441 1.15621E-01
 -1      2442 1.92203E-01
 -1      2443 1.70721E-01
 -1      2444 1.54843E-01
 -1      2445 2.75909E-01
 -1      2446 2.31584E-01
 -1      2447 2.21854E-01
 -1      2448 3.82561E-01
 -1      2449 3.25689E-01
 -1      2450 3.11016E-01
 -1      2451 5.15562E-01
 -1      2452 4.44527E-01
 -1      2453 4.22762E-01
 -1      2454 6.76042E-01
 -1      2455 5.90776E-01
 -1      2456 5.59940E-01
 -1      2457 8.60364E-01
 -1      2458 7.63935E-01
 -1      2459 7.23047E-01
 -1      2460 1.05639E+00
 -1      2461 9.57311E-01
 -1      2462 9.07887E-01
 -1      2463 1.23884E+00
 -1      2464 1.15377E+00
 -1      2465 1.10222E+00
 -1      2466 1.39510E+00
 -1      2467 1.32112E+00
 -1      2468 1.28188E+00
 -1      2469 1.48178E+00
 -1      2470 1.45986E+00
 -1      2471 1.42892E+00
 -1      2472 1.61195E+00
 -1      2473 1.60909E+00
 -1      2474 1.62097E+00
 -1      2475 1.62776E+00
 -1      2476 1.71137E+00
 -1      2477 1.84770E+00
 -1      2478 1.65109E+00
 -1      2479 1.67438E+00
 -1      2480 1.99374E+00
 -1      2481 1.92949E+00
 -1      2482 1.83540E+00
 -1      2483 2.22468E+00
 -1      2484 2.61978E+00
 -1      2485 2.12938E+00
 -1      2486 2.60888E+00
 -1      2487 3.06266E+00
 -1      2488 2.84547E+00
 -1      2489 3.03445E+00
 -1      2490 4.10297E+00
 -1      2491 3.95453E+00
 -1      2492 4.15201E+00
 -1      2493 5.10956E+00
 -1      2494 5.09332E+00
 -1      2495 6.03422E+00
 -1      2496 3.51853E+00
 -1      2497 3.70895E+00
 -1      2498 5.62396E+00
 -1      2499 2.07471E+00
 -1      2500 2.57983E+00
 -1      2501 3.28466E+00
 -1      2502 1.82584E+00
 -1      2503 2.10247E+00
 -1      2504 2.37372E+00
 -1      2505 1.62150E+00
 -1      2506 1.64067E+00
 -1      2507 2.21630E+00
 -1      2508 1.58213E+00
 -1      2509 1.50470E+00
 -1      2510 1.91432E+00
 -1      2511 1.53738E+00
 -1      2512 1.48385E+00
 -1      2513 1.69923E+00
 -1      2514 1.37384E+00
 -1      2515 1.40304E+00
 -1      2516 1.46662E+00
 -1      2517 1.21436E+00
 -1      2518 1.30049E+00
 -1      2519 1.25894E+00
 -1      2520 1.02935E+00
 -1      2521 1.12147E+00
 -1      2522 1.09270E+00
 -1      2523 7.99414E-01
 -1      2524 9.17846E-01
 -1      2525 8.88302E-01
 -1      2526 6.22843E-01
 -1      2527 7.01479E-01
 -1      2528 6.78863E-01
 -1      2529 5.72198E-01
 -1      2530 5.26208E-01
 -1      2531 4.85230E-01
 -1      2532 5.45120E-01
 -1      2533 5.45120E-01
 -1      2534 6.15923E-01
 -1      2535 3.98058E-01
 -1      2536 5.01622E-01
 -1      2537 4.46082E-01
 -1      2538 3.95612E-01
 -1      2539 5.21161E-01
 -1      2540 5.57863E-01
 -1      2541 5.41851E-01
 -1      2542 5.45120E-01
 -1      2543 6.34835E-01
 -1      2544 5.31465E-01
 -1      2545 5.32537E-01
 -1      2546 6.25521E-01
 -1      2547 4.68160E-01
 -1      2548 5.07578E-01
 -1      2549 5.92321E-01
 -1      2550 3.39783E-01
 -1      2551 3.96760E-01
 -1      2552 4.97034E-01
 -1      2553 2.42295E-01
 -1      2554 2.83179E-01
 -1      2555 3.69029E-01
 -1      2556 2.81424E-01
 -1      2557 2.55502E-01
 -1      2558 3.25632E-01
 -1      2559 3.02150E-01
 -1      2560 2.64883E-01
 -1      2561 3.22299E-01
 -1      2562 3.11008E-01
 -1      2563 1.84661E+01
 -1      2564 1.77050E+01
 -1      2565 1.84661E+01
 -1      2566 7.07980E-01
 -1      2567 8.01410E-01
 -1      2568 6.28921E-01
 -1      2569 3.43472E+01
 -1      2570 3.43472E+01
 -1      2571 1.55145E+01
 -1      2572 2.17171E+01
 -1      2573 7.07449E+00
 -1      2574 8.56110E+00
 -1      2575 7.19067E+00
 -1      2576 5.64545E+00
 -1      2577 3.47742E+01
 -1      2578 3.47742E+01
 -1      2579 9.19638E+00
 -1      2580 6.72367E+00
 -1      2581 3.34917E+01
 -1      2582 3.26362E+01
 -1      2583 3.34917E+01
 -1      2584 5.22444E-01
 -1      2585 5.44382E-01
 -1      2586 4.71448E-01
 -1      2587 4.44458E-01
 -1      2588 8.99937E+00
 -1      2589 1.25271E+01
 -1      2590 9.09105E+00
 -1      2591 8.41651E+00
 -1      2592 7.32089E+00
 -1      2593 5.99728E+00
 -1      2594 5.92895E+00
 -1      2595 7.01826E+00
 -1      2596 8.58776E+00
 -1      2597 5.37284E+00
 -1      2598 6.03711E+00
 -1      2599 5.07668E+00
 -1      2600 1.56836E+01
 -1      2601 1.12694E+01
 -1      2602 1.87186E+01
 -1      2603 1.84174E+01
 -1      2604 1.33072E+01
 -1      2605 2.80852E+01
 -1      2606 2.13962E+01
 -1      2607 7.67419E+00
 -1      2608 1.04678E+01
 -1      2609 2.10160E+01
 -1      2610 2.10820E+01
 -1      2611 9.72492E+00
 -1      2612 8.91958E+00
 -1      2613 5.38071E+00
 -1      2614 6.12841E+00
 -1      2615 5.44191E+00
 -1      2616 9.42379E+00
 -1      2617 9.53447E+00
 -1      2618 7.69298E+00
 -1      2619 6.63985E+00
 -1      2620 8.91393E+00
 -1      2621 5.98044E+00
 -1      2622 1.48745E+01
 -1      2623 1.08382E+01
 -1      2624 7.97573E+00
 -1      2625 6.14471E+00
 -1      2626 7.55380E+00
 -1      2627 1.62246E+00
 -1      2628 1.76558E+00
 -1      2629 1.32837E+00
 -1      2630 1.18996E+00
 -1      2631 2.45621E+01
 -1      2632 2.96681E+01
 -1      2633 9.84489E+00
 -1      2634 9.67998E+00
 -1      2635 1.10067E+01
 -1      2636 6.13881E-01
 -1      2637 7.54197E-01
 -1      2638 8.17478E-01
 -1      2639 2.65817E+01
 -1      2640 1.24381E+00
 -1      2641 2.10820E+01
 -1      2642 8.01410E-01
 -1      2643 8.96356E-01
 -1      2644 4.16086E+00
 -1      2645 1.27304E+01
 -1      2646 1.64052E+01
 -1      2647 5.30283E-01
 -1      2648 6.21525E+00
 -1      2649 4.91792E+00
 -1      2650 4.36098E+00
 -1      2651 5.30283E-01
 -1      2652 6.57375E+00
 -1      2653 3.11008E-01
 -1      2654 2.98541E-01
 -1      2655 3.02150E-01
 -1      2656 3.53498E-01
 -1      2657 1.76206E+01
 -1      2658 1.42064E+01
 -1      2659 1.23630E+01
 -1      2660 9.67743E-01
 -1      2661 5.35735E+00
 -1      2662 1.87186E+01
 -1      2663 2.80852E+01
 -1      2664 1.08944E+01
 -1      2665 1.08779E+01
 -1      2666 7.41423E+00
 -1      2667 8.50048E+00
 -1      2668 2.96681E+01
 -1      2669 2.70038E+01
 -1      2670 7.63205E+00
 -1      2671 4.86698E+00
 -1      2672 6.59590E+00
 -1      2673 7.61349E+00
 -1      2674 3.13850E-01
 -1      2675 4.98075E+00
 -1      2676 4.70700E+00
 -1      2677 5.52267E-01
 -1      2678 4.22599E-01
 -1      2679 4.07946E-01
 -1      2680 4.00296E-01
 -1      2681 3.87456E-01
 -1      2682 3.50864E-01
 -1      2683 4.36052E-01
 -1      2684 4.36052E-01
 -1      2685 4.71831E-01
 -1      2686 4.23898E-01
 -1      2687 3.49416E-01
 -1      2688 5.09857E+00
 -1      2689 4.40449E+00
 -1      2690 6.06236E-01
 -1      2691 5.57324E-01
 -1      2692 7.19677E-01
 -1      2693 7.97675E-01
 -1      2694 8.28619E-01
 -1      2695 3.55129E-01
 -1      2696 3.87661E-01
 -1      2697 5.53378E-01
 -1      2698 4.96589E-01
 -1      2699 4.04569E-01
 -1      2700 4.89902E-01
 -1      2701 4.34050E-01
 -1      2702 3.93936E-01
 -1      2703 4.13763E-01
 -1      2704 3.64683E-01
 -1      2705 3.66962E-01
 -1      2706 3.39868E-01
 -1      2707 3.13319E-01
 -1      2708 3.21860E-01
 -1      2709 2.88306E-01
 -1      2710 2.63953E-01
 -1      2711 2.72033E-01
 -1      2712 2.47792E-01
 -1      2713 2.24829E-01
 -1      2714 2.30859E-01
 -1      2715 2.07974E-01
 -1      2716 1.87498E-01
 -1      2717 1.97844E-01
 -1      2718 1.72657E-01
 -1      2719 1.55468E-01
 -1      2720 1.66147E-01
 -1      2721 1.41606E-01
 -1      2722 1.26527E-01
 -1      2723 1.37443E-01
 -1      2724 1.13745E-01
 -1      2725 1.01228E-01
 -1      2726 1.10799E-01
 -1      2727 8.93032E-02
 -1      2728 7.88138E-02
 -1      2729 8.60928E-02
 -1      2730 6.72948E-02
 -1      2731 6.50373E-02
 -1      2732 6.26491E-02
 -1      2733 6.84629E-02
 -1      2734 7.47782E-02
 -1      2735 5.45557E-02
 -1      2736 8.81755E-02
 -1      2737 9.93310E-02
 -1      2738 7.13787E-02
 -1      2739 1.21289E-01
 -1      2740 1.46191E-01
 -1      2741 1.06734E-01
 -1      2742 1.71884E-01
 -1      2743 2.00703E-01
 -1      2744 1.54385E-01
 -1      2745 2.30555E-01
 -1      2746 2.63029E-01
 -1      2747 2.09930E-01
 -1      2748 2.97073E-01
 -1      2749 3.32041E-01
 -1      2750 2.73826E-01
 -1      2751 3.69662E-01
 -1      2752 4.04672E-01
 -1      2753 3.45491E-01
 -1      2754 4.44254E-01
 -1      2755 4.75158E-01
 -1      2756 4.22694E-01
 -1      2757 5.13617E-01
 -1      2758 5.40569E-01
 -1      2759 5.00736E-01
 -1      2760 5.77658E-01
 -1      2761 6.06832E-01
 -1      2762 5.76284E-01
 -1      2763 6.62048E-01
 -1      2764 6.85323E-01
 -1      2765 6.68588E-01
 -1      2766 7.41468E-01
 -1      2767 7.41542E-01
 -1      2768 7.79949E-01
 -1      2769 7.80619E-01
 -1      2770 8.12116E-01
 -1      2771 8.75171E-01
 -1      2772 9.00239E-01
 -1      2773 9.61394E-01
 -1      2774 1.00237E+00
 -1      2775 1.08159E+00
 -1      2776 1.14873E+00
 -1      2777 1.21069E+00
 -1      2778 1.20003E+00
 -1      2779 1.32061E+00
 -1      2780 1.38219E+00
 -1      2781 1.40396E+00
 -1      2782 1.50094E+00
 -1      2783 1.51684E+00
 -1      2784 1.62787E+00
 -1      2785 1.79157E+00
 -1      2786 1.72712E+00
 -1      2787 2.20389E+00
 -1      2788 2.27133E+00
 -1      2789 2.26638E+00
 -1      2790 2.65581E+00
 -1      2791 2.60597E+00
 -1      2792 3.06318E+00
 -1      2793 1.96954E+00
 -1      2794 1.89781E+00
 -1      2795 2.81124E+00
 -1      2796 1.62080E+00
 -1      2797 1.48403E+00
 -1      2798 1.89781E+00
 -1      2799 1.41188E+00
 -1      2800 1.34139E+00
 -1      2801 1.54866E+00
 -1      2802 1.24294E+00
 -1      2803 1.10825E+00
 -1      2804 1.37807E+00
 -1      2805 1.08987E+00
 -1      2806 1.01933E+00
 -1      2807 1.26124E+00
 -1      2808 8.79429E-01
 -1      2809 8.12781E-01
 -1      2810 1.10296E+00
 -1      2811 6.82605E-01
 -1      2812 6.07912E-01
 -1      2813 8.32878E-01
 -1      2814 5.53904E-01
 -1      2815 5.28308E-01
 -1      2816 6.48695E-01
 -1      2817 4.61929E-01
 -1      2818 4.25173E-01
 -1      2819 5.28308E-01
 -1      2820 3.88417E-01
 -1      2821 3.58788E-01
 -1      2822 4.25173E-01
 -1      2823 4.21840E-01
 -1      2824 4.75139E-01
 -1      2825 3.66236E-01
 -1      2826 2.50690E-01
 -1      2827 2.78470E-01
 -1      2828 2.10480E-01
 -1      2829 2.32528E-01
 -1      2830 2.22605E-01
 -1      2831 1.74286E-01
 -1      2832 1.93560E-01
 -1      2833 1.87523E-01
 -1      2834 1.42713E-01
 -1      2835 1.59125E-01
 -1      2836 1.55443E-01
 -1      2837 1.15553E-01
 -1      2838 1.29352E-01
 -1      2839 1.26921E-01
 -1      2840 9.40034E-02
 -1      2841 1.03691E-01
 -1      2842 1.01698E-01
 -1      2843 7.81257E-02
 -1      2844 8.30815E-02
 -1      2845 7.89145E-02
 -1      2846 8.82965E-02
 -1      2847 8.04114E-02
 -1      2848 7.02783E-02
 -1      2849 1.09665E-01
 -1      2850 9.80729E-02
 -1      2851 8.23404E-02
 -1      2852 1.63530E-01
 -1      2853 1.35900E-01
 -1      2854 1.18352E-01
 -1      2855 2.35516E-01
 -1      2856 1.96134E-01
 -1      2857 1.77191E-01
 -1      2858 3.26042E-01
 -1      2859 2.76262E-01
 -1      2860 2.50542E-01
 -1      2861 4.38826E-01
 -1      2862 3.76861E-01
 -1      2863 3.42107E-01
 -1      2864 5.76946E-01
 -1      2865 5.01733E-01
 -1      2866 4.55832E-01
 -1      2867 7.41805E-01
 -1      2868 6.53913E-01
 -1      2869 5.95705E-01
 -1      2870 9.31454E-01
 -1      2871 8.34507E-01
 -1      2872 7.65373E-01
 -1      2873 1.13813E+00
 -1      2874 1.04074E+00
 -1      2875 9.67358E-01
 -1      2876 1.34520E+00
 -1      2877 1.26292E+00
 -1      2878 1.20144E+00
 -1      2879 1.54517E+00
 -1      2880 1.48041E+00
 -1      2881 1.46145E+00
 -1      2882 1.80621E+00
 -1      2883 1.67891E+00
 -1      2884 1.73041E+00
 -1      2885 2.15381E+00
 -1      2886 2.05439E+00
 -1      2887 2.11233E+00
 -1      2888 2.43624E+00
 -1      2889 2.38962E+00
 -1      2890 2.59631E+00
 -1      2891 3.04485E+00
 -1      2892 2.86053E+00
 -1      2893 3.25641E+00
 -1      2894 3.24176E+00
 -1      2895 3.04188E+00
 -1      2896 3.67773E+00
 -1      2897 4.34548E+00
 -1      2898 3.45360E+00
 -1      2899 7.61349E+00
 -1      2900 6.62315E+00
 -1      2901 2.40017E+00
 -1      2902 3.33887E+00
 -1      2903 2.42133E+00
 -1      2904 2.39357E+00
 -1      2905 2.44778E+00
 -1      2906 3.38959E+00
 -1      2907 3.57476E+00
 -1      2908 3.59462E+00
 -1      2909 2.34728E+00
 -1      2910 2.46408E+00
 -1      2911 3.82254E+00
 -1      2912 1.91505E+00
 -1      2913 2.01333E+00
 -1      2914 2.56309E+00
 -1      2915 1.52472E+00
 -1      2916 1.65906E+00
 -1      2917 1.97316E+00
 -1      2918 1.31555E+00
 -1      2919 1.38890E+00
 -1      2920 1.58134E+00
 -1      2921 1.07721E+00
 -1      2922 1.17010E+00
 -1      2923 1.30007E+00
 -1      2924 8.24080E-01
 -1      2925 9.35585E-01
 -1      2926 1.01299E+00
 -1      2927 6.34661E-01
 -1      2928 7.32596E-01
 -1      2929 7.79878E-01
 -1      2930 6.06000E-01
 -1      2931 7.11600E-01
 -1      2932 7.20913E-01
 -1      2933 7.44292E-01
 -1      2934 7.25380E-01
 -1      2935 6.87713E-01
 -1      2936 7.11600E-01
 -1      2937 8.06991E-01
 -1      2938 7.44292E-01
 -1      2939 7.44292E-01
 -1      2940 8.53750E-01
 -1      2941 8.30371E-01
 -1      2942 4.03193E+00
 -1      2943 4.17936E+00
 -1      2944 5.42135E-01
 -1      2945 6.13535E-01
 -1      2946 7.32814E-01
 -1      2947 4.07258E-01
 -1      2948 4.63862E-01
 -1      2949 5.80363E-01
 -1      2950 3.91695E-01
 -1      2951 3.78487E-01
 -1      2952 4.73320E-01
 -1      2953 1.65577E+01
 -1      2954 1.36525E+01
 -1      2955 5.08737E-01
 -1      2956 5.87795E-01
 -1      2957 4.34013E-01
 -1      2958 5.04823E+00
 -1      2959 6.49381E+00
 -1      2960 3.55652E+00
 -1      2961 3.29179E+00
 -1      2962 5.07320E+00
 -1      2963 3.72237E+00
 -1      2964 1.21232E+01
 -1      2965 9.29277E+00
 -1      2966 5.62396E+00
 -1      2967 4.52834E+00
 -1      2968 2.38451E+01
 -1      2969 2.29896E+01
 -1      2970 7.02457E+00
 -1      2971 1.96790E+01
 -1      2972 2.47850E+01
 -1      2973 2.96638E-01
 -1      2974 3.27653E-01
 -1      2975 3.04580E-01
 -1      2976 2.58936E-01
 -1      2977 7.96421E-01
 -1      2978 5.42836E+00
 -1      2979 8.32797E+00
 -1      2980 1.61853E+01
 -1      2981 2.39508E+01
 -1      2982 4.36052E-01
 -1      2983 4.24126E-01
 -1      2984 3.60041E-01
 -1      2985 3.61569E-01
 -1      2986 2.56446E+01
 -1      2987 1.89557E+01
 -1      2988 1.22414E+01
 -1      2989 9.50766E+00
 -1      2990 8.69032E+00
 -1      2991 6.61735E+00
 -1      2992 4.23693E-01
 -1      2993 4.35963E-01
 -1      2994 6.13227E-01
 -1      2995 7.06658E-01
 -1      2996 5.31494E-01
 -1      2997 4.93043E-01
 -1      2998 3.18690E-01
 -1      2999 3.22299E-01
 -1      3000 3.33999E-01
 -1      3001 3.45239E+00
 -1      3002 4.99817E+00
 -1      3003 2.84805E+00
 -1      3004 1.71963E+01
 -1      3005 1.45188E+01
 -1      3006 1.21764E+01
 -1      3007 1.45875E+01
 -1      3008 2.43032E+01
 -1      3009 1.86707E+01
 -1      3010 1.38571E+01
 -1      3011 1.46566E+01
 -1      3012 8.33386E+00
 -1      3013 6.40955E+00
 -1      3014 3.49299E+00
 -1      3015 4.47414E+00
 -1      3016 1.61048E+01
 -1      3017 1.95849E+01
 -1      3018 1.47018E+01
 -1      3019 6.68550E+00
 -1      3020 7.83897E+00
 -1      3021 1.08263E+01
 -1      3022 6.31345E+00
 -1      3023 4.66761E+00
 -1      3024 4.40782E+00
 -1      3025 4.65397E-01
 -1      3026 5.69059E-01
 -1      3027 3.91141E-01
 -1      3028 3.42987E-01
 -1      3029 3.87230E-01
 -1      3030 3.99990E-01
 -1      3031 4.10220E+00
 -1      3032 5.45670E+00
 -1      3033 3.63628E-01
 -1      3034 1.32878E+01
 -1      3035 1.17908E+01
 -1      3036 9.89240E+00
 -1      3037 5.75456E-01
 -1      3038 1.19565E+01
 -1      3039 7.62452E+00
 -1      3040 1.34487E+01
 -1      3041 4.40888E-01
 -1      3042 4.07584E-01
 -1      3043 4.21814E-01
 -1      3044 3.59829E-01
 -1      3045 3.50356E-01
 -1      3046 3.26382E+00
 -1      3047 3.69682E+00
 -1      3048 3.26013E+00
 -1      3049 3.03445E+00
 -1      3050 3.33887E+00
 -1      3051 4.22336E+00
 -1      3052 5.62396E+00
 -1      3053 5.63592E-01
 -1      3054 6.45986E-01
 -1      3055 5.61147E-01
 -1      3056 4.18060E+00
 -1      3057 5.03983E+00
 -1      3058 1.47558E+01
 -1      3059 1.02148E+01
 -1      3060 7.72660E+00
 -1      3061 3.38840E-01
 -1      3062 5.26303E+00
 -1      3063 1.05298E+01
 -1      3064 8.97786E+00
 -1      3065 7.49275E+00
 -1      3066 9.00863E+00
 -1      3067 4.32919E+00
 -1      3068 3.46011E+00
 -1      3069 4.77057E+00
 -1      3070 6.54324E+00
 -1      3071 6.73369E+00
 -1      3072 4.09941E+00
 -1      3073 1.07192E+01
 -1      3074 3.48951E+00
 -1      3075 3.38840E-01
 -1      3076 3.38840E-01
 -1      3077 3.91695E-01
 -1      3078 3.63628E-01
 -1      3079 3.64385E+00
 -1      3080 5.72540E+00
 -1      3081 6.15194E+00
 -1      3082 3.73588E+00
 -1      3083 5.81378E-01
 -1      3084 6.60257E-01
 -1      3085 6.24586E-01
 -1      3086 4.32894E-01
 -1      3087 5.87765E+00
 -1      3088 4.59011E+00
 -1      3089 4.72791E+00
 -1      3090 6.71071E-01
 -1      3091 6.31923E-01
 -1      3092 6.74354E-01
 -1      3093 7.99440E-01
 -1      3094 4.26864E-01
 -1      3095 1.56555E+01
 -1      3096 3.45360E+00
 -1      3097 2.88518E-01
 -1      3098 3.00671E-01
 -1      3099 9.22200E+00
 -1      3100 1.08199E+01
 -1      3101 5.10623E+00
 -1      3102 3.18031E-01
 -1      3103 3.11345E-01
 -1      3104 3.22215E-01
 -1      3105 3.01927E-01
 -1      3106 2.46310E-01
 -1      3107 2.98767E-01
 -1      3108 2.73952E-01
 -1      3109 2.54020E-01
 -1      3110 2.62848E-01
 -1      3111 2.37835E-01
 -1      3112 2.39755E-01
 -1      3113 2.23212E-01
 -1      3114 2.07051E-01
 -1      3115 2.14027E-01
 -1      3116 1.93428E-01
 -1      3117 1.76573E-01
 -1      3118 1.85781E-01
 -1      3119 1.65090E-01
 -1      3120 1.50248E-01
 -1      3121 1.60674E-01
 -1      3122 1.37706E-01
 -1      3123 1.23844E-01
 -1      3124 1.36649E-01
 -1      3125 1.10994E-01
 -1      3126 9.82122E-02
 -1      3127 1.11256E-01
 -1      3128 8.53172E-02
 -1      3129 7.33925E-02
 -1      3130 8.55119E-02
 -1      3131 6.03553E-02
 -1      3132 4.88363E-02
 -1      3133 5.95797E-02
 -1      3134 4.60518E-02
 -1      3135 4.94774E-02
 -1      3136 4.37580E-02
 -1      3137 5.80090E-02
 -1      3138 7.14064E-02
 -1      3139 4.95051E-02
 -1      3140 8.94659E-02
 -1      3141 1.11424E-01
 -1      3142 7.60962E-02
 -1      3143 1.33709E-01
 -1      3144 1.59402E-01
 -1      3145 1.16441E-01
 -1      3146 1.84967E-01
 -1      3147 2.14819E-01
 -1      3148 1.64291E-01
 -1      3149 2.44344E-01
 -1      3150 2.78388E-01
 -1      3151 2.19381E-01
 -1      3152 3.17139E-01
 -1      3153 3.54759E-01
 -1      3154 2.87657E-01
 -1      3155 4.00049E-01
 -1      3156 4.39631E-01
 -1      3157 3.71697E-01
 -1      3158 4.90687E-01
 -1      3159 5.29147E-01
 -1      3160 4.68043E-01
 -1      3161 5.85645E-01
 -1      3162 6.22733E-01
 -1      3163 5.75597E-01
 -1      3164 6.85430E-01
 -1      3165 7.40646E-01
 -1      3166 6.94791E-01
 -1      3167 8.20711E-01
 -1      3168 8.76856E-01
 -1      3169 8.37553E-01
 -1      3170 9.93755E-01
 -1      3171 1.03283E+00
 -1      3172 1.03452E+00
 -1      3173 1.14644E+00
 -1      3174 1.23456E+00
 -1      3175 1.26502E+00
 -1      3176 1.32600E+00
 -1      3177 1.44619E+00
 -1      3178 1.47006E+00
 -1      3179 2.09289E+00
 -1      3180 2.14419E+00
 -1      3181 2.20820E+00
 -1      3182 1.75305E+00
 -1      3183 1.83639E+00
 -1      3184 2.46375E+00
 -1      3185 2.75449E+00
 -1      3186 3.16681E+00
 -1      3187 3.27528E+00
 -1      3188 3.65976E+00
 -1      3189 2.26298E+00
 -1      3190 1.98598E+00
 -1      3191 1.78289E+00
 -1      3192 1.71075E+00
 -1      3193 2.14806E+00
 -1      3194 1.48060E+00
 -1      3195 1.38215E+00
 -1      3196 1.71483E+00
 -1      3197 1.57171E+00
 -1      3198 1.55334E+00
 -1      3199 1.67424E+00
 -1      3200 1.29341E+00
 -1      3201 1.15351E+00
 -1      3202 1.60389E+00
 -1      3203 1.05318E+00
 -1      3204 9.23008E-01
 -1      3205 1.24364E+00
 -1      3206 7.98269E-01
 -1      3207 7.44261E-01
 -1      3208 1.01857E+00
 -1      3209 6.30457E-01
 -1      3210 5.64078E-01
 -1      3211 7.80031E-01
 -1      3212 4.42799E-01
 -1      3213 4.06043E-01
 -1      3214 3.81254E-01
 -1      3215 5.44948E-01
 -1      3216 3.10784E-01
 -1      3217 3.44963E-01
 -1      3218 1.66622E-01
 -1      3219 1.83542E-01
 -1      3220 1.97183E-01
 -1      3221 2.15345E-01
 -1      3222 1.76282E-01
 -1      3223 1.09814E-01
 -1      3224 1.23175E-01
 -1      3225 8.48316E-02
 -1      3226 9.66930E-02
 -1      3227 9.29473E-02
 -1      3228 6.18583E-02
 -1      3229 7.27802E-02
 -1      3230 6.77754E-02
 -1      3231 5.58591E-02
 -1      3232 5.35734E-02
 -1      3233 4.74391E-02
 -1      3234 7.49311E-02
 -1      3235 6.51547E-02
 -1      3236 4.84498E-02
 -1      3237 1.21708E-01
 -1      3238 9.54734E-02
 -1      3239 7.82878E-02
 -1      3240 1.79162E-01
 -1      3241 1.46558E-01
 -1      3242 1.23680E-01
 -1      3243 2.53295E-01
 -1      3244 2.12548E-01
 -1      3245 1.81916E-01
 -1      3246 3.48756E-01
 -1      3247 2.97938E-01
 -1      3248 2.59944E-01
 -1      3249 4.68166E-01
 -1      3250 4.05259E-01
 -1      3251 3.61090E-01
 -1      3252 6.15674E-01
 -1      3253 5.38707E-01
 -1      3254 4.88135E-01
 -1      3255 7.94472E-01
 -1      3256 7.01771E-01
 -1      3257 6.44773E-01
 -1      3258 1.00506E+00
 -1      3259 8.95774E-01
 -1      3260 8.32173E-01
 -1      3261 1.25204E+00
 -1      3262 1.12724E+00
 -1      3263 1.05566E+00
 -1      3264 1.56015E+00
 -1      3265 1.42493E+00
 -1      3266 1.35074E+00
 -1      3267 1.96220E+00
 -1      3268 1.82846E+00
 -1      3269 1.79194E+00
 -1      3270 2.58888E+00
 -1      3271 2.34069E+00
 -1      3272 2.43875E+00
 -1      3273 4.08512E+00
 -1      3274 3.84932E+00
 -1      3275 4.07768E+00
 -1      3276 5.36056E+00
 -1      3277 4.93627E+00
 -1      3278 6.18927E+00
 -1      3279 4.15145E+00
 -1      3280 4.15442E+00
 -1      3281 5.83428E+00
 -1      3282 4.17351E+00
 -1      3283 2.97877E+00
 -1      3284 3.31272E+00
 -1      3285 2.20528E+00
 -1      3286 2.46127E+00
 -1      3287 3.21089E+00
 -1      3288 1.68164E+00
 -1      3289 1.81747E+00
 -1      3290 2.30558E+00
 -1      3291 1.26609E+00
 -1      3292 1.41154E+00
 -1      3293 1.64767E+00
 -1      3294 9.16977E-01
 -1      3295 1.05861E+00
 -1      3296 1.17008E+00
 -1      3297 7.45647E-01
 -1      3298 8.37131E-01
 -1      3299 8.82746E-01
 -1      3300 7.03239E-01
 -1      3301 3.26844E+00
 -1      3302 3.39035E+00
 -1      3303 2.84246E+00
 -1      3304 4.98799E+00
 -1      3305 3.67701E+00
 -1      3306 1.32833E+01
 -1      3307 1.15239E+01
 -1      3308 3.52525E-01
 -1      3309 3.34175E-01
 -1      3310 3.30229E-01
 -1      3311 3.40205E-01
 -1      3312 9.47568E-01
 -1      3313 9.47568E-01
 -1      3314 4.74549E+00
 -1      3315 5.48282E+00
 -1      3316 5.58932E-01
 -1      3317 5.87702E-01
 -1      3318 8.11947E-01
 -1      3319 8.86125E-01
 -1      3320 1.02670E+00
 -1      3321 7.33329E+00
 -1      3322 6.37437E+00
 -1      3323 3.54332E-01
 -1      3324 3.87930E-01
 -1      3325 2.98880E-01
 -1      3326 6.35742E-01
 -1      3327 7.14015E-01
 -1      3328 8.67326E-01
 -1      3329 7.21354E-01
 -1      3330 3.82254E+00
 -1      3331 4.74805E+00
 -1      3332 4.23823E+00
 -1      3333 1.37259E-01
 -1      3334 1.52419E-01
 -1      3335 1.48438E-01
 -1      3336 1.20151E-01
 -1      3337 3.31195E+00
 -1      3338 4.13890E-01
 -1      3339 3.10265E-01
 -1      3340 2.61520E-01
 -1      3341 4.00871E-01
 -1      3342 3.23750E-01
 -1      3343 3.16099E-01
 -1      3344 1.00911E+01
 -1      3345 7.81381E+00
 -1      3346 1.12570E+01
 -1      3347 1.11513E+01
 -1      3348 7.26178E+00
 -1      3349 8.61181E+00
 -1      3350 2.38003E+00
 -1      3351 2.54063E+00
 -1      3352 9.23063E+00
 -1      3353 7.70134E+00
 -1      3354 6.34551E+00
 -1      3355 1.23369E+01
 -1      3356 1.24309E+01
 -1      3357 1.24309E+01
 -1      3358 1.32906E+01
 -1      3359 3.12701E-01
 -1      3360 3.12475E-01
 -1      3361 2.85587E-01
 -1      3362 8.52244E+00
 -1      3363 8.81543E+00
 -1      3364 7.89682E+00
 -1      3365 6.98229E+00
 -1      3366 1.11513E+01
 -1      3367 1.24648E+01
 -1      3368 3.70332E-01
 -1      3369 3.95764E-01
 -1      3370 2.78160E-01
 -1      3371 2.90651E-01
 -1      3372 2.47638E-01
 -1      3373 2.30046E-01
 -1      3374 2.48215E-01
 -1      3375 2.04624E-01
 -1      3376 1.72712E+00
 -1      3377 1.85406E+00
 -1      3378 3.44766E+00
 -1      3379 2.81124E+00
 -1      3380 2.84324E+00
 -1      3381 4.52669E+00
 -1      3382 6.21553E+00
 -1      3383 5.86749E+00
 -1      3384 7.47515E+00
 -1      3385 2.75449E+00
 -1      3386 3.23750E-01
 -1      3387 2.88986E-01
 -1      3388 3.25277E-01
 -1      3389 3.76339E+00
 -1      3390 2.83586E+00
 -1      3391 1.00587E+01
 -1      3392 1.00016E+00
 -1      3393 1.00016E+00
 -1      3394 5.22783E+00
 -1      3395 3.44814E+00
 -1      3396 4.83452E+00
 -1      3397 8.54591E+00
 -1      3398 1.00185E+01
 -1      3399 7.11309E+00
 -1      3400 4.74549E+00
 -1      3401 5.18848E+00
 -1      3402 1.00660E+01
 -1      3403 9.56474E-01
 -1      3404 9.79853E-01
 -1      3405 1.09705E+00
 -1      3406 3.70473E+00
 -1      3407 4.85817E+00
 -1      3408 4.85817E+00
 -1      3409 8.95954E+00
 -1      3410 1.96333E+00
 -1      3411 2.89941E+00
 -1      3412 6.34911E+00
 -1      3413 6.34551E+00
 -1      3414 5.38622E+00
 -1      3415 5.71766E+00
 -1      3416 3.15269E+00
 -1      3417 2.94382E-01
 -1      3418 2.73110E-01
 -1      3419 2.66906E-01
 -1      3420 3.13738E+00
 -1      3421 3.86460E+00
 -1      3422 2.66935E+00
 -1      3423 2.41467E+00
 -1      3424 3.32683E+00
 -1      3425 1.00016E+00
 -1      3426 9.45849E-01
 -1      3427 1.14657E+00
 -1      3428 3.20354E-01
 -1      3429 3.20354E-01
 -1      3430 2.84062E-01
 -1      3431 2.59456E-01
 -1      3432 7.44553E+00
 -1      3433 1.02625E+01
 -1      3434 7.99163E+00
 -1      3435 4.48165E+00
 -1      3436 3.23500E-01
 -1      3437 3.25378E-01
 -1      3438 6.58827E+00
 -1      3439 5.77093E+00
 -1      3440 4.68140E+00
 -1      3441 5.96022E+00
 -1      3442 1.24628E+01
 -1      3443 1.03498E+01
 -1      3444 8.95748E+00
 -1      3445 3.77024E-01
 -1      3446 4.29879E-01
 -1      3447 5.44261E-01
 -1      3448 4.19439E-01
 -1      3449 3.21386E-01
 -1      3450 3.50820E-01
 -1      3451 2.85057E-01
 -1      3452 7.83629E+00
 -1      3453 5.38284E+00
 -1      3454 5.01479E+00
 -1      3455 2.16867E-01
 -1      3456 2.13707E-01
 -1      3457 2.17394E-01
 -1      3458 2.06289E-01
 -1      3459 1.80241E-01
 -1      3460 2.02275E-01
 -1      3461 1.87653E-01
 -1      3462 1.79915E-01
 -1      3463 1.79178E-01
 -1      3464 1.65555E-01
 -1      3465 1.67427E-01
 -1      3466 1.54739E-01
 -1      3467 1.43256E-01
 -1      3468 1.48136E-01
 -1      3469 1.35090E-01
 -1      3470 1.22547E-01
 -1      3471 1.29154E-01
 -1      3472 1.12946E-01
 -1      3473 1.00097E-01
 -1      3474 1.11388E-01
 -1      3475 8.97283E-02
 -1      3476 7.68332E-02
 -1      3477 9.14181E-02
 -1      3478 6.60115E-02
 -1      3479 5.29744E-02
 -1      3480 7.02279E-02
 -1      3481 5.34503E-02
 -1      3482 5.06658E-02
 -1      3483 5.98822E-02
 -1      3484 5.28567E-02
 -1      3485 6.13883E-02
 -1      3486 6.25490E-02
 -1      3487 7.55573E-02
 -1      3488 9.36168E-02
 -1      3489 7.89089E-02
 -1      3490 1.15245E-01
 -1      3491 1.37530E-01
 -1      3492 1.14706E-01
 -1      3493 1.63188E-01
 -1      3494 1.88753E-01
 -1      3495 1.61992E-01
 -1      3496 2.18784E-01
 -1      3497 2.48310E-01
 -1      3498 2.17681E-01
 -1      3499 2.82631E-01
 -1      3500 3.21382E-01
 -1      3501 2.82034E-01
 -1      3502 3.59147E-01
 -1      3503 4.04436E-01
 -1      3504 3.54121E-01
 -1      3505 4.49424E-01
 -1      3506 5.00480E-01
 -1      3507 4.36874E-01
 -1      3508 5.58350E-01
 -1      3509 6.14848E-01
 -1      3510 5.39732E-01
 -1      3511 7.01550E-01
 -1      3512 7.64247E-01
 -1      3513 6.84303E-01
 -1      3514 8.82982E-01
 -1      3515 9.63046E-01
 -1      3516 8.89740E-01
 -1      3517 1.09593E+00
 -1      3518 1.21283E+00
 -1      3519 1.14136E+00
 -1      3520 1.37944E+00
 -1      3521 1.49304E+00
 -1      3522 1.44085E+00
 -1      3523 1.75533E+00
 -1      3524 1.84676E+00
 -1      3525 1.86974E+00
 -1      3526 2.25094E+00
 -1      3527 2.89764E+00
 -1      3528 2.53620E+00
 -1      3529 3.06050E+00
 -1      3530 2.66935E+00
 -1      3531 3.65976E+00
 -1      3532 2.58994E+00
 -1      3533 2.22489E+00
 -1      3534 1.95828E+00
 -1      3535 1.72813E+00
 -1      3536 2.11679E+00
 -1      3537 2.30635E+00
 -1      3538 2.13957E+00
 -1      3539 1.87965E+00
 -1      3540 2.58212E+00
 -1      3541 1.59288E+00
 -1      3542 1.49255E+00
 -1      3543 2.12856E+00
 -1      3544 1.25208E+00
 -1      3545 1.12734E+00
 -1      3546 1.60132E+00
 -1      3547 9.90883E-01
 -1      3548 8.77079E-01
 -1      3549 1.22439E+00
 -1      3550 3.15905E-01
 -1      3551 3.23500E-01
 -1      3552 2.89049E-01
 -1      3553 6.01663E-02
 -1      3554 7.22177E-02
 -1      3555 8.40105E-02
 -1      3556 9.71310E-02
 -1      3557 7.64014E-02
 -1      3558 5.84247E-02
 -1      3559 4.91291E-02
 -1      3560 9.42059E-02
 -1      3561 7.36636E-02
 -1      3562 7.43428E-02
 -1      3563 1.44215E-01
 -1      3564 1.19365E-01
 -1      3565 1.14741E-01
 -1      3566 2.09569E-01
 -1      3567 1.76183E-01
 -1      3568 1.71869E-01
 -1      3569 2.94861E-01
 -1      3570 2.50218E-01
 -1      3571 2.44486E-01
 -1      3572 4.03170E-01
 -1      3573 3.46667E-01
 -1      3574 3.36941E-01
 -1      3575 5.39762E-01
 -1      3576 4.69220E-01
 -1      3577 4.54797E-01
 -1      3578 7.10077E-01
 -1      3579 6.23980E-01
 -1      3580 6.05065E-01
 -1      3581 9.18798E-01
 -1      3582 8.17495E-01
 -1      3583 7.96702E-01
 -1      3584 1.17785E+00
 -1      3585 1.05566E+00
 -1      3586 1.04098E+00
 -1      3587 1.52363E+00
 -1      3588 1.35074E+00
 -1      3589 1.35074E+00
 -1      3590 2.02068E+00
 -1      3591 1.75237E+00
 -1      3592 1.75237E+00
 -1      3593 2.78939E+00
 -1      3594 2.41090E+00
 -1      3595 2.37133E+00
 -1      3596 4.77294E+00
 -1      3597 3.51249E+00
 -1      3598 3.48464E+00
 -1      3599 5.88755E+00
 -1      3600 3.04341E+00
 -1      3601 1.96333E+00
 -1      3602 1.84360E+00
 -1      3603 2.11371E+00
 -1      3604 4.05378E+00
 -1      3605 4.57129E+00
 -1      3606 1.18494E+00
 -1      3607 1.39242E+00
 -1      3608 1.85846E+00
 -1      3609 1.12626E+00
 -1      3610 8.58229E+00
 -1      3611 8.57499E+00
 -1      3612 3.76982E+00
 -1      3613 8.58229E+00
 -1      3614 8.58229E+00
 -1      3615 7.14231E+00
 -1      3616 7.14231E+00
 -1      3617 1.19458E+00
 -1      3618 1.25602E+00
 -1      3619 2.05034E-01
 -1      3620 1.92836E-01
 -1      3621 6.13957E+00
 -1      3622 6.74976E+00
 -1      3623 3.94385E+00
 -1      3624 7.14231E+00
 -1      3625 7.14024E+00
 -1      3626 5.32507E+00
 -1      3627 2.21158E+00
 -1      3628 3.08609E+00
 -1      3629 3.47390E+00
 -1      3630 4.83430E+00
 -1      3631 3.28203E+00
 -1      3632 6.20333E+00
 -1      3633 5.80651E+00
 -1      3634 7.03856E+00
 -1      3635 5.91944E+00
 -1      3636 4.58512E+00
 -1      3637 2.49538E-01
 -1      3638 2.58906E-01
 -1      3639 8.53862E-01
 -1      3640 7.83085E-01
 -1      3641 8.82746E-01
 -1      3642 1.05458E+00
 -1      3643 1.91183E-01
 -1      3644 2.02053E-01
 -1      3645 1.61740E-01
 -1      3646 6.74976E+00
 -1      3647 7.18686E+00
 -1      3648 5.41418E+00
 -1      3649 4.65958E-02
 -1      3650 5.48807E-02
 -1      3651 5.93230E-02
 -1      3652 5.65707E-02
 -1      3653 1.57267E-01
 -1      3654 1.70908E-01
 -1      3655 2.39352E-01
 -1      3656 2.21754E-01
 -1      3657 1.90010E-01
 -1      3658 6.10320E+00
 -1      3659 5.94077E+00
 -1      3660 4.82598E+00
 -1      3661 1.33543E-01
 -1      3662 1.47746E-01
 -1      3663 1.42373E-01
 -1      3664 3.10324E+00
 -1      3665 1.82918E-01
 -1      3666 1.97619E-01
 -1      3667 1.63903E-01
 -1      3668 2.53317E-01
 -1      3669 2.53317E-01
 -1      3670 2.36024E+00
 -1      3671 1.07086E+00
 -1      3672 1.16879E+00
 -1      3673 1.39811E+00
 -1      3674 2.53400E-01
 -1      3675 2.53400E-01
 -1      3676 2.85619E-01
 -1      3677 6.80866E-01
 -1      3678 5.59587E-01
 -1      3679 5.55357E-01
 -1      3680 8.91718E-01
 -1      3681 5.91550E+00
 -1      3682 6.99247E+00
 -1      3683 5.46421E+00
 -1      3684 3.92819E+00
 -1      3685 9.96650E-02
 -1      3686 1.08602E-01
 -1      3687 1.22685E-01
 -1      3688 7.11309E+00
 -1      3689 6.18927E+00
 -1      3690 5.62408E+00
 -1      3691 1.78821E+00
 -1      3692 1.80851E+00
 -1      3693 7.04042E+00
 -1      3694 2.46719E-01
 -1      3695 2.42727E-01
 -1      3696 2.11070E-01
 -1      3697 5.29668E+00
 -1      3698 3.68583E+00
 -1      3699 4.65210E+00
 -1      3700 3.50556E+00
 -1      3701 7.07208E+00
 -1      3702 5.25484E+00
 -1      3703 5.29939E+00
 -1      3704 9.62592E-01
 -1      3705 2.12242E-01
 -1      3706 1.90495E-01
 -1      3707 2.10178E-01
 -1      3708 2.07135E-01
 -1      3709 1.48578E-01
 -1      3710 7.09858E+00
 -1      3711 3.21844E+00
 -1      3712 2.97860E+00
 -1      3713 7.35299E+00
 -1      3714 5.84751E+00
 -1      3715 5.87659E+00
 -1      3716 7.05121E+00
 -1      3717 5.56751E+00
 -1      3718 4.97685E+00
 -1      3719 2.38017E-01
 -1      3720 1.77930E+00
 -1      3721 1.78821E+00
 -1      3722 2.47046E+00
 -1      3723 1.94718E+00
 -1      3724 1.18494E+00
 -1      3725 1.51741E+00
 -1      3726 1.51741E+00
 -1      3727 2.17935E+00
 -1      3728 2.53317E-01
 -1      3729 2.49919E-01
 -1      3730 2.17648E-01
 -1      3731 5.22339E+00
 -1      3732 2.50416E-01
 -1      3733 2.10442E-01
 -1      3734 2.34014E-01
 -1      3735 2.07261E+00
 -1      3736 6.84409E-01
 -1      3737 2.70450E-01
 -1      3738 9.07955E-01
 -1      3739 8.96859E-01
 -1      3740 9.44900E-01
 -1      3741 1.10417E+00
 -1      3742 4.51581E+00
 -1      3743 1.88980E-01
 -1      3744 1.57012E-01
 -1      3745 2.46498E-01
 -1      3746 2.10829E-01
 -1      3747 2.41574E-01
 -1      3748 6.82781E-02
 -1      3749 8.00709E-02
 -1      3750 1.60290E-01
 -1      3751 1.56276E-01
 -1      3752 1.55591E-01
 -1      3753 1.47117E-01
 -1      3754 1.35966E-01
 -1      3755 1.42093E-01
 -1      3756 1.31276E-01
 -1      3757 1.30257E-01
 -1      3758 1.23690E-01
 -1      3759 1.15525E-01
 -1      3760 1.17647E-01
 -1      3761 1.08684E-01
 -1      3762 9.90829E-02
 -1      3763 1.03220E-01
 -1      3764 9.18195E-02
 -1      3765 8.14510E-02
 -1      3766 8.91159E-02
 -1      3767 7.57735E-02
 -1      3768 6.49518E-02
 -1      3769 7.61749E-02
 -1      3770 6.60690E-02
 -1      3771 6.65449E-02
 -1      3772 7.16146E-02
 -1      3773 6.91438E-02
 -1      3774 7.13347E-02
 -1      3775 7.53307E-02
 -1      3776 7.64436E-02
 -1      3777 9.06125E-02
 -1      3778 8.30383E-02
 -1      3779 1.07576E-01
 -1      3780 1.29205E-01
 -1      3781 1.05111E-01
 -1      3782 1.52770E-01
 -1      3783 1.78427E-01
 -1      3784 1.45640E-01
 -1      3785 2.07292E-01
 -1      3786 2.37323E-01
 -1      3787 1.98070E-01
 -1      3788 2.72438E-01
 -1      3789 3.06760E-01
 -1      3790 2.62049E-01
 -1      3791 3.49026E-01
 -1      3792 3.86791E-01
 -1      3793 3.39429E-01
 -1      3794 4.36874E-01
 -1      3795 4.81862E-01
 -1      3796 4.31779E-01
 -1      3797 5.39732E-01
 -1      3798 5.97602E-01
 -1      3799 5.39732E-01
 -1      3800 6.71889E-01
 -1      3801 7.58591E-01
 -1      3802 6.71889E-01
 -1      3803 8.71609E-01
 -1      3804 9.90344E-01
 -1      3805 8.59195E-01
 -1      3806 1.17792E+00
 -1      3807 1.31080E+00
 -1      3808 1.15979E+00
 -1      3809 1.59145E+00
 -1      3810 1.75806E+00
 -1      3811 1.62801E+00
 -1      3812 2.04534E+00
 -1      3813 2.30762E+00
 -1      3814 2.19594E+00
 -1      3815 2.35945E+00
 -1      3816 2.76363E+00
 -1      3817 2.53505E+00
 -1      3818 3.03602E+00
 -1      3819 2.86924E+00
 -1      3820 2.15648E-01
 -1      3821 2.49970E-01
 -1      3822 2.53400E-01
 -1      3823 2.17751E-01
 -1      3824 2.17700E-01
 -1      3825 2.41534E+00
 -1      3826 2.12856E+00
 -1      3827 2.86924E+00
 -1      3828 1.98387E+00
 -1      3829 1.74340E+00
 -1      3830 2.27064E+00
 -1      3831 1.66775E+00
 -1      3832 1.53129E+00
 -1      3833 2.05030E+00
 -1      3834 3.76533E+00
 -1      3835 1.30543E-01
 -1      3836 1.05383E-01
 -1      3837 1.47655E-01
 -1      3838 8.61116E-02
 -1      3839 7.08727E-02
 -1      3840 1.01913E-01
 -1      3841 2.63130E-01
 -1      3842 2.22481E-01
 -1      3843 2.07624E-01
 -1      3844 3.57582E-01
 -1      3845 3.05776E-01
 -1      3846 2.83771E-01
 -1      3847 4.78332E-01
 -1      3848 4.12282E-01
 -1      3849 3.81117E-01
 -1      3850 6.33594E-01
 -1      3851 5.49376E-01
 -1      3852 5.06861E-01
 -1      3853 8.35242E-01
 -1      3854 7.27823E-01
 -1      3855 6.72134E-01
 -1      3856 1.10116E+00
 -1      3857 9.64296E-01
 -1      3858 8.95417E-01
 -1      3859 1.45775E+00
 -1      3860 1.28486E+00
 -1      3861 1.20817E+00
 -1      3862 1.96139E+00
 -1      3863 1.73265E+00
 -1      3864 1.66677E+00
 -1      3865 2.74496E+00
 -1      3866 2.35474E+00
 -1      3867 2.33502E+00
 -1      3868 4.83430E+00
 -1      3869 1.77587E+00
 -1      3870 2.22705E+00
 -1      3871 1.27692E+00
 -1      3872 5.44773E+00
 -1      3873 5.44773E+00
 -1      3874 4.50922E+00
 -1      3875 4.50922E+00
 -1      3876 4.31807E+00
 -1      3877 1.20577E-01
 -1      3878 1.35391E-01
 -1      3879 4.15849E+00
 -1      3880 3.62190E+00
 -1      3881 4.43117E+00
 -1      3882 4.71704E+00
 -1      3883 4.61536E+00
 -1      3884 3.65214E+00
 -1      3885 3.90119E+00
 -1      3886 2.08544E-01
 -1      3887 2.27236E-01
 -1      3888 2.04542E-01
 -1      3889 1.50792E-01
 -1      3890 1.54480E-01
 -1      3891 1.09630E-01
 -1      3892 1.77310E-01
 -1      3893 1.21994E-01
 -1      3894 1.73904E-01
 -1      3895 1.80723E-01
 -1      3896 1.75657E-01
 -1      3897 1.45659E-01
 -1      3898 1.57668E-01
 -1      3899 6.63564E-02
 -1      3900 7.00259E-02
 -1      3901 6.10709E-02
 -1      3902 1.72613E-01
 -1      3903 3.02078E+00
 -1      3904 3.84572E+00
 -1      3905 1.64777E+00
 -1      3906 1.86838E-01
 -1      3907 1.24636E+00
 -1      3908 4.78730E+00
 -1      3909 5.24036E+00
 -1      3910 4.29994E+00
 -1      3911 8.91227E-02
 -1      3912 1.00594E-01
 -1      3913 8.09994E-02
 -1      3914 4.25442E+00
 -1      3915 4.83430E+00
 -1      3916 4.71951E+00
 -1      3917 3.28203E+00
 -1      3918 3.90106E+00
 -1      3919 3.17796E+00
 -1      3920 1.54752E+00
 -1      3921 1.80162E-01
 -1      3922 1.73481E-01
 -1      3923 4.50922E+00
 -1      3924 3.69338E+00
 -1      3925 4.43899E+00
 -1      3926 4.12449E+00
 -1      3927 1.55836E-01
 -1      3928 5.42197E+00
 -1      3929 4.19997E+00
 -1      3930 3.66987E+00
 -1      3931 3.77111E+00
 -1      3932 1.82173E+00
 -1      3933 2.34501E+00
 -1      3934 1.85662E-01
 -1      3935 1.85662E-01
 -1      3936 1.48072E-01
 -1      3937 5.44773E+00
 -1      3938 3.79688E+00
 -1      3939 3.91665E+00
 -1      3940 3.23193E+00
 -1      3941 3.08192E+00
 -1      3942 3.08192E+00
 -1      3943 3.16138E+00
 -1      3944 1.27170E-01
 -1      3945 1.36692E-01
 -1      3946 1.30457E-01
 -1      3947 2.80531E+00
 -1      3948 1.30841E-01
 -1      3949 1.48659E-01
 -1      3950 1.85584E-01
 -1      3951 1.85584E-01
 -1      3952 1.67348E+00
 -1      3953 1.69927E+00
 -1      3954 2.09711E+00
 -1      3955 1.63096E-01
 -1      3956 1.43542E-01
 -1      3957 4.83676E+00
 -1      3958 5.71585E+00
 -1      3959 4.81150E+00
 -1      3960 6.61685E-02
 -1      3961 6.36352E-02
 -1      3962 7.06687E-02
 -1      3963 1.77426E-01
 -1      3964 1.76548E-01
 -1      3965 1.30080E-01
 -1      3966 3.19944E+00
 -1      3967 3.33183E+00
 -1      3968 2.72037E+00
 -1      3969 2.42926E+00
 -1      3970 7.79373E-02
 -1      3971 1.60319E-01
 -1      3972 1.30213E-01
 -1      3973 1.44749E-01
 -1      3974 2.98820E+00
 -1      3975 2.59823E+00
 -1      3976 2.45354E+00
 -1      3977 3.44506E+00
 -1      3978 2.84403E+00
 -1      3979 1.08898E-01
 -1      3980 1.19756E-01
 -1      3981 1.14074E-01
 -1      3982 9.83554E-02
 -1      3983 2.01635E+00
 -1      3984 1.19226E-01
 -1      3985 1.14201E-01
 -1      3986 1.11099E-01
 -1      3987 1.03512E-01
 -1      3988 1.00067E-01
 -1      3989 9.81989E-02
 -1      3990 9.13586E-02
 -1      3991 9.16511E-02
 -1      3992 8.61730E-02
 -1      3993 7.89095E-02
 -1      3994 8.11522E-02
 -1      3995 7.98337E-02
 -1      3996 7.41562E-02
 -1      3997 7.68908E-02
 -1      3998 7.50145E-02
 -1      3999 7.61317E-02
 -1      4000 7.86733E-02
 -1      4001 7.86412E-02
 -1      4002 8.12400E-02
 -1      4003 8.20411E-02
 -1      4004 8.57965E-02
 -1      4005 9.09053E-02
 -1      4006 8.91070E-02
 -1      4007 1.00334E-01
 -1      4008 1.17298E-01
 -1      4009 1.03092E-01
 -1      4010 1.30422E-01
 -1      4011 1.53987E-01
 -1      4012 1.25644E-01
 -1      4013 1.78697E-01
 -1      4014 2.07561E-01
 -1      4015 1.63478E-01
 -1      4016 2.39158E-01
 -1      4017 2.74272E-01
 -1      4018 2.19785E-01
 -1      4019 3.14776E-01
 -1      4020 3.57042E-01
 -1      4021 2.91885E-01
 -1      4022 4.09169E-01
 -1      4023 4.59252E-01
 -1      4024 3.84515E-01
 -1      4025 5.26660E-01
 -1      4026 5.84530E-01
 -1      4027 5.04050E-01
 -1      4028 6.71889E-01
 -1      4029 7.46177E-01
 -1      4030 6.58817E-01
 -1      4031 8.59195E-01
 -1      4032 9.72213E-01
 -1      4033 8.59195E-01
 -1      4034 1.11793E+00
 -1      4035 1.30550E+00
 -1      4036 1.11793E+00
 -1      4037 1.60803E+00
 -1      4038 1.88868E+00
 -1      4039 1.56617E+00
 -1      4040 2.28253E+00
 -1      4041 2.56981E+00
 -1      4042 2.26256E+00
 -1      4043 1.04258E-01
 -1      4044 1.17843E-01
 -1      4045 1.17711E-01
 -1      4046 1.85611E-01
 -1      4047 1.85662E-01
 -1      4048 1.53547E-01
 -1      4049 1.19272E-01
 -1      4050 1.18588E-01
 -1      4051 1.02532E-01
 -1      4052 1.54833E-01
 -1      4053 1.28364E-01
 -1      4054 2.12994E-01
 -1      4055 1.79493E-01
 -1      4056 1.60202E-01
 -1      4057 1.12461E-01
 -1      4058 9.31890E-02
 -1      4059 1.19639E-01
 -1      4060 3.80563E-01
 -1      4061 3.25863E-01
 -1      4062 5.01885E-01
 -1      4063 4.30841E-01
 -1      4064 3.75587E-01
 -1      4065 6.62218E-01
 -1      4066 5.67989E-01
 -1      4067 4.91968E-01
 -1      4068 8.81883E-01
 -1      4069 7.52829E-01
 -1      4070 6.48684E-01
 -1      4071 1.19812E+00
 -1      4072 1.01442E+00
 -1      4073 8.71832E-01
 -1      4074 1.69177E+00
 -1      4075 1.41687E+00
 -1      4076 1.22312E+00
 -1      4077 2.26354E+00
 -1      4078 1.87019E+00
 -1      4079 1.62029E+00
 -1      4080 4.07744E+00
 -1      4081 1.67348E+00
 -1      4082 1.87233E-01
 -1      4083 1.74992E-01
 -1      4084 1.81771E-01
 -1      4085 1.47876E-01
 -1      4086 8.49734E-02
 -1      4087 8.02691E-02
 -1      4088 9.55209E-02
 -1      4089 2.84996E+00
 -1      4090 2.41696E+00
 -1      4091 1.95213E+00
 -1      4092 2.92545E+00
 -1      4093 1.18400E-01
 -1      4094 1.64107E-01
 -1      4095 1.75033E-01
 -1      4096 1.45863E-01
 -1      4097 1.08407E-01
 -1      4098 1.14217E-01
 -1      4099 9.68387E-02
 -1      4100 1.19997E-01
 -1      4101 9.58254E-02
 -1      4102 1.11226E-01
 -1      4103 1.25497E-01
 -1      4104 2.86644E-01
 -1      4105 2.43998E-01
 -1      4106 2.15867E-01
 -1      4107 3.61235E+00
 -1      4108 1.97464E+00
 -1      4109 2.55737E+00
 -1      4110 4.08143E+00
 -1      4111 1.52262E-01
 -1      4112 7.16416E-02
 -1      4113 7.35633E-02
 -1      4114 2.86090E-01
 -1      4115 3.63412E+00
 -1      4116 3.54753E+00
 -1      4117 3.59936E+00
 -1      4118 9.46027E-02
 -1      4119 4.19055E+00
 -1      4120 3.92704E+00
 -1      4121 3.80727E+00
 -1      4122 7.18792E-02
 -1      4123 8.09310E-02
 -1      4124 7.34949E-02
 -1      4125 2.05030E+00
 -1      4126 1.97464E+00
 -1      4127 1.97464E+00
 -1      4128 1.15188E-01
 -1      4129 1.24155E-01
 -1      4130 2.99441E+00
 -1      4131 2.99441E+00
 -1      4132 1.22705E-01
 -1      4133 2.92005E+00
 -1      4134 2.89429E+00
 -1      4135 2.07439E+00
 -1      4136 2.92005E+00
 -1      4137 1.53573E-01
 -1      4138 3.85650E+00
 -1      4139 1.13969E-01
 -1      4140 1.29238E-01
 -1      4141 1.35677E-01
 -1      4142 3.17691E+00
 -1      4143 3.38472E+00
 -1      4144 2.72078E+00
 -1      4145 2.47795E+00
 -1      4146 2.37788E+00
 -1      4147 7.62525E-02
 -1      4148 7.36881E-02
 -1      4149 7.72254E-02
 -1      4150 8.32886E-02
 -1      4151 8.73052E-02
 -1      4152 8.32886E-02
 -1      4153 2.98718E-01
 -1      4154 2.59499E-01
 -1      4155 9.12552E-02
 -1      4156 8.59419E-02
 -1      4157 8.20525E-02
 -1      4158 7.68669E-02
 -1      4159 8.16567E-02
 -1      4160 8.95828E-02
 -1      4161 9.05070E-02
 -1      4162 9.04831E-02
 -1      4163 7.86733E-02
 -1      4164 7.95316E-02
 -1      4165 9.13653E-02
 -1      4166 8.20411E-02
 -1      4167 8.45505E-02
 -1      4168 8.20411E-02
 -1      4169 8.91070E-02
 -1      4170 9.36635E-02
 -1      4171 8.91070E-02
 -1      4172 1.03092E-01
 -1      4173 1.12521E-01
 -1      4174 1.03092E-01
 -1      4175 1.27292E-01
 -1      4176 1.40416E-01
 -1      4177 1.27292E-01
 -1      4178 1.63658E-01
 -1      4179 1.88368E-01
 -1      4180 1.65306E-01
 -1      4181 2.20051E-01
 -1      4182 2.51648E-01
 -1      4183 2.20231E-01
 -1      4184 2.95140E-01
 -1      4185 3.35643E-01
 -1      4186 2.95406E-01
 -1      4187 3.96209E-01
 -1      4188 4.48335E-01
 -1      4189 3.99463E-01
 -1      4190 5.34527E-01
 -1      4191 6.01936E-01
 -1      4192 5.46221E-01
 -1      4193 7.28237E-01
 -1      4194 8.15596E-01
 -1      4195 7.58715E-01
 -1      4196 1.00770E+00
 -1      4197 1.12072E+00
 -1      4198 1.07712E+00
 -1      4199 1.43000E+00
 -1      4200 1.57572E+00
 -1      4201 1.57851E+00
 -1      4202 1.97708E+00
 -1      4203 2.27961E+00
 -1      4204 2.28916E+00
 -1      4205 2.84318E+00
 -1      4206 3.23703E+00
 -1      4207 3.25409E+00
 -1      4208 1.19259E-01
 -1      4209 9.34379E-02
 -1      4210 1.23604E-01
 -1      4211 1.27906E-01
 -1      4212 1.27932E-01
 -1      4213 4.78730E+00
 -1      4214 4.56345E+00
 -1      4215 2.95647E+00
 -1      4216 2.25751E+00
 -1      4217 7.92719E-02
 -1      4218 7.72254E-02
 -1      4219 8.32886E-02
 -1      4220 6.85854E-01
 -1      4221 5.95243E-01
 -1      4222 1.74670E-01
 -1      4223 1.50010E-01
 -1      4224 1.32510E-01
 -1      4225 1.16608E-01
 -1      4226 1.46978E-01
 -1      4227 5.09051E-01
 -1      4228 4.42947E-01
 -1      4229 5.46221E-01
 -1      4230 3.89044E-01
 -1      4231 3.38766E-01
 -1      4232 3.12174E-01
 -1      4233 4.06126E-01
 -1      4234 9.44692E-01
 -1      4235 8.12156E-01
 -1      4236 7.58715E-01
 -1      4237 1.35555E+00
 -1      4238 1.13680E+00
 -1      4239 1.07712E+00
 -1      4240 1.84325E+00
 -1      4241 1.66483E+00
 -1      4242 1.57851E+00
 -1      4243 1.08873E-01
 -1      4244 1.02572E-01
 -1      4245 1.01458E-01
 -1      4246 2.31754E+00
 -1      4247 1.27932E-01
 -1      4248 1.27932E-01
 -1      4249 1.02290E-01
 -1      4250 9.70896E-02
 -1      4251 2.28940E-01
 -1      4252 1.97936E-01
 -1      4253 1.87743E-01
 -1      4254 1.03737E-01
 -1      4255 9.55209E-02
 -1      4256 9.55209E-02
 -1      4257 2.13505E+00
 -1      4258 9.51485E-02
 -1      4259 9.20458E-02
 -1      4260 8.63367E-02
 -1      4261 9.98559E-02
 -1      4262 1.35677E-01
 -1      4263 1.35637E-01
 -1      4264 1.07020E-01
 -1      4265 1.19052E-01
 -1      4266 9.83530E-02
 -1      4267 9.89910E-02
 -1      4268 9.09698E-02
 -1      4269 7.91365E-02
 -1      4270 8.41914E-02
 -1      4271 8.06508E-02
 -1      4272 9.70370E-02
 -1      4273 2.41568E-01
 -1      4274 9.49867E-02
 -1      4275 9.34379E-02
 -1      4276 9.86384E-02
 -1      4277 1.07020E-01
 -1      4278 8.70081E-02
 -1      4279 9.53123E-02
 -1      4280 9.01109E-02
 -1      4281 2.31754E+00
 -1      4282 8.43896E-02
 -1      4283 3.90570E+00
 -1      4284 3.90570E+00
 -1      4285 3.53280E+00
 -1      4286 9.12354E-02
 -1      4287 8.91890E-02
 -1      4288 8.75049E-02
 -1      4289 2.40373E+00
 -1      4290 2.25032E+00
 -1      4291 2.29486E+00
 -1      4292 1.16608E-01
 -1      4293 9.16921E-02
 -1      4294 9.80067E-02
 -1      4295 3.80727E+00
 -1      4296 2.93044E+00
 -1      4297 3.81766E+00
 -1      4298 7.78879E-02
 -1      4299 9.09698E-02
 -1      4300 1.01849E-01
 -1      4301 1.06932E-01
 -1      4302 4.58764E+00
 -1      4303 2.62020E-01
 -1      4304 2.31461E-01
 -1      4305 3.53280E+00
 -1      4306 2.95218E+00
 -1      4307 9.04831E-02
 -1      4308 1.03199E-01
 -1      4309 1.03199E-01
 -1      4310 9.13653E-02
 -1      4311 7.94017E-02
 -1      4312 8.19112E-02
 -1      4313 8.59279E-02
 -1      4314 9.04844E-02
 -1      4315 9.87000E-02
 -1      4316 1.08129E-01
 -1      4317 1.21000E-01
 -1      4318 1.35771E-01
 -1      4319 1.53271E-01
 -1      4320 1.76513E-01
 -1      4321 1.99779E-01
 -1      4322 3.05512E-01
 -1      4323 3.45560E-01
 -1      4324 4.06126E-01
 -1      4325 4.60029E-01
 -1      4326 5.46221E-01
 -1      4327 6.32413E-01
 -1      4328 7.58715E-01
 -1      4329 8.85016E-01
 -1      4330 1.07712E+00
 -1      4331 1.26922E+00
 -1      4332 1.57851E+00
 -1      4333 1.88779E+00
 -1      4334 2.28916E+00
 -1      4335 2.69622E+00
 -1      4336 3.25979E+00
 -1      4337 9.27708E-02
 -1      4338 1.06932E-01
 -1      4339 9.09015E-02
 -1      4340 8.63367E-02
 -1      4341 8.47555E-02
 -1      4342 8.42614E-02
 -1      4343 6.63609E-02
 -1      4344 9.26426E-02
 -1      4345 8.42614E-02
 -1      4346 8.66953E-02
 -1      4347 9.27724E-02
 -1      4348 9.35630E-02
 -1      4349 1.02389E-01
 -1      4350 2.37258E+00
 -1      4351 8.71273E-02
 -1      4352 8.63367E-02
 -1      4353 9.48123E-02
 -1      4354 9.09698E-02
 -1      4355 8.55461E-02
 -1      4356 8.16567E-02
 -1      4357 3.60993E+00
 -1      4358 8.06097E-02
 -1      4359 1.06932E-01
 -1      4360 3.81766E+00
 -1      4361 3.25979E+00
 -1      4362 3.81766E+00
 -1      4363 1.19052E-01
 -1      4364 1.19052E-01
 -1      4365 1.03199E-01
 -1      4366 9.43725E-02
 -1      4367 1.07020E-01
 -1      4368 1.02389E-01
 -3
 9999
