    1C
    1UUSER                                                              
    1UDATE              27.october.2022                                 
    1UTIME              01:11:40                                        
    1UHOST                                                              
    1UPGM               CalculiX                                        
    1UVERSION           Version 2.17                             
    1UCOMPILETIME       Thu Jul 23 21:43:50 CEST 2020                    
    1UDIR                                                               
    1UDBN                                                               
    1UMAT    1SOLIDMATERIAL                                             
    2C                          4405                                     1
 -1         1 2.59199E+01 2.27270E+01 0.00000E+00
 -1         2 3.05630E+01 1.61357E+01 0.00000E+00
 -1         3 1.50000E+02 0.00000E+00 0.00000E+00
 -1         4 1.50000E+02 5.00000E+01 0.00000E+00
 -1         5 0.00000E+00 0.00000E+00 0.00000E+00
 -1         6 0.00000E+00 5.00000E+01 0.00000E+00
 -1         7 0.00000E+00 4.70500E+01 0.00000E+00
 -1         8 0.00000E+00 4.41000E+01 0.00000E+00
 -1         9 0.00000E+00 4.11500E+01 0.00000E+00
 -1        10 0.00000E+00 3.82000E+01 0.00000E+00
 -1        11 0.00000E+00 3.52500E+01 0.00000E+00
 -1        12 0.00000E+00 3.23500E+01 0.00000E+00
 -1        13 0.00000E+00 2.94000E+01 0.00000E+00
 -1        14 0.00000E+00 2.64500E+01 0.00000E+00
 -1        15 0.00000E+00 2.35000E+01 0.00000E+00
 -1        16 0.00000E+00 2.05500E+01 0.00000E+00
 -1        17 0.00000E+00 1.76000E+01 0.00000E+00
 -1        18 0.00000E+00 1.47000E+01 0.00000E+00
 -1        19 0.00000E+00 1.17500E+01 0.00000E+00
 -1        20 0.00000E+00 8.80000E+00 0.00000E+00
 -1        21 0.00000E+00 5.85000E+00 0.00000E+00
 -1        22 0.00000E+00 2.90000E+00 0.00000E+00
 -1        23 3.15000E+00 5.00000E+01 0.00000E+00
 -1        24 6.15000E+00 5.00000E+01 0.00000E+00
 -1        25 9.15000E+00 5.00000E+01 0.00000E+00
 -1        26 1.21500E+01 5.00000E+01 0.00000E+00
 -1        27 1.51500E+01 5.00000E+01 0.00000E+00
 -1        28 1.81500E+01 5.00000E+01 0.00000E+00
 -1        29 2.11500E+01 5.00000E+01 0.00000E+00
 -1        30 2.41500E+01 5.00000E+01 0.00000E+00
 -1        31 2.71500E+01 5.00000E+01 0.00000E+00
 -1        32 3.01500E+01 5.00000E+01 0.00000E+00
 -1        33 3.31500E+01 5.00000E+01 0.00000E+00
 -1        34 3.61500E+01 5.00000E+01 0.00000E+00
 -1        35 3.91500E+01 5.00000E+01 0.00000E+00
 -1        36 4.21500E+01 5.00000E+01 0.00000E+00
 -1        37 4.51500E+01 5.00000E+01 0.00000E+00
 -1        38 4.81500E+01 5.00000E+01 0.00000E+00
 -1        39 5.11500E+01 5.00000E+01 0.00000E+00
 -1        40 5.41500E+01 5.00000E+01 0.00000E+00
 -1        41 5.71500E+01 5.00000E+01 0.00000E+00
 -1        42 6.01500E+01 5.00000E+01 0.00000E+00
 -1        43 6.31500E+01 5.00000E+01 0.00000E+00
 -1        44 6.61500E+01 5.00000E+01 0.00000E+00
 -1        45 6.91500E+01 5.00000E+01 0.00000E+00
 -1        46 7.21500E+01 5.00000E+01 0.00000E+00
 -1        47 7.51500E+01 5.00000E+01 0.00000E+00
 -1        48 7.81500E+01 5.00000E+01 0.00000E+00
 -1        49 8.11500E+01 5.00000E+01 0.00000E+00
 -1        50 8.41500E+01 5.00000E+01 0.00000E+00
 -1        51 8.71500E+01 5.00000E+01 0.00000E+00
 -1        52 9.01500E+01 5.00000E+01 0.00000E+00
 -1        53 9.31500E+01 5.00000E+01 0.00000E+00
 -1        54 9.61500E+01 5.00000E+01 0.00000E+00
 -1        55 9.91500E+01 5.00000E+01 0.00000E+00
 -1        56 1.02150E+02 5.00000E+01 0.00000E+00
 -1        57 1.05150E+02 5.00000E+01 0.00000E+00
 -1        58 1.08150E+02 5.00000E+01 0.00000E+00
 -1        59 1.11150E+02 5.00000E+01 0.00000E+00
 -1        60 1.14150E+02 5.00000E+01 0.00000E+00
 -1        61 1.17150E+02 5.00000E+01 0.00000E+00
 -1        62 1.20150E+02 5.00000E+01 0.00000E+00
 -1        63 1.23150E+02 5.00000E+01 0.00000E+00
 -1        64 1.26150E+02 5.00000E+01 0.00000E+00
 -1        65 1.29150E+02 5.00000E+01 0.00000E+00
 -1        66 1.32150E+02 5.00000E+01 0.00000E+00
 -1        67 1.35150E+02 5.00000E+01 0.00000E+00
 -1        68 1.38150E+02 5.00000E+01 0.00000E+00
 -1        69 1.41150E+02 5.00000E+01 0.00000E+00
 -1        70 1.44150E+02 5.00000E+01 0.00000E+00
 -1        71 1.47150E+02 5.00000E+01 0.00000E+00
 -1        72 3.15000E+00 0.00000E+00 0.00000E+00
 -1        73 6.15000E+00 0.00000E+00 0.00000E+00
 -1        74 9.15000E+00 0.00000E+00 0.00000E+00
 -1        75 1.21500E+01 0.00000E+00 0.00000E+00
 -1        76 1.51500E+01 0.00000E+00 0.00000E+00
 -1        77 1.81500E+01 0.00000E+00 0.00000E+00
 -1        78 2.11500E+01 0.00000E+00 0.00000E+00
 -1        79 2.41500E+01 0.00000E+00 0.00000E+00
 -1        80 2.68500E+01 0.00000E+00 0.00000E+00
 -1        81 2.97000E+01 0.00000E+00 0.00000E+00
 -1        82 3.27000E+01 0.00000E+00 0.00000E+00
 -1        83 3.57000E+01 0.00000E+00 0.00000E+00
 -1        84 3.87000E+01 0.00000E+00 0.00000E+00
 -1        85 4.17000E+01 0.00000E+00 0.00000E+00
 -1        86 4.47000E+01 0.00000E+00 0.00000E+00
 -1        87 4.77000E+01 0.00000E+00 0.00000E+00
 -1        88 5.07000E+01 0.00000E+00 0.00000E+00
 -1        89 5.37000E+01 0.00000E+00 0.00000E+00
 -1        90 5.67000E+01 0.00000E+00 0.00000E+00
 -1        91 5.97000E+01 0.00000E+00 0.00000E+00
 -1        92 6.27000E+01 0.00000E+00 0.00000E+00
 -1        93 6.57000E+01 0.00000E+00 0.00000E+00
 -1        94 6.88500E+01 0.00000E+00 0.00000E+00
 -1        95 7.18500E+01 0.00000E+00 0.00000E+00
 -1        96 7.48500E+01 0.00000E+00 0.00000E+00
 -1        97 7.78500E+01 0.00000E+00 0.00000E+00
 -1        98 8.08500E+01 0.00000E+00 0.00000E+00
 -1        99 8.38500E+01 0.00000E+00 0.00000E+00
 -1       100 8.68500E+01 0.00000E+00 0.00000E+00
 -1       101 8.98500E+01 0.00000E+00 0.00000E+00
 -1       102 9.28500E+01 0.00000E+00 0.00000E+00
 -1       103 9.58500E+01 0.00000E+00 0.00000E+00
 -1       104 9.88500E+01 0.00000E+00 0.00000E+00
 -1       105 1.01850E+02 0.00000E+00 0.00000E+00
 -1       106 1.04850E+02 0.00000E+00 0.00000E+00
 -1       107 1.07850E+02 0.00000E+00 0.00000E+00
 -1       108 1.11000E+02 0.00000E+00 0.00000E+00
 -1       109 1.14000E+02 0.00000E+00 0.00000E+00
 -1       110 1.17000E+02 0.00000E+00 0.00000E+00
 -1       111 1.20000E+02 0.00000E+00 0.00000E+00
 -1       112 1.23000E+02 0.00000E+00 0.00000E+00
 -1       113 1.26000E+02 0.00000E+00 0.00000E+00
 -1       114 1.29000E+02 0.00000E+00 0.00000E+00
 -1       115 1.32000E+02 0.00000E+00 0.00000E+00
 -1       116 1.35000E+02 0.00000E+00 0.00000E+00
 -1       117 1.38000E+02 0.00000E+00 0.00000E+00
 -1       118 1.41000E+02 0.00000E+00 0.00000E+00
 -1       119 1.44000E+02 0.00000E+00 0.00000E+00
 -1       120 1.47000E+02 0.00000E+00 0.00000E+00
 -1       121 1.50000E+02 2.95000E+00 0.00000E+00
 -1       122 1.50000E+02 5.90000E+00 0.00000E+00
 -1       123 1.50000E+02 8.85000E+00 0.00000E+00
 -1       124 1.50000E+02 1.18000E+01 0.00000E+00
 -1       125 1.50000E+02 1.47500E+01 0.00000E+00
 -1       126 1.50000E+02 1.76500E+01 0.00000E+00
 -1       127 1.50000E+02 2.06000E+01 0.00000E+00
 -1       128 1.50000E+02 2.35500E+01 0.00000E+00
 -1       129 1.50000E+02 2.65000E+01 0.00000E+00
 -1       130 1.50000E+02 2.94500E+01 0.00000E+00
 -1       131 1.50000E+02 3.24000E+01 0.00000E+00
 -1       132 1.50000E+02 3.53000E+01 0.00000E+00
 -1       133 1.50000E+02 3.82500E+01 0.00000E+00
 -1       134 1.50000E+02 4.12000E+01 0.00000E+00
 -1       135 1.50000E+02 4.41500E+01 0.00000E+00
 -1       136 1.50000E+02 4.71000E+01 0.00000E+00
 -1       137 3.04065E+01 1.46639E+01 0.00000E+00
 -1       138 2.99303E+01 1.32275E+01 0.00000E+00
 -1       139 2.91743E+01 1.19508E+01 0.00000E+00
 -1       140 2.78984E+01 1.06399E+01 0.00000E+00
 -1       141 2.66643E+01 9.86026E+00 0.00000E+00
 -1       142 2.53146E+01 9.35843E+00 0.00000E+00
 -1       143 2.36954E+01 9.13698E+00 0.00000E+00
 -1       144 2.22255E+01 9.26468E+00 0.00000E+00
 -1       145 2.07181E+01 9.73990E+00 0.00000E+00
 -1       146 1.94673E+01 1.04590E+01 0.00000E+00
 -1       147 1.83858E+01 1.14244E+01 0.00000E+00
 -1       148 1.74427E+01 1.27383E+01 0.00000E+00
 -1       149 1.68326E+01 1.42115E+01 0.00000E+00
 -1       150 1.65781E+01 1.56762E+01 0.00000E+00
 -1       151 1.66371E+01 1.71515E+01 0.00000E+00
 -1       152 1.70572E+01 1.87193E+01 0.00000E+00
 -1       153 1.77744E+01 2.00718E+01 0.00000E+00
 -1       154 1.87880E+01 2.12543E+01 0.00000E+00
 -1       155 1.99490E+01 2.21307E+01 0.00000E+00
 -1       156 2.14089E+01 2.27961E+01 0.00000E+00
 -1       157 2.29122E+01 2.31054E+01 0.00000E+00
 -1       158 2.44349E+01 2.30812E+01 0.00000E+00
 -1       159 2.72001E+01 2.21166E+01 0.00000E+00
 -1       160 2.84089E+01 2.11871E+01 0.00000E+00
 -1       161 2.93159E+01 2.01237E+01 0.00000E+00
 -1       162 3.00275E+01 1.88209E+01 0.00000E+00
 -1       163 3.04288E+01 1.74996E+01 0.00000E+00
 -1       164 2.59800E+00 4.55750E+01 0.00000E+00
 -1       165 2.59800E+00 4.26250E+01 0.00000E+00
 -1       166 2.59800E+00 3.96750E+01 0.00000E+00
 -1       167 2.59800E+00 3.67250E+01 0.00000E+00
 -1       168 2.59800E+00 3.38250E+01 0.00000E+00
 -1       169 2.59800E+00 3.08750E+01 0.00000E+00
 -1       170 2.59800E+00 2.79250E+01 0.00000E+00
 -1       171 2.59800E+00 2.49750E+01 0.00000E+00
 -1       172 2.59800E+00 2.20250E+01 0.00000E+00
 -1       173 2.59800E+00 1.90750E+01 0.00000E+00
 -1       174 2.59800E+00 1.61750E+01 0.00000E+00
 -1       175 2.59800E+00 1.32250E+01 0.00000E+00
 -1       176 2.59800E+00 1.02750E+01 0.00000E+00
 -1       177 2.59800E+00 7.32500E+00 0.00000E+00
 -1       178 2.59800E+00 4.37500E+00 0.00000E+00
 -1       179 2.87400E+00 2.18750E+00 0.00000E+00
 -1       180 4.65000E+00 4.74020E+01 0.00000E+00
 -1       181 7.65000E+00 4.74020E+01 0.00000E+00
 -1       182 1.06500E+01 4.74020E+01 0.00000E+00
 -1       183 1.36500E+01 4.74020E+01 0.00000E+00
 -1       184 1.66500E+01 4.74020E+01 0.00000E+00
 -1       185 1.96500E+01 4.74020E+01 0.00000E+00
 -1       186 2.26500E+01 4.74020E+01 0.00000E+00
 -1       187 2.56500E+01 4.74020E+01 0.00000E+00
 -1       188 2.86500E+01 4.74020E+01 0.00000E+00
 -1       189 3.16500E+01 4.74020E+01 0.00000E+00
 -1       190 3.46500E+01 4.74020E+01 0.00000E+00
 -1       191 3.76500E+01 4.74020E+01 0.00000E+00
 -1       192 4.06500E+01 4.74020E+01 0.00000E+00
 -1       193 4.36500E+01 4.74020E+01 0.00000E+00
 -1       194 4.66500E+01 4.74020E+01 0.00000E+00
 -1       195 4.96500E+01 4.74020E+01 0.00000E+00
 -1       196 5.26500E+01 4.74020E+01 0.00000E+00
 -1       197 5.56500E+01 4.74020E+01 0.00000E+00
 -1       198 5.86500E+01 4.74020E+01 0.00000E+00
 -1       199 6.16500E+01 4.74020E+01 0.00000E+00
 -1       200 6.46500E+01 4.74020E+01 0.00000E+00
 -1       201 6.76500E+01 4.74020E+01 0.00000E+00
 -1       202 7.06500E+01 4.74020E+01 0.00000E+00
 -1       203 7.36500E+01 4.74020E+01 0.00000E+00
 -1       204 7.66500E+01 4.74020E+01 0.00000E+00
 -1       205 7.96500E+01 4.74020E+01 0.00000E+00
 -1       206 8.26500E+01 4.74020E+01 0.00000E+00
 -1       207 8.56500E+01 4.74020E+01 0.00000E+00
 -1       208 8.86500E+01 4.74020E+01 0.00000E+00
 -1       209 9.16500E+01 4.74020E+01 0.00000E+00
 -1       210 9.46500E+01 4.74020E+01 0.00000E+00
 -1       211 9.76500E+01 4.74020E+01 0.00000E+00
 -1       212 1.00650E+02 4.74020E+01 0.00000E+00
 -1       213 1.03650E+02 4.74020E+01 0.00000E+00
 -1       214 1.06650E+02 4.74020E+01 0.00000E+00
 -1       215 1.09650E+02 4.74020E+01 0.00000E+00
 -1       216 1.12650E+02 4.74020E+01 0.00000E+00
 -1       217 1.15650E+02 4.74020E+01 0.00000E+00
 -1       218 1.18650E+02 4.74020E+01 0.00000E+00
 -1       219 1.21650E+02 4.74020E+01 0.00000E+00
 -1       220 1.24650E+02 4.74020E+01 0.00000E+00
 -1       221 1.27650E+02 4.74020E+01 0.00000E+00
 -1       222 1.30650E+02 4.74020E+01 0.00000E+00
 -1       223 1.33650E+02 4.74020E+01 0.00000E+00
 -1       224 1.36650E+02 4.74020E+01 0.00000E+00
 -1       225 1.39650E+02 4.74020E+01 0.00000E+00
 -1       226 1.42650E+02 4.74020E+01 0.00000E+00
 -1       227 1.45650E+02 4.74020E+01 0.00000E+00
 -1       228 5.87400E+00 2.18750E+00 0.00000E+00
 -1       229 8.87400E+00 2.18750E+00 0.00000E+00
 -1       230 1.18740E+01 2.18750E+00 0.00000E+00
 -1       231 1.48740E+01 2.18750E+00 0.00000E+00
 -1       232 1.78740E+01 2.18750E+00 0.00000E+00
 -1       233 2.08740E+01 2.18750E+00 0.00000E+00
 -1       234 2.38740E+01 2.18750E+00 0.00000E+00
 -1       235 2.65740E+01 2.18750E+00 0.00000E+00
 -1       236 2.94240E+01 2.18750E+00 0.00000E+00
 -1       237 3.24240E+01 2.18750E+00 0.00000E+00
 -1       238 3.54240E+01 2.18750E+00 0.00000E+00
 -1       239 3.84240E+01 2.18750E+00 0.00000E+00
 -1       240 4.14240E+01 2.18750E+00 0.00000E+00
 -1       241 4.44240E+01 2.18750E+00 0.00000E+00
 -1       242 4.74240E+01 2.18750E+00 0.00000E+00
 -1       243 5.04240E+01 2.18750E+00 0.00000E+00
 -1       244 5.34240E+01 2.18750E+00 0.00000E+00
 -1       245 5.64240E+01 2.18750E+00 0.00000E+00
 -1       246 5.94240E+01 2.18750E+00 0.00000E+00
 -1       247 6.24240E+01 2.18750E+00 0.00000E+00
 -1       248 6.54240E+01 2.18750E+00 0.00000E+00
 -1       249 6.85740E+01 2.18750E+00 0.00000E+00
 -1       250 7.15740E+01 2.18750E+00 0.00000E+00
 -1       251 7.45740E+01 2.18750E+00 0.00000E+00
 -1       252 7.75740E+01 2.18750E+00 0.00000E+00
 -1       253 8.05740E+01 2.18750E+00 0.00000E+00
 -1       254 8.35740E+01 2.18750E+00 0.00000E+00
 -1       255 8.65740E+01 2.18750E+00 0.00000E+00
 -1       256 8.95740E+01 2.18750E+00 0.00000E+00
 -1       257 9.25740E+01 2.18750E+00 0.00000E+00
 -1       258 9.55740E+01 2.18750E+00 0.00000E+00
 -1       259 9.85740E+01 2.18750E+00 0.00000E+00
 -1       260 1.01574E+02 2.18750E+00 0.00000E+00
 -1       261 1.04574E+02 2.18750E+00 0.00000E+00
 -1       262 1.07574E+02 2.18750E+00 0.00000E+00
 -1       263 1.10724E+02 2.18750E+00 0.00000E+00
 -1       264 1.13724E+02 2.18750E+00 0.00000E+00
 -1       265 1.16724E+02 2.18750E+00 0.00000E+00
 -1       266 1.19724E+02 2.18750E+00 0.00000E+00
 -1       267 1.22724E+02 2.18750E+00 0.00000E+00
 -1       268 1.25724E+02 2.18750E+00 0.00000E+00
 -1       269 1.28724E+02 2.18750E+00 0.00000E+00
 -1       270 1.31724E+02 2.18750E+00 0.00000E+00
 -1       271 1.34724E+02 2.18750E+00 0.00000E+00
 -1       272 1.37724E+02 2.18750E+00 0.00000E+00
 -1       273 1.40724E+02 2.18750E+00 0.00000E+00
 -1       274 1.43724E+02 2.18750E+00 0.00000E+00
 -1       275 1.46724E+02 2.18750E+00 0.00000E+00
 -1       276 1.47402E+02 4.42500E+00 0.00000E+00
 -1       277 1.47402E+02 7.37500E+00 0.00000E+00
 -1       278 1.47402E+02 1.03250E+01 0.00000E+00
 -1       279 1.47402E+02 1.32750E+01 0.00000E+00
 -1       280 1.47402E+02 1.61750E+01 0.00000E+00
 -1       281 1.47402E+02 1.91250E+01 0.00000E+00
 -1       282 1.47402E+02 2.20750E+01 0.00000E+00
 -1       283 1.47402E+02 2.50250E+01 0.00000E+00
 -1       284 1.47402E+02 2.79750E+01 0.00000E+00
 -1       285 1.47402E+02 3.09250E+01 0.00000E+00
 -1       286 1.47402E+02 3.38250E+01 0.00000E+00
 -1       287 1.47402E+02 3.67750E+01 0.00000E+00
 -1       288 1.47402E+02 3.97250E+01 0.00000E+00
 -1       289 1.47402E+02 4.26750E+01 0.00000E+00
 -1       290 1.46526E+02 4.50385E+01 0.00000E+00
 -1       291 3.17736E+01 1.52628E+01 0.00000E+00
 -1       292 3.14782E+01 1.35114E+01 0.00000E+00
 -1       293 3.05955E+01 1.19714E+01 0.00000E+00
 -1       294 2.97654E+01 1.00991E+01 0.00000E+00
 -1       295 2.79289E+01 9.22508E+00 0.00000E+00
 -1       296 2.64120E+01 8.47295E+00 0.00000E+00
 -1       297 2.47147E+01 7.71444E+00 0.00000E+00
 -1       298 2.28483E+01 7.90951E+00 0.00000E+00
 -1       299 2.10569E+01 8.18617E+00 0.00000E+00
 -1       300 1.94884E+01 9.04838E+00 0.00000E+00
 -1       301 1.81191E+01 1.00372E+01 0.00000E+00
 -1       302 1.67931E+01 1.12767E+01 0.00000E+00
 -1       303 1.57079E+01 1.28828E+01 0.00000E+00
 -1       304 1.54283E+01 1.47219E+01 0.00000E+00
 -1       305 1.52287E+01 1.64690E+01 0.00000E+00
 -1       306 1.55142E+01 1.82926E+01 0.00000E+00
 -1       307 1.63447E+01 1.99636E+01 0.00000E+00
 -1       308 1.72335E+01 2.15612E+01 0.00000E+00
 -1       309 1.85876E+01 2.27270E+01 0.00000E+00
 -1       310 2.01066E+01 2.37191E+01 0.00000E+00
 -1       311 2.19162E+01 2.41383E+01 0.00000E+00
 -1       312 2.36928E+01 2.43056E+01 0.00000E+00
 -1       313 2.54976E+01 2.42464E+01 0.00000E+00
 -1       314 2.70818E+01 2.35162E+01 0.00000E+00
 -1       315 2.86457E+01 2.27458E+01 0.00000E+00
 -1       316 2.97849E+01 2.14422E+01 0.00000E+00
 -1       317 3.08827E+01 2.01338E+01 0.00000E+00
 -1       318 3.13882E+01 1.85126E+01 0.00000E+00
 -1       319 3.17025E+01 1.69363E+01 0.00000E+00
 -1       320 5.19600E+00 4.11500E+01 0.00000E+00
 -1       321 5.19600E+00 4.41000E+01 0.00000E+00
 -1       322 5.19600E+00 3.52750E+01 0.00000E+00
 -1       323 5.19600E+00 3.23250E+01 0.00000E+00
 -1       324 5.19600E+00 2.93750E+01 0.00000E+00
 -1       325 5.19600E+00 2.64250E+01 0.00000E+00
 -1       326 5.19600E+00 2.34750E+01 0.00000E+00
 -1       327 5.19600E+00 2.05250E+01 0.00000E+00
 -1       328 5.19600E+00 1.76250E+01 0.00000E+00
 -1       329 5.19600E+00 1.46750E+01 0.00000E+00
 -1       330 5.19600E+00 1.17250E+01 0.00000E+00
 -1       331 5.19600E+00 8.77500E+00 0.00000E+00
 -1       332 5.19600E+00 5.82500E+00 0.00000E+00
 -1       333 5.53500E+00 4.00625E+00 0.00000E+00
 -1       334 8.53500E+00 4.00625E+00 0.00000E+00
 -1       335 9.15000E+00 4.48040E+01 0.00000E+00
 -1       336 1.21500E+01 4.48040E+01 0.00000E+00
 -1       337 1.51500E+01 4.48040E+01 0.00000E+00
 -1       338 1.81500E+01 4.48040E+01 0.00000E+00
 -1       339 2.11500E+01 4.48040E+01 0.00000E+00
 -1       340 2.41500E+01 4.48040E+01 0.00000E+00
 -1       341 2.71500E+01 4.48040E+01 0.00000E+00
 -1       342 3.01500E+01 4.48040E+01 0.00000E+00
 -1       343 3.31500E+01 4.48040E+01 0.00000E+00
 -1       344 3.61500E+01 4.48040E+01 0.00000E+00
 -1       345 3.91500E+01 4.48040E+01 0.00000E+00
 -1       346 4.21500E+01 4.48040E+01 0.00000E+00
 -1       347 4.51500E+01 4.48040E+01 0.00000E+00
 -1       348 4.81500E+01 4.48040E+01 0.00000E+00
 -1       349 5.11500E+01 4.48040E+01 0.00000E+00
 -1       350 5.41500E+01 4.48040E+01 0.00000E+00
 -1       351 5.71500E+01 4.48040E+01 0.00000E+00
 -1       352 6.01500E+01 4.48040E+01 0.00000E+00
 -1       353 6.31500E+01 4.48040E+01 0.00000E+00
 -1       354 6.61500E+01 4.48040E+01 0.00000E+00
 -1       355 6.91500E+01 4.48040E+01 0.00000E+00
 -1       356 7.21500E+01 4.48040E+01 0.00000E+00
 -1       357 7.51500E+01 4.48040E+01 0.00000E+00
 -1       358 7.81500E+01 4.48040E+01 0.00000E+00
 -1       359 8.11500E+01 4.48040E+01 0.00000E+00
 -1       360 8.41500E+01 4.48040E+01 0.00000E+00
 -1       361 8.71500E+01 4.48040E+01 0.00000E+00
 -1       362 9.01500E+01 4.48040E+01 0.00000E+00
 -1       363 9.31500E+01 4.48040E+01 0.00000E+00
 -1       364 9.61500E+01 4.48040E+01 0.00000E+00
 -1       365 9.91500E+01 4.48040E+01 0.00000E+00
 -1       366 1.02150E+02 4.48040E+01 0.00000E+00
 -1       367 1.05150E+02 4.48040E+01 0.00000E+00
 -1       368 1.08150E+02 4.48040E+01 0.00000E+00
 -1       369 1.11150E+02 4.48040E+01 0.00000E+00
 -1       370 1.14150E+02 4.48040E+01 0.00000E+00
 -1       371 1.17150E+02 4.48040E+01 0.00000E+00
 -1       372 1.20150E+02 4.48040E+01 0.00000E+00
 -1       373 1.23150E+02 4.48040E+01 0.00000E+00
 -1       374 1.26150E+02 4.48040E+01 0.00000E+00
 -1       375 1.29150E+02 4.48040E+01 0.00000E+00
 -1       376 1.32150E+02 4.48040E+01 0.00000E+00
 -1       377 1.35150E+02 4.48040E+01 0.00000E+00
 -1       378 1.38150E+02 4.48040E+01 0.00000E+00
 -1       379 1.41150E+02 4.48040E+01 0.00000E+00
 -1       380 1.43838E+02 4.49212E+01 0.00000E+00
 -1       381 1.15350E+01 4.00625E+00 0.00000E+00
 -1       382 1.45350E+01 4.00625E+00 0.00000E+00
 -1       383 1.75350E+01 4.00625E+00 0.00000E+00
 -1       384 2.05350E+01 4.00625E+00 0.00000E+00
 -1       385 2.35350E+01 4.00625E+00 0.00000E+00
 -1       386 2.62350E+01 4.00625E+00 0.00000E+00
 -1       387 2.90850E+01 4.00625E+00 0.00000E+00
 -1       388 3.20850E+01 4.00625E+00 0.00000E+00
 -1       389 3.50850E+01 4.00625E+00 0.00000E+00
 -1       390 3.80850E+01 4.00625E+00 0.00000E+00
 -1       391 4.10850E+01 4.00625E+00 0.00000E+00
 -1       392 4.40850E+01 4.00625E+00 0.00000E+00
 -1       393 4.70850E+01 4.00625E+00 0.00000E+00
 -1       394 5.00850E+01 4.00625E+00 0.00000E+00
 -1       395 5.30850E+01 4.00625E+00 0.00000E+00
 -1       396 5.60850E+01 4.00625E+00 0.00000E+00
 -1       397 5.90850E+01 4.00625E+00 0.00000E+00
 -1       398 6.20850E+01 4.00625E+00 0.00000E+00
 -1       399 6.50850E+01 4.00625E+00 0.00000E+00
 -1       400 6.82350E+01 4.00625E+00 0.00000E+00
 -1       401 7.12350E+01 4.00625E+00 0.00000E+00
 -1       402 7.42350E+01 4.00625E+00 0.00000E+00
 -1       403 7.72350E+01 4.00625E+00 0.00000E+00
 -1       404 8.02350E+01 4.00625E+00 0.00000E+00
 -1       405 8.32350E+01 4.00625E+00 0.00000E+00
 -1       406 8.62350E+01 4.00625E+00 0.00000E+00
 -1       407 8.92350E+01 4.00625E+00 0.00000E+00
 -1       408 9.22350E+01 4.00625E+00 0.00000E+00
 -1       409 9.52350E+01 4.00625E+00 0.00000E+00
 -1       410 9.82350E+01 4.00625E+00 0.00000E+00
 -1       411 1.01235E+02 4.00625E+00 0.00000E+00
 -1       412 1.04235E+02 4.00625E+00 0.00000E+00
 -1       413 1.07235E+02 4.00625E+00 0.00000E+00
 -1       414 1.10385E+02 4.00625E+00 0.00000E+00
 -1       415 1.13385E+02 4.00625E+00 0.00000E+00
 -1       416 1.16385E+02 4.00625E+00 0.00000E+00
 -1       417 1.19385E+02 4.00625E+00 0.00000E+00
 -1       418 1.22385E+02 4.00625E+00 0.00000E+00
 -1       419 1.25385E+02 4.00625E+00 0.00000E+00
 -1       420 1.28385E+02 4.00625E+00 0.00000E+00
 -1       421 1.31385E+02 4.00625E+00 0.00000E+00
 -1       422 1.34385E+02 4.00625E+00 0.00000E+00
 -1       423 1.37385E+02 4.00625E+00 0.00000E+00
 -1       424 1.40385E+02 4.00625E+00 0.00000E+00
 -1       425 1.43385E+02 4.00625E+00 0.00000E+00
 -1       426 1.45393E+02 4.21562E+00 0.00000E+00
 -1       427 1.44804E+02 1.18000E+01 0.00000E+00
 -1       428 1.44804E+02 8.85000E+00 0.00000E+00
 -1       429 1.45099E+02 6.53281E+00 0.00000E+00
 -1       430 1.44804E+02 1.47000E+01 0.00000E+00
 -1       431 1.44804E+02 1.76500E+01 0.00000E+00
 -1       432 1.44804E+02 2.06000E+01 0.00000E+00
 -1       433 1.44804E+02 2.35500E+01 0.00000E+00
 -1       434 1.44804E+02 2.65000E+01 0.00000E+00
 -1       435 1.44804E+02 2.94500E+01 0.00000E+00
 -1       436 1.44804E+02 3.23500E+01 0.00000E+00
 -1       437 1.44804E+02 3.53000E+01 0.00000E+00
 -1       438 1.44804E+02 3.82500E+01 0.00000E+00
 -1       439 1.44804E+02 4.12000E+01 0.00000E+00
 -1       440 3.21614E+01 1.20968E+01 0.00000E+00
 -1       441 3.30331E+01 1.61546E+01 0.00000E+00
 -1       442 3.33172E+01 1.41018E+01 0.00000E+00
 -1       443 3.13313E+01 1.02245E+01 0.00000E+00
 -1       444 2.95122E+01 8.26475E+00 0.00000E+00
 -1       445 5.19600E+00 3.82125E+01 0.00000E+00
 -1       446 2.60922E+01 6.91031E+00 0.00000E+00
 -1       447 2.36293E+01 6.35615E+00 0.00000E+00
 -1       448 2.17292E+01 6.60123E+00 0.00000E+00
 -1       449 1.94868E+01 7.18769E+00 0.00000E+00
 -1       450 1.81175E+01 8.17656E+00 0.00000E+00
 -1       451 1.65138E+01 9.64885E+00 0.00000E+00
 -1       452 1.49683E+01 1.12133E+01 0.00000E+00
 -1       453 1.42038E+01 1.35950E+01 0.00000E+00
 -1       454 1.39575E+01 1.54388E+01 0.00000E+00
 -1       455 1.40909E+01 1.75813E+01 0.00000E+00
 -1       456 1.45436E+01 1.98169E+01 0.00000E+00
 -1       457 1.54324E+01 2.14145E+01 0.00000E+00
 -1       458 1.70102E+01 2.31899E+01 0.00000E+00
 -1       459 1.85468E+01 2.44486E+01 0.00000E+00
 -1       460 2.07000E+01 2.52730E+01 0.00000E+00
 -1       461 2.26437E+01 2.59295E+01 0.00000E+00
 -1       462 2.44485E+01 2.58703E+01 0.00000E+00
 -1       463 2.68323E+01 2.50585E+01 0.00000E+00
 -1       464 2.84365E+01 2.42938E+01 0.00000E+00
 -1       465 3.03806E+01 2.31123E+01 0.00000E+00
 -1       466 3.14785E+01 2.18040E+01 0.00000E+00
 -1       467 3.24529E+01 1.97340E+01 0.00000E+00
 -1       468 3.29808E+01 1.80107E+01 0.00000E+00
 -1       469 2.79953E+01 7.51262E+00 0.00000E+00
 -1       470 3.10781E+01 8.39017E+00 0.00000E+00
 -1       471 2.57832E+01 2.66824E+01 0.00000E+00
 -1       472 1.34642E+01 1.19255E+01 0.00000E+00
 -1       473 1.00350E+01 6.60425E+00 0.00000E+00
 -1       474 7.79400E+00 3.08500E+01 0.00000E+00
 -1       475 7.79400E+00 3.38000E+01 0.00000E+00
 -1       476 7.79400E+00 2.49500E+01 0.00000E+00
 -1       477 7.79400E+00 2.20000E+01 0.00000E+00
 -1       478 7.79400E+00 1.91000E+01 0.00000E+00
 -1       479 7.79400E+00 1.61500E+01 0.00000E+00
 -1       480 7.79400E+00 1.32000E+01 0.00000E+00
 -1       481 7.79400E+00 1.02500E+01 0.00000E+00
 -1       482 1.30350E+01 6.60425E+00 0.00000E+00
 -1       483 1.06500E+01 4.22060E+01 0.00000E+00
 -1       484 2.75613E+01 5.57629E+00 0.00000E+00
 -1       485 1.36500E+01 4.22060E+01 0.00000E+00
 -1       486 1.66500E+01 4.22060E+01 0.00000E+00
 -1       487 1.96500E+01 4.22060E+01 0.00000E+00
 -1       488 2.26500E+01 4.22060E+01 0.00000E+00
 -1       489 2.56500E+01 4.22060E+01 0.00000E+00
 -1       490 2.86500E+01 4.22060E+01 0.00000E+00
 -1       491 3.16500E+01 4.22060E+01 0.00000E+00
 -1       492 3.46500E+01 4.22060E+01 0.00000E+00
 -1       493 3.76500E+01 4.22060E+01 0.00000E+00
 -1       494 4.06500E+01 4.22060E+01 0.00000E+00
 -1       495 4.36500E+01 4.22060E+01 0.00000E+00
 -1       496 4.66500E+01 4.22060E+01 0.00000E+00
 -1       497 4.96500E+01 4.22060E+01 0.00000E+00
 -1       498 5.26500E+01 4.22060E+01 0.00000E+00
 -1       499 5.56500E+01 4.22060E+01 0.00000E+00
 -1       500 5.86500E+01 4.22060E+01 0.00000E+00
 -1       501 6.16500E+01 4.22060E+01 0.00000E+00
 -1       502 6.46500E+01 4.22060E+01 0.00000E+00
 -1       503 6.76500E+01 4.22060E+01 0.00000E+00
 -1       504 7.06500E+01 4.22060E+01 0.00000E+00
 -1       505 7.36500E+01 4.22060E+01 0.00000E+00
 -1       506 7.66500E+01 4.22060E+01 0.00000E+00
 -1       507 7.96500E+01 4.22060E+01 0.00000E+00
 -1       508 8.26500E+01 4.22060E+01 0.00000E+00
 -1       509 8.56500E+01 4.22060E+01 0.00000E+00
 -1       510 8.86500E+01 4.22060E+01 0.00000E+00
 -1       511 9.16500E+01 4.22060E+01 0.00000E+00
 -1       512 9.46500E+01 4.22060E+01 0.00000E+00
 -1       513 9.76500E+01 4.22060E+01 0.00000E+00
 -1       514 1.00650E+02 4.22060E+01 0.00000E+00
 -1       515 1.03650E+02 4.22060E+01 0.00000E+00
 -1       516 1.06650E+02 4.22060E+01 0.00000E+00
 -1       517 1.09650E+02 4.22060E+01 0.00000E+00
 -1       518 1.12650E+02 4.22060E+01 0.00000E+00
 -1       519 1.15650E+02 4.22060E+01 0.00000E+00
 -1       520 1.18650E+02 4.22060E+01 0.00000E+00
 -1       521 1.21650E+02 4.22060E+01 0.00000E+00
 -1       522 1.24650E+02 4.22060E+01 0.00000E+00
 -1       523 1.27650E+02 4.22060E+01 0.00000E+00
 -1       524 1.30650E+02 4.22060E+01 0.00000E+00
 -1       525 1.33650E+02 4.22060E+01 0.00000E+00
 -1       526 1.36650E+02 4.22060E+01 0.00000E+00
 -1       527 1.39650E+02 4.22060E+01 0.00000E+00
 -1       528 3.05850E+01 6.05650E+00 0.00000E+00
 -1       529 3.35850E+01 6.22407E+00 0.00000E+00
 -1       530 3.65850E+01 6.22407E+00 0.00000E+00
 -1       531 3.95850E+01 6.22407E+00 0.00000E+00
 -1       532 4.25850E+01 6.22407E+00 0.00000E+00
 -1       533 4.55850E+01 6.22407E+00 0.00000E+00
 -1       534 4.85850E+01 6.22407E+00 0.00000E+00
 -1       535 5.15850E+01 6.22407E+00 0.00000E+00
 -1       536 5.45850E+01 6.22407E+00 0.00000E+00
 -1       537 5.75850E+01 6.22407E+00 0.00000E+00
 -1       538 6.05850E+01 6.22407E+00 0.00000E+00
 -1       539 6.35850E+01 6.22407E+00 0.00000E+00
 -1       540 6.67350E+01 6.22407E+00 0.00000E+00
 -1       541 6.97350E+01 6.22407E+00 0.00000E+00
 -1       542 7.27350E+01 6.22407E+00 0.00000E+00
 -1       543 7.57350E+01 6.22407E+00 0.00000E+00
 -1       544 7.87350E+01 6.22407E+00 0.00000E+00
 -1       545 8.17350E+01 6.22407E+00 0.00000E+00
 -1       546 8.47350E+01 6.22407E+00 0.00000E+00
 -1       547 8.77350E+01 6.22407E+00 0.00000E+00
 -1       548 9.07350E+01 6.22407E+00 0.00000E+00
 -1       549 9.37350E+01 6.22407E+00 0.00000E+00
 -1       550 9.67350E+01 6.22407E+00 0.00000E+00
 -1       551 9.97350E+01 6.22407E+00 0.00000E+00
 -1       552 1.02735E+02 6.22407E+00 0.00000E+00
 -1       553 1.05735E+02 6.22407E+00 0.00000E+00
 -1       554 1.08885E+02 6.22407E+00 0.00000E+00
 -1       555 1.11885E+02 6.22407E+00 0.00000E+00
 -1       556 1.14885E+02 6.22407E+00 0.00000E+00
 -1       557 1.17885E+02 6.22407E+00 0.00000E+00
 -1       558 1.20885E+02 6.22407E+00 0.00000E+00
 -1       559 1.23885E+02 6.22407E+00 0.00000E+00
 -1       560 1.26885E+02 6.22407E+00 0.00000E+00
 -1       561 1.29885E+02 6.22407E+00 0.00000E+00
 -1       562 1.32885E+02 6.22407E+00 0.00000E+00
 -1       563 1.35885E+02 6.22407E+00 0.00000E+00
 -1       564 1.38885E+02 6.22407E+00 0.00000E+00
 -1       565 1.41885E+02 6.22407E+00 0.00000E+00
 -1       566 1.42206E+02 1.61750E+01 0.00000E+00
 -1       567 1.42206E+02 1.91250E+01 0.00000E+00
 -1       568 1.42206E+02 1.03250E+01 0.00000E+00
 -1       569 1.42206E+02 1.32500E+01 0.00000E+00
 -1       570 1.42206E+02 2.20750E+01 0.00000E+00
 -1       571 1.42206E+02 2.50250E+01 0.00000E+00
 -1       572 1.42206E+02 2.79750E+01 0.00000E+00
 -1       573 1.42206E+02 3.08750E+01 0.00000E+00
 -1       574 1.42206E+02 3.38250E+01 0.00000E+00
 -1       575 1.42206E+02 3.67750E+01 0.00000E+00
 -1       576 1.42206E+02 3.97250E+01 0.00000E+00
 -1       577 3.47080E+01 1.53404E+01 0.00000E+00
 -1       578 3.41526E+01 1.22846E+01 0.00000E+00
 -1       579 3.46558E+01 1.71964E+01 0.00000E+00
 -1       580 3.33225E+01 1.04124E+01 0.00000E+00
 -1       581 7.92300E+00 4.16780E+01 0.00000E+00
 -1       582 3.32900E+01 2.13924E+01 0.00000E+00
 -1       583 3.02123E+01 2.50255E+01 0.00000E+00
 -1       584 2.10695E+01 2.73850E+01 0.00000E+00
 -1       585 1.28005E+01 1.90063E+01 0.00000E+00
 -1       586 7.79400E+00 2.79000E+01 0.00000E+00
 -1       587 1.46401E+01 9.34349E+00 0.00000E+00
 -1       588 2.52005E+01 5.12343E+00 0.00000E+00
 -1       589 1.67447E+01 2.50812E+01 0.00000E+00
 -1       590 1.62691E+01 7.77271E+00 0.00000E+00
 -1       591 1.23806E+01 1.42898E+01 0.00000E+00
 -1       592 1.25140E+01 1.64323E+01 0.00000E+00
 -1       593 1.34892E+01 2.14495E+01 0.00000E+00
 -1       594 2.82642E+01 2.59974E+01 0.00000E+00
 -1       595 1.49393E+01 2.34415E+01 0.00000E+00
 -1       596 1.89162E+01 2.65605E+01 0.00000E+00
 -1       597 2.36023E+01 2.76141E+01 0.00000E+00
 -1       598 3.43567E+01 1.93747E+01 0.00000E+00
 -1       599 3.21150E+01 2.34529E+01 0.00000E+00
 -1       600 7.61550E+00 6.21462E+00 0.00000E+00
 -1       601 7.79400E+00 3.67375E+01 0.00000E+00
 -1       602 1.55606E+01 6.33040E+00 0.00000E+00
 -1       603 1.42046E+02 8.27454E+00 0.00000E+00
 -1       604 1.41678E+02 4.22645E+01 0.00000E+00
 -1       605 3.55435E+01 1.35232E+01 0.00000E+00
 -1       606 3.30693E+01 8.57798E+00 0.00000E+00
 -1       607 1.75415E+01 6.38091E+00 0.00000E+00
 -1       608 1.31360E+01 1.00557E+01 0.00000E+00
 -1       609 1.01794E+01 2.05500E+01 0.00000E+00
 -1       610 1.01794E+01 2.35000E+01 0.00000E+00
 -1       611 9.84425E+00 1.46750E+01 0.00000E+00
 -1       612 1.03470E+01 1.17250E+01 0.00000E+00
 -1       613 1.15350E+01 8.82207E+00 0.00000E+00
 -1       614 1.40178E+02 3.96665E+01 0.00000E+00
 -1       615 3.54878E+01 2.12635E+01 0.00000E+00
 -1       616 2.21511E+01 2.95414E+01 0.00000E+00
 -1       617 3.53055E+01 1.06534E+01 0.00000E+00
 -1       618 1.51500E+01 3.96080E+01 0.00000E+00
 -1       619 1.81500E+01 3.96080E+01 0.00000E+00
 -1       620 2.11500E+01 3.96080E+01 0.00000E+00
 -1       621 2.41500E+01 3.96080E+01 0.00000E+00
 -1       622 2.71500E+01 3.96080E+01 0.00000E+00
 -1       623 3.01500E+01 3.96080E+01 0.00000E+00
 -1       624 3.31500E+01 3.96080E+01 0.00000E+00
 -1       625 3.61500E+01 3.96080E+01 0.00000E+00
 -1       626 3.91500E+01 3.96080E+01 0.00000E+00
 -1       627 4.21500E+01 3.96080E+01 0.00000E+00
 -1       628 4.51500E+01 3.96080E+01 0.00000E+00
 -1       629 4.81500E+01 3.96080E+01 0.00000E+00
 -1       630 5.11500E+01 3.96080E+01 0.00000E+00
 -1       631 5.41500E+01 3.96080E+01 0.00000E+00
 -1       632 5.71500E+01 3.96080E+01 0.00000E+00
 -1       633 6.01500E+01 3.96080E+01 0.00000E+00
 -1       634 6.31500E+01 3.96080E+01 0.00000E+00
 -1       635 6.61500E+01 3.96080E+01 0.00000E+00
 -1       636 6.91500E+01 3.96080E+01 0.00000E+00
 -1       637 7.21500E+01 3.96080E+01 0.00000E+00
 -1       638 7.51500E+01 3.96080E+01 0.00000E+00
 -1       639 7.81500E+01 3.96080E+01 0.00000E+00
 -1       640 8.11500E+01 3.96080E+01 0.00000E+00
 -1       641 8.41500E+01 3.96080E+01 0.00000E+00
 -1       642 8.71500E+01 3.96080E+01 0.00000E+00
 -1       643 9.01500E+01 3.96080E+01 0.00000E+00
 -1       644 9.31500E+01 3.96080E+01 0.00000E+00
 -1       645 9.61500E+01 3.96080E+01 0.00000E+00
 -1       646 9.91500E+01 3.96080E+01 0.00000E+00
 -1       647 1.02150E+02 3.96080E+01 0.00000E+00
 -1       648 1.05150E+02 3.96080E+01 0.00000E+00
 -1       649 1.08150E+02 3.96080E+01 0.00000E+00
 -1       650 1.11150E+02 3.96080E+01 0.00000E+00
 -1       651 1.14150E+02 3.96080E+01 0.00000E+00
 -1       652 1.17150E+02 3.96080E+01 0.00000E+00
 -1       653 1.20150E+02 3.96080E+01 0.00000E+00
 -1       654 1.23150E+02 3.96080E+01 0.00000E+00
 -1       655 1.26150E+02 3.96080E+01 0.00000E+00
 -1       656 1.29150E+02 3.96080E+01 0.00000E+00
 -1       657 1.32150E+02 3.96080E+01 0.00000E+00
 -1       658 1.35150E+02 3.96080E+01 0.00000E+00
 -1       659 1.37664E+02 3.96372E+01 0.00000E+00
 -1       660 1.93796E+01 2.85745E+01 0.00000E+00
 -1       661 3.50850E+01 8.44190E+00 0.00000E+00
 -1       662 4.40850E+01 8.82207E+00 0.00000E+00
 -1       663 4.70850E+01 8.82207E+00 0.00000E+00
 -1       664 5.00850E+01 8.82207E+00 0.00000E+00
 -1       665 5.30850E+01 8.82207E+00 0.00000E+00
 -1       666 5.60850E+01 8.82207E+00 0.00000E+00
 -1       667 5.90850E+01 8.82207E+00 0.00000E+00
 -1       668 6.20850E+01 8.82207E+00 0.00000E+00
 -1       669 6.52350E+01 8.82207E+00 0.00000E+00
 -1       670 6.82350E+01 8.82207E+00 0.00000E+00
 -1       671 7.12350E+01 8.82207E+00 0.00000E+00
 -1       672 7.42350E+01 8.82207E+00 0.00000E+00
 -1       673 7.72350E+01 8.82207E+00 0.00000E+00
 -1       674 8.02350E+01 8.82207E+00 0.00000E+00
 -1       675 8.32350E+01 8.82207E+00 0.00000E+00
 -1       676 8.62350E+01 8.82207E+00 0.00000E+00
 -1       677 8.92350E+01 8.82207E+00 0.00000E+00
 -1       678 9.22350E+01 8.82207E+00 0.00000E+00
 -1       679 9.52350E+01 8.82207E+00 0.00000E+00
 -1       680 9.82350E+01 8.82207E+00 0.00000E+00
 -1       681 1.01235E+02 8.82207E+00 0.00000E+00
 -1       682 1.04235E+02 8.82207E+00 0.00000E+00
 -1       683 1.07385E+02 8.82207E+00 0.00000E+00
 -1       684 1.10385E+02 8.82207E+00 0.00000E+00
 -1       685 1.13385E+02 8.82207E+00 0.00000E+00
 -1       686 1.16385E+02 8.82207E+00 0.00000E+00
 -1       687 1.19385E+02 8.82207E+00 0.00000E+00
 -1       688 1.22385E+02 8.82207E+00 0.00000E+00
 -1       689 1.25385E+02 8.82207E+00 0.00000E+00
 -1       690 1.28385E+02 8.82207E+00 0.00000E+00
 -1       691 1.31385E+02 8.82207E+00 0.00000E+00
 -1       692 1.34385E+02 8.82207E+00 0.00000E+00
 -1       693 1.37385E+02 8.82207E+00 0.00000E+00
 -1       694 1.39715E+02 8.54831E+00 0.00000E+00
 -1       695 1.39608E+02 2.35500E+01 0.00000E+00
 -1       696 1.44635E+01 2.57791E+01 0.00000E+00
 -1       697 1.39608E+02 1.76500E+01 0.00000E+00
 -1       698 1.39608E+02 2.65000E+01 0.00000E+00
 -1       699 1.39608E+02 2.06000E+01 0.00000E+00
 -1       700 9.78035E+00 3.93914E+01 0.00000E+00
 -1       701 1.39608E+02 2.94000E+01 0.00000E+00
 -1       702 1.39608E+02 3.23500E+01 0.00000E+00
 -1       703 1.39608E+02 3.53000E+01 0.00000E+00
 -1       704 3.00039E+01 2.70462E+01 0.00000E+00
 -1       705 1.10360E+01 1.78997E+01 0.00000E+00
 -1       706 2.74355E+01 2.78316E+01 0.00000E+00
 -1       707 3.62288E+01 1.63119E+01 0.00000E+00
 -1       708 4.10850E+01 8.82207E+00 0.00000E+00
 -1       709 3.80850E+01 8.82207E+00 0.00000E+00
 -1       710 3.59298E+01 1.84902E+01 0.00000E+00
 -1       711 3.24698E+01 2.58195E+01 0.00000E+00
 -1       712 1.24652E+01 3.94997E+01 0.00000E+00
 -1       713 9.67668E+00 1.76250E+01 0.00000E+00
 -1       714 1.66351E+01 2.72584E+01 0.00000E+00
 -1       715 1.03920E+01 3.23250E+01 0.00000E+00
 -1       716 2.53665E+01 2.87254E+01 0.00000E+00
 -1       717 1.14394E+01 1.24280E+01 0.00000E+00
 -1       718 3.43127E+01 2.33240E+01 0.00000E+00
 -1       719 1.26921E+01 2.35535E+01 0.00000E+00
 -1       720 1.38376E+01 7.97387E+00 0.00000E+00
 -1       721 1.03920E+01 3.52625E+01 0.00000E+00
 -1       722 1.01794E+01 2.64500E+01 0.00000E+00
 -1       723 2.39154E+01 3.06528E+01 0.00000E+00
 -1       724 3.66963E+01 1.18919E+01 0.00000E+00
 -1       725 1.03920E+01 2.93750E+01 0.00000E+00
 -1       726 3.70643E+01 1.44947E+01 0.00000E+00
 -1       727 1.39608E+02 1.47250E+01 0.00000E+00
 -1       728 1.39608E+02 1.18000E+01 0.00000E+00
 -1       729 1.20034E+01 2.11103E+01 0.00000E+00
 -1       730 1.06847E+01 1.60678E+01 0.00000E+00
 -1       731 1.96500E+01 3.70100E+01 0.00000E+00
 -1       732 2.26500E+01 3.70100E+01 0.00000E+00
 -1       733 2.56500E+01 3.70100E+01 0.00000E+00
 -1       734 2.86500E+01 3.70100E+01 0.00000E+00
 -1       735 3.16500E+01 3.70100E+01 0.00000E+00
 -1       736 3.46500E+01 3.70100E+01 0.00000E+00
 -1       737 3.76500E+01 3.70100E+01 0.00000E+00
 -1       738 4.06500E+01 3.70100E+01 0.00000E+00
 -1       739 4.36500E+01 3.70100E+01 0.00000E+00
 -1       740 4.66500E+01 3.70100E+01 0.00000E+00
 -1       741 4.96500E+01 3.70100E+01 0.00000E+00
 -1       742 5.26500E+01 3.70100E+01 0.00000E+00
 -1       743 5.56500E+01 3.70100E+01 0.00000E+00
 -1       744 5.86500E+01 3.70100E+01 0.00000E+00
 -1       745 6.16500E+01 3.70100E+01 0.00000E+00
 -1       746 6.46500E+01 3.70100E+01 0.00000E+00
 -1       747 6.76500E+01 3.70100E+01 0.00000E+00
 -1       748 7.06500E+01 3.70100E+01 0.00000E+00
 -1       749 7.36500E+01 3.70100E+01 0.00000E+00
 -1       750 7.66500E+01 3.70100E+01 0.00000E+00
 -1       751 7.96500E+01 3.70100E+01 0.00000E+00
 -1       752 8.26500E+01 3.70100E+01 0.00000E+00
 -1       753 8.56500E+01 3.70100E+01 0.00000E+00
 -1       754 8.86500E+01 3.70100E+01 0.00000E+00
 -1       755 9.16500E+01 3.70100E+01 0.00000E+00
 -1       756 9.46500E+01 3.70100E+01 0.00000E+00
 -1       757 9.76500E+01 3.70100E+01 0.00000E+00
 -1       758 1.00650E+02 3.70100E+01 0.00000E+00
 -1       759 1.03650E+02 3.70100E+01 0.00000E+00
 -1       760 1.06650E+02 3.70100E+01 0.00000E+00
 -1       761 1.09650E+02 3.70100E+01 0.00000E+00
 -1       762 1.12650E+02 3.70100E+01 0.00000E+00
 -1       763 1.15650E+02 3.70100E+01 0.00000E+00
 -1       764 1.18650E+02 3.70100E+01 0.00000E+00
 -1       765 1.21650E+02 3.70100E+01 0.00000E+00
 -1       766 1.24650E+02 3.70100E+01 0.00000E+00
 -1       767 1.27650E+02 3.70100E+01 0.00000E+00
 -1       768 1.30650E+02 3.70100E+01 0.00000E+00
 -1       769 1.33650E+02 3.70100E+01 0.00000E+00
 -1       770 4.85850E+01 1.14201E+01 0.00000E+00
 -1       771 4.55850E+01 1.14201E+01 0.00000E+00
 -1       772 5.45850E+01 1.14201E+01 0.00000E+00
 -1       773 5.75850E+01 1.14201E+01 0.00000E+00
 -1       774 6.05850E+01 1.14201E+01 0.00000E+00
 -1       775 6.37350E+01 1.14201E+01 0.00000E+00
 -1       776 6.67350E+01 1.14201E+01 0.00000E+00
 -1       777 6.97350E+01 1.14201E+01 0.00000E+00
 -1       778 7.27350E+01 1.14201E+01 0.00000E+00
 -1       779 7.57350E+01 1.14201E+01 0.00000E+00
 -1       780 7.87350E+01 1.14201E+01 0.00000E+00
 -1       781 8.17350E+01 1.14201E+01 0.00000E+00
 -1       782 8.47350E+01 1.14201E+01 0.00000E+00
 -1       783 8.77350E+01 1.14201E+01 0.00000E+00
 -1       784 9.07350E+01 1.14201E+01 0.00000E+00
 -1       785 9.37350E+01 1.14201E+01 0.00000E+00
 -1       786 9.67350E+01 1.14201E+01 0.00000E+00
 -1       787 9.97350E+01 1.14201E+01 0.00000E+00
 -1       788 1.02735E+02 1.14201E+01 0.00000E+00
 -1       789 1.05885E+02 1.14201E+01 0.00000E+00
 -1       790 1.08885E+02 1.14201E+01 0.00000E+00
 -1       791 1.11885E+02 1.14201E+01 0.00000E+00
 -1       792 1.14885E+02 1.14201E+01 0.00000E+00
 -1       793 1.17885E+02 1.14201E+01 0.00000E+00
 -1       794 1.20885E+02 1.14201E+01 0.00000E+00
 -1       795 1.23885E+02 1.14201E+01 0.00000E+00
 -1       796 1.26885E+02 1.14201E+01 0.00000E+00
 -1       797 1.29885E+02 1.14201E+01 0.00000E+00
 -1       798 1.32885E+02 1.14201E+01 0.00000E+00
 -1       799 1.35885E+02 1.14201E+01 0.00000E+00
 -1       800 1.37010E+02 2.50250E+01 0.00000E+00
 -1       801 1.37010E+02 3.38250E+01 0.00000E+00
 -1       802 1.37010E+02 2.79250E+01 0.00000E+00
 -1       803 3.21500E+01 2.82685E+01 0.00000E+00
 -1       804 3.95850E+01 1.14201E+01 0.00000E+00
 -1       805 1.71933E+01 2.96140E+01 0.00000E+00
 -1       806 4.25850E+01 1.14201E+01 0.00000E+00
 -1       807 3.65357E+01 2.32264E+01 0.00000E+00
 -1       808 1.37010E+02 3.08750E+01 0.00000E+00
 -1       809 2.72805E+01 3.03145E+01 0.00000E+00
 -1       810 5.15850E+01 1.14201E+01 0.00000E+00
 -1       811 1.66500E+01 3.70100E+01 0.00000E+00
 -1       812 3.79445E+01 1.76572E+01 0.00000E+00
 -1       813 1.43950E+01 2.82132E+01 0.00000E+00
 -1       814 1.19737E+01 2.59431E+01 0.00000E+00
 -1       815 3.49057E+01 2.56902E+01 0.00000E+00
 -1       816 3.75680E+01 2.01732E+01 0.00000E+00
 -1       817 1.37337E+02 3.67311E+01 0.00000E+00
 -1       818 2.00348E+01 3.11520E+01 0.00000E+00
 -1       819 2.97153E+01 2.92915E+01 0.00000E+00
 -1       820 1.29900E+01 3.37938E+01 0.00000E+00
 -1       821 1.27276E+01 3.66467E+01 0.00000E+00
 -1       822 2.17990E+01 3.22633E+01 0.00000E+00
 -1       823 1.37010E+02 1.91250E+01 0.00000E+00
 -1       824 1.35885E+02 1.43451E+01 0.00000E+00
 -1       825 1.36447E+02 1.67350E+01 0.00000E+00
 -1       826 1.37010E+02 2.20750E+01 0.00000E+00
 -1       827 3.45860E+01 2.81392E+01 0.00000E+00
 -1       828 3.87799E+01 1.58400E+01 0.00000E+00
 -1       829 1.29900E+01 3.08438E+01 0.00000E+00
 -1       830 1.24818E+01 2.83934E+01 0.00000E+00
 -1       831 2.41500E+01 3.44120E+01 0.00000E+00
 -1       832 2.71500E+01 3.44120E+01 0.00000E+00
 -1       833 3.01500E+01 3.44120E+01 0.00000E+00
 -1       834 3.31500E+01 3.44120E+01 0.00000E+00
 -1       835 3.61500E+01 3.44120E+01 0.00000E+00
 -1       836 3.91500E+01 3.44120E+01 0.00000E+00
 -1       837 4.21500E+01 3.44120E+01 0.00000E+00
 -1       838 4.51500E+01 3.44120E+01 0.00000E+00
 -1       839 4.81500E+01 3.44120E+01 0.00000E+00
 -1       840 5.11500E+01 3.44120E+01 0.00000E+00
 -1       841 5.41500E+01 3.44120E+01 0.00000E+00
 -1       842 5.71500E+01 3.44120E+01 0.00000E+00
 -1       843 6.01500E+01 3.44120E+01 0.00000E+00
 -1       844 6.31500E+01 3.44120E+01 0.00000E+00
 -1       845 6.61500E+01 3.44120E+01 0.00000E+00
 -1       846 6.91500E+01 3.44120E+01 0.00000E+00
 -1       847 7.21500E+01 3.44120E+01 0.00000E+00
 -1       848 7.51500E+01 3.44120E+01 0.00000E+00
 -1       849 7.81500E+01 3.44120E+01 0.00000E+00
 -1       850 8.11500E+01 3.44120E+01 0.00000E+00
 -1       851 8.41500E+01 3.44120E+01 0.00000E+00
 -1       852 8.71500E+01 3.44120E+01 0.00000E+00
 -1       853 9.01500E+01 3.44120E+01 0.00000E+00
 -1       854 9.31500E+01 3.44120E+01 0.00000E+00
 -1       855 9.61500E+01 3.44120E+01 0.00000E+00
 -1       856 9.91500E+01 3.44120E+01 0.00000E+00
 -1       857 1.02150E+02 3.44120E+01 0.00000E+00
 -1       858 1.05150E+02 3.44120E+01 0.00000E+00
 -1       859 1.08150E+02 3.44120E+01 0.00000E+00
 -1       860 1.11150E+02 3.44120E+01 0.00000E+00
 -1       861 1.14150E+02 3.44120E+01 0.00000E+00
 -1       862 1.17150E+02 3.44120E+01 0.00000E+00
 -1       863 1.20150E+02 3.44120E+01 0.00000E+00
 -1       864 1.23150E+02 3.44120E+01 0.00000E+00
 -1       865 1.26150E+02 3.44120E+01 0.00000E+00
 -1       866 1.29150E+02 3.44120E+01 0.00000E+00
 -1       867 1.32150E+02 3.44120E+01 0.00000E+00
 -1       868 1.81500E+01 3.44120E+01 0.00000E+00
 -1       869 5.90850E+01 1.40181E+01 0.00000E+00
 -1       870 5.60850E+01 1.40181E+01 0.00000E+00
 -1       871 6.52350E+01 1.40181E+01 0.00000E+00
 -1       872 6.82350E+01 1.40181E+01 0.00000E+00
 -1       873 7.12350E+01 1.40181E+01 0.00000E+00
 -1       874 7.42350E+01 1.40181E+01 0.00000E+00
 -1       875 7.72350E+01 1.40181E+01 0.00000E+00
 -1       876 8.02350E+01 1.40181E+01 0.00000E+00
 -1       877 8.32350E+01 1.40181E+01 0.00000E+00
 -1       878 8.62350E+01 1.40181E+01 0.00000E+00
 -1       879 8.92350E+01 1.40181E+01 0.00000E+00
 -1       880 9.22350E+01 1.40181E+01 0.00000E+00
 -1       881 9.52350E+01 1.40181E+01 0.00000E+00
 -1       882 9.82350E+01 1.40181E+01 0.00000E+00
 -1       883 1.01235E+02 1.40181E+01 0.00000E+00
 -1       884 1.04385E+02 1.40181E+01 0.00000E+00
 -1       885 1.07385E+02 1.40181E+01 0.00000E+00
 -1       886 1.10385E+02 1.40181E+01 0.00000E+00
 -1       887 1.13385E+02 1.40181E+01 0.00000E+00
 -1       888 1.16385E+02 1.40181E+01 0.00000E+00
 -1       889 1.19385E+02 1.40181E+01 0.00000E+00
 -1       890 1.22385E+02 1.40181E+01 0.00000E+00
 -1       891 1.25385E+02 1.40181E+01 0.00000E+00
 -1       892 1.28385E+02 1.40181E+01 0.00000E+00
 -1       893 1.31385E+02 1.40181E+01 0.00000E+00
 -1       894 1.33635E+02 1.41816E+01 0.00000E+00
 -1       895 1.76381E+01 3.21861E+01 0.00000E+00
 -1       896 1.34412E+02 2.64750E+01 0.00000E+00
 -1       897 5.00850E+01 1.40181E+01 0.00000E+00
 -1       898 1.55700E+01 3.26279E+01 0.00000E+00
 -1       899 2.11500E+01 3.44120E+01 0.00000E+00
 -1       900 5.30850E+01 1.40181E+01 0.00000E+00
 -1       901 3.91528E+01 2.24101E+01 0.00000E+00
 -1       902 3.77102E+01 2.57744E+01 0.00000E+00
 -1       903 6.21600E+01 1.40181E+01 0.00000E+00
 -1       904 4.70850E+01 1.40181E+01 0.00000E+00
 -1       905 3.97839E+01 1.92186E+01 0.00000E+00
 -1       906 1.32150E+02 3.14620E+01 0.00000E+00
 -1       907 2.99326E+01 3.18518E+01 0.00000E+00
 -1       908 1.34412E+02 2.06000E+01 0.00000E+00
 -1       909 1.33850E+02 1.82100E+01 0.00000E+00
 -1       910 3.90763E+01 1.28829E+01 0.00000E+00
 -1       911 3.73904E+01 2.82234E+01 0.00000E+00
 -1       912 1.33281E+02 2.89685E+01 0.00000E+00
 -1       913 1.34412E+02 2.35375E+01 0.00000E+00
 -1       914 4.40850E+01 1.40181E+01 0.00000E+00
 -1       915 4.06193E+01 1.74014E+01 0.00000E+00
 -1       916 3.34856E+01 3.04186E+01 0.00000E+00
 -1       917 3.17091E+01 3.11352E+01 0.00000E+00
 -1       918 4.09681E+01 1.45659E+01 0.00000E+00
 -1       919 4.17419E+01 1.29901E+01 0.00000E+00
 -1       920 3.46500E+01 3.18140E+01 0.00000E+00
 -1       921 3.76500E+01 3.18140E+01 0.00000E+00
 -1       922 4.06500E+01 3.18140E+01 0.00000E+00
 -1       923 4.36500E+01 3.18140E+01 0.00000E+00
 -1       924 4.66500E+01 3.18140E+01 0.00000E+00
 -1       925 4.96500E+01 3.18140E+01 0.00000E+00
 -1       926 5.26500E+01 3.18140E+01 0.00000E+00
 -1       927 5.56500E+01 3.18140E+01 0.00000E+00
 -1       928 5.86500E+01 3.18140E+01 0.00000E+00
 -1       929 6.16500E+01 3.18140E+01 0.00000E+00
 -1       930 6.46500E+01 3.18140E+01 0.00000E+00
 -1       931 6.76500E+01 3.18140E+01 0.00000E+00
 -1       932 7.06500E+01 3.18140E+01 0.00000E+00
 -1       933 7.36500E+01 3.18140E+01 0.00000E+00
 -1       934 7.66500E+01 3.18140E+01 0.00000E+00
 -1       935 7.96500E+01 3.18140E+01 0.00000E+00
 -1       936 8.26500E+01 3.18140E+01 0.00000E+00
 -1       937 8.56500E+01 3.18140E+01 0.00000E+00
 -1       938 8.86500E+01 3.18140E+01 0.00000E+00
 -1       939 9.16500E+01 3.18140E+01 0.00000E+00
 -1       940 9.46500E+01 3.18140E+01 0.00000E+00
 -1       941 9.76500E+01 3.18140E+01 0.00000E+00
 -1       942 1.00650E+02 3.18140E+01 0.00000E+00
 -1       943 1.03650E+02 3.18140E+01 0.00000E+00
 -1       944 1.06650E+02 3.18140E+01 0.00000E+00
 -1       945 1.09650E+02 3.18140E+01 0.00000E+00
 -1       946 1.12650E+02 3.18140E+01 0.00000E+00
 -1       947 1.15650E+02 3.18140E+01 0.00000E+00
 -1       948 1.18650E+02 3.18140E+01 0.00000E+00
 -1       949 1.21650E+02 3.18140E+01 0.00000E+00
 -1       950 1.24650E+02 3.18140E+01 0.00000E+00
 -1       951 1.27650E+02 3.18140E+01 0.00000E+00
 -1       952 1.29900E+02 3.16380E+01 0.00000E+00
 -1       953 2.42003E+01 3.32230E+01 0.00000E+00
 -1       954 6.97350E+01 1.66161E+01 0.00000E+00
 -1       955 6.67350E+01 1.66161E+01 0.00000E+00
 -1       956 7.57350E+01 1.66161E+01 0.00000E+00
 -1       957 7.87350E+01 1.66161E+01 0.00000E+00
 -1       958 8.17350E+01 1.66161E+01 0.00000E+00
 -1       959 8.47350E+01 1.66161E+01 0.00000E+00
 -1       960 8.77350E+01 1.66161E+01 0.00000E+00
 -1       961 9.07350E+01 1.66161E+01 0.00000E+00
 -1       962 9.37350E+01 1.66161E+01 0.00000E+00
 -1       963 9.67350E+01 1.66161E+01 0.00000E+00
 -1       964 9.97350E+01 1.66161E+01 0.00000E+00
 -1       965 1.02885E+02 1.66161E+01 0.00000E+00
 -1       966 1.05885E+02 1.66161E+01 0.00000E+00
 -1       967 1.08885E+02 1.66161E+01 0.00000E+00
 -1       968 1.11885E+02 1.66161E+01 0.00000E+00
 -1       969 1.14885E+02 1.66161E+01 0.00000E+00
 -1       970 1.17885E+02 1.66161E+01 0.00000E+00
 -1       971 1.20885E+02 1.66161E+01 0.00000E+00
 -1       972 1.23885E+02 1.66161E+01 0.00000E+00
 -1       973 1.26885E+02 1.66161E+01 0.00000E+00
 -1       974 1.29885E+02 1.66161E+01 0.00000E+00
 -1       975 1.96487E+01 3.35515E+01 0.00000E+00
 -1       976 1.33742E+02 1.61958E+01 0.00000E+00
 -1       977 7.27350E+01 1.66161E+01 0.00000E+00
 -1       978 5.45850E+01 1.66161E+01 0.00000E+00
 -1       979 5.75850E+01 1.66161E+01 0.00000E+00
 -1       980 4.04698E+01 2.49663E+01 0.00000E+00
 -1       981 4.20170E+01 2.13183E+01 0.00000E+00
 -1       982 4.85850E+01 1.66161E+01 0.00000E+00
 -1       983 5.15850E+01 1.66161E+01 0.00000E+00
 -1       984 6.06600E+01 1.66161E+01 0.00000E+00
 -1       985 4.55850E+01 1.66161E+01 0.00000E+00
 -1       986 4.28525E+01 1.95011E+01 0.00000E+00
 -1       987 1.31814E+02 1.64059E+01 0.00000E+00
 -1       988 1.31602E+02 2.00002E+01 0.00000E+00
 -1       989 1.31814E+02 2.50063E+01 0.00000E+00
 -1       990 4.32766E+01 1.55910E+01 0.00000E+00
 -1       991 1.31708E+02 2.25032E+01 0.00000E+00
 -1       992 1.30683E+02 2.74998E+01 0.00000E+00
 -1       993 4.01500E+01 2.74153E+01 0.00000E+00
 -1       994 6.36975E+01 1.66161E+01 0.00000E+00
 -1       995 4.04000E+01 2.96147E+01 0.00000E+00
 -1       996 7.12350E+01 1.92141E+01 0.00000E+00
 -1       997 4.34000E+01 2.96147E+01 0.00000E+00
 -1       998 4.64000E+01 2.96147E+01 0.00000E+00
 -1       999 4.94000E+01 2.96147E+01 0.00000E+00
 -1      1000 5.24000E+01 2.96147E+01 0.00000E+00
 -1      1001 5.54000E+01 2.96147E+01 0.00000E+00
 -1      1002 5.84000E+01 2.96147E+01 0.00000E+00
 -1      1003 6.14000E+01 2.96147E+01 0.00000E+00
 -1      1004 6.44000E+01 2.96147E+01 0.00000E+00
 -1      1005 6.74000E+01 2.96147E+01 0.00000E+00
 -1      1006 7.04000E+01 2.96147E+01 0.00000E+00
 -1      1007 7.34000E+01 2.96147E+01 0.00000E+00
 -1      1008 7.64000E+01 2.96147E+01 0.00000E+00
 -1      1009 7.94000E+01 2.96147E+01 0.00000E+00
 -1      1010 8.24000E+01 2.96147E+01 0.00000E+00
 -1      1011 8.54000E+01 2.96147E+01 0.00000E+00
 -1      1012 8.84000E+01 2.96147E+01 0.00000E+00
 -1      1013 9.14000E+01 2.96147E+01 0.00000E+00
 -1      1014 9.44000E+01 2.96147E+01 0.00000E+00
 -1      1015 9.74000E+01 2.96147E+01 0.00000E+00
 -1      1016 1.00400E+02 2.96147E+01 0.00000E+00
 -1      1017 1.03400E+02 2.96147E+01 0.00000E+00
 -1      1018 1.06400E+02 2.96147E+01 0.00000E+00
 -1      1019 1.09400E+02 2.96147E+01 0.00000E+00
 -1      1020 1.12400E+02 2.96147E+01 0.00000E+00
 -1      1021 1.15400E+02 2.96147E+01 0.00000E+00
 -1      1022 1.18400E+02 2.96147E+01 0.00000E+00
 -1      1023 1.21400E+02 2.96147E+01 0.00000E+00
 -1      1024 1.24400E+02 2.96147E+01 0.00000E+00
 -1      1025 1.27400E+02 2.96147E+01 0.00000E+00
 -1      1026 6.82350E+01 1.92141E+01 0.00000E+00
 -1      1027 8.02350E+01 1.92141E+01 0.00000E+00
 -1      1028 7.72350E+01 1.92141E+01 0.00000E+00
 -1      1029 8.62350E+01 1.92141E+01 0.00000E+00
 -1      1030 8.92350E+01 1.92141E+01 0.00000E+00
 -1      1031 9.22350E+01 1.92141E+01 0.00000E+00
 -1      1032 9.52350E+01 1.92141E+01 0.00000E+00
 -1      1033 9.82350E+01 1.92141E+01 0.00000E+00
 -1      1034 1.01385E+02 1.92141E+01 0.00000E+00
 -1      1035 1.04385E+02 1.92141E+01 0.00000E+00
 -1      1036 1.07385E+02 1.92141E+01 0.00000E+00
 -1      1037 1.10385E+02 1.92141E+01 0.00000E+00
 -1      1038 1.13385E+02 1.92141E+01 0.00000E+00
 -1      1039 1.16385E+02 1.92141E+01 0.00000E+00
 -1      1040 1.19385E+02 1.92141E+01 0.00000E+00
 -1      1041 1.22385E+02 1.92141E+01 0.00000E+00
 -1      1042 1.25385E+02 1.92141E+01 0.00000E+00
 -1      1043 1.28385E+02 1.92141E+01 0.00000E+00
 -1      1044 1.30292E+02 2.95689E+01 0.00000E+00
 -1      1045 7.42350E+01 1.92141E+01 0.00000E+00
 -1      1046 4.34395E+01 2.40737E+01 0.00000E+00
 -1      1047 5.60850E+01 1.92141E+01 0.00000E+00
 -1      1048 8.32350E+01 1.92141E+01 0.00000E+00
 -1      1049 4.70850E+01 1.92141E+01 0.00000E+00
 -1      1050 5.91600E+01 1.92141E+01 0.00000E+00
 -1      1051 4.42749E+01 2.22565E+01 0.00000E+00
 -1      1052 1.28883E+02 2.51798E+01 0.00000E+00
 -1      1053 5.30850E+01 1.92141E+01 0.00000E+00
 -1      1054 1.28491E+02 2.17171E+01 0.00000E+00
 -1      1055 4.31197E+01 2.65227E+01 0.00000E+00
 -1      1056 6.51975E+01 1.92141E+01 0.00000E+00
 -1      1057 5.00850E+01 1.92141E+01 0.00000E+00
 -1      1058 1.27792E+02 2.75455E+01 0.00000E+00
 -1      1059 4.49000E+01 2.70167E+01 0.00000E+00
 -1      1060 4.79000E+01 2.70167E+01 0.00000E+00
 -1      1061 5.09000E+01 2.70167E+01 0.00000E+00
 -1      1062 5.39000E+01 2.70167E+01 0.00000E+00
 -1      1063 5.69000E+01 2.70167E+01 0.00000E+00
 -1      1064 5.99000E+01 2.70167E+01 0.00000E+00
 -1      1065 6.29000E+01 2.70167E+01 0.00000E+00
 -1      1066 6.59000E+01 2.70167E+01 0.00000E+00
 -1      1067 6.89000E+01 2.70167E+01 0.00000E+00
 -1      1068 7.19000E+01 2.70167E+01 0.00000E+00
 -1      1069 7.49000E+01 2.70167E+01 0.00000E+00
 -1      1070 7.79000E+01 2.70167E+01 0.00000E+00
 -1      1071 8.09000E+01 2.70167E+01 0.00000E+00
 -1      1072 8.39000E+01 2.70167E+01 0.00000E+00
 -1      1073 8.69000E+01 2.70167E+01 0.00000E+00
 -1      1074 8.99000E+01 2.70167E+01 0.00000E+00
 -1      1075 9.29000E+01 2.70167E+01 0.00000E+00
 -1      1076 9.59000E+01 2.70167E+01 0.00000E+00
 -1      1077 9.89000E+01 2.70167E+01 0.00000E+00
 -1      1078 1.01900E+02 2.70167E+01 0.00000E+00
 -1      1079 1.04900E+02 2.70167E+01 0.00000E+00
 -1      1080 1.07900E+02 2.70167E+01 0.00000E+00
 -1      1081 1.10900E+02 2.70167E+01 0.00000E+00
 -1      1082 1.13900E+02 2.70167E+01 0.00000E+00
 -1      1083 1.16900E+02 2.70167E+01 0.00000E+00
 -1      1084 1.19900E+02 2.70167E+01 0.00000E+00
 -1      1085 1.22900E+02 2.70167E+01 0.00000E+00
 -1      1086 1.25346E+02 2.72811E+01 0.00000E+00
 -1      1087 6.97350E+01 2.18121E+01 0.00000E+00
 -1      1088 9.07350E+01 2.18121E+01 0.00000E+00
 -1      1089 8.77350E+01 2.18121E+01 0.00000E+00
 -1      1090 9.67350E+01 2.18121E+01 0.00000E+00
 -1      1091 9.98850E+01 2.18121E+01 0.00000E+00
 -1      1092 1.02885E+02 2.18121E+01 0.00000E+00
 -1      1093 1.05885E+02 2.18121E+01 0.00000E+00
 -1      1094 1.08885E+02 2.18121E+01 0.00000E+00
 -1      1095 1.11885E+02 2.18121E+01 0.00000E+00
 -1      1096 1.14885E+02 2.18121E+01 0.00000E+00
 -1      1097 1.17885E+02 2.18121E+01 0.00000E+00
 -1      1098 1.20885E+02 2.18121E+01 0.00000E+00
 -1      1099 1.23885E+02 2.18121E+01 0.00000E+00
 -1      1100 1.26188E+02 2.17646E+01 0.00000E+00
 -1      1101 7.87350E+01 2.18121E+01 0.00000E+00
 -1      1102 8.17350E+01 2.18121E+01 0.00000E+00
 -1      1103 6.21787E+01 1.92141E+01 0.00000E+00
 -1      1104 9.37350E+01 2.18121E+01 0.00000E+00
 -1      1105 8.47350E+01 2.18121E+01 0.00000E+00
 -1      1106 7.27350E+01 2.18121E+01 0.00000E+00
 -1      1107 5.76225E+01 2.18121E+01 0.00000E+00
 -1      1108 4.75884E+01 2.24980E+01 0.00000E+00
 -1      1109 6.66975E+01 2.18121E+01 0.00000E+00
 -1      1110 4.53541E+01 2.45104E+01 0.00000E+00
 -1      1111 1.26990E+02 2.46551E+01 0.00000E+00
 -1      1112 5.46225E+01 2.18121E+01 0.00000E+00
 -1      1113 7.57350E+01 2.18121E+01 0.00000E+00
 -1      1114 6.06413E+01 2.18121E+01 0.00000E+00
 -1      1115 4.94000E+01 2.44187E+01 0.00000E+00
 -1      1116 5.24000E+01 2.44187E+01 0.00000E+00
 -1      1117 5.54000E+01 2.44187E+01 0.00000E+00
 -1      1118 5.84000E+01 2.44187E+01 0.00000E+00
 -1      1119 6.14000E+01 2.44187E+01 0.00000E+00
 -1      1120 6.44000E+01 2.44187E+01 0.00000E+00
 -1      1121 6.74000E+01 2.44187E+01 0.00000E+00
 -1      1122 7.04000E+01 2.44187E+01 0.00000E+00
 -1      1123 7.34000E+01 2.44187E+01 0.00000E+00
 -1      1124 7.64000E+01 2.44187E+01 0.00000E+00
 -1      1125 7.94000E+01 2.44187E+01 0.00000E+00
 -1      1126 8.24000E+01 2.44187E+01 0.00000E+00
 -1      1127 8.54000E+01 2.44187E+01 0.00000E+00
 -1      1128 8.84000E+01 2.44187E+01 0.00000E+00
 -1      1129 9.14000E+01 2.44187E+01 0.00000E+00
 -1      1130 9.44000E+01 2.44187E+01 0.00000E+00
 -1      1131 9.74000E+01 2.44187E+01 0.00000E+00
 -1      1132 1.00400E+02 2.44187E+01 0.00000E+00
 -1      1133 1.03400E+02 2.44187E+01 0.00000E+00
 -1      1134 1.06400E+02 2.44187E+01 0.00000E+00
 -1      1135 1.09400E+02 2.44187E+01 0.00000E+00
 -1      1136 1.12400E+02 2.44187E+01 0.00000E+00
 -1      1137 1.15400E+02 2.44187E+01 0.00000E+00
 -1      1138 1.18400E+02 2.44187E+01 0.00000E+00
 -1      1139 1.21400E+02 2.44187E+01 0.00000E+00
 -1      1140 5.16225E+01 2.18121E+01 0.00000E+00
 -1      1141 1.24195E+02 2.45369E+01 0.00000E+00
 -1      1142 6.36787E+01 2.18121E+01 0.00000E+00
 -1      1143 0.00000E+00 4.85250E+01 0.00000E+00
 -1      1144 0.00000E+00 4.55750E+01 0.00000E+00
 -1      1145 0.00000E+00 4.26250E+01 0.00000E+00
 -1      1146 0.00000E+00 3.96750E+01 0.00000E+00
 -1      1147 0.00000E+00 3.67250E+01 0.00000E+00
 -1      1148 0.00000E+00 3.38000E+01 0.00000E+00
 -1      1149 0.00000E+00 3.08750E+01 0.00000E+00
 -1      1150 0.00000E+00 2.79250E+01 0.00000E+00
 -1      1151 0.00000E+00 2.49750E+01 0.00000E+00
 -1      1152 0.00000E+00 2.20250E+01 0.00000E+00
 -1      1153 0.00000E+00 1.90750E+01 0.00000E+00
 -1      1154 0.00000E+00 1.61500E+01 0.00000E+00
 -1      1155 0.00000E+00 1.32250E+01 0.00000E+00
 -1      1156 0.00000E+00 1.02750E+01 0.00000E+00
 -1      1157 0.00000E+00 7.32500E+00 0.00000E+00
 -1      1158 0.00000E+00 4.37500E+00 0.00000E+00
 -1      1159 0.00000E+00 1.45000E+00 0.00000E+00
 -1      1160 1.57500E+00 5.00000E+01 0.00000E+00
 -1      1161 4.65000E+00 5.00000E+01 0.00000E+00
 -1      1162 7.65000E+00 5.00000E+01 0.00000E+00
 -1      1163 1.06500E+01 5.00000E+01 0.00000E+00
 -1      1164 1.36500E+01 5.00000E+01 0.00000E+00
 -1      1165 1.66500E+01 5.00000E+01 0.00000E+00
 -1      1166 1.96500E+01 5.00000E+01 0.00000E+00
 -1      1167 2.26500E+01 5.00000E+01 0.00000E+00
 -1      1168 2.56500E+01 5.00000E+01 0.00000E+00
 -1      1169 2.86500E+01 5.00000E+01 0.00000E+00
 -1      1170 3.16500E+01 5.00000E+01 0.00000E+00
 -1      1171 3.46500E+01 5.00000E+01 0.00000E+00
 -1      1172 3.76500E+01 5.00000E+01 0.00000E+00
 -1      1173 4.06500E+01 5.00000E+01 0.00000E+00
 -1      1174 4.36500E+01 5.00000E+01 0.00000E+00
 -1      1175 4.66500E+01 5.00000E+01 0.00000E+00
 -1      1176 4.96500E+01 5.00000E+01 0.00000E+00
 -1      1177 5.26500E+01 5.00000E+01 0.00000E+00
 -1      1178 5.56500E+01 5.00000E+01 0.00000E+00
 -1      1179 5.86500E+01 5.00000E+01 0.00000E+00
 -1      1180 6.16500E+01 5.00000E+01 0.00000E+00
 -1      1181 6.46500E+01 5.00000E+01 0.00000E+00
 -1      1182 6.76500E+01 5.00000E+01 0.00000E+00
 -1      1183 7.06500E+01 5.00000E+01 0.00000E+00
 -1      1184 7.36500E+01 5.00000E+01 0.00000E+00
 -1      1185 7.66500E+01 5.00000E+01 0.00000E+00
 -1      1186 7.96500E+01 5.00000E+01 0.00000E+00
 -1      1187 8.26500E+01 5.00000E+01 0.00000E+00
 -1      1188 8.56500E+01 5.00000E+01 0.00000E+00
 -1      1189 8.86500E+01 5.00000E+01 0.00000E+00
 -1      1190 9.16500E+01 5.00000E+01 0.00000E+00
 -1      1191 9.46500E+01 5.00000E+01 0.00000E+00
 -1      1192 9.76500E+01 5.00000E+01 0.00000E+00
 -1      1193 1.00650E+02 5.00000E+01 0.00000E+00
 -1      1194 1.03650E+02 5.00000E+01 0.00000E+00
 -1      1195 1.06650E+02 5.00000E+01 0.00000E+00
 -1      1196 1.09650E+02 5.00000E+01 0.00000E+00
 -1      1197 1.12650E+02 5.00000E+01 0.00000E+00
 -1      1198 1.15650E+02 5.00000E+01 0.00000E+00
 -1      1199 1.18650E+02 5.00000E+01 0.00000E+00
 -1      1200 1.21650E+02 5.00000E+01 0.00000E+00
 -1      1201 1.24650E+02 5.00000E+01 0.00000E+00
 -1      1202 1.27650E+02 5.00000E+01 0.00000E+00
 -1      1203 1.30650E+02 5.00000E+01 0.00000E+00
 -1      1204 1.33650E+02 5.00000E+01 0.00000E+00
 -1      1205 1.36650E+02 5.00000E+01 0.00000E+00
 -1      1206 1.39650E+02 5.00000E+01 0.00000E+00
 -1      1207 1.42650E+02 5.00000E+01 0.00000E+00
 -1      1208 1.45650E+02 5.00000E+01 0.00000E+00
 -1      1209 1.48575E+02 5.00000E+01 0.00000E+00
 -1      1210 1.57500E+00 0.00000E+00 0.00000E+00
 -1      1211 4.65000E+00 0.00000E+00 0.00000E+00
 -1      1212 7.65000E+00 0.00000E+00 0.00000E+00
 -1      1213 1.06500E+01 0.00000E+00 0.00000E+00
 -1      1214 1.36500E+01 0.00000E+00 0.00000E+00
 -1      1215 1.66500E+01 0.00000E+00 0.00000E+00
 -1      1216 1.96500E+01 0.00000E+00 0.00000E+00
 -1      1217 2.26500E+01 0.00000E+00 0.00000E+00
 -1      1218 2.55000E+01 0.00000E+00 0.00000E+00
 -1      1219 2.82750E+01 0.00000E+00 0.00000E+00
 -1      1220 3.12000E+01 0.00000E+00 0.00000E+00
 -1      1221 3.42000E+01 0.00000E+00 0.00000E+00
 -1      1222 3.72000E+01 0.00000E+00 0.00000E+00
 -1      1223 4.02000E+01 0.00000E+00 0.00000E+00
 -1      1224 4.32000E+01 0.00000E+00 0.00000E+00
 -1      1225 4.62000E+01 0.00000E+00 0.00000E+00
 -1      1226 4.92000E+01 0.00000E+00 0.00000E+00
 -1      1227 5.22000E+01 0.00000E+00 0.00000E+00
 -1      1228 5.52000E+01 0.00000E+00 0.00000E+00
 -1      1229 5.82000E+01 0.00000E+00 0.00000E+00
 -1      1230 6.12000E+01 0.00000E+00 0.00000E+00
 -1      1231 6.42000E+01 0.00000E+00 0.00000E+00
 -1      1232 6.72750E+01 0.00000E+00 0.00000E+00
 -1      1233 7.03500E+01 0.00000E+00 0.00000E+00
 -1      1234 7.33500E+01 0.00000E+00 0.00000E+00
 -1      1235 7.63500E+01 0.00000E+00 0.00000E+00
 -1      1236 7.93500E+01 0.00000E+00 0.00000E+00
 -1      1237 8.23500E+01 0.00000E+00 0.00000E+00
 -1      1238 8.53500E+01 0.00000E+00 0.00000E+00
 -1      1239 8.83500E+01 0.00000E+00 0.00000E+00
 -1      1240 9.13500E+01 0.00000E+00 0.00000E+00
 -1      1241 9.43500E+01 0.00000E+00 0.00000E+00
 -1      1242 9.73500E+01 0.00000E+00 0.00000E+00
 -1      1243 1.00350E+02 0.00000E+00 0.00000E+00
 -1      1244 1.03350E+02 0.00000E+00 0.00000E+00
 -1      1245 1.06350E+02 0.00000E+00 0.00000E+00
 -1      1246 1.09425E+02 0.00000E+00 0.00000E+00
 -1      1247 1.12500E+02 0.00000E+00 0.00000E+00
 -1      1248 1.15500E+02 0.00000E+00 0.00000E+00
 -1      1249 1.18500E+02 0.00000E+00 0.00000E+00
 -1      1250 1.21500E+02 0.00000E+00 0.00000E+00
 -1      1251 1.24500E+02 0.00000E+00 0.00000E+00
 -1      1252 1.27500E+02 0.00000E+00 0.00000E+00
 -1      1253 1.30500E+02 0.00000E+00 0.00000E+00
 -1      1254 1.33500E+02 0.00000E+00 0.00000E+00
 -1      1255 1.36500E+02 0.00000E+00 0.00000E+00
 -1      1256 1.39500E+02 0.00000E+00 0.00000E+00
 -1      1257 1.42500E+02 0.00000E+00 0.00000E+00
 -1      1258 1.45500E+02 0.00000E+00 0.00000E+00
 -1      1259 1.48500E+02 0.00000E+00 0.00000E+00
 -1      1260 1.50000E+02 1.47500E+00 0.00000E+00
 -1      1261 1.50000E+02 4.42500E+00 0.00000E+00
 -1      1262 1.50000E+02 7.37500E+00 0.00000E+00
 -1      1263 1.50000E+02 1.03250E+01 0.00000E+00
 -1      1264 1.50000E+02 1.32750E+01 0.00000E+00
 -1      1265 1.50000E+02 1.62000E+01 0.00000E+00
 -1      1266 1.50000E+02 1.91250E+01 0.00000E+00
 -1      1267 1.50000E+02 2.20750E+01 0.00000E+00
 -1      1268 1.50000E+02 2.50250E+01 0.00000E+00
 -1      1269 1.50000E+02 2.79750E+01 0.00000E+00
 -1      1270 1.50000E+02 3.09250E+01 0.00000E+00
 -1      1271 1.50000E+02 3.38500E+01 0.00000E+00
 -1      1272 1.50000E+02 3.67750E+01 0.00000E+00
 -1      1273 1.50000E+02 3.97250E+01 0.00000E+00
 -1      1274 1.50000E+02 4.26750E+01 0.00000E+00
 -1      1275 1.50000E+02 4.56250E+01 0.00000E+00
 -1      1276 1.50000E+02 4.85500E+01 0.00000E+00
 -1      1277 3.05237E+01 1.53957E+01 0.00000E+00
 -1      1278 3.02073E+01 1.39328E+01 0.00000E+00
 -1      1279 2.95862E+01 1.25691E+01 0.00000E+00
 -1      1280 2.85793E+01 1.12535E+01 0.00000E+00
 -1      1281 2.73017E+01 1.02178E+01 0.00000E+00
 -1      1282 2.60024E+01 9.57455E+00 0.00000E+00
 -1      1283 2.45115E+01 9.20029E+00 0.00000E+00
 -1      1284 2.29571E+01 9.16200E+00 0.00000E+00
 -1      1285 2.14584E+01 9.45961E+00 0.00000E+00
 -1      1286 2.00741E+01 1.00671E+01 0.00000E+00
 -1      1287 1.89014E+01 1.09136E+01 0.00000E+00
 -1      1288 1.78762E+01 1.20540E+01 0.00000E+00
 -1      1289 1.70956E+01 1.34575E+01 0.00000E+00
 -1      1290 1.66664E+01 1.49371E+01 0.00000E+00
 -1      1291 1.65686E+01 1.64154E+01 0.00000E+00
 -1      1292 1.68015E+01 1.79477E+01 0.00000E+00
 -1      1293 1.73787E+01 1.94153E+01 0.00000E+00
 -1      1294 1.82482E+01 2.06913E+01 0.00000E+00
 -1      1295 1.93457E+01 2.17227E+01 0.00000E+00
 -1      1296 2.06598E+01 2.25053E+01 0.00000E+00
 -1      1297 2.21521E+01 2.29921E+01 0.00000E+00
 -1      1298 2.36742E+01 2.31348E+01 0.00000E+00
 -1      1299 2.51871E+01 2.29447E+01 0.00000E+00
 -1      1300 2.65755E+01 2.24543E+01 0.00000E+00
 -1      1301 2.78299E+01 2.16849E+01 0.00000E+00
 -1      1302 2.88890E+01 2.06781E+01 0.00000E+00
 -1      1303 2.97063E+01 1.94913E+01 0.00000E+00
 -1      1304 3.02608E+01 1.81702E+01 0.00000E+00
 -1      1305 3.05294E+01 1.68210E+01 0.00000E+00
 -1      1306 1.57500E+00 4.85250E+01 0.00000E+00
 -1      1307 1.29900E+00 4.48375E+01 0.00000E+00
 -1      1308 1.29900E+00 4.63125E+01 0.00000E+00
 -1      1309 1.29900E+00 4.18875E+01 0.00000E+00
 -1      1310 1.29900E+00 4.33625E+01 0.00000E+00
 -1      1311 2.59800E+00 4.41000E+01 0.00000E+00
 -1      1312 1.29900E+00 3.89375E+01 0.00000E+00
 -1      1313 1.29900E+00 4.04125E+01 0.00000E+00
 -1      1314 2.59800E+00 4.11500E+01 0.00000E+00
 -1      1315 1.29900E+00 3.59875E+01 0.00000E+00
 -1      1316 1.29900E+00 3.74625E+01 0.00000E+00
 -1      1317 2.59800E+00 3.82000E+01 0.00000E+00
 -1      1318 1.29900E+00 3.30875E+01 0.00000E+00
 -1      1319 1.29900E+00 3.45375E+01 0.00000E+00
 -1      1320 2.59800E+00 3.52750E+01 0.00000E+00
 -1      1321 1.29900E+00 3.01375E+01 0.00000E+00
 -1      1322 1.29900E+00 3.16125E+01 0.00000E+00
 -1      1323 2.59800E+00 3.23500E+01 0.00000E+00
 -1      1324 1.29900E+00 2.71875E+01 0.00000E+00
 -1      1325 1.29900E+00 2.86625E+01 0.00000E+00
 -1      1326 2.59800E+00 2.94000E+01 0.00000E+00
 -1      1327 1.29900E+00 2.42375E+01 0.00000E+00
 -1      1328 1.29900E+00 2.57125E+01 0.00000E+00
 -1      1329 2.59800E+00 2.64500E+01 0.00000E+00
 -1      1330 1.29900E+00 2.12875E+01 0.00000E+00
 -1      1331 1.29900E+00 2.27625E+01 0.00000E+00
 -1      1332 2.59800E+00 2.35000E+01 0.00000E+00
 -1      1333 1.29900E+00 1.83375E+01 0.00000E+00
 -1      1334 1.29900E+00 1.98125E+01 0.00000E+00
 -1      1335 2.59800E+00 2.05500E+01 0.00000E+00
 -1      1336 1.29900E+00 1.54375E+01 0.00000E+00
 -1      1337 1.29900E+00 1.68875E+01 0.00000E+00
 -1      1338 2.59800E+00 1.76250E+01 0.00000E+00
 -1      1339 1.29900E+00 1.24875E+01 0.00000E+00
 -1      1340 1.29900E+00 1.39625E+01 0.00000E+00
 -1      1341 2.59800E+00 1.47000E+01 0.00000E+00
 -1      1342 1.29900E+00 9.53750E+00 0.00000E+00
 -1      1343 1.29900E+00 1.10125E+01 0.00000E+00
 -1      1344 2.59800E+00 1.17500E+01 0.00000E+00
 -1      1345 1.29900E+00 6.58750E+00 0.00000E+00
 -1      1346 1.29900E+00 8.06250E+00 0.00000E+00
 -1      1347 2.59800E+00 8.80000E+00 0.00000E+00
 -1      1348 1.29900E+00 3.63750E+00 0.00000E+00
 -1      1349 1.29900E+00 5.11250E+00 0.00000E+00
 -1      1350 2.59800E+00 5.85000E+00 0.00000E+00
 -1      1351 1.43700E+00 1.09375E+00 0.00000E+00
 -1      1352 1.43700E+00 2.54375E+00 0.00000E+00
 -1      1353 2.73600E+00 3.28125E+00 0.00000E+00
 -1      1354 3.01200E+00 1.09375E+00 0.00000E+00
 -1      1355 3.90000E+00 4.87010E+01 0.00000E+00
 -1      1356 5.40000E+00 4.87010E+01 0.00000E+00
 -1      1357 6.90000E+00 4.87010E+01 0.00000E+00
 -1      1358 8.40000E+00 4.87010E+01 0.00000E+00
 -1      1359 6.15000E+00 4.74020E+01 0.00000E+00
 -1      1360 9.90000E+00 4.87010E+01 0.00000E+00
 -1      1361 1.14000E+01 4.87010E+01 0.00000E+00
 -1      1362 9.15000E+00 4.74020E+01 0.00000E+00
 -1      1363 1.29000E+01 4.87010E+01 0.00000E+00
 -1      1364 1.44000E+01 4.87010E+01 0.00000E+00
 -1      1365 1.21500E+01 4.74020E+01 0.00000E+00
 -1      1366 1.59000E+01 4.87010E+01 0.00000E+00
 -1      1367 1.74000E+01 4.87010E+01 0.00000E+00
 -1      1368 1.51500E+01 4.74020E+01 0.00000E+00
 -1      1369 1.89000E+01 4.87010E+01 0.00000E+00
 -1      1370 2.04000E+01 4.87010E+01 0.00000E+00
 -1      1371 1.81500E+01 4.74020E+01 0.00000E+00
 -1      1372 2.19000E+01 4.87010E+01 0.00000E+00
 -1      1373 2.34000E+01 4.87010E+01 0.00000E+00
 -1      1374 2.11500E+01 4.74020E+01 0.00000E+00
 -1      1375 2.49000E+01 4.87010E+01 0.00000E+00
 -1      1376 2.64000E+01 4.87010E+01 0.00000E+00
 -1      1377 2.41500E+01 4.74020E+01 0.00000E+00
 -1      1378 2.79000E+01 4.87010E+01 0.00000E+00
 -1      1379 2.94000E+01 4.87010E+01 0.00000E+00
 -1      1380 2.71500E+01 4.74020E+01 0.00000E+00
 -1      1381 3.09000E+01 4.87010E+01 0.00000E+00
 -1      1382 3.24000E+01 4.87010E+01 0.00000E+00
 -1      1383 3.01500E+01 4.74020E+01 0.00000E+00
 -1      1384 3.39000E+01 4.87010E+01 0.00000E+00
 -1      1385 3.54000E+01 4.87010E+01 0.00000E+00
 -1      1386 3.31500E+01 4.74020E+01 0.00000E+00
 -1      1387 3.69000E+01 4.87010E+01 0.00000E+00
 -1      1388 3.84000E+01 4.87010E+01 0.00000E+00
 -1      1389 3.61500E+01 4.74020E+01 0.00000E+00
 -1      1390 3.99000E+01 4.87010E+01 0.00000E+00
 -1      1391 4.14000E+01 4.87010E+01 0.00000E+00
 -1      1392 3.91500E+01 4.74020E+01 0.00000E+00
 -1      1393 4.29000E+01 4.87010E+01 0.00000E+00
 -1      1394 4.44000E+01 4.87010E+01 0.00000E+00
 -1      1395 4.21500E+01 4.74020E+01 0.00000E+00
 -1      1396 4.59000E+01 4.87010E+01 0.00000E+00
 -1      1397 4.74000E+01 4.87010E+01 0.00000E+00
 -1      1398 4.51500E+01 4.74020E+01 0.00000E+00
 -1      1399 4.89000E+01 4.87010E+01 0.00000E+00
 -1      1400 5.04000E+01 4.87010E+01 0.00000E+00
 -1      1401 4.81500E+01 4.74020E+01 0.00000E+00
 -1      1402 5.19000E+01 4.87010E+01 0.00000E+00
 -1      1403 5.34000E+01 4.87010E+01 0.00000E+00
 -1      1404 5.11500E+01 4.74020E+01 0.00000E+00
 -1      1405 5.49000E+01 4.87010E+01 0.00000E+00
 -1      1406 5.64000E+01 4.87010E+01 0.00000E+00
 -1      1407 5.41500E+01 4.74020E+01 0.00000E+00
 -1      1408 5.79000E+01 4.87010E+01 0.00000E+00
 -1      1409 5.94000E+01 4.87010E+01 0.00000E+00
 -1      1410 5.71500E+01 4.74020E+01 0.00000E+00
 -1      1411 6.09000E+01 4.87010E+01 0.00000E+00
 -1      1412 6.24000E+01 4.87010E+01 0.00000E+00
 -1      1413 6.01500E+01 4.74020E+01 0.00000E+00
 -1      1414 6.39000E+01 4.87010E+01 0.00000E+00
 -1      1415 6.54000E+01 4.87010E+01 0.00000E+00
 -1      1416 6.31500E+01 4.74020E+01 0.00000E+00
 -1      1417 6.69000E+01 4.87010E+01 0.00000E+00
 -1      1418 6.84000E+01 4.87010E+01 0.00000E+00
 -1      1419 6.61500E+01 4.74020E+01 0.00000E+00
 -1      1420 6.99000E+01 4.87010E+01 0.00000E+00
 -1      1421 7.14000E+01 4.87010E+01 0.00000E+00
 -1      1422 6.91500E+01 4.74020E+01 0.00000E+00
 -1      1423 7.29000E+01 4.87010E+01 0.00000E+00
 -1      1424 7.44000E+01 4.87010E+01 0.00000E+00
 -1      1425 7.21500E+01 4.74020E+01 0.00000E+00
 -1      1426 7.59000E+01 4.87010E+01 0.00000E+00
 -1      1427 7.74000E+01 4.87010E+01 0.00000E+00
 -1      1428 7.51500E+01 4.74020E+01 0.00000E+00
 -1      1429 7.89000E+01 4.87010E+01 0.00000E+00
 -1      1430 8.04000E+01 4.87010E+01 0.00000E+00
 -1      1431 7.81500E+01 4.74020E+01 0.00000E+00
 -1      1432 8.19000E+01 4.87010E+01 0.00000E+00
 -1      1433 8.34000E+01 4.87010E+01 0.00000E+00
 -1      1434 8.11500E+01 4.74020E+01 0.00000E+00
 -1      1435 8.49000E+01 4.87010E+01 0.00000E+00
 -1      1436 8.64000E+01 4.87010E+01 0.00000E+00
 -1      1437 8.41500E+01 4.74020E+01 0.00000E+00
 -1      1438 8.79000E+01 4.87010E+01 0.00000E+00
 -1      1439 8.94000E+01 4.87010E+01 0.00000E+00
 -1      1440 8.71500E+01 4.74020E+01 0.00000E+00
 -1      1441 9.09000E+01 4.87010E+01 0.00000E+00
 -1      1442 9.24000E+01 4.87010E+01 0.00000E+00
 -1      1443 9.01500E+01 4.74020E+01 0.00000E+00
 -1      1444 9.39000E+01 4.87010E+01 0.00000E+00
 -1      1445 9.54000E+01 4.87010E+01 0.00000E+00
 -1      1446 9.31500E+01 4.74020E+01 0.00000E+00
 -1      1447 9.69000E+01 4.87010E+01 0.00000E+00
 -1      1448 9.84000E+01 4.87010E+01 0.00000E+00
 -1      1449 9.61500E+01 4.74020E+01 0.00000E+00
 -1      1450 9.99000E+01 4.87010E+01 0.00000E+00
 -1      1451 1.01400E+02 4.87010E+01 0.00000E+00
 -1      1452 9.91500E+01 4.74020E+01 0.00000E+00
 -1      1453 1.02900E+02 4.87010E+01 0.00000E+00
 -1      1454 1.04400E+02 4.87010E+01 0.00000E+00
 -1      1455 1.02150E+02 4.74020E+01 0.00000E+00
 -1      1456 1.05900E+02 4.87010E+01 0.00000E+00
 -1      1457 1.07400E+02 4.87010E+01 0.00000E+00
 -1      1458 1.05150E+02 4.74020E+01 0.00000E+00
 -1      1459 1.08900E+02 4.87010E+01 0.00000E+00
 -1      1460 1.10400E+02 4.87010E+01 0.00000E+00
 -1      1461 1.08150E+02 4.74020E+01 0.00000E+00
 -1      1462 1.11900E+02 4.87010E+01 0.00000E+00
 -1      1463 1.13400E+02 4.87010E+01 0.00000E+00
 -1      1464 1.11150E+02 4.74020E+01 0.00000E+00
 -1      1465 1.14900E+02 4.87010E+01 0.00000E+00
 -1      1466 1.16400E+02 4.87010E+01 0.00000E+00
 -1      1467 1.14150E+02 4.74020E+01 0.00000E+00
 -1      1468 1.17900E+02 4.87010E+01 0.00000E+00
 -1      1469 1.19400E+02 4.87010E+01 0.00000E+00
 -1      1470 1.17150E+02 4.74020E+01 0.00000E+00
 -1      1471 1.20900E+02 4.87010E+01 0.00000E+00
 -1      1472 1.22400E+02 4.87010E+01 0.00000E+00
 -1      1473 1.20150E+02 4.74020E+01 0.00000E+00
 -1      1474 1.23900E+02 4.87010E+01 0.00000E+00
 -1      1475 1.25400E+02 4.87010E+01 0.00000E+00
 -1      1476 1.23150E+02 4.74020E+01 0.00000E+00
 -1      1477 1.26900E+02 4.87010E+01 0.00000E+00
 -1      1478 1.28400E+02 4.87010E+01 0.00000E+00
 -1      1479 1.26150E+02 4.74020E+01 0.00000E+00
 -1      1480 1.29900E+02 4.87010E+01 0.00000E+00
 -1      1481 1.31400E+02 4.87010E+01 0.00000E+00
 -1      1482 1.29150E+02 4.74020E+01 0.00000E+00
 -1      1483 1.32900E+02 4.87010E+01 0.00000E+00
 -1      1484 1.34400E+02 4.87010E+01 0.00000E+00
 -1      1485 1.32150E+02 4.74020E+01 0.00000E+00
 -1      1486 1.35900E+02 4.87010E+01 0.00000E+00
 -1      1487 1.37400E+02 4.87010E+01 0.00000E+00
 -1      1488 1.35150E+02 4.74020E+01 0.00000E+00
 -1      1489 1.38900E+02 4.87010E+01 0.00000E+00
 -1      1490 1.40400E+02 4.87010E+01 0.00000E+00
 -1      1491 1.38150E+02 4.74020E+01 0.00000E+00
 -1      1492 1.41900E+02 4.87010E+01 0.00000E+00
 -1      1493 1.43400E+02 4.87010E+01 0.00000E+00
 -1      1494 1.41150E+02 4.74020E+01 0.00000E+00
 -1      1495 1.44900E+02 4.87010E+01 0.00000E+00
 -1      1496 1.46400E+02 4.87010E+01 0.00000E+00
 -1      1497 1.44150E+02 4.74020E+01 0.00000E+00
 -1      1498 1.48575E+02 4.85500E+01 0.00000E+00
 -1      1499 1.47825E+02 4.72510E+01 0.00000E+00
 -1      1500 6.01200E+00 1.09375E+00 0.00000E+00
 -1      1501 4.51200E+00 1.09375E+00 0.00000E+00
 -1      1502 4.37400E+00 2.18750E+00 0.00000E+00
 -1      1503 9.01200E+00 1.09375E+00 0.00000E+00
 -1      1504 7.51200E+00 1.09375E+00 0.00000E+00
 -1      1505 7.37400E+00 2.18750E+00 0.00000E+00
 -1      1506 1.20120E+01 1.09375E+00 0.00000E+00
 -1      1507 1.05120E+01 1.09375E+00 0.00000E+00
 -1      1508 1.03740E+01 2.18750E+00 0.00000E+00
 -1      1509 1.50120E+01 1.09375E+00 0.00000E+00
 -1      1510 1.35120E+01 1.09375E+00 0.00000E+00
 -1      1511 1.33740E+01 2.18750E+00 0.00000E+00
 -1      1512 1.80120E+01 1.09375E+00 0.00000E+00
 -1      1513 1.65120E+01 1.09375E+00 0.00000E+00
 -1      1514 1.63740E+01 2.18750E+00 0.00000E+00
 -1      1515 2.10120E+01 1.09375E+00 0.00000E+00
 -1      1516 1.95120E+01 1.09375E+00 0.00000E+00
 -1      1517 1.93740E+01 2.18750E+00 0.00000E+00
 -1      1518 2.40120E+01 1.09375E+00 0.00000E+00
 -1      1519 2.25120E+01 1.09375E+00 0.00000E+00
 -1      1520 2.23740E+01 2.18750E+00 0.00000E+00
 -1      1521 2.67120E+01 1.09375E+00 0.00000E+00
 -1      1522 2.53620E+01 1.09375E+00 0.00000E+00
 -1      1523 2.52240E+01 2.18750E+00 0.00000E+00
 -1      1524 2.95620E+01 1.09375E+00 0.00000E+00
 -1      1525 2.81370E+01 1.09375E+00 0.00000E+00
 -1      1526 2.79990E+01 2.18750E+00 0.00000E+00
 -1      1527 3.25620E+01 1.09375E+00 0.00000E+00
 -1      1528 3.10620E+01 1.09375E+00 0.00000E+00
 -1      1529 3.09240E+01 2.18750E+00 0.00000E+00
 -1      1530 3.55620E+01 1.09375E+00 0.00000E+00
 -1      1531 3.40620E+01 1.09375E+00 0.00000E+00
 -1      1532 3.39240E+01 2.18750E+00 0.00000E+00
 -1      1533 3.85620E+01 1.09375E+00 0.00000E+00
 -1      1534 3.70620E+01 1.09375E+00 0.00000E+00
 -1      1535 3.69240E+01 2.18750E+00 0.00000E+00
 -1      1536 4.15620E+01 1.09375E+00 0.00000E+00
 -1      1537 4.00620E+01 1.09375E+00 0.00000E+00
 -1      1538 3.99240E+01 2.18750E+00 0.00000E+00
 -1      1539 4.45620E+01 1.09375E+00 0.00000E+00
 -1      1540 4.30620E+01 1.09375E+00 0.00000E+00
 -1      1541 4.29240E+01 2.18750E+00 0.00000E+00
 -1      1542 4.75620E+01 1.09375E+00 0.00000E+00
 -1      1543 4.60620E+01 1.09375E+00 0.00000E+00
 -1      1544 4.59240E+01 2.18750E+00 0.00000E+00
 -1      1545 5.05620E+01 1.09375E+00 0.00000E+00
 -1      1546 4.90620E+01 1.09375E+00 0.00000E+00
 -1      1547 4.89240E+01 2.18750E+00 0.00000E+00
 -1      1548 5.35620E+01 1.09375E+00 0.00000E+00
 -1      1549 5.20620E+01 1.09375E+00 0.00000E+00
 -1      1550 5.19240E+01 2.18750E+00 0.00000E+00
 -1      1551 5.65620E+01 1.09375E+00 0.00000E+00
 -1      1552 5.50620E+01 1.09375E+00 0.00000E+00
 -1      1553 5.49240E+01 2.18750E+00 0.00000E+00
 -1      1554 5.95620E+01 1.09375E+00 0.00000E+00
 -1      1555 5.80620E+01 1.09375E+00 0.00000E+00
 -1      1556 5.79240E+01 2.18750E+00 0.00000E+00
 -1      1557 6.25620E+01 1.09375E+00 0.00000E+00
 -1      1558 6.10620E+01 1.09375E+00 0.00000E+00
 -1      1559 6.09240E+01 2.18750E+00 0.00000E+00
 -1      1560 6.55620E+01 1.09375E+00 0.00000E+00
 -1      1561 6.40620E+01 1.09375E+00 0.00000E+00
 -1      1562 6.39240E+01 2.18750E+00 0.00000E+00
 -1      1563 6.87120E+01 1.09375E+00 0.00000E+00
 -1      1564 6.71370E+01 1.09375E+00 0.00000E+00
 -1      1565 6.69990E+01 2.18750E+00 0.00000E+00
 -1      1566 7.17120E+01 1.09375E+00 0.00000E+00
 -1      1567 7.02120E+01 1.09375E+00 0.00000E+00
 -1      1568 7.00740E+01 2.18750E+00 0.00000E+00
 -1      1569 7.47120E+01 1.09375E+00 0.00000E+00
 -1      1570 7.32120E+01 1.09375E+00 0.00000E+00
 -1      1571 7.30740E+01 2.18750E+00 0.00000E+00
 -1      1572 7.77120E+01 1.09375E+00 0.00000E+00
 -1      1573 7.62120E+01 1.09375E+00 0.00000E+00
 -1      1574 7.60740E+01 2.18750E+00 0.00000E+00
 -1      1575 8.07120E+01 1.09375E+00 0.00000E+00
 -1      1576 7.92120E+01 1.09375E+00 0.00000E+00
 -1      1577 7.90740E+01 2.18750E+00 0.00000E+00
 -1      1578 8.37120E+01 1.09375E+00 0.00000E+00
 -1      1579 8.22120E+01 1.09375E+00 0.00000E+00
 -1      1580 8.20740E+01 2.18750E+00 0.00000E+00
 -1      1581 8.67120E+01 1.09375E+00 0.00000E+00
 -1      1582 8.52120E+01 1.09375E+00 0.00000E+00
 -1      1583 8.50740E+01 2.18750E+00 0.00000E+00
 -1      1584 8.97120E+01 1.09375E+00 0.00000E+00
 -1      1585 8.82120E+01 1.09375E+00 0.00000E+00
 -1      1586 8.80740E+01 2.18750E+00 0.00000E+00
 -1      1587 9.27120E+01 1.09375E+00 0.00000E+00
 -1      1588 9.12120E+01 1.09375E+00 0.00000E+00
 -1      1589 9.10740E+01 2.18750E+00 0.00000E+00
 -1      1590 9.57120E+01 1.09375E+00 0.00000E+00
 -1      1591 9.42120E+01 1.09375E+00 0.00000E+00
 -1      1592 9.40740E+01 2.18750E+00 0.00000E+00
 -1      1593 9.87120E+01 1.09375E+00 0.00000E+00
 -1      1594 9.72120E+01 1.09375E+00 0.00000E+00
 -1      1595 9.70740E+01 2.18750E+00 0.00000E+00
 -1      1596 1.01712E+02 1.09375E+00 0.00000E+00
 -1      1597 1.00212E+02 1.09375E+00 0.00000E+00
 -1      1598 1.00074E+02 2.18750E+00 0.00000E+00
 -1      1599 1.04712E+02 1.09375E+00 0.00000E+00
 -1      1600 1.03212E+02 1.09375E+00 0.00000E+00
 -1      1601 1.03074E+02 2.18750E+00 0.00000E+00
 -1      1602 1.07712E+02 1.09375E+00 0.00000E+00
 -1      1603 1.06212E+02 1.09375E+00 0.00000E+00
 -1      1604 1.06074E+02 2.18750E+00 0.00000E+00
 -1      1605 1.10862E+02 1.09375E+00 0.00000E+00
 -1      1606 1.09287E+02 1.09375E+00 0.00000E+00
 -1      1607 1.09149E+02 2.18750E+00 0.00000E+00
 -1      1608 1.13862E+02 1.09375E+00 0.00000E+00
 -1      1609 1.12362E+02 1.09375E+00 0.00000E+00
 -1      1610 1.12224E+02 2.18750E+00 0.00000E+00
 -1      1611 1.16862E+02 1.09375E+00 0.00000E+00
 -1      1612 1.15362E+02 1.09375E+00 0.00000E+00
 -1      1613 1.15224E+02 2.18750E+00 0.00000E+00
 -1      1614 1.19862E+02 1.09375E+00 0.00000E+00
 -1      1615 1.18362E+02 1.09375E+00 0.00000E+00
 -1      1616 1.18224E+02 2.18750E+00 0.00000E+00
 -1      1617 1.22862E+02 1.09375E+00 0.00000E+00
 -1      1618 1.21362E+02 1.09375E+00 0.00000E+00
 -1      1619 1.21224E+02 2.18750E+00 0.00000E+00
 -1      1620 1.25862E+02 1.09375E+00 0.00000E+00
 -1      1621 1.24362E+02 1.09375E+00 0.00000E+00
 -1      1622 1.24224E+02 2.18750E+00 0.00000E+00
 -1      1623 1.28862E+02 1.09375E+00 0.00000E+00
 -1      1624 1.27362E+02 1.09375E+00 0.00000E+00
 -1      1625 1.27224E+02 2.18750E+00 0.00000E+00
 -1      1626 1.31862E+02 1.09375E+00 0.00000E+00
 -1      1627 1.30362E+02 1.09375E+00 0.00000E+00
 -1      1628 1.30224E+02 2.18750E+00 0.00000E+00
 -1      1629 1.34862E+02 1.09375E+00 0.00000E+00
 -1      1630 1.33362E+02 1.09375E+00 0.00000E+00
 -1      1631 1.33224E+02 2.18750E+00 0.00000E+00
 -1      1632 1.37862E+02 1.09375E+00 0.00000E+00
 -1      1633 1.36362E+02 1.09375E+00 0.00000E+00
 -1      1634 1.36224E+02 2.18750E+00 0.00000E+00
 -1      1635 1.40862E+02 1.09375E+00 0.00000E+00
 -1      1636 1.39362E+02 1.09375E+00 0.00000E+00
 -1      1637 1.39224E+02 2.18750E+00 0.00000E+00
 -1      1638 1.43862E+02 1.09375E+00 0.00000E+00
 -1      1639 1.42362E+02 1.09375E+00 0.00000E+00
 -1      1640 1.42224E+02 2.18750E+00 0.00000E+00
 -1      1641 1.46862E+02 1.09375E+00 0.00000E+00
 -1      1642 1.45362E+02 1.09375E+00 0.00000E+00
 -1      1643 1.45224E+02 2.18750E+00 0.00000E+00
 -1      1644 1.48500E+02 1.47500E+00 0.00000E+00
 -1      1645 1.48701E+02 5.16250E+00 0.00000E+00
 -1      1646 1.48701E+02 3.68750E+00 0.00000E+00
 -1      1647 1.48701E+02 8.11250E+00 0.00000E+00
 -1      1648 1.48701E+02 6.63750E+00 0.00000E+00
 -1      1649 1.47402E+02 5.90000E+00 0.00000E+00
 -1      1650 1.48701E+02 1.10625E+01 0.00000E+00
 -1      1651 1.48701E+02 9.58750E+00 0.00000E+00
 -1      1652 1.47402E+02 8.85000E+00 0.00000E+00
 -1      1653 1.48701E+02 1.40125E+01 0.00000E+00
 -1      1654 1.48701E+02 1.25375E+01 0.00000E+00
 -1      1655 1.47402E+02 1.18000E+01 0.00000E+00
 -1      1656 1.48701E+02 1.69125E+01 0.00000E+00
 -1      1657 1.48701E+02 1.54625E+01 0.00000E+00
 -1      1658 1.47402E+02 1.47250E+01 0.00000E+00
 -1      1659 1.48701E+02 1.98625E+01 0.00000E+00
 -1      1660 1.48701E+02 1.83875E+01 0.00000E+00
 -1      1661 1.47402E+02 1.76500E+01 0.00000E+00
 -1      1662 1.48701E+02 2.28125E+01 0.00000E+00
 -1      1663 1.48701E+02 2.13375E+01 0.00000E+00
 -1      1664 1.47402E+02 2.06000E+01 0.00000E+00
 -1      1665 1.48701E+02 2.57625E+01 0.00000E+00
 -1      1666 1.48701E+02 2.42875E+01 0.00000E+00
 -1      1667 1.47402E+02 2.35500E+01 0.00000E+00
 -1      1668 1.48701E+02 2.87125E+01 0.00000E+00
 -1      1669 1.48701E+02 2.72375E+01 0.00000E+00
 -1      1670 1.47402E+02 2.65000E+01 0.00000E+00
 -1      1671 1.48701E+02 3.16625E+01 0.00000E+00
 -1      1672 1.48701E+02 3.01875E+01 0.00000E+00
 -1      1673 1.47402E+02 2.94500E+01 0.00000E+00
 -1      1674 1.48701E+02 3.45625E+01 0.00000E+00
 -1      1675 1.48701E+02 3.31125E+01 0.00000E+00
 -1      1676 1.47402E+02 3.23750E+01 0.00000E+00
 -1      1677 1.48701E+02 3.75125E+01 0.00000E+00
 -1      1678 1.48701E+02 3.60375E+01 0.00000E+00
 -1      1679 1.47402E+02 3.53000E+01 0.00000E+00
 -1      1680 1.48701E+02 4.04625E+01 0.00000E+00
 -1      1681 1.48701E+02 3.89875E+01 0.00000E+00
 -1      1682 1.47402E+02 3.82500E+01 0.00000E+00
 -1      1683 1.48701E+02 4.34125E+01 0.00000E+00
 -1      1684 1.48701E+02 4.19375E+01 0.00000E+00
 -1      1685 1.47402E+02 4.12000E+01 0.00000E+00
 -1      1686 1.48263E+02 4.60692E+01 0.00000E+00
 -1      1687 1.48263E+02 4.45942E+01 0.00000E+00
 -1      1688 1.46964E+02 4.38568E+01 0.00000E+00
 -1      1689 1.46088E+02 4.62202E+01 0.00000E+00
 -1      1690 3.10901E+01 1.49634E+01 0.00000E+00
 -1      1691 3.11683E+01 1.56993E+01 0.00000E+00
 -1      1692 3.07042E+01 1.33695E+01 0.00000E+00
 -1      1693 3.09424E+01 1.40877E+01 0.00000E+00
 -1      1694 2.98849E+01 1.19611E+01 0.00000E+00
 -1      1695 3.02629E+01 1.25995E+01 0.00000E+00
 -1      1696 2.88319E+01 1.03695E+01 0.00000E+00
 -1      1697 2.94698E+01 1.10250E+01 0.00000E+00
 -1      1698 2.72966E+01 9.54267E+00 0.00000E+00
 -1      1699 2.79136E+01 9.93248E+00 0.00000E+00
 -1      1700 2.58633E+01 8.91569E+00 0.00000E+00
 -1      1701 2.65382E+01 9.16661E+00 0.00000E+00
 -1      1702 2.42050E+01 8.42571E+00 0.00000E+00
 -1      1703 2.50147E+01 8.53644E+00 0.00000E+00
 -1      1704 2.25369E+01 8.58709E+00 0.00000E+00
 -1      1705 2.32718E+01 8.52324E+00 0.00000E+00
 -1      1706 2.08875E+01 8.96303E+00 0.00000E+00
 -1      1707 2.16412E+01 8.72542E+00 0.00000E+00
 -1      1708 1.94778E+01 9.75369E+00 0.00000E+00
 -1      1709 2.01032E+01 9.39414E+00 0.00000E+00
 -1      1710 1.82524E+01 1.07308E+01 0.00000E+00
 -1      1711 1.87932E+01 1.02481E+01 0.00000E+00
 -1      1712 1.71179E+01 1.20075E+01 0.00000E+00
 -1      1713 1.75894E+01 1.13506E+01 0.00000E+00
 -1      1714 1.62703E+01 1.35472E+01 0.00000E+00
 -1      1715 1.65753E+01 1.28106E+01 0.00000E+00
 -1      1716 1.60032E+01 1.51991E+01 0.00000E+00
 -1      1717 1.61305E+01 1.44667E+01 0.00000E+00
 -1      1718 1.59329E+01 1.68103E+01 0.00000E+00
 -1      1719 1.59034E+01 1.60726E+01 0.00000E+00
 -1      1720 1.62857E+01 1.85060E+01 0.00000E+00
 -1      1721 1.60756E+01 1.77221E+01 0.00000E+00
 -1      1722 1.70596E+01 2.00177E+01 0.00000E+00
 -1      1723 1.67010E+01 1.93415E+01 0.00000E+00
 -1      1724 1.80107E+01 2.14077E+01 0.00000E+00
 -1      1725 1.75040E+01 2.08165E+01 0.00000E+00
 -1      1726 1.92683E+01 2.24289E+01 0.00000E+00
 -1      1727 1.86878E+01 2.19907E+01 0.00000E+00
 -1      1728 2.07578E+01 2.32576E+01 0.00000E+00
 -1      1729 2.00278E+01 2.29249E+01 0.00000E+00
 -1      1730 2.24142E+01 2.36218E+01 0.00000E+00
 -1      1731 2.16625E+01 2.34672E+01 0.00000E+00
 -1      1732 2.40639E+01 2.36934E+01 0.00000E+00
 -1      1733 2.33025E+01 2.37055E+01 0.00000E+00
 -1      1734 2.57087E+01 2.34867E+01 0.00000E+00
 -1      1735 2.49663E+01 2.36638E+01 0.00000E+00
 -1      1736 2.71409E+01 2.28164E+01 0.00000E+00
 -1      1737 2.65008E+01 2.31216E+01 0.00000E+00
 -1      1738 2.85273E+01 2.19665E+01 0.00000E+00
 -1      1739 2.79229E+01 2.24312E+01 0.00000E+00
 -1      1740 2.95504E+01 2.07830E+01 0.00000E+00
 -1      1741 2.90969E+01 2.13146E+01 0.00000E+00
 -1      1742 3.04551E+01 1.94774E+01 0.00000E+00
 -1      1743 3.00993E+01 2.01288E+01 0.00000E+00
 -1      1744 3.09085E+01 1.80061E+01 0.00000E+00
 -1      1745 3.07078E+01 1.86668E+01 0.00000E+00
 -1      1746 3.11327E+01 1.65360E+01 0.00000E+00
 -1      1747 3.10656E+01 1.72180E+01 0.00000E+00
 -1      1748 2.88471E+01 9.66210E+00 0.00000E+00
 -1      1749 3.01804E+01 1.10353E+01 0.00000E+00
 -1      1750 1.48362E+02 2.56875E+00 0.00000E+00
 -1      1751 1.47063E+02 3.30625E+00 0.00000E+00
 -1      1752 3.16259E+01 1.43871E+01 0.00000E+00
 -1      1753 3.10368E+01 1.27414E+01 0.00000E+00
 -1      1754 3.17381E+01 1.60996E+01 0.00000E+00
 -1      1755 2.71705E+01 8.84902E+00 0.00000E+00
 -1      1756 2.55634E+01 8.09370E+00 0.00000E+00
 -1      1757 2.37815E+01 7.81197E+00 0.00000E+00
 -1      1758 2.19526E+01 8.04784E+00 0.00000E+00
 -1      1759 2.02727E+01 8.61727E+00 0.00000E+00
 -1      1760 1.88038E+01 9.54281E+00 0.00000E+00
 -1      1761 1.74561E+01 1.06570E+01 0.00000E+00
 -1      1762 1.62505E+01 1.20798E+01 0.00000E+00
 -1      1763 1.55681E+01 1.38024E+01 0.00000E+00
 -1      1764 1.53285E+01 1.55955E+01 0.00000E+00
 -1      1765 1.53715E+01 1.73808E+01 0.00000E+00
 -1      1766 1.59295E+01 1.91281E+01 0.00000E+00
 -1      1767 1.67891E+01 2.07624E+01 0.00000E+00
 -1      1768 1.79105E+01 2.21441E+01 0.00000E+00
 -1      1769 1.93471E+01 2.32230E+01 0.00000E+00
 -1      1770 2.10114E+01 2.39287E+01 0.00000E+00
 -1      1771 2.28045E+01 2.42219E+01 0.00000E+00
 -1      1772 2.45952E+01 2.42760E+01 0.00000E+00
 -1      1773 2.62897E+01 2.38813E+01 0.00000E+00
 -1      1774 2.78637E+01 2.31310E+01 0.00000E+00
 -1      1775 2.92153E+01 2.20940E+01 0.00000E+00
 -1      1776 3.03338E+01 2.07880E+01 0.00000E+00
 -1      1777 3.11355E+01 1.93232E+01 0.00000E+00
 -1      1778 3.15453E+01 1.77245E+01 0.00000E+00
 -1      1779 2.87400E+00 4.77875E+01 0.00000E+00
 -1      1780 3.89700E+00 4.04125E+01 0.00000E+00
 -1      1781 3.89700E+00 4.18875E+01 0.00000E+00
 -1      1782 3.89700E+00 4.33625E+01 0.00000E+00
 -1      1783 3.89700E+00 4.48375E+01 0.00000E+00
 -1      1784 5.19600E+00 4.26250E+01 0.00000E+00
 -1      1785 3.89700E+00 3.45500E+01 0.00000E+00
 -1      1786 3.89700E+00 3.60000E+01 0.00000E+00
 -1      1787 3.89700E+00 3.16000E+01 0.00000E+00
 -1      1788 3.89700E+00 3.30750E+01 0.00000E+00
 -1      1789 5.19600E+00 3.38000E+01 0.00000E+00
 -1      1790 3.89700E+00 2.86500E+01 0.00000E+00
 -1      1791 3.89700E+00 3.01250E+01 0.00000E+00
 -1      1792 5.19600E+00 3.08500E+01 0.00000E+00
 -1      1793 3.89700E+00 2.57000E+01 0.00000E+00
 -1      1794 3.89700E+00 2.71750E+01 0.00000E+00
 -1      1795 5.19600E+00 2.79000E+01 0.00000E+00
 -1      1796 3.89700E+00 2.27500E+01 0.00000E+00
 -1      1797 3.89700E+00 2.42250E+01 0.00000E+00
 -1      1798 5.19600E+00 2.49500E+01 0.00000E+00
 -1      1799 3.89700E+00 1.98000E+01 0.00000E+00
 -1      1800 3.89700E+00 2.12750E+01 0.00000E+00
 -1      1801 5.19600E+00 2.20000E+01 0.00000E+00
 -1      1802 3.89700E+00 1.69000E+01 0.00000E+00
 -1      1803 3.89700E+00 1.83500E+01 0.00000E+00
 -1      1804 5.19600E+00 1.90750E+01 0.00000E+00
 -1      1805 3.89700E+00 1.39500E+01 0.00000E+00
 -1      1806 3.89700E+00 1.54250E+01 0.00000E+00
 -1      1807 5.19600E+00 1.61500E+01 0.00000E+00
 -1      1808 3.89700E+00 1.10000E+01 0.00000E+00
 -1      1809 3.89700E+00 1.24750E+01 0.00000E+00
 -1      1810 5.19600E+00 1.32000E+01 0.00000E+00
 -1      1811 3.89700E+00 8.05000E+00 0.00000E+00
 -1      1812 3.89700E+00 9.52500E+00 0.00000E+00
 -1      1813 5.19600E+00 1.02500E+01 0.00000E+00
 -1      1814 3.89700E+00 5.10000E+00 0.00000E+00
 -1      1815 3.89700E+00 6.57500E+00 0.00000E+00
 -1      1816 5.19600E+00 7.30000E+00 0.00000E+00
 -1      1817 4.20450E+00 3.09687E+00 0.00000E+00
 -1      1818 4.06650E+00 4.19063E+00 0.00000E+00
 -1      1819 5.36550E+00 4.91563E+00 0.00000E+00
 -1      1820 5.70450E+00 3.09687E+00 0.00000E+00
 -1      1821 3.62400E+00 4.64885E+01 0.00000E+00
 -1      1822 8.70450E+00 3.09687E+00 0.00000E+00
 -1      1823 7.20450E+00 3.09687E+00 0.00000E+00
 -1      1824 7.03500E+00 4.00625E+00 0.00000E+00
 -1      1825 4.92300E+00 4.57510E+01 0.00000E+00
 -1      1826 8.40000E+00 4.61030E+01 0.00000E+00
 -1      1827 9.90000E+00 4.61030E+01 0.00000E+00
 -1      1828 1.14000E+01 4.61030E+01 0.00000E+00
 -1      1829 1.29000E+01 4.61030E+01 0.00000E+00
 -1      1830 1.06500E+01 4.48040E+01 0.00000E+00
 -1      1831 1.44000E+01 4.61030E+01 0.00000E+00
 -1      1832 1.59000E+01 4.61030E+01 0.00000E+00
 -1      1833 1.36500E+01 4.48040E+01 0.00000E+00
 -1      1834 1.74000E+01 4.61030E+01 0.00000E+00
 -1      1835 1.89000E+01 4.61030E+01 0.00000E+00
 -1      1836 1.66500E+01 4.48040E+01 0.00000E+00
 -1      1837 2.04000E+01 4.61030E+01 0.00000E+00
 -1      1838 2.19000E+01 4.61030E+01 0.00000E+00
 -1      1839 1.96500E+01 4.48040E+01 0.00000E+00
 -1      1840 2.34000E+01 4.61030E+01 0.00000E+00
 -1      1841 2.49000E+01 4.61030E+01 0.00000E+00
 -1      1842 2.26500E+01 4.48040E+01 0.00000E+00
 -1      1843 2.64000E+01 4.61030E+01 0.00000E+00
 -1      1844 2.79000E+01 4.61030E+01 0.00000E+00
 -1      1845 2.56500E+01 4.48040E+01 0.00000E+00
 -1      1846 2.94000E+01 4.61030E+01 0.00000E+00
 -1      1847 3.09000E+01 4.61030E+01 0.00000E+00
 -1      1848 2.86500E+01 4.48040E+01 0.00000E+00
 -1      1849 3.24000E+01 4.61030E+01 0.00000E+00
 -1      1850 3.39000E+01 4.61030E+01 0.00000E+00
 -1      1851 3.16500E+01 4.48040E+01 0.00000E+00
 -1      1852 3.54000E+01 4.61030E+01 0.00000E+00
 -1      1853 3.69000E+01 4.61030E+01 0.00000E+00
 -1      1854 3.46500E+01 4.48040E+01 0.00000E+00
 -1      1855 3.84000E+01 4.61030E+01 0.00000E+00
 -1      1856 3.99000E+01 4.61030E+01 0.00000E+00
 -1      1857 3.76500E+01 4.48040E+01 0.00000E+00
 -1      1858 4.14000E+01 4.61030E+01 0.00000E+00
 -1      1859 4.29000E+01 4.61030E+01 0.00000E+00
 -1      1860 4.06500E+01 4.48040E+01 0.00000E+00
 -1      1861 4.44000E+01 4.61030E+01 0.00000E+00
 -1      1862 4.59000E+01 4.61030E+01 0.00000E+00
 -1      1863 4.36500E+01 4.48040E+01 0.00000E+00
 -1      1864 4.74000E+01 4.61030E+01 0.00000E+00
 -1      1865 4.89000E+01 4.61030E+01 0.00000E+00
 -1      1866 4.66500E+01 4.48040E+01 0.00000E+00
 -1      1867 5.04000E+01 4.61030E+01 0.00000E+00
 -1      1868 5.19000E+01 4.61030E+01 0.00000E+00
 -1      1869 4.96500E+01 4.48040E+01 0.00000E+00
 -1      1870 5.34000E+01 4.61030E+01 0.00000E+00
 -1      1871 5.49000E+01 4.61030E+01 0.00000E+00
 -1      1872 5.26500E+01 4.48040E+01 0.00000E+00
 -1      1873 5.64000E+01 4.61030E+01 0.00000E+00
 -1      1874 5.79000E+01 4.61030E+01 0.00000E+00
 -1      1875 5.56500E+01 4.48040E+01 0.00000E+00
 -1      1876 5.94000E+01 4.61030E+01 0.00000E+00
 -1      1877 6.09000E+01 4.61030E+01 0.00000E+00
 -1      1878 5.86500E+01 4.48040E+01 0.00000E+00
 -1      1879 6.24000E+01 4.61030E+01 0.00000E+00
 -1      1880 6.39000E+01 4.61030E+01 0.00000E+00
 -1      1881 6.16500E+01 4.48040E+01 0.00000E+00
 -1      1882 6.54000E+01 4.61030E+01 0.00000E+00
 -1      1883 6.69000E+01 4.61030E+01 0.00000E+00
 -1      1884 6.46500E+01 4.48040E+01 0.00000E+00
 -1      1885 6.84000E+01 4.61030E+01 0.00000E+00
 -1      1886 6.99000E+01 4.61030E+01 0.00000E+00
 -1      1887 6.76500E+01 4.48040E+01 0.00000E+00
 -1      1888 7.14000E+01 4.61030E+01 0.00000E+00
 -1      1889 7.29000E+01 4.61030E+01 0.00000E+00
 -1      1890 7.06500E+01 4.48040E+01 0.00000E+00
 -1      1891 7.44000E+01 4.61030E+01 0.00000E+00
 -1      1892 7.59000E+01 4.61030E+01 0.00000E+00
 -1      1893 7.36500E+01 4.48040E+01 0.00000E+00
 -1      1894 7.74000E+01 4.61030E+01 0.00000E+00
 -1      1895 7.89000E+01 4.61030E+01 0.00000E+00
 -1      1896 7.66500E+01 4.48040E+01 0.00000E+00
 -1      1897 8.04000E+01 4.61030E+01 0.00000E+00
 -1      1898 8.19000E+01 4.61030E+01 0.00000E+00
 -1      1899 7.96500E+01 4.48040E+01 0.00000E+00
 -1      1900 8.34000E+01 4.61030E+01 0.00000E+00
 -1      1901 8.49000E+01 4.61030E+01 0.00000E+00
 -1      1902 8.26500E+01 4.48040E+01 0.00000E+00
 -1      1903 8.64000E+01 4.61030E+01 0.00000E+00
 -1      1904 8.79000E+01 4.61030E+01 0.00000E+00
 -1      1905 8.56500E+01 4.48040E+01 0.00000E+00
 -1      1906 8.94000E+01 4.61030E+01 0.00000E+00
 -1      1907 9.09000E+01 4.61030E+01 0.00000E+00
 -1      1908 8.86500E+01 4.48040E+01 0.00000E+00
 -1      1909 9.24000E+01 4.61030E+01 0.00000E+00
 -1      1910 9.39000E+01 4.61030E+01 0.00000E+00
 -1      1911 9.16500E+01 4.48040E+01 0.00000E+00
 -1      1912 9.54000E+01 4.61030E+01 0.00000E+00
 -1      1913 9.69000E+01 4.61030E+01 0.00000E+00
 -1      1914 9.46500E+01 4.48040E+01 0.00000E+00
 -1      1915 9.84000E+01 4.61030E+01 0.00000E+00
 -1      1916 9.99000E+01 4.61030E+01 0.00000E+00
 -1      1917 9.76500E+01 4.48040E+01 0.00000E+00
 -1      1918 1.01400E+02 4.61030E+01 0.00000E+00
 -1      1919 1.02900E+02 4.61030E+01 0.00000E+00
 -1      1920 1.00650E+02 4.48040E+01 0.00000E+00
 -1      1921 1.04400E+02 4.61030E+01 0.00000E+00
 -1      1922 1.05900E+02 4.61030E+01 0.00000E+00
 -1      1923 1.03650E+02 4.48040E+01 0.00000E+00
 -1      1924 1.07400E+02 4.61030E+01 0.00000E+00
 -1      1925 1.08900E+02 4.61030E+01 0.00000E+00
 -1      1926 1.06650E+02 4.48040E+01 0.00000E+00
 -1      1927 1.10400E+02 4.61030E+01 0.00000E+00
 -1      1928 1.11900E+02 4.61030E+01 0.00000E+00
 -1      1929 1.09650E+02 4.48040E+01 0.00000E+00
 -1      1930 1.13400E+02 4.61030E+01 0.00000E+00
 -1      1931 1.14900E+02 4.61030E+01 0.00000E+00
 -1      1932 1.12650E+02 4.48040E+01 0.00000E+00
 -1      1933 1.16400E+02 4.61030E+01 0.00000E+00
 -1      1934 1.17900E+02 4.61030E+01 0.00000E+00
 -1      1935 1.15650E+02 4.48040E+01 0.00000E+00
 -1      1936 1.19400E+02 4.61030E+01 0.00000E+00
 -1      1937 1.20900E+02 4.61030E+01 0.00000E+00
 -1      1938 1.18650E+02 4.48040E+01 0.00000E+00
 -1      1939 1.22400E+02 4.61030E+01 0.00000E+00
 -1      1940 1.23900E+02 4.61030E+01 0.00000E+00
 -1      1941 1.21650E+02 4.48040E+01 0.00000E+00
 -1      1942 1.25400E+02 4.61030E+01 0.00000E+00
 -1      1943 1.26900E+02 4.61030E+01 0.00000E+00
 -1      1944 1.24650E+02 4.48040E+01 0.00000E+00
 -1      1945 1.28400E+02 4.61030E+01 0.00000E+00
 -1      1946 1.29900E+02 4.61030E+01 0.00000E+00
 -1      1947 1.27650E+02 4.48040E+01 0.00000E+00
 -1      1948 1.31400E+02 4.61030E+01 0.00000E+00
 -1      1949 1.32900E+02 4.61030E+01 0.00000E+00
 -1      1950 1.30650E+02 4.48040E+01 0.00000E+00
 -1      1951 1.34400E+02 4.61030E+01 0.00000E+00
 -1      1952 1.35900E+02 4.61030E+01 0.00000E+00
 -1      1953 1.33650E+02 4.48040E+01 0.00000E+00
 -1      1954 1.37400E+02 4.61030E+01 0.00000E+00
 -1      1955 1.38900E+02 4.61030E+01 0.00000E+00
 -1      1956 1.36650E+02 4.48040E+01 0.00000E+00
 -1      1957 1.40400E+02 4.61030E+01 0.00000E+00
 -1      1958 1.41900E+02 4.61030E+01 0.00000E+00
 -1      1959 1.39650E+02 4.48040E+01 0.00000E+00
 -1      1960 1.43244E+02 4.61616E+01 0.00000E+00
 -1      1961 1.44744E+02 4.61616E+01 0.00000E+00
 -1      1962 1.45182E+02 4.49799E+01 0.00000E+00
 -1      1963 1.42494E+02 4.48626E+01 0.00000E+00
 -1      1964 1.17045E+01 3.09687E+00 0.00000E+00
 -1      1965 1.02045E+01 3.09687E+00 0.00000E+00
 -1      1966 1.00350E+01 4.00625E+00 0.00000E+00
 -1      1967 1.47045E+01 3.09687E+00 0.00000E+00
 -1      1968 1.32045E+01 3.09687E+00 0.00000E+00
 -1      1969 1.30350E+01 4.00625E+00 0.00000E+00
 -1      1970 1.77045E+01 3.09687E+00 0.00000E+00
 -1      1971 1.62045E+01 3.09687E+00 0.00000E+00
 -1      1972 1.60350E+01 4.00625E+00 0.00000E+00
 -1      1973 2.07045E+01 3.09687E+00 0.00000E+00
 -1      1974 1.92045E+01 3.09687E+00 0.00000E+00
 -1      1975 1.90350E+01 4.00625E+00 0.00000E+00
 -1      1976 2.37045E+01 3.09687E+00 0.00000E+00
 -1      1977 2.22045E+01 3.09687E+00 0.00000E+00
 -1      1978 2.20350E+01 4.00625E+00 0.00000E+00
 -1      1979 2.64045E+01 3.09687E+00 0.00000E+00
 -1      1980 2.50545E+01 3.09687E+00 0.00000E+00
 -1      1981 2.48850E+01 4.00625E+00 0.00000E+00
 -1      1982 2.92545E+01 3.09687E+00 0.00000E+00
 -1      1983 2.78295E+01 3.09687E+00 0.00000E+00
 -1      1984 2.76600E+01 4.00625E+00 0.00000E+00
 -1      1985 3.22545E+01 3.09687E+00 0.00000E+00
 -1      1986 3.07545E+01 3.09687E+00 0.00000E+00
 -1      1987 3.05850E+01 4.00625E+00 0.00000E+00
 -1      1988 3.52545E+01 3.09687E+00 0.00000E+00
 -1      1989 3.37545E+01 3.09687E+00 0.00000E+00
 -1      1990 3.35850E+01 4.00625E+00 0.00000E+00
 -1      1991 3.82545E+01 3.09687E+00 0.00000E+00
 -1      1992 3.67545E+01 3.09687E+00 0.00000E+00
 -1      1993 3.65850E+01 4.00625E+00 0.00000E+00
 -1      1994 4.12545E+01 3.09687E+00 0.00000E+00
 -1      1995 3.97545E+01 3.09687E+00 0.00000E+00
 -1      1996 3.95850E+01 4.00625E+00 0.00000E+00
 -1      1997 4.42545E+01 3.09687E+00 0.00000E+00
 -1      1998 4.27545E+01 3.09687E+00 0.00000E+00
 -1      1999 4.25850E+01 4.00625E+00 0.00000E+00
 -1      2000 4.72545E+01 3.09687E+00 0.00000E+00
 -1      2001 4.57545E+01 3.09687E+00 0.00000E+00
 -1      2002 4.55850E+01 4.00625E+00 0.00000E+00
 -1      2003 5.02545E+01 3.09687E+00 0.00000E+00
 -1      2004 4.87545E+01 3.09687E+00 0.00000E+00
 -1      2005 4.85850E+01 4.00625E+00 0.00000E+00
 -1      2006 5.32545E+01 3.09687E+00 0.00000E+00
 -1      2007 5.17545E+01 3.09687E+00 0.00000E+00
 -1      2008 5.15850E+01 4.00625E+00 0.00000E+00
 -1      2009 5.62545E+01 3.09687E+00 0.00000E+00
 -1      2010 5.47545E+01 3.09687E+00 0.00000E+00
 -1      2011 5.45850E+01 4.00625E+00 0.00000E+00
 -1      2012 5.92545E+01 3.09687E+00 0.00000E+00
 -1      2013 5.77545E+01 3.09687E+00 0.00000E+00
 -1      2014 5.75850E+01 4.00625E+00 0.00000E+00
 -1      2015 6.22545E+01 3.09687E+00 0.00000E+00
 -1      2016 6.07545E+01 3.09687E+00 0.00000E+00
 -1      2017 6.05850E+01 4.00625E+00 0.00000E+00
 -1      2018 6.52545E+01 3.09687E+00 0.00000E+00
 -1      2019 6.37545E+01 3.09687E+00 0.00000E+00
 -1      2020 6.35850E+01 4.00625E+00 0.00000E+00
 -1      2021 6.84045E+01 3.09687E+00 0.00000E+00
 -1      2022 6.68295E+01 3.09687E+00 0.00000E+00
 -1      2023 6.66600E+01 4.00625E+00 0.00000E+00
 -1      2024 7.14045E+01 3.09687E+00 0.00000E+00
 -1      2025 6.99045E+01 3.09687E+00 0.00000E+00
 -1      2026 6.97350E+01 4.00625E+00 0.00000E+00
 -1      2027 7.44045E+01 3.09687E+00 0.00000E+00
 -1      2028 7.29045E+01 3.09687E+00 0.00000E+00
 -1      2029 7.27350E+01 4.00625E+00 0.00000E+00
 -1      2030 7.74045E+01 3.09687E+00 0.00000E+00
 -1      2031 7.59045E+01 3.09687E+00 0.00000E+00
 -1      2032 7.57350E+01 4.00625E+00 0.00000E+00
 -1      2033 8.04045E+01 3.09687E+00 0.00000E+00
 -1      2034 7.89045E+01 3.09687E+00 0.00000E+00
 -1      2035 7.87350E+01 4.00625E+00 0.00000E+00
 -1      2036 8.34045E+01 3.09687E+00 0.00000E+00
 -1      2037 8.19045E+01 3.09687E+00 0.00000E+00
 -1      2038 8.17350E+01 4.00625E+00 0.00000E+00
 -1      2039 8.64045E+01 3.09687E+00 0.00000E+00
 -1      2040 8.49045E+01 3.09687E+00 0.00000E+00
 -1      2041 8.47350E+01 4.00625E+00 0.00000E+00
 -1      2042 8.94045E+01 3.09687E+00 0.00000E+00
 -1      2043 8.79045E+01 3.09687E+00 0.00000E+00
 -1      2044 8.77350E+01 4.00625E+00 0.00000E+00
 -1      2045 9.24045E+01 3.09687E+00 0.00000E+00
 -1      2046 9.09045E+01 3.09687E+00 0.00000E+00
 -1      2047 9.07350E+01 4.00625E+00 0.00000E+00
 -1      2048 9.54045E+01 3.09687E+00 0.00000E+00
 -1      2049 9.39045E+01 3.09687E+00 0.00000E+00
 -1      2050 9.37350E+01 4.00625E+00 0.00000E+00
 -1      2051 9.84045E+01 3.09687E+00 0.00000E+00
 -1      2052 9.69045E+01 3.09687E+00 0.00000E+00
 -1      2053 9.67350E+01 4.00625E+00 0.00000E+00
 -1      2054 1.01405E+02 3.09687E+00 0.00000E+00
 -1      2055 9.99045E+01 3.09687E+00 0.00000E+00
 -1      2056 9.97350E+01 4.00625E+00 0.00000E+00
 -1      2057 1.04405E+02 3.09687E+00 0.00000E+00
 -1      2058 1.02905E+02 3.09687E+00 0.00000E+00
 -1      2059 1.02735E+02 4.00625E+00 0.00000E+00
 -1      2060 1.07405E+02 3.09687E+00 0.00000E+00
 -1      2061 1.05905E+02 3.09687E+00 0.00000E+00
 -1      2062 1.05735E+02 4.00625E+00 0.00000E+00
 -1      2063 1.10554E+02 3.09687E+00 0.00000E+00
 -1      2064 1.08979E+02 3.09687E+00 0.00000E+00
 -1      2065 1.08810E+02 4.00625E+00 0.00000E+00
 -1      2066 1.13554E+02 3.09687E+00 0.00000E+00
 -1      2067 1.12054E+02 3.09687E+00 0.00000E+00
 -1      2068 1.11885E+02 4.00625E+00 0.00000E+00
 -1      2069 1.16554E+02 3.09687E+00 0.00000E+00
 -1      2070 1.15054E+02 3.09687E+00 0.00000E+00
 -1      2071 1.14885E+02 4.00625E+00 0.00000E+00
 -1      2072 1.19554E+02 3.09687E+00 0.00000E+00
 -1      2073 1.18054E+02 3.09687E+00 0.00000E+00
 -1      2074 1.17885E+02 4.00625E+00 0.00000E+00
 -1      2075 1.22554E+02 3.09687E+00 0.00000E+00
 -1      2076 1.21054E+02 3.09687E+00 0.00000E+00
 -1      2077 1.20885E+02 4.00625E+00 0.00000E+00
 -1      2078 1.25554E+02 3.09687E+00 0.00000E+00
 -1      2079 1.24054E+02 3.09687E+00 0.00000E+00
 -1      2080 1.23885E+02 4.00625E+00 0.00000E+00
 -1      2081 1.28555E+02 3.09687E+00 0.00000E+00
 -1      2082 1.27054E+02 3.09687E+00 0.00000E+00
 -1      2083 1.26885E+02 4.00625E+00 0.00000E+00
 -1      2084 1.31555E+02 3.09687E+00 0.00000E+00
 -1      2085 1.30055E+02 3.09687E+00 0.00000E+00
 -1      2086 1.29885E+02 4.00625E+00 0.00000E+00
 -1      2087 1.34555E+02 3.09687E+00 0.00000E+00
 -1      2088 1.33055E+02 3.09687E+00 0.00000E+00
 -1      2089 1.32885E+02 4.00625E+00 0.00000E+00
 -1      2090 1.37555E+02 3.09687E+00 0.00000E+00
 -1      2091 1.36055E+02 3.09687E+00 0.00000E+00
 -1      2092 1.35885E+02 4.00625E+00 0.00000E+00
 -1      2093 1.40555E+02 3.09687E+00 0.00000E+00
 -1      2094 1.39055E+02 3.09687E+00 0.00000E+00
 -1      2095 1.38885E+02 4.00625E+00 0.00000E+00
 -1      2096 1.43555E+02 3.09687E+00 0.00000E+00
 -1      2097 1.42055E+02 3.09687E+00 0.00000E+00
 -1      2098 1.41885E+02 4.00625E+00 0.00000E+00
 -1      2099 1.46059E+02 3.20156E+00 0.00000E+00
 -1      2100 1.44559E+02 3.20156E+00 0.00000E+00
 -1      2101 1.44389E+02 4.11094E+00 0.00000E+00
 -1      2102 1.46398E+02 4.32031E+00 0.00000E+00
 -1      2103 1.46103E+02 1.25375E+01 0.00000E+00
 -1      2104 1.46103E+02 1.10625E+01 0.00000E+00
 -1      2105 1.46103E+02 9.58750E+00 0.00000E+00
 -1      2106 1.46103E+02 8.11250E+00 0.00000E+00
 -1      2107 1.44804E+02 1.03250E+01 0.00000E+00
 -1      2108 1.46250E+02 6.95391E+00 0.00000E+00
 -1      2109 1.46250E+02 5.47891E+00 0.00000E+00
 -1      2110 1.45246E+02 5.37422E+00 0.00000E+00
 -1      2111 1.44951E+02 7.69141E+00 0.00000E+00
 -1      2112 1.46103E+02 1.54375E+01 0.00000E+00
 -1      2113 1.46103E+02 1.39875E+01 0.00000E+00
 -1      2114 1.44804E+02 1.32500E+01 0.00000E+00
 -1      2115 1.46103E+02 1.83875E+01 0.00000E+00
 -1      2116 1.46103E+02 1.69125E+01 0.00000E+00
 -1      2117 1.44804E+02 1.61750E+01 0.00000E+00
 -1      2118 1.46103E+02 2.13375E+01 0.00000E+00
 -1      2119 1.46103E+02 1.98625E+01 0.00000E+00
 -1      2120 1.44804E+02 1.91250E+01 0.00000E+00
 -1      2121 1.46103E+02 2.42875E+01 0.00000E+00
 -1      2122 1.46103E+02 2.28125E+01 0.00000E+00
 -1      2123 1.44804E+02 2.20750E+01 0.00000E+00
 -1      2124 1.46103E+02 2.72375E+01 0.00000E+00
 -1      2125 1.46103E+02 2.57625E+01 0.00000E+00
 -1      2126 1.44804E+02 2.50250E+01 0.00000E+00
 -1      2127 1.46103E+02 3.01875E+01 0.00000E+00
 -1      2128 1.46103E+02 2.87125E+01 0.00000E+00
 -1      2129 1.44804E+02 2.79750E+01 0.00000E+00
 -1      2130 1.46103E+02 3.30875E+01 0.00000E+00
 -1      2131 1.46103E+02 3.16375E+01 0.00000E+00
 -1      2132 1.44804E+02 3.09000E+01 0.00000E+00
 -1      2133 1.46103E+02 3.60375E+01 0.00000E+00
 -1      2134 1.46103E+02 3.45625E+01 0.00000E+00
 -1      2135 1.44804E+02 3.38250E+01 0.00000E+00
 -1      2136 1.46103E+02 3.89875E+01 0.00000E+00
 -1      2137 1.46103E+02 3.75125E+01 0.00000E+00
 -1      2138 1.44804E+02 3.67750E+01 0.00000E+00
 -1      2139 1.46103E+02 4.19375E+01 0.00000E+00
 -1      2140 1.46103E+02 4.04625E+01 0.00000E+00
 -1      2141 1.44804E+02 3.97250E+01 0.00000E+00
 -1      2142 3.13784E+01 1.20341E+01 0.00000E+00
 -1      2143 3.18198E+01 1.28041E+01 0.00000E+00
 -1      2144 3.24034E+01 1.57087E+01 0.00000E+00
 -1      2145 3.23678E+01 1.65455E+01 0.00000E+00
 -1      2146 3.23977E+01 1.38066E+01 0.00000E+00
 -1      2147 3.25454E+01 1.46823E+01 0.00000E+00
 -1      2148 3.05483E+01 1.01618E+01 0.00000E+00
 -1      2149 3.09634E+01 1.10980E+01 0.00000E+00
 -1      2150 3.17463E+01 1.11607E+01 0.00000E+00
 -1      2151 2.87205E+01 8.74492E+00 0.00000E+00
 -1      2152 2.96388E+01 9.18194E+00 0.00000E+00
 -1      2153 3.89700E+00 3.74688E+01 0.00000E+00
 -1      2154 3.89700E+00 3.89437E+01 0.00000E+00
 -1      2155 5.19600E+00 3.96813E+01 0.00000E+00
 -1      2156 5.19600E+00 3.67438E+01 0.00000E+00
 -1      2157 2.54035E+01 7.31237E+00 0.00000E+00
 -1      2158 2.62521E+01 7.69163E+00 0.00000E+00
 -1      2159 2.32388E+01 7.13283E+00 0.00000E+00
 -1      2160 2.41720E+01 7.03529E+00 0.00000E+00
 -1      2161 2.13930E+01 7.39370E+00 0.00000E+00
 -1      2162 2.22887E+01 7.25537E+00 0.00000E+00
 -1      2163 1.94876E+01 8.11803E+00 0.00000E+00
 -1      2164 2.02719E+01 7.68693E+00 0.00000E+00
 -1      2165 1.81183E+01 9.10690E+00 0.00000E+00
 -1      2166 1.88030E+01 8.61247E+00 0.00000E+00
 -1      2167 1.88022E+01 7.68213E+00 0.00000E+00
 -1      2168 1.66535E+01 1.04628E+01 0.00000E+00
 -1      2169 1.73165E+01 9.84305E+00 0.00000E+00
 -1      2170 1.53381E+01 1.20481E+01 0.00000E+00
 -1      2171 1.58807E+01 1.12450E+01 0.00000E+00
 -1      2172 1.48161E+01 1.41584E+01 0.00000E+00
 -1      2173 1.49558E+01 1.32389E+01 0.00000E+00
 -1      2174 1.45931E+01 1.59539E+01 0.00000E+00
 -1      2175 1.46929E+01 1.50804E+01 0.00000E+00
 -1      2176 1.48025E+01 1.79370E+01 0.00000E+00
 -1      2177 1.46598E+01 1.70252E+01 0.00000E+00
 -1      2178 1.54442E+01 1.98903E+01 0.00000E+00
 -1      2179 1.50289E+01 1.90548E+01 0.00000E+00
 -1      2180 1.63329E+01 2.14878E+01 0.00000E+00
 -1      2181 1.58886E+01 2.06890E+01 0.00000E+00
 -1      2182 1.49880E+01 2.06157E+01 0.00000E+00
 -1      2183 1.77989E+01 2.29584E+01 0.00000E+00
 -1      2184 1.71218E+01 2.23755E+01 0.00000E+00
 -1      2185 1.93267E+01 2.40838E+01 0.00000E+00
 -1      2186 1.85672E+01 2.35878E+01 0.00000E+00
 -1      2187 2.13081E+01 2.47056E+01 0.00000E+00
 -1      2188 2.04033E+01 2.44960E+01 0.00000E+00
 -1      2189 2.31683E+01 2.51175E+01 0.00000E+00
 -1      2190 2.22799E+01 2.50339E+01 0.00000E+00
 -1      2191 2.49730E+01 2.50584E+01 0.00000E+00
 -1      2192 2.40707E+01 2.50879E+01 0.00000E+00
 -1      2193 2.35461E+01 2.58999E+01 0.00000E+00
 -1      2194 2.69570E+01 2.42873E+01 0.00000E+00
 -1      2195 2.61649E+01 2.46524E+01 0.00000E+00
 -1      2196 2.85411E+01 2.35198E+01 0.00000E+00
 -1      2197 2.77591E+01 2.39050E+01 0.00000E+00
 -1      2198 3.00827E+01 2.22772E+01 0.00000E+00
 -1      2199 2.95131E+01 2.29291E+01 0.00000E+00
 -1      2200 3.11806E+01 2.09689E+01 0.00000E+00
 -1      2201 3.06317E+01 2.16231E+01 0.00000E+00
 -1      2202 3.09295E+01 2.24581E+01 0.00000E+00
 -1      2203 3.19205E+01 1.91233E+01 0.00000E+00
 -1      2204 3.16678E+01 1.99339E+01 0.00000E+00
 -1      2205 3.23417E+01 1.74735E+01 0.00000E+00
 -1      2206 3.21845E+01 1.82617E+01 0.00000E+00
 -1      2207 2.72036E+01 7.99278E+00 0.00000E+00
 -1      2208 2.79621E+01 8.36885E+00 0.00000E+00
 -1      2209 2.87537E+01 7.88868E+00 0.00000E+00
 -1      2210 3.04217E+01 9.24465E+00 0.00000E+00
 -1      2211 3.12047E+01 9.30736E+00 0.00000E+00
 -1      2212 3.02951E+01 8.32746E+00 0.00000E+00
 -1      2213 6.42300E+00 4.57510E+01 0.00000E+00
 -1      2214 2.70437E+01 7.21146E+00 0.00000E+00
 -1      2215 7.17300E+00 4.44520E+01 0.00000E+00
 -1      2216 3.27393E+01 1.30993E+01 0.00000E+00
 -1      2217 3.31751E+01 1.51282E+01 0.00000E+00
 -1      2218 1.45665E+02 4.31193E+01 0.00000E+00
 -1      2219 3.30070E+01 1.70827E+01 0.00000E+00
 -1      2220 3.19657E+01 2.07690E+01 0.00000E+00
 -1      2221 2.94085E+01 2.37030E+01 0.00000E+00
 -1      2222 2.56404E+01 2.54644E+01 0.00000E+00
 -1      2223 2.51158E+01 2.62763E+01 0.00000E+00
 -1      2224 2.63077E+01 2.58704E+01 0.00000E+00
 -1      2225 2.16719E+01 2.56012E+01 0.00000E+00
 -1      2226 1.96234E+01 2.48608E+01 0.00000E+00
 -1      2227 1.62213E+01 2.23022E+01 0.00000E+00
 -1      2228 1.43173E+01 1.86991E+01 0.00000E+00
 -1      2229 1.40242E+01 1.65101E+01 0.00000E+00
 -1      2230 1.40806E+01 1.45169E+01 0.00000E+00
 -1      2231 1.45860E+01 1.24041E+01 0.00000E+00
 -1      2232 1.42162E+01 1.15694E+01 0.00000E+00
 -1      2233 1.38340E+01 1.27602E+01 0.00000E+00
 -1      2234 1.73157E+01 8.91271E+00 0.00000E+00
 -1      2235 2.06080E+01 6.89446E+00 0.00000E+00
 -1      2236 2.48608E+01 6.63323E+00 0.00000E+00
 -1      2237 2.26793E+01 6.47869E+00 0.00000E+00
 -1      2238 1.57410E+01 1.04311E+01 0.00000E+00
 -1      2239 1.77785E+01 2.38192E+01 0.00000E+00
 -1      2240 2.76344E+01 2.46761E+01 0.00000E+00
 -1      2241 3.27169E+01 1.88723E+01 0.00000E+00
 -1      2242 1.07850E+01 5.30525E+00 0.00000E+00
 -1      2243 9.28500E+00 5.30525E+00 0.00000E+00
 -1      2244 6.49500E+00 3.01125E+01 0.00000E+00
 -1      2245 6.49500E+00 3.15875E+01 0.00000E+00
 -1      2246 6.49500E+00 3.30625E+01 0.00000E+00
 -1      2247 6.49500E+00 3.45375E+01 0.00000E+00
 -1      2248 7.79400E+00 3.23250E+01 0.00000E+00
 -1      2249 6.49500E+00 2.42125E+01 0.00000E+00
 -1      2250 6.49500E+00 2.56875E+01 0.00000E+00
 -1      2251 6.49500E+00 2.12625E+01 0.00000E+00
 -1      2252 6.49500E+00 2.27375E+01 0.00000E+00
 -1      2253 7.79400E+00 2.34750E+01 0.00000E+00
 -1      2254 6.49500E+00 1.83625E+01 0.00000E+00
 -1      2255 6.49500E+00 1.98125E+01 0.00000E+00
 -1      2256 7.79400E+00 2.05500E+01 0.00000E+00
 -1      2257 6.49500E+00 1.54125E+01 0.00000E+00
 -1      2258 6.49500E+00 1.68875E+01 0.00000E+00
 -1      2259 7.79400E+00 1.76250E+01 0.00000E+00
 -1      2260 6.49500E+00 1.24625E+01 0.00000E+00
 -1      2261 6.49500E+00 1.39375E+01 0.00000E+00
 -1      2262 7.79400E+00 1.46750E+01 0.00000E+00
 -1      2263 6.49500E+00 9.51250E+00 0.00000E+00
 -1      2264 6.49500E+00 1.09875E+01 0.00000E+00
 -1      2265 7.79400E+00 1.17250E+01 0.00000E+00
 -1      2266 1.37850E+01 5.30525E+00 0.00000E+00
 -1      2267 1.22850E+01 5.30525E+00 0.00000E+00
 -1      2268 1.15350E+01 6.60425E+00 0.00000E+00
 -1      2269 9.90000E+00 4.35050E+01 0.00000E+00
 -1      2270 1.14000E+01 4.35050E+01 0.00000E+00
 -1      2271 2.68267E+01 6.24330E+00 0.00000E+00
 -1      2272 2.77783E+01 6.54446E+00 0.00000E+00
 -1      2273 1.29000E+01 4.35050E+01 0.00000E+00
 -1      2274 1.44000E+01 4.35050E+01 0.00000E+00
 -1      2275 1.21500E+01 4.22060E+01 0.00000E+00
 -1      2276 1.59000E+01 4.35050E+01 0.00000E+00
 -1      2277 1.74000E+01 4.35050E+01 0.00000E+00
 -1      2278 1.51500E+01 4.22060E+01 0.00000E+00
 -1      2279 1.89000E+01 4.35050E+01 0.00000E+00
 -1      2280 2.04000E+01 4.35050E+01 0.00000E+00
 -1      2281 1.81500E+01 4.22060E+01 0.00000E+00
 -1      2282 2.19000E+01 4.35050E+01 0.00000E+00
 -1      2283 2.34000E+01 4.35050E+01 0.00000E+00
 -1      2284 2.11500E+01 4.22060E+01 0.00000E+00
 -1      2285 2.49000E+01 4.35050E+01 0.00000E+00
 -1      2286 2.64000E+01 4.35050E+01 0.00000E+00
 -1      2287 2.41500E+01 4.22060E+01 0.00000E+00
 -1      2288 2.79000E+01 4.35050E+01 0.00000E+00
 -1      2289 2.94000E+01 4.35050E+01 0.00000E+00
 -1      2290 2.71500E+01 4.22060E+01 0.00000E+00
 -1      2291 3.09000E+01 4.35050E+01 0.00000E+00
 -1      2292 3.24000E+01 4.35050E+01 0.00000E+00
 -1      2293 3.01500E+01 4.22060E+01 0.00000E+00
 -1      2294 3.39000E+01 4.35050E+01 0.00000E+00
 -1      2295 3.54000E+01 4.35050E+01 0.00000E+00
 -1      2296 3.31500E+01 4.22060E+01 0.00000E+00
 -1      2297 3.69000E+01 4.35050E+01 0.00000E+00
 -1      2298 3.84000E+01 4.35050E+01 0.00000E+00
 -1      2299 3.61500E+01 4.22060E+01 0.00000E+00
 -1      2300 3.99000E+01 4.35050E+01 0.00000E+00
 -1      2301 4.14000E+01 4.35050E+01 0.00000E+00
 -1      2302 3.91500E+01 4.22060E+01 0.00000E+00
 -1      2303 4.29000E+01 4.35050E+01 0.00000E+00
 -1      2304 4.44000E+01 4.35050E+01 0.00000E+00
 -1      2305 4.21500E+01 4.22060E+01 0.00000E+00
 -1      2306 4.59000E+01 4.35050E+01 0.00000E+00
 -1      2307 4.74000E+01 4.35050E+01 0.00000E+00
 -1      2308 4.51500E+01 4.22060E+01 0.00000E+00
 -1      2309 4.89000E+01 4.35050E+01 0.00000E+00
 -1      2310 5.04000E+01 4.35050E+01 0.00000E+00
 -1      2311 4.81500E+01 4.22060E+01 0.00000E+00
 -1      2312 5.19000E+01 4.35050E+01 0.00000E+00
 -1      2313 5.34000E+01 4.35050E+01 0.00000E+00
 -1      2314 5.11500E+01 4.22060E+01 0.00000E+00
 -1      2315 5.49000E+01 4.35050E+01 0.00000E+00
 -1      2316 5.64000E+01 4.35050E+01 0.00000E+00
 -1      2317 5.41500E+01 4.22060E+01 0.00000E+00
 -1      2318 5.79000E+01 4.35050E+01 0.00000E+00
 -1      2319 5.94000E+01 4.35050E+01 0.00000E+00
 -1      2320 5.71500E+01 4.22060E+01 0.00000E+00
 -1      2321 6.09000E+01 4.35050E+01 0.00000E+00
 -1      2322 6.24000E+01 4.35050E+01 0.00000E+00
 -1      2323 6.01500E+01 4.22060E+01 0.00000E+00
 -1      2324 6.39000E+01 4.35050E+01 0.00000E+00
 -1      2325 6.54000E+01 4.35050E+01 0.00000E+00
 -1      2326 6.31500E+01 4.22060E+01 0.00000E+00
 -1      2327 6.69000E+01 4.35050E+01 0.00000E+00
 -1      2328 6.84000E+01 4.35050E+01 0.00000E+00
 -1      2329 6.61500E+01 4.22060E+01 0.00000E+00
 -1      2330 6.99000E+01 4.35050E+01 0.00000E+00
 -1      2331 7.14000E+01 4.35050E+01 0.00000E+00
 -1      2332 6.91500E+01 4.22060E+01 0.00000E+00
 -1      2333 7.29000E+01 4.35050E+01 0.00000E+00
 -1      2334 7.44000E+01 4.35050E+01 0.00000E+00
 -1      2335 7.21500E+01 4.22060E+01 0.00000E+00
 -1      2336 7.59000E+01 4.35050E+01 0.00000E+00
 -1      2337 7.74000E+01 4.35050E+01 0.00000E+00
 -1      2338 7.51500E+01 4.22060E+01 0.00000E+00
 -1      2339 7.89000E+01 4.35050E+01 0.00000E+00
 -1      2340 8.04000E+01 4.35050E+01 0.00000E+00
 -1      2341 7.81500E+01 4.22060E+01 0.00000E+00
 -1      2342 8.19000E+01 4.35050E+01 0.00000E+00
 -1      2343 8.34000E+01 4.35050E+01 0.00000E+00
 -1      2344 8.11500E+01 4.22060E+01 0.00000E+00
 -1      2345 8.49000E+01 4.35050E+01 0.00000E+00
 -1      2346 8.64000E+01 4.35050E+01 0.00000E+00
 -1      2347 8.41500E+01 4.22060E+01 0.00000E+00
 -1      2348 8.79000E+01 4.35050E+01 0.00000E+00
 -1      2349 8.94000E+01 4.35050E+01 0.00000E+00
 -1      2350 8.71500E+01 4.22060E+01 0.00000E+00
 -1      2351 9.09000E+01 4.35050E+01 0.00000E+00
 -1      2352 9.24000E+01 4.35050E+01 0.00000E+00
 -1      2353 9.01500E+01 4.22060E+01 0.00000E+00
 -1      2354 9.39000E+01 4.35050E+01 0.00000E+00
 -1      2355 9.54000E+01 4.35050E+01 0.00000E+00
 -1      2356 9.31500E+01 4.22060E+01 0.00000E+00
 -1      2357 9.69000E+01 4.35050E+01 0.00000E+00
 -1      2358 9.84000E+01 4.35050E+01 0.00000E+00
 -1      2359 9.61500E+01 4.22060E+01 0.00000E+00
 -1      2360 9.99000E+01 4.35050E+01 0.00000E+00
 -1      2361 1.01400E+02 4.35050E+01 0.00000E+00
 -1      2362 9.91500E+01 4.22060E+01 0.00000E+00
 -1      2363 1.02900E+02 4.35050E+01 0.00000E+00
 -1      2364 1.04400E+02 4.35050E+01 0.00000E+00
 -1      2365 1.02150E+02 4.22060E+01 0.00000E+00
 -1      2366 1.05900E+02 4.35050E+01 0.00000E+00
 -1      2367 1.07400E+02 4.35050E+01 0.00000E+00
 -1      2368 1.05150E+02 4.22060E+01 0.00000E+00
 -1      2369 1.08900E+02 4.35050E+01 0.00000E+00
 -1      2370 1.10400E+02 4.35050E+01 0.00000E+00
 -1      2371 1.08150E+02 4.22060E+01 0.00000E+00
 -1      2372 1.11900E+02 4.35050E+01 0.00000E+00
 -1      2373 1.13400E+02 4.35050E+01 0.00000E+00
 -1      2374 1.11150E+02 4.22060E+01 0.00000E+00
 -1      2375 1.14900E+02 4.35050E+01 0.00000E+00
 -1      2376 1.16400E+02 4.35050E+01 0.00000E+00
 -1      2377 1.14150E+02 4.22060E+01 0.00000E+00
 -1      2378 1.17900E+02 4.35050E+01 0.00000E+00
 -1      2379 1.19400E+02 4.35050E+01 0.00000E+00
 -1      2380 1.17150E+02 4.22060E+01 0.00000E+00
 -1      2381 1.20900E+02 4.35050E+01 0.00000E+00
 -1      2382 1.22400E+02 4.35050E+01 0.00000E+00
 -1      2383 1.20150E+02 4.22060E+01 0.00000E+00
 -1      2384 1.23900E+02 4.35050E+01 0.00000E+00
 -1      2385 1.25400E+02 4.35050E+01 0.00000E+00
 -1      2386 1.23150E+02 4.22060E+01 0.00000E+00
 -1      2387 1.26900E+02 4.35050E+01 0.00000E+00
 -1      2388 1.28400E+02 4.35050E+01 0.00000E+00
 -1      2389 1.26150E+02 4.22060E+01 0.00000E+00
 -1      2390 1.29900E+02 4.35050E+01 0.00000E+00
 -1      2391 1.31400E+02 4.35050E+01 0.00000E+00
 -1      2392 1.29150E+02 4.22060E+01 0.00000E+00
 -1      2393 1.32900E+02 4.35050E+01 0.00000E+00
 -1      2394 1.34400E+02 4.35050E+01 0.00000E+00
 -1      2395 1.32150E+02 4.22060E+01 0.00000E+00
 -1      2396 1.35900E+02 4.35050E+01 0.00000E+00
 -1      2397 1.37400E+02 4.35050E+01 0.00000E+00
 -1      2398 1.35150E+02 4.22060E+01 0.00000E+00
 -1      2399 1.38900E+02 4.35050E+01 0.00000E+00
 -1      2400 1.40400E+02 4.35050E+01 0.00000E+00
 -1      2401 1.38150E+02 4.22060E+01 0.00000E+00
 -1      2402 2.00109E+01 5.59697E+00 0.00000E+00
 -1      2403 1.85109E+01 5.59697E+00 0.00000E+00
 -1      2404 2.83231E+01 4.79127E+00 0.00000E+00
 -1      2405 2.68981E+01 4.79127E+00 0.00000E+00
 -1      2406 3.13350E+01 5.03138E+00 0.00000E+00
 -1      2407 2.98350E+01 5.03138E+00 0.00000E+00
 -1      2408 3.43350E+01 5.11516E+00 0.00000E+00
 -1      2409 3.28350E+01 5.11516E+00 0.00000E+00
 -1      2410 3.73350E+01 5.11516E+00 0.00000E+00
 -1      2411 3.58350E+01 5.11516E+00 0.00000E+00
 -1      2412 3.50850E+01 6.22407E+00 0.00000E+00
 -1      2413 4.03350E+01 5.11516E+00 0.00000E+00
 -1      2414 3.88350E+01 5.11516E+00 0.00000E+00
 -1      2415 3.80850E+01 6.22407E+00 0.00000E+00
 -1      2416 4.33350E+01 5.11516E+00 0.00000E+00
 -1      2417 4.18350E+01 5.11516E+00 0.00000E+00
 -1      2418 4.10850E+01 6.22407E+00 0.00000E+00
 -1      2419 4.63350E+01 5.11516E+00 0.00000E+00
 -1      2420 4.48350E+01 5.11516E+00 0.00000E+00
 -1      2421 4.40850E+01 6.22407E+00 0.00000E+00
 -1      2422 4.93350E+01 5.11516E+00 0.00000E+00
 -1      2423 4.78350E+01 5.11516E+00 0.00000E+00
 -1      2424 4.70850E+01 6.22407E+00 0.00000E+00
 -1      2425 5.23350E+01 5.11516E+00 0.00000E+00
 -1      2426 5.08350E+01 5.11516E+00 0.00000E+00
 -1      2427 5.00850E+01 6.22407E+00 0.00000E+00
 -1      2428 5.53350E+01 5.11516E+00 0.00000E+00
 -1      2429 5.38350E+01 5.11516E+00 0.00000E+00
 -1      2430 5.30850E+01 6.22407E+00 0.00000E+00
 -1      2431 5.83350E+01 5.11516E+00 0.00000E+00
 -1      2432 5.68350E+01 5.11516E+00 0.00000E+00
 -1      2433 5.60850E+01 6.22407E+00 0.00000E+00
 -1      2434 6.13350E+01 5.11516E+00 0.00000E+00
 -1      2435 5.98350E+01 5.11516E+00 0.00000E+00
 -1      2436 5.90850E+01 6.22407E+00 0.00000E+00
 -1      2437 6.43350E+01 5.11516E+00 0.00000E+00
 -1      2438 6.28350E+01 5.11516E+00 0.00000E+00
 -1      2439 6.20850E+01 6.22407E+00 0.00000E+00
 -1      2440 6.74850E+01 5.11516E+00 0.00000E+00
 -1      2441 6.59100E+01 5.11516E+00 0.00000E+00
 -1      2442 6.51600E+01 6.22407E+00 0.00000E+00
 -1      2443 7.04850E+01 5.11516E+00 0.00000E+00
 -1      2444 6.89850E+01 5.11516E+00 0.00000E+00
 -1      2445 6.82350E+01 6.22407E+00 0.00000E+00
 -1      2446 7.34850E+01 5.11516E+00 0.00000E+00
 -1      2447 7.19850E+01 5.11516E+00 0.00000E+00
 -1      2448 7.12350E+01 6.22407E+00 0.00000E+00
 -1      2449 7.64850E+01 5.11516E+00 0.00000E+00
 -1      2450 7.49850E+01 5.11516E+00 0.00000E+00
 -1      2451 7.42350E+01 6.22407E+00 0.00000E+00
 -1      2452 7.94850E+01 5.11516E+00 0.00000E+00
 -1      2453 7.79850E+01 5.11516E+00 0.00000E+00
 -1      2454 7.72350E+01 6.22407E+00 0.00000E+00
 -1      2455 8.24850E+01 5.11516E+00 0.00000E+00
 -1      2456 8.09850E+01 5.11516E+00 0.00000E+00
 -1      2457 8.02350E+01 6.22407E+00 0.00000E+00
 -1      2458 8.54850E+01 5.11516E+00 0.00000E+00
 -1      2459 8.39850E+01 5.11516E+00 0.00000E+00
 -1      2460 8.32350E+01 6.22407E+00 0.00000E+00
 -1      2461 8.84850E+01 5.11516E+00 0.00000E+00
 -1      2462 8.69850E+01 5.11516E+00 0.00000E+00
 -1      2463 8.62350E+01 6.22407E+00 0.00000E+00
 -1      2464 9.14850E+01 5.11516E+00 0.00000E+00
 -1      2465 8.99850E+01 5.11516E+00 0.00000E+00
 -1      2466 8.92350E+01 6.22407E+00 0.00000E+00
 -1      2467 9.44850E+01 5.11516E+00 0.00000E+00
 -1      2468 9.29850E+01 5.11516E+00 0.00000E+00
 -1      2469 9.22350E+01 6.22407E+00 0.00000E+00
 -1      2470 9.74850E+01 5.11516E+00 0.00000E+00
 -1      2471 9.59850E+01 5.11516E+00 0.00000E+00
 -1      2472 9.52350E+01 6.22407E+00 0.00000E+00
 -1      2473 1.00485E+02 5.11516E+00 0.00000E+00
 -1      2474 9.89850E+01 5.11516E+00 0.00000E+00
 -1      2475 9.82350E+01 6.22407E+00 0.00000E+00
 -1      2476 1.03485E+02 5.11516E+00 0.00000E+00
 -1      2477 1.01985E+02 5.11516E+00 0.00000E+00
 -1      2478 1.01235E+02 6.22407E+00 0.00000E+00
 -1      2479 1.06485E+02 5.11516E+00 0.00000E+00
 -1      2480 1.04985E+02 5.11516E+00 0.00000E+00
 -1      2481 1.04235E+02 6.22407E+00 0.00000E+00
 -1      2482 1.09635E+02 5.11516E+00 0.00000E+00
 -1      2483 1.08060E+02 5.11516E+00 0.00000E+00
 -1      2484 1.07310E+02 6.22407E+00 0.00000E+00
 -1      2485 1.12635E+02 5.11516E+00 0.00000E+00
 -1      2486 1.11135E+02 5.11516E+00 0.00000E+00
 -1      2487 1.10385E+02 6.22407E+00 0.00000E+00
 -1      2488 1.15635E+02 5.11516E+00 0.00000E+00
 -1      2489 1.14135E+02 5.11516E+00 0.00000E+00
 -1      2490 1.13385E+02 6.22407E+00 0.00000E+00
 -1      2491 1.18635E+02 5.11516E+00 0.00000E+00
 -1      2492 1.17135E+02 5.11516E+00 0.00000E+00
 -1      2493 1.16385E+02 6.22407E+00 0.00000E+00
 -1      2494 1.21635E+02 5.11516E+00 0.00000E+00
 -1      2495 1.20135E+02 5.11516E+00 0.00000E+00
 -1      2496 1.19385E+02 6.22407E+00 0.00000E+00
 -1      2497 1.24635E+02 5.11516E+00 0.00000E+00
 -1      2498 1.23135E+02 5.11516E+00 0.00000E+00
 -1      2499 1.22385E+02 6.22407E+00 0.00000E+00
 -1      2500 1.27635E+02 5.11516E+00 0.00000E+00
 -1      2501 1.26135E+02 5.11516E+00 0.00000E+00
 -1      2502 1.25385E+02 6.22407E+00 0.00000E+00
 -1      2503 1.30635E+02 5.11516E+00 0.00000E+00
 -1      2504 1.29135E+02 5.11516E+00 0.00000E+00
 -1      2505 1.28385E+02 6.22407E+00 0.00000E+00
 -1      2506 1.33635E+02 5.11516E+00 0.00000E+00
 -1      2507 1.32135E+02 5.11516E+00 0.00000E+00
 -1      2508 1.31385E+02 6.22407E+00 0.00000E+00
 -1      2509 1.36635E+02 5.11516E+00 0.00000E+00
 -1      2510 1.35135E+02 5.11516E+00 0.00000E+00
 -1      2511 1.34385E+02 6.22407E+00 0.00000E+00
 -1      2512 1.39635E+02 5.11516E+00 0.00000E+00
 -1      2513 1.38135E+02 5.11516E+00 0.00000E+00
 -1      2514 1.37385E+02 6.22407E+00 0.00000E+00
 -1      2515 1.42635E+02 5.11516E+00 0.00000E+00
 -1      2516 1.41135E+02 5.11516E+00 0.00000E+00
 -1      2517 1.40385E+02 6.22407E+00 0.00000E+00
 -1      2518 1.44242E+02 5.26953E+00 0.00000E+00
 -1      2519 1.43505E+02 1.69125E+01 0.00000E+00
 -1      2520 1.43505E+02 1.54375E+01 0.00000E+00
 -1      2521 1.43505E+02 1.98625E+01 0.00000E+00
 -1      2522 1.43505E+02 1.83875E+01 0.00000E+00
 -1      2523 1.42206E+02 1.76500E+01 0.00000E+00
 -1      2524 1.43505E+02 1.10625E+01 0.00000E+00
 -1      2525 1.43505E+02 9.58750E+00 0.00000E+00
 -1      2526 1.43505E+02 1.39750E+01 0.00000E+00
 -1      2527 1.43505E+02 1.25250E+01 0.00000E+00
 -1      2528 1.42206E+02 1.17875E+01 0.00000E+00
 -1      2529 1.42206E+02 1.47125E+01 0.00000E+00
 -1      2530 1.43505E+02 2.28125E+01 0.00000E+00
 -1      2531 1.43505E+02 2.13375E+01 0.00000E+00
 -1      2532 1.42206E+02 2.06000E+01 0.00000E+00
 -1      2533 1.43505E+02 2.57625E+01 0.00000E+00
 -1      2534 1.43505E+02 2.42875E+01 0.00000E+00
 -1      2535 1.42206E+02 2.35500E+01 0.00000E+00
 -1      2536 1.43505E+02 2.87125E+01 0.00000E+00
 -1      2537 1.43505E+02 2.72375E+01 0.00000E+00
 -1      2538 1.42206E+02 2.65000E+01 0.00000E+00
 -1      2539 1.43505E+02 3.16125E+01 0.00000E+00
 -1      2540 1.43505E+02 3.01625E+01 0.00000E+00
 -1      2541 1.42206E+02 2.94250E+01 0.00000E+00
 -1      2542 1.43505E+02 3.45625E+01 0.00000E+00
 -1      2543 1.43505E+02 3.30875E+01 0.00000E+00
 -1      2544 1.42206E+02 3.23500E+01 0.00000E+00
 -1      2545 1.43505E+02 3.75125E+01 0.00000E+00
 -1      2546 1.43505E+02 3.60375E+01 0.00000E+00
 -1      2547 1.42206E+02 3.53000E+01 0.00000E+00
 -1      2548 1.43505E+02 4.04625E+01 0.00000E+00
 -1      2549 1.43505E+02 3.89875E+01 0.00000E+00
 -1      2550 1.42206E+02 3.82500E+01 0.00000E+00
 -1      2551 3.40126E+01 1.47211E+01 0.00000E+00
 -1      2552 3.38705E+01 1.57475E+01 0.00000E+00
 -1      2553 3.31570E+01 1.21907E+01 0.00000E+00
 -1      2554 3.37349E+01 1.31932E+01 0.00000E+00
 -1      2555 3.38444E+01 1.66755E+01 0.00000E+00
 -1      2556 3.38183E+01 1.76036E+01 0.00000E+00
 -1      2557 3.46819E+01 1.62684E+01 0.00000E+00
 -1      2558 1.44321E+02 4.30606E+01 0.00000E+00
 -1      2559 3.23269E+01 1.03184E+01 0.00000E+00
 -1      2560 3.27419E+01 1.12546E+01 0.00000E+00
 -1      2561 3.37375E+01 1.13485E+01 0.00000E+00
 -1      2562 6.55950E+00 4.28890E+01 0.00000E+00
 -1      2563 8.53650E+00 4.32410E+01 0.00000E+00
 -1      2564 9.28650E+00 4.19420E+01 0.00000E+00
 -1      2565 6.55950E+00 4.14140E+01 0.00000E+00
 -1      2566 3.28715E+01 2.05632E+01 0.00000E+00
 -1      2567 3.23843E+01 2.15982E+01 0.00000E+00
 -1      2568 3.02964E+01 2.40689E+01 0.00000E+00
 -1      2569 2.93244E+01 2.46596E+01 0.00000E+00
 -1      2570 2.18566E+01 2.66572E+01 0.00000E+00
 -1      2571 2.08847E+01 2.63290E+01 0.00000E+00
 -1      2572 1.36721E+01 1.94116E+01 0.00000E+00
 -1      2573 1.34457E+01 1.82938E+01 0.00000E+00
 -1      2574 2.11321E+01 5.30374E+00 0.00000E+00
 -1      2575 6.49500E+00 2.71625E+01 0.00000E+00
 -1      2576 6.49500E+00 2.86375E+01 0.00000E+00
 -1      2577 7.79400E+00 2.93750E+01 0.00000E+00
 -1      2578 7.79400E+00 2.64250E+01 0.00000E+00
 -1      2579 1.48042E+01 1.02784E+01 0.00000E+00
 -1      2580 1.55770E+01 9.49617E+00 0.00000E+00
 -1      2581 2.44149E+01 5.73979E+00 0.00000E+00
 -1      2582 2.56463E+01 6.01687E+00 0.00000E+00
 -1      2583 1.76457E+01 2.47649E+01 0.00000E+00
 -1      2584 1.68774E+01 2.41355E+01 0.00000E+00
 -1      2585 1.63915E+01 8.71078E+00 0.00000E+00
 -1      2586 1.71933E+01 7.97463E+00 0.00000E+00
 -1      2587 1.31690E+01 1.48643E+01 0.00000E+00
 -1      2588 1.32922E+01 1.39424E+01 0.00000E+00
 -1      2589 1.33025E+01 1.70068E+01 0.00000E+00
 -1      2590 1.32358E+01 1.59355E+01 0.00000E+00
 -1      2591 1.24473E+01 1.53610E+01 0.00000E+00
 -1      2592 1.44608E+01 2.14320E+01 0.00000E+00
 -1      2593 1.40164E+01 2.06332E+01 0.00000E+00
 -1      2594 2.83504E+01 2.51456E+01 0.00000E+00
 -1      2595 2.75483E+01 2.55280E+01 0.00000E+00
 -1      2596 1.59747E+01 2.33157E+01 0.00000E+00
 -1      2597 1.51858E+01 2.24280E+01 0.00000E+00
 -1      2598 1.98081E+01 2.59168E+01 0.00000E+00
 -1      2599 1.87315E+01 2.55046E+01 0.00000E+00
 -1      2600 1.99928E+01 2.69727E+01 0.00000E+00
 -1      2601 2.40254E+01 2.67422E+01 0.00000E+00
 -1      2602 2.31230E+01 2.67718E+01 0.00000E+00
 -1      2603 3.36688E+01 1.86927E+01 0.00000E+00
 -1      2604 3.34048E+01 1.95544E+01 0.00000E+00
 -1      2605 3.17967E+01 2.26284E+01 0.00000E+00
 -1      2606 3.12478E+01 2.32826E+01 0.00000E+00
 -1      2607 2.92901E+01 6.78456E+00 0.00000E+00
 -1      2608 3.00486E+01 7.16063E+00 0.00000E+00
 -1      2609 8.07525E+00 5.11044E+00 0.00000E+00
 -1      2610 6.57525E+00 5.11044E+00 0.00000E+00
 -1      2611 6.40575E+00 6.01981E+00 0.00000E+00
 -1      2612 8.82525E+00 6.40944E+00 0.00000E+00
 -1      2613 1.54546E+01 8.55810E+00 0.00000E+00
 -1      2614 7.79400E+00 3.52687E+01 0.00000E+00
 -1      2615 6.49500E+00 3.60062E+01 0.00000E+00
 -1      2616 6.49500E+00 3.74750E+01 0.00000E+00
 -1      2617 1.50478E+01 5.16832E+00 0.00000E+00
 -1      2618 1.42978E+01 6.46732E+00 0.00000E+00
 -1      2619 6.40575E+00 7.49481E+00 0.00000E+00
 -1      2620 2.90731E+01 5.81640E+00 0.00000E+00
 -1      2621 3.38234E+01 2.03836E+01 0.00000E+00
 -1      2622 3.27025E+01 2.24226E+01 0.00000E+00
 -1      2623 3.45063E+01 1.82856E+01 0.00000E+00
 -1      2624 2.61636E+01 5.45828E+00 0.00000E+00
 -1      2625 2.26321E+01 5.30374E+00 0.00000E+00
 -1      2626 3.20850E+01 6.14029E+00 0.00000E+00
 -1      2627 1.43492E+02 6.37844E+00 0.00000E+00
 -1      2628 1.43425E+02 8.56227E+00 0.00000E+00
 -1      2629 1.43572E+02 7.40367E+00 0.00000E+00
 -1      2630 1.41965E+02 7.24931E+00 0.00000E+00
 -1      2631 1.42126E+02 9.29977E+00 0.00000E+00
 -1      2632 1.58420E+01 2.42613E+01 0.00000E+00
 -1      2633 1.42758E+02 4.35929E+01 0.00000E+00
 -1      2634 1.43241E+02 4.17323E+01 0.00000E+00
 -1      2635 1.41942E+02 4.09948E+01 0.00000E+00
 -1      2636 1.41414E+02 4.35342E+01 0.00000E+00
 -1      2637 3.44303E+01 1.38125E+01 0.00000E+00
 -1      2638 3.51257E+01 1.44318E+01 0.00000E+00
 -1      2639 3.48480E+01 1.29039E+01 0.00000E+00
 -1      2640 2.92382E+01 2.55115E+01 0.00000E+00
 -1      2641 2.35822E+01 5.18120E+00 0.00000E+00
 -1      2642 1.65478E+01 5.16832E+00 0.00000E+00
 -1      2643 7.70475E+00 8.23231E+00 0.00000E+00
 -1      2644 1.40664E+02 4.22352E+01 0.00000E+00
 -1      2645 2.23359E+01 2.74995E+01 0.00000E+00
 -1      2646 1.26573E+01 1.77193E+01 0.00000E+00
 -1      2647 3.22003E+01 9.40126E+00 0.00000E+00
 -1      2648 3.31959E+01 9.49516E+00 0.00000E+00
 -1      2649 3.20737E+01 8.48407E+00 0.00000E+00
 -1      2650 6.55950E+00 3.99453E+01 0.00000E+00
 -1      2651 3.11636E+01 2.42392E+01 0.00000E+00
 -1      2652 2.43677E+01 4.56484E+00 0.00000E+00
 -1      2653 1.31449E+01 2.02279E+01 0.00000E+00
 -1      2654 2.70237E+01 2.63399E+01 0.00000E+00
 -1      2655 1.78305E+01 2.58209E+01 0.00000E+00
 -1      2656 1.29224E+01 1.31076E+01 0.00000E+00
 -1      2657 1.69053E+01 7.07681E+00 0.00000E+00
 -1      2658 1.78295E+01 7.27873E+00 0.00000E+00
 -1      2659 1.85142E+01 6.78430E+00 0.00000E+00
 -1      2660 1.33001E+01 1.09906E+01 0.00000E+00
 -1      2661 1.40521E+01 1.06345E+01 0.00000E+00
 -1      2662 1.38881E+01 9.69958E+00 0.00000E+00
 -1      2663 1.42143E+01 2.24455E+01 0.00000E+00
 -1      2664 2.46927E+01 2.71482E+01 0.00000E+00
 -1      2665 3.08316E+01 7.22334E+00 0.00000E+00
 -1      2666 8.98670E+00 1.98250E+01 0.00000E+00
 -1      2667 8.98670E+00 2.12750E+01 0.00000E+00
 -1      2668 8.98670E+00 2.27500E+01 0.00000E+00
 -1      2669 8.98670E+00 2.42250E+01 0.00000E+00
 -1      2670 1.01794E+01 2.20250E+01 0.00000E+00
 -1      2671 8.81913E+00 1.39375E+01 0.00000E+00
 -1      2672 8.81913E+00 1.54125E+01 0.00000E+00
 -1      2673 9.07048E+00 1.09875E+01 0.00000E+00
 -1      2674 9.07048E+00 1.24625E+01 0.00000E+00
 -1      2675 1.22850E+01 7.71316E+00 0.00000E+00
 -1      2676 1.07850E+01 7.71316E+00 0.00000E+00
 -1      2677 1.39914E+02 4.09362E+01 0.00000E+00
 -1      2678 1.40928E+02 4.09655E+01 0.00000E+00
 -1      2679 1.41192E+02 3.96958E+01 0.00000E+00
 -1      2680 8.91450E+00 8.42712E+00 0.00000E+00
 -1      2681 3.49223E+01 2.03191E+01 0.00000E+00
 -1      2682 3.43889E+01 2.13280E+01 0.00000E+00
 -1      2683 2.28767E+01 2.85778E+01 0.00000E+00
 -1      2684 2.16103E+01 2.84632E+01 0.00000E+00
 -1      2685 3.43140E+01 1.05329E+01 0.00000E+00
 -1      2686 3.47290E+01 1.14690E+01 0.00000E+00
 -1      2687 1.44000E+01 4.09070E+01 0.00000E+00
 -1      2688 1.59000E+01 4.09070E+01 0.00000E+00
 -1      2689 1.74000E+01 4.09070E+01 0.00000E+00
 -1      2690 1.89000E+01 4.09070E+01 0.00000E+00
 -1      2691 1.66500E+01 3.96080E+01 0.00000E+00
 -1      2692 2.04000E+01 4.09070E+01 0.00000E+00
 -1      2693 2.19000E+01 4.09070E+01 0.00000E+00
 -1      2694 1.96500E+01 3.96080E+01 0.00000E+00
 -1      2695 2.34000E+01 4.09070E+01 0.00000E+00
 -1      2696 2.49000E+01 4.09070E+01 0.00000E+00
 -1      2697 2.26500E+01 3.96080E+01 0.00000E+00
 -1      2698 2.64000E+01 4.09070E+01 0.00000E+00
 -1      2699 2.79000E+01 4.09070E+01 0.00000E+00
 -1      2700 2.56500E+01 3.96080E+01 0.00000E+00
 -1      2701 2.94000E+01 4.09070E+01 0.00000E+00
 -1      2702 3.09000E+01 4.09070E+01 0.00000E+00
 -1      2703 2.86500E+01 3.96080E+01 0.00000E+00
 -1      2704 3.24000E+01 4.09070E+01 0.00000E+00
 -1      2705 3.39000E+01 4.09070E+01 0.00000E+00
 -1      2706 3.16500E+01 3.96080E+01 0.00000E+00
 -1      2707 3.54000E+01 4.09070E+01 0.00000E+00
 -1      2708 3.69000E+01 4.09070E+01 0.00000E+00
 -1      2709 3.46500E+01 3.96080E+01 0.00000E+00
 -1      2710 3.84000E+01 4.09070E+01 0.00000E+00
 -1      2711 3.99000E+01 4.09070E+01 0.00000E+00
 -1      2712 3.76500E+01 3.96080E+01 0.00000E+00
 -1      2713 4.14000E+01 4.09070E+01 0.00000E+00
 -1      2714 4.29000E+01 4.09070E+01 0.00000E+00
 -1      2715 4.06500E+01 3.96080E+01 0.00000E+00
 -1      2716 4.44000E+01 4.09070E+01 0.00000E+00
 -1      2717 4.59000E+01 4.09070E+01 0.00000E+00
 -1      2718 4.36500E+01 3.96080E+01 0.00000E+00
 -1      2719 4.74000E+01 4.09070E+01 0.00000E+00
 -1      2720 4.89000E+01 4.09070E+01 0.00000E+00
 -1      2721 4.66500E+01 3.96080E+01 0.00000E+00
 -1      2722 5.04000E+01 4.09070E+01 0.00000E+00
 -1      2723 5.19000E+01 4.09070E+01 0.00000E+00
 -1      2724 4.96500E+01 3.96080E+01 0.00000E+00
 -1      2725 5.34000E+01 4.09070E+01 0.00000E+00
 -1      2726 5.49000E+01 4.09070E+01 0.00000E+00
 -1      2727 5.26500E+01 3.96080E+01 0.00000E+00
 -1      2728 5.64000E+01 4.09070E+01 0.00000E+00
 -1      2729 5.79000E+01 4.09070E+01 0.00000E+00
 -1      2730 5.56500E+01 3.96080E+01 0.00000E+00
 -1      2731 5.94000E+01 4.09070E+01 0.00000E+00
 -1      2732 6.09000E+01 4.09070E+01 0.00000E+00
 -1      2733 5.86500E+01 3.96080E+01 0.00000E+00
 -1      2734 6.24000E+01 4.09070E+01 0.00000E+00
 -1      2735 6.39000E+01 4.09070E+01 0.00000E+00
 -1      2736 6.16500E+01 3.96080E+01 0.00000E+00
 -1      2737 6.54000E+01 4.09070E+01 0.00000E+00
 -1      2738 6.69000E+01 4.09070E+01 0.00000E+00
 -1      2739 6.46500E+01 3.96080E+01 0.00000E+00
 -1      2740 6.84000E+01 4.09070E+01 0.00000E+00
 -1      2741 6.99000E+01 4.09070E+01 0.00000E+00
 -1      2742 6.76500E+01 3.96080E+01 0.00000E+00
 -1      2743 7.14000E+01 4.09070E+01 0.00000E+00
 -1      2744 7.29000E+01 4.09070E+01 0.00000E+00
 -1      2745 7.06500E+01 3.96080E+01 0.00000E+00
 -1      2746 7.44000E+01 4.09070E+01 0.00000E+00
 -1      2747 7.59000E+01 4.09070E+01 0.00000E+00
 -1      2748 7.36500E+01 3.96080E+01 0.00000E+00
 -1      2749 7.74000E+01 4.09070E+01 0.00000E+00
 -1      2750 7.89000E+01 4.09070E+01 0.00000E+00
 -1      2751 7.66500E+01 3.96080E+01 0.00000E+00
 -1      2752 8.04000E+01 4.09070E+01 0.00000E+00
 -1      2753 8.19000E+01 4.09070E+01 0.00000E+00
 -1      2754 7.96500E+01 3.96080E+01 0.00000E+00
 -1      2755 8.34000E+01 4.09070E+01 0.00000E+00
 -1      2756 8.49000E+01 4.09070E+01 0.00000E+00
 -1      2757 8.26500E+01 3.96080E+01 0.00000E+00
 -1      2758 8.64000E+01 4.09070E+01 0.00000E+00
 -1      2759 8.79000E+01 4.09070E+01 0.00000E+00
 -1      2760 8.56500E+01 3.96080E+01 0.00000E+00
 -1      2761 8.94000E+01 4.09070E+01 0.00000E+00
 -1      2762 9.09000E+01 4.09070E+01 0.00000E+00
 -1      2763 8.86500E+01 3.96080E+01 0.00000E+00
 -1      2764 9.24000E+01 4.09070E+01 0.00000E+00
 -1      2765 9.39000E+01 4.09070E+01 0.00000E+00
 -1      2766 9.16500E+01 3.96080E+01 0.00000E+00
 -1      2767 9.54000E+01 4.09070E+01 0.00000E+00
 -1      2768 9.69000E+01 4.09070E+01 0.00000E+00
 -1      2769 9.46500E+01 3.96080E+01 0.00000E+00
 -1      2770 9.84000E+01 4.09070E+01 0.00000E+00
 -1      2771 9.99000E+01 4.09070E+01 0.00000E+00
 -1      2772 9.76500E+01 3.96080E+01 0.00000E+00
 -1      2773 1.01400E+02 4.09070E+01 0.00000E+00
 -1      2774 1.02900E+02 4.09070E+01 0.00000E+00
 -1      2775 1.00650E+02 3.96080E+01 0.00000E+00
 -1      2776 1.04400E+02 4.09070E+01 0.00000E+00
 -1      2777 1.05900E+02 4.09070E+01 0.00000E+00
 -1      2778 1.03650E+02 3.96080E+01 0.00000E+00
 -1      2779 1.07400E+02 4.09070E+01 0.00000E+00
 -1      2780 1.08900E+02 4.09070E+01 0.00000E+00
 -1      2781 1.06650E+02 3.96080E+01 0.00000E+00
 -1      2782 1.10400E+02 4.09070E+01 0.00000E+00
 -1      2783 1.11900E+02 4.09070E+01 0.00000E+00
 -1      2784 1.09650E+02 3.96080E+01 0.00000E+00
 -1      2785 1.13400E+02 4.09070E+01 0.00000E+00
 -1      2786 1.14900E+02 4.09070E+01 0.00000E+00
 -1      2787 1.12650E+02 3.96080E+01 0.00000E+00
 -1      2788 1.16400E+02 4.09070E+01 0.00000E+00
 -1      2789 1.17900E+02 4.09070E+01 0.00000E+00
 -1      2790 1.15650E+02 3.96080E+01 0.00000E+00
 -1      2791 1.19400E+02 4.09070E+01 0.00000E+00
 -1      2792 1.20900E+02 4.09070E+01 0.00000E+00
 -1      2793 1.18650E+02 3.96080E+01 0.00000E+00
 -1      2794 1.22400E+02 4.09070E+01 0.00000E+00
 -1      2795 1.23900E+02 4.09070E+01 0.00000E+00
 -1      2796 1.21650E+02 3.96080E+01 0.00000E+00
 -1      2797 1.25400E+02 4.09070E+01 0.00000E+00
 -1      2798 1.26900E+02 4.09070E+01 0.00000E+00
 -1      2799 1.24650E+02 3.96080E+01 0.00000E+00
 -1      2800 1.28400E+02 4.09070E+01 0.00000E+00
 -1      2801 1.29900E+02 4.09070E+01 0.00000E+00
 -1      2802 1.27650E+02 3.96080E+01 0.00000E+00
 -1      2803 1.31400E+02 4.09070E+01 0.00000E+00
 -1      2804 1.32900E+02 4.09070E+01 0.00000E+00
 -1      2805 1.30650E+02 3.96080E+01 0.00000E+00
 -1      2806 1.34400E+02 4.09070E+01 0.00000E+00
 -1      2807 1.35900E+02 4.09070E+01 0.00000E+00
 -1      2808 1.33650E+02 3.96080E+01 0.00000E+00
 -1      2809 1.37157E+02 4.09216E+01 0.00000E+00
 -1      2810 1.38657E+02 4.09216E+01 0.00000E+00
 -1      2811 1.38921E+02 3.96519E+01 0.00000E+00
 -1      2812 1.36407E+02 3.96226E+01 0.00000E+00
 -1      2813 2.02245E+01 2.79797E+01 0.00000E+00
 -1      2814 1.91479E+01 2.75675E+01 0.00000E+00
 -1      2815 2.57177E+01 4.56484E+00 0.00000E+00
 -1      2816 3.58350E+01 7.33299E+00 0.00000E+00
 -1      2817 3.43350E+01 7.33299E+00 0.00000E+00
 -1      2818 4.48350E+01 7.52307E+00 0.00000E+00
 -1      2819 4.33350E+01 7.52307E+00 0.00000E+00
 -1      2820 4.78350E+01 7.52307E+00 0.00000E+00
 -1      2821 4.63350E+01 7.52307E+00 0.00000E+00
 -1      2822 4.55850E+01 8.82207E+00 0.00000E+00
 -1      2823 5.08350E+01 7.52307E+00 0.00000E+00
 -1      2824 4.93350E+01 7.52307E+00 0.00000E+00
 -1      2825 4.85850E+01 8.82207E+00 0.00000E+00
 -1      2826 5.38350E+01 7.52307E+00 0.00000E+00
 -1      2827 5.23350E+01 7.52307E+00 0.00000E+00
 -1      2828 5.15850E+01 8.82207E+00 0.00000E+00
 -1      2829 5.68350E+01 7.52307E+00 0.00000E+00
 -1      2830 5.53350E+01 7.52307E+00 0.00000E+00
 -1      2831 5.45850E+01 8.82207E+00 0.00000E+00
 -1      2832 5.98350E+01 7.52307E+00 0.00000E+00
 -1      2833 5.83350E+01 7.52307E+00 0.00000E+00
 -1      2834 5.75850E+01 8.82207E+00 0.00000E+00
 -1      2835 6.28350E+01 7.52307E+00 0.00000E+00
 -1      2836 6.13350E+01 7.52307E+00 0.00000E+00
 -1      2837 6.05850E+01 8.82207E+00 0.00000E+00
 -1      2838 6.59850E+01 7.52307E+00 0.00000E+00
 -1      2839 6.44100E+01 7.52307E+00 0.00000E+00
 -1      2840 6.36600E+01 8.82207E+00 0.00000E+00
 -1      2841 6.89850E+01 7.52307E+00 0.00000E+00
 -1      2842 6.74850E+01 7.52307E+00 0.00000E+00
 -1      2843 6.67350E+01 8.82207E+00 0.00000E+00
 -1      2844 7.19850E+01 7.52307E+00 0.00000E+00
 -1      2845 7.04850E+01 7.52307E+00 0.00000E+00
 -1      2846 6.97350E+01 8.82207E+00 0.00000E+00
 -1      2847 7.49850E+01 7.52307E+00 0.00000E+00
 -1      2848 7.34850E+01 7.52307E+00 0.00000E+00
 -1      2849 7.27350E+01 8.82207E+00 0.00000E+00
 -1      2850 7.79850E+01 7.52307E+00 0.00000E+00
 -1      2851 7.64850E+01 7.52307E+00 0.00000E+00
 -1      2852 7.57350E+01 8.82207E+00 0.00000E+00
 -1      2853 8.09850E+01 7.52307E+00 0.00000E+00
 -1      2854 7.94850E+01 7.52307E+00 0.00000E+00
 -1      2855 7.87350E+01 8.82207E+00 0.00000E+00
 -1      2856 8.39850E+01 7.52307E+00 0.00000E+00
 -1      2857 8.24850E+01 7.52307E+00 0.00000E+00
 -1      2858 8.17350E+01 8.82207E+00 0.00000E+00
 -1      2859 8.69850E+01 7.52307E+00 0.00000E+00
 -1      2860 8.54850E+01 7.52307E+00 0.00000E+00
 -1      2861 8.47350E+01 8.82207E+00 0.00000E+00
 -1      2862 8.99850E+01 7.52307E+00 0.00000E+00
 -1      2863 8.84850E+01 7.52307E+00 0.00000E+00
 -1      2864 8.77350E+01 8.82207E+00 0.00000E+00
 -1      2865 9.29850E+01 7.52307E+00 0.00000E+00
 -1      2866 9.14850E+01 7.52307E+00 0.00000E+00
 -1      2867 9.07350E+01 8.82207E+00 0.00000E+00
 -1      2868 9.59850E+01 7.52307E+00 0.00000E+00
 -1      2869 9.44850E+01 7.52307E+00 0.00000E+00
 -1      2870 9.37350E+01 8.82207E+00 0.00000E+00
 -1      2871 9.89850E+01 7.52307E+00 0.00000E+00
 -1      2872 9.74850E+01 7.52307E+00 0.00000E+00
 -1      2873 9.67350E+01 8.82207E+00 0.00000E+00
 -1      2874 1.01985E+02 7.52307E+00 0.00000E+00
 -1      2875 1.00485E+02 7.52307E+00 0.00000E+00
 -1      2876 9.97350E+01 8.82207E+00 0.00000E+00
 -1      2877 1.04985E+02 7.52307E+00 0.00000E+00
 -1      2878 1.03485E+02 7.52307E+00 0.00000E+00
 -1      2879 1.02735E+02 8.82207E+00 0.00000E+00
 -1      2880 1.08135E+02 7.52307E+00 0.00000E+00
 -1      2881 1.06560E+02 7.52307E+00 0.00000E+00
 -1      2882 1.05810E+02 8.82207E+00 0.00000E+00
 -1      2883 1.11135E+02 7.52307E+00 0.00000E+00
 -1      2884 1.09635E+02 7.52307E+00 0.00000E+00
 -1      2885 1.08885E+02 8.82207E+00 0.00000E+00
 -1      2886 1.14135E+02 7.52307E+00 0.00000E+00
 -1      2887 1.12635E+02 7.52307E+00 0.00000E+00
 -1      2888 1.11885E+02 8.82207E+00 0.00000E+00
 -1      2889 1.17135E+02 7.52307E+00 0.00000E+00
 -1      2890 1.15635E+02 7.52307E+00 0.00000E+00
 -1      2891 1.14885E+02 8.82207E+00 0.00000E+00
 -1      2892 1.20135E+02 7.52307E+00 0.00000E+00
 -1      2893 1.18635E+02 7.52307E+00 0.00000E+00
 -1      2894 1.17885E+02 8.82207E+00 0.00000E+00
 -1      2895 1.23135E+02 7.52307E+00 0.00000E+00
 -1      2896 1.21635E+02 7.52307E+00 0.00000E+00
 -1      2897 1.20885E+02 8.82207E+00 0.00000E+00
 -1      2898 1.26135E+02 7.52307E+00 0.00000E+00
 -1      2899 1.24635E+02 7.52307E+00 0.00000E+00
 -1      2900 1.23885E+02 8.82207E+00 0.00000E+00
 -1      2901 1.29135E+02 7.52307E+00 0.00000E+00
 -1      2902 1.27635E+02 7.52307E+00 0.00000E+00
 -1      2903 1.26885E+02 8.82207E+00 0.00000E+00
 -1      2904 1.32135E+02 7.52307E+00 0.00000E+00
 -1      2905 1.30635E+02 7.52307E+00 0.00000E+00
 -1      2906 1.29885E+02 8.82207E+00 0.00000E+00
 -1      2907 1.35135E+02 7.52307E+00 0.00000E+00
 -1      2908 1.33635E+02 7.52307E+00 0.00000E+00
 -1      2909 1.32885E+02 8.82207E+00 0.00000E+00
 -1      2910 1.38135E+02 7.52307E+00 0.00000E+00
 -1      2911 1.36635E+02 7.52307E+00 0.00000E+00
 -1      2912 1.35885E+02 8.82207E+00 0.00000E+00
 -1      2913 1.40800E+02 7.38619E+00 0.00000E+00
 -1      2914 1.39300E+02 7.38619E+00 0.00000E+00
 -1      2915 1.38550E+02 8.68519E+00 0.00000E+00
 -1      2916 1.40880E+02 8.41142E+00 0.00000E+00
 -1      2917 1.40907E+02 2.42875E+01 0.00000E+00
 -1      2918 1.40907E+02 2.28125E+01 0.00000E+00
 -1      2919 1.56041E+01 2.54301E+01 0.00000E+00
 -1      2920 1.47014E+01 2.46103E+01 0.00000E+00
 -1      2921 1.40907E+02 1.83875E+01 0.00000E+00
 -1      2922 1.40907E+02 1.69125E+01 0.00000E+00
 -1      2923 1.40907E+02 2.72375E+01 0.00000E+00
 -1      2924 1.40907E+02 2.57625E+01 0.00000E+00
 -1      2925 1.39608E+02 2.50250E+01 0.00000E+00
 -1      2926 1.40907E+02 2.13375E+01 0.00000E+00
 -1      2927 1.40907E+02 1.98625E+01 0.00000E+00
 -1      2928 1.39608E+02 1.91250E+01 0.00000E+00
 -1      2929 1.39608E+02 2.20750E+01 0.00000E+00
 -1      2930 8.85168E+00 4.05347E+01 0.00000E+00
 -1      2931 1.02152E+01 4.07987E+01 0.00000E+00
 -1      2932 1.40907E+02 3.01375E+01 0.00000E+00
 -1      2933 1.40907E+02 2.86875E+01 0.00000E+00
 -1      2934 1.39608E+02 2.79500E+01 0.00000E+00
 -1      2935 1.40907E+02 3.30875E+01 0.00000E+00
 -1      2936 1.40907E+02 3.16125E+01 0.00000E+00
 -1      2937 1.39608E+02 3.08750E+01 0.00000E+00
 -1      2938 1.40907E+02 3.60375E+01 0.00000E+00
 -1      2939 1.40907E+02 3.45625E+01 0.00000E+00
 -1      2940 1.39608E+02 3.38250E+01 0.00000E+00
 -1      2941 1.41192E+02 3.82207E+01 0.00000E+00
 -1      2942 3.01081E+01 2.60358E+01 0.00000E+00
 -1      2943 2.91341E+01 2.65218E+01 0.00000E+00
 -1      2944 7.48818E+00 3.88019E+01 0.00000E+00
 -1      2945 1.19182E+01 1.84530E+01 0.00000E+00
 -1      2946 1.17750E+01 1.71660E+01 0.00000E+00
 -1      2947 2.78499E+01 2.69145E+01 0.00000E+00
 -1      2948 2.66093E+01 2.72570E+01 0.00000E+00
 -1      2949 3.54684E+01 1.58262E+01 0.00000E+00
 -1      2950 3.54423E+01 1.67542E+01 0.00000E+00
 -1      2951 4.18350E+01 7.52307E+00 0.00000E+00
 -1      2952 4.03350E+01 7.52307E+00 0.00000E+00
 -1      2953 4.25850E+01 8.82207E+00 0.00000E+00
 -1      2954 1.59148E+01 7.05155E+00 0.00000E+00
 -1      2955 1.65510E+01 6.35565E+00 0.00000E+00
 -1      2956 3.88350E+01 7.52307E+00 0.00000E+00
 -1      2957 3.73350E+01 7.52307E+00 0.00000E+00
 -1      2958 3.95850E+01 8.82207E+00 0.00000E+00
 -1      2959 3.23316E+01 7.30712E+00 0.00000E+00
 -1      2960 3.52928E+01 1.78433E+01 0.00000E+00
 -1      2961 3.51432E+01 1.89325E+01 0.00000E+00
 -1      2962 3.60793E+01 1.74011E+01 0.00000E+00
 -1      2963 3.22924E+01 2.46362E+01 0.00000E+00
 -1      2964 3.13410E+01 2.54225E+01 0.00000E+00
 -1      2965 1.15576E+01 4.08528E+01 0.00000E+00
 -1      2966 1.30576E+01 4.08528E+01 0.00000E+00
 -1      2967 1.38076E+01 3.95538E+01 0.00000E+00
 -1      2968 1.11228E+01 3.94455E+01 0.00000E+00
 -1      2969 1.75383E+01 5.19358E+00 0.00000E+00
 -1      2970 9.66450E+00 9.53604E+00 0.00000E+00
 -1      2971 8.73534E+00 1.68875E+01 0.00000E+00
 -1      2972 8.73534E+00 1.83625E+01 0.00000E+00
 -1      2973 1.77757E+01 2.69095E+01 0.00000E+00
 -1      2974 1.66899E+01 2.61698E+01 0.00000E+00
 -1      2975 1.55493E+01 2.65187E+01 0.00000E+00
 -1      2976 9.09300E+00 3.15875E+01 0.00000E+00
 -1      2977 9.09300E+00 3.30625E+01 0.00000E+00
 -1      2978 2.55748E+01 2.77039E+01 0.00000E+00
 -1      2979 2.44844E+01 2.81698E+01 0.00000E+00
 -1      2980 1.19100E+01 1.33589E+01 0.00000E+00
 -1      2981 1.24518E+01 1.21767E+01 0.00000E+00
 -1      2982 3.38014E+01 2.23582E+01 0.00000E+00
 -1      2983 3.32139E+01 2.33884E+01 0.00000E+00
 -1      2984 3.49003E+01 2.22937E+01 0.00000E+00
 -1      2985 1.38157E+01 2.34975E+01 0.00000E+00
 -1      2986 1.30907E+01 2.25015E+01 0.00000E+00
 -1      2987 1.50533E+01 7.87329E+00 0.00000E+00
 -1      2988 1.46991E+01 7.15213E+00 0.00000E+00
 -1      2989 1.34363E+01 7.28906E+00 0.00000E+00
 -1      2990 1.42388E+01 8.65868E+00 0.00000E+00
 -1      2991 9.09300E+00 3.45313E+01 0.00000E+00
 -1      2992 9.09300E+00 3.60000E+01 0.00000E+00
 -1      2993 1.03920E+01 3.37938E+01 0.00000E+00
 -1      2994 1.01794E+01 2.49750E+01 0.00000E+00
 -1      2995 8.98670E+00 2.57000E+01 0.00000E+00
 -1      2996 8.98670E+00 2.71750E+01 0.00000E+00
 -1      2997 1.00956E+01 1.32000E+01 0.00000E+00
 -1      2998 9.92804E+00 1.90875E+01 0.00000E+00
 -1      2999 2.87197E+01 2.74389E+01 0.00000E+00
 -1      3000 2.37588E+01 2.91334E+01 0.00000E+00
 -1      3001 2.30333E+01 3.00971E+01 0.00000E+00
 -1      3002 2.46410E+01 2.96891E+01 0.00000E+00
 -1      3003 3.57088E+01 1.98769E+01 0.00000E+00
 -1      3004 2.07654E+01 2.90579E+01 0.00000E+00
 -1      3005 3.60009E+01 1.12726E+01 0.00000E+00
 -1      3006 3.54245E+01 1.20883E+01 0.00000E+00
 -1      3007 3.61199E+01 1.27075E+01 0.00000E+00
 -1      3008 1.80073E+01 2.79164E+01 0.00000E+00
 -1      3009 9.09300E+00 2.86375E+01 0.00000E+00
 -1      3010 9.09300E+00 3.01125E+01 0.00000E+00
 -1      3011 1.03920E+01 3.08500E+01 0.00000E+00
 -1      3012 3.63039E+01 1.40090E+01 0.00000E+00
 -1      3013 3.58861E+01 1.49176E+01 0.00000E+00
 -1      3014 3.66466E+01 1.54033E+01 0.00000E+00
 -1      3015 8.78718E+00 3.80644E+01 0.00000E+00
 -1      3016 3.65850E+01 8.63199E+00 0.00000E+00
 -1      3017 1.09410E+01 1.02735E+01 0.00000E+00
 -1      3018 1.40961E+02 9.43665E+00 0.00000E+00
 -1      3019 1.26863E+01 8.39797E+00 0.00000E+00
 -1      3020 1.35778E+01 2.46663E+01 0.00000E+00
 -1      3021 1.39608E+02 1.61875E+01 0.00000E+00
 -1      3022 1.40907E+02 1.54500E+01 0.00000E+00
 -1      3023 1.40907E+02 1.39875E+01 0.00000E+00
 -1      3024 1.40907E+02 1.25250E+01 0.00000E+00
 -1      3025 1.40907E+02 1.10625E+01 0.00000E+00
 -1      3026 1.39608E+02 1.32625E+01 0.00000E+00
 -1      3027 1.39893E+02 3.74832E+01 0.00000E+00
 -1      3028 3.12369E+01 2.64329E+01 0.00000E+00
 -1      3029 1.23478E+01 2.23319E+01 0.00000E+00
 -1      3030 1.27463E+01 2.12799E+01 0.00000E+00
 -1      3031 1.24019E+01 2.00583E+01 0.00000E+00
 -1      3032 1.08603E+01 1.69837E+01 0.00000E+00
 -1      3033 1.15994E+01 1.62500E+01 0.00000E+00
 -1      3034 2.64010E+01 2.82785E+01 0.00000E+00
 -1      3035 3.42037E+01 9.42712E+00 0.00000E+00
 -1      3036 3.51952E+01 9.54763E+00 0.00000E+00
 -1      3037 3.40771E+01 8.50994E+00 0.00000E+00
 -1      3038 3.33271E+01 7.40103E+00 0.00000E+00
 -1      3039 1.39662E+02 1.01742E+01 0.00000E+00
 -1      3040 1.15327E+01 1.51788E+01 0.00000E+00
 -1      3041 3.33913E+01 2.45718E+01 0.00000E+00
 -1      3042 1.34868E+01 9.01477E+00 0.00000E+00
 -1      3043 1.22877E+01 1.12418E+01 0.00000E+00
 -1      3044 1.02645E+01 1.53714E+01 0.00000E+00
 -1      3045 1.11124E+01 1.44824E+01 0.00000E+00
 -1      3046 9.23934E+00 1.61089E+01 0.00000E+00
 -1      3047 1.89000E+01 3.83090E+01 0.00000E+00
 -1      3048 2.04000E+01 3.83090E+01 0.00000E+00
 -1      3049 2.19000E+01 3.83090E+01 0.00000E+00
 -1      3050 2.34000E+01 3.83090E+01 0.00000E+00
 -1      3051 2.11500E+01 3.70100E+01 0.00000E+00
 -1      3052 2.49000E+01 3.83090E+01 0.00000E+00
 -1      3053 2.64000E+01 3.83090E+01 0.00000E+00
 -1      3054 2.41500E+01 3.70100E+01 0.00000E+00
 -1      3055 2.79000E+01 3.83090E+01 0.00000E+00
 -1      3056 2.94000E+01 3.83090E+01 0.00000E+00
 -1      3057 2.71500E+01 3.70100E+01 0.00000E+00
 -1      3058 3.09000E+01 3.83090E+01 0.00000E+00
 -1      3059 3.24000E+01 3.83090E+01 0.00000E+00
 -1      3060 3.01500E+01 3.70100E+01 0.00000E+00
 -1      3061 3.39000E+01 3.83090E+01 0.00000E+00
 -1      3062 3.54000E+01 3.83090E+01 0.00000E+00
 -1      3063 3.31500E+01 3.70100E+01 0.00000E+00
 -1      3064 3.69000E+01 3.83090E+01 0.00000E+00
 -1      3065 3.84000E+01 3.83090E+01 0.00000E+00
 -1      3066 3.61500E+01 3.70100E+01 0.00000E+00
 -1      3067 3.99000E+01 3.83090E+01 0.00000E+00
 -1      3068 4.14000E+01 3.83090E+01 0.00000E+00
 -1      3069 3.91500E+01 3.70100E+01 0.00000E+00
 -1      3070 4.29000E+01 3.83090E+01 0.00000E+00
 -1      3071 4.44000E+01 3.83090E+01 0.00000E+00
 -1      3072 4.21500E+01 3.70100E+01 0.00000E+00
 -1      3073 4.59000E+01 3.83090E+01 0.00000E+00
 -1      3074 4.74000E+01 3.83090E+01 0.00000E+00
 -1      3075 4.51500E+01 3.70100E+01 0.00000E+00
 -1      3076 4.89000E+01 3.83090E+01 0.00000E+00
 -1      3077 5.04000E+01 3.83090E+01 0.00000E+00
 -1      3078 4.81500E+01 3.70100E+01 0.00000E+00
 -1      3079 5.19000E+01 3.83090E+01 0.00000E+00
 -1      3080 5.34000E+01 3.83090E+01 0.00000E+00
 -1      3081 5.11500E+01 3.70100E+01 0.00000E+00
 -1      3082 5.49000E+01 3.83090E+01 0.00000E+00
 -1      3083 5.64000E+01 3.83090E+01 0.00000E+00
 -1      3084 5.41500E+01 3.70100E+01 0.00000E+00
 -1      3085 5.79000E+01 3.83090E+01 0.00000E+00
 -1      3086 5.94000E+01 3.83090E+01 0.00000E+00
 -1      3087 5.71500E+01 3.70100E+01 0.00000E+00
 -1      3088 6.09000E+01 3.83090E+01 0.00000E+00
 -1      3089 6.24000E+01 3.83090E+01 0.00000E+00
 -1      3090 6.01500E+01 3.70100E+01 0.00000E+00
 -1      3091 6.39000E+01 3.83090E+01 0.00000E+00
 -1      3092 6.54000E+01 3.83090E+01 0.00000E+00
 -1      3093 6.31500E+01 3.70100E+01 0.00000E+00
 -1      3094 6.69000E+01 3.83090E+01 0.00000E+00
 -1      3095 6.84000E+01 3.83090E+01 0.00000E+00
 -1      3096 6.61500E+01 3.70100E+01 0.00000E+00
 -1      3097 6.99000E+01 3.83090E+01 0.00000E+00
 -1      3098 7.14000E+01 3.83090E+01 0.00000E+00
 -1      3099 6.91500E+01 3.70100E+01 0.00000E+00
 -1      3100 7.29000E+01 3.83090E+01 0.00000E+00
 -1      3101 7.44000E+01 3.83090E+01 0.00000E+00
 -1      3102 7.21500E+01 3.70100E+01 0.00000E+00
 -1      3103 7.59000E+01 3.83090E+01 0.00000E+00
 -1      3104 7.74000E+01 3.83090E+01 0.00000E+00
 -1      3105 7.51500E+01 3.70100E+01 0.00000E+00
 -1      3106 7.89000E+01 3.83090E+01 0.00000E+00
 -1      3107 8.04000E+01 3.83090E+01 0.00000E+00
 -1      3108 7.81500E+01 3.70100E+01 0.00000E+00
 -1      3109 8.19000E+01 3.83090E+01 0.00000E+00
 -1      3110 8.34000E+01 3.83090E+01 0.00000E+00
 -1      3111 8.11500E+01 3.70100E+01 0.00000E+00
 -1      3112 8.49000E+01 3.83090E+01 0.00000E+00
 -1      3113 8.64000E+01 3.83090E+01 0.00000E+00
 -1      3114 8.41500E+01 3.70100E+01 0.00000E+00
 -1      3115 8.79000E+01 3.83090E+01 0.00000E+00
 -1      3116 8.94000E+01 3.83090E+01 0.00000E+00
 -1      3117 8.71500E+01 3.70100E+01 0.00000E+00
 -1      3118 9.09000E+01 3.83090E+01 0.00000E+00
 -1      3119 9.24000E+01 3.83090E+01 0.00000E+00
 -1      3120 9.01500E+01 3.70100E+01 0.00000E+00
 -1      3121 9.39000E+01 3.83090E+01 0.00000E+00
 -1      3122 9.54000E+01 3.83090E+01 0.00000E+00
 -1      3123 9.31500E+01 3.70100E+01 0.00000E+00
 -1      3124 9.69000E+01 3.83090E+01 0.00000E+00
 -1      3125 9.84000E+01 3.83090E+01 0.00000E+00
 -1      3126 9.61500E+01 3.70100E+01 0.00000E+00
 -1      3127 9.99000E+01 3.83090E+01 0.00000E+00
 -1      3128 1.01400E+02 3.83090E+01 0.00000E+00
 -1      3129 9.91500E+01 3.70100E+01 0.00000E+00
 -1      3130 1.02900E+02 3.83090E+01 0.00000E+00
 -1      3131 1.04400E+02 3.83090E+01 0.00000E+00
 -1      3132 1.02150E+02 3.70100E+01 0.00000E+00
 -1      3133 1.05900E+02 3.83090E+01 0.00000E+00
 -1      3134 1.07400E+02 3.83090E+01 0.00000E+00
 -1      3135 1.05150E+02 3.70100E+01 0.00000E+00
 -1      3136 1.08900E+02 3.83090E+01 0.00000E+00
 -1      3137 1.10400E+02 3.83090E+01 0.00000E+00
 -1      3138 1.08150E+02 3.70100E+01 0.00000E+00
 -1      3139 1.11900E+02 3.83090E+01 0.00000E+00
 -1      3140 1.13400E+02 3.83090E+01 0.00000E+00
 -1      3141 1.11150E+02 3.70100E+01 0.00000E+00
 -1      3142 1.14900E+02 3.83090E+01 0.00000E+00
 -1      3143 1.16400E+02 3.83090E+01 0.00000E+00
 -1      3144 1.14150E+02 3.70100E+01 0.00000E+00
 -1      3145 1.17900E+02 3.83090E+01 0.00000E+00
 -1      3146 1.19400E+02 3.83090E+01 0.00000E+00
 -1      3147 1.17150E+02 3.70100E+01 0.00000E+00
 -1      3148 1.20900E+02 3.83090E+01 0.00000E+00
 -1      3149 1.22400E+02 3.83090E+01 0.00000E+00
 -1      3150 1.20150E+02 3.70100E+01 0.00000E+00
 -1      3151 1.23900E+02 3.83090E+01 0.00000E+00
 -1      3152 1.25400E+02 3.83090E+01 0.00000E+00
 -1      3153 1.23150E+02 3.70100E+01 0.00000E+00
 -1      3154 1.26900E+02 3.83090E+01 0.00000E+00
 -1      3155 1.28400E+02 3.83090E+01 0.00000E+00
 -1      3156 1.26150E+02 3.70100E+01 0.00000E+00
 -1      3157 1.29900E+02 3.83090E+01 0.00000E+00
 -1      3158 1.31400E+02 3.83090E+01 0.00000E+00
 -1      3159 1.29150E+02 3.70100E+01 0.00000E+00
 -1      3160 1.32900E+02 3.83090E+01 0.00000E+00
 -1      3161 1.34400E+02 3.83090E+01 0.00000E+00
 -1      3162 1.32150E+02 3.70100E+01 0.00000E+00
 -1      3163 4.93350E+01 1.01211E+01 0.00000E+00
 -1      3164 4.78350E+01 1.01211E+01 0.00000E+00
 -1      3165 4.63350E+01 1.01211E+01 0.00000E+00
 -1      3166 4.48350E+01 1.01211E+01 0.00000E+00
 -1      3167 4.70850E+01 1.14201E+01 0.00000E+00
 -1      3168 5.53350E+01 1.01211E+01 0.00000E+00
 -1      3169 5.38350E+01 1.01211E+01 0.00000E+00
 -1      3170 5.83350E+01 1.01211E+01 0.00000E+00
 -1      3171 5.68350E+01 1.01211E+01 0.00000E+00
 -1      3172 5.60850E+01 1.14201E+01 0.00000E+00
 -1      3173 6.13350E+01 1.01211E+01 0.00000E+00
 -1      3174 5.98350E+01 1.01211E+01 0.00000E+00
 -1      3175 5.90850E+01 1.14201E+01 0.00000E+00
 -1      3176 6.44850E+01 1.01211E+01 0.00000E+00
 -1      3177 6.29100E+01 1.01211E+01 0.00000E+00
 -1      3178 6.21600E+01 1.14201E+01 0.00000E+00
 -1      3179 6.74850E+01 1.01211E+01 0.00000E+00
 -1      3180 6.59850E+01 1.01211E+01 0.00000E+00
 -1      3181 6.52350E+01 1.14201E+01 0.00000E+00
 -1      3182 7.04850E+01 1.01211E+01 0.00000E+00
 -1      3183 6.89850E+01 1.01211E+01 0.00000E+00
 -1      3184 6.82350E+01 1.14201E+01 0.00000E+00
 -1      3185 7.34850E+01 1.01211E+01 0.00000E+00
 -1      3186 7.19850E+01 1.01211E+01 0.00000E+00
 -1      3187 7.12350E+01 1.14201E+01 0.00000E+00
 -1      3188 7.64850E+01 1.01211E+01 0.00000E+00
 -1      3189 7.49850E+01 1.01211E+01 0.00000E+00
 -1      3190 7.42350E+01 1.14201E+01 0.00000E+00
 -1      3191 7.94850E+01 1.01211E+01 0.00000E+00
 -1      3192 7.79850E+01 1.01211E+01 0.00000E+00
 -1      3193 7.72350E+01 1.14201E+01 0.00000E+00
 -1      3194 8.24850E+01 1.01211E+01 0.00000E+00
 -1      3195 8.09850E+01 1.01211E+01 0.00000E+00
 -1      3196 8.02350E+01 1.14201E+01 0.00000E+00
 -1      3197 8.54850E+01 1.01211E+01 0.00000E+00
 -1      3198 8.39850E+01 1.01211E+01 0.00000E+00
 -1      3199 8.32350E+01 1.14201E+01 0.00000E+00
 -1      3200 8.84850E+01 1.01211E+01 0.00000E+00
 -1      3201 8.69850E+01 1.01211E+01 0.00000E+00
 -1      3202 8.62350E+01 1.14201E+01 0.00000E+00
 -1      3203 9.14850E+01 1.01211E+01 0.00000E+00
 -1      3204 8.99850E+01 1.01211E+01 0.00000E+00
 -1      3205 8.92350E+01 1.14201E+01 0.00000E+00
 -1      3206 9.44850E+01 1.01211E+01 0.00000E+00
 -1      3207 9.29850E+01 1.01211E+01 0.00000E+00
 -1      3208 9.22350E+01 1.14201E+01 0.00000E+00
 -1      3209 9.74850E+01 1.01211E+01 0.00000E+00
 -1      3210 9.59850E+01 1.01211E+01 0.00000E+00
 -1      3211 9.52350E+01 1.14201E+01 0.00000E+00
 -1      3212 1.00485E+02 1.01211E+01 0.00000E+00
 -1      3213 9.89850E+01 1.01211E+01 0.00000E+00
 -1      3214 9.82350E+01 1.14201E+01 0.00000E+00
 -1      3215 1.03485E+02 1.01211E+01 0.00000E+00
 -1      3216 1.01985E+02 1.01211E+01 0.00000E+00
 -1      3217 1.01235E+02 1.14201E+01 0.00000E+00
 -1      3218 1.06635E+02 1.01211E+01 0.00000E+00
 -1      3219 1.05060E+02 1.01211E+01 0.00000E+00
 -1      3220 1.04310E+02 1.14201E+01 0.00000E+00
 -1      3221 1.09635E+02 1.01211E+01 0.00000E+00
 -1      3222 1.08135E+02 1.01211E+01 0.00000E+00
 -1      3223 1.07385E+02 1.14201E+01 0.00000E+00
 -1      3224 1.12635E+02 1.01211E+01 0.00000E+00
 -1      3225 1.11135E+02 1.01211E+01 0.00000E+00
 -1      3226 1.10385E+02 1.14201E+01 0.00000E+00
 -1      3227 1.15635E+02 1.01211E+01 0.00000E+00
 -1      3228 1.14135E+02 1.01211E+01 0.00000E+00
 -1      3229 1.13385E+02 1.14201E+01 0.00000E+00
 -1      3230 1.18635E+02 1.01211E+01 0.00000E+00
 -1      3231 1.17135E+02 1.01211E+01 0.00000E+00
 -1      3232 1.16385E+02 1.14201E+01 0.00000E+00
 -1      3233 1.21635E+02 1.01211E+01 0.00000E+00
 -1      3234 1.20135E+02 1.01211E+01 0.00000E+00
 -1      3235 1.19385E+02 1.14201E+01 0.00000E+00
 -1      3236 1.24635E+02 1.01211E+01 0.00000E+00
 -1      3237 1.23135E+02 1.01211E+01 0.00000E+00
 -1      3238 1.22385E+02 1.14201E+01 0.00000E+00
 -1      3239 1.27635E+02 1.01211E+01 0.00000E+00
 -1      3240 1.26135E+02 1.01211E+01 0.00000E+00
 -1      3241 1.25385E+02 1.14201E+01 0.00000E+00
 -1      3242 1.30635E+02 1.01211E+01 0.00000E+00
 -1      3243 1.29135E+02 1.01211E+01 0.00000E+00
 -1      3244 1.28385E+02 1.14201E+01 0.00000E+00
 -1      3245 1.33635E+02 1.01211E+01 0.00000E+00
 -1      3246 1.32135E+02 1.01211E+01 0.00000E+00
 -1      3247 1.31385E+02 1.14201E+01 0.00000E+00
 -1      3248 1.36635E+02 1.01211E+01 0.00000E+00
 -1      3249 1.35135E+02 1.01211E+01 0.00000E+00
 -1      3250 1.34385E+02 1.14201E+01 0.00000E+00
 -1      3251 1.38497E+02 1.03110E+01 0.00000E+00
 -1      3252 1.23355E+01 9.43887E+00 0.00000E+00
 -1      3253 1.38309E+02 2.57625E+01 0.00000E+00
 -1      3254 1.38309E+02 2.42875E+01 0.00000E+00
 -1      3255 1.38309E+02 3.45625E+01 0.00000E+00
 -1      3256 1.38309E+02 3.30875E+01 0.00000E+00
 -1      3257 1.38309E+02 2.86625E+01 0.00000E+00
 -1      3258 1.38309E+02 2.72125E+01 0.00000E+00
 -1      3259 1.37010E+02 2.64750E+01 0.00000E+00
 -1      3260 3.23099E+01 2.70440E+01 0.00000E+00
 -1      3261 3.10770E+01 2.76574E+01 0.00000E+00
 -1      3262 4.03350E+01 1.01211E+01 0.00000E+00
 -1      3263 3.88350E+01 1.01211E+01 0.00000E+00
 -1      3264 1.82864E+01 2.90942E+01 0.00000E+00
 -1      3265 1.69142E+01 2.84362E+01 0.00000E+00
 -1      3266 4.33350E+01 1.01211E+01 0.00000E+00
 -1      3267 4.18350E+01 1.01211E+01 0.00000E+00
 -1      3268 4.10850E+01 1.14201E+01 0.00000E+00
 -1      3269 4.40850E+01 1.14201E+01 0.00000E+00
 -1      3270 1.00862E+01 3.73269E+01 0.00000E+00
 -1      3271 3.60117E+01 2.22449E+01 0.00000E+00
 -1      3272 3.54242E+01 2.32752E+01 0.00000E+00
 -1      3273 1.03563E+01 1.77624E+01 0.00000E+00
 -1      3274 1.01807E+01 1.68464E+01 0.00000E+00
 -1      3275 1.38309E+02 3.16125E+01 0.00000E+00
 -1      3276 1.38309E+02 3.01375E+01 0.00000E+00
 -1      3277 1.37010E+02 2.94000E+01 0.00000E+00
 -1      3278 1.37010E+02 3.23500E+01 0.00000E+00
 -1      3279 2.73580E+01 2.90731E+01 0.00000E+00
 -1      3280 2.63235E+01 2.95200E+01 0.00000E+00
 -1      3281 5.23350E+01 1.01211E+01 0.00000E+00
 -1      3282 5.08350E+01 1.01211E+01 0.00000E+00
 -1      3283 5.00850E+01 1.14201E+01 0.00000E+00
 -1      3284 1.59000E+01 3.83090E+01 0.00000E+00
 -1      3285 1.74000E+01 3.83090E+01 0.00000E+00
 -1      3286 1.81500E+01 3.70100E+01 0.00000E+00
 -1      3287 3.66952E+01 9.73771E+00 0.00000E+00
 -1      3288 1.10914E+01 2.08301E+01 0.00000E+00
 -1      3289 1.14900E+01 1.97782E+01 0.00000E+00
 -1      3290 3.70867E+01 1.69845E+01 0.00000E+00
 -1      3291 3.69371E+01 1.80737E+01 0.00000E+00
 -1      3292 1.06418E+01 1.35515E+01 0.00000E+00
 -1      3293 3.74452E+01 1.10367E+01 0.00000E+00
 -1      3294 1.55150E+01 2.77358E+01 0.00000E+00
 -1      3295 1.44293E+01 2.69961E+01 0.00000E+00
 -1      3296 1.32186E+01 2.58611E+01 0.00000E+00
 -1      3297 1.23329E+01 2.47483E+01 0.00000E+00
 -1      3298 3.46092E+01 2.45071E+01 0.00000E+00
 -1      3299 3.36878E+01 2.57549E+01 0.00000E+00
 -1      3300 3.67489E+01 1.93317E+01 0.00000E+00
 -1      3301 3.65279E+01 2.07183E+01 0.00000E+00
 -1      3302 1.10914E+01 2.23051E+01 0.00000E+00
 -1      3303 1.38758E+02 3.81988E+01 0.00000E+00
 -1      3304 1.38473E+02 3.60156E+01 0.00000E+00
 -1      3305 1.37173E+02 3.52781E+01 0.00000E+00
 -1      3306 1.37501E+02 3.81842E+01 0.00000E+00
 -1      3307 2.10930E+01 3.03467E+01 0.00000E+00
 -1      3308 1.97072E+01 2.98632E+01 0.00000E+00
 -1      3309 2.98596E+01 2.81688E+01 0.00000E+00
 -1      3310 2.85754E+01 2.85616E+01 0.00000E+00
 -1      3311 2.84979E+01 2.98030E+01 0.00000E+00
 -1      3312 3.09326E+01 2.87800E+01 0.00000E+00
 -1      3313 1.37747E+02 1.16100E+01 0.00000E+00
 -1      3314 1.06077E+01 1.92249E+01 0.00000E+00
 -1      3315 1.14358E+01 2.35267E+01 0.00000E+00
 -1      3316 1.10765E+01 2.47215E+01 0.00000E+00
 -1      3317 1.10765E+01 2.61965E+01 0.00000E+00
 -1      3318 2.55980E+01 3.04836E+01 0.00000E+00
 -1      3319 1.16910E+01 3.30594E+01 0.00000E+00
 -1      3320 1.16910E+01 3.45281E+01 0.00000E+00
 -1      3321 1.02857E+01 2.79125E+01 0.00000E+00
 -1      3322 1.86140E+01 3.03830E+01 0.00000E+00
 -1      3323 5.30850E+01 1.14201E+01 0.00000E+00
 -1      3324 1.36243E+02 3.81696E+01 0.00000E+00
 -1      3325 1.15598E+01 3.59546E+01 0.00000E+00
 -1      3326 1.12540E+01 3.80190E+01 0.00000E+00
 -1      3327 1.25964E+01 3.80732E+01 0.00000E+00
 -1      3328 1.28588E+01 3.52202E+01 0.00000E+00
 -1      3329 3.68803E+01 1.31933E+01 0.00000E+00
 -1      3330 2.19751E+01 3.09024E+01 0.00000E+00
 -1      3331 2.09169E+01 3.17076E+01 0.00000E+00
 -1      3332 2.28572E+01 3.14580E+01 0.00000E+00
 -1      3333 1.38309E+02 1.98625E+01 0.00000E+00
 -1      3334 1.38309E+02 1.83875E+01 0.00000E+00
 -1      3335 1.37747E+02 1.30725E+01 0.00000E+00
 -1      3336 1.35885E+02 1.28826E+01 0.00000E+00
 -1      3337 1.37747E+02 1.45350E+01 0.00000E+00
 -1      3338 1.38028E+02 1.71925E+01 0.00000E+00
 -1      3339 1.38028E+02 1.57300E+01 0.00000E+00
 -1      3340 1.36166E+02 1.55401E+01 0.00000E+00
 -1      3341 1.36729E+02 1.79300E+01 0.00000E+00
 -1      3342 1.38309E+02 2.28125E+01 0.00000E+00
 -1      3343 1.38309E+02 2.13375E+01 0.00000E+00
 -1      3344 1.37010E+02 2.35500E+01 0.00000E+00
 -1      3345 3.35279E+01 2.69794E+01 0.00000E+00
 -1      3346 3.33680E+01 2.82039E+01 0.00000E+00
 -1      3347 3.47458E+01 2.69147E+01 0.00000E+00
 -1      3348 1.31843E+01 2.70781E+01 0.00000E+00
 -1      3349 1.57941E+01 2.89136E+01 0.00000E+00
 -1      3350 3.70518E+01 2.16998E+01 0.00000E+00
 -1      3351 3.75044E+01 1.60759E+01 0.00000E+00
 -1      3352 3.83622E+01 1.67486E+01 0.00000E+00
 -1      3353 3.79221E+01 1.51674E+01 0.00000E+00
 -1      3354 1.17415E+01 1.08903E+01 0.00000E+00
 -1      3355 1.35493E+02 3.68706E+01 0.00000E+00
 -1      3356 3.57207E+01 2.44583E+01 0.00000E+00
 -1      3357 3.77562E+01 1.89152E+01 0.00000E+00
 -1      3358 1.08932E+01 1.20765E+01 0.00000E+00
 -1      3359 1.39388E+01 3.81274E+01 0.00000E+00
 -1      3360 1.16910E+01 3.01094E+01 0.00000E+00
 -1      3361 1.16910E+01 3.15844E+01 0.00000E+00
 -1      3362 1.29900E+01 3.23187E+01 0.00000E+00
 -1      3363 1.46888E+01 3.68284E+01 0.00000E+00
 -1      3364 1.48200E+01 3.54019E+01 0.00000E+00
 -1      3365 1.13306E+01 2.74217E+01 0.00000E+00
 -1      3366 1.14369E+01 2.88842E+01 0.00000E+00
 -1      3367 1.27359E+01 2.96186E+01 0.00000E+00
 -1      3368 1.22278E+01 2.71682E+01 0.00000E+00
 -1      3369 2.34000E+01 3.57110E+01 0.00000E+00
 -1      3370 2.49000E+01 3.57110E+01 0.00000E+00
 -1      3371 2.64000E+01 3.57110E+01 0.00000E+00
 -1      3372 2.79000E+01 3.57110E+01 0.00000E+00
 -1      3373 2.56500E+01 3.44120E+01 0.00000E+00
 -1      3374 2.94000E+01 3.57110E+01 0.00000E+00
 -1      3375 3.09000E+01 3.57110E+01 0.00000E+00
 -1      3376 2.86500E+01 3.44120E+01 0.00000E+00
 -1      3377 3.24000E+01 3.57110E+01 0.00000E+00
 -1      3378 3.39000E+01 3.57110E+01 0.00000E+00
 -1      3379 3.16500E+01 3.44120E+01 0.00000E+00
 -1      3380 3.54000E+01 3.57110E+01 0.00000E+00
 -1      3381 3.69000E+01 3.57110E+01 0.00000E+00
 -1      3382 3.46500E+01 3.44120E+01 0.00000E+00
 -1      3383 3.84000E+01 3.57110E+01 0.00000E+00
 -1      3384 3.99000E+01 3.57110E+01 0.00000E+00
 -1      3385 3.76500E+01 3.44120E+01 0.00000E+00
 -1      3386 4.14000E+01 3.57110E+01 0.00000E+00
 -1      3387 4.29000E+01 3.57110E+01 0.00000E+00
 -1      3388 4.06500E+01 3.44120E+01 0.00000E+00
 -1      3389 4.44000E+01 3.57110E+01 0.00000E+00
 -1      3390 4.59000E+01 3.57110E+01 0.00000E+00
 -1      3391 4.36500E+01 3.44120E+01 0.00000E+00
 -1      3392 4.74000E+01 3.57110E+01 0.00000E+00
 -1      3393 4.89000E+01 3.57110E+01 0.00000E+00
 -1      3394 4.66500E+01 3.44120E+01 0.00000E+00
 -1      3395 5.04000E+01 3.57110E+01 0.00000E+00
 -1      3396 5.19000E+01 3.57110E+01 0.00000E+00
 -1      3397 4.96500E+01 3.44120E+01 0.00000E+00
 -1      3398 5.34000E+01 3.57110E+01 0.00000E+00
 -1      3399 5.49000E+01 3.57110E+01 0.00000E+00
 -1      3400 5.26500E+01 3.44120E+01 0.00000E+00
 -1      3401 5.64000E+01 3.57110E+01 0.00000E+00
 -1      3402 5.79000E+01 3.57110E+01 0.00000E+00
 -1      3403 5.56500E+01 3.44120E+01 0.00000E+00
 -1      3404 5.94000E+01 3.57110E+01 0.00000E+00
 -1      3405 6.09000E+01 3.57110E+01 0.00000E+00
 -1      3406 5.86500E+01 3.44120E+01 0.00000E+00
 -1      3407 6.24000E+01 3.57110E+01 0.00000E+00
 -1      3408 6.39000E+01 3.57110E+01 0.00000E+00
 -1      3409 6.16500E+01 3.44120E+01 0.00000E+00
 -1      3410 6.54000E+01 3.57110E+01 0.00000E+00
 -1      3411 6.69000E+01 3.57110E+01 0.00000E+00
 -1      3412 6.46500E+01 3.44120E+01 0.00000E+00
 -1      3413 6.84000E+01 3.57110E+01 0.00000E+00
 -1      3414 6.99000E+01 3.57110E+01 0.00000E+00
 -1      3415 6.76500E+01 3.44120E+01 0.00000E+00
 -1      3416 7.14000E+01 3.57110E+01 0.00000E+00
 -1      3417 7.29000E+01 3.57110E+01 0.00000E+00
 -1      3418 7.06500E+01 3.44120E+01 0.00000E+00
 -1      3419 7.44000E+01 3.57110E+01 0.00000E+00
 -1      3420 7.59000E+01 3.57110E+01 0.00000E+00
 -1      3421 7.36500E+01 3.44120E+01 0.00000E+00
 -1      3422 7.74000E+01 3.57110E+01 0.00000E+00
 -1      3423 7.89000E+01 3.57110E+01 0.00000E+00
 -1      3424 7.66500E+01 3.44120E+01 0.00000E+00
 -1      3425 8.04000E+01 3.57110E+01 0.00000E+00
 -1      3426 8.19000E+01 3.57110E+01 0.00000E+00
 -1      3427 7.96500E+01 3.44120E+01 0.00000E+00
 -1      3428 8.34000E+01 3.57110E+01 0.00000E+00
 -1      3429 8.49000E+01 3.57110E+01 0.00000E+00
 -1      3430 8.26500E+01 3.44120E+01 0.00000E+00
 -1      3431 8.64000E+01 3.57110E+01 0.00000E+00
 -1      3432 8.79000E+01 3.57110E+01 0.00000E+00
 -1      3433 8.56500E+01 3.44120E+01 0.00000E+00
 -1      3434 8.94000E+01 3.57110E+01 0.00000E+00
 -1      3435 9.09000E+01 3.57110E+01 0.00000E+00
 -1      3436 8.86500E+01 3.44120E+01 0.00000E+00
 -1      3437 9.24000E+01 3.57110E+01 0.00000E+00
 -1      3438 9.39000E+01 3.57110E+01 0.00000E+00
 -1      3439 9.16500E+01 3.44120E+01 0.00000E+00
 -1      3440 9.54000E+01 3.57110E+01 0.00000E+00
 -1      3441 9.69000E+01 3.57110E+01 0.00000E+00
 -1      3442 9.46500E+01 3.44120E+01 0.00000E+00
 -1      3443 9.84000E+01 3.57110E+01 0.00000E+00
 -1      3444 9.99000E+01 3.57110E+01 0.00000E+00
 -1      3445 9.76500E+01 3.44120E+01 0.00000E+00
 -1      3446 1.01400E+02 3.57110E+01 0.00000E+00
 -1      3447 1.02900E+02 3.57110E+01 0.00000E+00
 -1      3448 1.00650E+02 3.44120E+01 0.00000E+00
 -1      3449 1.04400E+02 3.57110E+01 0.00000E+00
 -1      3450 1.05900E+02 3.57110E+01 0.00000E+00
 -1      3451 1.03650E+02 3.44120E+01 0.00000E+00
 -1      3452 1.07400E+02 3.57110E+01 0.00000E+00
 -1      3453 1.08900E+02 3.57110E+01 0.00000E+00
 -1      3454 1.06650E+02 3.44120E+01 0.00000E+00
 -1      3455 1.10400E+02 3.57110E+01 0.00000E+00
 -1      3456 1.11900E+02 3.57110E+01 0.00000E+00
 -1      3457 1.09650E+02 3.44120E+01 0.00000E+00
 -1      3458 1.13400E+02 3.57110E+01 0.00000E+00
 -1      3459 1.14900E+02 3.57110E+01 0.00000E+00
 -1      3460 1.12650E+02 3.44120E+01 0.00000E+00
 -1      3461 1.16400E+02 3.57110E+01 0.00000E+00
 -1      3462 1.17900E+02 3.57110E+01 0.00000E+00
 -1      3463 1.15650E+02 3.44120E+01 0.00000E+00
 -1      3464 1.19400E+02 3.57110E+01 0.00000E+00
 -1      3465 1.20900E+02 3.57110E+01 0.00000E+00
 -1      3466 1.18650E+02 3.44120E+01 0.00000E+00
 -1      3467 1.22400E+02 3.57110E+01 0.00000E+00
 -1      3468 1.23900E+02 3.57110E+01 0.00000E+00
 -1      3469 1.21650E+02 3.44120E+01 0.00000E+00
 -1      3470 1.25400E+02 3.57110E+01 0.00000E+00
 -1      3471 1.26900E+02 3.57110E+01 0.00000E+00
 -1      3472 1.24650E+02 3.44120E+01 0.00000E+00
 -1      3473 1.28400E+02 3.57110E+01 0.00000E+00
 -1      3474 1.29900E+02 3.57110E+01 0.00000E+00
 -1      3475 1.27650E+02 3.44120E+01 0.00000E+00
 -1      3476 1.31400E+02 3.57110E+01 0.00000E+00
 -1      3477 1.32900E+02 3.57110E+01 0.00000E+00
 -1      3478 1.30650E+02 3.44120E+01 0.00000E+00
 -1      3479 1.74000E+01 3.57110E+01 0.00000E+00
 -1      3480 1.89000E+01 3.57110E+01 0.00000E+00
 -1      3481 5.98350E+01 1.27191E+01 0.00000E+00
 -1      3482 5.83350E+01 1.27191E+01 0.00000E+00
 -1      3483 5.68350E+01 1.27191E+01 0.00000E+00
 -1      3484 5.53350E+01 1.27191E+01 0.00000E+00
 -1      3485 5.75850E+01 1.40181E+01 0.00000E+00
 -1      3486 6.59850E+01 1.27191E+01 0.00000E+00
 -1      3487 6.44850E+01 1.27191E+01 0.00000E+00
 -1      3488 6.89850E+01 1.27191E+01 0.00000E+00
 -1      3489 6.74850E+01 1.27191E+01 0.00000E+00
 -1      3490 6.67350E+01 1.40181E+01 0.00000E+00
 -1      3491 7.19850E+01 1.27191E+01 0.00000E+00
 -1      3492 7.04850E+01 1.27191E+01 0.00000E+00
 -1      3493 6.97350E+01 1.40181E+01 0.00000E+00
 -1      3494 7.49850E+01 1.27191E+01 0.00000E+00
 -1      3495 7.34850E+01 1.27191E+01 0.00000E+00
 -1      3496 7.27350E+01 1.40181E+01 0.00000E+00
 -1      3497 7.79850E+01 1.27191E+01 0.00000E+00
 -1      3498 7.64850E+01 1.27191E+01 0.00000E+00
 -1      3499 7.57350E+01 1.40181E+01 0.00000E+00
 -1      3500 8.09850E+01 1.27191E+01 0.00000E+00
 -1      3501 7.94850E+01 1.27191E+01 0.00000E+00
 -1      3502 7.87350E+01 1.40181E+01 0.00000E+00
 -1      3503 8.39850E+01 1.27191E+01 0.00000E+00
 -1      3504 8.24850E+01 1.27191E+01 0.00000E+00
 -1      3505 8.17350E+01 1.40181E+01 0.00000E+00
 -1      3506 8.69850E+01 1.27191E+01 0.00000E+00
 -1      3507 8.54850E+01 1.27191E+01 0.00000E+00
 -1      3508 8.47350E+01 1.40181E+01 0.00000E+00
 -1      3509 8.99850E+01 1.27191E+01 0.00000E+00
 -1      3510 8.84850E+01 1.27191E+01 0.00000E+00
 -1      3511 8.77350E+01 1.40181E+01 0.00000E+00
 -1      3512 9.29850E+01 1.27191E+01 0.00000E+00
 -1      3513 9.14850E+01 1.27191E+01 0.00000E+00
 -1      3514 9.07350E+01 1.40181E+01 0.00000E+00
 -1      3515 9.59850E+01 1.27191E+01 0.00000E+00
 -1      3516 9.44850E+01 1.27191E+01 0.00000E+00
 -1      3517 9.37350E+01 1.40181E+01 0.00000E+00
 -1      3518 9.89850E+01 1.27191E+01 0.00000E+00
 -1      3519 9.74850E+01 1.27191E+01 0.00000E+00
 -1      3520 9.67350E+01 1.40181E+01 0.00000E+00
 -1      3521 1.01985E+02 1.27191E+01 0.00000E+00
 -1      3522 1.00485E+02 1.27191E+01 0.00000E+00
 -1      3523 9.97350E+01 1.40181E+01 0.00000E+00
 -1      3524 1.05135E+02 1.27191E+01 0.00000E+00
 -1      3525 1.03560E+02 1.27191E+01 0.00000E+00
 -1      3526 1.02810E+02 1.40181E+01 0.00000E+00
 -1      3527 1.08135E+02 1.27191E+01 0.00000E+00
 -1      3528 1.06635E+02 1.27191E+01 0.00000E+00
 -1      3529 1.05885E+02 1.40181E+01 0.00000E+00
 -1      3530 1.11135E+02 1.27191E+01 0.00000E+00
 -1      3531 1.09635E+02 1.27191E+01 0.00000E+00
 -1      3532 1.08885E+02 1.40181E+01 0.00000E+00
 -1      3533 1.14135E+02 1.27191E+01 0.00000E+00
 -1      3534 1.12635E+02 1.27191E+01 0.00000E+00
 -1      3535 1.11885E+02 1.40181E+01 0.00000E+00
 -1      3536 1.17135E+02 1.27191E+01 0.00000E+00
 -1      3537 1.15635E+02 1.27191E+01 0.00000E+00
 -1      3538 1.14885E+02 1.40181E+01 0.00000E+00
 -1      3539 1.20135E+02 1.27191E+01 0.00000E+00
 -1      3540 1.18635E+02 1.27191E+01 0.00000E+00
 -1      3541 1.17885E+02 1.40181E+01 0.00000E+00
 -1      3542 1.23135E+02 1.27191E+01 0.00000E+00
 -1      3543 1.21635E+02 1.27191E+01 0.00000E+00
 -1      3544 1.20885E+02 1.40181E+01 0.00000E+00
 -1      3545 1.26135E+02 1.27191E+01 0.00000E+00
 -1      3546 1.24635E+02 1.27191E+01 0.00000E+00
 -1      3547 1.23885E+02 1.40181E+01 0.00000E+00
 -1      3548 1.29135E+02 1.27191E+01 0.00000E+00
 -1      3549 1.27635E+02 1.27191E+01 0.00000E+00
 -1      3550 1.26885E+02 1.40181E+01 0.00000E+00
 -1      3551 1.32135E+02 1.27191E+01 0.00000E+00
 -1      3552 1.30635E+02 1.27191E+01 0.00000E+00
 -1      3553 1.29885E+02 1.40181E+01 0.00000E+00
 -1      3554 1.34760E+02 1.28008E+01 0.00000E+00
 -1      3555 1.33260E+02 1.28008E+01 0.00000E+00
 -1      3556 1.32510E+02 1.40998E+01 0.00000E+00
 -1      3557 1.34760E+02 1.42633E+01 0.00000E+00
 -1      3558 2.72153E+01 3.23633E+01 0.00000E+00
 -1      3559 2.55327E+01 3.25324E+01 0.00000E+00
 -1      3560 1.37010E+02 2.06000E+01 0.00000E+00
 -1      3561 1.88364E+01 3.16690E+01 0.00000E+00
 -1      3562 1.74157E+01 3.09000E+01 0.00000E+00
 -1      3563 1.35711E+02 2.72000E+01 0.00000E+00
 -1      3564 1.35711E+02 2.57500E+01 0.00000E+00
 -1      3565 5.08350E+01 1.27191E+01 0.00000E+00
 -1      3566 4.93350E+01 1.27191E+01 0.00000E+00
 -1      3567 1.42800E+01 3.32108E+01 0.00000E+00
 -1      3568 1.61100E+01 3.48189E+01 0.00000E+00
 -1      3569 1.68600E+01 3.35199E+01 0.00000E+00
 -1      3570 1.42800E+01 3.17358E+01 0.00000E+00
 -1      3571 1.35330E+02 3.54175E+01 0.00000E+00
 -1      3572 2.04000E+01 3.57110E+01 0.00000E+00
 -1      3573 2.19000E+01 3.57110E+01 0.00000E+00
 -1      3574 2.26500E+01 3.44120E+01 0.00000E+00
 -1      3575 1.96500E+01 3.44120E+01 0.00000E+00
 -1      3576 5.38350E+01 1.27191E+01 0.00000E+00
 -1      3577 5.23350E+01 1.27191E+01 0.00000E+00
 -1      3578 5.45850E+01 1.40181E+01 0.00000E+00
 -1      3579 1.63816E+01 3.11209E+01 0.00000E+00
 -1      3580 1.49825E+01 3.04205E+01 0.00000E+00
 -1      3581 3.83604E+01 2.12916E+01 0.00000E+00
 -1      3582 3.78443E+01 2.28183E+01 0.00000E+00
 -1      3583 3.71229E+01 2.45004E+01 0.00000E+00
 -1      3584 3.63079E+01 2.57323E+01 0.00000E+00
 -1      3585 1.34384E+01 2.83033E+01 0.00000E+00
 -1      3586 6.29475E+01 1.27191E+01 0.00000E+00
 -1      3587 6.13725E+01 1.27191E+01 0.00000E+00
 -1      3588 6.06225E+01 1.40181E+01 0.00000E+00
 -1      3589 6.36975E+01 1.40181E+01 0.00000E+00
 -1      3590 1.34580E+02 3.41185E+01 0.00000E+00
 -1      3591 4.78350E+01 1.27191E+01 0.00000E+00
 -1      3592 4.63350E+01 1.27191E+01 0.00000E+00
 -1      3593 4.85850E+01 1.40181E+01 0.00000E+00
 -1      3594 3.88642E+01 1.84379E+01 0.00000E+00
 -1      3595 3.86759E+01 1.96959E+01 0.00000E+00
 -1      3596 5.15850E+01 1.40181E+01 0.00000E+00
 -1      3597 1.32150E+02 3.29370E+01 0.00000E+00
 -1      3598 1.34580E+02 3.26435E+01 0.00000E+00
 -1      3599 1.34580E+02 3.11685E+01 0.00000E+00
 -1      3600 2.86066E+01 3.10831E+01 0.00000E+00
 -1      3601 2.85413E+01 3.31319E+01 0.00000E+00
 -1      3602 3.00413E+01 3.31319E+01 0.00000E+00
 -1      3603 2.98240E+01 3.05716E+01 0.00000E+00
 -1      3604 1.35711E+02 2.13375E+01 0.00000E+00
 -1      3605 1.35711E+02 1.98625E+01 0.00000E+00
 -1      3606 1.35430E+02 1.86675E+01 0.00000E+00
 -1      3607 1.35148E+02 1.74725E+01 0.00000E+00
 -1      3608 1.34131E+02 1.94050E+01 0.00000E+00
 -1      3609 3.78863E+01 1.23874E+01 0.00000E+00
 -1      3610 3.80703E+01 1.36888E+01 0.00000E+00
 -1      3611 3.61481E+01 2.69568E+01 0.00000E+00
 -1      3612 3.59882E+01 2.81813E+01 0.00000E+00
 -1      3613 3.75503E+01 2.69989E+01 0.00000E+00
 -1      3614 3.94684E+01 2.08143E+01 0.00000E+00
 -1      3615 3.89281E+01 1.43614E+01 0.00000E+00
 -1      3616 1.35145E+02 2.99217E+01 0.00000E+00
 -1      3617 1.35145E+02 2.84468E+01 0.00000E+00
 -1      3618 1.33846E+02 2.77218E+01 0.00000E+00
 -1      3619 1.32715E+02 3.02153E+01 0.00000E+00
 -1      3620 1.35711E+02 2.42813E+01 0.00000E+00
 -1      3621 1.35711E+02 2.28062E+01 0.00000E+00
 -1      3622 1.34412E+02 2.20688E+01 0.00000E+00
 -1      3623 1.34412E+02 2.50063E+01 0.00000E+00
 -1      3624 4.48350E+01 1.27191E+01 0.00000E+00
 -1      3625 4.33350E+01 1.27191E+01 0.00000E+00
 -1      3626 4.55850E+01 1.40181E+01 0.00000E+00
 -1      3627 3.84315E+01 2.40923E+01 0.00000E+00
 -1      3628 1.36925E+01 2.95285E+01 0.00000E+00
 -1      3629 3.96996E+01 1.66207E+01 0.00000E+00
 -1      3630 3.92819E+01 1.75293E+01 0.00000E+00
 -1      3631 4.02016E+01 1.83100E+01 0.00000E+00
 -1      3632 3.93306E+01 1.21515E+01 0.00000E+00
 -1      3633 3.71909E+01 1.17681E+01 0.00000E+00
 -1      3634 3.40358E+01 2.92789E+01 0.00000E+00
 -1      3635 3.28178E+01 2.93435E+01 0.00000E+00
 -1      3636 3.19296E+01 2.97018E+01 0.00000E+00
 -1      3637 3.07122E+01 3.02133E+01 0.00000E+00
 -1      3638 3.08209E+01 3.14935E+01 0.00000E+00
 -1      3639 3.25974E+01 3.07769E+01 0.00000E+00
 -1      3640 4.00222E+01 1.37244E+01 0.00000E+00
 -1      3641 3.98740E+01 1.52029E+01 0.00000E+00
 -1      3642 4.06635E+01 1.22051E+01 0.00000E+00
 -1      3643 4.04091E+01 1.29365E+01 0.00000E+00
 -1      3644 4.13550E+01 1.37780E+01 0.00000E+00
 -1      3645 3.15413E+01 3.31319E+01 0.00000E+00
 -1      3646 3.39000E+01 3.31130E+01 0.00000E+00
 -1      3647 3.54000E+01 3.31130E+01 0.00000E+00
 -1      3648 3.69000E+01 3.31130E+01 0.00000E+00
 -1      3649 3.84000E+01 3.31130E+01 0.00000E+00
 -1      3650 3.61500E+01 3.18140E+01 0.00000E+00
 -1      3651 3.99000E+01 3.31130E+01 0.00000E+00
 -1      3652 4.14000E+01 3.31130E+01 0.00000E+00
 -1      3653 3.91500E+01 3.18140E+01 0.00000E+00
 -1      3654 4.29000E+01 3.31130E+01 0.00000E+00
 -1      3655 4.44000E+01 3.31130E+01 0.00000E+00
 -1      3656 4.21500E+01 3.18140E+01 0.00000E+00
 -1      3657 4.59000E+01 3.31130E+01 0.00000E+00
 -1      3658 4.74000E+01 3.31130E+01 0.00000E+00
 -1      3659 4.51500E+01 3.18140E+01 0.00000E+00
 -1      3660 4.89000E+01 3.31130E+01 0.00000E+00
 -1      3661 5.04000E+01 3.31130E+01 0.00000E+00
 -1      3662 4.81500E+01 3.18140E+01 0.00000E+00
 -1      3663 5.19000E+01 3.31130E+01 0.00000E+00
 -1      3664 5.34000E+01 3.31130E+01 0.00000E+00
 -1      3665 5.11500E+01 3.18140E+01 0.00000E+00
 -1      3666 5.49000E+01 3.31130E+01 0.00000E+00
 -1      3667 5.64000E+01 3.31130E+01 0.00000E+00
 -1      3668 5.41500E+01 3.18140E+01 0.00000E+00
 -1      3669 5.79000E+01 3.31130E+01 0.00000E+00
 -1      3670 5.94000E+01 3.31130E+01 0.00000E+00
 -1      3671 5.71500E+01 3.18140E+01 0.00000E+00
 -1      3672 6.09000E+01 3.31130E+01 0.00000E+00
 -1      3673 6.24000E+01 3.31130E+01 0.00000E+00
 -1      3674 6.01500E+01 3.18140E+01 0.00000E+00
 -1      3675 6.39000E+01 3.31130E+01 0.00000E+00
 -1      3676 6.54000E+01 3.31130E+01 0.00000E+00
 -1      3677 6.31500E+01 3.18140E+01 0.00000E+00
 -1      3678 6.69000E+01 3.31130E+01 0.00000E+00
 -1      3679 6.84000E+01 3.31130E+01 0.00000E+00
 -1      3680 6.61500E+01 3.18140E+01 0.00000E+00
 -1      3681 6.99000E+01 3.31130E+01 0.00000E+00
 -1      3682 7.14000E+01 3.31130E+01 0.00000E+00
 -1      3683 6.91500E+01 3.18140E+01 0.00000E+00
 -1      3684 7.29000E+01 3.31130E+01 0.00000E+00
 -1      3685 7.44000E+01 3.31130E+01 0.00000E+00
 -1      3686 7.21500E+01 3.18140E+01 0.00000E+00
 -1      3687 7.59000E+01 3.31130E+01 0.00000E+00
 -1      3688 7.74000E+01 3.31130E+01 0.00000E+00
 -1      3689 7.51500E+01 3.18140E+01 0.00000E+00
 -1      3690 7.89000E+01 3.31130E+01 0.00000E+00
 -1      3691 8.04000E+01 3.31130E+01 0.00000E+00
 -1      3692 7.81500E+01 3.18140E+01 0.00000E+00
 -1      3693 8.19000E+01 3.31130E+01 0.00000E+00
 -1      3694 8.34000E+01 3.31130E+01 0.00000E+00
 -1      3695 8.11500E+01 3.18140E+01 0.00000E+00
 -1      3696 8.49000E+01 3.31130E+01 0.00000E+00
 -1      3697 8.64000E+01 3.31130E+01 0.00000E+00
 -1      3698 8.41500E+01 3.18140E+01 0.00000E+00
 -1      3699 8.79000E+01 3.31130E+01 0.00000E+00
 -1      3700 8.94000E+01 3.31130E+01 0.00000E+00
 -1      3701 8.71500E+01 3.18140E+01 0.00000E+00
 -1      3702 9.09000E+01 3.31130E+01 0.00000E+00
 -1      3703 9.24000E+01 3.31130E+01 0.00000E+00
 -1      3704 9.01500E+01 3.18140E+01 0.00000E+00
 -1      3705 9.39000E+01 3.31130E+01 0.00000E+00
 -1      3706 9.54000E+01 3.31130E+01 0.00000E+00
 -1      3707 9.31500E+01 3.18140E+01 0.00000E+00
 -1      3708 9.69000E+01 3.31130E+01 0.00000E+00
 -1      3709 9.84000E+01 3.31130E+01 0.00000E+00
 -1      3710 9.61500E+01 3.18140E+01 0.00000E+00
 -1      3711 9.99000E+01 3.31130E+01 0.00000E+00
 -1      3712 1.01400E+02 3.31130E+01 0.00000E+00
 -1      3713 9.91500E+01 3.18140E+01 0.00000E+00
 -1      3714 1.02900E+02 3.31130E+01 0.00000E+00
 -1      3715 1.04400E+02 3.31130E+01 0.00000E+00
 -1      3716 1.02150E+02 3.18140E+01 0.00000E+00
 -1      3717 1.05900E+02 3.31130E+01 0.00000E+00
 -1      3718 1.07400E+02 3.31130E+01 0.00000E+00
 -1      3719 1.05150E+02 3.18140E+01 0.00000E+00
 -1      3720 1.08900E+02 3.31130E+01 0.00000E+00
 -1      3721 1.10400E+02 3.31130E+01 0.00000E+00
 -1      3722 1.08150E+02 3.18140E+01 0.00000E+00
 -1      3723 1.11900E+02 3.31130E+01 0.00000E+00
 -1      3724 1.13400E+02 3.31130E+01 0.00000E+00
 -1      3725 1.11150E+02 3.18140E+01 0.00000E+00
 -1      3726 1.14900E+02 3.31130E+01 0.00000E+00
 -1      3727 1.16400E+02 3.31130E+01 0.00000E+00
 -1      3728 1.14150E+02 3.18140E+01 0.00000E+00
 -1      3729 1.17900E+02 3.31130E+01 0.00000E+00
 -1      3730 1.19400E+02 3.31130E+01 0.00000E+00
 -1      3731 1.17150E+02 3.18140E+01 0.00000E+00
 -1      3732 1.20900E+02 3.31130E+01 0.00000E+00
 -1      3733 1.22400E+02 3.31130E+01 0.00000E+00
 -1      3734 1.20150E+02 3.18140E+01 0.00000E+00
 -1      3735 1.23900E+02 3.31130E+01 0.00000E+00
 -1      3736 1.25400E+02 3.31130E+01 0.00000E+00
 -1      3737 1.23150E+02 3.18140E+01 0.00000E+00
 -1      3738 1.26900E+02 3.31130E+01 0.00000E+00
 -1      3739 1.28400E+02 3.31130E+01 0.00000E+00
 -1      3740 1.26150E+02 3.18140E+01 0.00000E+00
 -1      3741 1.29525E+02 3.30250E+01 0.00000E+00
 -1      3742 1.31025E+02 3.30250E+01 0.00000E+00
 -1      3743 1.31025E+02 3.15500E+01 0.00000E+00
 -1      3744 1.28775E+02 3.17260E+01 0.00000E+00
 -1      3745 2.40578E+01 3.19379E+01 0.00000E+00
 -1      3746 2.29997E+01 3.27431E+01 0.00000E+00
 -1      3747 7.04850E+01 1.53171E+01 0.00000E+00
 -1      3748 6.89850E+01 1.53171E+01 0.00000E+00
 -1      3749 6.74850E+01 1.53171E+01 0.00000E+00
 -1      3750 6.59850E+01 1.53171E+01 0.00000E+00
 -1      3751 6.82350E+01 1.66161E+01 0.00000E+00
 -1      3752 7.64850E+01 1.53171E+01 0.00000E+00
 -1      3753 7.49850E+01 1.53171E+01 0.00000E+00
 -1      3754 7.94850E+01 1.53171E+01 0.00000E+00
 -1      3755 7.79850E+01 1.53171E+01 0.00000E+00
 -1      3756 7.72350E+01 1.66161E+01 0.00000E+00
 -1      3757 8.24850E+01 1.53171E+01 0.00000E+00
 -1      3758 8.09850E+01 1.53171E+01 0.00000E+00
 -1      3759 8.02350E+01 1.66161E+01 0.00000E+00
 -1      3760 8.54850E+01 1.53171E+01 0.00000E+00
 -1      3761 8.39850E+01 1.53171E+01 0.00000E+00
 -1      3762 8.32350E+01 1.66161E+01 0.00000E+00
 -1      3763 8.84850E+01 1.53171E+01 0.00000E+00
 -1      3764 8.69850E+01 1.53171E+01 0.00000E+00
 -1      3765 8.62350E+01 1.66161E+01 0.00000E+00
 -1      3766 9.14850E+01 1.53171E+01 0.00000E+00
 -1      3767 8.99850E+01 1.53171E+01 0.00000E+00
 -1      3768 8.92350E+01 1.66161E+01 0.00000E+00
 -1      3769 9.44850E+01 1.53171E+01 0.00000E+00
 -1      3770 9.29850E+01 1.53171E+01 0.00000E+00
 -1      3771 9.22350E+01 1.66161E+01 0.00000E+00
 -1      3772 9.74850E+01 1.53171E+01 0.00000E+00
 -1      3773 9.59850E+01 1.53171E+01 0.00000E+00
 -1      3774 9.52350E+01 1.66161E+01 0.00000E+00
 -1      3775 1.00485E+02 1.53171E+01 0.00000E+00
 -1      3776 9.89850E+01 1.53171E+01 0.00000E+00
 -1      3777 9.82350E+01 1.66161E+01 0.00000E+00
 -1      3778 1.03635E+02 1.53171E+01 0.00000E+00
 -1      3779 1.02060E+02 1.53171E+01 0.00000E+00
 -1      3780 1.01310E+02 1.66161E+01 0.00000E+00
 -1      3781 1.06635E+02 1.53171E+01 0.00000E+00
 -1      3782 1.05135E+02 1.53171E+01 0.00000E+00
 -1      3783 1.04385E+02 1.66161E+01 0.00000E+00
 -1      3784 1.09635E+02 1.53171E+01 0.00000E+00
 -1      3785 1.08135E+02 1.53171E+01 0.00000E+00
 -1      3786 1.07385E+02 1.66161E+01 0.00000E+00
 -1      3787 1.12635E+02 1.53171E+01 0.00000E+00
 -1      3788 1.11135E+02 1.53171E+01 0.00000E+00
 -1      3789 1.10385E+02 1.66161E+01 0.00000E+00
 -1      3790 1.15635E+02 1.53171E+01 0.00000E+00
 -1      3791 1.14135E+02 1.53171E+01 0.00000E+00
 -1      3792 1.13385E+02 1.66161E+01 0.00000E+00
 -1      3793 1.18635E+02 1.53171E+01 0.00000E+00
 -1      3794 1.17135E+02 1.53171E+01 0.00000E+00
 -1      3795 1.16385E+02 1.66161E+01 0.00000E+00
 -1      3796 1.21635E+02 1.53171E+01 0.00000E+00
 -1      3797 1.20135E+02 1.53171E+01 0.00000E+00
 -1      3798 1.19385E+02 1.66161E+01 0.00000E+00
 -1      3799 1.24635E+02 1.53171E+01 0.00000E+00
 -1      3800 1.23135E+02 1.53171E+01 0.00000E+00
 -1      3801 1.22385E+02 1.66161E+01 0.00000E+00
 -1      3802 1.27635E+02 1.53171E+01 0.00000E+00
 -1      3803 1.26135E+02 1.53171E+01 0.00000E+00
 -1      3804 1.25385E+02 1.66161E+01 0.00000E+00
 -1      3805 1.30635E+02 1.53171E+01 0.00000E+00
 -1      3806 1.29135E+02 1.53171E+01 0.00000E+00
 -1      3807 1.28385E+02 1.66161E+01 0.00000E+00
 -1      3808 1.98417E+01 3.23517E+01 0.00000E+00
 -1      3809 1.86434E+01 3.28688E+01 0.00000E+00
 -1      3810 1.35095E+02 1.64654E+01 0.00000E+00
 -1      3811 1.34814E+02 1.52704E+01 0.00000E+00
 -1      3812 1.33689E+02 1.51887E+01 0.00000E+00
 -1      3813 1.33796E+02 1.72029E+01 0.00000E+00
 -1      3814 4.21635E+01 1.22051E+01 0.00000E+00
 -1      3815 2.07239E+01 3.29074E+01 0.00000E+00
 -1      3816 7.34850E+01 1.53171E+01 0.00000E+00
 -1      3817 7.19850E+01 1.53171E+01 0.00000E+00
 -1      3818 7.42350E+01 1.66161E+01 0.00000E+00
 -1      3819 1.66041E+01 3.24070E+01 0.00000E+00
 -1      3820 5.53350E+01 1.53171E+01 0.00000E+00
 -1      3821 5.38350E+01 1.53171E+01 0.00000E+00
 -1      3822 5.83350E+01 1.53171E+01 0.00000E+00
 -1      3823 5.68350E+01 1.53171E+01 0.00000E+00
 -1      3824 5.60850E+01 1.66161E+01 0.00000E+00
 -1      3825 3.98113E+01 2.36882E+01 0.00000E+00
 -1      3826 3.90900E+01 2.53704E+01 0.00000E+00
 -1      3827 4.09005E+01 2.02684E+01 0.00000E+00
 -1      3828 4.05849E+01 2.18642E+01 0.00000E+00
 -1      3829 4.07937E+01 1.59836E+01 0.00000E+00
 -1      3830 4.93350E+01 1.53171E+01 0.00000E+00
 -1      3831 4.78350E+01 1.53171E+01 0.00000E+00
 -1      3832 5.23350E+01 1.53171E+01 0.00000E+00
 -1      3833 5.08350E+01 1.53171E+01 0.00000E+00
 -1      3834 5.00850E+01 1.66161E+01 0.00000E+00
 -1      3835 5.30850E+01 1.66161E+01 0.00000E+00
 -1      3836 1.78941E+01 3.32990E+01 0.00000E+00
 -1      3837 4.29135E+01 1.35041E+01 0.00000E+00
 -1      3838 6.14100E+01 1.53171E+01 0.00000E+00
 -1      3839 5.98725E+01 1.53171E+01 0.00000E+00
 -1      3840 5.91225E+01 1.66161E+01 0.00000E+00
 -1      3841 2.56751E+01 3.38175E+01 0.00000E+00
 -1      3842 4.63350E+01 1.53171E+01 0.00000E+00
 -1      3843 4.48350E+01 1.53171E+01 0.00000E+00
 -1      3844 4.70850E+01 1.66161E+01 0.00000E+00
 -1      3845 2.26751E+01 3.38175E+01 0.00000E+00
 -1      3846 2.14745E+01 3.33377E+01 0.00000E+00
 -1      3847 7.12350E+01 1.66161E+01 0.00000E+00
 -1      3848 4.17359E+01 1.84512E+01 0.00000E+00
 -1      3849 4.13182E+01 1.93598E+01 0.00000E+00
 -1      3850 4.24347E+01 2.04097E+01 0.00000E+00
 -1      3851 1.32724E+02 1.52938E+01 0.00000E+00
 -1      3852 1.31599E+02 1.52120E+01 0.00000E+00
 -1      3853 1.30849E+02 1.65110E+01 0.00000E+00
 -1      3854 1.32778E+02 1.63009E+01 0.00000E+00
 -1      3855 1.33007E+02 2.03001E+01 0.00000E+00
 -1      3856 1.32726E+02 1.91051E+01 0.00000E+00
 -1      3857 1.33113E+02 2.57406E+01 0.00000E+00
 -1      3858 1.33113E+02 2.42719E+01 0.00000E+00
 -1      3859 3.75202E+01 3.00187E+01 0.00000E+00
 -1      3860 3.61180E+01 2.99766E+01 0.00000E+00
 -1      3861 4.36808E+01 1.48045E+01 0.00000E+00
 -1      3862 4.25092E+01 1.42905E+01 0.00000E+00
 -1      3863 4.21223E+01 1.50784E+01 0.00000E+00
 -1      3864 4.44308E+01 1.61035E+01 0.00000E+00
 -1      3865 1.33060E+02 2.30204E+01 0.00000E+00
 -1      3866 1.33060E+02 2.15516E+01 0.00000E+00
 -1      3867 1.31655E+02 2.12517E+01 0.00000E+00
 -1      3868 1.31761E+02 2.37547E+01 0.00000E+00
 -1      3869 1.32548E+02 2.69874E+01 0.00000E+00
 -1      3870 1.31249E+02 2.62530E+01 0.00000E+00
 -1      3871 1.31982E+02 2.82341E+01 0.00000E+00
 -1      3872 4.19479E+01 1.64962E+01 0.00000E+00
 -1      3873 3.89301E+01 2.65949E+01 0.00000E+00
 -1      3874 3.87702E+01 2.78194E+01 0.00000E+00
 -1      3875 4.03099E+01 2.61908E+01 0.00000E+00
 -1      3876 4.12434E+01 2.31423E+01 0.00000E+00
 -1      3877 6.44662E+01 1.53171E+01 0.00000E+00
 -1      3878 6.29287E+01 1.53171E+01 0.00000E+00
 -1      3879 6.21787E+01 1.66161E+01 0.00000E+00
 -1      3880 6.52162E+01 1.66161E+01 0.00000E+00
 -1      3881 2.03993E+01 3.39818E+01 0.00000E+00
 -1      3882 3.88952E+01 2.89190E+01 0.00000E+00
 -1      3883 3.90250E+01 3.07143E+01 0.00000E+00
 -1      3884 4.05250E+01 3.07143E+01 0.00000E+00
 -1      3885 4.02750E+01 2.85150E+01 0.00000E+00
 -1      3886 2.41751E+01 3.38175E+01 0.00000E+00
 -1      3887 3.24296E+01 3.27736E+01 0.00000E+00
 -1      3888 3.31796E+01 3.14746E+01 0.00000E+00
 -1      3889 7.19850E+01 1.79151E+01 0.00000E+00
 -1      3890 7.04850E+01 1.79151E+01 0.00000E+00
 -1      3891 4.20250E+01 3.07143E+01 0.00000E+00
 -1      3892 4.35250E+01 3.07143E+01 0.00000E+00
 -1      3893 4.19000E+01 2.96147E+01 0.00000E+00
 -1      3894 4.50250E+01 3.07143E+01 0.00000E+00
 -1      3895 4.65250E+01 3.07143E+01 0.00000E+00
 -1      3896 4.49000E+01 2.96147E+01 0.00000E+00
 -1      3897 4.80250E+01 3.07143E+01 0.00000E+00
 -1      3898 4.95250E+01 3.07143E+01 0.00000E+00
 -1      3899 4.79000E+01 2.96147E+01 0.00000E+00
 -1      3900 5.10250E+01 3.07143E+01 0.00000E+00
 -1      3901 5.25250E+01 3.07143E+01 0.00000E+00
 -1      3902 5.09000E+01 2.96147E+01 0.00000E+00
 -1      3903 5.40250E+01 3.07143E+01 0.00000E+00
 -1      3904 5.55250E+01 3.07143E+01 0.00000E+00
 -1      3905 5.39000E+01 2.96147E+01 0.00000E+00
 -1      3906 5.70250E+01 3.07143E+01 0.00000E+00
 -1      3907 5.85250E+01 3.07143E+01 0.00000E+00
 -1      3908 5.69000E+01 2.96147E+01 0.00000E+00
 -1      3909 6.00250E+01 3.07143E+01 0.00000E+00
 -1      3910 6.15250E+01 3.07143E+01 0.00000E+00
 -1      3911 5.99000E+01 2.96147E+01 0.00000E+00
 -1      3912 6.30250E+01 3.07143E+01 0.00000E+00
 -1      3913 6.45250E+01 3.07143E+01 0.00000E+00
 -1      3914 6.29000E+01 2.96147E+01 0.00000E+00
 -1      3915 6.60250E+01 3.07143E+01 0.00000E+00
 -1      3916 6.75250E+01 3.07143E+01 0.00000E+00
 -1      3917 6.59000E+01 2.96147E+01 0.00000E+00
 -1      3918 6.90250E+01 3.07143E+01 0.00000E+00
 -1      3919 7.05250E+01 3.07143E+01 0.00000E+00
 -1      3920 6.89000E+01 2.96147E+01 0.00000E+00
 -1      3921 7.20250E+01 3.07143E+01 0.00000E+00
 -1      3922 7.35250E+01 3.07143E+01 0.00000E+00
 -1      3923 7.19000E+01 2.96147E+01 0.00000E+00
 -1      3924 7.50250E+01 3.07143E+01 0.00000E+00
 -1      3925 7.65250E+01 3.07143E+01 0.00000E+00
 -1      3926 7.49000E+01 2.96147E+01 0.00000E+00
 -1      3927 7.80250E+01 3.07143E+01 0.00000E+00
 -1      3928 7.95250E+01 3.07143E+01 0.00000E+00
 -1      3929 7.79000E+01 2.96147E+01 0.00000E+00
 -1      3930 8.10250E+01 3.07143E+01 0.00000E+00
 -1      3931 8.25250E+01 3.07143E+01 0.00000E+00
 -1      3932 8.09000E+01 2.96147E+01 0.00000E+00
 -1      3933 8.40250E+01 3.07143E+01 0.00000E+00
 -1      3934 8.55250E+01 3.07143E+01 0.00000E+00
 -1      3935 8.39000E+01 2.96147E+01 0.00000E+00
 -1      3936 8.70250E+01 3.07143E+01 0.00000E+00
 -1      3937 8.85250E+01 3.07143E+01 0.00000E+00
 -1      3938 8.69000E+01 2.96147E+01 0.00000E+00
 -1      3939 9.00250E+01 3.07143E+01 0.00000E+00
 -1      3940 9.15250E+01 3.07143E+01 0.00000E+00
 -1      3941 8.99000E+01 2.96147E+01 0.00000E+00
 -1      3942 9.30250E+01 3.07143E+01 0.00000E+00
 -1      3943 9.45250E+01 3.07143E+01 0.00000E+00
 -1      3944 9.29000E+01 2.96147E+01 0.00000E+00
 -1      3945 9.60250E+01 3.07143E+01 0.00000E+00
 -1      3946 9.75250E+01 3.07143E+01 0.00000E+00
 -1      3947 9.59000E+01 2.96147E+01 0.00000E+00
 -1      3948 9.90250E+01 3.07143E+01 0.00000E+00
 -1      3949 1.00525E+02 3.07143E+01 0.00000E+00
 -1      3950 9.89000E+01 2.96147E+01 0.00000E+00
 -1      3951 1.02025E+02 3.07143E+01 0.00000E+00
 -1      3952 1.03525E+02 3.07143E+01 0.00000E+00
 -1      3953 1.01900E+02 2.96147E+01 0.00000E+00
 -1      3954 1.05025E+02 3.07143E+01 0.00000E+00
 -1      3955 1.06525E+02 3.07143E+01 0.00000E+00
 -1      3956 1.04900E+02 2.96147E+01 0.00000E+00
 -1      3957 1.08025E+02 3.07143E+01 0.00000E+00
 -1      3958 1.09525E+02 3.07143E+01 0.00000E+00
 -1      3959 1.07900E+02 2.96147E+01 0.00000E+00
 -1      3960 1.11025E+02 3.07143E+01 0.00000E+00
 -1      3961 1.12525E+02 3.07143E+01 0.00000E+00
 -1      3962 1.10900E+02 2.96147E+01 0.00000E+00
 -1      3963 1.14025E+02 3.07143E+01 0.00000E+00
 -1      3964 1.15525E+02 3.07143E+01 0.00000E+00
 -1      3965 1.13900E+02 2.96147E+01 0.00000E+00
 -1      3966 1.17025E+02 3.07143E+01 0.00000E+00
 -1      3967 1.18525E+02 3.07143E+01 0.00000E+00
 -1      3968 1.16900E+02 2.96147E+01 0.00000E+00
 -1      3969 1.20025E+02 3.07143E+01 0.00000E+00
 -1      3970 1.21525E+02 3.07143E+01 0.00000E+00
 -1      3971 1.19900E+02 2.96147E+01 0.00000E+00
 -1      3972 1.23025E+02 3.07143E+01 0.00000E+00
 -1      3973 1.24525E+02 3.07143E+01 0.00000E+00
 -1      3974 1.22900E+02 2.96147E+01 0.00000E+00
 -1      3975 1.26025E+02 3.07143E+01 0.00000E+00
 -1      3976 1.27525E+02 3.07143E+01 0.00000E+00
 -1      3977 1.25900E+02 2.96147E+01 0.00000E+00
 -1      3978 6.89850E+01 1.79151E+01 0.00000E+00
 -1      3979 6.74850E+01 1.79151E+01 0.00000E+00
 -1      3980 6.97350E+01 1.92141E+01 0.00000E+00
 -1      3981 8.09850E+01 1.79151E+01 0.00000E+00
 -1      3982 7.94850E+01 1.79151E+01 0.00000E+00
 -1      3983 7.79850E+01 1.79151E+01 0.00000E+00
 -1      3984 7.64850E+01 1.79151E+01 0.00000E+00
 -1      3985 7.87350E+01 1.92141E+01 0.00000E+00
 -1      3986 8.69850E+01 1.79151E+01 0.00000E+00
 -1      3987 8.54850E+01 1.79151E+01 0.00000E+00
 -1      3988 8.99850E+01 1.79151E+01 0.00000E+00
 -1      3989 8.84850E+01 1.79151E+01 0.00000E+00
 -1      3990 8.77350E+01 1.92141E+01 0.00000E+00
 -1      3991 9.29850E+01 1.79151E+01 0.00000E+00
 -1      3992 9.14850E+01 1.79151E+01 0.00000E+00
 -1      3993 9.07350E+01 1.92141E+01 0.00000E+00
 -1      3994 9.59850E+01 1.79151E+01 0.00000E+00
 -1      3995 9.44850E+01 1.79151E+01 0.00000E+00
 -1      3996 9.37350E+01 1.92141E+01 0.00000E+00
 -1      3997 9.89850E+01 1.79151E+01 0.00000E+00
 -1      3998 9.74850E+01 1.79151E+01 0.00000E+00
 -1      3999 9.67350E+01 1.92141E+01 0.00000E+00
 -1      4000 1.02135E+02 1.79151E+01 0.00000E+00
 -1      4001 1.00560E+02 1.79151E+01 0.00000E+00
 -1      4002 9.98100E+01 1.92141E+01 0.00000E+00
 -1      4003 1.05135E+02 1.79151E+01 0.00000E+00
 -1      4004 1.03635E+02 1.79151E+01 0.00000E+00
 -1      4005 1.02885E+02 1.92141E+01 0.00000E+00
 -1      4006 1.08135E+02 1.79151E+01 0.00000E+00
 -1      4007 1.06635E+02 1.79151E+01 0.00000E+00
 -1      4008 1.05885E+02 1.92141E+01 0.00000E+00
 -1      4009 1.11135E+02 1.79151E+01 0.00000E+00
 -1      4010 1.09635E+02 1.79151E+01 0.00000E+00
 -1      4011 1.08885E+02 1.92141E+01 0.00000E+00
 -1      4012 1.14135E+02 1.79151E+01 0.00000E+00
 -1      4013 1.12635E+02 1.79151E+01 0.00000E+00
 -1      4014 1.11885E+02 1.92141E+01 0.00000E+00
 -1      4015 1.17135E+02 1.79151E+01 0.00000E+00
 -1      4016 1.15635E+02 1.79151E+01 0.00000E+00
 -1      4017 1.14885E+02 1.92141E+01 0.00000E+00
 -1      4018 1.20135E+02 1.79151E+01 0.00000E+00
 -1      4019 1.18635E+02 1.79151E+01 0.00000E+00
 -1      4020 1.17885E+02 1.92141E+01 0.00000E+00
 -1      4021 1.23135E+02 1.79151E+01 0.00000E+00
 -1      4022 1.21635E+02 1.79151E+01 0.00000E+00
 -1      4023 1.20885E+02 1.92141E+01 0.00000E+00
 -1      4024 1.26135E+02 1.79151E+01 0.00000E+00
 -1      4025 1.24635E+02 1.79151E+01 0.00000E+00
 -1      4026 1.23885E+02 1.92141E+01 0.00000E+00
 -1      4027 1.29135E+02 1.79151E+01 0.00000E+00
 -1      4028 1.27635E+02 1.79151E+01 0.00000E+00
 -1      4029 1.26885E+02 1.92141E+01 0.00000E+00
 -1      4030 1.88993E+01 3.39818E+01 0.00000E+00
 -1      4031 1.31221E+02 3.05154E+01 0.00000E+00
 -1      4032 1.31786E+02 2.92687E+01 0.00000E+00
 -1      4033 1.30487E+02 2.85343E+01 0.00000E+00
 -1      4034 1.30096E+02 3.06034E+01 0.00000E+00
 -1      4035 7.49850E+01 1.79151E+01 0.00000E+00
 -1      4036 7.34850E+01 1.79151E+01 0.00000E+00
 -1      4037 7.27350E+01 1.92141E+01 0.00000E+00
 -1      4038 7.57350E+01 1.92141E+01 0.00000E+00
 -1      4039 3.40678E+01 3.11163E+01 0.00000E+00
 -1      4040 4.27282E+01 2.26960E+01 0.00000E+00
 -1      4041 4.19546E+01 2.45200E+01 0.00000E+00
 -1      4042 5.68350E+01 1.79151E+01 0.00000E+00
 -1      4043 5.53350E+01 1.79151E+01 0.00000E+00
 -1      4044 3.55678E+01 3.11163E+01 0.00000E+00
 -1      4045 4.30645E+01 1.75460E+01 0.00000E+00
 -1      4046 8.39850E+01 1.79151E+01 0.00000E+00
 -1      4047 8.24850E+01 1.79151E+01 0.00000E+00
 -1      4048 8.47350E+01 1.92141E+01 0.00000E+00
 -1      4049 4.78350E+01 1.79151E+01 0.00000E+00
 -1      4050 4.63350E+01 1.79151E+01 0.00000E+00
 -1      4051 4.42187E+01 1.80586E+01 0.00000E+00
 -1      4052 1.28846E+02 2.95918E+01 0.00000E+00
 -1      4053 1.28971E+02 3.06914E+01 0.00000E+00
 -1      4054 5.83725E+01 1.79151E+01 0.00000E+00
 -1      4055 5.76225E+01 1.92141E+01 0.00000E+00
 -1      4056 5.99100E+01 1.79151E+01 0.00000E+00
 -1      4057 8.17350E+01 1.92141E+01 0.00000E+00
 -1      4058 1.30743E+02 1.83081E+01 0.00000E+00
 -1      4059 1.29993E+02 1.96071E+01 0.00000E+00
 -1      4060 4.35637E+01 2.08788E+01 0.00000E+00
 -1      4061 4.31460E+01 2.17874E+01 0.00000E+00
 -1      4062 4.38572E+01 2.31651E+01 0.00000E+00
 -1      4063 1.29783E+02 2.63398E+01 0.00000E+00
 -1      4064 1.30348E+02 2.50930E+01 0.00000E+00
 -1      4065 5.38350E+01 1.79151E+01 0.00000E+00
 -1      4066 5.23350E+01 1.79151E+01 0.00000E+00
 -1      4067 5.45850E+01 1.92141E+01 0.00000E+00
 -1      4068 1.31708E+02 1.82031E+01 0.00000E+00
 -1      4069 1.32832E+02 1.73080E+01 0.00000E+00
 -1      4070 1.30100E+02 2.21102E+01 0.00000E+00
 -1      4071 1.30046E+02 2.08587E+01 0.00000E+00
 -1      4072 1.28438E+02 2.04656E+01 0.00000E+00
 -1      4073 4.17948E+01 2.57445E+01 0.00000E+00
 -1      4074 4.16349E+01 2.69690E+01 0.00000E+00
 -1      4075 4.32796E+01 2.52982E+01 0.00000E+00
 -1      4076 1.30295E+02 2.38415E+01 0.00000E+00
 -1      4077 6.59662E+01 1.79151E+01 0.00000E+00
 -1      4078 6.44475E+01 1.79151E+01 0.00000E+00
 -1      4079 6.67162E+01 1.92141E+01 0.00000E+00
 -1      4080 5.08350E+01 1.79151E+01 0.00000E+00
 -1      4081 4.93350E+01 1.79151E+01 0.00000E+00
 -1      4082 4.85850E+01 1.92141E+01 0.00000E+00
 -1      4083 5.15850E+01 1.92141E+01 0.00000E+00
 -1      4084 4.17750E+01 2.85150E+01 0.00000E+00
 -1      4085 4.49687E+01 1.93576E+01 0.00000E+00
 -1      4086 1.27596E+02 2.85801E+01 0.00000E+00
 -1      4087 1.29042E+02 2.85572E+01 0.00000E+00
 -1      4088 1.29237E+02 2.75226E+01 0.00000E+00
 -1      4089 4.41500E+01 2.83157E+01 0.00000E+00
 -1      4090 4.56500E+01 2.83157E+01 0.00000E+00
 -1      4091 4.71500E+01 2.83157E+01 0.00000E+00
 -1      4092 4.86500E+01 2.83157E+01 0.00000E+00
 -1      4093 4.64000E+01 2.70167E+01 0.00000E+00
 -1      4094 5.01500E+01 2.83157E+01 0.00000E+00
 -1      4095 5.16500E+01 2.83157E+01 0.00000E+00
 -1      4096 4.94000E+01 2.70167E+01 0.00000E+00
 -1      4097 5.31500E+01 2.83157E+01 0.00000E+00
 -1      4098 5.46500E+01 2.83157E+01 0.00000E+00
 -1      4099 5.24000E+01 2.70167E+01 0.00000E+00
 -1      4100 5.61500E+01 2.83157E+01 0.00000E+00
 -1      4101 5.76500E+01 2.83157E+01 0.00000E+00
 -1      4102 5.54000E+01 2.70167E+01 0.00000E+00
 -1      4103 5.91500E+01 2.83157E+01 0.00000E+00
 -1      4104 6.06500E+01 2.83157E+01 0.00000E+00
 -1      4105 5.84000E+01 2.70167E+01 0.00000E+00
 -1      4106 6.21500E+01 2.83157E+01 0.00000E+00
 -1      4107 6.36500E+01 2.83157E+01 0.00000E+00
 -1      4108 6.14000E+01 2.70167E+01 0.00000E+00
 -1      4109 6.51500E+01 2.83157E+01 0.00000E+00
 -1      4110 6.66500E+01 2.83157E+01 0.00000E+00
 -1      4111 6.44000E+01 2.70167E+01 0.00000E+00
 -1      4112 6.81500E+01 2.83157E+01 0.00000E+00
 -1      4113 6.96500E+01 2.83157E+01 0.00000E+00
 -1      4114 6.74000E+01 2.70167E+01 0.00000E+00
 -1      4115 7.11500E+01 2.83157E+01 0.00000E+00
 -1      4116 7.26500E+01 2.83157E+01 0.00000E+00
 -1      4117 7.04000E+01 2.70167E+01 0.00000E+00
 -1      4118 7.41500E+01 2.83157E+01 0.00000E+00
 -1      4119 7.56500E+01 2.83157E+01 0.00000E+00
 -1      4120 7.34000E+01 2.70167E+01 0.00000E+00
 -1      4121 7.71500E+01 2.83157E+01 0.00000E+00
 -1      4122 7.86500E+01 2.83157E+01 0.00000E+00
 -1      4123 7.64000E+01 2.70167E+01 0.00000E+00
 -1      4124 8.01500E+01 2.83157E+01 0.00000E+00
 -1      4125 8.16500E+01 2.83157E+01 0.00000E+00
 -1      4126 7.94000E+01 2.70167E+01 0.00000E+00
 -1      4127 8.31500E+01 2.83157E+01 0.00000E+00
 -1      4128 8.46500E+01 2.83157E+01 0.00000E+00
 -1      4129 8.24000E+01 2.70167E+01 0.00000E+00
 -1      4130 8.61500E+01 2.83157E+01 0.00000E+00
 -1      4131 8.76500E+01 2.83157E+01 0.00000E+00
 -1      4132 8.54000E+01 2.70167E+01 0.00000E+00
 -1      4133 8.91500E+01 2.83157E+01 0.00000E+00
 -1      4134 9.06500E+01 2.83157E+01 0.00000E+00
 -1      4135 8.84000E+01 2.70167E+01 0.00000E+00
 -1      4136 9.21500E+01 2.83157E+01 0.00000E+00
 -1      4137 9.36500E+01 2.83157E+01 0.00000E+00
 -1      4138 9.14000E+01 2.70167E+01 0.00000E+00
 -1      4139 9.51500E+01 2.83157E+01 0.00000E+00
 -1      4140 9.66500E+01 2.83157E+01 0.00000E+00
 -1      4141 9.44000E+01 2.70167E+01 0.00000E+00
 -1      4142 9.81500E+01 2.83157E+01 0.00000E+00
 -1      4143 9.96500E+01 2.83157E+01 0.00000E+00
 -1      4144 9.74000E+01 2.70167E+01 0.00000E+00
 -1      4145 1.01150E+02 2.83157E+01 0.00000E+00
 -1      4146 1.02650E+02 2.83157E+01 0.00000E+00
 -1      4147 1.00400E+02 2.70167E+01 0.00000E+00
 -1      4148 1.04150E+02 2.83157E+01 0.00000E+00
 -1      4149 1.05650E+02 2.83157E+01 0.00000E+00
 -1      4150 1.03400E+02 2.70167E+01 0.00000E+00
 -1      4151 1.07150E+02 2.83157E+01 0.00000E+00
 -1      4152 1.08650E+02 2.83157E+01 0.00000E+00
 -1      4153 1.06400E+02 2.70167E+01 0.00000E+00
 -1      4154 1.10150E+02 2.83157E+01 0.00000E+00
 -1      4155 1.11650E+02 2.83157E+01 0.00000E+00
 -1      4156 1.09400E+02 2.70167E+01 0.00000E+00
 -1      4157 1.13150E+02 2.83157E+01 0.00000E+00
 -1      4158 1.14650E+02 2.83157E+01 0.00000E+00
 -1      4159 1.12400E+02 2.70167E+01 0.00000E+00
 -1      4160 1.16150E+02 2.83157E+01 0.00000E+00
 -1      4161 1.17650E+02 2.83157E+01 0.00000E+00
 -1      4162 1.15400E+02 2.70167E+01 0.00000E+00
 -1      4163 1.19150E+02 2.83157E+01 0.00000E+00
 -1      4164 1.20650E+02 2.83157E+01 0.00000E+00
 -1      4165 1.18400E+02 2.70167E+01 0.00000E+00
 -1      4166 1.22150E+02 2.83157E+01 0.00000E+00
 -1      4167 1.23650E+02 2.83157E+01 0.00000E+00
 -1      4168 1.21400E+02 2.70167E+01 0.00000E+00
 -1      4169 1.24873E+02 2.84479E+01 0.00000E+00
 -1      4170 1.26373E+02 2.84479E+01 0.00000E+00
 -1      4171 1.26569E+02 2.74133E+01 0.00000E+00
 -1      4172 1.24123E+02 2.71489E+01 0.00000E+00
 -1      4173 7.04850E+01 2.05131E+01 0.00000E+00
 -1      4174 6.89850E+01 2.05131E+01 0.00000E+00
 -1      4175 1.28687E+02 2.34485E+01 0.00000E+00
 -1      4176 9.14850E+01 2.05131E+01 0.00000E+00
 -1      4177 8.99850E+01 2.05131E+01 0.00000E+00
 -1      4178 8.84850E+01 2.05131E+01 0.00000E+00
 -1      4179 8.69850E+01 2.05131E+01 0.00000E+00
 -1      4180 8.92350E+01 2.18121E+01 0.00000E+00
 -1      4181 9.74850E+01 2.05131E+01 0.00000E+00
 -1      4182 9.59850E+01 2.05131E+01 0.00000E+00
 -1      4183 1.00635E+02 2.05131E+01 0.00000E+00
 -1      4184 9.90600E+01 2.05131E+01 0.00000E+00
 -1      4185 9.83100E+01 2.18121E+01 0.00000E+00
 -1      4186 1.03635E+02 2.05131E+01 0.00000E+00
 -1      4187 1.02135E+02 2.05131E+01 0.00000E+00
 -1      4188 1.01385E+02 2.18121E+01 0.00000E+00
 -1      4189 1.06635E+02 2.05131E+01 0.00000E+00
 -1      4190 1.05135E+02 2.05131E+01 0.00000E+00
 -1      4191 1.04385E+02 2.18121E+01 0.00000E+00
 -1      4192 1.09635E+02 2.05131E+01 0.00000E+00
 -1      4193 1.08135E+02 2.05131E+01 0.00000E+00
 -1      4194 1.07385E+02 2.18121E+01 0.00000E+00
 -1      4195 1.12635E+02 2.05131E+01 0.00000E+00
 -1      4196 1.11135E+02 2.05131E+01 0.00000E+00
 -1      4197 1.10385E+02 2.18121E+01 0.00000E+00
 -1      4198 1.15635E+02 2.05131E+01 0.00000E+00
 -1      4199 1.14135E+02 2.05131E+01 0.00000E+00
 -1      4200 1.13385E+02 2.18121E+01 0.00000E+00
 -1      4201 1.18635E+02 2.05131E+01 0.00000E+00
 -1      4202 1.17135E+02 2.05131E+01 0.00000E+00
 -1      4203 1.16385E+02 2.18121E+01 0.00000E+00
 -1      4204 1.21635E+02 2.05131E+01 0.00000E+00
 -1      4205 1.20135E+02 2.05131E+01 0.00000E+00
 -1      4206 1.19385E+02 2.18121E+01 0.00000E+00
 -1      4207 1.24635E+02 2.05131E+01 0.00000E+00
 -1      4208 1.23135E+02 2.05131E+01 0.00000E+00
 -1      4209 1.22385E+02 2.18121E+01 0.00000E+00
 -1      4210 1.27287E+02 2.04893E+01 0.00000E+00
 -1      4211 1.25787E+02 2.04893E+01 0.00000E+00
 -1      4212 1.25037E+02 2.17883E+01 0.00000E+00
 -1      4213 1.27340E+02 2.17408E+01 0.00000E+00
 -1      4214 1.28337E+02 2.63627E+01 0.00000E+00
 -1      4215 7.94850E+01 2.05131E+01 0.00000E+00
 -1      4216 7.79850E+01 2.05131E+01 0.00000E+00
 -1      4217 8.24850E+01 2.05131E+01 0.00000E+00
 -1      4218 8.09850E+01 2.05131E+01 0.00000E+00
 -1      4219 8.02350E+01 2.18121E+01 0.00000E+00
 -1      4220 6.29381E+01 1.79151E+01 0.00000E+00
 -1      4221 6.14194E+01 1.79151E+01 0.00000E+00
 -1      4222 6.06694E+01 1.92141E+01 0.00000E+00
 -1      4223 6.36881E+01 1.92141E+01 0.00000E+00
 -1      4224 9.44850E+01 2.05131E+01 0.00000E+00
 -1      4225 9.29850E+01 2.05131E+01 0.00000E+00
 -1      4226 9.52350E+01 2.18121E+01 0.00000E+00
 -1      4227 4.56800E+01 2.07353E+01 0.00000E+00
 -1      4228 8.54850E+01 2.05131E+01 0.00000E+00
 -1      4229 8.39850E+01 2.05131E+01 0.00000E+00
 -1      4230 8.32350E+01 2.18121E+01 0.00000E+00
 -1      4231 8.62350E+01 2.18121E+01 0.00000E+00
 -1      4232 7.34850E+01 2.05131E+01 0.00000E+00
 -1      4233 7.19850E+01 2.05131E+01 0.00000E+00
 -1      4234 7.12350E+01 2.18121E+01 0.00000E+00
 -1      4235 4.32599E+01 2.80687E+01 0.00000E+00
 -1      4236 4.40099E+01 2.67697E+01 0.00000E+00
 -1      4237 5.83913E+01 2.05131E+01 0.00000E+00
 -1      4238 5.68537E+01 2.05131E+01 0.00000E+00
 -1      4239 4.73367E+01 2.08561E+01 0.00000E+00
 -1      4240 4.59317E+01 2.23773E+01 0.00000E+00
 -1      4241 6.74662E+01 2.05131E+01 0.00000E+00
 -1      4242 6.59475E+01 2.05131E+01 0.00000E+00
 -1      4243 6.82162E+01 2.18121E+01 0.00000E+00
 -1      4244 4.48145E+01 2.33834E+01 0.00000E+00
 -1      4245 4.43968E+01 2.42920E+01 0.00000E+00
 -1      4246 4.42369E+01 2.55165E+01 0.00000E+00
 -1      4247 4.64713E+01 2.35042E+01 0.00000E+00
 -1      4248 1.27936E+02 2.49174E+01 0.00000E+00
 -1      4249 1.27740E+02 2.31861E+01 0.00000E+00
 -1      4250 1.26589E+02 2.32098E+01 0.00000E+00
 -1      4251 1.27391E+02 2.61003E+01 0.00000E+00
 -1      4252 9.22350E+01 2.18121E+01 0.00000E+00
 -1      4253 4.88367E+01 2.08561E+01 0.00000E+00
 -1      4254 5.53537E+01 2.05131E+01 0.00000E+00
 -1      4255 5.38537E+01 2.05131E+01 0.00000E+00
 -1      4256 5.61225E+01 2.18121E+01 0.00000E+00
 -1      4257 7.64850E+01 2.05131E+01 0.00000E+00
 -1      4258 7.49850E+01 2.05131E+01 0.00000E+00
 -1      4259 7.42350E+01 2.18121E+01 0.00000E+00
 -1      4260 7.72350E+01 2.18121E+01 0.00000E+00
 -1      4261 5.99006E+01 2.05131E+01 0.00000E+00
 -1      4262 5.91319E+01 2.18121E+01 0.00000E+00
 -1      4263 6.14100E+01 2.05131E+01 0.00000E+00
 -1      4264 4.86500E+01 2.57177E+01 0.00000E+00
 -1      4265 5.01500E+01 2.57177E+01 0.00000E+00
 -1      4266 5.16500E+01 2.57177E+01 0.00000E+00
 -1      4267 5.31500E+01 2.57177E+01 0.00000E+00
 -1      4268 5.09000E+01 2.44187E+01 0.00000E+00
 -1      4269 5.46500E+01 2.57177E+01 0.00000E+00
 -1      4270 5.61500E+01 2.57177E+01 0.00000E+00
 -1      4271 5.39000E+01 2.44187E+01 0.00000E+00
 -1      4272 5.76500E+01 2.57177E+01 0.00000E+00
 -1      4273 5.91500E+01 2.57177E+01 0.00000E+00
 -1      4274 5.69000E+01 2.44187E+01 0.00000E+00
 -1      4275 6.06500E+01 2.57177E+01 0.00000E+00
 -1      4276 6.21500E+01 2.57177E+01 0.00000E+00
 -1      4277 5.99000E+01 2.44187E+01 0.00000E+00
 -1      4278 6.36500E+01 2.57177E+01 0.00000E+00
 -1      4279 6.51500E+01 2.57177E+01 0.00000E+00
 -1      4280 6.29000E+01 2.44187E+01 0.00000E+00
 -1      4281 6.66500E+01 2.57177E+01 0.00000E+00
 -1      4282 6.81500E+01 2.57177E+01 0.00000E+00
 -1      4283 6.59000E+01 2.44187E+01 0.00000E+00
 -1      4284 6.96500E+01 2.57177E+01 0.00000E+00
 -1      4285 7.11500E+01 2.57177E+01 0.00000E+00
 -1      4286 6.89000E+01 2.44187E+01 0.00000E+00
 -1      4287 7.26500E+01 2.57177E+01 0.00000E+00
 -1      4288 7.41500E+01 2.57177E+01 0.00000E+00
 -1      4289 7.19000E+01 2.44187E+01 0.00000E+00
 -1      4290 7.56500E+01 2.57177E+01 0.00000E+00
 -1      4291 7.71500E+01 2.57177E+01 0.00000E+00
 -1      4292 7.49000E+01 2.44187E+01 0.00000E+00
 -1      4293 7.86500E+01 2.57177E+01 0.00000E+00
 -1      4294 8.01500E+01 2.57177E+01 0.00000E+00
 -1      4295 7.79000E+01 2.44187E+01 0.00000E+00
 -1      4296 8.16500E+01 2.57177E+01 0.00000E+00
 -1      4297 8.31500E+01 2.57177E+01 0.00000E+00
 -1      4298 8.09000E+01 2.44187E+01 0.00000E+00
 -1      4299 8.46500E+01 2.57177E+01 0.00000E+00
 -1      4300 8.61500E+01 2.57177E+01 0.00000E+00
 -1      4301 8.39000E+01 2.44187E+01 0.00000E+00
 -1      4302 8.76500E+01 2.57177E+01 0.00000E+00
 -1      4303 8.91500E+01 2.57177E+01 0.00000E+00
 -1      4304 8.69000E+01 2.44187E+01 0.00000E+00
 -1      4305 9.06500E+01 2.57177E+01 0.00000E+00
 -1      4306 9.21500E+01 2.57177E+01 0.00000E+00
 -1      4307 8.99000E+01 2.44187E+01 0.00000E+00
 -1      4308 9.36500E+01 2.57177E+01 0.00000E+00
 -1      4309 9.51500E+01 2.57177E+01 0.00000E+00
 -1      4310 9.29000E+01 2.44187E+01 0.00000E+00
 -1      4311 9.66500E+01 2.57177E+01 0.00000E+00
 -1      4312 9.81500E+01 2.57177E+01 0.00000E+00
 -1      4313 9.59000E+01 2.44187E+01 0.00000E+00
 -1      4314 9.96500E+01 2.57177E+01 0.00000E+00
 -1      4315 1.01150E+02 2.57177E+01 0.00000E+00
 -1      4316 9.89000E+01 2.44187E+01 0.00000E+00
 -1      4317 1.02650E+02 2.57177E+01 0.00000E+00
 -1      4318 1.04150E+02 2.57177E+01 0.00000E+00
 -1      4319 1.01900E+02 2.44187E+01 0.00000E+00
 -1      4320 1.05650E+02 2.57177E+01 0.00000E+00
 -1      4321 1.07150E+02 2.57177E+01 0.00000E+00
 -1      4322 1.04900E+02 2.44187E+01 0.00000E+00
 -1      4323 1.08650E+02 2.57177E+01 0.00000E+00
 -1      4324 1.10150E+02 2.57177E+01 0.00000E+00
 -1      4325 1.07900E+02 2.44187E+01 0.00000E+00
 -1      4326 1.11650E+02 2.57177E+01 0.00000E+00
 -1      4327 1.13150E+02 2.57177E+01 0.00000E+00
 -1      4328 1.10900E+02 2.44187E+01 0.00000E+00
 -1      4329 1.14650E+02 2.57177E+01 0.00000E+00
 -1      4330 1.16150E+02 2.57177E+01 0.00000E+00
 -1      4331 1.13900E+02 2.44187E+01 0.00000E+00
 -1      4332 1.17650E+02 2.57177E+01 0.00000E+00
 -1      4333 1.19150E+02 2.57177E+01 0.00000E+00
 -1      4334 1.16900E+02 2.44187E+01 0.00000E+00
 -1      4335 1.20650E+02 2.57177E+01 0.00000E+00
 -1      4336 1.22150E+02 2.57177E+01 0.00000E+00
 -1      4337 1.19900E+02 2.44187E+01 0.00000E+00
 -1      4338 8.95675E+01 2.31154E+01 0.00000E+00
 -1      4339 8.80675E+01 2.31154E+01 0.00000E+00
 -1      4340 1.01643E+02 2.31154E+01 0.00000E+00
 -1      4341 1.00143E+02 2.31154E+01 0.00000E+00
 -1      4342 9.86425E+01 2.31154E+01 0.00000E+00
 -1      4343 9.70675E+01 2.31154E+01 0.00000E+00
 -1      4344 1.07643E+02 2.31154E+01 0.00000E+00
 -1      4345 1.06143E+02 2.31154E+01 0.00000E+00
 -1      4346 1.10643E+02 2.31154E+01 0.00000E+00
 -1      4347 1.09143E+02 2.31154E+01 0.00000E+00
 -1      4348 1.13643E+02 2.31154E+01 0.00000E+00
 -1      4349 1.12143E+02 2.31154E+01 0.00000E+00
 -1      4350 1.16643E+02 2.31154E+01 0.00000E+00
 -1      4351 1.15143E+02 2.31154E+01 0.00000E+00
 -1      4352 1.19643E+02 2.31154E+01 0.00000E+00
 -1      4353 1.18143E+02 2.31154E+01 0.00000E+00
 -1      4354 1.22643E+02 2.31154E+01 0.00000E+00
 -1      4355 1.21143E+02 2.31154E+01 0.00000E+00
 -1      4356 7.75675E+01 2.31154E+01 0.00000E+00
 -1      4357 7.60675E+01 2.31154E+01 0.00000E+00
 -1      4358 8.05675E+01 2.31154E+01 0.00000E+00
 -1      4359 7.90675E+01 2.31154E+01 0.00000E+00
 -1      4360 9.25675E+01 2.31154E+01 0.00000E+00
 -1      4361 9.10675E+01 2.31154E+01 0.00000E+00
 -1      4362 4.51270E+01 2.57635E+01 0.00000E+00
 -1      4363 1.04643E+02 2.31154E+01 0.00000E+00
 -1      4364 1.03143E+02 2.31154E+01 0.00000E+00
 -1      4365 9.55675E+01 2.31154E+01 0.00000E+00
 -1      4366 9.40675E+01 2.31154E+01 0.00000E+00
 -1      4367 5.23537E+01 2.05131E+01 0.00000E+00
 -1      4368 5.08537E+01 2.05131E+01 0.00000E+00
 -1      4369 5.31225E+01 2.18121E+01 0.00000E+00
 -1      4370 4.96055E+01 2.21551E+01 0.00000E+00
 -1      4371 4.66270E+01 2.57635E+01 0.00000E+00
 -1      4372 6.85675E+01 2.31154E+01 0.00000E+00
 -1      4373 6.70488E+01 2.31154E+01 0.00000E+00
 -1      4374 4.73770E+01 2.44645E+01 0.00000E+00
 -1      4375 5.05113E+01 2.31154E+01 0.00000E+00
 -1      4376 4.84942E+01 2.34584E+01 0.00000E+00
 -1      4377 7.45675E+01 2.31154E+01 0.00000E+00
 -1      4378 7.30675E+01 2.31154E+01 0.00000E+00
 -1      4379 5.95206E+01 2.31154E+01 0.00000E+00
 -1      4380 5.80113E+01 2.31154E+01 0.00000E+00
 -1      4381 8.35675E+01 2.31154E+01 0.00000E+00
 -1      4382 8.20675E+01 2.31154E+01 0.00000E+00
 -1      4383 1.26168E+02 2.59681E+01 0.00000E+00
 -1      4384 8.65675E+01 2.31154E+01 0.00000E+00
 -1      4385 1.23547E+02 2.57768E+01 0.00000E+00
 -1      4386 1.24770E+02 2.59090E+01 0.00000E+00
 -1      4387 1.25592E+02 2.45960E+01 0.00000E+00
 -1      4388 1.22797E+02 2.44778E+01 0.00000E+00
 -1      4389 6.51881E+01 2.18121E+01 0.00000E+00
 -1      4390 6.44381E+01 2.05131E+01 0.00000E+00
 -1      4391 6.29287E+01 2.05131E+01 0.00000E+00
 -1      4392 7.15675E+01 2.31154E+01 0.00000E+00
 -1      4393 7.00675E+01 2.31154E+01 0.00000E+00
 -1      4394 1.25191E+02 2.31507E+01 0.00000E+00
 -1      4395 1.24040E+02 2.31745E+01 0.00000E+00
 -1      4396 8.50675E+01 2.31154E+01 0.00000E+00
 -1      4397 5.65113E+01 2.31154E+01 0.00000E+00
 -1      4398 5.50113E+01 2.31154E+01 0.00000E+00
 -1      4399 5.20113E+01 2.31154E+01 0.00000E+00
 -1      4400 5.35113E+01 2.31154E+01 0.00000E+00
 -1      4401 6.10206E+01 2.31154E+01 0.00000E+00
 -1      4402 6.25394E+01 2.31154E+01 0.00000E+00
 -1      4403 6.40394E+01 2.31154E+01 0.00000E+00
 -1      4404 6.55488E+01 2.31154E+01 0.00000E+00
 -1      4405 6.21600E+01 2.18121E+01 0.00000E+00
 -3
    3C                          2121                                     1
 -1       164    8    0    1
 -2         6         7        23      1143      1306      1160
 -1       165    8    0    1
 -2         7         8       164      1144      1307      1308
 -1       166    8    0    1
 -2         8         9       165      1145      1309      1310
 -1       167    8    0    1
 -2         8       165       164      1310      1311      1307
 -1       168    8    0    1
 -2         9        10       166      1146      1312      1313
 -1       169    8    0    1
 -2         9       166       165      1313      1314      1309
 -1       170    8    0    1
 -2        10        11       167      1147      1315      1316
 -1       171    8    0    1
 -2        10       167       166      1316      1317      1312
 -1       172    8    0    1
 -2        11        12       168      1148      1318      1319
 -1       173    8    0    1
 -2        11       168       167      1319      1320      1315
 -1       174    8    0    1
 -2        12        13       169      1149      1321      1322
 -1       175    8    0    1
 -2        12       169       168      1322      1323      1318
 -1       176    8    0    1
 -2        13        14       170      1150      1324      1325
 -1       177    8    0    1
 -2        13       170       169      1325      1326      1321
 -1       178    8    0    1
 -2        14        15       171      1151      1327      1328
 -1       179    8    0    1
 -2        14       171       170      1328      1329      1324
 -1       180    8    0    1
 -2        15        16       172      1152      1330      1331
 -1       181    8    0    1
 -2        15       172       171      1331      1332      1327
 -1       182    8    0    1
 -2        16        17       173      1153      1333      1334
 -1       183    8    0    1
 -2        16       173       172      1334      1335      1330
 -1       184    8    0    1
 -2        17        18       174      1154      1336      1337
 -1       185    8    0    1
 -2        17       174       173      1337      1338      1333
 -1       186    8    0    1
 -2        18        19       175      1155      1339      1340
 -1       187    8    0    1
 -2        18       175       174      1340      1341      1336
 -1       188    8    0    1
 -2        19        20       176      1156      1342      1343
 -1       189    8    0    1
 -2        19       176       175      1343      1344      1339
 -1       190    8    0    1
 -2        20        21       177      1157      1345      1346
 -1       191    8    0    1
 -2        20       177       176      1346      1347      1342
 -1       192    8    0    1
 -2        21        22       178      1158      1348      1349
 -1       193    8    0    1
 -2        21       178       177      1349      1350      1345
 -1       194    8    0    1
 -2        22         5       179      1159      1351      1352
 -1       195    8    0    1
 -2       178        22       179      1348      1352      1353
 -1       196    8    0    1
 -2         5        72       179      1210      1354      1351
 -1       197    8    0    1
 -2        24        23       180      1161      1355      1356
 -1       198    8    0    1
 -2        25        24       181      1162      1357      1358
 -1       199    8    0    1
 -2        24       180       181      1356      1359      1357
 -1       200    8    0    1
 -2        26        25       182      1163      1360      1361
 -1       201    8    0    1
 -2        25       181       182      1358      1362      1360
 -1       202    8    0    1
 -2        27        26       183      1164      1363      1364
 -1       203    8    0    1
 -2        26       182       183      1361      1365      1363
 -1       204    8    0    1
 -2        28        27       184      1165      1366      1367
 -1       205    8    0    1
 -2        27       183       184      1364      1368      1366
 -1       206    8    0    1
 -2        29        28       185      1166      1369      1370
 -1       207    8    0    1
 -2        28       184       185      1367      1371      1369
 -1       208    8    0    1
 -2        30        29       186      1167      1372      1373
 -1       209    8    0    1
 -2        29       185       186      1370      1374      1372
 -1       210    8    0    1
 -2        31        30       187      1168      1375      1376
 -1       211    8    0    1
 -2        30       186       187      1373      1377      1375
 -1       212    8    0    1
 -2        32        31       188      1169      1378      1379
 -1       213    8    0    1
 -2        31       187       188      1376      1380      1378
 -1       214    8    0    1
 -2        33        32       189      1170      1381      1382
 -1       215    8    0    1
 -2        32       188       189      1379      1383      1381
 -1       216    8    0    1
 -2        34        33       190      1171      1384      1385
 -1       217    8    0    1
 -2        33       189       190      1382      1386      1384
 -1       218    8    0    1
 -2        35        34       191      1172      1387      1388
 -1       219    8    0    1
 -2        34       190       191      1385      1389      1387
 -1       220    8    0    1
 -2        36        35       192      1173      1390      1391
 -1       221    8    0    1
 -2        35       191       192      1388      1392      1390
 -1       222    8    0    1
 -2        37        36       193      1174      1393      1394
 -1       223    8    0    1
 -2        36       192       193      1391      1395      1393
 -1       224    8    0    1
 -2        38        37       194      1175      1396      1397
 -1       225    8    0    1
 -2        37       193       194      1394      1398      1396
 -1       226    8    0    1
 -2        39        38       195      1176      1399      1400
 -1       227    8    0    1
 -2        38       194       195      1397      1401      1399
 -1       228    8    0    1
 -2        40        39       196      1177      1402      1403
 -1       229    8    0    1
 -2        39       195       196      1400      1404      1402
 -1       230    8    0    1
 -2        41        40       197      1178      1405      1406
 -1       231    8    0    1
 -2        40       196       197      1403      1407      1405
 -1       232    8    0    1
 -2        42        41       198      1179      1408      1409
 -1       233    8    0    1
 -2        41       197       198      1406      1410      1408
 -1       234    8    0    1
 -2        43        42       199      1180      1411      1412
 -1       235    8    0    1
 -2        42       198       199      1409      1413      1411
 -1       236    8    0    1
 -2        44        43       200      1181      1414      1415
 -1       237    8    0    1
 -2        43       199       200      1412      1416      1414
 -1       238    8    0    1
 -2        45        44       201      1182      1417      1418
 -1       239    8    0    1
 -2        44       200       201      1415      1419      1417
 -1       240    8    0    1
 -2        46        45       202      1183      1420      1421
 -1       241    8    0    1
 -2        45       201       202      1418      1422      1420
 -1       242    8    0    1
 -2        47        46       203      1184      1423      1424
 -1       243    8    0    1
 -2        46       202       203      1421      1425      1423
 -1       244    8    0    1
 -2        48        47       204      1185      1426      1427
 -1       245    8    0    1
 -2        47       203       204      1424      1428      1426
 -1       246    8    0    1
 -2        49        48       205      1186      1429      1430
 -1       247    8    0    1
 -2        48       204       205      1427      1431      1429
 -1       248    8    0    1
 -2        50        49       206      1187      1432      1433
 -1       249    8    0    1
 -2        49       205       206      1430      1434      1432
 -1       250    8    0    1
 -2        51        50       207      1188      1435      1436
 -1       251    8    0    1
 -2        50       206       207      1433      1437      1435
 -1       252    8    0    1
 -2        52        51       208      1189      1438      1439
 -1       253    8    0    1
 -2        51       207       208      1436      1440      1438
 -1       254    8    0    1
 -2        53        52       209      1190      1441      1442
 -1       255    8    0    1
 -2        52       208       209      1439      1443      1441
 -1       256    8    0    1
 -2        54        53       210      1191      1444      1445
 -1       257    8    0    1
 -2        53       209       210      1442      1446      1444
 -1       258    8    0    1
 -2        55        54       211      1192      1447      1448
 -1       259    8    0    1
 -2        54       210       211      1445      1449      1447
 -1       260    8    0    1
 -2        56        55       212      1193      1450      1451
 -1       261    8    0    1
 -2        55       211       212      1448      1452      1450
 -1       262    8    0    1
 -2        57        56       213      1194      1453      1454
 -1       263    8    0    1
 -2        56       212       213      1451      1455      1453
 -1       264    8    0    1
 -2        58        57       214      1195      1456      1457
 -1       265    8    0    1
 -2        57       213       214      1454      1458      1456
 -1       266    8    0    1
 -2        59        58       215      1196      1459      1460
 -1       267    8    0    1
 -2        58       214       215      1457      1461      1459
 -1       268    8    0    1
 -2        60        59       216      1197      1462      1463
 -1       269    8    0    1
 -2        59       215       216      1460      1464      1462
 -1       270    8    0    1
 -2        61        60       217      1198      1465      1466
 -1       271    8    0    1
 -2        60       216       217      1463      1467      1465
 -1       272    8    0    1
 -2        62        61       218      1199      1468      1469
 -1       273    8    0    1
 -2        61       217       218      1466      1470      1468
 -1       274    8    0    1
 -2        63        62       219      1200      1471      1472
 -1       275    8    0    1
 -2        62       218       219      1469      1473      1471
 -1       276    8    0    1
 -2        64        63       220      1201      1474      1475
 -1       277    8    0    1
 -2        63       219       220      1472      1476      1474
 -1       278    8    0    1
 -2        65        64       221      1202      1477      1478
 -1       279    8    0    1
 -2        64       220       221      1475      1479      1477
 -1       280    8    0    1
 -2        66        65       222      1203      1480      1481
 -1       281    8    0    1
 -2        65       221       222      1478      1482      1480
 -1       282    8    0    1
 -2        67        66       223      1204      1483      1484
 -1       283    8    0    1
 -2        66       222       223      1481      1485      1483
 -1       284    8    0    1
 -2        68        67       224      1205      1486      1487
 -1       285    8    0    1
 -2        67       223       224      1484      1488      1486
 -1       286    8    0    1
 -2        69        68       225      1206      1489      1490
 -1       287    8    0    1
 -2        68       224       225      1487      1491      1489
 -1       288    8    0    1
 -2        70        69       226      1207      1492      1493
 -1       289    8    0    1
 -2        69       225       226      1490      1494      1492
 -1       290    8    0    1
 -2        71        70       227      1208      1495      1496
 -1       291    8    0    1
 -2        70       226       227      1493      1497      1495
 -1       292    8    0    1
 -2         4        71       136      1209      1498      1276
 -1       293    8    0    1
 -2       136        71       227      1498      1496      1499
 -1       294    8    0    1
 -2        72        73       228      1211      1500      1501
 -1       295    8    0    1
 -2        72       228       179      1501      1502      1354
 -1       296    8    0    1
 -2        73        74       229      1212      1503      1504
 -1       297    8    0    1
 -2        73       229       228      1504      1505      1500
 -1       298    8    0    1
 -2        74        75       230      1213      1506      1507
 -1       299    8    0    1
 -2        74       230       229      1507      1508      1503
 -1       300    8    0    1
 -2        75        76       231      1214      1509      1510
 -1       301    8    0    1
 -2        75       231       230      1510      1511      1506
 -1       302    8    0    1
 -2        76        77       232      1215      1512      1513
 -1       303    8    0    1
 -2        76       232       231      1513      1514      1509
 -1       304    8    0    1
 -2        77        78       233      1216      1515      1516
 -1       305    8    0    1
 -2        77       233       232      1516      1517      1512
 -1       306    8    0    1
 -2        78        79       234      1217      1518      1519
 -1       307    8    0    1
 -2        78       234       233      1519      1520      1515
 -1       308    8    0    1
 -2        79        80       235      1218      1521      1522
 -1       309    8    0    1
 -2        79       235       234      1522      1523      1518
 -1       310    8    0    1
 -2        80        81       236      1219      1524      1525
 -1       311    8    0    1
 -2        80       236       235      1525      1526      1521
 -1       312    8    0    1
 -2        81        82       237      1220      1527      1528
 -1       313    8    0    1
 -2        81       237       236      1528      1529      1524
 -1       314    8    0    1
 -2        82        83       238      1221      1530      1531
 -1       315    8    0    1
 -2        82       238       237      1531      1532      1527
 -1       316    8    0    1
 -2        83        84       239      1222      1533      1534
 -1       317    8    0    1
 -2        83       239       238      1534      1535      1530
 -1       318    8    0    1
 -2        84        85       240      1223      1536      1537
 -1       319    8    0    1
 -2        84       240       239      1537      1538      1533
 -1       320    8    0    1
 -2        85        86       241      1224      1539      1540
 -1       321    8    0    1
 -2        85       241       240      1540      1541      1536
 -1       322    8    0    1
 -2        86        87       242      1225      1542      1543
 -1       323    8    0    1
 -2        86       242       241      1543      1544      1539
 -1       324    8    0    1
 -2        87        88       243      1226      1545      1546
 -1       325    8    0    1
 -2        87       243       242      1546      1547      1542
 -1       326    8    0    1
 -2        88        89       244      1227      1548      1549
 -1       327    8    0    1
 -2        88       244       243      1549      1550      1545
 -1       328    8    0    1
 -2        89        90       245      1228      1551      1552
 -1       329    8    0    1
 -2        89       245       244      1552      1553      1548
 -1       330    8    0    1
 -2        90        91       246      1229      1554      1555
 -1       331    8    0    1
 -2        90       246       245      1555      1556      1551
 -1       332    8    0    1
 -2        91        92       247      1230      1557      1558
 -1       333    8    0    1
 -2        91       247       246      1558      1559      1554
 -1       334    8    0    1
 -2        92        93       248      1231      1560      1561
 -1       335    8    0    1
 -2        92       248       247      1561      1562      1557
 -1       336    8    0    1
 -2        93        94       249      1232      1563      1564
 -1       337    8    0    1
 -2        93       249       248      1564      1565      1560
 -1       338    8    0    1
 -2        94        95       250      1233      1566      1567
 -1       339    8    0    1
 -2        94       250       249      1567      1568      1563
 -1       340    8    0    1
 -2        95        96       251      1234      1569      1570
 -1       341    8    0    1
 -2        95       251       250      1570      1571      1566
 -1       342    8    0    1
 -2        96        97       252      1235      1572      1573
 -1       343    8    0    1
 -2        96       252       251      1573      1574      1569
 -1       344    8    0    1
 -2        97        98       253      1236      1575      1576
 -1       345    8    0    1
 -2        97       253       252      1576      1577      1572
 -1       346    8    0    1
 -2        98        99       254      1237      1578      1579
 -1       347    8    0    1
 -2        98       254       253      1579      1580      1575
 -1       348    8    0    1
 -2        99       100       255      1238      1581      1582
 -1       349    8    0    1
 -2        99       255       254      1582      1583      1578
 -1       350    8    0    1
 -2       100       101       256      1239      1584      1585
 -1       351    8    0    1
 -2       100       256       255      1585      1586      1581
 -1       352    8    0    1
 -2       101       102       257      1240      1587      1588
 -1       353    8    0    1
 -2       101       257       256      1588      1589      1584
 -1       354    8    0    1
 -2       102       103       258      1241      1590      1591
 -1       355    8    0    1
 -2       102       258       257      1591      1592      1587
 -1       356    8    0    1
 -2       103       104       259      1242      1593      1594
 -1       357    8    0    1
 -2       103       259       258      1594      1595      1590
 -1       358    8    0    1
 -2       104       105       260      1243      1596      1597
 -1       359    8    0    1
 -2       104       260       259      1597      1598      1593
 -1       360    8    0    1
 -2       105       106       261      1244      1599      1600
 -1       361    8    0    1
 -2       105       261       260      1600      1601      1596
 -1       362    8    0    1
 -2       106       107       262      1245      1602      1603
 -1       363    8    0    1
 -2       106       262       261      1603      1604      1599
 -1       364    8    0    1
 -2       107       108       263      1246      1605      1606
 -1       365    8    0    1
 -2       107       263       262      1606      1607      1602
 -1       366    8    0    1
 -2       108       109       264      1247      1608      1609
 -1       367    8    0    1
 -2       108       264       263      1609      1610      1605
 -1       368    8    0    1
 -2       109       110       265      1248      1611      1612
 -1       369    8    0    1
 -2       109       265       264      1612      1613      1608
 -1       370    8    0    1
 -2       110       111       266      1249      1614      1615
 -1       371    8    0    1
 -2       110       266       265      1615      1616      1611
 -1       372    8    0    1
 -2       111       112       267      1250      1617      1618
 -1       373    8    0    1
 -2       111       267       266      1618      1619      1614
 -1       374    8    0    1
 -2       112       113       268      1251      1620      1621
 -1       375    8    0    1
 -2       112       268       267      1621      1622      1617
 -1       376    8    0    1
 -2       113       114       269      1252      1623      1624
 -1       377    8    0    1
 -2       113       269       268      1624      1625      1620
 -1       378    8    0    1
 -2       114       115       270      1253      1626      1627
 -1       379    8    0    1
 -2       114       270       269      1627      1628      1623
 -1       380    8    0    1
 -2       115       116       271      1254      1629      1630
 -1       381    8    0    1
 -2       115       271       270      1630      1631      1626
 -1       382    8    0    1
 -2       116       117       272      1255      1632      1633
 -1       383    8    0    1
 -2       116       272       271      1633      1634      1629
 -1       384    8    0    1
 -2       117       118       273      1256      1635      1636
 -1       385    8    0    1
 -2       117       273       272      1636      1637      1632
 -1       386    8    0    1
 -2       118       119       274      1257      1638      1639
 -1       387    8    0    1
 -2       118       274       273      1639      1640      1635
 -1       388    8    0    1
 -2       119       120       275      1258      1641      1642
 -1       389    8    0    1
 -2       119       275       274      1642      1643      1638
 -1       390    8    0    1
 -2       120         3       121      1259      1260      1644
 -1       391    8    0    1
 -2       121       122       276      1261      1645      1646
 -1       392    8    0    1
 -2       122       123       277      1262      1647      1648
 -1       393    8    0    1
 -2       122       277       276      1648      1649      1645
 -1       394    8    0    1
 -2       123       124       278      1263      1650      1651
 -1       395    8    0    1
 -2       123       278       277      1651      1652      1647
 -1       396    8    0    1
 -2       124       125       279      1264      1653      1654
 -1       397    8    0    1
 -2       124       279       278      1654      1655      1650
 -1       398    8    0    1
 -2       125       126       280      1265      1656      1657
 -1       399    8    0    1
 -2       125       280       279      1657      1658      1653
 -1       400    8    0    1
 -2       126       127       281      1266      1659      1660
 -1       401    8    0    1
 -2       126       281       280      1660      1661      1656
 -1       402    8    0    1
 -2       127       128       282      1267      1662      1663
 -1       403    8    0    1
 -2       127       282       281      1663      1664      1659
 -1       404    8    0    1
 -2       128       129       283      1268      1665      1666
 -1       405    8    0    1
 -2       128       283       282      1666      1667      1662
 -1       406    8    0    1
 -2       129       130       284      1269      1668      1669
 -1       407    8    0    1
 -2       129       284       283      1669      1670      1665
 -1       408    8    0    1
 -2       130       131       285      1270      1671      1672
 -1       409    8    0    1
 -2       130       285       284      1672      1673      1668
 -1       410    8    0    1
 -2       131       132       286      1271      1674      1675
 -1       411    8    0    1
 -2       131       286       285      1675      1676      1671
 -1       412    8    0    1
 -2       132       133       287      1272      1677      1678
 -1       413    8    0    1
 -2       132       287       286      1678      1679      1674
 -1       414    8    0    1
 -2       133       134       288      1273      1680      1681
 -1       415    8    0    1
 -2       133       288       287      1681      1682      1677
 -1       416    8    0    1
 -2       134       135       289      1274      1683      1684
 -1       417    8    0    1
 -2       134       289       288      1684      1685      1680
 -1       418    8    0    1
 -2       135       136       290      1275      1686      1687
 -1       419    8    0    1
 -2       289       135       290      1683      1687      1688
 -1       420    8    0    1
 -2       136       227       290      1499      1689      1686
 -1       421    8    0    1
 -2         2       137       291      1277      1690      1691
 -1       422    8    0    1
 -2       137       138       292      1278      1692      1693
 -1       423    8    0    1
 -2       138       139       293      1279      1694      1695
 -1       424    8    0    1
 -2       139       140       294      1280      1696      1697
 -1       425    8    0    1
 -2       140       141       295      1281      1698      1699
 -1       426    8    0    1
 -2       141       142       296      1282      1700      1701
 -1       427    8    0    1
 -2       142       143       297      1283      1702      1703
 -1       428    8    0    1
 -2       143       144       298      1284      1704      1705
 -1       429    8    0    1
 -2       144       145       299      1285      1706      1707
 -1       430    8    0    1
 -2       145       146       300      1286      1708      1709
 -1       431    8    0    1
 -2       146       147       301      1287      1710      1711
 -1       432    8    0    1
 -2       147       148       302      1288      1712      1713
 -1       433    8    0    1
 -2       148       149       303      1289      1714      1715
 -1       434    8    0    1
 -2       149       150       304      1290      1716      1717
 -1       435    8    0    1
 -2       150       151       305      1291      1718      1719
 -1       436    8    0    1
 -2       151       152       306      1292      1720      1721
 -1       437    8    0    1
 -2       152       153       307      1293      1722      1723
 -1       438    8    0    1
 -2       153       154       308      1294      1724      1725
 -1       439    8    0    1
 -2       154       155       309      1295      1726      1727
 -1       440    8    0    1
 -2       155       156       310      1296      1728      1729
 -1       441    8    0    1
 -2       156       157       311      1297      1730      1731
 -1       442    8    0    1
 -2       157       158       312      1298      1732      1733
 -1       443    8    0    1
 -2       158         1       313      1299      1734      1735
 -1       444    8    0    1
 -2         1       159       314      1300      1736      1737
 -1       445    8    0    1
 -2       159       160       315      1301      1738      1739
 -1       446    8    0    1
 -2       160       161       316      1302      1740      1741
 -1       447    8    0    1
 -2       161       162       317      1303      1742      1743
 -1       448    8    0    1
 -2       162       163       318      1304      1744      1745
 -1       449    8    0    1
 -2       163         2       319      1305      1746      1747
 -1       450    8    0    1
 -2       294       140       295      1696      1699      1748
 -1       451    8    0    1
 -2       293       139       294      1694      1697      1749
 -1       452    8    0    1
 -2       120       121       275      1644      1750      1641
 -1       453    8    0    1
 -2       121       276       275      1646      1751      1750
 -1       454    8    0    1
 -2       291       137       292      1690      1693      1752
 -1       455    8    0    1
 -2       292       138       293      1692      1695      1753
 -1       456    8    0    1
 -2         2       291       319      1691      1754      1746
 -1       457    8    0    1
 -2       141       296       295      1701      1755      1698
 -1       458    8    0    1
 -2       142       297       296      1703      1756      1700
 -1       459    8    0    1
 -2       143       298       297      1705      1757      1702
 -1       460    8    0    1
 -2       144       299       298      1707      1758      1704
 -1       461    8    0    1
 -2       145       300       299      1709      1759      1706
 -1       462    8    0    1
 -2       146       301       300      1711      1760      1708
 -1       463    8    0    1
 -2       147       302       301      1713      1761      1710
 -1       464    8    0    1
 -2       148       303       302      1715      1762      1712
 -1       465    8    0    1
 -2       149       304       303      1717      1763      1714
 -1       466    8    0    1
 -2       150       305       304      1719      1764      1716
 -1       467    8    0    1
 -2       151       306       305      1721      1765      1718
 -1       468    8    0    1
 -2       152       307       306      1723      1766      1720
 -1       469    8    0    1
 -2       153       308       307      1725      1767      1722
 -1       470    8    0    1
 -2       154       309       308      1727      1768      1724
 -1       471    8    0    1
 -2       155       310       309      1729      1769      1726
 -1       472    8    0    1
 -2       156       311       310      1731      1770      1728
 -1       473    8    0    1
 -2       157       312       311      1733      1771      1730
 -1       474    8    0    1
 -2       158       313       312      1735      1772      1732
 -1       475    8    0    1
 -2         1       314       313      1737      1773      1734
 -1       476    8    0    1
 -2       159       315       314      1739      1774      1736
 -1       477    8    0    1
 -2       160       316       315      1741      1775      1738
 -1       478    8    0    1
 -2       161       317       316      1743      1776      1740
 -1       479    8    0    1
 -2       162       318       317      1745      1777      1742
 -1       480    8    0    1
 -2       163       319       318      1747      1778      1744
 -1       481    8    0    1
 -2        23         7       164      1306      1308      1779
 -1       482    8    0    1
 -2       165       166       320      1314      1780      1781
 -1       483    8    0    1
 -2       164       165       321      1311      1782      1783
 -1       484    8    0    1
 -2       165       320       321      1781      1784      1782
 -1       485    8    0    1
 -2       167       168       322      1320      1785      1786
 -1       486    8    0    1
 -2       168       169       323      1323      1787      1788
 -1       487    8    0    1
 -2       168       323       322      1788      1789      1785
 -1       488    8    0    1
 -2       169       170       324      1326      1790      1791
 -1       489    8    0    1
 -2       169       324       323      1791      1792      1787
 -1       490    8    0    1
 -2       170       171       325      1329      1793      1794
 -1       491    8    0    1
 -2       170       325       324      1794      1795      1790
 -1       492    8    0    1
 -2       171       172       326      1332      1796      1797
 -1       493    8    0    1
 -2       171       326       325      1797      1798      1793
 -1       494    8    0    1
 -2       172       173       327      1335      1799      1800
 -1       495    8    0    1
 -2       172       327       326      1800      1801      1796
 -1       496    8    0    1
 -2       173       174       328      1338      1802      1803
 -1       497    8    0    1
 -2       173       328       327      1803      1804      1799
 -1       498    8    0    1
 -2       174       175       329      1341      1805      1806
 -1       499    8    0    1
 -2       174       329       328      1806      1807      1802
 -1       500    8    0    1
 -2       175       176       330      1344      1808      1809
 -1       501    8    0    1
 -2       175       330       329      1809      1810      1805
 -1       502    8    0    1
 -2       176       177       331      1347      1811      1812
 -1       503    8    0    1
 -2       176       331       330      1812      1813      1808
 -1       504    8    0    1
 -2       177       178       332      1350      1814      1815
 -1       505    8    0    1
 -2       177       332       331      1815      1816      1811
 -1       506    8    0    1
 -2       178       179       333      1353      1817      1818
 -1       507    8    0    1
 -2       332       178       333      1814      1818      1819
 -1       508    8    0    1
 -2       179       228       333      1502      1820      1817
 -1       509    8    0    1
 -2       180        23       164      1355      1779      1821
 -1       510    8    0    1
 -2       228       229       334      1505      1822      1823
 -1       511    8    0    1
 -2       228       334       333      1823      1824      1820
 -1       512    8    0    1
 -2       180       164       321      1821      1783      1825
 -1       513    8    0    1
 -2       182       181       335      1362      1826      1827
 -1       514    8    0    1
 -2       183       182       336      1365      1828      1829
 -1       515    8    0    1
 -2       182       335       336      1827      1830      1828
 -1       516    8    0    1
 -2       184       183       337      1368      1831      1832
 -1       517    8    0    1
 -2       183       336       337      1829      1833      1831
 -1       518    8    0    1
 -2       185       184       338      1371      1834      1835
 -1       519    8    0    1
 -2       184       337       338      1832      1836      1834
 -1       520    8    0    1
 -2       186       185       339      1374      1837      1838
 -1       521    8    0    1
 -2       185       338       339      1835      1839      1837
 -1       522    8    0    1
 -2       187       186       340      1377      1840      1841
 -1       523    8    0    1
 -2       186       339       340      1838      1842      1840
 -1       524    8    0    1
 -2       188       187       341      1380      1843      1844
 -1       525    8    0    1
 -2       187       340       341      1841      1845      1843
 -1       526    8    0    1
 -2       189       188       342      1383      1846      1847
 -1       527    8    0    1
 -2       188       341       342      1844      1848      1846
 -1       528    8    0    1
 -2       190       189       343      1386      1849      1850
 -1       529    8    0    1
 -2       189       342       343      1847      1851      1849
 -1       530    8    0    1
 -2       191       190       344      1389      1852      1853
 -1       531    8    0    1
 -2       190       343       344      1850      1854      1852
 -1       532    8    0    1
 -2       192       191       345      1392      1855      1856
 -1       533    8    0    1
 -2       191       344       345      1853      1857      1855
 -1       534    8    0    1
 -2       193       192       346      1395      1858      1859
 -1       535    8    0    1
 -2       192       345       346      1856      1860      1858
 -1       536    8    0    1
 -2       194       193       347      1398      1861      1862
 -1       537    8    0    1
 -2       193       346       347      1859      1863      1861
 -1       538    8    0    1
 -2       195       194       348      1401      1864      1865
 -1       539    8    0    1
 -2       194       347       348      1862      1866      1864
 -1       540    8    0    1
 -2       196       195       349      1404      1867      1868
 -1       541    8    0    1
 -2       195       348       349      1865      1869      1867
 -1       542    8    0    1
 -2       197       196       350      1407      1870      1871
 -1       543    8    0    1
 -2       196       349       350      1868      1872      1870
 -1       544    8    0    1
 -2       198       197       351      1410      1873      1874
 -1       545    8    0    1
 -2       197       350       351      1871      1875      1873
 -1       546    8    0    1
 -2       199       198       352      1413      1876      1877
 -1       547    8    0    1
 -2       198       351       352      1874      1878      1876
 -1       548    8    0    1
 -2       200       199       353      1416      1879      1880
 -1       549    8    0    1
 -2       199       352       353      1877      1881      1879
 -1       550    8    0    1
 -2       201       200       354      1419      1882      1883
 -1       551    8    0    1
 -2       200       353       354      1880      1884      1882
 -1       552    8    0    1
 -2       202       201       355      1422      1885      1886
 -1       553    8    0    1
 -2       201       354       355      1883      1887      1885
 -1       554    8    0    1
 -2       203       202       356      1425      1888      1889
 -1       555    8    0    1
 -2       202       355       356      1886      1890      1888
 -1       556    8    0    1
 -2       204       203       357      1428      1891      1892
 -1       557    8    0    1
 -2       203       356       357      1889      1893      1891
 -1       558    8    0    1
 -2       205       204       358      1431      1894      1895
 -1       559    8    0    1
 -2       204       357       358      1892      1896      1894
 -1       560    8    0    1
 -2       206       205       359      1434      1897      1898
 -1       561    8    0    1
 -2       205       358       359      1895      1899      1897
 -1       562    8    0    1
 -2       207       206       360      1437      1900      1901
 -1       563    8    0    1
 -2       206       359       360      1898      1902      1900
 -1       564    8    0    1
 -2       208       207       361      1440      1903      1904
 -1       565    8    0    1
 -2       207       360       361      1901      1905      1903
 -1       566    8    0    1
 -2       209       208       362      1443      1906      1907
 -1       567    8    0    1
 -2       208       361       362      1904      1908      1906
 -1       568    8    0    1
 -2       210       209       363      1446      1909      1910
 -1       569    8    0    1
 -2       209       362       363      1907      1911      1909
 -1       570    8    0    1
 -2       211       210       364      1449      1912      1913
 -1       571    8    0    1
 -2       210       363       364      1910      1914      1912
 -1       572    8    0    1
 -2       212       211       365      1452      1915      1916
 -1       573    8    0    1
 -2       211       364       365      1913      1917      1915
 -1       574    8    0    1
 -2       213       212       366      1455      1918      1919
 -1       575    8    0    1
 -2       212       365       366      1916      1920      1918
 -1       576    8    0    1
 -2       214       213       367      1458      1921      1922
 -1       577    8    0    1
 -2       213       366       367      1919      1923      1921
 -1       578    8    0    1
 -2       215       214       368      1461      1924      1925
 -1       579    8    0    1
 -2       214       367       368      1922      1926      1924
 -1       580    8    0    1
 -2       216       215       369      1464      1927      1928
 -1       581    8    0    1
 -2       215       368       369      1925      1929      1927
 -1       582    8    0    1
 -2       217       216       370      1467      1930      1931
 -1       583    8    0    1
 -2       216       369       370      1928      1932      1930
 -1       584    8    0    1
 -2       218       217       371      1470      1933      1934
 -1       585    8    0    1
 -2       217       370       371      1931      1935      1933
 -1       586    8    0    1
 -2       219       218       372      1473      1936      1937
 -1       587    8    0    1
 -2       218       371       372      1934      1938      1936
 -1       588    8    0    1
 -2       220       219       373      1476      1939      1940
 -1       589    8    0    1
 -2       219       372       373      1937      1941      1939
 -1       590    8    0    1
 -2       221       220       374      1479      1942      1943
 -1       591    8    0    1
 -2       220       373       374      1940      1944      1942
 -1       592    8    0    1
 -2       222       221       375      1482      1945      1946
 -1       593    8    0    1
 -2       221       374       375      1943      1947      1945
 -1       594    8    0    1
 -2       223       222       376      1485      1948      1949
 -1       595    8    0    1
 -2       222       375       376      1946      1950      1948
 -1       596    8    0    1
 -2       224       223       377      1488      1951      1952
 -1       597    8    0    1
 -2       223       376       377      1949      1953      1951
 -1       598    8    0    1
 -2       225       224       378      1491      1954      1955
 -1       599    8    0    1
 -2       224       377       378      1952      1956      1954
 -1       600    8    0    1
 -2       226       225       379      1494      1957      1958
 -1       601    8    0    1
 -2       225       378       379      1955      1959      1957
 -1       602    8    0    1
 -2       227       226       380      1497      1960      1961
 -1       603    8    0    1
 -2       290       227       380      1689      1961      1962
 -1       604    8    0    1
 -2       226       379       380      1958      1963      1960
 -1       605    8    0    1
 -2       229       230       381      1508      1964      1965
 -1       606    8    0    1
 -2       229       381       334      1965      1966      1822
 -1       607    8    0    1
 -2       230       231       382      1511      1967      1968
 -1       608    8    0    1
 -2       230       382       381      1968      1969      1964
 -1       609    8    0    1
 -2       231       232       383      1514      1970      1971
 -1       610    8    0    1
 -2       231       383       382      1971      1972      1967
 -1       611    8    0    1
 -2       232       233       384      1517      1973      1974
 -1       612    8    0    1
 -2       232       384       383      1974      1975      1970
 -1       613    8    0    1
 -2       233       234       385      1520      1976      1977
 -1       614    8    0    1
 -2       233       385       384      1977      1978      1973
 -1       615    8    0    1
 -2       234       235       386      1523      1979      1980
 -1       616    8    0    1
 -2       234       386       385      1980      1981      1976
 -1       617    8    0    1
 -2       235       236       387      1526      1982      1983
 -1       618    8    0    1
 -2       235       387       386      1983      1984      1979
 -1       619    8    0    1
 -2       236       237       388      1529      1985      1986
 -1       620    8    0    1
 -2       236       388       387      1986      1987      1982
 -1       621    8    0    1
 -2       237       238       389      1532      1988      1989
 -1       622    8    0    1
 -2       237       389       388      1989      1990      1985
 -1       623    8    0    1
 -2       238       239       390      1535      1991      1992
 -1       624    8    0    1
 -2       238       390       389      1992      1993      1988
 -1       625    8    0    1
 -2       239       240       391      1538      1994      1995
 -1       626    8    0    1
 -2       239       391       390      1995      1996      1991
 -1       627    8    0    1
 -2       240       241       392      1541      1997      1998
 -1       628    8    0    1
 -2       240       392       391      1998      1999      1994
 -1       629    8    0    1
 -2       241       242       393      1544      2000      2001
 -1       630    8    0    1
 -2       241       393       392      2001      2002      1997
 -1       631    8    0    1
 -2       242       243       394      1547      2003      2004
 -1       632    8    0    1
 -2       242       394       393      2004      2005      2000
 -1       633    8    0    1
 -2       243       244       395      1550      2006      2007
 -1       634    8    0    1
 -2       243       395       394      2007      2008      2003
 -1       635    8    0    1
 -2       244       245       396      1553      2009      2010
 -1       636    8    0    1
 -2       244       396       395      2010      2011      2006
 -1       637    8    0    1
 -2       245       246       397      1556      2012      2013
 -1       638    8    0    1
 -2       245       397       396      2013      2014      2009
 -1       639    8    0    1
 -2       246       247       398      1559      2015      2016
 -1       640    8    0    1
 -2       246       398       397      2016      2017      2012
 -1       641    8    0    1
 -2       247       248       399      1562      2018      2019
 -1       642    8    0    1
 -2       247       399       398      2019      2020      2015
 -1       643    8    0    1
 -2       248       249       400      1565      2021      2022
 -1       644    8    0    1
 -2       248       400       399      2022      2023      2018
 -1       645    8    0    1
 -2       249       250       401      1568      2024      2025
 -1       646    8    0    1
 -2       249       401       400      2025      2026      2021
 -1       647    8    0    1
 -2       250       251       402      1571      2027      2028
 -1       648    8    0    1
 -2       250       402       401      2028      2029      2024
 -1       649    8    0    1
 -2       251       252       403      1574      2030      2031
 -1       650    8    0    1
 -2       251       403       402      2031      2032      2027
 -1       651    8    0    1
 -2       252       253       404      1577      2033      2034
 -1       652    8    0    1
 -2       252       404       403      2034      2035      2030
 -1       653    8    0    1
 -2       253       254       405      1580      2036      2037
 -1       654    8    0    1
 -2       253       405       404      2037      2038      2033
 -1       655    8    0    1
 -2       254       255       406      1583      2039      2040
 -1       656    8    0    1
 -2       254       406       405      2040      2041      2036
 -1       657    8    0    1
 -2       255       256       407      1586      2042      2043
 -1       658    8    0    1
 -2       255       407       406      2043      2044      2039
 -1       659    8    0    1
 -2       256       257       408      1589      2045      2046
 -1       660    8    0    1
 -2       256       408       407      2046      2047      2042
 -1       661    8    0    1
 -2       257       258       409      1592      2048      2049
 -1       662    8    0    1
 -2       257       409       408      2049      2050      2045
 -1       663    8    0    1
 -2       258       259       410      1595      2051      2052
 -1       664    8    0    1
 -2       258       410       409      2052      2053      2048
 -1       665    8    0    1
 -2       259       260       411      1598      2054      2055
 -1       666    8    0    1
 -2       259       411       410      2055      2056      2051
 -1       667    8    0    1
 -2       260       261       412      1601      2057      2058
 -1       668    8    0    1
 -2       260       412       411      2058      2059      2054
 -1       669    8    0    1
 -2       261       262       413      1604      2060      2061
 -1       670    8    0    1
 -2       261       413       412      2061      2062      2057
 -1       671    8    0    1
 -2       262       263       414      1607      2063      2064
 -1       672    8    0    1
 -2       262       414       413      2064      2065      2060
 -1       673    8    0    1
 -2       263       264       415      1610      2066      2067
 -1       674    8    0    1
 -2       263       415       414      2067      2068      2063
 -1       675    8    0    1
 -2       264       265       416      1613      2069      2070
 -1       676    8    0    1
 -2       264       416       415      2070      2071      2066
 -1       677    8    0    1
 -2       265       266       417      1616      2072      2073
 -1       678    8    0    1
 -2       265       417       416      2073      2074      2069
 -1       679    8    0    1
 -2       266       267       418      1619      2075      2076
 -1       680    8    0    1
 -2       266       418       417      2076      2077      2072
 -1       681    8    0    1
 -2       267       268       419      1622      2078      2079
 -1       682    8    0    1
 -2       267       419       418      2079      2080      2075
 -1       683    8    0    1
 -2       268       269       420      1625      2081      2082
 -1       684    8    0    1
 -2       268       420       419      2082      2083      2078
 -1       685    8    0    1
 -2       269       270       421      1628      2084      2085
 -1       686    8    0    1
 -2       269       421       420      2085      2086      2081
 -1       687    8    0    1
 -2       270       271       422      1631      2087      2088
 -1       688    8    0    1
 -2       270       422       421      2088      2089      2084
 -1       689    8    0    1
 -2       271       272       423      1634      2090      2091
 -1       690    8    0    1
 -2       271       423       422      2091      2092      2087
 -1       691    8    0    1
 -2       272       273       424      1637      2093      2094
 -1       692    8    0    1
 -2       272       424       423      2094      2095      2090
 -1       693    8    0    1
 -2       273       274       425      1640      2096      2097
 -1       694    8    0    1
 -2       273       425       424      2097      2098      2093
 -1       695    8    0    1
 -2       274       275       426      1643      2099      2100
 -1       696    8    0    1
 -2       425       274       426      2096      2100      2101
 -1       697    8    0    1
 -2       275       276       426      1751      2102      2099
 -1       698    8    0    1
 -2       278       279       427      1655      2103      2104
 -1       699    8    0    1
 -2       277       278       428      1652      2105      2106
 -1       700    8    0    1
 -2       278       427       428      2104      2107      2105
 -1       701    8    0    1
 -2       276       277       429      1649      2108      2109
 -1       702    8    0    1
 -2       426       276       429      2102      2109      2110
 -1       703    8    0    1
 -2       277       428       429      2106      2111      2108
 -1       704    8    0    1
 -2       279       280       430      1658      2112      2113
 -1       705    8    0    1
 -2       279       430       427      2113      2114      2103
 -1       706    8    0    1
 -2       280       281       431      1661      2115      2116
 -1       707    8    0    1
 -2       280       431       430      2116      2117      2112
 -1       708    8    0    1
 -2       281       282       432      1664      2118      2119
 -1       709    8    0    1
 -2       281       432       431      2119      2120      2115
 -1       710    8    0    1
 -2       282       283       433      1667      2121      2122
 -1       711    8    0    1
 -2       282       433       432      2122      2123      2118
 -1       712    8    0    1
 -2       283       284       434      1670      2124      2125
 -1       713    8    0    1
 -2       283       434       433      2125      2126      2121
 -1       714    8    0    1
 -2       284       285       435      1673      2127      2128
 -1       715    8    0    1
 -2       284       435       434      2128      2129      2124
 -1       716    8    0    1
 -2       285       286       436      1676      2130      2131
 -1       717    8    0    1
 -2       285       436       435      2131      2132      2127
 -1       718    8    0    1
 -2       286       287       437      1679      2133      2134
 -1       719    8    0    1
 -2       286       437       436      2134      2135      2130
 -1       720    8    0    1
 -2       287       288       438      1682      2136      2137
 -1       721    8    0    1
 -2       287       438       437      2137      2138      2133
 -1       722    8    0    1
 -2       288       289       439      1685      2139      2140
 -1       723    8    0    1
 -2       288       439       438      2140      2141      2136
 -1       724    8    0    1
 -2       292       293       440      1753      2142      2143
 -1       725    8    0    1
 -2       319       291       441      1754      2144      2145
 -1       726    8    0    1
 -2       291       292       442      1752      2146      2147
 -1       727    8    0    1
 -2       293       294       443      1749      2148      2149
 -1       728    8    0    1
 -2       293       443       440      2149      2150      2142
 -1       729    8    0    1
 -2       294       295       444      1748      2151      2152
 -1       730    8    0    1
 -2       166       167       445      1317      2153      2154
 -1       731    8    0    1
 -2       320       166       445      1780      2154      2155
 -1       732    8    0    1
 -2       167       322       445      1786      2156      2153
 -1       733    8    0    1
 -2       296       297       446      1756      2157      2158
 -1       734    8    0    1
 -2       297       298       447      1757      2159      2160
 -1       735    8    0    1
 -2       298       299       448      1758      2161      2162
 -1       736    8    0    1
 -2       299       300       449      1759      2163      2164
 -1       737    8    0    1
 -2       300       301       450      1760      2165      2166
 -1       738    8    0    1
 -2       300       450       449      2166      2167      2163
 -1       739    8    0    1
 -2       301       302       451      1761      2168      2169
 -1       740    8    0    1
 -2       302       303       452      1762      2170      2171
 -1       741    8    0    1
 -2       303       304       453      1763      2172      2173
 -1       742    8    0    1
 -2       304       305       454      1764      2174      2175
 -1       743    8    0    1
 -2       305       306       455      1765      2176      2177
 -1       744    8    0    1
 -2       306       307       456      1766      2178      2179
 -1       745    8    0    1
 -2       307       308       457      1767      2180      2181
 -1       746    8    0    1
 -2       307       457       456      2181      2182      2178
 -1       747    8    0    1
 -2       308       309       458      1768      2183      2184
 -1       748    8    0    1
 -2       309       310       459      1769      2185      2186
 -1       749    8    0    1
 -2       310       311       460      1770      2187      2188
 -1       750    8    0    1
 -2       311       312       461      1771      2189      2190
 -1       751    8    0    1
 -2       312       313       462      1772      2191      2192
 -1       752    8    0    1
 -2       312       462       461      2192      2193      2189
 -1       753    8    0    1
 -2       313       314       463      1773      2194      2195
 -1       754    8    0    1
 -2       314       315       464      1774      2196      2197
 -1       755    8    0    1
 -2       315       316       465      1775      2198      2199
 -1       756    8    0    1
 -2       316       317       466      1776      2200      2201
 -1       757    8    0    1
 -2       316       466       465      2201      2202      2198
 -1       758    8    0    1
 -2       317       318       467      1777      2203      2204
 -1       759    8    0    1
 -2       318       319       468      1778      2205      2206
 -1       760    8    0    1
 -2       295       296       469      1755      2207      2208
 -1       761    8    0    1
 -2       295       469       444      2208      2209      2151
 -1       762    8    0    1
 -2       443       294       470      2148      2210      2211
 -1       763    8    0    1
 -2       294       444       470      2152      2212      2210
 -1       764    8    0    1
 -2       180       321       181      1825      2213      1359
 -1       765    8    0    1
 -2       296       446       469      2158      2214      2207
 -1       766    8    0    1
 -2       335       181       321      1826      2213      2215
 -1       767    8    0    1
 -2       442       292       440      2146      2143      2216
 -1       768    8    0    1
 -2       441       291       442      2144      2147      2217
 -1       769    8    0    1
 -2       439       289       290      2139      1688      2218
 -1       770    8    0    1
 -2       319       441       468      2145      2219      2205
 -1       771    8    0    1
 -2       466       317       467      2200      2204      2220
 -1       772    8    0    1
 -2       464       315       465      2196      2199      2221
 -1       773    8    0    1
 -2       462       313       471      2191      2222      2223
 -1       774    8    0    1
 -2       313       463       471      2195      2224      2222
 -1       775    8    0    1
 -2       460       311       461      2187      2190      2225
 -1       776    8    0    1
 -2       459       310       460      2185      2188      2226
 -1       777    8    0    1
 -2       457       308       458      2180      2184      2227
 -1       778    8    0    1
 -2       455       306       456      2176      2179      2228
 -1       779    8    0    1
 -2       454       305       455      2174      2177      2229
 -1       780    8    0    1
 -2       453       304       454      2172      2175      2230
 -1       781    8    0    1
 -2       452       303       472      2170      2231      2232
 -1       782    8    0    1
 -2       303       453       472      2173      2233      2231
 -1       783    8    0    1
 -2       450       301       451      2165      2169      2234
 -1       784    8    0    1
 -2       448       299       449      2161      2164      2235
 -1       785    8    0    1
 -2       446       297       447      2157      2160      2236
 -1       786    8    0    1
 -2       447       298       448      2159      2162      2237
 -1       787    8    0    1
 -2       451       302       452      2168      2171      2238
 -1       788    8    0    1
 -2       458       309       459      2183      2186      2239
 -1       789    8    0    1
 -2       463       314       464      2194      2197      2240
 -1       790    8    0    1
 -2       467       318       468      2203      2206      2241
 -1       791    8    0    1
 -2       334       381       473      1966      2242      2243
 -1       792    8    0    1
 -2       323       324       474      1792      2244      2245
 -1       793    8    0    1
 -2       322       323       475      1789      2246      2247
 -1       794    8    0    1
 -2       323       474       475      2245      2248      2246
 -1       795    8    0    1
 -2       325       326       476      1798      2249      2250
 -1       796    8    0    1
 -2       326       327       477      1801      2251      2252
 -1       797    8    0    1
 -2       326       477       476      2252      2253      2249
 -1       798    8    0    1
 -2       327       328       478      1804      2254      2255
 -1       799    8    0    1
 -2       327       478       477      2255      2256      2251
 -1       800    8    0    1
 -2       328       329       479      1807      2257      2258
 -1       801    8    0    1
 -2       328       479       478      2258      2259      2254
 -1       802    8    0    1
 -2       329       330       480      1810      2260      2261
 -1       803    8    0    1
 -2       329       480       479      2261      2262      2257
 -1       804    8    0    1
 -2       330       331       481      1813      2263      2264
 -1       805    8    0    1
 -2       330       481       480      2264      2265      2260
 -1       806    8    0    1
 -2       381       382       482      1969      2266      2267
 -1       807    8    0    1
 -2       381       482       473      2267      2268      2242
 -1       808    8    0    1
 -2       336       335       483      1830      2269      2270
 -1       809    8    0    1
 -2       469       446       484      2214      2271      2272
 -1       810    8    0    1
 -2       337       336       485      1833      2273      2274
 -1       811    8    0    1
 -2       336       483       485      2270      2275      2273
 -1       812    8    0    1
 -2       338       337       486      1836      2276      2277
 -1       813    8    0    1
 -2       337       485       486      2274      2278      2276
 -1       814    8    0    1
 -2       339       338       487      1839      2279      2280
 -1       815    8    0    1
 -2       338       486       487      2277      2281      2279
 -1       816    8    0    1
 -2       340       339       488      1842      2282      2283
 -1       817    8    0    1
 -2       339       487       488      2280      2284      2282
 -1       818    8    0    1
 -2       341       340       489      1845      2285      2286
 -1       819    8    0    1
 -2       340       488       489      2283      2287      2285
 -1       820    8    0    1
 -2       342       341       490      1848      2288      2289
 -1       821    8    0    1
 -2       341       489       490      2286      2290      2288
 -1       822    8    0    1
 -2       343       342       491      1851      2291      2292
 -1       823    8    0    1
 -2       342       490       491      2289      2293      2291
 -1       824    8    0    1
 -2       344       343       492      1854      2294      2295
 -1       825    8    0    1
 -2       343       491       492      2292      2296      2294
 -1       826    8    0    1
 -2       345       344       493      1857      2297      2298
 -1       827    8    0    1
 -2       344       492       493      2295      2299      2297
 -1       828    8    0    1
 -2       346       345       494      1860      2300      2301
 -1       829    8    0    1
 -2       345       493       494      2298      2302      2300
 -1       830    8    0    1
 -2       347       346       495      1863      2303      2304
 -1       831    8    0    1
 -2       346       494       495      2301      2305      2303
 -1       832    8    0    1
 -2       348       347       496      1866      2306      2307
 -1       833    8    0    1
 -2       347       495       496      2304      2308      2306
 -1       834    8    0    1
 -2       349       348       497      1869      2309      2310
 -1       835    8    0    1
 -2       348       496       497      2307      2311      2309
 -1       836    8    0    1
 -2       350       349       498      1872      2312      2313
 -1       837    8    0    1
 -2       349       497       498      2310      2314      2312
 -1       838    8    0    1
 -2       351       350       499      1875      2315      2316
 -1       839    8    0    1
 -2       350       498       499      2313      2317      2315
 -1       840    8    0    1
 -2       352       351       500      1878      2318      2319
 -1       841    8    0    1
 -2       351       499       500      2316      2320      2318
 -1       842    8    0    1
 -2       353       352       501      1881      2321      2322
 -1       843    8    0    1
 -2       352       500       501      2319      2323      2321
 -1       844    8    0    1
 -2       354       353       502      1884      2324      2325
 -1       845    8    0    1
 -2       353       501       502      2322      2326      2324
 -1       846    8    0    1
 -2       355       354       503      1887      2327      2328
 -1       847    8    0    1
 -2       354       502       503      2325      2329      2327
 -1       848    8    0    1
 -2       356       355       504      1890      2330      2331
 -1       849    8    0    1
 -2       355       503       504      2328      2332      2330
 -1       850    8    0    1
 -2       357       356       505      1893      2333      2334
 -1       851    8    0    1
 -2       356       504       505      2331      2335      2333
 -1       852    8    0    1
 -2       358       357       506      1896      2336      2337
 -1       853    8    0    1
 -2       357       505       506      2334      2338      2336
 -1       854    8    0    1
 -2       359       358       507      1899      2339      2340
 -1       855    8    0    1
 -2       358       506       507      2337      2341      2339
 -1       856    8    0    1
 -2       360       359       508      1902      2342      2343
 -1       857    8    0    1
 -2       359       507       508      2340      2344      2342
 -1       858    8    0    1
 -2       361       360       509      1905      2345      2346
 -1       859    8    0    1
 -2       360       508       509      2343      2347      2345
 -1       860    8    0    1
 -2       362       361       510      1908      2348      2349
 -1       861    8    0    1
 -2       361       509       510      2346      2350      2348
 -1       862    8    0    1
 -2       363       362       511      1911      2351      2352
 -1       863    8    0    1
 -2       362       510       511      2349      2353      2351
 -1       864    8    0    1
 -2       364       363       512      1914      2354      2355
 -1       865    8    0    1
 -2       363       511       512      2352      2356      2354
 -1       866    8    0    1
 -2       365       364       513      1917      2357      2358
 -1       867    8    0    1
 -2       364       512       513      2355      2359      2357
 -1       868    8    0    1
 -2       366       365       514      1920      2360      2361
 -1       869    8    0    1
 -2       365       513       514      2358      2362      2360
 -1       870    8    0    1
 -2       367       366       515      1923      2363      2364
 -1       871    8    0    1
 -2       366       514       515      2361      2365      2363
 -1       872    8    0    1
 -2       368       367       516      1926      2366      2367
 -1       873    8    0    1
 -2       367       515       516      2364      2368      2366
 -1       874    8    0    1
 -2       369       368       517      1929      2369      2370
 -1       875    8    0    1
 -2       368       516       517      2367      2371      2369
 -1       876    8    0    1
 -2       370       369       518      1932      2372      2373
 -1       877    8    0    1
 -2       369       517       518      2370      2374      2372
 -1       878    8    0    1
 -2       371       370       519      1935      2375      2376
 -1       879    8    0    1
 -2       370       518       519      2373      2377      2375
 -1       880    8    0    1
 -2       372       371       520      1938      2378      2379
 -1       881    8    0    1
 -2       371       519       520      2376      2380      2378
 -1       882    8    0    1
 -2       373       372       521      1941      2381      2382
 -1       883    8    0    1
 -2       372       520       521      2379      2383      2381
 -1       884    8    0    1
 -2       374       373       522      1944      2384      2385
 -1       885    8    0    1
 -2       373       521       522      2382      2386      2384
 -1       886    8    0    1
 -2       375       374       523      1947      2387      2388
 -1       887    8    0    1
 -2       374       522       523      2385      2389      2387
 -1       888    8    0    1
 -2       376       375       524      1950      2390      2391
 -1       889    8    0    1
 -2       375       523       524      2388      2392      2390
 -1       890    8    0    1
 -2       377       376       525      1953      2393      2394
 -1       891    8    0    1
 -2       376       524       525      2391      2395      2393
 -1       892    8    0    1
 -2       378       377       526      1956      2396      2397
 -1       893    8    0    1
 -2       377       525       526      2394      2398      2396
 -1       894    8    0    1
 -2       379       378       527      1959      2399      2400
 -1       895    8    0    1
 -2       378       526       527      2397      2401      2399
 -1       896    8    0    1
 -2       383       384       449      1975      2402      2403
 -1       897    8    0    1
 -2       386       387       484      1984      2404      2405
 -1       898    8    0    1
 -2       387       388       528      1987      2406      2407
 -1       899    8    0    1
 -2       388       389       529      1990      2408      2409
 -1       900    8    0    1
 -2       389       390       530      1993      2410      2411
 -1       901    8    0    1
 -2       389       530       529      2411      2412      2408
 -1       902    8    0    1
 -2       390       391       531      1996      2413      2414
 -1       903    8    0    1
 -2       390       531       530      2414      2415      2410
 -1       904    8    0    1
 -2       391       392       532      1999      2416      2417
 -1       905    8    0    1
 -2       391       532       531      2417      2418      2413
 -1       906    8    0    1
 -2       392       393       533      2002      2419      2420
 -1       907    8    0    1
 -2       392       533       532      2420      2421      2416
 -1       908    8    0    1
 -2       393       394       534      2005      2422      2423
 -1       909    8    0    1
 -2       393       534       533      2423      2424      2419
 -1       910    8    0    1
 -2       394       395       535      2008      2425      2426
 -1       911    8    0    1
 -2       394       535       534      2426      2427      2422
 -1       912    8    0    1
 -2       395       396       536      2011      2428      2429
 -1       913    8    0    1
 -2       395       536       535      2429      2430      2425
 -1       914    8    0    1
 -2       396       397       537      2014      2431      2432
 -1       915    8    0    1
 -2       396       537       536      2432      2433      2428
 -1       916    8    0    1
 -2       397       398       538      2017      2434      2435
 -1       917    8    0    1
 -2       397       538       537      2435      2436      2431
 -1       918    8    0    1
 -2       398       399       539      2020      2437      2438
 -1       919    8    0    1
 -2       398       539       538      2438      2439      2434
 -1       920    8    0    1
 -2       399       400       540      2023      2440      2441
 -1       921    8    0    1
 -2       399       540       539      2441      2442      2437
 -1       922    8    0    1
 -2       400       401       541      2026      2443      2444
 -1       923    8    0    1
 -2       400       541       540      2444      2445      2440
 -1       924    8    0    1
 -2       401       402       542      2029      2446      2447
 -1       925    8    0    1
 -2       401       542       541      2447      2448      2443
 -1       926    8    0    1
 -2       402       403       543      2032      2449      2450
 -1       927    8    0    1
 -2       402       543       542      2450      2451      2446
 -1       928    8    0    1
 -2       403       404       544      2035      2452      2453
 -1       929    8    0    1
 -2       403       544       543      2453      2454      2449
 -1       930    8    0    1
 -2       404       405       545      2038      2455      2456
 -1       931    8    0    1
 -2       404       545       544      2456      2457      2452
 -1       932    8    0    1
 -2       405       406       546      2041      2458      2459
 -1       933    8    0    1
 -2       405       546       545      2459      2460      2455
 -1       934    8    0    1
 -2       406       407       547      2044      2461      2462
 -1       935    8    0    1
 -2       406       547       546      2462      2463      2458
 -1       936    8    0    1
 -2       407       408       548      2047      2464      2465
 -1       937    8    0    1
 -2       407       548       547      2465      2466      2461
 -1       938    8    0    1
 -2       408       409       549      2050      2467      2468
 -1       939    8    0    1
 -2       408       549       548      2468      2469      2464
 -1       940    8    0    1
 -2       409       410       550      2053      2470      2471
 -1       941    8    0    1
 -2       409       550       549      2471      2472      2467
 -1       942    8    0    1
 -2       410       411       551      2056      2473      2474
 -1       943    8    0    1
 -2       410       551       550      2474      2475      2470
 -1       944    8    0    1
 -2       411       412       552      2059      2476      2477
 -1       945    8    0    1
 -2       411       552       551      2477      2478      2473
 -1       946    8    0    1
 -2       412       413       553      2062      2479      2480
 -1       947    8    0    1
 -2       412       553       552      2480      2481      2476
 -1       948    8    0    1
 -2       413       414       554      2065      2482      2483
 -1       949    8    0    1
 -2       413       554       553      2483      2484      2479
 -1       950    8    0    1
 -2       414       415       555      2068      2485      2486
 -1       951    8    0    1
 -2       414       555       554      2486      2487      2482
 -1       952    8    0    1
 -2       415       416       556      2071      2488      2489
 -1       953    8    0    1
 -2       415       556       555      2489      2490      2485
 -1       954    8    0    1
 -2       416       417       557      2074      2491      2492
 -1       955    8    0    1
 -2       416       557       556      2492      2493      2488
 -1       956    8    0    1
 -2       417       418       558      2077      2494      2495
 -1       957    8    0    1
 -2       417       558       557      2495      2496      2491
 -1       958    8    0    1
 -2       418       419       559      2080      2497      2498
 -1       959    8    0    1
 -2       418       559       558      2498      2499      2494
 -1       960    8    0    1
 -2       419       420       560      2083      2500      2501
 -1       961    8    0    1
 -2       419       560       559      2501      2502      2497
 -1       962    8    0    1
 -2       420       421       561      2086      2503      2504
 -1       963    8    0    1
 -2       420       561       560      2504      2505      2500
 -1       964    8    0    1
 -2       421       422       562      2089      2506      2507
 -1       965    8    0    1
 -2       421       562       561      2507      2508      2503
 -1       966    8    0    1
 -2       422       423       563      2092      2509      2510
 -1       967    8    0    1
 -2       422       563       562      2510      2511      2506
 -1       968    8    0    1
 -2       423       424       564      2095      2512      2513
 -1       969    8    0    1
 -2       423       564       563      2513      2514      2509
 -1       970    8    0    1
 -2       424       425       565      2098      2515      2516
 -1       971    8    0    1
 -2       424       565       564      2516      2517      2512
 -1       972    8    0    1
 -2       425       426       429      2101      2110      2518
 -1       973    8    0    1
 -2       430       431       566      2117      2519      2520
 -1       974    8    0    1
 -2       431       432       567      2120      2521      2522
 -1       975    8    0    1
 -2       431       567       566      2522      2523      2519
 -1       976    8    0    1
 -2       428       427       568      2107      2524      2525
 -1       977    8    0    1
 -2       427       430       569      2114      2526      2527
 -1       978    8    0    1
 -2       568       427       569      2524      2527      2528
 -1       979    8    0    1
 -2       430       566       569      2520      2529      2526
 -1       980    8    0    1
 -2       432       433       570      2123      2530      2531
 -1       981    8    0    1
 -2       432       570       567      2531      2532      2521
 -1       982    8    0    1
 -2       433       434       571      2126      2533      2534
 -1       983    8    0    1
 -2       433       571       570      2534      2535      2530
 -1       984    8    0    1
 -2       434       435       572      2129      2536      2537
 -1       985    8    0    1
 -2       434       572       571      2537      2538      2533
 -1       986    8    0    1
 -2       435       436       573      2132      2539      2540
 -1       987    8    0    1
 -2       435       573       572      2540      2541      2536
 -1       988    8    0    1
 -2       436       437       574      2135      2542      2543
 -1       989    8    0    1
 -2       436       574       573      2543      2544      2539
 -1       990    8    0    1
 -2       437       438       575      2138      2545      2546
 -1       991    8    0    1
 -2       437       575       574      2546      2547      2542
 -1       992    8    0    1
 -2       438       439       576      2141      2548      2549
 -1       993    8    0    1
 -2       438       576       575      2549      2550      2545
 -1       994    8    0    1
 -2       441       442       577      2217      2551      2552
 -1       995    8    0    1
 -2       442       440       578      2216      2553      2554
 -1       996    8    0    1
 -2       468       441       579      2219      2555      2556
 -1       997    8    0    1
 -2       441       577       579      2552      2557      2555
 -1       998    8    0    1
 -2       439       290       380      2218      1962      2558
 -1       999    8    0    1
 -2       440       443       580      2150      2559      2560
 -1      1000    8    0    1
 -2       440       580       578      2560      2561      2553
 -1      1001    8    0    1
 -2       335       321       581      2215      2562      2563
 -1      1002    8    0    1
 -2       483       335       581      2269      2563      2564
 -1      1003    8    0    1
 -2       321       320       581      1784      2565      2562
 -1      1004    8    0    1
 -2       466       467       582      2220      2566      2567
 -1      1005    8    0    1
 -2       464       465       583      2221      2568      2569
 -1      1006    8    0    1
 -2       460       461       584      2225      2570      2571
 -1      1007    8    0    1
 -2       455       456       585      2228      2572      2573
 -1      1008    8    0    1
 -2       448       449       384      2235      2402      2574
 -1      1009    8    0    1
 -2       324       325       586      1795      2575      2576
 -1      1010    8    0    1
 -2       474       324       586      2244      2576      2577
 -1      1011    8    0    1
 -2       325       476       586      2250      2578      2575
 -1      1012    8    0    1
 -2       451       452       587      2238      2579      2580
 -1      1013    8    0    1
 -2       446       447       588      2236      2581      2582
 -1      1014    8    0    1
 -2       458       459       589      2239      2583      2584
 -1      1015    8    0    1
 -2       450       451       590      2234      2585      2586
 -1      1016    8    0    1
 -2       453       454       591      2230      2587      2588
 -1      1017    8    0    1
 -2       454       455       592      2229      2589      2590
 -1      1018    8    0    1
 -2       454       592       591      2590      2591      2587
 -1      1019    8    0    1
 -2       456       457       593      2182      2592      2593
 -1      1020    8    0    1
 -2       463       464       594      2240      2594      2595
 -1      1021    8    0    1
 -2       457       458       595      2227      2596      2597
 -1      1022    8    0    1
 -2       459       460       596      2226      2598      2599
 -1      1023    8    0    1
 -2       460       584       596      2571      2600      2598
 -1      1024    8    0    1
 -2       461       462       597      2193      2601      2602
 -1      1025    8    0    1
 -2       467       468       598      2241      2603      2604
 -1      1026    8    0    1
 -2       465       466       599      2202      2605      2606
 -1      1027    8    0    1
 -2       444       469       528      2209      2607      2608
 -1      1028    8    0    1
 -2       333       334       600      1824      2609      2610
 -1      1029    8    0    1
 -2       332       333       600      1819      2610      2611
 -1      1030    8    0    1
 -2       334       473       600      2243      2612      2609
 -1      1031    8    0    1
 -2       451       587       590      2580      2613      2585
 -1      1032    8    0    1
 -2       322       475       601      2247      2614      2615
 -1      1033    8    0    1
 -2       322       601       445      2615      2616      2156
 -1      1034    8    0    1
 -2       482       382       602      2266      2617      2618
 -1      1035    8    0    1
 -2       331       332       600      1816      2611      2619
 -1      1036    8    0    1
 -2       528       469       484      2607      2272      2620
 -1      1037    8    0    1
 -2       582       467       598      2566      2604      2621
 -1      1038    8    0    1
 -2       599       466       582      2605      2567      2622
 -1      1039    8    0    1
 -2       598       468       579      2603      2556      2623
 -1      1040    8    0    1
 -2       386       484       446      2405      2271      2624
 -1      1041    8    0    1
 -2       384       385       448      1978      2625      2574
 -1      1042    8    0    1
 -2       387       528       484      2407      2620      2404
 -1      1043    8    0    1
 -2       388       529       528      2409      2626      2406
 -1      1044    8    0    1
 -2       425       429       565      2518      2627      2515
 -1      1045    8    0    1
 -2       429       428       603      2111      2628      2629
 -1      1046    8    0    1
 -2       565       429       603      2627      2629      2630
 -1      1047    8    0    1
 -2       428       568       603      2525      2631      2628
 -1      1048    8    0    1
 -2       595       458       589      2596      2584      2632
 -1      1049    8    0    1
 -2       439       380       604      2558      2633      2634
 -1      1050    8    0    1
 -2       576       439       604      2548      2634      2635
 -1      1051    8    0    1
 -2       380       379       604      1963      2636      2633
 -1      1052    8    0    1
 -2       577       442       605      2551      2637      2638
 -1      1053    8    0    1
 -2       442       578       605      2554      2639      2637
 -1      1054    8    0    1
 -2       594       464       583      2594      2569      2640
 -1      1055    8    0    1
 -2       448       385       447      2625      2641      2237
 -1      1056    8    0    1
 -2       602       382       383      2617      1972      2642
 -1      1057    8    0    1
 -2       331       600       481      2619      2643      2263
 -1      1058    8    0    1
 -2       604       379       527      2636      2400      2644
 -1      1059    8    0    1
 -2       584       461       597      2570      2602      2645
 -1      1060    8    0    1
 -2       592       455       585      2589      2573      2646
 -1      1061    8    0    1
 -2       580       443       606      2559      2647      2648
 -1      1062    8    0    1
 -2       443       470       606      2211      2649      2647
 -1      1063    8    0    1
 -2       581       320       445      2565      2155      2650
 -1      1064    8    0    1
 -2       583       465       599      2568      2606      2651
 -1      1065    8    0    1
 -2       447       385       588      2641      2652      2581
 -1      1066    8    0    1
 -2       456       593       585      2593      2653      2572
 -1      1067    8    0    1
 -2       471       463       594      2224      2595      2654
 -1      1068    8    0    1
 -2       589       459       596      2583      2599      2655
 -1      1069    8    0    1
 -2       472       453       591      2233      2588      2656
 -1      1070    8    0    1
 -2       450       590       607      2586      2657      2658
 -1      1071    8    0    1
 -2       450       607       449      2658      2659      2167
 -1      1072    8    0    1
 -2       452       472       608      2232      2660      2661
 -1      1073    8    0    1
 -2       452       608       587      2661      2662      2579
 -1      1074    8    0    1
 -2       593       457       595      2592      2597      2663
 -1      1075    8    0    1
 -2       597       462       471      2601      2223      2664
 -1      1076    8    0    1
 -2       444       528       470      2608      2665      2212
 -1      1077    8    0    1
 -2       477       478       609      2256      2666      2667
 -1      1078    8    0    1
 -2       476       477       610      2253      2668      2669
 -1      1079    8    0    1
 -2       477       609       610      2667      2670      2668
 -1      1080    8    0    1
 -2       479       480       611      2262      2671      2672
 -1      1081    8    0    1
 -2       480       481       612      2265      2673      2674
 -1      1082    8    0    1
 -2       473       482       613      2268      2675      2676
 -1      1083    8    0    1
 -2       604       527       614      2644      2677      2678
 -1      1084    8    0    1
 -2       604       614       576      2678      2679      2635
 -1      1085    8    0    1
 -2       600       473       481      2612      2680      2643
 -1      1086    8    0    1
 -2       582       598       615      2621      2681      2682
 -1      1087    8    0    1
 -2       584       597       616      2645      2683      2684
 -1      1088    8    0    1
 -2       578       580       617      2561      2685      2686
 -1      1089    8    0    1
 -2       486       485       618      2278      2687      2688
 -1      1090    8    0    1
 -2       487       486       619      2281      2689      2690
 -1      1091    8    0    1
 -2       486       618       619      2688      2691      2689
 -1      1092    8    0    1
 -2       488       487       620      2284      2692      2693
 -1      1093    8    0    1
 -2       487       619       620      2690      2694      2692
 -1      1094    8    0    1
 -2       489       488       621      2287      2695      2696
 -1      1095    8    0    1
 -2       488       620       621      2693      2697      2695
 -1      1096    8    0    1
 -2       490       489       622      2290      2698      2699
 -1      1097    8    0    1
 -2       489       621       622      2696      2700      2698
 -1      1098    8    0    1
 -2       491       490       623      2293      2701      2702
 -1      1099    8    0    1
 -2       490       622       623      2699      2703      2701
 -1      1100    8    0    1
 -2       492       491       624      2296      2704      2705
 -1      1101    8    0    1
 -2       491       623       624      2702      2706      2704
 -1      1102    8    0    1
 -2       493       492       625      2299      2707      2708
 -1      1103    8    0    1
 -2       492       624       625      2705      2709      2707
 -1      1104    8    0    1
 -2       494       493       626      2302      2710      2711
 -1      1105    8    0    1
 -2       493       625       626      2708      2712      2710
 -1      1106    8    0    1
 -2       495       494       627      2305      2713      2714
 -1      1107    8    0    1
 -2       494       626       627      2711      2715      2713
 -1      1108    8    0    1
 -2       496       495       628      2308      2716      2717
 -1      1109    8    0    1
 -2       495       627       628      2714      2718      2716
 -1      1110    8    0    1
 -2       497       496       629      2311      2719      2720
 -1      1111    8    0    1
 -2       496       628       629      2717      2721      2719
 -1      1112    8    0    1
 -2       498       497       630      2314      2722      2723
 -1      1113    8    0    1
 -2       497       629       630      2720      2724      2722
 -1      1114    8    0    1
 -2       499       498       631      2317      2725      2726
 -1      1115    8    0    1
 -2       498       630       631      2723      2727      2725
 -1      1116    8    0    1
 -2       500       499       632      2320      2728      2729
 -1      1117    8    0    1
 -2       499       631       632      2726      2730      2728
 -1      1118    8    0    1
 -2       501       500       633      2323      2731      2732
 -1      1119    8    0    1
 -2       500       632       633      2729      2733      2731
 -1      1120    8    0    1
 -2       502       501       634      2326      2734      2735
 -1      1121    8    0    1
 -2       501       633       634      2732      2736      2734
 -1      1122    8    0    1
 -2       503       502       635      2329      2737      2738
 -1      1123    8    0    1
 -2       502       634       635      2735      2739      2737
 -1      1124    8    0    1
 -2       504       503       636      2332      2740      2741
 -1      1125    8    0    1
 -2       503       635       636      2738      2742      2740
 -1      1126    8    0    1
 -2       505       504       637      2335      2743      2744
 -1      1127    8    0    1
 -2       504       636       637      2741      2745      2743
 -1      1128    8    0    1
 -2       506       505       638      2338      2746      2747
 -1      1129    8    0    1
 -2       505       637       638      2744      2748      2746
 -1      1130    8    0    1
 -2       507       506       639      2341      2749      2750
 -1      1131    8    0    1
 -2       506       638       639      2747      2751      2749
 -1      1132    8    0    1
 -2       508       507       640      2344      2752      2753
 -1      1133    8    0    1
 -2       507       639       640      2750      2754      2752
 -1      1134    8    0    1
 -2       509       508       641      2347      2755      2756
 -1      1135    8    0    1
 -2       508       640       641      2753      2757      2755
 -1      1136    8    0    1
 -2       510       509       642      2350      2758      2759
 -1      1137    8    0    1
 -2       509       641       642      2756      2760      2758
 -1      1138    8    0    1
 -2       511       510       643      2353      2761      2762
 -1      1139    8    0    1
 -2       510       642       643      2759      2763      2761
 -1      1140    8    0    1
 -2       512       511       644      2356      2764      2765
 -1      1141    8    0    1
 -2       511       643       644      2762      2766      2764
 -1      1142    8    0    1
 -2       513       512       645      2359      2767      2768
 -1      1143    8    0    1
 -2       512       644       645      2765      2769      2767
 -1      1144    8    0    1
 -2       514       513       646      2362      2770      2771
 -1      1145    8    0    1
 -2       513       645       646      2768      2772      2770
 -1      1146    8    0    1
 -2       515       514       647      2365      2773      2774
 -1      1147    8    0    1
 -2       514       646       647      2771      2775      2773
 -1      1148    8    0    1
 -2       516       515       648      2368      2776      2777
 -1      1149    8    0    1
 -2       515       647       648      2774      2778      2776
 -1      1150    8    0    1
 -2       517       516       649      2371      2779      2780
 -1      1151    8    0    1
 -2       516       648       649      2777      2781      2779
 -1      1152    8    0    1
 -2       518       517       650      2374      2782      2783
 -1      1153    8    0    1
 -2       517       649       650      2780      2784      2782
 -1      1154    8    0    1
 -2       519       518       651      2377      2785      2786
 -1      1155    8    0    1
 -2       518       650       651      2783      2787      2785
 -1      1156    8    0    1
 -2       520       519       652      2380      2788      2789
 -1      1157    8    0    1
 -2       519       651       652      2786      2790      2788
 -1      1158    8    0    1
 -2       521       520       653      2383      2791      2792
 -1      1159    8    0    1
 -2       520       652       653      2789      2793      2791
 -1      1160    8    0    1
 -2       522       521       654      2386      2794      2795
 -1      1161    8    0    1
 -2       521       653       654      2792      2796      2794
 -1      1162    8    0    1
 -2       523       522       655      2389      2797      2798
 -1      1163    8    0    1
 -2       522       654       655      2795      2799      2797
 -1      1164    8    0    1
 -2       524       523       656      2392      2800      2801
 -1      1165    8    0    1
 -2       523       655       656      2798      2802      2800
 -1      1166    8    0    1
 -2       525       524       657      2395      2803      2804
 -1      1167    8    0    1
 -2       524       656       657      2801      2805      2803
 -1      1168    8    0    1
 -2       526       525       658      2398      2806      2807
 -1      1169    8    0    1
 -2       525       657       658      2804      2808      2806
 -1      1170    8    0    1
 -2       527       526       659      2401      2809      2810
 -1      1171    8    0    1
 -2       614       527       659      2677      2810      2811
 -1      1172    8    0    1
 -2       526       658       659      2807      2812      2809
 -1      1173    8    0    1
 -2       596       584       660      2600      2813      2814
 -1      1174    8    0    1
 -2       385       386       588      1981      2815      2652
 -1      1175    8    0    1
 -2       529       530       661      2412      2816      2817
 -1      1176    8    0    1
 -2       532       533       662      2421      2818      2819
 -1      1177    8    0    1
 -2       533       534       663      2424      2820      2821
 -1      1178    8    0    1
 -2       533       663       662      2821      2822      2818
 -1      1179    8    0    1
 -2       534       535       664      2427      2823      2824
 -1      1180    8    0    1
 -2       534       664       663      2824      2825      2820
 -1      1181    8    0    1
 -2       535       536       665      2430      2826      2827
 -1      1182    8    0    1
 -2       535       665       664      2827      2828      2823
 -1      1183    8    0    1
 -2       536       537       666      2433      2829      2830
 -1      1184    8    0    1
 -2       536       666       665      2830      2831      2826
 -1      1185    8    0    1
 -2       537       538       667      2436      2832      2833
 -1      1186    8    0    1
 -2       537       667       666      2833      2834      2829
 -1      1187    8    0    1
 -2       538       539       668      2439      2835      2836
 -1      1188    8    0    1
 -2       538       668       667      2836      2837      2832
 -1      1189    8    0    1
 -2       539       540       669      2442      2838      2839
 -1      1190    8    0    1
 -2       539       669       668      2839      2840      2835
 -1      1191    8    0    1
 -2       540       541       670      2445      2841      2842
 -1      1192    8    0    1
 -2       540       670       669      2842      2843      2838
 -1      1193    8    0    1
 -2       541       542       671      2448      2844      2845
 -1      1194    8    0    1
 -2       541       671       670      2845      2846      2841
 -1      1195    8    0    1
 -2       542       543       672      2451      2847      2848
 -1      1196    8    0    1
 -2       542       672       671      2848      2849      2844
 -1      1197    8    0    1
 -2       543       544       673      2454      2850      2851
 -1      1198    8    0    1
 -2       543       673       672      2851      2852      2847
 -1      1199    8    0    1
 -2       544       545       674      2457      2853      2854
 -1      1200    8    0    1
 -2       544       674       673      2854      2855      2850
 -1      1201    8    0    1
 -2       545       546       675      2460      2856      2857
 -1      1202    8    0    1
 -2       545       675       674      2857      2858      2853
 -1      1203    8    0    1
 -2       546       547       676      2463      2859      2860
 -1      1204    8    0    1
 -2       546       676       675      2860      2861      2856
 -1      1205    8    0    1
 -2       547       548       677      2466      2862      2863
 -1      1206    8    0    1
 -2       547       677       676      2863      2864      2859
 -1      1207    8    0    1
 -2       548       549       678      2469      2865      2866
 -1      1208    8    0    1
 -2       548       678       677      2866      2867      2862
 -1      1209    8    0    1
 -2       549       550       679      2472      2868      2869
 -1      1210    8    0    1
 -2       549       679       678      2869      2870      2865
 -1      1211    8    0    1
 -2       550       551       680      2475      2871      2872
 -1      1212    8    0    1
 -2       550       680       679      2872      2873      2868
 -1      1213    8    0    1
 -2       551       552       681      2478      2874      2875
 -1      1214    8    0    1
 -2       551       681       680      2875      2876      2871
 -1      1215    8    0    1
 -2       552       553       682      2481      2877      2878
 -1      1216    8    0    1
 -2       552       682       681      2878      2879      2874
 -1      1217    8    0    1
 -2       553       554       683      2484      2880      2881
 -1      1218    8    0    1
 -2       553       683       682      2881      2882      2877
 -1      1219    8    0    1
 -2       554       555       684      2487      2883      2884
 -1      1220    8    0    1
 -2       554       684       683      2884      2885      2880
 -1      1221    8    0    1
 -2       555       556       685      2490      2886      2887
 -1      1222    8    0    1
 -2       555       685       684      2887      2888      2883
 -1      1223    8    0    1
 -2       556       557       686      2493      2889      2890
 -1      1224    8    0    1
 -2       556       686       685      2890      2891      2886
 -1      1225    8    0    1
 -2       557       558       687      2496      2892      2893
 -1      1226    8    0    1
 -2       557       687       686      2893      2894      2889
 -1      1227    8    0    1
 -2       558       559       688      2499      2895      2896
 -1      1228    8    0    1
 -2       558       688       687      2896      2897      2892
 -1      1229    8    0    1
 -2       559       560       689      2502      2898      2899
 -1      1230    8    0    1
 -2       559       689       688      2899      2900      2895
 -1      1231    8    0    1
 -2       560       561       690      2505      2901      2902
 -1      1232    8    0    1
 -2       560       690       689      2902      2903      2898
 -1      1233    8    0    1
 -2       561       562       691      2508      2904      2905
 -1      1234    8    0    1
 -2       561       691       690      2905      2906      2901
 -1      1235    8    0    1
 -2       562       563       692      2511      2907      2908
 -1      1236    8    0    1
 -2       562       692       691      2908      2909      2904
 -1      1237    8    0    1
 -2       563       564       693      2514      2910      2911
 -1      1238    8    0    1
 -2       563       693       692      2911      2912      2907
 -1      1239    8    0    1
 -2       564       565       694      2517      2913      2914
 -1      1240    8    0    1
 -2       693       564       694      2910      2914      2915
 -1      1241    8    0    1
 -2       565       603       694      2630      2916      2913
 -1      1242    8    0    1
 -2       570       571       695      2535      2917      2918
 -1      1243    8    0    1
 -2       595       589       696      2632      2919      2920
 -1      1244    8    0    1
 -2       566       567       697      2523      2921      2922
 -1      1245    8    0    1
 -2       571       572       698      2538      2923      2924
 -1      1246    8    0    1
 -2       571       698       695      2924      2925      2917
 -1      1247    8    0    1
 -2       567       570       699      2532      2926      2927
 -1      1248    8    0    1
 -2       697       567       699      2921      2927      2928
 -1      1249    8    0    1
 -2       570       695       699      2918      2929      2926
 -1      1250    8    0    1
 -2       483       581       700      2564      2930      2931
 -1      1251    8    0    1
 -2       572       573       701      2541      2932      2933
 -1      1252    8    0    1
 -2       572       701       698      2933      2934      2923
 -1      1253    8    0    1
 -2       573       574       702      2544      2935      2936
 -1      1254    8    0    1
 -2       573       702       701      2936      2937      2932
 -1      1255    8    0    1
 -2       574       575       703      2547      2938      2939
 -1      1256    8    0    1
 -2       574       703       702      2939      2940      2935
 -1      1257    8    0    1
 -2       575       576       614      2550      2679      2941
 -1      1258    8    0    1
 -2       594       583       704      2640      2942      2943
 -1      1259    8    0    1
 -2       386       446       588      2624      2582      2815
 -1      1260    8    0    1
 -2       581       445       700      2650      2944      2930
 -1      1261    8    0    1
 -2       592       585       705      2646      2945      2946
 -1      1262    8    0    1
 -2       471       594       706      2654      2947      2948
 -1      1263    8    0    1
 -2       579       577       707      2557      2949      2950
 -1      1264    8    0    1
 -2       531       532       708      2418      2951      2952
 -1      1265    8    0    1
 -2       532       662       708      2819      2953      2951
 -1      1266    8    0    1
 -2       607       590       602      2657      2954      2955
 -1      1267    8    0    1
 -2       530       531       709      2415      2956      2957
 -1      1268    8    0    1
 -2       531       708       709      2952      2958      2956
 -1      1269    8    0    1
 -2       528       529       470      2626      2959      2665
 -1      1270    8    0    1
 -2       598       579       710      2623      2960      2961
 -1      1271    8    0    1
 -2       579       707       710      2950      2962      2960
 -1      1272    8    0    1
 -2       583       599       711      2651      2963      2964
 -1      1273    8    0    1
 -2       485       483       712      2275      2965      2966
 -1      1274    8    0    1
 -2       618       485       712      2687      2966      2967
 -1      1275    8    0    1
 -2       483       700       712      2931      2968      2965
 -1      1276    8    0    1
 -2       602       383       607      2642      2969      2955
 -1      1277    8    0    1
 -2       481       473       613      2680      2676      2970
 -1      1278    8    0    1
 -2       478       479       713      2259      2971      2972
 -1      1279    8    0    1
 -2       589       596       714      2655      2973      2974
 -1      1280    8    0    1
 -2       589       714       696      2974      2975      2919
 -1      1281    8    0    1
 -2       475       474       715      2248      2976      2977
 -1      1282    8    0    1
 -2       597       471       716      2664      2978      2979
 -1      1283    8    0    1
 -2       472       591       717      2656      2980      2981
 -1      1284    8    0    1
 -2       599       582       718      2622      2982      2983
 -1      1285    8    0    1
 -2       582       615       718      2682      2984      2982
 -1      1286    8    0    1
 -2       593       595       719      2663      2985      2986
 -1      1287    8    0    1
 -2       383       449       607      2403      2659      2969
 -1      1288    8    0    1
 -2       602       590       720      2954      2987      2988
 -1      1289    8    0    1
 -2       482       602       720      2618      2988      2989
 -1      1290    8    0    1
 -2       590       587       720      2613      2990      2987
 -1      1291    8    0    1
 -2       601       475       721      2614      2991      2992
 -1      1292    8    0    1
 -2       475       715       721      2977      2993      2991
 -1      1293    8    0    1
 -2       476       610       722      2669      2994      2995
 -1      1294    8    0    1
 -2       476       722       586      2995      2996      2578
 -1      1295    8    0    1
 -2       611       480       612      2671      2674      2997
 -1      1296    8    0    1
 -2       478       713       609      2972      2998      2666
 -1      1297    8    0    1
 -2       594       704       706      2943      2999      2947
 -1      1298    8    0    1
 -2       616       597       723      2683      3000      3001
 -1      1299    8    0    1
 -2       597       716       723      2979      3002      3000
 -1      1300    8    0    1
 -2       615       598       710      2681      2961      3003
 -1      1301    8    0    1
 -2       584       616       660      2684      3004      2813
 -1      1302    8    0    1
 -2       578       617       724      2686      3005      3006
 -1      1303    8    0    1
 -2       578       724       605      3006      3007      2639
 -1      1304    8    0    1
 -2       596       660       714      2814      3008      2973
 -1      1305    8    0    1
 -2       474       586       725      2577      3009      3010
 -1      1306    8    0    1
 -2       474       725       715      3010      3011      2976
 -1      1307    8    0    1
 -2       577       605       726      2638      3012      3013
 -1      1308    8    0    1
 -2       577       726       707      3013      3014      2949
 -1      1309    8    0    1
 -2       700       445       601      2944      2616      3015
 -1      1310    8    0    1
 -2       661       530       709      2816      2957      3016
 -1      1311    8    0    1
 -2       481       613       612      2970      3017      2673
 -1      1312    8    0    1
 -2       603       568       694      2631      3018      2916
 -1      1313    8    0    1
 -2       482       720       613      2989      3019      2675
 -1      1314    8    0    1
 -2       595       696       719      2920      3020      2985
 -1      1315    8    0    1
 -2       566       697       727      2922      3021      3022
 -1      1316    8    0    1
 -2       566       727       569      3022      3023      2529
 -1      1317    8    0    1
 -2       568       569       728      2528      3024      3025
 -1      1318    8    0    1
 -2       569       727       728      3023      3026      3024
 -1      1319    8    0    1
 -2       575       614       703      2941      3027      2938
 -1      1320    8    0    1
 -2       704       583       711      2942      2964      3028
 -1      1321    8    0    1
 -2       593       719       729      2986      3029      3030
 -1      1322    8    0    1
 -2       593       729       585      3030      3031      2653
 -1      1323    8    0    1
 -2       592       705       730      2946      3032      3033
 -1      1324    8    0    1
 -2       716       471       706      2978      2948      3034
 -1      1325    8    0    1
 -2       617       580       661      2685      3035      3036
 -1      1326    8    0    1
 -2       580       606       661      2648      3037      3035
 -1      1327    8    0    1
 -2       470       529       606      2959      3038      2649
 -1      1328    8    0    1
 -2       568       728       694      3025      3039      3018
 -1      1329    8    0    1
 -2       592       730       591      3033      3040      2591
 -1      1330    8    0    1
 -2       711       599       718      2963      2983      3041
 -1      1331    8    0    1
 -2       587       608       720      2662      3042      2990
 -1      1332    8    0    1
 -2       608       472       717      2660      2981      3043
 -1      1333    8    0    1
 -2       591       730       611      3040      3044      3045
 -1      1334    8    0    1
 -2       529       661       606      2817      3037      3038
 -1      1335    8    0    1
 -2       479       611       730      2672      3044      3046
 -1      1336    8    0    1
 -2       620       619       731      2694      3047      3048
 -1      1337    8    0    1
 -2       621       620       732      2697      3049      3050
 -1      1338    8    0    1
 -2       620       731       732      3048      3051      3049
 -1      1339    8    0    1
 -2       622       621       733      2700      3052      3053
 -1      1340    8    0    1
 -2       621       732       733      3050      3054      3052
 -1      1341    8    0    1
 -2       623       622       734      2703      3055      3056
 -1      1342    8    0    1
 -2       622       733       734      3053      3057      3055
 -1      1343    8    0    1
 -2       624       623       735      2706      3058      3059
 -1      1344    8    0    1
 -2       623       734       735      3056      3060      3058
 -1      1345    8    0    1
 -2       625       624       736      2709      3061      3062
 -1      1346    8    0    1
 -2       624       735       736      3059      3063      3061
 -1      1347    8    0    1
 -2       626       625       737      2712      3064      3065
 -1      1348    8    0    1
 -2       625       736       737      3062      3066      3064
 -1      1349    8    0    1
 -2       627       626       738      2715      3067      3068
 -1      1350    8    0    1
 -2       626       737       738      3065      3069      3067
 -1      1351    8    0    1
 -2       628       627       739      2718      3070      3071
 -1      1352    8    0    1
 -2       627       738       739      3068      3072      3070
 -1      1353    8    0    1
 -2       629       628       740      2721      3073      3074
 -1      1354    8    0    1
 -2       628       739       740      3071      3075      3073
 -1      1355    8    0    1
 -2       630       629       741      2724      3076      3077
 -1      1356    8    0    1
 -2       629       740       741      3074      3078      3076
 -1      1357    8    0    1
 -2       631       630       742      2727      3079      3080
 -1      1358    8    0    1
 -2       630       741       742      3077      3081      3079
 -1      1359    8    0    1
 -2       632       631       743      2730      3082      3083
 -1      1360    8    0    1
 -2       631       742       743      3080      3084      3082
 -1      1361    8    0    1
 -2       633       632       744      2733      3085      3086
 -1      1362    8    0    1
 -2       632       743       744      3083      3087      3085
 -1      1363    8    0    1
 -2       634       633       745      2736      3088      3089
 -1      1364    8    0    1
 -2       633       744       745      3086      3090      3088
 -1      1365    8    0    1
 -2       635       634       746      2739      3091      3092
 -1      1366    8    0    1
 -2       634       745       746      3089      3093      3091
 -1      1367    8    0    1
 -2       636       635       747      2742      3094      3095
 -1      1368    8    0    1
 -2       635       746       747      3092      3096      3094
 -1      1369    8    0    1
 -2       637       636       748      2745      3097      3098
 -1      1370    8    0    1
 -2       636       747       748      3095      3099      3097
 -1      1371    8    0    1
 -2       638       637       749      2748      3100      3101
 -1      1372    8    0    1
 -2       637       748       749      3098      3102      3100
 -1      1373    8    0    1
 -2       639       638       750      2751      3103      3104
 -1      1374    8    0    1
 -2       638       749       750      3101      3105      3103
 -1      1375    8    0    1
 -2       640       639       751      2754      3106      3107
 -1      1376    8    0    1
 -2       639       750       751      3104      3108      3106
 -1      1377    8    0    1
 -2       641       640       752      2757      3109      3110
 -1      1378    8    0    1
 -2       640       751       752      3107      3111      3109
 -1      1379    8    0    1
 -2       642       641       753      2760      3112      3113
 -1      1380    8    0    1
 -2       641       752       753      3110      3114      3112
 -1      1381    8    0    1
 -2       643       642       754      2763      3115      3116
 -1      1382    8    0    1
 -2       642       753       754      3113      3117      3115
 -1      1383    8    0    1
 -2       644       643       755      2766      3118      3119
 -1      1384    8    0    1
 -2       643       754       755      3116      3120      3118
 -1      1385    8    0    1
 -2       645       644       756      2769      3121      3122
 -1      1386    8    0    1
 -2       644       755       756      3119      3123      3121
 -1      1387    8    0    1
 -2       646       645       757      2772      3124      3125
 -1      1388    8    0    1
 -2       645       756       757      3122      3126      3124
 -1      1389    8    0    1
 -2       647       646       758      2775      3127      3128
 -1      1390    8    0    1
 -2       646       757       758      3125      3129      3127
 -1      1391    8    0    1
 -2       648       647       759      2778      3130      3131
 -1      1392    8    0    1
 -2       647       758       759      3128      3132      3130
 -1      1393    8    0    1
 -2       649       648       760      2781      3133      3134
 -1      1394    8    0    1
 -2       648       759       760      3131      3135      3133
 -1      1395    8    0    1
 -2       650       649       761      2784      3136      3137
 -1      1396    8    0    1
 -2       649       760       761      3134      3138      3136
 -1      1397    8    0    1
 -2       651       650       762      2787      3139      3140
 -1      1398    8    0    1
 -2       650       761       762      3137      3141      3139
 -1      1399    8    0    1
 -2       652       651       763      2790      3142      3143
 -1      1400    8    0    1
 -2       651       762       763      3140      3144      3142
 -1      1401    8    0    1
 -2       653       652       764      2793      3145      3146
 -1      1402    8    0    1
 -2       652       763       764      3143      3147      3145
 -1      1403    8    0    1
 -2       654       653       765      2796      3148      3149
 -1      1404    8    0    1
 -2       653       764       765      3146      3150      3148
 -1      1405    8    0    1
 -2       655       654       766      2799      3151      3152
 -1      1406    8    0    1
 -2       654       765       766      3149      3153      3151
 -1      1407    8    0    1
 -2       656       655       767      2802      3154      3155
 -1      1408    8    0    1
 -2       655       766       767      3152      3156      3154
 -1      1409    8    0    1
 -2       657       656       768      2805      3157      3158
 -1      1410    8    0    1
 -2       656       767       768      3155      3159      3157
 -1      1411    8    0    1
 -2       658       657       769      2808      3160      3161
 -1      1412    8    0    1
 -2       657       768       769      3158      3162      3160
 -1      1413    8    0    1
 -2       663       664       770      2825      3163      3164
 -1      1414    8    0    1
 -2       662       663       771      2822      3165      3166
 -1      1415    8    0    1
 -2       663       770       771      3164      3167      3165
 -1      1416    8    0    1
 -2       665       666       772      2831      3168      3169
 -1      1417    8    0    1
 -2       666       667       773      2834      3170      3171
 -1      1418    8    0    1
 -2       666       773       772      3171      3172      3168
 -1      1419    8    0    1
 -2       667       668       774      2837      3173      3174
 -1      1420    8    0    1
 -2       667       774       773      3174      3175      3170
 -1      1421    8    0    1
 -2       668       669       775      2840      3176      3177
 -1      1422    8    0    1
 -2       668       775       774      3177      3178      3173
 -1      1423    8    0    1
 -2       669       670       776      2843      3179      3180
 -1      1424    8    0    1
 -2       669       776       775      3180      3181      3176
 -1      1425    8    0    1
 -2       670       671       777      2846      3182      3183
 -1      1426    8    0    1
 -2       670       777       776      3183      3184      3179
 -1      1427    8    0    1
 -2       671       672       778      2849      3185      3186
 -1      1428    8    0    1
 -2       671       778       777      3186      3187      3182
 -1      1429    8    0    1
 -2       672       673       779      2852      3188      3189
 -1      1430    8    0    1
 -2       672       779       778      3189      3190      3185
 -1      1431    8    0    1
 -2       673       674       780      2855      3191      3192
 -1      1432    8    0    1
 -2       673       780       779      3192      3193      3188
 -1      1433    8    0    1
 -2       674       675       781      2858      3194      3195
 -1      1434    8    0    1
 -2       674       781       780      3195      3196      3191
 -1      1435    8    0    1
 -2       675       676       782      2861      3197      3198
 -1      1436    8    0    1
 -2       675       782       781      3198      3199      3194
 -1      1437    8    0    1
 -2       676       677       783      2864      3200      3201
 -1      1438    8    0    1
 -2       676       783       782      3201      3202      3197
 -1      1439    8    0    1
 -2       677       678       784      2867      3203      3204
 -1      1440    8    0    1
 -2       677       784       783      3204      3205      3200
 -1      1441    8    0    1
 -2       678       679       785      2870      3206      3207
 -1      1442    8    0    1
 -2       678       785       784      3207      3208      3203
 -1      1443    8    0    1
 -2       679       680       786      2873      3209      3210
 -1      1444    8    0    1
 -2       679       786       785      3210      3211      3206
 -1      1445    8    0    1
 -2       680       681       787      2876      3212      3213
 -1      1446    8    0    1
 -2       680       787       786      3213      3214      3209
 -1      1447    8    0    1
 -2       681       682       788      2879      3215      3216
 -1      1448    8    0    1
 -2       681       788       787      3216      3217      3212
 -1      1449    8    0    1
 -2       682       683       789      2882      3218      3219
 -1      1450    8    0    1
 -2       682       789       788      3219      3220      3215
 -1      1451    8    0    1
 -2       683       684       790      2885      3221      3222
 -1      1452    8    0    1
 -2       683       790       789      3222      3223      3218
 -1      1453    8    0    1
 -2       684       685       791      2888      3224      3225
 -1      1454    8    0    1
 -2       684       791       790      3225      3226      3221
 -1      1455    8    0    1
 -2       685       686       792      2891      3227      3228
 -1      1456    8    0    1
 -2       685       792       791      3228      3229      3224
 -1      1457    8    0    1
 -2       686       687       793      2894      3230      3231
 -1      1458    8    0    1
 -2       686       793       792      3231      3232      3227
 -1      1459    8    0    1
 -2       687       688       794      2897      3233      3234
 -1      1460    8    0    1
 -2       687       794       793      3234      3235      3230
 -1      1461    8    0    1
 -2       688       689       795      2900      3236      3237
 -1      1462    8    0    1
 -2       688       795       794      3237      3238      3233
 -1      1463    8    0    1
 -2       689       690       796      2903      3239      3240
 -1      1464    8    0    1
 -2       689       796       795      3240      3241      3236
 -1      1465    8    0    1
 -2       690       691       797      2906      3242      3243
 -1      1466    8    0    1
 -2       690       797       796      3243      3244      3239
 -1      1467    8    0    1
 -2       691       692       798      2909      3245      3246
 -1      1468    8    0    1
 -2       691       798       797      3246      3247      3242
 -1      1469    8    0    1
 -2       692       693       799      2912      3248      3249
 -1      1470    8    0    1
 -2       692       799       798      3249      3250      3245
 -1      1471    8    0    1
 -2       693       694       728      2915      3039      3251
 -1      1472    8    0    1
 -2       613       720       608      3019      3042      3252
 -1      1473    8    0    1
 -2       695       698       800      2925      3253      3254
 -1      1474    8    0    1
 -2       702       703       801      2940      3255      3256
 -1      1475    8    0    1
 -2       698       701       802      2934      3257      3258
 -1      1476    8    0    1
 -2       698       802       800      3258      3259      3253
 -1      1477    8    0    1
 -2       704       711       803      3028      3260      3261
 -1      1478    8    0    1
 -2       709       708       804      2958      3262      3263
 -1      1479    8    0    1
 -2       714       660       805      3008      3264      3265
 -1      1480    8    0    1
 -2       708       662       806      2953      3266      3267
 -1      1481    8    0    1
 -2       804       708       806      3262      3267      3268
 -1      1482    8    0    1
 -2       662       771       806      3166      3269      3266
 -1      1483    8    0    1
 -2       700       601       721      3015      2992      3270
 -1      1484    8    0    1
 -2       718       615       807      2984      3271      3272
 -1      1485    8    0    1
 -2       730       705       713      3032      3273      3274
 -1      1486    8    0    1
 -2       701       702       808      2937      3275      3276
 -1      1487    8    0    1
 -2       802       701       808      3257      3276      3277
 -1      1488    8    0    1
 -2       702       801       808      3256      3278      3275
 -1      1489    8    0    1
 -2       716       706       809      3034      3279      3280
 -1      1490    8    0    1
 -2       664       665       810      2828      3281      3282
 -1      1491    8    0    1
 -2       664       810       770      3282      3283      3163
 -1      1492    8    0    1
 -2       619       618       811      2691      3284      3285
 -1      1493    8    0    1
 -2       619       811       731      3285      3286      3047
 -1      1494    8    0    1
 -2       479       730       713      3046      3274      2971
 -1      1495    8    0    1
 -2       617       661       709      3036      3016      3287
 -1      1496    8    0    1
 -2       585       729       609      3031      3288      3289
 -1      1497    8    0    1
 -2       710       707       812      2962      3290      3291
 -1      1498    8    0    1
 -2       717       591       611      2980      3045      3292
 -1      1499    8    0    1
 -2       617       709       804      3287      3263      3293
 -1      1500    8    0    1
 -2       696       714       813      2975      3294      3295
 -1      1501    8    0    1
 -2       719       696       814      3020      3296      3297
 -1      1502    8    0    1
 -2       711       718       815      3041      3298      3299
 -1      1503    8    0    1
 -2       615       710       816      3003      3300      3301
 -1      1504    8    0    1
 -2       610       609       729      2670      3288      3302
 -1      1505    8    0    1
 -2       703       614       817      3027      3303      3304
 -1      1506    8    0    1
 -2       801       703       817      3255      3304      3305
 -1      1507    8    0    1
 -2       614       659       817      2811      3306      3303
 -1      1508    8    0    1
 -2       660       616       818      3004      3307      3308
 -1      1509    8    0    1
 -2       706       704       819      2999      3309      3310
 -1      1510    8    0    1
 -2       809       706       819      3279      3310      3311
 -1      1511    8    0    1
 -2       704       803       819      3261      3312      3309
 -1      1512    8    0    1
 -2       693       728       799      3251      3313      3248
 -1      1513    8    0    1
 -2       585       609       705      3289      3314      2945
 -1      1514    8    0    1
 -2       610       729       719      3302      3029      3315
 -1      1515    8    0    1
 -2       610       719       814      3315      3297      3316
 -1      1516    8    0    1
 -2       722       610       814      2994      3316      3317
 -1      1517    8    0    1
 -2       609       713       705      2998      3273      3314
 -1      1518    8    0    1
 -2       723       716       809      3002      3280      3318
 -1      1519    8    0    1
 -2       721       715       820      2993      3319      3320
 -1      1520    8    0    1
 -2       725       586       722      3009      2996      3321
 -1      1521    8    0    1
 -2       660       818       805      3308      3322      3264
 -1      1522    8    0    1
 -2       665       772       810      3169      3323      3281
 -1      1523    8    0    1
 -2       659       658       817      2812      3324      3306
 -1      1524    8    0    1
 -2       700       721       821      3270      3325      3326
 -1      1525    8    0    1
 -2       712       700       821      2968      3326      3327
 -1      1526    8    0    1
 -2       721       820       821      3320      3328      3325
 -1      1527    8    0    1
 -2       726       605       724      3012      3007      3329
 -1      1528    8    0    1
 -2       818       616       822      3307      3330      3331
 -1      1529    8    0    1
 -2       616       723       822      3001      3332      3330
 -1      1530    8    0    1
 -2       697       699       823      2928      3333      3334
 -1      1531    8    0    1
 -2       799       728       824      3313      3335      3336
 -1      1532    8    0    1
 -2       728       727       824      3026      3337      3335
 -1      1533    8    0    1
 -2       727       697       825      3021      3338      3339
 -1      1534    8    0    1
 -2       824       727       825      3337      3339      3340
 -1      1535    8    0    1
 -2       697       823       825      3334      3341      3338
 -1      1536    8    0    1
 -2       699       695       826      2929      3342      3343
 -1      1537    8    0    1
 -2       695       800       826      3254      3344      3342
 -1      1538    8    0    1
 -2       803       711       827      3260      3345      3346
 -1      1539    8    0    1
 -2       711       815       827      3299      3347      3345
 -1      1540    8    0    1
 -2       696       813       814      3295      3348      3296
 -1      1541    8    0    1
 -2       714       805       813      3265      3349      3294
 -1      1542    8    0    1
 -2       807       615       816      3271      3301      3350
 -1      1543    8    0    1
 -2       812       707       828      3290      3351      3352
 -1      1544    8    0    1
 -2       707       726       828      3014      3353      3351
 -1      1545    8    0    1
 -2       613       608       612      3252      3354      3017
 -1      1546    8    0    1
 -2       817       658       769      3324      3161      3355
 -1      1547    8    0    1
 -2       815       718       807      3298      3272      3356
 -1      1548    8    0    1
 -2       710       812       816      3291      3357      3300
 -1      1549    8    0    1
 -2       611       612       717      2997      3358      3292
 -1      1550    8    0    1
 -2       618       712       821      2967      3327      3359
 -1      1551    8    0    1
 -2       715       725       829      3011      3360      3361
 -1      1552    8    0    1
 -2       715       829       820      3361      3362      3319
 -1      1553    8    0    1
 -2       618       821       811      3359      3363      3284
 -1      1554    8    0    1
 -2       811       821       820      3363      3328      3364
 -1      1555    8    0    1
 -2       725       722       830      3321      3365      3366
 -1      1556    8    0    1
 -2       829       725       830      3360      3366      3367
 -1      1557    8    0    1
 -2       722       814       830      3317      3368      3365
 -1      1558    8    0    1
 -2       733       732       831      3054      3369      3370
 -1      1559    8    0    1
 -2       734       733       832      3057      3371      3372
 -1      1560    8    0    1
 -2       733       831       832      3370      3373      3371
 -1      1561    8    0    1
 -2       735       734       833      3060      3374      3375
 -1      1562    8    0    1
 -2       734       832       833      3372      3376      3374
 -1      1563    8    0    1
 -2       736       735       834      3063      3377      3378
 -1      1564    8    0    1
 -2       735       833       834      3375      3379      3377
 -1      1565    8    0    1
 -2       737       736       835      3066      3380      3381
 -1      1566    8    0    1
 -2       736       834       835      3378      3382      3380
 -1      1567    8    0    1
 -2       738       737       836      3069      3383      3384
 -1      1568    8    0    1
 -2       737       835       836      3381      3385      3383
 -1      1569    8    0    1
 -2       739       738       837      3072      3386      3387
 -1      1570    8    0    1
 -2       738       836       837      3384      3388      3386
 -1      1571    8    0    1
 -2       740       739       838      3075      3389      3390
 -1      1572    8    0    1
 -2       739       837       838      3387      3391      3389
 -1      1573    8    0    1
 -2       741       740       839      3078      3392      3393
 -1      1574    8    0    1
 -2       740       838       839      3390      3394      3392
 -1      1575    8    0    1
 -2       742       741       840      3081      3395      3396
 -1      1576    8    0    1
 -2       741       839       840      3393      3397      3395
 -1      1577    8    0    1
 -2       743       742       841      3084      3398      3399
 -1      1578    8    0    1
 -2       742       840       841      3396      3400      3398
 -1      1579    8    0    1
 -2       744       743       842      3087      3401      3402
 -1      1580    8    0    1
 -2       743       841       842      3399      3403      3401
 -1      1581    8    0    1
 -2       745       744       843      3090      3404      3405
 -1      1582    8    0    1
 -2       744       842       843      3402      3406      3404
 -1      1583    8    0    1
 -2       746       745       844      3093      3407      3408
 -1      1584    8    0    1
 -2       745       843       844      3405      3409      3407
 -1      1585    8    0    1
 -2       747       746       845      3096      3410      3411
 -1      1586    8    0    1
 -2       746       844       845      3408      3412      3410
 -1      1587    8    0    1
 -2       748       747       846      3099      3413      3414
 -1      1588    8    0    1
 -2       747       845       846      3411      3415      3413
 -1      1589    8    0    1
 -2       749       748       847      3102      3416      3417
 -1      1590    8    0    1
 -2       748       846       847      3414      3418      3416
 -1      1591    8    0    1
 -2       750       749       848      3105      3419      3420
 -1      1592    8    0    1
 -2       749       847       848      3417      3421      3419
 -1      1593    8    0    1
 -2       751       750       849      3108      3422      3423
 -1      1594    8    0    1
 -2       750       848       849      3420      3424      3422
 -1      1595    8    0    1
 -2       752       751       850      3111      3425      3426
 -1      1596    8    0    1
 -2       751       849       850      3423      3427      3425
 -1      1597    8    0    1
 -2       753       752       851      3114      3428      3429
 -1      1598    8    0    1
 -2       752       850       851      3426      3430      3428
 -1      1599    8    0    1
 -2       754       753       852      3117      3431      3432
 -1      1600    8    0    1
 -2       753       851       852      3429      3433      3431
 -1      1601    8    0    1
 -2       755       754       853      3120      3434      3435
 -1      1602    8    0    1
 -2       754       852       853      3432      3436      3434
 -1      1603    8    0    1
 -2       756       755       854      3123      3437      3438
 -1      1604    8    0    1
 -2       755       853       854      3435      3439      3437
 -1      1605    8    0    1
 -2       757       756       855      3126      3440      3441
 -1      1606    8    0    1
 -2       756       854       855      3438      3442      3440
 -1      1607    8    0    1
 -2       758       757       856      3129      3443      3444
 -1      1608    8    0    1
 -2       757       855       856      3441      3445      3443
 -1      1609    8    0    1
 -2       759       758       857      3132      3446      3447
 -1      1610    8    0    1
 -2       758       856       857      3444      3448      3446
 -1      1611    8    0    1
 -2       760       759       858      3135      3449      3450
 -1      1612    8    0    1
 -2       759       857       858      3447      3451      3449
 -1      1613    8    0    1
 -2       761       760       859      3138      3452      3453
 -1      1614    8    0    1
 -2       760       858       859      3450      3454      3452
 -1      1615    8    0    1
 -2       762       761       860      3141      3455      3456
 -1      1616    8    0    1
 -2       761       859       860      3453      3457      3455
 -1      1617    8    0    1
 -2       763       762       861      3144      3458      3459
 -1      1618    8    0    1
 -2       762       860       861      3456      3460      3458
 -1      1619    8    0    1
 -2       764       763       862      3147      3461      3462
 -1      1620    8    0    1
 -2       763       861       862      3459      3463      3461
 -1      1621    8    0    1
 -2       765       764       863      3150      3464      3465
 -1      1622    8    0    1
 -2       764       862       863      3462      3466      3464
 -1      1623    8    0    1
 -2       766       765       864      3153      3467      3468
 -1      1624    8    0    1
 -2       765       863       864      3465      3469      3467
 -1      1625    8    0    1
 -2       767       766       865      3156      3470      3471
 -1      1626    8    0    1
 -2       766       864       865      3468      3472      3470
 -1      1627    8    0    1
 -2       768       767       866      3159      3473      3474
 -1      1628    8    0    1
 -2       767       865       866      3471      3475      3473
 -1      1629    8    0    1
 -2       769       768       867      3162      3476      3477
 -1      1630    8    0    1
 -2       768       866       867      3474      3478      3476
 -1      1631    8    0    1
 -2       731       811       868      3286      3479      3480
 -1      1632    8    0    1
 -2       773       774       869      3175      3481      3482
 -1      1633    8    0    1
 -2       772       773       870      3172      3483      3484
 -1      1634    8    0    1
 -2       773       869       870      3482      3485      3483
 -1      1635    8    0    1
 -2       775       776       871      3181      3486      3487
 -1      1636    8    0    1
 -2       776       777       872      3184      3488      3489
 -1      1637    8    0    1
 -2       776       872       871      3489      3490      3486
 -1      1638    8    0    1
 -2       777       778       873      3187      3491      3492
 -1      1639    8    0    1
 -2       777       873       872      3492      3493      3488
 -1      1640    8    0    1
 -2       778       779       874      3190      3494      3495
 -1      1641    8    0    1
 -2       778       874       873      3495      3496      3491
 -1      1642    8    0    1
 -2       779       780       875      3193      3497      3498
 -1      1643    8    0    1
 -2       779       875       874      3498      3499      3494
 -1      1644    8    0    1
 -2       780       781       876      3196      3500      3501
 -1      1645    8    0    1
 -2       780       876       875      3501      3502      3497
 -1      1646    8    0    1
 -2       781       782       877      3199      3503      3504
 -1      1647    8    0    1
 -2       781       877       876      3504      3505      3500
 -1      1648    8    0    1
 -2       782       783       878      3202      3506      3507
 -1      1649    8    0    1
 -2       782       878       877      3507      3508      3503
 -1      1650    8    0    1
 -2       783       784       879      3205      3509      3510
 -1      1651    8    0    1
 -2       783       879       878      3510      3511      3506
 -1      1652    8    0    1
 -2       784       785       880      3208      3512      3513
 -1      1653    8    0    1
 -2       784       880       879      3513      3514      3509
 -1      1654    8    0    1
 -2       785       786       881      3211      3515      3516
 -1      1655    8    0    1
 -2       785       881       880      3516      3517      3512
 -1      1656    8    0    1
 -2       786       787       882      3214      3518      3519
 -1      1657    8    0    1
 -2       786       882       881      3519      3520      3515
 -1      1658    8    0    1
 -2       787       788       883      3217      3521      3522
 -1      1659    8    0    1
 -2       787       883       882      3522      3523      3518
 -1      1660    8    0    1
 -2       788       789       884      3220      3524      3525
 -1      1661    8    0    1
 -2       788       884       883      3525      3526      3521
 -1      1662    8    0    1
 -2       789       790       885      3223      3527      3528
 -1      1663    8    0    1
 -2       789       885       884      3528      3529      3524
 -1      1664    8    0    1
 -2       790       791       886      3226      3530      3531
 -1      1665    8    0    1
 -2       790       886       885      3531      3532      3527
 -1      1666    8    0    1
 -2       791       792       887      3229      3533      3534
 -1      1667    8    0    1
 -2       791       887       886      3534      3535      3530
 -1      1668    8    0    1
 -2       792       793       888      3232      3536      3537
 -1      1669    8    0    1
 -2       792       888       887      3537      3538      3533
 -1      1670    8    0    1
 -2       793       794       889      3235      3539      3540
 -1      1671    8    0    1
 -2       793       889       888      3540      3541      3536
 -1      1672    8    0    1
 -2       794       795       890      3238      3542      3543
 -1      1673    8    0    1
 -2       794       890       889      3543      3544      3539
 -1      1674    8    0    1
 -2       795       796       891      3241      3545      3546
 -1      1675    8    0    1
 -2       795       891       890      3546      3547      3542
 -1      1676    8    0    1
 -2       796       797       892      3244      3548      3549
 -1      1677    8    0    1
 -2       796       892       891      3549      3550      3545
 -1      1678    8    0    1
 -2       797       798       893      3247      3551      3552
 -1      1679    8    0    1
 -2       797       893       892      3552      3553      3548
 -1      1680    8    0    1
 -2       798       799       894      3250      3554      3555
 -1      1681    8    0    1
 -2       893       798       894      3551      3555      3556
 -1      1682    8    0    1
 -2       799       824       894      3336      3557      3554
 -1      1683    8    0    1
 -2       723       809       832      3318      3558      3559
 -1      1684    8    0    1
 -2       823       699       826      3333      3343      3560
 -1      1685    8    0    1
 -2       805       818       895      3322      3561      3562
 -1      1686    8    0    1
 -2       800       802       896      3259      3563      3564
 -1      1687    8    0    1
 -2       770       810       897      3283      3565      3566
 -1      1688    8    0    1
 -2       811       820       898      3364      3567      3568
 -1      1689    8    0    1
 -2       868       811       898      3479      3568      3569
 -1      1690    8    0    1
 -2       820       829       898      3362      3570      3567
 -1      1691    8    0    1
 -2       801       817       769      3305      3355      3571
 -1      1692    8    0    1
 -2       732       731       899      3051      3572      3573
 -1      1693    8    0    1
 -2       831       732       899      3369      3573      3574
 -1      1694    8    0    1
 -2       731       868       899      3480      3575      3572
 -1      1695    8    0    1
 -2       810       772       900      3323      3576      3577
 -1      1696    8    0    1
 -2       772       870       900      3484      3578      3576
 -1      1697    8    0    1
 -2       813       805       898      3349      3579      3580
 -1      1698    8    0    1
 -2       807       816       901      3350      3581      3582
 -1      1699    8    0    1
 -2       608       717       612      3043      3358      3354
 -1      1700    8    0    1
 -2       815       807       902      3356      3583      3584
 -1      1701    8    0    1
 -2       814       813       830      3348      3585      3368
 -1      1702    8    0    1
 -2       774       775       903      3178      3586      3587
 -1      1703    8    0    1
 -2       869       774       903      3481      3587      3588
 -1      1704    8    0    1
 -2       775       871       903      3487      3589      3586
 -1      1705    8    0    1
 -2       801       769       867      3571      3477      3590
 -1      1706    8    0    1
 -2       771       770       904      3167      3591      3592
 -1      1707    8    0    1
 -2       770       897       904      3566      3593      3591
 -1      1708    8    0    1
 -2       816       812       905      3357      3594      3595
 -1      1709    8    0    1
 -2       810       900       897      3577      3596      3565
 -1      1710    8    0    1
 -2       801       867       906      3590      3597      3598
 -1      1711    8    0    1
 -2       801       906       808      3598      3599      3278
 -1      1712    8    0    1
 -2       832       809       907      3558      3600      3601
 -1      1713    8    0    1
 -2       833       832       907      3376      3601      3602
 -1      1714    8    0    1
 -2       809       819       907      3311      3603      3600
 -1      1715    8    0    1
 -2       823       826       908      3560      3604      3605
 -1      1716    8    0    1
 -2       825       823       909      3341      3606      3607
 -1      1717    8    0    1
 -2       823       908       909      3605      3608      3606
 -1      1718    8    0    1
 -2       726       724       910      3329      3609      3610
 -1      1719    8    0    1
 -2       827       815       911      3347      3611      3612
 -1      1720    8    0    1
 -2       815       902       911      3584      3613      3611
 -1      1721    8    0    1
 -2       816       905       901      3595      3614      3581
 -1      1722    8    0    1
 -2       828       726       910      3353      3610      3615
 -1      1723    8    0    1
 -2       802       808       912      3277      3616      3617
 -1      1724    8    0    1
 -2       896       802       912      3563      3617      3618
 -1      1725    8    0    1
 -2       808       906       912      3599      3619      3616
 -1      1726    8    0    1
 -2       826       800       913      3344      3620      3621
 -1      1727    8    0    1
 -2       908       826       913      3604      3621      3622
 -1      1728    8    0    1
 -2       800       896       913      3564      3623      3620
 -1      1729    8    0    1
 -2       806       771       914      3269      3624      3625
 -1      1730    8    0    1
 -2       771       904       914      3592      3626      3624
 -1      1731    8    0    1
 -2       807       901       902      3582      3627      3583
 -1      1732    8    0    1
 -2       830       813       829      3585      3628      3367
 -1      1733    8    0    1
 -2       812       828       915      3352      3629      3630
 -1      1734    8    0    1
 -2       812       915       905      3630      3631      3594
 -1      1735    8    0    1
 -2       617       804       910      3293      3632      3633
 -1      1736    8    0    1
 -2       803       827       916      3346      3634      3635
 -1      1737    8    0    1
 -2       819       803       917      3312      3636      3637
 -1      1738    8    0    1
 -2       907       819       917      3603      3637      3638
 -1      1739    8    0    1
 -2       803       916       917      3635      3639      3636
 -1      1740    8    0    1
 -2       828       910       918      3615      3640      3641
 -1      1741    8    0    1
 -2       910       804       919      3632      3642      3643
 -1      1742    8    0    1
 -2       829       813       898      3628      3580      3570
 -1      1743    8    0    1
 -2       918       910       919      3640      3643      3644
 -1      1744    8    0    1
 -2       834       833       907      3379      3602      3645
 -1      1745    8    0    1
 -2       835       834       920      3382      3646      3647
 -1      1746    8    0    1
 -2       836       835       921      3385      3648      3649
 -1      1747    8    0    1
 -2       835       920       921      3647      3650      3648
 -1      1748    8    0    1
 -2       837       836       922      3388      3651      3652
 -1      1749    8    0    1
 -2       836       921       922      3649      3653      3651
 -1      1750    8    0    1
 -2       838       837       923      3391      3654      3655
 -1      1751    8    0    1
 -2       837       922       923      3652      3656      3654
 -1      1752    8    0    1
 -2       839       838       924      3394      3657      3658
 -1      1753    8    0    1
 -2       838       923       924      3655      3659      3657
 -1      1754    8    0    1
 -2       840       839       925      3397      3660      3661
 -1      1755    8    0    1
 -2       839       924       925      3658      3662      3660
 -1      1756    8    0    1
 -2       841       840       926      3400      3663      3664
 -1      1757    8    0    1
 -2       840       925       926      3661      3665      3663
 -1      1758    8    0    1
 -2       842       841       927      3403      3666      3667
 -1      1759    8    0    1
 -2       841       926       927      3664      3668      3666
 -1      1760    8    0    1
 -2       843       842       928      3406      3669      3670
 -1      1761    8    0    1
 -2       842       927       928      3667      3671      3669
 -1      1762    8    0    1
 -2       844       843       929      3409      3672      3673
 -1      1763    8    0    1
 -2       843       928       929      3670      3674      3672
 -1      1764    8    0    1
 -2       845       844       930      3412      3675      3676
 -1      1765    8    0    1
 -2       844       929       930      3673      3677      3675
 -1      1766    8    0    1
 -2       846       845       931      3415      3678      3679
 -1      1767    8    0    1
 -2       845       930       931      3676      3680      3678
 -1      1768    8    0    1
 -2       847       846       932      3418      3681      3682
 -1      1769    8    0    1
 -2       846       931       932      3679      3683      3681
 -1      1770    8    0    1
 -2       848       847       933      3421      3684      3685
 -1      1771    8    0    1
 -2       847       932       933      3682      3686      3684
 -1      1772    8    0    1
 -2       849       848       934      3424      3687      3688
 -1      1773    8    0    1
 -2       848       933       934      3685      3689      3687
 -1      1774    8    0    1
 -2       850       849       935      3427      3690      3691
 -1      1775    8    0    1
 -2       849       934       935      3688      3692      3690
 -1      1776    8    0    1
 -2       851       850       936      3430      3693      3694
 -1      1777    8    0    1
 -2       850       935       936      3691      3695      3693
 -1      1778    8    0    1
 -2       852       851       937      3433      3696      3697
 -1      1779    8    0    1
 -2       851       936       937      3694      3698      3696
 -1      1780    8    0    1
 -2       853       852       938      3436      3699      3700
 -1      1781    8    0    1
 -2       852       937       938      3697      3701      3699
 -1      1782    8    0    1
 -2       854       853       939      3439      3702      3703
 -1      1783    8    0    1
 -2       853       938       939      3700      3704      3702
 -1      1784    8    0    1
 -2       855       854       940      3442      3705      3706
 -1      1785    8    0    1
 -2       854       939       940      3703      3707      3705
 -1      1786    8    0    1
 -2       856       855       941      3445      3708      3709
 -1      1787    8    0    1
 -2       855       940       941      3706      3710      3708
 -1      1788    8    0    1
 -2       857       856       942      3448      3711      3712
 -1      1789    8    0    1
 -2       856       941       942      3709      3713      3711
 -1      1790    8    0    1
 -2       858       857       943      3451      3714      3715
 -1      1791    8    0    1
 -2       857       942       943      3712      3716      3714
 -1      1792    8    0    1
 -2       859       858       944      3454      3717      3718
 -1      1793    8    0    1
 -2       858       943       944      3715      3719      3717
 -1      1794    8    0    1
 -2       860       859       945      3457      3720      3721
 -1      1795    8    0    1
 -2       859       944       945      3718      3722      3720
 -1      1796    8    0    1
 -2       861       860       946      3460      3723      3724
 -1      1797    8    0    1
 -2       860       945       946      3721      3725      3723
 -1      1798    8    0    1
 -2       862       861       947      3463      3726      3727
 -1      1799    8    0    1
 -2       861       946       947      3724      3728      3726
 -1      1800    8    0    1
 -2       863       862       948      3466      3729      3730
 -1      1801    8    0    1
 -2       862       947       948      3727      3731      3729
 -1      1802    8    0    1
 -2       864       863       949      3469      3732      3733
 -1      1803    8    0    1
 -2       863       948       949      3730      3734      3732
 -1      1804    8    0    1
 -2       865       864       950      3472      3735      3736
 -1      1805    8    0    1
 -2       864       949       950      3733      3737      3735
 -1      1806    8    0    1
 -2       866       865       951      3475      3738      3739
 -1      1807    8    0    1
 -2       865       950       951      3736      3740      3738
 -1      1808    8    0    1
 -2       867       866       952      3478      3741      3742
 -1      1809    8    0    1
 -2       906       867       952      3597      3742      3743
 -1      1810    8    0    1
 -2       866       951       952      3739      3744      3741
 -1      1811    8    0    1
 -2       822       723       953      3332      3745      3746
 -1      1812    8    0    1
 -2       872       873       954      3493      3747      3748
 -1      1813    8    0    1
 -2       871       872       955      3490      3749      3750
 -1      1814    8    0    1
 -2       872       954       955      3748      3751      3749
 -1      1815    8    0    1
 -2       874       875       956      3499      3752      3753
 -1      1816    8    0    1
 -2       875       876       957      3502      3754      3755
 -1      1817    8    0    1
 -2       875       957       956      3755      3756      3752
 -1      1818    8    0    1
 -2       876       877       958      3505      3757      3758
 -1      1819    8    0    1
 -2       876       958       957      3758      3759      3754
 -1      1820    8    0    1
 -2       877       878       959      3508      3760      3761
 -1      1821    8    0    1
 -2       877       959       958      3761      3762      3757
 -1      1822    8    0    1
 -2       878       879       960      3511      3763      3764
 -1      1823    8    0    1
 -2       878       960       959      3764      3765      3760
 -1      1824    8    0    1
 -2       879       880       961      3514      3766      3767
 -1      1825    8    0    1
 -2       879       961       960      3767      3768      3763
 -1      1826    8    0    1
 -2       880       881       962      3517      3769      3770
 -1      1827    8    0    1
 -2       880       962       961      3770      3771      3766
 -1      1828    8    0    1
 -2       881       882       963      3520      3772      3773
 -1      1829    8    0    1
 -2       881       963       962      3773      3774      3769
 -1      1830    8    0    1
 -2       882       883       964      3523      3775      3776
 -1      1831    8    0    1
 -2       882       964       963      3776      3777      3772
 -1      1832    8    0    1
 -2       883       884       965      3526      3778      3779
 -1      1833    8    0    1
 -2       883       965       964      3779      3780      3775
 -1      1834    8    0    1
 -2       884       885       966      3529      3781      3782
 -1      1835    8    0    1
 -2       884       966       965      3782      3783      3778
 -1      1836    8    0    1
 -2       885       886       967      3532      3784      3785
 -1      1837    8    0    1
 -2       885       967       966      3785      3786      3781
 -1      1838    8    0    1
 -2       886       887       968      3535      3787      3788
 -1      1839    8    0    1
 -2       886       968       967      3788      3789      3784
 -1      1840    8    0    1
 -2       887       888       969      3538      3790      3791
 -1      1841    8    0    1
 -2       887       969       968      3791      3792      3787
 -1      1842    8    0    1
 -2       888       889       970      3541      3793      3794
 -1      1843    8    0    1
 -2       888       970       969      3794      3795      3790
 -1      1844    8    0    1
 -2       889       890       971      3544      3796      3797
 -1      1845    8    0    1
 -2       889       971       970      3797      3798      3793
 -1      1846    8    0    1
 -2       890       891       972      3547      3799      3800
 -1      1847    8    0    1
 -2       890       972       971      3800      3801      3796
 -1      1848    8    0    1
 -2       891       892       973      3550      3802      3803
 -1      1849    8    0    1
 -2       891       973       972      3803      3804      3799
 -1      1850    8    0    1
 -2       892       893       974      3553      3805      3806
 -1      1851    8    0    1
 -2       892       974       973      3806      3807      3802
 -1      1852    8    0    1
 -2       895       818       975      3561      3808      3809
 -1      1853    8    0    1
 -2       824       825       976      3340      3810      3811
 -1      1854    8    0    1
 -2       894       824       976      3557      3811      3812
 -1      1855    8    0    1
 -2       825       909       976      3607      3813      3810
 -1      1856    8    0    1
 -2       804       806       919      3268      3814      3642
 -1      1857    8    0    1
 -2       818       822       975      3331      3815      3808
 -1      1858    8    0    1
 -2       873       874       977      3496      3816      3817
 -1      1859    8    0    1
 -2       874       956       977      3753      3818      3816
 -1      1860    8    0    1
 -2       898       805       895      3579      3562      3819
 -1      1861    8    0    1
 -2       900       870       978      3578      3820      3821
 -1      1862    8    0    1
 -2       870       869       979      3485      3822      3823
 -1      1863    8    0    1
 -2       870       979       978      3823      3824      3820
 -1      1864    8    0    1
 -2       902       901       980      3627      3825      3826
 -1      1865    8    0    1
 -2       901       905       981      3614      3827      3828
 -1      1866    8    0    1
 -2       828       918       915      3641      3829      3629
 -1      1867    8    0    1
 -2       904       897       982      3593      3830      3831
 -1      1868    8    0    1
 -2       897       900       983      3596      3832      3833
 -1      1869    8    0    1
 -2       982       897       983      3830      3833      3834
 -1      1870    8    0    1
 -2       900       978       983      3821      3835      3832
 -1      1871    8    0    1
 -2       898       895       868      3819      3836      3569
 -1      1872    8    0    1
 -2       919       806       914      3814      3625      3837
 -1      1873    8    0    1
 -2       869       903       984      3588      3838      3839
 -1      1874    8    0    1
 -2       869       984       979      3839      3840      3822
 -1      1875    8    0    1
 -2       953       723       832      3745      3559      3841
 -1      1876    8    0    1
 -2       914       904       985      3626      3842      3843
 -1      1877    8    0    1
 -2       904       982       985      3831      3844      3842
 -1      1878    8    0    1
 -2       822       953       899      3746      3845      3846
 -1      1879    8    0    1
 -2       954       873       977      3747      3817      3847
 -1      1880    8    0    1
 -2       905       915       986      3631      3848      3849
 -1      1881    8    0    1
 -2       905       986       981      3849      3850      3827
 -1      1882    8    0    1
 -2       893       894       987      3556      3851      3852
 -1      1883    8    0    1
 -2       974       893       987      3805      3852      3853
 -1      1884    8    0    1
 -2       894       976       987      3812      3854      3851
 -1      1885    8    0    1
 -2       909       908       988      3608      3855      3856
 -1      1886    8    0    1
 -2       913       896       989      3623      3857      3858
 -1      1887    8    0    1
 -2       827       911       921      3612      3859      3860
 -1      1888    8    0    1
 -2       919       914       990      3837      3861      3862
 -1      1889    8    0    1
 -2       918       919       990      3644      3862      3863
 -1      1890    8    0    1
 -2       914       985       990      3843      3864      3861
 -1      1891    8    0    1
 -2       908       913       991      3622      3865      3866
 -1      1892    8    0    1
 -2       988       908       991      3855      3866      3867
 -1      1893    8    0    1
 -2       913       989       991      3858      3868      3865
 -1      1894    8    0    1
 -2       989       896       992      3857      3869      3870
 -1      1895    8    0    1
 -2       896       912       992      3618      3871      3869
 -1      1896    8    0    1
 -2       918       990       915      3863      3872      3829
 -1      1897    8    0    1
 -2       911       902       993      3613      3873      3874
 -1      1898    8    0    1
 -2       902       980       993      3826      3875      3873
 -1      1899    8    0    1
 -2       980       901       981      3825      3828      3876
 -1      1900    8    0    1
 -2       903       871       994      3589      3877      3878
 -1      1901    8    0    1
 -2       984       903       994      3838      3878      3879
 -1      1902    8    0    1
 -2       871       955       994      3750      3880      3877
 -1      1903    8    0    1
 -2       975       822       899      3815      3846      3881
 -1      1904    8    0    1
 -2       921       911       995      3859      3882      3883
 -1      1905    8    0    1
 -2       922       921       995      3653      3883      3884
 -1      1906    8    0    1
 -2       911       993       995      3874      3885      3882
 -1      1907    8    0    1
 -2       832       831       953      3373      3886      3841
 -1      1908    8    0    1
 -2       920       834       917      3646      3887      3888
 -1      1909    8    0    1
 -2       954       977       996      3847      3889      3890
 -1      1910    8    0    1
 -2       923       922       997      3656      3891      3892
 -1      1911    8    0    1
 -2       922       995       997      3884      3893      3891
 -1      1912    8    0    1
 -2       924       923       998      3659      3894      3895
 -1      1913    8    0    1
 -2       923       997       998      3892      3896      3894
 -1      1914    8    0    1
 -2       925       924       999      3662      3897      3898
 -1      1915    8    0    1
 -2       924       998       999      3895      3899      3897
 -1      1916    8    0    1
 -2       926       925      1000      3665      3900      3901
 -1      1917    8    0    1
 -2       925       999      1000      3898      3902      3900
 -1      1918    8    0    1
 -2       927       926      1001      3668      3903      3904
 -1      1919    8    0    1
 -2       926      1000      1001      3901      3905      3903
 -1      1920    8    0    1
 -2       928       927      1002      3671      3906      3907
 -1      1921    8    0    1
 -2       927      1001      1002      3904      3908      3906
 -1      1922    8    0    1
 -2       929       928      1003      3674      3909      3910
 -1      1923    8    0    1
 -2       928      1002      1003      3907      3911      3909
 -1      1924    8    0    1
 -2       930       929      1004      3677      3912      3913
 -1      1925    8    0    1
 -2       929      1003      1004      3910      3914      3912
 -1      1926    8    0    1
 -2       931       930      1005      3680      3915      3916
 -1      1927    8    0    1
 -2       930      1004      1005      3913      3917      3915
 -1      1928    8    0    1
 -2       932       931      1006      3683      3918      3919
 -1      1929    8    0    1
 -2       931      1005      1006      3916      3920      3918
 -1      1930    8    0    1
 -2       933       932      1007      3686      3921      3922
 -1      1931    8    0    1
 -2       932      1006      1007      3919      3923      3921
 -1      1932    8    0    1
 -2       934       933      1008      3689      3924      3925
 -1      1933    8    0    1
 -2       933      1007      1008      3922      3926      3924
 -1      1934    8    0    1
 -2       935       934      1009      3692      3927      3928
 -1      1935    8    0    1
 -2       934      1008      1009      3925      3929      3927
 -1      1936    8    0    1
 -2       936       935      1010      3695      3930      3931
 -1      1937    8    0    1
 -2       935      1009      1010      3928      3932      3930
 -1      1938    8    0    1
 -2       937       936      1011      3698      3933      3934
 -1      1939    8    0    1
 -2       936      1010      1011      3931      3935      3933
 -1      1940    8    0    1
 -2       938       937      1012      3701      3936      3937
 -1      1941    8    0    1
 -2       937      1011      1012      3934      3938      3936
 -1      1942    8    0    1
 -2       939       938      1013      3704      3939      3940
 -1      1943    8    0    1
 -2       938      1012      1013      3937      3941      3939
 -1      1944    8    0    1
 -2       940       939      1014      3707      3942      3943
 -1      1945    8    0    1
 -2       939      1013      1014      3940      3944      3942
 -1      1946    8    0    1
 -2       941       940      1015      3710      3945      3946
 -1      1947    8    0    1
 -2       940      1014      1015      3943      3947      3945
 -1      1948    8    0    1
 -2       942       941      1016      3713      3948      3949
 -1      1949    8    0    1
 -2       941      1015      1016      3946      3950      3948
 -1      1950    8    0    1
 -2       943       942      1017      3716      3951      3952
 -1      1951    8    0    1
 -2       942      1016      1017      3949      3953      3951
 -1      1952    8    0    1
 -2       944       943      1018      3719      3954      3955
 -1      1953    8    0    1
 -2       943      1017      1018      3952      3956      3954
 -1      1954    8    0    1
 -2       945       944      1019      3722      3957      3958
 -1      1955    8    0    1
 -2       944      1018      1019      3955      3959      3957
 -1      1956    8    0    1
 -2       946       945      1020      3725      3960      3961
 -1      1957    8    0    1
 -2       945      1019      1020      3958      3962      3960
 -1      1958    8    0    1
 -2       947       946      1021      3728      3963      3964
 -1      1959    8    0    1
 -2       946      1020      1021      3961      3965      3963
 -1      1960    8    0    1
 -2       948       947      1022      3731      3966      3967
 -1      1961    8    0    1
 -2       947      1021      1022      3964      3968      3966
 -1      1962    8    0    1
 -2       949       948      1023      3734      3969      3970
 -1      1963    8    0    1
 -2       948      1022      1023      3967      3971      3969
 -1      1964    8    0    1
 -2       950       949      1024      3737      3972      3973
 -1      1965    8    0    1
 -2       949      1023      1024      3970      3974      3972
 -1      1966    8    0    1
 -2       951       950      1025      3740      3975      3976
 -1      1967    8    0    1
 -2       950      1024      1025      3973      3977      3975
 -1      1968    8    0    1
 -2       955       954      1026      3751      3978      3979
 -1      1969    8    0    1
 -2       954       996      1026      3890      3980      3978
 -1      1970    8    0    1
 -2       957       958      1027      3759      3981      3982
 -1      1971    8    0    1
 -2       956       957      1028      3756      3983      3984
 -1      1972    8    0    1
 -2       957      1027      1028      3982      3985      3983
 -1      1973    8    0    1
 -2       959       960      1029      3765      3986      3987
 -1      1974    8    0    1
 -2       960       961      1030      3768      3988      3989
 -1      1975    8    0    1
 -2       960      1030      1029      3989      3990      3986
 -1      1976    8    0    1
 -2       961       962      1031      3771      3991      3992
 -1      1977    8    0    1
 -2       961      1031      1030      3992      3993      3988
 -1      1978    8    0    1
 -2       962       963      1032      3774      3994      3995
 -1      1979    8    0    1
 -2       962      1032      1031      3995      3996      3991
 -1      1980    8    0    1
 -2       963       964      1033      3777      3997      3998
 -1      1981    8    0    1
 -2       963      1033      1032      3998      3999      3994
 -1      1982    8    0    1
 -2       964       965      1034      3780      4000      4001
 -1      1983    8    0    1
 -2       964      1034      1033      4001      4002      3997
 -1      1984    8    0    1
 -2       965       966      1035      3783      4003      4004
 -1      1985    8    0    1
 -2       965      1035      1034      4004      4005      4000
 -1      1986    8    0    1
 -2       966       967      1036      3786      4006      4007
 -1      1987    8    0    1
 -2       966      1036      1035      4007      4008      4003
 -1      1988    8    0    1
 -2       967       968      1037      3789      4009      4010
 -1      1989    8    0    1
 -2       967      1037      1036      4010      4011      4006
 -1      1990    8    0    1
 -2       968       969      1038      3792      4012      4013
 -1      1991    8    0    1
 -2       968      1038      1037      4013      4014      4009
 -1      1992    8    0    1
 -2       969       970      1039      3795      4015      4016
 -1      1993    8    0    1
 -2       969      1039      1038      4016      4017      4012
 -1      1994    8    0    1
 -2       970       971      1040      3798      4018      4019
 -1      1995    8    0    1
 -2       970      1040      1039      4019      4020      4015
 -1      1996    8    0    1
 -2       971       972      1041      3801      4021      4022
 -1      1997    8    0    1
 -2       971      1041      1040      4022      4023      4018
 -1      1998    8    0    1
 -2       972       973      1042      3804      4024      4025
 -1      1999    8    0    1
 -2       972      1042      1041      4025      4026      4021
 -1      2000    8    0    1
 -2       973       974      1043      3807      4027      4028
 -1      2001    8    0    1
 -2       973      1043      1042      4028      4029      4024
 -1      2002    8    0    1
 -2       895       975       868      3809      4030      3836
 -1      2003    8    0    1
 -2       912       906      1044      3619      4031      4032
 -1      2004    8    0    1
 -2       992       912      1044      3871      4032      4033
 -1      2005    8    0    1
 -2       906       952      1044      3743      4034      4031
 -1      2006    8    0    1
 -2       834       907       917      3645      3638      3887
 -1      2007    8    0    1
 -2       977       956      1045      3818      4035      4036
 -1      2008    8    0    1
 -2       996       977      1045      3889      4036      4037
 -1      2009    8    0    1
 -2       956      1028      1045      3984      4038      4035
 -1      2010    8    0    1
 -2       917       916       920      3639      4039      3888
 -1      2011    8    0    1
 -2       980       981      1046      3876      4040      4041
 -1      2012    8    0    1
 -2       978       979      1047      3824      4042      4043
 -1      2013    8    0    1
 -2       916       827       921      3634      3860      4044
 -1      2014    8    0    1
 -2       868       975       899      4030      3881      3575
 -1      2015    8    0    1
 -2       953       831       899      3886      3574      3845
 -1      2016    8    0    1
 -2       915       990       986      3872      4045      3848
 -1      2017    8    0    1
 -2       958       959      1048      3762      4046      4047
 -1      2018    8    0    1
 -2       959      1029      1048      3987      4048      4046
 -1      2019    8    0    1
 -2       985       982      1049      3844      4049      4050
 -1      2020    8    0    1
 -2       986       990       985      4045      3864      4051
 -1      2021    8    0    1
 -2       951      1025      1044      3976      4052      4053
 -1      2022    8    0    1
 -2      1047       979      1050      4042      4054      4055
 -1      2023    8    0    1
 -2       979       984      1050      3840      4056      4054
 -1      2024    8    0    1
 -2       958      1048      1027      4047      4057      3981
 -1      2025    8    0    1
 -2      1043       974       988      4027      4058      4059
 -1      2026    8    0    1
 -2       981       986      1051      3850      4060      4061
 -1      2027    8    0    1
 -2       981      1051      1046      4061      4062      4040
 -1      2028    8    0    1
 -2       989       992      1052      3870      4063      4064
 -1      2029    8    0    1
 -2       983       978      1053      3835      4065      4066
 -1      2030    8    0    1
 -2       978      1047      1053      4043      4067      4065
 -1      2031    8    0    1
 -2       909       988       987      3856      4068      4069
 -1      2032    8    0    1
 -2       988       991      1054      3867      4070      4071
 -1      2033    8    0    1
 -2       988      1054      1043      4071      4072      4059
 -1      2034    8    0    1
 -2       993       980      1055      3875      4073      4074
 -1      2035    8    0    1
 -2       980      1046      1055      4041      4075      4073
 -1      2036    8    0    1
 -2       974       987       988      3853      4068      4058
 -1      2037    8    0    1
 -2       991       989      1052      3868      4064      4076
 -1      2038    8    0    1
 -2       909       987       976      4069      3854      3813
 -1      2039    8    0    1
 -2       994       955      1056      3880      4077      4078
 -1      2040    8    0    1
 -2       955      1026      1056      3979      4079      4077
 -1      2041    8    0    1
 -2       982       983      1057      3834      4080      4081
 -1      2042    8    0    1
 -2      1049       982      1057      4049      4081      4082
 -1      2043    8    0    1
 -2       983      1053      1057      4066      4083      4080
 -1      2044    8    0    1
 -2       997       995       993      3893      3885      4084
 -1      2045    8    0    1
 -2       986       985      1049      4051      4050      4085
 -1      2046    8    0    1
 -2      1044      1025      1058      4052      4086      4087
 -1      2047    8    0    1
 -2      1044      1058       992      4087      4088      4033
 -1      2048    8    0    1
 -2       998       997      1059      3896      4089      4090
 -1      2049    8    0    1
 -2       999       998      1060      3899      4091      4092
 -1      2050    8    0    1
 -2       998      1059      1060      4090      4093      4091
 -1      2051    8    0    1
 -2      1000       999      1061      3902      4094      4095
 -1      2052    8    0    1
 -2       999      1060      1061      4092      4096      4094
 -1      2053    8    0    1
 -2      1001      1000      1062      3905      4097      4098
 -1      2054    8    0    1
 -2      1000      1061      1062      4095      4099      4097
 -1      2055    8    0    1
 -2      1002      1001      1063      3908      4100      4101
 -1      2056    8    0    1
 -2      1001      1062      1063      4098      4102      4100
 -1      2057    8    0    1
 -2      1003      1002      1064      3911      4103      4104
 -1      2058    8    0    1
 -2      1002      1063      1064      4101      4105      4103
 -1      2059    8    0    1
 -2      1004      1003      1065      3914      4106      4107
 -1      2060    8    0    1
 -2      1003      1064      1065      4104      4108      4106
 -1      2061    8    0    1
 -2      1005      1004      1066      3917      4109      4110
 -1      2062    8    0    1
 -2      1004      1065      1066      4107      4111      4109
 -1      2063    8    0    1
 -2      1006      1005      1067      3920      4112      4113
 -1      2064    8    0    1
 -2      1005      1066      1067      4110      4114      4112
 -1      2065    8    0    1
 -2      1007      1006      1068      3923      4115      4116
 -1      2066    8    0    1
 -2      1006      1067      1068      4113      4117      4115
 -1      2067    8    0    1
 -2      1008      1007      1069      3926      4118      4119
 -1      2068    8    0    1
 -2      1007      1068      1069      4116      4120      4118
 -1      2069    8    0    1
 -2      1009      1008      1070      3929      4121      4122
 -1      2070    8    0    1
 -2      1008      1069      1070      4119      4123      4121
 -1      2071    8    0    1
 -2      1010      1009      1071      3932      4124      4125
 -1      2072    8    0    1
 -2      1009      1070      1071      4122      4126      4124
 -1      2073    8    0    1
 -2      1011      1010      1072      3935      4127      4128
 -1      2074    8    0    1
 -2      1010      1071      1072      4125      4129      4127
 -1      2075    8    0    1
 -2      1012      1011      1073      3938      4130      4131
 -1      2076    8    0    1
 -2      1011      1072      1073      4128      4132      4130
 -1      2077    8    0    1
 -2      1013      1012      1074      3941      4133      4134
 -1      2078    8    0    1
 -2      1012      1073      1074      4131      4135      4133
 -1      2079    8    0    1
 -2      1014      1013      1075      3944      4136      4137
 -1      2080    8    0    1
 -2      1013      1074      1075      4134      4138      4136
 -1      2081    8    0    1
 -2      1015      1014      1076      3947      4139      4140
 -1      2082    8    0    1
 -2      1014      1075      1076      4137      4141      4139
 -1      2083    8    0    1
 -2      1016      1015      1077      3950      4142      4143
 -1      2084    8    0    1
 -2      1015      1076      1077      4140      4144      4142
 -1      2085    8    0    1
 -2      1017      1016      1078      3953      4145      4146
 -1      2086    8    0    1
 -2      1016      1077      1078      4143      4147      4145
 -1      2087    8    0    1
 -2      1018      1017      1079      3956      4148      4149
 -1      2088    8    0    1
 -2      1017      1078      1079      4146      4150      4148
 -1      2089    8    0    1
 -2      1019      1018      1080      3959      4151      4152
 -1      2090    8    0    1
 -2      1018      1079      1080      4149      4153      4151
 -1      2091    8    0    1
 -2      1020      1019      1081      3962      4154      4155
 -1      2092    8    0    1
 -2      1019      1080      1081      4152      4156      4154
 -1      2093    8    0    1
 -2      1021      1020      1082      3965      4157      4158
 -1      2094    8    0    1
 -2      1020      1081      1082      4155      4159      4157
 -1      2095    8    0    1
 -2      1022      1021      1083      3968      4160      4161
 -1      2096    8    0    1
 -2      1021      1082      1083      4158      4162      4160
 -1      2097    8    0    1
 -2      1023      1022      1084      3971      4163      4164
 -1      2098    8    0    1
 -2      1022      1083      1084      4161      4165      4163
 -1      2099    8    0    1
 -2      1024      1023      1085      3974      4166      4167
 -1      2100    8    0    1
 -2      1023      1084      1085      4164      4168      4166
 -1      2101    8    0    1
 -2      1025      1024      1086      3977      4169      4170
 -1      2102    8    0    1
 -2      1058      1025      1086      4086      4170      4171
 -1      2103    8    0    1
 -2      1024      1085      1086      4167      4172      4169
 -1      2104    8    0    1
 -2      1026       996      1087      3980      4173      4174
 -1      2105    8    0    1
 -2       952       951      1044      3744      4053      4034
 -1      2106    8    0    1
 -2       991      1052      1054      4076      4175      4070
 -1      2107    8    0    1
 -2       920       916       921      4039      4044      3650
 -1      2108    8    0    1
 -2      1030      1031      1088      3993      4176      4177
 -1      2109    8    0    1
 -2      1029      1030      1089      3990      4178      4179
 -1      2110    8    0    1
 -2      1030      1088      1089      4177      4180      4178
 -1      2111    8    0    1
 -2      1032      1033      1090      3999      4181      4182
 -1      2112    8    0    1
 -2      1033      1034      1091      4002      4183      4184
 -1      2113    8    0    1
 -2      1033      1091      1090      4184      4185      4181
 -1      2114    8    0    1
 -2      1034      1035      1092      4005      4186      4187
 -1      2115    8    0    1
 -2      1034      1092      1091      4187      4188      4183
 -1      2116    8    0    1
 -2      1035      1036      1093      4008      4189      4190
 -1      2117    8    0    1
 -2      1035      1093      1092      4190      4191      4186
 -1      2118    8    0    1
 -2      1036      1037      1094      4011      4192      4193
 -1      2119    8    0    1
 -2      1036      1094      1093      4193      4194      4189
 -1      2120    8    0    1
 -2      1037      1038      1095      4014      4195      4196
 -1      2121    8    0    1
 -2      1037      1095      1094      4196      4197      4192
 -1      2122    8    0    1
 -2      1038      1039      1096      4017      4198      4199
 -1      2123    8    0    1
 -2      1038      1096      1095      4199      4200      4195
 -1      2124    8    0    1
 -2      1039      1040      1097      4020      4201      4202
 -1      2125    8    0    1
 -2      1039      1097      1096      4202      4203      4198
 -1      2126    8    0    1
 -2      1040      1041      1098      4023      4204      4205
 -1      2127    8    0    1
 -2      1040      1098      1097      4205      4206      4201
 -1      2128    8    0    1
 -2      1041      1042      1099      4026      4207      4208
 -1      2129    8    0    1
 -2      1041      1099      1098      4208      4209      4204
 -1      2130    8    0    1
 -2      1042      1043      1100      4029      4210      4211
 -1      2131    8    0    1
 -2      1099      1042      1100      4207      4211      4212
 -1      2132    8    0    1
 -2      1043      1054      1100      4072      4213      4210
 -1      2133    8    0    1
 -2      1052       992      1058      4063      4088      4214
 -1      2134    8    0    1
 -2      1028      1027      1101      3985      4215      4216
 -1      2135    8    0    1
 -2      1027      1048      1102      4057      4217      4218
 -1      2136    8    0    1
 -2      1027      1102      1101      4218      4219      4215
 -1      2137    8    0    1
 -2       984       994      1103      3879      4220      4221
 -1      2138    8    0    1
 -2      1050       984      1103      4056      4221      4222
 -1      2139    8    0    1
 -2       994      1056      1103      4078      4223      4220
 -1      2140    8    0    1
 -2      1031      1032      1104      3996      4224      4225
 -1      2141    8    0    1
 -2      1032      1090      1104      4182      4226      4224
 -1      2142    8    0    1
 -2       986      1049      1051      4085      4227      4060
 -1      2143    8    0    1
 -2      1048      1029      1105      4048      4228      4229
 -1      2144    8    0    1
 -2      1102      1048      1105      4217      4229      4230
 -1      2145    8    0    1
 -2      1029      1089      1105      4179      4231      4228
 -1      2146    8    0    1
 -2       996      1045      1106      4037      4232      4233
 -1      2147    8    0    1
 -2       996      1106      1087      4233      4234      4173
 -1      2148    8    0    1
 -2       724       617       910      3005      3633      3609
 -1      2149    8    0    1
 -2      1059       997      1055      4089      4235      4236
 -1      2150    8    0    1
 -2      1047      1050      1107      4055      4237      4238
 -1      2151    8    0    1
 -2      1051      1049      1108      4227      4239      4240
 -1      2152    8    0    1
 -2      1056      1026      1109      4079      4241      4242
 -1      2153    8    0    1
 -2      1026      1087      1109      4174      4243      4241
 -1      2154    8    0    1
 -2       993      1055       997      4074      4235      4084
 -1      2155    8    0    1
 -2      1046      1051      1110      4062      4244      4245
 -1      2156    8    0    1
 -2      1055      1046      1110      4075      4245      4246
 -1      2157    8    0    1
 -2      1051      1108      1110      4240      4247      4244
 -1      2158    8    0    1
 -2      1054      1052      1111      4175      4248      4249
 -1      2159    8    0    1
 -2      1100      1054      1111      4213      4249      4250
 -1      2160    8    0    1
 -2      1052      1058      1111      4214      4251      4248
 -1      2161    8    0    1
 -2      1088      1031      1104      4176      4225      4252
 -1      2162    8    0    1
 -2      1049      1057      1108      4082      4253      4239
 -1      2163    8    0    1
 -2      1053      1047      1112      4067      4254      4255
 -1      2164    8    0    1
 -2      1047      1107      1112      4238      4256      4254
 -1      2165    8    0    1
 -2      1045      1028      1113      4038      4257      4258
 -1      2166    8    0    1
 -2      1045      1113      1106      4258      4259      4232
 -1      2167    8    0    1
 -2      1113      1028      1101      4257      4216      4260
 -1      2168    8    0    1
 -2      1107      1050      1114      4237      4261      4262
 -1      2169    8    0    1
 -2      1050      1103      1114      4222      4263      4261
 -1      2170    8    0    1
 -2      1061      1060      1115      4096      4264      4265
 -1      2171    8    0    1
 -2      1062      1061      1116      4099      4266      4267
 -1      2172    8    0    1
 -2      1061      1115      1116      4265      4268      4266
 -1      2173    8    0    1
 -2      1063      1062      1117      4102      4269      4270
 -1      2174    8    0    1
 -2      1062      1116      1117      4267      4271      4269
 -1      2175    8    0    1
 -2      1064      1063      1118      4105      4272      4273
 -1      2176    8    0    1
 -2      1063      1117      1118      4270      4274      4272
 -1      2177    8    0    1
 -2      1065      1064      1119      4108      4275      4276
 -1      2178    8    0    1
 -2      1064      1118      1119      4273      4277      4275
 -1      2179    8    0    1
 -2      1066      1065      1120      4111      4278      4279
 -1      2180    8    0    1
 -2      1065      1119      1120      4276      4280      4278
 -1      2181    8    0    1
 -2      1067      1066      1121      4114      4281      4282
 -1      2182    8    0    1
 -2      1066      1120      1121      4279      4283      4281
 -1      2183    8    0    1
 -2      1068      1067      1122      4117      4284      4285
 -1      2184    8    0    1
 -2      1067      1121      1122      4282      4286      4284
 -1      2185    8    0    1
 -2      1069      1068      1123      4120      4287      4288
 -1      2186    8    0    1
 -2      1068      1122      1123      4285      4289      4287
 -1      2187    8    0    1
 -2      1070      1069      1124      4123      4290      4291
 -1      2188    8    0    1
 -2      1069      1123      1124      4288      4292      4290
 -1      2189    8    0    1
 -2      1071      1070      1125      4126      4293      4294
 -1      2190    8    0    1
 -2      1070      1124      1125      4291      4295      4293
 -1      2191    8    0    1
 -2      1072      1071      1126      4129      4296      4297
 -1      2192    8    0    1
 -2      1071      1125      1126      4294      4298      4296
 -1      2193    8    0    1
 -2      1073      1072      1127      4132      4299      4300
 -1      2194    8    0    1
 -2      1072      1126      1127      4297      4301      4299
 -1      2195    8    0    1
 -2      1074      1073      1128      4135      4302      4303
 -1      2196    8    0    1
 -2      1073      1127      1128      4300      4304      4302
 -1      2197    8    0    1
 -2      1075      1074      1129      4138      4305      4306
 -1      2198    8    0    1
 -2      1074      1128      1129      4303      4307      4305
 -1      2199    8    0    1
 -2      1076      1075      1130      4141      4308      4309
 -1      2200    8    0    1
 -2      1075      1129      1130      4306      4310      4308
 -1      2201    8    0    1
 -2      1077      1076      1131      4144      4311      4312
 -1      2202    8    0    1
 -2      1076      1130      1131      4309      4313      4311
 -1      2203    8    0    1
 -2      1078      1077      1132      4147      4314      4315
 -1      2204    8    0    1
 -2      1077      1131      1132      4312      4316      4314
 -1      2205    8    0    1
 -2      1079      1078      1133      4150      4317      4318
 -1      2206    8    0    1
 -2      1078      1132      1133      4315      4319      4317
 -1      2207    8    0    1
 -2      1080      1079      1134      4153      4320      4321
 -1      2208    8    0    1
 -2      1079      1133      1134      4318      4322      4320
 -1      2209    8    0    1
 -2      1081      1080      1135      4156      4323      4324
 -1      2210    8    0    1
 -2      1080      1134      1135      4321      4325      4323
 -1      2211    8    0    1
 -2      1082      1081      1136      4159      4326      4327
 -1      2212    8    0    1
 -2      1081      1135      1136      4324      4328      4326
 -1      2213    8    0    1
 -2      1083      1082      1137      4162      4329      4330
 -1      2214    8    0    1
 -2      1082      1136      1137      4327      4331      4329
 -1      2215    8    0    1
 -2      1084      1083      1138      4165      4332      4333
 -1      2216    8    0    1
 -2      1083      1137      1138      4330      4334      4332
 -1      2217    8    0    1
 -2      1085      1084      1139      4168      4335      4336
 -1      2218    8    0    1
 -2      1084      1138      1139      4333      4337      4335
 -1      2219    8    0    1
 -2      1089      1088      1128      4180      4338      4339
 -1      2220    8    0    1
 -2      1091      1092      1132      4188      4340      4341
 -1      2221    8    0    1
 -2      1090      1091      1131      4185      4342      4343
 -1      2222    8    0    1
 -2      1093      1094      1134      4194      4344      4345
 -1      2223    8    0    1
 -2      1094      1095      1135      4197      4346      4347
 -1      2224    8    0    1
 -2      1095      1096      1136      4200      4348      4349
 -1      2225    8    0    1
 -2      1096      1097      1137      4203      4350      4351
 -1      2226    8    0    1
 -2      1097      1098      1138      4206      4352      4353
 -1      2227    8    0    1
 -2      1098      1099      1139      4209      4354      4355
 -1      2228    8    0    1
 -2      1113      1101      1124      4260      4356      4357
 -1      2229    8    0    1
 -2      1101      1102      1125      4219      4358      4359
 -1      2230    8    0    1
 -2      1088      1104      1129      4252      4360      4361
 -1      2231    8    0    1
 -2      1059      1055      1110      4236      4246      4362
 -1      2232    8    0    1
 -2      1092      1093      1133      4191      4363      4364
 -1      2233    8    0    1
 -2      1104      1090      1130      4226      4365      4366
 -1      2234    8    0    1
 -2      1057      1053      1140      4083      4367      4368
 -1      2235    8    0    1
 -2      1053      1112      1140      4255      4369      4367
 -1      2236    8    0    1
 -2      1108      1057      1140      4253      4368      4370
 -1      2237    8    0    1
 -2      1060      1059      1110      4093      4362      4371
 -1      2238    8    0    1
 -2      1109      1087      1121      4243      4372      4373
 -1      2239    8    0    1
 -2      1115      1060      1110      4264      4371      4374
 -1      2240    8    0    1
 -2      1108      1140      1115      4370      4375      4376
 -1      2241    8    0    1
 -2      1106      1113      1123      4259      4377      4378
 -1      2242    8    0    1
 -2      1107      1114      1118      4262      4379      4380
 -1      2243    8    0    1
 -2      1102      1105      1126      4230      4381      4382
 -1      2244    8    0    1
 -2      1058      1086      1111      4171      4383      4251
 -1      2245    8    0    1
 -2      1089      1128      1127      4339      4304      4384
 -1      2246    8    0    1
 -2      1128      1088      1129      4338      4361      4307
 -1      2247    8    0    1
 -2      1086      1085      1141      4172      4385      4386
 -1      2248    8    0    1
 -2      1111      1086      1141      4383      4386      4387
 -1      2249    8    0    1
 -2      1085      1139      1141      4336      4388      4385
 -1      2250    8    0    1
 -2      1130      1090      1131      4365      4343      4313
 -1      2251    8    0    1
 -2      1056      1109      1142      4242      4389      4390
 -1      2252    8    0    1
 -2      1056      1142      1103      4390      4391      4223
 -1      2253    8    0    1
 -2      1138      1098      1139      4352      4355      4337
 -1      2254    8    0    1
 -2      1136      1096      1137      4348      4351      4331
 -1      2255    8    0    1
 -2      1091      1132      1131      4341      4316      4342
 -1      2256    8    0    1
 -2      1087      1106      1122      4234      4392      4393
 -1      2257    8    0    1
 -2      1093      1134      1133      4345      4322      4363
 -1      2258    8    0    1
 -2      1094      1135      1134      4347      4325      4344
 -1      2259    8    0    1
 -2      1095      1136      1135      4349      4328      4346
 -1      2260    8    0    1
 -2      1097      1138      1137      4353      4334      4350
 -1      2261    8    0    1
 -2      1113      1124      1123      4357      4292      4377
 -1      2262    8    0    1
 -2      1099      1100      1141      4212      4394      4395
 -1      2263    8    0    1
 -2      1101      1125      1124      4359      4295      4356
 -1      2264    8    0    1
 -2      1087      1122      1121      4393      4286      4372
 -1      2265    8    0    1
 -2      1129      1104      1130      4360      4366      4310
 -1      2266    8    0    1
 -2      1092      1133      1132      4364      4319      4340
 -1      2267    8    0    1
 -2      1089      1127      1105      4384      4396      4231
 -1      2268    8    0    1
 -2      1108      1115      1110      4376      4374      4247
 -1      2269    8    0    1
 -2      1125      1102      1126      4358      4382      4298
 -1      2270    8    0    1
 -2      1112      1107      1117      4256      4397      4398
 -1      2271    8    0    1
 -2      1099      1141      1139      4395      4388      4354
 -1      2272    8    0    1
 -2      1107      1118      1117      4380      4274      4397
 -1      2273    8    0    1
 -2      1115      1140      1116      4375      4399      4268
 -1      2274    8    0    1
 -2      1106      1123      1122      4378      4289      4392
 -1      2275    8    0    1
 -2      1116      1140      1112      4399      4369      4400
 -1      2276    8    0    1
 -2      1100      1111      1141      4250      4387      4394
 -1      2277    8    0    1
 -2      1117      1116      1112      4271      4400      4398
 -1      2278    8    0    1
 -2      1119      1118      1114      4277      4379      4401
 -1      2279    8    0    1
 -2      1120      1119      1142      4280      4402      4403
 -1      2280    8    0    1
 -2      1121      1120      1109      4283      4404      4373
 -1      2281    8    0    1
 -2      1119      1114      1142      4401      4405      4402
 -1      2282    8    0    1
 -2      1127      1126      1105      4301      4381      4396
 -1      2283    8    0    1
 -2      1114      1103      1142      4263      4391      4405
 -1      2284    8    0    1
 -2      1109      1120      1142      4404      4403      4389
 -3
    1PSTEP                         1           1           1          
  100CL  101 1.000000000        4405                     0    1           1
 -4  DISP        4    1
 -5  D1          1    2    1    0
 -5  D2          1    2    2    0
 -5  D3          1    2    3    0
 -5  ALL         1    2    0    0    1ALL
 -1         1 3.49212E-03-3.06406E-05-3.83961E-15
 -1         2 5.21329E-03 8.23115E-04-4.82283E-15
 -1         3 1.63669E-02 6.33968E-03-9.39528E-14
 -1         4 1.41426E-02 4.91097E-03-1.12200E-13
 -1         5 0.00000E+00 0.00000E+00 0.00000E+00
 -1         6 0.00000E+00 0.00000E+00 0.00000E+00
 -1         7 0.00000E+00 0.00000E+00 0.00000E+00
 -1         8 0.00000E+00 0.00000E+00 0.00000E+00
 -1         9 0.00000E+00 0.00000E+00 0.00000E+00
 -1        10 0.00000E+00 0.00000E+00 0.00000E+00
 -1        11 0.00000E+00 0.00000E+00 0.00000E+00
 -1        12 0.00000E+00 0.00000E+00 0.00000E+00
 -1        13 0.00000E+00 0.00000E+00 0.00000E+00
 -1        14 0.00000E+00 0.00000E+00 0.00000E+00
 -1        15 0.00000E+00 0.00000E+00 0.00000E+00
 -1        16 0.00000E+00 0.00000E+00 0.00000E+00
 -1        17 0.00000E+00 0.00000E+00 0.00000E+00
 -1        18 0.00000E+00 0.00000E+00 0.00000E+00
 -1        19 0.00000E+00 0.00000E+00 0.00000E+00
 -1        20 0.00000E+00 0.00000E+00 0.00000E+00
 -1        21 0.00000E+00 0.00000E+00 0.00000E+00
 -1        22 0.00000E+00 0.00000E+00 0.00000E+00
 -1        23 4.41320E-04-2.87735E-04-2.71999E-17
 -1        24 7.48373E-04-4.48434E-04-2.26564E-16
 -1        25 1.02466E-03-5.63214E-04-5.85503E-16
 -1        26 1.28560E-03-6.44203E-04-1.09467E-15
 -1        27 1.53415E-03-6.96193E-04-1.74659E-15
 -1        28 1.77224E-03-7.18531E-04-2.53413E-15
 -1        29 2.00297E-03-7.08841E-04-3.45455E-15
 -1        30 2.23107E-03-6.65493E-04-4.50466E-15
 -1        31 2.46222E-03-5.89328E-04-5.68180E-15
 -1        32 2.70167E-03-4.84267E-04-6.98006E-15
 -1        33 2.95301E-03-3.56712E-04-8.38860E-15
 -1        34 3.21751E-03-2.14170E-04-9.89765E-15
 -1        35 3.49426E-03-6.37534E-05-1.15038E-14
 -1        36 3.78086E-03 8.88833E-05-1.32020E-14
 -1        37 4.07428E-03 2.39969E-04-1.49881E-14
 -1        38 4.37160E-03 3.87504E-04-1.68576E-14
 -1        39 4.67041E-03 5.30843E-04-1.88024E-14
 -1        40 4.96901E-03 6.70215E-04-2.08212E-14
 -1        41 5.26634E-03 8.06300E-04-2.29112E-14
 -1        42 5.56189E-03 9.39927E-04-2.50742E-14
 -1        43 5.85551E-03 1.07189E-03-2.73202E-14
 -1        44 6.14730E-03 1.20287E-03-2.96460E-14
 -1        45 6.43748E-03 1.33339E-03-3.20528E-14
 -1        46 6.72633E-03 1.46379E-03-3.45410E-14
 -1        47 7.01412E-03 1.59434E-03-3.70970E-14
 -1        48 7.30112E-03 1.72517E-03-3.97193E-14
 -1        49 7.58754E-03 1.85634E-03-4.23976E-14
 -1        50 7.87355E-03 1.98787E-03-4.51320E-14
 -1        51 8.15930E-03 2.11976E-03-4.79176E-14
 -1        52 8.44487E-03 2.25196E-03-5.07446E-14
 -1        53 8.73036E-03 2.38443E-03-5.35962E-14
 -1        54 9.01580E-03 2.51714E-03-5.64815E-14
 -1        55 9.30123E-03 2.65003E-03-5.93849E-14
 -1        56 9.58668E-03 2.78308E-03-6.22940E-14
 -1        57 9.87216E-03 2.91624E-03-6.52296E-14
 -1        58 1.01577E-02 3.04949E-03-6.81875E-14
 -1        59 1.04432E-02 3.18282E-03-7.11715E-14
 -1        60 1.07288E-02 3.31619E-03-7.41822E-14
 -1        61 1.10144E-02 3.44960E-03-7.72221E-14
 -1        62 1.13000E-02 3.58303E-03-8.03121E-14
 -1        63 1.15856E-02 3.71648E-03-8.34559E-14
 -1        64 1.18713E-02 3.84994E-03-8.66409E-14
 -1        65 1.21570E-02 3.98340E-03-8.98507E-14
 -1        66 1.24426E-02 4.11687E-03-9.30680E-14
 -1        67 1.27283E-02 4.25034E-03-9.62955E-14
 -1        68 1.30141E-02 4.38381E-03-9.95203E-14
 -1        69 1.32998E-02 4.51727E-03-1.02738E-13
 -1        70 1.35855E-02 4.65073E-03-1.05948E-13
 -1        71 1.38712E-02 4.78419E-03-1.09149E-13
 -1        72 5.38393E-04 2.65882E-04 8.21351E-17
 -1        73 9.86806E-04 4.26743E-04 1.05249E-16
 -1        74 1.44875E-03 6.05898E-04 6.41373E-17
 -1        75 1.92409E-03 8.42018E-04-4.86129E-17
 -1        76 2.38931E-03 1.15104E-03-2.41872E-16
 -1        77 2.80010E-03 1.50730E-03-5.29667E-16
 -1        78 3.12047E-03 1.82233E-03-9.27654E-16
 -1        79 3.37149E-03 1.98222E-03-1.44514E-15
 -1        80 3.60551E-03 1.95714E-03-2.02787E-15
 -1        81 3.92160E-03 1.81554E-03-2.76089E-15
 -1        82 4.33624E-03 1.64750E-03-3.65461E-15
 -1        83 4.79352E-03 1.53782E-03-4.66065E-15
 -1        84 5.24895E-03 1.50773E-03-5.77765E-15
 -1        85 5.67829E-03 1.54451E-03-6.99002E-15
 -1        86 6.07530E-03 1.62707E-03-8.28583E-15
 -1        87 6.44298E-03 1.73761E-03-9.67272E-15
 -1        88 6.78729E-03 1.86398E-03-1.11527E-14
 -1        89 7.11415E-03 1.99868E-03-1.27288E-14
 -1        90 7.42840E-03 2.13738E-03-1.43978E-14
 -1        91 7.73370E-03 2.27765E-03-1.61515E-14
 -1        92 8.03271E-03 2.41817E-03-1.79783E-14
 -1        93 8.32731E-03 2.55829E-03-1.98758E-14
 -1        94 8.63336E-03 2.70464E-03-2.19493E-14
 -1        95 8.92270E-03 2.84320E-03-2.39858E-14
 -1        96 9.21060E-03 2.98094E-03-2.60791E-14
 -1        97 9.49754E-03 3.11793E-03-2.82262E-14
 -1        98 9.78384E-03 3.25426E-03-3.04269E-14
 -1        99 1.00697E-02 3.39001E-03-3.26593E-14
 -1       100 1.03554E-02 3.52527E-03-3.49319E-14
 -1       101 1.06409E-02 3.66013E-03-3.72491E-14
 -1       102 1.09263E-02 3.79466E-03-3.96161E-14
 -1       103 1.12117E-02 3.92892E-03-4.20418E-14
 -1       104 1.14971E-02 4.06298E-03-4.45359E-14
 -1       105 1.17825E-02 4.19687E-03-4.70855E-14
 -1       106 1.20679E-02 4.33063E-03-4.97010E-14
 -1       107 1.23534E-02 4.46430E-03-5.23888E-14
 -1       108 1.26532E-02 4.60458E-03-5.52727E-14
 -1       109 1.29388E-02 4.73813E-03-5.80366E-14
 -1       110 1.32244E-02 4.87163E-03-6.08509E-14
 -1       111 1.35100E-02 5.00512E-03-6.37240E-14
 -1       112 1.37957E-02 5.13859E-03-6.66261E-14
 -1       113 1.40813E-02 5.27205E-03-6.95621E-14
 -1       114 1.43670E-02 5.40550E-03-7.25130E-14
 -1       115 1.46527E-02 5.53895E-03-7.54766E-14
 -1       116 1.49384E-02 5.67240E-03-7.84900E-14
 -1       117 1.52241E-02 5.80585E-03-8.15390E-14
 -1       118 1.55098E-02 5.93930E-03-8.46281E-14
 -1       119 1.57955E-02 6.07276E-03-8.77187E-14
 -1       120 1.60812E-02 6.20622E-03-9.08158E-14
 -1       121 1.62357E-02 6.25540E-03-9.50396E-14
 -1       122 1.61045E-02 6.17111E-03-9.61149E-14
 -1       123 1.59732E-02 6.08682E-03-9.71925E-14
 -1       124 1.58420E-02 6.00253E-03-9.82759E-14
 -1       125 1.57107E-02 5.91824E-03-9.93493E-14
 -1       126 1.55817E-02 5.83537E-03-1.00413E-13
 -1       127 1.54504E-02 5.75107E-03-1.01489E-13
 -1       128 1.53192E-02 5.66676E-03-1.02546E-13
 -1       129 1.51880E-02 5.58246E-03-1.03597E-13
 -1       130 1.50567E-02 5.49816E-03-1.04644E-13
 -1       131 1.49255E-02 5.41385E-03-1.05735E-13
 -1       132 1.47965E-02 5.33098E-03-1.06854E-13
 -1       133 1.46653E-02 5.24669E-03-1.07986E-13
 -1       134 1.45341E-02 5.16240E-03-1.09072E-13
 -1       135 1.44029E-02 5.07811E-03-1.10123E-13
 -1       136 1.42716E-02 4.99383E-03-1.11168E-13
 -1       137 5.22050E-03 9.98693E-04-4.63640E-15
 -1       138 5.12084E-03 1.17314E-03-4.35266E-15
 -1       139 4.91838E-03 1.33681E-03-4.00018E-15
 -1       140 4.53338E-03 1.51266E-03-3.49091E-15
 -1       141 4.12955E-03 1.62090E-03-3.06543E-15
 -1       142 3.66308E-03 1.68091E-03-2.65539E-15
 -1       143 3.09092E-03 1.67447E-03-2.22530E-15
 -1       144 2.55795E-03 1.59372E-03-1.88787E-15
 -1       145 2.01623E-03 1.43794E-03-1.59120E-15
 -1       146 1.57333E-03 1.25447E-03-1.38108E-15
 -1       147 1.20132E-03 1.05208E-03-1.22654E-15
 -1       148 8.88431E-04 8.27222E-04-1.11856E-15
 -1       149 6.92841E-04 6.23355E-04-1.07614E-15
 -1       150 6.13597E-04 4.51733E-04-1.09370E-15
 -1       151 6.29743E-04 3.03966E-04-1.16781E-15
 -1       152 7.51911E-04 1.64582E-04-1.31879E-15
 -1       153 9.61576E-04 5.36909E-05-1.52931E-15
 -1       154 1.26090E-03-3.65381E-05-1.81060E-15
 -1       155 1.60955E-03-9.80484E-05-2.13099E-15
 -1       156 2.05504E-03-1.35737E-04-2.53932E-15
 -1       157 2.52454E-03-1.36898E-04-2.96811E-15
 -1       158 3.01010E-03-1.02165E-04-3.40838E-15
 -1       159 3.92059E-03 6.52668E-05-4.20370E-15
 -1       160 4.33652E-03 1.96579E-04-4.52905E-15
 -1       161 4.66340E-03 3.36651E-04-4.74726E-15
 -1       162 4.93847E-03 4.99485E-04-4.88003E-15
 -1       163 5.11711E-03 6.60081E-04-4.90065E-15
 -1       164 2.55046E-04-1.42516E-04-6.29515E-17
 -1       165 2.41078E-04-1.08183E-04-7.15641E-17
 -1       166 2.37729E-04-7.98888E-05-7.26382E-17
 -1       167 2.36221E-04-5.18443E-05-7.00801E-17
 -1       168 2.32901E-04-2.28213E-05-6.52893E-17
 -1       169 2.25001E-04 7.65290E-06-5.98175E-17
 -1       170 2.10708E-04 3.63161E-05-5.39560E-17
 -1       171 1.90173E-04 5.82957E-05-4.91821E-17
 -1       172 1.67149E-04 6.82531E-05-4.50384E-17
 -1       173 1.49426E-04 6.37869E-05-4.08981E-17
 -1       174 1.46034E-04 4.90683E-05-3.61073E-17
 -1       175 1.62250E-04 3.34390E-05-2.91786E-17
 -1       176 1.96944E-04 2.87736E-05-1.90549E-17
 -1       177 2.44264E-04 4.39052E-05-3.80826E-18
 -1       178 3.00956E-04 8.59810E-05 1.83230E-17
 -1       179 3.96841E-04 1.62153E-04 4.36662E-17
 -1       180 4.96124E-04-2.97452E-04-1.63186E-16
 -1       181 8.07803E-04-4.36482E-04-4.52682E-16
 -1       182 1.09886E-03-5.36724E-04-8.86091E-16
 -1       183 1.37600E-03-6.06269E-04-1.45886E-15
 -1       184 1.64239E-03-6.46380E-04-2.16677E-15
 -1       185 1.90084E-03-6.54917E-04-3.00598E-15
 -1       186 2.15468E-03-6.29237E-04-3.97454E-15
 -1       187 2.40784E-03-5.68592E-04-5.06891E-15
 -1       188 2.66423E-03-4.75482E-04-6.28443E-15
 -1       189 2.92696E-03-3.55620E-04-7.61374E-15
 -1       190 3.19770E-03-2.16710E-04-9.04756E-15
 -1       191 3.47660E-03-6.67345E-05-1.05795E-14
 -1       192 3.76256E-03 8.75019E-05-1.22070E-14
 -1       193 4.05381E-03 2.41150E-04-1.39232E-14
 -1       194 4.34842E-03 3.91401E-04-1.57255E-14
 -1       195 4.64464E-03 5.37119E-04-1.76078E-14
 -1       196 4.94111E-03 6.78310E-04-1.95643E-14
 -1       197 5.23692E-03 8.15618E-04-2.15931E-14
 -1       198 5.53153E-03 9.49942E-04-2.36954E-14
 -1       199 5.82469E-03 1.08219E-03-2.58746E-14
 -1       200 6.11640E-03 1.21316E-03-2.81346E-14
 -1       201 6.40676E-03 1.34348E-03-3.04746E-14
 -1       202 6.69594E-03 1.47359E-03-3.28950E-14
 -1       203 6.98414E-03 1.60379E-03-3.53877E-14
 -1       204 7.27157E-03 1.73428E-03-3.79448E-14
 -1       205 7.55840E-03 1.86513E-03-4.05636E-14
 -1       206 7.84478E-03 1.99639E-03-4.32376E-14
 -1       207 8.13085E-03 2.12803E-03-4.59653E-14
 -1       208 8.41670E-03 2.26003E-03-4.87400E-14
 -1       209 8.70241E-03 2.39235E-03-5.15514E-14
 -1       210 8.98803E-03 2.52493E-03-5.43907E-14
 -1       211 9.27361E-03 2.65773E-03-5.72549E-14
 -1       212 9.55916E-03 2.79071E-03-6.01368E-14
 -1       213 9.84472E-03 2.92382E-03-6.30408E-14
 -1       214 1.01303E-02 3.05704E-03-6.59737E-14
 -1       215 1.04159E-02 3.19034E-03-6.89301E-14
 -1       216 1.07015E-02 3.32369E-03-7.19168E-14
 -1       217 1.09871E-02 3.45709E-03-7.49312E-14
 -1       218 1.12727E-02 3.59052E-03-7.79823E-14
 -1       219 1.15584E-02 3.72397E-03-8.10794E-14
 -1       220 1.18440E-02 3.85742E-03-8.42217E-14
 -1       221 1.21297E-02 3.99089E-03-8.73925E-14
 -1       222 1.24154E-02 4.12436E-03-9.05840E-14
 -1       223 1.27011E-02 4.25783E-03-9.37935E-14
 -1       224 1.29868E-02 4.39130E-03-9.70062E-14
 -1       225 1.32725E-02 4.52477E-03-1.00220E-13
 -1       226 1.35582E-02 4.65823E-03-1.03427E-13
 -1       227 1.38439E-02 4.79169E-03-1.06631E-13
 -1       228 8.25645E-04 3.16165E-04 4.27582E-17
 -1       229 1.25465E-03 4.88401E-04-1.96241E-17
 -1       230 1.68937E-03 7.15807E-04-1.53672E-16
 -1       231 2.12555E-03 1.02133E-03-3.67477E-16
 -1       232 2.54686E-03 1.38883E-03-6.75627E-16
 -1       233 2.93449E-03 1.73094E-03-1.09436E-15
 -1       234 3.29052E-03 1.91656E-03-1.63674E-15
 -1       235 3.61065E-03 1.89730E-03-2.23699E-15
 -1       236 3.97436E-03 1.74592E-03-2.98633E-15
 -1       237 4.38629E-03 1.56419E-03-3.89545E-15
 -1       238 4.80843E-03 1.44627E-03-4.92022E-15
 -1       239 5.22126E-03 1.41381E-03-6.04991E-15
 -1       240 5.61453E-03 1.45177E-03-7.27391E-15
 -1       241 5.98578E-03 1.53702E-03-8.58758E-15
 -1       242 6.33679E-03 1.65056E-03-9.98945E-15
 -1       243 6.67104E-03 1.77966E-03-1.14816E-14
 -1       244 6.99215E-03 1.91665E-03-1.30657E-14
 -1       245 7.30334E-03 2.05717E-03-1.47378E-14
 -1       246 7.60718E-03 2.19884E-03-1.64952E-14
 -1       247 7.90565E-03 2.34043E-03-1.83267E-14
 -1       248 8.20023E-03 2.48135E-03-2.02326E-14
 -1       249 8.50654E-03 2.62834E-03-2.23082E-14
 -1       250 8.79625E-03 2.76733E-03-2.43498E-14
 -1       251 9.08456E-03 2.90540E-03-2.64532E-14
 -1       252 9.37190E-03 3.04263E-03-2.86119E-14
 -1       253 9.65857E-03 3.17913E-03-3.08171E-14
 -1       254 9.94478E-03 3.31500E-03-3.30619E-14
 -1       255 1.02307E-02 3.45035E-03-3.53503E-14
 -1       256 1.05164E-02 3.58527E-03-3.76920E-14
 -1       257 1.08020E-02 3.71984E-03-4.00814E-14
 -1       258 1.10876E-02 3.85413E-03-4.25241E-14
 -1       259 1.13731E-02 3.98820E-03-4.50254E-14
 -1       260 1.16586E-02 4.12210E-03-4.75836E-14
 -1       261 1.19442E-02 4.25588E-03-5.02046E-14
 -1       262 1.22297E-02 4.38955E-03-5.28915E-14
 -1       263 1.25296E-02 4.52982E-03-5.57718E-14
 -1       264 1.28152E-02 4.66337E-03-5.85490E-14
 -1       265 1.31008E-02 4.79687E-03-6.13684E-14
 -1       266 1.33864E-02 4.93036E-03-6.42329E-14
 -1       267 1.36721E-02 5.06382E-03-6.71368E-14
 -1       268 1.39577E-02 5.19728E-03-7.00766E-14
 -1       269 1.42434E-02 5.33073E-03-7.30356E-14
 -1       270 1.45291E-02 5.46418E-03-7.60137E-14
 -1       271 1.48148E-02 5.59762E-03-7.90298E-14
 -1       272 1.51005E-02 5.73107E-03-8.20818E-14
 -1       273 1.53862E-02 5.86453E-03-8.51637E-14
 -1       274 1.56719E-02 5.99798E-03-8.82541E-14
 -1       275 1.59576E-02 6.13144E-03-9.13484E-14
 -1       276 1.59226E-02 6.09768E-03-9.28816E-14
 -1       277 1.57914E-02 6.01339E-03-9.39746E-14
 -1       278 1.56602E-02 5.92910E-03-9.50613E-14
 -1       279 1.55289E-02 5.84480E-03-9.61442E-14
 -1       280 1.53999E-02 5.76194E-03-9.71944E-14
 -1       281 1.52686E-02 5.67764E-03-9.82627E-14
 -1       282 1.51374E-02 5.59334E-03-9.93231E-14
 -1       283 1.50062E-02 5.50904E-03-1.00381E-13
 -1       284 1.48749E-02 5.42474E-03-1.01442E-13
 -1       285 1.47437E-02 5.34043E-03-1.02513E-13
 -1       286 1.46147E-02 5.25756E-03-1.03583E-13
 -1       287 1.44835E-02 5.17327E-03-1.04675E-13
 -1       288 1.43523E-02 5.08898E-03-1.05758E-13
 -1       289 1.42210E-02 5.00469E-03-1.06822E-13
 -1       290 1.40325E-02 4.89819E-03-1.06730E-13
 -1       291 5.25778E-03 9.08878E-04-5.24090E-15
 -1       292 5.17955E-03 1.00251E-03-4.95466E-15
 -1       293 4.96727E-03 1.13550E-03-4.48342E-15
 -1       294 4.58529E-03 1.29632E-03-4.01824E-15
 -1       295 4.18044E-03 1.52407E-03-3.36174E-15
 -1       296 3.77741E-03 1.68305E-03-2.85996E-15
 -1       297 3.34566E-03 1.78094E-03-2.35042E-15
 -1       298 2.91306E-03 1.72272E-03-1.93151E-15
 -1       299 2.47847E-03 1.54152E-03-1.57964E-15
 -1       300 2.00338E-03 1.27988E-03-1.33966E-15
 -1       301 1.56862E-03 1.01444E-03-1.15957E-15
 -1       302 1.16432E-03 7.52476E-04-1.01549E-15
 -1       303 8.27446E-04 5.49901E-04-9.28997E-16
 -1       304 6.30894E-04 4.53469E-04-9.47366E-16
 -1       305 5.86369E-04 3.75823E-04-9.84378E-16
 -1       306 6.82908E-04 3.07660E-04-1.09516E-15
 -1       307 9.03632E-04 2.13870E-04-1.29671E-15
 -1       308 1.21953E-03 1.11604E-04-1.53860E-15
 -1       309 1.56884E-03-1.48871E-05-1.87474E-15
 -1       310 1.95313E-03-1.31210E-04-2.28164E-15
 -1       311 2.34268E-03-2.01282E-04-2.77180E-15
 -1       312 2.73281E-03-1.98478E-04-3.28906E-15
 -1       313 3.12062E-03-1.17597E-04-3.84745E-15
 -1       314 3.53540E-03 3.35696E-05-4.31357E-15
 -1       315 3.93427E-03 2.28966E-04-4.80166E-15
 -1       316 4.35760E-03 4.12188E-04-5.09711E-15
 -1       317 4.71425E-03 5.96466E-04-5.39359E-15
 -1       318 5.01326E-03 7.16873E-04-5.42121E-15
 -1       319 5.19381E-03 8.18221E-04-5.38252E-15
 -1       320 4.92851E-04-1.88280E-04-2.44948E-16
 -1       321 5.05303E-04-2.44980E-04-2.37684E-16
 -1       322 4.86733E-04-8.27997E-05-2.30491E-16
 -1       323 4.77145E-04-2.73502E-05-2.16034E-16
 -1       324 4.54846E-04 2.85524E-05-1.99808E-16
 -1       325 4.16202E-04 7.91023E-05-1.83261E-16
 -1       326 3.63884E-04 1.15168E-04-1.67899E-16
 -1       327 3.11155E-04 1.28385E-04-1.53269E-16
 -1       328 2.80833E-04 1.18792E-04-1.38158E-16
 -1       329 2.92468E-04 9.85256E-05-1.20397E-16
 -1       330 3.52101E-04 8.84257E-05-9.74461E-17
 -1       331 4.47717E-04 1.06264E-04-6.63735E-17
 -1       332 5.63083E-04 1.60660E-04-2.41574E-17
 -1       333 6.86010E-04 2.30337E-04 4.33003E-18
 -1       334 1.08002E-03 3.91353E-04-7.34479E-17
 -1       335 9.15007E-04-4.17168E-04-6.85422E-16
 -1       336 1.21336E-03-5.02649E-04-1.18453E-15
 -1       337 1.50240E-03-5.60167E-04-1.81577E-15
 -1       338 1.78316E-03-5.87600E-04-2.57629E-15
 -1       339 2.05763E-03-5.81210E-04-3.46524E-15
 -1       340 2.32885E-03-5.38342E-04-4.47923E-15
 -1       341 2.60039E-03-4.59608E-04-5.61401E-15
 -1       342 2.87538E-03-3.49635E-04-6.86512E-15
 -1       343 3.15571E-03-2.16137E-04-8.22481E-15
 -1       344 3.44176E-03-6.79450E-05-9.68430E-15
 -1       345 3.73266E-03 8.69287E-05-1.12399E-14
 -1       346 4.02693E-03 2.42490E-04-1.28878E-14
 -1       347 4.32300E-03 3.95062E-04-1.46220E-14
 -1       348 4.61958E-03 5.42964E-04-1.64411E-14
 -1       349 4.91572E-03 6.85927E-04-1.83339E-14
 -1       350 5.21086E-03 8.24505E-04-2.03006E-14
 -1       351 5.50471E-03 9.59622E-04-2.23417E-14
 -1       352 5.79719E-03 1.09227E-03-2.44571E-14
 -1       353 6.08837E-03 1.22334E-03-2.66534E-14
 -1       354 6.37837E-03 1.35354E-03-2.89273E-14
 -1       355 6.66735E-03 1.48342E-03-3.12810E-14
 -1       356 6.95549E-03 1.61333E-03-3.37101E-14
 -1       357 7.24294E-03 1.74350E-03-3.62040E-14
 -1       358 7.52987E-03 1.87404E-03-3.87631E-14
 -1       359 7.81639E-03 2.00502E-03-4.13784E-14
 -1       360 8.10261E-03 2.13642E-03-4.40477E-14
 -1       361 8.38861E-03 2.26821E-03-4.67690E-14
 -1       362 8.67447E-03 2.40036E-03-4.95328E-14
 -1       363 8.96022E-03 2.53280E-03-5.23271E-14
 -1       364 9.24591E-03 2.66550E-03-5.51509E-14
 -1       365 9.53156E-03 2.79839E-03-5.80023E-14
 -1       366 9.81719E-03 2.93144E-03-6.08757E-14
 -1       367 1.01028E-02 3.06461E-03-6.37773E-14
 -1       368 1.03884E-02 3.19788E-03-6.67065E-14
 -1       369 1.06741E-02 3.33121E-03-6.96634E-14
 -1       370 1.09597E-02 3.46460E-03-7.26563E-14
 -1       371 1.12454E-02 3.59801E-03-7.56750E-14
 -1       372 1.15310E-02 3.73146E-03-7.87322E-14
 -1       373 1.18167E-02 3.86491E-03-8.18320E-14
 -1       374 1.21024E-02 3.99838E-03-8.49687E-14
 -1       375 1.23881E-02 4.13185E-03-8.81305E-14
 -1       376 1.26738E-02 4.26532E-03-9.13127E-14
 -1       377 1.29595E-02 4.39879E-03-9.45112E-14
 -1       378 1.32452E-02 4.53226E-03-9.77105E-14
 -1       379 1.35309E-02 4.66573E-03-1.00914E-13
 -1       380 1.37817E-02 4.78196E-03-1.03821E-13
 -1       381 1.48520E-03 6.03423E-04-2.21177E-16
 -1       382 1.90806E-03 8.93962E-04-4.47206E-16
 -1       383 2.34520E-03 1.26264E-03-7.65725E-16
 -1       384 2.77892E-03 1.63420E-03-1.19482E-15
 -1       385 3.19485E-03 1.85842E-03-1.74925E-15
 -1       386 3.56757E-03 1.85081E-03-2.36134E-15
 -1       387 3.97169E-03 1.68866E-03-3.12142E-15
 -1       388 4.40181E-03 1.49433E-03-4.04283E-15
 -1       389 4.81651E-03 1.37151E-03-5.07897E-15
 -1       390 5.20655E-03 1.33840E-03-6.21923E-15
 -1       391 5.57342E-03 1.37688E-03-7.45294E-15
 -1       392 5.92154E-03 1.46289E-03-8.77662E-15
 -1       393 6.25498E-03 1.57728E-03-1.01859E-14
 -1       394 6.57694E-03 1.70728E-03-1.16854E-14
 -1       395 6.88991E-03 1.84516E-03-1.32723E-14
 -1       396 7.19591E-03 1.98651E-03-1.49455E-14
 -1       397 7.49655E-03 2.12891E-03-1.67046E-14
 -1       398 7.79313E-03 2.27112E-03-1.85391E-14
 -1       399 8.08664E-03 2.41255E-03-2.04467E-14
 -1       400 8.39239E-03 2.55997E-03-2.25233E-14
 -1       401 8.68188E-03 2.69929E-03-2.45687E-14
 -1       402 8.97016E-03 2.83761E-03-2.66763E-14
 -1       403 9.25756E-03 2.97504E-03-2.88409E-14
 -1       404 9.54435E-03 3.11169E-03-3.10520E-14
 -1       405 9.83070E-03 3.24768E-03-3.33060E-14
 -1       406 1.01168E-02 3.38312E-03-3.56066E-14
 -1       407 1.04026E-02 3.51810E-03-3.79627E-14
 -1       408 1.06883E-02 3.65272E-03-4.03675E-14
 -1       409 1.09740E-02 3.78704E-03-4.28193E-14
 -1       410 1.12596E-02 3.92113E-03-4.53258E-14
 -1       411 1.15452E-02 4.05505E-03-4.78925E-14
 -1       412 1.18308E-02 4.18883E-03-5.05154E-14
 -1       413 1.21164E-02 4.32251E-03-5.32014E-14
 -1       414 1.24163E-02 4.46279E-03-5.60819E-14
 -1       415 1.27019E-02 4.59633E-03-5.88621E-14
 -1       416 1.29875E-02 4.72984E-03-6.16830E-14
 -1       417 1.32732E-02 4.86332E-03-6.45480E-14
 -1       418 1.35588E-02 4.99679E-03-6.74534E-14
 -1       419 1.38445E-02 5.13024E-03-7.03969E-14
 -1       420 1.41302E-02 5.26369E-03-7.33628E-14
 -1       421 1.44159E-02 5.39713E-03-7.63444E-14
 -1       422 1.47016E-02 5.53058E-03-7.93603E-14
 -1       423 1.49873E-02 5.66403E-03-8.24137E-14
 -1       424 1.52730E-02 5.79748E-03-8.54950E-14
 -1       425 1.55587E-02 5.93094E-03-8.85822E-14
 -1       426 1.57407E-02 6.01431E-03-9.07303E-14
 -1       427 1.53471E-02 5.77137E-03-9.29236E-14
 -1       428 1.54783E-02 5.85567E-03-9.18376E-14
 -1       429 1.56095E-02 5.93499E-03-9.12848E-14
 -1       430 1.52181E-02 5.68851E-03-9.39795E-14
 -1       431 1.50868E-02 5.60421E-03-9.50444E-14
 -1       432 1.49556E-02 5.51991E-03-9.61011E-14
 -1       433 1.48243E-02 5.43561E-03-9.71616E-14
 -1       434 1.46931E-02 5.35131E-03-9.82231E-14
 -1       435 1.45619E-02 5.26701E-03-9.92858E-14
 -1       436 1.44329E-02 5.18414E-03-1.00336E-13
 -1       437 1.43017E-02 5.09984E-03-1.01405E-13
 -1       438 1.41704E-02 5.01555E-03-1.02473E-13
 -1       439 1.40392E-02 4.93126E-03-1.03534E-13
 -1       440 5.07066E-03 1.03414E-03-5.06655E-15
 -1       441 5.25600E-03 8.96171E-04-5.85280E-15
 -1       442 5.26153E-03 9.50373E-04-5.73955E-15
 -1       443 4.77407E-03 1.16562E-03-4.56034E-15
 -1       444 4.28380E-03 1.42186E-03-3.74216E-15
 -1       445 4.89588E-04-1.35649E-04-2.40967E-16
 -1       446 3.58568E-03 1.76366E-03-2.62260E-15
 -1       447 3.14009E-03 1.80896E-03-1.97918E-15
 -1       448 2.79151E-03 1.67645E-03-1.60484E-15
 -1       449 2.33572E-03 1.36917E-03-1.24544E-15
 -1       450 1.95821E-03 1.10949E-03-1.08761E-15
 -1       451 1.46650E-03 7.93019E-04-9.32217E-16
 -1       452 1.04532E-03 5.42676E-04-8.03894E-16
 -1       453 6.99889E-04 4.10988E-04-7.89635E-16
 -1       454 5.82460E-04 3.67941E-04-8.15534E-16
 -1       455 6.07352E-04 3.39758E-04-8.97776E-16
 -1       456 7.98850E-04 2.91833E-04-1.03766E-15
 -1       457 1.04591E-03 2.18909E-04-1.23456E-15
 -1       458 1.44091E-03 7.32282E-05-1.59347E-15
 -1       459 1.79138E-03-6.68480E-05-1.97547E-15
 -1       460 2.18817E-03-1.99639E-04-2.53513E-15
 -1       461 2.51841E-03-2.49126E-04-3.10846E-15
 -1       462 2.80979E-03-2.10698E-04-3.64853E-15
 -1       463 3.26464E-03-3.55970E-05-4.37351E-15
 -1       464 3.61684E-03 1.50533E-04-4.88273E-15
 -1       465 4.08187E-03 4.16418E-04-5.51667E-15
 -1       466 4.43855E-03 5.90133E-04-5.82492E-15
 -1       467 4.86855E-03 7.58821E-04-6.00553E-15
 -1       468 5.11777E-03 8.45560E-04-6.03737E-15
 -1       469 3.96129E-03 1.59882E-03-3.20514E-15
 -1       470 4.52604E-03 1.29397E-03-4.26530E-15
 -1       471 2.97188E-03-1.50908E-04-4.15113E-15
 -1       472 8.50277E-04 4.07347E-04-6.69932E-16
 -1       473 1.07265E-03 3.83081E-04-2.31325E-16
 -1       474 7.29051E-04-2.03372E-05-4.42866E-16
 -1       475 7.49237E-04-9.78069E-05-4.72346E-16
 -1       476 6.08034E-04 1.28516E-04-3.77285E-16
 -1       477 5.11456E-04 1.76499E-04-3.44885E-16
 -1       478 4.27699E-04 1.91024E-04-3.13795E-16
 -1       479 4.00639E-04 1.78133E-04-2.80819E-16
 -1       480 4.61090E-04 1.64196E-04-2.43170E-16
 -1       481 5.97546E-04 1.80158E-04-1.96342E-16
 -1       482 1.44177E-03 6.04875E-04-4.45184E-16
 -1       483 1.05234E-03-3.90941E-04-9.26400E-16
 -1       484 3.78345E-03 1.72352E-03-2.87599E-15
 -1       485 1.35735E-03-4.62521E-04-1.48358E-15
 -1       486 1.65613E-03-5.08422E-04-2.16693E-15
 -1       487 1.94798E-03-5.22885E-04-2.97702E-15
 -1       488 2.23449E-03-5.00338E-04-3.91231E-15
 -1       489 2.51901E-03-4.38406E-04-4.96859E-15
 -1       490 2.80532E-03-3.39900E-04-6.14208E-15
 -1       491 3.09601E-03-2.12476E-04-7.42648E-15
 -1       492 3.39164E-03-6.62259E-05-8.81524E-15
 -1       493 3.69105E-03 8.91668E-05-1.03011E-14
 -1       494 3.99228E-03 2.46321E-04-1.18802E-14
 -1       495 4.29348E-03 4.00690E-04-1.35473E-14
 -1       496 4.59335E-03 5.50168E-04-1.52993E-14
 -1       497 4.89124E-03 6.94334E-04-1.71315E-14
 -1       498 5.18698E-03 8.33734E-04-1.90363E-14
 -1       499 5.48068E-03 9.69338E-04-2.10144E-14
 -1       500 5.77262E-03 1.10221E-03-2.30670E-14
 -1       501 6.06309E-03 1.23329E-03-2.51999E-14
 -1       502 6.35239E-03 1.36338E-03-2.74117E-14
 -1       503 6.64076E-03 1.49305E-03-2.97003E-14
 -1       504 6.92841E-03 1.62271E-03-3.20650E-14
 -1       505 7.21552E-03 1.75260E-03-3.44981E-14
 -1       506 7.50222E-03 1.88289E-03-3.69950E-14
 -1       507 7.78861E-03 2.01361E-03-3.95514E-14
 -1       508 8.07477E-03 2.14479E-03-4.21658E-14
 -1       509 8.36077E-03 2.27640E-03-4.48294E-14
 -1       510 8.64666E-03 2.40838E-03-4.75418E-14
 -1       511 8.93246E-03 2.54070E-03-5.02929E-14
 -1       512 9.21821E-03 2.67329E-03-5.30756E-14
 -1       513 9.50393E-03 2.80610E-03-5.58910E-14
 -1       514 9.78962E-03 2.93909E-03-5.87302E-14
 -1       515 1.00753E-02 3.07221E-03-6.15984E-14
 -1       516 1.03610E-02 3.20544E-03-6.45003E-14
 -1       517 1.06467E-02 3.33875E-03-6.74287E-14
 -1       518 1.09323E-02 3.47212E-03-7.03911E-14
 -1       519 1.12180E-02 3.60552E-03-7.33851E-14
 -1       520 1.15037E-02 3.73896E-03-7.64088E-14
 -1       521 1.17894E-02 3.87241E-03-7.94714E-14
 -1       522 1.20751E-02 4.00587E-03-8.25709E-14
 -1       523 1.23608E-02 4.13934E-03-8.57028E-14
 -1       524 1.26465E-02 4.27281E-03-8.88551E-14
 -1       525 1.29322E-02 4.40629E-03-9.20275E-14
 -1       526 1.32179E-02 4.53976E-03-9.52165E-14
 -1       527 1.35036E-02 4.67322E-03-9.84056E-14
 -1       528 4.27287E-03 1.47404E-03-3.82519E-15
 -1       529 4.70943E-03 1.30442E-03-4.85830E-15
 -1       530 5.08705E-03 1.24703E-03-5.97782E-15
 -1       531 5.42930E-03 1.26904E-03-7.19263E-15
 -1       532 5.75102E-03 1.34356E-03-8.49796E-15
 -1       533 6.06195E-03 1.45033E-03-9.88653E-15
 -1       534 6.36685E-03 1.57575E-03-1.13617E-14
 -1       535 6.66781E-03 1.71121E-03-1.29218E-14
 -1       536 6.96576E-03 1.85155E-03-1.45687E-14
 -1       537 7.26120E-03 1.99380E-03-1.62984E-14
 -1       538 7.55453E-03 2.13633E-03-1.81087E-14
 -1       539 7.84609E-03 2.27829E-03-1.99933E-14
 -1       540 8.15069E-03 2.42634E-03-2.20477E-14
 -1       541 8.43961E-03 2.56625E-03-2.40740E-14
 -1       542 8.72764E-03 2.70512E-03-2.61647E-14
 -1       543 9.01498E-03 2.84303E-03-2.83144E-14
 -1       544 9.30181E-03 2.98009E-03-3.05197E-14
 -1       545 9.58826E-03 3.11641E-03-3.27698E-14
 -1       546 9.87443E-03 3.25213E-03-3.50669E-14
 -1       547 1.01604E-02 3.38733E-03-3.74135E-14
 -1       548 1.04463E-02 3.52212E-03-3.98195E-14
 -1       549 1.07320E-02 3.65658E-03-4.22691E-14
 -1       550 1.10177E-02 3.79078E-03-4.47650E-14
 -1       551 1.13034E-02 3.92478E-03-4.73194E-14
 -1       552 1.15891E-02 4.05861E-03-4.99251E-14
 -1       553 1.18747E-02 4.19234E-03-5.25898E-14
 -1       554 1.21746E-02 4.33265E-03-5.54511E-14
 -1       555 1.24603E-02 4.46621E-03-5.82184E-14
 -1       556 1.27459E-02 4.59974E-03-6.10291E-14
 -1       557 1.30316E-02 4.73323E-03-6.38835E-14
 -1       558 1.33173E-02 4.86670E-03-6.67808E-14
 -1       559 1.36030E-02 5.00015E-03-6.97166E-14
 -1       560 1.38887E-02 5.13360E-03-7.26815E-14
 -1       561 1.41744E-02 5.26705E-03-7.56605E-14
 -1       562 1.44601E-02 5.40049E-03-7.86662E-14
 -1       563 1.47458E-02 5.53394E-03-8.17056E-14
 -1       564 1.50315E-02 5.66739E-03-8.47749E-14
 -1       565 1.53172E-02 5.80084E-03-8.78588E-14
 -1       566 1.49050E-02 5.53079E-03-9.18253E-14
 -1       567 1.47738E-02 5.44649E-03-9.28845E-14
 -1       568 1.51653E-02 5.69795E-03-8.96989E-14
 -1       569 1.50352E-02 5.61437E-03-9.07670E-14
 -1       570 1.46425E-02 5.36219E-03-9.39385E-14
 -1       571 1.45113E-02 5.27789E-03-9.50007E-14
 -1       572 1.43801E-02 5.19358E-03-9.60553E-14
 -1       573 1.42511E-02 5.11071E-03-9.70949E-14
 -1       574 1.41198E-02 5.02641E-03-9.81495E-14
 -1       575 1.39886E-02 4.94212E-03-9.92027E-14
 -1       576 1.38574E-02 4.85783E-03-1.00250E-13
 -1       577 5.30784E-03 9.47495E-04-6.45528E-15
 -1       578 5.20029E-03 1.00227E-03-5.85670E-15
 -1       579 5.23139E-03 9.21411E-04-6.65291E-15
 -1       580 4.98950E-03 1.08199E-03-5.30546E-15
 -1       581 7.70975E-04-2.93848E-04-5.31689E-16
 -1       582 4.67062E-03 7.43351E-04-6.54083E-15
 -1       583 3.77498E-03 3.00918E-04-5.63884E-15
 -1       584 2.29067E-03-2.48940E-04-2.77296E-15
 -1       585 6.52950E-04 3.06030E-04-7.95025E-16
 -1       586 6.83715E-04 5.81154E-05-4.10435E-16
 -1       587 1.30147E-03 6.02747E-04-7.07188E-16
 -1       588 3.41315E-03 1.84675E-03-2.22639E-15
 -1       589 1.59035E-03 4.17083E-06-1.64208E-15
 -1       590 1.74135E-03 8.77575E-04-8.25576E-16
 -1       591 6.02631E-04 3.18722E-04-6.27351E-16
 -1       592 5.50935E-04 3.16842E-04-6.93838E-16
 -1       593 8.93610E-04 2.54311E-04-9.57374E-16
 -1       594 3.38682E-03 6.89270E-05-4.97715E-15
 -1       595 1.22394E-03 1.51013E-04-1.24657E-15
 -1       596 1.97485E-03-1.56719E-04-2.18368E-15
 -1       597 2.63117E-03-2.52879E-04-3.51780E-15
 -1       598 5.01503E-03 8.67144E-04-6.77574E-15
 -1       599 4.23947E-03 5.56909E-04-6.26007E-15
 -1       600 8.20097E-04 2.61068E-04-1.02488E-16
 -1       601 7.54315E-04-1.71103E-04-4.96609E-16
 -1       602 1.82038E-03 8.80956E-04-6.74340E-16
 -1       603 1.52412E-02 5.74939E-03-8.87808E-14
 -1       604 1.36942E-02 4.76178E-03-1.00585E-13
 -1       605 5.32327E-03 9.90102E-04-6.57716E-15
 -1       606 4.80041E-03 1.18711E-03-4.98285E-15
 -1       607 2.11414E-03 1.13427E-03-9.14504E-16
 -1       608 1.05380E-03 4.48254E-04-5.82667E-16
 -1       609 6.07070E-04 2.39803E-04-5.45648E-16
 -1       610 7.58436E-04 1.82583E-04-5.99754E-16
 -1       611 5.05355E-04 2.31298E-04-4.12209E-16
 -1       612 6.83192E-04 2.60391E-04-3.92319E-16
 -1       613 1.03702E-03 3.91973E-04-4.05675E-16
 -1       614 1.36669E-02 4.76928E-03-9.80815E-14
 -1       615 4.86427E-03 8.49983E-04-7.47825E-15
 -1       616 2.41186E-03-2.82356E-04-3.21383E-15
 -1       617 5.17903E-03 1.06130E-03-6.10379E-15
 -1       618 1.52240E-03-4.17998E-04-1.78135E-15
 -1       619 1.82973E-03-4.54020E-04-2.51261E-15
 -1       620 2.13029E-03-4.55022E-04-3.36863E-15
 -1       621 2.42639E-03-4.13646E-04-4.34656E-15
 -1       622 2.72266E-03-3.28914E-04-5.44305E-15
 -1       623 3.02321E-03-2.07820E-04-6.65360E-15
 -1       624 3.32939E-03-6.24258E-05-7.97101E-15
 -1       625 3.63957E-03 9.47456E-05-9.38756E-15
 -1       626 3.95072E-03 2.54152E-04-1.08991E-14
 -1       627 4.26001E-03 4.10211E-04-1.25002E-14
 -1       628 4.56572E-03 5.60603E-04-1.41867E-14
 -1       629 4.86726E-03 7.05074E-04-1.59551E-14
 -1       630 5.16483E-03 8.44412E-04-1.77979E-14
 -1       631 5.45907E-03 9.79778E-04-1.97153E-14
 -1       632 5.75070E-03 1.11234E-03-2.17053E-14
 -1       633 6.04042E-03 1.24312E-03-2.37730E-14
 -1       634 6.32878E-03 1.37291E-03-2.59235E-14
 -1       635 6.61621E-03 1.50231E-03-2.81500E-14
 -1       636 6.90303E-03 1.63172E-03-3.04506E-14
 -1       637 7.18945E-03 1.76138E-03-3.28235E-14
 -1       638 7.47561E-03 1.89146E-03-3.52593E-14
 -1       639 7.76160E-03 2.02200E-03-3.77567E-14
 -1       640 8.04749E-03 2.15302E-03-4.03140E-14
 -1       641 8.33332E-03 2.28448E-03-4.29211E-14
 -1       642 8.61910E-03 2.41635E-03-4.55814E-14
 -1       643 8.90486E-03 2.54856E-03-4.82851E-14
 -1       644 9.19060E-03 2.68106E-03-5.10288E-14
 -1       645 9.47633E-03 2.81381E-03-5.38025E-14
 -1       646 9.76205E-03 2.94674E-03-5.66073E-14
 -1       647 1.00478E-02 3.07982E-03-5.94435E-14
 -1       648 1.03335E-02 3.21302E-03-6.23100E-14
 -1       649 1.06192E-02 3.34630E-03-6.52096E-14
 -1       650 1.09049E-02 3.47965E-03-6.81426E-14
 -1       651 1.11906E-02 3.61304E-03-7.11072E-14
 -1       652 1.14763E-02 3.74647E-03-7.41027E-14
 -1       653 1.17620E-02 3.87991E-03-7.71321E-14
 -1       654 1.20478E-02 4.01337E-03-8.02010E-14
 -1       655 1.23335E-02 4.14684E-03-8.32969E-14
 -1       656 1.26192E-02 4.28031E-03-8.64225E-14
 -1       657 1.29049E-02 4.41378E-03-8.95668E-14
 -1       658 1.31906E-02 4.54725E-03-9.27313E-14
 -1       659 1.34287E-02 4.65827E-03-9.54051E-14
 -1       660 2.07351E-03-2.25712E-04-2.40871E-15
 -1       661 5.02162E-03 1.15467E-03-5.71781E-15
 -1       662 5.89790E-03 1.32565E-03-9.64140E-15
 -1       663 6.17471E-03 1.44481E-03-1.10965E-14
 -1       664 6.45477E-03 1.57536E-03-1.26342E-14
 -1       665 6.73770E-03 1.71231E-03-1.42571E-14
 -1       666 7.02263E-03 1.85246E-03-1.59639E-14
 -1       667 7.30877E-03 1.99384E-03-1.77501E-14
 -1       668 7.59548E-03 2.13529E-03-1.96144E-14
 -1       669 7.89674E-03 2.28322E-03-2.16480E-14
 -1       670 8.18361E-03 2.42324E-03-2.36583E-14
 -1       671 8.47034E-03 2.56233E-03-2.57364E-14
 -1       672 8.75688E-03 2.70050E-03-2.78740E-14
 -1       673 9.04324E-03 2.83783E-03-3.00659E-14
 -1       674 9.32944E-03 2.97440E-03-3.23152E-14
 -1       675 9.61549E-03 3.11033E-03-3.46137E-14
 -1       676 9.90144E-03 3.24572E-03-3.69568E-14
 -1       677 1.01873E-02 3.38067E-03-3.93604E-14
 -1       678 1.04731E-02 3.51525E-03-4.18146E-14
 -1       679 1.07589E-02 3.64955E-03-4.43079E-14
 -1       680 1.10446E-02 3.78362E-03-4.68515E-14
 -1       681 1.13303E-02 3.91752E-03-4.94513E-14
 -1       682 1.16160E-02 4.05128E-03-5.20996E-14
 -1       683 1.19160E-02 4.19163E-03-5.49398E-14
 -1       684 1.22017E-02 4.32522E-03-5.76978E-14
 -1       685 1.24874E-02 4.45876E-03-6.04963E-14
 -1       686 1.27731E-02 4.59226E-03-6.33421E-14
 -1       687 1.30588E-02 4.72574E-03-6.62329E-14
 -1       688 1.33445E-02 4.85920E-03-6.91678E-14
 -1       689 1.36302E-02 4.99265E-03-7.21318E-14
 -1       690 1.39159E-02 5.12610E-03-7.51135E-14
 -1       691 1.42016E-02 5.25954E-03-7.81115E-14
 -1       692 1.44873E-02 5.39299E-03-8.11358E-14
 -1       693 1.47730E-02 5.52643E-03-8.41936E-14
 -1       694 1.50071E-02 5.63791E-03-8.64816E-14
 -1       695 1.43295E-02 5.20446E-03-9.17824E-14
 -1       696 1.33998E-03 5.74353E-05-1.25903E-15
 -1       697 1.45920E-02 5.37306E-03-8.96716E-14
 -1       698 1.41982E-02 5.12016E-03-9.28321E-14
 -1       699 1.44607E-02 5.28876E-03-9.07299E-14
 -1       700 9.61326E-04-2.90805E-04-7.79579E-16
 -1       701 1.40692E-02 5.03729E-03-9.38642E-14
 -1       702 1.39380E-02 4.95298E-03-9.49097E-14
 -1       703 1.38068E-02 4.86869E-03-9.59446E-14
 -1       704 3.54016E-03 1.85410E-04-5.74013E-15
 -1       705 5.38093E-04 2.75650E-04-5.79613E-16
 -1       706 3.13439E-03-5.55798E-05-4.82652E-15
 -1       707 5.32725E-03 9.71890E-04-7.22019E-15
 -1       708 5.62285E-03 1.22536E-03-8.26660E-15
 -1       709 5.34300E-03 1.15613E-03-6.97415E-15
 -1       710 5.17932E-03 9.36458E-04-7.35491E-15
 -1       711 3.98955E-03 4.51028E-04-6.63862E-15
 -1       712 1.24294E-03-3.61382E-04-1.23046E-15
 -1       713 4.82760E-04 2.39173E-04-4.48292E-16
 -1       714 1.68734E-03-8.29065E-05-1.72360E-15
 -1       715 1.02228E-03-1.03753E-04-7.86772E-16
 -1       716 2.82483E-03-1.98885E-04-4.16870E-15
 -1       717 6.91729E-04 2.95932E-04-4.97163E-16
 -1       718 4.50369E-03 7.07253E-04-7.18418E-15
 -1       719 9.94969E-04 1.84523E-04-9.14680E-16
 -1       720 1.38929E-03 6.03538E-04-5.73905E-16
 -1       721 1.03078E-03-1.92037E-04-8.30157E-16
 -1       722 8.85336E-04 9.36369E-05-6.54387E-16
 -1       723 2.59575E-03-2.69022E-04-3.82447E-15
 -1       724 5.33792E-03 1.04463E-03-6.83843E-15
 -1       725 9.86350E-04-7.36526E-06-7.35743E-16
 -1       726 5.39911E-03 1.00983E-03-7.34673E-15
 -1       727 1.47221E-02 5.45665E-03-8.86231E-14
 -1       728 1.48522E-02 5.54023E-03-8.75633E-14
 -1       729 7.57168E-04 2.58886E-04-7.59006E-16
 -1       730 5.07414E-04 2.62836E-04-5.09802E-16
 -1       731 2.01785E-03-4.00157E-04-2.85133E-15
 -1       732 2.32606E-03-3.85397E-04-3.74942E-15
 -1       733 2.63173E-03-3.19333E-04-4.76818E-15
 -1       734 2.94143E-03-2.05714E-04-5.90457E-15
 -1       735 3.25847E-03-5.91707E-05-7.15103E-15
 -1       736 3.58114E-03 1.02743E-04-8.50029E-15
 -1       737 3.90468E-03 2.66557E-04-9.94504E-15
 -1       738 4.22456E-03 4.25048E-04-1.14806E-14
 -1       739 4.53813E-03 5.75935E-04-1.31015E-14
 -1       740 4.84471E-03 7.19662E-04-1.48059E-14
 -1       741 5.14496E-03 8.57722E-04-1.65867E-14
 -1       742 5.44012E-03 9.91749E-04-1.84399E-14
 -1       743 5.73153E-03 1.12315E-03-2.03698E-14
 -1       744 6.02036E-03 1.25303E-03-2.23750E-14
 -1       745 6.30753E-03 1.38216E-03-2.44606E-14
 -1       746 6.59371E-03 1.51110E-03-2.66249E-14
 -1       747 6.87936E-03 1.64019E-03-2.88636E-14
 -1       748 7.16477E-03 1.76964E-03-3.11759E-14
 -1       749 7.45010E-03 1.89957E-03-3.35549E-14
 -1       750 7.73544E-03 2.03000E-03-3.59932E-14
 -1       751 8.02085E-03 2.16093E-03-3.84921E-14
 -1       752 8.30633E-03 2.29233E-03-4.10473E-14
 -1       753 8.59187E-03 2.42413E-03-4.36514E-14
 -1       754 8.87748E-03 2.55630E-03-4.63064E-14
 -1       755 9.16313E-03 2.68876E-03-4.90044E-14
 -1       756 9.44882E-03 2.82146E-03-5.17393E-14
 -1       757 9.73453E-03 2.95437E-03-5.45082E-14
 -1       758 1.00203E-02 3.08742E-03-5.73072E-14
 -1       759 1.03060E-02 3.22060E-03-6.01379E-14
 -1       760 1.05917E-02 3.35386E-03-6.30074E-14
 -1       761 1.08775E-02 3.48719E-03-6.59101E-14
 -1       762 1.11632E-02 3.62057E-03-6.88432E-14
 -1       763 1.14489E-02 3.75399E-03-7.18091E-14
 -1       764 1.17347E-02 3.88743E-03-7.48094E-14
 -1       765 1.20204E-02 4.02088E-03-7.78453E-14
 -1       766 1.23061E-02 4.15434E-03-8.09140E-14
 -1       767 1.25919E-02 4.28781E-03-8.40112E-14
 -1       768 1.28776E-02 4.42128E-03-8.71307E-14
 -1       769 1.31633E-02 4.55476E-03-9.02683E-14
 -1       770 6.25835E-03 1.45217E-03-1.23287E-14
 -1       771 6.00321E-03 1.32920E-03-1.08116E-14
 -1       772 6.79460E-03 1.71853E-03-1.56129E-14
 -1       773 7.07118E-03 1.85675E-03-1.73773E-14
 -1       774 7.35113E-03 1.99616E-03-1.92194E-14
 -1       775 7.64743E-03 2.14278E-03-2.12346E-14
 -1       776 7.93107E-03 2.28211E-03-2.32266E-14
 -1       777 8.21558E-03 2.42084E-03-2.52886E-14
 -1       778 8.50062E-03 2.55887E-03-2.74169E-14
 -1       779 8.78598E-03 2.69617E-03-2.96003E-14
 -1       780 9.07153E-03 2.83279E-03-3.18402E-14
 -1       781 9.35718E-03 2.96880E-03-3.41366E-14
 -1       782 9.64289E-03 3.10428E-03-3.64808E-14
 -1       783 9.92862E-03 3.23931E-03-3.88768E-14
 -1       784 1.02144E-02 3.37398E-03-4.13315E-14
 -1       785 1.05001E-02 3.50834E-03-4.38290E-14
 -1       786 1.07859E-02 3.64247E-03-4.63674E-14
 -1       787 1.10716E-02 3.77642E-03-4.89594E-14
 -1       788 1.13573E-02 3.91022E-03-5.16018E-14
 -1       789 1.16574E-02 4.05060E-03-5.44250E-14
 -1       790 1.19431E-02 4.18421E-03-5.71664E-14
 -1       791 1.22288E-02 4.31776E-03-5.99565E-14
 -1       792 1.25145E-02 4.45128E-03-6.27933E-14
 -1       793 1.28003E-02 4.58476E-03-6.56742E-14
 -1       794 1.30860E-02 4.71823E-03-6.86010E-14
 -1       795 1.33717E-02 4.85169E-03-7.15627E-14
 -1       796 1.36574E-02 4.98514E-03-7.45507E-14
 -1       797 1.39431E-02 5.11858E-03-7.75468E-14
 -1       798 1.42289E-02 5.25203E-03-8.05613E-14
 -1       799 1.45146E-02 5.38547E-03-8.36044E-14
 -1       800 1.40164E-02 5.04674E-03-8.96276E-14
 -1       801 1.36250E-02 4.79525E-03-9.27054E-14
 -1       802 1.38874E-02 4.96386E-03-9.06490E-14
 -1       803 3.73079E-03 3.00154E-04-6.72406E-15
 -1       804 5.53084E-03 1.12306E-03-8.00928E-15
 -1       805 1.80344E-03-1.84782E-04-1.94732E-15
 -1       806 5.76014E-03 1.21787E-03-9.37196E-15
 -1       807 4.73657E-03 8.13485E-04-8.16126E-15
 -1       808 1.37562E-02 4.87956E-03-9.16828E-14
 -1       809 2.99933E-03-1.20020E-04-4.95913E-15
 -1       810 6.52297E-03 1.58294E-03-1.39271E-14
 -1       811 1.70232E-03-3.72472E-04-2.07586E-15
 -1       812 5.33390E-03 1.00086E-03-8.14500E-15
 -1       813 1.42939E-03-4.57155E-05-1.33331E-15
 -1       814 1.05699E-03 9.78788E-05-8.79430E-16
 -1       815 4.30489E-03 6.16946E-04-7.68352E-15
 -1       816 5.12439E-03 9.47479E-04-8.28369E-15
 -1       817 1.35268E-02 4.72676E-03-9.40511E-14
 -1       818 2.14223E-03-2.88917E-04-2.71385E-15
 -1       819 3.34924E-03 7.35182E-05-5.81240E-15
 -1       820 1.31824E-03-2.06768E-04-1.23442E-15
 -1       821 1.28236E-03-2.86352E-04-1.24119E-15
 -1       822 2.32522E-03-3.14437E-04-3.26701E-15
 -1       823 1.42789E-02 5.21534E-03-8.75277E-14
 -1       824 1.43844E-02 5.30189E-03-8.46591E-14
 -1       825 1.43317E-02 5.25862E-03-8.60953E-14
 -1       826 1.41477E-02 5.13104E-03-8.85802E-14
 -1       827 4.04853E-03 4.71302E-04-7.76969E-15
 -1       828 5.45556E-03 1.04166E-03-8.28200E-15
 -1       829 1.30607E-03-1.08953E-04-1.16467E-15
 -1       830 1.20254E-03-6.70585E-06-1.01810E-15
 -1       831 2.53457E-03-3.11820E-04-4.11940E-15
 -1       832 2.85366E-03-2.10414E-04-5.17962E-15
 -1       833 3.18219E-03-6.09510E-05-6.35572E-15
 -1       834 3.51954E-03 1.10788E-04-7.63812E-15
 -1       835 3.85809E-03 2.83318E-04-9.01727E-15
 -1       836 4.19089E-03 4.46192E-04-1.04863E-14
 -1       837 4.51378E-03 5.97556E-04-1.20434E-14
 -1       838 4.82605E-03 7.39416E-04-1.36835E-14
 -1       839 5.12905E-03 8.74699E-04-1.54022E-14
 -1       840 5.42488E-03 1.00596E-03-1.71944E-14
 -1       841 5.71566E-03 1.13506E-03-1.90622E-14
 -1       842 6.00316E-03 1.26321E-03-2.10051E-14
 -1       843 6.28871E-03 1.39115E-03-2.30263E-14
 -1       844 6.57324E-03 1.51933E-03-2.51279E-14
 -1       845 6.85736E-03 1.64798E-03-2.73041E-14
 -1       846 7.14143E-03 1.77720E-03-2.95569E-14
 -1       847 7.42566E-03 1.90702E-03-3.18780E-14
 -1       848 7.71012E-03 2.03743E-03-3.42581E-14
 -1       849 7.99485E-03 2.16838E-03-3.66978E-14
 -1       850 8.27982E-03 2.29980E-03-3.91988E-14
 -1       851 8.56501E-03 2.43163E-03-4.17523E-14
 -1       852 8.85036E-03 2.56382E-03-4.43547E-14
 -1       853 9.13585E-03 2.69630E-03-4.70057E-14
 -1       854 9.42143E-03 2.82902E-03-4.96990E-14
 -1       855 9.70709E-03 2.96192E-03-5.24280E-14
 -1       856 9.99279E-03 3.09498E-03-5.51935E-14
 -1       857 1.02785E-02 3.22815E-03-5.79869E-14
 -1       858 1.05643E-02 3.36141E-03-6.08179E-14
 -1       859 1.08500E-02 3.49473E-03-6.36885E-14
 -1       860 1.11358E-02 3.62811E-03-6.65921E-14
 -1       861 1.14215E-02 3.76152E-03-6.95266E-14
 -1       862 1.17073E-02 3.89495E-03-7.24984E-14
 -1       863 1.19930E-02 4.02840E-03-7.55082E-14
 -1       864 1.22788E-02 4.16186E-03-7.85466E-14
 -1       865 1.25645E-02 4.29532E-03-8.16156E-14
 -1       866 1.28503E-02 4.42879E-03-8.47121E-14
 -1       867 1.31360E-02 4.56226E-03-8.78290E-14
 -1       868 1.89298E-03-3.29866E-04-2.36504E-15
 -1       869 7.11127E-03 1.86210E-03-1.88083E-14
 -1       870 6.83887E-03 1.72643E-03-1.69869E-14
 -1       871 7.68147E-03 2.14367E-03-2.27795E-14
 -1       872 7.96311E-03 2.28131E-03-2.48250E-14
 -1       873 8.24611E-03 2.41863E-03-2.69410E-14
 -1       874 8.53004E-03 2.55551E-03-2.91169E-14
 -1       875 8.81460E-03 2.69188E-03-3.13506E-14
 -1       876 9.09957E-03 2.82776E-03-3.36379E-14
 -1       877 9.38483E-03 2.96317E-03-3.59830E-14
 -1       878 9.67028E-03 3.09818E-03-3.83755E-14
 -1       879 9.95585E-03 3.23285E-03-4.08246E-14
 -1       880 1.02415E-02 3.36723E-03-4.33252E-14
 -1       881 1.05272E-02 3.50138E-03-4.58680E-14
 -1       882 1.08129E-02 3.63535E-03-4.84551E-14
 -1       883 1.10987E-02 3.76917E-03-5.10860E-14
 -1       884 1.13987E-02 3.90957E-03-5.39015E-14
 -1       885 1.16845E-02 4.04320E-03-5.66271E-14
 -1       886 1.19702E-02 4.17676E-03-5.94056E-14
 -1       887 1.22560E-02 4.31029E-03-6.22328E-14
 -1       888 1.25417E-02 4.44378E-03-6.51048E-14
 -1       889 1.28275E-02 4.57726E-03-6.80231E-14
 -1       890 1.31132E-02 4.71072E-03-7.09795E-14
 -1       891 1.33989E-02 4.84417E-03-7.39642E-14
 -1       892 1.36847E-02 4.97762E-03-7.69687E-14
 -1       893 1.39704E-02 5.11107E-03-7.99774E-14
 -1       894 1.41774E-02 5.20648E-03-8.23101E-14
 -1       895 1.85596E-03-2.67154E-04-2.15636E-15
 -1       896 1.37045E-02 4.88972E-03-8.74607E-14
 -1       897 6.31443E-03 1.46482E-03-1.35821E-14
 -1       898 1.61465E-03-2.31635E-04-1.70857E-15
 -1       899 2.21725E-03-3.49668E-04-3.18065E-15
 -1       900 6.57245E-03 1.59342E-03-1.52429E-14
 -1       901 5.04726E-03 9.33222E-04-9.28130E-15
 -1       902 4.61006E-03 7.50848E-04-8.97317E-15
 -1       903 7.39484E-03 2.00261E-03-2.07562E-14
 -1       904 6.06804E-03 1.34286E-03-1.20039E-14
 -1       905 5.34205E-03 1.02671E-03-9.18747E-15
 -1       906 1.32672E-02 4.64657E-03-8.68389E-14
 -1       907 3.25356E-03 3.79141E-06-6.09256E-15
 -1       908 1.39658E-02 5.05762E-03-8.53991E-14
 -1       909 1.40186E-02 5.10090E-03-8.39719E-14
 -1       910 5.50781E-03 1.08436E-03-8.00094E-15
 -1       911 4.37406E-03 6.23167E-04-9.06622E-15
 -1       912 1.34858E-02 4.76814E-03-8.71577E-14
 -1       913 1.38351E-02 4.97367E-03-8.64347E-14
 -1       914 5.83788E-03 1.23010E-03-1.05022E-14
 -1       915 5.49643E-03 1.07601E-03-9.33892E-15
 -1       916 3.75623E-03 2.92048E-04-7.48025E-15
 -1       917 3.49987E-03 1.44780E-04-6.77181E-15
 -1       918 5.61220E-03 1.11896E-03-9.10124E-15
 -1       919 5.68649E-03 1.16403E-03-9.22559E-15
 -1       920 3.81689E-03 3.03398E-04-8.11396E-15
 -1       921 4.16519E-03 4.74237E-04-9.52163E-15
 -1       922 4.49805E-03 6.26593E-04-1.10132E-14
 -1       923 4.81546E-03 7.65361E-04-1.25883E-14
 -1       924 5.12003E-03 8.96072E-04-1.42446E-14
 -1       925 5.41522E-03 1.02286E-03-1.59765E-14
 -1       926 5.70418E-03 1.14828E-03-1.77831E-14
 -1       927 5.98936E-03 1.27371E-03-1.96623E-14
 -1       928 6.27252E-03 1.39982E-03-2.16202E-14
 -1       929 6.55480E-03 1.52688E-03-2.36591E-14
 -1       930 6.83693E-03 1.65491E-03-2.57742E-14
 -1       931 7.11933E-03 1.78387E-03-2.79635E-14
 -1       932 7.40218E-03 1.91364E-03-3.02264E-14
 -1       933 7.68555E-03 2.04412E-03-3.25515E-14
 -1       934 7.96943E-03 2.17519E-03-3.49348E-14
 -1       935 8.25377E-03 2.30676E-03-3.73798E-14
 -1       936 8.53848E-03 2.43873E-03-3.98799E-14
 -1       937 8.82350E-03 2.57104E-03-4.24306E-14
 -1       938 9.10875E-03 2.70361E-03-4.50330E-14
 -1       939 9.39419E-03 2.83640E-03-4.76815E-14
 -1       940 9.67974E-03 2.96936E-03-5.03700E-14
 -1       941 9.96539E-03 3.10245E-03-5.30947E-14
 -1       942 1.02511E-02 3.23565E-03-5.58564E-14
 -1       943 1.05368E-02 3.36892E-03-5.86490E-14
 -1       944 1.08226E-02 3.50226E-03-6.14823E-14
 -1       945 1.11084E-02 3.63564E-03-6.43518E-14
 -1       946 1.13941E-02 3.76904E-03-6.72549E-14
 -1       947 1.16799E-02 3.90248E-03-7.01990E-14
 -1       948 1.19657E-02 4.03592E-03-7.31816E-14
 -1       949 1.22514E-02 4.16938E-03-7.61959E-14
 -1       950 1.25372E-02 4.30284E-03-7.92352E-14
 -1       951 1.28229E-02 4.43631E-03-8.23056E-14
 -1       952 1.30451E-02 4.54144E-03-8.45703E-14
 -1       953 2.56657E-03-2.92431E-04-4.07150E-15
 -1       954 7.99294E-03 2.28022E-03-2.64495E-14
 -1       955 7.71220E-03 2.14420E-03-2.43469E-14
 -1       956 8.55853E-03 2.55197E-03-3.08416E-14
 -1       957 8.84263E-03 2.68744E-03-3.31236E-14
 -1       958 9.12728E-03 2.82259E-03-3.54630E-14
 -1       959 9.41231E-03 2.95743E-03-3.78555E-14
 -1       960 9.69761E-03 3.09198E-03-4.02984E-14
 -1       961 9.98308E-03 3.22630E-03-4.27970E-14
 -1       962 1.02687E-02 3.36041E-03-4.53425E-14
 -1       963 1.05543E-02 3.49435E-03-4.79338E-14
 -1       964 1.08401E-02 3.62817E-03-5.05636E-14
 -1       965 1.11401E-02 3.76856E-03-5.33696E-14
 -1       966 1.14259E-02 3.90219E-03-5.60860E-14
 -1       967 1.17116E-02 4.03576E-03-5.88485E-14
 -1       968 1.19974E-02 4.16929E-03-6.16665E-14
 -1       969 1.22832E-02 4.30279E-03-6.45282E-14
 -1       970 1.25689E-02 4.43627E-03-6.74390E-14
 -1       971 1.28547E-02 4.56974E-03-7.03875E-14
 -1       972 1.31404E-02 4.70320E-03-7.33682E-14
 -1       973 1.34262E-02 4.83665E-03-7.63735E-14
 -1       974 1.37119E-02 4.97010E-03-7.93892E-14
 -1       975 2.06840E-03-3.28643E-04-2.72173E-15
 -1       976 1.40980E-02 5.15369E-03-8.31414E-14
 -1       977 8.27519E-03 2.41620E-03-2.86153E-14
 -1       978 6.60715E-03 1.60302E-03-1.65782E-14
 -1       979 6.87285E-03 1.73352E-03-1.83803E-14
 -1       980 4.95505E-03 8.91418E-04-1.02097E-14
 -1       981 5.36085E-03 1.04857E-03-1.05299E-14
 -1       982 6.10177E-03 1.35699E-03-1.32153E-14
 -1       983 6.34919E-03 1.47686E-03-1.48556E-14
 -1       984 7.15106E-03 1.87015E-03-2.03078E-14
 -1       985 5.86875E-03 1.24546E-03-1.16520E-14
 -1       986 5.53590E-03 1.11011E-03-1.07012E-14
 -1       987 1.39050E-02 5.06189E-03-8.12604E-14
 -1       988 1.37249E-02 4.94975E-03-8.23259E-14
 -1       989 1.35224E-02 4.81612E-03-8.42875E-14
 -1       990 5.73819E-03 1.18084E-03-1.03490E-14
 -1       991 1.36236E-02 4.88294E-03-8.33101E-14
 -1       992 1.33037E-02 4.69454E-03-8.39846E-14
 -1       993 4.73560E-03 7.84868E-04-1.03204E-14
 -1       994 7.43012E-03 2.00677E-03-2.22904E-14
 -1       995 4.60840E-03 7.05364E-04-1.06712E-14
 -1       996 8.02092E-03 2.27846E-03-2.80965E-14
 -1       997 4.92205E-03 8.35818E-04-1.22198E-14
 -1       998 5.22125E-03 9.59064E-04-1.38477E-14
 -1       999 5.51098E-03 1.08014E-03-1.55504E-14
 -1      1000 5.79507E-03 1.20159E-03-1.73308E-14
 -1      1001 6.07620E-03 1.32452E-03-1.91863E-14
 -1      1002 6.35611E-03 1.44922E-03-2.11181E-14
 -1      1003 6.63588E-03 1.57563E-03-2.31290E-14
 -1      1004 6.91608E-03 1.70353E-03-2.52181E-14
 -1      1005 7.19702E-03 1.83265E-03-2.73815E-14
 -1      1006 7.47878E-03 1.96276E-03-2.96153E-14
 -1      1007 7.76135E-03 2.09363E-03-3.19135E-14
 -1      1008 8.04465E-03 2.22511E-03-3.42712E-14
 -1      1009 8.32856E-03 2.35705E-03-3.66888E-14
 -1      1010 8.61298E-03 2.48935E-03-3.91634E-14
 -1      1011 8.89779E-03 2.62193E-03-4.16880E-14
 -1      1012 9.18290E-03 2.75473E-03-4.42639E-14
 -1      1013 9.46824E-03 2.88769E-03-4.68870E-14
 -1      1014 9.75375E-03 3.02079E-03-4.95525E-14
 -1      1015 1.00394E-02 3.15398E-03-5.22576E-14
 -1      1016 1.03251E-02 3.28725E-03-5.49974E-14
 -1      1017 1.06108E-02 3.42058E-03-5.77756E-14
 -1      1018 1.08966E-02 3.55395E-03-6.05908E-14
 -1      1019 1.11823E-02 3.68735E-03-6.34403E-14
 -1      1020 1.14681E-02 3.82077E-03-6.63251E-14
 -1      1021 1.17539E-02 3.95421E-03-6.92601E-14
 -1      1022 1.20397E-02 4.08766E-03-7.22335E-14
 -1      1023 1.23254E-02 4.22112E-03-7.52344E-14
 -1      1024 1.26112E-02 4.35458E-03-7.82638E-14
 -1      1025 1.28969E-02 4.48804E-03-8.13238E-14
 -1      1026 7.74029E-03 2.14383E-03-2.59398E-14
 -1      1027 8.87014E-03 2.68268E-03-3.49223E-14
 -1      1028 8.58618E-03 2.54803E-03-3.25902E-14
 -1      1029 9.43962E-03 2.95148E-03-3.97557E-14
 -1      1030 9.72485E-03 3.08562E-03-4.22496E-14
 -1      1031 1.00103E-02 3.21961E-03-4.47954E-14
 -1      1032 1.02959E-02 3.35348E-03-4.73877E-14
 -1      1033 1.05815E-02 3.48724E-03-5.00220E-14
 -1      1034 1.08816E-02 3.62760E-03-5.28251E-14
 -1      1035 1.11673E-02 3.76121E-03-5.55390E-14
 -1      1036 1.14531E-02 3.89478E-03-5.82933E-14
 -1      1037 1.17389E-02 4.02830E-03-6.10940E-14
 -1      1038 1.20246E-02 4.16180E-03-6.39434E-14
 -1      1039 1.23104E-02 4.29528E-03-6.68435E-14
 -1      1040 1.25962E-02 4.42875E-03-6.97892E-14
 -1      1041 1.28820E-02 4.56221E-03-7.27640E-14
 -1      1042 1.31677E-02 4.69567E-03-7.57663E-14
 -1      1043 1.34535E-02 4.82912E-03-7.87897E-14
 -1      1044 1.31744E-02 4.61799E-03-8.42810E-14
 -1      1045 8.30301E-03 2.41326E-03-3.03142E-14
 -1      1046 5.29243E-03 1.02254E-03-1.15929E-14
 -1      1047 6.63185E-03 1.60969E-03-1.79349E-14
 -1      1048 9.15467E-03 2.81717E-03-3.73147E-14
 -1      1049 5.87283E-03 1.25516E-03-1.28225E-14
 -1      1050 6.90630E-03 1.74166E-03-1.98421E-14
 -1      1051 5.48172E-03 1.09787E-03-1.17884E-14
 -1      1052 1.32354E-02 4.68075E-03-8.13527E-14
 -1      1053 6.37021E-03 1.48507E-03-1.61524E-14
 -1      1054 1.33522E-02 4.76230E-03-7.97619E-14
 -1      1055 5.09613E-03 9.34395E-04-1.17238E-14
 -1      1056 7.45817E-03 2.00800E-03-2.38251E-14
 -1      1057 6.11636E-03 1.36618E-03-1.44474E-14
 -1      1058 1.30263E-02 4.56460E-03-8.10355E-14
 -1      1059 5.23416E-03 9.85010E-04-1.27195E-14
 -1      1060 5.51614E-03 1.09835E-03-1.43596E-14
 -1      1061 5.79325E-03 1.21418E-03-1.60763E-14
 -1      1062 6.06852E-03 1.33324E-03-1.78689E-14
 -1      1063 6.34372E-03 1.45555E-03-1.97395E-14
 -1      1064 6.61977E-03 1.58065E-03-2.16887E-14
 -1      1065 6.89709E-03 1.70800E-03-2.37162E-14
 -1      1066 7.17582E-03 1.83706E-03-2.58211E-14
 -1      1067 7.45591E-03 1.96739E-03-2.79947E-14
 -1      1068 7.73721E-03 2.09862E-03-3.02353E-14
 -1      1069 8.01956E-03 2.23052E-03-3.25391E-14
 -1      1070 8.30278E-03 2.36287E-03-3.49002E-14
 -1      1071 8.58669E-03 2.49554E-03-3.73212E-14
 -1      1072 8.87113E-03 2.62844E-03-3.97951E-14
 -1      1073 9.15599E-03 2.76151E-03-4.23223E-14
 -1      1074 9.44116E-03 2.89468E-03-4.48963E-14
 -1      1075 9.72654E-03 3.02794E-03-4.75186E-14
 -1      1076 1.00121E-02 3.16126E-03-5.01834E-14
 -1      1077 1.02977E-02 3.29462E-03-5.28860E-14
 -1      1078 1.05834E-02 3.42801E-03-5.56252E-14
 -1      1079 1.08692E-02 3.56142E-03-5.84049E-14
 -1      1080 1.11550E-02 3.69485E-03-6.12206E-14
 -1      1081 1.14408E-02 3.82829E-03-6.40693E-14
 -1      1082 1.17265E-02 3.96174E-03-6.69686E-14
 -1      1083 1.20123E-02 4.09519E-03-6.99091E-14
 -1      1084 1.22981E-02 4.22865E-03-7.28886E-14
 -1      1085 1.25839E-02 4.36211E-03-7.58928E-14
 -1      1086 1.28051E-02 4.46335E-03-7.84537E-14
 -1      1087 7.76651E-03 2.14230E-03-2.75588E-14
 -1      1088 9.75204E-03 3.07906E-03-4.42271E-14
 -1      1089 9.46678E-03 2.94527E-03-4.16833E-14
 -1      1090 1.03231E-02 3.34644E-03-4.94529E-14
 -1      1091 1.06231E-02 3.48672E-03-5.22592E-14
 -1      1092 1.09088E-02 3.62029E-03-5.49743E-14
 -1      1093 1.11946E-02 3.75382E-03-5.77274E-14
 -1      1094 1.14803E-02 3.88733E-03-6.05163E-14
 -1      1095 1.17661E-02 4.02082E-03-6.33568E-14
 -1      1096 1.20519E-02 4.15430E-03-6.62413E-14
 -1      1097 1.23377E-02 4.28776E-03-6.91751E-14
 -1      1098 1.26235E-02 4.42123E-03-7.21481E-14
 -1      1099 1.29092E-02 4.55469E-03-7.51475E-14
 -1      1100 1.31307E-02 4.65850E-03-7.74498E-14
 -1      1101 8.61319E-03 2.54355E-03-3.43643E-14
 -1      1102 8.89723E-03 2.67750E-03-3.67501E-14
 -1      1103 7.18046E-03 1.87398E-03-2.17966E-14
 -1      1104 1.00375E-02 3.21278E-03-4.68172E-14
 -1      1105 9.18181E-03 2.81142E-03-3.91933E-14
 -1      1106 8.04755E-03 2.27581E-03-2.97682E-14
 -1      1107 6.65420E-03 1.61436E-03-1.93338E-14
 -1      1108 5.74535E-03 1.20521E-03-1.35720E-14
 -1      1109 7.48366E-03 2.00770E-03-2.53869E-14
 -1      1110 5.43402E-03 1.07622E-03-1.26464E-14
 -1      1111 1.30785E-02 4.61155E-03-7.92441E-14
 -1      1112 6.38739E-03 1.49009E-03-1.74911E-14
 -1      1113 8.32988E-03 2.40962E-03-3.20384E-14
 -1      1114 6.92689E-03 1.74300E-03-2.12703E-14
 -1      1115 5.79802E-03 1.22497E-03-1.48472E-14
 -1      1116 6.06458E-03 1.33990E-03-1.65789E-14
 -1      1117 6.33331E-03 1.45976E-03-1.83872E-14
 -1      1118 6.60461E-03 1.58366E-03-2.02734E-14
 -1      1119 6.87848E-03 1.71064E-03-2.22388E-14
 -1      1120 7.15470E-03 1.83986E-03-2.42835E-14
 -1      1121 7.43299E-03 1.97063E-03-2.64002E-14
 -1      1122 7.71299E-03 2.10245E-03-2.85831E-14
 -1      1123 7.99441E-03 2.23497E-03-3.08321E-14
 -1      1124 8.27696E-03 2.36791E-03-3.31377E-14
 -1      1125 8.56039E-03 2.50111E-03-3.55037E-14
 -1      1126 8.84450E-03 2.63447E-03-3.79263E-14
 -1      1127 9.12911E-03 2.76791E-03-4.04039E-14
 -1      1128 9.41411E-03 2.90139E-03-4.29287E-14
 -1      1129 9.69938E-03 3.03488E-03-4.55053E-14
 -1      1130 9.98485E-03 3.16838E-03-4.81281E-14
 -1      1131 1.02704E-02 3.30187E-03-5.07930E-14
 -1      1132 1.05561E-02 3.43536E-03-5.34926E-14
 -1      1133 1.08419E-02 3.56884E-03-5.62341E-14
 -1      1134 1.11276E-02 3.70231E-03-5.90133E-14
 -1      1135 1.14134E-02 3.83578E-03-6.18289E-14
 -1      1136 1.16992E-02 3.96925E-03-6.46879E-14
 -1      1137 1.19850E-02 4.10271E-03-6.75923E-14
 -1      1138 1.22708E-02 4.23617E-03-7.05430E-14
 -1      1139 1.25566E-02 4.36963E-03-7.35313E-14
 -1      1140 6.12559E-03 1.37077E-03-1.57264E-14
 -1      1141 1.28175E-02 4.49059E-03-7.63748E-14
 -1      1142 7.20475E-03 1.87494E-03-2.32973E-14
 -1      1143 0.00000E+00 0.00000E+00 0.00000E+00
 -1      1144 0.00000E+00 0.00000E+00 0.00000E+00
 -1      1145 0.00000E+00 0.00000E+00 0.00000E+00
 -1      1146 0.00000E+00 0.00000E+00 0.00000E+00
 -1      1147 0.00000E+00 0.00000E+00 0.00000E+00
 -1      1148 0.00000E+00 0.00000E+00 0.00000E+00
 -1      1149 0.00000E+00 0.00000E+00 0.00000E+00
 -1      1150 0.00000E+00 0.00000E+00 0.00000E+00
 -1      1151 0.00000E+00 0.00000E+00 0.00000E+00
 -1      1152 0.00000E+00 0.00000E+00 0.00000E+00
 -1      1153 0.00000E+00 0.00000E+00 0.00000E+00
 -1      1154 0.00000E+00 0.00000E+00 0.00000E+00
 -1      1155 0.00000E+00 0.00000E+00 0.00000E+00
 -1      1156 0.00000E+00 0.00000E+00 0.00000E+00
 -1      1157 0.00000E+00 0.00000E+00 0.00000E+00
 -1      1158 0.00000E+00 0.00000E+00 0.00000E+00
 -1      1159 0.00000E+00 0.00000E+00 0.00000E+00
 -1      1160 2.27415E-04-1.62339E-04-1.62359E-17
 -1      1161 5.88308E-04-3.75158E-04-1.50528E-16
 -1      1162 8.80580E-04-5.16882E-04-4.24546E-16
 -1      1163 1.15167E-03-6.14815E-04-8.58675E-16
 -1      1164 1.40801E-03-6.81399E-04-1.43975E-15
 -1      1165 1.65221E-03-7.19067E-04-2.15974E-15
 -1      1166 1.88713E-03-7.25924E-04-3.01368E-15
 -1      1167 2.11688E-03-6.99407E-04-3.99783E-15
 -1      1168 2.34675E-03-6.38781E-04-5.10958E-15
 -1      1169 2.58225E-03-5.46415E-04-6.34640E-15
 -1      1170 2.82780E-03-4.27758E-04-7.70051E-15
 -1      1171 3.08582E-03-2.90199E-04-9.15915E-15
 -1      1172 3.35647E-03-1.41454E-04-1.07152E-14
 -1      1173 3.63810E-03 1.18305E-05-1.23667E-14
 -1      1174 3.92801E-03 1.64858E-04-1.41087E-14
 -1      1175 4.22323E-03 3.14797E-04-1.59349E-14
 -1      1176 4.52116E-03 4.60452E-04-1.78415E-14
 -1      1177 4.81974E-03 6.01759E-04-1.98218E-14
 -1      1178 5.11761E-03 7.39294E-04-2.18751E-14
 -1      1179 5.41399E-03 8.73904E-04-2.40027E-14
 -1      1180 5.70855E-03 1.00646E-03-2.62094E-14
 -1      1181 6.00124E-03 1.13772E-03-2.84961E-14
 -1      1182 6.29223E-03 1.26830E-03-3.08611E-14
 -1      1183 6.58176E-03 1.39864E-03-3.33069E-14
 -1      1184 6.87011E-03 1.52904E-03-3.58298E-14
 -1      1185 7.15753E-03 1.65968E-03-3.84172E-14
 -1      1186 7.44426E-03 1.79065E-03-4.10659E-14
 -1      1187 7.73049E-03 1.92199E-03-4.37708E-14
 -1      1188 8.01639E-03 2.05370E-03-4.65327E-14
 -1      1189 8.30206E-03 2.18576E-03-4.93386E-14
 -1      1190 8.58760E-03 2.31810E-03-5.21735E-14
 -1      1191 8.87307E-03 2.45071E-03-5.50424E-14
 -1      1192 9.15851E-03 2.58352E-03-5.79374E-14
 -1      1193 9.44396E-03 2.71650E-03-6.08438E-14
 -1      1194 9.72942E-03 2.84962E-03-6.37626E-14
 -1      1195 1.00149E-02 2.98284E-03-6.67131E-14
 -1      1196 1.03004E-02 3.11613E-03-6.96855E-14
 -1      1197 1.05860E-02 3.24949E-03-7.26851E-14
 -1      1198 1.08716E-02 3.38288E-03-7.57095E-14
 -1      1199 1.11572E-02 3.51630E-03-7.87727E-14
 -1      1200 1.14428E-02 3.64975E-03-8.18866E-14
 -1      1201 1.17285E-02 3.78321E-03-8.50522E-14
 -1      1202 1.20141E-02 3.91667E-03-8.82515E-14
 -1      1203 1.22998E-02 4.05014E-03-9.14652E-14
 -1      1204 1.25855E-02 4.18361E-03-9.46882E-14
 -1      1205 1.28712E-02 4.31707E-03-9.79106E-14
 -1      1206 1.31569E-02 4.45054E-03-1.01130E-13
 -1      1207 1.34426E-02 4.58400E-03-1.04344E-13
 -1      1208 1.37283E-02 4.71746E-03-1.07553E-13
 -1      1209 1.40069E-02 4.84758E-03-1.10678E-13
 -1      1210 2.88458E-04 1.62254E-04 4.06034E-17
 -1      1211 7.56506E-04 3.35048E-04 8.61670E-17
 -1      1212 1.21302E-03 4.97950E-04 7.49726E-17
 -1      1213 1.68365E-03 7.01624E-04-4.17418E-18
 -1      1214 2.15740E-03 9.78807E-04-1.59703E-16
 -1      1215 2.60063E-03 1.33092E-03-4.01724E-16
 -1      1216 2.96851E-03 1.69815E-03-7.46649E-16
 -1      1217 3.24866E-03 1.96011E-03-1.20241E-15
 -1      1218 3.48404E-03 2.01937E-03-1.75473E-15
 -1      1219 3.75593E-03 1.91160E-03-2.41095E-15
 -1      1220 4.12315E-03 1.72668E-03-3.22350E-15
 -1      1221 4.56296E-03 1.57023E-03-4.17331E-15
 -1      1222 5.02092E-03 1.49729E-03-5.23376E-15
 -1      1223 5.46313E-03 1.50505E-03-6.39828E-15
 -1      1224 5.87568E-03 1.57089E-03-7.65269E-15
 -1      1225 6.25763E-03 1.67276E-03-8.99336E-15
 -1      1226 6.61357E-03 1.79502E-03-1.04280E-14
 -1      1227 6.94932E-03 1.92804E-03-1.19540E-14
 -1      1228 7.27012E-03 2.06627E-03-1.35746E-14
 -1      1229 7.58014E-03 2.20667E-03-1.52844E-14
 -1      1230 7.88251E-03 2.34758E-03-1.70771E-14
 -1      1231 8.17949E-03 2.48820E-03-1.89373E-14
 -1      1232 8.47999E-03 2.63160E-03-2.09173E-14
 -1      1233 8.77775E-03 2.77412E-03-2.29776E-14
 -1      1234 9.06645E-03 2.91229E-03-2.50426E-14
 -1      1235 9.35393E-03 3.04966E-03-2.71603E-14
 -1      1236 9.64059E-03 3.18630E-03-2.93325E-14
 -1      1237 9.92671E-03 3.32231E-03-3.15488E-14
 -1      1238 1.02125E-02 3.45780E-03-3.38055E-14
 -1      1239 1.04981E-02 3.59283E-03-3.60995E-14
 -1      1240 1.07835E-02 3.72750E-03-3.84374E-14
 -1      1241 1.10690E-02 3.86188E-03-4.08324E-14
 -1      1242 1.13544E-02 3.99602E-03-4.32939E-14
 -1      1243 1.16398E-02 4.12998E-03-4.58214E-14
 -1      1244 1.19252E-02 4.26379E-03-4.83995E-14
 -1      1245 1.22107E-02 4.39750E-03-5.10517E-14
 -1      1246 1.25033E-02 4.53447E-03-5.38388E-14
 -1      1247 1.27960E-02 4.67137E-03-5.66636E-14
 -1      1248 1.30816E-02 4.80489E-03-5.94402E-14
 -1      1249 1.33672E-02 4.93839E-03-6.22890E-14
 -1      1250 1.36528E-02 5.07186E-03-6.51845E-14
 -1      1251 1.39385E-02 5.20532E-03-6.81062E-14
 -1      1252 1.42242E-02 5.33877E-03-7.10472E-14
 -1      1253 1.45098E-02 5.47222E-03-7.39985E-14
 -1      1254 1.47955E-02 5.60567E-03-7.69857E-14
 -1      1255 1.50812E-02 5.73912E-03-8.00168E-14
 -1      1256 1.53669E-02 5.87257E-03-8.30816E-14
 -1      1257 1.56526E-02 6.00603E-03-8.61776E-14
 -1      1258 1.59384E-02 6.13949E-03-8.92726E-14
 -1      1259 1.62241E-02 6.27295E-03-9.23879E-14
 -1      1260 1.63013E-02 6.29754E-03-9.45023E-14
 -1      1261 1.61701E-02 6.21325E-03-9.55723E-14
 -1      1262 1.60388E-02 6.12897E-03-9.66515E-14
 -1      1263 1.59076E-02 6.04468E-03-9.77299E-14
 -1      1264 1.57763E-02 5.96039E-03-9.88109E-14
 -1      1265 1.56462E-02 5.87681E-03-9.98761E-14
 -1      1266 1.55161E-02 5.79322E-03-1.00951E-13
 -1      1267 1.53848E-02 5.70892E-03-1.02019E-13
 -1      1268 1.52536E-02 5.62461E-03-1.03079E-13
 -1      1269 1.51224E-02 5.54031E-03-1.04120E-13
 -1      1270 1.49911E-02 5.45601E-03-1.05182E-13
 -1      1271 1.48610E-02 5.37242E-03-1.06291E-13
 -1      1272 1.47309E-02 5.28884E-03-1.07428E-13
 -1      1273 1.45997E-02 5.20455E-03-1.08536E-13
 -1      1274 1.44685E-02 5.12026E-03-1.09593E-13
 -1      1275 1.43372E-02 5.03597E-03-1.10639E-13
 -1      1276 1.42071E-02 4.95240E-03-1.11689E-13
 -1      1277 5.27248E-03 8.98503E-04-4.74784E-15
 -1      1278 5.21223E-03 1.05047E-03-4.52024E-15
 -1      1279 5.03483E-03 1.20987E-03-4.21224E-15
 -1      1280 4.71515E-03 1.39219E-03-3.79156E-15
 -1      1281 4.29668E-03 1.56518E-03-3.32590E-15
 -1      1282 3.86315E-03 1.68328E-03-2.90886E-15
 -1      1283 3.36303E-03 1.73470E-03-2.48442E-15
 -1      1284 2.83589E-03 1.69222E-03-2.09668E-15
 -1      1285 2.31787E-03 1.55197E-03-1.76860E-15
 -1      1286 1.82975E-03 1.34720E-03-1.50601E-15
 -1      1287 1.40785E-03 1.12386E-03-1.31348E-15
 -1      1288 1.03567E-03 8.93427E-04-1.17345E-15
 -1      1289 7.53177E-04 6.82935E-04-1.09500E-15
 -1      1290 6.00048E-04 5.16344E-04-1.08382E-15
 -1      1291 5.68330E-04 3.83461E-04-1.13346E-15
 -1      1292 6.50520E-04 2.62176E-04-1.25234E-15
 -1      1293 8.43055E-04 1.47391E-04-1.44487E-15
 -1      1294 1.12349E-03 4.00047E-05-1.70168E-15
 -1      1295 1.46573E-03-5.57868E-05-2.01340E-15
 -1      1296 1.86406E-03-1.31942E-04-2.38465E-15
 -1      1297 2.30902E-03-1.73709E-04-2.80808E-15
 -1      1298 2.76342E-03-1.65040E-04-3.24168E-15
 -1      1299 3.22537E-03-1.02475E-04-3.67395E-15
 -1      1300 3.66859E-03 3.31448E-06-4.06508E-15
 -1      1301 4.09491E-03 1.43743E-04-4.40167E-15
 -1      1302 4.48333E-03 3.00407E-04-4.66180E-15
 -1      1303 4.81140E-03 4.59439E-04-4.83284E-15
 -1      1304 5.06332E-03 6.13393E-04-4.90365E-15
 -1      1305 5.21725E-03 7.55233E-04-4.87446E-15
 -1      1306 1.77362E-04-1.21874E-04-3.47487E-17
 -1      1307 1.19291E-04-6.50429E-05-4.72848E-17
 -1      1308 1.24528E-04-7.62285E-05-4.33274E-17
 -1      1309 1.15939E-04-4.96665E-05-5.24889E-17
 -1      1310 1.17386E-04-5.69484E-05-5.14725E-17
 -1      1311 2.40516E-04-1.23256E-04-1.22772E-16
 -1      1312 1.15253E-04-3.57134E-05-5.28006E-17
 -1      1313 1.15731E-04-4.26605E-05-5.30039E-17
 -1      1314 2.35652E-04-9.31996E-05-1.29332E-16
 -1      1315 1.14507E-04-2.08472E-05-5.12963E-17
 -1      1316 1.15100E-04-2.82463E-05-5.21095E-17
 -1      1317 2.34594E-04-6.50431E-05-1.28451E-16
 -1      1318 1.12411E-04-4.91263E-06-4.84909E-17
 -1      1319 1.13776E-04-1.26864E-05-4.95616E-17
 -1      1320 2.32953E-04-3.56169E-05-1.23667E-16
 -1      1321 1.07863E-04 1.18088E-05-4.51706E-17
 -1      1322 1.10542E-04 3.88549E-06-4.63090E-17
 -1      1323 2.27895E-04-4.26574E-06-1.16619E-16
 -1      1324 1.00347E-04 2.68689E-05-4.14301E-17
 -1      1325 1.04494E-04 2.00636E-05-4.23923E-17
 -1      1326 2.17081E-04 2.73373E-05-1.08203E-16
 -1      1327 9.04031E-05 3.69381E-05-3.81097E-17
 -1      1328 9.55471E-05 3.28180E-05-3.88280E-17
 -1      1329 1.99482E-04 5.44312E-05-9.95298E-17
 -1      1330 8.02862E-05 3.88008E-05-3.49520E-17
 -1      1331 8.50705E-05 3.86391E-05-3.55618E-17
 -1      1332 1.76864E-04 7.08019E-05-9.13711E-17
 -1      1333 7.37669E-05 3.16379E-05-3.13877E-17
 -1      1334 7.62035E-05 3.53373E-05-3.20517E-17
 -1      1335 1.55132E-04 7.14191E-05-8.31312E-17
 -1      1336 7.45643E-05 1.89991E-05-2.74168E-17
 -1      1337 7.30174E-05 2.44160E-05-2.84061E-17
 -1      1338 1.43378E-04 5.68622E-05-7.43492E-17
 -1      1339 8.43354E-05 7.08348E-06-2.21719E-17
 -1      1340 7.82735E-05 1.11944E-05-2.38524E-17
 -1      1341 1.49162E-04 3.51376E-05-6.42119E-17
 -1      1342 1.01877E-04 3.10579E-06-1.53415E-17
 -1      1343 9.22190E-05 2.84312E-06-1.79842E-17
 -1      1344 1.74795E-04 1.89187E-05-5.15403E-17
 -1      1345 1.24412E-04 1.20111E-05-5.57009E-18
 -1      1346 1.12506E-04 5.35971E-06-9.78492E-18
 -1      1347 2.15992E-04 2.02840E-05-3.46674E-17
 -1      1348 1.50666E-04 3.91522E-05 7.76560E-18
 -1      1349 1.36811E-04 2.30353E-05 1.39591E-18
 -1      1350 2.66824E-04 4.72729E-05-1.21837E-17
 -1      1351 2.08631E-04 9.94950E-05 2.65630E-17
 -1      1352 1.80614E-04 6.33638E-05 1.60055E-17
 -1      1353 3.37457E-04 1.05823E-04 1.36609E-17
 -1      1354 4.51743E-04 1.99152E-04 4.64445E-17
 -1      1355 4.47313E-04-2.91889E-04-1.38439E-16
 -1      1356 6.07934E-04-3.78250E-04-2.36654E-16
 -1      1357 7.60998E-04-4.49348E-04-3.78116E-16
 -1      1358 9.08248E-04-5.08339E-04-5.58134E-16
 -1      1359 6.45204E-04-3.76008E-04-3.30993E-16
 -1      1360 1.05035E-03-5.58156E-04-7.74310E-16
 -1      1361 1.18811E-03-5.99519E-04-1.02697E-15
 -1      1362 9.48909E-04-4.96879E-04-6.90989E-16
 -1      1363 1.32223E-03-6.33747E-04-1.31483E-15
 -1      1364 1.45316E-03-6.60592E-04-1.63808E-15
 -1      1365 1.23496E-03-5.82026E-04-1.19329E-15
 -1      1366 1.58135E-03-6.80245E-04-1.99466E-15
 -1      1367 1.70716E-03-6.92221E-04-2.38453E-15
 -1      1368 1.50783E-03-6.37423E-04-1.83321E-15
 -1      1369 1.83107E-03-6.96219E-04-2.80772E-15
 -1      1370 1.95352E-03-6.91836E-04-3.26351E-15
 -1      1371 1.77089E-03-6.62522E-04-2.60619E-15
 -1      1372 2.07506E-03-6.78794E-04-3.75137E-15
 -1      1373 2.19622E-03-6.56976E-04-4.27112E-15
 -1      1374 2.02748E-03-6.54387E-04-3.50960E-15
 -1      1375 2.31761E-03-6.26468E-04-4.82269E-15
 -1      1376 2.43977E-03-5.87555E-04-5.40446E-15
 -1      1377 2.28134E-03-6.10862E-04-4.54033E-15
 -1      1378 2.56325E-03-5.40803E-04-6.01709E-15
 -1      1379 2.68848E-03-4.86880E-04-6.65947E-15
 -1      1380 2.53642E-03-5.32651E-04-5.69426E-15
 -1      1381 2.81584E-03-4.26733E-04-7.32900E-15
 -1      1382 2.94557E-03-3.61272E-04-8.02638E-15
 -1      1383 2.79622E-03-4.24034E-04-6.96561E-15
 -1      1384 3.07781E-03-2.91593E-04-8.74881E-15
 -1      1385 3.21258E-03-2.18653E-04-9.49640E-15
 -1      1386 3.06311E-03-2.92130E-04-8.34585E-15
 -1      1387 3.34981E-03-1.43453E-04-1.02690E-14
 -1      1388 3.48935E-03-6.68312E-05-1.10640E-14
 -1      1389 3.33797E-03-1.45241E-04-9.82836E-15
 -1      1390 3.63096E-03 1.04691E-05-1.18836E-14
 -1      1391 3.77439E-03 8.78202E-05-1.27263E-14
 -1      1392 3.62035E-03 8.89048E-06-1.14081E-14
 -1      1393 3.91936E-03 1.64785E-04-1.35906E-14
 -1      1394 4.06556E-03 2.40965E-04-1.44762E-14
 -1      1395 3.90881E-03 1.64276E-04-1.30794E-14
 -1      1396 4.21272E-03 3.16191E-04-1.53828E-14
 -1      1397 4.36056E-03 3.90257E-04-1.63096E-14
 -1      1398 4.20156E-03 3.17088E-04-1.48375E-14
 -1      1399 4.50885E-03 4.63183E-04-1.72563E-14
 -1      1400 4.65738E-03 5.34905E-04-1.82224E-14
 -1      1401 4.49678E-03 4.65462E-04-1.66787E-14
 -1      1402 4.80597E-03 6.05546E-04-1.92065E-14
 -1      1403 4.95448E-03 6.75129E-04-2.02080E-14
 -1      1404 4.79296E-03 6.08975E-04-1.85969E-14
 -1      1405 5.10280E-03 7.43816E-04-2.12293E-14
 -1      1406 5.25084E-03 8.11676E-04-2.22686E-14
 -1      1407 5.08898E-03 7.48089E-04-2.05896E-14
 -1      1408 5.39854E-03 8.78866E-04-2.33261E-14
 -1      1409 5.54585E-03 9.45471E-04-2.44031E-14
 -1      1410 5.38410E-03 8.83679E-04-2.26556E-14
 -1      1411 5.69277E-03 1.01162E-03-2.54994E-14
 -1      1412 5.83929E-03 1.07741E-03-2.66174E-14
 -1      1413 5.67794E-03 1.01672E-03-2.47970E-14
 -1      1414 5.98541E-03 1.14292E-03-2.77546E-14
 -1      1415 6.13114E-03 1.20823E-03-2.89099E-14
 -1      1416 5.97037E-03 1.14811E-03-2.70180E-14
 -1      1417 6.27650E-03 1.27342E-03-3.00870E-14
 -1      1418 6.42153E-03 1.33853E-03-3.12826E-14
 -1      1419 6.26140E-03 1.27857E-03-2.93186E-14
 -1      1420 6.56624E-03 1.40361E-03-3.24976E-14
 -1      1421 6.71066E-03 1.46871E-03-3.37329E-14
 -1      1422 6.55119E-03 1.40864E-03-3.16972E-14
 -1      1423 6.85483E-03 1.53384E-03-3.49862E-14
 -1      1424 6.99878E-03 1.59903E-03-3.62565E-14
 -1      1425 6.83990E-03 1.53870E-03-3.41518E-14
 -1      1426 7.14252E-03 1.66430E-03-3.75431E-14
 -1      1427 7.28609E-03 1.72965E-03-3.88444E-14
 -1      1428 7.12774E-03 1.66898E-03-3.66760E-14
 -1      1429 7.42950E-03 1.79510E-03-4.01608E-14
 -1      1430 7.57279E-03 1.86065E-03-4.14908E-14
 -1      1431 7.41490E-03 1.79962E-03-3.92638E-14
 -1      1432 7.71597E-03 1.92630E-03-4.28357E-14
 -1      1433 7.85905E-03 1.99204E-03-4.41951E-14
 -1      1434 7.70152E-03 1.93065E-03-4.19092E-14
 -1      1435 8.00206E-03 2.05788E-03-4.55666E-14
 -1      1436 8.14500E-03 2.12381E-03-4.69506E-14
 -1      1437 7.98777E-03 2.06210E-03-4.46096E-14
 -1      1438 8.28790E-03 2.18982E-03-4.83447E-14
 -1      1439 8.43075E-03 2.25592E-03-4.97475E-14
 -1      1440 8.27374E-03 2.19393E-03-4.73587E-14
 -1      1441 8.57357E-03 2.32209E-03-5.11597E-14
 -1      1442 8.71637E-03 2.38832E-03-5.25774E-14
 -1      1443 8.55954E-03 2.32610E-03-5.01513E-14
 -1      1444 8.85915E-03 2.45462E-03-5.40049E-14
 -1      1445 9.00192E-03 2.52098E-03-5.54399E-14
 -1      1446 8.84521E-03 2.45856E-03-5.29752E-14
 -1      1447 9.14468E-03 2.58738E-03-5.68774E-14
 -1      1448 9.28743E-03 2.65383E-03-5.83212E-14
 -1      1449 9.13081E-03 2.59127E-03-5.58265E-14
 -1      1450 9.43018E-03 2.72033E-03-5.97703E-14
 -1      1451 9.57294E-03 2.78685E-03-6.12205E-14
 -1      1452 9.41638E-03 2.72417E-03-5.87008E-14
 -1      1453 9.71569E-03 2.85341E-03-6.26781E-14
 -1      1454 9.85845E-03 2.92000E-03-6.41404E-14
 -1      1455 9.70194E-03 2.85722E-03-6.15956E-14
 -1      1456 1.00012E-02 2.98661E-03-6.56085E-14
 -1      1457 1.01440E-02 3.05324E-03-6.70854E-14
 -1      1458 9.98750E-03 2.99040E-03-6.45130E-14
 -1      1459 1.02868E-02 3.11989E-03-6.85696E-14
 -1      1460 1.04295E-02 3.18656E-03-7.00591E-14
 -1      1461 1.02731E-02 3.12366E-03-6.74563E-14
 -1      1462 1.05723E-02 3.25324E-03-7.15556E-14
 -1      1463 1.07151E-02 3.31993E-03-7.30601E-14
 -1      1464 1.05587E-02 3.25700E-03-7.04302E-14
 -1      1465 1.08579E-02 3.38663E-03-7.45689E-14
 -1      1466 1.10007E-02 3.45334E-03-7.60861E-14
 -1      1467 1.08443E-02 3.39038E-03-7.34305E-14
 -1      1468 1.11435E-02 3.52005E-03-7.76177E-14
 -1      1469 1.12864E-02 3.58677E-03-7.91594E-14
 -1      1470 1.11299E-02 3.52379E-03-7.64654E-14
 -1      1471 1.14292E-02 3.65349E-03-8.07109E-14
 -1      1472 1.15720E-02 3.72022E-03-8.22742E-14
 -1      1473 1.14155E-02 3.65723E-03-7.95386E-14
 -1      1474 1.17148E-02 3.78695E-03-8.38517E-14
 -1      1475 1.18577E-02 3.85368E-03-8.54377E-14
 -1      1476 1.17012E-02 3.79069E-03-8.26579E-14
 -1      1477 1.20005E-02 3.92041E-03-8.70294E-14
 -1      1478 1.21433E-02 3.98715E-03-8.86256E-14
 -1      1479 1.19869E-02 3.92415E-03-8.58157E-14
 -1      1480 1.22862E-02 4.05388E-03-9.02271E-14
 -1      1481 1.24290E-02 4.12062E-03-9.18314E-14
 -1      1482 1.22725E-02 4.05762E-03-8.89964E-14
 -1      1483 1.25719E-02 4.18735E-03-9.34371E-14
 -1      1484 1.27147E-02 4.25409E-03-9.50454E-14
 -1      1485 1.25582E-02 4.19110E-03-9.21944E-14
 -1      1486 1.28576E-02 4.32082E-03-9.66546E-14
 -1      1487 1.30004E-02 4.38755E-03-9.82625E-14
 -1      1488 1.28439E-02 4.32457E-03-9.54028E-14
 -1      1489 1.31433E-02 4.45429E-03-9.98701E-14
 -1      1490 1.32861E-02 4.52102E-03-1.01475E-13
 -1      1491 1.31296E-02 4.45803E-03-9.86129E-14
 -1      1492 1.34290E-02 4.58775E-03-1.03082E-13
 -1      1493 1.35718E-02 4.65448E-03-1.04686E-13
 -1      1494 1.34153E-02 4.59150E-03-1.01823E-13
 -1      1495 1.37147E-02 4.72121E-03-1.06289E-13
 -1      1496 1.38575E-02 4.78794E-03-1.07893E-13
 -1      1497 1.37010E-02 4.72496E-03-1.05028E-13
 -1      1498 1.40714E-02 4.88901E-03-1.10163E-13
 -1      1499 1.40578E-02 4.89276E-03-1.08900E-13
 -1      1500 9.01380E-04 3.58454E-04 5.54840E-17
 -1      1501 6.77456E-04 2.79734E-04 5.85334E-17
 -1      1502 6.05471E-04 2.26734E-04 3.43014E-17
 -1      1503 1.34984E-03 5.31846E-04 4.06576E-19
 -1      1504 1.12491E-03 4.40267E-04 3.65512E-17
 -1      1505 1.03622E-03 3.84221E-04 1.73472E-18
 -1      1506 1.80272E-03 7.64296E-04-1.25781E-16
 -1      1507 1.57597E-03 6.39315E-04-5.32343E-17
 -1      1508 1.46920E-03 5.79021E-04-9.82423E-17
 -1      1509 2.24934E-03 1.07992E-03-3.33853E-16
 -1      1510 2.02839E-03 9.12608E-04-2.18995E-16
 -1      1511 1.90618E-03 8.47513E-04-2.74168E-16
 -1      1512 2.66375E-03 1.45925E-03-6.36034E-16
 -1      1513 2.46270E-03 1.26678E-03-4.71763E-16
 -1      1514 2.33823E-03 1.20098E-03-5.36626E-16
 -1      1515 3.02176E-03 1.80718E-03-1.04680E-15
 -1      1516 2.84994E-03 1.64570E-03-8.26975E-16
 -1      1517 2.74523E-03 1.58879E-03-9.01311E-16
 -1      1518 3.33350E-03 1.98833E-03-1.57754E-15
 -1      1519 3.18004E-03 1.92408E-03-1.29665E-15
 -1      1520 3.11429E-03 1.88298E-03-1.38220E-15
 -1      1521 3.61704E-03 1.95635E-03-2.16911E-15
 -1      1522 3.47189E-03 1.99214E-03-1.85983E-15
 -1      1523 3.44750E-03 1.96114E-03-1.95667E-15
 -1      1524 3.95774E-03 1.79034E-03-2.90847E-15
 -1      1525 3.78122E-03 1.88238E-03-2.52450E-15
 -1      1526 3.78789E-03 1.85071E-03-2.63030E-15
 -1      1527 4.36570E-03 1.59778E-03-3.80867E-15
 -1      1528 4.15695E-03 1.68959E-03-3.34300E-15
 -1      1529 4.17784E-03 1.65175E-03-3.45753E-15
 -1      1530 4.79841E-03 1.47565E-03-4.82202E-15
 -1      1531 4.58107E-03 1.52600E-03-4.30150E-15
 -1      1532 4.59732E-03 1.48283E-03-4.42369E-15
 -1      1533 5.22763E-03 1.44401E-03-5.94215E-15
 -1      1534 5.01483E-03 1.44969E-03-5.36920E-15
 -1      1535 5.01492E-03 1.40407E-03-5.50006E-15
 -1      1536 5.63703E-03 1.48468E-03-7.16032E-15
 -1      1537 5.43538E-03 1.45708E-03-6.53946E-15
 -1      1538 5.41692E-03 1.41112E-03-6.67672E-15
 -1      1539 6.02144E-03 1.57256E-03-8.46320E-15
 -1      1540 5.83241E-03 1.52412E-03-7.80120E-15
 -1      1541 5.79829E-03 1.47891E-03-7.94586E-15
 -1      1542 6.38213E-03 1.68790E-03-9.85991E-15
 -1      1543 6.20455E-03 1.62769E-03-9.15003E-15
 -1      1544 6.15910E-03 1.58368E-03-9.30277E-15
 -1      1545 6.72303E-03 1.81801E-03-1.13455E-14
 -1      1546 6.55477E-03 1.75163E-03-1.05911E-14
 -1      1547 6.50185E-03 1.70890E-03-1.07505E-14
 -1      1548 7.04851E-03 1.95542E-03-1.29229E-14
 -1      1549 6.88743E-03 1.88610E-03-1.21221E-14
 -1      1550 6.82986E-03 1.84453E-03-1.22861E-14
 -1      1551 7.36245E-03 2.09602E-03-1.45920E-14
 -1      1552 7.20669E-03 2.02549E-03-1.37470E-14
 -1      1553 7.14638E-03 1.98490E-03-1.39138E-14
 -1      1554 7.66796E-03 2.23759E-03-1.63449E-14
 -1      1555 7.51608E-03 2.16677E-03-1.54575E-14
 -1      1556 7.45423E-03 2.12698E-03-1.56279E-14
 -1      1557 7.96740E-03 2.37901E-03-1.81751E-14
 -1      1558 7.81830E-03 2.30837E-03-1.72506E-14
 -1      1559 7.75565E-03 2.26919E-03-1.74225E-14
 -1      1560 8.26250E-03 2.51974E-03-2.00739E-14
 -1      1561 8.11539E-03 2.44948E-03-1.91162E-14
 -1      1562 8.05238E-03 2.41078E-03-1.92897E-14
 -1      1563 8.56907E-03 2.66653E-03-2.21452E-14
 -1      1564 8.41613E-03 2.59327E-03-2.11004E-14
 -1      1565 8.35302E-03 2.55493E-03-2.12789E-14
 -1      1566 8.85885E-03 2.80536E-03-2.41884E-14
 -1      1567 8.71418E-03 2.73607E-03-2.31584E-14
 -1      1568 8.65111E-03 2.69800E-03-2.33391E-14
 -1      1569 9.14715E-03 2.94329E-03-2.62825E-14
 -1      1570 9.00315E-03 2.87444E-03-2.52289E-14
 -1      1571 8.94020E-03 2.83656E-03-2.54105E-14
 -1      1572 9.43443E-03 3.08041E-03-2.84320E-14
 -1      1573 9.29089E-03 3.01195E-03-2.73496E-14
 -1      1574 9.22809E-03 2.97422E-03-2.75387E-14
 -1      1575 9.72101E-03 3.21682E-03-3.06322E-14
 -1      1576 9.57779E-03 3.14870E-03-2.95280E-14
 -1      1577 9.51514E-03 3.11107E-03-2.97182E-14
 -1      1578 1.00071E-02 3.35262E-03-3.28741E-14
 -1      1579 9.86411E-03 3.28479E-03-3.17487E-14
 -1      1580 9.80161E-03 3.24724E-03-3.19456E-14
 -1      1581 1.02930E-02 3.48791E-03-3.51606E-14
 -1      1582 1.01501E-02 3.42032E-03-3.40105E-14
 -1      1583 1.00877E-02 3.38283E-03-3.42153E-14
 -1      1584 1.05786E-02 3.62278E-03-3.74835E-14
 -1      1585 1.04358E-02 3.55539E-03-3.63161E-14
 -1      1586 1.03735E-02 3.51794E-03-3.65295E-14
 -1      1587 1.08641E-02 3.75732E-03-3.98619E-14
 -1      1588 1.07214E-02 3.69009E-03-3.86664E-14
 -1      1589 1.06592E-02 3.65267E-03-3.88920E-14
 -1      1590 1.11496E-02 3.89158E-03-4.22966E-14
 -1      1591 1.10069E-02 3.82448E-03-4.10724E-14
 -1      1592 1.09448E-02 3.78708E-03-4.13065E-14
 -1      1593 1.14351E-02 4.02564E-03-4.47971E-14
 -1      1594 1.12923E-02 3.95863E-03-4.35368E-14
 -1      1595 1.12303E-02 3.92124E-03-4.37789E-14
 -1      1596 1.17206E-02 4.15952E-03-4.73524E-14
 -1      1597 1.15778E-02 4.09260E-03-4.60688E-14
 -1      1598 1.15159E-02 4.05521E-03-4.63109E-14
 -1      1599 1.20061E-02 4.29328E-03-4.99713E-14
 -1      1600 1.18633E-02 4.22641E-03-4.86534E-14
 -1      1601 1.18014E-02 4.18903E-03-4.89019E-14
 -1      1602 1.22916E-02 4.42695E-03-5.26554E-14
 -1      1603 1.21488E-02 4.36012E-03-5.13057E-14
 -1      1604 1.20869E-02 4.32274E-03-5.15557E-14
 -1      1605 1.25914E-02 4.56722E-03-5.55333E-14
 -1      1606 1.24415E-02 4.49709E-03-5.40871E-14
 -1      1607 1.23796E-02 4.45971E-03-5.43377E-14
 -1      1608 1.28770E-02 4.70076E-03-5.83037E-14
 -1      1609 1.27342E-02 4.63399E-03-5.69158E-14
 -1      1610 1.26724E-02 4.59661E-03-5.71644E-14
 -1      1611 1.31626E-02 4.83426E-03-6.11159E-14
 -1      1612 1.30198E-02 4.76751E-03-5.97036E-14
 -1      1613 1.29580E-02 4.73013E-03-5.99592E-14
 -1      1614 1.34482E-02 4.96774E-03-6.39883E-14
 -1      1615 1.33054E-02 4.90101E-03-6.25465E-14
 -1      1616 1.32436E-02 4.86362E-03-6.28039E-14
 -1      1617 1.37339E-02 5.10121E-03-6.68978E-14
 -1      1618 1.35910E-02 5.03448E-03-6.54381E-14
 -1      1619 1.35292E-02 4.99710E-03-6.56923E-14
 -1      1620 1.40195E-02 5.23466E-03-6.98295E-14
 -1      1621 1.38767E-02 5.16794E-03-6.83601E-14
 -1      1622 1.38149E-02 5.13055E-03-6.86155E-14
 -1      1623 1.43052E-02 5.36811E-03-7.27836E-14
 -1      1624 1.41624E-02 5.30139E-03-7.13055E-14
 -1      1625 1.41006E-02 5.26401E-03-7.15641E-14
 -1      1626 1.45909E-02 5.50156E-03-7.57551E-14
 -1      1627 1.44480E-02 5.43484E-03-7.42661E-14
 -1      1628 1.43862E-02 5.39745E-03-7.45303E-14
 -1      1629 1.48766E-02 5.63501E-03-7.87698E-14
 -1      1630 1.47337E-02 5.56829E-03-7.72574E-14
 -1      1631 1.46719E-02 5.53090E-03-7.75262E-14
 -1      1632 1.51623E-02 5.76846E-03-8.18175E-14
 -1      1633 1.50194E-02 5.70174E-03-8.02888E-14
 -1      1634 1.49576E-02 5.66435E-03-8.05592E-14
 -1      1635 1.54480E-02 5.90191E-03-8.48947E-14
 -1      1636 1.53051E-02 5.83519E-03-8.33532E-14
 -1      1637 1.52433E-02 5.79780E-03-8.36234E-14
 -1      1638 1.57337E-02 6.03537E-03-8.79884E-14
 -1      1639 1.55908E-02 5.96864E-03-8.64408E-14
 -1      1640 1.55290E-02 5.93125E-03-8.67083E-14
 -1      1641 1.60194E-02 6.16883E-03-9.10926E-14
 -1      1642 1.58766E-02 6.10210E-03-8.95379E-14
 -1      1643 1.58148E-02 6.06471E-03-8.98016E-14
 -1      1644 1.61585E-02 6.23081E-03-9.29333E-14
 -1      1645 1.60135E-02 6.13439E-03-9.45006E-14
 -1      1646 1.60792E-02 6.17654E-03-9.39550E-14
 -1      1647 1.58823E-02 6.05011E-03-9.55818E-14
 -1      1648 1.59479E-02 6.09225E-03-9.50407E-14
 -1      1649 1.58570E-02 6.05553E-03-9.34282E-14
 -1      1650 1.57511E-02 5.96581E-03-9.66615E-14
 -1      1651 1.58167E-02 6.00796E-03-9.61218E-14
 -1      1652 1.57258E-02 5.97124E-03-9.45115E-14
 -1      1653 1.56198E-02 5.88152E-03-9.77419E-14
 -1      1654 1.56854E-02 5.92367E-03-9.72038E-14
 -1      1655 1.55945E-02 5.88695E-03-9.55957E-14
 -1      1656 1.54908E-02 5.79865E-03-9.87975E-14
 -1      1657 1.55553E-02 5.84009E-03-9.82695E-14
 -1      1658 1.54644E-02 5.80337E-03-9.66630E-14
 -1      1659 1.53595E-02 5.71435E-03-9.98729E-14
 -1      1660 1.54252E-02 5.75650E-03-9.93380E-14
 -1      1661 1.53343E-02 5.71979E-03-9.77263E-14
 -1      1662 1.52283E-02 5.63005E-03-1.00934E-13
 -1      1663 1.52939E-02 5.67220E-03-1.00404E-13
 -1      1664 1.52030E-02 5.63549E-03-9.87921E-14
 -1      1665 1.50971E-02 5.54575E-03-1.01992E-13
 -1      1666 1.51627E-02 5.58790E-03-1.01466E-13
 -1      1667 1.50718E-02 5.55119E-03-9.98516E-14
 -1      1668 1.49658E-02 5.46145E-03-1.03044E-13
 -1      1669 1.50315E-02 5.50360E-03-1.02517E-13
 -1      1670 1.49405E-02 5.46689E-03-1.00909E-13
 -1      1671 1.48346E-02 5.37715E-03-1.04121E-13
 -1      1672 1.49002E-02 5.41930E-03-1.03579E-13
 -1      1673 1.48093E-02 5.38258E-03-1.01972E-13
 -1      1674 1.47056E-02 5.29428E-03-1.05209E-13
 -1      1675 1.47701E-02 5.33571E-03-1.04664E-13
 -1      1676 1.46792E-02 5.29900E-03-1.03042E-13
 -1      1677 1.45744E-02 5.20998E-03-1.06327E-13
 -1      1678 1.46400E-02 5.25213E-03-1.05769E-13
 -1      1679 1.45491E-02 5.21542E-03-1.04128E-13
 -1      1680 1.44432E-02 5.12569E-03-1.07411E-13
 -1      1681 1.45088E-02 5.16783E-03-1.06877E-13
 -1      1682 1.44179E-02 5.13112E-03-1.05221E-13
 -1      1683 1.43119E-02 5.04140E-03-1.08470E-13
 -1      1684 1.43776E-02 5.08354E-03-1.07944E-13
 -1      1685 1.42866E-02 5.04683E-03-1.06294E-13
 -1      1686 1.41520E-02 4.94601E-03-1.08948E-13
 -1      1687 1.42177E-02 4.98815E-03-1.08422E-13
 -1      1688 1.41268E-02 4.95144E-03-1.06776E-13
 -1      1689 1.39382E-02 4.84494E-03-1.06680E-13
 -1      1690 5.28415E-03 9.16008E-04-4.94425E-15
 -1      1691 5.28755E-03 8.72260E-04-5.04077E-15
 -1      1692 5.16961E-03 1.02311E-03-4.66775E-15
 -1      1693 5.24068E-03 9.70786E-04-4.81352E-15
 -1      1694 4.92947E-03 1.17105E-03-4.26770E-15
 -1      1695 5.05562E-03 1.10127E-03-4.44719E-15
 -1      1696 4.50440E-03 1.35906E-03-3.78781E-15
 -1      1697 4.71248E-03 1.25212E-03-4.04815E-15
 -1      1698 4.10156E-03 1.57695E-03-3.25808E-15
 -1      1699 4.29056E-03 1.49124E-03-3.47189E-15
 -1      1700 3.68644E-03 1.72668E-03-2.80605E-15
 -1      1701 3.87797E-03 1.66488E-03-3.01170E-15
 -1      1702 3.23059E-03 1.79665E-03-2.33740E-15
 -1      1703 3.43846E-03 1.78203E-03-2.54909E-15
 -1      1704 2.78748E-03 1.71431E-03-1.95655E-15
 -1      1705 2.98556E-03 1.76576E-03-2.12243E-15
 -1      1706 2.32607E-03 1.50673E-03-1.62424E-15
 -1      1707 2.54510E-03 1.61803E-03-1.76885E-15
 -1      1708 1.85520E-03 1.24491E-03-1.38795E-15
 -1      1709 2.06099E-03 1.36782E-03-1.49034E-15
 -1      1710 1.42368E-03 9.82814E-04-1.21109E-15
 -1      1711 1.61940E-03 1.10195E-03-1.28604E-15
 -1      1712 1.02495E-03 7.33028E-04-1.07902E-15
 -1      1713 1.20793E-03 8.38760E-04-1.12933E-15
 -1      1714 7.23552E-04 5.49445E-04-1.01132E-15
 -1      1715 8.46482E-04 6.18321E-04-1.02992E-15
 -1      1716 5.71245E-04 4.51595E-04-1.02841E-15
 -1      1717 6.20559E-04 4.95372E-04-1.01878E-15
 -1      1718 5.63849E-04 3.72791E-04-1.08750E-15
 -1      1719 5.50148E-04 4.05407E-04-1.05084E-15
 -1      1720 6.98096E-04 2.93232E-04-1.22537E-15
 -1      1721 6.17744E-04 3.31359E-04-1.15126E-15
 -1      1722 9.43514E-04 1.89758E-04-1.44132E-15
 -1      1723 8.18353E-04 2.36892E-04-1.33720E-15
 -1      1724 1.28014E-03 7.75896E-05-1.71231E-15
 -1      1725 1.11906E-03 1.35520E-04-1.57403E-15
 -1      1726 1.63770E-03-4.84920E-05-2.04930E-15
 -1      1727 1.47119E-03 7.38856E-06-1.89079E-15
 -1      1728 2.04026E-03-1.60670E-04-2.46361E-15
 -1      1729 1.85193E-03-1.11167E-04-2.26045E-15
 -1      1730 2.43844E-03-2.17356E-04-2.92485E-15
 -1      1731 2.25389E-03-1.99098E-04-2.71124E-15
 -1      1732 2.83994E-03-1.99418E-04-3.39995E-15
 -1      1733 2.65444E-03-2.17434E-04-3.17994E-15
 -1      1734 3.24305E-03-1.03135E-04-3.88930E-15
 -1      1735 3.05442E-03-1.59150E-04-3.67187E-15
 -1      1736 3.65899E-03 5.24290E-05-4.29555E-15
 -1      1737 3.47370E-03-2.35154E-05-4.11238E-15
 -1      1738 4.07408E-03 2.50213E-04-4.69129E-15
 -1      1739 3.87427E-03 1.56642E-04-4.52732E-15
 -1      1740 4.48172E-03 4.26935E-04-4.93606E-15
 -1      1741 4.30690E-03 3.45446E-04-4.82665E-15
 -1      1742 4.83151E-03 6.01899E-04-5.14401E-15
 -1      1743 4.67178E-03 5.29183E-04-5.07685E-15
 -1      1744 5.10088E-03 7.19833E-04-5.16251E-15
 -1      1745 4.99298E-03 6.65744E-04-5.15325E-15
 -1      1746 5.25353E-03 8.20451E-04-5.10481E-15
 -1      1747 5.19711E-03 7.76760E-04-5.14486E-15
 -1      1748 4.35427E-03 1.38461E-03-3.72232E-15
 -1      1749 4.77162E-03 1.16790E-03-4.28181E-15
 -1      1750 1.60967E-02 6.19342E-03-9.31917E-14
 -1      1751 1.59401E-02 6.11456E-03-9.21214E-14
 -1      1752 5.26852E-03 9.28939E-04-5.10903E-15
 -1      1753 5.10092E-03 1.02008E-03-4.73830E-15
 -1      1754 5.28084E-03 8.65403E-04-5.31681E-15
 -1      1755 3.93516E-03 1.61524E-03-3.15243E-15
 -1      1756 3.52158E-03 1.77803E-03-2.64681E-15
 -1      1757 3.13333E-03 1.81603E-03-2.18201E-15
 -1      1758 2.72058E-03 1.68332E-03-1.79110E-15
 -1      1759 2.28523E-03 1.42625E-03-1.48861E-15
 -1      1760 1.82092E-03 1.12666E-03-1.26887E-15
 -1      1761 1.37586E-03 8.36924E-04-1.09918E-15
 -1      1762 9.72232E-04 5.98334E-04-9.80559E-16
 -1      1763 6.80913E-04 4.70754E-04-9.45944E-16
 -1      1764 5.53481E-04 4.07687E-04-9.74952E-16
 -1      1765 5.86787E-04 3.63847E-04-1.05344E-15
 -1      1766 7.67528E-04 3.02864E-04-1.21605E-15
 -1      1767 1.06545E-03 2.04985E-04-1.44788E-15
 -1      1768 1.42145E-03 7.59700E-05-1.74363E-15
 -1      1769 1.80056E-03-7.08384E-05-2.12216E-15
 -1      1770 2.17626E-03-1.93056E-04-2.57376E-15
 -1      1771 2.54861E-03-2.43094E-04-3.07680E-15
 -1      1772 2.91524E-03-2.01641E-04-3.60920E-15
 -1      1773 3.28882E-03-6.64793E-05-4.11699E-15
 -1      1774 3.69491E-03 1.32897E-04-4.58417E-15
 -1      1775 4.11376E-03 3.49624E-04-4.96752E-15
 -1      1776 4.52913E-03 5.48841E-04-5.25395E-15
 -1      1777 4.88512E-03 6.98576E-04-5.41162E-15
 -1      1778 5.14720E-03 7.94519E-04-5.40420E-15
 -1      1779 3.02017E-04-1.96988E-04-1.07688E-16
 -1      1780 3.59749E-04-1.31100E-04-1.98219E-16
 -1      1781 3.61560E-04-1.52076E-04-1.97352E-16
 -1      1782 3.65111E-04-1.74619E-04-1.93801E-16
 -1      1783 3.73156E-04-1.99117E-04-1.85575E-16
 -1      1784 4.91489E-04-2.16784E-04-2.89346E-16
 -1      1785 3.55708E-04-4.67187E-05-1.86090E-16
 -1      1786 3.57740E-04-6.82344E-05-1.91118E-16
 -1      1787 3.46546E-04-1.35719E-06-1.74855E-16
 -1      1788 3.52242E-04-2.41194E-05-1.80872E-16
 -1      1789 4.81467E-04-5.30236E-05-2.69980E-16
 -1      1790 3.27322E-04 4.30766E-05-1.61722E-16
 -1      1791 3.38345E-04 2.13933E-05-1.68593E-16
 -1      1792 4.66618E-04 4.99648E-06-2.52944E-16
 -1      1793 2.96596E-04 8.01394E-05-1.48739E-16
 -1      1794 3.13150E-04 6.31587E-05-1.55298E-16
 -1      1795 4.36218E-04 6.10719E-05-2.34093E-16
 -1      1796 2.58263E-04 1.01375E-04-1.36271E-16
 -1      1797 2.77505E-04 9.33336E-05-1.42518E-16
 -1      1798 3.88917E-04 1.06740E-04-2.15173E-16
 -1      1799 2.23736E-04 1.00802E-04-1.23572E-16
 -1      1800 2.39149E-04 1.03887E-04-1.30172E-16
 -1      1801 3.32398E-04 1.31382E-04-1.96674E-16
 -1      1802 2.09083E-04 8.15781E-05-1.10101E-16
 -1      1803 2.12755E-04 9.27667E-05-1.17107E-16
 -1      1804 2.86154E-04 1.29038E-04-1.78053E-16
 -1      1805 2.25882E-04 5.63328E-05-9.42307E-17
 -1      1806 2.13130E-04 6.82857E-05-1.02742E-16
 -1      1807 2.73621E-04 1.06207E-04-1.58131E-16
 -1      1808 2.75100E-04 4.39938E-05-7.41865E-17
 -1      1809 2.47170E-04 4.73585E-05-8.51370E-17
 -1      1810 3.09713E-04 8.21563E-05-1.34644E-16
 -1      1811 3.46906E-04 5.90745E-05-4.73119E-17
 -1      1812 3.09259E-04 4.75203E-05-6.20841E-17
 -1      1813 3.89958E-04 7.99709E-05-1.04842E-16
 -1      1814 4.32621E-04 1.09865E-04-1.19804E-17
 -1      1815 3.88773E-04 7.97343E-05-3.13877E-17
 -1      1816 4.97590E-04 1.14058E-04-6.61363E-17
 -1      1817 5.42719E-04 1.83663E-04 1.75099E-17
 -1      1818 4.84018E-04 1.41423E-04-4.06576E-20
 -1      1819 6.17051E-04 1.78746E-04-2.88127E-17
 -1      1820 7.48908E-04 2.58109E-04 5.29904E-18
 -1      1821 3.59236E-04-2.16088E-04-1.55244E-16
 -1      1822 1.16381E-03 4.23796E-04-6.75322E-17
 -1      1823 9.55629E-04 3.36558E-04-2.27140E-17
 -1      1824 8.77786E-04 2.91488E-04-4.46420E-17
 -1      1825 4.85331E-04-2.70331E-04-2.47618E-16
 -1      1826 8.50368E-04-4.32891E-04-6.08576E-16
 -1      1827 1.00094E-03-4.83695E-04-8.24414E-16
 -1      1828 1.14772E-03-5.26836E-04-1.07415E-15
 -1      1829 1.29167E-03-5.62419E-04-1.35826E-15
 -1      1830 1.06128E-03-4.68844E-04-9.58624E-16
 -1      1831 1.43269E-03-5.90988E-04-1.67578E-15
 -1      1832 1.57131E-03-6.12001E-04-2.02632E-15
 -1      1833 1.35640E-03-5.41287E-04-1.52253E-15
 -1      1834 1.70769E-03-6.25348E-04-2.40942E-15
 -1      1835 1.84236E-03-6.30405E-04-2.82508E-15
 -1      1836 1.64213E-03-5.84858E-04-2.21734E-15
 -1      1837 1.97546E-03-6.26864E-04-3.27272E-15
 -1      1838 2.10776E-03-6.14304E-04-3.75226E-15
 -1      1839 1.92013E-03-5.96280E-04-3.04097E-15
 -1      1840 2.23931E-03-5.92652E-04-4.26325E-15
 -1      1841 2.37101E-03-5.61902E-04-4.80470E-15
 -1      1842 2.19307E-03-5.71861E-04-3.99168E-15
 -1      1843 2.50288E-03-5.22463E-04-5.37652E-15
 -1      1844 2.63576E-03-4.74808E-04-5.97798E-15
 -1      1845 2.46440E-03-5.10265E-04-5.06499E-15
 -1      1846 2.76961E-03-4.19832E-04-6.60825E-15
 -1      1847 2.90500E-03-3.58372E-04-7.26593E-15
 -1      1848 2.73763E-03-4.14144E-04-6.25689E-15
 -1      1849 3.04189E-03-2.91615E-04-7.95024E-15
 -1      1850 3.18047E-03-2.20537E-04-8.66024E-15
 -1      1851 3.01537E-03-2.90020E-04-7.56117E-15
 -1      1852 3.32071E-03-1.46344E-04-9.39579E-15
 -1      1853 3.46246E-03-6.99285E-05-1.01557E-14
 -1      1854 3.29873E-03-1.46659E-04-8.96977E-15
 -1      1855 3.60573E-03 7.70961E-06-1.09388E-14
 -1      1856 3.75014E-03 8.58939E-05-1.17457E-14
 -1      1857 3.58738E-03 7.09367E-06-1.04771E-14
 -1      1858 3.89574E-03 1.63945E-04-1.25751E-14
 -1      1859 4.04206E-03 2.41437E-04-1.34268E-14
 -1      1860 3.88008E-03 1.63994E-04-1.20781E-14
 -1      1861 4.18916E-03 3.18010E-04-1.43002E-14
 -1      1862 4.33660E-03 3.93457E-04-1.51937E-14
 -1      1863 4.17528E-03 3.19154E-04-1.37688E-14
 -1      1864 4.48446E-03 4.67670E-04-1.61074E-14
 -1      1865 4.63235E-03 5.40595E-04-1.70412E-14
 -1      1866 4.47156E-03 4.69974E-04-1.55440E-14
 -1      1867 4.78035E-03 6.12290E-04-1.79946E-14
 -1      1868 4.92819E-03 6.82790E-04-1.89657E-14
 -1      1869 4.76783E-03 6.15610E-04-1.73987E-14
 -1      1870 5.07591E-03 7.52240E-04-1.99554E-14
 -1      1871 5.22337E-03 8.20715E-04-2.09636E-14
 -1      1872 5.06337E-03 7.56342E-04-1.93287E-14
 -1      1873 5.37057E-03 8.88386E-04-2.19910E-14
 -1      1874 5.51745E-03 9.55341E-04-2.30362E-14
 -1      1875 5.35778E-03 8.93021E-04-2.13325E-14
 -1      1876 5.66402E-03 1.02174E-03-2.41008E-14
 -1      1877 5.81024E-03 1.08767E-03-2.51852E-14
 -1      1878 5.65088E-03 1.02669E-03-2.34117E-14
 -1      1879 5.95614E-03 1.15325E-03-2.62889E-14
 -1      1880 6.10172E-03 1.21856E-03-2.74133E-14
 -1      1881 5.94268E-03 1.15833E-03-2.55676E-14
 -1      1882 6.24699E-03 1.28369E-03-2.85582E-14
 -1      1883 6.39198E-03 1.34871E-03-2.97215E-14
 -1      1884 6.23325E-03 1.28877E-03-2.78044E-14
 -1      1885 6.53668E-03 1.41367E-03-3.09036E-14
 -1      1886 6.68115E-03 1.47861E-03-3.21046E-14
 -1      1887 6.52273E-03 1.41866E-03-3.01174E-14
 -1      1888 6.82538E-03 1.54358E-03-3.33249E-14
 -1      1889 6.96942E-03 1.60860E-03-3.45629E-14
 -1      1890 6.81130E-03 1.54845E-03-3.25070E-14
 -1      1891 7.11326E-03 1.67369E-03-3.58177E-14
 -1      1892 7.25695E-03 1.73888E-03-3.70887E-14
 -1      1893 7.09911E-03 1.67841E-03-3.49672E-14
 -1      1894 7.40049E-03 1.80416E-03-3.83745E-14
 -1      1895 7.54391E-03 1.86955E-03-3.96741E-14
 -1      1896 7.38632E-03 1.80871E-03-3.74931E-14
 -1      1897 7.68721E-03 1.93504E-03-4.09902E-14
 -1      1898 7.83043E-03 2.00065E-03-4.23191E-14
 -1      1899 7.67306E-03 1.93945E-03-4.00790E-14
 -1      1900 7.97356E-03 2.06635E-03-4.36608E-14
 -1      1901 8.11662E-03 2.13216E-03-4.50163E-14
 -1      1902 7.95944E-03 2.07062E-03-4.27210E-14
 -1      1903 8.25963E-03 2.19806E-03-4.63837E-14
 -1      1904 8.40259E-03 2.26406E-03-4.77616E-14
 -1      1905 8.24557E-03 2.20222E-03-4.54155E-14
 -1      1906 8.54551E-03 2.33014E-03-4.91495E-14
 -1      1907 8.68840E-03 2.39630E-03-5.05458E-14
 -1      1908 8.53151E-03 2.33419E-03-4.81564E-14
 -1      1909 8.83126E-03 2.46252E-03-5.19508E-14
 -1      1910 8.97410E-03 2.52882E-03-5.33634E-14
 -1      1911 8.81732E-03 2.46650E-03-5.09342E-14
 -1      1912 9.11693E-03 2.59517E-03-5.47833E-14
 -1      1913 9.25975E-03 2.66157E-03-5.62073E-14
 -1      1914 9.10305E-03 2.59908E-03-5.37447E-14
 -1      1915 9.40256E-03 2.72802E-03-5.76371E-14
 -1      1916 9.54536E-03 2.79451E-03-5.90752E-14
 -1      1917 9.38872E-03 2.73188E-03-5.65827E-14
 -1      1918 9.68816E-03 2.86104E-03-6.05171E-14
 -1      1919 9.83096E-03 2.92760E-03-6.19659E-14
 -1      1920 9.67437E-03 2.86487E-03-5.94442E-14
 -1      1921 9.97376E-03 2.99419E-03-6.34219E-14
 -1      1922 1.01166E-02 3.06080E-03-6.48814E-14
 -1      1923 9.96000E-03 2.99799E-03-6.23328E-14
 -1      1924 1.02594E-02 3.12744E-03-6.63490E-14
 -1      1925 1.04022E-02 3.19409E-03-6.78262E-14
 -1      1926 1.02456E-02 3.13122E-03-6.52487E-14
 -1      1927 1.05450E-02 3.26076E-03-6.93090E-14
 -1      1928 1.06878E-02 3.32744E-03-7.07999E-14
 -1      1929 1.05313E-02 3.26452E-03-6.81918E-14
 -1      1930 1.08306E-02 3.39413E-03-7.22966E-14
 -1      1931 1.09734E-02 3.46083E-03-7.38005E-14
 -1      1932 1.08169E-02 3.39789E-03-7.11661E-14
 -1      1933 1.11162E-02 3.52754E-03-7.53159E-14
 -1      1934 1.12591E-02 3.59426E-03-7.68407E-14
 -1      1935 1.11026E-02 3.53129E-03-7.41725E-14
 -1      1936 1.14019E-02 3.66098E-03-7.83747E-14
 -1      1937 1.15447E-02 3.72770E-03-7.99165E-14
 -1      1938 1.13882E-02 3.66473E-03-7.72128E-14
 -1      1939 1.16875E-02 3.79443E-03-8.14708E-14
 -1      1940 1.18304E-02 3.86116E-03-8.30355E-14
 -1      1941 1.16739E-02 3.79818E-03-8.02924E-14
 -1      1942 1.19732E-02 3.92790E-03-8.46074E-14
 -1      1943 1.21161E-02 3.99463E-03-8.61874E-14
 -1      1944 1.19596E-02 3.93164E-03-8.34082E-14
 -1      1945 1.22589E-02 4.06137E-03-8.77725E-14
 -1      1946 1.24017E-02 4.12810E-03-8.93630E-14
 -1      1947 1.22452E-02 4.06511E-03-8.65574E-14
 -1      1948 1.25446E-02 4.19484E-03-9.09600E-14
 -1      1949 1.26874E-02 4.26157E-03-9.25572E-14
 -1      1950 1.25309E-02 4.19858E-03-8.97292E-14
 -1      1951 1.28303E-02 4.32831E-03-9.41555E-14
 -1      1952 1.29731E-02 4.39505E-03-9.57580E-14
 -1      1953 1.28166E-02 4.33206E-03-9.29162E-14
 -1      1954 1.31160E-02 4.46178E-03-9.73612E-14
 -1      1955 1.32588E-02 4.52851E-03-9.89633E-14
 -1      1956 1.31023E-02 4.46553E-03-9.61110E-14
 -1      1957 1.34017E-02 4.59525E-03-1.00568E-13
 -1      1958 1.35445E-02 4.66198E-03-1.02170E-13
 -1      1959 1.33881E-02 4.59899E-03-9.93140E-14
 -1      1960 1.36699E-02 4.72009E-03-1.03623E-13
 -1      1961 1.38128E-02 4.78682E-03-1.05225E-13
 -1      1962 1.39071E-02 4.84007E-03-1.05273E-13
 -1      1963 1.36563E-02 4.72384E-03-1.02368E-13
 -1      1964 1.58536E-03 6.44143E-04-2.10701E-16
 -1      1965 1.37378E-03 5.25133E-04-1.29576E-16
 -1      1966 1.27842E-03 4.72751E-04-1.58199E-16
 -1      1967 2.01721E-03 9.49089E-04-4.34643E-16
 -1      1968 1.80139E-03 7.85416E-04-3.11939E-16
 -1      1969 1.69483E-03 7.23375E-04-3.46565E-16
 -1      1970 2.45047E-03 1.33366E-03-7.52125E-16
 -1      1971 2.23614E-03 1.13516E-03-5.80685E-16
 -1      1972 2.13110E-03 1.06653E-03-6.20380E-16
 -1      1973 2.86274E-03 1.71069E-03-1.17903E-15
 -1      1974 2.66019E-03 1.53246E-03-9.50967E-16
 -1      1975 2.57342E-03 1.47149E-03-9.95745E-16
 -1      1976 3.24322E-03 1.92494E-03-1.73060E-15
 -1      1977 3.05276E-03 1.84588E-03-1.43939E-15
 -1      1978 2.99404E-03 1.80724E-03-1.48967E-15
 -1      1979 3.58535E-03 1.90237E-03-2.33621E-15
 -1      1980 3.41088E-03 1.93614E-03-2.01956E-15
 -1      1981 3.37518E-03 1.91224E-03-2.07779E-15
 -1      1982 3.96854E-03 1.72695E-03-3.08995E-15
 -1      1983 3.77326E-03 1.82510E-03-2.69865E-15
 -1      1984 3.75710E-03 1.79982E-03-2.76177E-15
 -1      1985 4.39114E-03 1.52250E-03-4.00283E-15
 -1      1986 4.17993E-03 1.62069E-03-3.53129E-15
 -1      1987 4.17855E-03 1.58722E-03-3.60054E-15
 -1      1988 4.80923E-03 1.39394E-03-5.03081E-15
 -1      1989 4.60286E-03 1.44744E-03-4.50262E-15
 -1      1990 4.60793E-03 1.40993E-03-4.57798E-15
 -1      1991 5.20903E-03 1.36023E-03-6.16217E-15
 -1      1992 5.01232E-03 1.36673E-03-5.58397E-15
 -1      1993 5.01269E-03 1.32891E-03-5.66470E-15
 -1      1994 5.58790E-03 1.40105E-03-7.39193E-15
 -1      1995 5.40132E-03 1.37312E-03-6.76592E-15
 -1      1996 5.39050E-03 1.33590E-03-6.85136E-15
 -1      1997 5.94743E-03 1.49018E-03-8.70778E-15
 -1      1998 5.77001E-03 1.44090E-03-8.03861E-15
 -1      1999 5.74681E-03 1.40410E-03-8.12954E-15
 -1      2000 6.29029E-03 1.60724E-03-1.01156E-14
 -1      2001 6.12074E-03 1.54602E-03-9.40030E-15
 -1      2002 6.08687E-03 1.50951E-03-9.49463E-15
 -1      2003 6.61936E-03 1.73914E-03-1.16096E-14
 -1      2004 6.45630E-03 1.67178E-03-1.08511E-14
 -1      2005 6.41438E-03 1.63557E-03-1.09496E-14
 -1      2006 6.93740E-03 1.87821E-03-1.31932E-14
 -1      2007 6.77952E-03 1.80801E-03-1.23908E-14
 -1      2008 6.73196E-03 1.77214E-03-1.24908E-14
 -1      2009 7.24687E-03 2.02022E-03-1.48666E-14
 -1      2010 7.09301E-03 1.94896E-03-1.40195E-14
 -1      2011 7.04169E-03 1.91346E-03-1.41217E-14
 -1      2012 7.54982E-03 2.16294E-03-1.66213E-14
 -1      2013 7.39900E-03 2.09155E-03-1.57334E-14
 -1      2014 7.34527E-03 2.05640E-03-1.58363E-14
 -1      2015 7.84789E-03 2.30527E-03-1.84537E-14
 -1      2016 7.69934E-03 2.23418E-03-1.75282E-14
 -1      2017 7.64410E-03 2.19936E-03-1.76320E-14
 -1      2018 8.14235E-03 2.44672E-03-2.03586E-14
 -1      2019 7.99548E-03 2.37611E-03-1.93968E-14
 -1      2020 7.93933E-03 2.34157E-03-1.95014E-14
 -1      2021 8.44870E-03 2.59408E-03-2.24344E-14
 -1      2022 8.29581E-03 2.52054E-03-2.13886E-14
 -1      2023 8.23914E-03 2.48623E-03-2.14942E-14
 -1      2024 8.73851E-03 2.73333E-03-2.44788E-14
 -1      2025 8.59379E-03 2.66383E-03-2.34481E-14
 -1      2026 8.53684E-03 2.62971E-03-2.35562E-14
 -1      2027 9.02697E-03 2.87157E-03-2.65822E-14
 -1      2028 8.88288E-03 2.80257E-03-2.55224E-14
 -1      2029 8.82581E-03 2.76859E-03-2.56319E-14
 -1      2030 9.31446E-03 3.00892E-03-2.87373E-14
 -1      2031 9.17081E-03 2.94035E-03-2.76536E-14
 -1      2032 9.11371E-03 2.90649E-03-2.77657E-14
 -1      2033 9.60127E-03 3.14550E-03-3.09449E-14
 -1      2034 9.45793E-03 3.07730E-03-2.98359E-14
 -1      2035 9.40085E-03 3.04353E-03-2.99520E-14
 -1      2036 9.88762E-03 3.28143E-03-3.31987E-14
 -1      2037 9.74449E-03 3.21354E-03-3.20672E-14
 -1      2038 9.68745E-03 3.17984E-03-3.21859E-14
 -1      2039 1.01736E-02 3.41682E-03-3.54970E-14
 -1      2040 1.00307E-02 3.34919E-03-3.43410E-14
 -1      2041 9.97367E-03 3.31554E-03-3.44666E-14
 -1      2042 1.04595E-02 3.55176E-03-3.78410E-14
 -1      2043 1.03166E-02 3.48434E-03-3.66627E-14
 -1      2044 1.02596E-02 3.45073E-03-3.67925E-14
 -1      2045 1.07452E-02 3.68634E-03-4.02365E-14
 -1      2046 1.06023E-02 3.61909E-03-3.90322E-14
 -1      2047 1.05455E-02 3.58551E-03-3.91713E-14
 -1      2048 1.10308E-02 3.82064E-03-4.26858E-14
 -1      2049 1.08880E-02 3.75352E-03-4.14548E-14
 -1      2050 1.08311E-02 3.71996E-03-4.15993E-14
 -1      2051 1.13163E-02 3.95471E-03-4.51906E-14
 -1      2052 1.11736E-02 3.88770E-03-4.39313E-14
 -1      2053 1.11168E-02 3.85416E-03-4.40802E-14
 -1      2054 1.16019E-02 4.08861E-03-4.77539E-14
 -1      2055 1.14591E-02 4.02168E-03-4.64643E-14
 -1      2056 1.14024E-02 3.98815E-03-4.66175E-14
 -1      2057 1.18875E-02 4.22238E-03-5.03795E-14
 -1      2058 1.17447E-02 4.15551E-03-4.90595E-14
 -1      2059 1.16880E-02 4.12198E-03-4.92130E-14
 -1      2060 1.21730E-02 4.35605E-03-5.30615E-14
 -1      2061 1.20303E-02 4.28922E-03-5.17117E-14
 -1      2062 1.19736E-02 4.25570E-03-5.18679E-14
 -1      2063 1.24729E-02 4.49632E-03-5.59353E-14
 -1      2064 1.23230E-02 4.42619E-03-5.44923E-14
 -1      2065 1.22663E-02 4.39267E-03-5.46459E-14
 -1      2066 1.27585E-02 4.62986E-03-5.87143E-14
 -1      2067 1.26157E-02 4.56310E-03-5.73204E-14
 -1      2068 1.25591E-02 4.52958E-03-5.74737E-14
 -1      2069 1.30442E-02 4.76337E-03-6.15339E-14
 -1      2070 1.29013E-02 4.69662E-03-6.01197E-14
 -1      2071 1.28447E-02 4.66310E-03-6.02753E-14
 -1      2072 1.33298E-02 4.89685E-03-6.44001E-14
 -1      2073 1.31870E-02 4.83011E-03-6.29623E-14
 -1      2074 1.31304E-02 4.79659E-03-6.31202E-14
 -1      2075 1.36154E-02 5.03031E-03-6.73104E-14
 -1      2076 1.34726E-02 4.96358E-03-6.58493E-14
 -1      2077 1.34160E-02 4.93006E-03-6.60077E-14
 -1      2078 1.39011E-02 5.16376E-03-7.02468E-14
 -1      2079 1.37583E-02 5.09704E-03-6.87755E-14
 -1      2080 1.37017E-02 5.06352E-03-6.89342E-14
 -1      2081 1.41868E-02 5.29721E-03-7.32071E-14
 -1      2082 1.40440E-02 5.23049E-03-7.17248E-14
 -1      2083 1.39874E-02 5.19697E-03-7.18866E-14
 -1      2084 1.44725E-02 5.43066E-03-7.61905E-14
 -1      2085 1.43296E-02 5.36393E-03-7.46969E-14
 -1      2086 1.42730E-02 5.33041E-03-7.48596E-14
 -1      2087 1.47582E-02 5.56410E-03-7.92067E-14
 -1      2088 1.46153E-02 5.49738E-03-7.76933E-14
 -1      2089 1.45587E-02 5.46386E-03-7.78600E-14
 -1      2090 1.50439E-02 5.69755E-03-8.22546E-14
 -1      2091 1.49010E-02 5.63083E-03-8.07252E-14
 -1      2092 1.48444E-02 5.59731E-03-8.08918E-14
 -1      2093 1.53296E-02 5.83100E-03-8.53287E-14
 -1      2094 1.51867E-02 5.76428E-03-8.37906E-14
 -1      2095 1.51301E-02 5.73075E-03-8.39539E-14
 -1      2096 1.56153E-02 5.96446E-03-8.84163E-14
 -1      2097 1.54724E-02 5.89773E-03-8.68712E-14
 -1      2098 1.54158E-02 5.86421E-03-8.70361E-14
 -1      2099 1.58491E-02 6.07287E-03-9.10416E-14
 -1      2100 1.57063E-02 6.00614E-03-8.94903E-14
 -1      2101 1.56497E-02 5.97262E-03-8.96519E-14
 -1      2102 1.58317E-02 6.05599E-03-9.18062E-14
 -1      2103 1.54380E-02 5.80809E-03-9.45285E-14
 -1      2104 1.55036E-02 5.85024E-03-9.39871E-14
 -1      2105 1.55693E-02 5.89238E-03-9.34447E-14
 -1      2106 1.56349E-02 5.93453E-03-9.29031E-14
 -1      2107 1.54127E-02 5.81352E-03-9.23777E-14
 -1      2108 1.57005E-02 5.97419E-03-9.26281E-14
 -1      2109 1.57661E-02 6.01633E-03-9.20854E-14
 -1      2110 1.56751E-02 5.97465E-03-9.10075E-14
 -1      2111 1.55439E-02 5.89533E-03-9.15610E-14
 -1      2112 1.53090E-02 5.72522E-03-9.55810E-14
 -1      2113 1.53735E-02 5.76666E-03-9.50552E-14
 -1      2114 1.52826E-02 5.72994E-03-9.34469E-14
 -1      2115 1.51777E-02 5.64092E-03-9.66525E-14
 -1      2116 1.52434E-02 5.68307E-03-9.61179E-14
 -1      2117 1.51525E-02 5.64636E-03-9.45085E-14
 -1      2118 1.50465E-02 5.55663E-03-9.77120E-14
 -1      2119 1.51121E-02 5.59878E-03-9.71833E-14
 -1      2120 1.50212E-02 5.56206E-03-9.55728E-14
 -1      2121 1.49153E-02 5.47232E-03-9.87713E-14
 -1      2122 1.49809E-02 5.51448E-03-9.82381E-14
 -1      2123 1.48900E-02 5.47776E-03-9.66285E-14
 -1      2124 1.47840E-02 5.38802E-03-9.98299E-14
 -1      2125 1.48496E-02 5.43017E-03-9.93021E-14
 -1      2126 1.47587E-02 5.39346E-03-9.76881E-14
 -1      2127 1.46528E-02 5.30372E-03-1.00897E-13
 -1      2128 1.47184E-02 5.34587E-03-1.00362E-13
 -1      2129 1.46275E-02 5.30916E-03-9.87510E-14
 -1      2130 1.45238E-02 5.22085E-03-1.01954E-13
 -1      2131 1.45883E-02 5.26229E-03-1.01424E-13
 -1      2132 1.44974E-02 5.22558E-03-9.98068E-14
 -1      2133 1.43926E-02 5.13656E-03-1.03039E-13
 -1      2134 1.44582E-02 5.17870E-03-1.02497E-13
 -1      2135 1.43673E-02 5.14199E-03-1.00869E-13
 -1      2136 1.42613E-02 5.05226E-03-1.04112E-13
 -1      2137 1.43270E-02 5.09441E-03-1.03575E-13
 -1      2138 1.42360E-02 5.05770E-03-1.01938E-13
 -1      2139 1.41301E-02 4.96797E-03-1.05174E-13
 -1      2140 1.41957E-02 5.01012E-03-1.04646E-13
 -1      2141 1.41048E-02 4.97340E-03-1.03001E-13
 -1      2142 5.02231E-03 1.02631E-03-4.79768E-15
 -1      2143 5.14369E-03 9.77144E-04-5.03483E-15
 -1      2144 5.29848E-03 8.90094E-04-5.55331E-15
 -1      2145 5.26511E-03 8.73731E-04-5.62559E-15
 -1      2146 5.24998E-03 9.32667E-04-5.35800E-15
 -1      2147 5.29593E-03 9.14305E-04-5.50564E-15
 -1      2148 4.65795E-03 1.18234E-03-4.31921E-15
 -1      2149 4.85317E-03 1.09753E-03-4.55689E-15
 -1      2150 4.93021E-03 1.05236E-03-4.84108E-15
 -1      2151 4.18165E-03 1.45203E-03-3.59023E-15
 -1      2152 4.38874E-03 1.32604E-03-3.91829E-15
 -1      2153 3.58543E-04-8.95786E-05-1.94669E-16
 -1      2154 3.59103E-04-1.10326E-04-1.97298E-16
 -1      2155 4.86992E-04-1.62134E-04-2.91068E-16
 -1      2156 4.86099E-04-1.08716E-04-2.83424E-16
 -1      2157 3.44911E-03 1.81742E-03-2.52980E-15
 -1      2158 3.62415E-03 1.75180E-03-2.78616E-15
 -1      2159 3.04868E-03 1.81998E-03-2.00138E-15
 -1      2160 3.21865E-03 1.84740E-03-2.20600E-15
 -1      2161 2.68646E-03 1.64328E-03-1.63254E-15
 -1      2162 2.86257E-03 1.74872E-03-1.80558E-15
 -1      2163 2.23692E-03 1.32305E-03-1.32411E-15
 -1      2164 2.44388E-03 1.47490E-03-1.43985E-15
 -1      2165 1.81866E-03 1.02987E-03-1.14855E-15
 -1      2166 2.02984E-03 1.17932E-03-1.23539E-15
 -1      2167 2.18577E-03 1.23671E-03-1.19200E-15
 -1      2168 1.33720E-03 7.23374E-04-9.90839E-16
 -1      2169 1.55051E-03 8.56925E-04-1.05975E-15
 -1      2170 9.25064E-04 5.01916E-04-8.79471E-16
 -1      2171 1.10972E-03 5.88372E-04-9.19573E-16
 -1      2172 6.31456E-04 4.12370E-04-8.79172E-16
 -1      2173 7.35608E-04 4.36708E-04-8.69322E-16
 -1      2174 5.43050E-04 3.80667E-04-9.12148E-16
 -1      2175 5.67218E-04 3.91359E-04-8.93522E-16
 -1      2176 6.15652E-04 3.60000E-04-1.01360E-15
 -1      2177 5.60090E-04 3.69224E-04-9.58580E-16
 -1      2178 8.48291E-04 3.06493E-04-1.19189E-15
 -1      2179 7.24750E-04 3.36729E-04-1.09281E-15
 -1      2180 1.15110E-03 2.12628E-04-1.41728E-15
 -1      2181 9.88742E-04 2.64586E-04-1.29978E-15
 -1      2182 9.15154E-04 2.96400E-04-1.16323E-15
 -1      2183 1.54431E-03 5.48233E-05-1.77442E-15
 -1      2184 1.37039E-03 1.29225E-04-1.60772E-15
 -1      2185 1.91167E-03-1.01060E-04-2.17464E-15
 -1      2186 1.73782E-03-2.57329E-05-1.97258E-15
 -1      2187 2.28795E-03-2.30750E-04-2.70452E-15
 -1      2188 2.12346E-03-1.79856E-04-2.45940E-15
 -1      2189 2.61678E-03-2.66724E-04-3.24756E-15
 -1      2190 2.46706E-03-2.62039E-04-2.98963E-15
 -1      2191 2.92700E-03-2.01186E-04-3.79327E-15
 -1      2192 2.77407E-03-2.46076E-04-3.51501E-15
 -1      2193 2.66348E-03-2.69133E-04-3.41830E-15
 -1      2194 3.34235E-03-1.20343E-05-4.38278E-15
 -1      2195 3.16533E-03-1.03136E-04-4.14778E-15
 -1      2196 3.71853E-03 2.04758E-04-4.87247E-15
 -1      2197 3.53129E-03 9.03572E-05-4.62813E-15
 -1      2198 4.17364E-03 4.55971E-04-5.32696E-15
 -1      2199 3.96730E-03 3.52057E-04-5.17803E-15
 -1      2200 4.55934E-03 6.41594E-04-5.62273E-15
 -1      2201 4.37022E-03 5.51318E-04-5.47362E-15
 -1      2202 4.23904E-03 5.38173E-04-5.68808E-15
 -1      2203 4.95430E-03 7.78543E-04-5.72002E-15
 -1      2204 4.79520E-03 7.30223E-04-5.70685E-15
 -1      2205 5.18988E-03 8.50185E-04-5.71478E-15
 -1      2206 5.09156E-03 8.23405E-04-5.73481E-15
 -1      2207 3.82671E-03 1.65616E-03-3.07434E-15
 -1      2208 4.00393E-03 1.55444E-03-3.32712E-15
 -1      2209 4.08537E-03 1.50245E-03-3.50790E-15
 -1      2210 4.50853E-03 1.25206E-03-4.17841E-15
 -1      2211 4.62487E-03 1.19353E-03-4.44813E-15
 -1      2212 4.37865E-03 1.33001E-03-4.03605E-15
 -1      2213 6.42326E-04-3.42652E-04-3.82479E-16
 -1      2214 3.73738E-03 1.70719E-03-2.94808E-15
 -1      2215 7.04955E-04-3.39466E-04-4.75897E-16
 -1      2216 5.20711E-03 9.50084E-04-5.41881E-15
 -1      2217 5.30859E-03 9.14277E-04-5.81025E-15
 -1      2218 1.40358E-02 4.91472E-03-1.05127E-13
 -1      2219 5.23273E-03 8.84423E-04-5.95329E-15
 -1      2220 4.66163E-03 7.17583E-04-5.92745E-15
 -1      2221 3.81535E-03 2.99185E-04-5.21990E-15
 -1      2222 3.00596E-03-1.65062E-04-4.04424E-15
 -1      2223 2.88026E-03-2.10849E-04-3.93888E-15
 -1      2224 3.07705E-03-1.17103E-04-4.30209E-15
 -1      2225 2.37823E-03-2.58488E-04-2.86183E-15
 -1      2226 2.02408E-03-1.46436E-04-2.29236E-15
 -1      2227 1.25712E-03 1.82731E-04-1.44307E-15
 -1      2228 6.66937E-04 3.47415E-04-9.88735E-16
 -1      2229 5.43600E-04 3.61925E-04-8.72481E-16
 -1      2230 5.95618E-04 3.71586E-04-8.16339E-16
 -1      2231 8.31893E-04 4.30983E-04-8.09672E-16
 -1      2232 9.31967E-04 4.31325E-04-7.50729E-16
 -1      2233 7.53332E-04 3.79553E-04-7.44447E-16
 -1      2234 1.73614E-03 9.18529E-04-1.02903E-15
 -1      2235 2.59500E-03 1.55784E-03-1.45110E-15
 -1      2236 3.34232E-03 1.85074E-03-2.33106E-15
 -1      2237 2.97894E-03 1.79815E-03-1.82623E-15
 -1      2238 1.24988E-03 6.16625E-04-8.82391E-16
 -1      2239 1.65085E-03 1.80333E-05-1.82127E-15
 -1      2240 3.40083E-03 4.81041E-05-4.65879E-15
 -1      2241 5.02263E-03 8.35976E-04-6.03034E-15
 -1      2242 1.27129E-03 4.68952E-04-2.50166E-16
 -1      2243 1.08002E-03 3.68923E-04-1.68146E-16
 -1      2244 5.88399E-04 1.34534E-05-3.52664E-16
 -1      2245 6.01844E-04-2.15015E-05-3.65322E-16
 -1      2246 6.10403E-04-5.64308E-05-3.76855E-16
 -1      2247 6.15368E-04-9.04355E-05-3.87602E-16
 -1      2248 7.41738E-04-5.68323E-05-5.02094E-16
 -1      2249 4.77144E-04 1.35330E-04-2.99836E-16
 -1      2250 5.12927E-04 1.10884E-04-3.13199E-16
 -1      2251 3.99774E-04 1.63482E-04-2.73382E-16
 -1      2252 4.37589E-04 1.53602E-04-2.86473E-16
 -1      2253 5.57502E-04 1.65734E-04-3.97929E-16
 -1      2254 3.42774E-04 1.59182E-04-2.46947E-16
 -1      2255 3.66056E-04 1.64934E-04-2.60195E-16
 -1      2256 4.57942E-04 1.95980E-04-3.62212E-16
 -1      2257 3.38050E-04 1.33511E-04-2.18291E-16
 -1      2258 3.31615E-04 1.47132E-04-2.32948E-16
 -1      2259 3.92869E-04 1.89036E-04-3.26264E-16
 -1      2260 4.02883E-04 1.13841E-04-1.84924E-16
 -1      2261 3.62517E-04 1.20535E-04-2.02482E-16
 -1      2262 4.07056E-04 1.63238E-04-2.87734E-16
 -1      2263 5.22059E-04 1.26735E-04-1.43345E-16
 -1      2264 4.57992E-04 1.15033E-04-1.65720E-16
 -1      2265 5.11412E-04 1.54035E-04-2.43349E-16
 -1      2266 1.67854E-03 7.28962E-04-4.72197E-16
 -1      2267 1.47157E-03 5.86493E-04-3.50428E-16
 -1      2268 1.25213E-03 4.64385E-04-3.48896E-16
 -1      2269 9.76919E-04-4.09525E-04-8.46206E-16
 -1      2270 1.12932E-03-4.52404E-04-1.09347E-15
 -1      2271 3.66031E-03 1.76829E-03-2.78900E-15
 -1      2272 3.82568E-03 1.67333E-03-3.07997E-15
 -1      2273 1.27981E-03-4.88952E-04-1.37330E-15
 -1      2274 1.42844E-03-5.18652E-04-1.68570E-15
 -1      2275 1.20316E-03-4.34482E-04-1.22912E-15
 -1      2276 1.57493E-03-5.41404E-04-2.03009E-15
 -1      2277 1.71954E-03-5.56319E-04-2.40645E-15
 -1      2278 1.50633E-03-4.94991E-04-1.84802E-15
 -1      2279 1.86220E-03-5.63034E-04-2.81471E-15
 -1      2280 2.00350E-03-5.60694E-04-3.25461E-15
 -1      2281 1.80219E-03-5.26824E-04-2.59380E-15
 -1      2282 2.14342E-03-5.49030E-04-3.72537E-15
 -1      2283 2.28286E-03-5.27636E-04-4.22736E-15
 -1      2284 2.09125E-03-5.23813E-04-3.46504E-15
 -1      2285 2.42181E-03-4.96666E-04-4.75943E-15
 -1      2286 2.56124E-03-4.56378E-04-5.32120E-15
 -1      2287 2.37623E-03-4.81481E-04-4.45935E-15
 -1      2288 2.70110E-03-4.07475E-04-5.91214E-15
 -1      2289 2.84213E-03-3.50845E-04-6.53145E-15
 -1      2290 2.66109E-03-3.99882E-04-5.57338E-15
 -1      2291 2.98425E-03-2.87599E-04-7.17848E-15
 -1      2292 3.12775E-03-2.18951E-04-7.85151E-15
 -1      2293 2.94934E-03-2.84564E-04-6.80173E-15
 -1      2294 3.27255E-03-1.46140E-04-8.55014E-15
 -1      2295 3.41852E-03-7.03453E-05-9.27435E-15
 -1      2296 3.24264E-03-1.45010E-04-8.13725E-15
 -1      2297 3.56560E-03 7.33502E-06-1.00221E-14
 -1      2298 3.71341E-03 8.60008E-05-1.07935E-14
 -1      2299 3.54056E-03 8.30861E-06-9.57359E-15
 -1      2300 3.86195E-03 1.64851E-04-1.15881E-14
 -1      2301 4.01076E-03 2.43334E-04-1.24055E-14
 -1      2302 3.84132E-03 1.66516E-04-1.11052E-14
 -1      2303 4.15990E-03 3.20975E-04-1.32446E-14
 -1      2304 4.30894E-03 3.97522E-04-1.41055E-14
 -1      2305 4.14288E-03 3.23563E-04-1.27276E-14
 -1      2306 4.45800E-03 4.72774E-04-1.49875E-14
 -1      2307 4.60674E-03 5.46686E-04-1.58889E-14
 -1      2308 4.44360E-03 4.76206E-04-1.44365E-14
 -1      2309 4.75528E-03 6.19244E-04-1.68094E-14
 -1      2310 4.90340E-03 6.90518E-04-1.77497E-14
 -1      2311 4.74254E-03 6.23327E-04-1.62281E-14
 -1      2312 5.05122E-03 7.60605E-04-1.87084E-14
 -1      2313 5.19859E-03 8.29618E-04-1.96852E-14
 -1      2314 5.03932E-03 7.65138E-04-1.80946E-14
 -1      2315 5.34561E-03 8.97705E-04-2.06811E-14
 -1      2316 5.49222E-03 9.64986E-04-2.16956E-14
 -1      2317 5.33397E-03 9.02516E-04-2.00369E-14
 -1      2318 5.63847E-03 1.03161E-03-2.27296E-14
 -1      2319 5.78436E-03 1.09769E-03-2.37818E-14
 -1      2320 5.62672E-03 1.03656E-03-2.20528E-14
 -1      2321 5.92992E-03 1.16335E-03-2.48535E-14
 -1      2322 6.07518E-03 1.22868E-03-2.59456E-14
 -1      2323 5.91786E-03 1.16833E-03-2.41461E-14
 -1      2324 6.22015E-03 1.29379E-03-2.70570E-14
 -1      2325 6.36486E-03 1.35874E-03-2.81893E-14
 -1      2326 6.20769E-03 1.29874E-03-2.63178E-14
 -1      2327 6.50933E-03 1.42360E-03-2.93405E-14
 -1      2328 6.65360E-03 1.48842E-03-3.05087E-14
 -1      2329 6.49650E-03 1.42846E-03-2.85683E-14
 -1      2330 6.79766E-03 1.55326E-03-3.16971E-14
 -1      2331 6.94156E-03 1.61813E-03-3.29026E-14
 -1      2332 6.78449E-03 1.55800E-03-3.08950E-14
 -1      2333 7.08530E-03 1.68308E-03-3.41251E-14
 -1      2334 7.22892E-03 1.74811E-03-3.53654E-14
 -1      2335 7.07188E-03 1.68769E-03-3.32919E-14
 -1      2336 7.37241E-03 1.81324E-03-3.66215E-14
 -1      2337 7.51580E-03 1.87848E-03-3.78915E-14
 -1      2338 7.35878E-03 1.81772E-03-3.57564E-14
 -1      2339 7.65909E-03 1.94384E-03-3.91767E-14
 -1      2340 7.80231E-03 2.00930E-03-4.04775E-14
 -1      2341 7.64534E-03 1.94819E-03-3.82833E-14
 -1      2342 7.94546E-03 2.07488E-03-4.17901E-14
 -1      2343 8.08855E-03 2.14058E-03-4.31162E-14
 -1      2344 7.93163E-03 2.07913E-03-4.08671E-14
 -1      2345 8.23159E-03 2.20637E-03-4.44562E-14
 -1      2346 8.37460E-03 2.27227E-03-4.58079E-14
 -1      2347 8.21772E-03 2.21051E-03-4.35042E-14
 -1      2348 8.51756E-03 2.33826E-03-4.71719E-14
 -1      2349 8.66050E-03 2.40433E-03-4.85437E-14
 -1      2350 8.50367E-03 2.34231E-03-4.61933E-14
 -1      2351 8.80341E-03 2.47048E-03-4.99254E-14
 -1      2352 8.94630E-03 2.53671E-03-5.13158E-14
 -1      2353 8.78953E-03 2.47447E-03-4.89244E-14
 -1      2354 9.08917E-03 2.60300E-03-5.27130E-14
 -1      2355 9.23203E-03 2.66935E-03-5.41196E-14
 -1      2356 9.07531E-03 2.60693E-03-5.16897E-14
 -1      2357 9.37488E-03 2.73576E-03-5.55321E-14
 -1      2358 9.51773E-03 2.80221E-03-5.69504E-14
 -1      2359 9.36105E-03 2.73964E-03-5.44867E-14
 -1      2360 9.66057E-03 2.86870E-03-5.83778E-14
 -1      2361 9.80340E-03 2.93524E-03-5.98103E-14
 -1      2362 9.64676E-03 2.87255E-03-5.73162E-14
 -1      2363 9.94623E-03 3.00180E-03-6.12497E-14
 -1      2364 1.00891E-02 3.06839E-03-6.26966E-14
 -1      2365 9.93245E-03 3.00561E-03-6.01718E-14
 -1      2366 1.02319E-02 3.13500E-03-6.41502E-14
 -1      2367 1.03747E-02 3.20164E-03-6.56108E-14
 -1      2368 1.02181E-02 3.13880E-03-6.30570E-14
 -1      2369 1.05175E-02 3.26830E-03-6.70790E-14
 -1      2370 1.06604E-02 3.33497E-03-6.85563E-14
 -1      2371 1.05038E-02 3.27207E-03-6.59709E-14
 -1      2372 1.08032E-02 3.40165E-03-7.00388E-14
 -1      2373 1.09460E-02 3.46834E-03-7.15302E-14
 -1      2374 1.07895E-02 3.40542E-03-6.89159E-14
 -1      2375 1.10889E-02 3.53505E-03-7.30303E-14
 -1      2376 1.12317E-02 3.60176E-03-7.45385E-14
 -1      2377 1.10752E-02 3.53881E-03-7.18922E-14
 -1      2378 1.13745E-02 3.66848E-03-7.60559E-14
 -1      2379 1.15174E-02 3.73520E-03-7.75836E-14
 -1      2380 1.13609E-02 3.67223E-03-7.49026E-14
 -1      2381 1.16602E-02 3.80193E-03-7.91182E-14
 -1      2382 1.18031E-02 3.86866E-03-8.06616E-14
 -1      2383 1.16465E-02 3.80567E-03-7.79486E-14
 -1      2384 1.19459E-02 3.93539E-03-8.22166E-14
 -1      2385 1.20888E-02 4.00212E-03-8.37782E-14
 -1      2386 1.19322E-02 3.93913E-03-8.10293E-14
 -1      2387 1.22316E-02 4.06886E-03-8.53469E-14
 -1      2388 1.23744E-02 4.13559E-03-8.69229E-14
 -1      2389 1.22179E-02 4.07260E-03-8.41436E-14
 -1      2390 1.25173E-02 4.20233E-03-8.85035E-14
 -1      2391 1.26601E-02 4.26907E-03-9.00901E-14
 -1      2392 1.25036E-02 4.20607E-03-8.72849E-14
 -1      2393 1.28030E-02 4.33580E-03-9.16808E-14
 -1      2394 1.29458E-02 4.40254E-03-9.32709E-14
 -1      2395 1.27893E-02 4.33955E-03-9.04458E-14
 -1      2396 1.30887E-02 4.46927E-03-9.48658E-14
 -1      2397 1.32316E-02 4.53601E-03-9.64633E-14
 -1      2398 1.30750E-02 4.47302E-03-9.36248E-14
 -1      2399 1.33744E-02 4.60274E-03-9.80611E-14
 -1      2400 1.35173E-02 4.66948E-03-9.96597E-14
 -1      2401 1.33608E-02 4.60649E-03-9.68119E-14
 -1      2402 2.60954E-03 1.53000E-03-1.25917E-15
 -1      2403 2.37205E-03 1.31772E-03-1.02936E-15
 -1      2404 3.86122E-03 1.71750E-03-3.03494E-15
 -1      2405 3.64940E-03 1.81670E-03-2.65090E-15
 -1      2406 4.32170E-03 1.47474E-03-3.96943E-15
 -1      2407 4.09726E-03 1.58487E-03-3.50238E-15
 -1      2408 4.75310E-03 1.32143E-03-5.00141E-15
 -1      2409 4.54614E-03 1.38352E-03-4.47656E-15
 -1      2410 5.13943E-03 1.27549E-03-6.12721E-15
 -1      2411 4.95180E-03 1.28747E-03-5.55189E-15
 -1      2412 4.89977E-03 1.24556E-03-5.43466E-15
 -1      2413 5.49440E-03 1.30810E-03-7.35229E-15
 -1      2414 5.32033E-03 1.28404E-03-6.72800E-15
 -1      2415 5.26108E-03 1.23351E-03-6.60115E-15
 -1      2416 5.82955E-03 1.39179E-03-8.66355E-15
 -1      2417 5.66389E-03 1.34509E-03-7.99786E-15
 -1      2418 5.59174E-03 1.28852E-03-7.86090E-15
 -1      2419 6.15239E-03 1.50557E-03-1.00637E-14
 -1      2420 5.99213E-03 1.44587E-03-9.35217E-15
 -1      2421 5.90666E-03 1.38481E-03-9.20751E-15
 -1      2422 6.46676E-03 1.63588E-03-1.15483E-14
 -1      2423 6.31037E-03 1.56924E-03-1.07951E-14
 -1      2424 6.21376E-03 1.50506E-03-1.06377E-14
 -1      2425 6.77474E-03 1.77448E-03-1.31219E-14
 -1      2426 6.62136E-03 1.70449E-03-1.23242E-14
 -1      2427 6.51638E-03 1.63841E-03-1.21544E-14
 -1      2428 7.07764E-03 1.91667E-03-1.47811E-14
 -1      2429 6.92668E-03 1.84532E-03-1.39407E-14
 -1      2430 6.81580E-03 1.77827E-03-1.37581E-14
 -1      2431 7.37646E-03 2.05990E-03-1.65228E-14
 -1      2432 7.22745E-03 1.98826E-03-1.56423E-14
 -1      2433 7.11261E-03 1.92084E-03-1.54455E-14
 -1      2434 7.67203E-03 2.20286E-03-1.83446E-14
 -1      2435 7.52457E-03 2.13147E-03-1.74245E-14
 -1      2436 7.40714E-03 2.06404E-03-1.72150E-14
 -1      2437 7.96505E-03 2.34494E-03-2.02391E-14
 -1      2438 7.81880E-03 2.27404E-03-1.92828E-14
 -1      2439 7.69974E-03 2.20678E-03-1.90617E-14
 -1      2440 8.27060E-03 2.49292E-03-2.23050E-14
 -1      2441 8.11805E-03 2.41910E-03-2.12623E-14
 -1      2442 7.99797E-03 2.35212E-03-2.10295E-14
 -1      2443 8.56007E-03 2.63268E-03-2.43422E-14
 -1      2444 8.41548E-03 2.56295E-03-2.33162E-14
 -1      2445 8.29482E-03 2.49627E-03-2.30721E-14
 -1      2446 8.84841E-03 2.77136E-03-2.64394E-14
 -1      2447 8.70435E-03 2.70216E-03-2.53827E-14
 -1      2448 8.58337E-03 2.63576E-03-2.51320E-14
 -1      2449 9.13593E-03 2.90908E-03-2.85913E-14
 -1      2450 8.99226E-03 2.84034E-03-2.75093E-14
 -1      2451 8.87112E-03 2.77419E-03-2.72504E-14
 -1      2452 9.42284E-03 3.04595E-03-3.07988E-14
 -1      2453 9.27945E-03 2.97762E-03-2.96891E-14
 -1      2454 9.15825E-03 2.91169E-03-2.94239E-14
 -1      2455 9.70932E-03 3.18212E-03-3.30547E-14
 -1      2456 9.56613E-03 3.11412E-03-3.19204E-14
 -1      2457 9.44493E-03 3.04839E-03-3.16521E-14
 -1      2458 9.99549E-03 3.31770E-03-3.53546E-14
 -1      2459 9.85244E-03 3.24998E-03-3.41988E-14
 -1      2460 9.73127E-03 3.18440E-03-3.39273E-14
 -1      2461 1.02814E-02 3.45278E-03-3.77046E-14
 -1      2462 1.01385E-02 3.38530E-03-3.65226E-14
 -1      2463 1.00174E-02 3.31985E-03-3.62484E-14
 -1      2464 1.05673E-02 3.58748E-03-4.01078E-14
 -1      2465 1.04244E-02 3.52018E-03-3.89008E-14
 -1      2466 1.03033E-02 3.45483E-03-3.86249E-14
 -1      2467 1.08530E-02 3.72186E-03-4.25583E-14
 -1      2468 1.07101E-02 3.65471E-03-4.13256E-14
 -1      2469 1.05891E-02 3.58944E-03-4.10506E-14
 -1      2470 1.11387E-02 3.85600E-03-4.50621E-14
 -1      2471 1.09958E-02 3.78896E-03-4.38045E-14
 -1      2472 1.08749E-02 3.72375E-03-4.35237E-14
 -1      2473 1.14243E-02 3.98995E-03-4.76210E-14
 -1      2474 1.12815E-02 3.92300E-03-4.63345E-14
 -1      2475 1.11605E-02 3.85784E-03-4.60495E-14
 -1      2476 1.17099E-02 4.12375E-03-5.02395E-14
 -1      2477 1.15671E-02 4.05687E-03-4.89219E-14
 -1      2478 1.14462E-02 3.99174E-03-4.86303E-14
 -1      2479 1.19955E-02 4.25744E-03-5.29127E-14
 -1      2480 1.18527E-02 4.19061E-03-5.15699E-14
 -1      2481 1.17319E-02 4.12551E-03-5.12681E-14
 -1      2482 1.22955E-02 4.39773E-03-5.57755E-14
 -1      2483 1.21455E-02 4.32760E-03-5.43367E-14
 -1      2484 1.20247E-02 4.26252E-03-5.40275E-14
 -1      2485 1.25811E-02 4.53129E-03-5.85517E-14
 -1      2486 1.24383E-02 4.46452E-03-5.71594E-14
 -1      2487 1.23175E-02 4.39945E-03-5.68416E-14
 -1      2488 1.28667E-02 4.66480E-03-6.13687E-14
 -1      2489 1.27239E-02 4.59805E-03-5.99549E-14
 -1      2490 1.26031E-02 4.53299E-03-5.96318E-14
 -1      2491 1.31524E-02 4.79828E-03-6.42294E-14
 -1      2492 1.30096E-02 4.73154E-03-6.27950E-14
 -1      2493 1.28888E-02 4.66649E-03-6.24664E-14
 -1      2494 1.34381E-02 4.93175E-03-6.71301E-14
 -1      2495 1.32952E-02 4.86502E-03-6.56718E-14
 -1      2496 1.31745E-02 4.79997E-03-6.53395E-14
 -1      2497 1.37237E-02 5.06520E-03-7.00664E-14
 -1      2498 1.35809E-02 4.99847E-03-6.85938E-14
 -1      2499 1.34601E-02 4.93343E-03-6.82540E-14
 -1      2500 1.40094E-02 5.19865E-03-7.30270E-14
 -1      2501 1.38666E-02 5.13192E-03-7.15441E-14
 -1      2502 1.37458E-02 5.06688E-03-7.12020E-14
 -1      2503 1.42951E-02 5.33209E-03-7.60126E-14
 -1      2504 1.41523E-02 5.26537E-03-7.45174E-14
 -1      2505 1.40315E-02 5.20033E-03-7.41749E-14
 -1      2506 1.45808E-02 5.46554E-03-7.90250E-14
 -1      2507 1.44380E-02 5.39882E-03-7.75157E-14
 -1      2508 1.43172E-02 5.33377E-03-7.71697E-14
 -1      2509 1.48665E-02 5.59898E-03-8.20666E-14
 -1      2510 1.47237E-02 5.53226E-03-8.05418E-14
 -1      2511 1.46029E-02 5.46722E-03-8.01913E-14
 -1      2512 1.51522E-02 5.73243E-03-8.51365E-14
 -1      2513 1.50094E-02 5.66571E-03-8.35988E-14
 -1      2514 1.48886E-02 5.60066E-03-8.32432E-14
 -1      2515 1.54379E-02 5.86589E-03-8.82180E-14
 -1      2516 1.52951E-02 5.79916E-03-8.66766E-14
 -1      2517 1.51743E-02 5.73411E-03-8.63159E-14
 -1      2518 1.55841E-02 5.93296E-03-8.99309E-14
 -1      2519 1.49959E-02 5.56750E-03-9.34335E-14
 -1      2520 1.50615E-02 5.60965E-03-9.28996E-14
 -1      2521 1.48647E-02 5.48320E-03-9.44936E-14
 -1      2522 1.49303E-02 5.52535E-03-9.39645E-14
 -1      2523 1.48394E-02 5.48864E-03-9.23564E-14
 -1      2524 1.52562E-02 5.73466E-03-9.13088E-14
 -1      2525 1.53218E-02 5.77681E-03-9.07683E-14
 -1      2526 1.51266E-02 5.65144E-03-9.23693E-14
 -1      2527 1.51911E-02 5.69287E-03-9.18418E-14
 -1      2528 1.51002E-02 5.65616E-03-9.02343E-14
 -1      2529 1.49701E-02 5.57258E-03-9.12958E-14
 -1      2530 1.47334E-02 5.39890E-03-9.55485E-14
 -1      2531 1.47991E-02 5.44105E-03-9.50223E-14
 -1      2532 1.47081E-02 5.40434E-03-9.34148E-14
 -1      2533 1.46022E-02 5.31460E-03-9.66115E-14
 -1      2534 1.46678E-02 5.35675E-03-9.60789E-14
 -1      2535 1.45769E-02 5.32004E-03-9.44734E-14
 -1      2536 1.44710E-02 5.23030E-03-9.76696E-14
 -1      2537 1.45366E-02 5.27245E-03-9.71395E-14
 -1      2538 1.44457E-02 5.23574E-03-9.55294E-14
 -1      2539 1.43420E-02 5.14743E-03-9.87119E-14
 -1      2540 1.44065E-02 5.18886E-03-9.81903E-14
 -1      2541 1.43156E-02 5.15215E-03-9.65746E-14
 -1      2542 1.42107E-02 5.06313E-03-9.97768E-14
 -1      2543 1.42764E-02 5.10528E-03-9.92429E-14
 -1      2544 1.41854E-02 5.06856E-03-9.76218E-14
 -1      2545 1.40795E-02 4.97883E-03-1.00834E-13
 -1      2546 1.41451E-02 5.02098E-03-1.00307E-13
 -1      2547 1.40542E-02 4.98427E-03-9.86757E-14
 -1      2548 1.39483E-02 4.89454E-03-1.01886E-13
 -1      2549 1.40139E-02 4.93669E-03-1.01359E-13
 -1      2550 1.39230E-02 4.89997E-03-9.97245E-14
 -1      2551 5.31964E-03 9.29930E-04-6.10936E-15
 -1      2552 5.31251E-03 9.21530E-04-6.16638E-15
 -1      2553 5.14862E-03 9.74107E-04-5.48100E-15
 -1      2554 5.25528E-03 9.50410E-04-5.82129E-15
 -1      2555 5.27425E-03 9.12721E-04-6.26103E-15
 -1      2556 5.20372E-03 9.05101E-04-6.35541E-15
 -1      2557 5.30839E-03 9.36085E-04-6.56887E-15
 -1      2558 1.39105E-02 4.85661E-03-1.03677E-13
 -1      2559 4.87873E-03 1.07582E-03-4.95835E-15
 -1      2560 5.02677E-03 1.01642E-03-5.21672E-15
 -1      2561 5.11254E-03 1.00457E-03-5.60628E-15
 -1      2562 6.30875E-04-2.76390E-04-4.17553E-16
 -1      2563 8.35903E-04-3.57846E-04-6.51511E-16
 -1      2564 9.08301E-04-3.47377E-04-7.58291E-16
 -1      2565 6.26603E-04-2.43171E-04-4.20359E-16
 -1      2566 4.76800E-03 7.87955E-04-6.28593E-15
 -1      2567 4.54985E-03 7.09068E-04-6.19538E-15
 -1      2568 3.88541E-03 3.78519E-04-5.60314E-15
 -1      2569 3.65977E-03 2.38030E-04-5.28433E-15
 -1      2570 2.41192E-03-2.77730E-04-2.98451E-15
 -1      2571 2.27521E-03-2.46599E-04-2.70199E-15
 -1      2572 7.06956E-04 3.35352E-04-9.38394E-16
 -1      2573 6.08172E-04 3.44100E-04-8.70516E-16
 -1      2574 2.80149E-03 1.68560E-03-1.43291E-15
 -1      2575 5.44308E-04 8.09058E-05-3.26358E-16
 -1      2576 5.69348E-04 4.82555E-05-3.39694E-16
 -1      2577 7.10520E-04 2.44002E-05-4.69378E-16
 -1      2578 6.49072E-04 1.03056E-04-4.34033E-16
 -1      2579 1.17901E-03 5.32881E-04-7.73849E-16
 -1      2580 1.39749E-03 6.53459E-04-8.33670E-16
 -1      2581 3.27955E-03 1.87633E-03-2.14233E-15
 -1      2582 3.46623E-03 1.84330E-03-2.46285E-15
 -1      2583 1.72245E-03-1.99038E-05-1.84820E-15
 -1      2584 1.55758E-03 5.82524E-05-1.66047E-15
 -1      2585 1.63656E-03 8.01989E-04-9.01365E-16
 -1      2586 1.87718E-03 9.67183E-04-9.74413E-16
 -1      2587 5.62121E-04 3.35705E-04-7.35735E-16
 -1      2588 6.22194E-04 3.39493E-04-7.22917E-16
 -1      2589 5.45538E-04 3.45752E-04-8.12337E-16
 -1      2590 5.33736E-04 3.39341E-04-7.72453E-16
 -1      2591 5.35051E-04 3.12720E-04-6.79510E-16
 -1      2592 9.74012E-04 2.77317E-04-1.12466E-15
 -1      2593 8.47500E-04 3.07777E-04-1.02937E-15
 -1      2594 3.45384E-03 1.08730E-04-4.96315E-15
 -1      2595 3.29326E-03 7.05095E-06-4.70663E-15
 -1      2596 1.35476E-03 1.44465E-04-1.45345E-15
 -1      2597 1.15907E-03 2.19149E-04-1.27819E-15
 -1      2598 2.10748E-03-1.91280E-04-2.40387E-15
 -1      2599 1.93091E-03-1.14762E-04-2.12489E-15
 -1      2600 2.15814E-03-2.24368E-04-2.51275E-15
 -1      2601 2.70815E-03-2.63430E-04-3.62858E-15
 -1      2602 2.58659E-03-2.82502E-04-3.35658E-15
 -1      2603 5.08433E-03 8.81447E-04-6.41513E-15
 -1      2604 4.95567E-03 8.50974E-04-6.39995E-15
 -1      2605 4.31307E-03 6.07861E-04-6.06129E-15
 -1      2606 4.13540E-03 5.19010E-04-5.90543E-15
 -1      2607 4.08690E-03 1.52574E-03-3.54670E-15
 -1      2608 4.23572E-03 1.43167E-03-3.82291E-15
 -1      2609 9.42240E-04 3.06679E-04-1.09694E-16
 -1      2610 7.55996E-04 2.29200E-04-6.02139E-17
 -1      2611 6.87617E-04 1.93469E-04-7.59484E-17
 -1      2612 9.42720E-04 3.01288E-04-1.79923E-16
 -1      2613 1.52931E-03 7.03195E-04-7.85857E-16
 -1      2614 7.51993E-04-1.34317E-04-5.30121E-16
 -1      2615 6.17480E-04-1.23564E-04-3.96926E-16
 -1      2616 6.18135E-04-1.55751E-04-4.04624E-16
 -1      2617 1.87736E-03 8.75364E-04-5.83789E-16
 -1      2618 1.63376E-03 7.14750E-04-5.74166E-16
 -1      2619 6.12372E-04 1.57199E-04-1.05561E-16
 -1      2620 4.00714E-03 1.60317E-03-3.36925E-15
 -1      2621 4.86203E-03 8.39794E-04-6.67323E-15
 -1      2622 4.44917E-03 6.84258E-04-6.41871E-15
 -1      2623 5.15829E-03 9.14444E-04-6.72846E-15
 -1      2624 3.54300E-03 1.83728E-03-2.53533E-15
 -1      2625 3.02813E-03 1.82032E-03-1.71827E-15
 -1      2626 4.48404E-03 1.36184E-03-4.35941E-15
 -1      2627 1.54633E-02 5.86791E-03-8.95695E-14
 -1      2628 1.53598E-02 5.80253E-03-9.03082E-14
 -1      2629 1.54254E-02 5.84219E-03-9.00338E-14
 -1      2630 1.52792E-02 5.77512E-03-8.83211E-14
 -1      2631 1.52033E-02 5.72367E-03-8.92423E-14
 -1      2632 1.42817E-03 9.96589E-05-1.47483E-15
 -1      2633 1.37379E-02 4.77187E-03-1.02200E-13
 -1      2634 1.38667E-02 4.84652E-03-1.02058E-13
 -1      2635 1.37758E-02 4.80980E-03-1.00415E-13
 -1      2636 1.36125E-02 4.71375E-03-1.00749E-13
 -1      2637 5.31007E-03 9.47797E-04-6.17387E-15
 -1      2638 5.34548E-03 9.56357E-04-6.53597E-15
 -1      2639 5.28726E-03 9.69525E-04-6.23524E-15
 -1      2640 3.54815E-03 1.85625E-04-5.33181E-15
 -1      2641 3.16768E-03 1.87531E-03-1.90671E-15
 -1      2642 2.10194E-03 1.06590E-03-7.47232E-16
 -1      2643 6.99817E-04 1.95870E-04-1.72632E-16
 -1      2644 1.35989E-02 4.71750E-03-9.94945E-14
 -1      2645 2.46977E-03-2.87556E-04-3.17701E-15
 -1      2646 5.59507E-04 3.28605E-04-7.66046E-16
 -1      2647 4.76181E-03 1.13535E-03-4.80521E-15
 -1      2648 4.88960E-03 1.10017E-03-5.17599E-15
 -1      2649 4.65235E-03 1.20421E-03-4.65092E-15
 -1      2650 6.24812E-04-2.11254E-04-4.19125E-16
 -1      2651 3.98368E-03 4.50777E-04-5.96905E-15
 -1      2652 3.29151E-03 1.89901E-03-2.01840E-15
 -1      2653 7.52593E-04 3.12915E-04-9.02327E-16
 -1      2654 3.15035E-03-6.62523E-05-4.59043E-15
 -1      2655 1.81500E-03-7.76743E-05-1.94399E-15
 -1      2656 6.82893E-04 3.31177E-04-6.66462E-16
 -1      2657 1.95353E-03 9.89211E-04-8.94535E-16
 -1      2658 2.07851E-03 1.10902E-03-1.02805E-15
 -1      2659 2.25245E-03 1.24941E-03-1.10079E-15
 -1      2660 9.42320E-04 3.94547E-04-6.43982E-16
 -1      2661 1.05393E-03 4.55202E-04-7.06541E-16
 -1      2662 1.17243E-03 4.88028E-04-6.61397E-16
 -1      2663 1.05997E-03 2.37185E-04-1.13012E-15
 -1      2664 2.78452E-03-2.38739E-04-3.86941E-15
 -1      2665 4.36520E-03 1.36672E-03-4.08061E-15
 -1      2666 5.00417E-04 2.29469E-04-4.51956E-16
 -1      2667 5.57658E-04 2.19713E-04-4.74637E-16
 -1      2668 6.23455E-04 1.97584E-04-4.98001E-16
 -1      2669 6.85755E-04 1.66401E-04-5.21217E-16
 -1      2670 6.77735E-04 2.30509E-04-6.06320E-16
 -1      2671 4.70614E-04 1.88506E-04-3.45041E-16
 -1      2672 4.33723E-04 1.99110E-04-3.69306E-16
 -1      2673 6.37052E-04 2.02085E-04-3.06545E-16
 -1      2674 5.49297E-04 1.92341E-04-3.36021E-16
 -1      2675 1.23130E-03 4.67643E-04-4.46962E-16
 -1      2676 1.05818E-03 3.66285E-04-3.34639E-16
 -1      2677 1.35852E-02 4.72125E-03-9.82444E-14
 -1      2678 1.36805E-02 4.76553E-03-9.93302E-14
 -1      2679 1.37621E-02 4.81355E-03-9.91626E-14
 -1      2680 8.05121E-04 2.44803E-04-2.39473E-16
 -1      2681 4.94637E-03 8.82411E-04-7.14098E-15
 -1      2682 4.77168E-03 8.27916E-04-7.02205E-15
 -1      2683 2.51918E-03-2.92859E-04-3.40803E-15
 -1      2684 2.36900E-03-2.89222E-04-3.03406E-15
 -1      2685 5.09176E-03 1.03621E-03-5.72778E-15
 -1      2686 5.19587E-03 1.00446E-03-6.00826E-15
 -1      2687 1.43676E-03-4.46083E-04-1.67198E-15
 -1      2688 1.58963E-03-4.70552E-04-2.00977E-15
 -1      2689 1.74052E-03-4.87972E-04-2.37878E-15
 -1      2690 1.88973E-03-4.96857E-04-2.77922E-15
 -1      2691 1.67700E-03-4.45904E-04-2.17025E-15
 -1      2692 2.03699E-03-4.96638E-04-3.21103E-15
 -1      2693 2.18315E-03-4.86196E-04-3.67303E-15
 -1      2694 1.98088E-03-4.66669E-04-2.96266E-15
 -1      2695 2.32810E-03-4.65316E-04-4.16576E-15
 -1      2696 2.47308E-03-4.33781E-04-4.68865E-15
 -1      2697 2.27817E-03-4.47554E-04-3.87849E-15
 -1      2698 2.61804E-03-3.92018E-04-5.24071E-15
 -1      2699 2.76407E-03-3.40880E-04-5.82200E-15
 -1      2700 2.57295E-03-3.83756E-04-4.91407E-15
 -1      2701 2.91108E-03-2.81398E-04-6.43147E-15
 -1      2702 3.05961E-03-2.15159E-04-7.06772E-15
 -1      2703 2.87040E-03-2.78445E-04-6.06690E-15
 -1      2704 3.20946E-03-1.43453E-04-7.72972E-15
 -1      2705 3.36057E-03-6.79593E-05-8.41808E-15
 -1      2706 3.17364E-03-1.41994E-04-7.32927E-15
 -1      2707 3.51271E-03 1.01228E-05-9.13148E-15
 -1      2708 3.66543E-03 8.95039E-05-9.86853E-15
 -1      2709 3.48238E-03 1.23452E-05-8.69548E-15
 -1      2710 3.81859E-03 1.69296E-04-1.06282E-14
 -1      2711 3.97162E-03 2.48745E-04-1.14118E-14
 -1      2712 3.79387E-03 1.72966E-04-1.01587E-14
 -1      2713 4.12452E-03 3.27313E-04-1.22176E-14
 -1      2714 4.27680E-03 4.04701E-04-1.30450E-14
 -1      2715 4.10485E-03 3.32188E-04-1.17141E-14
 -1      2716 4.42856E-03 4.80654E-04-1.38929E-14
 -1      2717 4.57947E-03 5.55168E-04-1.47630E-14
 -1      2718 4.41286E-03 4.86204E-04-1.33570E-14
 -1      2719 4.72970E-03 6.28184E-04-1.56530E-14
 -1      2720 4.87905E-03 6.99837E-04-1.65608E-14
 -1      2721 4.71674E-03 6.33944E-04-1.50837E-14
 -1      2722 5.02772E-03 7.70184E-04-1.74878E-14
 -1      2723 5.17560E-03 8.39406E-04-1.84338E-14
 -1      2724 5.01637E-03 7.75872E-04-1.68882E-14
 -1      2725 5.32286E-03 9.07612E-04-1.93987E-14
 -1      2726 5.46948E-03 9.74977E-04-2.03822E-14
 -1      2727 5.31225E-03 9.13098E-04-1.87673E-14
 -1      2728 5.61560E-03 1.04162E-03-2.13839E-14
 -1      2729 5.76122E-03 1.10770E-03-2.24053E-14
 -1      2730 5.60510E-03 1.04688E-03-2.07217E-14
 -1      2731 5.90645E-03 1.17332E-03-2.34461E-14
 -1      2732 6.05130E-03 1.23859E-03-2.45065E-14
 -1      2733 5.89569E-03 1.17835E-03-2.27523E-14
 -1      2734 6.19586E-03 1.30362E-03-2.55860E-14
 -1      2735 6.34015E-03 1.36847E-03-2.66854E-14
 -1      2736 6.18465E-03 1.30845E-03-2.48610E-14
 -1      2737 6.48421E-03 1.43322E-03-2.78051E-14
 -1      2738 6.62809E-03 1.49793E-03-2.89438E-14
 -1      2739 6.47249E-03 1.43789E-03-2.70486E-14
 -1      2740 6.77179E-03 1.56264E-03-3.00994E-14
 -1      2741 6.91537E-03 1.62739E-03-3.12735E-14
 -1      2742 6.75958E-03 1.56717E-03-2.93109E-14
 -1      2743 7.05883E-03 1.69221E-03-3.24664E-14
 -1      2744 7.20219E-03 1.75712E-03-3.36748E-14
 -1      2745 7.04617E-03 1.69662E-03-3.16467E-14
 -1      2746 7.34546E-03 1.82213E-03-3.48999E-14
 -1      2747 7.48867E-03 1.88725E-03-3.61409E-14
 -1      2748 7.33245E-03 1.82643E-03-3.40516E-14
 -1      2749 7.63181E-03 1.95249E-03-3.73970E-14
 -1      2750 7.77491E-03 2.01784E-03-3.86668E-14
 -1      2751 7.61853E-03 1.95670E-03-3.65179E-14
 -1      2752 7.91796E-03 2.08332E-03-3.99519E-14
 -1      2753 8.06098E-03 2.14892E-03-4.12499E-14
 -1      2754 7.90448E-03 2.08745E-03-3.90439E-14
 -1      2755 8.20397E-03 2.21462E-03-4.25614E-14
 -1      2756 8.34693E-03 2.28043E-03-4.38850E-14
 -1      2757 8.19034E-03 2.21868E-03-4.16261E-14
 -1      2758 8.48987E-03 2.34634E-03-4.52217E-14
 -1      2759 8.63279E-03 2.41235E-03-4.65707E-14
 -1      2760 8.47616E-03 2.35034E-03-4.42588E-14
 -1      2761 8.77570E-03 2.47844E-03-4.79297E-14
 -1      2762 8.91860E-03 2.54461E-03-4.92973E-14
 -1      2763 8.76194E-03 2.48239E-03-4.69412E-14
 -1      2764 9.06149E-03 2.61085E-03-5.06738E-14
 -1      2765 9.20436E-03 2.67715E-03-5.20584E-14
 -1      2766 9.04770E-03 2.61475E-03-4.96642E-14
 -1      2767 9.34723E-03 2.74351E-03-5.34507E-14
 -1      2768 9.49010E-03 2.80993E-03-5.48501E-14
 -1      2769 9.33344E-03 2.74738E-03-5.24208E-14
 -1      2770 9.63296E-03 2.87639E-03-5.62602E-14
 -1      2771 9.77582E-03 2.94289E-03-5.76775E-14
 -1      2772 9.61917E-03 2.88023E-03-5.52110E-14
 -1      2773 9.91867E-03 3.00943E-03-5.90982E-14
 -1      2774 1.00615E-02 3.07600E-03-6.05288E-14
 -1      2775 9.90490E-03 3.01324E-03-5.80318E-14
 -1      2776 1.02044E-02 3.14259E-03-6.19667E-14
 -1      2777 1.03472E-02 3.20921E-03-6.34126E-14
 -1      2778 1.01906E-02 3.14639E-03-6.08822E-14
 -1      2779 1.04901E-02 3.27585E-03-6.48666E-14
 -1      2780 1.06329E-02 3.34251E-03-6.63284E-14
 -1      2781 1.04763E-02 3.27964E-03-6.37668E-14
 -1      2782 1.07758E-02 3.40919E-03-6.77980E-14
 -1      2783 1.09186E-02 3.47587E-03-6.92749E-14
 -1      2784 1.07620E-02 3.41296E-03-6.66832E-14
 -1      2785 1.10615E-02 3.54257E-03-7.07593E-14
 -1      2786 1.12043E-02 3.60927E-03-7.22518E-14
 -1      2787 1.10478E-02 3.54633E-03-6.96304E-14
 -1      2788 1.13472E-02 3.67598E-03-7.37531E-14
 -1      2789 1.14900E-02 3.74270E-03-7.52647E-14
 -1      2790 1.13335E-02 3.67974E-03-7.26090E-14
 -1      2791 1.16329E-02 3.80943E-03-7.67839E-14
 -1      2792 1.17757E-02 3.87615E-03-7.83115E-14
 -1      2793 1.16192E-02 3.81318E-03-7.56221E-14
 -1      2794 1.19186E-02 3.94288E-03-7.98475E-14
 -1      2795 1.20614E-02 4.00962E-03-8.13923E-14
 -1      2796 1.19049E-02 3.94664E-03-7.86706E-14
 -1      2797 1.22043E-02 4.07635E-03-8.29469E-14
 -1      2798 1.23471E-02 4.14309E-03-8.45053E-14
 -1      2799 1.21906E-02 4.08010E-03-8.17536E-14
 -1      2800 1.24900E-02 4.20982E-03-8.60708E-14
 -1      2801 1.26328E-02 4.27656E-03-8.76427E-14
 -1      2802 1.24763E-02 4.21357E-03-8.48655E-14
 -1      2803 1.27757E-02 4.34330E-03-8.92210E-14
 -1      2804 1.29185E-02 4.41003E-03-9.08029E-14
 -1      2805 1.27620E-02 4.34704E-03-8.80002E-14
 -1      2806 1.30614E-02 4.47677E-03-9.23880E-14
 -1      2807 1.32043E-02 4.54350E-03-9.39757E-14
 -1      2808 1.30477E-02 4.48052E-03-9.11560E-14
 -1      2809 1.33233E-02 4.59901E-03-9.53127E-14
 -1      2810 1.34662E-02 4.66574E-03-9.69051E-14
 -1      2811 1.35478E-02 4.71377E-03-9.67426E-14
 -1      2812 1.33097E-02 4.60276E-03-9.40717E-14
 -1      2813 2.19604E-03-2.53887E-04-2.63177E-15
 -1      2814 2.05317E-03-2.03251E-04-2.33961E-15
 -1      2815 3.48155E-03 1.88181E-03-2.33106E-15
 -1      2816 5.04579E-03 1.18050E-03-5.87850E-15
 -1      2817 4.86440E-03 1.20146E-03-5.31225E-15
 -1      2818 5.97623E-03 1.37820E-03-9.79021E-15
 -1      2819 5.82995E-03 1.32190E-03-9.08953E-15
 -1      2820 6.26724E-03 1.50316E-03-1.12541E-14
 -1      2821 6.12164E-03 1.43893E-03-1.05127E-14
 -1      2822 6.03724E-03 1.37656E-03-1.03808E-14
 -1      2823 6.55808E-03 1.63827E-03-1.28046E-14
 -1      2824 6.41250E-03 1.56976E-03-1.20196E-14
 -1      2825 6.31473E-03 1.50431E-03-1.18786E-14
 -1      2826 6.84897E-03 1.77849E-03-1.44388E-14
 -1      2827 6.70342E-03 1.70793E-03-1.36105E-14
 -1      2828 6.59578E-03 1.64007E-03-1.34589E-14
 -1      2829 7.13965E-03 1.92083E-03-1.61545E-14
 -1      2830 6.99428E-03 1.84951E-03-1.52865E-14
 -1      2831 6.87957E-03 1.78000E-03-1.51235E-14
 -1      2832 7.42984E-03 2.06358E-03-1.79522E-14
 -1      2833 7.28477E-03 1.99221E-03-1.70438E-14
 -1      2834 7.16510E-03 1.92169E-03-1.68684E-14
 -1      2835 7.71938E-03 2.20583E-03-1.98249E-14
 -1      2836 7.57466E-03 2.13480E-03-1.88792E-14
 -1      2837 7.45160E-03 2.06371E-03-1.86931E-14
 -1      2838 8.02266E-03 2.35420E-03-2.18685E-14
 -1      2839 7.87109E-03 2.28016E-03-2.08377E-14
 -1      2840 7.74567E-03 2.20881E-03-2.06409E-14
 -1      2841 8.31081E-03 2.49441E-03-2.38884E-14
 -1      2842 8.16679E-03 2.42445E-03-2.28692E-14
 -1      2843 8.03983E-03 2.35303E-03-2.26637E-14
 -1      2844 8.59840E-03 2.63354E-03-2.59702E-14
 -1      2845 8.45466E-03 2.56411E-03-2.49217E-14
 -1      2846 8.32670E-03 2.49274E-03-2.47075E-14
 -1      2847 8.88550E-03 2.77168E-03-2.81107E-14
 -1      2848 8.74199E-03 2.70273E-03-2.70345E-14
 -1      2849 8.61340E-03 2.63145E-03-2.68131E-14
 -1      2850 9.17221E-03 2.90893E-03-3.03095E-14
 -1      2851 9.02889E-03 2.84041E-03-2.92040E-14
 -1      2852 8.89990E-03 2.76924E-03-2.89789E-14
 -1      2853 9.45862E-03 3.04542E-03-3.25595E-14
 -1      2854 9.31545E-03 2.97727E-03-3.14271E-14
 -1      2855 9.18621E-03 2.90621E-03-3.11998E-14
 -1      2856 9.74480E-03 3.18126E-03-3.48559E-14
 -1      2857 9.60174E-03 3.11341E-03-3.37013E-14
 -1      2858 9.47237E-03 3.04247E-03-3.34715E-14
 -1      2859 1.00308E-02 3.31657E-03-3.72060E-14
 -1      2860 9.88783E-03 3.24897E-03-3.60257E-14
 -1      2861 9.75840E-03 3.17813E-03-3.57944E-14
 -1      2862 1.03167E-02 3.45144E-03-3.96066E-14
 -1      2863 1.01738E-02 3.38405E-03-3.83988E-14
 -1      2864 1.00443E-02 3.31329E-03-3.81684E-14
 -1      2865 1.06025E-02 3.58596E-03-4.20543E-14
 -1      2866 1.04596E-02 3.51874E-03-4.08250E-14
 -1      2867 1.03302E-02 3.44804E-03-4.05923E-14
 -1      2868 1.08883E-02 3.72020E-03-4.45538E-14
 -1      2869 1.07454E-02 3.65311E-03-4.32988E-14
 -1      2870 1.06160E-02 3.58247E-03-4.30671E-14
 -1      2871 1.11740E-02 3.85423E-03-4.71032E-14
 -1      2872 1.10311E-02 3.78724E-03-4.58221E-14
 -1      2873 1.09017E-02 3.71664E-03-4.55874E-14
 -1      2874 1.14597E-02 3.98809E-03-4.97055E-14
 -1      2875 1.13168E-02 3.92118E-03-4.83971E-14
 -1      2876 1.11875E-02 3.85062E-03-4.81610E-14
 -1      2877 1.17454E-02 4.12183E-03-5.23626E-14
 -1      2878 1.16025E-02 4.05498E-03-5.10266E-14
 -1      2879 1.14732E-02 3.98444E-03-5.07832E-14
 -1      2880 1.20453E-02 4.26216E-03-5.52088E-14
 -1      2881 1.18953E-02 4.19201E-03-5.37807E-14
 -1      2882 1.17660E-02 4.12149E-03-5.35278E-14
 -1      2883 1.23310E-02 4.39573E-03-5.79700E-14
 -1      2884 1.21882E-02 4.32895E-03-5.65827E-14
 -1      2885 1.20589E-02 4.25845E-03-5.63253E-14
 -1      2886 1.26167E-02 4.52926E-03-6.07793E-14
 -1      2887 1.24738E-02 4.46250E-03-5.93708E-14
 -1      2888 1.23445E-02 4.39200E-03-5.91040E-14
 -1      2889 1.29024E-02 4.66275E-03-6.36301E-14
 -1      2890 1.27595E-02 4.59601E-03-6.21980E-14
 -1      2891 1.26302E-02 4.52552E-03-6.19293E-14
 -1      2892 1.31880E-02 4.79622E-03-6.65198E-14
 -1      2893 1.30452E-02 4.72949E-03-6.50700E-14
 -1      2894 1.29159E-02 4.65901E-03-6.47956E-14
 -1      2895 1.34737E-02 4.92968E-03-6.94510E-14
 -1      2896 1.33309E-02 4.86295E-03-6.79809E-14
 -1      2897 1.32016E-02 4.79247E-03-6.77046E-14
 -1      2898 1.37594E-02 5.06313E-03-7.24107E-14
 -1      2899 1.36166E-02 4.99640E-03-7.09285E-14
 -1      2900 1.34873E-02 4.92593E-03-7.06509E-14
 -1      2901 1.40451E-02 5.19657E-03-7.53920E-14
 -1      2902 1.39023E-02 5.12985E-03-7.38971E-14
 -1      2903 1.37730E-02 5.05937E-03-7.36219E-14
 -1      2904 1.43308E-02 5.33002E-03-7.83984E-14
 -1      2905 1.41880E-02 5.26330E-03-7.68936E-14
 -1      2906 1.40588E-02 5.19282E-03-7.66134E-14
 -1      2907 1.46165E-02 5.46346E-03-8.14290E-14
 -1      2908 1.44737E-02 5.39674E-03-7.99102E-14
 -1      2909 1.43445E-02 5.32626E-03-7.96260E-14
 -1      2910 1.49022E-02 5.59691E-03-8.44873E-14
 -1      2911 1.47594E-02 5.53019E-03-8.29556E-14
 -1      2912 1.46302E-02 5.45971E-03-8.26666E-14
 -1      2913 1.51622E-02 5.71938E-03-8.71710E-14
 -1      2914 1.50193E-02 5.65265E-03-8.56310E-14
 -1      2915 1.48901E-02 5.58217E-03-8.53385E-14
 -1      2916 1.51242E-02 5.69365E-03-8.76328E-14
 -1      2917 1.44204E-02 5.24117E-03-9.33926E-14
 -1      2918 1.44860E-02 5.28332E-03-9.28661E-14
 -1      2919 1.48453E-03 4.82090E-05-1.48517E-15
 -1      2920 1.30953E-03 1.23005E-04-1.29332E-15
 -1      2921 1.46829E-02 5.40978E-03-9.12805E-14
 -1      2922 1.47485E-02 5.45193E-03-9.07488E-14
 -1      2923 1.42891E-02 5.15687E-03-9.44456E-14
 -1      2924 1.43548E-02 5.19902E-03-9.39210E-14
 -1      2925 1.42639E-02 5.16231E-03-9.23129E-14
 -1      2926 1.45516E-02 5.32548E-03-9.23367E-14
 -1      2927 1.46172E-02 5.36763E-03-9.18077E-14
 -1      2928 1.45263E-02 5.33092E-03-9.02027E-14
 -1      2929 1.43951E-02 5.24661E-03-9.12592E-14
 -1      2930 8.61639E-04-2.96752E-04-6.95489E-16
 -1      2931 1.00362E-03-3.43726E-04-8.95280E-16
 -1      2932 1.41601E-02 5.07400E-03-9.54776E-14
 -1      2933 1.42246E-02 5.11544E-03-9.49613E-14
 -1      2934 1.41337E-02 5.07872E-03-9.33526E-14
 -1      2935 1.40289E-02 4.98970E-03-9.65256E-14
 -1      2936 1.40945E-02 5.03185E-03-9.60017E-14
 -1      2937 1.40036E-02 4.99514E-03-9.43860E-14
 -1      2938 1.38977E-02 4.90540E-03-9.75679E-14
 -1      2939 1.39633E-02 4.94755E-03-9.70466E-14
 -1      2940 1.38724E-02 4.91084E-03-9.54232E-14
 -1      2941 1.38277E-02 4.85570E-03-9.86456E-14
 -1      2942 3.62045E-03 2.47160E-04-5.71875E-15
 -1      2943 3.43651E-03 1.27434E-04-5.38436E-15
 -1      2944 7.20333E-04-2.13096E-04-5.17544E-16
 -1      2945 5.71884E-04 3.11081E-04-7.08330E-16
 -1      2946 5.20728E-04 3.02783E-04-6.59910E-16
 -1      2947 3.22502E-03-7.04272E-06-4.93701E-15
 -1      2948 3.03545E-03-1.21998E-04-4.52183E-15
 -1      2949 5.34316E-03 9.55442E-04-6.85101E-15
 -1      2950 5.30456E-03 9.52723E-04-6.95159E-15
 -1      2951 5.68302E-03 1.27151E-03-8.41035E-15
 -1      2952 5.53366E-03 1.22895E-03-7.75069E-15
 -1      2953 5.76297E-03 1.26272E-03-8.96726E-15
 -1      2954 1.80316E-03 8.59243E-04-7.72589E-16
 -1      2955 1.98345E-03 9.91150E-04-8.13518E-16
 -1      2956 5.38119E-03 1.19576E-03-7.11323E-15
 -1      2957 5.22280E-03 1.17634E-03-6.49764E-15
 -1      2958 5.48800E-03 1.17143E-03-7.63450E-15
 -1      2959 4.59149E-03 1.26988E-03-4.59363E-15
 -1      2960 5.22686E-03 9.40310E-04-7.01577E-15
 -1      2961 5.11801E-03 9.22880E-04-7.07848E-15
 -1      2962 5.28565E-03 9.62876E-04-7.30561E-15
 -1      2963 4.08453E-03 5.22887E-04-6.47361E-15
 -1      2964 3.85932E-03 3.94171E-04-6.15691E-15
 -1      2965 1.14330E-03-3.81362E-04-1.11765E-15
 -1      2966 1.29883E-03-4.17079E-04-1.39590E-15
 -1      2967 1.38256E-03-3.96414E-04-1.53363E-15
 -1      2968 1.10059E-03-3.30464E-04-1.03459E-15
 -1      2969 2.25505E-03 1.19858E-03-8.71400E-16
 -1      2970 7.91351E-04 2.51081E-04-3.12060E-16
 -1      2971 4.24053E-04 2.11104E-04-3.85915E-16
 -1      2972 4.44219E-04 2.20545E-04-4.08107E-16
 -1      2973 1.85185E-03-1.20216E-04-1.98961E-15
 -1      2974 1.67299E-03-3.41978E-05-1.72543E-15
 -1      2975 1.53273E-03-3.64851E-06-1.52078E-15
 -1      2976 8.75593E-04-5.57336E-05-6.45100E-16
 -1      2977 8.85377E-04-9.98822E-05-6.64738E-16
 -1      2978 2.87747E-03-1.97795E-04-4.20275E-15
 -1      2979 2.72589E-03-2.53532E-04-3.87928E-15
 -1      2980 6.23134E-04 2.89476E-04-5.79669E-16
 -1      2981 7.51374E-04 3.21058E-04-5.98256E-16
 -1      2982 4.57443E-03 7.53277E-04-6.87907E-15
 -1      2983 4.36323E-03 6.62141E-04-6.73601E-15
 -1      2984 4.68990E-03 8.05337E-04-7.34954E-15
 -1      2985 1.11709E-03 1.96052E-04-1.11102E-15
 -1      2986 9.54679E-04 2.44884E-04-9.72021E-16
 -1      2987 1.57187E-03 7.04713E-04-7.13513E-16
 -1      2988 1.61099E-03 7.14109E-04-6.45005E-16
 -1      2989 1.42305E-03 5.81346E-04-5.28860E-16
 -1      2990 1.35628E-03 5.73190E-04-6.59466E-16
 -1      2991 8.89620E-04-1.42397E-04-6.82370E-16
 -1      2992 8.90560E-04-1.83273E-04-6.98186E-16
 -1      2993 1.03029E-03-1.48357E-04-8.52440E-16
 -1      2994 8.28861E-04 1.52190E-04-6.64670E-16
 -1      2995 7.41884E-04 1.26581E-04-5.44419E-16
 -1      2996 7.87488E-04 8.34218E-05-5.67255E-16
 -1      2997 5.59931E-04 2.26886E-04-4.25346E-16
 -1      2998 5.19101E-04 2.54715E-04-5.24510E-16
 -1      2999 3.31162E-03 5.29904E-05-5.30636E-15
 -1      3000 2.61231E-03-2.81166E-04-3.71616E-15
 -1      3001 2.50752E-03-2.98555E-04-3.55332E-15
 -1      3002 2.69943E-03-2.56544E-04-4.03659E-15
 -1      3003 5.04651E-03 9.16269E-04-7.43570E-15
 -1      3004 2.25876E-03-2.81858E-04-2.83711E-15
 -1      3005 5.27405E-03 1.02863E-03-6.49320E-15
 -1      3006 5.27786E-03 9.96447E-04-6.36617E-15
 -1      3007 5.34580E-03 9.98785E-04-6.73119E-15
 -1      3008 1.90419E-03-1.65495E-04-2.09126E-15
 -1      3009 8.33630E-04 3.65183E-05-6.01705E-16
 -1      3010 8.59136E-04-9.79316E-06-6.23958E-16
 -1      3011 1.01179E-03-5.31925E-05-8.03990E-16
 -1      3012 5.38408E-03 9.85465E-04-6.97788E-15
 -1      3013 5.37139E-03 9.70061E-04-6.91569E-15
 -1      3014 5.39029E-03 9.86580E-04-7.30385E-15
 -1      3015 8.56305E-04-2.30395E-04-6.74713E-16
 -1      3016 5.19090E-03 1.12568E-03-6.36058E-15
 -1      3017 8.34709E-04 2.93622E-04-4.21470E-16
 -1      3018 1.50862E-02 5.66793E-03-8.80923E-14
 -1      3019 1.20432E-03 4.63557E-04-5.05211E-16
 -1      3020 1.17678E-03 1.43798E-04-1.11598E-15
 -1      3021 1.46570E-02 5.41486E-03-8.91498E-14
 -1      3022 1.48136E-02 5.49372E-03-9.02232E-14
 -1      3023 1.48786E-02 5.53551E-03-8.96949E-14
 -1      3024 1.49437E-02 5.57730E-03-8.91618E-14
 -1      3025 1.50088E-02 5.61909E-03-8.86311E-14
 -1      3026 1.47872E-02 5.49844E-03-8.80942E-14
 -1      3027 1.37368E-02 4.81898E-03-9.70082E-14
 -1      3028 3.74321E-03 3.26421E-04-6.20878E-15
 -1      3029 8.73624E-04 2.48206E-04-8.68222E-16
 -1      3030 8.19967E-04 2.84667E-04-8.87142E-16
 -1      3031 6.95001E-04 3.06114E-04-8.07046E-16
 -1      3032 4.94800E-04 2.75090E-04-5.68359E-16
 -1      3033 5.06691E-04 2.92133E-04-6.20506E-16
 -1      3034 2.95978E-03-1.52170E-04-4.52961E-15
 -1      3035 4.99415E-03 1.08778E-03-5.54274E-15
 -1      3036 5.10442E-03 1.08086E-03-5.93954E-15
 -1      3037 4.90880E-03 1.13908E-03-5.37550E-15
 -1      3038 4.73737E-03 1.22241E-03-4.95524E-15
 -1      3039 1.49297E-02 5.58907E-03-8.70232E-14
 -1      3040 5.21476E-04 2.79973E-04-5.89237E-16
 -1      3041 4.23428E-03 6.02230E-04-6.93213E-15
 -1      3042 1.21910E-03 4.92617E-04-5.99049E-16
 -1      3043 8.40493E-04 3.34243E-04-5.58954E-16
 -1      3044 4.82995E-04 2.43318E-04-4.82558E-16
 -1      3045 5.33874E-04 2.62519E-04-5.35779E-16
 -1      3046 4.41148E-04 2.18524E-04-4.12505E-16
 -1      3047 1.92300E-03-4.34128E-04-2.72123E-15
 -1      3048 2.07582E-03-4.36810E-04-3.14401E-15
 -1      3049 2.22653E-03-4.28725E-04-3.59706E-15
 -1      3050 2.37657E-03-4.08402E-04-4.08030E-15
 -1      3051 2.17322E-03-4.07266E-04-3.32243E-15
 -1      3052 2.52581E-03-3.75815E-04-4.59421E-15
 -1      3053 2.67611E-03-3.31512E-04-5.13687E-15
 -1      3054 2.47761E-03-3.67541E-04-4.27978E-15
 -1      3055 2.82731E-03-2.76332E-04-5.70887E-15
 -1      3056 2.98047E-03-2.12341E-04-6.30903E-15
 -1      3057 2.78293E-03-2.75345E-04-5.35685E-15
 -1      3058 3.13533E-03-1.40930E-04-6.93492E-15
 -1      3059 3.29194E-03-6.46836E-05-7.58753E-15
 -1      3060 3.09542E-03-1.41163E-04-6.54668E-15
 -1      3061 3.44993E-03 1.49983E-05-8.26585E-15
 -1      3062 3.60861E-03 9.61606E-05-8.96918E-15
 -1      3063 3.41589E-03 1.72703E-05-7.84292E-15
 -1      3064 3.76770E-03 1.77781E-04-9.69613E-15
 -1      3065 3.92632E-03 2.58762E-04-1.04453E-14
 -1      3066 3.74032E-03 1.83231E-04-9.23918E-15
 -1      3067 4.08441E-03 3.38542E-04-1.12175E-14
 -1      3068 4.24126E-03 4.16769E-04-1.20124E-14
 -1      3069 4.06335E-03 3.46186E-04-1.07283E-14
 -1      3070 4.39698E-03 4.93200E-04-1.28274E-14
 -1      3071 4.55116E-03 5.67929E-04-1.36640E-14
 -1      3072 4.38103E-03 5.01675E-04-1.23048E-14
 -1      3073 4.70402E-03 6.40901E-04-1.45215E-14
 -1      3074 4.85539E-03 7.12385E-04-1.53991E-14
 -1      3075 4.69164E-03 6.49178E-04-1.39663E-14
 -1      3076 5.00553E-03 7.82424E-04-1.62952E-14
 -1      3077 5.15441E-03 8.51309E-04-1.72091E-14
 -1      3078 4.99528E-03 7.89977E-04-1.57082E-14
 -1      3079 5.30227E-03 9.19125E-04-1.81436E-14
 -1      3080 5.44917E-03 9.86125E-04-1.90957E-14
 -1      3081 5.29300E-03 9.25811E-04-1.75257E-14
 -1      3082 5.59529E-03 1.05240E-03-2.00658E-14
 -1      3083 5.74072E-03 1.11815E-03-2.10563E-14
 -1      3084 5.58620E-03 1.05829E-03-1.94179E-14
 -1      3085 5.88560E-03 1.18346E-03-2.20659E-14
 -1      3086 6.03001E-03 1.24847E-03-2.30945E-14
 -1      3087 5.87621E-03 1.18872E-03-2.13856E-14
 -1      3088 6.17406E-03 1.31325E-03-2.41431E-14
 -1      3089 6.31780E-03 1.37789E-03-2.52106E-14
 -1      3090 6.16410E-03 1.31803E-03-2.34309E-14
 -1      3091 6.46131E-03 1.44246E-03-2.62974E-14
 -1      3092 6.60464E-03 1.50700E-03-2.74048E-14
 -1      3093 6.45069E-03 1.44692E-03-2.55549E-14
 -1      3094 6.74782E-03 1.57157E-03-2.85312E-14
 -1      3095 6.89090E-03 1.63619E-03-2.96738E-14
 -1      3096 6.73654E-03 1.57582E-03-2.77555E-14
 -1      3097 7.03390E-03 1.70089E-03-3.08346E-14
 -1      3098 7.17685E-03 1.76569E-03-3.20140E-14
 -1      3099 7.02203E-03 1.70500E-03-3.00306E-14
 -1      3100 7.31975E-03 1.83060E-03-3.32094E-14
 -1      3101 7.46263E-03 1.89564E-03-3.44200E-14
 -1      3102 7.30737E-03 1.83463E-03-3.23743E-14
 -1      3103 7.60549E-03 1.96080E-03-3.56468E-14
 -1      3104 7.74834E-03 2.02608E-03-3.68878E-14
 -1      3105 7.59270E-03 1.96477E-03-3.47828E-14
 -1      3106 7.89118E-03 2.09149E-03-3.81443E-14
 -1      3107 8.03402E-03 2.15702E-03-3.94147E-14
 -1      3108 7.87807E-03 2.09543E-03-3.72510E-14
 -1      3109 8.17686E-03 2.22267E-03-4.06986E-14
 -1      3110 8.31970E-03 2.28843E-03-4.19952E-14
 -1      3111 8.16352E-03 2.22658E-03-3.97786E-14
 -1      3112 8.46254E-03 2.35429E-03-4.33035E-14
 -1      3113 8.60539E-03 2.42025E-03-4.46254E-14
 -1      3114 8.44904E-03 2.35817E-03-4.23566E-14
 -1      3115 8.74824E-03 2.48630E-03-4.59604E-14
 -1      3116 8.89110E-03 2.55243E-03-4.73056E-14
 -1      3117 8.73462E-03 2.49016E-03-4.49864E-14
 -1      3118 9.03395E-03 2.61863E-03-4.86591E-14
 -1      3119 9.17681E-03 2.68490E-03-5.00234E-14
 -1      3120 9.02026E-03 2.62247E-03-4.76618E-14
 -1      3121 9.31967E-03 2.75123E-03-5.13959E-14
 -1      3122 9.46254E-03 2.81762E-03-5.27762E-14
 -1      3123 9.30594E-03 2.75506E-03-5.03766E-14
 -1      3124 9.60540E-03 2.88406E-03-5.41663E-14
 -1      3125 9.74826E-03 2.95054E-03-5.55656E-14
 -1      3126 9.59165E-03 2.88787E-03-5.31290E-14
 -1      3127 9.89113E-03 3.01705E-03-5.69708E-14
 -1      3128 1.00340E-02 3.08361E-03-5.83816E-14
 -1      3129 9.87737E-03 3.02086E-03-5.59142E-14
 -1      3130 1.01769E-02 3.15019E-03-5.98021E-14
 -1      3131 1.03197E-02 3.21679E-03-6.12324E-14
 -1      3132 1.01631E-02 3.15398E-03-5.87274E-14
 -1      3133 1.04626E-02 3.28342E-03-6.26689E-14
 -1      3134 1.06055E-02 3.35007E-03-6.41154E-14
 -1      3135 1.04488E-02 3.28720E-03-6.15766E-14
 -1      3136 1.07483E-02 3.41673E-03-6.55723E-14
 -1      3137 1.08912E-02 3.48341E-03-6.70357E-14
 -1      3138 1.07346E-02 3.42051E-03-6.44622E-14
 -1      3139 1.10340E-02 3.55010E-03-6.85034E-14
 -1      3140 1.11769E-02 3.61680E-03-6.99806E-14
 -1      3141 1.10203E-02 3.55387E-03-6.73808E-14
 -1      3142 1.13198E-02 3.68351E-03-7.14672E-14
 -1      3143 1.14626E-02 3.75022E-03-7.29620E-14
 -1      3144 1.13061E-02 3.68727E-03-7.03287E-14
 -1      3145 1.16055E-02 3.81694E-03-7.44663E-14
 -1      3146 1.17484E-02 3.88366E-03-7.59794E-14
 -1      3147 1.15918E-02 3.82070E-03-7.33137E-14
 -1      3148 1.18912E-02 3.95039E-03-7.75003E-14
 -1      3149 1.20341E-02 4.01712E-03-7.90281E-14
 -1      3150 1.18775E-02 3.95415E-03-7.63333E-14
 -1      3151 1.21769E-02 4.08385E-03-8.05654E-14
 -1      3152 1.23198E-02 4.15059E-03-8.21123E-14
 -1      3153 1.21633E-02 4.08761E-03-7.93838E-14
 -1      3154 1.24627E-02 4.21732E-03-8.36630E-14
 -1      3155 1.26055E-02 4.28406E-03-8.52195E-14
 -1      3156 1.24490E-02 4.22108E-03-8.24643E-14
 -1      3157 1.27484E-02 4.35079E-03-8.67842E-14
 -1      3158 1.28912E-02 4.41753E-03-8.83532E-14
 -1      3159 1.27347E-02 4.35455E-03-8.55732E-14
 -1      3160 1.30341E-02 4.48427E-03-8.99293E-14
 -1      3161 1.31770E-02 4.55100E-03-9.15059E-14
 -1      3162 1.30204E-02 4.48802E-03-8.87046E-14
 -1      3163 6.35592E-03 1.50823E-03-1.25075E-14
 -1      3164 6.22145E-03 1.44266E-03-1.17329E-14
 -1      3165 6.08916E-03 1.37946E-03-1.09774E-14
 -1      3166 5.95851E-03 1.31868E-03-1.02442E-14
 -1      3167 6.13194E-03 1.38489E-03-1.15810E-14
 -1      3168 6.90743E-03 1.78267E-03-1.58123E-14
 -1      3169 6.76779E-03 1.71279E-03-1.49551E-14
 -1      3170 7.18884E-03 1.92333E-03-1.75872E-14
 -1      3171 7.04776E-03 1.85285E-03-1.66895E-14
 -1      3172 6.93251E-03 1.78585E-03-1.65071E-14
 -1      3173 7.47229E-03 2.06438E-03-1.94392E-14
 -1      3174 7.33033E-03 1.99384E-03-1.85038E-14
 -1      3175 7.21073E-03 1.92532E-03-1.83105E-14
 -1      3176 7.77124E-03 2.21212E-03-2.14618E-14
 -1      3177 7.62161E-03 2.13832E-03-2.04402E-14
 -1      3178 7.49886E-03 2.06879E-03-2.02369E-14
 -1      3179 8.05665E-03 2.35210E-03-2.34646E-14
 -1      3180 7.91387E-03 2.28221E-03-2.24545E-14
 -1      3181 7.78890E-03 2.21207E-03-2.22408E-14
 -1      3182 8.34241E-03 2.49122E-03-2.55325E-14
 -1      3183 8.19949E-03 2.42177E-03-2.44902E-14
 -1      3184 8.07303E-03 2.35129E-03-2.42688E-14
 -1      3185 8.62833E-03 2.62946E-03-2.76624E-14
 -1      3186 8.48535E-03 2.56045E-03-2.65903E-14
 -1      3187 8.35786E-03 2.48979E-03-2.63626E-14
 -1      3188 8.91429E-03 2.76687E-03-2.98518E-14
 -1      3189 8.77130E-03 2.69827E-03-2.87498E-14
 -1      3190 8.64311E-03 2.62753E-03-2.85182E-14
 -1      3191 9.20024E-03 2.90353E-03-3.20958E-14
 -1      3192 9.05726E-03 2.83529E-03-3.09677E-14
 -1      3193 8.92860E-03 2.76453E-03-3.07301E-14
 -1      3194 9.48615E-03 3.03954E-03-3.43910E-14
 -1      3195 9.34320E-03 2.97161E-03-3.32366E-14
 -1      3196 9.21423E-03 2.90086E-03-3.29971E-14
 -1      3197 9.77203E-03 3.17500E-03-3.67393E-14
 -1      3198 9.62910E-03 3.10733E-03-3.55580E-14
 -1      3199 9.49994E-03 3.03661E-03-3.53187E-14
 -1      3200 1.00579E-02 3.31000E-03-3.91377E-14
 -1      3201 9.91495E-03 3.24255E-03-3.79325E-14
 -1      3202 9.78568E-03 3.17187E-03-3.76886E-14
 -1      3203 1.03437E-02 3.44463E-03-4.15847E-14
 -1      3204 1.02008E-02 3.37736E-03-4.03544E-14
 -1      3205 1.00714E-02 3.30671E-03-4.01122E-14
 -1      3206 1.06294E-02 3.57897E-03-4.40839E-14
 -1      3207 1.04866E-02 3.51184E-03-4.28285E-14
 -1      3208 1.03572E-02 3.44122E-03-4.25862E-14
 -1      3209 1.09152E-02 3.71307E-03-4.66284E-14
 -1      3210 1.07723E-02 3.64605E-03-4.53498E-14
 -1      3211 1.06430E-02 3.57546E-03-4.51058E-14
 -1      3212 1.12009E-02 3.84699E-03-4.92233E-14
 -1      3213 1.10581E-02 3.78005E-03-4.79196E-14
 -1      3214 1.09287E-02 3.70949E-03-4.76738E-14
 -1      3215 1.14867E-02 3.98077E-03-5.18659E-14
 -1      3216 1.13438E-02 3.91390E-03-5.05379E-14
 -1      3217 1.12145E-02 3.84336E-03-5.02891E-14
 -1      3218 1.17867E-02 4.12113E-03-5.46984E-14
 -1      3219 1.16367E-02 4.05096E-03-5.32758E-14
 -1      3220 1.15073E-02 3.98044E-03-5.30211E-14
 -1      3221 1.20724E-02 4.25473E-03-5.74457E-14
 -1      3222 1.19295E-02 4.18794E-03-5.60673E-14
 -1      3223 1.18002E-02 4.11743E-03-5.58040E-14
 -1      3224 1.23581E-02 4.38827E-03-6.02444E-14
 -1      3225 1.22153E-02 4.32151E-03-5.88371E-14
 -1      3226 1.20860E-02 4.25100E-03-5.85711E-14
 -1      3227 1.26438E-02 4.52178E-03-6.30821E-14
 -1      3228 1.25010E-02 4.45503E-03-6.16572E-14
 -1      3229 1.23717E-02 4.38453E-03-6.13829E-14
 -1      3230 1.29295E-02 4.65526E-03-6.59692E-14
 -1      3231 1.27867E-02 4.58852E-03-6.45220E-14
 -1      3232 1.26574E-02 4.51803E-03-6.42430E-14
 -1      3233 1.32152E-02 4.78872E-03-6.88940E-14
 -1      3234 1.30724E-02 4.72199E-03-6.74262E-14
 -1      3235 1.29431E-02 4.65150E-03-6.71449E-14
 -1      3236 1.35010E-02 4.92217E-03-7.18538E-14
 -1      3237 1.33581E-02 4.85545E-03-7.03703E-14
 -1      3238 1.32288E-02 4.78496E-03-7.00851E-14
 -1      3239 1.37867E-02 5.05562E-03-7.48331E-14
 -1      3240 1.36438E-02 4.98890E-03-7.33410E-14
 -1      3241 1.35146E-02 4.91842E-03-7.30558E-14
 -1      3242 1.40724E-02 5.18906E-03-7.78345E-14
 -1      3243 1.39295E-02 5.12234E-03-7.63308E-14
 -1      3244 1.38003E-02 5.05186E-03-7.60471E-14
 -1      3245 1.43581E-02 5.32251E-03-8.08548E-14
 -1      3246 1.42152E-02 5.25579E-03-7.93408E-14
 -1      3247 1.40860E-02 5.18531E-03-7.90527E-14
 -1      3248 1.46438E-02 5.45595E-03-8.39053E-14
 -1      3249 1.45009E-02 5.38923E-03-8.23785E-14
 -1      3250 1.43717E-02 5.31875E-03-8.20846E-14
 -1      3251 1.48126E-02 5.53333E-03-8.58769E-14
 -1      3252 1.04562E-03 3.92850E-04-5.09399E-16
 -1      3253 1.41073E-02 5.08345E-03-9.12318E-14
 -1      3254 1.41729E-02 5.12560E-03-9.07075E-14
 -1      3255 1.37159E-02 4.83197E-03-9.43201E-14
 -1      3256 1.37815E-02 4.87412E-03-9.38079E-14
 -1      3257 1.39783E-02 5.00057E-03-9.22543E-14
 -1      3258 1.40428E-02 5.04201E-03-9.17425E-14
 -1      3259 1.39519E-02 5.00530E-03-9.01393E-14
 -1      3260 3.83418E-03 3.80605E-04-6.70914E-15
 -1      3261 3.61680E-03 2.48700E-04-6.25307E-15
 -1      3262 5.57914E-03 1.16046E-03-8.16475E-15
 -1      3263 5.45421E-03 1.11841E-03-7.51124E-15
 -1      3264 1.95175E-03-2.12610E-04-2.21417E-15
 -1      3265 1.77000E-03-1.38419E-04-1.87586E-15
 -1      3266 5.83047E-03 1.26155E-03-9.53054E-15
 -1      3267 5.70369E-03 1.20834E-03-8.83758E-15
 -1      3268 5.65099E-03 1.15852E-03-8.70154E-15
 -1      3269 5.88454E-03 1.26526E-03-1.01013E-14
 -1      3270 9.95355E-04-2.44349E-04-8.51749E-16
 -1      3271 4.79873E-03 8.50214E-04-7.83650E-15
 -1      3272 4.62033E-03 7.82097E-04-7.68585E-15
 -1      3273 4.93548E-04 2.65399E-04-5.38042E-16
 -1      3274 4.72807E-04 2.52983E-04-5.04195E-16
 -1      3275 1.38471E-02 4.91627E-03-9.32918E-14
 -1      3276 1.39127E-02 4.95842E-03-9.27763E-14
 -1      3277 1.38218E-02 4.92171E-03-9.11660E-14
 -1      3278 1.36906E-02 4.83740E-03-9.21959E-14
 -1      3279 3.04511E-03-1.02178E-04-4.93225E-15
 -1      3280 2.90340E-03-1.76436E-04-4.59646E-15
 -1      3281 6.62927E-03 1.64363E-03-1.41182E-14
 -1      3282 6.49178E-03 1.57523E-03-1.33025E-14
 -1      3283 6.39090E-03 1.51355E-03-1.31407E-14
 -1      3284 1.61162E-03-4.00823E-04-1.96861E-15
 -1      3285 1.76838E-03-4.21431E-04-2.32945E-15
 -1      3286 1.86257E-03-3.97652E-04-2.48690E-15
 -1      3287 5.25614E-03 1.08532E-03-6.56312E-15
 -1      3288 6.71357E-04 2.70147E-04-6.79171E-16
 -1      3289 6.26529E-04 2.92662E-04-6.96586E-16
 -1      3290 5.34922E-03 9.88955E-04-7.69609E-15
 -1      3291 5.27491E-03 9.77969E-04-7.76413E-15
 -1      3292 5.64263E-04 2.44219E-04-4.76154E-16
 -1      3293 5.37058E-03 1.06167E-03-7.05671E-15
 -1      3294 1.57264E-03-5.81947E-05-1.56396E-15
 -1      3295 1.40656E-03 1.27771E-05-1.33736E-15
 -1      3296 1.20547E-03 9.48976E-05-1.10014E-15
 -1      3297 1.04067E-03 1.56890E-04-9.36127E-16
 -1      3298 4.38843E-03 6.79140E-04-7.45427E-15
 -1      3299 4.13842E-03 5.52267E-04-7.17692E-15
 -1      3300 5.16232E-03 9.55350E-04-7.83231E-15
 -1      3301 5.00884E-03 9.18458E-04-7.89662E-15
 -1      3302 7.65227E-04 2.38904E-04-7.13737E-16
 -1      3303 1.35969E-02 4.74802E-03-9.60634E-14
 -1      3304 1.36668E-02 4.79772E-03-9.49980E-14
 -1      3305 1.35759E-02 4.76101E-03-9.33793E-14
 -1      3306 1.34778E-02 4.69251E-03-9.47302E-14
 -1      3307 2.28132E-03-3.03232E-04-3.00068E-15
 -1      3308 2.12555E-03-2.72025E-04-2.60287E-15
 -1      3309 3.41703E-03 1.24133E-04-5.80834E-15
 -1      3310 3.22495E-03 2.32286E-06-5.34429E-15
 -1      3311 3.15620E-03-3.90046E-05-5.41207E-15
 -1      3312 3.52137E-03 1.84397E-04-6.29024E-15
 -1      3313 1.46834E-02 5.46285E-03-8.55816E-14
 -1      3314 5.55290E-04 2.73101E-04-5.92415E-16
 -1      3315 8.74902E-04 2.04848E-04-7.85301E-16
 -1      3316 9.06782E-04 1.61561E-04-7.68550E-16
 -1      3317 9.75148E-04 1.07624E-04-8.02418E-16
 -1      3318 2.78771E-03-2.24265E-04-4.41129E-15
 -1      3319 1.17388E-03-1.54156E-04-1.03947E-15
 -1      3320 1.17514E-03-2.00831E-04-1.06616E-15
 -1      3321 9.45256E-04 5.08250E-05-7.35116E-16
 -1      3322 1.98993E-03-2.54151E-04-2.35407E-15
 -1      3323 6.65858E-03 1.64802E-03-1.47826E-14
 -1      3324 1.33587E-02 4.63701E-03-9.34006E-14
 -1      3325 1.15783E-03-2.40852E-04-1.06744E-15
 -1      3326 1.11872E-03-2.93513E-04-1.04322E-15
 -1      3327 1.26214E-03-3.27486E-04-1.27935E-15
 -1      3328 1.30354E-03-2.49474E-04-1.28122E-15
 -1      3329 5.39832E-03 1.00960E-03-7.11506E-15
 -1      3330 2.37285E-03-3.12888E-04-3.28420E-15
 -1      3331 2.24096E-03-3.18581E-04-3.02389E-15
 -1      3332 2.45823E-03-3.11487E-04-3.58109E-15
 -1      3333 1.43698E-02 5.25205E-03-8.91312E-14
 -1      3334 1.44354E-02 5.29420E-03-8.86036E-14
 -1      3335 1.46183E-02 5.42106E-03-8.61137E-14
 -1      3336 1.44495E-02 5.34368E-03-8.41425E-14
 -1      3337 1.45533E-02 5.37927E-03-8.66433E-14
 -1      3338 1.44618E-02 5.31584E-03-8.78863E-14
 -1      3339 1.45269E-02 5.35763E-03-8.73616E-14
 -1      3340 1.43580E-02 5.28026E-03-8.53868E-14
 -1      3341 1.43053E-02 5.23698E-03-8.68198E-14
 -1      3342 1.42386E-02 5.16775E-03-9.01849E-14
 -1      3343 1.43042E-02 5.20990E-03-8.96571E-14
 -1      3344 1.40820E-02 5.08889E-03-8.91098E-14
 -1      3345 3.99995E-03 4.72069E-04-7.22371E-15
 -1      3346 3.87916E-03 3.93553E-04-7.26563E-15
 -1      3347 4.16151E-03 5.52724E-04-7.75225E-15
 -1      3348 1.25360E-03 4.00845E-05-1.13222E-15
 -1      3349 1.63212E-03-1.16016E-04-1.66468E-15
 -1      3350 4.94597E-03 9.02147E-04-8.24501E-15
 -1      3351 5.40549E-03 1.00498E-03-7.76354E-15
 -1      3352 5.41615E-03 1.02269E-03-8.23277E-15
 -1      3353 5.44723E-03 1.01970E-03-7.82834E-15
 -1      3354 8.38659E-04 3.15159E-04-5.02257E-16
 -1      3355 1.33451E-02 4.64076E-03-9.21656E-14
 -1      3356 4.51971E-03 7.35516E-04-7.94373E-15
 -1      3357 5.25235E-03 9.85913E-04-8.23509E-15
 -1      3358 6.73493E-04 2.58732E-04-4.62697E-16
 -1      3359 1.40521E-03-3.58786E-04-1.54042E-15
 -1      3360 1.15026E-03-5.17103E-05-9.78221E-16
 -1      3361 1.16684E-03-1.04416E-04-1.01037E-15
 -1      3362 1.32088E-03-1.59692E-04-1.24225E-15
 -1      3363 1.49472E-03-3.37614E-04-1.67221E-15
 -1      3364 1.52001E-03-2.99500E-04-1.66807E-15
 -1      3365 1.04784E-03 5.69818E-05-8.64705E-16
 -1      3366 1.09934E-03-7.11171E-07-9.13142E-16
 -1      3367 1.26564E-03-5.49343E-05-1.13157E-15
 -1      3368 1.14273E-03 5.48649E-05-9.87478E-16
 -1      3369 2.42773E-03-3.59694E-04-3.97185E-15
 -1      3370 2.58216E-03-3.25450E-04-4.47630E-15
 -1      3371 2.73661E-03-2.76153E-04-5.01040E-15
 -1      3372 2.89399E-03-2.14925E-04-5.57367E-15
 -1      3373 2.69031E-03-2.79180E-04-4.67005E-15
 -1      3374 3.05365E-03-1.43000E-04-6.16411E-15
 -1      3375 3.21596E-03-6.43103E-05-6.78144E-15
 -1      3376 3.01124E-03-1.47701E-04-5.78716E-15
 -1      3377 3.38044E-03 1.92240E-05-7.42531E-15
 -1      3378 3.54606E-03 1.04288E-04-8.09471E-15
 -1      3379 3.34441E-03 1.95190E-05-7.01429E-15
 -1      3380 3.71238E-03 1.89643E-04-8.78827E-15
 -1      3381 3.87790E-03 2.73582E-04-9.50516E-15
 -1      3382 3.68425E-03 1.96104E-04-8.34374E-15
 -1      3383 4.04253E-03 3.55523E-04-1.02444E-14
 -1      3384 4.20512E-03 4.35037E-04-1.10060E-14
 -1      3385 4.02217E-03 3.66143E-04-9.76737E-15
 -1      3386 4.36585E-03 5.11952E-04-1.17894E-14
 -1      3387 4.52412E-03 5.86609E-04-1.25930E-14
 -1      3388 4.35163E-03 5.24028E-04-1.12795E-14
 -1      3389 4.68027E-03 6.59009E-04-1.34185E-14
 -1      3390 4.83413E-03 7.29680E-04-1.42638E-14
 -1      3391 4.67011E-03 6.70532E-04-1.28773E-14
 -1      3392 4.98608E-03 7.98690E-04-1.51273E-14
 -1      3393 5.13616E-03 8.66522E-04-1.60111E-14
 -1      3394 4.97813E-03 8.08718E-04-1.45547E-14
 -1      3395 5.28473E-03 9.33253E-04-1.69139E-14
 -1      3396 5.43192E-03 9.99256E-04-1.78354E-14
 -1      3397 5.27761E-03 9.41580E-04-1.63096E-14
 -1      3398 5.57802E-03 1.06460E-03-1.87765E-14
 -1      3399 5.72318E-03 1.12954E-03-1.97346E-14
 -1      3400 5.57083E-03 1.07141E-03-1.81403E-14
 -1      3401 5.86760E-03 1.19413E-03-2.07124E-14
 -1      3402 6.01143E-03 1.25854E-03-2.17101E-14
 -1      3403 5.85983E-03 1.19975E-03-2.00465E-14
 -1      3404 6.15481E-03 1.32281E-03-2.27266E-14
 -1      3405 6.29784E-03 1.38704E-03-2.37634E-14
 -1      3406 6.14621E-03 1.32759E-03-2.20285E-14
 -1      3407 6.44062E-03 1.45127E-03-2.48188E-14
 -1      3408 6.58323E-03 1.51554E-03-2.58931E-14
 -1      3409 6.43113E-03 1.45550E-03-2.40895E-14
 -1      3410 6.72572E-03 1.57990E-03-2.69884E-14
 -1      3411 6.86814E-03 1.64436E-03-2.81027E-14
 -1      3412 6.71536E-03 1.58381E-03-2.62282E-14
 -1      3413 7.01052E-03 1.70893E-03-2.92331E-14
 -1      3414 7.15290E-03 1.77364E-03-3.03814E-14
 -1      3415 6.99939E-03 1.71266E-03-2.84420E-14
 -1      3416 7.29528E-03 1.83848E-03-3.15467E-14
 -1      3417 7.43770E-03 1.90346E-03-3.27281E-14
 -1      3418 7.28350E-03 1.84214E-03-3.07268E-14
 -1      3419 7.58014E-03 1.96858E-03-3.39259E-14
 -1      3420 7.72263E-03 2.03384E-03-3.51381E-14
 -1      3421 7.56782E-03 1.97222E-03-3.30758E-14
 -1      3422 7.86515E-03 2.09922E-03-3.63659E-14
 -1      3423 8.00771E-03 2.16474E-03-3.76081E-14
 -1      3424 7.85241E-03 2.10287E-03-3.54871E-14
 -1      3425 8.15032E-03 2.23037E-03-3.88635E-14
 -1      3426 8.29296E-03 2.29612E-03-4.01337E-14
 -1      3427 8.13726E-03 2.23404E-03-3.79571E-14
 -1      3428 8.43564E-03 2.36197E-03-4.14172E-14
 -1      3429 8.57835E-03 2.42792E-03-4.27116E-14
 -1      3430 8.42234E-03 2.36567E-03-4.04833E-14
 -1      3431 8.72108E-03 2.49396E-03-4.40192E-14
 -1      3432 8.86384E-03 2.56008E-03-4.53406E-14
 -1      3433 8.70762E-03 2.49768E-03-4.30600E-14
 -1      3434 9.00663E-03 2.62627E-03-4.66715E-14
 -1      3435 9.14943E-03 2.69254E-03-4.80125E-14
 -1      3436 8.99305E-03 2.63001E-03-4.56866E-14
 -1      3437 9.29225E-03 2.75886E-03-4.93649E-14
 -1      3438 9.43508E-03 2.82524E-03-5.07255E-14
 -1      3439 9.27860E-03 2.76262E-03-4.83583E-14
 -1      3440 9.57792E-03 2.89167E-03-5.20947E-14
 -1      3441 9.72077E-03 2.95814E-03-5.34750E-14
 -1      3442 9.56423E-03 2.89543E-03-5.10687E-14
 -1      3443 9.86363E-03 3.02465E-03-5.48623E-14
 -1      3444 1.00065E-02 3.09119E-03-5.62568E-14
 -1      3445 9.84991E-03 3.02842E-03-5.38146E-14
 -1      3446 1.01494E-02 3.15776E-03-5.76597E-14
 -1      3447 1.02922E-02 3.22436E-03-5.90693E-14
 -1      3448 1.01356E-02 3.16154E-03-5.65949E-14
 -1      3449 1.04351E-02 3.29098E-03-6.04895E-14
 -1      3450 1.05780E-02 3.35762E-03-6.19191E-14
 -1      3451 1.04214E-02 3.29476E-03-5.94073E-14
 -1      3452 1.07209E-02 3.42428E-03-6.33554E-14
 -1      3453 1.08637E-02 3.49095E-03-6.48060E-14
 -1      3454 1.07071E-02 3.42805E-03-6.22570E-14
 -1      3455 1.10066E-02 3.55764E-03-6.62610E-14
 -1      3456 1.11495E-02 3.62433E-03-6.77222E-14
 -1      3457 1.09929E-02 3.56141E-03-6.51428E-14
 -1      3458 1.12924E-02 3.69103E-03-6.91957E-14
 -1      3459 1.14352E-02 3.75774E-03-7.06760E-14
 -1      3460 1.12787E-02 3.69480E-03-6.80631E-14
 -1      3461 1.15781E-02 3.82446E-03-7.21648E-14
 -1      3462 1.17210E-02 3.89118E-03-7.36639E-14
 -1      3463 1.15644E-02 3.82822E-03-7.10195E-14
 -1      3464 1.18639E-02 3.95791E-03-7.51692E-14
 -1      3465 1.20067E-02 4.02463E-03-7.66842E-14
 -1      3466 1.18502E-02 3.96167E-03-7.40089E-14
 -1      3467 1.21496E-02 4.09136E-03-7.82059E-14
 -1      3468 1.22925E-02 4.15810E-03-7.97352E-14
 -1      3469 1.21359E-02 4.09512E-03-7.70324E-14
 -1      3470 1.24353E-02 4.22483E-03-8.12739E-14
 -1      3471 1.25782E-02 4.29156E-03-8.28172E-14
 -1      3472 1.24217E-02 4.22859E-03-8.00850E-14
 -1      3473 1.27211E-02 4.35830E-03-8.43662E-14
 -1      3474 1.28639E-02 4.42504E-03-8.59234E-14
 -1      3475 1.27074E-02 4.36206E-03-8.31660E-14
 -1      3476 1.30068E-02 4.49177E-03-8.74866E-14
 -1      3477 1.31496E-02 4.55851E-03-8.90542E-14
 -1      3478 1.29931E-02 4.49552E-03-8.62733E-14
 -1      3479 1.79953E-03-3.57137E-04-2.26091E-15
 -1      3480 1.96020E-03-3.75089E-04-2.64300E-15
 -1      3481 7.23084E-03 1.92758E-03-1.90374E-14
 -1      3482 7.09233E-03 1.85834E-03-1.81116E-14
 -1      3483 6.95490E-03 1.78945E-03-1.72055E-14
 -1      3484 6.81861E-03 1.72089E-03-1.63187E-14
 -1      3485 6.97483E-03 1.79296E-03-1.79086E-14
 -1      3486 7.80583E-03 2.21214E-03-2.30255E-14
 -1      3487 7.66476E-03 2.14276E-03-2.20236E-14
 -1      3488 8.08895E-03 2.35056E-03-2.50783E-14
 -1      3489 7.94723E-03 2.28141E-03-2.40435E-14
 -1      3490 7.82201E-03 2.21218E-03-2.38142E-14
 -1      3491 8.37302E-03 2.48841E-03-2.71955E-14
 -1      3492 8.23088E-03 2.41956E-03-2.61281E-14
 -1      3493 8.10437E-03 2.34981E-03-2.58920E-14
 -1      3494 8.65773E-03 2.62562E-03-2.93781E-14
 -1      3495 8.51531E-03 2.55709E-03-2.82809E-14
 -1      3496 8.38787E-03 2.48701E-03-2.80373E-14
 -1      3497 8.94283E-03 2.76220E-03-3.16147E-14
 -1      3498 8.80024E-03 2.69398E-03-3.04889E-14
 -1      3499 8.67215E-03 2.62369E-03-3.02440E-14
 -1      3500 9.22819E-03 2.89820E-03-3.39045E-14
 -1      3501 9.08548E-03 2.83027E-03-3.27535E-14
 -1      3502 8.95695E-03 2.75985E-03-3.25044E-14
 -1      3503 9.51372E-03 3.03368E-03-3.62500E-14
 -1      3504 9.37094E-03 2.96600E-03-3.50703E-14
 -1      3505 9.24209E-03 2.89551E-03-3.48190E-14
 -1      3506 9.79934E-03 3.16873E-03-3.86456E-14
 -1      3507 9.65652E-03 3.10126E-03-3.74404E-14
 -1      3508 9.52747E-03 3.03073E-03-3.71875E-14
 -1      3509 1.00850E-02 3.30341E-03-4.10926E-14
 -1      3510 9.94218E-03 3.23611E-03-3.98633E-14
 -1      3511 9.81300E-03 3.16557E-03-3.96074E-14
 -1      3512 1.03707E-02 3.43779E-03-4.35926E-14
 -1      3513 1.02279E-02 3.37064E-03-4.23374E-14
 -1      3514 1.00986E-02 3.30009E-03-4.20826E-14
 -1      3515 1.06565E-02 3.57194E-03-4.61349E-14
 -1      3516 1.05136E-02 3.50489E-03-4.48575E-14
 -1      3517 1.03843E-02 3.43435E-03-4.46044E-14
 -1      3518 1.09422E-02 3.70590E-03-4.87232E-14
 -1      3519 1.07994E-02 3.63894E-03-4.74227E-14
 -1      3520 1.06700E-02 3.56840E-03-4.71684E-14
 -1      3521 1.12280E-02 3.83971E-03-5.13594E-14
 -1      3522 1.10851E-02 3.77282E-03-5.00366E-14
 -1      3523 1.09558E-02 3.70229E-03-4.97791E-14
 -1      3524 1.15280E-02 3.98010E-03-5.41796E-14
 -1      3525 1.13780E-02 3.90992E-03-5.27632E-14
 -1      3526 1.12487E-02 3.83940E-03-5.25023E-14
 -1      3527 1.18138E-02 4.11371E-03-5.69151E-14
 -1      3528 1.16709E-02 4.04691E-03-5.55418E-14
 -1      3529 1.15416E-02 3.97640E-03-5.52762E-14
 -1      3530 1.20995E-02 4.24727E-03-5.96966E-14
 -1      3531 1.19566E-02 4.18050E-03-5.82983E-14
 -1      3532 1.18273E-02 4.11000E-03-5.80266E-14
 -1      3533 1.23853E-02 4.38079E-03-6.25275E-14
 -1      3534 1.22424E-02 4.31404E-03-6.11072E-14
 -1      3535 1.21131E-02 4.24354E-03-6.08280E-14
 -1      3536 1.26710E-02 4.51428E-03-6.54052E-14
 -1      3537 1.25281E-02 4.44754E-03-6.39594E-14
 -1      3538 1.23989E-02 4.37704E-03-6.36774E-14
 -1      3539 1.29567E-02 4.64775E-03-6.83243E-14
 -1      3540 1.28139E-02 4.58102E-03-6.68607E-14
 -1      3541 1.26846E-02 4.51053E-03-6.65717E-14
 -1      3542 1.32425E-02 4.78121E-03-7.12772E-14
 -1      3543 1.30996E-02 4.71448E-03-6.97966E-14
 -1      3544 1.29703E-02 4.64399E-03-6.95073E-14
 -1      3545 1.35282E-02 4.91466E-03-7.42610E-14
 -1      3546 1.33853E-02 4.84793E-03-7.27672E-14
 -1      3547 1.32561E-02 4.77745E-03-7.24732E-14
 -1      3548 1.38139E-02 5.04810E-03-7.72592E-14
 -1      3549 1.36710E-02 4.98138E-03-7.57576E-14
 -1      3550 1.35418E-02 4.91090E-03-7.54669E-14
 -1      3551 1.40996E-02 5.18155E-03-8.02752E-14
 -1      3552 1.39568E-02 5.11483E-03-7.87647E-14
 -1      3553 1.38275E-02 5.04434E-03-7.84726E-14
 -1      3554 1.43460E-02 5.29598E-03-8.29638E-14
 -1      3555 1.42031E-02 5.22926E-03-8.14415E-14
 -1      3556 1.40739E-02 5.15877E-03-8.11475E-14
 -1      3557 1.42809E-02 5.25419E-03-8.34904E-14
 -1      3558 2.91323E-03-1.76124E-04-5.11239E-15
 -1      3559 2.72500E-03-2.54556E-04-4.52072E-15
 -1      3560 1.42133E-02 5.17319E-03-8.80622E-14
 -1      3561 2.00569E-03-2.88446E-04-2.46829E-15
 -1      3562 1.84503E-03-2.33951E-04-2.09293E-15
 -1      3563 1.37959E-02 4.92679E-03-8.90526E-14
 -1      3564 1.38604E-02 4.96823E-03-8.85490E-14
 -1      3565 6.41992E-03 1.51998E-03-1.37800E-14
 -1      3566 6.29139E-03 1.45520E-03-1.29754E-14
 -1      3567 1.47007E-03-2.21729E-04-1.50415E-15
 -1      3568 1.66770E-03-3.10404E-04-1.93236E-15
 -1      3569 1.76242E-03-2.91088E-04-2.06318E-15
 -1      3570 1.46990E-03-1.73055E-04-1.46340E-15
 -1      3571 1.33941E-02 4.67500E-03-9.14954E-14
 -1      3572 2.11789E-03-3.83515E-04-3.05539E-15
 -1      3573 2.27390E-03-3.78610E-04-3.49827E-15
 -1      3574 2.37644E-03-3.49971E-04-3.67149E-15
 -1      3575 2.05916E-03-3.54621E-04-2.79614E-15
 -1      3576 6.68387E-03 1.65306E-03-1.54518E-14
 -1      3577 6.55080E-03 1.58589E-03-1.46058E-14
 -1      3578 6.70560E-03 1.65802E-03-1.61265E-14
 -1      3579 1.72103E-03-2.11496E-04-1.87118E-15
 -1      3580 1.54811E-03-1.45358E-04-1.55834E-15
 -1      3581 5.08870E-03 9.52081E-04-8.79817E-15
 -1      3582 4.89998E-03 8.88936E-04-8.73502E-15
 -1      3583 4.66537E-03 7.94483E-04-8.58611E-15
 -1      3584 4.45595E-03 6.99278E-04-8.34081E-15
 -1      3585 1.32416E-03-1.88399E-05-1.21118E-15
 -1      3586 7.52067E-03 2.07160E-03-2.10158E-14
 -1      3587 7.37362E-03 1.99866E-03-2.00054E-14
 -1      3588 7.25274E-03 1.93149E-03-1.97926E-14
 -1      3589 7.53784E-03 2.07261E-03-2.17782E-14
 -1      3590 1.33805E-02 4.67876E-03-9.02661E-14
 -1      3591 6.16592E-03 1.39239E-03-1.21892E-14
 -1      3592 6.04365E-03 1.33121E-03-1.14232E-14
 -1      3593 6.19231E-03 1.40018E-03-1.28032E-14
 -1      3594 5.34873E-03 1.01924E-03-8.67981E-15
 -1      3595 5.24636E-03 9.96374E-04-8.75138E-15
 -1      3596 6.44377E-03 1.52643E-03-1.44239E-14
 -1      3597 1.32016E-02 4.60441E-03-8.73388E-14
 -1      3598 1.34461E-02 4.72091E-03-8.97619E-14
 -1      3599 1.35117E-02 4.76306E-03-8.92587E-14
 -1      3600 3.11704E-03-6.67544E-05-5.54858E-15
 -1      3601 3.03792E-03-1.21066E-04-5.66313E-15
 -1      3602 3.20793E-03-3.48052E-05-6.25799E-15
 -1      3603 3.28395E-03 3.21030E-05-5.98591E-15
 -1      3604 1.40567E-02 5.09433E-03-8.69903E-14
 -1      3605 1.41224E-02 5.13648E-03-8.64657E-14
 -1      3606 1.41487E-02 5.15812E-03-8.57549E-14
 -1      3607 1.41751E-02 5.17976E-03-8.50390E-14
 -1      3608 1.39922E-02 5.07926E-03-8.46894E-14
 -1      3609 5.44071E-03 1.04541E-03-7.43357E-15
 -1      3610 5.46660E-03 1.03574E-03-7.69384E-15
 -1      3611 4.32657E-03 6.29306E-04-8.38889E-15
 -1      3612 4.20739E-03 5.56889E-04-8.43303E-15
 -1      3613 4.48492E-03 6.95516E-04-9.04432E-15
 -1      3614 5.21096E-03 9.92875E-04-9.25848E-15
 -1      3615 5.50810E-03 1.05461E-03-8.16460E-15
 -1      3616 1.36210E-02 4.82385E-03-8.94148E-14
 -1      3617 1.36866E-02 4.86600E-03-8.89014E-14
 -1      3618 1.35951E-02 4.82893E-03-8.73129E-14
 -1      3619 1.33765E-02 4.70735E-03-8.70007E-14
 -1      3620 1.39258E-02 5.01020E-03-8.80304E-14
 -1      3621 1.39914E-02 5.05236E-03-8.75105E-14
 -1      3622 1.39005E-02 5.01565E-03-8.59175E-14
 -1      3623 1.37698E-02 4.93170E-03-8.69510E-14
 -1      3624 5.92556E-03 1.27285E-03-1.06781E-14
 -1      3625 5.81159E-03 1.21669E-03-9.95261E-15
 -1      3626 5.95535E-03 1.28159E-03-1.12608E-14
 -1      3627 4.83458E-03 8.59447E-04-9.15256E-15
 -1      3628 1.38008E-03-7.53590E-05-1.29154E-15
 -1      3629 5.48992E-03 1.05839E-03-8.82351E-15
 -1      3630 5.42504E-03 1.04010E-03-8.75356E-15
 -1      3631 5.43422E-03 1.05532E-03-9.28356E-15
 -1      3632 5.53071E-03 1.09203E-03-8.02826E-15
 -1      3633 5.37732E-03 1.03942E-03-7.05282E-15
 -1      3634 3.88778E-03 3.83616E-04-7.65224E-15
 -1      3635 3.72855E-03 2.98460E-04-7.12681E-15
 -1      3636 3.59339E-03 2.18859E-04-6.77922E-15
 -1      3637 3.41146E-03 1.08174E-04-6.31635E-15
 -1      3638 3.36468E-03 6.85969E-05-6.45901E-15
 -1      3639 3.61678E-03 2.17316E-04-7.15053E-15
 -1      3640 5.57678E-03 1.09250E-03-8.56601E-15
 -1      3641 5.54503E-03 1.07526E-03-8.70822E-15
 -1      3642 5.62227E-03 1.13222E-03-8.63099E-15
 -1      3643 5.60540E-03 1.11378E-03-8.62521E-15
 -1      3644 5.65988E-03 1.13496E-03-9.18433E-15
 -1      3645 3.38064E-03 5.63973E-05-6.87930E-15
 -1      3646 3.65662E-03 2.03218E-04-7.90493E-15
 -1      3647 3.83069E-03 2.92822E-04-8.58951E-15
 -1      3648 4.00367E-03 3.78640E-04-9.29694E-15
 -1      3649 4.17313E-03 4.60516E-04-1.00259E-14
 -1      3650 3.98698E-03 3.92566E-04-8.83214E-15
 -1      3651 4.33971E-03 5.38234E-04-1.07765E-14
 -1      3652 4.50256E-03 6.12645E-04-1.15487E-14
 -1      3653 4.33043E-03 5.54570E-04-1.02808E-14
 -1      3654 4.66222E-03 6.83885E-04-1.23425E-14
 -1      3655 4.81858E-03 7.53006E-04-1.31560E-14
 -1      3656 4.65695E-03 6.99284E-04-1.18141E-14
 -1      3657 4.97217E-03 8.20106E-04-1.39886E-14
 -1      3658 5.12321E-03 8.86008E-04-1.48401E-14
 -1      3659 4.96852E-03 8.33023E-04-1.34289E-14
 -1      3660 5.27212E-03 9.50779E-04-1.57124E-14
 -1      3661 5.41926E-03 1.01500E-03-1.66035E-14
 -1      3662 5.26851E-03 9.60968E-04-1.51219E-14
 -1      3663 5.56493E-03 1.07869E-03-1.75123E-14
 -1      3664 5.70946E-03 1.14220E-03-1.84408E-14
 -1      3665 5.56047E-03 1.08650E-03-1.68908E-14
 -1      3666 5.85305E-03 1.20555E-03-1.93874E-14
 -1      3667 5.99598E-03 1.26894E-03-2.03528E-14
 -1      3668 5.84736E-03 1.21155E-03-1.87345E-14
 -1      3669 6.13837E-03 1.33235E-03-2.13379E-14
 -1      3670 6.28042E-03 1.39591E-03-2.23434E-14
 -1      3671 6.13134E-03 1.33708E-03-2.06541E-14
 -1      3672 6.42221E-03 1.45959E-03-2.33681E-14
 -1      3673 6.56387E-03 1.52346E-03-2.44113E-14
 -1      3674 6.41390E-03 1.46352E-03-2.26527E-14
 -1      3675 6.70545E-03 1.58751E-03-2.54744E-14
 -1      3676 6.84702E-03 1.65174E-03-2.65573E-14
 -1      3677 6.69598E-03 1.59098E-03-2.47284E-14
 -1      3678 6.98861E-03 1.71617E-03-2.76581E-14
 -1      3679 7.13026E-03 1.78078E-03-2.87758E-14
 -1      3680 6.97816E-03 1.71942E-03-2.68800E-14
 -1      3681 7.27198E-03 1.84557E-03-2.99116E-14
 -1      3682 7.41380E-03 1.91052E-03-3.10645E-14
 -1      3683 7.26073E-03 1.84875E-03-2.91039E-14
 -1      3684 7.55571E-03 1.97565E-03-3.22331E-14
 -1      3685 7.69773E-03 2.04092E-03-3.34168E-14
 -1      3686 7.54381E-03 1.97885E-03-3.13967E-14
 -1      3687 7.83984E-03 2.10634E-03-3.46157E-14
 -1      3688 7.98204E-03 2.17189E-03-3.58301E-14
 -1      3689 7.82742E-03 2.10962E-03-3.37515E-14
 -1      3690 8.12433E-03 2.23757E-03-3.70582E-14
 -1      3691 8.26670E-03 2.30336E-03-3.83000E-14
 -1      3692 8.11152E-03 2.24093E-03-3.61656E-14
 -1      3693 8.40915E-03 2.36925E-03-3.95559E-14
 -1      3694 8.55166E-03 2.43524E-03-4.08255E-14
 -1      3695 8.39604E-03 2.37270E-03-3.86366E-14
 -1      3696 8.69423E-03 2.50131E-03-4.21082E-14
 -1      3697 8.83686E-03 2.56746E-03-4.34027E-14
 -1      3698 8.68092E-03 2.50484E-03-4.11617E-14
 -1      3699 8.97953E-03 2.63369E-03-4.47091E-14
 -1      3700 9.12224E-03 2.69998E-03-4.60279E-14
 -1      3701 8.96606E-03 2.63728E-03-4.37382E-14
 -1      3702 9.26499E-03 2.76632E-03-4.73566E-14
 -1      3703 9.40776E-03 2.83272E-03-4.86968E-14
 -1      3704 9.25142E-03 2.76997E-03-4.63619E-14
 -1      3705 9.55056E-03 2.89916E-03-5.00470E-14
 -1      3706 9.69338E-03 2.96564E-03-5.14046E-14
 -1      3707 9.53692E-03 2.90285E-03-4.90292E-14
 -1      3708 9.83621E-03 3.03216E-03-5.27723E-14
 -1      3709 9.97906E-03 3.09871E-03-5.41498E-14
 -1      3710 9.82253E-03 3.03588E-03-5.17365E-14
 -1      3711 1.01219E-02 3.16529E-03-5.55343E-14
 -1      3712 1.02648E-02 3.23190E-03-5.69287E-14
 -1      3713 1.01082E-02 3.16903E-03-5.44786E-14
 -1      3714 1.04077E-02 3.29852E-03-5.83312E-14
 -1      3715 1.05505E-02 3.36516E-03-5.97416E-14
 -1      3716 1.03939E-02 3.30227E-03-5.72576E-14
 -1      3717 1.06934E-02 3.43182E-03-6.11621E-14
 -1      3718 1.08363E-02 3.49849E-03-6.25909E-14
 -1      3719 1.06797E-02 3.43558E-03-6.00716E-14
 -1      3720 1.09792E-02 3.56517E-03-6.40307E-14
 -1      3721 1.11221E-02 3.63187E-03-6.54775E-14
 -1      3722 1.09655E-02 3.56894E-03-6.29224E-14
 -1      3723 1.12650E-02 3.69857E-03-6.69355E-14
 -1      3724 1.14078E-02 3.76528E-03-6.84021E-14
 -1      3725 1.12512E-02 3.70233E-03-6.58098E-14
 -1      3726 1.15507E-02 3.83199E-03-6.98744E-14
 -1      3727 1.16936E-02 3.89871E-03-7.13589E-14
 -1      3728 1.15370E-02 3.83575E-03-6.87341E-14
 -1      3729 1.18365E-02 3.96543E-03-7.28496E-14
 -1      3730 1.19794E-02 4.03216E-03-7.43516E-14
 -1      3731 1.18228E-02 3.96919E-03-7.16943E-14
 -1      3732 1.21222E-02 4.09888E-03-7.58616E-14
 -1      3733 1.22651E-02 4.16561E-03-7.73769E-14
 -1      3734 1.21086E-02 4.10265E-03-7.46917E-14
 -1      3735 1.24080E-02 4.23235E-03-7.89002E-14
 -1      3736 1.25509E-02 4.29908E-03-8.04310E-14
 -1      3737 1.23943E-02 4.23611E-03-7.77196E-14
 -1      3738 1.26937E-02 4.36581E-03-8.19695E-14
 -1      3739 1.28366E-02 4.43255E-03-8.35124E-14
 -1      3740 1.26801E-02 4.36957E-03-8.07739E-14
 -1      3741 1.29477E-02 4.48511E-03-8.46453E-14
 -1      3742 1.30905E-02 4.55185E-03-8.62016E-14
 -1      3743 1.31561E-02 4.59400E-03-8.57067E-14
 -1      3744 1.29340E-02 4.48887E-03-8.34428E-14
 -1      3745 2.57880E-03-2.94208E-04-3.98879E-15
 -1      3746 2.44795E-03-3.22810E-04-3.69629E-15
 -1      3747 8.11933E-03 2.34901E-03-2.67129E-14
 -1      3748 7.97822E-03 2.28060E-03-2.56536E-14
 -1      3749 7.83750E-03 2.21216E-03-2.46092E-14
 -1      3750 7.69720E-03 2.14368E-03-2.35810E-14
 -1      3751 7.85235E-03 2.21197E-03-2.54094E-14
 -1      3752 8.68639E-03 2.62173E-03-3.11150E-14
 -1      3753 8.54431E-03 2.55370E-03-2.99933E-14
 -1      3754 8.97095E-03 2.75747E-03-3.33996E-14
 -1      3755 8.82860E-03 2.68965E-03-3.22503E-14
 -1      3756 8.70043E-03 2.61969E-03-3.19916E-14
 -1      3757 9.25593E-03 2.89280E-03-3.57405E-14
 -1      3758 9.11340E-03 2.82518E-03-3.45640E-14
 -1      3759 8.98484E-03 2.75503E-03-3.43025E-14
 -1      3760 9.54119E-03 3.02776E-03-3.81344E-14
 -1      3761 9.39853E-03 2.96032E-03-3.69312E-14
 -1      3762 9.26970E-03 2.89004E-03-3.66703E-14
 -1      3763 9.82665E-03 3.16239E-03-4.05783E-14
 -1      3764 9.68390E-03 3.09511E-03-3.93497E-14
 -1      3765 9.55488E-03 3.02474E-03-3.90867E-14
 -1      3766 1.01122E-02 3.29675E-03-4.30768E-14
 -1      3767 9.96942E-03 3.22960E-03-4.18212E-14
 -1      3768 9.84028E-03 3.15918E-03-4.15560E-14
 -1      3769 1.03979E-02 3.43089E-03-4.56217E-14
 -1      3770 1.02550E-02 3.36385E-03-4.43439E-14
 -1      3771 1.01258E-02 3.29339E-03-4.40780E-14
 -1      3772 1.06836E-02 3.56485E-03-4.82081E-14
 -1      3773 1.05407E-02 3.49789E-03-4.69087E-14
 -1      3774 1.04115E-02 3.42741E-03-4.66441E-14
 -1      3775 1.09693E-02 3.69868E-03-5.08382E-14
 -1      3776 1.08265E-02 3.63178E-03-4.95180E-14
 -1      3777 1.06972E-02 3.56129E-03-4.92534E-14
 -1      3778 1.12694E-02 3.83907E-03-5.36498E-14
 -1      3779 1.11194E-02 3.76889E-03-5.22381E-14
 -1      3780 1.09901E-02 3.69839E-03-5.19705E-14
 -1      3781 1.15552E-02 3.97270E-03-5.63745E-14
 -1      3782 1.14123E-02 3.90590E-03-5.50065E-14
 -1      3783 1.12830E-02 3.83539E-03-5.47361E-14
 -1      3784 1.18409E-02 4.10627E-03-5.91448E-14
 -1      3785 1.16980E-02 4.03949E-03-5.77557E-14
 -1      3786 1.15688E-02 3.96899E-03-5.74792E-14
 -1      3787 1.21267E-02 4.23980E-03-6.19660E-14
 -1      3788 1.19838E-02 4.17304E-03-6.05482E-14
 -1      3789 1.18545E-02 4.10254E-03-6.02708E-14
 -1      3790 1.24125E-02 4.37329E-03-6.48319E-14
 -1      3791 1.22696E-02 4.30655E-03-6.33946E-14
 -1      3792 1.21403E-02 4.23605E-03-6.31073E-14
 -1      3793 1.26982E-02 4.50677E-03-6.77458E-14
 -1      3794 1.25553E-02 4.44003E-03-6.62829E-14
 -1      3795 1.24261E-02 4.36954E-03-6.59925E-14
 -1      3796 1.29839E-02 4.64023E-03-7.06919E-14
 -1      3797 1.28411E-02 4.57350E-03-6.92152E-14
 -1      3798 1.27118E-02 4.50301E-03-6.89197E-14
 -1      3799 1.32697E-02 4.77369E-03-7.36723E-14
 -1      3800 1.31268E-02 4.70696E-03-7.21780E-14
 -1      3801 1.29976E-02 4.63647E-03-7.18826E-14
 -1      3802 1.35554E-02 4.90714E-03-7.66729E-14
 -1      3803 1.34126E-02 4.84041E-03-7.51716E-14
 -1      3804 1.32833E-02 4.76992E-03-7.48724E-14
 -1      3805 1.38412E-02 5.04058E-03-7.96892E-14
 -1      3806 1.36983E-02 4.97386E-03-7.81794E-14
 -1      3807 1.35691E-02 4.90337E-03-7.78847E-14
 -1      3808 2.11163E-03-3.18693E-04-2.76051E-15
 -1      3809 1.97047E-03-3.10136E-04-2.47045E-15
 -1      3810 1.42148E-02 5.20616E-03-8.46238E-14
 -1      3811 1.42412E-02 5.22779E-03-8.39089E-14
 -1      3812 1.41377E-02 5.18009E-03-8.27331E-14
 -1      3813 1.40583E-02 5.12730E-03-8.35644E-14
 -1      3814 5.73044E-03 1.18280E-03-9.31934E-15
 -1      3815 2.19936E-03-3.35345E-04-3.02853E-15
 -1      3816 8.40242E-03 2.48557E-03-2.88862E-14
 -1      3817 8.26074E-03 2.41733E-03-2.77911E-14
 -1      3818 8.41668E-03 2.48403E-03-2.97384E-14
 -1      3819 1.74178E-03-2.55077E-04-1.96677E-15
 -1      3820 6.72411E-03 1.66280E-03-1.68064E-14
 -1      3821 6.59245E-03 1.59715E-03-1.59303E-14
 -1      3822 6.99254E-03 1.79632E-03-1.86177E-14
 -1      3823 6.85755E-03 1.72918E-03-1.77022E-14
 -1      3824 6.74002E-03 1.66696E-03-1.74919E-14
 -1      3825 4.99947E-03 9.21072E-04-9.76321E-15
 -1      3826 4.78668E-03 8.32834E-04-9.60520E-15
 -1      3827 5.35518E-03 1.04314E-03-9.86999E-15
 -1      3828 5.21342E-03 9.98998E-04-9.91900E-15
 -1      3829 5.57448E-03 1.09549E-03-9.24282E-15
 -1      3830 6.21191E-03 1.40795E-03-1.34225E-14
 -1      3831 6.09135E-03 1.34807E-03-1.26256E-14
 -1      3832 6.46295E-03 1.53272E-03-1.50735E-14
 -1      3833 6.33594E-03 1.46941E-03-1.42382E-14
 -1      3834 6.22640E-03 1.41469E-03-1.40459E-14
 -1      3835 6.47851E-03 1.53819E-03-1.57289E-14
 -1      3836 1.88159E-03-3.06441E-04-2.30100E-15
 -1      3837 5.76998E-03 1.19083E-03-9.87489E-15
 -1      3838 7.27307E-03 1.93526E-03-2.05540E-14
 -1      3839 7.13222E-03 1.86557E-03-1.95760E-14
 -1      3840 7.01179E-03 1.80089E-03-1.93548E-14
 -1      3841 2.70790E-03-2.68559E-04-4.64554E-15
 -1      3842 5.97486E-03 1.29075E-03-1.18494E-14
 -1      3843 5.86316E-03 1.23541E-03-1.10920E-14
 -1      3844 5.98716E-03 1.29867E-03-1.24429E-14
 -1      3845 2.39095E-03-3.41066E-04-3.65047E-15
 -1      3846 2.27298E-03-3.43051E-04-3.26440E-15
 -1      3847 8.13386E-03 2.34808E-03-2.75428E-14
 -1      3848 5.52421E-03 1.09534E-03-1.00320E-14
 -1      3849 5.44377E-03 1.07078E-03-9.95304E-15
 -1      3850 5.45722E-03 1.08369E-03-1.06358E-14
 -1      3851 1.40412E-02 5.13419E-03-8.17919E-14
 -1      3852 1.39377E-02 5.08648E-03-8.06243E-14
 -1      3853 1.38084E-02 5.01600E-03-8.03296E-14
 -1      3854 1.40015E-02 5.10779E-03-8.22073E-14
 -1      3855 1.38453E-02 5.00369E-03-8.38598E-14
 -1      3856 1.38717E-02 5.02533E-03-8.31529E-14
 -1      3857 1.36134E-02 4.85292E-03-8.58734E-14
 -1      3858 1.36787E-02 4.89490E-03-8.53607E-14
 -1      3859 4.25732E-03 5.51035E-04-9.32104E-15
 -1      3860 4.09467E-03 4.76345E-04-8.65727E-15
 -1      3861 5.79582E-03 1.20152E-03-1.04449E-14
 -1      3862 5.72739E-03 1.16714E-03-9.80366E-15
 -1      3863 5.68383E-03 1.14546E-03-9.73765E-15
 -1      3864 5.80870E-03 1.21084E-03-1.10123E-14
 -1      3865 1.37294E-02 4.92830E-03-8.48707E-14
 -1      3866 1.37947E-02 4.97028E-03-8.43559E-14
 -1      3867 1.36742E-02 4.91635E-03-8.28185E-14
 -1      3868 1.35730E-02 4.84953E-03-8.37992E-14
 -1      3869 1.35041E-02 4.79213E-03-8.57240E-14
 -1      3870 1.34130E-02 4.75533E-03-8.41361E-14
 -1      3871 1.33948E-02 4.73134E-03-8.55685E-14
 -1      3872 5.62719E-03 1.12555E-03-9.86026E-15
 -1      3873 4.66870E-03 7.74808E-04-9.65992E-15
 -1      3874 4.55543E-03 7.13005E-04-9.70892E-15
 -1      3875 4.84416E-03 8.45777E-04-1.02878E-14
 -1      3876 5.16939E-03 9.82762E-04-1.03951E-14
 -1      3877 7.55571E-03 2.07439E-03-2.25579E-14
 -1      3878 7.41312E-03 2.00430E-03-2.15406E-14
 -1      3879 7.29037E-03 1.93783E-03-2.13106E-14
 -1      3880 7.57092E-03 2.07508E-03-2.33303E-14
 -1      3881 2.14678E-03-3.51307E-04-2.98520E-15
 -1      3882 4.48867E-03 6.69622E-04-9.87909E-15
 -1      3883 4.38361E-03 5.95740E-04-1.01162E-14
 -1      3884 4.54913E-03 6.68423E-04-1.08655E-14
 -1      3885 4.66825E-03 7.49435E-04-1.05185E-14
 -1      3886 2.54908E-03-3.14112E-04-4.13261E-15
 -1      3887 3.49929E-03 1.25506E-04-7.23235E-15
 -1      3888 3.65097E-03 2.25487E-04-7.45871E-15
 -1      3889 8.14800E-03 2.34701E-03-2.83763E-14
 -1      3890 8.00712E-03 2.27929E-03-2.72885E-14
 -1      3891 4.70999E-03 7.36732E-04-1.16368E-14
 -1      3892 4.86671E-03 8.02754E-04-1.24280E-14
 -1      3893 4.76612E-03 7.74761E-04-1.14572E-14
 -1      3894 5.01970E-03 8.66600E-04-1.32387E-14
 -1      3895 5.16980E-03 9.29369E-04-1.40678E-14
 -1      3896 5.07295E-03 9.00158E-04-1.30457E-14
 -1      3897 5.31730E-03 9.91255E-04-1.49176E-14
 -1      3898 5.46292E-03 1.05288E-03-1.57859E-14
 -1      3899 5.36733E-03 1.02126E-03-1.47110E-14
 -1      3900 5.60690E-03 1.11435E-03-1.66731E-14
 -1      3901 5.74976E-03 1.17596E-03-1.75795E-14
 -1      3902 5.65399E-03 1.14180E-03-1.64529E-14
 -1      3903 5.89169E-03 1.23776E-03-1.85032E-14
 -1      3904 6.03304E-03 1.29986E-03-1.94472E-14
 -1      3905 5.93632E-03 1.26355E-03-1.82707E-14
 -1      3906 6.17392E-03 1.36229E-03-2.04103E-14
 -1      3907 6.31458E-03 1.42506E-03-2.13933E-14
 -1      3908 6.21661E-03 1.38711E-03-2.01642E-14
 -1      3909 6.45508E-03 1.48819E-03-2.23959E-14
 -1      3910 6.59557E-03 1.55165E-03-2.34174E-14
 -1      3911 6.49625E-03 1.51252E-03-2.21364E-14
 -1      3912 6.73607E-03 1.61543E-03-2.44579E-14
 -1      3913 6.87668E-03 1.67950E-03-2.55178E-14
 -1      3914 6.77610E-03 1.63960E-03-2.41860E-14
 -1      3915 7.01740E-03 1.74386E-03-2.65964E-14
 -1      3916 7.15829E-03 1.80846E-03-2.76938E-14
 -1      3917 7.05657E-03 1.76807E-03-2.63113E-14
 -1      3918 7.29933E-03 1.87330E-03-2.88069E-14
 -1      3919 7.44055E-03 1.93834E-03-2.99374E-14
 -1      3920 7.33786E-03 1.89767E-03-2.85085E-14
 -1      3921 7.58193E-03 2.00357E-03-3.10848E-14
 -1      3922 7.72348E-03 2.06897E-03-3.22483E-14
 -1      3923 7.61999E-03 2.02815E-03-3.07719E-14
 -1      3924 7.86518E-03 2.13453E-03-3.34271E-14
 -1      3925 8.00704E-03 2.20021E-03-3.46205E-14
 -1      3926 7.90291E-03 2.15933E-03-3.31007E-14
 -1      3927 8.14903E-03 2.26603E-03-3.58284E-14
 -1      3928 8.29114E-03 2.33194E-03-3.70506E-14
 -1      3929 8.18651E-03 2.29104E-03-3.54885E-14
 -1      3930 8.43337E-03 2.39796E-03-3.82854E-14
 -1      3931 8.57570E-03 2.46406E-03-3.95343E-14
 -1      3932 8.47068E-03 2.42316E-03-3.79332E-14
 -1      3933 8.71811E-03 2.53025E-03-4.07983E-14
 -1      3934 8.86061E-03 2.59650E-03-4.20743E-14
 -1      3935 8.75530E-03 2.55560E-03-4.04332E-14
 -1      3936 9.00317E-03 2.66281E-03-4.33619E-14
 -1      3937 9.14579E-03 2.72917E-03-4.46620E-14
 -1      3938 9.04028E-03 2.68830E-03-4.29844E-14
 -1      3939 9.28846E-03 2.79559E-03-4.59729E-14
 -1      3940 9.43118E-03 2.86205E-03-4.72944E-14
 -1      3941 9.32552E-03 2.82118E-03-4.55829E-14
 -1      3942 9.57393E-03 2.92854E-03-4.86284E-14
 -1      3943 9.71671E-03 2.99507E-03-4.99719E-14
 -1      3944 9.61095E-03 2.95422E-03-4.82260E-14
 -1      3945 9.85952E-03 3.06163E-03-5.13240E-14
 -1      3946 1.00023E-02 3.12821E-03-5.26856E-14
 -1      3947 9.89652E-03 3.08737E-03-5.09110E-14
 -1      3948 1.01452E-02 3.19482E-03-5.40579E-14
 -1      3949 1.02881E-02 3.26145E-03-5.54375E-14
 -1      3950 1.01822E-02 3.22060E-03-5.36339E-14
 -1      3951 1.04309E-02 3.32809E-03-5.68242E-14
 -1      3952 1.05738E-02 3.39475E-03-5.82235E-14
 -1      3953 1.04679E-02 3.35390E-03-5.63931E-14
 -1      3954 1.07167E-02 3.46142E-03-5.96299E-14
 -1      3955 1.08596E-02 3.52810E-03-6.10461E-14
 -1      3956 1.07537E-02 3.48725E-03-5.91873E-14
 -1      3957 1.10024E-02 3.59479E-03-6.24725E-14
 -1      3958 1.11453E-02 3.66149E-03-6.39050E-14
 -1      3959 1.10394E-02 3.62064E-03-6.20202E-14
 -1      3960 1.12882E-02 3.72819E-03-6.53519E-14
 -1      3961 1.14311E-02 3.79490E-03-6.68075E-14
 -1      3962 1.13252E-02 3.75406E-03-6.48919E-14
 -1      3963 1.15740E-02 3.86162E-03-6.82667E-14
 -1      3964 1.17169E-02 3.92834E-03-6.97410E-14
 -1      3965 1.16110E-02 3.88749E-03-6.78016E-14
 -1      3966 1.18598E-02 3.99506E-03-7.12225E-14
 -1      3967 1.20027E-02 4.06179E-03-7.27131E-14
 -1      3968 1.18968E-02 4.02093E-03-7.07492E-14
 -1      3969 1.21455E-02 4.12852E-03-7.42146E-14
 -1      3970 1.22884E-02 4.19525E-03-7.57225E-14
 -1      3971 1.21825E-02 4.15439E-03-7.37349E-14
 -1      3972 1.24313E-02 4.26198E-03-7.72373E-14
 -1      3973 1.25742E-02 4.32871E-03-7.87578E-14
 -1      3974 1.24683E-02 4.28785E-03-7.67542E-14
 -1      3975 1.27171E-02 4.39544E-03-8.02855E-14
 -1      3976 1.28599E-02 4.46217E-03-8.18226E-14
 -1      3977 1.27541E-02 4.42131E-03-7.97968E-14
 -1      3978 7.86663E-03 2.21160E-03-2.62151E-14
 -1      3979 7.72658E-03 2.14393E-03-2.51607E-14
 -1      3980 7.88043E-03 2.21097E-03-2.70290E-14
 -1      3981 8.99861E-03 2.75252E-03-3.52123E-14
 -1      3982 8.85639E-03 2.68508E-03-3.40366E-14
 -1      3983 8.71431E-03 2.61757E-03-3.28761E-14
 -1      3984 8.57239E-03 2.55000E-03-3.17302E-14
 -1      3985 8.72803E-03 2.61534E-03-3.37675E-14
 -1      3986 9.56854E-03 3.02168E-03-4.00452E-14
 -1      3987 9.42593E-03 2.95448E-03-3.88186E-14
 -1      3988 9.85390E-03 3.15593E-03-4.25401E-14
 -1      3989 9.71119E-03 3.08883E-03-4.12862E-14
 -1      3990 9.58216E-03 3.01857E-03-4.10107E-14
 -1      3991 1.01394E-02 3.29000E-03-4.50850E-14
 -1      3992 9.99665E-03 3.22298E-03-4.38065E-14
 -1      3993 9.86751E-03 3.15264E-03-4.35304E-14
 -1      3994 1.04251E-02 3.42391E-03-4.76735E-14
 -1      3995 1.02822E-02 3.35697E-03-4.63743E-14
 -1      3996 1.01530E-02 3.28657E-03-4.60982E-14
 -1      3997 1.07108E-02 3.55770E-03-5.03043E-14
 -1      3998 1.05679E-02 3.49082E-03-4.89838E-14
 -1      3999 1.04387E-02 3.42038E-03-4.87096E-14
 -1      4000 1.10108E-02 3.69808E-03-5.31109E-14
 -1      4001 1.08608E-02 3.62790E-03-5.17007E-14
 -1      4002 1.07315E-02 3.55744E-03-5.14271E-14
 -1      4003 1.12966E-02 3.83171E-03-5.58265E-14
 -1      4004 1.11537E-02 3.76490E-03-5.44635E-14
 -1      4005 1.10244E-02 3.69442E-03-5.41872E-14
 -1      4006 1.15824E-02 3.96527E-03-5.85890E-14
 -1      4007 1.14395E-02 3.89850E-03-5.72011E-14
 -1      4008 1.13102E-02 3.82801E-03-5.69242E-14
 -1      4009 1.18681E-02 4.09880E-03-6.13959E-14
 -1      4010 1.17252E-02 4.03204E-03-5.99875E-14
 -1      4011 1.15960E-02 3.96155E-03-5.97023E-14
 -1      4012 1.21539E-02 4.23230E-03-6.42532E-14
 -1      4013 1.20110E-02 4.16556E-03-6.28197E-14
 -1      4014 1.18817E-02 4.09506E-03-6.25296E-14
 -1      4015 1.24397E-02 4.36578E-03-6.71552E-14
 -1      4016 1.22968E-02 4.29904E-03-6.56983E-14
 -1      4017 1.21675E-02 4.22855E-03-6.54030E-14
 -1      4018 1.27254E-02 4.49925E-03-7.00969E-14
 -1      4019 1.25826E-02 4.43252E-03-6.86209E-14
 -1      4020 1.24533E-02 4.36202E-03-6.83203E-14
 -1      4021 1.30112E-02 4.63271E-03-7.30735E-14
 -1      4022 1.28683E-02 4.56598E-03-7.15832E-14
 -1      4023 1.27391E-02 4.49549E-03-7.12796E-14
 -1      4024 1.32969E-02 4.76616E-03-7.60727E-14
 -1      4025 1.31541E-02 4.69944E-03-7.45699E-14
 -1      4026 1.30248E-02 4.62894E-03-7.42659E-14
 -1      4027 1.35827E-02 4.89961E-03-7.90952E-14
 -1      4028 1.34398E-02 4.83289E-03-7.75834E-14
 -1      4029 1.33106E-02 4.76240E-03-7.72774E-14
 -1      4030 1.98437E-03-3.38400E-04-2.58040E-15
 -1      4031 1.32208E-02 4.63228E-03-8.55581E-14
 -1      4032 1.33301E-02 4.69307E-03-8.57187E-14
 -1      4033 1.32390E-02 4.65626E-03-8.41324E-14
 -1      4034 1.31097E-02 4.57971E-03-8.44279E-14
 -1      4035 8.43068E-03 2.48238E-03-3.05965E-14
 -1      4036 8.28920E-03 2.41471E-03-2.94783E-14
 -1      4037 8.16180E-03 2.34576E-03-2.92157E-14
 -1      4038 8.44444E-03 2.48059E-03-3.14629E-14
 -1      4039 3.77787E-03 2.98449E-04-7.82164E-15
 -1      4040 5.32799E-03 1.04095E-03-1.10776E-14
 -1      4041 5.12910E-03 9.63883E-04-1.09134E-14
 -1      4042 6.75371E-03 1.67049E-03-1.81810E-14
 -1      4043 6.62147E-03 1.60606E-03-1.72752E-14
 -1      4044 3.95805E-03 3.90026E-04-8.50216E-15
 -1      4045 5.65656E-03 1.14706E-03-1.05510E-14
 -1      4046 9.28340E-03 2.88722E-03-3.76042E-14
 -1      4047 9.14096E-03 2.81990E-03-3.64013E-14
 -1      4048 9.29705E-03 2.88434E-03-3.85451E-14
 -1      4049 5.99346E-03 1.30506E-03-1.30415E-14
 -1      4050 5.87729E-03 1.25067E-03-1.22536E-14
 -1      4051 5.71414E-03 1.17744E-03-1.11962E-14
 -1      4052 1.30357E-02 4.55301E-03-8.28039E-14
 -1      4053 1.29987E-02 4.52715E-03-8.32990E-14
 -1      4054 6.89087E-03 1.73734E-03-1.91313E-14
 -1      4055 6.76912E-03 1.67479E-03-1.89004E-14
 -1      4056 7.02943E-03 1.80498E-03-2.00996E-14
 -1      4057 9.01229E-03 2.74993E-03-3.61285E-14
 -1      4058 1.37184E-02 4.95993E-03-8.08574E-14
 -1      4059 1.35892E-02 4.88944E-03-8.05549E-14
 -1      4060 5.51406E-03 1.10808E-03-1.12613E-14
 -1      4061 5.42377E-03 1.07620E-03-1.11708E-14
 -1      4062 5.39171E-03 1.06467E-03-1.17110E-14
 -1      4063 1.32696E-02 4.68764E-03-8.26657E-14
 -1      4064 1.33789E-02 4.74843E-03-8.28171E-14
 -1      4065 6.49101E-03 1.54279E-03-1.63890E-14
 -1      4066 6.36265E-03 1.48069E-03-1.55230E-14
 -1      4067 6.50139E-03 1.54628E-03-1.70539E-14
 -1      4068 1.38149E-02 5.00583E-03-8.17975E-14
 -1      4069 1.39618E-02 5.08140E-03-8.26212E-14
 -1      4070 1.34879E-02 4.82262E-03-8.15353E-14
 -1      4071 1.35385E-02 4.85603E-03-8.10462E-14
 -1      4072 1.34028E-02 4.79571E-03-7.92807E-14
 -1      4073 5.02408E-03 9.17336E-04-1.09781E-14
 -1      4074 4.91927E-03 8.66533E-04-1.10369E-14
 -1      4075 5.19605E-03 9.84053E-04-1.16820E-14
 -1      4076 1.34295E-02 4.78184E-03-8.23335E-14
 -1      4077 7.58532E-03 2.07552E-03-2.41091E-14
 -1      4078 7.44468E-03 2.00724E-03-2.30752E-14
 -1      4079 7.59905E-03 2.07562E-03-2.48939E-14
 -1      4080 6.23663E-03 1.42029E-03-1.46765E-14
 -1      4081 6.11347E-03 1.36149E-03-1.38491E-14
 -1      4082 5.99619E-03 1.30951E-03-1.36460E-14
 -1      4083 6.24411E-03 1.42438E-03-1.53117E-14
 -1      4084 4.82591E-03 8.12936E-04-1.12763E-14
 -1      4085 5.70633E-03 1.18097E-03-1.17636E-14
 -1      4086 1.29616E-02 4.52632E-03-8.11865E-14
 -1      4087 1.31003E-02 4.59129E-03-8.26572E-14
 -1      4088 1.31650E-02 4.62957E-03-8.25100E-14
 -1      4089 5.07925E-03 9.15244E-04-1.24932E-14
 -1      4090 5.22618E-03 9.74023E-04-1.33004E-14
 -1      4091 5.37045E-03 1.03222E-03-1.41276E-14
 -1      4092 5.51292E-03 1.09069E-03-1.49729E-14
 -1      4093 5.37690E-03 1.04370E-03-1.35502E-14
 -1      4094 5.65389E-03 1.14947E-03-1.58383E-14
 -1      4095 5.79399E-03 1.20888E-03-1.67222E-14
 -1      4096 5.65598E-03 1.15721E-03-1.52296E-14
 -1      4097 5.93337E-03 1.26889E-03-1.76253E-14
 -1      4098 6.07242E-03 1.32960E-03-1.85466E-14
 -1      4099 5.93176E-03 1.27403E-03-1.69862E-14
 -1      4100 6.21124E-03 1.39094E-03-1.94869E-14
 -1      4101 6.35006E-03 1.45292E-03-2.04487E-14
 -1      4102 6.20668E-03 1.39444E-03-1.88172E-14
 -1      4103 6.48892E-03 1.51547E-03-2.14287E-14
 -1      4104 6.62797E-03 1.57855E-03-2.24279E-14
 -1      4105 6.48207E-03 1.51802E-03-2.07263E-14
 -1      4106 6.76720E-03 1.64210E-03-2.34476E-14
 -1      4107 6.90670E-03 1.70608E-03-2.44859E-14
 -1      4108 6.75858E-03 1.64420E-03-2.27146E-14
 -1      4109 7.04646E-03 1.77043E-03-2.55423E-14
 -1      4110 7.18649E-03 1.83510E-03-2.66184E-14
 -1      4111 7.03649E-03 1.77241E-03-2.47806E-14
 -1      4112 7.32680E-03 1.90006E-03-2.77106E-14
 -1      4113 7.46738E-03 1.96526E-03-2.88186E-14
 -1      4114 7.31583E-03 1.90212E-03-2.69184E-14
 -1      4115 7.60821E-03 2.03068E-03-2.99457E-14
 -1      4116 7.74929E-03 2.09628E-03-3.10870E-14
 -1      4117 7.59648E-03 2.03292E-03-2.91251E-14
 -1      4118 7.89058E-03 2.16204E-03-3.22438E-14
 -1      4119 8.03209E-03 2.22793E-03-3.34179E-14
 -1      4120 7.87829E-03 2.16450E-03-3.13961E-14
 -1      4121 8.17378E-03 2.29394E-03-3.46042E-14
 -1      4122 8.31564E-03 2.36005E-03-3.58060E-14
 -1      4123 8.16107E-03 2.29664E-03-3.37271E-14
 -1      4124 8.45764E-03 2.42625E-03-3.70238E-14
 -1      4125 8.59979E-03 2.49251E-03-3.82526E-14
 -1      4126 8.44463E-03 2.42916E-03-3.61181E-14
 -1      4127 8.74205E-03 2.55885E-03-3.94968E-14
 -1      4128 8.88442E-03 2.62524E-03-4.07538E-14
 -1      4129 8.72882E-03 2.56196E-03-3.85670E-14
 -1      4130 9.02687E-03 2.69168E-03-4.20223E-14
 -1      4131 9.16940E-03 2.75815E-03-4.33038E-14
 -1      4132 9.01348E-03 2.69495E-03-4.10661E-14
 -1      4133 9.31200E-03 2.82467E-03-4.45980E-14
 -1      4134 9.45466E-03 2.89121E-03-4.59016E-14
 -1      4135 9.29851E-03 2.82808E-03-4.36175E-14
 -1      4136 9.59736E-03 2.95779E-03-4.72183E-14
 -1      4137 9.74010E-03 3.02438E-03-4.85451E-14
 -1      4138 9.58379E-03 2.96130E-03-4.62159E-14
 -1      4139 9.88288E-03 3.09100E-03-4.98805E-14
 -1      4140 1.00257E-02 3.15763E-03-5.12278E-14
 -1      4141 9.86926E-03 3.09459E-03-4.88568E-14
 -1      4142 1.01685E-02 3.22428E-03-5.25836E-14
 -1      4143 1.03114E-02 3.29094E-03-5.39504E-14
 -1      4144 1.01549E-02 3.22793E-03-5.15405E-14
 -1      4145 1.04542E-02 3.35762E-03-5.53253E-14
 -1      4146 1.05971E-02 3.42430E-03-5.67086E-14
 -1      4147 1.04406E-02 3.36131E-03-5.42608E-14
 -1      4148 1.07400E-02 3.49099E-03-5.81018E-14
 -1      4149 1.08829E-02 3.55769E-03-5.95046E-14
 -1      4150 1.07263E-02 3.49471E-03-5.70202E-14
 -1      4151 1.10257E-02 3.62439E-03-6.09152E-14
 -1      4152 1.11686E-02 3.69110E-03-6.23362E-14
 -1      4153 1.10121E-02 3.62813E-03-5.98162E-14
 -1      4154 1.13115E-02 3.75781E-03-6.37690E-14
 -1      4155 1.14544E-02 3.82453E-03-6.52130E-14
 -1      4156 1.12978E-02 3.76156E-03-6.26509E-14
 -1      4157 1.15973E-02 3.89125E-03-6.66628E-14
 -1      4158 1.17402E-02 3.95797E-03-6.81222E-14
 -1      4159 1.15836E-02 3.89501E-03-6.55261E-14
 -1      4160 1.18831E-02 4.02470E-03-6.95958E-14
 -1      4161 1.20260E-02 4.09142E-03-7.10767E-14
 -1      4162 1.18694E-02 4.02846E-03-6.84425E-14
 -1      4163 1.21689E-02 4.15815E-03-7.25662E-14
 -1      4164 1.23118E-02 4.22488E-03-7.40667E-14
 -1      4165 1.21552E-02 4.16192E-03-7.14016E-14
 -1      4166 1.24546E-02 4.29161E-03-7.55736E-14
 -1      4167 1.25975E-02 4.35834E-03-7.70866E-14
 -1      4168 1.24410E-02 4.29537E-03-7.43939E-14
 -1      4169 1.27081E-02 4.40896E-03-7.83670E-14
 -1      4170 1.28510E-02 4.47570E-03-7.98930E-14
 -1      4171 1.29157E-02 4.51397E-03-7.97477E-14
 -1      4172 1.26945E-02 4.41273E-03-7.71775E-14
 -1      4173 7.89382E-03 2.21009E-03-2.78485E-14
 -1      4174 7.75365E-03 2.14309E-03-2.67649E-14
 -1      4175 1.32938E-02 4.72153E-03-8.05599E-14
 -1      4176 9.88112E-03 3.14931E-03-4.45275E-14
 -1      4177 9.73841E-03 3.08237E-03-4.32497E-14
 -1      4178 9.59576E-03 3.01540E-03-4.19838E-14
 -1      4179 9.45317E-03 2.94841E-03-4.07315E-14
 -1      4180 9.60934E-03 3.01217E-03-4.29636E-14
 -1      4181 1.04523E-02 3.41683E-03-4.97493E-14
 -1      4182 1.03094E-02 3.34998E-03-4.84276E-14
 -1      4183 1.07523E-02 3.55716E-03-5.25548E-14
 -1      4184 1.06023E-02 3.48700E-03-5.11467E-14
 -1      4185 1.04730E-02 3.41659E-03-5.08610E-14
 -1      4186 1.10380E-02 3.69075E-03-5.52698E-14
 -1      4187 1.08951E-02 3.62396E-03-5.39068E-14
 -1      4188 1.07659E-02 3.55351E-03-5.36200E-14
 -1      4189 1.13238E-02 3.82430E-03-5.80233E-14
 -1      4190 1.11809E-02 3.75753E-03-5.66411E-14
 -1      4191 1.10517E-02 3.68706E-03-5.63544E-14
 -1      4192 1.16096E-02 3.95782E-03-6.08212E-14
 -1      4193 1.14667E-02 3.89106E-03-5.94179E-14
 -1      4194 1.13374E-02 3.82058E-03-5.91277E-14
 -1      4195 1.18954E-02 4.09131E-03-6.36668E-14
 -1      4196 1.17525E-02 4.02457E-03-6.22380E-14
 -1      4197 1.16232E-02 3.95408E-03-6.19453E-14
 -1      4198 1.21812E-02 4.22479E-03-6.65582E-14
 -1      4199 1.20383E-02 4.15805E-03-6.51085E-14
 -1      4200 1.19090E-02 4.08756E-03-6.48089E-14
 -1      4201 1.24669E-02 4.35826E-03-6.94920E-14
 -1      4202 1.23240E-02 4.29153E-03-6.80194E-14
 -1      4203 1.21948E-02 4.22103E-03-6.77158E-14
 -1      4204 1.27527E-02 4.49172E-03-7.24619E-14
 -1      4205 1.26098E-02 4.42499E-03-7.09728E-14
 -1      4206 1.24806E-02 4.35450E-03-7.06650E-14
 -1      4207 1.30385E-02 4.62518E-03-7.54614E-14
 -1      4208 1.28956E-02 4.55845E-03-7.39600E-14
 -1      4209 1.27663E-02 4.48796E-03-7.36473E-14
 -1      4210 1.32921E-02 4.74381E-03-7.81238E-14
 -1      4211 1.31492E-02 4.67708E-03-7.66099E-14
 -1      4212 1.30200E-02 4.60659E-03-7.63010E-14
 -1      4213 1.32414E-02 4.71040E-03-7.86075E-14
 -1      4214 1.31308E-02 4.62267E-03-8.11977E-14
 -1      4215 8.74161E-03 2.61299E-03-3.46642E-14
 -1      4216 8.59971E-03 2.54582E-03-3.34920E-14
 -1      4217 9.02589E-03 2.74724E-03-3.70514E-14
 -1      4218 8.88368E-03 2.68013E-03-3.58510E-14
 -1      4219 8.75509E-03 2.61050E-03-3.55681E-14
 -1      4220 7.30565E-03 1.93963E-03-2.20670E-14
 -1      4221 7.16661E-03 1.87186E-03-2.10700E-14
 -1      4222 7.04331E-03 1.80718E-03-2.08319E-14
 -1      4223 7.31917E-03 1.94055E-03-2.28223E-14
 -1      4224 1.01666E-02 3.28311E-03-4.71172E-14
 -1      4225 1.00239E-02 3.21622E-03-4.58169E-14
 -1      4226 1.01802E-02 3.27962E-03-4.81411E-14
 -1      4227 5.68773E-03 1.17872E-03-1.23265E-14
 -1      4228 9.31065E-03 2.88138E-03-3.94929E-14
 -1      4229 9.16822E-03 2.81433E-03-3.82665E-14
 -1      4230 9.03942E-03 2.74445E-03-3.79827E-14
 -1      4231 9.32421E-03 2.87835E-03-4.04480E-14
 -1      4232 8.17530E-03 2.34430E-03-3.00605E-14
 -1      4233 8.03438E-03 2.27716E-03-2.89474E-14
 -1      4234 7.90689E-03 2.20892E-03-2.86733E-14
 -1      4235 5.00687E-03 8.89241E-04-1.19965E-14
 -1      4236 5.16585E-03 9.62663E-04-1.22388E-14
 -1      4237 6.78157E-03 1.67749E-03-1.96144E-14
 -1      4238 6.64432E-03 1.61216E-03-1.86535E-14
 -1      4239 5.81488E-03 1.23269E-03-1.32198E-14
 -1      4240 5.61536E-03 1.15205E-03-1.26877E-14
 -1      4241 7.61221E-03 2.07539E-03-2.56844E-14
 -1      4242 7.47132E-03 2.00787E-03-2.46215E-14
 -1      4243 7.62495E-03 2.07479E-03-2.64825E-14
 -1      4244 5.45985E-03 1.09045E-03-1.22357E-14
 -1      4245 5.36488E-03 1.05228E-03-1.21347E-14
 -1      4246 5.26989E-03 1.01077E-03-1.22067E-14
 -1      4247 5.59492E-03 1.14348E-03-1.31296E-14
 -1      4248 1.31569E-02 4.64615E-03-8.02975E-14
 -1      4249 1.32153E-02 4.68693E-03-7.95095E-14
 -1      4250 1.31046E-02 4.63502E-03-7.83491E-14
 -1      4251 1.30524E-02 4.58807E-03-8.01442E-14
 -1      4252 9.89471E-03 3.14593E-03-4.55305E-14
 -1      4253 5.93814E-03 1.28655E-03-1.40339E-14
 -1      4254 6.51172E-03 1.54948E-03-1.77359E-14
 -1      4255 6.38064E-03 1.48788E-03-1.68404E-14
 -1      4256 6.52113E-03 1.55162E-03-1.84256E-14
 -1      4257 8.45800E-03 2.47865E-03-3.23336E-14
 -1      4258 8.31652E-03 2.41147E-03-3.11891E-14
 -1      4259 8.18858E-03 2.34263E-03-3.09130E-14
 -1      4260 8.47140E-03 2.47654E-03-3.32113E-14
 -1      4261 6.91751E-03 1.74238E-03-2.05765E-14
 -1      4262 6.79065E-03 1.67817E-03-2.03157E-14
 -1      4263 7.05447E-03 1.80798E-03-2.15579E-14
 -1      4264 5.66031E-03 1.16444E-03-1.46273E-14
 -1      4265 5.79603E-03 1.22092E-03-1.54804E-14
 -1      4266 5.93143E-03 1.27859E-03-1.63523E-14
 -1      4267 6.06707E-03 1.33743E-03-1.72434E-14
 -1      4268 5.93240E-03 1.28245E-03-1.57249E-14
 -1      4269 6.20282E-03 1.39735E-03-1.81537E-14
 -1      4270 6.33902E-03 1.45824E-03-1.90823E-14
 -1      4271 6.19962E-03 1.39957E-03-1.74954E-14
 -1      4272 6.47556E-03 1.52002E-03-2.00321E-14
 -1      4273 6.61261E-03 1.58256E-03-2.10009E-14
 -1      4274 6.46933E-03 1.52137E-03-1.93437E-14
 -1      4275 6.75010E-03 1.64580E-03-2.19881E-14
 -1      4276 6.88811E-03 1.70962E-03-2.29968E-14
 -1      4277 6.74171E-03 1.64683E-03-2.12696E-14
 -1      4278 7.02657E-03 1.77394E-03-2.40226E-14
 -1      4279 7.16550E-03 1.83868E-03-2.50683E-14
 -1      4280 7.01662E-03 1.77498E-03-2.32718E-14
 -1      4281 7.30484E-03 1.90379E-03-2.61322E-14
 -1      4282 7.44460E-03 1.96918E-03-2.72122E-14
 -1      4283 7.29380E-03 1.90504E-03-2.53515E-14
 -1      4284 7.58472E-03 2.03483E-03-2.83098E-14
 -1      4285 7.72519E-03 2.10067E-03-2.94243E-14
 -1      4286 7.57290E-03 2.03639E-03-2.75011E-14
 -1      4287 7.86597E-03 2.16670E-03-3.05539E-14
 -1      4288 8.00703E-03 2.23285E-03-3.16976E-14
 -1      4289 7.85359E-03 2.16861E-03-2.97169E-14
 -1      4290 8.14834E-03 2.29912E-03-3.28577E-14
 -1      4291 8.28988E-03 2.36547E-03-3.40314E-14
 -1      4292 8.13557E-03 2.30137E-03-3.19945E-14
 -1      4293 8.43161E-03 2.43191E-03-3.52203E-14
 -1      4294 8.57352E-03 2.49840E-03-3.64252E-14
 -1      4295 8.41856E-03 2.43447E-03-3.43301E-14
 -1      4296 8.71559E-03 2.56494E-03-3.76420E-14
 -1      4297 8.85779E-03 2.63151E-03-3.88733E-14
 -1      4298 8.70234E-03 2.56776E-03-3.67237E-14
 -1      4299 9.00010E-03 2.69812E-03-4.01161E-14
 -1      4300 9.14252E-03 2.76475E-03-4.13726E-14
 -1      4301 8.98671E-03 2.70117E-03-3.91729E-14
 -1      4302 9.28502E-03 2.83140E-03-4.26426E-14
 -1      4303 9.42760E-03 2.89807E-03-4.39242E-14
 -1      4304 9.27154E-03 2.83464E-03-4.16740E-14
 -1      4305 9.57023E-03 2.96475E-03-4.52165E-14
 -1      4306 9.71293E-03 3.03143E-03-4.65215E-14
 -1      4307 9.55668E-03 2.96813E-03-4.42242E-14
 -1      4308 9.85566E-03 3.09813E-03-4.78390E-14
 -1      4309 9.99843E-03 3.16484E-03-4.91649E-14
 -1      4310 9.84206E-03 3.10163E-03-4.68237E-14
 -1      4311 1.01412E-02 3.23154E-03-5.04998E-14
 -1      4312 1.02841E-02 3.29826E-03-5.18458E-14
 -1      4313 1.01276E-02 3.23512E-03-4.94673E-14
 -1      4314 1.04269E-02 3.36497E-03-5.32014E-14
 -1      4315 1.05698E-02 3.43169E-03-5.45665E-14
 -1      4316 1.04133E-02 3.36861E-03-5.21465E-14
 -1      4317 1.07126E-02 3.49841E-03-5.59420E-14
 -1      4318 1.08555E-02 3.56513E-03-5.73259E-14
 -1      4319 1.06990E-02 3.50210E-03-5.48675E-14
 -1      4320 1.09984E-02 3.63186E-03-5.87199E-14
 -1      4321 1.11413E-02 3.69858E-03-6.01221E-14
 -1      4322 1.09847E-02 3.63558E-03-5.76276E-14
 -1      4323 1.12842E-02 3.76531E-03-6.15357E-14
 -1      4324 1.14271E-02 3.83204E-03-6.29610E-14
 -1      4325 1.12705E-02 3.76905E-03-6.04266E-14
 -1      4326 1.15700E-02 3.89877E-03-6.43939E-14
 -1      4327 1.17129E-02 3.96549E-03-6.58369E-14
 -1      4328 1.15563E-02 3.90252E-03-6.32634E-14
 -1      4329 1.18558E-02 4.03222E-03-6.72948E-14
 -1      4330 1.19987E-02 4.09895E-03-6.87615E-14
 -1      4331 1.18421E-02 4.03598E-03-6.61479E-14
 -1      4332 1.21415E-02 4.16568E-03-7.02362E-14
 -1      4333 1.22844E-02 4.23241E-03-7.17227E-14
 -1      4334 1.21279E-02 4.16944E-03-6.90757E-14
 -1      4335 1.24273E-02 4.29914E-03-7.32166E-14
 -1      4336 1.25702E-02 4.36587E-03-7.47188E-14
 -1      4337 1.24137E-02 4.30290E-03-7.20423E-14
 -1      4338 9.58302E-03 2.99016E-03-4.35937E-14
 -1      4339 9.44042E-03 2.92334E-03-4.23207E-14
 -1      4340 1.07324E-02 3.52781E-03-5.42438E-14
 -1      4341 1.05896E-02 3.46104E-03-5.28849E-14
 -1      4342 1.04467E-02 3.39427E-03-5.15368E-14
 -1      4343 1.02967E-02 3.32416E-03-5.01318E-14
 -1      4344 1.13040E-02 3.79482E-03-5.97783E-14
 -1      4345 1.11611E-02 3.72807E-03-5.83785E-14
 -1      4346 1.15898E-02 3.92830E-03-6.26055E-14
 -1      4347 1.14469E-02 3.86156E-03-6.11867E-14
 -1      4348 1.18756E-02 4.06177E-03-6.54780E-14
 -1      4349 1.17327E-02 3.99504E-03-6.40348E-14
 -1      4350 1.21613E-02 4.19524E-03-6.83961E-14
 -1      4351 1.20184E-02 4.12851E-03-6.69337E-14
 -1      4352 1.24471E-02 4.32870E-03-7.13528E-14
 -1      4353 1.23042E-02 4.26197E-03-6.98700E-14
 -1      4354 1.27329E-02 4.46216E-03-7.43447E-14
 -1      4355 1.25900E-02 4.39543E-03-7.28452E-14
 -1      4356 8.44505E-03 2.45555E-03-3.37710E-14
 -1      4357 8.30349E-03 2.38878E-03-3.26042E-14
 -1      4358 8.72876E-03 2.58917E-03-3.61455E-14
 -1      4359 8.58681E-03 2.52234E-03-3.49508E-14
 -1      4360 9.86839E-03 3.12379E-03-4.61758E-14
 -1      4361 9.72568E-03 3.05698E-03-4.48789E-14
 -1      4362 5.33626E-03 1.03478E-03-1.27057E-14
 -1      4363 1.10182E-02 3.66132E-03-5.69921E-14
 -1      4364 1.08753E-02 3.59457E-03-5.56139E-14
 -1      4365 1.01539E-02 3.25738E-03-4.88042E-14
 -1      4366 1.00111E-02 3.19059E-03-4.74864E-14
 -1      4367 6.25112E-03 1.42775E-03-1.59638E-14
 -1      4368 6.12354E-03 1.36912E-03-1.51051E-14
 -1      4369 6.25717E-03 1.42979E-03-1.66206E-14
 -1      4370 5.93721E-03 1.28701E-03-1.46543E-14
 -1      4371 5.47391E-03 1.08894E-03-1.35142E-14
 -1      4372 7.59998E-03 2.05613E-03-2.69992E-14
 -1      4373 7.45868E-03 1.98922E-03-2.59113E-14
 -1      4374 5.61805E-03 1.15118E-03-1.37514E-14
 -1      4375 5.96586E-03 1.29893E-03-1.53091E-14
 -1      4376 5.77275E-03 1.21629E-03-1.42263E-14
 -1      4377 8.16217E-03 2.32206E-03-3.14534E-14
 -1      4378 8.02111E-03 2.25540E-03-3.03168E-14
 -1      4379 6.76696E-03 1.66303E-03-2.07963E-14
 -1      4380 6.63045E-03 1.59934E-03-1.98278E-14
 -1      4381 9.01309E-03 2.72284E-03-3.85777E-14
 -1      4382 8.87086E-03 2.65600E-03-3.73542E-14
 -1      4383 1.29418E-02 4.53745E-03-7.88544E-14
 -1      4384 9.29789E-03 2.85651E-03-4.10604E-14
 -1      4385 1.27007E-02 4.42635E-03-7.61421E-14
 -1      4386 1.28113E-02 4.47697E-03-7.74201E-14
 -1      4387 1.29480E-02 4.55107E-03-7.78106E-14
 -1      4388 1.26870E-02 4.43011E-03-7.49566E-14
 -1      4389 7.34410E-03 1.94103E-03-2.43520E-14
 -1      4390 7.33191E-03 1.94103E-03-2.35846E-14
 -1      4391 7.19322E-03 1.87449E-03-2.25652E-14
 -1      4392 7.88037E-03 2.18885E-03-2.91945E-14
 -1      4393 7.73998E-03 2.12240E-03-2.80892E-14
 -1      4394 1.29741E-02 4.57454E-03-7.69201E-14
 -1      4395 1.28634E-02 4.52264E-03-7.57677E-14
 -1      4396 9.15544E-03 2.78967E-03-3.98131E-14
 -1      4397 6.49563E-03 1.53695E-03-1.88847E-14
 -1      4398 6.36177E-03 1.47551E-03-1.79614E-14
 -1      4399 6.09690E-03 1.35634E-03-1.61739E-14
 -1      4400 6.22880E-03 1.41529E-03-1.70574E-14
 -1      4401 6.90344E-03 1.72700E-03-2.17777E-14
 -1      4402 7.04236E-03 1.79242E-03-2.27912E-14
 -1      4403 7.18025E-03 1.85750E-03-2.38102E-14
 -1      4404 7.31962E-03 1.92341E-03-2.48544E-14
 -1      4405 7.06578E-03 1.80857E-03-2.22968E-14
 -3
    1PSTEP                         2           1           1          
  100CL  101 1.000000000        4405                     0    1           1
 -4  STRESS      6    1
 -5  SXX         1    4    1    1
 -5  SYY         1    4    2    2
 -5  SZZ         1    4    3    3
 -5  SXY         1    4    1    2
 -5  SYZ         1    4    2    3
 -5  SZX         1    4    3    1
 -1         1 5.13767E+01 6.64031E+00 2.71225E+00-1.74143E+01-9.21888E-13 2.55351E-12
 -1         2-7.01301E-01-2.50059E+01-3.42504E+00-1.86049E-01 2.12468E-12 8.61637E-14
 -1         3 1.99998E+01 6.80717E-06-2.53908E-05 7.24941E-06 7.68627E-13 5.62020E-13
 -1         4 1.99998E+01 6.14523E-06-2.61016E-05-6.35803E-06-1.94667E-13 4.81195E-13
 -1         5 4.07397E+01 7.78492E+00 2.95746E+00 6.57535E+00-4.13003E-14 2.65449E-12
 -1         6 3.86351E+01 1.32816E+01 5.63663E+00-9.41590E+00-2.33591E-13 1.48126E-12
 -1         7 2.20418E+01 6.46761E+00-1.81830E-01-5.26649E+00-3.18634E-14-5.18832E-13
 -1         8 2.08999E+01 6.31051E+00 4.69565E-02-3.75042E+00-1.09496E-14-9.15276E-13
 -1         9 2.04828E+01 6.17696E+00 7.61659E-02-2.85606E+00-4.13385E-15-1.02806E-12
 -1        10 2.03292E+01 6.11870E+00 1.11129E-01-1.98495E+00 8.67709E-15-9.98864E-13
 -1        11 2.01083E+01 6.04409E+00 1.41070E-01-1.03521E+00 1.63411E-14-9.11870E-13
 -1        12 1.96175E+01 5.89365E+00 1.60056E-01-2.50475E-02 1.58207E-14-8.02137E-13
 -1        13 1.86902E+01 5.61747E+00 1.54799E-01 1.00447E+00 2.15730E-14-6.81288E-13
 -1        14 1.72933E+01 5.20669E+00 1.08414E-01 1.87569E+00 2.57641E-14-5.89661E-13
 -1        15 1.55982E+01 4.71201E+00 1.51508E-02 2.37221E+00 2.94070E-14-5.32191E-13
 -1        16 1.40540E+01 4.26461E+00-1.03182E-01 2.32228E+00 2.72768E-14-4.91996E-13
 -1        17 1.33030E+01 4.05254E+00-1.94897E-01 1.74210E+00 2.92667E-14-4.43394E-13
 -1        18 1.38562E+01 4.22330E+00-2.12484E-01 9.23792E-01 2.84842E-14-3.54448E-13
 -1        19 1.58816E+01 4.82680E+00-1.44500E-01 2.73096E-01 3.48471E-14-1.85602E-13
 -1        20 1.90828E+01 5.77436E+00-1.99909E-02 2.09313E-01 3.74145E-14 9.26401E-14
 -1        21 2.29942E+01 6.91968E+00 1.36941E-01 1.02326E+00 3.58880E-14 5.65658E-13
 -1        22 2.75043E+01 8.10328E+00 3.71120E-01 3.19390E+00 8.46545E-15 1.32604E-12
 -1        23 2.44625E+01-1.45685E+00-9.93516E-01-8.21317E-01-1.63175E-13 7.26835E-13
 -1        24 2.00965E+01-9.86303E-02-3.21854E-01 5.50992E-02-3.31540E-14 1.40953E-13
 -1        25 1.87921E+01-5.22057E-02-5.87161E-02 4.38104E-02-2.69411E-14-3.82566E-13
 -1        26 1.78407E+01-2.00574E-02 2.32145E-03 4.29949E-03-1.37156E-14-8.09117E-13
 -1        27 1.70262E+01-1.66912E-02-2.68274E-03-1.07390E-02-3.11817E-16-1.03775E-12
 -1        28 1.63806E+01-1.93208E-02-1.86261E-02-1.24571E-02-2.59959E-15-1.14606E-12
 -1        29 1.60144E+01-2.24051E-02-3.11036E-02-3.09656E-03 1.43340E-14-1.26808E-12
 -1        30 1.60245E+01-2.23560E-02-3.46232E-02 1.25452E-02-2.59775E-15-1.37022E-12
 -1        31 1.64310E+01-1.79221E-02-2.81482E-02 2.80319E-02-1.12306E-14-1.67181E-12
 -1        32 1.71570E+01-1.01439E-02-1.47110E-02 3.78173E-02 1.25757E-14-1.85197E-12
 -1        33 1.80553E+01-1.43350E-03 3.46434E-04 3.94922E-02 1.06362E-14-1.88289E-12
 -1        34 1.89612E+01 5.80451E-03 1.21977E-02 3.41332E-02 5.79848E-15-1.76513E-12
 -1        35 1.97431E+01 1.01842E-02 1.84664E-02 2.48658E-02-2.67493E-14-1.74787E-12
 -1        36 2.03275E+01 1.15639E-02 1.93705E-02 1.49657E-02 5.77641E-15-1.73912E-12
 -1        37 2.06986E+01 1.06587E-02 1.66389E-02 6.64816E-03-2.08990E-14-1.72073E-12
 -1        38 2.08810E+01 8.47739E-03 1.22774E-02 8.20312E-04-4.43715E-15-1.73235E-12
 -1        39 2.09197E+01 5.90561E-03 7.81425E-03-2.57501E-03 2.85832E-14-1.70193E-12
 -1        40 2.08628E+01 3.52897E-03 4.09394E-03-4.07419E-03-6.10062E-15-1.69576E-12
 -1        41 2.07524E+01 1.63432E-03 1.40225E-03-4.32135E-03-7.90068E-15-1.91284E-12
 -1        42 2.06201E+01 2.91571E-04-3.12899E-04-3.86996E-03-5.71492E-15-1.93448E-12
 -1        43 2.04872E+01-5.53370E-04-1.25239E-03-3.11695E-03-4.01690E-14-1.89116E-12
 -1        44 2.03663E+01-1.00665E-03-1.64628E-03-2.30963E-03-1.47111E-15-1.74298E-12
 -1        45 2.02635E+01-1.18195E-03-1.69517E-03-1.58053E-03-1.61242E-14-1.78994E-12
 -1        46 2.01803E+01-1.17827E-03-1.55094E-03-9.85484E-04 2.18772E-14-1.97351E-12
 -1        47 2.01159E+01-1.07205E-03-1.31766E-03-5.34740E-04-3.07929E-14-1.78933E-12
 -1        48 2.00680E+01-9.17339E-04-1.06062E-03-2.14910E-04 1.76312E-14-1.59694E-12
 -1        49 2.00338E+01-7.49371E-04-8.16902E-04-2.85023E-06 7.95553E-15-1.77153E-12
 -1        50 2.00105E+01-5.89088E-04-6.04638E-04 1.26367E-04-4.56227E-14-1.98328E-12
 -1        51 1.99954E+01-4.47397E-04-4.30123E-04 1.95415E-04 1.11880E-14-1.77208E-12
 -1        52 1.99865E+01-3.28610E-04-2.92859E-04 2.23079E-04-6.22268E-15-1.51400E-12
 -1        53 1.99820E+01-2.33025E-04-1.88885E-04 2.23956E-04-6.54915E-15-1.75730E-12
 -1        54 1.99803E+01-1.58722E-04-1.12848E-04 2.08828E-04 3.16284E-14-1.79473E-12
 -1        55 1.99806E+01-1.02754E-04-5.92111E-05 1.85301E-04-3.65083E-14-1.47135E-12
 -1        56 1.99820E+01-6.18844E-05-2.28868E-05 1.58491E-04 6.59907E-14-1.40156E-12
 -1        57 1.99840E+01-3.30096E-05 4.84459E-07 1.31651E-04-2.52187E-14-1.61501E-12
 -1        58 1.99863E+01-1.33741E-05 1.44622E-05 1.06697E-04 1.47628E-13-1.45995E-12
 -1        59 1.99885E+01-6.53414E-07 2.18475E-05 8.46196E-05 1.07222E-15-1.05570E-12
 -1        60 1.99906E+01 7.04017E-06 2.47781E-05 6.58003E-05 1.20378E-14-6.03361E-13
 -1        61 1.99925E+01 1.11939E-05 2.48414E-05 5.02378E-05 6.19218E-14-6.06068E-13
 -1        62 1.99941E+01 1.29505E-05 2.31868E-05 3.77085E-05-1.14120E-13-9.04116E-13
 -1        63 1.99955E+01 1.31691E-05 2.06288E-05 2.78748E-05-1.06802E-13-1.38497E-12
 -1        64 1.99966E+01 1.24855E-05 1.77364E-05 2.03525E-05 1.34279E-13-1.41405E-12
 -1        65 1.99975E+01 1.13664E-05 1.49155E-05 1.47487E-05-3.32619E-14-1.14156E-12
 -1        66 1.99983E+01 1.01532E-05 1.24914E-05 1.06674E-05 2.33306E-13-1.01477E-12
 -1        67 1.99988E+01 9.09571E-06 1.08056E-05 7.67414E-06 8.45877E-15-6.24625E-13
 -1        68 1.99993E+01 8.34870E-06 1.02227E-05 5.21362E-06 9.12869E-14-4.37089E-13
 -1        69 1.99996E+01 7.84597E-06 1.08307E-05 2.37663E-06-3.50491E-14-3.42404E-13
 -1        70 1.99998E+01 6.35746E-06 1.04946E-05-2.91923E-06 1.92692E-13-6.88294E-14
 -1        71 1.99998E+01-1.15805E-06-7.94712E-07-9.82597E-06 6.27731E-14 6.27586E-13
 -1        72 3.08029E+01-5.01680E-01-1.11136E+00-6.31613E-01 3.28522E-14 2.63795E-12
 -1        73 3.17582E+01-3.65503E-02-2.28611E-01-1.69037E-01 2.01176E-14 2.38030E-12
 -1        74 3.29858E+01 4.63251E-02 9.39901E-02-1.48428E-01-1.39905E-15 2.25948E-12
 -1        75 3.33261E+01 7.97122E-02 2.97487E-01-9.81610E-02 3.67675E-15 2.34356E-12
 -1        76 3.10807E+01 3.21100E-02 3.22193E-01 1.37534E-01-2.14204E-14 2.50144E-12
 -1        77 2.54381E+01-8.19000E-02-5.39337E-02 5.00296E-01 4.00548E-15 2.60125E-12
 -1        78 1.89537E+01-1.34045E-01-6.71268E-01 5.71893E-01-3.81535E-14 2.75879E-12
 -1        79 1.68746E+01-7.24343E-02-8.47039E-01 4.77050E-02 5.24268E-14 2.37934E-12
 -1        80 2.04759E+01 1.17415E-03-4.61216E-01-4.21701E-01-1.02275E-14 1.87116E-12
 -1        81 2.66852E+01 5.91228E-02 8.98201E-02-5.28699E-01 3.26818E-14 1.31262E-12
 -1        82 3.12843E+01 6.21737E-02 3.32719E-01-2.93737E-01-2.06918E-14 1.14826E-12
 -1        83 3.23916E+01 4.07235E-02 2.55669E-01-4.98594E-02 5.60212E-14 1.02842E-12
 -1        84 3.10827E+01 1.37295E-02 1.00544E-01 6.45317E-02-2.35127E-14 9.65485E-13
 -1        85 2.88629E+01-4.32236E-03-1.04546E-03 8.78468E-02 3.78717E-14 1.15003E-12
 -1        86 2.66517E+01-1.20714E-02-3.99457E-02 7.45665E-02 4.51455E-14 1.34719E-12
 -1        87 2.48124E+01-1.34294E-02-4.43789E-02 5.39373E-02-2.49130E-14 1.31684E-12
 -1        88 2.34065E+01-1.19032E-02-3.64178E-02 3.63171E-02 5.43730E-14 1.32588E-12
 -1        89 2.23776E+01-9.54889E-03-2.66602E-02 2.36301E-02-5.26405E-14 1.05242E-12
 -1        90 2.16416E+01-7.27930E-03-1.85955E-02 1.51273E-02 6.23595E-14 1.01261E-12
 -1        91 2.11214E+01-5.39891E-03-1.27291E-02 9.60741E-03-3.95757E-14 8.58943E-13
 -1        92 2.07564E+01-3.97015E-03-8.68249E-03 6.08066E-03-8.13734E-15 1.10177E-12
 -1        93 2.05009E+01-2.89598E-03-5.98434E-03 4.04379E-03-2.43823E-14 1.21193E-12
 -1        94 2.03169E+01-1.97777E-03-3.94285E-03 2.21274E-03 1.01480E-14 7.62851E-13
 -1        95 2.01971E+01-1.47261E-03-2.73889E-03 1.37978E-03-1.76626E-14 9.03158E-13
 -1        96 2.01154E+01-1.05595E-03-1.88608E-03 7.99647E-04 2.90985E-14 1.04063E-12
 -1        97 2.00605E+01-7.55272E-04-1.29448E-03 4.22762E-04 4.38836E-14 8.25529E-13
 -1        98 2.00246E+01-5.36325E-04-8.80885E-04 1.83313E-04-5.60348E-14 1.00426E-12
 -1        99 2.00019E+01-3.76861E-04-5.90622E-04 3.45420E-05-2.26760E-14 8.85427E-13
 -1       100 1.99884E+01-2.60894E-04-3.86696E-04-5.41314E-05-2.59950E-15 1.44514E-12
 -1       101 1.99811E+01-1.76894E-04-2.43890E-04-1.03001E-04 8.42293E-14 1.57809E-12
 -1       102 1.99780E+01-1.16477E-04-1.44753E-04-1.25748E-04-8.60580E-14 1.31347E-12
 -1       103 1.99775E+01-7.34881E-05-7.69800E-05-1.31708E-04 3.18798E-14 9.55399E-13
 -1       104 1.99786E+01-4.33601E-05-3.17470E-05-1.27289E-04-9.67242E-14 4.10581E-13
 -1       105 1.99806E+01-2.26636E-05-2.63595E-06-1.16889E-04 1.99242E-14 9.04268E-13
 -1       106 1.99831E+01-8.58232E-06 1.50273E-05-1.03396E-04 4.64071E-14 4.57337E-13
 -1       107 1.99856E+01-5.12641E-07 2.49919E-05-8.86620E-05 1.03352E-13 1.07192E-13
 -1       108 1.99882E+01 5.29165E-06 2.89287E-05-7.48550E-05-2.42363E-13 5.76595E-13
 -1       109 1.99904E+01 8.13674E-06 2.99112E-05-6.08901E-05 1.30645E-13 1.23790E-12
 -1       110 1.99923E+01 9.23098E-06 2.83180E-05-4.93016E-05 1.42143E-13-1.66752E-13
 -1       111 1.99940E+01 9.32127E-06 2.55845E-05-3.92547E-05 8.64879E-14-9.08797E-13
 -1       112 1.99954E+01 8.80124E-06 2.22958E-05-3.08497E-05-2.58565E-14-4.25416E-13
 -1       113 1.99966E+01 7.97824E-06 1.89067E-05-2.40231E-05-1.09158E-13 5.83625E-13
 -1       114 1.99975E+01 7.07727E-06 1.57493E-05-1.86507E-05-9.52244E-15 1.49874E-12
 -1       115 1.99982E+01 6.26430E-06 1.30973E-05-1.45717E-05 2.43969E-14 1.70724E-12
 -1       116 1.99988E+01 5.65895E-06 1.12518E-05-1.15820E-05 1.52251E-13 1.23179E-12
 -1       117 1.99993E+01 5.30950E-06 1.05797E-05-9.34604E-06 1.81735E-13 7.41945E-13
 -1       118 1.99996E+01 5.11911E-06 1.11711E-05-7.18492E-06-1.08906E-13 5.42477E-13
 -1       119 1.99998E+01 4.13156E-06 1.09358E-05-3.03802E-06-4.92317E-15 1.22207E-12
 -1       120 1.99998E+01-4.26882E-06-7.80928E-07 6.75959E-06-2.26777E-13 1.33373E-12
 -1       121 1.99998E+01 2.32628E-05-6.44541E-07 1.09497E-05 1.48852E-12-1.15891E-13
 -1       122 1.99998E+01-2.59114E-05 1.09093E-05 8.84237E-08 9.20769E-13-1.05975E-13
 -1       123 1.99998E+01-2.08902E-04 8.38428E-06-6.69641E-06 7.45464E-13-3.17654E-14
 -1       124 1.99998E+01-4.74127E-04 3.12632E-06-9.64259E-06 2.39345E-13 1.37503E-13
 -1       125 1.99998E+01-7.66934E-04-1.81869E-06-9.86066E-06 2.59775E-13-1.71846E-13
 -1       126 1.99998E+01-1.03249E-03-5.71648E-06-8.35548E-06-7.58219E-13 6.98669E-15
 -1       127 1.99998E+01-1.23749E-03-8.37816E-06-5.50176E-06-1.38785E-13 5.85845E-14
 -1       128 1.99998E+01-1.34727E-03-9.73448E-06-1.89731E-06 7.97782E-14 1.46771E-13
 -1       129 1.99998E+01-1.34642E-03-9.72205E-06 1.94560E-06 9.11965E-13 1.36411E-13
 -1       130 1.99998E+01-1.23507E-03-8.34502E-06 5.52980E-06 8.86136E-14-1.11276E-13
 -1       131 1.99998E+01-1.02900E-03-5.61941E-06 8.44201E-06-1.41973E-12-2.53772E-13
 -1       132 1.99998E+01-7.63034E-04-1.77176E-06 9.86601E-06-2.73347E-12 1.72155E-13
 -1       133 1.99998E+01-4.70431E-04 3.15688E-06 9.57464E-06-1.17620E-12 1.45299E-13
 -1       134 1.99998E+01-2.05097E-04 8.90580E-06 7.38451E-06 4.18208E-14 1.64250E-13
 -1       135 1.99998E+01-2.72901E-05 9.61467E-06-9.41278E-09 4.34056E-13-1.26458E-13
 -1       136 1.99998E+01 2.15206E-05-8.77760E-07-1.79541E-05-3.83523E-13-4.24290E-13
 -1       137-1.64362E+00-2.18672E+01-3.37944E+00-4.33182E+00 3.46750E-12 8.13502E-13
 -1       138-2.20091E+00-1.12790E+01-2.82876E+00-4.19488E+00 3.97071E-12 1.85435E-12
 -1       139 2.11767E+00 1.49610E+00-1.67429E+00 2.37714E+00 2.97923E-12 2.16976E-12
 -1       140 1.93628E+01 1.01571E+01 2.71158E-01 1.40082E+01 1.41798E-12 1.64513E-12
 -1       141 4.20521E+01 9.67916E+00 2.25135E+00 1.96146E+01 3.39728E-13 6.75904E-13
 -1       142 6.43866E+01 4.67556E+00 3.98699E+00 1.51106E+01-1.27828E-13-7.52121E-13
 -1       143 7.55467E+01 1.36588E+00 4.81430E+00 1.74879E+00 1.80203E-14-2.25886E-12
 -1       144 6.77550E+01 3.38726E+00 4.21116E+00-1.24652E+01 6.68278E-13-3.36287E-12
 -1       145 4.51617E+01 8.32999E+00 2.41647E+00-1.85920E+01 1.52722E-12-3.52340E-12
 -1       146 2.17074E+01 9.91376E+00 3.60619E-01-1.46090E+01 2.28240E-12-3.10385E-12
 -1       147 5.39497E+00 4.42824E+00-1.41484E+00-5.26884E+00 2.37443E-12-2.21989E-12
 -1       148-1.87258E+00-7.40632E+00-2.68306E+00 2.87632E+00 1.89354E-12-1.10725E-12
 -1       149-2.13125E+00-1.80949E+01-3.19724E+00 4.84681E+00 8.53428E-13-3.02959E-13
 -1       150-7.82177E-01-2.20484E+01-3.15337E+00 1.44726E+00-3.96475E-13-1.85199E-14
 -1       151-9.26890E-01-1.76779E+01-2.74085E+00-2.15618E+00-1.64879E-12-2.84942E-13
 -1       152-9.15002E-01-6.60534E+00-2.00753E+00-1.83858E+00-2.50849E-12-9.91901E-13
 -1       153 3.12816E+00 4.89326E+00-9.99850E-01 4.13669E+00-2.50910E-12-1.70575E-12
 -1       154 1.48530E+01 1.13846E+01 2.11083E-01 1.29152E+01-1.92285E-12-2.04720E-12
 -1       155 3.24332E+01 1.09756E+01 1.46011E+00 1.84514E+01-1.11083E-12-1.80483E-12
 -1       156 5.27286E+01 5.84983E+00 2.62865E+00 1.64860E+01-3.24879E-13-7.41851E-13
 -1       157 6.54303E+01 1.22111E+00 3.29134E+00 5.89604E+00 2.00864E-14 6.72629E-13
 -1       158 6.46893E+01 1.77010E+00 3.31464E+00-7.98309E+00-2.24145E-13 1.80841E-12
 -1       159 3.24122E+01 1.14374E+01 1.67036E+00-1.87792E+01-1.69165E-12 2.66953E-12
 -1       160 1.39865E+01 1.10567E+01 3.04105E-01-1.23598E+01-2.08822E-12 2.25042E-12
 -1       161 2.97390E+00 3.84716E+00-1.03395E+00-3.69113E+00-1.68732E-12 1.26216E-12
 -1       162-1.32904E+00-8.41261E+00-2.21673E+00 2.70255E+00-7.83096E-13 3.75366E-13
 -1       163-1.16921E+00-1.95953E+01-3.02575E+00 3.41072E+00 5.74152E-13-1.03924E-13
 -1       164 2.22492E+01 3.91713E+00-6.92938E-02-4.18659E+00-3.32113E-13-6.17645E-13
 -1       165 2.13941E+01 4.29036E+00-5.58248E-02-3.30497E+00-1.73156E-13-8.17495E-13
 -1       166 2.11555E+01 4.35982E+00-3.92793E-02-2.50119E+00-3.77628E-14-8.51359E-13
 -1       167 2.10640E+01 4.23632E+00-3.01819E-02-1.65056E+00 7.23048E-14-8.14874E-13
 -1       168 2.07984E+01 4.03367E+00-2.50208E-02-7.24777E-01 1.57593E-13-7.10298E-13
 -1       169 2.01151E+01 3.82465E+00-2.11688E-02 2.94217E-01 2.26380E-13-6.00478E-13
 -1       170 1.88330E+01 3.73372E+00-1.82053E-02 1.30384E+00 3.07021E-13-5.01358E-13
 -1       171 1.69458E+01 3.88146E+00-1.65784E-02 2.11533E+00 3.73852E-13-4.46469E-13
 -1       172 1.47858E+01 4.29679E+00-1.61102E-02 2.48082E+00 4.16459E-13-4.16341E-13
 -1       173 1.30846E+01 4.83001E+00-1.73191E-02 2.24134E+00 4.26797E-13-4.04968E-13
 -1       174 1.27127E+01 5.20415E+00-1.95546E-02 1.53500E+00 4.11572E-13-3.51729E-13
 -1       175 1.41762E+01 5.25004E+00-2.55246E-02 7.56802E-01 3.96622E-13-2.42093E-13
 -1       176 1.73577E+01 5.00049E+00-3.56694E-02 4.03229E-01 3.71515E-13-3.20794E-14
 -1       177 2.16672E+01 4.57010E+00-4.49595E-02 7.42828E-01 3.36193E-13 3.10984E-13
 -1       178 2.67020E+01 3.66924E+00-4.05655E-02 1.70412E+00 2.53186E-13 8.47468E-13
 -1       179 3.06276E+01 9.01354E-01-3.53362E-01 1.64293E+00 1.42905E-13 1.45123E-12
 -1       180 2.31211E+01 8.95170E-01-2.82111E-03-2.40649E+00-3.20632E-13-1.99250E-13
 -1       181 2.11783E+01 1.49639E-01-1.29653E-02-1.24768E+00-2.84330E-13-3.17601E-13
 -1       182 1.99129E+01 6.48250E-02 1.39767E-02-8.55130E-01-2.34375E-13-3.98231E-13
 -1       183 1.90371E+01 4.28678E-02 1.15292E-02-6.85191E-01-1.47265E-13-5.00464E-13
 -1       184 1.83807E+01 6.75441E-02 7.31998E-03-5.24558E-01-9.74277E-14-5.89749E-13
 -1       185 1.79428E+01 1.01944E-01 5.10629E-03-2.98500E-01-8.36137E-14-6.59420E-13
 -1       186 1.77587E+01 1.21270E-01 4.07703E-03-1.04656E-02-5.95366E-14-7.07413E-13
 -1       187 1.78472E+01 1.12095E-01 3.35247E-03 2.87043E-01-1.48752E-13-7.23122E-13
 -1       188 1.81790E+01 7.58323E-02 2.52534E-03 5.25595E-01-1.18054E-13-7.65861E-13
 -1       189 1.86762E+01 2.60730E-02 1.48285E-03 6.55173E-01-1.29042E-14-8.28284E-13
 -1       190 1.92366E+01-2.02004E-02 3.19925E-04 6.63831E-01 4.38718E-14-8.68791E-13
 -1       191 1.97647E+01-5.11970E-02-7.52697E-04 5.75346E-01 3.66494E-14-8.59391E-13
 -1       192 2.01946E+01-6.36944E-02-1.52903E-03 4.31995E-01 9.46574E-15-8.10224E-13
 -1       193 2.04965E+01-6.11562E-02-1.90803E-03 2.75635E-01-2.25909E-14-7.63514E-13
 -1       194 2.06710E+01-4.97723E-02-1.90960E-03 1.36147E-01-1.47072E-14-7.70267E-13
 -1       195 2.07380E+01-3.52932E-02-1.63992E-03 2.86345E-02 1.10955E-14-7.75318E-13
 -1       196 2.07256E+01-2.15954E-02-1.23335E-03-4.37463E-02-4.23876E-14-7.82833E-13
 -1       197 2.06619E+01-1.05979E-02-8.04297E-04-8.51013E-02-1.31087E-13-8.82299E-13
 -1       198 2.05709E+01-2.79661E-03-4.27142E-04-1.02642E-01-9.78757E-14-9.84045E-13
 -1       199 2.04704E+01 2.11289E-03-1.36605E-04-1.03922E-01 1.96448E-14-9.87514E-13
 -1       200 2.03725E+01 4.76165E-03 6.19531E-05-9.54059E-02 7.87182E-14-8.74764E-13
 -1       201 2.02842E+01 5.82230E-03 1.80094E-04-8.19763E-02-2.87292E-14-7.40748E-13
 -1       202 2.02090E+01 5.87251E-03 2.36270E-04-6.69690E-02 2.96340E-16-6.59950E-13
 -1       203 2.01476E+01 5.35135E-03 2.49434E-04-5.24445E-02 8.83813E-14-5.55647E-13
 -1       204 2.00994E+01 4.56376E-03 2.35796E-04-3.95182E-02 1.20346E-13-5.36360E-13
 -1       205 2.00629E+01 3.70473E-03 2.07720E-04-2.86615E-02-9.19098E-14-5.38908E-13
 -1       206 2.00362E+01 2.88774E-03 1.73816E-04-1.99429E-02-1.67160E-13-5.02399E-13
 -1       207 2.00174E+01 2.17022E-03 1.39577E-04-1.32025E-02 1.03074E-13-5.79358E-13
 -1       208 2.00046E+01 1.57364E-03 1.08149E-04-8.17095E-03 4.26318E-14-5.55616E-13
 -1       209 1.99965E+01 1.09811E-03 8.10462E-05-4.54478E-03-1.73127E-13-6.31095E-13
 -1       210 1.99918E+01 7.32376E-04 5.87253E-05-2.02999E-03-2.33605E-15-6.74523E-13
 -1       211 1.99894E+01 4.60173E-04 4.10168E-05-3.64741E-04 8.45886E-14-6.74466E-13
 -1       212 1.99887E+01 2.64136E-04 2.74204E-05 6.71524E-04 6.59941E-14-6.89259E-13
 -1       213 1.99889E+01 1.27924E-04 1.72997E-05 1.25703E-03-5.04816E-15-5.92617E-13
 -1       214 1.99898E+01 3.72497E-05 1.00000E-05 1.53096E-03 7.51842E-14-7.08670E-13
 -1       215 1.99909E+01-1.97733E-05 4.91475E-06 1.59879E-03 3.11742E-13-7.02625E-13
 -1       216 1.99922E+01-5.26701E-05 1.51607E-06 1.53814E-03 1.11632E-13-6.35835E-13
 -1       217 1.99935E+01-6.88450E-05-6.35306E-07 1.40441E-03 1.48062E-14-3.85495E-13
 -1       218 1.99947E+01-7.39060E-05-1.89290E-06 1.23582E-03-1.26549E-13-5.19189E-13
 -1       219 1.99957E+01-7.20054E-05-2.53399E-06 1.05757E-03-2.33996E-13-4.32968E-13
 -1       220 1.99967E+01-6.61614E-05-2.77147E-06 8.85228E-04-6.70959E-14-4.21365E-13
 -1       221 1.99974E+01-5.85456E-05-2.76526E-06 7.27335E-04 2.48848E-13-5.41801E-13
 -1       222 1.99981E+01-5.07393E-05-2.63028E-06 5.87340E-04 1.49641E-13-3.25261E-13
 -1       223 1.99986E+01-4.39749E-05-2.43819E-06 4.64911E-04 1.92601E-13-5.74880E-13
 -1       224 1.99990E+01-3.92554E-05-2.18409E-06 3.56805E-04 2.49211E-13-4.38501E-13
 -1       225 1.99993E+01-3.74873E-05-1.81233E-06 2.57571E-04 2.28015E-13-5.59450E-13
 -1       226 1.99996E+01-3.89048E-05-1.48191E-06 1.60911E-04 2.80433E-13-3.85668E-13
 -1       227 1.99997E+01-4.06044E-05-1.08588E-06 6.48141E-05 3.10977E-13-3.98446E-13
 -1       228 3.01408E+01 2.04444E-01-4.04735E-02-1.79293E-01 1.27265E-13 1.33524E-12
 -1       229 3.02066E+01-7.50175E-02 2.18829E-02-5.62338E-01 3.03339E-14 1.25236E-12
 -1       230 3.04359E+01-4.61810E-01 4.64483E-02 1.07681E-01-4.69364E-14 1.22116E-12
 -1       231 2.99333E+01-7.82474E-01 3.48944E-02 1.74956E+00-9.06913E-14 1.30243E-12
 -1       232 2.81573E+01-4.30160E-01-5.19877E-02 3.43857E+00-4.05908E-14 1.40534E-12
 -1       233 2.57665E+01 7.26830E-01-2.00814E-01 3.09126E+00 1.24692E-14 1.31382E-12
 -1       234 2.47964E+01 1.39398E+00-2.41651E-01-4.13640E-02 2.85251E-13 1.08335E-12
 -1       235 2.59959E+01 7.52680E-01-1.52775E-01-2.84560E+00 3.34718E-13 7.84522E-13
 -1       236 2.80852E+01-3.30449E-01-2.68720E-02-3.31433E+00 2.78050E-13 4.35471E-13
 -1       237 2.94056E+01-7.58054E-01 3.75315E-02-1.69445E+00 3.35062E-14 2.65250E-13
 -1       238 2.92718E+01-5.44538E-01 2.48890E-02 1.21402E-01-2.81893E-15 3.20056E-13
 -1       239 2.81769E+01-2.20296E-01 4.95144E-04 1.14503E+00 2.12061E-14 3.66457E-13
 -1       240 2.67003E+01-1.39676E-02-9.02763E-03 1.43632E+00-7.82769E-14 3.93626E-13
 -1       241 2.52268E+01 7.28322E-02-7.50772E-03 1.33068E+00-7.63792E-14 4.84397E-13
 -1       242 2.39438E+01 9.15401E-02-3.34627E-03 1.08394E+00-4.22440E-14 5.53150E-13
 -1       243 2.29086E+01 8.20484E-02-2.28770E-04 8.26929E-01 2.34474E-14 6.47169E-13
 -1       244 2.21104E+01 6.48947E-02 1.29178E-03 6.08893E-01 7.73368E-14 7.10365E-13
 -1       245 2.15119E+01 4.84165E-02 1.73383E-03 4.39661E-01 1.28649E-14 6.00521E-13
 -1       246 2.10710E+01 3.50985E-02 1.65286E-03 3.13964E-01 1.77657E-14 6.29276E-13
 -1       247 2.07499E+01 2.50974E-02 1.38729E-03 2.22650E-01-1.46694E-13 5.19290E-13
 -1       248 2.05177E+01 1.78972E-02 1.07617E-03 1.57014E-01 8.47276E-14 5.11994E-13
 -1       249 2.03444E+01 1.24537E-02 8.42721E-04 1.08181E-01 2.07613E-13 5.05131E-13
 -1       250 2.02283E+01 8.83074E-03 6.13261E-04 7.51643E-02-1.36329E-13 4.35249E-13
 -1       251 2.01463E+01 6.26785E-03 4.56022E-04 5.16468E-02-3.13736E-14 7.48435E-13
 -1       252 2.00892E+01 4.43251E-03 3.36979E-04 3.49078E-02 1.12447E-13 5.95046E-13
 -1       253 2.00501E+01 3.11728E-03 2.47910E-04 2.30410E-02 3.35997E-14 3.77759E-13
 -1       254 2.00239E+01 2.17205E-03 1.81497E-04 1.46878E-02-7.76052E-14 3.28308E-13
 -1       255 2.00069E+01 1.49208E-03 1.32084E-04 8.87238E-03-2.05249E-13 4.12554E-13
 -1       256 1.99964E+01 1.00389E-03 9.53771E-05 4.88878E-03 3.95235E-14 4.30315E-13
 -1       257 1.99904E+01 6.55304E-04 6.81590E-05 2.22259E-03-5.31588E-14 5.27604E-13
 -1       258 1.99874E+01 4.08791E-04 4.80409E-05 4.97054E-04 2.49920E-13 5.76480E-13
 -1       259 1.99864E+01 2.37004E-04 3.32467E-05-5.64455E-04 1.11568E-13 4.47117E-13
 -1       260 1.99867E+01 1.19764E-04 2.24410E-05-1.16492E-03-3.46470E-14 2.21390E-13
 -1       261 1.99877E+01 4.19168E-05 1.45531E-05-1.45266E-03 1.70986E-13 1.11500E-13
 -1       262 1.99891E+01-6.50206E-06 9.16105E-06-1.53586E-03 1.20685E-13 2.43463E-13
 -1       263 1.99907E+01-3.76923E-05 4.98119E-06-1.48553E-03-3.98633E-13 3.27535E-13
 -1       264 1.99922E+01-5.15161E-05 2.44813E-06-1.36299E-03 1.24339E-13 2.38313E-13
 -1       265 1.99936E+01-5.71763E-05 7.34492E-07-1.20543E-03 7.20330E-13 1.84356E-13
 -1       266 1.99948E+01-5.67963E-05-3.46363E-07-1.03683E-03 1.91037E-13-2.76866E-13
 -1       267 1.99959E+01-5.29232E-05-9.86362E-07-8.72341E-04-4.35829E-13-1.83082E-13
 -1       268 1.99969E+01-4.72775E-05-1.33027E-06-7.20698E-04-6.37004E-13 2.13453E-13
 -1       269 1.99976E+01-4.10912E-05-1.48202E-06-5.85950E-04-2.27329E-13 8.23073E-13
 -1       270 1.99983E+01-3.52765E-05-1.50549E-06-4.68736E-04-7.95132E-15 7.75020E-13
 -1       271 1.99988E+01-3.05697E-05-1.41427E-06-3.67137E-04 2.31764E-13 7.54200E-13
 -1       272 1.99992E+01-2.76787E-05-1.14731E-06-2.77128E-04 2.57391E-13 6.68212E-13
 -1       273 1.99994E+01-2.71332E-05-6.07353E-07-1.93050E-04-3.08394E-13 9.17344E-13
 -1       274 1.99996E+01-2.96121E-05-5.36443E-07-1.09089E-04 5.24536E-14 6.05512E-13
 -1       275 1.99998E+01-2.61378E-05-1.78338E-06-2.76231E-05-4.40560E-14 2.43074E-13
 -1       276 1.99998E+01-8.69005E-05-1.01900E-06-6.96615E-05 1.12982E-13-8.60044E-14
 -1       277 1.99998E+01-2.20876E-04-3.50557E-07-1.52967E-04 2.42034E-13-1.18131E-13
 -1       278 1.99998E+01-4.04747E-04-1.64177E-07-2.10351E-04 2.35815E-13-1.57854E-13
 -1       279 1.99998E+01-6.13790E-04 1.09393E-07-2.28956E-04 1.67107E-13-1.01314E-13
 -1       280 1.99998E+01-8.14801E-04 5.36614E-07-2.10193E-04-1.82804E-13-5.81105E-13
 -1       281 1.99998E+01-9.85611E-04 9.31147E-07-1.59225E-04-5.99774E-14 2.10812E-13
 -1       282 1.99998E+01-1.09813E-03 1.21285E-06-8.52010E-05-5.24116E-14 2.07830E-13
 -1       283 1.99998E+01-1.13694E-03 1.30897E-06 6.97198E-07 4.77583E-14 4.13643E-13
 -1       284 1.99998E+01-1.09678E-03 1.20779E-06 8.64560E-05-1.75944E-14-5.63387E-13
 -1       285 1.99998E+01-9.83131E-04 9.26611E-07 1.60148E-04-2.32099E-13-7.17649E-13
 -1       286 1.99998E+01-8.15030E-04 5.11186E-07 2.10081E-04-2.13612E-13-7.37600E-13
 -1       287 1.99998E+01-6.10412E-04 1.06412E-07 2.28834E-04-1.61233E-13 9.47749E-13
 -1       288 1.99998E+01-4.01510E-04-1.43205E-07 2.09611E-04-4.13127E-14 5.13494E-13
 -1       289 1.99998E+01-2.20761E-04-9.17152E-07 1.51621E-04-7.37711E-14 2.21064E-13
 -1       290 1.99997E+01-1.23634E-04-1.00600E-06 1.20690E-04-4.40306E-14-3.22350E-13
 -1       291-1.08901E+00-1.05161E+01-9.42248E-01 2.86287E-01 1.02830E-12 9.10300E-13
 -1       292 2.41059E+00-8.77891E+00-8.07297E-01 3.05489E+00 1.23884E-12 7.76545E-13
 -1       293 8.85625E+00-6.01155E+00-7.00957E-01 4.98294E+00 1.43624E-12 5.56735E-13
 -1       294 2.31905E+01-3.94496E+00-1.39340E-01 6.19615E+00 9.17849E-13-1.85046E-13
 -1       295 3.39385E+01 1.74451E+00 3.54562E-01 6.77444E+00 8.10352E-13-6.32827E-15
 -1       296 4.45034E+01 4.76835E+00 9.63983E-01 5.16631E+00 6.00471E-13-4.24216E-13
 -1       297 4.76812E+01 7.10272E+00 9.49195E-01 1.21051E+00 6.13537E-13-6.74655E-13
 -1       298 5.05752E+01 6.92809E+00 1.27272E+00-7.12275E-01 6.32938E-13-1.10818E-12
 -1       299 4.49334E+01 4.66399E+00 8.77955E-01-2.85250E+00 5.39305E-13-1.19144E-12
 -1       300 3.56559E+01 1.67777E+00 4.11252E-01-5.98996E+00 7.80251E-13-1.44912E-12
 -1       301 2.34883E+01-1.39536E+00-1.93822E-01-6.47946E+00 8.58341E-13-1.31273E-12
 -1       302 1.26841E+01-4.93038E+00-5.68607E-01-5.33475E+00 6.84397E-13-1.05012E-12
 -1       303 4.54047E+00-6.42287E+00-5.77937E-01-3.68400E+00 4.58605E-13-8.65259E-13
 -1       304-6.59384E-01-8.42144E+00-8.71895E-01-2.85842E-01 2.42265E-13-6.98747E-13
 -1       305-7.95191E-01-7.51606E+00-7.19563E-01 2.09143E+00-1.19862E-13-6.49980E-13
 -1       306 2.42257E+00-5.63371E+00-5.94869E-01 4.36484E+00-4.65433E-13-6.27859E-13
 -1       307 8.36413E+00-2.49483E+00-4.53188E-01 6.15973E+00-8.94868E-13-6.83037E-13
 -1       308 1.81699E+01 4.80659E-01-1.08284E-01 7.96536E+00-8.48183E-13-6.33826E-13
 -1       309 2.80698E+01 3.37908E+00 2.14593E-01 8.32089E+00-8.32112E-13-5.60246E-13
 -1       310 3.75118E+01 5.26022E+00 5.04296E-01 6.41158E+00-7.68706E-13-2.31426E-13
 -1       311 4.55360E+01 6.49248E+00 9.07583E-01 3.89767E+00-6.21919E-13 7.63001E-14
 -1       312 4.78884E+01 6.85414E+00 1.00915E+00-4.73897E-01-4.99240E-13 4.30440E-13
 -1       313 4.34822E+01 6.72156E+00 7.51324E-01-3.83581E+00-5.58636E-13 5.60330E-13
 -1       314 3.76461E+01 5.31862E+00 6.57587E-01-7.59670E+00-6.66286E-13 9.60398E-13
 -1       315 2.82050E+01 2.29187E+00 2.45716E-01-7.87443E+00-5.76178E-13 8.51652E-13
 -1       316 1.77379E+01-4.69069E-01-1.08501E-01-7.83034E+00-4.56413E-13 9.55458E-13
 -1       317 9.70230E+00-4.62749E+00-4.07359E-01-6.47787E+00-1.63591E-13 8.40869E-13
 -1       318 2.60084E+00-8.20149E+00-7.89272E-01-3.91458E+00 2.28262E-13 7.63757E-13
 -1       319-7.38469E-01-1.06287E+01-9.78667E-01-1.85459E+00 6.21406E-13 6.58543E-13
 -1       320 2.18110E+01 2.71475E+00-2.27187E-02-2.76059E+00-1.60260E-13-6.22153E-13
 -1       321 2.20609E+01 2.14075E+00-2.42184E-02-3.04225E+00-2.92546E-13-5.42249E-13
 -1       322 2.17828E+01 2.61949E+00-2.48364E-02-1.39937E+00 1.09944E-13-5.67227E-13
 -1       323 2.14595E+01 2.36860E+00-2.30913E-02-4.10750E-01 2.17626E-13-4.80495E-13
 -1       324 2.05466E+01 2.21826E+00-1.97458E-02 7.72658E-01 3.23083E-13-3.77906E-13
 -1       325 1.88116E+01 2.39730E+00-1.36308E-02 2.01445E+00 4.39794E-13-3.20880E-13
 -1       326 1.62863E+01 3.07108E+00-4.08297E-03 2.96668E+00 5.33090E-13-2.99560E-13
 -1       327 1.35682E+01 4.12169E+00 9.16452E-03 3.15382E+00 5.69359E-13-3.31288E-13
 -1       328 1.18685E+01 5.02373E+00 1.68073E-02 2.37583E+00 5.61058E-13-3.50491E-13
 -1       329 1.23007E+01 5.22393E+00 1.59103E-02 1.02839E+00 5.05361E-13-2.95104E-13
 -1       330 1.51724E+01 4.56624E+00 4.69622E-03-3.47807E-02 4.29313E-13-1.41867E-13
 -1       331 1.96934E+01 3.41316E+00-1.07891E-02-2.71561E-01 3.67169E-13 1.05002E-13
 -1       332 2.47007E+01 2.10284E+00-3.01706E-02 6.20672E-02 2.65241E-13 5.16372E-13
 -1       333 2.77099E+01 1.05836E+00-2.12868E-02-2.57412E-03 1.86674E-13 8.58711E-13
 -1       334 2.78845E+01-3.03449E-02 2.09426E-03-7.65742E-01 8.29692E-14 7.75192E-13
 -1       335 2.14280E+01 5.21656E-01 1.15434E-02-1.89106E+00-2.66422E-13-4.25664E-13
 -1       336 2.06669E+01 2.56856E-01 7.31296E-03-1.45059E+00-2.11497E-13-3.82031E-13
 -1       337 2.00309E+01 2.55811E-01 5.70488E-03-1.14633E+00-1.73765E-13-3.63098E-13
 -1       338 1.95306E+01 3.59307E-01 4.65747E-03-7.91539E-01-1.27287E-13-4.06573E-13
 -1       339 1.92106E+01 4.56276E-01 4.32039E-03-3.32746E-01-9.35283E-14-4.35077E-13
 -1       340 1.91075E+01 4.69728E-01 3.99528E-03 1.81870E-01-8.96355E-14-4.56154E-13
 -1       341 1.92188E+01 3.74116E-01 3.28529E-03 6.45999E-01-1.21775E-13-4.46143E-13
 -1       342 1.94900E+01 2.00008E-01 2.11008E-03 9.56538E-01-1.06594E-13-4.14775E-13
 -1       343 1.98340E+01 9.36288E-03 6.56143E-04 1.06445E+00-5.94935E-14-5.16710E-13
 -1       344 2.01659E+01-1.41212E-01-7.15000E-04 9.87519E-01 4.44313E-14-5.35559E-13
 -1       345 2.04292E+01-2.24053E-01-1.68646E-03 7.88179E-01 2.36242E-14-5.62130E-13
 -1       346 2.06013E+01-2.41646E-01-2.14100E-03 5.39306E-01 5.26471E-14-5.23054E-13
 -1       347 2.06855E+01-2.13791E-01-2.12699E-03 2.99176E-01-1.19513E-14-5.00695E-13
 -1       348 2.06987E+01-1.63665E-01-1.79824E-03 1.02086E-01 3.34420E-14-4.52652E-13
 -1       349 2.06619E+01-1.09470E-01-1.33063E-03-3.94434E-02-2.91721E-15-4.71078E-13
 -1       350 2.05945E+01-6.20053E-02-8.57040E-04-1.27592E-01-9.49130E-14-4.12397E-13
 -1       351 2.05121E+01-2.57493E-02-4.54135E-04-1.72045E-01-1.42935E-13-3.79159E-13
 -1       352 2.04258E+01-1.06602E-03-1.52391E-04-1.84738E-01-1.64676E-14-4.16831E-13
 -1       353 2.03433E+01 1.37700E-02 4.86144E-05-1.76806E-01 1.25418E-13-4.81915E-13
 -1       354 2.02690E+01 2.11855E-02 1.65215E-04-1.57223E-01 1.05813E-13-4.71672E-13
 -1       355 2.02049E+01 2.35310E-02 2.18913E-04-1.32507E-01 1.21910E-13-2.93817E-13
 -1       356 2.01516E+01 2.27408E-02 2.30231E-04-1.06972E-01 1.10911E-13-1.43538E-13
 -1       357 2.01087E+01 2.02491E-02 2.15943E-04-8.31892E-02 1.51163E-13-1.82062E-14
 -1       358 2.00751E+01 1.70349E-02 1.88403E-04-6.24679E-02-6.16416E-15-1.52649E-13
 -1       359 2.00496E+01 1.37138E-02 1.55954E-04-4.52766E-02-2.42392E-14-1.55463E-13
 -1       360 2.00306E+01 1.06359E-02 1.23747E-04-3.15654E-02-2.47098E-14 4.50307E-14
 -1       361 2.00171E+01 7.97072E-03 9.46172E-05-2.10002E-02 8.27376E-14-7.35238E-15
 -1       362 2.00076E+01 5.77267E-03 6.98369E-05-1.31189E-02-1.66771E-13-9.08190E-14
 -1       363 2.00014E+01 4.02872E-03 4.96995E-05-7.43055E-03-1.88906E-13 1.06626E-14
 -1       364 1.99975E+01 2.69061E-03 3.39384E-05-3.47123E-03 4.39731E-15-6.46337E-14
 -1       365 1.99952E+01 1.69557E-03 2.20094E-05-8.33056E-04 9.62896E-14 3.96286E-15
 -1       366 1.99942E+01 9.78766E-04 1.32692E-05 8.25568E-04-6.62117E-15-1.50653E-13
 -1       367 1.99939E+01 4.80094E-04 7.07980E-06 1.78002E-03-1.10422E-13-4.95813E-14
 -1       368 1.99941E+01 1.47382E-04 2.86445E-06 2.24537E-03 2.58909E-13-2.65256E-14
 -1       369 1.99946E+01-6.26276E-05 1.31066E-07 2.38486E-03 3.13814E-13-1.95896E-13
 -1       370 1.99952E+01-1.84571E-04-1.52285E-06 2.31896E-03 2.21948E-13-1.81359E-13
 -1       371 1.99959E+01-2.45394E-04-2.41594E-06 2.13400E-03-1.65756E-13-3.00176E-13
 -1       372 1.99966E+01-2.65557E-04-2.79396E-06 1.88980E-03 3.04478E-15-9.46664E-14
 -1       373 1.99972E+01-2.60274E-04-2.84269E-06 1.62600E-03-1.40749E-14 1.44250E-13
 -1       374 1.99978E+01-2.40677E-04-2.70011E-06 1.36723E-03-6.69211E-14 2.92615E-13
 -1       375 1.99983E+01-2.14845E-04-2.46557E-06 1.12712E-03 2.04386E-13-1.80263E-13
 -1       376 1.99987E+01-1.88706E-04-2.20921E-06 9.11282E-04 1.71800E-13-1.96460E-13
 -1       377 1.99990E+01-1.66852E-04-1.98569E-06 7.19480E-04 1.29278E-13-2.89196E-13
 -1       378 1.99993E+01-1.52062E-04-1.76317E-06 5.47500E-04 1.80451E-13-2.93609E-13
 -1       379 1.99995E+01-1.46930E-04-1.90661E-06 3.89132E-04 2.65351E-13-2.62049E-13
 -1       380 1.99996E+01-1.37456E-04-1.34303E-06 2.49547E-04 4.72985E-13-3.84164E-14
 -1       381 2.86286E+01-1.15068E+00 9.48382E-03-3.00458E-01-2.29760E-14 7.32489E-13
 -1       382 2.97346E+01-2.07689E+00-3.77780E-03 1.54848E+00-1.37217E-13 7.76247E-13
 -1       383 3.05730E+01-1.55034E+00-5.28940E-02 4.00661E+00-1.03343E-13 8.25713E-13
 -1       384 2.99405E+01 1.60934E+00-2.31038E-01 4.26348E+00 8.06369E-14 7.91360E-13
 -1       385 2.93953E+01 4.05859E+00-2.30047E-01 4.81423E-01 4.62921E-13 5.42290E-13
 -1       386 2.98124E+01 2.38104E+00-1.64164E-01-3.43507E+00 5.38999E-13 2.24258E-13
 -1       387 3.00965E+01-8.26784E-01-1.03091E-01-3.94804E+00 4.58741E-13-2.61770E-14
 -1       388 2.93476E+01-2.24343E+00-2.73895E-02-1.76521E+00 8.28096E-14-1.24655E-13
 -1       389 2.77966E+01-1.66947E+00-1.03338E-02 6.07810E-01-5.56690E-14-1.60328E-13
 -1       390 2.62338E+01-6.98169E-01-1.01833E-02 1.90438E+00 3.33240E-15-3.24801E-14
 -1       391 2.49226E+01-5.78777E-02-7.29401E-03 2.25008E+00-1.54456E-13 1.14420E-13
 -1       392 2.38515E+01 2.25305E-01-1.75852E-03 2.07856E+00-1.29532E-13 1.71437E-13
 -1       393 2.29772E+01 2.94762E-01 2.08415E-03 1.71502E+00-1.24775E-13 2.56787E-13
 -1       394 2.22693E+01 2.70818E-01 3.78656E-03 1.33179E+00-4.84053E-14 3.26832E-13
 -1       395 2.17058E+01 2.18482E-01 3.95268E-03 9.99004E-01-1.25824E-14 3.43272E-13
 -1       396 2.12655E+01 1.65746E-01 3.40692E-03 7.34300E-01 7.00351E-15 4.09376E-13
 -1       397 2.09273E+01 1.21882E-01 2.68227E-03 5.33116E-01 1.04078E-13 5.30182E-13
 -1       398 2.06710E+01 8.82441E-02 2.01687E-03 3.83910E-01-3.97518E-14 4.08789E-13
 -1       399 2.04788E+01 6.34167E-02 1.44872E-03 2.74678E-01 9.89162E-14 3.25226E-13
 -1       400 2.03305E+01 4.47147E-02 1.07098E-03 1.91882E-01 1.11063E-13 2.91613E-13
 -1       401 2.02279E+01 3.19800E-02 7.54248E-04 1.35311E-01-7.84906E-14 4.24577E-13
 -1       402 2.01533E+01 2.28562E-02 5.41510E-04 9.43788E-02-1.08422E-13 4.15743E-13
 -1       403 2.00997E+01 1.62861E-02 3.88178E-04 6.48826E-02 2.47324E-13 4.89111E-13
 -1       404 2.00619E+01 1.15423E-02 2.77018E-04 4.37186E-02 2.10522E-13 3.46015E-13
 -1       405 2.00356E+01 8.10967E-03 1.96443E-04 2.86358E-02-1.43198E-13 2.67764E-13
 -1       406 2.00177E+01 5.62451E-03 1.38022E-04 1.79939E-02-1.01053E-13 2.14414E-13
 -1       407 2.00060E+01 3.82893E-03 9.56959E-05 1.05911E-02-5.12181E-14 4.04534E-14
 -1       408 1.99986E+01 2.53830E-03 6.51176E-05 5.54188E-03 1.40110E-14 5.88222E-14
 -1       409 1.99943E+01 1.61885E-03 4.31510E-05 2.19148E-03 1.35983E-14 5.58490E-14
 -1       410 1.99921E+01 9.72556E-04 2.75155E-05 5.47320E-05 1.07230E-13 3.99118E-13
 -1       411 1.99913E+01 5.26782E-04 1.65365E-05-1.22748E-03 1.54721E-13 3.67456E-13
 -1       412 1.99913E+01 2.27500E-04 8.91807E-06-1.91999E-03 1.14395E-13 3.03449E-13
 -1       413 1.99919E+01 3.44327E-05 3.94605E-06-2.21635E-03 2.88500E-14 3.71364E-13
 -1       414 1.99928E+01-8.93074E-05 5.64690E-07-2.25467E-03-2.17314E-13 2.87787E-13
 -1       415 1.99938E+01-1.52326E-04-1.48810E-06-2.13310E-03 2.97031E-15-2.10308E-13
 -1       416 1.99948E+01-1.80580E-04-2.53989E-06-1.92861E-03 4.82860E-13-7.45090E-14
 -1       417 1.99957E+01-1.86037E-04-3.02710E-06-1.68734E-03 3.16389E-13 2.84094E-13
 -1       418 1.99965E+01-1.77456E-04-3.13259E-06-1.43931E-03-4.99045E-13 1.83942E-13
 -1       419 1.99973E+01-1.61246E-04-3.01168E-06-1.20280E-03-6.77404E-13 1.17196E-13
 -1       420 1.99979E+01-1.42039E-04-2.77758E-06-9.87441E-04-3.96346E-13-1.42595E-13
 -1       421 1.99984E+01-1.23226E-04-2.50585E-06-7.96652E-04-1.22818E-14-1.18205E-13
 -1       422 1.99988E+01-1.07368E-04-2.23017E-06-6.29287E-04-4.49850E-14 2.96897E-13
 -1       423 1.99991E+01-9.66252E-05-1.96427E-06-4.80923E-04 2.18209E-13 5.46999E-13
 -1       424 1.99994E+01-9.21641E-05-1.66603E-06-3.44939E-04-8.92078E-14 4.63827E-13
 -1       425 1.99996E+01-9.17034E-05-1.30777E-06-2.16088E-04 2.48220E-13 9.18789E-14
 -1       426 1.99997E+01-9.57254E-05-8.28115E-07-1.41631E-04 8.63025E-14 1.33379E-14
 -1       427 1.99998E+01-5.21739E-04-2.53849E-07-3.96114E-04 6.15737E-14-6.46378E-14
 -1       428 1.99997E+01-3.40927E-04-7.28766E-07-3.43169E-04 4.14738E-13-2.52065E-13
 -1       429 1.99997E+01-2.07677E-04-1.35814E-06-2.48505E-04 2.77956E-13-1.43439E-14
 -1       430 1.99998E+01-6.97931E-04 2.58629E-07-3.88275E-04 4.80691E-14-6.88214E-13
 -1       431 1.99999E+01-8.54907E-04 7.43168E-07-3.23501E-04 1.69652E-13-5.87858E-14
 -1       432 1.99999E+01-9.70896E-04 1.10560E-06-2.12987E-04 1.19007E-13 1.58330E-13
 -1       433 1.99999E+01-1.03214E-03 1.29249E-06-7.34063E-05-1.72831E-14 4.81480E-13
 -1       434 1.99999E+01-1.03141E-03 1.29016E-06 7.59529E-05-3.03469E-13-1.05462E-13
 -1       435 1.99999E+01-9.68858E-04 1.08770E-06 2.15047E-04-4.06236E-13-4.94982E-13
 -1       436 1.99999E+01-8.54413E-04 7.18008E-07 3.23318E-04 4.43756E-14-6.44958E-13
 -1       437 1.99998E+01-6.97375E-04 2.75812E-07 3.88212E-04 4.99177E-13 1.86413E-13
 -1       438 1.99998E+01-5.18598E-04-2.02709E-07 3.95525E-04 1.58072E-13 8.74424E-13
 -1       439 1.99997E+01-3.36261E-04-9.46787E-07 3.43344E-04 1.60187E-13 1.61110E-13
 -1       440 1.03821E+01-5.80354E+00-9.75830E-02 6.33528E+00 3.15220E-13-2.42445E-14
 -1       441 9.40609E-01-4.39084E+00-9.12718E-02-1.13664E+00 2.75306E-13 8.79824E-13
 -1       442 4.00140E+00-3.54546E+00 4.84522E-02 3.53163E+00-5.23956E-14 7.40977E-13
 -1       443 2.05230E+01-6.04432E+00-4.10185E-02 6.15497E+00 3.45529E-13-5.63292E-13
 -1       444 3.14546E+01-3.88944E+00-2.46946E-02 1.89132E+00 5.18703E-13-3.73299E-13
 -1       445 2.18365E+01 2.76170E+00-2.54615E-02-2.20334E+00-4.95085E-15-6.33204E-13
 -1       446 3.88970E+01 4.65153E+00 1.40617E-01-1.49449E+00 7.76407E-13-2.91794E-13
 -1       447 3.85838E+01 7.20216E+00 1.20095E-01 2.92526E-01 6.63913E-13-1.42743E-13
 -1       448 3.84891E+01 5.63201E+00 1.22694E-01 2.23138E+00 4.11920E-13-1.39902E-13
 -1       449 3.62098E+01 1.67688E-01-9.66204E-03 2.01131E+00 1.58942E-13-2.02949E-13
 -1       450 3.27497E+01-3.29163E+00 3.41569E-04-1.26626E+00 1.63140E-13-3.63570E-13
 -1       451 2.36131E+01-5.50561E+00-8.05466E-02-4.78756E+00 1.78191E-13-6.12704E-13
 -1       452 1.42369E+01-4.75019E+00-7.23698E-03-5.80177E+00 9.59927E-14-6.73774E-13
 -1       453 4.17703E+00-2.71453E+00-4.25760E-02-3.18592E+00 2.24792E-13-7.90576E-13
 -1       454 1.16708E+00-2.00519E+00-3.72496E-02 5.44701E-01 2.64904E-13-7.85594E-13
 -1       455 2.75066E+00-2.08989E+00-3.94678E-02 4.81601E+00 2.55101E-13-6.52658E-13
 -1       456 9.77498E+00-2.43512E+00 2.42401E-02 7.62957E+00 1.75415E-13-4.06716E-13
 -1       457 1.68910E+01-2.84053E+00-2.53444E-02 7.65370E+00-2.38837E-14-2.18145E-13
 -1       458 2.59463E+01-1.28636E+00 2.54443E-03 5.50868E+00-3.47083E-13-2.82968E-14
 -1       459 3.16065E+01 1.54326E+00-1.13076E-02 2.62440E+00-5.58515E-13 7.42739E-14
 -1       460 3.55801E+01 5.84963E+00 4.54537E-02 5.94388E-01-7.66665E-13 7.55229E-14
 -1       461 3.54444E+01 8.39612E+00-1.74414E-02-3.77645E-01-6.93931E-13 5.61044E-14
 -1       462 3.55961E+01 8.32026E+00-5.06599E-02-1.49277E-01-5.21749E-13 2.75752E-14
 -1       463 3.52370E+01 4.91448E+00 3.54009E-02-1.33249E+00-3.78642E-13 6.47954E-14
 -1       464 3.22497E+01 1.22163E+00 6.56433E-02-3.05987E+00-2.62526E-13 1.80578E-13
 -1       465 2.57695E+01-3.29440E+00-1.89044E-02-5.54797E+00 2.00895E-13 3.70565E-13
 -1       466 1.93287E+01-4.71821E+00 2.41208E-02-7.48936E+00 3.37022E-13 4.52430E-13
 -1       467 9.59252E+00-4.93681E+00-4.56486E-02-7.46293E+00 3.70745E-13 7.58706E-13
 -1       468 3.82318E+00-4.30001E+00-4.03485E-02-5.14428E+00 2.79707E-13 8.32834E-13
 -1       469 3.57157E+01-2.31790E-01 1.00093E-02-4.92634E-01 7.32824E-13-3.11917E-13
 -1       470 2.79154E+01-5.73331E+00-2.11772E-02 2.91923E+00 3.56437E-13-5.81431E-13
 -1       471 3.21254E+01 6.71215E+00-1.11805E-01 9.56353E-01-3.06893E-13-1.68927E-13
 -1       472 1.12745E+01-2.12547E+00 1.17382E-01-5.04776E+00 9.46881E-14-6.19990E-13
 -1       473 2.45186E+01-6.78190E-01 3.44578E-02-1.68045E+00 4.71363E-14 2.36462E-13
 -1       474 2.22244E+01 9.76468E-01-8.87261E-03-3.46978E-02 2.57511E-13-3.28016E-13
 -1       475 2.25421E+01 1.32313E+00-1.04815E-02-1.18560E+00 1.37833E-13-4.43556E-13
 -1       476 1.87390E+01 1.16284E+00 7.52769E-03 3.20518E+00 5.08110E-13-2.14228E-13
 -1       477 1.51815E+01 2.29573E+00 2.68255E-02 4.29500E+00 6.19736E-13-2.67160E-13
 -1       478 1.16075E+01 3.80055E+00 5.34630E-02 3.89803E+00 6.45675E-13-3.83535E-13
 -1       479 1.01671E+01 4.64741E+00 5.97762E-02 1.89921E+00 5.72678E-13-4.12739E-13
 -1       480 1.21776E+01 4.11271E+00 5.67938E-02-4.20911E-01 4.30611E-13-3.48463E-13
 -1       481 1.70206E+01 2.55062E+00 3.20410E-02-1.58364E+00 2.87791E-13-1.30466E-13
 -1       482 2.66037E+01-3.04543E+00 3.92426E-02-1.35497E+00-1.14960E-13 2.40692E-13
 -1       483 2.17471E+01 6.92952E-01 2.38126E-03-2.10128E+00-1.86084E-13-4.17518E-13
 -1       484 3.30645E+01 8.76021E-01-1.56547E-01-3.52708E+00 6.65246E-13-1.74215E-13
 -1       485 2.13367E+01 5.14640E-01 2.77922E-03-1.77070E+00-1.62349E-13-3.82251E-13
 -1       486 2.08793E+01 6.54000E-01 2.65057E-03-1.39285E+00-1.50291E-13-3.25690E-13
 -1       487 2.04816E+01 8.83756E-01 2.22805E-03-8.57936E-01-1.37273E-13-3.24241E-13
 -1       488 2.02401E+01 1.00865E+00 1.80338E-03-1.83082E-01-9.48567E-14-3.41191E-13
 -1       489 2.02075E+01 9.12218E-01 1.58872E-03 5.03048E-01-1.30418E-13-3.75473E-13
 -1       490 2.03558E+01 6.04173E-01 1.28381E-03 1.03004E+00-1.16812E-13-4.41468E-13
 -1       491 2.05895E+01 1.99198E-01 7.56562E-04 1.28591E+00-1.10040E-13-4.15607E-13
 -1       492 2.08034E+01-1.65161E-01 7.86964E-05 1.26491E+00-1.43758E-14-3.27304E-13
 -1       493 2.09316E+01-4.00693E-01-5.10406E-04 1.04540E+00 2.93529E-14-3.49783E-13
 -1       494 2.09602E+01-4.90393E-01-9.05148E-04 7.33557E-01 8.23330E-14-3.64385E-13
 -1       495 2.09098E+01-4.66612E-01-1.02987E-03 4.17944E-01 4.88622E-14-3.51763E-13
 -1       496 2.08121E+01-3.78271E-01-9.27063E-04 1.52016E-01 5.61167E-14-2.31366E-13
 -1       497 2.06949E+01-2.68214E-01-7.16485E-04-4.31200E-02-1.78326E-14-1.90046E-13
 -1       498 2.05769E+01-1.64446E-01-4.84797E-04-1.67961E-01-7.36477E-14-2.25463E-13
 -1       499 2.04684E+01-8.06846E-02-2.78658E-04-2.34043E-01-8.63386E-14-2.29909E-13
 -1       500 2.03736E+01-2.05634E-02-1.19429E-04-2.56501E-01-8.15195E-14-1.21526E-13
 -1       501 2.02935E+01 1.79608E-02-9.96862E-06-2.49826E-01 8.86379E-16-3.72130E-14
 -1       502 2.02272E+01 3.93253E-02 5.65822E-05-2.25954E-01 7.41721E-14-2.28501E-13
 -1       503 2.01733E+01 4.83734E-02 9.03909E-05-1.93770E-01 1.60533E-13-2.87708E-13
 -1       504 2.01301E+01 4.93658E-02 1.01575E-04-1.59338E-01 2.67224E-13-2.29164E-13
 -1       505 2.00960E+01 4.56265E-02 9.86324E-05-1.26431E-01 2.26891E-13-1.98458E-13
 -1       506 2.00693E+01 3.95316E-02 8.79525E-05-9.71164E-02 7.40563E-14-1.37965E-13
 -1       507 2.00488E+01 3.26529E-02 7.39386E-05-7.22801E-02-7.01299E-15-3.04194E-14
 -1       508 2.00333E+01 2.59452E-02 5.93782E-05-5.20533E-02 7.93380E-14 1.97931E-14
 -1       509 2.00217E+01 1.99244E-02 4.58641E-05-3.61239E-02-3.97314E-14-4.92000E-14
 -1       510 2.00134E+01 1.48139E-02 3.41701E-05-2.39562E-02-1.43320E-13 4.15508E-14
 -1       511 2.00074E+01 1.06557E-02 2.45477E-05-1.49342E-02-2.23142E-13 7.08106E-14
 -1       512 2.00033E+01 7.38841E-03 1.69408E-05-8.44896E-03-1.22707E-13 1.56399E-13
 -1       513 2.00006E+01 4.89985E-03 1.11331E-05-3.94688E-03-6.64709E-14-6.78367E-14
 -1       514 1.99989E+01 3.06040E-03 6.84273E-06-9.51488E-04 3.36780E-14-1.42953E-13
 -1       515 1.99979E+01 1.74232E-03 3.77849E-06 9.30856E-04-2.19701E-14 4.78567E-14
 -1       516 1.99975E+01 8.30151E-04 1.67110E-06 2.01483E-03 6.03734E-14 1.57794E-13
 -1       517 1.99973E+01 2.25148E-04 2.87529E-07 2.54490E-03 1.08128E-13 4.88720E-14
 -1       518 1.99974E+01-1.53793E-04-5.64791E-07 2.70598E-03 1.86106E-13-1.61952E-13
 -1       519 1.99976E+01-3.71204E-04-1.03943E-06 2.63430E-03-3.68345E-14-7.23421E-14
 -1       520 1.99979E+01-4.77094E-04-1.25541E-06 2.42736E-03-1.35850E-14 1.15537E-13
 -1       521 1.99982E+01-5.09347E-04-1.30288E-06 2.15261E-03 1.45416E-13 1.96134E-13
 -1       522 1.99984E+01-4.96125E-04-1.25033E-06 1.85471E-03 3.90612E-14 2.71488E-13
 -1       523 1.99987E+01-4.58057E-04-1.14770E-06 1.56133E-03-3.11290E-13 4.56255E-13
 -1       524 1.99990E+01-4.10087E-04-1.02104E-06 1.28766E-03-2.88744E-14 2.35341E-13
 -1       525 1.99992E+01-3.63034E-04-8.64045E-07 1.04015E-03-2.55835E-14 1.33633E-13
 -1       526 1.99993E+01-3.26059E-04-9.38380E-07 8.18568E-04 1.20068E-13 3.85297E-15
 -1       527 1.99995E+01-2.99521E-04-7.31945E-07 6.19090E-04 4.26059E-13-1.33039E-13
 -1       528 3.08029E+01-3.71766E+00-7.35609E-02-1.56864E+00 2.91211E-13-3.77417E-13
 -1       529 2.72528E+01-3.80936E+00 1.60578E-02 1.35586E+00 2.35627E-14-3.76603E-13
 -1       530 2.44795E+01-1.92520E+00 9.16806E-03 2.76460E+00-1.21693E-13-4.07162E-13
 -1       531 2.29390E+01-4.40229E-01-8.63852E-04 3.06523E+00-1.23372E-13-3.30364E-13
 -1       532 2.21404E+01 3.28116E-01 5.68420E-04 2.82329E+00-3.09759E-13-1.67004E-13
 -1       533 2.16825E+01 5.94094E-01 1.90168E-03 2.37181E+00-1.83648E-13 2.00116E-14
 -1       534 2.13663E+01 6.05083E-01 3.08928E-03 1.88999E+00-1.17962E-13 5.94184E-15
 -1       535 2.11099E+01 5.17317E-01 3.29832E-03 1.45725E+00 3.64756E-14 1.77259E-14
 -1       536 2.08893E+01 4.08084E-01 2.88582E-03 1.09981E+00-9.92895E-14-1.25975E-14
 -1       537 2.06996E+01 3.08739E-01 2.28620E-03 8.18244E-01-1.31085E-14 1.04163E-13
 -1       538 2.05400E+01 2.28411E-01 1.71994E-03 6.02639E-01 8.54090E-14 1.55472E-13
 -1       539 2.04089E+01 1.67024E-01 1.23091E-03 4.40254E-01-4.60546E-14 6.76131E-14
 -1       540 2.02997E+01 1.19482E-01 9.06368E-04 3.14235E-01 2.33718E-13 1.58310E-13
 -1       541 2.02187E+01 8.65493E-02 6.30421E-04 2.26070E-01 2.01769E-14 1.34347E-13
 -1       542 2.01563E+01 6.25647E-02 4.47917E-04 1.61098E-01-1.03029E-13 3.15714E-13
 -1       543 2.01092E+01 4.50972E-02 3.18218E-04 1.13412E-01 1.39493E-14 3.32296E-13
 -1       544 2.00741E+01 3.23606E-02 2.25280E-04 7.85895E-02 3.41206E-13 3.96899E-13
 -1       545 2.00484E+01 2.30595E-02 1.58507E-04 5.33225E-02 8.98382E-14 3.24770E-13
 -1       546 2.00300E+01 1.62638E-02 1.10517E-04 3.51471E-02-4.60944E-14 3.73306E-13
 -1       547 2.00171E+01 1.13057E-02 7.60451E-05 2.22242E-02 3.33718E-14 1.84246E-13
 -1       548 2.00083E+01 7.70227E-03 5.13412E-05 1.31770E-02 1.10107E-14 2.21109E-14
 -1       549 2.00025E+01 5.10165E-03 3.37278E-05 6.97272E-03-6.55826E-14 4.99268E-14
 -1       550 1.99989E+01 3.24445E-03 2.12795E-05 2.83582E-03-1.78036E-13 1.07477E-14
 -1       551 1.99968E+01 1.93775E-03 1.26015E-05 1.84547E-04 1.20711E-14 1.76949E-13
 -1       552 1.99957E+01 1.03693E-03 6.57520E-06-1.41608E-03 1.01135E-13 4.43840E-13
 -1       553 1.99953E+01 4.33414E-04 2.58658E-06-2.28866E-03 1.14880E-13 6.15000E-13
 -1       554 1.99954E+01 2.90326E-05 2.01793E-07-2.68035E-03 3.63743E-14 3.29270E-13
 -1       555 1.99957E+01-2.00510E-04-1.41689E-06-2.73151E-03 2.45211E-13-2.82638E-14
 -1       556 1.99962E+01-3.25461E-04-2.21449E-06-2.59363E-03 1.47867E-13-1.49347E-13
 -1       557 1.99967E+01-3.79574E-04-2.55847E-06-2.35112E-03 2.34266E-13 3.97443E-13
 -1       558 1.99973E+01-3.87840E-04-2.60203E-06-2.06126E-03-2.70344E-13 5.80739E-13
 -1       559 1.99977E+01-3.68421E-04-2.46830E-06-1.76127E-03-3.37390E-13 2.93264E-13
 -1       560 1.99982E+01-3.34479E-04-2.24584E-06-1.47365E-03-5.19506E-13-8.90576E-14
 -1       561 1.99986E+01-2.95582E-04-1.99994E-06-1.21014E-03-3.31591E-13-1.14064E-13
 -1       562 1.99989E+01-2.58699E-04-1.76198E-06-9.74733E-04-2.51046E-13 2.90554E-13
 -1       563 1.99991E+01-2.28863E-04-1.49994E-06-7.65976E-04 1.68855E-14 3.20889E-13
 -1       564 1.99994E+01-2.10339E-04-1.51950E-06-5.78937E-04 2.32438E-13 2.76420E-13
 -1       565 1.99995E+01-2.01757E-04-1.43804E-06-4.06761E-04 1.15605E-13 3.27889E-13
 -1       566 1.99999E+01-7.87445E-04 2.61555E-07-4.96429E-04 5.42964E-13-1.34806E-13
 -1       567 2.00000E+01-9.17122E-04 4.53126E-07-3.70924E-04 5.99457E-13 5.86339E-14
 -1       568 1.99997E+01-4.45377E-04-3.74211E-07-5.36645E-04 2.12653E-13-5.85373E-13
 -1       569 1.99998E+01-6.25253E-04-3.64107E-08-5.54728E-04 8.05327E-14-3.50068E-13
 -1       570 2.00001E+01-9.99857E-04 5.52760E-07-1.96988E-04 3.03361E-13 6.93097E-14
 -1       571 2.00001E+01-1.02773E-03 6.06390E-07 2.00548E-06-7.24874E-14 1.81294E-13
 -1       572 2.00001E+01-9.98035E-04 5.53383E-07 2.00636E-04-2.51092E-14-3.22135E-13
 -1       573 2.00000E+01-9.15731E-04 3.92510E-07 3.70819E-04-1.57061E-13-4.08888E-13
 -1       574 1.99999E+01-7.86552E-04 1.77887E-07 4.95937E-04-8.24817E-15-1.09306E-13
 -1       575 1.99998E+01-6.21910E-04-1.48970E-07 5.54559E-04 2.39626E-13 4.61926E-13
 -1       576 1.99997E+01-4.41636E-04-4.41268E-07 5.37392E-04 2.56072E-13 7.58404E-13
 -1       577 4.87933E+00-8.23503E-01 1.84882E-01 6.15896E-01-1.14444E-13 7.05436E-13
 -1       578 1.10049E+01-2.85723E+00 1.46375E-01 5.75770E+00-2.82219E-13-4.24660E-14
 -1       579 5.26664E+00-1.10168E+00 1.80541E-01-3.30107E+00 1.05471E-15 7.38840E-13
 -1       580 1.80543E+01-4.80127E+00 1.17918E-01 6.14611E+00-1.08094E-13-4.75855E-13
 -1       581 2.20190E+01 1.35627E+00-1.07730E-02-2.47191E+00-2.03905E-13-5.07583E-13
 -1       582 1.65205E+01-4.61484E+00 8.11025E-02-7.65831E+00 4.36651E-13 4.85834E-13
 -1       583 2.90959E+01-2.37788E+00-4.04089E-02-2.05512E+00 2.08454E-13-1.43260E-13
 -1       584 3.02409E+01 6.31833E+00-1.77691E-01-1.64049E+00-6.67716E-13-1.98452E-14
 -1       585 8.30526E+00-3.88806E-02 1.52976E-01 6.65563E+00 5.34392E-13-4.77542E-13
 -1       586 2.10941E+01 7.99497E-01-4.18158E-03 1.51551E+00 3.84021E-13-2.35094E-13
 -1       587 2.21782E+01-4.89380E+00 5.38166E-02-4.36621E+00-7.50927E-14-3.51013E-13
 -1       588 3.24560E+01 4.74488E+00-2.40850E-01-1.83522E+00 6.44651E-13 1.44041E-13
 -1       589 2.83956E+01-1.25678E+00-5.95803E-02 1.91142E+00-1.76593E-13 2.04045E-13
 -1       590 2.91827E+01-5.08631E+00-2.19330E-02-1.26282E+00-6.47399E-14-7.30874E-14
 -1       591 5.58299E+00 1.06458E+00 1.85504E-01-1.36098E+00 3.01665E-13-7.12250E-13
 -1       592 4.04658E+00 1.20294E+00 1.76153E-01 2.71723E+00 4.61601E-13-6.73669E-13
 -1       593 1.59512E+01-2.01020E+00 9.56648E-02 7.41562E+00 4.52451E-13-1.46359E-13
 -1       594 3.13366E+01 1.84360E+00-1.05793E-01 2.70216E-01-1.67880E-13-2.90448E-13
 -1       595 2.31801E+01-2.91441E+00 1.80867E-02 5.35985E+00 1.80946E-13 1.17142E-13
 -1       596 3.04893E+01 2.79544E+00-1.14360E-01-1.12312E+00-5.19813E-13 1.46251E-13
 -1       597 3.00441E+01 7.91405E+00-1.93301E-01-2.10972E-01-5.71265E-13-2.55739E-13
 -1       598 9.77738E+00-2.57512E+00 1.43452E-01-6.73172E+00 2.62332E-13 6.56301E-13
 -1       599 2.39663E+01-4.91064E+00 1.53448E-02-5.50565E+00 4.75564E-13 1.85719E-13
 -1       600 2.43892E+01 8.13143E-01-1.64549E-03-1.00716E+00 1.73825E-13 3.54740E-13
 -1       601 2.24187E+01 1.57430E+00-1.80552E-02-1.92860E+00 2.76325E-14-5.19161E-13
 -1       602 2.97969E+01-4.10759E+00-2.14831E-02 5.29526E-01-1.40454E-13 2.28019E-13
 -1       603 1.99996E+01-3.20696E-04-9.49395E-07-4.89077E-04 2.73227E-13-3.80081E-14
 -1       604 1.99996E+01-2.88481E-04-8.83570E-07 4.90625E-04 5.87289E-13 1.98870E-13
 -1       605 9.07827E+00-5.96843E-01 1.61634E-01 3.55978E+00-3.37116E-13 3.94691E-13
 -1       606 2.40316E+01-5.13861E+00 4.78639E-02 4.11225E+00 1.21708E-14-5.82344E-13
 -1       607 3.19916E+01-2.99747E+00-1.14065E-01 2.27099E+00-3.72792E-14 1.89682E-13
 -1       608 1.82235E+01-2.92860E+00 9.14708E-02-4.70324E+00-1.07206E-14-4.19265E-13
 -1       609 1.30229E+01 1.51549E+00 7.97690E-02 5.76751E+00 6.80730E-13-2.93815E-13
 -1       610 1.83810E+01-7.54755E-02 4.00518E-02 4.79957E+00 5.73842E-13-1.14940E-13
 -1       611 8.66876E+00 3.54544E+00 1.07194E-01 1.38938E-01 4.61803E-13-5.19758E-13
 -1       612 1.32676E+01 1.52264E+00 1.12515E-01-2.80343E+00 2.34998E-13-4.10161E-13
 -1       613 2.07812E+01-1.56131E+00 6.13151E-02-3.26300E+00 1.46064E-15-1.24742E-13
 -1       614 1.99997E+01-4.61371E-04-4.17795E-07 6.72371E-04 6.56599E-13 7.55252E-13
 -1       615 1.54791E+01-2.80057E+00 1.12456E-01-6.71681E+00 3.68764E-13 4.43864E-13
 -1       616 2.67881E+01 6.24074E+00-1.38639E-01-1.23385E+00-5.13763E-13-3.54572E-13
 -1       617 1.61790E+01-2.38369E+00 8.37428E-02 5.42218E+00-2.24636E-13-2.97019E-13
 -1       618 2.20320E+01 8.58030E-01-1.49725E-03-1.94506E+00-1.28629E-13-2.91532E-13
 -1       619 2.16482E+01 1.26772E+00 1.36726E-03-1.48584E+00-1.34671E-13-3.00618E-13
 -1       620 2.13090E+01 1.63124E+00 7.64072E-04-7.53625E-01-1.04907E-13-2.61237E-13
 -1       621 2.11512E+01 1.67465E+00 5.56942E-05 1.37441E-01-1.48550E-13-3.35037E-13
 -1       622 2.12234E+01 1.29154E+00-1.14603E-04 9.27576E-01-1.78468E-13-3.43001E-13
 -1       623 2.14240E+01 6.30039E-01 6.45593E-06 1.38629E+00-8.37916E-14-3.36719E-13
 -1       624 2.15971E+01-4.99490E-02 5.61172E-05 1.44949E+00 1.44876E-14-2.60336E-13
 -1       625 2.16352E+01-5.40457E-01 3.81629E-05 1.21275E+00 1.31421E-14-2.09302E-13
 -1       626 2.15243E+01-7.72133E-01-2.17459E-04 8.34181E-01 3.20323E-15-2.37446E-13
 -1       627 2.13123E+01-7.85631E-01-4.18493E-04 4.46548E-01 6.63886E-14-2.43890E-13
 -1       628 2.10614E+01-6.65181E-01-4.01712E-04 1.25172E-01 1.57068E-13-2.49365E-13
 -1       629 2.08192E+01-4.90248E-01-3.06726E-04-1.04338E-01 5.56613E-14-2.52488E-13
 -1       630 2.06115E+01-3.15043E-01-2.07812E-04-2.46115E-01-1.05351E-14-1.63409E-13
 -1       631 2.04464E+01-1.67963E-01-1.20130E-04-3.17162E-01-1.33595E-13-9.96085E-14
 -1       632 2.03216E+01-5.86382E-02-5.44014E-05-3.37263E-01 4.83315E-14-2.99061E-14
 -1       633 2.02305E+01 1.42741E-02-1.08352E-05-3.24165E-01 6.92358E-14-4.24397E-14
 -1       634 2.01652E+01 5.71560E-02 1.53349E-05-2.91892E-01-7.35320E-14 1.98622E-14
 -1       635 2.01188E+01 7.77450E-02 2.88739E-05-2.50624E-01-7.97259E-15-1.08771E-13
 -1       636 2.00860E+01 8.32046E-02 3.38375E-05-2.07214E-01 1.98262E-13-1.91816E-13
 -1       637 2.00626E+01 7.93334E-02 3.34691E-05-1.65903E-01 1.89506E-13-3.10768E-13
 -1       638 2.00457E+01 7.04178E-02 3.01572E-05-1.29021E-01 1.96494E-13-2.39563E-13
 -1       639 2.00334E+01 5.93946E-02 2.55294E-05-9.75779E-02 4.76531E-14-1.53095E-13
 -1       640 2.00243E+01 4.81267E-02 2.06128E-05-7.17306E-02 1.42515E-13-1.23267E-13
 -1       641 2.00176E+01 3.76869E-02 1.59966E-05-5.11299E-02-1.32640E-14 2.69684E-14
 -1       642 2.00125E+01 2.86035E-02 1.19725E-05-3.51624E-02 2.26438E-16-3.80084E-15
 -1       643 2.00087E+01 2.10532E-02 8.64277E-06-2.31124E-02-1.56455E-13 8.86536E-14
 -1       644 2.00059E+01 1.50016E-02 5.99801E-06-1.42621E-02-1.48187E-13 1.56000E-13
 -1       645 2.00039E+01 1.03011E-02 3.96991E-06-7.94994E-03-1.25175E-13 1.48904E-13
 -1       646 2.00024E+01 6.75444E-03 2.46499E-06-3.59822E-03 5.59530E-14 5.04101E-13
 -1       647 2.00013E+01 4.15445E-03 1.38496E-06-7.22555E-04-5.96338E-14 3.62544E-13
 -1       648 2.00005E+01 2.30609E-03 6.37981E-07 1.07031E-03 2.06001E-14 2.04376E-13
 -1       649 2.00000E+01 1.03768E-03 1.44050E-07 2.09098E-03-8.31744E-14 5.34995E-14
 -1       650 1.99997E+01 2.04832E-04-1.63328E-07 2.57867E-03 8.44219E-14-2.53336E-14
 -1       651 1.99995E+01-3.09650E-04-3.37371E-07 2.71317E-03 1.75903E-13-9.84681E-14
 -1       652 1.99994E+01-5.98276E-04-4.19455E-07 2.62621E-03 4.33378E-14-5.22523E-14
 -1       653 1.99994E+01-7.32305E-04-4.40928E-07 2.41167E-03 9.84880E-14 2.01061E-13
 -1       654 1.99994E+01-7.65494E-04-4.25490E-07 2.13418E-03 1.04354E-13-1.23440E-13
 -1       655 1.99994E+01-7.37703E-04-3.97138E-07 1.83632E-03 1.59658E-14-1.30295E-13
 -1       656 1.99995E+01-6.78100E-04-3.74301E-07 1.54414E-03 5.88208E-14 2.05713E-13
 -1       657 1.99995E+01-6.07398E-04-3.72275E-07 1.27172E-03-7.21895E-14 3.83822E-13
 -1       658 1.99996E+01-5.41536E-04-2.75715E-07 1.02670E-03 7.79539E-14 6.65411E-13
 -1       659 1.99996E+01-4.95401E-04-4.20958E-07 8.39105E-04 4.20001E-14 6.80492E-13
 -1       660 2.80630E+01 3.82351E+00-1.13587E-01-2.23674E+00-4.41255E-13-2.25792E-14
 -1       661 2.21407E+01-3.38900E+00 4.91610E-02 4.27871E+00-1.06436E-13-4.51096E-13
 -1       662 1.95351E+01 9.70174E-01 1.94194E-03 2.72113E+00-3.31093E-13-2.43472E-13
 -1       663 1.97799E+01 1.05282E+00 9.09496E-04 2.16773E+00-1.68510E-13-1.42407E-13
 -1       664 1.99823E+01 9.41129E-01 1.11217E-03 1.70568E+00-8.82712E-14-1.15223E-13
 -1       665 2.01105E+01 7.69484E-01 1.08096E-03 1.32480E+00 3.53322E-14 5.22697E-14
 -1       666 2.01740E+01 5.99742E-01 9.05286E-04 1.01666E+00-2.21395E-14 6.41469E-15
 -1       667 2.01924E+01 4.54953E-01 7.04227E-04 7.71923E-01 8.99541E-14-9.11782E-14
 -1       668 2.01837E+01 3.39794E-01 5.04347E-04 5.80319E-01 1.31154E-14-7.76824E-14
 -1       669 2.01603E+01 2.47762E-01 3.67064E-04 4.26141E-01 7.97261E-14-1.07267E-13
 -1       670 2.01333E+01 1.82469E-01 2.62035E-04 3.14613E-01 6.91202E-14-6.30132E-15
 -1       671 2.01063E+01 1.33883E-01 1.86097E-04 2.29890E-01-7.71641E-14 9.74310E-14
 -1       672 2.00820E+01 9.78872E-02 1.33020E-04 1.66034E-01 2.32086E-14 1.79561E-14
 -1       673 2.00614E+01 7.12479E-02 9.48577E-05 1.18241E-01 8.24512E-14 6.48357E-14
 -1       674 2.00447E+01 5.15339E-02 6.72880E-05 8.27462E-02 2.48261E-13 3.67558E-13
 -1       675 2.00315E+01 3.69500E-02 4.73580E-05 5.66262E-02-6.72690E-14 3.66084E-13
 -1       676 2.00215E+01 2.61785E-02 3.29658E-05 3.76168E-02-4.63306E-14 3.46266E-13
 -1       677 2.00140E+01 1.82508E-02 2.25935E-05 2.39702E-02 2.76434E-13 4.29055E-13
 -1       678 2.00086E+01 1.24510E-02 1.51481E-05 1.43399E-02 1.45632E-13 3.26414E-13
 -1       679 2.00047E+01 8.24519E-03 9.84230E-06 7.69063E-03 1.58219E-14 1.19804E-13
 -1       680 2.00021E+01 5.23252E-03 6.10825E-06 3.22972E-03-1.35509E-13 1.52562E-13
 -1       681 2.00004E+01 3.10959E-03 3.45757E-06 3.52882E-04-7.66618E-14 1.97095E-13
 -1       682 1.99993E+01 1.64601E-03 1.61920E-06-1.39745E-03-2.27706E-14 2.68549E-13
 -1       683 1.99987E+01 6.27302E-04 7.08577E-07-2.39422E-03 1.39714E-13 2.45421E-13
 -1       684 1.99984E+01 1.30221E-05-2.42181E-07-2.80553E-03 2.36297E-13 3.59497E-13
 -1       685 1.99984E+01-3.56109E-04-5.92663E-07-2.87953E-03 2.02102E-13 4.91113E-13
 -1       686 1.99984E+01-5.54687E-04-8.12406E-07-2.74649E-03 1.92898E-13 6.81350E-13
 -1       687 1.99985E+01-6.38345E-04-8.87536E-07-2.49766E-03 6.07724E-14 3.32208E-13
 -1       688 1.99987E+01-6.48129E-04-8.76509E-07-2.19519E-03-2.25674E-13 1.75536E-13
 -1       689 1.99989E+01-6.13979E-04-8.15490E-07-1.87939E-03-3.71856E-13 4.09033E-14
 -1       690 1.99990E+01-5.57605E-04-7.39687E-07-1.57467E-03-4.26095E-13 8.04634E-14
 -1       691 1.99992E+01-4.94906E-04-6.77923E-07-1.29384E-03-4.08178E-13-3.57013E-14
 -1       692 1.99993E+01-4.36557E-04-6.10813E-07-1.04143E-03-2.04130E-13 1.81488E-13
 -1       693 1.99995E+01-3.90228E-04-3.41348E-07-8.16683E-04 2.57871E-13 7.59085E-14
 -1       694 1.99995E+01-3.50165E-04-7.15628E-07-6.47222E-04 1.38030E-13-5.79228E-14
 -1       695 2.00003E+01-1.06864E-03 2.06541E-07-1.23745E-04 3.75017E-13-2.32455E-15
 -1       696 2.56251E+01-2.13234E+00-9.62175E-03 2.18108E+00 1.65028E-13 1.70749E-13
 -1       697 2.00001E+01-9.01471E-04 2.15799E-07-5.56079E-04 6.03759E-13-8.18510E-14
 -1       698 2.00003E+01-1.06740E-03 2.62541E-07 1.29463E-04 2.94260E-14-2.29678E-13
 -1       699 2.00002E+01-1.01144E-03 2.28680E-07-3.61836E-04 5.26467E-13-1.90557E-13
 -1       700 2.23614E+01 1.05357E+00-1.58938E-03-2.30042E+00-1.10497E-13-4.35933E-13
 -1       701 2.00002E+01-1.00972E-03 2.35207E-07 3.63150E-04 1.70197E-13-5.79960E-13
 -1       702 2.00001E+01-8.99190E-04 5.74552E-08 5.56953E-04 2.88950E-13-2.14937E-13
 -1       703 1.99999E+01-7.44300E-04 2.93244E-07 6.84529E-04 3.86979E-13 3.32628E-13
 -1       704 2.87501E+01-8.46158E-01-8.80132E-02 5.07278E-01 1.12969E-13-4.25451E-13
 -1       705 7.76457E+00 2.40837E+00 1.36148E-01 4.52449E+00 6.12871E-13-5.13402E-13
 -1       706 2.91411E+01 3.73034E+00-1.32997E-01 1.67540E+00-1.64306E-13-3.24591E-13
 -1       707 7.53468E+00 5.47371E-01 1.71287E-01-1.24440E+00-1.20523E-13 6.12177E-13
 -1       708 1.93898E+01 4.40371E-01 1.00998E-02 3.38374E+00-3.06899E-13-2.02828E-13
 -1       709 1.97454E+01-8.91837E-01 3.70592E-02 4.05095E+00-1.61510E-13-3.07586E-13
 -1       710 9.33537E+00-5.91331E-01 1.46326E-01-4.78235E+00 1.07123E-13 5.46500E-13
 -1       711 2.64997E+01-4.02986E+00-1.39263E-02-2.39721E+00 4.45560E-13-1.79533E-13
 -1       712 2.22798E+01 7.77568E-01 2.04509E-03-2.16552E+00-1.25997E-13-3.40474E-13
 -1       713 8.95628E+00 3.48492E+00 1.15640E-01 3.68240E+00 6.31280E-13-4.68528E-13
 -1       714 2.79600E+01-5.78512E-02-7.11841E-02-7.05568E-01-1.60580E-13 1.90407E-13
 -1       715 2.34592E+01 3.72429E-01-5.05314E-03-1.06958E+00 1.46031E-13-2.72837E-13
 -1       716 2.79131E+01 6.30195E+00-1.38236E-01 1.08981E+00-3.55285E-13-4.08834E-13
 -1       717 1.09607E+01 9.64034E-01 1.73023E-01-3.09994E+00 2.16934E-13-5.42261E-13
 -1       718 2.10704E+01-4.51497E+00 4.40233E-02-5.93252E+00 4.79033E-13 1.46821E-13
 -1       719 2.05983E+01-1.96816E+00 5.35881E-02 5.35290E+00 4.58477E-13 2.03310E-14
 -1       720 2.50262E+01-4.11047E+00 6.36161E-02-2.69483E+00-1.27544E-13-3.23006E-14
 -1       721 2.30990E+01 8.33581E-01-2.49920E-03-1.87257E+00 2.31225E-14-3.77802E-13
 -1       722 2.17508E+01-5.39512E-01-8.91475E-04 2.50288E+00 3.90455E-13-1.02905E-13
 -1       723 2.55009E+01 5.79019E+00-8.93572E-02 5.88996E-02-4.33088E-13-4.67682E-13
 -1       724 1.37085E+01-6.73388E-01 1.18355E-01 4.49514E+00-3.06980E-13 1.58276E-14
 -1       725 2.32652E+01-2.25767E-01-7.30765E-03 3.58419E-01 2.45816E-13-1.59250E-13
 -1       726 9.60773E+00 9.12631E-01 1.44474E-01 1.60484E+00-2.55959E-13 4.67563E-13
 -1       727 1.99999E+01-7.48499E-04 5.11332E-08-6.82272E-04 3.08068E-13 1.69069E-13
 -1       728 1.99997E+01-5.64122E-04 1.56082E-07-7.22600E-04 1.78529E-13-5.27833E-13
 -1       729 1.43482E+01-4.59659E-01 7.24293E-02 6.78342E+00 6.04062E-13-2.01384E-13
 -1       730 7.05199E+00 3.17997E+00 1.66598E-01 1.97422E+00 5.33877E-13-5.62661E-13
 -1       731 2.24161E+01 2.15094E+00-2.88572E-03-1.46303E+00-1.35127E-13-3.07764E-13
 -1       732 2.21285E+01 2.58658E+00-7.62727E-04-4.54872E-01-2.00230E-13-3.47043E-13
 -1       733 2.21094E+01 2.31141E+00-2.95204E-03 6.47152E-01-2.00941E-13-4.29047E-13
 -1       734 2.23204E+01 1.39219E+00-3.52138E-03 1.39909E+00-1.06934E-13-3.80269E-13
 -1       735 2.25241E+01 2.72633E-01-2.46408E-03 1.59365E+00 1.35574E-14-3.15750E-13
 -1       736 2.25176E+01-6.10111E-01-2.35758E-04 1.32181E+00 6.04766E-14-2.79230E-13
 -1       737 2.22663E+01-1.07389E+00 1.19023E-04 8.37261E-01 6.42768E-14-1.59772E-13
 -1       738 2.18608E+01-1.16268E+00-2.73591E-04 3.53502E-01 4.65026E-14-1.76842E-14
 -1       739 2.14138E+01-1.01370E+00-2.55619E-04-2.28860E-02 6.00729E-14-1.04412E-13
 -1       740 2.10067E+01-7.62742E-01-1.51394E-04-2.68145E-01 4.50540E-14-2.10931E-13
 -1       741 2.06776E+01-5.01396E-01-9.49466E-05-4.00585E-01 2.38781E-14-2.27961E-13
 -1       742 2.04332E+01-2.77596E-01-4.48309E-05-4.50663E-01-1.45997E-14-2.14740E-13
 -1       743 2.02635E+01-1.08424E-01-1.20795E-05-4.47038E-01 1.46831E-14-4.40477E-14
 -1       744 2.01522E+01 6.70226E-03 3.02265E-06-4.11981E-01 4.51510E-14-3.15137E-14
 -1       745 2.00832E+01 7.64949E-02 9.32589E-06-3.61194E-01 6.72823E-14-6.48652E-14
 -1       746 2.00429E+01 1.12057E-01 1.14906E-05-3.05031E-01-8.70807E-14 4.45740E-14
 -1       747 2.00209E+01 1.23906E-01 1.14651E-05-2.49888E-01 5.94772E-14 1.01309E-13
 -1       748 2.00100E+01 1.20713E-01 1.03261E-05-1.99391E-01 1.58540E-13-1.03498E-13
 -1       749 2.00054E+01 1.09013E-01 8.72201E-06-1.55295E-01 1.64312E-13-1.09810E-13
 -1       750 2.00039E+01 9.33811E-02 7.02953E-06-1.18151E-01 7.68278E-14-2.44804E-13
 -1       751 2.00039E+01 7.68007E-02 5.45426E-06-8.77699E-02 5.63682E-14-2.66628E-13
 -1       752 2.00043E+01 6.10569E-02 4.08974E-06-6.35479E-02 1.32551E-13-1.28668E-13
 -1       753 2.00047E+01 4.70912E-02 2.96492E-06-4.46864E-02 1.08625E-13-1.84708E-13
 -1       754 2.00048E+01 3.52843E-02 2.07248E-06-3.03301E-02-1.01123E-13-2.02780E-13
 -1       755 2.00047E+01 2.56691E-02 1.38705E-06-1.96534E-02-1.67363E-13-8.95444E-14
 -1       756 2.00044E+01 1.80813E-02 8.76299E-07-1.19078E-02-1.45002E-13 1.98808E-14
 -1       757 2.00040E+01 1.22609E-02 5.07253E-07-6.44410E-03 9.86600E-14-6.40966E-14
 -1       758 2.00035E+01 7.91611E-03 2.49470E-07-2.71757E-03-1.70751E-14 1.26381E-13
 -1       759 2.00029E+01 4.76252E-03 7.66525E-08-2.83973E-04-9.58253E-14 3.47881E-13
 -1       760 2.00024E+01 2.54299E-03-3.30073E-08 1.21037E-03-2.40739E-13 9.12594E-14
 -1       761 2.00019E+01 1.03684E-03-9.71756E-08 2.04076E-03-1.82163E-13 1.65773E-13
 -1       762 2.00014E+01 6.16931E-05-1.29620E-07 2.41688E-03-4.20840E-14 1.15843E-13
 -1       763 2.00011E+01-5.28706E-04-1.40753E-07 2.49492E-03 1.63672E-13-9.83583E-14
 -1       764 2.00008E+01-8.48721E-04-1.38503E-07 2.38845E-03 1.73609E-13-5.93435E-14
 -1       765 2.00005E+01-9.85819E-04-1.28503E-07 2.17778E-03 1.20832E-13-2.78396E-14
 -1       766 2.00003E+01-1.00560E-03-1.17687E-07 1.91781E-03 8.23143E-14 1.64251E-13
 -1       767 2.00001E+01-9.56541E-04-1.22671E-07 1.64449E-03 1.52567E-13 5.10976E-14
 -1       768 2.00000E+01-8.73804E-04-2.35423E-07 1.37951E-03 2.34556E-13-3.59084E-14
 -1       769 1.99999E+01-7.81596E-04 2.77629E-07 1.13109E-03 2.01433E-13 3.19697E-13
 -1       770 1.85990E+01 1.36536E+00-4.04872E-05 1.56188E+00-2.07636E-13-1.82113E-13
 -1       771 1.78669E+01 1.49427E+00 4.23500E-04 1.94718E+00-2.79452E-13-2.38883E-13
 -1       772 1.94739E+01 9.18643E-01 2.09894E-04 1.00741E+00 2.50451E-14 1.56889E-13
 -1       773 1.97031E+01 7.14985E-01 1.90198E-04 7.98015E-01 6.26161E-14 1.66111E-13
 -1       774 1.98461E+01 5.46546E-01 1.38449E-04 6.24280E-01 1.30695E-13 1.44473E-13
 -1       775 1.99346E+01 4.07402E-01 1.04070E-04 4.76065E-01 8.72309E-14-6.83363E-14
 -1       776 1.99816E+01 3.05714E-01 8.19741E-05 3.63173E-01-1.91463E-14-3.95371E-14
 -1       777 2.00062E+01 2.28161E-01 5.46634E-05 2.73476E-01 4.96622E-14 4.49112E-14
 -1       778 2.00174E+01 1.69480E-01 3.92725E-05 2.03194E-01 8.22991E-14 5.73702E-16
 -1       779 2.00211E+01 1.25240E-01 2.83479E-05 1.48773E-01-8.14457E-14-3.03239E-14
 -1       780 2.00207E+01 9.19574E-02 2.03518E-05 1.07119E-01 1.26288E-13 8.86422E-14
 -1       781 2.00185E+01 6.69653E-02 1.44806E-05 7.56154E-02 8.49779E-14 1.63345E-13
 -1       782 2.00155E+01 4.82465E-02 1.01801E-05 5.20915E-02 1.67204E-14-1.14761E-14
 -1       783 2.00124E+01 3.42818E-02 7.04529E-06 3.47738E-02-1.87956E-14 2.20950E-13
 -1       784 2.00097E+01 2.39249E-02 4.77430E-06 2.22313E-02 1.95922E-13 2.73300E-13
 -1       785 2.00073E+01 1.63062E-02 3.14442E-06 1.33210E-02 8.46909E-14 2.22883E-13
 -1       786 2.00054E+01 1.07625E-02 1.99685E-06 7.13921E-03-2.44471E-13 3.58409E-13
 -1       787 2.00039E+01 6.78528E-03 1.17195E-06 2.97801E-03-4.95523E-14 3.51255E-13
 -1       788 2.00027E+01 3.98287E-03 4.98868E-07 2.87348E-04 1.72477E-13 3.48558E-13
 -1       789 2.00018E+01 1.97714E-03 3.98521E-07-1.40835E-03 6.46055E-14 1.76518E-13
 -1       790 2.00011E+01 7.20541E-04-6.20791E-08-2.27775E-03 1.52940E-13 2.92631E-13
 -1       791 2.00006E+01-7.90285E-05-1.40383E-07-2.66075E-03 7.95883E-14 2.30961E-13
 -1       792 2.00003E+01-5.53317E-04-2.15306E-07-2.72686E-03 1.82607E-13 1.26285E-13
 -1       793 2.00001E+01-8.02329E-04-2.46098E-07-2.59860E-03 3.66643E-13 1.04305E-13
 -1       794 1.99999E+01-9.00627E-04-2.48663E-07-2.36197E-03-7.88191E-14 3.54249E-13
 -1       795 1.99998E+01-9.03203E-04-2.33965E-07-2.07526E-03-1.24103E-14 2.00863E-13
 -1       796 1.99997E+01-8.50142E-04-2.00945E-07-1.77621E-03-2.54201E-13 6.92664E-14
 -1       797 1.99997E+01-7.70352E-04-1.60488E-07-1.48769E-03-2.63132E-13-1.51860E-13
 -1       798 1.99997E+01-6.85323E-04-3.23542E-07-1.22245E-03-4.97686E-13-2.73131E-13
 -1       799 1.99997E+01-6.10707E-04-6.43939E-07-9.83696E-04 3.98888E-13-6.24240E-13
 -1       800 2.00005E+01-1.16408E-03 1.82986E-07 3.62450E-06 8.16153E-14-2.41961E-13
 -1       801 2.00001E+01-8.93749E-04 1.21928E-07 7.70412E-04 3.66505E-13 1.80347E-13
 -1       802 2.00005E+01-1.13265E-03 1.58865E-07 3.00221E-04 1.76470E-13-2.21796E-13
 -1       803 2.66206E+01-2.24902E+00-3.49132E-02 5.41872E-02 2.12117E-13-2.74985E-13
 -1       804 1.56655E+01 7.51601E-01 3.52136E-02 3.37060E+00-2.56972E-13 6.61016E-14
 -1       805 2.66754E+01 1.51229E+00-4.24910E-02-2.10305E+00-2.15444E-13-2.85362E-15
 -1       806 1.68921E+01 1.37845E+00 5.76937E-03 2.47898E+00-2.83964E-13-1.03122E-13
 -1       807 1.91567E+01-3.09701E+00 4.61880E-02-5.51065E+00 3.40762E-13 1.42678E-13
 -1       808 2.00004E+01-1.04041E-03-5.17958E-08 5.69747E-04 2.89293E-13-2.88854E-13
 -1       809 2.61322E+01 3.59453E+00-9.03982E-02 1.83323E+00-1.62773E-13-4.21829E-13
 -1       810 1.91209E+01 1.14680E+00 1.51734E-04 1.25807E+00-1.28039E-13 3.29336E-14
 -1       811 2.28028E+01 1.41968E+00-1.88010E-03-2.10208E+00-1.22317E-13-2.68245E-13
 -1       812 1.07264E+01 8.86985E-01 9.95811E-02-2.68745E+00-3.99108E-14 4.31568E-13
 -1       813 2.59916E+01-9.07756E-01-2.29988E-02-2.84670E-01 5.96116E-14 7.77789E-14
 -1       814 2.29871E+01-1.53292E+00 1.01202E-02 2.80525E+00 3.51992E-13 2.43924E-15
 -1       815 2.36940E+01-4.02974E+00 1.99770E-02-3.54416E+00 4.11826E-13-8.65042E-14
 -1       816 1.36318E+01-7.51409E-01 7.18785E-02-5.09796E+00 1.19089E-13 3.00572E-13
 -1       817 1.99999E+01-7.02476E-04 2.93489E-07 8.60505E-04 1.52621E-13 4.93573E-13
 -1       818 2.54390E+01 4.06780E+00-6.20451E-02-2.10518E+00-3.03943E-13-2.01343E-13
 -1       819 2.70065E+01 6.13705E-01-6.78520E-02 1.65978E+00 7.03083E-14-3.16774E-13
 -1       820 2.38922E+01 5.72033E-01-6.03458E-03-1.97479E+00 6.46900E-15-2.41304E-13
 -1       821 2.30765E+01 8.16936E-01 3.38708E-03-2.20750E+00-5.65882E-14-3.42782E-13
 -1       822 2.44194E+01 4.53533E+00-5.17040E-02-1.19942E+00-3.02872E-13-2.84172E-13
 -1       823 2.00004E+01-1.04330E-03-9.06327E-08-5.66670E-04 2.55626E-13-1.45407E-13
 -1       824 2.00000E+01-8.17154E-04 1.96535E-07-9.27903E-04 1.66196E-13-6.18992E-14
 -1       825 2.00002E+01-9.46932E-04 1.12997E-07-7.68993E-04 2.87835E-14 2.95424E-13
 -1       826 2.00005E+01-1.13437E-03 8.31656E-08-2.98427E-04 1.42826E-13-2.76573E-13
 -1       827 2.49749E+01-3.24339E+00-8.51843E-03-1.28059E+00 3.51795E-13-1.89791E-13
 -1       828 1.11164E+01 1.52672E+00 7.86754E-02-2.72701E-01-1.76588E-13 4.72695E-13
 -1       829 2.46988E+01-1.37598E-01-8.20922E-03-1.12029E+00 7.47805E-14-1.29115E-13
 -1       830 2.44732E+01-9.25806E-01-5.15565E-03 4.75969E-01 1.82953E-13-3.40969E-14
 -1       831 2.31838E+01 3.57729E+00-2.33218E-02 1.05813E-01-2.80837E-13-4.06366E-13
 -1       832 2.32980E+01 2.64783E+00-1.27631E-02 1.35048E+00-1.89119E-13-4.59987E-13
 -1       833 2.36405E+01 9.14383E-01-5.25852E-03 1.74492E+00 1.45283E-16-4.45252E-13
 -1       834 2.35897E+01-5.97010E-01-2.01980E-03 1.40647E+00 9.63902E-14-4.31502E-13
 -1       835 2.31935E+01-1.41228E+00 5.38543E-04 7.41750E-01 1.57109E-13-3.49112E-13
 -1       836 2.25297E+01-1.61320E+00-5.20528E-04 1.06336E-01 1.33235E-13-2.80926E-13
 -1       837 2.18224E+01-1.42211E+00-2.59300E-04-3.37344E-01 5.33562E-14-2.42358E-13
 -1       838 2.12064E+01-1.07094E+00 7.61478E-05-5.77859E-01 5.41972E-15-1.54086E-13
 -1       839 2.07305E+01-7.02962E-01 8.50651E-05-6.66649E-01 2.78976E-14-2.03572E-13
 -1       840 2.03950E+01-3.89458E-01 1.08278E-04-6.60385E-01 7.73744E-15-2.09191E-13
 -1       841 2.01763E+01-1.53467E-01 1.19251E-04-6.03197E-01 7.31295E-14-1.90404E-13
 -1       842 2.00450E+01 7.10363E-03 9.88207E-05-5.23863E-01 4.00567E-14 1.66472E-14
 -1       843 1.99743E+01 1.05004E-01 7.24301E-05-4.39382E-01 7.02825E-14 5.84578E-14
 -1       844 1.99427E+01 1.55699E-01 5.04891E-05-3.58947E-01 5.23759E-14 8.96052E-15
 -1       845 1.99345E+01 1.73578E-01 3.40230E-05-2.86980E-01 7.21920E-14 2.73491E-14
 -1       846 1.99391E+01 1.70439E-01 2.22258E-05-2.25120E-01 4.14084E-14 2.29583E-14
 -1       847 1.99495E+01 1.55190E-01 1.40396E-05-1.73460E-01 1.10132E-13-7.69486E-14
 -1       848 1.99615E+01 1.34117E-01 8.51403E-06-1.31292E-01-1.68903E-14-2.22417E-13
 -1       849 1.99729E+01 1.11368E-01 4.89686E-06-9.75364E-02 5.37973E-14-1.95215E-13
 -1       850 1.99826E+01 8.94787E-02 2.59925E-06-7.09924E-02 1.48283E-13-2.38043E-13
 -1       851 1.99902E+01 6.98309E-02 1.19105E-06-5.04750E-02 2.45175E-14-4.40657E-13
 -1       852 1.99958E+01 5.30310E-02 3.66348E-07-3.48895E-02-8.64598E-14-4.97988E-13
 -1       853 1.99996E+01 3.91925E-02-8.63993E-08-2.32652E-02 3.03191E-14-4.32397E-13
 -1       854 2.00021E+01 2.81413E-02-3.09634E-07-1.47674E-02-1.15802E-13-3.28324E-13
 -1       855 2.00035E+01 1.95550E-02-3.96527E-07-8.69549E-03-8.87852E-14-2.09865E-13
 -1       856 2.00042E+01 1.30543E-02-4.06957E-07-4.47347E-03-1.27928E-15-4.16773E-13
 -1       857 2.00043E+01 8.25886E-03-3.77202E-07-1.63650E-03 1.65904E-13-2.24505E-13
 -1       858 2.00041E+01 4.81780E-03-3.29189E-07 1.83952E-04-1.87683E-13-7.92568E-14
 -1       859 2.00037E+01 2.42520E-03-2.76004E-07 1.27506E-03 8.66503E-14 1.79181E-13
 -1       860 2.00032E+01 8.24545E-04-2.24800E-07 1.85670E-03-1.96404E-13 1.89230E-13
 -1       861 2.00027E+01-1.92632E-04-1.78995E-07 2.09412E-03-1.00840E-13-4.33309E-14
 -1       862 2.00021E+01-7.91423E-04-1.39709E-07 2.10906E-03 3.06757E-13 2.79705E-14
 -1       863 2.00017E+01-1.09964E-03-1.08237E-07 1.98913E-03 2.23192E-13 2.93763E-13
 -1       864 2.00013E+01-1.21428E-03-8.35193E-08 1.79568E-03 2.78300E-13 3.14733E-13
 -1       865 2.00009E+01-1.20745E-03-1.56328E-08 1.56995E-03 1.81860E-13 4.31349E-13
 -1       866 2.00006E+01-1.13170E-03 1.37185E-07 1.34005E-03 1.04712E-13 1.84669E-13
 -1       867 2.00004E+01-1.02915E-03-3.60751E-07 1.12203E-03 3.93122E-13-1.10044E-13
 -1       868 2.36982E+01 2.24500E+00-2.32558E-02-2.10884E+00-1.28498E-13-2.27547E-13
 -1       869 1.94503E+01 7.46249E-01-4.60621E-06 5.38078E-01 1.96567E-13-8.38510E-14
 -1       870 1.91562E+01 9.50000E-01-4.62210E-05 6.40402E-01 3.25088E-14-7.71263E-14
 -1       871 1.97841E+01 4.38033E-01-1.43107E-06 3.50273E-01 2.53453E-14-5.63091E-14
 -1       872 1.98679E+01 3.33645E-01 5.12508E-06 2.75217E-01-5.56809E-14-1.06125E-13
 -1       873 1.99221E+01 2.52446E-01 3.80063E-06 2.12224E-01-2.83251E-14-6.61462E-16
 -1       874 1.99566E+01 1.89763E-01 3.08000E-06 1.60649E-01-1.94391E-14 1.20345E-13
 -1       875 1.99781E+01 1.41612E-01 2.49532E-06 1.19328E-01-7.78977E-14 1.30958E-13
 -1       876 1.99912E+01 1.04777E-01 1.96272E-06 8.68524E-02 1.43065E-14 2.31756E-13
 -1       877 1.99988E+01 7.67198E-02 1.49356E-06 6.17853E-02 1.39292E-13 3.42960E-13
 -1       878 2.00031E+01 5.54604E-02 1.10034E-06 4.27759E-02-1.88515E-13 3.60376E-13
 -1       879 2.00051E+01 3.94579E-02 7.84860E-07 2.86204E-02 6.28337E-14 1.63563E-13
 -1       880 2.00059E+01 2.75130E-02 5.43558E-07 1.82841E-02 2.82274E-13 1.60273E-13
 -1       881 2.00059E+01 1.86899E-02 3.72740E-07 1.09015E-02-7.73252E-14 1.05293E-13
 -1       882 2.00055E+01 1.22571E-02 2.74457E-07 5.76426E-03-2.90691E-13 1.74429E-13
 -1       883 2.00048E+01 7.64045E-03 1.72190E-08 2.30080E-03 7.29748E-14 1.17258E-13
 -1       884 2.00041E+01 4.26311E-03 1.87962E-07-1.55847E-05 2.75292E-13 2.14357E-13
 -1       885 2.00034E+01 2.08645E-03-2.45747E-08-1.32683E-03 3.80753E-15 1.82442E-13
 -1       886 2.00027E+01 6.47577E-04-1.50195E-08-2.03648E-03 3.01407E-13 1.72278E-13
 -1       887 2.00022E+01-2.56504E-04-2.99488E-08-2.33801E-03 1.53267E-13 1.06267E-13
 -1       888 2.00016E+01-7.82229E-04-3.49683E-08-2.37515E-03 9.91490E-14 1.73191E-13
 -1       889 2.00012E+01-1.04756E-03-3.63653E-08-2.25132E-03-5.68589E-14 3.88124E-13
 -1       890 2.00009E+01-1.14045E-03-3.71617E-08-2.03884E-03-1.00268E-13 2.47225E-13
 -1       891 2.00006E+01-1.12572E-03-4.02515E-08-1.78659E-03-1.14428E-13 5.18869E-13
 -1       892 2.00004E+01-1.05062E-03 5.46598E-08-1.52579E-03-1.28936E-13 3.00303E-13
 -1       893 2.00002E+01-9.48138E-04 1.13126E-07-1.27697E-03-1.76935E-13 1.28726E-13
 -1       894 2.00001E+01-8.81765E-04 1.26317E-07-1.09481E-03-1.45993E-14-2.11916E-13
 -1       895 2.48830E+01 2.23360E+00-2.31696E-02-2.36902E+00-1.87093E-13-2.06133E-13
 -1       896 2.00008E+01-1.26814E-03 1.27168E-07 1.84217E-04-6.64019E-15-2.32989E-13
 -1       897 1.80977E+01 1.43854E+00-2.61199E-04 8.41420E-01-2.27725E-13-9.80891E-14
 -1       898 2.46469E+01 1.11412E+00-1.64302E-02-2.27452E+00-7.46074E-14-1.94780E-13
 -1       899 2.33401E+01 3.42421E+00-7.58788E-03-1.27495E+00-2.17875E-13-3.14378E-13
 -1       900 1.87243E+01 1.18599E+00-1.17568E-04 7.42814E-01-1.36038E-13-1.57920E-13
 -1       901 1.72057E+01-1.28086E+00 2.83364E-02-4.57528E+00 2.11625E-13 1.42334E-13
 -1       902 2.15308E+01-2.99620E+00 1.83431E-02-3.68361E+00 3.23170E-13-7.56927E-14
 -1       903 1.96519E+01 5.74629E-01 1.16737E-05 4.39103E-01 1.06079E-13-1.27517E-13
 -1       904 1.71969E+01 1.67382E+00 6.78510E-04 9.41982E-01-2.22821E-13 2.87541E-15
 -1       905 1.37371E+01 6.27557E-01 4.05033E-02-3.23909E+00 1.51892E-14 2.62837E-13
 -1       906 2.00008E+01-1.20642E-03-3.01307E-08 8.50077E-04 2.27287E-13 1.19422E-13
 -1       907 2.50450E+01 9.34115E-01-2.82798E-02 1.82722E+00 4.89626E-15-4.34296E-13
 -1       908 2.00007E+01-1.20566E-03-2.08887E-07-5.23204E-04 1.72596E-13-1.96616E-13
 -1       909 2.00006E+01-1.12820E-03 4.19499E-07-7.89455E-04-2.13521E-13 3.09044E-13
 -1       910 1.34483E+01 1.22203E+00 1.00736E-01 2.65939E+00-3.06600E-13 2.40434E-13
 -1       911 2.30968E+01-2.95653E+00 2.09574E-04-2.05076E+00 3.62065E-13-1.50982E-13
 -1       912 2.00009E+01-1.26433E-03-3.18850E-07 5.14094E-04 1.87963E-14-4.39468E-14
 -1       913 2.00008E+01-1.27121E-03 6.91764E-08-1.78181E-04 2.79747E-13-2.86726E-13
 -1       914 1.58933E+01 1.80958E+00 2.05972E-03 1.06709E+00-1.70101E-13 2.20935E-13
 -1       915 1.31534E+01 1.49440E+00 2.89392E-02-1.52972E+00-1.15302E-13 3.14326E-13
 -1       916 2.51821E+01-1.95907E+00-1.57905E-02 4.16099E-01 2.43361E-13-2.50949E-13
 -1       917 2.53460E+01-6.49130E-01-2.53690E-02 1.34937E+00 9.89113E-14-3.40280E-13
 -1       918 1.36476E+01 1.77533E+00 2.97122E-02 9.25825E-01-1.30722E-13 3.00778E-13
 -1       919 1.51821E+01 1.60838E+00 8.02050E-03 1.89233E+00-1.66145E-13 2.23266E-13
 -1       920 2.43260E+01-1.78048E+00 1.23695E-02 5.17160E-01 2.45307E-13-3.13688E-13
 -1       921 2.32807E+01-2.20667E+00-2.58392E-03-3.67239E-01 2.44204E-13-2.14485E-13
 -1       922 2.22100E+01-1.89927E+00 7.23169E-04-8.92935E-01 9.99600E-14-1.49343E-13
 -1       923 2.13292E+01-1.40019E+00 4.78220E-04-1.08989E+00 9.77174E-14-1.51207E-13
 -1       924 2.06902E+01-8.92652E-01-2.82609E-05-1.08116E+00 5.34907E-14-5.66707E-15
 -1       925 2.02699E+01-4.75108E-01-2.21230E-04-9.67618E-01-4.27202E-14-6.44211E-14
 -1       926 2.00171E+01-1.69549E-01-1.73955E-04-8.16844E-01 5.23190E-14-7.70820E-14
 -1       927 1.98815E+01 3.37186E-02-1.40116E-04-6.64647E-01 1.78262E-13 8.91139E-15
 -1       928 1.98224E+01 1.55167E-01-1.19947E-04-5.27548E-01 1.69037E-13 1.14101E-13
 -1       929 1.98100E+01 2.16446E-01-9.69400E-05-4.11271E-01 6.55094E-14 7.37010E-14
 -1       930 1.98235E+01 2.36518E-01-7.35640E-05-3.16156E-01 9.27380E-14 1.40107E-13
 -1       931 1.98494E+01 2.30450E-01-5.31230E-05-2.40147E-01-1.10787E-14 2.61432E-14
 -1       932 1.98790E+01 2.09422E-01-3.67242E-05-1.80372E-01-4.61939E-14-9.38455E-14
 -1       933 1.99077E+01 1.81256E-01-2.42811E-05-1.33923E-01 1.26727E-14-2.98642E-13
 -1       934 1.99329E+01 1.51103E-01-1.51867E-05-9.81850E-02 1.77659E-14-2.10267E-13
 -1       935 1.99537E+01 1.22119E-01-8.77756E-06-7.09409E-02 5.42574E-14-2.74520E-13
 -1       936 1.99700E+01 9.60373E-02-4.41900E-06-5.03675E-02-5.39616E-14-4.16133E-13
 -1       937 1.99822E+01 7.36297E-02-1.57209E-06-3.49926E-02 3.89241E-14-4.94952E-13
 -1       938 1.99911E+01 5.50543E-02 1.92499E-07-2.36398E-02 2.83779E-14-2.05551E-13
 -1       939 1.99971E+01 4.01048E-02 1.20409E-06-1.53751E-02 7.18194E-14-3.21567E-13
 -1       940 2.00010E+01 2.83834E-02 1.70706E-06-9.46072E-03-4.04694E-14-1.78511E-13
 -1       941 2.00034E+01 1.94145E-02 1.88047E-06-5.31709E-03-4.64362E-14-1.27234E-13
 -1       942 2.00046E+01 1.27151E-02 1.85109E-06-2.49153E-03 1.96396E-14-2.81844E-13
 -1       943 2.00050E+01 7.83529E-03 1.70514E-06-6.32984E-04 2.10195E-13-2.82437E-13
 -1       944 2.00049E+01 4.37864E-03 1.50275E-06 5.28286E-04 1.83237E-13-1.58580E-14
 -1       945 2.00045E+01 2.00943E-03 1.28162E-06 1.19736E-03-1.48900E-13-1.34715E-13
 -1       946 2.00040E+01 4.52087E-04 1.06455E-06 1.52821E-03-2.69178E-13-1.77725E-13
 -1       947 2.00034E+01-5.13838E-04 8.64834E-07 1.63465E-03 1.42810E-13-3.62258E-14
 -1       948 2.00028E+01-1.06078E-03 6.92458E-07 1.59937E-03 3.58331E-13-3.79281E-14
 -1       949 2.00022E+01-1.32084E-03 5.42590E-07 1.48107E-03 2.70364E-13-5.22543E-14
 -1       950 2.00017E+01-1.39351E-03 3.95095E-07 1.32022E-03 1.53807E-13-2.02024E-13
 -1       951 2.00013E+01-1.35238E-03 4.09312E-07 1.14429E-03 1.59381E-13-4.56072E-13
 -1       952 2.00010E+01-1.28716E-03-1.72105E-07 9.94398E-04 1.74096E-13-3.97353E-14
 -1       953 2.37834E+01 4.18911E+00-2.63524E-02 1.85736E-01-2.96491E-13-3.80669E-13
 -1       954 1.98098E+01 3.35098E-01-6.59585E-06 1.83456E-01-9.04886E-14-2.42151E-14
 -1       955 1.97132E+01 4.33094E-01-1.33434E-05 2.23759E-01-1.55303E-13-4.83518E-14
 -1       956 1.99219E+01 1.95345E-01-2.94298E-06 1.13056E-01-1.54691E-13 5.39708E-14
 -1       957 1.99526E+01 1.47042E-01-1.79671E-06 8.53909E-02 4.91675E-16 1.62955E-13
 -1       958 1.99732E+01 1.09472E-01-1.05511E-06 6.28847E-02 4.85831E-15 1.54099E-13
 -1       959 1.99866E+01 8.04704E-02-5.89100E-07 4.50760E-02-1.31755E-14 1.88631E-13
 -1       960 1.99952E+01 5.82671E-02-3.02839E-07 3.13294E-02-6.11412E-14 7.21704E-14
 -1       961 2.00004E+01 4.14289E-02-1.29040E-07 2.09658E-02 1.93795E-13 7.77003E-14
 -1       962 2.00034E+01 2.87990E-02-1.94174E-08 1.33369E-02 1.41493E-13 1.91940E-13
 -1       963 2.00049E+01 1.94468E-02 1.48409E-07 7.86287E-03-4.10921E-14-3.88717E-14
 -1       964 2.00055E+01 1.26228E-02-1.10904E-08 4.04393E-03-1.26528E-13-3.08732E-13
 -1       965 2.00054E+01 7.53675E-03 1.28092E-07 1.37863E-03-3.02188E-14-8.98913E-14
 -1       966 2.00050E+01 4.18416E-03 7.03437E-08-2.24010E-04 5.36264E-14 7.75682E-14
 -1       967 2.00044E+01 1.90464E-03 6.58847E-08-1.18099E-03-6.62814E-14 3.06418E-13
 -1       968 2.00038E+01 4.15537E-04 5.84254E-08-1.68542E-03 1.68453E-13 4.61489E-13
 -1       969 2.00031E+01-5.04350E-04 5.20934E-08-1.88518E-03 1.88257E-13 4.24929E-13
 -1       970 2.00025E+01-1.02384E-03 4.46301E-08-1.88909E-03 7.58655E-14 2.77922E-13
 -1       971 2.00020E+01-1.27022E-03 3.76341E-08-1.77521E-03 1.84319E-14 4.77895E-13
 -1       972 2.00015E+01-1.33827E-03 2.16086E-08-1.59807E-03-2.90825E-13 3.16562E-13
 -1       973 2.00011E+01-1.29728E-03-5.78001E-09-1.39414E-03 6.62254E-14 1.72987E-13
 -1       974 2.00008E+01-1.20015E-03-2.47221E-07-1.18745E-03 1.69025E-14 2.11689E-13
 -1       975 2.39456E+01 3.11108E+00-2.53906E-02-1.88061E+00-2.17084E-13-2.92522E-13
 -1       976 2.00004E+01-1.01552E-03-5.40663E-07-9.65662E-04-8.82728E-14 5.73996E-14
 -1       977 1.98764E+01 2.57002E-01-4.63654E-06 1.45957E-01-5.46738E-14-7.85040E-14
 -1       978 1.86667E+01 1.09080E+00-1.75578E-04 2.90227E-01-8.91040E-14-1.27537E-13
 -1       979 1.90744E+01 8.88149E-01-7.22104E-05 3.09675E-01 1.17045E-13-1.00855E-13
 -1       980 1.95564E+01-1.66411E+00 1.11449E-02-3.51787E+00 3.19667E-13-1.09217E-13
 -1       981 1.64276E+01 1.79037E-01 1.14129E-02-3.09463E+00 2.94392E-14 1.31893E-14
 -1       982 1.72840E+01 1.52375E+00 7.35063E-04 6.95030E-02-8.28210E-14-1.00954E-14
 -1       983 1.80922E+01 1.30942E+00-1.31301E-04 2.18923E-01-1.65690E-13-1.62471E-13
 -1       984 1.93688E+01 7.06682E-01-4.91257E-05 2.95657E-01 2.50474E-13-1.81457E-13
 -1       985 1.61233E+01 1.70587E+00 7.15999E-03-1.75049E-01-3.26556E-14 1.93818E-13
 -1       986 1.54929E+01 1.04479E+00 6.93010E-03-2.13270E+00-3.30745E-14 1.46743E-13
 -1       987 2.00005E+01-1.10774E-03-8.18957E-07-1.07643E-03-1.53651E-13 1.14755E-14
 -1       988 2.00010E+01-1.31387E-03 2.22134E-07-7.00141E-04-5.79524E-14 3.23567E-13
 -1       989 2.00012E+01-1.40022E-03-3.20557E-07 4.85438E-06-3.83359E-14-5.37308E-13
 -1       990 1.49478E+01 1.87114E+00 1.37935E-02 1.84096E-01-1.17705E-13 3.28911E-13
 -1       991 2.00011E+01-1.38411E-03 1.64854E-07-3.59365E-04 1.39502E-15-3.01630E-13
 -1       992 2.00013E+01-1.42305E-03-5.10675E-08 3.88381E-04 1.90299E-13 3.44716E-14
 -1       993 2.12964E+01-2.19279E+00 2.99402E-03-2.60074E+00 2.91723E-13-7.94481E-14
 -1       994 1.95720E+01 5.56257E-01-1.14745E-05 2.63564E-01 4.08689E-14-2.84331E-13
 -1       995 2.19858E+01-2.14038E+00-2.75257E-03-1.68677E+00 2.04814E-13-7.07466E-14
 -1       996 1.97937E+01 3.16706E-01-1.84303E-06 1.00575E-01-9.03366E-14 1.01518E-13
 -1       997 2.09860E+01-1.43945E+00-4.38432E-05-1.67814E+00 1.32003E-13-2.92030E-14
 -1       998 2.03200E+01-8.22247E-01-7.32280E-04-1.47893E+00 1.03465E-13-6.03821E-14
 -1       999 1.99360E+01-3.58923E-01-4.81291E-04-1.21207E+00-4.67815E-14-2.31416E-14
 -1      1000 1.97391E+01-4.50812E-02-3.56233E-05-9.53326E-01-5.37103E-15 1.46628E-13
 -1      1001 1.96597E+01 1.48967E-01 5.90167E-05-7.29454E-01 1.32573E-13-9.88607E-15
 -1      1002 1.96504E+01 2.54470E-01 5.61558E-05-5.47840E-01 2.00683E-13-1.44877E-13
 -1      1003 1.96790E+01 2.98565E-01 4.50950E-05-4.05989E-01 2.70235E-14-4.74454E-14
 -1      1004 1.97252E+01 3.02712E-01 3.51816E-05-2.97913E-01 9.12014E-14-1.84183E-13
 -1      1005 1.97765E+01 2.82917E-01 2.65105E-05-2.16907E-01-1.12894E-15-1.49271E-13
 -1      1006 1.98257E+01 2.50520E-01 1.92580E-05-1.56840E-01-6.40535E-14-9.86606E-14
 -1      1007 1.98691E+01 2.13151E-01 1.32132E-05-1.12613E-01-1.62842E-13-2.50003E-13
 -1      1008 1.99054E+01 1.75656E-01 8.50659E-06-8.02090E-02 2.80507E-14-4.10157E-13
 -1      1009 1.99344E+01 1.40867E-01 4.93613E-06-5.65570E-02-1.11332E-14-5.08034E-13
 -1      1010 1.99568E+01 1.10227E-01 2.34021E-06-3.93593E-02 4.12071E-14-3.81236E-13
 -1      1011 1.99735E+01 8.42615E-02 5.46991E-07-2.69135E-02-1.70877E-14-2.90537E-13
 -1      1012 1.99855E+01 6.29268E-02-6.14628E-07-1.79647E-02 2.93437E-13-1.63441E-13
 -1      1013 1.99938E+01 4.58524E-02-1.30094E-06-1.15879E-02-9.72353E-14-4.81812E-14
 -1      1014 1.99993E+01 3.25087E-02-1.64270E-06-7.09994E-03-8.45432E-14-2.55121E-13
 -1      1015 2.00027E+01 2.23136E-02-1.74114E-06-3.99440E-03-5.28715E-14-3.37414E-13
 -1      1016 2.00045E+01 1.46986E-02-1.69079E-06-1.89504E-03-3.23410E-14-3.55078E-13
 -1      1017 2.00054E+01 9.14503E-03-1.56114E-06-5.21197E-04 1.93004E-13-2.72140E-13
 -1      1018 2.00055E+01 5.20106E-03-1.37966E-06 3.35892E-04 2.99000E-13-3.61428E-13
 -1      1019 2.00052E+01 2.48682E-03-1.17984E-06 8.31202E-04-2.73703E-13-4.18965E-13
 -1      1020 2.00047E+01 6.91601E-04-9.83020E-07 1.07907E-03-1.30588E-14-1.71717E-13
 -1      1021 2.00041E+01-4.32709E-04-8.00846E-07 1.16305E-03 5.12127E-14 3.88496E-13
 -1      1022 2.00034E+01-1.08011E-03-6.36830E-07 1.14335E-03 1.42534E-13-1.02011E-13
 -1      1023 2.00028E+01-1.39941E-03-4.82539E-07 1.06264E-03 6.61432E-14-3.81411E-13
 -1      1024 2.00022E+01-1.50082E-03 1.40725E-08 9.50978E-04 7.32640E-14-3.57293E-13
 -1      1025 2.00016E+01-1.47192E-03-1.09986E-07 8.27191E-04 2.21844E-13-1.10868E-13
 -1      1026 1.97003E+01 4.02956E-01-1.90607E-06 1.13279E-01-1.64270E-13-2.97860E-14
 -1      1027 1.99421E+01 1.43091E-01-3.44242E-06 5.23798E-02-1.32739E-14 9.35740E-15
 -1      1028 1.99086E+01 1.88784E-01-3.62592E-06 6.76820E-02-7.88563E-14 1.07931E-13
 -1      1029 1.99812E+01 7.88042E-02-2.53737E-06 2.83888E-02-5.09411E-15 1.62489E-13
 -1      1030 1.99916E+01 5.70368E-02-2.04465E-06 1.98266E-02 2.74798E-14 1.35903E-13
 -1      1031 1.99983E+01 4.04379E-02-1.58805E-06 1.32644E-02 5.92371E-14 1.52638E-13
 -1      1032 2.00024E+01 2.79518E-02-1.13636E-06 8.38458E-03 2.17786E-13 2.14753E-13
 -1      1033 2.00046E+01 1.86932E-02-1.29595E-06 4.85743E-03 3.41829E-14 2.31206E-13
 -1      1034 2.00057E+01 1.16782E-02-8.15254E-07 2.30312E-03-2.56527E-13 2.68879E-13
 -1      1035 2.00058E+01 6.96430E-03-5.32125E-07 6.95608E-04-1.49857E-13 3.59511E-13
 -1      1036 2.00056E+01 3.68698E-03-3.86637E-07-3.26705E-04-1.68207E-13 4.58350E-13
 -1      1037 2.00050E+01 1.48362E-03-2.47390E-07-9.25473E-04-1.49040E-14 3.30609E-13
 -1      1038 2.00044E+01 6.59297E-05-1.45937E-07-1.22976E-03 1.86056E-13 6.07424E-13
 -1      1039 2.00037E+01-7.89061E-04-7.57021E-08-1.33698E-03 1.85424E-13 4.37616E-13
 -1      1040 2.00030E+01-1.25152E-03-2.91717E-08-1.31884E-03-7.65802E-14 3.73421E-13
 -1      1041 2.00024E+01-1.44960E-03 6.12555E-08-1.22663E-03 4.58001E-14 2.75249E-13
 -1      1042 2.00018E+01-1.47657E-03 5.10424E-07-1.09677E-03-4.07642E-14 1.12849E-13
 -1      1043 2.00013E+01-1.40798E-03 5.74626E-07-9.53353E-04 7.27264E-14 1.53057E-13
 -1      1044 2.00012E+01-1.37640E-03 2.11120E-07 7.00195E-04 4.41542E-13 8.14544E-14
 -1      1045 1.98609E+01 2.45979E-01-3.33890E-06 8.43236E-02-1.93519E-13 1.41519E-13
 -1      1046 1.84419E+01-4.65169E-01 3.60334E-04-2.75439E+00 4.91519E-14-2.20568E-13
 -1      1047 1.88089E+01 9.21166E-01-6.81386E-05-4.06923E-02 6.88156E-14-9.95649E-14
 -1      1048 1.99654E+01 1.06997E-01-3.03074E-06 3.92076E-02 1.24645E-13-3.88860E-14
 -1      1049 1.69556E+01 1.27413E+00-6.06037E-04-9.46226E-01 4.46560E-14 7.46262E-14
 -1      1050 1.91463E+01 7.68667E-01-9.71152E-06 5.73655E-02 2.64089E-13-8.92952E-14
 -1      1051 1.74387E+01 2.86549E-01 5.31640E-03-2.41230E+00 4.46517E-14-7.47251E-14
 -1      1052 2.00017E+01-1.52855E-03-7.01248E-07 3.68301E-05 1.43195E-14-3.39512E-13
 -1      1053 1.83659E+01 1.06886E+00-1.02454E-04-2.14538E-01-2.33487E-13-1.56241E-14
 -1      1054 2.00016E+01-1.49877E-03-2.04027E-07-5.55407E-04-2.20348E-13-3.17322E-13
 -1      1055 1.98804E+01-1.16370E+00-4.51155E-04-2.49774E+00 1.78460E-13 3.36998E-14
 -1      1056 1.95693E+01 5.07755E-01 7.72599E-06 1.16960E-01-9.01526E-14 1.50529E-13
 -1      1057 1.77626E+01 1.20471E+00 1.76340E-03-4.98696E-01-5.23486E-14 3.96267E-14
 -1      1058 2.00018E+01-1.52620E-03 3.00433E-07 4.65496E-04 3.86667E-13 2.91134E-13
 -1      1059 1.97773E+01-8.07920E-01 5.17632E-04-2.08649E+00 1.15887E-14-1.79744E-14
 -1      1060 1.94462E+01-2.54017E-01-8.87541E-04-1.59898E+00 1.48170E-14-1.92034E-13
 -1      1061 1.93288E+01 9.11923E-02 2.02048E-05-1.18604E+00 3.12947E-14-1.86187E-13
 -1      1062 1.93332E+01 2.87793E-01 2.95066E-04-8.54138E-01 1.19693E-14-1.08484E-13
 -1      1063 1.93960E+01 3.83004E-01 1.89861E-04-6.03747E-01 8.36133E-14-8.31160E-14
 -1      1064 1.94841E+01 4.11587E-01 1.19342E-04-4.20091E-01 4.52561E-14-1.96223E-13
 -1      1065 1.95777E+01 3.98997E-01 7.46689E-05-2.88715E-01-3.02090E-14-2.46648E-13
 -1      1066 1.96660E+01 3.63257E-01 4.52942E-05-1.96479E-01 7.27427E-14-1.69902E-13
 -1      1067 1.97436E+01 3.16561E-01 2.65759E-05-1.32662E-01 4.21986E-14-2.13443E-13
 -1      1068 1.98088E+01 2.66787E-01 1.41282E-05-8.89850E-02-1.18849E-13-1.99765E-13
 -1      1069 1.98616E+01 2.18754E-01 6.97212E-06-5.93403E-02-1.22412E-13-1.02613E-13
 -1      1070 1.99031E+01 1.75144E-01 2.73902E-06-3.93294E-02-7.69243E-14-2.13018E-13
 -1      1071 1.99348E+01 1.37202E-01 3.73918E-07-2.58688E-02 1.11970E-13-2.39375E-13
 -1      1072 1.99584E+01 1.05254E-01-8.31736E-07-1.68331E-02 2.80659E-14-1.03911E-13
 -1      1073 1.99754E+01 7.90667E-02-1.34305E-06-1.07767E-02 7.95238E-14 1.47633E-14
 -1      1074 1.99873E+01 5.80964E-02-1.46065E-06-6.72575E-03 2.45651E-14-2.84505E-13
 -1      1075 1.99954E+01 4.16591E-02-1.37547E-06-4.02708E-03-3.06912E-13-3.00301E-13
 -1      1076 2.00006E+01 2.90367E-02-1.17932E-06-2.24307E-03-1.32816E-13-4.37604E-13
 -1      1077 2.00037E+01 1.95397E-02-1.12403E-06-1.07976E-03-1.00516E-15-2.53175E-13
 -1      1078 2.00053E+01 1.25498E-02-9.40320E-07-3.37929E-04 2.10794E-14-2.17707E-13
 -1      1079 2.00059E+01 7.52565E-03-7.19442E-07 1.17241E-04 1.07057E-13-1.54780E-13
 -1      1080 2.00059E+01 4.01297E-03-5.32234E-07 3.79049E-04 3.66386E-14-4.91723E-13
 -1      1081 2.00055E+01 1.63936E-03-3.82186E-07 5.11953E-04 1.12928E-13-1.61400E-13
 -1      1082 2.00049E+01 1.05998E-04-2.66442E-07 5.60775E-04 1.49546E-13-8.12878E-14
 -1      1083 2.00042E+01-8.22128E-04-1.78035E-07 5.56683E-04-1.98791E-13-4.67908E-13
 -1      1084 2.00034E+01-1.32645E-03-1.06506E-07 5.21224E-04 2.09631E-13-3.07566E-13
 -1      1085 2.00028E+01-1.54430E-03-2.82983E-07 4.69325E-04 2.32015E-14 1.04057E-13
 -1      1086 2.00022E+01-1.57704E-03-5.67191E-07 4.73127E-04 2.89399E-13 2.81241E-13
 -1      1087 1.97246E+01 3.58125E-01 2.87743E-06 2.63874E-02-3.75577E-14-5.68265E-14
 -1      1088 1.99916E+01 5.25708E-02 2.87680E-07 9.79385E-03 1.08823E-13 3.55585E-14
 -1      1089 1.99811E+01 7.28403E-02 8.49516E-07 1.38038E-02-7.78130E-14-1.10142E-13
 -1      1090 2.00025E+01 2.53911E-02-4.27531E-07 4.17732E-03 1.51112E-13 5.48394E-13
 -1      1091 2.00049E+01 1.63908E-02-5.82933E-07 2.32949E-03-6.23600E-14 4.98505E-13
 -1      1092 2.00059E+01 1.02450E-02-5.02405E-07 1.10740E-03-1.77952E-13 3.35239E-13
 -1      1093 2.00061E+01 5.89068E-03-6.43783E-07 2.85542E-04 2.32848E-15 1.09515E-13
 -1      1094 2.00058E+01 2.89639E-03-6.21165E-07-2.33319E-04-1.67668E-13 6.59878E-14
 -1      1095 2.00053E+01 9.11475E-04-5.69862E-07-5.33513E-04 6.83079E-14 8.42112E-14
 -1      1096 2.00046E+01-3.39102E-04-5.05952E-07-6.81522E-04 1.62035E-13 9.90464E-14
 -1      1097 2.00038E+01-1.06799E-03-4.38844E-07-7.28069E-04 9.54745E-14 3.46152E-13
 -1      1098 2.00031E+01-1.43697E-03-3.26927E-07-7.10454E-04 1.71529E-13 1.49873E-13
 -1      1099 2.00025E+01-1.56834E-03-7.51815E-07-6.56096E-04 1.05733E-13-3.16458E-14
 -1      1100 2.00020E+01-1.56252E-03-8.72749E-07-6.09401E-04 5.02114E-14-3.24665E-13
 -1      1101 1.99110E+01 1.73380E-01 3.89976E-06 2.90569E-02-2.81817E-14-1.84457E-13
 -1      1102 1.99429E+01 1.32034E-01 2.62636E-06 2.38792E-02 1.23344E-13-1.89545E-13
 -1      1103 1.93903E+01 6.30014E-01 2.41334E-05 1.02715E-01 1.06094E-13 1.58656E-13
 -1      1104 1.99983E+01 3.70660E-02-1.77612E-07 6.60548E-03-4.11117E-14 1.55308E-13
 -1      1105 1.99655E+01 9.89363E-02 1.61734E-06 1.85858E-02-9.02391E-14-2.48136E-13
 -1      1106 1.98062E+01 2.85576E-01 7.06767E-06 3.31975E-02-1.59637E-13-2.21797E-13
 -1      1107 1.90404E+01 7.31098E-01 4.90196E-05-2.43604E-01 1.46185E-13-1.41382E-13
 -1      1108 1.79621E+01 6.01381E-01 1.63969E-03-1.55077E+00-1.85647E-14-8.87915E-14
 -1      1109 1.96144E+01 4.42810E-01 5.99164E-06 6.35193E-03-1.37903E-13 2.28632E-14
 -1      1110 1.86287E+01-1.68628E-01 1.42028E-03-2.21922E+00-9.73768E-14-1.89342E-13
 -1      1111 2.00020E+01-1.58398E-03 1.91339E-07-5.34608E-05 2.25253E-13-9.13572E-14
 -1      1112 1.87387E+01 8.08041E-01 1.76871E-04-4.51796E-01-1.42330E-14-1.53743E-13
 -1      1113 1.98668E+01 2.24204E-01 5.43547E-06 3.28887E-02-1.47129E-13-1.35143E-13
 -1      1114 1.92811E+01 6.35725E-01 1.65052E-06-1.12900E-01 3.38346E-14-4.43125E-14
 -1      1115 1.86910E+01 3.56578E-01-5.57378E-04-1.36692E+00-1.54117E-14-9.24318E-14
 -1      1116 1.88697E+01 5.13202E-01 6.38444E-05-9.26704E-01-2.03971E-14-1.33756E-13
 -1      1117 1.90600E+01 5.71087E-01-1.16206E-04-6.10159E-01 6.29689E-14-1.79255E-13
 -1      1118 1.92438E+01 5.63323E-01-7.67755E-05-3.90130E-01 8.18120E-14-2.11731E-14
 -1      1119 1.94067E+01 5.19171E-01-5.43809E-05-2.41993E-01 5.69899E-14-1.00550E-14
 -1      1120 1.95449E+01 4.57423E-01-3.87122E-05-1.44935E-01-1.22851E-14 7.23635E-15
 -1      1121 1.96581E+01 3.89904E-01-2.26634E-05-8.31362E-02-3.90356E-14-2.31857E-13
 -1      1122 1.97487E+01 3.23696E-01-1.47876E-05-4.50154E-02-1.50120E-14-2.44264E-13
 -1      1123 1.98195E+01 2.62812E-01-7.70103E-06-2.23726E-02-1.09239E-13-2.36116E-13
 -1      1124 1.98737E+01 2.09181E-01-2.54064E-06-9.51787E-03-1.64251E-13-2.28994E-13
 -1      1125 1.99145E+01 1.63426E-01 4.38338E-07-2.67080E-03 2.63799E-14-1.91728E-13
 -1      1126 1.99445E+01 1.25379E-01 2.06101E-06 6.31454E-04 1.25511E-13-2.04848E-13
 -1      1127 1.99661E+01 9.44257E-02 2.82466E-06 1.94182E-03-4.77494E-14-2.05491E-13
 -1      1128 1.99813E+01 6.97315E-02 3.05799E-06 2.20713E-03-1.67988E-13-3.76651E-13
 -1      1129 1.99916E+01 5.03899E-02 2.97435E-06 1.98221E-03-2.14456E-13-2.60347E-13
 -1      1130 1.99983E+01 3.55111E-02 2.81142E-06 1.57589E-03-2.40765E-13-5.18684E-14
 -1      1131 2.00025E+01 2.42689E-02 2.50387E-06 1.15115E-03 9.02399E-14 1.84718E-13
 -1      1132 2.00048E+01 1.59460E-02 2.55100E-06 7.76317E-04-9.59327E-14 6.85189E-14
 -1      1133 2.00059E+01 9.91040E-03 2.01584E-06 4.75942E-04 5.25310E-14-1.54677E-13
 -1      1134 2.00061E+01 5.64076E-03 1.63538E-06 2.54044E-04 6.03097E-14-1.44215E-13
 -1      1135 2.00059E+01 2.70929E-03 1.30353E-06 9.98614E-05-1.16485E-13-1.89851E-13
 -1      1136 2.00053E+01 7.72355E-04 1.02248E-06-4.32274E-07 2.07984E-13-5.14723E-13
 -1      1137 2.00046E+01-4.41106E-04 7.87966E-07-6.04608E-05-9.60183E-14-3.55897E-13
 -1      1138 2.00039E+01-1.14129E-03 5.93108E-07-9.19632E-05-3.37928E-14-4.86101E-14
 -1      1139 2.00032E+01-1.48863E-03 3.84833E-07-1.03997E-04 3.34722E-13-1.01413E-13
 -1      1140 1.83622E+01 8.41444E-01-1.20127E-03-7.72919E-01-3.16148E-14-6.89718E-15
 -1      1141 2.00026E+01-1.59685E-03 1.13338E-06-7.97178E-05 3.23189E-13 1.49652E-14
 -1      1142 1.94700E+01 5.36411E-01 2.59850E-07-3.55078E-02 8.77105E-14 2.38186E-17
 -1      1143 2.99677E+01 9.74790E+00 2.52506E+00-7.34077E+00-7.67164E-14 4.58633E-13
 -1      1144 2.18161E+01 6.60745E+00 2.08724E-01-4.41322E+00-2.52576E-14-6.55712E-13
 -1      1145 2.07284E+01 6.24628E+00 9.24785E-02-3.29960E+00-1.00753E-14-9.56797E-13
 -1      1146 2.04263E+01 6.16212E+00 1.14043E-01-2.42701E+00-1.08941E-15-9.96415E-13
 -1      1147 2.02374E+01 6.11550E+00 1.47520E-01-1.51743E+00 3.42781E-15-9.36026E-13
 -1      1148 1.98788E+01 6.01551E+00 1.72830E-01-5.34422E-01 5.85643E-15-8.46817E-13
 -1      1149 1.91609E+01 5.80081E+00 1.75121E-01 4.93499E-01 7.04992E-15-7.29698E-13
 -1      1150 1.79844E+01 5.43702E+00 1.38994E-01 1.45651E+00 9.74221E-15-6.22011E-13
 -1      1151 1.64245E+01 4.94380E+00 5.48155E-02 2.15396E+00 9.82547E-15-5.47149E-13
 -1      1152 1.48005E+01 4.42095E+00-6.40406E-02 2.38353E+00 1.05749E-14-5.04143E-13
 -1      1153 1.36572E+01 4.04390E+00-1.77508E-01 2.05959E+00 1.20459E-14-4.57015E-13
 -1      1154 1.35671E+01 3.99973E+00-2.34676E-01 1.33804E+00 1.31700E-14-3.90420E-13
 -1      1155 1.48548E+01 4.39459E+00-2.06110E-01 5.75063E-01 1.47105E-14-2.58258E-13
 -1      1156 1.74718E+01 5.21265E+00-9.63560E-02 1.97344E-01 1.65978E-14-3.64635E-14
 -1      1157 2.10688E+01 6.34600E+00 8.45075E-02 5.54526E-01 1.77636E-14 3.38753E-13
 -1      1158 2.53648E+01 7.72641E+00 3.89824E-01 1.99600E+00 1.33782E-14 9.54826E-13
 -1      1159 3.25609E+01 1.03328E+01 1.88176E+00 5.27304E+00 1.17129E-14 1.96024E-12
 -1      1160 3.09482E+01 3.95535E+00 1.43985E+00-4.62935E+00-2.56573E-13 1.09923E-12
 -1      1161 2.12743E+01-1.73673E-01-6.38669E-01-1.44095E-01-9.16836E-14 5.21500E-13
 -1      1162 1.92726E+01-8.41507E-02-2.30019E-01 4.97140E-02-3.20056E-14-1.45738E-13
 -1      1163 1.82582E+01-3.77370E-02-4.36591E-02 1.70298E-02-3.11834E-14-6.23248E-13
 -1      1164 1.73965E+01-2.47543E-02-1.27698E-02-4.40709E-03-1.06263E-14-9.67159E-13
 -1      1165 1.66564E+01-2.89887E-02-2.62774E-02-1.20053E-02 1.85008E-15-1.08818E-12
 -1      1166 1.61326E+01-3.77463E-02-4.58167E-02-7.84854E-03-9.70144E-15-1.23140E-12
 -1      1167 1.59445E+01-4.25094E-02-5.67600E-02 4.76497E-03-2.87617E-15-1.33505E-12
 -1      1168 1.61589E+01-3.86148E-02-5.31924E-02 2.03525E-02-5.65130E-15-1.51643E-12
 -1      1169 1.67469E+01-2.62575E-02-3.62440E-02 3.30070E-02 7.88779E-15-1.80796E-12
 -1      1170 1.75888E+01-9.62702E-03-1.25296E-02 3.87961E-02 2.45019E-15-1.93405E-12
 -1      1171 1.85191E+01 5.91169E-03 9.76595E-03 3.70567E-02 3.82311E-15-1.84069E-12
 -1      1172 1.93825E+01 1.65512E-02 2.48486E-02 2.98579E-02-1.48304E-14-1.77499E-12
 -1      1173 2.00741E+01 2.11578E-02 3.09981E-02 2.03571E-02-9.63552E-15-1.79156E-12
 -1      1174 2.05511E+01 2.07361E-02 2.97811E-02 1.12714E-02-5.43055E-15-1.73128E-12
 -1      1175 2.08213E+01 1.72264E-02 2.41903E-02 4.16005E-03-1.46764E-14-1.76675E-12
 -1      1176 2.09232E+01 1.25007E-02 1.70679E-02-5.33070E-04 7.76939E-16-1.76012E-12
 -1      1177 2.09055E+01 7.87634E-03 1.03481E-02-3.07893E-03 2.34800E-14-1.69015E-12
 -1      1178 2.08149E+01 4.05325E-03 4.98611E-03-4.04620E-03-1.70318E-14-1.83683E-12
 -1      1179 2.06884E+01 1.25896E-03 1.21898E-03-4.02097E-03 1.32189E-14-1.92866E-12
 -1      1180 2.05526E+01-5.61979E-04-1.11847E-03-3.47408E-03-2.81170E-14-1.98168E-12
 -1      1181 2.04239E+01-1.59419E-03-2.35098E-03-2.72893E-03-1.43836E-14-1.81407E-12
 -1      1182 2.03113E+01-2.05300E-03-2.81805E-03-1.97943E-03 1.33915E-15-1.73512E-12
 -1      1183 2.02181E+01-2.13301E-03-2.80662E-03-1.32445E-03-1.81444E-14-1.94616E-12
 -1      1184 2.01446E+01-1.98815E-03-2.53125E-03-8.01241E-04-3.67065E-15-1.91917E-12
 -1      1185 2.00889E+01-1.72932E-03-2.13843E-03-4.11517E-04-1.19880E-14-1.69866E-12
 -1      1186 2.00484E+01-1.43022E-03-1.72002E-03-1.39318E-04 3.08400E-14-1.64019E-12
 -1      1187 2.00202E+01-1.13583E-03-1.32813E-03 3.79210E-05-4.33596E-14-1.94152E-12
 -1      1188 2.00015E+01-8.70569E-04-9.88066E-04 1.43160E-04 1.00212E-14-1.92219E-12
 -1      1189 1.99899E+01-6.45187E-04-7.08273E-04 1.96728E-04-1.18877E-15-1.68511E-12
 -1      1190 1.99835E+01-4.61929E-04-4.87450E-04 2.15191E-04-2.42810E-14-1.54161E-12
 -1      1191 1.99806E+01-3.18211E-04-3.19275E-04 2.11280E-04 1.63775E-14-1.92823E-12
 -1      1192 1.99801E+01-2.09072E-04-1.95403E-04 1.94307E-04 1.17635E-14-1.70857E-12
 -1      1193 1.99811E+01-1.28723E-04-1.07219E-04 1.70786E-04 2.78845E-14-1.32036E-12
 -1      1194 1.99829E+01-7.14484E-05-4.67870E-05 1.45053E-04 7.53753E-15-1.52904E-12
 -1      1195 1.99851E+01-3.20839E-05-7.27017E-06 1.19830E-04 6.56027E-14-1.59382E-12
 -1      1196 1.99874E+01-6.22252E-06 1.69492E-05 9.66859E-05 6.84212E-14-1.28177E-12
 -1      1197 1.99896E+01 9.74610E-06 3.03252E-05 7.63996E-05 7.63606E-15-7.87316E-13
 -1      1198 1.99916E+01 1.86856E-05 3.62857E-05 5.92321E-05 1.37104E-14-5.24220E-13
 -1      1199 1.99933E+01 2.28071E-05 3.74014E-05 4.51237E-05-4.85201E-14-7.69251E-13
 -1      1200 1.99948E+01 2.37798E-05 3.55569E-05 3.38313E-05-2.80141E-14-1.09534E-12
 -1      1201 1.99961E+01 2.28396E-05 3.21090E-05 2.50191E-05-2.92409E-14-1.53066E-12
 -1      1202 1.99971E+01 2.08903E-05 2.80293E-05 1.83141E-05 5.19826E-14-1.24273E-12
 -1      1203 1.99979E+01 1.85908E-05 2.40355E-05 1.33305E-05 6.53078E-14-1.03110E-12
 -1      1204 1.99986E+01 1.64294E-05 2.07236E-05 9.65630E-06 1.20016E-13-7.64257E-13
 -1      1205 1.99991E+01 1.47586E-05 1.86451E-05 6.80132E-06-3.90683E-14-5.76726E-13
 -1      1206 1.99995E+01 1.37799E-05 1.81546E-05 4.05858E-06 4.62084E-14-3.73760E-13
 -1      1207 1.99997E+01 1.31224E-05 1.83199E-05 2.11665E-07 6.16561E-14-2.68533E-13
 -1      1208 1.99998E+01 1.33411E-05 1.28886E-05-7.05667E-06 5.66361E-14 2.72338E-13
 -1      1209 1.99998E+01-6.68104E-06-1.47005E-05-6.51688E-06-4.99306E-15 5.96083E-13
 -1      1210 3.60368E+01 5.83701E-01 7.48972E-02 1.99804E+00-2.58196E-14 2.71361E-12
 -1      1211 3.12232E+01-6.56195E-02-5.81518E-01 1.00149E-02 9.06220E-15 2.53025E-12
 -1      1212 3.23468E+01 4.64920E-02-5.42218E-02-9.84630E-02 1.05541E-14 2.33184E-12
 -1      1213 3.34094E+01 1.81189E-01 2.82917E-01-1.32425E-01 1.59421E-15 2.32763E-12
 -1      1214 3.27779E+01 2.45751E-01 4.82696E-01-5.52874E-02-2.10804E-14 2.44188E-12
 -1      1215 2.88722E+01 8.36175E-02 2.94915E-01 1.96922E-01-1.26982E-14 2.54208E-12
 -1      1216 2.22495E+01-2.40316E-01-3.85825E-01 4.53697E-01-3.28470E-14 2.69407E-12
 -1      1217 1.71871E+01-3.26011E-01-9.83928E-01 3.74834E-01-3.92048E-15 2.69201E-12
 -1      1218 1.78981E+01-1.70044E-01-8.69381E-01-5.68181E-02 1.13902E-14 2.12649E-12
 -1      1219 2.32353E+01 5.60548E-02-2.52289E-01-3.61377E-01 3.50588E-14 1.63058E-12
 -1      1220 2.91339E+01 1.26594E-01 2.63270E-01-3.84225E-01 9.78384E-16 1.20726E-12
 -1      1221 3.21298E+01 8.72991E-02 3.65043E-01-2.09172E-01 3.02865E-14 1.13287E-12
 -1      1222 3.19425E+01 3.79480E-02 2.21323E-01-4.16280E-02 1.83985E-14 9.73652E-13
 -1      1223 3.00678E+01 5.61316E-03 6.75877E-02 4.34110E-02 3.77671E-14 1.02479E-12
 -1      1224 2.77816E+01-9.91952E-03-1.71022E-02 6.64012E-02 7.11399E-15 1.34355E-12
 -1      1225 2.57230E+01-1.49792E-02-4.52399E-02 6.07104E-02 7.39448E-15 1.31350E-12
 -1      1226 2.40891E+01-1.48638E-02-4.56346E-02 4.68694E-02 1.31590E-14 1.38390E-12
 -1      1227 2.28705E+01-1.27638E-02-3.69236E-02 3.34861E-02 1.44364E-14 1.21146E-12
 -1      1228 2.19908E+01-1.02346E-02-2.73744E-02 2.30265E-02 2.22543E-14 1.06901E-12
 -1      1229 2.13663E+01-7.91726E-03-1.95613E-02 1.55391E-02 3.61474E-14 8.85054E-13
 -1      1230 2.09271E+01-6.01335E-03-1.37934E-02 1.03996E-02-1.46992E-14 9.78403E-13
 -1      1231 2.06199E+01-4.55773E-03-9.72672E-03 6.94194E-03-2.48101E-14 1.24163E-12
 -1      1232 2.04020E+01-3.15283E-03-6.66577E-03 4.77622E-03 1.75720E-14 1.03236E-12
 -1      1233 2.02520E+01-2.47222E-03-4.74214E-03 2.96556E-03 5.50623E-15 8.06350E-13
 -1      1234 2.01524E+01-1.83281E-03-3.36379E-03 1.94255E-03 2.21389E-14 1.07177E-12
 -1      1235 2.00851E+01-1.35439E-03-2.38675E-03 1.25093E-03 1.86768E-14 9.55778E-13
 -1      1236 2.00405E+01-9.95959E-04-1.68813E-03 7.83546E-04-2.40281E-15 8.57154E-13
 -1      1237 2.00117E+01-7.27120E-04-1.18594E-03 4.68941E-04 1.02513E-14 9.82698E-13
 -1      1238 1.99940E+01-5.25652E-04-8.23736E-04 2.58840E-04-5.41465E-14 1.10303E-12
 -1      1239 1.99839E+01-3.75078E-04-5.62341E-04 1.20654E-04 3.47333E-14 1.60280E-12
 -1      1240 1.99789E+01-2.63094E-04-3.74289E-04 3.21030E-05 4.14503E-14 1.46953E-12
 -1      1241 1.99773E+01-1.80430E-04-2.40000E-04-2.22515E-05-9.93644E-14 1.24611E-12
 -1      1242 1.99777E+01-1.20037E-04-1.45274E-04-5.32304E-05 4.81386E-14 6.08158E-13
 -1      1243 1.99794E+01-7.65088E-05-7.96526E-05-6.84806E-05-7.44561E-14 6.74084E-13
 -1      1244 1.99817E+01-4.56469E-05-3.53673E-05-7.33724E-05 2.04472E-14 7.44817E-13
 -1      1245 1.99843E+01-2.61017E-05-7.46305E-06-7.13748E-05 8.07715E-15 2.74267E-13
 -1      1246 1.99868E+01-8.65428E-06 1.12067E-05-6.58962E-05-7.10683E-15 1.44121E-13
 -1      1247 1.99893E+01-5.33314E-07 2.17118E-05-5.85595E-05-5.57709E-14 1.06744E-12
 -1      1248 1.99913E+01 4.83271E-06 2.58993E-05-5.04672E-05 7.76130E-14 7.11626E-13
 -1      1249 1.99932E+01 7.71407E-06 2.68162E-05-4.24629E-05 1.22287E-13-6.86650E-13
 -1      1250 1.99947E+01 8.93585E-06 2.56258E-05-3.50300E-05-1.37264E-14-6.83975E-13
 -1      1251 1.99960E+01 9.11795E-06 2.32535E-05-2.84652E-05 5.11084E-14 5.23661E-14
 -1      1252 1.99970E+01 8.74203E-06 2.04071E-05-2.29087E-05-4.97821E-14 1.08276E-12
 -1      1253 1.99979E+01 8.19231E-06 1.76464E-05-1.84058E-05-5.93300E-14 1.65594E-12
 -1      1254 1.99985E+01 7.79515E-06 1.54830E-05-1.49335E-05 1.06021E-13 1.47187E-12
 -1      1255 1.99991E+01 7.83270E-06 1.44637E-05-1.23766E-05 4.48341E-14 1.06038E-12
 -1      1256 1.99994E+01 8.45777E-06 1.50095E-05-1.04045E-05 1.57114E-13 5.48526E-13
 -1      1257 1.99997E+01 9.21053E-06 1.62455E-05-7.93651E-06-6.90150E-14 8.21355E-13
 -1      1258 1.99998E+01 6.68328E-06 1.16499E-05-2.08674E-06-4.29269E-15 1.26639E-12
 -1      1259 1.99998E+01-6.02075E-06-1.43696E-05 5.67006E-06 6.21519E-14 1.06523E-12
 -1      1260 1.99998E+01 1.72698E-05-1.38381E-05 6.42338E-06 1.30843E-12 1.01632E-13
 -1      1261 1.99998E+01 2.29746E-05 1.24738E-05 6.04547E-06 1.25077E-12-1.89928E-13
 -1      1262 1.99998E+01-9.87118E-05 1.53166E-05-3.43801E-06 9.13780E-13-1.20673E-13
 -1      1263 1.99998E+01-3.31534E-04 8.71009E-06-8.12547E-06 5.16851E-13-1.38276E-14
 -1      1264 1.99998E+01-6.20637E-04 4.95516E-07-9.67633E-06 3.40450E-13-4.27241E-14
 -1      1265 1.99998E+01-9.08744E-04-6.74811E-06-8.96715E-06-4.82461E-13-1.90993E-13
 -1      1266 1.99998E+01-1.15104E-03-1.21900E-05-6.88963E-06-5.42922E-13 1.47333E-13
 -1      1267 1.99998E+01-1.31294E-03-1.56314E-05-3.67646E-06 1.41068E-13-7.58677E-14
 -1      1268 1.99998E+01-1.36891E-03-1.67779E-05 2.33300E-08 5.25462E-13 1.24022E-13
 -1      1269 1.99998E+01-1.31124E-03-1.55850E-05 3.71882E-06 6.90818E-13 8.54128E-15
 -1      1270 1.99998E+01-1.14797E-03-1.20930E-05 6.90980E-06-5.82220E-13-2.07925E-13
 -1      1271 1.99998E+01-9.04769E-04-6.61284E-06 9.09438E-06-2.32353E-12-1.59275E-13
 -1      1272 1.99998E+01-6.16671E-04 5.83420E-07 9.65930E-06-2.18134E-12 1.01203E-13
 -1      1273 1.99998E+01-3.27972E-04 8.87983E-06 8.21991E-06-5.07856E-13 1.44329E-13
 -1      1274 1.99998E+01-9.28721E-05 1.62282E-05 4.17235E-06 4.46779E-13 8.07230E-14
 -1      1275 1.99998E+01 1.74282E-05 1.08732E-05-1.06366E-05 8.91495E-14-2.98475E-13
 -1      1276 1.99998E+01 1.96563E-05-1.37650E-05-6.87220E-06-4.80307E-13 5.57731E-14
 -1      1277-1.20640E+00-2.53124E+01-3.91520E+00-2.51730E+00 2.86360E-12 4.33091E-13
 -1      1278-2.30153E+00-1.78961E+01-3.55980E+00-4.93640E+00 3.91054E-12 1.43524E-12
 -1      1279-6.87930E-01-5.41700E+00-2.54792E+00-1.80551E+00 3.72391E-12 2.18325E-12
 -1      1280 9.96562E+00 6.40956E+00-7.35014E-01 8.04238E+00 2.14406E-12 1.98375E-12
 -1      1281 3.08682E+01 1.07105E+01 1.50330E+00 1.75574E+01 8.72191E-13 1.25078E-12
 -1      1282 5.51302E+01 7.82632E+00 3.85159E+00 1.85295E+01 9.05942E-14-1.02141E-14
 -1      1283 7.29911E+01 3.47547E+00 5.33915E+00 8.98315E+00-8.72080E-14-1.55365E-12
 -1      1284 7.53482E+01 2.53030E+00 5.59216E+00-5.81144E+00 3.41144E-13-2.92555E-12
 -1      1285 5.84331E+01 6.47744E+00 4.02424E+00-1.65454E+01 1.12854E-12-3.57203E-12
 -1      1286 3.38133E+01 9.94935E+00 1.74077E+00-1.73634E+01 1.95621E-12-3.41305E-12
 -1      1287 1.29407E+01 7.68815E+00-5.55186E-01-9.94172E+00 2.37987E-12-2.76978E-12
 -1      1288 8.20182E-01-1.85612E+00-2.40265E+00-4.24333E-01 2.20668E-12-1.71518E-12
 -1      1289-2.51467E+00-1.40193E+01-3.40693E+00 4.65557E+00 1.41098E-12-7.35134E-13
 -1      1290-1.49714E+00-2.20041E+01-3.71232E+00 3.56609E+00 2.16827E-13-1.52989E-13
 -1      1291-9.18759E-01-2.15038E+01-3.41258E+00-5.17147E-01-1.06276E-12-1.57679E-13
 -1      1292-1.12487E+00-1.32575E+01-2.72007E+00-2.58342E+00-2.18314E-12-6.76126E-13
 -1      1293 6.44429E-01-1.06188E+00-1.67996E+00 5.78791E-01-2.62501E-12-1.42830E-12
 -1      1294 8.57767E+00 8.66561E+00-3.53169E-01 8.46605E+00-2.27462E-12-1.96509E-12
 -1      1295 2.37690E+01 1.19983E+01 1.10859E+00 1.61761E+01-1.55842E-12-2.03615E-12
 -1      1296 4.35727E+01 9.07473E+00 2.49771E+00 1.82974E+01-7.11986E-13-1.35936E-12
 -1      1297 6.11439E+01 3.67978E+00 3.56758E+00 1.18218E+01-1.05527E-13-7.53841E-14
 -1      1298 6.75170E+01 1.47434E+00 3.97417E+00-1.11484E+00-7.11861E-14 1.33576E-12
 -1      1299 5.98979E+01 4.62420E+00 3.64114E+00-1.33224E+01-5.69211E-13 2.19824E-12
 -1      1300 4.30903E+01 9.70341E+00 2.71755E+00-1.90191E+01-1.32749E-12 2.74403E-12
 -1      1301 2.32972E+01 1.20876E+01 1.25055E+00-1.60509E+01-1.95910E-12 2.57594E-12
 -1      1302 8.02708E+00 7.95935E+00-3.42305E-01-7.92933E+00-2.00329E-12 1.84475E-12
 -1      1303 2.93270E-01-2.49112E+00-1.81764E+00 3.22852E-02-1.24456E-12 7.98028E-13
 -1      1304-1.51171E+00-1.50989E+01-2.98850E+00 3.67307E+00-1.31450E-13 1.79579E-13
 -1      1305-1.01564E+00-2.39410E+01-3.70012E+00 1.90530E+00 1.37967E-12-5.34572E-14
 -1      1306 2.36382E+01 1.95967E+00-7.89938E-01-3.12555E+00-1.01613E-13 9.27036E-14
 -1      1307 2.16131E+01 4.98912E+00-5.22528E-02-3.81151E+00-1.44024E-13-8.08298E-13
 -1      1308 2.20904E+01 5.11288E+00-1.43413E-01-4.72496E+00-2.33924E-13-6.45733E-13
 -1      1309 2.09195E+01 5.24204E+00-7.43711E-03-3.06432E+00-7.75352E-14-9.81302E-13
 -1      1310 2.11273E+01 5.31772E+00-1.40124E-02-3.52857E+00-1.15047E-13-9.29756E-13
 -1      1311 2.18515E+01 4.10479E+00-3.26237E-02-3.59977E+00-2.33803E-13-6.94930E-13
 -1      1312 2.07382E+01 5.23387E+00 2.34898E-02-2.24229E+00-1.50574E-15-9.82849E-13
 -1      1313 2.08070E+01 5.26971E+00 7.76627E-03-2.67414E+00-3.35808E-14-9.97390E-13
 -1      1314 2.12852E+01 4.36287E+00-2.69320E-02-2.89532E+00-1.04522E-13-8.26270E-13
 -1      1315 2.05823E+01 5.12429E+00 4.17949E-02-1.34589E+00 5.56916E-14-9.19702E-13
 -1      1316 2.06744E+01 5.16179E+00 2.24360E-02-1.80740E+00 3.87537E-14-9.67362E-13
 -1      1317 2.11250E+01 4.33101E+00-1.79675E-02-2.08027E+00 1.81692E-14-8.27179E-13
 -1      1318 2.01982E+01 4.93782E+00 4.98781E-02-3.79711E-01 1.00669E-13-8.09276E-13
 -1      1319 2.04305E+01 5.01215E+00 3.70449E-02-8.65927E-01 8.89185E-14-8.66876E-13
 -1      1320 2.09480E+01 4.17020E+00-1.20040E-02-1.19167E+00 1.02045E-13-7.53980E-13
 -1      1321 1.93786E+01 4.68951E+00 4.37319E-02 6.44976E-01 1.37404E-13-6.93556E-13
 -1      1322 1.98538E+01 4.83149E+00 5.16836E-02 1.47402E-01 1.29188E-13-7.61734E-13
 -1      1323 2.04722E+01 3.95737E+00-1.18227E-02-2.18275E-01 1.85362E-13-6.56163E-13
 -1      1324 1.80185E+01 4.44025E+00 1.70806E-02 1.58768E+00 1.85685E-13-5.93248E-13
 -1      1325 1.87736E+01 4.65982E+00 6.20820E-02 1.15870E+00 1.72487E-13-6.43163E-13
 -1      1326 1.94820E+01 3.78864E+00-1.63890E-02 8.02042E-01 2.44405E-13-5.42559E-13
 -1      1327 1.62104E+01 4.28112E+00-2.84429E-02 2.24488E+00 2.19144E-13-5.32414E-13
 -1      1328 1.71669E+01 4.55502E+00 5.88941E-02 1.98485E+00 2.11497E-13-5.69463E-13
 -1      1329 1.78840E+01 3.78862E+00-2.44302E-02 1.72360E+00 3.26999E-13-4.71047E-13
 -1      1330 1.43623E+01 4.29446E+00-7.63475E-02 2.40698E+00 2.37296E-13-4.95264E-13
 -1      1331 1.52703E+01 4.55080E+00 3.27169E-02 2.39958E+00 2.36908E-13-5.20990E-13
 -1      1332 1.58470E+01 4.04347E+00-3.06392E-02 2.32435E+00 3.77413E-13-4.25184E-13
 -1      1333 1.31723E+01 4.49287E+00-1.00083E-01 2.00448E+00 2.45960E-13-4.59338E-13
 -1      1334 1.36507E+01 4.62253E+00-1.72279E-02 2.24691E+00 2.41460E-13-4.89601E-13
 -1      1335 1.39100E+01 4.50442E+00-3.04632E-02 2.39080E+00 4.00943E-13-4.09063E-13
 -1      1336 1.33217E+01 4.79743E+00-8.32409E-02 1.25272E+00 2.39281E-13-3.84600E-13
 -1      1337 1.30568E+01 4.71016E+00-7.29004E-02 1.60585E+00 2.35947E-13-4.36793E-13
 -1      1338 1.28761E+01 4.95522E+00-2.81516E-02 1.90395E+00 4.01111E-13-3.77274E-13
 -1      1339 1.51154E+01 5.13051E+00-3.59767E-02 5.46782E-01 2.38282E-13-2.40725E-13
 -1      1340 1.40041E+01 4.79786E+00-1.09600E-01 8.16742E-01 2.25375E-13-3.30476E-13
 -1      1341 1.34188E+01 5.16709E+00-2.98976E-02 1.13538E+00 3.83006E-13-2.90625E-13
 -1      1342 1.83243E+01 5.46259E+00 2.01387E-02 3.33244E-01 2.30094E-13 5.74714E-15
 -1      1343 1.65522E+01 4.93906E+00-1.10362E-01 3.22543E-01 2.19241E-13-1.42058E-13
 -1      1344 1.57396E+01 5.07177E+00-3.86659E-02 5.49194E-01 3.67942E-13-1.35473E-13
 -1      1345 2.24216E+01 5.77963E+00 7.57221E-02 8.87753E-01 2.10498E-13 4.17014E-13
 -1      1346 2.02647E+01 5.15465E+00-8.35880E-02 4.67253E-01 1.99674E-13 1.77400E-13
 -1      1347 1.94906E+01 4.77246E+00-3.90957E-02 5.36805E-01 3.34011E-13 1.49554E-13
 -1      1348 2.70974E+01 5.74567E+00 1.14810E-01 2.44480E+00 1.43774E-13 1.05775E-12
 -1      1349 2.46949E+01 5.21253E+00-5.12261E-02 1.38316E+00 1.54377E-13 6.81372E-13
 -1      1350 2.41817E+01 4.25410E+00-2.52869E-03 1.18727E+00 2.82524E-13 5.85088E-13
 -1      1351 3.54358E+01 3.72472E+00 1.01363E+00 4.06965E+00 3.42365E-14 2.01716E-12
 -1      1352 2.91550E+01 3.97413E+00-1.86145E-01 2.63711E+00 5.85643E-14 1.38436E-12
 -1      1353 2.90774E+01 2.72191E+00 4.17171E-02 1.82402E+00 2.03827E-13 1.16640E-12
 -1      1354 3.04666E+01 2.39641E-01-7.98471E-01 2.28788E-01 9.98160E-14 2.02521E-12
 -1      1355 2.32123E+01 1.26850E-01-4.37764E-01-1.55191E+00-2.20754E-13 2.38282E-13
 -1      1356 2.15981E+01 3.17164E-01-1.81869E-01-1.02571E+00-1.82049E-13-2.79568E-14
 -1      1357 2.08053E+01 1.38127E-01-7.84142E-02-6.44505E-01-1.53245E-13-1.04510E-13
 -1      1358 2.00257E+01 7.33472E-02-1.54150E-02-5.81375E-01-1.43201E-13-3.38641E-13
 -1      1359 2.19137E+01 3.61064E-01-1.08954E-01-1.73072E+00-3.27870E-13-2.58901E-13
 -1      1360 1.94176E+01 4.51646E-02 6.12153E-03-4.23721E-01-1.37973E-13-3.89857E-13
 -1      1361 1.89022E+01 2.87566E-02 1.59322E-02-4.17273E-01-1.21610E-13-5.79986E-13
 -1      1362 2.04179E+01 1.05830E-01-2.99156E-02-1.03068E+00-2.63182E-13-3.65805E-13
 -1      1363 1.84627E+01 2.38497E-02 1.67159E-02-3.47555E-01-8.49013E-14-6.40202E-13
 -1      1364 1.80537E+01 2.48137E-02 1.25999E-02-3.40270E-01-6.80801E-14-7.63389E-13
 -1      1365 1.94220E+01 3.90363E-02-4.93195E-03-7.67834E-01-2.01344E-13-4.51651E-13
 -1      1366 1.77222E+01 2.99266E-02 9.83536E-03-2.74233E-01-4.89019E-14-7.94660E-13
 -1      1367 1.74102E+01 3.76912E-02 5.53459E-03-2.58227E-01-4.23836E-14-8.51145E-13
 -1      1368 1.86654E+01 4.09853E-02-5.58763E-03-6.08274E-01-1.20588E-13-5.64009E-13
 -1      1369 1.71877E+01 4.51359E-02 2.88246E-03-1.64697E-01-5.44079E-14-8.93400E-13
 -1      1370 1.70138E+01 5.18095E-02 5.23731E-04-1.38446E-01-3.41411E-14-9.48921E-13
 -1      1371 1.81138E+01 6.55613E-02-1.14880E-02-4.15895E-01-9.82044E-14-6.33270E-13
 -1      1372 1.69215E+01 5.65124E-02-1.28822E-03-1.89584E-02-1.63211E-14-9.63835E-13
 -1      1373 1.69252E+01 5.68127E-02-1.89605E-03 1.29998E-02-3.68091E-14-1.02228E-12
 -1      1374 1.77965E+01 8.77481E-02-1.62078E-02-1.56831E-01-5.77203E-14-6.89305E-13
 -1      1375 1.69746E+01 5.60480E-02-2.73170E-03 1.36583E-01-7.04081E-14-1.02969E-12
 -1      1376 1.71630E+01 4.82355E-02-1.99490E-03 1.66212E-01-8.18165E-14-1.16561E-12
 -1      1377 1.77495E+01 9.24078E-02-1.70746E-02 1.39639E-01-1.08455E-13-7.34369E-13
 -1      1378 1.73394E+01 4.23827E-02-2.14657E-03 2.65473E-01-6.69083E-14-1.22017E-12
 -1      1379 1.76772E+01 2.84826E-02-4.89066E-04 2.85269E-01-3.50553E-14-1.29268E-12
 -1      1380 1.79707E+01 7.49000E-02-1.34927E-02 4.11178E-01-1.48857E-13-7.62035E-13
 -1      1381 1.79398E+01 2.04280E-02-6.07499E-04 3.39369E-01-1.42915E-14-1.32729E-12
 -1      1382 1.83599E+01 4.70373E-03 1.51262E-03 3.45728E-01 1.56971E-15-1.34767E-12
 -1      1383 1.84040E+01 4.10323E-02-6.90333E-03 5.97008E-01-6.59559E-14-8.27611E-13
 -1      1384 1.86548E+01-2.11629E-03 8.22117E-04 3.49550E-01 2.75104E-14-1.33993E-12
 -1      1385 1.90819E+01-1.55222E-02 2.99174E-03 3.43611E-01 3.10072E-14-1.30871E-12
 -1      1386 1.89534E+01 2.76763E-03 1.60595E-04 6.65724E-01 2.33008E-14-8.69073E-13
 -1      1387 1.93590E+01-1.89597E-02 1.52504E-03 3.06888E-01 6.46640E-15-1.27041E-12
 -1      1388 1.97315E+01-2.76985E-02 3.46250E-03 2.92957E-01-7.36390E-15-1.26461E-12
 -1      1389 1.95144E+01-2.83891E-02 5.53243E-03 6.23906E-01 3.56217E-14-9.04186E-13
 -1      1390 1.99563E+01-2.74860E-02 1.44926E-03 2.33213E-01-9.28944E-16-1.23490E-12
 -1      1391 2.02386E+01-3.12950E-02 3.02513E-03 2.16320E-01 1.70645E-14-1.23462E-12
 -1      1392 2.00033E+01-4.61902E-02 8.27405E-03 5.05662E-01 2.21516E-14-8.49151E-13
 -1      1393 2.03958E+01-2.84842E-02 9.00726E-04 1.51014E-01-8.67362E-15-1.21059E-12
 -1      1394 2.05784E+01-2.84792E-02 2.09649E-03 1.35109E-01-2.00122E-14-1.21759E-12
 -1      1395 2.03721E+01-5.04791E-02 8.61364E-03 3.53888E-01-7.05035E-15-8.08712E-13
 -1      1396 2.06689E+01-2.45117E-02 2.49907E-04 7.67632E-02-2.01163E-14-1.23844E-12
 -1      1397 2.07619E+01-2.22562E-02 1.10536E-03 6.40582E-02-9.54445E-15-1.23093E-12
 -1      1398 2.06081E+01-4.50115E-02 7.38194E-03 2.04795E-01-1.71261E-14-7.91289E-13
 -1      1399 2.07964E+01-1.83076E-02-2.52734E-04 1.90389E-02-5.06062E-15-1.23398E-12
 -1      1400 2.08199E+01-1.51688E-02 3.20210E-04 1.02109E-02 1.44917E-14-1.23382E-12
 -1      1401 2.07238E+01-3.45987E-02 5.46406E-03 8.08261E-02-1.96475E-14-8.00235E-13
 -1      1402 2.08131E+01-1.19158E-02-5.18313E-04-2.01261E-02 1.64196E-14-1.20601E-12
 -1      1403 2.07895E+01-8.80961E-03-1.70615E-04-2.53874E-02-2.43336E-14-1.22048E-12
 -1      1404 2.07452E+01-2.31825E-02 3.50567E-03-9.10758E-03 6.92372E-15-7.85117E-13
 -1      1405 2.07564E+01-6.48509E-03-5.72526E-04-4.27425E-02-7.72678E-14-1.28747E-12
 -1      1406 2.07055E+01-3.88622E-03-3.97466E-04-4.52030E-02-8.98971E-14-1.37703E-12
 -1      1407 2.07018E+01-1.31573E-02 1.85787E-03-6.57125E-02-1.04904E-13-8.60395E-13
 -1      1408 2.06585E+01-2.44010E-03-4.89429E-04-5.25892E-02-2.40076E-14-1.41074E-12
 -1      1409 2.05959E+01-5.04876E-04-4.39622E-04-5.31040E-02-4.31824E-14-1.46179E-12
 -1      1410 2.06201E+01-5.52818E-03 6.42426E-04-9.48177E-02-1.15877E-13-9.13324E-13
 -1      1411 2.05443E+01 2.43434E-04-3.44288E-04-5.36831E-02 5.47122E-15-1.45924E-12
 -1      1412 2.04804E+01 1.54425E-03-3.78269E-04-5.30020E-02-2.01019E-14-1.46530E-12
 -1      1413 2.05212E+01-3.79305E-04-1.56153E-04-1.03904E-01-4.81464E-14-1.02866E-12
 -1      1414 2.04302E+01 1.80379E-03-1.91845E-04-4.94815E-02 7.40055E-15-1.33969E-12
 -1      1415 2.03715E+01 2.58357E-03-2.75158E-04-4.81771E-02 3.90609E-14-1.29347E-12
 -1      1416 2.04201E+01 2.67255E-03-6.15330E-04-1.00025E-01 2.83041E-14-9.86788E-13
 -1      1417 2.03264E+01 2.53877E-03-6.27304E-05-4.26011E-02-1.11333E-14-1.23220E-12
 -1      1418 2.02760E+01 2.93209E-03-1.68762E-04-4.10677E-02-1.28764E-14-1.27037E-12
 -1      1419 2.03259E+01 4.16267E-03-8.27395E-04-8.88618E-02 3.26548E-14-7.95681E-13
 -1      1420 2.02377E+01 2.72359E-03 3.13862E-05-3.48318E-02-1.89076E-14-1.24560E-12
 -1      1421 2.01966E+01 2.85372E-03-7.85646E-05-3.33151E-02 3.43145E-15-1.29244E-12
 -1      1422 2.02438E+01 4.60321E-03-8.75727E-04-7.45174E-02-2.10077E-14-7.41093E-13
 -1      1423 2.01655E+01 2.57798E-03 9.06338E-05-2.72805E-02 7.04285E-14-1.24889E-12
 -1      1424 2.01335E+01 2.54402E-03-1.13611E-05-2.59155E-02 5.56756E-14-1.18758E-12
 -1      1425 2.01755E+01 4.40897E-03-8.26024E-04-5.96758E-02 3.00354E-14-6.17864E-13
 -1      1426 2.01091E+01 2.26092E-03 1.20926E-04-2.05475E-02 4.74332E-14-1.15443E-12
 -1      1427 2.00851E+01 2.13588E-03 3.32423E-05-1.93941E-02 7.20442E-14-1.08280E-12
 -1      1428 2.01209E+01 3.88188E-03-7.25505E-04-4.59108E-02 1.05825E-13-5.75536E-13
 -1      1429 2.00667E+01 1.87840E-03 1.29967E-04-1.48889E-02-4.72747E-14-1.05580E-12
 -1      1430 2.00494E+01 1.71232E-03 5.89639E-05-1.39594E-02-5.02247E-14-1.17536E-12
 -1      1431 2.00790E+01 3.22347E-03-6.05593E-04-3.40037E-02 1.59262E-14-5.09404E-13
 -1      1432 2.00361E+01 1.49533E-03 1.25051E-04-1.03447E-02-9.60439E-14-1.15645E-12
 -1      1433 2.00242E+01 1.32016E-03 7.05014E-05-9.62485E-03-1.17265E-13-1.21785E-12
 -1      1434 2.00477E+01 2.55705E-03-4.85590E-04-2.42152E-02-1.33598E-13-5.74703E-13
 -1      1435 2.00148E+01 1.14729E-03 1.12104E-04-6.83340E-03 3.31442E-14-1.24189E-12
 -1      1436 2.00070E+01 9.81742E-04 7.22982E-05-6.29559E-03 8.42271E-14-1.17798E-12
 -1      1437 2.00253E+01 1.95009E-03-3.76170E-04-1.64930E-02-4.14611E-14-5.46381E-13
 -1      1438 2.00007E+01 8.50344E-04 9.54711E-05-4.21459E-03 2.28677E-15-1.14595E-12
 -1      1439 1.99960E+01 7.04026E-04 6.80187E-05-3.82693E-03 2.48268E-14-1.05692E-12
 -1      1440 2.00099E+01 1.43307E-03-2.82243E-04-1.06181E-02 8.31021E-14-6.10992E-13
 -1      1441 1.99920E+01 6.08431E-04 7.80643E-05-2.32959E-03-4.66191E-14-1.04690E-12
 -1      1442 1.99895E+01 4.85038E-04 6.04239E-05-2.06083E-03-8.41208E-14-1.10393E-12
 -1      1443 1.99998E+01 1.01359E-03-2.05113E-04-6.30142E-03-4.66660E-14-6.31774E-13
 -1      1444 1.99872E+01 4.18597E-04 6.16534E-05-1.02453E-03 4.57349E-15-1.19361E-12
 -1      1445 1.99862E+01 3.18239E-04 5.14467E-05-8.46685E-04 5.51840E-14-1.13426E-12
 -1      1446 1.99936E+01 6.86401E-04-1.44002E-04-3.24258E-03-1.48418E-13-7.01672E-13
 -1      1447 1.99851E+01 2.74474E-04 4.71744E-05-1.62374E-04 6.85735E-14-1.19228E-12
 -1      1448 1.99851E+01 1.95279E-04 4.23437E-05-5.18199E-05 4.38337E-14-1.07939E-12
 -1      1449 1.99902E+01 4.39927E-04-9.70733E-05-1.16289E-03 8.28776E-14-6.56291E-13
 -1      1450 1.99848E+01 1.68460E-04 3.49973E-05 3.72256E-04-4.90056E-16-1.08183E-12
 -1      1451 1.99854E+01 1.07627E-04 3.38620E-05 4.34615E-04 5.23922E-14-1.08349E-12
 -1      1452 1.99888E+01 2.60395E-04-6.20813E-05 1.79168E-04 6.33156E-14-6.99288E-13
 -1      1453 1.99856E+01 9.29939E-05 2.51372E-05 6.72506E-04-1.38584E-14-1.00933E-12
 -1      1454 1.99865E+01 4.74494E-05 2.63869E-05 7.01581E-04-6.10841E-14-1.08418E-12
 -1      1455 1.99886E+01 1.34170E-04-3.67567E-05 9.82996E-04 5.15637E-15-6.60028E-13
 -1      1456 1.99870E+01 4.12249E-05 1.74069E-05 8.11048E-04 1.38496E-14-1.11936E-12
 -1      1457 1.99880E+01 8.00331E-06 2.00627E-05 8.18131E-04 1.36942E-13-1.07664E-12
 -1      1458 1.99892E+01 4.89792E-05-1.90175E-05 1.40717E-03 7.99671E-15-6.75405E-13
 -1      1459 1.99886E+01 7.30371E-06 1.15218E-05 8.42880E-04 2.53041E-13-1.07925E-12
 -1      1460 1.99897E+01-1.62571E-05 1.48824E-05 8.36274E-04 1.53335E-13-8.61277E-13
 -1      1461 1.99903E+01-5.58623E-06-7.06372E-06 1.57382E-03 2.45839E-13-7.79342E-13
 -1      1462 1.99904E+01-1.35583E-05 7.16700E-06 8.08424E-04 1.06358E-13-8.16230E-13
 -1      1463 1.99914E+01-2.97354E-05 1.07528E-05 7.94052E-04 7.45330E-14-6.03431E-13
 -1      1464 1.99916E+01-3.79808E-05 5.95475E-07 1.57426E-03 2.04279E-13-6.84691E-13
 -1      1465 1.99920E+01-2.51538E-05 4.03688E-06 7.36495E-04 9.73713E-15-4.55336E-13
 -1      1466 1.99929E+01-3.58282E-05 7.53839E-06 7.18439E-04 2.56282E-14-5.44818E-13
 -1      1467 1.99929E+01-5.48445E-05 5.15494E-06 1.47479E-03 4.35913E-14-4.16531E-13
 -1      1468 1.99936E+01-3.04054E-05 1.85664E-06 6.46928E-04-2.91585E-14-6.03432E-13
 -1      1469 1.99944E+01-3.70896E-05 5.08954E-06 6.27882E-04-1.65590E-13-7.42825E-13
 -1      1470 1.99941E+01-6.12465E-05 7.54645E-06 1.32203E-03-7.16976E-14-5.20908E-13
 -1      1471 1.99949E+01-3.15133E-05 3.91392E-07 5.52777E-04-1.86689E-13-6.21634E-13
 -1      1472 1.99956E+01-3.53984E-05 3.25978E-06 5.34414E-04-1.57852E-13-9.13077E-13
 -1      1473 1.99952E+01-6.09626E-05 8.47954E-06 1.14754E-03-1.95825E-13-4.20465E-13
 -1      1474 1.99960E+01-3.01022E-05-5.51480E-07 4.62089E-04-1.34416E-13-8.97452E-13
 -1      1475 1.99966E+01-3.21124E-05 1.91628E-06 4.45342E-04 9.58804E-14-9.23990E-13
 -1      1476 1.99962E+01-5.67469E-05 8.48353E-06 9.71552E-04-1.99694E-13-4.99198E-13
 -1      1477 1.99970E+01-2.73576E-05-1.12267E-06 3.79268E-04 1.87487E-13-8.21718E-13
 -1      1478 1.99975E+01-2.82034E-05 9.47989E-07 3.64541E-04 1.04276E-13-7.97424E-13
 -1      1479 1.99971E+01-5.05792E-05 7.94712E-06 8.06039E-04 1.40082E-13-4.73908E-13
 -1      1480 1.99978E+01-2.41469E-05-1.42852E-06 3.06081E-04 1.34563E-14-6.79459E-13
 -1      1481 1.99982E+01-2.43781E-05 2.77345E-07 2.93395E-04 1.85944E-13-6.22550E-13
 -1      1482 1.99978E+01-4.38864E-05 7.15429E-06 6.56920E-04 1.64831E-13-4.39267E-13
 -1      1483 1.99984E+01-2.11392E-05-1.51854E-06 2.42346E-04 2.40888E-13-8.33472E-13
 -1      1484 1.99987E+01-2.11775E-05-1.07057E-07 2.31416E-04 1.44552E-13-6.58131E-13
 -1      1485 1.99984E+01-3.77509E-05 6.31760E-06 5.25705E-04 1.63686E-13-4.32078E-13
 -1      1486 1.99989E+01-1.88635E-05-1.34691E-06 1.86371E-04 1.08747E-13-6.44957E-13
 -1      1487 1.99991E+01-1.90272E-05-1.41749E-07 1.76661E-04 1.42679E-13-4.30397E-13
 -1      1488 1.99988E+01-3.30338E-05 5.62208E-06 4.10568E-04 2.16125E-13-6.20644E-13
 -1      1489 1.99993E+01-1.77839E-05-7.78732E-07 1.35259E-04 1.77875E-13-4.26556E-13
 -1      1490 1.99995E+01-1.82005E-05 2.41187E-07 1.25955E-04 1.08758E-13-3.97906E-13
 -1      1491 1.99992E+01-3.06029E-05 5.19106E-06 3.07157E-04 2.30197E-13-4.20115E-13
 -1      1492 1.99996E+01-1.79782E-05 2.32319E-07 8.56027E-05 8.80924E-14-3.12417E-13
 -1      1493 1.99997E+01-1.82446E-05 5.59221E-07 7.57063E-05 2.26794E-13-1.71100E-13
 -1      1494 1.99995E+01-3.08836E-05 4.94528E-06 2.09450E-04 2.27590E-13-4.84314E-13
 -1      1495 1.99997E+01-2.04295E-05 3.68816E-07 3.50315E-05 2.92599E-13-1.79770E-13
 -1      1496 1.99998E+01-1.60717E-05-1.69943E-06 2.43269E-05 1.81347E-13 1.09801E-13
 -1      1497 1.99997E+01-3.30903E-05 4.32810E-06 1.13602E-04 3.65932E-13-3.86462E-13
 -1      1498 1.99998E+01 2.04145E-07-4.75190E-06-8.29319E-06-2.15524E-13 1.28470E-13
 -1      1499 1.99998E+01-1.74656E-05 5.54251E-07 1.94840E-05 3.03045E-14-4.20217E-13
 -1      1500 3.10660E+01 3.80785E-02-1.11311E-01-2.45726E-01 7.14324E-14 1.84377E-12
 -1      1501 3.12456E+01 2.33031E-01-2.07508E-01-4.97030E-02 7.09294E-14 1.94905E-12
 -1      1502 3.02201E+01 7.50849E-01-1.29238E-01 7.22646E-01 1.37931E-13 1.42095E-12
 -1      1503 3.15744E+01-5.86251E-02 4.23410E-02-3.32156E-01 2.21711E-14 1.74192E-12
 -1      1504 3.11570E+01 3.46157E-02-3.23454E-02-3.33237E-01 3.28773E-14 1.79308E-12
 -1      1505 3.00543E+01 6.15493E-02-4.21844E-02-4.01749E-01 7.70425E-14 1.31621E-12
 -1      1506 3.17489E+01-1.88703E-01 1.27728E-01 1.01821E-01-1.49967E-14 1.77271E-12
 -1      1507 3.16824E+01-1.94030E-01 5.13648E-02-5.14073E-02-2.36408E-14 1.71915E-12
 -1      1508 3.03828E+01-2.20398E-01 5.77208E-02-2.70318E-01-1.00666E-14 1.25008E-12
 -1      1509 3.03403E+01-2.65586E-01 1.33421E-01 1.07423E+00-3.33934E-14 1.89304E-12
 -1      1510 3.13990E+01-4.02777E-01 8.27923E-02 7.32653E-01-4.48253E-14 1.80013E-12
 -1      1511 3.04109E+01-5.24595E-01 1.19475E-01 8.70461E-01-8.74266E-14 1.27513E-12
 -1      1512 2.67496E+01-8.54685E-02-5.81528E-02 2.02745E+00-5.10009E-15 1.97942E-12
 -1      1513 2.92447E+01-3.52495E-01 2.19209E-02 1.68574E+00-2.77669E-14 1.91483E-12
 -1      1514 2.93534E+01-5.65158E-01 8.12853E-02 2.59341E+00-7.02619E-14 1.35637E-12
 -1      1515 2.25214E+01 3.16470E-01-3.97804E-01 1.75054E+00 6.91114E-15 1.99851E-12
 -1      1516 2.53311E+01 1.31841E-01-1.73432E-01 1.80566E+00-2.02616E-14 1.94500E-12
 -1      1517 2.71375E+01 8.69322E-02-9.20003E-02 3.35176E+00-4.51861E-14 1.38198E-12
 -1      1518 2.10946E+01 4.90773E-01-4.91202E-01-1.12058E-01 1.75998E-13 1.72155E-12
 -1      1519 2.19437E+01 6.33322E-01-3.65564E-01 4.28057E-01 1.10578E-13 1.87217E-12
 -1      1520 2.51542E+01 1.06319E+00-2.64051E-01 1.59285E+00 1.53766E-13 1.19707E-12
 -1      1521 2.33959E+01 2.13123E-01-2.64125E-01-1.70603E+00 1.42636E-13 1.30518E-12
 -1      1522 2.18296E+01 5.51676E-01-3.24567E-01-1.26052E+00 1.82854E-13 1.52577E-12
 -1      1523 2.51340E+01 1.06461E+00-2.82158E-01-1.49742E+00 3.20216E-13 9.91360E-13
 -1      1524 2.73630E+01-1.54959E-01 5.41539E-02-1.93290E+00 1.46928E-13 8.73412E-13
 -1      1525 2.46512E+01 5.47513E-02-1.28281E-01-1.84915E+00 1.50331E-13 1.11405E-12
 -1      1526 2.68178E+01 1.87420E-01-1.56338E-01-3.15133E+00 3.25184E-13 5.96419E-13
 -1      1527 3.02426E+01-2.61104E-01 1.95024E-01-9.64783E-01 4.15640E-15 6.72629E-13
 -1      1528 2.82202E+01-2.77575E-01 6.65894E-02-1.18487E+00 3.99229E-14 7.53897E-13
 -1      1529 2.86483E+01-6.04166E-01-3.03066E-02-2.52014E+00 1.49025E-13 3.80709E-13
 -1      1530 3.07383E+01-1.65296E-01 1.40422E-01 7.41782E-02 2.65170E-14 6.59587E-13
 -1      1531 3.02417E+01-2.92882E-01 1.11958E-01-1.64576E-01 2.24126E-15 6.71629E-13
 -1      1532 2.93410E+01-6.89274E-01 2.76964E-02-7.56370E-01 1.98522E-14 2.61704E-13
 -1      1533 2.95785E+01-5.61623E-02 4.56978E-02 6.31255E-01-1.70922E-14 6.65634E-13
 -1      1534 3.01696E+01-1.65822E-01 6.22607E-02 4.99925E-01 1.49741E-14 6.95026E-13
 -1      1535 2.87768E+01-3.81395E-01 2.98664E-02 6.58259E-01-1.14839E-15 4.00836E-13
 -1      1536 2.77668E+01 5.80947E-03-1.05068E-02 7.73623E-01-6.88685E-16 7.19730E-13
 -1      1537 2.87946E+01-5.12623E-02 1.01873E-02 7.33610E-01-2.47597E-14 6.76320E-13
 -1      1538 2.74928E+01-1.02075E-01 1.50459E-02 1.30072E+00 1.41380E-15 3.72178E-13
 -1      1539 2.59453E+01 2.87877E-02-2.78791E-02 7.03981E-01-1.33708E-14 9.09377E-13
 -1      1540 2.69891E+01 1.15396E-02-1.40816E-02 7.10768E-01-4.85315E-14 8.41480E-13
 -1      1541 2.59984E+01 4.24681E-02 4.06459E-03 1.38477E+00-1.14625E-13 4.69891E-13
 -1      1542 2.43925E+01 3.15869E-02-2.63908E-02 5.65260E-01-3.97772E-14 9.30842E-13
 -1      1543 2.52743E+01 3.49925E-02-1.77983E-02 5.88172E-01 1.67921E-15 9.11937E-13
 -1      1544 2.46005E+01 8.92816E-02-4.97554E-04 1.20554E+00-3.48055E-14 4.94280E-13
 -1      1545 2.31732E+01 2.69101E-02-1.95959E-02 4.26277E-01 3.10984E-14 9.63792E-13
 -1      1546 2.38554E+01 3.79795E-02-1.36325E-02 4.50773E-01 6.07153E-17 9.55201E-13
 -1      1547 2.34284E+01 8.92095E-02-1.61547E-03 9.53467E-01-2.37614E-14 6.14266E-13
 -1      1548 2.22578E+01 2.07170E-02-1.31615E-02 3.10946E-01-3.07523E-15 8.34222E-13
 -1      1549 2.27617E+01 3.29418E-02-8.50087E-03 3.31826E-01 7.35020E-14 9.47332E-13
 -1      1550 2.25049E+01 7.32257E-02-1.55639E-03 7.16566E-01 5.82321E-14 7.01395E-13
 -1      1551 2.15879E+01 1.52103E-02-8.46760E-03 2.22783E-01 2.56605E-14 7.67569E-13
 -1      1552 2.19510E+01 2.60050E-02-4.68378E-03 2.39037E-01-1.75931E-14 7.67660E-13
 -1      1553 2.18040E+01 5.52224E-02-1.28837E-03 5.23574E-01 2.14707E-14 6.72071E-13
 -1      1554 2.11048E+01 1.09181E-02-5.36167E-03 1.58039E-01-2.77155E-14 7.25904E-13
 -1      1555 2.13629E+01 1.96080E-02-2.32840E-03 1.70168E-01 3.86809E-14 7.70582E-13
 -1      1556 2.12841E+01 3.99706E-02-1.05681E-03 3.76560E-01 4.80796E-14 5.81606E-13
 -1      1557 2.07596E+01 7.75985E-03-3.38107E-03 1.11421E-01-6.71843E-14 7.83131E-13
 -1      1558 2.09416E+01 1.44496E-02-1.01159E-03 1.20291E-01-8.59334E-14 7.16723E-13
 -1      1559 2.09038E+01 2.83590E-02-8.78756E-04 2.68318E-01-6.28404E-14 6.07522E-13
 -1      1560 2.05141E+01 5.42466E-03-2.24038E-03 7.81437E-02 1.42824E-14 8.49940E-13
 -1      1561 2.06421E+01 1.05714E-02-3.18349E-04 8.45661E-02 1.54007E-14 8.36468E-13
 -1      1562 2.06283E+01 1.99562E-02-7.46199E-04 1.90000E-01-5.76709E-14 4.94903E-13
 -1      1563 2.03340E+01 3.75411E-03-1.35666E-03 5.34687E-02 1.14695E-13 6.36071E-13
 -1      1564 2.04264E+01 7.52675E-03-8.05517E-06 5.84236E-02 9.76532E-14 8.11894E-13
 -1      1565 2.04264E+01 1.40513E-02-4.87212E-04 1.32800E-01 1.34461E-13 5.34367E-13
 -1      1566 2.02153E+01 2.70763E-03-8.35323E-04 3.69798E-02-8.00195E-14 6.23768E-13
 -1      1567 2.02758E+01 5.48588E-03 1.88396E-04 4.02880E-02-6.22373E-14 5.57031E-13
 -1      1568 2.02829E+01 9.58240E-03-5.22433E-04 9.18624E-02 6.32903E-14 4.38857E-13
 -1      1569 2.01327E+01 1.91925E-03-5.23931E-04 2.52503E-02-1.69884E-15 9.04120E-13
 -1      1570 2.01741E+01 3.93951E-03 2.11054E-04 2.76473E-02-3.21245E-14 7.87234E-13
 -1      1571 2.01845E+01 6.73236E-03-4.13193E-04 6.35924E-02-9.12573E-14 5.89390E-13
 -1      1572 2.00762E+01 1.35425E-03-3.20495E-04 1.69344E-02 7.84857E-14 6.78934E-13
 -1      1573 2.01042E+01 2.84505E-03 2.13985E-04 1.86700E-02 8.16888E-14 7.39836E-13
 -1      1574 2.01155E+01 4.70632E-03-3.33125E-04 4.34404E-02 7.69230E-14 7.40823E-13
 -1      1575 2.00383E+01 9.49331E-04-1.87558E-04 1.10659E-02-6.26792E-14 7.01698E-13
 -1      1576 2.00568E+01 2.04802E-03 1.98639E-04 1.23184E-02 1.51663E-14 5.75645E-13
 -1      1577 2.00679E+01 3.27312E-03-2.66099E-04 2.91114E-02 7.27337E-14 5.27129E-13
 -1      1578 2.00136E+01 6.58400E-04-1.00954E-04 6.95542E-03-3.92418E-14 6.19490E-13
 -1      1579 2.00254E+01 1.46548E-03 1.75449E-04 7.85453E-03-5.79070E-15 6.04192E-13
 -1      1580 2.00357E+01 2.25681E-03-2.10242E-04 1.89764E-02 2.16534E-14 2.93408E-13
 -1      1581 1.99982E+01 4.49290E-04-4.50521E-05 4.11026E-03-1.16973E-13 8.82830E-13
 -1      1582 2.00053E+01 1.03895E-03 1.50314E-04 4.75017E-03-1.53573E-13 6.10507E-13
 -1      1583 2.00144E+01 1.53479E-03-1.64239E-04 1.18698E-02-2.03237E-13 4.62602E-13
 -1      1584 1.99891E+01 2.99416E-04-9.71087E-06 2.17510E-03 5.93349E-14 9.90755E-13
 -1      1585 1.99931E+01 7.26761E-04 1.26153E-04 2.62478E-03 1.00403E-14 9.22300E-13
 -1      1586 2.00009E+01 1.02220E-03-1.26771E-04 6.95135E-03-8.83655E-14 4.06213E-13
 -1      1587 1.99844E+01 1.92715E-04 1.17622E-05 8.91858E-04-3.44454E-14 9.46611E-13
 -1      1588 1.99862E+01 4.98948E-04 1.04243E-04 1.20225E-03 3.58167E-14 1.00912E-12
 -1      1589 1.99928E+01 6.59869E-04-9.65886E-05 3.61067E-03 6.75808E-14 4.98969E-13
 -1      1590 1.99826E+01 1.17596E-04 2.38801E-05 7.20602E-05 1.32474E-13 7.62285E-13
 -1      1591 1.99830E+01 3.33734E-04 8.50246E-05 2.81054E-04 3.48102E-14 8.71880E-13
 -1      1592 1.99885E+01 4.05961E-04-7.25514E-05 1.40194E-03 2.87915E-14 5.86879E-13
 -1      1593 1.99826E+01 6.55880E-05 2.97428E-05-4.22302E-04 4.04719E-14 3.94586E-13
 -1      1594 1.99822E+01 2.15085E-04 6.85287E-05-2.86445E-04 9.49376E-14 5.62360E-13
 -1      1595 1.99866E+01 2.30522E-04-5.36366E-05-1.88977E-06 1.85459E-13 5.40318E-13
 -1      1596 1.99837E+01 3.04283E-05 3.15033E-05-6.92190E-04 1.58868E-14 5.37629E-13
 -1      1597 1.99828E+01 1.31061E-04 5.45946E-05-6.08377E-04-9.28181E-14 3.01170E-13
 -1      1598 1.99863E+01 1.11818E-04-3.89450E-05-8.41026E-04 4.22319E-14 3.58042E-13
 -1      1599 1.99854E+01 7.35892E-06 3.05941E-05-8.11077E-04 1.12245E-13 2.54933E-13
 -1      1600 1.99843E+01 7.26506E-05 4.29685E-05-7.63674E-04 8.03396E-14 4.42252E-13
 -1      1601 1.99870E+01 3.38567E-05-2.77223E-05-1.29147E-03 9.14154E-14 1.44644E-13
 -1      1602 1.99874E+01-7.34829E-06 2.85146E-05-8.33656E-04 6.43001E-14 2.14219E-13
 -1      1603 1.99862E+01 3.39923E-05 3.37062E-05-8.09470E-04 6.69803E-14 3.44143E-13
 -1      1604 1.99883E+01-1.56242E-05-1.94355E-05-1.48168E-03 1.39616E-13 2.19894E-13
 -1      1605 1.99894E+01-1.66401E-05 2.46797E-05-7.91739E-04-3.69780E-13 4.44931E-13
 -1      1606 1.99882E+01 8.01875E-06 2.62317E-05-7.84300E-04-1.32309E-13 2.76325E-13
 -1      1607 1.99898E+01-4.20690E-05-1.29951E-05-1.50114E-03-1.03757E-13 2.93387E-13
 -1      1608 1.99913E+01-1.89258E-05 2.15719E-05-7.16582E-04 1.75317E-13 7.02953E-13
 -1      1609 1.99902E+01-8.39433E-06 1.93853E-05-7.20735E-04-5.83987E-14 4.68289E-13
 -1      1610 1.99914E+01-5.89505E-05-8.40459E-06-1.41832E-03-1.70300E-13 2.34396E-13
 -1      1611 1.99930E+01-2.00137E-05 1.81228E-05-6.28223E-04 4.08311E-13 1.28734E-14
 -1      1612 1.99920E+01-1.77245E-05 1.42582E-05-6.37937E-04 3.82062E-13 6.34481E-13
 -1      1613 1.99929E+01-6.25067E-05-4.90684E-06-1.28028E-03 4.07037E-13 2.70278E-13
 -1      1614 1.99944E+01-1.93660E-05 1.49137E-05-5.36558E-04 1.16103E-13-6.13721E-13
 -1      1615 1.99936E+01-2.17631E-05 1.04182E-05-5.49034E-04 2.33603E-13-3.12227E-13
 -1      1616 1.99942E+01-6.13397E-05-2.70802E-06-1.11865E-03 5.63758E-13-3.78662E-14
 -1      1617 1.99957E+01-1.77386E-05 1.20332E-05-4.48815E-04-3.08372E-13-3.66835E-13
 -1      1618 1.99950E+01-2.27648E-05 7.45741E-06-4.62098E-04-1.85177E-13-5.32203E-13
 -1      1619 1.99954E+01-5.67120E-05-1.24443E-06-9.53107E-04-1.36015E-13-2.66048E-13
 -1      1620 1.99967E+01-1.56629E-05 9.53411E-06-3.68976E-04-4.01552E-13 4.13419E-13
 -1      1621 1.99961E+01-2.19089E-05 5.19615E-06-3.81865E-04-2.84962E-13-7.78223E-14
 -1      1622 1.99964E+01-5.03433E-05-3.14301E-07-7.95732E-04-5.02520E-13-4.28801E-14
 -1      1623 1.99976E+01-1.35194E-05 7.44134E-06-2.98722E-04-4.90968E-14 1.24541E-12
 -1      1624 1.99971E+01-2.00734E-05 3.49238E-06-3.10573E-04-1.97274E-13 8.12780E-13
 -1      1625 1.99973E+01-4.34290E-05 2.50368E-07-6.53015E-04-4.86965E-13 5.22658E-13
 -1      1626 1.99982E+01-1.15920E-05 5.77864E-06-2.38066E-04 3.34372E-14 1.26416E-12
 -1      1627 1.99979E+01-1.79276E-05 2.23583E-06-2.48663E-04-6.65094E-15 1.14625E-12
 -1      1628 1.99980E+01-3.68128E-05 6.00485E-07-5.27385E-04-1.26863E-13 8.42726E-13
 -1      1629 1.99988E+01-1.01169E-05 4.60769E-06-1.85742E-04 1.89081E-13 1.02647E-12
 -1      1630 1.99985E+01-1.60175E-05 1.36062E-06-1.95235E-04 1.06974E-13 1.13713E-12
 -1      1631 1.99985E+01-3.11221E-05 8.90800E-07-4.18278E-04 1.32618E-13 7.04584E-13
 -1      1632 1.99992E+01-9.31376E-06 4.05826E-06-1.39400E-04 1.34095E-13 6.87193E-13
 -1      1633 1.99990E+01-1.48455E-05 8.73803E-07-1.48305E-04 8.35873E-14 9.08777E-13
 -1      1634 1.99990E+01-2.69018E-05 1.30451E-06-3.22805E-04 1.51181E-13 7.67018E-13
 -1      1635 1.99995E+01-9.30440E-06 4.14501E-06-9.58009E-05-1.87589E-13 7.52963E-13
 -1      1636 1.99994E+01-1.48269E-05 8.42060E-07-1.05005E-04 8.94412E-14 7.36940E-13
 -1      1637 1.99993E+01-2.46553E-05 2.02841E-06-2.36178E-04 1.25075E-13 7.99096E-13
 -1      1638 1.99997E+01-1.00383E-05 3.84843E-06-5.14266E-05-4.47534E-14 9.10480E-13
 -1      1639 1.99996E+01-1.61045E-05 1.04864E-06-6.23572E-05-1.12934E-13 6.85457E-13
 -1      1640 1.99996E+01-2.49013E-05 2.82770E-06-1.52890E-04-1.40219E-13 8.56255E-13
 -1      1641 1.99998E+01-9.74901E-06-1.52941E-06-8.62349E-06 6.00557E-15 7.70337E-13
 -1      1642 1.99998E+01-1.59828E-05 1.36872E-07-2.01131E-05 3.13061E-14 7.81757E-13
 -1      1643 1.99997E+01-2.45271E-05 2.78291E-06-6.93308E-05 1.83933E-15 3.86192E-13
 -1      1644 1.99998E+01-5.90036E-07-4.71660E-06 5.90337E-06 6.09533E-13 6.16452E-13
 -1      1645 1.99998E+01-6.56066E-05 2.38553E-06-3.79475E-05 4.84326E-13-1.30808E-13
 -1      1646 1.99998E+01-3.29925E-05-1.61434E-06-2.70183E-05 7.66868E-13-8.97738E-14
 -1      1647 1.99998E+01-2.21271E-04 1.93482E-06-8.19028E-05 4.92070E-13-8.37733E-14
 -1      1648 1.99998E+01-1.33393E-04 1.64506E-06-7.36975E-05 5.66948E-13-1.17887E-13
 -1      1649 1.99998E+01-1.43489E-04 3.17097E-06-1.11511E-04 1.82213E-13-2.03306E-13
 -1      1650 1.99998E+01-4.40374E-04 8.70111E-07-1.10227E-04 3.39664E-13-4.31080E-14
 -1      1651 1.99998E+01-3.15185E-04 1.29043E-06-1.06058E-04 5.52511E-13-8.47138E-14
 -1      1652 1.99998E+01-3.04968E-04 2.89458E-06-1.83527E-04 2.90270E-13-1.15889E-13
 -1      1653 1.99998E+01-6.86394E-04 1.45111E-07-1.18121E-04 2.42593E-13-5.32699E-14
 -1      1654 1.99998E+01-5.48141E-04 5.86728E-07-1.18226E-04 1.56796E-13 1.70769E-13
 -1      1655 1.99998E+01-5.06913E-04 9.02732E-07-2.21694E-04 2.22452E-13-9.28425E-14
 -1      1656 1.99998E+01-9.15793E-04-1.85082E-07-1.06741E-04-4.38631E-13-3.17081E-13
 -1      1657 1.99998E+01-7.90213E-04 1.49610E-07-1.10408E-04 1.73371E-14-5.09483E-13
 -1      1658 1.99998E+01-7.18448E-04-1.28923E-06-2.21312E-04-2.94666E-14-5.85751E-13
 -1      1659 1.99998E+01-1.10135E-03-3.15542E-07-7.90008E-05-1.69736E-13 1.97187E-13
 -1      1660 1.99998E+01-1.00425E-03-1.07198E-07-8.55884E-05-3.17739E-13 2.05550E-13
 -1      1661 1.99998E+01-9.10165E-04-3.09780E-06-1.86163E-04-1.46633E-13-4.64547E-14
 -1      1662 1.99998E+01-1.21164E-03-3.24987E-07-3.98589E-05 1.14922E-14 1.09218E-13
 -1      1663 1.99998E+01-1.15959E-03-2.18170E-07-4.82165E-05-5.34321E-14 1.52543E-13
 -1      1664 1.99998E+01-1.05607E-03-4.39840E-06-1.23119E-04-9.20772E-14 2.37601E-13
 -1      1665 1.99998E+01-1.23133E-03-2.87336E-07 4.83080E-06 4.21786E-13 2.84372E-13
 -1      1666 1.99998E+01-1.23173E-03-2.85316E-07-4.11808E-06 7.44111E-14 3.43497E-13
 -1      1667 1.99998E+01-1.13397E-03-5.06320E-06-4.25554E-05 1.21460E-14 2.33983E-13
 -1      1668 1.99998E+01-1.15775E-03-2.12733E-07 4.88408E-05-1.50706E-15-3.00945E-13
 -1      1669 1.99998E+01-1.21055E-03-3.26375E-07 4.05159E-05 3.72552E-13-1.39583E-13
 -1      1670 1.99998E+01-1.13327E-03-5.05505E-06 4.38967E-05 1.02457E-14-9.15402E-15
 -1      1671 1.99998E+01-1.00131E-03-7.88633E-08 8.60133E-05-7.39693E-13-4.36672E-13
 -1      1672 1.99998E+01-1.09896E-03-3.37239E-07 7.94953E-05-1.26755E-13-3.48363E-13
 -1      1673 1.99998E+01-1.05412E-03-4.36695E-06 1.24219E-04-7.53347E-14-6.38228E-13
 -1      1674 1.99998E+01-7.88613E-04 1.31450E-07 1.10378E-04-1.29058E-12-2.15741E-13
 -1      1675 1.99998E+01-9.14333E-04-2.00662E-07 1.06770E-04-8.04319E-13-5.85610E-13
 -1      1676 1.99998E+01-9.08820E-04-3.10668E-06 1.86514E-04-3.64047E-13-8.82507E-13
 -1      1677 1.99998E+01-5.44637E-04 5.77700E-07 1.18107E-04-6.86693E-13 5.23956E-13
 -1      1678 1.99998E+01-6.82820E-04 1.46028E-07 1.18072E-04-1.35332E-12 6.03830E-13
 -1      1679 1.99998E+01-7.16807E-04-1.25232E-06 2.21290E-04-2.32078E-13 2.62222E-13
 -1      1680 1.99998E+01-3.11986E-04 1.42895E-06 1.05831E-04-1.09101E-13 3.37810E-13
 -1      1681 1.99998E+01-4.37057E-04 8.63224E-07 1.09870E-04-5.42522E-13 3.95224E-13
 -1      1682 1.99998E+01-5.03562E-04 9.15577E-07 2.21292E-04-1.24128E-13 6.66943E-13
 -1      1683 1.99998E+01-1.33793E-04 5.35902E-07 7.37984E-05 1.33642E-13 3.59202E-14
 -1      1684 1.99998E+01-2.19601E-04 1.97020E-06 8.22080E-05-1.72108E-14 2.66970E-13
 -1      1685 1.99998E+01-3.02815E-04 2.99021E-06 1.82562E-04-6.45342E-14 3.78113E-13
 -1      1686 1.99998E+01-5.29245E-05-2.34851E-06 4.51593E-05-7.40311E-14-4.38738E-13
 -1      1687 1.99998E+01-8.81785E-05 1.72090E-06 6.07408E-05 1.61334E-13-2.10076E-13
 -1      1688 1.99998E+01-1.66916E-04 1.64110E-06 1.36416E-04-7.43790E-14-3.20927E-14
 -1      1689 1.99997E+01-8.23926E-05-1.50316E-06 9.37555E-05 1.34964E-13-4.51786E-13
 -1      1690-8.47606E-01-1.55401E+01-1.79340E+00-1.62474E+00 2.20152E-12 7.48124E-13
 -1      1691-6.99871E-01-1.69727E+01-1.88335E+00-2.03924E-01 1.55741E-12 5.27967E-13
 -1      1692 8.92426E-01-9.74314E+00-1.45776E+00-3.53056E-01 2.53553E-12 1.18948E-12
 -1      1693 3.37049E-01-1.42988E+01-1.82660E+00-6.44772E-01 2.31093E-12 8.62227E-13
 -1      1694 5.85426E+00-2.13312E+00-9.83938E-01 3.42247E+00 2.25842E-12 1.29374E-12
 -1      1695 2.97080E+00-7.93724E+00-1.68309E+00 5.63045E-01 2.62035E-12 1.23551E-12
 -1      1696 2.13490E+01 2.82341E+00 1.22772E-01 9.39455E+00 1.19826E-12 7.06102E-13
 -1      1697 1.29435E+01-1.16776E+00-8.85609E-01 5.08072E+00 1.82032E-12 9.58567E-13
 -1      1698 3.72705E+01 6.12414E+00 1.24899E+00 1.29543E+01 5.92637E-13 3.48166E-13
 -1      1699 2.65002E+01 5.63349E+00 1.04830E-01 1.08099E+01 1.07780E-12 7.84484E-13
 -1      1700 5.28492E+01 4.67706E+00 2.02134E+00 1.01734E+01 2.38129E-13-5.53113E-13
 -1      1701 4.29257E+01 6.33359E+00 1.18683E+00 1.22271E+01 4.64073E-13 8.26006E-14
 -1      1702 5.97872E+01 3.99043E+00 2.27071E+00 1.96179E+00 2.97984E-13-1.36563E-12
 -1      1703 5.51128E+01 5.06320E+00 1.90064E+00 7.43220E+00 2.79221E-13-7.70606E-13
 -1      1704 5.81219E+01 4.41131E+00 2.17534E+00-5.98821E+00 6.05488E-13-2.15972E-12
 -1      1705 6.14562E+01 3.71221E+00 2.43413E+00-2.49340E-02 3.68539E-13-1.68970E-12
 -1      1706 4.48337E+01 5.46460E+00 1.20695E+00-1.04007E+01 9.74026E-13-2.31881E-12
 -1      1707 5.47328E+01 4.01671E+00 2.09721E+00-7.71320E+00 6.45772E-13-2.23566E-12
 -1      1708 2.84986E+01 5.23823E+00 1.13386E-01-1.05589E+01 1.48570E-12-2.24754E-12
 -1      1709 3.93482E+01 5.22913E+00 1.22446E+00-1.20346E+01 1.18416E-12-2.42384E-12
 -1      1710 1.43275E+01 1.57766E+00-8.72989E-01-6.36506E+00 1.57829E-12-1.76437E-12
 -1      1711 2.24800E+01 4.46631E+00 1.71520E-01-1.01353E+01 1.57119E-12-2.15117E-12
 -1      1712 5.31026E+00-5.41595E+00-1.48082E+00-1.66581E+00 1.27232E-12-1.09113E-12
 -1      1713 9.65459E+00-1.47135E-01-7.13428E-01-5.06482E+00 1.52522E-12-1.56453E-12
 -1      1714 1.09012E+00-1.12010E+01-1.61888E+00 4.22297E-01 6.76348E-13-6.10720E-13
 -1      1715 2.17520E+00-6.70332E+00-1.24762E+00-5.79939E-01 1.14198E-12-9.33087E-13
 -1      1716-6.24058E-01-1.44041E+01-1.73206E+00 7.93445E-01-5.26107E-14-3.43225E-13
 -1      1717-8.56437E-01-1.26406E+01-1.67152E+00 1.94805E+00 5.28966E-13-4.68042E-13
 -1      1718-4.25322E-01-1.20135E+01-1.40773E+00 2.87268E-01-8.30225E-13-4.36123E-13
 -1      1719-5.86189E-01-1.39184E+01-1.62634E+00 1.49645E+00-2.58349E-13-3.42643E-13
 -1      1720 1.40363E+00-5.95115E+00-1.01328E+00 1.43626E+00-1.45139E-12-7.50511E-13
 -1      1721 6.90490E-01-1.07968E+01-1.45348E+00 1.09133E+00-1.03240E-12-4.76258E-13
 -1      1722 6.10246E+00 1.30824E+00-5.45623E-01 4.93401E+00-1.71396E-12-1.14109E-12
 -1      1723 3.40200E+00-4.00584E+00-1.20047E+00 2.31009E+00-1.65801E-12-8.55316E-13
 -1      1724 1.65765E+01 5.84493E+00 1.00506E-01 1.00173E+01-1.39078E-12-1.27887E-12
 -1      1725 1.05873E+01 2.63382E+00-6.46669E-01 6.49895E+00-1.59783E-12-1.16429E-12
 -1      1726 2.96390E+01 7.30290E+00 7.39923E-01 1.29955E+01-9.95204E-13-1.15497E-12
 -1      1727 2.13321E+01 6.90993E+00-1.47167E-02 1.08668E+01-1.31251E-12-1.27065E-12
 -1      1728 4.40762E+01 5.70053E+00 1.33596E+00 1.12845E+01-5.86309E-13-4.83724E-13
 -1      1729 3.48920E+01 7.24547E+00 6.45922E-01 1.23288E+01-8.91121E-13-9.62896E-13
 -1      1730 5.44322E+01 3.78359E+00 1.77445E+00 5.26592E+00-2.98817E-13 3.13360E-13
 -1      1731 4.86735E+01 5.38801E+00 1.36790E+00 9.89366E+00-4.50029E-13-2.82996E-13
 -1      1732 5.54258E+01 3.77763E+00 1.73131E+00-3.81071E+00-3.41671E-13 1.08186E-12
 -1      1733 5.58668E+01 3.64780E+00 1.78321E+00 2.20410E+00-2.67064E-13 5.81674E-13
 -1      1734 4.70291E+01 5.85431E+00 1.32153E+00-1.03063E+01-7.22242E-13 1.52733E-12
 -1      1735 5.28947E+01 4.21875E+00 1.67726E+00-6.22431E+00-4.32154E-13 1.18283E-12
 -1      1736 3.47438E+01 7.62991E+00 8.14962E-01-1.31383E+01-1.11305E-12 1.81655E-12
 -1      1737 4.34263E+01 6.10671E+00 1.42964E+00-1.23749E+01-8.21232E-13 1.75049E-12
 -1      1738 2.11650E+01 6.06135E+00 4.97920E-02-1.03830E+01-1.25155E-12 1.54610E-12
 -1      1739 2.97943E+01 6.86540E+00 8.57192E-01-1.28204E+01-1.16185E-12 1.68709E-12
 -1      1740 1.00801E+01 1.81119E+00-6.60144E-01-6.09554E+00-1.06404E-12 1.11444E-12
 -1      1741 1.57863E+01 5.41867E+00 1.60593E-01-9.69607E+00-1.28009E-12 1.55242E-12
 -1      1742 4.08674E+00-5.98015E+00-1.22586E+00-2.26629E+00-4.66960E-13 6.05127E-13
 -1      1743 6.92214E+00-4.85142E-01-5.16153E-01-4.93303E+00-8.79075E-13 1.00653E-12
 -1      1744 5.72087E-01-1.31232E+01-1.73999E+00-2.17987E-01 3.95128E-13 3.36044E-13
 -1      1745 1.21833E+00-8.08972E+00-1.22760E+00-6.93860E-01-2.62679E-13 5.58220E-13
 -1      1746-5.62476E-01-1.69897E+01-1.91472E+00-7.67058E-01 1.32450E-12 3.36370E-13
 -1      1747-4.81070E-01-1.45963E+01-1.68696E+00 4.79255E-01 6.06848E-13 2.78888E-13
 -1      1748 2.81847E+01-1.25470E+00 2.63766E-02 6.12818E+00 9.06941E-13-2.22045E-14
 -1      1749 1.60586E+01-4.75960E+00-3.85816E-01 6.07043E+00 1.24989E-12 2.18658E-13
 -1      1750 1.99998E+01-7.72844E-06-3.43465E-07-6.34974E-06 5.59644E-13 1.83354E-13
 -1      1751 1.99998E+01-5.60383E-05-2.87988E-07-4.76256E-05 4.75599E-14 9.47316E-14
 -1      1752 1.25068E-01-1.04527E+01-1.23888E+00 1.60665E+00 1.25722E-12 8.98503E-13
 -1      1753 5.14393E+00-8.16193E+00-1.06402E+00 3.77126E+00 1.38878E-12 7.17523E-13
 -1      1754-1.39521E+00-1.15872E+01-1.36123E+00-8.07706E-01 8.50028E-13 8.10740E-13
 -1      1755 4.01281E+01 3.81532E+00 1.06131E+00 6.22809E+00 7.19702E-13-1.81966E-13
 -1      1756 4.78639E+01 6.61449E+00 1.60866E+00 3.27247E+00 6.02407E-13-6.16729E-13
 -1      1757 5.07518E+01 8.03225E+00 1.84281E+00 3.34083E-01 6.24834E-13-9.05095E-13
 -1      1758 4.92922E+01 6.67475E+00 1.74928E+00-1.87428E+00 5.92582E-13-1.18450E-12
 -1      1759 4.15812E+01 3.70608E+00 1.13895E+00-4.64156E+00 6.73378E-13-1.39799E-12
 -1      1760 2.99344E+01 3.87716E-01 2.83869E-01-6.35368E+00 8.45213E-13-1.45839E-12
 -1      1761 1.78000E+01-3.47467E+00-5.20315E-01-5.77627E+00 7.98139E-13-1.21214E-12
 -1      1762 8.02780E+00-6.49358E+00-9.24980E-01-4.31475E+00 5.78093E-13-9.86905E-13
 -1      1763 1.31314E+00-8.05772E+00-1.05456E+00-1.89528E+00 3.95184E-13-8.23674E-13
 -1      1764-1.21973E+00-8.83506E+00-1.16121E+00 9.60541E-01 3.15650E-14-6.91780E-13
 -1      1765 3.99350E-01-7.33215E+00-9.68282E-01 3.18206E+00-3.21965E-13-6.74016E-13
 -1      1766 5.06566E+00-4.68328E+00-7.58142E-01 5.11815E+00-7.20091E-13-6.79318E-13
 -1      1767 1.32266E+01-9.73832E-01-2.90443E-01 7.19437E+00-9.26037E-13-7.06712E-13
 -1      1768 2.33193E+01 2.10975E+00 1.75264E-01 8.16532E+00-8.73135E-13-6.42486E-13
 -1      1769 3.35389E+01 4.73801E+00 6.78397E-01 7.55428E+00-8.04801E-13-4.37872E-13
 -1      1770 4.25001E+01 6.46601E+00 1.14542E+00 5.30975E+00-7.06074E-13-9.12603E-14
 -1      1771 4.81257E+01 7.37874E+00 1.53948E+00 1.75151E+00-5.69433E-13 2.52437E-13
 -1      1772 4.69356E+01 7.38238E+00 1.37696E+00-2.25970E+00-5.01488E-13 5.26829E-13
 -1      1773 4.18378E+01 6.53652E+00 1.18225E+00-6.02517E+00-6.39794E-13 8.13793E-13
 -1      1774 3.33964E+01 4.25925E+00 7.25892E-01-7.81666E+00-6.62248E-13 9.74221E-13
 -1      1775 2.33395E+01 1.18221E+00 2.32578E-01-8.08478E+00-5.33573E-13 9.98535E-13
 -1      1776 1.35452E+01-2.82392E+00-3.56642E-01-6.99293E+00-3.14304E-13 9.12603E-13
 -1      1777 5.82930E+00-6.77156E+00-7.88226E-01-5.18901E+00-1.75415E-14 8.05363E-13
 -1      1778 4.73319E-01-1.02034E+01-1.22154E+00-2.80089E+00 4.51028E-13 7.25975E-13
 -1      1779 2.42351E+01 2.12439E+00-2.40287E-02-3.12186E+00-2.62044E-13 1.13798E-14
 -1      1780 2.14983E+01 3.49749E+00-3.69398E-02-2.63078E+00-9.11788E-14-6.84650E-13
 -1      1781 2.15717E+01 3.43147E+00-5.85751E-02-3.01076E+00-1.69094E-13-6.71650E-13
 -1      1782 2.17319E+01 3.18816E+00-4.99118E-02-3.16589E+00-2.21668E-13-6.10678E-13
 -1      1783 2.18086E+01 2.86630E+00-1.68465E-01-3.46110E+00-3.07747E-13-5.25996E-13
 -1      1784 2.18972E+01 2.52578E+00-7.56213E-03-2.88745E+00-2.26281E-13-5.87773E-13
 -1      1785 2.13024E+01 3.32060E+00-1.90768E-02-1.06976E+00 1.32708E-13-5.81875E-13
 -1      1786 2.13992E+01 3.40144E+00-3.61679E-02-1.51132E+00 8.92216E-14-6.31668E-13
 -1      1787 2.07947E+01 3.09700E+00-1.51876E-02-6.45597E-02 2.25551E-13-4.82388E-13
 -1      1788 2.11092E+01 3.18407E+00-2.81904E-02-5.58512E-01 1.90607E-13-5.48856E-13
 -1      1789 2.16379E+01 2.52739E+00-1.40900E-02-9.15019E-01 1.56794E-13-5.30111E-13
 -1      1790 1.96790E+01 2.98058E+00-1.66685E-02 1.03630E+00 3.14417E-13-3.88280E-13
 -1      1791 2.03280E+01 3.02227E+00-1.44933E-02 5.32768E-01 2.76591E-13-4.39298E-13
 -1      1792 2.10098E+01 2.30238E+00-2.23530E-02 1.72107E-01 2.62159E-13-4.29531E-13
 -1      1793 1.78332E+01 3.14036E+00-2.58040E-02 2.06668E+00 4.09929E-13-3.33084E-13
 -1      1794 1.88554E+01 3.09451E+00 6.83034E-03 1.64096E+00 3.74291E-13-3.66290E-13
 -1      1795 1.96680E+01 2.27995E+00-3.24979E-02 1.39456E+00 3.66840E-13-3.50851E-13
 -1      1796 1.54548E+01 3.67338E+00-3.75865E-02 2.72354E+00 4.80335E-13-3.09907E-13
 -1      1797 1.66952E+01 3.53315E+00 2.96351E-02 2.50511E+00 4.57053E-13-3.27802E-13
 -1      1798 1.75195E+01 2.67474E+00-3.51271E-02 2.51369E+00 4.74613E-13-3.13253E-13
 -1      1799 1.32457E+01 4.45895E+00-3.73843E-02 2.69198E+00 4.97238E-13-3.27635E-13
 -1      1800 1.42815E+01 4.27456E+00 4.02812E-02 2.77876E+00 4.96882E-13-3.33503E-13
 -1      1801 1.48962E+01 3.53736E+00-1.68740E-02 3.10761E+00 5.43572E-13-3.18381E-13
 -1      1802 1.22682E+01 5.11389E+00-1.62711E-02 1.95432E+00 4.87752E-13-3.13315E-13
 -1      1803 1.25529E+01 4.97163E+00 2.44059E-02 2.28645E+00 4.95584E-13-3.37648E-13
 -1      1804 1.27123E+01 4.54774E+00 1.80132E-02 2.81012E+00 5.50813E-13-3.43478E-13
 -1      1805 1.32977E+01 5.26943E+00 1.32222E-02 9.12280E-01 4.53530E-13-2.34453E-13
 -1      1806 1.25026E+01 5.22196E+00-1.18405E-02 1.28478E+00 4.59520E-13-2.88823E-13
 -1      1807 1.20939E+01 5.12907E+00 3.91173E-02 1.71000E+00 5.23474E-13-3.27581E-13
 -1      1808 1.63645E+01 4.83118E+00 2.33582E-02 2.23046E-01 4.04038E-13-5.94403E-14
 -1      1809 1.45996E+01 4.88630E+00-4.74850E-02 3.72387E-01 4.14398E-13-1.67207E-13
 -1      1810 1.37379E+01 4.88864E+00 2.59427E-02 4.59715E-01 4.57957E-13-2.20081E-13
 -1      1811 2.07430E+01 3.99877E+00-2.05792E-03 2.66014E-01 3.56382E-13 2.24765E-13
 -1      1812 1.84318E+01 4.16954E+00-6.72652E-02 7.57686E-02 3.64014E-13 6.06390E-14
 -1      1813 1.74055E+01 3.97222E+00-6.73855E-03-2.02096E-01 3.90205E-13-1.23374E-14
 -1      1814 2.57096E+01 2.81182E+00-2.94044E-02 8.26706E-01 2.63664E-13 6.90129E-13
 -1      1815 2.31543E+01 3.26221E+00-6.97761E-02 4.41923E-01 2.97276E-13 4.20920E-13
 -1      1816 2.22119E+01 2.78951E+00-6.49429E-03-1.07172E-01 3.09275E-13 3.09315E-13
 -1      1817 2.91105E+01 1.13321E+00-1.16481E-01 6.95557E-01 1.81168E-13 1.16941E-12
 -1      1818 2.73004E+01 2.27508E+00-5.02518E-03 8.91730E-01 2.16104E-13 8.78048E-13
 -1      1819 2.62536E+01 1.59288E+00-1.47448E-02 5.23841E-02 2.19486E-13 6.94833E-13
 -1      1820 2.88469E+01 6.55162E-01-5.55294E-02-1.42430E-01 1.68643E-13 1.10594E-12
 -1      1821 2.30344E+01 2.60880E+00 1.00251E-01-3.58718E+00-3.13768E-13-3.23755E-13
 -1      1822 2.89638E+01-1.19519E-01-2.86709E-02-6.92630E-01 5.58113E-14 1.01937E-12
 -1      1823 2.89924E+01 1.94986E-01-5.66142E-03-4.71038E-01 1.04944E-13 1.05989E-12
 -1      1824 2.77532E+01 5.35359E-01-7.67734E-03-4.08838E-01 1.28297E-13 8.20565E-13
 -1      1825 2.27480E+01 1.75048E+00 8.50933E-02-2.92045E+00-3.09822E-13-3.71266E-13
 -1      1826 2.13664E+01 4.02044E-01 3.03479E-02-1.59088E+00-2.65624E-13-3.70506E-13
 -1      1827 2.06886E+01 2.59276E-01 3.63347E-03-1.34527E+00-2.33535E-13-4.28859E-13
 -1      1828 2.03259E+01 1.87464E-01 2.58495E-02-1.16893E+00-2.28334E-13-3.97577E-13
 -1      1829 1.98766E+01 1.49232E-01 1.27273E-02-1.05724E+00-1.81750E-13-4.46320E-13
 -1      1830 2.10084E+01 3.71973E-01-1.31050E-03-1.65360E+00-2.44981E-13-4.07513E-13
 -1      1831 1.95576E+01 1.53915E-01 1.61798E-02-9.25960E-01-1.60296E-13-4.29782E-13
 -1      1832 1.92301E+01 1.76144E-01 1.44042E-02-8.23984E-01-1.31313E-13-4.79405E-13
 -1      1833 2.03132E+01 2.44824E-01-4.00225E-03-1.29878E+00-1.96496E-13-3.71697E-13
 -1      1834 1.89752E+01 2.10361E-01 1.06589E-02-6.67586E-01-1.21147E-13-4.92766E-13
 -1      1835 1.87622E+01 2.48642E-01 1.48052E-02-5.31447E-01-9.94083E-14-5.35407E-13
 -1      1836 1.97448E+01 2.94300E-01-6.94069E-03-9.74596E-01-1.55219E-13-3.85191E-13
 -1      1837 1.85978E+01 2.79605E-01 1.00435E-02-3.27308E-01-8.79227E-14-5.40823E-13
 -1      1838 1.85089E+01 3.00976E-01 1.34237E-02-1.57591E-01-6.48075E-14-5.81844E-13
 -1      1839 1.93311E+01 3.91156E-01-1.03023E-02-5.67335E-01-1.15378E-13-4.28315E-13
 -1      1840 1.84565E+01 3.05471E-01 1.12957E-02 7.22243E-02-8.09214E-14-5.80223E-13
 -1      1841 1.84963E+01 2.91769E-01 9.88953E-03 2.45985E-01-1.05414E-13-5.79307E-13
 -1      1842 1.91184E+01 4.44493E-01-1.19402E-02-7.61217E-02-9.28506E-14-4.52269E-13
 -1      1843 1.85555E+01 2.62189E-01 1.15464E-02 4.53804E-01-1.39725E-13-5.63520E-13
 -1      1844 1.87095E+01 2.14678E-01 5.28701E-03 5.92423E-01-1.22505E-13-5.69055E-13
 -1      1845 1.91283E+01 4.05823E-01-1.03339E-02 4.19159E-01-1.01568E-13-4.71102E-13
 -1      1846 1.88518E+01 1.60623E-01 9.22120E-03 7.32031E-01-1.23856E-13-5.71171E-13
 -1      1847 1.90850E+01 9.64682E-02 1.16238E-03 8.07018E-01-5.58217E-14-5.94265E-13
 -1      1848 1.93323E+01 2.77302E-01-5.96145E-03 8.10599E-01-1.20104E-13-4.43033E-13
 -1      1849 1.92639E+01 3.71454E-02 4.56397E-03 8.56043E-01-2.85486E-14-6.51675E-13
 -1      1850 1.95304E+01-2.20646E-02-1.53191E-03 8.61034E-01 6.52998E-15-6.76433E-13
 -1      1851 1.96550E+01 1.02457E-01-8.75187E-04 1.02046E+00-9.08414E-14-4.66622E-13
 -1      1852 1.97012E+01-6.91664E-02-8.47820E-04 8.26908E-01 2.82161E-14-7.00206E-13
 -1      1853 1.99567E+01-1.08509E-01-2.71738E-03 7.76042E-01 6.41850E-14-7.20050E-13
 -1      1854 2.00058E+01-6.21817E-02 2.94331E-03 1.03360E+00-2.80722E-15-5.48389E-13
 -1      1855 2.00900E+01-1.34852E-01-5.28453E-03 6.86444E-01 2.94946E-14-7.28312E-13
 -1      1856 2.03022E+01-1.50345E-01-2.84347E-03 6.04200E-01 5.16861E-15-7.16362E-13
 -1      1857 2.03111E+01-1.75681E-01 4.72047E-03 8.91863E-01 3.83480E-14-5.59414E-13
 -1      1858 2.03872E+01-1.56671E-01-7.77546E-03 4.91892E-01 2.60555E-14-7.09593E-13
 -1      1859 2.05401E+01-1.52820E-01-2.43724E-03 4.02245E-01 2.49141E-14-6.55107E-13
 -1      1860 2.05315E+01-2.25172E-01 4.78612E-03 6.64476E-01 4.75293E-14-5.50816E-13
 -1      1861 2.05794E+01-1.45164E-01-8.27829E-03 2.93652E-01-2.35974E-14-6.20047E-13
 -1      1862 2.06712E+01-1.29917E-01-1.85331E-03 2.13626E-01-7.47449E-15-6.00528E-13
 -1      1863 2.06586E+01-2.20886E-01 3.90372E-03 4.17801E-01 2.13894E-14-5.25272E-13
 -1      1864 2.06746E+01-1.15334E-01-7.33659E-03 1.24404E-01 1.33207E-14-6.33450E-13
 -1      1865 2.07134E+01-9.60774E-02-1.27055E-03 6.26098E-02 4.04299E-14-5.96880E-13
 -1      1866 2.07044E+01-1.83453E-01 2.73178E-03 1.98187E-01 1.34549E-15-5.17881E-13
 -1      1867 2.06920E+01-8.01025E-02-5.65380E-03-1.48460E-03 1.64643E-14-6.04114E-13
 -1      1868 2.06907E+01-6.18485E-02-7.62676E-04-4.32077E-02-2.29942E-14-6.07734E-13
 -1      1869 2.06891E+01-1.32983E-01 1.64281E-03 2.87368E-02 2.49961E-14-4.39565E-13
 -1      1870 2.06547E+01-4.77696E-02-3.81156E-03-8.31322E-02-1.11629E-13-6.14908E-13
 -1      1871 2.06268E+01-3.30379E-02-3.52166E-04-1.07066E-01-1.21241E-13-6.26562E-13
 -1      1872 2.06337E+01-8.36585E-02 7.80523E-04-8.57556E-02-6.97332E-14-4.56099E-13
 -1      1873 2.05839E+01-2.22306E-02-2.17242E-03-1.27215E-01-1.12078E-13-6.41571E-13
 -1      1874 2.05412E+01-1.17089E-02-4.12898E-05-1.37428E-01-1.22703E-13-6.45123E-13
 -1      1875 2.05560E+01-4.29874E-02 1.64380E-04-1.51519E-01-1.15171E-13-4.06723E-13
 -1      1876 2.04971E+01-4.30834E-03-8.99589E-04-1.43222E-01-7.83654E-14-6.96217E-13
 -1      1877 2.04486E+01 2.36628E-03 1.76325E-04-1.44008E-01 7.73546E-15-6.64111E-13
 -1      1878 2.04695E+01-1.33685E-02-2.38843E-04-1.79548E-01-9.29225E-14-3.79887E-13
 -1      1879 2.04068E+01 6.85560E-03-1.88531E-05-1.40499E-01 6.65183E-14-6.96341E-13
 -1      1880 2.03588E+01 1.04906E-02 3.12625E-04-1.35559E-01 1.16768E-13-6.83409E-13
 -1      1881 2.03838E+01 5.84292E-03-4.76230E-04-1.81470E-01 4.81256E-14-4.82523E-13
 -1      1882 2.03215E+01 1.27781E-02 5.19148E-04-1.26809E-01 9.90602E-14-6.23878E-13
 -1      1883 2.02777E+01 1.42535E-02 3.82927E-04-1.18958E-01 3.49089E-14-5.62679E-13
 -1      1884 2.03045E+01 1.66631E-02-5.92418E-04-1.67367E-01 1.37314E-13-4.73478E-13
 -1      1885 2.02457E+01 1.50299E-02 7.92912E-04-1.07911E-01 1.83665E-14-4.58123E-13
 -1      1886 2.02081E+01 1.51142E-02 4.03585E-04-9.90907E-02 7.15014E-14-4.16121E-13
 -1      1887 2.02348E+01 2.14166E-02-6.24716E-04-1.44980E-01 1.00444E-13-4.20451E-13
 -1      1888 2.01816E+01 1.49493E-02 8.82408E-04-8.76882E-02 6.95402E-14-3.82483E-13
 -1      1889 2.01507E+01 1.42350E-02 3.89980E-04-7.91086E-02 9.12479E-14-3.25091E-13
 -1      1890 2.01761E+01 2.21883E-02-6.02513E-04-1.19707E-01 1.13461E-13-2.30211E-13
 -1      1891 2.01295E+01 1.35528E-02 8.55678E-04-6.85028E-02 8.98817E-14-2.54076E-13
 -1      1892 2.01050E+01 1.24574E-02 3.55196E-04-6.08292E-02 1.20519E-13-2.48967E-13
 -1      1893 2.01281E+01 2.06155E-02-5.48016E-04-9.49669E-02 1.49271E-13-9.21291E-14
 -1      1894 2.00885E+01 1.15482E-02 7.64512E-04-5.16035E-02 6.26777E-14-3.24194E-13
 -1      1895 2.00698E+01 1.03428E-02 3.09453E-04-4.51257E-02-1.51220E-14-3.05375E-13
 -1      1896 2.00900E+01 1.78700E-02-4.77339E-04-7.26789E-02 5.11070E-14-1.08520E-13
 -1      1897 2.00573E+01 9.39033E-03 6.45046E-04-3.74852E-02-6.85992E-14-3.55495E-13
 -1      1898 2.00435E+01 8.23533E-03 2.60126E-04-3.22552E-02-8.41624E-14-3.24386E-13
 -1      1899 2.00608E+01 1.47247E-02-4.01627E-04-5.37160E-02-1.81777E-14-1.44683E-13
 -1      1900 2.00343E+01 7.34510E-03 5.20474E-04-2.61733E-02-1.14933E-13-2.07647E-13
 -1      1901 2.00245E+01 6.32384E-03 2.12107E-04-2.21065E-02-1.35471E-14-2.51522E-13
 -1      1902 2.00388E+01 1.16468E-02-3.28112E-04-3.82748E-02 1.21108E-14-4.50511E-14
 -1      1903 2.00179E+01 5.54796E-03 4.04275E-04-1.74302E-02 6.58225E-14-3.28877E-13
 -1      1904 2.00112E+01 4.69337E-03 1.68317E-04-1.43747E-02 1.21337E-13-2.85073E-13
 -1      1905 2.00228E+01 8.88683E-03-2.61070E-04-2.61551E-02-3.75798E-14-4.01685E-14
 -1      1906 2.00067E+01 4.04983E-03 3.03166E-04-1.08949E-02-6.15026E-14-2.98591E-13
 -1      1907 2.00024E+01 3.36435E-03 1.30216E-04-8.67619E-03-1.60462E-13-3.39928E-13
 -1      1908 2.00115E+01 6.55229E-03-2.02640E-04-1.69533E-02 3.72980E-15-5.19901E-14
 -1      1909 1.99993E+01 2.85092E-03 2.19472E-04-6.17194E-03-2.07458E-13-2.97613E-13
 -1      1910 1.99968E+01 2.32035E-03 9.82596E-05-4.61884E-03-1.05307E-13-3.62305E-13
 -1      1911 2.00039E+01 4.66237E-03-1.53497E-04-1.01897E-02-1.69763E-13-5.45202E-14
 -1      1912 1.99949E+01 1.92410E-03 1.52893E-04-2.88208E-03-3.96510E-14-3.93611E-13
 -1      1913 1.99936E+01 1.52660E-03 7.22660E-05-1.84098E-03 4.84609E-14-3.66750E-13
 -1      1914 1.99990E+01 3.18685E-03-1.13381E-04-5.38497E-03-1.12947E-13 1.01330E-14
 -1      1915 1.99925E+01 1.23003E-03 1.01719E-04-6.89262E-04 2.32855E-14-3.81460E-13
 -1      1916 1.99920E+01 9.41693E-04 5.16865E-05-2.98120E-05 8.17930E-14-2.80668E-13
 -1      1917 1.99960E+01 2.07172E-03-8.14874E-05-2.10256E-03 6.48616E-14-5.50310E-14
 -1      1918 1.99915E+01 7.26416E-04 6.36344E-05 6.89242E-04 4.95464E-14-3.64179E-13
 -1      1919 1.99916E+01 5.24411E-04 3.57978E-05 1.07307E-03 3.83146E-14-3.07880E-13
 -1      1920 1.99945E+01 1.25511E-03-5.67471E-05 3.24573E-05 4.39387E-14-4.50160E-14
 -1      1921 1.99915E+01 3.73219E-04 3.62020E-05 1.48202E-03-1.75968E-14-3.18152E-13
 -1      1922 1.99919E+01 2.37371E-04 2.38291E-05 1.67355E-03-1.33746E-14-3.87410E-13
 -1      1923 1.99939E+01 6.76644E-04-3.80108E-05 1.32840E-03-8.46781E-14-1.26868E-13
 -1      1924 1.99920E+01 1.35219E-04 1.71401E-05 1.86790E-03 2.02393E-13-4.04407E-13
 -1      1925 1.99925E+01 4.85942E-05 1.50395E-05 1.93067E-03 3.12506E-13-3.53303E-13
 -1      1926 1.99939E+01 2.82152E-04-2.41667E-05 2.03015E-03 1.02693E-13-4.62907E-14
 -1      1927 1.99928E+01-1.70680E-05 4.45429E-06 1.98270E-03 2.64486E-13-4.74264E-13
 -1      1928 1.99934E+01-6.81455E-05 8.76057E-06 1.96381E-03 1.69515E-13-4.54573E-13
 -1      1929 1.99943E+01 2.56834E-05-1.42063E-05 2.32647E-03 2.69340E-13-1.15779E-13
 -1      1930 1.99937E+01-1.07422E-04-3.51670E-06 1.92676E-03 1.89642E-13-4.10257E-13
 -1      1931 1.99944E+01-1.33659E-04 4.41465E-06 1.86007E-03 1.99808E-13-2.42642E-13
 -1      1932 1.99949E+01-1.30207E-04-7.25481E-06 2.35883E-03 2.56143E-13-1.51522E-13
 -1      1933 1.99947E+01-1.54455E-04-8.10710E-06 1.77195E-03-7.30563E-14-3.43924E-13
 -1      1934 1.99953E+01-1.64015E-04 1.51810E-06 1.68103E-03-1.17362E-13-3.40990E-13
 -1      1935 1.99956E+01-2.15074E-04-2.57963E-06 2.23027E-03 4.11464E-15-2.62357E-13
 -1      1936 1.99956E+01-1.72368E-04-1.03562E-05 1.56811E-03-3.59985E-14-2.84850E-13
 -1      1937 1.99962E+01-1.71335E-04-3.25211E-07 1.46869E-03-8.37537E-14-2.78497E-13
 -1      1938 1.99963E+01-2.51629E-04 4.15773E-07 2.01356E-03-5.06091E-14-1.94602E-13
 -1      1939 1.99965E+01-1.71761E-04-1.10519E-05 1.34828E-03-1.44739E-13-2.01109E-13
 -1      1940 1.99969E+01-1.64581E-04-1.43529E-06 1.25025E-03-6.70323E-14-1.29315E-13
 -1      1941 1.99969E+01-2.56936E-04 2.20507E-06 1.75819E-03-6.86333E-14-2.47437E-14
 -1      1942 1.99972E+01-1.60413E-04-1.07760E-05 1.13303E-03-6.69481E-14-4.84914E-14
 -1      1943 1.99976E+01-1.50291E-04-2.06790E-06 1.04200E-03 1.62687E-13-1.74884E-13
 -1      1944 1.99975E+01-2.43573E-04 3.15573E-06 1.49609E-03-2.79295E-15 2.54377E-13
 -1      1945 1.99978E+01-1.43964E-04-9.94416E-06 9.33806E-04 2.22958E-13-3.66577E-13
 -1      1946 1.99982E+01-1.33217E-04-2.42416E-06 8.52255E-04 2.07503E-13-2.51758E-13
 -1      1947 1.99980E+01-2.20699E-04 3.54720E-06 1.24625E-03 8.41336E-14 2.97638E-14
 -1      1948 1.99984E+01-1.26537E-04-8.83602E-06 7.55378E-04 2.07441E-13-2.80226E-13
 -1      1949 1.99986E+01-1.16905E-04-2.66714E-06 6.83507E-04 1.68591E-13-2.02944E-13
 -1      1950 1.99985E+01-1.94990E-04 3.58374E-06 1.01816E-03 2.11148E-13-2.35205E-13
 -1      1951 1.99988E+01-1.11303E-04-7.62788E-06 5.97624E-04 1.52075E-13-3.47145E-13
 -1      1952 1.99990E+01-1.04051E-04-2.85599E-06 5.33864E-04 2.69379E-13-3.17088E-13
 -1      1953 1.99988E+01-1.71508E-04 3.39363E-06 8.14473E-04 6.49182E-14-2.03533E-13
 -1      1954 1.99991E+01-1.00436E-04-6.35390E-06 4.56930E-04 1.97475E-13-3.69548E-13
 -1      1955 1.99993E+01-9.65462E-05-3.01597E-06 3.98669E-04 1.48937E-13-4.54655E-13
 -1      1956 1.99991E+01-1.53655E-04 3.14938E-06 6.32739E-04 2.66558E-13-3.55555E-13
 -1      1957 1.99994E+01-9.54566E-05-4.92836E-06 3.27564E-04 2.71814E-13-5.64311E-13
 -1      1958 1.99995E+01-9.45145E-05-3.01459E-06 2.71599E-04 3.41082E-13-3.85548E-13
 -1      1959 1.99994E+01-1.44540E-04 2.57707E-06 4.68020E-04 1.60738E-13-2.66316E-13
 -1      1960 1.99996E+01-9.23976E-05-3.78275E-06 2.07715E-04 4.23542E-13-3.52747E-13
 -1      1961 1.99997E+01-9.08838E-05-3.16427E-06 1.54919E-04 3.67383E-13-2.72179E-13
 -1      1962 1.99997E+01-1.23255E-04 2.06221E-06 1.84558E-04 2.11389E-13-1.25407E-13
 -1      1963 1.99996E+01-1.37130E-04 3.18803E-06 3.18168E-04 4.13599E-13-1.32566E-13
 -1      1964 2.94017E+01-8.52048E-01-1.87460E-02-6.68574E-02-2.38403E-14 9.83418E-13
 -1      1965 2.93801E+01-5.19074E-01 2.50172E-02-4.31225E-01 3.88405E-15 9.83050E-13
 -1      1966 2.81886E+01-6.11122E-01-1.74186E-02-5.99697E-01 3.29918E-14 7.54896E-13
 -1      1967 2.96929E+01-1.38490E+00-1.34373E-02 1.72733E+00-9.30389E-14 1.03859E-12
 -1      1968 2.99717E+01-1.25350E+00 1.85616E-02 7.69891E-01-9.53335E-14 9.81284E-13
 -1      1969 2.91351E+01-1.63307E+00-8.50514E-03 5.39172E-01-9.75123E-14 7.59027E-13
 -1      1970 2.92693E+01-7.31664E-01-3.08821E-02 3.77059E+00-5.25344E-14 1.11333E-12
 -1      1971 3.00420E+01-1.29460E+00-3.80833E-02 2.73638E+00-9.28120E-14 1.05030E-12
 -1      1972 3.00634E+01-1.85987E+00-6.17275E-02 2.71861E+00-1.10664E-13 8.21100E-13
 -1      1973 2.79575E+01 1.28339E+00-1.68667E-01 3.65422E+00 6.24500E-14 1.05868E-12
 -1      1974 2.90494E+01 2.68005E-01-1.24077E-01 3.74432E+00 4.56579E-15 1.10700E-12
 -1      1975 3.03302E+01-1.56854E-02-1.19842E-01 4.33397E+00-4.05370E-14 8.08451E-13
 -1      1976 2.71409E+01 2.56196E+00-2.60745E-01 1.21721E-01 3.64514E-13 8.10650E-13
 -1      1977 2.76589E+01 2.34375E+00-1.74492E-01 1.81341E+00 2.35090E-13 9.18238E-13
 -1      1978 2.99154E+01 3.05218E+00-1.26659E-01 2.57250E+00 2.71450E-13 6.60333E-13
 -1      1979 2.78183E+01 1.40905E+00-2.14802E-01-3.11190E+00 4.33098E-13 5.23416E-13
 -1      1980 2.74419E+01 2.17602E+00-1.42145E-01-1.62415E+00 3.98348E-13 6.73672E-13
 -1      1981 2.98532E+01 3.24710E+00-1.48103E-01-1.56658E+00 4.86056E-13 3.86247E-13
 -1      1982 2.90965E+01-6.27004E-01-5.74378E-02-3.67643E+00 3.56166E-13 2.08517E-13
 -1      1983 2.81564E+01 1.99868E-01-1.14596E-01-3.43577E+00 4.12212E-13 3.59632E-13
 -1      1984 2.99283E+01 7.04864E-01-1.53182E-01-3.83206E+00 5.12368E-13 9.65339E-14
 -1      1985 2.94701E+01-1.42279E+00 6.96918E-02-1.75787E+00 4.14425E-14 1.11979E-13
 -1      1986 2.87819E+01-1.25734E+00-5.76883E-02-2.55590E+00 1.66568E-13 1.70057E-13
 -1      1987 2.96618E+01-1.54747E+00-6.38057E-02-2.89948E+00 2.59712E-13-8.33292E-14
 -1      1988 2.86317E+01-1.02472E+00 6.94630E-02 3.61857E-01-3.58429E-14 1.18846E-13
 -1      1989 2.86082E+01-1.29380E+00-2.07708E-02-5.06542E-01-1.57721E-14 6.98335E-14
 -1      1990 2.84408E+01-1.98700E+00-5.45276E-02-5.08691E-01 2.17742E-14-1.34848E-13
 -1      1991 2.72550E+01-4.16366E-01 2.53292E-02 1.53546E+00 1.68476E-14 1.75991E-13
 -1      1992 2.77401E+01-6.92863E-01-8.52598E-03 1.04067E+00-2.32696E-14 2.07412E-13
 -1      1993 2.69282E+01-1.21634E+00-4.31474E-02 1.31287E+00-2.46227E-14-7.36360E-14
 -1      1994 2.58181E+01-2.19652E-02-3.89040E-03 1.85476E+00-1.33111E-13 2.66370E-13
 -1      1995 2.65331E+01-1.76022E-01-4.31641E-03 1.70554E+00-4.18329E-14 1.98026E-13
 -1      1996 2.55492E+01-3.97369E-01-2.36544E-02 2.10095E+00-5.31675E-14 2.37553E-14
 -1      1997 2.45254E+01 1.49132E-01-1.25624E-02 1.71152E+00-9.21860E-14 3.48008E-13
 -1      1998 2.52620E+01 9.35933E-02 7.54733E-05 1.75562E+00-1.37630E-13 2.97108E-13
 -1      1999 2.43856E+01 7.69376E-02-7.81260E-03 2.16997E+00-1.55818E-13 1.53046E-13
 -1      2000 2.34419E+01 1.88668E-01-1.15146E-02 1.40181E+00-6.18906E-14 3.92035E-13
 -1      2001 2.40928E+01 1.84874E-01 4.36281E-03 1.51907E+00-5.80438E-14 3.30009E-13
 -1      2002 2.34188E+01 2.58509E-01 5.10971E-04 1.89490E+00-9.55043E-14 2.08695E-13
 -1      2003 2.25724E+01 1.71517E-01-7.96613E-03 1.07880E+00 4.54237E-15 5.18139E-13
 -1      2004 2.31016E+01 1.87604E-01 6.85962E-03 1.20533E+00-6.17414E-14 4.65547E-13
 -1      2005 2.26249E+01 2.82817E-01 3.34960E-03 1.51952E+00-1.12601E-13 2.97187E-13
 -1      2006 2.18956E+01 1.37675E-01-4.85471E-03 8.02022E-01 3.19350E-14 5.87827E-13
 -1      2007 2.23052E+01 1.57968E-01 7.46934E-03 9.12081E-01 5.17902E-15 5.62350E-13
 -1      2008 2.19855E+01 2.44621E-01 3.45523E-03 1.16165E+00-1.09765E-14 3.42747E-13
 -1      2009 2.13800E+01 1.04166E-01-2.75064E-03 5.84637E-01-5.87638E-16 5.60170E-13
 -1      2010 2.16877E+01 1.22488E-01 6.84622E-03 6.71873E-01 5.41633E-14 6.12116E-13
 -1      2011 2.14812E+01 1.91670E-01 2.59398E-03 8.63669E-01 1.84601E-14 3.81423E-13
 -1      2012 2.09933E+01 7.64946E-02-1.46792E-03 4.21270E-01 4.40928E-14 6.20871E-13
 -1      2013 2.12203E+01 9.11569E-02 5.70630E-03 4.87279E-01 8.63498E-14 5.94463E-13
 -1      2014 2.10911E+01 1.43038E-01 1.64019E-03 6.31524E-01 6.57079E-14 4.28629E-13
 -1      2015 2.07067E+01 5.53505E-02-7.24309E-04 3.01287E-01-9.20353E-14 4.91433E-13
 -1      2016 2.08721E+01 6.64438E-02 4.50254E-03 3.50057E-01 2.08080E-15 5.45556E-13
 -1      2017 2.07938E+01 1.04124E-01 8.97058E-04 4.56983E-01 2.66796E-14 4.73251E-13
 -1      2018 2.04958E+01 3.96982E-02-4.03423E-04 2.14231E-01 9.44834E-14 3.59802E-13
 -1      2019 2.06157E+01 4.79501E-02 3.44377E-03 2.49798E-01-5.65244E-14 4.18128E-13
 -1      2020 2.05703E+01 7.48503E-02 3.88282E-04 3.28265E-01-9.42931E-15 3.97718E-13
 -1      2021 2.03359E+01 2.79651E-02-1.41931E-04 1.48690E-01 1.39290E-13 4.61660E-13
 -1      2022 2.04249E+01 3.40989E-02 2.57163E-03 1.75463E-01 1.29659E-13 4.12752E-13
 -1      2023 2.04007E+01 5.34462E-02 2.72736E-04 2.32555E-01 1.13584E-13 3.04989E-13
 -1      2024 2.02272E+01 2.00728E-02 3.58200E-05 1.04185E-01-1.42137E-13 4.73889E-13
 -1      2025 2.02873E+01 2.43112E-02 1.88949E-03 1.22585E-01 8.12187E-14 4.45316E-13
 -1      2026 2.02761E+01 3.75548E-02-6.49437E-05 1.63155E-01 4.77351E-14 3.38641E-13
 -1      2027 2.01493E+01 1.43483E-02 8.55489E-05 7.21922E-02-7.80242E-14 6.15557E-13
 -1      2028 2.01916E+01 1.74011E-02 1.38418E-03 8.54947E-02-1.40778E-13 4.94666E-13
 -1      2029 2.01880E+01 2.67617E-02-1.36284E-04 1.14527E-01-1.33184E-13 4.50248E-13
 -1      2030 2.00942E+01 1.02263E-02 1.06031E-04 4.92592E-02 1.54121E-13 5.62770E-13
 -1      2031 2.01237E+01 1.24362E-02 1.01315E-03 5.88528E-02 1.30834E-13 6.59542E-13
 -1      2032 2.01244E+01 1.90310E-02-1.59534E-04 7.94172E-02 1.13962E-13 4.85871E-13
 -1      2033 2.00558E+01 7.24809E-03 1.08369E-04 3.28905E-02 1.78774E-13 3.75340E-13
 -1      2034 2.00761E+01 8.84949E-03 7.38019E-04 3.97823E-02 1.48012E-13 5.32433E-13
 -1      2035 2.00792E+01 1.34799E-02-1.57378E-04 5.41569E-02 2.11701E-13 4.36702E-13
 -1      2036 2.00297E+01 5.09176E-03 1.01439E-04 2.12883E-02-1.27118E-13 3.05188E-13
 -1      2037 2.00433E+01 6.25211E-03 5.34269E-04 2.62075E-02 1.81002E-14 2.95896E-13
 -1      2038 2.00475E+01 9.48297E-03-1.42809E-04 3.60807E-02 8.33574E-14 2.62410E-13
 -1      2039 2.00123E+01 3.52987E-03 9.03084E-05 1.31505E-02-1.25923E-13 3.70564E-13
 -1      2040 2.00212E+01 4.36878E-03 3.83599E-04 1.66278E-02-1.87282E-13 3.88461E-13
 -1      2041 2.00257E+01 6.60044E-03-1.23242E-04 2.32504E-02-2.40862E-13 2.70254E-13
 -1      2042 2.00012E+01 2.40103E-03 7.77947E-05 7.52813E-03-2.60341E-14 2.67703E-13
 -1      2043 2.00067E+01 3.00449E-03 2.72422E-04 9.95222E-03-1.11755E-13 2.46007E-13
 -1      2044 2.00112E+01 4.52251E-03-1.02790E-04 1.42500E-02-6.22862E-14 6.55104E-14
 -1      2045 1.99945E+01 1.58958E-03 6.54212E-05 3.72531E-03-1.91844E-14 3.19861E-13
 -1      2046 1.99977E+01 2.02001E-03 1.90667E-04 5.38276E-03 4.15309E-14 2.55985E-13
 -1      2047 2.00018E+01 3.02953E-03-8.35831E-05 8.03896E-03 3.80051E-14 4.32583E-14
 -1      2048 1.99909E+01 1.01161E-03 5.39694E-05 1.22956E-03 1.83939E-13 3.95105E-13
 -1      2049 1.99925E+01 1.31479E-03 1.30871E-04 2.33257E-03-8.76371E-14 2.90893E-13
 -1      2050 1.99961E+01 1.96411E-03-6.65886E-05 3.84942E-03-3.52697E-14 7.10877E-14
 -1      2051 1.99893E+01 6.05537E-04 4.37951E-05-3.37370E-04 1.11758E-13 4.64694E-13
 -1      2052 1.99899E+01 8.15342E-04 8.74791E-05 3.68695E-04 1.87397E-13 5.58354E-13
 -1      2053 1.99929E+01 1.21212E-03-5.21181E-05 1.11285E-03 9.70843E-14 3.16740E-13
 -1      2054 1.99890E+01 3.25699E-04 3.50115E-05-1.25439E-03 5.44835E-14 2.91998E-13
 -1      2055 1.99889E+01 4.67361E-04 5.63348E-05-8.28455E-04 9.41517E-14 4.20334E-13
 -1      2056 1.99915E+01 6.89812E-04-4.01322E-05-5.91920E-04 1.35807E-13 3.23062E-13
 -1      2057 1.99895E+01 1.37879E-04 2.74828E-05-1.72646E-03 1.49938E-13 1.97108E-13
 -1      2058 1.99891E+01 2.30409E-04 3.43180E-05-1.49422E-03 1.48852E-14 2.11943E-13
 -1      2059 1.99912E+01 3.35121E-04-3.04522E-05-1.57608E-03 1.08820E-13 2.38725E-13
 -1      2060 1.99905E+01 1.67462E-05 2.12919E-05-1.90425E-03 8.38321E-14 2.63337E-13
 -1      2061 1.99898E+01 7.47786E-05 1.94057E-05-1.80048E-03 1.02807E-13 3.08875E-13
 -1      2062 1.99915E+01 1.00862E-04-2.30006E-05-2.06882E-03 9.39482E-14 4.10332E-13
 -1      2063 1.99918E+01-6.08644E-05 1.61803E-05-1.88812E-03-2.93870E-13 3.10814E-13
 -1      2064 1.99910E+01-2.55948E-05 8.90448E-06-1.87175E-03-6.87969E-14 2.68756E-13
 -1      2065 1.99923E+01-4.39249E-05-1.63824E-05-2.23466E-03-1.16211E-13 2.99564E-13
 -1      2066 1.99930E+01-9.88438E-05 1.21604E-05-1.75795E-03 2.64721E-14 3.62276E-14
 -1      2067 1.99923E+01-8.34326E-05 1.94368E-06-1.79440E-03-1.08441E-13 7.37267E-15
 -1      2068 1.99933E+01-1.32402E-04-1.18920E-05-2.19189E-03-1.91088E-14 4.90725E-14
 -1      2069 1.99942E+01-1.15975E-04 9.11365E-06-1.57224E-03 6.07809E-13 1.41150E-13
 -1      2070 1.99935E+01-1.11779E-04-2.31576E-06-1.63676E-03 3.18746E-13 1.03851E-13
 -1      2071 1.99943E+01-1.72916E-04-8.26097E-06-2.02898E-03 1.97275E-13-1.44821E-13
 -1      2072 1.99953E+01-1.18901E-04 6.66271E-06-1.36422E-03 2.12510E-13 1.24739E-13
 -1      2073 1.99947E+01-1.21533E-04-4.60442E-06-1.44125E-03 6.19833E-13 2.25037E-13
 -1      2074 1.99952E+01-1.86458E-04-5.64241E-06-1.80603E-03 5.09324E-13 1.04349E-13
 -1      2075 1.99963E+01-1.13078E-04 4.77251E-06-1.15599E-03-3.94461E-13 6.46518E-14
 -1      2076 1.99957E+01-1.19588E-04-5.68606E-06-1.23557E-03-1.68663E-13-2.05690E-14
 -1      2077 1.99961E+01-1.82722E-04-3.73357E-06-1.56145E-03-1.43261E-13 2.57949E-13
 -1      2078 1.99971E+01-1.02561E-04 3.31656E-06-9.60723E-04-6.55348E-13 6.63737E-14
 -1      2079 1.99966E+01-1.10888E-04-5.99225E-06-1.03680E-03-5.19578E-13-2.00967E-14
 -1      2080 1.99969E+01-1.68969E-04-2.36288E-06-1.31935E-03-5.32198E-13 1.58925E-13
 -1      2081 1.99978E+01-9.02835E-05 2.18337E-06-7.85001E-04-3.67913E-13 1.85601E-13
 -1      2082 1.99974E+01-9.89880E-05-5.83291E-06-8.54382E-04-5.94276E-13-5.85534E-15
 -1      2083 1.99976E+01-1.50461E-04-1.40056E-06-1.09365E-03-5.96269E-13-4.65990E-15
 -1      2084 1.99983E+01-7.84101E-05 1.28012E-06-6.30636E-04-8.35149E-15 3.26084E-13
 -1      2085 1.99980E+01-8.64844E-05-5.42872E-06-6.92274E-04-1.00863E-13 2.74068E-13
 -1      2086 1.99981E+01-1.31008E-04-7.37322E-07-8.90863E-04-1.92835E-13-1.40168E-13
 -1      2087 1.99988E+01-6.86111E-05 5.41076E-07-4.95925E-04 1.95222E-13 5.10354E-13
 -1      2088 1.99985E+01-7.53198E-05-4.91982E-06-5.50394E-04 4.89405E-14 4.50001E-13
 -1      2089 1.99986E+01-1.13424E-04-2.72332E-07-7.12120E-04 1.19418E-14 9.03517E-14
 -1      2090 1.99992E+01-6.23041E-05-4.46282E-08-3.76491E-04 2.75068E-13 6.19677E-13
 -1      2091 1.99990E+01-6.70794E-05-4.37658E-06-4.25707E-04 1.75930E-13 7.13386E-13
 -1      2092 1.99990E+01-9.99253E-05 8.29395E-08-5.54662E-04 3.97781E-14 4.83435E-13
 -1      2093 1.99994E+01-6.02367E-05-3.87127E-07-2.66112E-04-3.30601E-13 7.06376E-13
 -1      2094 1.99993E+01-6.29138E-05-3.76980E-06-3.13015E-04 2.21676E-13 6.08164E-13
 -1      2095 1.99993E+01-9.21036E-05 4.25363E-07-4.12919E-04 1.65266E-13 4.99958E-13
 -1      2096 1.99996E+01-6.18200E-05-1.28266E-06-1.59858E-04 3.19983E-13 3.91953E-13
 -1      2097 1.99995E+01-6.20753E-05-2.83182E-06-2.06583E-04-7.60299E-14 5.69509E-13
 -1      2098 1.99995E+01-8.96779E-05 8.66260E-07-2.80725E-04-2.04722E-14 2.82534E-13
 -1      2099 1.99997E+01-6.14056E-05-2.21269E-06-8.22812E-05 1.61517E-14 9.43333E-14
 -1      2100 1.99997E+01-6.52282E-05-2.01047E-06-1.26371E-04 1.68437E-13 2.19379E-13
 -1      2101 1.99996E+01-9.21540E-05 9.84927E-07-1.78816E-04 2.27153E-13 2.66415E-14
 -1      2102 1.99997E+01-8.94606E-05 1.47013E-07-1.04573E-04 4.52177E-14 7.73380E-14
 -1      2103 1.99998E+01-5.65720E-04 1.31853E-06-3.11599E-04 1.89095E-13-1.78905E-13
 -1      2104 1.99998E+01-4.65942E-04-1.89450E-06-3.01727E-04 1.06729E-13-2.76279E-14
 -1      2105 1.99998E+01-3.72738E-04 3.57504E-07-2.77712E-04 1.13286E-13-1.82964E-13
 -1      2106 1.99997E+01-2.84220E-04-2.52505E-06-2.45812E-04 2.78264E-13-1.04522E-13
 -1      2107 1.99997E+01-4.29775E-04 2.79260E-07-3.72754E-04 2.15996E-13-8.93858E-14
 -1      2108 1.99997E+01-2.14834E-04-2.32087E-07-2.01207E-04 2.20223E-13-1.61942E-13
 -1      2109 1.99997E+01-1.47054E-04-2.16202E-06-1.55327E-04 1.50228E-13-9.43490E-14
 -1      2110 1.99997E+01-1.51340E-04-1.47466E-06-1.94765E-04 1.78810E-13-1.74998E-14
 -1      2111 1.99997E+01-2.71964E-04 7.73228E-08-2.96541E-04 3.63390E-13-1.00081E-13
 -1      2112 1.99998E+01-7.52116E-04 2.35008E-06-2.97026E-04-1.19687E-13-6.55902E-13
 -1      2113 1.99998E+01-6.56089E-04-4.92328E-07-3.08513E-04 1.39127E-13-5.24775E-13
 -1      2114 1.99998E+01-6.12066E-04-8.15423E-07-3.94971E-04 9.20711E-14-4.68765E-13
 -1      2115 1.99999E+01-9.14185E-04 3.22687E-06-2.38110E-04 6.96885E-14-4.65268E-14
 -1      2116 1.99998E+01-8.32582E-04 1.00699E-06-2.68323E-04-1.37520E-14-9.54046E-14
 -1      2117 1.99999E+01-7.82721E-04-1.92887E-06-3.58378E-04 7.79838E-14-2.83171E-13
 -1      2118 1.99999E+01-1.02741E-03 3.72008E-06-1.45229E-04-2.05707E-14 1.31915E-13
 -1      2119 1.99999E+01-9.73545E-04 2.34958E-06-1.88829E-04-1.55662E-14 1.50444E-13
 -1      2120 1.99999E+01-9.22628E-04-2.85306E-06-2.70025E-04 1.67659E-13-4.35061E-14
 -1      2121 1.99999E+01-1.07733E-03 3.74697E-06-3.23748E-05 2.08040E-14 3.38469E-13
 -1      2122 1.99999E+01-1.05873E-03 3.29922E-06-8.28981E-05 1.89727E-15 3.49334E-13
 -1      2123 1.99999E+01-1.01349E-03-3.44658E-06-1.44115E-04 5.48814E-14 3.20857E-13
 -1      2124 1.99999E+01-1.05772E-03 3.27933E-06 8.47827E-05-1.47046E-13-3.24519E-13
 -1      2125 1.99999E+01-1.07696E-03 3.75705E-06 3.43432E-05-7.26578E-14 2.13425E-13
 -1      2126 1.99999E+01-1.04451E-03-3.64865E-06 1.28939E-06-1.17931E-13 1.63619E-13
 -1      2127 1.99999E+01-9.71303E-04 2.36046E-06 1.90264E-04-3.56986E-13-6.56793E-13
 -1      2128 1.99999E+01-1.02577E-03 3.68511E-06 1.46912E-04-1.68799E-13-5.78912E-13
 -1      2129 1.99999E+01-1.01209E-03-3.42553E-06 1.46450E-04-3.39139E-13-3.28236E-13
 -1      2130 1.99998E+01-8.32364E-04 1.00900E-06 2.68112E-04-1.41431E-13-7.58498E-13
 -1      2131 1.99999E+01-9.12746E-04 3.19162E-06 2.38545E-04-9.11861E-14-7.13202E-13
 -1      2132 1.99999E+01-9.21195E-04-2.87523E-06 2.70906E-04-2.36849E-13-5.97759E-13
 -1      2133 1.99998E+01-6.54196E-04-5.17693E-07 3.08381E-04 1.73442E-13 6.33676E-13
 -1      2134 1.99998E+01-7.51911E-04 2.35279E-06 2.96871E-04 1.96654E-13-1.96314E-13
 -1      2135 1.99999E+01-7.82176E-04-1.93404E-06 3.58241E-04 2.87580E-13-2.54607E-13
 -1      2136 1.99998E+01-4.62680E-04-1.90596E-06 3.01208E-04 1.00810E-13 6.69611E-13
 -1      2137 1.99998E+01-5.62440E-04 1.32462E-06 3.11270E-04 4.48955E-14 8.79349E-13
 -1      2138 1.99998E+01-6.09908E-04-5.94307E-07 3.94601E-04 3.17733E-13 5.59168E-13
 -1      2139 1.99997E+01-2.76204E-04-7.93219E-07 2.44768E-04 8.84691E-14 2.24650E-13
 -1      2140 1.99998E+01-3.69127E-04 3.72107E-07 2.76803E-04 2.73162E-14 3.52598E-13
 -1      2141 1.99997E+01-4.26762E-04 1.45750E-07 3.71881E-04 7.08734E-14 5.15178E-13
 -1      2142 9.89973E+00-5.98253E+00-3.11996E-01 5.78371E+00 8.56204E-13 2.65322E-13
 -1      2143 6.22735E+00-7.00874E+00-4.53345E-01 4.60983E+00 7.40075E-13 3.97349E-13
 -1      2144 2.72564E-02-7.15678E+00-4.13650E-01-2.52332E-01 6.14037E-13 8.89344E-13
 -1      2145 1.98955E-01-7.25424E+00-4.37388E-01-1.72636E+00 4.42840E-13 7.76601E-13
 -1      2146 3.45035E+00-5.93194E+00-2.26240E-01 3.55521E+00 6.00520E-13 6.85285E-13
 -1      2147 1.49576E+00-6.60983E+00-3.54224E-01 1.76732E+00 4.35457E-13 8.40217E-13
 -1      2148 2.13997E+01-4.98776E+00-1.77586E-01 6.11620E+00 6.42930E-13-4.18832E-13
 -1      2149 1.48384E+01-6.07368E+00-4.22385E-01 5.63178E+00 8.34777E-13-2.38976E-14
 -1      2150 1.54969E+01-6.01046E+00-7.48970E-02 6.37301E+00 3.53439E-13-2.25157E-13
 -1      2151 3.28077E+01-1.12735E+00 2.57195E-01 4.32691E+00 6.83009E-13-2.17493E-13
 -1      2152 2.73724E+01-3.70870E+00-9.73271E-02 4.16354E+00 6.77181E-13-3.34066E-13
 -1      2153 2.14478E+01 3.49794E+00-2.50082E-02-1.91880E+00 3.53233E-14-6.63226E-13
 -1      2154 2.14553E+01 3.53199E+00-4.49887E-02-2.32451E+00-2.70775E-14-6.83831E-13
 -1      2155 2.18182E+01 2.76974E+00-2.24236E-02-2.49264E+00-7.79312E-14-6.32848E-13
 -1      2156 2.18195E+01 2.75685E+00-4.86581E-03-1.79792E+00 5.15937E-14-6.02674E-13
 -1      2157 4.26919E+01 5.62040E+00 3.17983E-01 2.19971E-01 6.36824E-13-4.67515E-13
 -1      2158 4.16953E+01 4.45999E+00 4.60040E-01 1.48078E+00 6.60832E-13-3.78031E-13
 -1      2159 4.41647E+01 6.93992E+00 5.71408E-01 2.96728E-01 6.13953E-13-6.20171E-13
 -1      2160 4.27270E+01 7.01440E+00 3.75482E-01 4.14736E-01 6.43041E-13-4.21496E-13
 -1      2161 4.12943E+01 4.87113E+00 2.69771E-01 6.36722E-02 4.51805E-13-6.30607E-13
 -1      2162 4.38924E+01 6.01295E+00 4.89132E-01 3.81723E-01 5.39291E-13-6.17062E-13
 -1      2163 3.59466E+01 5.18583E-01 2.20153E-02-1.76311E+00 4.30406E-13-8.00249E-13
 -1      2164 3.98065E+01 2.28856E+00 2.44501E-01-6.95809E-01 3.70926E-13-6.93556E-13
 -1      2165 2.82673E+01-2.56691E+00-2.19585E-01-3.82739E+00 4.86999E-13-8.40550E-13
 -1      2166 3.39507E+01-8.84135E-01 1.67421E-01-3.55233E+00 4.87166E-13-8.75966E-13
 -1      2167 3.51605E+01-1.28590E+00 2.51967E-01 2.13985E-01 1.84172E-13-3.04867E-13
 -1      2168 1.80478E+01-5.09531E+00-3.82751E-01-5.09073E+00 4.18554E-13-8.18262E-13
 -1      2169 2.36857E+01-3.49547E+00-6.02506E-02-5.64606E+00 5.39346E-13-9.28257E-13
 -1      2170 9.38662E+00-5.21295E+00-2.43503E-01-4.81228E+00 2.92155E-13-7.52370E-13
 -1      2171 1.37281E+01-4.80512E+00-1.50266E-01-5.75117E+00 4.00235E-13-8.39266E-13
 -1      2172 1.71263E+00-5.50582E+00-4.85522E-01-1.57075E+00 2.31704E-13-7.57672E-13
 -1      2173 4.40918E+00-4.55990E+00-2.85686E-01-3.45741E+00 3.16469E-13-7.91200E-13
 -1      2174 2.11898E-01-4.54741E+00-3.16689E-01 1.48329E+00 7.13873E-14-6.92502E-13
 -1      2175 4.82102E-01-5.04637E+00-3.63081E-01-8.54111E-02 2.51521E-13-7.25420E-13
 -1      2176 2.71227E+00-3.70029E+00-2.33496E-01 4.75348E+00-1.15630E-13-6.15952E-13
 -1      2177 1.04486E+00-4.61130E+00-3.39139E-01 3.26878E+00 7.52454E-14-6.38267E-13
 -1      2178 9.35691E+00-2.50701E+00-1.13063E-01 7.05507E+00-3.46168E-13-5.04922E-13
 -1      2179 6.09412E+00-3.78091E+00-2.68089E-01 5.97788E+00-1.23845E-13-5.16420E-13
 -1      2180 1.74515E+01-1.16180E+00-2.39029E-02 7.80915E+00-4.55358E-13-4.04898E-13
 -1      2181 1.26887E+01-2.70176E+00-2.90014E-01 6.95271E+00-4.07674E-13-4.56996E-13
 -1      2182 1.33787E+01-2.77972E+00-1.97001E-02 7.63230E+00 5.88973E-14-3.32581E-13
 -1      2183 2.68579E+01 1.04564E+00 1.13866E-01 6.88823E+00-6.17173E-13-2.79110E-13
 -1      2184 2.19822E+01-5.42045E-01-1.65301E-01 6.66153E+00-5.68434E-13-3.31957E-13
 -1      2185 3.41493E+01 3.42230E+00 1.91843E-01 4.59401E+00-6.70099E-13-9.23150E-14
 -1      2186 2.98573E+01 2.11470E+00-3.53777E-02 5.30930E+00-6.64607E-13-2.21267E-13
 -1      2187 3.99725E+01 6.16126E+00 3.43547E-01 2.38814E+00-7.04409E-13 7.92699E-14
 -1      2188 3.62739E+01 5.26771E+00 7.90666E-02 3.27727E+00-7.37910E-13-7.78266E-14
 -1      2189 4.09200E+01 7.44506E+00 2.56796E-01-1.05182E-01-5.96190E-13 2.10360E-13
 -1      2190 3.99942E+01 7.19193E+00 2.21529E-01 1.27237E+00-6.61027E-13 9.33420E-14
 -1      2191 3.93109E+01 7.37048E+00 2.21280E-01-1.66021E+00-5.15588E-13 2.24459E-13
 -1      2192 4.12865E+01 7.61411E+00 3.85207E-01-6.09449E-01-5.20695E-13 2.13024E-13
 -1      2193 3.62205E+01 8.77441E+00 2.74736E-01-2.15039E-01-6.10068E-13 2.76584E-14
 -1      2194 3.64957E+01 4.78528E+00 2.40241E-01-4.14382E+00-4.96436E-13 4.64961E-13
 -1      2195 3.88117E+01 5.83536E+00 2.84787E-01-2.67124E+00-4.78784E-13 3.20133E-13
 -1      2196 3.00427E+01 1.55621E+00 2.38830E-03-5.35767E+00-4.06647E-13 5.09259E-13
 -1      2197 3.46826E+01 3.30955E+00 3.46827E-01-5.36520E+00-4.96103E-13 5.61995E-13
 -1      2198 2.19106E+01-2.16200E+00-1.58960E-01-6.68778E+00-8.64864E-14 6.44429E-13
 -1      2199 2.67850E+01-5.01191E-01 1.20070E-01-6.69645E+00-1.97620E-13 5.74929E-13
 -1      2200 1.45198E+01-4.58988E+00-2.30282E-01-6.99283E+00 1.07914E-13 6.27387E-13
 -1      2201 1.87348E+01-2.71602E+00 2.32651E-02-7.66903E+00-5.90639E-14 6.39544E-13
 -1      2202 2.27248E+01-4.02184E+00 4.72999E-02-6.51502E+00 2.67730E-13 4.42313E-13
 -1      2203 6.09377E+00-6.39721E+00-4.19056E-01-5.63218E+00 2.85549E-13 7.70162E-13
 -1      2204 9.70311E+00-4.66060E+00-1.41662E-01-7.04248E+00 8.70415E-14 7.82117E-13
 -1      2205 1.56824E+00-7.12856E+00-4.43771E-01-3.37651E+00 4.37539E-13 7.22478E-13
 -1      2206 3.43899E+00-6.07709E+00-2.83174E-01-4.75239E+00 2.63511E-13 8.12628E-13
 -1      2207 3.95324E+01 2.19007E+00 3.70046E-01 2.39156E+00 6.70235E-13-3.52385E-13
 -1      2208 3.48271E+01 3.08406E-01-1.84735E-02 2.88376E+00 7.41379E-13-1.96176E-13
 -1      2209 3.38986E+01-2.04353E+00 1.10046E-01 7.37226E-01 6.55503E-13-3.12084E-13
 -1      2210 2.59639E+01-4.86438E+00-6.96019E-03 4.46529E+00 6.03739E-13-4.75009E-13
 -1      2211 2.47278E+01-5.65225E+00 1.40814E-01 4.68756E+00 3.97127E-13-6.38309E-13
 -1      2212 2.92778E+01-5.13298E+00-2.29540E-01 2.29914E+00 4.19276E-13-4.68126E-13
 -1      2213 2.17713E+01 1.04786E+00-2.79071E-02-2.22204E+00-2.90393E-13-4.31179E-13
 -1      2214 3.80657E+01 2.56596E+00 3.66996E-01-9.90923E-01 7.70911E-13-2.95208E-13
 -1      2215 2.18003E+01 1.21204E+00-1.48373E-02-2.45314E+00-2.88273E-13-4.63171E-13
 -1      2216 6.81110E+00-5.09764E+00-1.63401E-01 4.92201E+00 1.82521E-13 3.46223E-13
 -1      2217 2.14281E+00-4.25761E+00-1.58662E-01 1.23289E+00 1.43871E-13 8.68805E-13
 -1      2218 1.99997E+01-2.26559E-04-1.39236E-06 2.32449E-04 7.18671E-14 4.18365E-14
 -1      2219 2.11560E+00-4.70390E+00-2.14530E-01-3.18375E+00 2.71588E-13 8.46767E-13
 -1      2220 1.44195E+01-4.99159E+00-4.52232E-02-7.61776E+00 3.54605E-13 6.26471E-13
 -1      2221 2.92844E+01-1.00911E+00 1.16422E-01-4.31055E+00-4.36318E-14 2.91545E-13
 -1      2222 3.70872E+01 6.70688E+00 1.90413E-01-1.03712E+00-4.13392E-13 1.28564E-13
 -1      2223 3.36606E+01 7.42814E+00-1.46948E-01 4.10039E-01-3.98459E-13-2.52021E-14
 -1      2224 3.39043E+01 6.00939E+00 6.30203E-02-5.13101E-02-3.47056E-13-7.75768E-14
 -1      2225 3.62658E+01 7.53606E+00 3.09979E-01 1.08009E-01-7.34246E-13 8.07410E-14
 -1      2226 3.41447E+01 3.91973E+00 2.12386E-01 1.61625E+00-6.68077E-13 3.22520E-14
 -1      2227 2.15749E+01-2.12373E+00 3.78760E-02 6.67897E+00-2.10609E-13-1.50630E-13
 -1      2228 6.10245E+00-2.47321E+00-8.08940E-02 6.31622E+00 1.94289E-13-5.63272E-13
 -1      2229 1.69230E+00-2.34817E+00-1.48843E-01 2.70958E+00 2.55157E-13-7.32858E-13
 -1      2230 2.54428E+00-2.66714E+00-1.39011E-01-1.32148E+00 2.45345E-13-8.23064E-13
 -1      2231 8.39725E+00-4.05161E+00-1.20229E-01-4.50334E+00 2.44083E-13-7.39991E-13
 -1      2232 1.24967E+01-3.57606E+00-6.76953E-02-5.32942E+00 7.03881E-14-6.31661E-13
 -1      2233 7.87276E+00-2.31435E+00 8.68255E-02-4.24770E+00 1.65146E-13-6.98108E-13
 -1      2234 2.84842E+01-4.45004E+00 1.34808E-02-3.10945E+00 1.83409E-13-5.38125E-13
 -1      2235 3.81655E+01 3.24302E+00 3.25289E-01 2.30256E+00 2.78666E-13-2.20102E-13
 -1      2236 3.95037E+01 6.31776E+00 3.33966E-01-6.49156E-01 7.17426E-13-2.37588E-13
 -1      2237 3.91660E+01 7.02963E+00 4.68532E-01 1.37682E+00 5.30131E-13-1.60177E-13
 -1      2238 1.86854E+01-5.45290E+00-1.38669E-01-5.32872E+00 1.28952E-13-6.79984E-13
 -1      2239 2.91643E+01 2.57938E-01 1.32003E-01 4.10964E+00-4.61131E-13 7.54952E-15
 -1      2240 3.42206E+01 3.34501E+00 2.46117E-01-2.20437E+00-3.31637E-13 1.65590E-13
 -1      2241 6.57966E+00-4.88788E+00-1.34921E-01-6.30956E+00 3.40894E-13 8.59146E-13
 -1      2242 2.66366E+01-1.05717E+00-6.19062E-03-9.95041E-01 1.20390E-14 4.84407E-13
 -1      2243 2.62869E+01-2.10485E-01 6.21719E-02-1.13408E+00 6.12375E-14 5.04669E-13
 -1      2244 2.14139E+01 1.61061E+00 1.23232E-03 3.71501E-01 2.92676E-13-3.51726E-13
 -1      2245 2.18031E+01 1.65280E+00-2.71549E-02-2.09652E-01 2.34669E-13-4.11846E-13
 -1      2246 2.20327E+01 1.84537E+00-5.58811E-03-8.03081E-01 1.86032E-13-4.57049E-13
 -1      2247 2.21205E+01 1.93612E+00-3.40039E-02-1.27457E+00 1.21983E-13-5.10779E-13
 -1      2248 2.24009E+01 1.18870E+00-4.94647E-04-6.30368E-01 1.92530E-13-3.84317E-13
 -1      2249 1.74253E+01 2.12002E+00-1.55977E-02 3.09953E+00 5.27093E-13-2.61227E-13
 -1      2250 1.88263E+01 1.83050E+00 2.57072E-02 2.57843E+00 4.79462E-13-2.75332E-13
 -1      2251 1.42220E+01 3.18256E+00-2.87782E-02 3.71704E+00 6.01537E-13-3.00721E-13
 -1      2252 1.58665E+01 2.76356E+00 6.32070E-02 3.57980E+00 5.77208E-13-2.86172E-13
 -1      2253 1.69187E+01 1.65072E+00-1.82717E-02 3.80041E+00 5.51718E-13-2.40058E-13
 -1      2254 1.16210E+01 4.37568E+00-1.55076E-02 3.10606E+00 6.03825E-13-3.72008E-13
 -1      2255 1.27529E+01 4.02355E+00 7.57598E-02 3.48905E+00 6.11206E-13-3.58850E-13
 -1      2256 1.33870E+01 3.00038E+00 3.17434E-02 4.18672E+00 6.26707E-13-3.29882E-13
 -1      2257 1.12236E+01 4.93653E+00 2.67450E-02 1.44337E+00 5.40197E-13-3.59060E-13
 -1      2258 1.10576E+01 4.84998E+00 4.05576E-02 2.14288E+00 5.72210E-13-3.85827E-13
 -1      2259 1.08414E+01 4.24912E+00 8.17551E-02 2.94122E+00 5.99822E-13-4.06782E-13
 -1      2260 1.38146E+01 4.38044E+00 6.46276E-02-2.04453E-01 4.33010E-13-2.42964E-13
 -1      2261 1.21619E+01 4.62928E+00-9.59058E-03 3.36014E-01 4.71450E-13-3.22811E-13
 -1      2262 1.11264E+01 4.41803E+00 8.83624E-02 7.16748E-01 4.96809E-13-3.90930E-13
 -1      2263 1.84848E+01 3.01817E+00 3.93260E-02-8.63900E-01 3.36543E-13-9.79598E-15
 -1      2264 1.59680E+01 3.51826E+00-3.87805E-02-7.54246E-01 3.61548E-13-1.34743E-13
 -1      2265 1.46145E+01 3.30066E+00 4.54980E-02-1.04751E+00 3.59573E-13-2.33660E-13
 -1      2266 2.83302E+01-2.70181E+00-1.83377E-02 1.32670E-01-1.26087E-13 4.87977E-13
 -1      2267 2.77645E+01-1.95200E+00 9.18904E-02-7.05151E-01-8.08659E-14 4.81906E-13
 -1      2268 2.52889E+01-1.93447E+00-4.60803E-02-1.60173E+00-3.13118E-14 2.51757E-13
 -1      2269 2.15727E+01 6.24811E-01 6.34193E-03-2.00766E+00-2.20164E-13-4.22160E-13
 -1      2270 2.12065E+01 4.60055E-01-4.23207E-03-1.76700E+00-1.90363E-13-3.98829E-13
 -1      2271 3.54421E+01 2.60755E+00-1.40465E-01-2.38193E+00 7.37077E-13-1.83520E-13
 -1      2272 3.43881E+01 4.72466E-01-7.60539E-02-2.21694E+00 6.87894E-13-2.47469E-13
 -1      2273 2.10130E+01 3.93086E-01 1.05278E-02-1.61822E+00-1.77423E-13-3.69415E-13
 -1      2274 2.06985E+01 3.94503E-01 7.15687E-03-1.45047E+00-1.63188E-13-3.70684E-13
 -1      2275 2.15380E+01 5.91751E-01 2.51648E-03-1.93304E+00-1.84211E-13-3.98449E-13
 -1      2276 2.04647E+01 4.46916E-01 5.50839E-03-1.27416E+00-1.67529E-13-3.42846E-13
 -1      2277 2.02249E+01 5.27369E-01 1.24606E-02-1.08160E+00-1.39667E-13-3.55196E-13
 -1      2278 2.10934E+01 5.79151E-01-5.52693E-04-1.58779E+00-1.54373E-13-3.53373E-13
 -1      2279 2.00164E+01 6.12057E-01 4.35657E-03-8.30554E-01-1.22993E-13-3.59817E-13
 -1      2280 1.98664E+01 6.87689E-01 1.27949E-02-5.84020E-01-1.11694E-13-3.68647E-13
 -1      2281 2.06582E+01 7.59967E-01-5.51497E-03-1.13418E+00-1.44695E-13-3.20561E-13
 -1      2282 1.97401E+01 7.33780E-01 7.36629E-03-2.66854E-01-9.57576E-14-3.93236E-13
 -1      2283 1.96888E+01 7.42251E-01 8.46640E-03 8.59799E-03-8.83122E-14-4.01956E-13
 -1      2284 2.03329E+01 9.33381E-01-9.73526E-03-5.25497E-01-1.24629E-13-3.40358E-13
 -1      2285 1.96763E+01 7.08524E-01 1.14383E-02 3.31432E-01-1.14434E-13-4.17487E-13
 -1      2286 1.97188E+01 6.28526E-01 1.90775E-03 5.78607E-01-1.11410E-13-4.21512E-13
 -1      2287 2.01965E+01 9.47021E-01-1.05414E-02 1.63429E-01-1.09828E-13-3.44464E-13
 -1      2288 1.98058E+01 5.18433E-01 1.28231E-02 8.28132E-01-1.17410E-13-4.51820E-13
 -1      2289 1.99196E+01 3.75989E-01-3.56408E-03 9.91734E-01-9.45088E-14-4.43767E-13
 -1      2290 2.02636E+01 7.49820E-01-6.58015E-03 7.77790E-01-1.26952E-13-4.19209E-13
 -1      2291 2.00529E+01 2.30220E-01 1.00098E-02 1.11503E+00-1.09914E-13-4.40915E-13
 -1      2292 2.02031E+01 7.70685E-02-5.92312E-03 1.16999E+00-9.98422E-14-4.61680E-13
 -1      2293 2.04680E+01 4.00401E-01-7.00231E-04 1.17205E+00-1.11319E-13-4.50360E-13
 -1      2294 2.03241E+01-5.52548E-02 4.35824E-03 1.16275E+00-4.05724E-14-4.30149E-13
 -1      2295 2.04752E+01-1.73347E-01-5.29523E-03 1.12021E+00 2.99463E-14-4.33827E-13
 -1      2296 2.07026E+01 2.10553E-02 3.76804E-03 1.28708E+00-6.70638E-14-3.53959E-13
 -1      2297 2.05472E+01-2.60168E-01-1.48006E-03 1.01773E+00 2.92351E-14-4.24994E-13
 -1      2298 2.06731E+01-3.22468E-01-3.11261E-03 9.11934E-01 3.68414E-14-4.52800E-13
 -1      2299 2.08784E+01-2.77139E-01 5.21650E-03 1.16178E+00 9.86928E-15-3.45965E-13
 -1      2300 2.06888E+01-3.56988E-01-5.54918E-03 7.63820E-01 6.40692E-14-4.24816E-13
 -1      2301 2.07764E+01-3.67337E-01-8.50166E-04 6.33365E-01 7.24739E-14-4.03817E-13
 -1      2302 2.09563E+01-4.40569E-01 4.30764E-03 8.91259E-01 6.10859E-14-3.60170E-13
 -1      2303 2.07480E+01-3.60624E-01-7.28897E-03 4.82035E-01 4.02024E-14-4.06868E-13
 -1      2304 2.07959E+01-3.35918E-01 7.41487E-04 3.57078E-01 2.97345E-14-4.13217E-13
 -1      2305 2.09424E+01-4.75245E-01 2.49805E-03 5.74280E-01 6.15653E-14-3.91269E-13
 -1      2306 2.07416E+01-3.05347E-01-7.13906E-03 2.28718E-01 1.75424E-15-3.68064E-13
 -1      2307 2.07555E+01-2.64217E-01 1.53810E-03 1.26655E-01 2.26118E-14-3.40031E-13
 -1      2308 2.08651E+01-4.20771E-01 8.65505E-04 2.81972E-01 5.35016E-14-3.03667E-13
 -1      2309 2.06910E+01-2.25264E-01-5.89537E-03 3.19693E-02 3.99409E-15-3.13289E-13
 -1      2310 2.06794E+01-1.81842E-01 1.72308E-03-4.10518E-02 5.89329E-15-3.41798E-13
 -1      2311 2.07551E+01-3.22694E-01-2.04771E-04 5.11421E-02 1.89055E-14-2.08497E-13
 -1      2312 2.06153E+01-1.44760E-01-4.25811E-03-1.01949E-01-4.48524E-14-3.90798E-13
 -1      2313 2.05871E+01-1.07188E-01 1.55875E-03-1.47239E-01-5.69569E-14-3.40492E-13
 -1      2314 2.06359E+01-2.16469E-01-7.54031E-04-1.08459E-01-5.39032E-14-2.25134E-13
 -1      2315 2.05289E+01-7.70806E-02-2.67693E-03-1.79753E-01-4.47869E-14-3.47845E-13
 -1      2316 2.04916E+01-4.85906E-02 1.25581E-03-2.02388E-01-1.07024E-13-3.08895E-13
 -1      2317 2.05217E+01-1.23086E-01-9.51575E-04-2.03261E-01-7.25006E-14-2.37177E-13
 -1      2318 2.04416E+01-2.68833E-02-1.37504E-03-2.13779E-01-1.45606E-13-2.62993E-13
 -1      2319 2.04010E+01-7.59380E-03 9.39945E-04-2.19947E-01-6.54053E-14-2.50367E-13
 -1      2320 2.04195E+01-5.13402E-02-9.58028E-04-2.46845E-01-8.30956E-14-2.03646E-13
 -1      2321 2.03594E+01 6.38356E-03-4.19771E-04-2.17218E-01 1.11998E-14-2.66047E-13
 -1      2322 2.03196E+01 1.79039E-02 6.69612E-04-2.12677E-01 5.80369E-14-3.14450E-13
 -1      2323 2.03318E+01-2.10117E-03-8.80872E-04-2.54146E-01-4.21769E-14-5.49819E-14
 -1      2324 2.02857E+01 2.57165E-02 2.09916E-04-2.01609E-01 9.22302E-14-3.73170E-13
 -1      2325 2.02491E+01 3.13993E-02 4.61785E-04-1.91008E-01 9.42337E-14-3.86447E-13
 -1      2326 2.02585E+01 2.78283E-02-7.77563E-04-2.38417E-01 2.55540E-14-1.26021E-13
 -1      2327 2.02220E+01 3.47766E-02 5.74273E-04-1.75901E-01 1.32560E-13-3.95536E-13
 -1      2328 2.01900E+01 3.64739E-02 3.12600E-04-1.62628E-01 1.83777E-13-3.62132E-13
 -1      2329 2.01985E+01 4.30637E-02-6.73495E-04-2.10068E-01 1.15649E-13-2.75868E-13
 -1      2330 2.01685E+01 3.69437E-02 7.42939E-04-1.46411E-01 1.96317E-13-2.85521E-13
 -1      2331 2.01416E+01 3.61757E-02 2.10424E-04-1.32716E-01 1.70907E-13-1.84202E-13
 -1      2332 2.01500E+01 4.81416E-02-5.77466E-04-1.76552E-01 2.28640E-13-2.60746E-13
 -1      2333 2.01248E+01 3.49320E-02 7.79503E-04-1.17208E-01 1.79518E-13-1.44918E-13
 -1      2334 2.01029E+01 3.28272E-02 1.42644E-04-1.04441E-01 2.25246E-13-9.91243E-14
 -1      2335 2.01115E+01 4.68431E-02-4.91187E-04-1.42762E-01 2.39842E-13-2.17726E-13
 -1      2336 2.00900E+01 3.07240E-02 7.35207E-04-9.06343E-02 1.01315E-13-1.03543E-13
 -1      2337 2.00727E+01 2.80551E-02 9.85186E-05-7.94884E-02 1.57811E-14-1.40669E-13
 -1      2338 2.00813E+01 4.20094E-02-4.14108E-04-1.11592E-01 1.41467E-13-1.78473E-13
 -1      2339 2.00629E+01 2.56576E-02 6.47867E-04-6.78058E-02-1.82645E-14-6.23139E-14
 -1      2340 2.00496E+01 2.29124E-02 6.99392E-05-5.85332E-02-7.59484E-17-5.22992E-14
 -1      2341 2.00579E+01 3.56079E-02-3.45394E-04-8.44984E-02 2.14322E-14-4.98964E-14
 -1      2342 2.00422E+01 2.05642E-02 5.43356E-04-4.90354E-02 6.04560E-14-5.22744E-14
 -1      2343 2.00323E+01 1.80215E-02 5.12377E-05-4.16154E-02 9.31934E-14 5.70632E-14
 -1      2344 2.00400E+01 2.88967E-02-2.84465E-04-6.19732E-02 5.74165E-14-3.35835E-15
 -1      2345 2.00268E+01 1.59090E-02 4.38038E-04-3.41515E-02-3.58009E-14-1.71916E-14
 -1      2346 2.00197E+01 1.37045E-02 3.86733E-05-2.84116E-02 4.63812E-15 4.25818E-14
 -1      2347 2.00267E+01 2.26079E-02-2.30977E-04-4.39150E-02-2.42314E-14-2.34578E-14
 -1      2348 2.00157E+01 1.19089E-02 3.41265E-04-2.27246E-02-1.62482E-14 6.14840E-14
 -1      2349 2.00107E+01 1.00867E-02 2.98885E-05-1.84233E-02-1.53224E-13-4.61214E-15
 -1      2350 2.00169E+01 1.71092E-02-1.84667E-04-2.98922E-02-3.62131E-14-2.39240E-15
 -1      2351 2.00079E+01 8.62436E-03 2.57560E-04-1.42191E-02-2.34182E-13-4.41267E-14
 -1      2352 2.00045E+01 7.17434E-03 2.34544E-05-1.10975E-02-1.74580E-13 9.51931E-15
 -1      2353 2.00099E+01 1.25323E-02-1.45217E-04-1.93241E-02-2.08503E-13 5.74200E-14
 -1      2354 2.00027E+01 6.02451E-03 1.88318E-04-8.08635E-03-1.75733E-13-6.53033E-15
 -1      2355 2.00005E+01 4.90798E-03 1.85320E-05-5.89860E-03-5.99293E-14 5.27502E-14
 -1      2356 2.00050E+01 8.86766E-03-1.12198E-04-1.15957E-02-1.32796E-13 8.63940E-14
 -1      2357 1.99993E+01 4.03168E-03 1.33071E-04-3.81773E-03-1.11078E-14-1.13268E-13
 -1      2358 1.99980E+01 3.19796E-03 1.46393E-05-2.34666E-03 9.43269E-14-7.71096E-15
 -1      2359 2.00017E+01 6.02898E-03-8.50601E-05-6.12415E-03-1.29523E-13 1.15134E-13
 -1      2360 1.99972E+01 2.54982E-03 9.03582E-05-9.70588E-04 7.96702E-14-4.37898E-14
 -1      2361 1.99966E+01 1.94624E-03 1.14994E-05-3.34981E-05 3.62209E-15-1.16328E-13
 -1      2362 1.99995E+01 3.89631E-03-6.31655E-05-2.39399E-03 2.60991E-14-1.19033E-13
 -1      2363 1.99962E+01 1.48146E-03 5.82967E-05 8.23548E-04-4.73110E-14-6.32390E-14
 -1      2364 1.99959E+01 1.05901E-03 8.94804E-06 1.37458E-03-1.15184E-13-8.29128E-15
 -1      2365 1.99983E+01 2.34201E-03-4.58295E-05 2.98250E-05 1.63799E-14-5.42543E-14
 -1      2366 1.99957E+01 7.37033E-04 3.49341E-05 1.86073E-03 6.55854E-15 4.59323E-14
 -1      2367 1.99958E+01 4.52949E-04 6.87927E-06 2.14175E-03 1.84589E-13 6.22927E-14
 -1      2368 1.99976E+01 1.24559E-03-3.23631E-05 1.50115E-03-2.24019E-14 1.95886E-14
 -1      2369 1.99958E+01 2.39090E-04 1.84479E-05 2.37175E-03 1.38173E-13-3.63318E-14
 -1      2370 1.99960E+01 5.77752E-05 5.21573E-06 2.47123E-03 2.47777E-13-5.09830E-14
 -1      2371 1.99973E+01 5.00972E-04-2.21082E-05 2.29910E-03 1.09663E-13 9.78866E-14
 -1      2372 1.99960E+01-7.64768E-05 7.24251E-06 2.53162E-03 2.78047E-13-1.50154E-13
 -1      2373 1.99963E+01-1.83648E-04 3.89346E-06 2.51521E-03 1.28541E-13-1.65333E-13
 -1      2374 1.99973E+01 1.91958E-05-1.44613E-05 2.63793E-03 1.62933E-13-2.25460E-14
 -1      2375 1.99964E+01-2.60984E-04-1.70842E-08 2.46954E-03 1.26112E-14-2.24763E-13
 -1      2376 1.99968E+01-3.16377E-04 2.85461E-06 2.38451E-03-1.16929E-13-2.49196E-13
 -1      2377 1.99975E+01-2.71736E-04-8.88874E-06 2.67773E-03 3.17077E-14-1.78557E-13
 -1      2378 1.99969E+01-3.54387E-04-4.40880E-06 2.27810E-03-5.18522E-14-9.27968E-14
 -1      2379 1.99972E+01-3.75054E-04 2.04429E-06 2.15747E-03 3.02449E-14 7.71283E-15
 -1      2380 1.99977E+01-4.28398E-04-4.93196E-06 2.53497E-03-3.13530E-14 9.09961E-14
 -1      2381 1.99974E+01-3.87068E-04-6.77730E-06 2.02152E-03 1.70941E-14 5.34067E-14
 -1      2382 1.99977E+01-3.85740E-04 1.40874E-06 1.88735E-03 7.14428E-14 1.87166E-13
 -1      2383 1.99980E+01-4.94166E-04-2.20796E-06 2.29178E-03 2.92537E-14 1.05718E-13
 -1      2384 1.99978E+01-3.81677E-04-7.76691E-06 1.74240E-03 8.46215E-14 2.01436E-13
 -1      2385 1.99981E+01-3.67698E-04 8.94589E-07 1.60861E-03-2.12374E-14 3.20581E-13
 -1      2386 1.99983E+01-5.01605E-04-4.05889E-07 2.00396E-03 1.91649E-13 2.71477E-13
 -1      2387 1.99982E+01-3.54839E-04-7.85515E-06 1.46725E-03-2.23336E-13 3.04568E-13
 -1      2388 1.99985E+01-3.34983E-04 4.54698E-07 1.34171E-03-1.61064E-14 1.25987E-13
 -1      2389 1.99986E+01-4.74754E-04 7.19247E-07 1.70744E-03-1.83594E-13 3.61706E-13
 -1      2390 1.99986E+01-3.18626E-04-7.38012E-06 1.21073E-03 6.90632E-14-3.08800E-14
 -1      2391 1.99988E+01-2.97793E-04 5.92686E-08 1.09695E-03 6.22431E-14-6.18050E-14
 -1      2392 1.99988E+01-4.31120E-04 1.36177E-06 1.42349E-03-1.64642E-13 3.93986E-13
 -1      2393 1.99989E+01-2.81814E-04-6.55268E-06 9.79047E-04 2.85994E-15-1.62757E-13
 -1      2394 1.99991E+01-2.63746E-04-3.60880E-07 8.77469E-04-3.06426E-14-1.63558E-13
 -1      2395 1.99991E+01-3.83404E-04 1.66451E-06 1.16276E-03-1.94423E-14 1.43136E-13
 -1      2396 1.99992E+01-2.51602E-04-5.66885E-06 7.72121E-04 1.44405E-13-1.86509E-13
 -1      2397 1.99993E+01-2.38148E-04-7.03926E-07 6.80424E-04 2.58115E-13-1.88457E-13
 -1      2398 1.99993E+01-3.41475E-04 1.59961E-06 9.28506E-04 2.24789E-14 9.27229E-14
 -1      2399 1.99994E+01-2.30148E-04-4.53467E-06 5.86171E-04 2.93972E-13-1.67149E-13
 -1      2400 1.99995E+01-2.24189E-04-1.77579E-06 5.02461E-04 2.81337E-13-9.17102E-14
 -1      2401 1.99994E+01-3.08918E-04 2.18385E-06 7.17304E-04 2.88958E-13-1.93240E-13
 -1      2402 3.31334E+01 1.24771E+00-1.39849E-01 3.44065E+00 1.27010E-13 3.02258E-13
 -1      2403 3.29492E+01-1.08878E+00-1.32967E-01 3.24627E+00 3.06005E-15 3.47028E-13
 -1      2404 3.15821E+01-3.47574E-01-1.76198E-01-3.66256E+00 5.58581E-13-9.22179E-14
 -1      2405 3.16635E+01 1.99954E+00-1.13721E-02-3.48392E+00 6.12815E-13 4.27436E-14
 -1      2406 3.00757E+01-3.03126E+00-3.74963E-02-1.64282E+00 1.82947E-13-2.50480E-13
 -1      2407 3.05257E+01-1.97391E+00-4.80399E-02-2.74020E+00 3.98022E-13-1.81632E-13
 -1      2408 2.75358E+01-2.55164E+00 5.88350E-02 9.10264E-01-2.97436E-14-2.98369E-13
 -1      2409 2.82644E+01-3.00673E+00-2.63959E-02-1.42467E-01 7.55784E-14-2.69437E-13
 -1      2410 2.54178E+01-1.16925E+00 4.91862E-02 2.27204E+00-5.84446E-14-2.55424E-13
 -1      2411 2.61266E+01-1.87129E+00-2.18095E-02 1.71609E+00-7.45341E-14-2.97083E-13
 -1      2412 2.55908E+01-2.88480E+00-5.63762E-02 2.12566E+00-4.92731E-14-3.73231E-13
 -1      2413 2.39697E+01-1.76280E-01 1.78162E-02 2.63214E+00-1.50224E-13-1.14771E-13
 -1      2414 2.45968E+01-6.28606E-01-1.01435E-02 2.49468E+00-4.46188E-14-1.93163E-13
 -1      2415 2.35839E+01-1.22877E+00-4.33246E-02 2.95078E+00-1.09831E-13-3.76116E-13
 -1      2416 2.30170E+01 3.03071E-01 2.71142E-03 2.44085E+00-2.23318E-13 8.31930E-15
 -1      2417 2.35514E+01 1.03175E-01 1.05382E-03 2.53434E+00-2.22977E-13-3.66877E-14
 -1      2418 2.24895E+01-6.91169E-02-1.96486E-02 2.95677E+00-2.11726E-13-2.88314E-13
 -1      2419 2.23427E+01 4.47086E-01-2.27638E-03 2.03923E+00-1.77220E-13 1.47125E-13
 -1      2420 2.27894E+01 3.96844E-01 7.98937E-03 2.22103E+00-1.51608E-13 7.43520E-14
 -1      2421 2.18967E+01 4.58856E-01-5.30990E-03 2.60121E+00-2.23716E-13-5.02068E-14
 -1      2422 2.18265E+01 4.31413E-01-2.61501E-03 1.60821E+00-8.85455E-14 1.38058E-13
 -1      2423 2.21931E+01 4.48408E-01 1.12477E-02 1.80003E+00-1.48696E-13 1.45697E-13
 -1      2424 2.15211E+01 5.99538E-01 6.78804E-04 2.13030E+00-1.65087E-13 8.26964E-15
 -1      2425 2.14144E+01 3.59187E-01-1.82583E-03 1.22567E+00 6.72205E-15 1.16558E-13
 -1      2426 2.17085E+01 3.98103E-01 1.16857E-02 1.39387E+00-3.80165E-15 1.14853E-13
 -1      2427 2.12359E+01 5.60630E-01 2.25556E-03 1.67130E+00-4.06038E-14 4.47068E-14
 -1      2428 2.10826E+01 2.78896E-01-1.04305E-03 9.14643E-01-5.14120E-14 2.03336E-13
 -1      2429 2.13133E+01 3.19326E-01 1.04587E-02 1.04993E+00-4.09681E-14 1.33073E-13
 -1      2430 2.09959E+01 4.61338E-01 1.90595E-03 1.27579E+00-2.41356E-14-1.67737E-14
 -1      2431 2.08175E+01 2.08851E-01-4.88650E-04 6.73428E-01 3.01289E-14 3.17322E-13
 -1      2432 2.09952E+01 2.43420E-01 8.60385E-03 7.77376E-01-3.80893E-14 2.58808E-13
 -1      2433 2.07894E+01 3.56558E-01 1.06479E-03 9.56476E-01-6.38962E-14 5.35215E-14
 -1      2434 2.06087E+01 1.53444E-01-1.45284E-04 4.91289E-01 1.89876E-14 2.86306E-13
 -1      2435 2.07435E+01 1.80635E-01 6.73528E-03 5.69159E-01 9.95371E-14 3.27950E-13
 -1      2436 2.06142E+01 2.66571E-01 3.30766E-04 7.08305E-01 4.55094E-14 1.03848E-13
 -1      2437 2.04463E+01 1.11484E-01-8.71937E-05 3.55790E-01 1.66529E-14 2.11365E-13
 -1      2438 2.05477E+01 1.32184E-01 5.12165E-03 4.13369E-01-5.38573E-14 2.45216E-13
 -1      2439 2.04692E+01 1.95790E-01-1.47604E-04 5.19803E-01 3.74065E-14 1.36035E-13
 -1      2440 2.03168E+01 7.93815E-02 3.48676E-05 2.51678E-01 1.74187E-13 1.98453E-13
 -1      2441 2.03946E+01 9.51143E-02 3.79789E-03 2.95478E-01 2.10162E-13 2.53644E-13
 -1      2442 2.03497E+01 1.41880E-01-1.88138E-04 3.75896E-01 7.26546E-14 9.27042E-14
 -1      2443 2.02248E+01 5.74755E-02 1.74840E-04 1.79609E-01-3.58707E-14 2.35598E-13
 -1      2444 2.02789E+01 6.84353E-02 2.78709E-03 2.09907E-01 6.08345E-14 1.29129E-13
 -1      2445 2.02552E+01 1.01508E-01-5.25777E-04 2.69210E-01 1.46511E-13 1.42218E-13
 -1      2446 2.01559E+01 4.14303E-02 1.74462E-04 1.26887E-01-1.33745E-13 2.79420E-13
 -1      2447 2.01953E+01 4.94254E-02 2.03506E-03 1.48954E-01-8.87970E-14 3.17475E-13
 -1      2448 2.01842E+01 7.33545E-02-5.20965E-04 1.92853E-01-4.28978E-14 2.11156E-13
 -1      2449 2.01053E+01 2.97762E-02 1.60370E-04 8.84910E-02 1.58181E-13 3.53758E-13
 -1      2450 2.01335E+01 3.56197E-02 1.48571E-03 1.04497E-01-8.73943E-15 3.19138E-13
 -1      2451 2.01301E+01 5.28621E-02-4.75194E-04 1.36704E-01-8.94387E-14 3.53384E-13
 -1      2452 2.00686E+01 2.12940E-02 1.38667E-04 6.06544E-02 2.09548E-13 3.93231E-13
 -1      2453 2.00886E+01 2.55725E-02 1.08008E-03 7.22100E-02 2.59175E-13 4.22816E-13
 -1      2454 2.00895E+01 3.79636E-02-4.09054E-04 9.55879E-02 1.79241E-13 3.40328E-13
 -1      2455 2.00424E+01 1.51104E-02 1.14959E-04 4.06037E-02-2.10896E-14 3.18944E-13
 -1      2456 2.00564E+01 1.82468E-02 7.80899E-04 4.88893E-02 1.49234E-13 3.24133E-13
 -1      2457 2.00596E+01 2.71152E-02-3.38860E-04 6.56468E-02 2.44947E-13 3.40654E-13
 -1      2458 2.00242E+01 1.06013E-02 9.23622E-05 2.62922E-02-1.08560E-13 2.46259E-13
 -1      2459 2.00337E+01 1.29000E-02 5.60541E-04 3.21752E-02-1.36555E-13 3.00989E-13
 -1      2460 2.00380E+01 1.92062E-02-2.72873E-04 4.40034E-02 2.38493E-15 3.61083E-13
 -1      2461 2.00118E+01 7.31922E-03 7.23366E-05 1.62043E-02-1.36291E-14-2.15865E-14
 -1      2462 2.00181E+01 8.99995E-03 3.98474E-04 2.03250E-02 5.17798E-14 6.67883E-14
 -1      2463 2.00226E+01 1.34411E-02-2.14779E-04 2.85130E-02-1.90400E-14 3.00171E-13
 -1      2464 2.00036E+01 4.94130E-03 5.53948E-05 9.21333E-03 2.77997E-14-4.84549E-15
 -1      2465 2.00076E+01 6.16391E-03 2.79570E-04 1.20465E-02 4.81757E-14-5.19533E-15
 -1      2466 2.00120E+01 9.24859E-03-1.65744E-04 1.75723E-02 4.08947E-14 4.03524E-14
 -1      2467 1.99985E+01 3.23193E-03 4.15326E-05 4.47922E-03-3.95079E-14-2.97678E-14
 -1      2468 2.00009E+01 4.11393E-03 1.92701E-04 6.37806E-03-4.47161E-15 1.95508E-14
 -1      2469 2.00049E+01 6.21527E-03-1.25579E-04 9.98018E-03-3.46056E-14 6.35483E-14
 -1      2470 1.99956E+01 2.01747E-03 3.04857E-05 1.37460E-03-4.14086E-14 2.54053E-13
 -1      2471 1.99968E+01 2.64613E-03 1.29656E-04 2.60211E-03-5.63492E-14 1.63400E-14
 -1      2472 2.00003E+01 4.03909E-03-9.34396E-05 4.83509E-03-1.09092E-13 3.90596E-14
 -1      2473 1.99941E+01 1.16870E-03 2.18870E-05-5.68499E-04 1.17612E-13 3.64682E-13
 -1      2474 1.99946E+01 1.60939E-03 8.43371E-05 1.83376E-04 2.83539E-14 2.90824E-13
 -1      2475 1.99976E+01 2.49708E-03-6.82192E-05 1.46027E-03-1.01449E-13 1.25466E-13
 -1      2476 1.99935E+01 5.88391E-04 1.51188E-05-1.69798E-03 8.17947E-14 4.00714E-13
 -1      2477 1.99936E+01 8.90809E-04 5.22030E-05-1.27670E-03 1.64569E-13 4.44723E-13
 -1      2478 1.99961E+01 1.42312E-03-4.87990E-05-6.51056E-04 1.17080E-13 3.30778E-13
 -1      2479 1.99936E+01 2.02467E-04 9.56585E-06-2.27135E-03 9.92577E-14 4.93280E-13
 -1      2480 1.99934E+01 4.07142E-04 3.03400E-05-2.07268E-03 1.77170E-13 5.19747E-13
 -1      2481 1.99954E+01 6.91591E-04-3.42568E-05-1.87666E-03 5.94666E-14 4.97903E-13
 -1      2482 1.99941E+01-5.05078E-05 6.07922E-06-2.47733E-03-1.13491E-13 2.13239E-13
 -1      2483 1.99937E+01 8.38484E-05 1.50318E-05-2.42680E-03 2.05301E-14 3.60797E-13
 -1      2484 1.99953E+01 2.08385E-04-2.20279E-05-2.50210E-03 1.12614E-13 5.61615E-13
 -1      2485 1.99948E+01-1.86976E-04 4.05630E-06-2.43586E-03 1.54558E-13-1.22702E-13
 -1      2486 1.99943E+01-1.11999E-04 4.47282E-06-2.47977E-03 9.97761E-14 1.42803E-13
 -1      2487 1.99955E+01-1.01386E-04-1.47175E-05-2.71602E-03 1.06786E-13 5.99584E-14
 -1      2488 1.99955E+01-2.58354E-04 2.35479E-06-2.26127E-03 2.51170E-13-2.00569E-13
 -1      2489 1.99950E+01-2.20071E-04-2.05958E-06-2.35564E-03 6.99613E-14-2.28093E-13
 -1      2490 1.99960E+01-2.70442E-04-8.99370E-06-2.66889E-03 2.02851E-13-8.48690E-14
 -1      2491 1.99962E+01-2.84765E-04 1.15323E-06-2.01725E-03 2.86505E-13 3.19057E-13
 -1      2492 1.99958E+01-2.70010E-04-5.62779E-06-2.13577E-03 3.67258E-13 1.18545E-13
 -1      2493 1.99965E+01-3.54983E-04-5.02127E-06-2.47592E-03 1.88906E-13 2.35022E-14
 -1      2494 1.99969E+01-2.82495E-04 3.55475E-07-1.74716E-03-4.51901E-13 3.65358E-13
 -1      2495 1.99965E+01-2.82745E-04-7.41825E-06-1.87263E-03-5.62245E-14 3.96959E-13
 -1      2496 1.99970E+01-3.83028E-04-2.31919E-06-2.20779E-03-4.11802E-15 5.60986E-13
 -1      2497 1.99975E+01-2.63500E-04-1.72451E-07-1.47839E-03-4.55759E-13 2.03552E-13
 -1      2498 1.99971E+01-2.72493E-04-8.02710E-06-1.60019E-03-4.15810E-13 2.36978E-13
 -1      2499 1.99975E+01-3.75599E-04-5.46365E-07-1.91161E-03-3.18164E-13 4.94745E-13
 -1      2500 1.99980E+01-2.36445E-04-5.44077E-07-1.22678E-03-4.01207E-13-1.20041E-13
 -1      2501 1.99977E+01-2.49615E-04-7.88806E-06-1.33906E-03-6.31303E-13 1.07325E-13
 -1      2502 1.99980E+01-3.47947E-04 5.57414E-07-1.61707E-03-4.59819E-13 4.72502E-14
 -1      2503 1.99985E+01-2.07637E-04-8.48101E-07-9.99716E-04-2.03357E-13-1.38957E-13
 -1      2504 1.99982E+01-2.21639E-04-7.30785E-06-1.10015E-03-2.47506E-13-8.60781E-14
 -1      2505 1.99984E+01-3.11141E-04 1.18282E-06-1.34113E-03-3.76666E-13-1.40909E-13
 -1      2506 1.99988E+01-1.81697E-04-1.13297E-06-7.98505E-04-2.21348E-13 3.45205E-13
 -1      2507 1.99986E+01-1.94066E-04-6.48898E-06-8.87294E-04-1.80935E-13 1.11274E-13
 -1      2508 1.99987E+01-2.73213E-04 1.47968E-06-1.09158E-03-3.67258E-13 5.60986E-14
 -1      2509 1.99991E+01-1.62068E-04-1.41176E-06-6.20232E-04 1.16367E-13 2.74151E-13
 -1      2510 1.99990E+01-1.70916E-04-5.52442E-06-6.99317E-04-7.99437E-14 2.45556E-13
 -1      2511 1.99990E+01-2.40081E-04 1.54499E-06-8.69593E-04-1.19640E-13 4.05844E-13
 -1      2512 1.99994E+01-1.51093E-04-1.73735E-06-4.59123E-04 4.06082E-14 3.61395E-13
 -1      2513 1.99992E+01-1.55512E-04-4.57173E-06-5.31692E-04 2.28430E-13 3.88501E-13
 -1      2514 1.99993E+01-2.16448E-04 1.21557E-06-6.71930E-04 1.63191E-13 3.00595E-13
 -1      2515 1.99996E+01-1.47330E-04-2.07628E-06-3.09309E-04 1.80320E-13 1.07288E-13
 -1      2516 1.99995E+01-1.48478E-04-3.63302E-06-3.77637E-04 1.16725E-13 4.06329E-13
 -1      2517 1.99995E+01-2.02830E-04 1.33369E-06-4.92055E-04 1.38231E-13 3.88316E-13
 -1      2518 1.99996E+01-1.50471E-04-2.23233E-06-2.35077E-04 2.42746E-13-4.17717E-14
 -1      2519 1.99999E+01-8.15577E-04 3.66089E-06-4.07086E-04 3.42791E-13-1.22027E-13
 -1      2520 1.99999E+01-7.42798E-04-9.66876E-07-4.42465E-04 2.72387E-13-4.16570E-13
 -1      2521 2.00000E+01-9.37973E-04 3.75371E-06-2.88768E-04 4.08274E-13 1.42163E-13
 -1      2522 1.99999E+01-8.84134E-04 4.33503E-07-3.48349E-04 3.40353E-13 1.81659E-14
 -1      2523 2.00000E+01-8.59330E-04-2.45576E-06-4.36339E-04 5.49553E-13-1.96785E-14
 -1      2524 1.99997E+01-4.80157E-04 2.13569E-06-4.65564E-04 8.99648E-14-2.44335E-13
 -1      2525 1.99997E+01-3.95055E-04-2.37410E-06-4.37773E-04 4.14939E-13-4.15545E-13
 -1      2526 1.99998E+01-6.56918E-04 3.14544E-06-4.69248E-04 4.82596E-14-5.80217E-13
 -1      2527 1.99998E+01-5.75307E-04-2.22903E-06-4.74515E-04-7.85546E-15-2.39327E-13
 -1      2528 1.99998E+01-5.37256E-04-8.14220E-07-5.50174E-04 1.41389E-13-3.87572E-13
 -1      2529 1.99999E+01-7.10788E-04-1.69547E-06-5.28906E-04 3.20679E-13-3.08064E-13
 -1      2530 2.00000E+01-1.01014E-03 3.43166E-06-1.32063E-04 8.88351E-14 2.98151E-13
 -1      2531 2.00000E+01-9.81691E-04 1.72755E-06-2.07047E-04 2.77131E-13 1.20591E-13
 -1      2532 2.00000E+01-9.67355E-04-3.06852E-06-2.85647E-04 5.20840E-13 9.64372E-15
 -1      2533 2.00000E+01-1.02455E-03 2.73663E-06 4.17286E-05-1.80080E-13 3.53226E-14
 -1      2534 2.00000E+01-1.02488E-03 2.76240E-06-3.84606E-05-1.26124E-13 4.67415E-13
 -1      2535 2.00001E+01-1.02363E-03-3.40036E-06-9.80620E-05 2.43147E-14 2.63234E-13
 -1      2536 2.00000E+01-9.79794E-04 1.72162E-06 2.09861E-04-1.90831E-13-4.22282E-13
 -1      2537 2.00000E+01-1.00891E-03 3.42477E-06 1.35166E-04-1.82751E-13-2.67858E-13
 -1      2538 2.00001E+01-1.02274E-03-3.37921E-06 1.01940E-04 7.29077E-14-1.27695E-13
 -1      2539 1.99999E+01-8.83193E-04 4.26208E-07 3.48144E-04-7.00715E-14-4.99047E-13
 -1      2540 2.00000E+01-9.36284E-04 3.70210E-06 2.89816E-04-2.33261E-13-4.39754E-13
 -1      2541 2.00000E+01-9.65588E-04-3.11572E-06 2.87401E-04-9.76640E-14-4.45392E-13
 -1      2542 1.99999E+01-7.42247E-04-1.05402E-06 4.42286E-04 1.84329E-13-4.70978E-14
 -1      2543 1.99999E+01-8.14814E-04 3.61714E-06 4.06864E-04 1.33285E-14-3.56404E-13
 -1      2544 2.00000E+01-8.58005E-04-2.48136E-06 4.36026E-04-8.37890E-14-2.24601E-13
 -1      2545 1.99998E+01-5.71925E-04-2.24048E-06 4.72826E-04 2.24922E-13 7.25842E-13
 -1      2546 1.99998E+01-6.55029E-04 2.88962E-06 4.69337E-04 3.15336E-13 3.59302E-13
 -1      2547 1.99999E+01-7.08844E-04-1.88360E-06 5.29692E-04 7.90492E-14 1.61850E-13
 -1      2548 1.99997E+01-3.90746E-04-2.66443E-06 4.37602E-04 1.57683E-13 3.09253E-13
 -1      2549 1.99997E+01-4.77621E-04 2.00798E-06 4.65775E-04 1.74300E-13 7.56536E-13
 -1      2550 1.99998E+01-5.32495E-04 1.23735E-06 5.47804E-04 3.46097E-13 6.23428E-13
 -1      2551 4.27860E+00-2.14977E+00 8.59121E-02 2.00663E+00-8.98864E-14 7.58171E-13
 -1      2552 3.00104E+00-2.53747E+00 7.51008E-02-3.25702E-01 7.16129E-14 7.75657E-13
 -1      2553 1.06955E+01-4.36517E+00 3.78971E-02 6.11144E+00 1.16573E-14-9.23150E-14
 -1      2554 7.48258E+00-3.13795E+00 9.29209E-02 4.70111E+00-1.53655E-13 3.42504E-13
 -1      2555 3.17805E+00-2.61156E+00 6.56908E-02-2.15956E+00 1.23734E-13 7.88480E-13
 -1      2556 4.48600E+00-2.62305E+00 7.40320E-02-4.27547E+00 1.20931E-13 7.63389E-13
 -1      2557 5.00851E+00-1.07598E+00 1.59863E-01-1.33411E+00-3.79766E-14 7.28917E-13
 -1      2558 1.99997E+01-2.37341E-04-2.35953E-06 3.00691E-04 3.62093E-13 1.51466E-13
 -1      2559 1.89703E+01-5.56690E+00-3.81898E-02 6.14093E+00 1.03417E-13-5.01443E-13
 -1      2560 1.43748E+01-5.24319E+00 1.20750E-02 6.20728E+00 8.30447E-14-2.76473E-13
 -1      2561 1.45209E+01-3.94069E+00 1.30319E-01 6.02395E+00-1.81077E-13-2.72116E-13
 -1      2562 2.19911E+01 1.70412E+00-2.49892E-02-2.68238E+00-2.35015E-13-5.38257E-13
 -1      2563 2.16994E+01 9.47311E-01-1.16077E-02-2.19991E+00-2.43743E-13-4.75397E-13
 -1      2564 2.19128E+01 1.06523E+00 1.76754E-02-2.29570E+00-1.99434E-13-4.50478E-13
 -1      2565 2.19469E+01 2.04587E+00-1.86104E-03-2.62550E+00-1.84244E-13-5.55753E-13
 -1      2566 1.32154E+01-4.64471E+00 5.92119E-02-7.50065E+00 4.03566E-13 5.93553E-13
 -1      2567 1.76300E+01-4.77976E+00-2.43037E-02-7.62453E+00 3.74811E-13 4.67300E-13
 -1      2568 2.75483E+01-2.70182E+00-7.28410E-03-3.72290E+00 2.01297E-13 9.30089E-14
 -1      2569 3.04252E+01-7.61443E-01-6.33593E-02-2.61837E+00-1.86934E-14 8.32667E-15
 -1      2570 3.25318E+01 7.20840E+00-2.01486E-01-8.92436E-01-6.89893E-13 2.50217E-14
 -1      2571 3.27748E+01 6.03509E+00-1.05084E-01-7.56649E-01-7.12652E-13 6.71962E-14
 -1      2572 8.77392E+00-1.28846E+00 2.83658E-02 7.16108E+00 3.48832E-13-4.27686E-13
 -1      2573 5.63339E+00-9.26076E-01 9.84788E-02 5.66461E+00 4.03733E-13-5.60885E-13
 -1      2574 3.38697E+01 3.35089E+00-1.74635E-01 3.16383E+00 2.55185E-13 3.17538E-13
 -1      2575 1.99439E+01 1.61699E+00-5.02384E-04 1.77718E+00 4.17425E-13-2.78890E-13
 -1      2576 2.08076E+01 1.51819E+00-8.62756E-03 1.14060E+00 3.51316E-13-3.13014E-13
 -1      2577 2.16646E+01 8.90758E-01-1.25298E-02 7.19531E-01 3.11718E-13-2.75258E-13
 -1      2578 1.98990E+01 9.32610E-01-2.50615E-02 2.35882E+00 4.34046E-13-2.26656E-13
 -1      2579 1.82598E+01-4.70008E+00 3.07385E-02-5.09196E+00 1.82632E-14-5.26225E-13
 -1      2580 2.28193E+01-5.32820E+00-3.21777E-02-4.66681E+00 6.20060E-14-4.76993E-13
 -1      2581 3.53926E+01 5.90516E+00-1.08852E-01-8.42747E-01 6.52756E-13 2.54380E-14
 -1      2582 3.59081E+01 4.78761E+00 9.99580E-03-1.83983E+00 7.20701E-13-1.02418E-13
 -1      2583 2.96623E+01-2.48046E-02-1.39795E-01 2.34407E+00-3.77955E-13 1.47660E-13
 -1      2584 2.72819E+01-1.21551E+00-1.59747E-02 3.54359E+00-2.46234E-13 1.14131E-13
 -1      2585 2.65935E+01-5.18761E+00-3.41923E-02-2.86595E+00 4.95992E-14-3.20355E-13
 -1      2586 3.06303E+01-4.35239E+00-9.88685E-02-1.28498E+00 5.63438E-14-2.10360E-13
 -1      2587 3.42374E+00-3.29449E-01 9.01379E-02-3.69004E-01 2.76348E-13-7.43960E-13
 -1      2588 4.98432E+00-7.64672E-01 1.20801E-01-2.39011E+00 2.70228E-13-7.49401E-13
 -1      2589 3.26369E+00-4.00950E-01 4.87393E-02 3.83093E+00 3.59018E-13-6.52700E-13
 -1      2590 2.68179E+00-3.33211E-01 8.84099E-02 1.52764E+00 3.71266E-13-7.17815E-13
 -1      2591 4.69532E+00 1.00351E+00 1.32165E-01 6.06047E-01 3.90517E-13-7.01716E-13
 -1      2592 1.62595E+01-2.48119E+00-9.71599E-03 7.62134E+00 2.09444E-13-1.64591E-13
 -1      2593 1.30378E+01-2.12909E+00 9.13691E-02 7.43333E+00 3.23991E-13-2.68868E-13
 -1      2594 3.17833E+01 1.54132E+00-3.43040E-02-1.24232E+00-1.83797E-13-6.85563E-14
 -1      2595 3.31168E+01 3.30228E+00-8.01001E-02-7.03189E-01-2.63956E-13-9.45355E-14
 -1      2596 2.42912E+01-2.27114E+00-6.52971E-02 5.50109E+00-9.01224E-14 5.40956E-14
 -1      2597 2.01964E+01-2.75969E+00 2.19311E-02 6.46375E+00 8.81517E-14-3.92464E-14
 -1      2598 3.26323E+01 4.13604E+00-1.44429E-01-2.07683E-01-6.46733E-13 1.08386E-13
 -1      2599 3.10785E+01 2.23018E+00-7.20544E-02 5.59150E-01-5.26884E-13 1.18017E-13
 -1      2600 3.06589E+01 4.68145E+00-4.23331E-02-1.40895E+00-5.88640E-13 6.85563E-14
 -1      2601 3.28208E+01 8.01605E+00-1.43374E-01 2.64639E-02-5.33795E-13-9.90805E-14
 -1      2602 3.26002E+01 8.08187E+00-1.54865E-01-4.31967E-01-6.17284E-13-8.22953E-14
 -1      2603 6.93584E+00-3.28380E+00 8.72176E-02-5.88605E+00 2.64955E-13 7.68358E-13
 -1      2604 9.59772E+00-3.74270E+00 3.35709E-02-7.18854E+00 3.10418E-13 7.00245E-13
 -1      2605 2.18081E+01-4.70916E+00 5.87854E-02-6.35234E+00 4.09117E-13 3.33428E-13
 -1      2606 2.46192E+01-4.20885E+00-7.35767E-02-5.63324E+00 3.34732E-13 2.99427E-13
 -1      2607 3.28414E+01-2.44540E+00-1.41685E-01-9.80018E-01 5.02006E-13-3.51164E-13
 -1      2608 3.12303E+01-3.88151E+00-4.10515E-02-8.32646E-02 3.89112E-13-3.55216E-13
 -1      2609 2.61989E+01 3.00207E-01-1.16935E-02-8.60226E-01 1.34712E-13 5.61174E-13
 -1      2610 2.60823E+01 1.01677E+00 8.99297E-03-4.67926E-01 1.73524E-13 6.00745E-13
 -1      2611 2.45260E+01 1.53657E+00 3.97178E-03-4.73322E-01 2.19319E-13 4.46622E-13
 -1      2612 2.43915E+01 2.93453E-02-1.01856E-02-1.35209E+00 1.15413E-13 2.94603E-13
 -1      2613 2.58164E+01-5.15325E+00 1.93628E-02-2.89678E+00-6.43929E-14-2.16702E-13
 -1      2614 2.25091E+01 1.50125E+00 4.20693E-03-1.57946E+00 7.49391E-14-4.76542E-13
 -1      2615 2.21342E+01 2.08142E+00-1.48716E-02-1.68375E+00 7.72160E-14-5.41830E-13
 -1      2616 2.21046E+01 2.11052E+00-3.63075E-02-2.03886E+00 1.55559E-14-5.78355E-13
 -1      2617 2.99894E+01-3.00492E+00 6.40847E-02 1.16556E+00-1.50914E-13 5.15983E-13
 -1      2618 2.79421E+01-3.71223E+00-6.44019E-02-4.90255E-01-1.34177E-13 2.40991E-13
 -1      2619 2.19955E+01 2.09952E+00-1.71031E-02-6.50928E-01 2.64945E-13 2.26527E-13
 -1      2620 3.21720E+01-1.53618E+00-6.26741E-02-2.74095E+00 4.96284E-13-3.02813E-13
 -1      2621 1.31846E+01-3.68546E+00 1.32350E-01-7.22646E+00 3.62377E-13 5.59455E-13
 -1      2622 2.03665E+01-4.83113E+00 7.20437E-02-6.72683E+00 4.47281E-13 3.41453E-13
 -1      2623 7.43057E+00-1.90953E+00 1.48149E-01-5.09328E+00 1.08760E-13 7.32386E-13
 -1      2624 3.39719E+01 3.39564E+00-7.58651E-02-2.65842E+00 6.79179E-13-1.96787E-14
 -1      2625 3.36035E+01 5.05258E+00-1.31664E-01 1.51689E+00 4.49696E-13 2.20837E-13
 -1      2626 2.88467E+01-3.89013E+00-7.40422E-02-8.61060E-02 1.53304E-13-3.68608E-13
 -1      2627 1.99996E+01-2.03046E-04 8.46019E-07-3.26754E-04 1.92991E-13 1.07177E-13
 -1      2628 1.99997E+01-3.29512E-04 4.86483E-07-4.14713E-04 4.49819E-13-2.19945E-13
 -1      2629 1.99996E+01-2.65262E-04-2.15831E-06-3.66023E-04 2.90084E-13 1.37954E-13
 -1      2630 1.99996E+01-2.61987E-04-2.22969E-06-4.49073E-04 1.11928E-13 1.59088E-13
 -1      2631 1.99997E+01-3.83450E-04-9.03855E-08-5.13966E-04 2.62573E-13-3.68136E-13
 -1      2632 2.60167E+01-2.11408E+00 4.37598E-02 3.66122E+00-5.32907E-15 1.58401E-13
 -1      2633 1.99996E+01-2.14454E-04-2.90309E-06 3.68773E-04 5.28808E-13 1.27618E-13
 -1      2634 1.99997E+01-3.10157E-04 1.66992E-06 4.16188E-04 4.31011E-13 1.70698E-13
 -1      2635 1.99996E+01-3.65982E-04-1.41259E-06 5.15613E-04 4.02283E-13 5.03982E-13
 -1      2636 1.99995E+01-2.20919E-04-4.33575E-06 4.41266E-04 3.89947E-13 2.00295E-14
 -1      2637 6.88466E+00-1.97355E+00 1.56430E-01 3.54051E+00-2.08750E-13 5.61634E-13
 -1      2638 6.99550E+00-7.02612E-01 1.82480E-01 2.24803E+00-2.01825E-13 5.68851E-13
 -1      2639 9.89949E+00-1.75584E+00 1.16737E-01 4.55462E+00-3.20174E-13 2.06724E-13
 -1      2640 3.04113E+01-2.46195E-01-1.05248E-02-8.69628E-01 1.91513E-14-1.96482E-13
 -1      2641 3.34866E+01 5.34390E+00-2.18993E-01 2.39106E-01 5.87419E-13 2.33105E-13
 -1      2642 3.05348E+01-2.78842E+00-4.49997E-02 2.32196E+00-9.93268E-14 5.21527E-13
 -1      2643 2.07974E+01 1.64152E+00 2.89692E-02-1.34483E+00 2.19628E-13 1.06047E-13
 -1      2644 1.99995E+01-2.89519E-04 2.55596E-06 5.53351E-04 4.86352E-13 4.24710E-14
 -1      2645 3.04663E+01 7.31998E+00-8.30976E-02-9.43046E-01-6.23945E-13-1.27759E-13
 -1      2646 5.91030E+00 5.69694E-01 1.51050E-01 4.76916E+00 4.85764E-13-5.96356E-13
 -1      2647 2.26551E+01-5.66202E+00 6.64512E-02 5.06723E+00 1.70974E-13-5.68393E-13
 -1      2648 2.13488E+01-4.95603E+00 1.59539E-01 5.23140E+00-2.80609E-14-5.24865E-13
 -1      2649 2.56073E+01-5.56975E+00-8.36213E-02 3.40414E+00 1.98883E-13-5.66477E-13
 -1      2650 2.19753E+01 2.08164E+00-1.29341E-02-2.39805E+00-1.02583E-13-5.82021E-13
 -1      2651 2.67754E+01-3.72293E+00 3.47358E-02-3.75531E+00 3.65666E-13 9.79772E-15
 -1      2652 3.11445E+01 4.61026E+00-1.12734E-01-7.59216E-01 5.60885E-13 3.58911E-13
 -1      2653 1.20702E+01-1.10059E+00 1.20390E-01 7.17226E+00 4.83669E-13-3.28876E-13
 -1      2654 3.20205E+01 4.36027E+00-5.90127E-02 6.83347E-01-2.43167E-13-2.17215E-13
 -1      2655 2.97766E+01 7.88034E-01-2.26732E-02 3.86961E-01-3.54709E-13 1.54377E-13
 -1      2656 8.20811E+00-6.83598E-01 1.24590E-01-3.21579E+00 1.90070E-13-6.85368E-13
 -1      2657 3.09003E+01-4.04702E+00-1.49921E-02 4.43336E-01-4.32848E-14 2.38420E-14
 -1      2658 3.24197E+01-3.18350E+00-6.20620E-02 7.79549E-01 2.74850E-14-7.41074E-14
 -1      2659 3.37544E+01-1.66572E+00-1.21481E-01 2.20158E+00 4.77327E-14 7.21645E-15
 -1      2660 1.48130E+01-2.38145E+00 1.39319E-01-4.91228E+00 5.25968E-14-5.07622E-13
 -1      2661 1.66476E+01-3.82232E+00 1.06163E-01-5.12820E+00 3.89411E-14-5.62647E-13
 -1      2662 2.00522E+01-4.02819E+00-1.55487E-02-4.49901E+00-4.98213E-14-3.88675E-13
 -1      2663 1.96753E+01-2.53717E+00 8.42566E-02 6.44459E+00 3.20299E-13-3.44308E-14
 -1      2664 3.12917E+01 7.48449E+00-9.58519E-02 2.77833E-01-4.47975E-13-1.99278E-13
 -1      2665 2.96008E+01-4.47956E+00 2.19988E-02 7.92682E-01 2.93487E-13-4.49113E-13
 -1      2666 1.20343E+01 2.63384E+00 2.99436E-03 4.78839E+00 6.62897E-13-3.35870E-13
 -1      2667 1.43176E+01 2.00023E+00 1.25045E-01 4.96536E+00 6.46882E-13-2.76709E-13
 -1      2668 1.65740E+01 1.08883E+00-1.26394E-02 4.54028E+00 6.04124E-13-1.95854E-13
 -1      2669 1.86250E+01 6.01794E-01 5.50414E-02 3.95779E+00 5.39509E-13-1.66939E-13
 -1      2670 1.57919E+01 6.83254E-01 6.80242E-02 5.34551E+00 6.10498E-13-2.10783E-13
 -1      2671 1.05328E+01 3.88548E+00 1.18746E-01-1.35967E-01 4.41394E-13-4.37553E-13
 -1      2672 9.39038E+00 4.06801E+00 4.39365E-02 1.07205E+00 5.21538E-13-4.55844E-13
 -1      2673 1.54411E+01 2.22331E+00 1.68247E-01-2.06367E+00 2.54685E-13-2.63928E-13
 -1      2674 1.25418E+01 2.81246E+00 1.87098E-02-1.56229E+00 3.35811E-13-3.77101E-13
 -1      2675 2.37651E+01-2.45050E+00 3.06470E-02-2.37239E+00-5.16184E-14 6.24379E-14
 -1      2676 2.28680E+01-9.81511E-01 1.31460E-01-2.38190E+00 1.73958E-14 6.57113E-14
 -1      2677 1.99996E+01-3.85079E-04-3.68189E-06 6.45534E-04 6.44400E-13 3.26159E-13
 -1      2678 1.99996E+01-3.75816E-04-9.73739E-07 5.79452E-04 6.75257E-13 4.85640E-13
 -1      2679 1.99997E+01-4.52609E-04-1.51431E-06 6.02955E-04 4.89184E-13 8.55204E-13
 -1      2680 2.07189E+01 8.13669E-01 1.95395E-02-1.77974E+00 1.68306E-13 3.74284E-14
 -1      2681 1.28268E+01-2.58896E+00 1.79237E-01-6.68955E+00 3.39312E-13 5.31700E-13
 -1      2682 1.57812E+01-3.78261E+00 1.98891E-02-7.22390E+00 3.98209E-13 4.97741E-13
 -1      2683 2.82706E+01 7.02898E+00-1.95155E-01-6.82403E-01-5.62356E-13-3.07046E-13
 -1      2684 2.85011E+01 6.38686E+00-1.39172E-01-1.49838E+00-5.96023E-13-1.97689E-13
 -1      2685 1.70989E+01-3.72657E+00 7.17424E-02 5.79332E+00-1.80106E-13-4.11032E-13
 -1      2686 1.37850E+01-2.52855E+00 1.63601E-01 5.53027E+00-2.65510E-13-2.11053E-13
 -1      2687 2.16798E+01 6.73155E-01-1.57437E-03-1.85262E+00-1.35885E-13-3.41656E-13
 -1      2688 2.14634E+01 7.82549E-01 7.43728E-03-1.66366E+00-1.24586E-13-3.23460E-13
 -1      2689 2.12602E+01 9.36903E-01-3.65261E-03-1.43776E+00-1.41035E-13-3.17510E-13
 -1      2690 2.10823E+01 1.10309E+00 1.22879E-02-1.16312E+00-1.39245E-13-3.37228E-13
 -1      2691 2.18376E+01 1.06987E+00 3.43713E-03-1.73174E+00-1.35790E-13-2.83913E-13
 -1      2692 2.08984E+01 1.24166E+00-4.80354E-04-8.08534E-01-1.24896E-13-3.06846E-13
 -1      2693 2.07888E+01 1.33251E+00 8.86148E-03-4.59064E-01-9.84373E-14-3.07268E-13
 -1      2694 2.14684E+01 1.44400E+00-4.39100E-03-1.13264E+00-1.19943E-13-2.86202E-13
 -1      2695 2.07083E+01 1.34889E+00 6.85644E-03-3.13822E-02-1.11677E-13-3.18727E-13
 -1      2696 2.06832E+01 1.27912E+00-7.80757E-05 3.24346E-01-1.35990E-13-3.49839E-13
 -1      2697 2.12115E+01 1.64295E+00-9.95180E-03-3.10757E-01-1.16917E-13-2.86309E-13
 -1      2698 2.07338E+01 1.13353E+00 1.32786E-02 7.04971E-01-1.65697E-13-3.65453E-13
 -1      2699 2.07810E+01 9.12322E-01-8.57104E-03 9.75005E-01-1.43009E-13-3.83863E-13
 -1      2700 2.11732E+01 1.47497E+00-8.67006E-03 5.44292E-01-1.76644E-13-3.45926E-13
 -1      2701 2.09061E+01 6.58491E-01 1.37085E-02 1.20072E+00-1.07589E-13-3.87639E-13
 -1      2702 2.09912E+01 3.73813E-01-1.18657E-02 1.32724E+00-7.95003E-14-3.70250E-13
 -1      2703 2.13238E+01 9.61226E-01-1.11778E-03 1.17618E+00-1.36433E-13-3.56496E-13
 -1      2704 2.11020E+01 1.09361E-01 8.58508E-03 1.36504E+00-3.68499E-14-3.31019E-13
 -1      2705 2.11853E+01-1.38489E-01-9.52481E-03 1.34822E+00 8.13802E-16-3.01885E-13
 -1      2706 2.15232E+01 2.97464E-01 5.86295E-03 1.43553E+00-1.55819E-14-2.82444E-13
 -1      2707 2.12201E+01-3.33648E-01 1.61436E-03 1.23938E+00-2.32955E-14-2.74273E-13
 -1      2708 2.12742E+01-4.85613E-01-4.37832E-03 1.12332E+00 1.77120E-14-2.83012E-13
 -1      2709 2.16314E+01-2.87109E-01 7.87220E-03 1.34125E+00 7.05100E-15-2.41224E-13
 -1      2710 2.12241E+01-5.82246E-01-3.69049E-03 9.41540E-01 1.74724E-14-2.77005E-13
 -1      2711 2.12397E+01-6.32497E-01 3.86443E-04 7.81971E-01 4.36196E-14-3.18950E-13
 -1      2712 2.15897E+01-6.51669E-01 5.55192E-03 1.02608E+00 1.08544E-14-1.97843E-13
 -1      2713 2.11311E+01-6.43518E-01-6.15975E-03 5.91748E-01 5.52802E-14-3.34635E-13
 -1      2714 2.11134E+01-6.18936E-01 3.37559E-03 4.33125E-01 5.89825E-14-3.09359E-13
 -1      2715 2.14205E+01-7.78245E-01 1.80645E-03 6.38281E-01 3.13115E-14-2.68536E-13
 -1      2716 2.09811E+01-5.75571E-01-6.29377E-03 2.72750E-01 9.05248E-14-2.97110E-13
 -1      2717 2.09416E+01-5.11210E-01 4.56671E-03 1.40833E-01 1.24318E-13-2.62941E-13
 -1      2718 2.11831E+01-7.27428E-01-1.14595E-03 2.81831E-01 1.11865E-13-2.27506E-13
 -1      2719 2.08125E+01-4.44316E-01-5.17814E-03 2.45451E-02 6.00928E-14-2.26763E-13
 -1      2720 2.07625E+01-3.68742E-01 4.47081E-03-7.11821E-02 1.04636E-15-1.83629E-13
 -1      2721 2.09336E+01-5.80844E-01-2.66241E-03 6.22613E-03 1.05159E-13-2.83120E-13
 -1      2722 2.06514E+01-3.00144E-01-3.68988E-03-1.44272E-01-1.87281E-14-1.52048E-13
 -1      2723 2.05991E+01-2.30953E-01 3.70897E-03-2.04749E-01-3.93203E-14-1.35109E-13
 -1      2724 2.07081E+01-4.05845E-01-3.05651E-03-1.78759E-01 1.66162E-14-2.00699E-13
 -1      2725 2.05108E+01-1.72532E-01-2.29394E-03-2.42467E-01-8.20880E-14-1.47212E-13
 -1      2726 2.04613E+01-1.17746E-01 2.75114E-03-2.73777E-01-1.13419E-13-1.42004E-13
 -1      2727 2.05224E+01-2.44257E-01-2.79959E-03-2.84273E-01-5.45397E-14-1.43584E-13
 -1      2728 2.03949E+01-7.38557E-02-1.17568E-03-2.85736E-01-3.49115E-14-1.46278E-13
 -1      2729 2.03505E+01-3.51247E-02 1.85835E-03-2.95526E-01 1.56161E-14-9.17656E-14
 -1      2730 2.03788E+01-1.15466E-01-2.27926E-03-3.28996E-01-6.76771E-14-5.46687E-14
 -1      2731 2.03024E+01-5.56606E-03-3.68386E-04-2.90545E-01 1.33606E-14-5.54221E-14
 -1      2732 2.02640E+01 1.88730E-02 1.14067E-03-2.86030E-01 3.46092E-14-1.47338E-15
 -1      2733 2.02721E+01-2.38030E-02-1.73065E-03-3.31803E-01 5.37790E-14-2.88735E-14
 -1      2734 2.02300E+01 3.64680E-02 1.63484E-04-2.71163E-01-1.11678E-14 5.66694E-14
 -1      2735 2.01975E+01 4.97169E-02 6.18849E-04-2.58252E-01 1.17340E-14-5.05971E-14
 -1      2736 2.01949E+01 3.45280E-02-1.26051E-03-3.08600E-01 1.67031E-14-1.30776E-14
 -1      2737 2.01739E+01 5.83616E-02 4.77416E-04-2.38650E-01 5.57798E-14-1.41499E-13
 -1      2738 2.01469E+01 6.36568E-02 2.69796E-04-2.21734E-01 9.66362E-14-1.92904E-13
 -1      2739 2.01399E+01 6.65823E-02-8.98600E-04-2.71471E-01-7.62557E-14-6.20019E-14
 -1      2740 2.01306E+01 6.61908E-02 6.31525E-04-2.00881E-01 1.38743E-13-2.12909E-13
 -1      2741 2.01086E+01 6.63259E-02 5.52933E-05-1.82955E-01 2.37674E-13-2.11207E-13
 -1      2742 2.01008E+01 7.98308E-02-6.37631E-04-2.28901E-01 9.22270E-14-1.65700E-13
 -1      2743 2.00973E+01 6.50680E-02 6.76216E-04-1.63011E-01 2.38305E-13-2.94327E-13
 -1      2744 2.00796E+01 6.22020E-02-6.30809E-05-1.45941E-01 2.27637E-13-2.71680E-13
 -1      2745 2.00731E+01 8.07798E-02-4.56837E-04-1.86407E-01 2.05406E-13-2.79060E-13
 -1      2746 2.00717E+01 5.88742E-02 6.51600E-04-1.28099E-01 2.06233E-13-2.65257E-13
 -1      2747 2.00577E+01 5.45427E-02-1.17630E-04-1.12906E-01 1.55008E-13-2.23375E-13
 -1      2748 2.00532E+01 7.44942E-02-3.34053E-04-1.47244E-01 1.83659E-13-2.62225E-13
 -1      2749 2.00521E+01 5.03287E-02 5.87599E-04-9.76885E-02 6.70949E-14-1.97974E-13
 -1      2750 2.00412E+01 4.55441E-02-1.32869E-04-8.48083E-02 1.84889E-14-1.36693E-13
 -1      2751 2.00388E+01 6.46020E-02-2.50735E-04-1.13060E-01 1.16308E-13-2.10614E-13
 -1      2752 2.00372E+01 4.11967E-02 5.05274E-04-7.23070E-02 8.68667E-14-1.57744E-13
 -1      2753 2.00289E+01 3.65721E-02-1.26071E-04-6.18005E-02 1.35929E-13-8.52433E-14
 -1      2754 2.00282E+01 5.35142E-02-1.93181E-04-8.44214E-02 7.35968E-14-1.53142E-13
 -1      2755 2.00260E+01 3.25266E-02 4.18559E-04-5.18503E-02-1.55474E-14-9.90044E-15
 -1      2756 2.00197E+01 2.83913E-02-1.08639E-04-4.35565E-02-7.82731E-14-5.55011E-14
 -1      2757 2.00204E+01 4.27056E-02-1.52059E-04-6.12196E-02 9.96724E-14-3.03699E-14
 -1      2758 2.00176E+01 2.48638E-02 3.35984E-04-3.58591E-02 1.07448E-14-5.57970E-14
 -1      2759 2.00130E+01 2.13581E-02-8.76162E-05-2.95045E-02-8.36932E-14-6.69233E-14
 -1      2760 2.00146E+01 3.29809E-02-1.21390E-04-4.29648E-02-9.35150E-15 4.35703E-14
 -1      2761 2.00114E+01 1.84230E-02 2.62198E-04-2.37102E-02-1.99991E-13 3.85848E-14
 -1      2762 2.00081E+01 1.55696E-02-6.70087E-05-1.89805E-02-2.19984E-13 5.06313E-14
 -1      2763 2.00103E+01 2.46950E-02-9.75272E-05-2.89871E-02-7.96576E-14 3.31005E-14
 -1      2764 2.00070E+01 1.32165E-02 1.99207E-04-1.47382E-02-1.47877E-13 9.83634E-14
 -1      2765 2.00047E+01 1.09713E-02-4.88238E-05-1.13223E-02-6.87385E-14 1.31619E-13
 -1      2766 2.00071E+01 1.79201E-02-7.83225E-05-1.85665E-02-1.66476E-13 6.83017E-14
 -1      2767 2.00038E+01 9.14400E-03 1.47323E-04-8.30851E-03-1.29416E-13 1.53550E-13
 -1      2768 2.00023E+01 7.43011E-03-3.38315E-05-5.92281E-03-1.30732E-13 3.73893E-14
 -1      2769 2.00047E+01 1.25661E-02-6.25370E-05-1.10117E-02-1.25953E-13 1.30172E-13
 -1      2770 2.00017E+01 6.05217E-03 1.05855E-04-3.85562E-03-6.03652E-14 1.58411E-13
 -1      2771 2.00007E+01 4.78144E-03-2.20893E-05-2.25538E-03 3.22764E-14 1.66332E-13
 -1      2772 2.00029E+01 8.46096E-03-4.94454E-05-5.70223E-03-3.71071E-14 2.94101E-13
 -1      2773 2.00002E+01 3.77220E-03 7.35951E-05-8.98866E-04 5.04031E-14 1.20350E-13
 -1      2774 1.99996E+01 2.85803E-03-1.32858E-05 1.18717E-04 7.81860E-14 2.03836E-13
 -1      2775 2.00017E+01 5.40299E-03-3.85951E-05-2.10705E-03 1.18602E-14 4.90621E-13
 -1      2776 1.99993E+01 2.14144E-03 4.91329E-05 9.55673E-04 1.10011E-14 1.35946E-13
 -1      2777 1.99990E+01 1.50551E-03-6.95516E-06 1.55325E-03-2.78553E-14 1.63396E-13
 -1      2778 2.00008E+01 3.19135E-03-2.96678E-05 2.12425E-04 8.04823E-15 2.63042E-13
 -1      2779 1.99988E+01 1.01456E-03 3.10550E-05 2.02120E-03 8.96105E-16 1.71193E-13
 -1      2780 1.99987E+01 5.89793E-04-2.60089E-06 2.32558E-03 1.16071E-14 5.18558E-14
 -1      2781 2.00002E+01 1.64303E-03-2.24070E-05 1.60768E-03-1.80973E-15 1.36644E-13
 -1      2782 1.99986E+01 2.68171E-04 1.80573E-05 2.54016E-03 9.61207E-14 2.02272E-15
 -1      2783 1.99986E+01-6.33742E-07 2.37133E-07 2.64763E-03 1.55175E-13-7.96994E-14
 -1      2784 1.99998E+01 6.00361E-04-1.65847E-05 2.35310E-03-9.95287E-15-6.06001E-14
 -1      2785 1.99985E+01-1.98641E-04 9.00035E-06 2.69547E-03 1.64195E-13-1.17737E-13
 -1      2786 1.99986E+01-3.55522E-04 1.95289E-06 2.67726E-03 9.73921E-14 7.84106E-15
 -1      2787 1.99996E+01-6.71248E-05-1.19896E-05 2.65771E-03 9.39436E-14-1.98654E-14
 -1      2788 1.99985E+01-4.65960E-04 2.92769E-06 2.62162E-03 4.81369E-14 1.11884E-14
 -1      2789 1.99987E+01-5.45141E-04 2.86546E-06 2.52899E-03 1.79163E-14 4.57273E-14
 -1      2790 1.99994E+01-4.63974E-04-8.42460E-06 2.67679E-03 1.52631E-13-1.14132E-13
 -1      2791 1.99986E+01-5.95755E-04-9.37788E-07 2.41475E-03-1.38091E-14 1.28162E-13
 -1      2792 1.99988E+01-6.23239E-04 3.22217E-06 2.28338E-03 8.38292E-14 1.58428E-13
 -1      2793 1.99994E+01-6.71789E-04-5.70952E-06 2.52276E-03 3.58207E-14 1.13055E-13
 -1      2794 1.99988E+01-6.34944E-04-3.20955E-06 2.14129E-03 2.12513E-13 7.49008E-14
 -1      2795 1.99989E+01-6.30112E-04 3.20546E-06 1.99500E-03 1.52575E-13 3.06472E-14
 -1      2796 1.99994E+01-7.52832E-04-3.68425E-06 2.27454E-03 1.20257E-13 7.48613E-14
 -1      2797 1.99989E+01-6.18410E-04-4.36168E-06 1.84514E-03-5.39460E-14 9.46987E-14
 -1      2798 1.99991E+01-5.95490E-04 2.94031E-06 1.69888E-03-1.30923E-13 1.45212E-13
 -1      2799 1.99994E+01-7.53702E-04-2.21525E-06 1.98545E-03 3.26773E-14-1.20725E-13
 -1      2800 1.99991E+01-5.71730E-04-4.75080E-06 1.55343E-03-1.88466E-13 4.10092E-13
 -1      2801 1.99992E+01-5.40998E-04 2.53082E-06 1.41562E-03-3.08698E-14 3.35953E-13
 -1      2802 1.99994E+01-7.08751E-04-1.19879E-06 1.68962E-03 8.24875E-14-7.11245E-15
 -1      2803 1.99992E+01-5.13303E-04-4.61525E-06 1.28102E-03-5.53116E-14 4.28544E-13
 -1      2804 1.99993E+01-4.82019E-04 2.10309E-06 1.15546E-03-7.34424E-15 3.99045E-13
 -1      2805 1.99995E+01-6.42840E-04-5.45591E-07 1.40694E-03-1.23205E-14 3.42238E-13
 -1      2806 1.99994E+01-4.55955E-04-3.84809E-06 1.03472E-03 1.91092E-14 5.39841E-13
 -1      2807 1.99995E+01-4.31094E-04 1.43715E-06 9.22694E-04 1.44328E-14 4.56924E-13
 -1      2808 1.99995E+01-5.73764E-04-2.16528E-07 1.14787E-03 2.59506E-14 4.45884E-13
 -1      2809 1.99995E+01-4.15524E-04-4.08241E-06 8.29545E-04 6.10998E-14 3.17306E-13
 -1      2810 1.99995E+01-3.94801E-04 6.28932E-07 7.26840E-04 2.79502E-13 2.59405E-13
 -1      2811 1.99996E+01-4.72121E-04 3.71193E-06 7.52994E-04 3.75687E-13 7.11332E-13
 -1      2812 1.99996E+01-5.20502E-04-1.11400E-06 9.32558E-04 2.62210E-14 5.96077E-13
 -1      2813 2.89752E+01 4.93309E+00-2.10996E-01-1.83379E+00-5.51115E-13-4.24105E-14
 -1      2814 2.93537E+01 3.45136E+00-5.14574E-02-1.78204E+00-4.80865E-13 8.55427E-14
 -1      2815 3.09471E+01 3.28118E+00-3.05228E-01-2.65041E+00 5.95801E-13 1.94483E-13
 -1      2816 2.34669E+01-2.53523E+00 1.00969E-01 3.45421E+00-1.21510E-13-3.84921E-13
 -1      2817 2.48028E+01-3.69984E+00 2.78460E-02 2.90579E+00-3.33900E-14-3.95774E-13
 -1      2818 2.06137E+01 7.76660E-01-4.78165E-03 2.55146E+00-2.28759E-13-9.76707E-14
 -1      2819 2.08551E+01 6.48328E-01 1.65791E-02 2.77490E+00-3.10053E-13-1.44148E-13
 -1      2820 2.05690E+01 8.17560E-01-7.44430E-03 2.03538E+00-1.47961E-13-7.12928E-14
 -1      2821 2.07345E+01 8.28080E-01 1.13501E-02 2.27006E+00-1.81194E-13-4.10256E-14
 -1      2822 1.96776E+01 1.02315E+00 7.04101E-03 2.44039E+00-2.38743E-13-2.27578E-13
 -1      2823 2.05411E+01 7.16976E-01-6.60935E-03 1.58670E+00-4.03179E-14-2.62491E-15
 -1      2824 2.06749E+01 7.80373E-01 9.55392E-03 1.79864E+00-1.17944E-13-6.44271E-14
 -1      2825 1.99029E+01 1.00630E+00 7.87813E-03 1.93324E+00-1.48252E-13-1.38610E-13
 -1      2826 2.04963E+01 5.77777E-01-5.09667E-03 1.21580E+00-4.01157E-14 8.09417E-15
 -1      2827 2.06117E+01 6.51672E-01 8.35283E-03 1.39272E+00 2.53599E-14 5.36646E-14
 -1      2828 2.00626E+01 8.61538E-01 6.51087E-03 1.51209E+00-4.67491E-14-3.81310E-14
 -1      2829 2.04348E+01 4.45193E-01-3.67252E-03 9.19519E-01-1.76920E-14 7.99848E-15
 -1      2830 2.05344E+01 5.12005E-01 7.11895E-03 1.06046E+00-6.15022E-14 9.45722E-16
 -1      2831 2.01523E+01 6.88190E-01 4.51326E-03 1.16792E+00 1.75300E-14 5.85488E-14
 -1      2832 2.03655E+01 3.34635E-01-2.52918E-03 6.88360E-01 7.38499E-14 2.05793E-14
 -1      2833 2.04495E+01 3.89088E-01 5.87105E-03 7.97441E-01 5.03878E-14 3.15300E-15
 -1      2834 2.01884E+01 5.29060E-01 2.75146E-03 8.91865E-01 2.20089E-14-5.94049E-14
 -1      2835 2.02963E+01 2.47882E-01-1.83463E-03 5.10823E-01-6.73880E-15 2.54252E-14
 -1      2836 2.03656E+01 2.90196E-01 4.68986E-03 5.93780E-01 6.64983E-14 6.69535E-14
 -1      2837 2.01901E+01 3.97992E-01 1.48471E-03 6.74191E-01 6.81482E-14-1.00531E-13
 -1      2838 2.02303E+01 1.79580E-01-1.20230E-03 3.70236E-01 1.36293E-13-5.16796E-15
 -1      2839 2.02877E+01 2.12359E-01 3.62871E-03 4.34938E-01 4.02398E-14-4.63932E-14
 -1      2840 2.01725E+01 2.93894E-01 8.35178E-04 5.01552E-01 5.17323E-14-6.33924E-14
 -1      2841 2.01767E+01 1.31626E-01-7.06691E-04 2.70243E-01 5.79456E-14 1.27104E-13
 -1      2842 2.02197E+01 1.54920E-01 2.82934E-03 3.16088E-01 1.56621E-13 1.03378E-13
 -1      2843 2.01459E+01 2.14672E-01 1.11591E-04 3.69153E-01 7.50109E-14-1.03803E-13
 -1      2844 2.01320E+01 9.61208E-02-4.44739E-04 1.95319E-01-8.50053E-14 2.83717E-13
 -1      2845 2.01651E+01 1.13292E-01 2.15020E-03 2.29312E-01-3.76788E-14 1.78546E-13
 -1      2846 2.01184E+01 1.57593E-01-1.51887E-04 2.71270E-01-1.45135E-14 3.63043E-14
 -1      2847 2.00962E+01 6.99541E-02-2.75823E-04 1.39526E-01-2.30658E-14 2.72868E-13
 -1      2848 2.01213E+01 8.26075E-02 1.62729E-03 1.64625E-01-1.61385E-14 2.76815E-13
 -1      2849 2.00927E+01 1.15296E-01-2.67769E-04 1.97206E-01-1.39166E-14 5.27681E-14
 -1      2850 2.00683E+01 5.06786E-02-1.67714E-04 9.82260E-02 2.57636E-13 2.52750E-13
 -1      2851 2.00870E+01 6.00035E-02 1.22294E-03 1.16657E-01 5.96644E-14 2.63123E-13
 -1      2852 2.00703E+01 8.40269E-02-3.01182E-04 1.41557E-01 2.98270E-14 4.36985E-14
 -1      2853 2.00470E+01 3.64720E-02-9.96585E-05 6.78672E-02 1.58475E-13 3.76203E-13
 -1      2854 2.00607E+01 4.33461E-02 9.12244E-04 8.13101E-02 3.44697E-13 3.77447E-13
 -1      2855 2.00518E+01 6.09231E-02-2.90291E-04 1.00049E-01 1.78949E-13 1.64414E-13
 -1      2856 2.00311E+01 2.60027E-02-5.73732E-05 4.57462E-02-4.63589E-14 4.06595E-13
 -1      2857 2.00410E+01 3.10670E-02 6.74972E-04 5.54649E-02-3.30606E-15 3.70960E-13
 -1      2858 2.00371E+01 4.38529E-02-2.58202E-04 6.93482E-02 1.00036E-13 3.95323E-13
 -1      2859 2.00196E+01 1.83000E-02-3.14410E-05 2.98065E-02-4.29634E-14 3.97541E-13
 -1      2860 2.00266E+01 2.20226E-02 4.94761E-04 3.67521E-02-4.55623E-15 3.91735E-13
 -1      2861 2.00257E+01 3.12501E-02-2.18363E-04 4.68654E-02-4.83010E-14 3.51233E-13
 -1      2862 2.00114E+01 1.26544E-02-1.57861E-05 1.84837E-02 1.21233E-13 2.77908E-13
 -1      2863 2.00162E+01 1.53782E-02 3.58605E-04 2.33730E-02 1.44630E-13 4.20313E-13
 -1      2864 2.00171E+01 2.19670E-02-1.78190E-04 3.06006E-02 1.21741E-13 3.46340E-13
 -1      2865 2.00057E+01 8.54316E-03-6.53230E-06 1.05870E-02 1.09165E-14 2.20393E-13
 -1      2866 2.00089E+01 1.05216E-02 2.56334E-04 1.39612E-02 6.54798E-14 2.24433E-13
 -1      2867 2.00108E+01 1.51595E-02-1.41430E-04 1.90109E-02 2.14938E-13 3.48804E-13
 -1      2868 2.00019E+01 5.57777E-03-1.22894E-06 5.21092E-03-9.44900E-14 7.18563E-15
 -1      2869 2.00040E+01 6.99969E-03 1.80060E-04 7.47837E-03-1.29431E-14 4.43228E-14
 -1      2870 2.00063E+01 1.02030E-02-1.09666E-04 1.09086E-02 1.08748E-13 1.99357E-13
 -1      2871 1.99995E+01 3.46714E-03 1.67146E-06 1.66844E-03-6.24826E-14 5.51295E-14
 -1      2872 2.00007E+01 4.47437E-03 1.23679E-04 3.13696E-03-1.90319E-13 1.05936E-15
 -1      2873 2.00031E+01 6.63099E-03-8.32610E-05 5.38227E-03-1.31263E-13 1.43088E-13
 -1      2874 1.99981E+01 1.99122E-03 2.91504E-06-5.59548E-04-4.22643E-15 2.68723E-13
 -1      2875 1.99988E+01 2.69125E-03 8.24672E-05 3.41119E-04-4.69328E-14 6.97098E-14
 -1      2876 2.00011E+01 4.09242E-03-6.19480E-05 1.73536E-03-6.12651E-14 1.42883E-13
 -1      2877 1.99974E+01 9.80997E-04 2.27484E-06-1.86367E-03 5.63594E-15 4.38672E-13
 -1      2878 1.99976E+01 1.45952E-03 5.32413E-05-1.35697E-03 8.17638E-14 3.48752E-13
 -1      2879 1.99997E+01 2.32085E-03-4.51946E-05-5.61116E-04 2.01849E-15 2.85515E-13
 -1      2880 1.99971E+01 2.89397E-04 2.42619E-06-2.55161E-03 1.43469E-13 3.80314E-13
 -1      2881 1.99971E+01 6.10953E-04 3.20797E-05-2.30982E-03 1.27055E-13 4.48784E-13
 -1      2882 1.99989E+01 1.10277E-03-2.98109E-05-1.92453E-03 4.16170E-14 2.38389E-13
 -1      2883 1.99971E+01-1.15470E-04 3.36287E-06-2.77741E-03 1.99436E-13 2.51113E-13
 -1      2884 1.99970E+01 7.24895E-05 1.69504E-05-2.72342E-03 1.67762E-13 3.92652E-13
 -1      2885 1.99985E+01 2.93531E-04-2.19721E-05-2.61694E-03 1.98692E-13 2.58251E-13
 -1      2886 1.99973E+01-3.52782E-04 3.18078E-06-2.74227E-03 2.19677E-13 3.82868E-13
 -1      2887 1.99971E+01-2.47793E-04 6.86308E-06-2.79503E-03 2.04215E-13 1.90864E-13
 -1      2888 1.99984E+01-1.88134E-04-1.46513E-05-2.85371E-03 1.34432E-13 2.53086E-13
 -1      2889 1.99976E+01-4.72680E-04 2.76855E-06-2.55218E-03 1.61971E-13 4.77389E-13
 -1      2890 1.99973E+01-4.23149E-04 6.15218E-07-2.66534E-03 1.72619E-13 2.97908E-13
 -1      2891 1.99984E+01-4.65437E-04-9.36660E-06-2.81971E-03 2.75692E-13 6.84728E-13
 -1      2892 1.99979E+01-5.14444E-04 2.35269E-06-2.28123E-03-7.59498E-14 4.77942E-13
 -1      2893 1.99976E+01-5.01247E-04-3.16449E-06-2.42340E-03 9.68439E-14 4.40270E-13
 -1      2894 1.99985E+01-6.01975E-04-5.60890E-06-2.62559E-03 9.64509E-14 5.18464E-13
 -1      2895 1.99982E+01-5.07079E-04 1.93982E-06-1.97891E-03-3.15332E-13 3.01317E-13
 -1      2896 1.99980E+01-5.16261E-04-5.23421E-06-2.12954E-03-2.46940E-13 3.39819E-13
 -1      2897 1.99986E+01-6.45593E-04-2.99010E-06-2.34781E-03-7.34318E-14 1.75237E-13
 -1      2898 1.99985E+01-4.71682E-04 1.53479E-06-1.67647E-03-4.79036E-13 2.03848E-14
 -1      2899 1.99983E+01-4.93116E-04-6.13867E-06-1.82296E-03-3.74821E-13 1.13531E-13
 -1      2900 1.99988E+01-6.31382E-04-1.22121E-06-2.03733E-03-2.63542E-13 8.77121E-14
 -1      2901 1.99988E+01-4.23576E-04 1.12031E-06-1.39189E-03-3.50796E-13-3.81674E-14
 -1      2902 1.99986E+01-4.49908E-04-6.27594E-06-1.52740E-03-4.53243E-13-2.02946E-14
 -1      2903 1.99990E+01-5.84853E-04-7.89320E-08-1.72630E-03-4.29327E-13 3.41772E-14
 -1      2904 1.99990E+01-3.73906E-04 7.08632E-07-1.13343E-03-3.61155E-13 9.37320E-14
 -1      2905 1.99989E+01-3.99843E-04-5.93661E-06-1.25536E-03-4.75262E-13-8.68064E-14
 -1      2906 1.99991E+01-5.24590E-04 5.85860E-07-1.43317E-03-4.05942E-13-2.20532E-15
 -1      2907 1.99992E+01-3.30514E-04 3.58376E-07-9.02669E-04-8.90712E-14 3.10551E-13
 -1      2908 1.99991E+01-3.52309E-04-5.29851E-06-1.01121E-03-1.75119E-13 2.70810E-13
 -1      2909 1.99993E+01-4.63679E-04 9.84774E-07-1.16633E-03-3.39659E-13 1.10160E-13
 -1      2910 1.99994E+01-2.99233E-04-2.28092E-07-6.97670E-04 2.27588E-13 1.51545E-13
 -1      2911 1.99993E+01-3.13150E-04-4.05178E-06-7.94155E-04 1.62315E-13 2.65558E-13
 -1      2912 1.99994E+01-4.11353E-04 1.14635E-06-9.27694E-04 9.19724E-14 1.18764E-13
 -1      2913 1.99995E+01-2.75714E-04-1.65726E-06-5.25082E-04 1.42473E-14 1.89053E-13
 -1      2914 1.99994E+01-2.82500E-04-3.30419E-06-6.13774E-04 2.39186E-13 5.78501E-14
 -1      2915 1.99995E+01-3.71359E-04-5.36381E-07-7.31613E-04 2.03055E-13 8.24477E-14
 -1      2916 1.99996E+01-3.33903E-04-5.23860E-07-5.66400E-04 8.88679E-14-2.42711E-14
 -1      2917 2.00002E+01-1.04348E-03 2.47560E-06-5.84188E-05 1.08177E-13 8.41636E-14
 -1      2918 2.00002E+01-1.03091E-03 1.33397E-06-1.62180E-04 3.30243E-13 7.00724E-14
 -1      2919 2.66928E+01-1.88442E+00-1.36671E-01 2.15564E+00-1.85962E-15 1.81327E-13
 -1      2920 2.45908E+01-2.35706E+00 6.60038E-02 3.64701E+00 1.72987E-13 1.65076E-13
 -1      2921 2.00001E+01-9.03693E-04 3.81254E-06-4.60925E-04 5.71097E-13-1.75132E-13
 -1      2922 2.00000E+01-8.44199E-04-1.04011E-06-5.26743E-04 5.80139E-13-1.15178E-13
 -1      2923 2.00002E+01-1.02936E-03 1.37909E-06 1.66828E-04-2.86374E-14-2.20276E-13
 -1      2924 2.00002E+01-1.04293E-03 2.48797E-06 6.32607E-05 3.42609E-14-1.43042E-13
 -1      2925 2.00003E+01-1.07644E-03-3.37886E-06 2.88959E-06 2.10549E-13-1.14427E-13
 -1      2926 2.00002E+01-1.00014E-03 3.36039E-06-2.76561E-04 3.91258E-13-6.56481E-14
 -1      2927 2.00001E+01-9.62581E-04 1.58241E-07-3.67342E-04 5.32003E-13-9.55246E-14
 -1      2928 2.00002E+01-9.64028E-04-2.78810E-06-4.61451E-04 5.31576E-13-1.68593E-13
 -1      2929 2.00003E+01-1.04809E-03-3.27872E-06-2.44197E-04 4.86478E-13-1.26066E-13
 -1      2930 2.21565E+01 1.18060E+00-2.08923E-02-2.36994E+00-1.51397E-13-4.65299E-13
 -1      2931 2.20290E+01 9.01668E-01-4.60234E-03-2.19051E+00-1.55146E-13-4.32359E-13
 -1      2932 2.00001E+01-9.60998E-04 5.53704E-08 3.67970E-04-3.57792E-14-4.97647E-13
 -1      2933 2.00002E+01-9.98247E-04 3.36420E-06 2.79029E-04 5.31605E-14-4.04066E-13
 -1      2934 2.00003E+01-1.04645E-03-3.22854E-06 2.47537E-04 3.60340E-14-3.80191E-13
 -1      2935 2.00000E+01-8.42817E-04-1.47546E-06 5.26553E-04 1.55227E-13-1.17770E-13
 -1      2936 2.00001E+01-9.01079E-04 3.90653E-06 4.60710E-04 6.62260E-14-2.55496E-13
 -1      2937 2.00002E+01-9.60996E-04-2.71163E-06 4.62343E-04 2.12290E-13-3.95182E-13
 -1      2938 1.99999E+01-6.87691E-04-3.48883E-06 6.21288E-04 2.62229E-13 2.43074E-13
 -1      2939 1.99999E+01-7.59329E-04 4.91999E-06 5.85333E-04 2.33601E-13 9.49697E-14
 -1      2940 2.00000E+01-8.26250E-04-1.93310E-06 6.22637E-04 3.60190E-13 1.00521E-13
 -1      2941 1.99997E+01-5.37971E-04 2.92669E-06 6.13879E-04 4.00782E-13 5.00934E-13
 -1      2942 2.89673E+01-1.41850E+00-2.04762E-02-6.66663E-01 1.44995E-13-2.97123E-13
 -1      2943 2.98294E+01 2.89439E-01-1.83458E-01 2.85526E-01-5.02307E-14-3.66318E-13
 -1      2944 2.21776E+01 1.84471E+00-3.25088E-03-2.28049E+00-5.63868E-14-5.21248E-13
 -1      2945 7.82394E+00 1.19316E+00 9.50585E-02 5.56258E+00 5.77177E-13-4.95687E-13
 -1      2946 5.96672E+00 1.84137E+00 1.62172E-01 3.64416E+00 5.41858E-13-5.88751E-13
 -1      2947 3.02936E+01 2.97650E+00-7.99140E-02 1.07414E+00-1.78135E-13-3.18578E-13
 -1      2948 3.04260E+01 5.09413E+00-1.96437E-01 1.17040E+00-2.32009E-13-2.54560E-13
 -1      2949 6.16736E+00-1.55605E-01 1.51563E-01-3.02768E-01-1.18021E-13 6.45400E-13
 -1      2950 6.36165E+00-2.85878E-01 1.59513E-01-2.28195E+00-3.54716E-14 6.49036E-13
 -1      2951 2.08006E+01 3.97447E-01 9.75436E-03 3.09521E+00-3.43186E-13-1.82708E-13
 -1      2952 2.12111E+01-2.42358E-02 2.34089E-02 3.24050E+00-2.23625E-13-2.58221E-13
 -1      2953 1.94576E+01 7.13534E-01 2.18354E-03 3.04409E+00-3.28722E-13-1.91438E-13
 -1      2954 2.96811E+01-4.42128E+00 8.65562E-02-2.57440E-01-1.19904E-13 7.08045E-14
 -1      2955 3.07303E+01-3.64059E+00-1.37752E-01 1.29540E+00-6.90316E-14 2.00243E-13
 -1      2956 2.14395E+01-5.99044E-01 5.18185E-02 3.52628E+00-1.64075E-13-3.22810E-13
 -1      2957 2.21531E+01-1.47851E+00 2.94129E-02 3.48659E+00-1.41765E-13-3.64742E-13
 -1      2958 1.94952E+01-2.78457E-01-1.31047E-02 3.73120E+00-2.34285E-13-2.62259E-13
 -1      2959 2.75921E+01-4.85472E+00 1.07605E-02 2.02985E+00 1.56555E-13-4.28935E-13
 -1      2960 7.40466E+00-8.20198E-01 1.84207E-01-3.99062E+00 4.28407E-14 6.37518E-13
 -1      2961 9.34659E+00-1.67192E+00 6.57191E-02-5.77810E+00 1.57430E-13 5.82034E-13
 -1      2962 8.38459E+00 1.42678E-03 1.86396E-01-3.01490E+00 1.43149E-14 6.14619E-13
 -1      2963 2.54861E+01-4.28352E+00 8.39860E-02-3.81044E+00 4.83363E-13-1.81244E-14
 -1      2964 2.75028E+01-3.42708E+00-1.33317E-01-2.33945E+00 3.42483E-13-1.57041E-13
 -1      2965 2.19965E+01 7.16657E-01-4.58327E-03-2.13079E+00-1.48253E-13-3.87382E-13
 -1      2966 2.18010E+01 6.56218E-01-1.74429E-03-1.96174E+00-1.49047E-13-3.76680E-13
 -1      2967 2.21578E+01 8.22028E-01 1.17154E-03-2.05357E+00-1.36767E-13-3.08555E-13
 -1      2968 2.23269E+01 9.02583E-01 4.59786E-03-2.21945E+00-1.18721E-13-3.80650E-13
 -1      2969 3.15729E+01-2.04759E+00 4.39336E-02 3.15530E+00-5.85018E-14 5.23720E-13
 -1      2970 1.85569E+01 4.89857E-01-2.97839E-02-2.50808E+00 1.47708E-13-1.17704E-13
 -1      2971 9.44314E+00 4.03405E+00 3.70605E-02 2.73544E+00 5.99911E-13-4.34097E-13
 -1      2972 1.04068E+01 3.68173E+00 1.22217E-01 3.78796E+00 6.44382E-13-4.21815E-13
 -1      2973 2.89634E+01 1.13901E+00-1.98804E-01-8.18102E-01-3.47618E-13 1.80023E-13
 -1      2974 2.83045E+01-4.77672E-01 4.51724E-03 4.76913E-01-1.54567E-13 1.97911E-13
 -1      2975 2.69688E+01-1.13764E+00 2.45529E-03 7.29823E-01 1.28283E-14 1.54966E-13
 -1      2976 2.29006E+01 6.76962E-01 1.23082E-02-5.54571E-01 2.06500E-13-2.97348E-13
 -1      2977 2.29286E+01 8.00488E-01-3.50379E-02-1.09803E+00 1.39898E-13-3.72532E-13
 -1      2978 3.00199E+01 6.50470E+00-1.06236E-01 1.00240E+00-3.26683E-13-3.13957E-13
 -1      2979 2.89293E+01 7.12440E+00-1.72471E-01 4.87071E-01-4.55525E-13-3.65676E-13
 -1      2980 8.16406E+00 1.01026E+00 1.27246E-01-2.28567E+00 2.58411E-13-6.23002E-13
 -1      2981 1.11130E+01-6.23886E-01 1.41736E-01-4.06061E+00 1.73583E-13-5.79287E-13
 -1      2982 1.90190E+01-4.40211E+00 1.31518E-01-6.69144E+00 4.89081E-13 3.08933E-13
 -1      2983 2.21841E+01-4.89307E+00-8.84000E-02-5.81426E+00 4.85181E-13 1.54505E-13
 -1      2984 1.83975E+01-3.67947E+00 1.21103E-01-6.33508E+00 4.17402E-13 3.28008E-13
 -1      2985 2.15823E+01-2.59571E+00-6.70285E-02 5.43591E+00 3.17191E-13 6.51233E-14
 -1      2986 1.84750E+01-1.87142E+00 1.30111E-01 6.27683E+00 4.59063E-13-5.40887E-14
 -1      2987 2.67778E+01-4.77078E+00-6.49913E-02-2.06590E+00-9.28979E-14-5.27217E-14
 -1      2988 2.74028E+01-4.25226E+00-1.02020E-02-1.18396E+00-1.27592E-13 8.99142E-14
 -1      2989 2.60428E+01-3.39968E+00 1.63593E-01-1.96632E+00-1.27447E-13 1.20751E-13
 -1      2990 2.38553E+01-4.34517E+00 1.60967E-01-3.40767E+00-1.15630E-13-1.93665E-13
 -1      2991 2.28729E+01 1.06559E+00 4.71931E-03-1.53532E+00 9.05745E-14-4.02069E-13
 -1      2992 2.27098E+01 1.18944E+00-2.42142E-02-1.88095E+00 1.89498E-14-4.49978E-13
 -1      2993 2.33155E+01 6.73062E-01 2.06127E-02-1.49014E+00 8.54507E-14-3.26275E-13
 -1      2994 2.01183E+01-3.21932E-01 1.70693E-02 3.64577E+00 4.69978E-13-9.52675E-14
 -1      2995 2.02252E+01 3.50486E-01 1.98447E-02 2.85649E+00 4.56668E-13-1.50403E-13
 -1      2996 2.13943E+01 1.35423E-01-5.54459E-03 2.01106E+00 3.90065E-13-1.76185E-13
 -1      2997 1.08271E+01 2.55293E+00 1.16683E-01-1.37959E+00 3.47146E-13-4.78631E-13
 -1      2998 1.08300E+01 2.48370E+00 9.80983E-02 4.80892E+00 6.60957E-13-3.99181E-13
 -1      2999 2.91113E+01 1.46453E+00-7.88444E-02 1.16492E+00-2.04003E-14-3.67040E-13
 -1      3000 2.76234E+01 6.68509E+00-1.56950E-01-1.01578E-01-4.89817E-13-3.94229E-13
 -1      3001 2.62081E+01 6.04467E+00-8.44457E-02-5.51593E-01-4.62561E-13-4.26701E-13
 -1      3002 2.66556E+01 6.10647E+00-1.11520E-01 5.72189E-01-4.09520E-13-4.52924E-13
 -1      3003 1.23674E+01-1.69361E+00 1.43697E-01-5.90555E+00 2.49009E-13 4.83127E-13
 -1      3004 2.75432E+01 5.16707E+00-1.00403E-01-1.77609E+00-4.75314E-13-2.01845E-13
 -1      3005 1.46331E+01-1.61776E+00-1.11414E-03 4.98878E+00-2.30704E-13-1.41553E-13
 -1      3006 1.24508E+01-1.84195E+00 8.84341E-02 5.11575E+00-2.85452E-13 1.31284E-14
 -1      3007 1.14126E+01-6.19752E-01 1.40995E-01 4.04169E+00-3.34413E-13 1.87350E-13
 -1      3008 2.81874E+01 1.87963E+00-6.88561E-02-1.52919E+00-3.08857E-13 1.14270E-13
 -1      3009 2.22401E+01 3.06205E-01 2.34135E-02 9.40039E-01 3.23522E-13-1.88044E-13
 -1      3010 2.26744E+01 3.41806E-01-3.00959E-02 1.88744E-01 2.55223E-13-2.46109E-13
 -1      3011 2.33813E+01 1.31038E-01 6.41690E-03-3.84075E-01 1.88579E-13-2.16630E-13
 -1      3012 9.20402E+00 9.54656E-02 1.01450E-01 2.54497E+00-2.80338E-13 4.46393E-13
 -1      3013 7.48540E+00 1.03161E-01 1.98893E-01 1.11154E+00-1.92898E-13 5.64243E-13
 -1      3014 8.61125E+00 7.28942E-01 1.70998E-01 2.80228E-01-1.90145E-13 5.50282E-13
 -1      3015 2.24444E+01 1.34184E+00 5.63673E-03-2.15077E+00-3.69843E-14-4.86311E-13
 -1      3016 2.06410E+01-2.15346E+00-3.33845E-02 4.19925E+00-1.19849E-13-3.73750E-13
 -1      3017 1.69298E+01-1.48533E-01 4.48175E-02-3.21373E+00 1.20903E-13-2.70770E-13
 -1      3018 1.99996E+01-3.95418E-04 1.40510E-06-5.91741E-04 1.44903E-13-4.18529E-13
 -1      3019 2.26653E+01-2.93801E+00-2.54837E-02-3.01441E+00-6.41986E-14-7.17204E-14
 -1      3020 2.32712E+01-2.12806E+00 4.82881E-02 3.82276E+00 3.15956E-13 9.31304E-14
 -1      3021 2.00000E+01-8.31970E-04-2.97502E-06-6.22658E-04 5.50680E-13 1.47601E-13
 -1      3022 1.99999E+01-7.62496E-04 3.99605E-06-5.86510E-04 4.57525E-13 9.92457E-14
 -1      3023 1.99999E+01-6.88414E-04-2.44804E-06-6.18150E-04 2.14323E-13-9.45525E-14
 -1      3024 1.99998E+01-5.89567E-04 4.16156E-06-6.34480E-04 1.64814E-13-3.22930E-13
 -1      3025 1.99997E+01-5.07918E-04-2.83873E-06-6.27982E-04 2.19590E-13-4.86767E-13
 -1      3026 1.99998E+01-6.61699E-04-3.12606E-06-7.06457E-04 2.08853E-13-2.61652E-13
 -1      3027 1.99998E+01-6.07047E-04-1.04450E-06 6.87870E-04 3.57716E-13 4.88633E-13
 -1      3028 2.77407E+01-2.50786E+00-2.78943E-02-9.25279E-01 2.90433E-13-3.04770E-13
 -1      3029 1.76460E+01-1.22502E+00 1.10667E-01 6.14387E+00 5.24608E-13-1.11060E-13
 -1      3030 1.49180E+01-1.29729E+00 1.41054E-02 7.12977E+00 5.14214E-13-1.75332E-13
 -1      3031 1.15382E+01-1.59117E-01 1.69700E-01 6.78154E+00 5.63743E-13-3.36564E-13
 -1      3032 7.42702E+00 2.72267E+00 1.57969E-01 3.17253E+00 5.77576E-13-5.47673E-13
 -1      3033 5.67050E+00 2.26835E+00 2.01883E-01 2.36074E+00 4.90261E-13-6.11816E-13
 -1      3034 2.86504E+01 5.05180E+00-1.15095E-01 1.34836E+00-2.62262E-13-3.34198E-13
 -1      3035 2.03799E+01-3.96872E+00 1.56037E-01 5.11812E+00-1.08039E-13-4.57745E-13
 -1      3036 1.94218E+01-3.02104E+00 8.78564E-02 4.98217E+00-1.73334E-13-4.00242E-13
 -1      3037 2.28162E+01-4.38785E+00-5.77845E-02 4.21602E+00-5.48173E-14-5.20847E-13
 -1      3038 2.58262E+01-4.29412E+00 1.11435E-01 2.73426E+00 1.55431E-14-4.69454E-13
 -1      3039 1.99996E+01-4.59741E-04 3.64556E-08-6.89696E-04 2.07490E-13-3.74405E-13
 -1      3040 6.21924E+00 2.16443E+00 1.64415E-01 4.20649E-01 4.14035E-13-6.29302E-13
 -1      3041 2.40141E+01-4.34270E+00 5.43930E-02-4.24436E+00 4.84807E-13 7.35523E-15
 -1      3042 2.17329E+01-3.61922E+00 4.99805E-02-3.76470E+00-6.29219E-14-2.31419E-13
 -1      3043 1.43387E+01-1.11187E+00 8.07930E-02-4.05805E+00 1.08732E-13-4.74717E-13
 -1      3044 7.83875E+00 3.36512E+00 1.16991E-01 9.96499E-01 5.05845E-13-5.38000E-13
 -1      3045 7.45969E+00 2.36765E+00 2.01185E-01-5.44905E-01 3.86403E-13-6.06626E-13
 -1      3046 8.87882E+00 3.90696E+00 1.38096E-01 1.93721E+00 5.56291E-13-4.81365E-13
 -1      3047 2.20185E+01 1.66495E+00-1.32284E-02-1.46631E+00-1.33966E-13-3.01232E-13
 -1      3048 2.18782E+01 1.92468E+00 1.14583E-02-1.09895E+00-1.25403E-13-2.95605E-13
 -1      3049 2.17190E+01 2.09044E+00-2.32001E-03-6.07536E-01-1.58576E-13-3.04535E-13
 -1      3050 2.16450E+01 2.12693E+00 1.89247E-03-1.52956E-01-1.81528E-13-3.59566E-13
 -1      3051 2.22722E+01 2.36700E+00-6.50734E-03-9.74899E-01-1.64439E-13-3.13537E-13
 -1      3052 2.16444E+01 2.01665E+00 9.56439E-03 3.82132E-01-1.80021E-13-3.87908E-13
 -1      3053 2.16552E+01 1.75601E+00-1.31984E-02 7.83635E-01-1.78153E-13-3.80967E-13
 -1      3054 2.21156E+01 2.45062E+00-7.47946E-03 1.01892E-01-2.03524E-13-3.98160E-13
 -1      3055 2.17905E+01 1.39442E+00 1.55836E-02 1.15492E+00-1.46977E-13-3.74904E-13
 -1      3056 2.18474E+01 9.51382E-01-2.07178E-02 1.37960E+00-9.70680E-14-3.50775E-13
 -1      3057 2.22241E+01 1.85178E+00-4.35242E-03 1.04917E+00-1.60766E-13-4.31618E-13
 -1      3058 2.19854E+01 5.03494E-01 1.20435E-02 1.48776E+00-3.87069E-14-2.90726E-13
 -1      3059 2.20363E+01 6.41779E-02-1.71132E-02 1.50635E+00 1.21860E-14-2.80599E-13
 -1      3060 2.24460E+01 8.44505E-01 5.99719E-03 1.52466E+00-4.00222E-14-3.12194E-13
 -1      3061 2.20580E+01-2.99913E-01 3.40408E-03 1.38704E+00 1.07791E-14-2.64667E-13
 -1      3062 2.20619E+01-5.97123E-01-7.39054E-03 1.25831E+00 4.77962E-14-2.50404E-13
 -1      3063 2.25466E+01-1.56062E-01 1.10124E-02 1.47354E+00 2.83036E-14-3.27773E-13
 -1      3064 2.19464E+01-8.00335E-01-3.68121E-03 1.02712E+00 3.63298E-14-1.98541E-13
 -1      3065 2.18932E+01-9.23293E-01 1.15822E-03 8.34347E-01 3.57297E-14-2.08025E-13
 -1      3066 2.24055E+01-8.35489E-01 8.28656E-03 1.08252E+00 6.17256E-14-2.29281E-13
 -1      3067 2.16881E+01-9.74267E-01-6.74387E-03 5.94659E-01 2.84646E-14-1.50780E-13
 -1      3068 2.15931E+01-9.62084E-01 6.01761E-03 4.03500E-01 7.50123E-14-1.27243E-13
 -1      3069 2.20617E+01-1.12015E+00 1.36630E-03 5.91480E-01 6.47403E-14-9.49409E-14
 -1      3070 2.13608E+01-9.11508E-01-6.45109E-03 2.11177E-01 5.42896E-14-1.55756E-13
 -1      3071 2.12480E+01-8.23593E-01 7.68626E-03 5.65704E-02 1.18430E-13-1.71153E-13
 -1      3072 2.16245E+01-1.09467E+00-3.87030E-03 1.59095E-01 4.99991E-14-2.45348E-14
 -1      3073 2.10341E+01-7.25373E-01-4.66281E-03-7.29008E-02 1.09514E-13-2.25640E-13
 -1      3074 2.09237E+01-6.11777E-01 7.22393E-03-1.80829E-01 6.07250E-14-2.61960E-13
 -1      3075 2.11932E+01-8.95929E-01-6.08231E-03-1.51180E-01 6.75957E-14-1.95170E-13
 -1      3076 2.07499E+01-5.04717E-01-2.79594E-03-2.54053E-01 4.50719E-14-2.39267E-13
 -1      3077 2.06537E+01-3.96604E-01 5.77139E-03-3.18872E-01 1.05260E-15-2.41863E-13
 -1      3078 2.08256E+01-6.39167E-01-6.26588E-03-3.38638E-01 2.45181E-14-2.13122E-13
 -1      3079 2.05244E+01-3.02400E-01-1.34211E-03-3.49821E-01-3.55353E-14-2.26544E-13
 -1      3080 2.04467E+01-2.14547E-01 4.13229E-03-3.80599E-01-9.01724E-14-2.13404E-13
 -1      3081 2.05417E+01-3.95143E-01-5.36934E-03-4.28486E-01-2.51600E-15-2.26758E-13
 -1      3082 2.03570E+01-1.41891E-01-3.66851E-04-3.83253E-01-8.52911E-14-8.58298E-14
 -1      3083 2.02973E+01-7.82104E-02 2.68610E-03-3.89889E-01 7.81029E-15-4.20316E-14
 -1      3084 2.03381E+01-1.97121E-01-4.12095E-03-4.50592E-01 8.51798E-15-1.20523E-13
 -1      3085 2.02387E+01-2.78813E-02 2.20178E-04-3.75502E-01 5.69877E-14-2.98231E-14
 -1      3086 2.01944E+01 1.35786E-02 1.56320E-03-3.66631E-01 5.58166E-14-5.31025E-14
 -1      3087 2.02007E+01-5.36638E-02-2.93152E-03-4.30450E-01 2.27706E-14-4.06843E-14
 -1      3088 2.01584E+01 4.47072E-02 5.38007E-04-3.43343E-01 7.25692E-14-5.91760E-14
 -1      3089 2.01260E+01 6.83386E-02 7.67516E-04-3.25685E-01-1.09086E-14-2.89787E-14
 -1      3090 2.01130E+01 3.97881E-02-1.96465E-03-3.86991E-01 5.96449E-14-3.41622E-14
 -1      3091 2.01053E+01 8.47299E-02 6.82705E-04-2.98969E-01-1.08937E-13-3.28444E-15
 -1      3092 2.00818E+01 9.53738E-02 2.47221E-04-2.77356E-01-8.05046E-14-2.17216E-14
 -1      3093 2.00601E+01 9.31613E-02-1.24904E-03-3.33176E-01-1.85542E-14-2.12398E-14
 -1      3094 2.00709E+01 1.01425E-01 7.20355E-04-2.50659E-01-7.25184E-15-2.09387E-14
 -1      3095 2.00539E+01 1.03393E-01-6.41436E-05-2.28319E-01 1.37256E-13-5.23842E-14
 -1      3096 2.00302E+01 1.17324E-01-7.54940E-04-2.77322E-01-2.69721E-14 6.58899E-14
 -1      3097 2.00489E+01 1.02806E-01 6.94473E-04-2.03635E-01 1.70842E-13-1.09522E-13
 -1      3098 2.00364E+01 9.95137E-02-2.28380E-04-1.82555E-01 1.30833E-13-2.00271E-13
 -1      3099 2.00145E+01 1.21936E-01-4.33490E-04-2.24395E-01 1.28241E-13 1.31661E-14
 -1      3100 2.00347E+01 9.51104E-02 6.33380E-04-1.60883E-01 1.66921E-13-1.84486E-13
 -1      3101 2.00255E+01 8.90525E-02-2.95725E-04-1.42140E-01 1.92805E-13-1.33468E-13
 -1      3102 2.00071E+01 1.14656E-01-2.35936E-04-1.77055E-01 1.50405E-13-1.55399E-13
 -1      3103 2.00254E+01 8.28265E-02 5.55411E-04-1.23832E-01 1.53232E-13-1.97943E-13
 -1      3104 2.00185E+01 7.56940E-02-3.03790E-04-1.07880E-01 8.49652E-14-1.18057E-13
 -1      3105 2.00043E+01 1.01082E-01-1.21684E-04-1.36431E-01 1.09803E-13-1.86018E-13
 -1      3106 2.00192E+01 6.89544E-02 4.72320E-04-9.28887E-02 4.88519E-14-1.81576E-13
 -1      3107 2.00140E+01 6.18102E-02-2.79007E-04-7.97770E-02 8.23381E-14-1.66342E-13
 -1      3108 2.00037E+01 8.50222E-02-6.02361E-05-1.02687E-01 6.96278E-14-3.00149E-13
 -1      3109 2.00148E+01 5.53471E-02 3.91434E-04-6.78258E-02 1.42424E-13-1.46784E-13
 -1      3110 2.00108E+01 4.87953E-02-2.38904E-04-5.73654E-02 1.24776E-13-8.24427E-14
 -1      3111 2.00040E+01 6.88813E-02-3.02805E-05-7.54165E-02 9.33331E-14-1.98687E-13
 -1      3112 2.00115E+01 4.30313E-02 3.17050E-04-4.80684E-02 8.52291E-14-3.33181E-14
 -1      3113 2.00085E+01 3.73617E-02-1.94397E-04-3.99454E-02 3.07879E-14 4.24892E-15
 -1      3114 2.00044E+01 5.40350E-02-1.78056E-05-5.39103E-02 1.50078E-13-1.41424E-13
 -1      3115 2.00090E+01 3.24741E-02 2.51387E-04-3.28818E-02-6.96787E-14-5.42839E-14
 -1      3116 2.00067E+01 2.77743E-02-1.51756E-04-2.67354E-02-9.00318E-14 9.09000E-15
 -1      3117 2.00047E+01 4.11515E-02-1.41218E-05-3.73371E-02-1.80616E-14-2.10165E-13
 -1      3118 2.00070E+01 2.37878E-02 1.95254E-04-2.14957E-02-1.67672E-13-7.60326E-15
 -1      3119 2.00053E+01 2.00246E-02-1.14151E-04-1.69656E-02-2.06152E-13 8.05380E-14
 -1      3120 2.00047E+01 3.04415E-02-1.41766E-05-2.48538E-02-1.35812E-13-1.59610E-13
 -1      3121 2.00054E+01 1.68768E-02 1.48541E-04-1.31772E-02-2.04649E-13 1.41863E-13
 -1      3122 2.00041E+01 1.39531E-02-8.27946E-05-9.93174E-03-1.27102E-13 1.25693E-13
 -1      3123 2.00045E+01 2.18412E-02-1.52650E-05-1.56721E-02-1.56671E-13-3.17582E-14
 -1      3124 2.00041E+01 1.15386E-02 1.10578E-04-7.27112E-03-3.68478E-16 1.26916E-13
 -1      3125 2.00032E+01 9.33009E-03-5.77458E-05-5.02038E-03 8.52441E-14 2.60864E-13
 -1      3126 2.00041E+01 1.51390E-02-1.61121E-05-9.09253E-03-2.92581E-15-5.70323E-14
 -1      3127 2.00030E+01 7.52886E-03 8.03923E-05-3.21633E-03 5.21021E-14 3.59121E-13
 -1      3128 2.00024E+01 5.90648E-03-3.84447E-05-1.71693E-03-1.24974E-13 2.40329E-13
 -1      3129 2.00036E+01 1.00590E-02-1.62574E-05-4.51808E-03 4.48680E-14 3.82198E-14
 -1      3130 2.00022E+01 4.60054E-03 5.68848E-05-5.48475E-04-1.54301E-13 3.43660E-13
 -1      3131 2.00017E+01 3.44369E-03-2.40573E-05 3.97622E-04-4.13855E-14 2.77013E-13
 -1      3132 2.00031E+01 6.31308E-03-1.56640E-05-1.45466E-03-5.22996E-14 2.40030E-13
 -1      3133 2.00015E+01 2.52608E-03 3.89537E-05 1.10605E-03-8.09884E-14 1.93137E-13
 -1      3134 2.00012E+01 1.72886E-03-1.36828E-05 1.65567E-03-1.28625E-13 1.16304E-13
 -1      3135 2.00026E+01 3.63002E-03-1.44822E-05 4.96228E-04-1.67202E-13 2.10140E-13
 -1      3136 2.00010E+01 1.10765E-03 2.55657E-05 2.04041E-03-1.41160E-13 6.54149E-14
 -1      3137 2.00008E+01 5.81043E-04-6.46821E-06 2.31472E-03-4.92522E-14 9.98879E-14
 -1      3138 2.00021E+01 1.77071E-03-1.29183E-05 1.64853E-03-1.79506E-13 4.43668E-14
 -1      3139 2.00006E+01 1.80233E-04 1.57984E-05 2.47931E-03 2.40337E-14 5.64417E-14
 -1      3140 2.00005E+01-1.48064E-04-1.66507E-06 2.56970E-03 4.29061E-14-7.84583E-14
 -1      3141 2.00016E+01 5.33423E-04-1.11687E-05 2.24421E-03-1.26717E-13 2.09345E-13
 -1      3142 2.00003E+01-3.89417E-04 8.85744E-06 2.59102E-03 1.83151E-13-1.65265E-13
 -1      3143 2.00003E+01-5.76539E-04 1.35071E-06 2.56471E-03 9.29615E-14-1.31059E-13
 -1      3144 2.00012E+01-2.46279E-04-9.39095E-06 2.46571E-03 7.62394E-14 3.29281E-14
 -1      3145 2.00001E+01-7.06053E-04 4.07935E-06 2.49845E-03 1.06815E-13-8.19877E-14
 -1      3146 2.00001E+01-7.96087E-04 3.07965E-06 2.40359E-03 1.93128E-13 1.60848E-14
 -1      3147 2.00009E+01-6.98782E-04-7.69771E-06 2.44750E-03 1.85436E-13-1.27294E-13
 -1      3148 2.00000E+01-8.50157E-04 9.24309E-07 2.28894E-03 1.14183E-13 9.31442E-14
 -1      3149 2.00000E+01-8.76416E-04 3.91195E-06 2.15889E-03 4.49436E-14-6.22517E-14
 -1      3150 2.00006E+01-9.25029E-04-6.16093E-06 2.28615E-03 1.33010E-13-9.61876E-14
 -1      3151 1.99999E+01-8.82323E-04-1.03688E-06 2.02246E-03 1.31343E-14-6.68275E-14
 -1      3152 1.99999E+01-8.69540E-04 4.13860E-06 1.87937E-03 6.19070E-14-3.09620E-14
 -1      3153 2.00004E+01-1.00154E-03-4.81940E-06 2.04898E-03 1.02842E-13 8.63039E-14
 -1      3154 1.99998E+01-8.47447E-04-2.15050E-06 1.73841E-03 5.29943E-14-8.05693E-14
 -1      3155 1.99998E+01-8.13771E-04 3.96276E-06 1.59606E-03 1.33215E-13-3.33524E-14
 -1      3156 2.00002E+01-9.85293E-04-3.69421E-06 1.78114E-03 1.34065E-13 1.20728E-13
 -1      3157 1.99997E+01-7.78368E-04-2.69488E-06 1.46071E-03 1.69295E-13 4.36534E-14
 -1      3158 1.99998E+01-7.37035E-04 3.36015E-06 1.32689E-03 9.44904E-14 1.00491E-13
 -1      3159 2.00001E+01-9.18059E-04-2.76632E-06 1.51110E-03 1.97894E-13-5.55027E-14
 -1      3160 1.99997E+01-6.96759E-04-2.38214E-06 1.20133E-03 7.21925E-14 2.59837E-13
 -1      3161 1.99998E+01-6.57377E-04 3.47148E-06 1.08128E-03 1.91475E-13 4.05101E-13
 -1      3162 2.00000E+01-8.30347E-04-2.09150E-06 1.25459E-03 2.23184E-13 1.45527E-13
 -1      3163 1.92688E+01 1.13572E+00-1.35180E-02 1.64442E+00-1.27535E-13-1.36193E-13
 -1      3164 1.91754E+01 1.21565E+00 4.38969E-03 1.85526E+00-1.86253E-13-1.53756E-13
 -1      3165 1.87959E+01 1.25045E+00-1.72496E-02 2.07229E+00-2.23494E-13-1.97367E-13
 -1      3166 1.86875E+01 1.24724E+00 1.06094E-02 2.32379E+00-3.00708E-13-2.36833E-13
 -1      3167 1.82899E+01 1.45206E+00 1.88763E-02 1.75093E+00-2.42818E-13-2.40619E-13
 -1      3168 1.98123E+01 7.48916E-01-7.41852E-03 1.01695E+00 4.79098E-15 1.24497E-13
 -1      3169 1.97851E+01 8.48567E-01 2.68575E-03 1.16193E+00 4.89495E-14 1.32418E-13
 -1      3170 1.99399E+01 5.76984E-01-5.38055E-03 7.88089E-01 6.39998E-14 7.62996E-14
 -1      3171 1.99347E+01 6.61889E-01 2.58701E-03 9.05099E-01 5.43923E-15 1.12545E-13
 -1      3172 1.96079E+01 8.23858E-01 7.08764E-03 9.01140E-01 3.93872E-14 1.79500E-13
 -1      3173 2.00096E+01 4.36913E-01-3.96060E-03 6.04278E-01 7.53551E-14 8.16232E-15
 -1      3174 2.00176E+01 5.05111E-01 2.41362E-03 6.97207E-01 1.32752E-13 5.23448E-14
 -1      3175 1.97868E+01 6.35276E-01 4.65599E-03 7.09804E-01 1.06877E-13 1.70926E-13
 -1      3176 2.00440E+01 3.22846E-01-2.80884E-03 4.52221E-01 5.65824E-14-1.13044E-13
 -1      3177 2.00586E+01 3.77515E-01 2.12799E-03 5.27645E-01 4.02361E-14-8.67575E-14
 -1      3178 1.98981E+01 4.79518E-01 2.98311E-03 5.48860E-01 1.12604E-13 8.72880E-14
 -1      3179 2.00555E+01 2.40536E-01-1.91186E-03 3.39499E-01 2.31350E-14-3.20187E-14
 -1      3180 2.00717E+01 2.80185E-01 1.87298E-03 3.94936E-01 2.48003E-14-8.19623E-14
 -1      3181 1.99622E+01 3.58114E-01 1.73809E-03 4.18576E-01 2.58714E-14-1.35496E-13
 -1      3182 2.00551E+01 1.78330E-01-1.34514E-03 2.52003E-01-1.16069E-14 2.34695E-15
 -1      3183 2.00707E+01 2.08250E-01 1.57733E-03 2.94452E-01 6.76588E-14 3.54910E-14
 -1      3184 1.99960E+01 2.67671E-01 9.69514E-04 3.17422E-01 3.36480E-14 5.31918E-14
 -1      3185 2.00491E+01 1.31654E-01-9.41565E-04 1.84763E-01 1.24824E-14-2.51941E-14
 -1      3186 2.00629E+01 1.54101E-01 1.28892E-03 2.17009E-01 1.00224E-14-2.32492E-15
 -1      3187 2.00128E+01 1.99139E-01 5.09604E-04 2.37596E-01 5.02712E-14-6.06989E-14
 -1      3188 2.00409E+01 9.67168E-02-6.57318E-04 1.33559E-01-3.64555E-14-1.01652E-14
 -1      3189 2.00526E+01 1.13521E-01 1.03293E-03 1.57859E-01-1.95932E-14-5.77028E-14
 -1      3190 2.00196E+01 1.47442E-01 2.34826E-04 1.75385E-01 7.91749E-15 3.05235E-14
 -1      3191 2.00325E+01 7.05996E-02-4.57704E-04 9.49334E-02 1.82579E-13 1.44954E-13
 -1      3192 2.00420E+01 8.31625E-02 8.14059E-04 1.13090E-01 9.15234E-14 2.81926E-14
 -1      3193 2.00209E+01 1.08556E-01 7.67583E-05 1.27468E-01-5.30491E-15 2.46393E-14
 -1      3194 2.00249E+01 5.10998E-02-3.17547E-04 6.60968E-02 1.21223E-14 2.45961E-13
 -1      3195 2.00323E+01 6.04772E-02 6.32105E-04 7.95330E-02 1.79166E-13 2.20580E-13
 -1      3196 2.00194E+01 7.93595E-02-8.78583E-06 9.09900E-02 1.06069E-13 1.12395E-13
 -1      3197 2.00184E+01 3.65729E-02-2.19026E-04 4.48205E-02-2.11531E-14 1.69120E-13
 -1      3198 2.00241E+01 4.35533E-02 4.84048E-04 5.46509E-02-1.70293E-14 1.55242E-13
 -1      3199 2.00167E+01 5.74835E-02-5.05116E-05 6.35588E-02 5.67872E-14 4.56430E-14
 -1      3200 2.00132E+01 2.57921E-02-1.49684E-04 2.93370E-02 1.37749E-13 3.05995E-13
 -1      3201 2.00175E+01 3.09649E-02 3.65606E-04 3.64313E-02-3.11171E-14 2.34399E-13
 -1      3202 2.00136E+01 4.11424E-02-6.67061E-05 4.32048E-02-2.44658E-14 7.73892E-14
 -1      3203 2.00091E+01 1.78391E-02-1.00865E-04 1.82532E-02 1.38066E-13 2.84893E-13
 -1      3204 2.00122E+01 2.16466E-02 2.72205E-04 2.32876E-02 2.02359E-13 3.15085E-13
 -1      3205 2.00108E+01 2.89927E-02-6.87586E-05 2.83283E-02 1.15136E-13 2.59038E-13
 -1      3206 2.00061E+01 1.20217E-02-6.65483E-05 1.04778E-02 9.49756E-14 1.98113E-13
 -1      3207 2.00083E+01 1.47981E-02 1.99504E-04 1.39757E-02 1.65911E-13 2.36617E-13
 -1      3208 2.00082E+01 2.00203E-02-6.35858E-05 1.76444E-02 1.63320E-13 2.27203E-13
 -1      3209 2.00038E+01 7.81513E-03-4.25220E-05 5.16119E-03-2.21552E-13 3.10750E-13
 -1      3210 2.00053E+01 9.81455E-03 1.43629E-04 7.52589E-03-1.44248E-13 3.14611E-13
 -1      3211 2.00061E+01 1.34554E-02-5.52580E-05 1.01318E-02-7.19324E-14 3.09878E-13
 -1      3212 2.00022E+01 4.81850E-03-2.59857E-05 1.64682E-03-5.98819E-14 3.58793E-13
 -1      3213 2.00032E+01 6.23530E-03 1.01240E-04 3.18730E-03-6.37536E-14 3.55003E-13
 -1      3214 2.00045E+01 8.71029E-03-4.60667E-05 4.98651E-03-1.35124E-13 2.82988E-13
 -1      3215 2.00010E+01 2.72115E-03-1.64469E-05-5.70156E-04 2.16916E-14 3.49561E-13
 -1      3216 2.00017E+01 3.70965E-03 6.98629E-05 3.83141E-04 3.28111E-14 4.08170E-13
 -1      3217 2.00031E+01 5.33403E-03-3.71104E-05 1.58180E-03 5.58461E-14 3.43642E-13
 -1      3218 2.00003E+01 1.23960E-03-8.43652E-06-1.91371E-03 9.30159E-14 2.06470E-13
 -1      3219 2.00006E+01 1.92596E-03 4.62012E-05-1.35993E-03 1.06591E-14 1.74504E-13
 -1      3220 2.00021E+01 2.94683E-03-2.59844E-05-5.99038E-04 1.57556E-13 2.21232E-13
 -1      3221 1.99998E+01 3.29191E-04-1.85120E-06-2.55010E-03 1.76180E-13 2.74450E-13
 -1      3222 2.00000E+01 7.51000E-04 2.90169E-05-2.30398E-03 7.19531E-14 2.25548E-13
 -1      3223 2.00013E+01 1.31951E-03-2.25459E-05-1.86692E-03 4.73843E-14 2.64960E-13
 -1      3224 1.99995E+01-2.39905E-04 1.37680E-06-2.77647E-03 5.28381E-14 2.95122E-13
 -1      3225 1.99996E+01 1.60455E-05 1.66809E-05-2.71178E-03 1.58397E-13 2.75798E-13
 -1      3226 2.00008E+01 2.99267E-04-1.70758E-05-2.48563E-03 1.63050E-13 2.69846E-13
 -1      3227 1.99994E+01-5.65988E-04 3.09164E-06-2.74128E-03 1.58464E-13 4.70423E-13
 -1      3228 1.99994E+01-4.24526E-04 8.52128E-06-2.78906E-03 1.80105E-13 4.06090E-13
 -1      3229 2.00004E+01-3.31801E-04-1.26829E-05-2.70423E-03 1.34554E-13 1.56807E-13
 -1      3230 1.99993E+01-7.25359E-04 3.93264E-06-2.55141E-03 2.23785E-13 2.19966E-13
 -1      3231 1.99993E+01-6.61558E-04 3.07439E-06-2.66360E-03 2.61735E-13 4.26718E-13
 -1      3232 2.00001E+01-6.88936E-04-9.24004E-06-2.66885E-03 2.53342E-13 1.52253E-13
 -1      3233 1.99993E+01-7.74940E-04 4.18337E-06-2.28084E-03-1.50530E-13 2.96863E-13
 -1      3234 1.99992E+01-7.61545E-04-3.93476E-07-2.42456E-03-1.86850E-14 2.78569E-13
 -1      3235 2.00000E+01-8.59161E-04-6.57808E-06-2.48343E-03 1.43961E-13 1.82045E-13
 -1      3236 1.99993E+01-7.56512E-04 4.05229E-06-1.97881E-03-1.85948E-13 1.46643E-13
 -1      3237 1.99993E+01-7.73594E-04-2.44556E-06-2.13252E-03-1.20496E-13 1.96354E-13
 -1      3238 1.99998E+01-9.07038E-04-4.55680E-06-2.21979E-03-2.92948E-14 3.16057E-13
 -1      3239 1.99994E+01-7.00428E-04 3.69373E-06-1.67632E-03-3.70564E-13 8.61796E-14
 -1      3240 1.99993E+01-7.33570E-04-3.50080E-06-1.82680E-03-3.22254E-13 8.28439E-14
 -1      3241 1.99998E+01-8.79927E-04-3.04812E-06-1.92569E-03-1.16068E-13 1.12021E-13
 -1      3242 1.99995E+01-6.28711E-04 3.22041E-06-1.39119E-03-2.56463E-13-1.28275E-13
 -1      3243 1.99994E+01-6.67468E-04-3.88934E-06-1.53124E-03-3.57783E-13-3.48508E-14
 -1      3244 1.99997E+01-8.12120E-04-1.92616E-06-1.63119E-03-2.43763E-13-7.64310E-14
 -1      3245 1.99995E+01-5.57355E-04 2.62460E-06-1.13102E-03-3.59578E-13-6.35078E-14
 -1      3246 1.99994E+01-5.95033E-04-4.10424E-06-1.25851E-03-4.13408E-13-1.17497E-13
 -1      3247 1.99997E+01-7.28308E-04-1.03163E-06-1.35387E-03-4.24116E-13-1.70670E-13
 -1      3248 1.99996E+01-4.97849E-04 2.04871E-06-8.97049E-04 3.40574E-13-3.15871E-13
 -1      3249 1.99995E+01-5.28663E-04-4.14113E-06-1.01279E-03 1.64762E-13-1.68517E-13
 -1      3250 1.99997E+01-6.45308E-04 9.19739E-07-1.10160E-03 3.86642E-14-4.30218E-13
 -1      3251 1.99996E+01-4.79453E-04-1.53927E-06-7.72578E-04 2.14276E-13-3.87301E-13
 -1      3252 1.97870E+01-2.01112E+00 2.06535E-01-3.87299E+00-7.24421E-15-2.74919E-13
 -1      3253 2.00004E+01-1.11231E-03 1.71508E-06 6.82684E-05 8.41322E-14-2.67451E-13
 -1      3254 2.00004E+01-1.11310E-03 1.53916E-06-6.17893E-05 2.04514E-13-1.33848E-13
 -1      3255 2.00000E+01-8.22307E-04-3.88780E-06 7.24461E-04 4.35975E-13 3.70508E-13
 -1      3256 2.00001E+01-8.89368E-04 4.82046E-06 6.60170E-04 3.65599E-13 2.48948E-14
 -1      3257 2.00004E+01-1.06893E-03 4.45911E-07 3.32980E-04 1.32899E-13-4.62994E-13
 -1      3258 2.00004E+01-1.09573E-03 2.56458E-06 2.13216E-04 1.21951E-13-1.81248E-13
 -1      3259 2.00005E+01-1.15615E-03-3.28421E-06 1.52685E-04 2.05941E-13-1.49677E-13
 -1      3260 2.65967E+01-2.98530E+00 2.35954E-03-1.10885E+00 3.03575E-13-2.62193E-13
 -1      3261 2.75499E+01-1.71143E+00-1.14527E-01 1.83021E-01 1.70679E-13-3.70801E-13
 -1      3262 1.75617E+01 5.86360E-01 1.81630E-02 3.40033E+00-2.91631E-13-1.21115E-13
 -1      3263 1.77418E+01-9.65129E-02 6.10293E-02 3.78187E+00-2.28779E-13-1.33289E-13
 -1      3264 2.72309E+01 2.49429E+00-1.43842E-01-2.11760E+00-3.38854E-13-1.47521E-14
 -1      3265 2.74318E+01 9.42315E-01 2.02497E-02-1.51368E+00-2.09312E-13 1.09177E-13
 -1      3266 1.81865E+01 1.14560E+00-1.69670E-02 2.62602E+00-3.09918E-13-1.89115E-13
 -1      3267 1.81406E+01 9.44460E-01 3.14145E-02 2.93211E+00-2.65710E-13-1.48887E-13
 -1      3268 1.63630E+01 1.07952E+00 2.89813E-02 2.87388E+00-2.54510E-13-1.30156E-14
 -1      3269 1.74420E+01 1.46204E+00 2.10952E-02 2.20551E+00-2.55688E-13-1.81639E-13
 -1      3270 2.27241E+01 1.00594E+00 6.15037E-03-2.11366E+00-5.12129E-14-4.19882E-13
 -1      3271 1.75487E+01-2.84330E+00 1.54086E-01-6.02361E+00 3.58019E-13 2.83738E-13
 -1      3272 1.97842E+01-3.92570E+00-7.45797E-02-5.76687E+00 3.80168E-13 1.63300E-13
 -1      3273 8.42561E+00 2.94672E+00 1.44768E-01 4.10408E+00 6.16729E-13-4.93633E-13
 -1      3274 7.97191E+00 3.31073E+00 1.21786E-01 2.85019E+00 5.78575E-13-5.12507E-13
 -1      3275 2.00002E+01-9.69646E-04-1.56458E-06 5.62958E-04 3.16932E-13-2.55928E-13
 -1      3276 2.00003E+01-1.01956E-03 3.44328E-06 4.64029E-04 3.28544E-13-3.66622E-13
 -1      3277 2.00004E+01-1.09417E-03-3.50940E-06 4.37166E-04 1.70071E-13-3.07074E-13
 -1      3278 2.00002E+01-9.71076E-04-3.11536E-06 6.75048E-04 3.44085E-13-1.01353E-13
 -1      3279 2.76152E+01 3.70384E+00-9.14732E-02 1.79492E+00-1.66644E-13-3.62599E-13
 -1      3280 2.69431E+01 4.92123E+00-1.37399E-01 1.39829E+00-2.63012E-13-3.89924E-13
 -1      3281 1.95992E+01 9.44878E-01-1.00972E-02 1.29887E+00-5.40923E-14 2.85099E-14
 -1      3282 1.95407E+01 1.04875E+00 3.01534E-03 1.47508E+00-8.36980E-14-3.11860E-15
 -1      3283 1.89026E+01 1.27204E+00 1.44276E-02 1.40743E+00-1.66201E-13-5.13112E-14
 -1      3284 2.23989E+01 1.09172E+00-1.04186E-02-1.99564E+00-1.29828E-13-2.85292E-13
 -1      3285 2.22283E+01 1.38598E+00 1.39994E-02-1.75951E+00-1.33590E-13-2.81835E-13
 -1      3286 2.26233E+01 1.78795E+00 6.70762E-03-1.78239E+00-1.32784E-13-2.81430E-13
 -1      3287 1.81985E+01-1.54865E+00 1.01166E-01 4.65441E+00-1.88422E-13-2.82864E-13
 -1      3288 1.35301E+01 4.58014E-01 2.62032E-03 6.22571E+00 6.50834E-13-2.39489E-13
 -1      3289 1.10577E+01 7.84879E-01 1.53607E-01 6.15930E+00 6.26721E-13-3.75158E-13
 -1      3290 9.11310E+00 7.11435E-01 1.16913E-01-1.98441E+00-1.17481E-13 5.31408E-13
 -1      3291 9.90877E+00 1.37575E-01 7.98681E-02-3.71518E+00 3.29042E-14 4.98990E-13
 -1      3292 9.54431E+00 2.28162E+00 8.97060E-02-1.41606E+00 3.30111E-13-5.32435E-13
 -1      3293 1.58003E+01-6.57797E-01 8.05574E-02 4.34276E+00-2.49412E-13-6.51285E-14
 -1      3294 2.66959E+01-7.11026E-01-1.58719E-01-3.31310E-01-5.27633E-14 1.15203E-13
 -1      3295 2.59361E+01-1.34621E+00 5.81821E-02 8.77999E-01 1.03296E-13 1.24210E-13
 -1      3296 2.40194E+01-1.99289E+00-1.05262E-01 2.59187E+00 2.60333E-13 8.32975E-14
 -1      3297 2.19248E+01-1.64183E+00 8.20092E-02 3.97200E+00 4.12923E-13 2.76862E-14
 -1      3298 2.26302E+01-4.15570E+00 1.07356E-01-4.66442E+00 4.12961E-13 1.42716E-14
 -1      3299 2.48514E+01-4.14888E+00-7.26164E-02-3.04085E+00 4.31235E-13-1.26461E-13
 -1      3300 1.16712E+01-5.89695E-01 1.56756E-01-4.91734E+00 1.13125E-13 4.25424E-13
 -1      3301 1.42298E+01-1.89049E+00-1.82684E-02-5.92939E+00 2.31391E-13 3.72896E-13
 -1      3302 1.66268E+01-1.94097E-01 1.15592E-01 5.73011E+00 5.97973E-13-1.54793E-13
 -1      3303 1.99998E+01-5.82254E-04-2.08483E-06 7.67865E-04 3.61652E-13 6.03847E-13
 -1      3304 1.99999E+01-7.16240E-04 5.45003E-06 7.72651E-04 3.38340E-13 4.34599E-13
 -1      3305 2.00000E+01-8.03292E-04 9.72412E-07 8.20197E-04 3.05998E-13 3.02310E-13
 -1      3306 1.99997E+01-6.00234E-04-1.50228E-06 8.53159E-04 6.44244E-14 6.17149E-13
 -1      3307 2.60478E+01 5.10381E+00-1.21349E-01-1.65909E+00-4.01068E-13-2.62138E-13
 -1      3308 2.67493E+01 4.08521E+00-4.79177E-02-2.22537E+00-3.70107E-13-1.16504E-13
 -1      3309 2.79200E+01 6.02201E-02-3.05961E-02 1.15888E+00 8.78048E-14-3.68539E-13
 -1      3310 2.79263E+01 2.01897E+00-1.49234E-01 1.63121E+00-4.22162E-14-3.47229E-13
 -1      3311 2.66492E+01 2.09719E+00-7.77575E-02 1.75020E+00-3.00107E-14-3.56201E-13
 -1      3312 2.69669E+01-8.65557E-01-2.73492E-02 9.01084E-01 1.35048E-13-2.99191E-13
 -1      3313 1.99997E+01-5.81853E-04 2.71153E-06-8.49607E-04 1.99541E-13-6.15333E-13
 -1      3314 1.04183E+01 2.00860E+00 1.21919E-01 5.31099E+00 6.46670E-13-4.00860E-13
 -1      3315 1.92005E+01-1.10480E+00-4.64905E-02 5.10590E+00 5.15199E-13-4.76008E-14
 -1      3316 2.07591E+01-8.32026E-01 5.44613E-02 3.84784E+00 4.66575E-13-5.80017E-14
 -1      3317 2.22273E+01-1.11121E+00-5.36232E-02 2.68865E+00 3.67654E-13-6.41223E-14
 -1      3318 2.59061E+01 4.81697E+00-7.44453E-02 9.84073E-01-3.20431E-13-4.47486E-13
 -1      3319 2.37297E+01 4.57068E-01 7.15377E-03-1.53107E+00 8.72236E-14-2.45074E-13
 -1      3320 2.34050E+01 6.38721E-01-3.57361E-02-1.87022E+00 1.35042E-14-3.15502E-13
 -1      3321 2.25758E+01-3.66501E-01 5.01371E-03 1.39425E+00 3.06111E-13-1.24344E-13
 -1      3322 2.61142E+01 2.81660E+00-6.00617E-02-2.14589E+00-2.58966E-13-1.14932E-13
 -1      3323 1.93268E+01 1.04355E+00 1.03686E-02 1.13094E+00-6.59927E-14 6.70650E-14
 -1      3324 1.99997E+01-6.23670E-04-1.28800E-06 9.41170E-04 8.01645E-14 5.67080E-13
 -1      3325 2.31250E+01 7.89085E-01 1.97330E-03-2.03951E+00-1.46858E-14-3.61809E-13
 -1      3326 2.26428E+01 8.92728E-01-1.88236E-02-2.20283E+00-8.28437E-14-4.00672E-13
 -1      3327 2.26548E+01 8.22621E-01 2.17215E-03-2.18521E+00-9.08011E-14-3.46316E-13
 -1      3328 2.35178E+01 7.39988E-01 1.78805E-02-2.09811E+00-3.22749E-14-2.90344E-13
 -1      3329 1.16333E+01 1.57231E-01 1.78761E-01 3.06652E+00-2.96881E-13 2.36672E-13
 -1      3330 2.55772E+01 5.26610E+00-1.02311E-01-1.21596E+00-3.90063E-13-3.17805E-13
 -1      3331 2.49539E+01 4.33268E+00-4.14680E-02-1.59904E+00-2.99469E-13-2.41040E-13
 -1      3332 2.49673E+01 5.23880E+00-5.58046E-02-6.43467E-01-3.68060E-13-3.69670E-13
 -1      3333 2.00003E+01-1.02158E-03 3.46580E-06-4.62162E-04 4.14596E-13-1.95424E-13
 -1      3334 2.00002E+01-9.69315E-04 4.37882E-07-5.60492E-04 4.28867E-13-1.49152E-14
 -1      3335 1.99999E+01-6.89406E-04-2.52833E-07-8.25455E-04 1.62783E-13-2.93878E-13
 -1      3336 1.99999E+01-7.19990E-04-4.49330E-06-9.61045E-04 2.72875E-13-4.26292E-13
 -1      3337 2.00000E+01-7.76081E-04 3.94425E-06-8.02045E-04 1.76208E-13 4.96812E-14
 -1      3338 2.00002E+01-9.17882E-04 3.51796E-06-6.60202E-04 3.17612E-13 1.86442E-13
 -1      3339 2.00001E+01-8.44532E-04 9.03944E-07-7.24996E-04 1.85698E-13 2.57430E-13
 -1      3340 2.00001E+01-8.89797E-04-4.05610E-06-8.50655E-04 9.59618E-14 1.77811E-13
 -1      3341 2.00003E+01-1.00122E-03-3.56973E-06-6.69460E-04 1.59887E-13 1.99460E-13
 -1      3342 2.00004E+01-1.09674E-03 2.74554E-06-2.08716E-04 2.68757E-13-1.72064E-13
 -1      3343 2.00004E+01-1.07096E-03 2.82490E-07-3.31186E-04 4.17095E-13-2.17769E-13
 -1      3344 2.00005E+01-1.15640E-03-3.27769E-06-1.48074E-04 3.92575E-14-2.81259E-13
 -1      3345 2.57366E+01-3.59611E+00 5.03169E-03-1.80577E+00 3.68606E-13-1.97321E-13
 -1      3346 2.57760E+01-2.74771E+00-1.34318E-02-6.03558E-01 2.71746E-13-2.04829E-13
 -1      3347 2.43413E+01-3.63937E+00-1.11156E-02-2.44425E+00 4.12097E-13-1.49709E-13
 -1      3348 2.46461E+01-1.27092E+00 2.80628E-02 1.31812E+00 2.08481E-13 2.87895E-14
 -1      3349 2.64907E+01 3.18907E-01 1.13260E-02-1.27523E+00-8.06265E-14 5.93414E-14
 -1      3350 1.64053E+01-1.92452E+00 8.74521E-02-5.43884E+00 2.52021E-13 2.41328E-13
 -1      3351 9.50013E+00 1.06247E+00 1.44881E-01-7.74138E-01-1.75131E-13 5.53169E-13
 -1      3352 1.09580E+01 1.21677E+00 1.07455E-01-1.41717E+00-1.09256E-13 4.42237E-13
 -1      3353 1.02151E+01 1.17068E+00 5.30115E-02 6.40247E-01-2.31213E-13 5.25011E-13
 -1      3354 1.52912E+01-7.42153E-01 2.10143E-02-3.82982E+00 1.11397E-13-4.01082E-13
 -1      3355 1.99999E+01-7.46018E-04-2.38566E-06 9.93495E-04 1.11893E-13 3.57882E-13
 -1      3356 2.16145E+01-3.63149E+00 7.22320E-02-4.55050E+00 3.61183E-13 1.79076E-14
 -1      3357 1.21958E+01 1.23535E-01 1.28936E-01-3.93652E+00 6.04343E-14 3.68393E-13
 -1      3358 1.23228E+01 1.38529E+00 2.44434E-01-2.92333E+00 2.24681E-13-4.77049E-13
 -1      3359 2.25589E+01 8.62774E-01-2.39113E-03-2.09375E+00-9.67421E-14-3.24233E-13
 -1      3360 2.40515E+01-2.07376E-01 1.18439E-02-3.63889E-01 1.62109E-13-1.43096E-13
 -1      3361 2.39756E+01 3.72994E-02-4.51008E-02-1.04801E+00 1.13866E-13-1.96686E-13
 -1      3362 2.43477E+01 3.31844E-01 3.64262E-02-1.60462E+00 4.27054E-14-1.74204E-13
 -1      3363 2.29537E+01 1.07302E+00-7.78347E-03-2.17928E+00-9.55746E-14-3.02210E-13
 -1      3364 2.34255E+01 1.01980E+00-4.23018E-05-2.11409E+00-5.19816E-14-2.68322E-13
 -1      3365 2.32677E+01-7.49268E-01 4.08805E-02 1.48339E+00 2.92603E-13-7.13466E-14
 -1      3366 2.37688E+01-6.50176E-01-4.92179E-02 4.38234E-01 2.18516E-13-1.01388E-13
 -1      3367 2.45391E+01-4.99649E-01-1.61793E-02-3.18341E-01 1.22767E-13-8.74825E-14
 -1      3368 2.38594E+01-1.15056E+00 4.40355E-02 1.58845E+00 2.53543E-13-7.46972E-15
 -1      3369 2.26481E+01 3.09989E+00-2.61257E-03-1.68001E-01-2.35250E-13-3.75822E-13
 -1      3370 2.26294E+01 2.93100E+00-1.32264E-02 3.66264E-01-2.36670E-13-4.15940E-13
 -1      3371 2.27145E+01 2.51262E+00-1.69052E-03 9.81766E-01-1.93179E-13-4.47545E-13
 -1      3372 2.27990E+01 1.90939E+00-3.75965E-02 1.33699E+00-1.29890E-13-4.24208E-13
 -1      3373 2.32609E+01 3.17580E+00-1.27885E-02 7.24566E-01-2.42447E-13-4.27411E-13
 -1      3374 2.29776E+01 1.23479E+00 1.14371E-02 1.57075E+00-5.82581E-14-3.99120E-13
 -1      3375 2.30398E+01 5.19286E-01-2.97169E-02 1.65027E+00 1.40688E-14-3.80504E-13
 -1      3376 2.35329E+01 1.81239E+00 9.73882E-04 1.57739E+00-8.85264E-14-4.42322E-13
 -1      3377 2.30670E+01-1.05896E-01 3.76613E-03 1.49858E+00 4.30337E-14-3.95180E-13
 -1      3378 2.30378E+01-6.24479E-01-1.30621E-02 1.34992E+00 8.72645E-14-3.66542E-13
 -1      3379 2.36490E+01 1.09077E-01-1.71058E-03 1.58251E+00 5.05351E-14-4.41585E-13
 -1      3380 2.28485E+01-1.00012E+00-5.16508E-03 1.03550E+00 1.02754E-13-3.20917E-13
 -1      3381 2.27266E+01-1.23819E+00 2.48234E-03 7.88055E-01 1.22576E-13-2.60238E-13
 -1      3382 2.34125E+01-9.92763E-01 6.98300E-03 1.08511E+00 1.19136E-13-3.84639E-13
 -1      3383 2.23920E+01-1.35422E+00-9.31908E-03 4.72060E-01 8.80865E-14-1.82253E-13
 -1      3384 2.22071E+01-1.36562E+00 9.90412E-03 2.36799E-01 6.62416E-14-1.47572E-13
 -1      3385 2.28505E+01-1.51880E+00-7.06632E-04 4.16201E-01 1.60321E-13-3.16980E-13
 -1      3386 2.18414E+01-1.30973E+00-7.91117E-03 4.99714E-03 1.97827E-14-1.26913E-13
 -1      3387 2.16361E+01-1.19330E+00 1.18236E-02-1.70266E-01 6.11618E-14-1.34653E-13
 -1      3388 2.21484E+01-1.53111E+00-8.77660E-03-1.26585E-01 7.52817E-14-2.83136E-13
 -1      3389 2.13143E+01-1.05681E+00-4.37676E-03-3.04590E-01 3.39631E-14-1.56625E-13
 -1      3390 2.11241E+01-8.96433E-01 1.04649E-02-4.13802E-01 4.22929E-14-1.83981E-13
 -1      3391 2.14831E+01-1.26025E+00-1.08396E-02-4.65710E-01 3.81891E-14-1.87410E-13
 -1      3392 2.08747E+01-7.42506E-01-1.53677E-03-4.71580E-01 1.60206E-14-1.83990E-13
 -1      3393 2.07183E+01-5.87731E-01 7.82957E-03-5.26391E-01 2.33542E-14-2.02695E-13
 -1      3394 2.09403E+01-8.98676E-01-1.01843E-02-6.27473E-01 2.79009E-14-1.49987E-13
 -1      3395 2.05424E+01-4.50809E-01 2.24302E-04-5.33974E-01-1.50707E-14-1.80953E-13
 -1      3396 2.04244E+01-3.24371E-01 5.26502E-03-5.50431E-01-7.74305E-15-2.10208E-13
 -1      3397 2.05408E+01-5.54920E-01-8.17219E-03-6.66348E-01 1.37149E-14-1.98554E-13
 -1      3398 2.03100E+01-2.17956E-01 1.08816E-03-5.29560E-01 4.81883E-14-1.80186E-13
 -1      3399 2.02267E+01-1.25738E-01 3.20892E-03-5.21811E-01 3.64860E-14-8.17923E-14
 -1      3400 2.02701E+01-2.77440E-01-5.91475E-03-6.33082E-01 6.60712E-14-2.50234E-13
 -1      3401 2.01583E+01-5.12685E-02 1.37412E-03-4.87301E-01 4.74172E-14-2.57335E-14
 -1      3402 2.01028E+01 9.43011E-03 1.71681E-03-4.65942E-01 3.58392E-14-1.52977E-14
 -1      3403 2.01005E+01-7.70162E-02-3.97071E-03-5.63919E-01 5.74669E-14-7.60950E-14
 -1      3404 2.00662E+01 5.62610E-02 1.35657E-03-4.26921E-01 5.09123E-14 3.93206E-16
 -1      3405 2.00310E+01 9.15758E-02 7.17520E-04-3.99216E-01 8.18856E-14-3.40992E-14
 -1      3406 2.00035E+01 5.37671E-02-2.48882E-03-4.81526E-01 4.72128E-14 5.53034E-14
 -1      3407 2.00150E+01 1.17019E-01 1.21095E-03-3.60873E-01 6.37422E-14-4.43617E-14
 -1      3408 1.99938E+01 1.33697E-01 9.73201E-05-3.31499E-01 2.90038E-15 6.40610E-15
 -1      3409 1.99550E+01 1.29111E-01-1.43962E-03-3.98830E-01 5.83751E-14 2.29136E-14
 -1      3410 1.99901E+01 1.43954E-01 1.02824E-03-2.96516E-01-2.91584E-15-4.43394E-15
 -1      3411 1.99780E+01 1.48019E-01-2.53325E-04-2.68291E-01 6.05782E-14 5.88224E-14
 -1      3412 1.99369E+01 1.64061E-01-7.42160E-04-3.22535E-01 6.59012E-14 1.16526E-14
 -1      3413 1.99810E+01 1.48352E-01 8.50106E-04-2.37830E-01 4.66297E-14 5.41218E-14
 -1      3414 1.99744E+01 1.44612E-01-4.23139E-04-2.12301E-01 1.54149E-13-4.53329E-14
 -1      3415 1.99362E+01 1.71821E-01-3.07804E-04-2.55605E-01 2.98372E-14 6.58040E-15
 -1      3416 1.99805E+01 1.39079E-01 6.92551E-04-1.86641E-01 1.78783E-13-9.20368E-14
 -1      3417 1.99771E+01 1.31080E-01-4.78393E-04-1.64512E-01 1.43713E-13-6.60637E-14
 -1      3418 1.99442E+01 1.62837E-01-5.77884E-05-1.98871E-01 1.10507E-13-2.29723E-14
 -1      3419 1.99840E+01 1.22590E-01 5.59235E-04-1.43446E-01 6.95072E-14-1.61829E-13
 -1      3420 1.99823E+01 1.12777E-01-4.66023E-04-1.24883E-01 2.42319E-14-2.09693E-13
 -1      3421 1.99557E+01 1.44771E-01 7.05078E-05-1.52002E-01 4.53218E-14-1.71510E-13
 -1      3422 1.99888E+01 1.03276E-01 4.48689E-04-1.07961E-01 2.46855E-14-2.67965E-13
 -1      3423 1.99880E+01 9.32165E-02-4.17813E-04-9.28091E-02 5.45226E-14-2.59666E-13
 -1      3424 1.99675E+01 1.22887E-01 1.23228E-04-1.14091E-01-2.93574E-15-2.13765E-13
 -1      3425 1.99935E+01 8.39110E-02 3.57820E-04-7.94783E-02 8.53002E-14-2.58448E-13
 -1      3426 1.99931E+01 7.45265E-02-3.54318E-04-6.74047E-02 1.22659E-13-2.02193E-13
 -1      3427 1.99780E+01 1.00560E-01 1.32430E-04-8.39931E-02 1.12944E-13-1.85694E-13
 -1      3428 1.99975E+01 6.60897E-02 2.83412E-04-5.70962E-02 7.12544E-14-2.56529E-13
 -1      3429 1.99971E+01 5.78492E-02-2.88088E-04-4.76885E-02 7.47930E-14-3.70325E-13
 -1      3430 1.99866E+01 7.97665E-02 1.19190E-04-6.05105E-02 9.33308E-14-3.50422E-13
 -1      3431 2.00004E+01 5.05913E-02 2.22652E-04-3.98635E-02-3.85762E-15-4.23185E-13
 -1      3432 2.00001E+01 4.36666E-02-2.26195E-04-3.26912E-02-8.73438E-14-4.21912E-13
 -1      3433 1.99932E+01 6.15138E-02 9.65883E-05-4.25021E-02-3.34499E-14-4.62135E-13
 -1      3434 2.00024E+01 3.76658E-02 1.73220E-04-2.68651E-02-4.60842E-14-3.37488E-13
 -1      3435 2.00020E+01 3.20465E-02-1.72099E-04-2.15175E-02-6.05634E-14-2.05114E-13
 -1      3436 1.99978E+01 4.61673E-02 7.21866E-05-2.89344E-02-9.89194E-15-4.88532E-13
 -1      3437 2.00036E+01 2.72436E-02 1.33224E-04-1.72701E-02-1.34326E-13-2.59104E-13
 -1      3438 2.00032E+01 2.28175E-02-1.27002E-04-1.33769E-02-1.04529E-13-1.42419E-13
 -1      3439 2.00009E+01 3.36997E-02 4.99249E-05-1.89047E-02-6.97709E-14-3.87687E-13
 -1      3440 2.00041E+01 1.90815E-02 1.01105E-04-1.03537E-02-1.63501E-13-1.57499E-13
 -1      3441 2.00037E+01 1.56884E-02-9.07714E-05-7.59446E-03-4.80838E-14-1.84285E-13
 -1      3442 2.00028E+01 2.38634E-02 3.14955E-05-1.16458E-02-1.12538E-13-2.19941E-13
 -1      3443 2.00042E+01 1.28589E-02 7.55539E-05-5.50324E-03 8.66429E-14-2.71763E-13
 -1      3444 2.00038E+01 1.03252E-02-6.25638E-05-3.60938E-03 2.30903E-15-1.35409E-13
 -1      3445 2.00038E+01 1.63074E-02 1.72847E-05-6.51993E-03-2.40886E-14-3.91169E-13
 -1      3446 2.00039E+01 8.23847E-03 5.54541E-05-2.21431E-03 6.88843E-14-3.75462E-14
 -1      3447 2.00036E+01 6.39717E-03-4.12266E-05-9.66492E-04 5.26920E-14 1.01779E-13
 -1      3448 2.00042E+01 1.06511E-02 6.98634E-06-3.00724E-03 5.88669E-14-2.78007E-13
 -1      3449 2.00036E+01 4.90107E-03 3.98443E-05-8.06512E-05-1.50080E-13 1.54611E-13
 -1      3450 2.00032E+01 3.60239E-03-2.55379E-05 6.95986E-04-2.64262E-13 2.04077E-14
 -1      3451 2.00042E+01 6.52795E-03-1.04583E-08-6.91709E-04-2.57910E-15-1.64568E-13
 -1      3452 2.00031E+01 2.56368E-03 2.78951E-05 1.21801E-03-1.10011E-13 6.84805E-14
 -1      3453 2.00028E+01 1.67955E-03-1.43440E-05 1.65991E-03-3.00641E-14 1.33999E-13
 -1      3454 2.00038E+01 3.60870E-03-4.39967E-06 7.53918E-04-5.71623E-14 8.15219E-14
 -1      3455 2.00026E+01 9.86235E-04 1.88948E-05 1.92919E-03-1.80081E-13 1.84283E-13
 -1      3456 2.00023E+01 4.11006E-04-6.62708E-06 2.14057E-03-1.29232E-13 1.35111E-13
 -1      3457 2.00034E+01 1.61139E-03-6.83858E-06 1.58261E-03-3.29161E-14 2.17399E-13
 -1      3458 2.00021E+01-2.80224E-05 1.22393E-05 2.24036E-03-6.11973E-14 8.26931E-14
 -1      3459 2.00019E+01-3.79033E-04-1.52988E-06 2.29911E-03 2.83869E-14-3.96695E-14
 -1      3460 2.00029E+01 3.02926E-04-7.89198E-06 1.98643E-03-1.43679E-13 1.01882E-13
 -1      3461 2.00016E+01-6.35956E-04 7.42229E-06 2.29049E-03 2.01166E-13-9.22910E-15
 -1      3462 2.00015E+01-8.28977E-04 1.64416E-06 2.25351E-03 2.02651E-13 1.02201E-13
 -1      3463 2.00024E+01-5.03925E-04-8.01479E-06 2.10846E-03 9.06290E-14-7.41654E-14
 -1      3464 2.00012E+01-9.59671E-04 4.02549E-06 2.18025E-03 1.66767E-13 1.88192E-13
 -1      3465 2.00011E+01-1.04540E-03 3.44337E-06 2.08798E-03 2.32180E-13 1.33154E-13
 -1      3466 2.00019E+01-9.55950E-04-7.55619E-06 2.05303E-03 2.86704E-13 1.08959E-13
 -1      3467 2.00009E+01-1.09224E-03 1.70867E-06 1.98054E-03 1.95825E-13 1.98324E-13
 -1      3468 2.00008E+01-1.10873E-03 4.28611E-06 1.86080E-03 1.64827E-13 3.24044E-13
 -1      3469 2.00015E+01-1.16578E-03-6.77441E-06 1.89433E-03 2.50341E-13 3.20169E-13
 -1      3470 2.00006E+01-1.10326E-03 1.95315E-07 1.73957E-03 1.38928E-13 3.94757E-13
 -1      3471 2.00005E+01-1.07839E-03 4.58065E-06 1.61066E-03 2.10627E-13 3.59927E-13
 -1      3472 2.00011E+01-1.21815E-03-5.83007E-06 1.68348E-03 2.31042E-13 3.37456E-13
 -1      3473 2.00004E+01-1.04482E-03-1.05412E-06 1.48919E-03 1.06894E-13 2.38546E-13
 -1      3474 2.00003E+01-9.98698E-04 4.32326E-06 1.36158E-03 1.73237E-13 1.34819E-13
 -1      3475 2.00008E+01-1.17506E-03-4.70701E-06 1.45463E-03 1.22266E-13 2.73977E-13
 -1      3476 2.00002E+01-9.54044E-04-2.20662E-06 1.24792E-03 3.73635E-13-5.42064E-14
 -1      3477 2.00002E+01-9.02740E-04 4.06842E-06 1.12567E-03 3.69032E-13 2.14733E-13
 -1      3478 2.00005E+01-1.08256E-03-2.59176E-06 1.23070E-03 2.41419E-13-8.69746E-14
 -1      3479 2.31727E+01 1.76380E+00-4.33356E-02-2.06430E+00-1.17665E-13-2.47277E-13
 -1      3480 2.30437E+01 2.26684E+00 2.31747E-03-1.78366E+00-1.31367E-13-2.61190E-13
 -1      3481 1.96394E+01 6.40886E-01-4.77433E-03 5.85002E-01 1.54582E-13 3.42027E-14
 -1      3482 1.95687E+01 7.30148E-01-9.50662E-04 6.64145E-01 1.58702E-13 3.30036E-14
 -1      3483 1.94169E+01 8.25582E-01-6.43898E-03 7.24823E-01 5.59614E-14 5.19736E-14
 -1      3484 1.93026E+01 9.32423E-01-2.05042E-03 8.17596E-01 3.39649E-14 4.26012E-14
 -1      3485 1.93249E+01 8.56211E-01 7.74331E-03 5.89181E-01 1.04869E-13-7.45122E-14
 -1      3486 1.98789E+01 3.68392E-01-2.53694E-03 3.58275E-01-3.39038E-14-5.74219E-14
 -1      3487 1.98570E+01 4.23944E-01 3.16625E-04 4.11935E-01 7.37429E-14-6.84938E-14
 -1      3488 1.99345E+01 2.78129E-01-1.85882E-03 2.75362E-01 2.52782E-14 2.36264E-14
 -1      3489 1.99236E+01 3.21200E-01 5.36416E-04 3.18567E-01-2.82679E-14-3.47496E-14
 -1      3490 1.98318E+01 3.88040E-01 2.24365E-03 3.12222E-01-4.52505E-14-1.21119E-13
 -1      3491 1.99681E+01 2.08768E-01-1.36097E-03 2.08360E-01 5.17117E-14 1.06703E-14
 -1      3492 1.99637E+01 2.41840E-01 6.06384E-04 2.42605E-01 1.40428E-14 6.16341E-14
 -1      3493 1.98987E+01 2.94396E-01 1.44136E-03 2.43218E-01-3.52748E-14-4.19992E-14
 -1      3494 1.99877E+01 1.55779E-01-9.93472E-04 1.55125E-01-2.84669E-14 6.07635E-14
 -1      3495 1.99870E+01 1.81049E-01 5.94246E-04 1.81893E-01 9.22862E-14 8.95161E-14
 -1      3496 1.99416E+01 2.21930E-01 9.12272E-04 1.85974E-01-1.21599E-14 4.04000E-15
 -1      3497 1.99987E+01 1.15444E-01-7.22598E-04 1.13483E-01-2.62101E-14 1.22103E-13
 -1      3498 1.99998E+01 1.34684E-01 5.37940E-04 1.34134E-01-1.17290E-13 2.43495E-14
 -1      3499 1.99687E+01 1.66176E-01 5.65822E-04 1.39584E-01-5.84535E-14 1.43014E-13
 -1      3500 2.00043E+01 8.48349E-02-5.23203E-04 8.13941E-02 5.48990E-14 2.82446E-13
 -1      3501 2.00063E+01 9.94354E-02 4.62784E-04 9.71198E-02 1.06081E-13 2.23340E-13
 -1      3502 1.99854E+01 1.23469E-01 3.41796E-04 1.02748E-01-2.23973E-14 1.76593E-13
 -1      3503 2.00068E+01 6.16894E-02-3.76521E-04 5.70347E-02 1.07193E-13 2.03600E-13
 -1      3504 2.00090E+01 7.27252E-02 3.83897E-04 6.88490E-02 1.33372E-13 2.62091E-13
 -1      3505 1.99954E+01 9.08911E-02 1.98917E-04 7.40363E-02 7.22601E-14 2.53078E-13
 -1      3506 2.00075E+01 4.42687E-02-2.68700E-04 3.88304E-02-1.33666E-13 2.70069E-13
 -1      3507 2.00096E+01 5.25667E-02 3.09582E-04 4.75772E-02-7.74136E-14 1.96610E-13
 -1      3508 2.00011E+01 6.61530E-02 1.09206E-04 5.20524E-02-9.07166E-15 3.89125E-13
 -1      3509 2.00073E+01 3.12391E-02-1.89575E-04 2.54556E-02 1.57049E-13 2.19004E-13
 -1      3510 2.00091E+01 3.74352E-02 2.43830E-04 3.18259E-02 2.24165E-14 2.28190E-13
 -1      3511 2.00041E+01 4.74754E-02 5.39574E-05 3.55173E-02-6.48407E-14 2.55032E-13
 -1      3512 2.00065E+01 2.15741E-02-1.31692E-04 1.58163E-02 1.39113E-13 2.35127E-13
 -1      3513 2.00080E+01 2.61593E-02 1.88036E-04 2.03680E-02 2.92780E-13 2.35067E-13
 -1      3514 2.00055E+01 3.34759E-02 2.08109E-05 2.33114E-02 1.99407E-13 1.19882E-13
 -1      3515 2.00056E+01 1.44810E-02-8.95622E-05 9.02433E-03-1.76739E-13 2.17534E-13
 -1      3516 2.00068E+01 1.78353E-02 1.42136E-04 1.22026E-02-5.19824E-14 1.96374E-13
 -1      3517 2.00058E+01 2.30789E-02 1.68751E-06 1.44849E-02 7.53807E-14 1.54006E-13
 -1      3518 2.00047E+01 9.34497E-03-5.91842E-05 4.36953E-03-1.75077E-13 2.13647E-13
 -1      3519 2.00056E+01 1.17637E-02 1.05286E-04 6.52557E-03-2.52577E-13 2.14855E-13
 -1      3520 2.00056E+01 1.54458E-02-8.61723E-06 8.25168E-03-1.95724E-13 6.86214E-14
 -1      3521 2.00038E+01 5.68286E-03-3.98302E-05 1.28944E-03 1.41597E-13 1.89508E-13
 -1      3522 2.00045E+01 7.40180E-03 7.63313E-05 2.69972E-03 6.79591E-15 2.37658E-13
 -1      3523 2.00051E+01 9.92182E-03-1.30892E-05 3.97418E-03-1.21517E-13 1.99829E-13
 -1      3524 2.00029E+01 3.03238E-03-2.40139E-05-7.19458E-04 1.42096E-13 1.92899E-13
 -1      3525 2.00035E+01 4.25911E-03 5.36793E-05 1.77430E-04 2.50690E-13 2.91047E-13
 -1      3526 2.00044E+01 5.92929E-03-1.11323E-05 1.09719E-03 2.48408E-13 1.58254E-13
 -1      3527 2.00023E+01 1.34834E-03-1.15176E-05-1.80910E-03 7.59597E-14 2.21673E-13
 -1      3528 2.00026E+01 2.12822E-03 3.67796E-05-1.33216E-03-8.15456E-15 2.40875E-13
 -1      3529 2.00037E+01 3.15145E-03-1.50315E-05-7.00197E-04 9.45919E-14 2.12297E-13
 -1      3530 2.00017E+01 2.49902E-04-4.44741E-06-2.35522E-03 1.89459E-13 1.25299E-13
 -1      3531 2.00020E+01 7.49157E-04 2.40318E-05-2.13176E-03 2.86125E-13 2.61508E-13
 -1      3532 2.00030E+01 1.34646E-03-1.39728E-05-1.70233E-03 1.55945E-13 2.14511E-13
 -1      3533 2.00012E+01-4.24816E-04-4.83544E-08-2.53848E-03 1.93762E-13 1.42964E-14
 -1      3534 2.00014E+01-1.24589E-04 1.50536E-05-2.48087E-03 1.71352E-13 1.68591E-13
 -1      3535 2.00024E+01 1.78359E-04-1.23004E-05-2.20097E-03 2.37725E-13 8.50873E-14
 -1      3536 2.00009E+01-8.02231E-04 2.60172E-06-2.49220E-03 3.00420E-13 1.11492E-13
 -1      3537 2.00010E+01-6.40530E-04 8.69141E-06-2.53776E-03 2.07490E-13 9.58515E-14
 -1      3538 2.00019E+01-5.33406E-04-1.04886E-05-2.36521E-03 9.48002E-14 1.72950E-13
 -1      3539 2.00006E+01-9.77455E-04 4.02671E-06-2.31118E-03-9.45219E-14 2.74822E-13
 -1      3540 2.00007E+01-9.09009E-04 4.30586E-06-2.41572E-03 1.72496E-13 2.48458E-13
 -1      3541 2.00014E+01-9.26141E-04-8.71740E-06-2.31825E-03 3.70800E-14 3.44592E-13
 -1      3542 2.00004E+01-1.02106E-03 4.61975E-06-2.06081E-03-4.25261E-14 2.40012E-13
 -1      3543 2.00004E+01-1.01239E-03 1.39481E-06-2.19417E-03-5.35680E-14 2.71806E-13
 -1      3544 2.00010E+01-1.10284E-03-7.08973E-06-2.14760E-03-8.04563E-14 2.54210E-13
 -1      3545 2.00002E+01-9.84823E-04 4.66675E-06-1.78444E-03-1.37507E-13 2.67671E-13
 -1      3546 2.00002E+01-1.01146E-03-4.32042E-07-1.92689E-03-3.49304E-14 3.47042E-13
 -1      3547 2.00007E+01-1.13988E-03-5.66098E-06-1.91360E-03-1.44392E-13 4.46556E-13
 -1      3548 2.00000E+01-9.06025E-04 4.45185E-06-1.50911E-03-2.11878E-13 1.20409E-13
 -1      3549 2.00001E+01-9.50527E-04-1.45591E-06-1.64858E-03-1.93109E-13 1.72327E-13
 -1      3550 2.00005E+01-1.09330E-03-4.43195E-06-1.65616E-03-6.49977E-14 3.13996E-13
 -1      3551 1.99999E+01-8.12943E-04 3.16054E-06-1.25056E-03-3.05711E-13-8.78733E-14
 -1      3552 2.00000E+01-8.62223E-04-2.19669E-06-1.38028E-03-2.37698E-13 6.82090E-14
 -1      3553 2.00003E+01-1.00295E-03-3.09833E-06-1.40020E-03-2.13169E-13 3.13901E-13
 -1      3554 1.99999E+01-7.43390E-04 1.02588E-06-1.04235E-03 1.94772E-13-4.52413E-13
 -1      3555 1.99999E+01-7.87782E-04-3.23665E-06-1.16027E-03-1.94864E-13-2.90492E-13
 -1      3556 2.00001E+01-9.14814E-04 1.35317E-07-1.18455E-03-5.04489E-14-1.56959E-13
 -1      3557 2.00001E+01-8.43797E-04 3.36099E-06-1.00946E-03 4.94832E-14-2.02078E-13
 -1      3558 2.46263E+01 3.10556E+00-5.29822E-02 1.61554E+00-1.93078E-13-4.72022E-13
 -1      3559 2.43020E+01 4.16051E+00-5.63943E-02 7.77153E-01-3.08968E-13-4.51793E-13
 -1      3560 2.00004E+01-1.09618E-03-3.06111E-06-4.35397E-04 2.46862E-13-2.37128E-13
 -1      3561 2.51377E+01 3.07444E+00-6.47933E-02-2.24891E+00-2.52139E-13-2.09536E-13
 -1      3562 2.57074E+01 1.93489E+00-3.83741E-02-2.20569E+00-1.95104E-13-1.10164E-13
 -1      3563 2.00007E+01-1.19493E-03 2.61211E-06 2.42009E-04 9.85967E-14-1.41178E-13
 -1      3564 2.00007E+01-1.21215E-03 2.01586E-06 9.29055E-05 1.09589E-13-1.98354E-13
 -1      3565 1.85823E+01 1.27940E+00-1.26209E-02 1.06221E+00-1.93547E-13-4.77619E-14
 -1      3566 1.83207E+01 1.39797E+00-4.95175E-03 1.18744E+00-2.44070E-13-1.24899E-13
 -1      3567 2.41704E+01 7.42473E-01-5.63532E-02-2.07007E+00-4.05708E-14-2.21493E-13
 -1      3568 2.37264E+01 1.39748E+00 1.87622E-02-2.21250E+00-8.63944E-14-2.27173E-13
 -1      3569 2.42522E+01 1.72271E+00 7.98429E-03-2.21801E+00-9.14321E-14-2.15292E-13
 -1      3570 2.47950E+01 4.98968E-01 8.65060E-03-1.74584E+00-5.78140E-15-1.57747E-13
 -1      3571 2.00001E+01-8.38868E-04-5.12251E-07 9.48277E-04 2.08201E-13 2.67726E-13
 -1      3572 2.28482E+01 2.71436E+00-2.35899E-02-1.35500E+00-1.76198E-13-2.97260E-13
 -1      3573 2.27157E+01 3.02353E+00-1.01781E-03-8.57568E-01-2.05409E-13-3.20261E-13
 -1      3574 2.32616E+01 3.58230E+00-6.49258E-03-5.81860E-01-2.55644E-13-3.65744E-13
 -1      3575 2.35333E+01 2.84050E+00-1.25985E-02-1.71304E+00-1.80210E-13-2.59421E-13
 -1      3576 1.90806E+01 1.04312E+00-8.89718E-03 8.83485E-01-6.97904E-14-3.69380E-14
 -1      3577 1.89036E+01 1.16286E+00-3.53050E-03 9.90819E-01-1.33396E-13-7.39549E-14
 -1      3578 1.89726E+01 1.07981E+00 1.12233E-02 6.91776E-01-5.14909E-14-1.23034E-13
 -1      3579 2.55107E+01 1.19633E+00-7.87256E-02-2.12962E+00-1.30564E-13-1.15531E-13
 -1      3580 2.54250E+01 2.62604E-01 4.86829E-03-1.40690E+00-2.06571E-14-5.12845E-14
 -1      3581 1.56062E+01-9.35385E-01 1.05396E-01-4.79935E+00 1.60066E-13 1.97307E-13
 -1      3582 1.78952E+01-2.30176E+00-6.60818E-02-5.07861E+00 2.51382E-13 1.41706E-13
 -1      3583 2.05807E+01-2.96522E+00 1.00187E-01-4.51534E+00 3.06559E-13-1.50522E-14
 -1      3584 2.24008E+01-3.58156E+00-4.51016E-02-3.63934E+00 3.59050E-13-8.28903E-14
 -1      3585 2.51579E+01-9.83491E-01-3.56972E-02 1.40921E-01 1.27448E-13 1.38344E-14
 -1      3586 1.97876E+01 4.86583E-01-3.47108E-03 4.60181E-01 9.53411E-14-4.54595E-14
 -1      3587 1.97443E+01 5.61273E-01-1.20560E-04 5.29106E-01 1.16284E-13-4.24238E-16
 -1      3588 1.95656E+01 6.65678E-01 5.25823E-03 4.88215E-01 1.70426E-13-1.06658E-13
 -1      3589 1.97272E+01 5.09595E-01 3.39796E-03 3.94257E-01 6.39811E-14-8.96048E-14
 -1      3590 2.00003E+01-9.58223E-04 4.80602E-07 9.41163E-04 3.16789E-13 9.73486E-14
 -1      3591 1.78584E+01 1.49820E+00-1.81137E-02 1.27068E+00-2.29382E-13-1.04218E-13
 -1      3592 1.74964E+01 1.58439E+00-3.02213E-03 1.42548E+00-2.66893E-13-9.72819E-14
 -1      3593 1.77176E+01 1.58006E+00 2.33349E-02 8.91604E-01-2.26648E-13-1.07352E-13
 -1      3594 1.22775E+01 7.57582E-01 7.26842E-02-2.95666E+00 1.25872E-14 3.49214E-13
 -1      3595 1.35011E+01-1.12275E-01-7.79558E-03-4.15402E+00 6.80966E-14 2.65288E-13
 -1      3596 1.84587E+01 1.32956E+00 1.61512E-02 7.92494E-01-1.81616E-13-1.11735E-13
 -1      3597 2.00006E+01-1.11999E-03-3.08376E-06 9.90508E-04 3.13811E-13 2.42072E-14
 -1      3598 2.00004E+01-1.04799E-03 8.07016E-07 8.14359E-04 3.38313E-13 1.06494E-13
 -1      3599 2.00006E+01-1.11845E-03 2.84589E-06 7.06770E-04 2.20920E-13-7.59396E-14
 -1      3600 2.55474E+01 2.24989E+00-5.82635E-02 1.83992E+00-7.50164E-14-4.28015E-13
 -1      3601 2.42148E+01 1.86822E+00-1.84404E-02 1.61082E+00-8.94528E-14-4.64487E-13
 -1      3602 2.43241E+01 9.22203E-01-2.39500E-02 1.77103E+00 5.28397E-15-4.44993E-13
 -1      3603 2.60350E+01 8.41498E-01-2.67189E-02 1.76261E+00 3.68455E-14-3.53228E-13
 -1      3604 2.00006E+01-1.16562E-03 2.71581E-06-4.08397E-04 1.93444E-13-2.40297E-13
 -1      3605 2.00005E+01-1.12241E-03 3.01424E-07-5.44601E-04 1.79774E-13-1.99924E-13
 -1      3606 2.00005E+01-1.08247E-03 2.10150E-06-6.75524E-04-3.41370E-14 1.09886E-13
 -1      3607 2.00004E+01-1.03741E-03 5.83396E-07-7.78503E-04-1.36804E-13 2.97153E-13
 -1      3608 2.00006E+01-1.16981E-03-3.20773E-06-6.56500E-04-1.58582E-14 5.05935E-14
 -1      3609 1.35187E+01 4.82926E-01 1.77078E-01 3.49952E+00-3.09905E-13 1.06498E-13
 -1      3610 1.15593E+01 1.08155E+00 1.16682E-01 2.20212E+00-2.98763E-13 2.92252E-13
 -1      3611 2.34444E+01-3.43641E+00 2.90773E-02-2.72271E+00 3.94638E-13-9.94812E-14
 -1      3612 2.39621E+01-3.08661E+00-1.24611E-02-1.65234E+00 3.74100E-13-1.77008E-13
 -1      3613 2.23401E+01-3.00109E+00-4.88119E-04-2.86915E+00 3.62646E-13-1.04933E-13
 -1      3614 1.54702E+01-2.79388E-01 6.72887E-02-3.98814E+00 1.27074E-13 2.00676E-13
 -1      3615 1.22427E+01 1.30718E+00 7.98044E-02 1.28878E+00-2.51989E-13 3.60559E-13
 -1      3616 2.00006E+01-1.14734E-03 2.42835E-06 5.42704E-04 5.16109E-14-1.72994E-13
 -1      3617 2.00007E+01-1.19324E-03 2.06601E-06 4.05138E-04 5.03497E-14-1.85342E-13
 -1      3618 2.00008E+01-1.27093E-03-3.18001E-06 3.47246E-04-3.88385E-14-1.36937E-13
 -1      3619 2.00008E+01-1.24116E-03-3.45375E-06 6.81001E-04 7.80227E-14 6.28038E-14
 -1      3620 2.00007E+01-1.21420E-03 1.98376E-06-8.54499E-05 1.12673E-13-2.50503E-13
 -1      3621 2.00007E+01-1.20020E-03 8.40753E-07-2.39118E-04 1.53777E-13-3.23364E-13
 -1      3622 2.00008E+01-1.24468E-03-2.98677E-06-3.52304E-04 3.04254E-13-2.54412E-13
 -1      3623 2.00008E+01-1.27628E-03-2.78926E-06 3.94073E-06 1.36715E-13-2.55594E-13
 -1      3624 1.68314E+01 1.62262E+00-2.37372E-02 1.55065E+00-2.34587E-13-1.29091E-14
 -1      3625 1.63624E+01 1.62310E+00 1.55854E-02 1.76276E+00-2.13232E-13 4.82435E-14
 -1      3626 1.66367E+01 1.77872E+00 2.95088E-02 1.00330E+00-2.10802E-13 1.22616E-13
 -1      3627 1.94746E+01-2.19530E+00 4.72179E-02-4.20654E+00 2.55612E-13 1.70090E-15
 -1      3628 2.52357E+01-5.14102E-01-4.53501E-02-7.47423E-01 7.07854E-14-3.90087E-14
 -1      3629 1.20551E+01 1.46533E+00 1.16916E-02-9.45310E-01-1.17879E-13 3.78968E-13
 -1      3630 1.20320E+01 1.18519E+00 6.54570E-02-2.10563E+00-6.27649E-14 3.71078E-13
 -1      3631 1.35014E+01 1.07812E+00 5.91749E-02-2.31384E+00-4.50888E-14 3.03969E-13
 -1      3632 1.44591E+01 9.54980E-01 2.99555E-02 3.01618E+00-2.78409E-13 1.71758E-13
 -1      3633 1.44652E+01-4.75026E-01 9.49551E-02 4.06957E+00-2.54421E-13 2.30371E-15
 -1      3634 2.51050E+01-2.60777E+00-1.69823E-02-4.32134E-01 2.67465E-13-1.81371E-13
 -1      3635 2.59061E+01-2.09399E+00-2.24031E-02 2.35717E-01 2.12389E-13-2.25587E-13
 -1      3636 2.60357E+01-1.34358E+00-1.30895E-02 7.53892E-01 1.55813E-13-2.76664E-13
 -1      3637 2.60928E+01-9.23818E-02-7.46699E-02 1.45580E+00 8.22953E-14-2.98355E-13
 -1      3638 2.52632E+01 8.02254E-02-2.25403E-02 1.57682E+00 3.70936E-14-3.71779E-13
 -1      3639 2.52834E+01-1.30212E+00-2.72269E-02 9.15877E-01 1.77284E-13-3.10071E-13
 -1      3640 1.34877E+01 1.41683E+00 1.76792E-02 1.75695E+00-2.00109E-13 3.10529E-13
 -1      3641 1.24417E+01 1.68378E+00 7.64067E-02 3.51234E-01-1.76146E-13 3.38604E-13
 -1      3642 1.54418E+01 1.21010E+00 3.27389E-02 2.55506E+00-1.81078E-13 1.32880E-13
 -1      3643 1.45091E+01 1.39165E+00 7.31380E-02 2.21573E+00-2.10989E-13 2.48464E-13
 -1      3644 1.43408E+01 1.65585E+00-1.42225E-02 1.43123E+00-1.19257E-13 2.94549E-13
 -1      3645 2.42634E+01 8.06298E-02-2.30942E-02 1.58163E+00 5.53863E-14-4.33631E-13
 -1      3646 2.39752E+01-1.18100E+00-5.61078E-03 9.73852E-01 1.56837E-13-3.58107E-13
 -1      3647 2.37613E+01-1.60398E+00 3.01811E-03 6.38403E-01 1.89030E-13-3.08780E-13
 -1      3648 2.32525E+01-1.80373E+00-4.79139E-03 1.82246E-01 2.01818E-13-2.66471E-13
 -1      3649 2.29256E+01-1.84800E+00 1.69116E-02-1.10153E-01 2.20295E-13-2.34101E-13
 -1      3650 2.37824E+01-2.05782E+00-5.85805E-03 4.31830E-02 2.39266E-13-2.99879E-13
 -1      3651 2.23804E+01-1.78208E+00-8.71817E-03-3.97445E-01 1.24301E-13-2.27113E-13
 -1      3652 2.20456E+01-1.61999E+00 1.76000E-02-5.91960E-01 7.62277E-14-2.30700E-13
 -1      3653 2.26838E+01-2.07532E+00-2.30613E-02-6.51455E-01 1.87466E-13-1.44300E-13
 -1      3654 2.15929E+01-1.43023E+00-2.78397E-03-7.17560E-01 7.01284E-14-1.96021E-13
 -1      3655 2.12957E+01-1.20763E+00 1.38048E-02-8.16421E-01 2.62453E-14-1.38807E-13
 -1      3656 2.17212E+01-1.67100E+00-1.61348E-02-1.00379E+00 9.58331E-14-1.58625E-13
 -1      3657 2.09662E+01-9.92884E-01 1.04561E-03-8.33219E-01 3.15598E-14-8.22062E-14
 -1      3658 2.07321E+01-7.82096E-01 8.93677E-03-8.62387E-01 4.59910E-14-1.16114E-13
 -1      3659 2.09740E+01-1.15761E+00-1.16855E-02-1.09169E+00 8.59417E-14-6.57794E-14
 -1      3660 2.05155E+01-5.93691E-01 2.81347E-03-8.19980E-01 1.87250E-14-1.80675E-13
 -1      3661 2.03476E+01-4.25069E-01 5.09274E-03-8.07195E-01 9.39960E-15-1.43517E-13
 -1      3662 2.04567E+01-6.88316E-01-7.53573E-03-1.02619E+00 6.80977E-15-2.91447E-14
 -1      3663 2.02178E+01-2.80420E-01 3.25496E-03-7.40621E-01 7.10478E-14-1.74605E-13
 -1      3664 2.01063E+01-1.59353E-01 2.52160E-03-7.06416E-01 9.52113E-14-1.18632E-13
 -1      3665 2.01297E+01-3.23195E-01-4.33106E-03-8.91924E-01-2.34066E-14-1.18678E-13
 -1      3666 2.00372E+01-5.89315E-02 2.98770E-03-6.35250E-01 1.14023E-13-1.01771E-13
 -1      3667 1.99689E+01 1.98719E-02 9.02996E-04-5.92677E-01 9.81363E-14-1.08648E-14
 -1      3668 1.99420E+01-6.70337E-02-2.14829E-03-7.39556E-01 1.22752E-13-3.32061E-15
 -1      3669 1.99393E+01 8.28139E-02 2.44251E-03-5.26543E-01 9.96292E-14 8.74923E-14
 -1      3670 1.99013E+01 1.28300E-01-3.70257E-05-4.83085E-01 1.15489E-13 1.10518E-13
 -1      3671 1.98488E+01 9.60220E-02-8.16739E-04-5.94671E-01 1.66130E-13 5.46162E-14
 -1      3672 1.98957E+01 1.62561E-01 1.87528E-03-4.25831E-01 7.96470E-14 1.27365E-13
 -1      3673 1.98776E+01 1.83859E-01-5.25744E-04-3.85382E-01 5.21249E-14 9.73845E-14
 -1      3674 1.98155E+01 1.87547E-01-4.85528E-05-4.68045E-01 1.06191E-13 6.18004E-14
 -1      3675 1.98853E+01 1.97833E-01 1.38606E-03-3.37847E-01 8.13371E-14 1.22743E-13
 -1      3676 1.98793E+01 2.02835E-01-7.34234E-04-3.02151E-01 9.92719E-14 1.34584E-13
 -1      3677 1.98174E+01 2.28109E-01 3.56886E-04-3.62532E-01 7.54941E-14 1.07216E-13
 -1      3678 1.98932E+01 2.03524E-01 1.00054E-03-2.63737E-01 3.16806E-14 7.80856E-14
 -1      3679 1.98940E+01 1.98436E-01-7.78518E-04-2.33319E-01 4.83552E-15 4.73901E-14
 -1      3680 1.98377E+01 2.34877E-01 5.34393E-04-2.77186E-01 1.86311E-14 7.35533E-14
 -1      3681 1.99097E+01 1.91206E-01 7.12902E-04-2.02855E-01 2.22051E-14 2.51665E-14
 -1      3682 1.99138E+01 1.80580E-01-7.33369E-04-1.77588E-01 5.72102E-15-6.95447E-14
 -1      3683 1.98656E+01 2.21062E-01 5.75571E-04-2.09496E-01 8.66485E-15-6.11129E-14
 -1      3684 1.99289E+01 1.69279E-01 5.05726E-04-1.53770E-01 5.21783E-14-2.02561E-13
 -1      3685 1.99341E+01 1.56252E-01-6.45225E-04-1.33208E-01 6.62382E-15-2.31454E-13
 -1      3686 1.98947E+01 1.96210E-01 5.41361E-04-1.56558E-01-5.23880E-14-2.26017E-13
 -1      3687 1.99473E+01 1.43474E-01 3.59737E-04-1.14805E-01-2.94617E-14-2.30909E-13
 -1      3688 1.99524E+01 1.30074E-01-5.41919E-04-9.83650E-02 4.92941E-14-2.05787E-13
 -1      3689 1.99215E+01 1.66827E-01 4.70728E-04-1.15606E-01 6.72858E-15-2.31269E-13
 -1      3690 1.99633E+01 1.17444E-01 2.58053E-04-8.43019E-02 8.65325E-14-1.96485E-13
 -1      3691 1.99677E+01 1.04875E-01-4.39364E-04-7.13718E-02 1.19489E-13-1.80966E-13
 -1      3692 1.99443E+01 1.37075E-01 3.87645E-04-8.42277E-02 6.31924E-14-2.85279E-13
 -1      3693 1.99763E+01 9.33221E-02 1.87368E-04-6.07426E-02 2.94969E-14-2.78202E-13
 -1      3694 1.99797E+01 8.22115E-02-3.45907E-04-5.07349E-02-4.42241E-14-3.32180E-13
 -1      3695 1.99626E+01 1.09398E-01 3.05852E-04-6.04058E-02 2.20313E-15-3.42427E-13
 -1      3696 1.99862E+01 7.21815E-02 1.37905E-04-4.27958E-02 7.28036E-15-4.57505E-13
 -1      3697 1.99887E+01 6.27735E-02-2.65239E-04-3.51758E-02-2.12998E-14-4.50477E-13
 -1      3698 1.99767E+01 8.50434E-02 2.32478E-04-4.24980E-02-4.91353E-14-4.54946E-13
 -1      3699 1.99934E+01 5.44007E-02 1.02806E-04-2.93245E-02-3.93467E-14-3.73541E-13
 -1      3700 1.99951E+01 4.67005E-02-1.98283E-04-2.36225E-02 6.27669E-14-3.64521E-13
 -1      3701 1.99871E+01 6.44710E-02 1.70503E-04-2.91844E-02 3.71107E-14-3.92560E-13
 -1      3702 1.99984E+01 3.99303E-02 7.74217E-05-1.93762E-02 2.57331E-14-4.09355E-13
 -1      3703 1.99995E+01 3.38068E-02-1.44405E-04-1.51900E-02-1.91002E-14-3.29480E-13
 -1      3704 1.99944E+01 4.76511E-02 1.20445E-04-1.94133E-02 7.13367E-14-2.34537E-13
 -1      3705 2.00016E+01 2.84816E-02 5.86736E-05-1.21651E-02-9.91405E-14-2.47163E-13
 -1      3706 2.00022E+01 2.37366E-02-1.02192E-04-9.15757E-03 6.14815E-15-1.11372E-13
 -1      3707 1.99993E+01 3.42762E-02 8.14739E-05-1.23518E-02 2.10357E-14-2.63655E-13
 -1      3708 2.00035E+01 1.96534E-02 4.45506E-05-7.05148E-03-4.39447E-14-1.79588E-13
 -1      3709 2.00037E+01 1.60666E-02-6.99138E-05-4.94555E-03-8.33798E-14-2.46980E-13
 -1      3710 2.00023E+01 2.39053E-02 5.21280E-05-7.34343E-03-3.33323E-14-1.86146E-13
 -1      3711 2.00044E+01 1.30127E-02 3.37389E-05-3.52150E-03 4.58216E-14-2.78586E-13
 -1      3712 2.00044E+01 1.03685E-02-4.58143E-05-2.09325E-03 1.25230E-13-2.36810E-13
 -1      3713 2.00040E+01 1.60552E-02 3.07335E-05-3.87389E-03 8.63896E-15-1.73751E-13
 -1      3714 2.00047E+01 8.14271E-03 2.53772E-05-1.16762E-03 1.80671E-13-2.47263E-13
 -1      3715 2.00045E+01 6.24522E-03-2.82627E-05-2.39088E-04 4.69949E-14-2.08347E-13
 -1      3716 2.00048E+01 1.02567E-02 1.56728E-05-1.54269E-03 7.43823E-14-2.95284E-13
 -1      3717 2.00045E+01 4.66842E-03 1.88803E-05 3.29002E-04 1.02045E-14-7.62824E-14
 -1      3718 2.00043E+01 3.34804E-03-1.58253E-05 8.96915E-04 1.19835E-13 9.05270E-14
 -1      3719 2.00050E+01 6.08441E-03 5.49446E-06-4.04687E-05 1.86354E-13-1.51076E-13
 -1      3720 2.00041E+01 2.26778E-03 1.38354E-05 1.21430E-03 2.60131E-14 4.72508E-14
 -1      3721 2.00039E+01 1.38302E-03-7.29314E-06 1.52850E-03-1.64756E-13 7.72387E-14
 -1      3722 2.00047E+01 3.17053E-03-1.03173E-06 8.69372E-04 6.02252E-14-2.60492E-14
 -1      3723 2.00036E+01 6.73684E-04 9.93895E-06 1.67510E-03-2.30849E-13 3.18481E-15
 -1      3724 2.00033E+01 1.09882E-04-1.67687E-06 1.81628E-03-1.54414E-13-4.82080E-14
 -1      3725 2.00043E+01 1.20825E-03-4.90621E-06 1.36573E-03-2.59244E-13-2.13786E-13
 -1      3726 2.00030E+01-3.29227E-04 6.95860E-06 1.85092E-03-3.33385E-15-8.95704E-14
 -1      3727 2.00028E+01-6.62735E-04 1.81247E-06 1.87881E-03 2.44900E-13-8.42745E-15
 -1      3728 2.00037E+01-5.12867E-05-6.91619E-06 1.58204E-03-1.21862E-13-1.83346E-13
 -1      3729 2.00025E+01-9.10483E-04 4.71093E-06 1.84398E-03 4.01764E-13-3.69789E-14
 -1      3730 2.00023E+01-1.08384E-03 3.79066E-06 1.80184E-03 2.89088E-13 5.31842E-14
 -1      3731 2.00031E+01-8.05096E-04-7.66285E-06 1.61619E-03 3.50511E-13 4.13234E-14
 -1      3732 2.00020E+01-1.20071E-03 3.04441E-06 1.72750E-03 1.91647E-13 8.21508E-14
 -1      3733 2.00018E+01-1.26713E-03 4.71835E-06 1.64582E-03 3.28879E-13 1.44903E-13
 -1      3734 2.00025E+01-1.20582E-03-7.58314E-06 1.53861E-03 2.18219E-13-1.12950E-13
 -1      3735 2.00015E+01-1.29870E-03 1.82999E-06 1.55250E-03 2.71331E-13 9.12978E-14
 -1      3736 2.00013E+01-1.29776E-03 4.94738E-06 1.45199E-03 2.15940E-13 1.49510E-13
 -1      3737 2.00020E+01-1.36958E-03-7.03922E-06 1.39880E-03 2.76585E-13-1.50687E-14
 -1      3738 2.00011E+01-1.27802E-03 9.34398E-07 1.35304E-03 5.75112E-14 2.02767E-14
 -1      3739 2.00010E+01-1.23774E-03 4.97431E-06 1.24764E-03 1.41363E-13-7.84886E-14
 -1      3740 2.00015E+01-1.38245E-03-6.04525E-06 1.23031E-03 8.20437E-14-3.11376E-13
 -1      3741 2.00008E+01-1.21167E-03-7.89469E-07 1.16524E-03 1.93298E-13 4.59493E-14
 -1      3742 2.00007E+01-1.15619E-03 2.81718E-06 1.06384E-03 2.53688E-13-6.81749E-14
 -1      3743 2.00009E+01-1.24380E-03 1.30366E-06 9.23409E-04 2.00949E-13 8.29415E-14
 -1      3744 2.00011E+01-1.32463E-03-3.55444E-06 1.06638E-03 2.35613E-13-3.63785E-13
 -1      3745 2.45980E+01 4.89323E+00-7.23621E-02 1.37532E-01-3.47423E-13-4.18362E-13
 -1      3746 2.41110E+01 4.46660E+00-1.93923E-02-4.76381E-01-3.03393E-13-3.37451E-13
 -1      3747 1.98634E+01 2.91955E-01-1.47562E-03 1.98930E-01-9.20286E-14 1.59646E-14
 -1      3748 1.98367E+01 3.34371E-01-3.20607E-04 2.28278E-01-1.19445E-13-5.14574E-15
 -1      3749 1.97869E+01 3.81268E-01-1.92610E-03 2.51054E-01-1.04982E-13-5.82519E-14
 -1      3750 1.97450E+01 4.34829E-01-8.09459E-04 2.85253E-01-1.34931E-14-6.49294E-14
 -1      3751 1.97675E+01 3.86396E-01 2.27599E-03 2.03529E-01-1.43806E-13 8.56178E-15
 -1      3752 1.99487E+01 1.67198E-01-8.57088E-04 1.16705E-01-8.70413E-14 1.39049E-13
 -1      3753 1.99386E+01 1.93141E-01 1.10400E-04 1.36523E-01-1.16847E-13 1.00616E-13
 -1      3754 1.99710E+01 1.24868E-01-6.45429E-04 8.64708E-02-1.81737E-14 1.50339E-13
 -1      3755 1.99651E+01 1.44964E-01 1.77901E-04 1.02203E-01 1.68961E-14 1.52718E-13
 -1      3756 1.99390E+01 1.71870E-01 7.15633E-04 9.89965E-02-7.05699E-14 1.29607E-13
 -1      3757 1.99854E+01 9.22644E-02-4.81551E-04 6.25708E-02 1.70866E-14 2.23723E-13
 -1      3758 1.99821E+01 1.07736E-01 1.96586E-04 7.48147E-02-2.08215E-14 1.25815E-13
 -1      3759 1.99641E+01 1.28696E-01 4.78530E-04 7.39257E-02 1.77179E-14 1.13171E-13
 -1      3760 1.99944E+01 6.73123E-02-3.55458E-04 4.40832E-02-1.12154E-13 3.20546E-13
 -1      3761 1.99928E+01 7.91428E-02 1.88373E-04 5.34347E-02 2.85801E-14 3.02728E-13
 -1      3762 1.99806E+01 9.52507E-02 3.15972E-04 5.37937E-02-7.85169E-15 1.87715E-13
 -1      3763 1.99999E+01 4.83580E-02-2.59088E-04 3.00777E-02 2.07026E-14 1.59753E-13
 -1      3764 1.99992E+01 5.73318E-02 1.67013E-04 3.70867E-02-9.19837E-14 2.64341E-13
 -1      3765 1.99913E+01 6.95411E-02 2.05043E-04 3.80452E-02-1.61668E-14 1.52981E-13
 -1      3766 2.00030E+01 3.40876E-02-1.85982E-04 1.96902E-02 2.54668E-13 6.29774E-14
 -1      3767 2.00029E+01 4.08298E-02 1.40767E-04 2.48402E-02 1.30846E-13 1.55843E-13
 -1      3768 1.99981E+01 4.99493E-02 1.29761E-04 2.60189E-02 3.42332E-14 8.49148E-14
 -1      3769 2.00045E+01 2.34582E-02-1.31006E-04 1.21587E-02 3.95123E-14 1.59876E-13
 -1      3770 2.00048E+01 2.84664E-02 1.14327E-04 1.58608E-02 1.91052E-13 1.85309E-13
 -1      3771 2.00021E+01 3.51687E-02 7.90528E-05 1.70490E-02 1.65140E-13 1.45420E-13
 -1      3772 2.00051E+01 1.56424E-02-8.99963E-05 6.83581E-03-2.14162E-13 5.85360E-14
 -1      3773 2.00055E+01 1.93117E-02 9.01156E-05 9.43031E-03-7.00102E-14 8.39389E-14
 -1      3774 2.00042E+01 2.41479E-02 4.53243E-05 1.05203E-02 4.76704E-14 9.95862E-14
 -1      3775 2.00051E+01 9.97677E-03-6.24012E-05 3.18374E-03-3.51548E-14-6.87382E-14
 -1      3776 2.00056E+01 1.26274E-02 6.87175E-05 4.94956E-03-1.79089E-13-5.18415E-14
 -1      3777 2.00052E+01 1.60449E-02 2.40752E-05 5.89496E-03-8.44233E-14-2.51280E-13
 -1      3778 2.00047E+01 5.79276E-03-3.99727E-05 6.83431E-04 1.45668E-13 6.74186E-14
 -1      3779 2.00052E+01 7.72731E-03 5.11317E-05 1.87081E-03 3.96028E-15-3.74325E-14
 -1      3780 2.00054E+01 1.00765E-02 1.31604E-05 2.66447E-03-1.06193E-13-2.27577E-13
 -1      3781 2.00042E+01 3.06532E-03-2.24052E-05-7.77319E-04 4.13782E-14 1.61067E-13
 -1      3782 2.00046E+01 4.32667E-03 3.74491E-05-8.72253E-05 1.74465E-13 1.57193E-13
 -1      3783 2.00052E+01 5.85145E-03 1.19319E-07 5.46597E-04 4.50641E-14 8.28305E-14
 -1      3784 2.00036E+01 1.23094E-03-1.17543E-05-1.61316E-03 1.35726E-13 3.42950E-13
 -1      3785 2.00040E+01 2.06847E-03 2.65933E-05-1.22903E-03-1.62350E-14 3.06205E-13
 -1      3786 2.00047E+01 3.03065E-03-5.23140E-06-7.25165E-04-2.71996E-14 1.39529E-13
 -1      3787 2.00030E+01 5.20174E-05-4.69991E-06-2.01738E-03 1.04563E-13 3.33861E-13
 -1      3788 2.00033E+01 5.82480E-04 1.83540E-05-1.84118E-03 1.94360E-13 3.49176E-13
 -1      3789 2.00041E+01 1.14567E-03-7.80301E-06-1.44873E-03 1.05403E-13 3.65733E-13
 -1      3790 2.00024E+01-6.58395E-04-1.56391E-07-2.13622E-03 1.13341E-13 3.86200E-13
 -1      3791 2.00027E+01-3.46053E-04 1.21964E-05-2.09615E-03 1.88734E-13 3.62261E-13
 -1      3792 2.00034E+01-5.82704E-05-8.79594E-06-1.79551E-03 1.88183E-13 4.55712E-13
 -1      3793 2.00019E+01-1.04240E-03 2.58340E-06-2.07608E-03-2.01541E-14 3.76577E-13
 -1      3794 2.00021E+01-8.80827E-04 7.69579E-06-2.12027E-03-2.44229E-14 2.72648E-13
 -1      3795 2.00028E+01-7.76711E-04-8.80449E-06-1.89349E-03 6.81496E-14 3.44224E-13
 -1      3796 2.00014E+01-1.20657E-03 4.06318E-06-1.91240E-03-9.17045E-15 3.03084E-13
 -1      3797 2.00016E+01-1.14542E-03 4.48766E-06-2.00435E-03 5.75134E-14 4.33750E-13
 -1      3798 2.00022E+01-1.15807E-03-8.23068E-06-1.83577E-03 1.10984E-13 4.45308E-13
 -1      3799 2.00011E+01-1.22993E-03 4.67621E-06-1.69704E-03-2.42312E-13 3.61881E-13
 -1      3800 2.00012E+01-1.23200E-03 2.26140E-06-1.81186E-03-2.38351E-13 2.54169E-13
 -1      3801 2.00017E+01-1.31358E-03-7.34259E-06-1.68838E-03-1.28207E-13 4.43642E-13
 -1      3802 2.00007E+01-1.17016E-03 4.84477E-06-1.46408E-03-8.28164E-15 2.53494E-13
 -1      3803 2.00009E+01-1.20838E-03 7.74316E-07-1.58558E-03-2.71767E-14 3.75347E-13
 -1      3804 2.00013E+01-1.32561E-03-6.32915E-06-1.49655E-03-1.30687E-13 1.80305E-13
 -1      3805 2.00005E+01-1.06971E-03 3.82103E-06-1.23651E-03-1.47125E-13 1.31029E-13
 -1      3806 2.00006E+01-1.12407E-03-1.52658E-07-1.35328E-03-5.49057E-14 3.03780E-13
 -1      3807 2.00009E+01-1.25388E-03-5.50947E-06-1.29009E-03 7.25427E-14 2.31741E-13
 -1      3808 2.46955E+01 3.54449E+00-3.86087E-02-1.98466E+00-2.51799E-13-2.55388E-13
 -1      3809 2.44476E+01 2.64169E+00-3.28558E-02-2.11346E+00-2.00655E-13-2.54907E-13
 -1      3810 2.00003E+01-9.77271E-04 2.66057E-06-8.65877E-04-4.42814E-14 1.38206E-13
 -1      3811 2.00002E+01-9.14392E-04 1.51533E-06-9.45112E-04-9.38302E-15 3.30167E-14
 -1      3812 2.00002E+01-9.52964E-04-2.61133E-06-1.03020E-03-8.00197E-14 1.56463E-14
 -1      3813 2.00005E+01-1.07488E-03-9.28144E-07-8.80477E-04-1.29432E-13 1.80122E-13
 -1      3814 1.59629E+01 1.44800E+00-2.91045E-02 2.19417E+00-2.54904E-13 5.06192E-14
 -1      3815 2.41828E+01 3.83897E+00-3.09040E-02-1.56644E+00-2.58939E-13-2.85466E-13
 -1      3816 1.99147E+01 2.21840E-01-1.12878E-03 1.54052E-01-5.60956E-14-9.64838E-16
 -1      3817 1.98980E+01 2.55125E-01-3.95664E-05 1.78478E-01-4.07964E-14-8.25242E-14
 -1      3818 1.99018E+01 2.27199E-01 1.05983E-03 1.29286E-01-1.01580E-13-3.53551E-14
 -1      3819 2.47526E+01 1.64339E+00-1.35925E-02-2.32261E+00-1.22753E-13-2.00048E-13
 -1      3820 1.88960E+01 1.01736E+00-5.62451E-03 4.72490E-01-3.33838E-14-1.23151E-13
 -1      3821 1.86745E+01 1.12795E+00-7.35813E-03 5.06487E-01-1.15665E-13-1.27675E-13
 -1      3822 1.92516E+01 8.14596E-01-4.18470E-03 4.28878E-01 1.54686E-13-1.25962E-13
 -1      3823 1.91012E+01 9.12163E-01-4.80637E-03 4.68344E-01 7.02471E-14-8.28985E-14
 -1      3824 1.88983E+01 9.99893E-01 9.67025E-03 3.01794E-01 4.34434E-15-9.94093E-14
 -1      3825 1.85483E+01-1.42566E+00 6.79534E-02-4.02647E+00 2.87990E-13-1.84974E-14
 -1      3826 2.03846E+01-2.40826E+00-4.11685E-02-3.62895E+00 3.19116E-13-7.15886E-14
 -1      3827 1.51672E+01 4.25808E-01 4.11532E-02-3.15767E+00 2.39138E-14 1.41590E-13
 -1      3828 1.66067E+01-5.91691E-01-4.56102E-02-3.83243E+00 1.24348E-13 1.19155E-13
 -1      3829 1.34079E+01 1.66595E+00 6.03241E-02-2.93543E-01-1.37450E-13 2.97071E-13
 -1      3830 1.76563E+01 1.47310E+00-1.12339E-02 4.71674E-01-1.61826E-13-1.04921E-13
 -1      3831 1.71959E+01 1.58036E+00-1.36805E-02 4.83776E-01-1.37362E-13-1.79282E-14
 -1      3832 1.83857E+01 1.24324E+00-7.78267E-03 4.91170E-01-1.40760E-13-1.61910E-13
 -1      3833 1.80641E+01 1.35863E+00-1.09123E-02 5.15302E-01-1.77230E-13-8.03605E-14
 -1      3834 1.77484E+01 1.43761E+00 2.05790E-02 1.48695E-01-1.60194E-13-7.99794E-14
 -1      3835 1.84202E+01 1.21471E+00 1.37735E-02 2.57080E-01-1.25241E-13-1.44747E-13
 -1      3836 2.43537E+01 2.26965E+00 9.12332E-04-2.24771E+00-1.55789E-13-2.22792E-13
 -1      3837 1.55912E+01 1.74770E+00 3.34000E-02 1.45969E+00-1.62088E-13 2.12980E-13
 -1      3838 1.95028E+01 6.38258E-01-3.20604E-03 3.70827E-01 1.75394E-13-2.16364E-13
 -1      3839 1.94003E+01 7.22393E-01-2.91547E-03 4.12239E-01 2.36321E-13-1.70226E-13
 -1      3840 1.92410E+01 8.04311E-01 6.74350E-03 3.03677E-01 2.08020E-13-1.12127E-13
 -1      3841 2.35830E+01 3.43334E+00 2.00040E-03 7.81254E-01-2.44939E-13-4.17718E-13
 -1      3842 1.66219E+01 1.66020E+00-1.54322E-02 4.13194E-01-9.89872E-14 1.06237E-13
 -1      3843 1.59924E+01 1.73548E+00-3.29468E-03 4.01951E-01-1.18211E-13 2.31867E-13
 -1      3844 1.67998E+01 1.63991E+00 3.20180E-02-4.29031E-02-3.03739E-15 1.10101E-13
 -1      3845 2.35504E+01 3.88346E+00-1.20901E-02-5.82720E-01-2.61702E-13-3.51280E-13
 -1      3846 2.38531E+01 3.86957E+00-6.25726E-02-1.23507E+00-2.50572E-13-2.96953E-13
 -1      3847 1.98472E+01 2.97586E-01 1.55719E-03 1.64532E-01-4.51359E-14-7.16365E-14
 -1      3848 1.43349E+01 1.24948E+00 8.37498E-03-1.86528E+00-8.31297E-14 2.32422E-13
 -1      3849 1.46912E+01 8.20740E-01 1.88965E-02-2.69066E+00-2.32947E-14 2.13886E-13
 -1      3850 1.59897E+01 6.13868E-01 1.61811E-02-2.56850E+00 1.60527E-15 6.09721E-14
 -1      3851 2.00003E+01-9.92927E-04 1.18662E-06-1.08567E-03-7.44883E-14-7.52919E-14
 -1      3852 2.00004E+01-1.02888E-03-8.76383E-07-1.17531E-03-1.46714E-13 5.43163E-14
 -1      3853 2.00006E+01-1.16032E-03-4.33370E-06-1.13175E-03-1.24349E-13 9.94527E-14
 -1      3854 2.00004E+01-1.06078E-03-1.84831E-06-1.01909E-03-1.06252E-13-5.22993E-14
 -1      3855 2.00008E+01-1.25621E-03 1.20967E-06-6.10675E-04 1.03617E-13 1.24336E-13
 -1      3856 2.00008E+01-1.22199E-03-1.23260E-06-7.46049E-04-6.78008E-14 3.80679E-13
 -1      3857 2.00010E+01-1.33193E-03 2.20706E-06 9.57939E-05 5.41504E-16-3.85208E-13
 -1      3858 2.00010E+01-1.33251E-03 2.09411E-06-8.58824E-05 1.67892E-13-3.96683E-13
 -1      3859 2.32364E+01-2.54851E+00 2.42016E-03-1.18193E+00 2.81627E-13-1.52227E-13
 -1      3860 2.41130E+01-2.67219E+00 7.61723E-03-7.75429E-01 2.96552E-13-2.19271E-13
 -1      3861 1.53382E+01 1.78403E+00-3.35905E-02 6.21295E-01-1.34619E-13 2.78649E-13
 -1      3862 1.50477E+01 1.75611E+00 2.22970E-02 1.01840E+00-1.10786E-13 3.01091E-13
 -1      3863 1.43607E+01 1.81959E+00 3.20101E-02 5.45600E-01-1.06140E-13 3.27422E-13
 -1      3864 1.56095E+01 1.82644E+00 4.13901E-02-1.20670E-02-1.00732E-13 2.63791E-13
 -1      3865 2.00010E+01-1.32596E-03 6.89288E-07-2.68035E-04 2.23703E-13-2.68657E-13
 -1      3866 2.00009E+01-1.29251E-03 1.30042E-06-4.42678E-04 1.42703E-13-2.15352E-13
 -1      3867 2.00011E+01-1.34854E-03-2.16222E-06-5.27813E-04 5.89146E-14 3.48083E-14
 -1      3868 2.00012E+01-1.39485E-03-8.71466E-07-1.74578E-04-9.96647E-15-4.26264E-13
 -1      3869 2.00011E+01-1.34761E-03-7.92881E-07 2.84593E-04 2.02113E-14-1.58366E-13
 -1      3870 2.00012E+01-1.41419E-03-7.05093E-07 1.92714E-04-1.08649E-14-3.06674E-13
 -1      3871 2.00011E+01-1.34163E-03 2.12817E-06 4.51159E-04 1.61747E-13-1.58437E-14
 -1      3872 1.40076E+01 1.67661E+00 5.27107E-03-6.35188E-01-1.52423E-13 3.06965E-13
 -1      3873 2.14811E+01-2.53363E+00 4.34351E-02-3.08791E+00 3.23182E-13-8.66028E-14
 -1      3874 2.21705E+01-2.59164E+00 1.73363E-03-2.33935E+00 3.43007E-13-1.46504E-13
 -1      3875 2.04077E+01-1.97661E+00-1.68179E-02-3.08477E+00 2.77659E-13-9.02143E-14
 -1      3876 1.79914E+01-7.38302E-01 3.13799E-02-3.40470E+00 1.89337E-13-6.05293E-14
 -1      3877 1.96728E+01 4.94876E-01-2.46678E-03 3.09249E-01 4.27017E-14-1.69363E-13
 -1      3878 1.96060E+01 5.63291E-01-1.65100E-03 3.48447E-01 8.65059E-14-2.51481E-13
 -1      3879 1.94835E+01 6.36463E-01 4.77847E-03 2.80106E-01 1.49370E-13-2.79261E-13
 -1      3880 1.96515E+01 4.98015E-01 3.28907E-03 2.43816E-01-6.55067E-14-2.07108E-13
 -1      3881 2.36833E+01 3.32744E+00 1.15925E-02-1.57149E+00-2.18010E-13-2.90361E-13
 -1      3882 2.24962E+01-2.55276E+00-1.00833E-02-1.88472E+00 2.91925E-13-1.25591E-13
 -1      3883 2.27065E+01-2.19059E+00 8.94886E-03-1.02615E+00 2.34108E-13-1.09013E-13
 -1      3884 2.21555E+01-1.99734E+00 1.96717E-02-1.27255E+00 1.47294E-13-1.08361E-13
 -1      3885 2.16131E+01-2.16360E+00-1.03063E-02-2.14024E+00 2.52393E-13-4.69438E-14
 -1      3886 2.34782E+01 3.84760E+00-4.08814E-02 1.39736E-01-2.95023E-13-3.93203E-13
 -1      3887 2.44604E+01-6.10153E-01-1.33358E-04 1.37459E+00 9.63517E-14-4.09341E-13
 -1      3888 2.48261E+01-1.22874E+00-1.03990E-03 9.13882E-01 1.78966E-13-3.39560E-13
 -1      3889 1.98329E+01 2.85901E-01-1.02125E-03 1.24241E-01-9.06187E-14 6.31210E-14
 -1      3890 1.97993E+01 3.24912E-01-7.88390E-04 1.40823E-01-5.40771E-14 3.21873E-19
 -1      3891 2.16171E+01-1.67293E+00 9.89161E-03-1.30531E+00 1.18185E-13-1.11012E-13
 -1      3892 2.11796E+01-1.40761E+00 1.00724E-02-1.37471E+00 1.35639E-13-1.37187E-13
 -1      3893 2.14253E+01-1.78714E+00-1.58052E-02-1.68517E+00 1.40279E-13-7.97906E-14
 -1      3894 2.08352E+01-1.10496E+00 8.54774E-03-1.30217E+00 1.23861E-13-7.88736E-14
 -1      3895 2.05158E+01-8.53371E-01 3.50897E-03-1.27443E+00 6.52427E-14-4.08381E-14
 -1      3896 2.05989E+01-1.14602E+00-1.85548E-02-1.58911E+00 1.45169E-13-1.60745E-14
 -1      3897 2.03169E+01-6.15950E-01 6.39632E-03-1.16017E+00-1.39772E-14-4.36703E-15
 -1      3898 2.01039E+01-4.19229E-01-8.10495E-04-1.08774E+00-9.72477E-14-2.41737E-14
 -1      3899 2.00985E+01-6.01585E-01-1.23486E-02-1.34596E+00 4.88336E-14-4.02378E-14
 -1      3900 2.00050E+01-2.50125E-01 4.75226E-03-9.69497E-01-3.87912E-14 3.67270E-14
 -1      3901 1.98743E+01-1.12030E-01-2.54459E-03-8.84595E-01 1.84148E-15 3.08650E-14
 -1      3902 1.98231E+01-2.05858E-01-5.84658E-03-1.08034E+00-4.62676E-14 4.70943E-14
 -1      3903 1.98374E+01-1.73507E-03 3.34562E-03-7.78819E-01 1.01294E-13 6.34659E-15
 -1      3904 1.97652E+01 8.61994E-02-3.01250E-03-6.97413E-01 2.01089E-13 1.32778E-14
 -1      3905 1.96936E+01 5.17395E-02-2.12100E-03-8.38372E-01 4.72714E-14 1.19701E-13
 -1      3906 1.97643E+01 1.50692E-01 2.17534E-03-6.09557E-01 2.08748E-13-4.40108E-14
 -1      3907 1.97309E+01 2.00209E-01-2.86450E-03-5.38425E-01 1.93653E-13-1.65691E-14
 -1      3908 1.96541E+01 2.03074E-01-2.15473E-04-6.35811E-01 1.89995E-13-1.23071E-13
 -1      3909 1.97489E+01 2.31623E-01 1.31962E-03-4.68480E-01 7.26894E-14 2.82216E-14
 -1      3910 1.97396E+01 2.53752E-01-2.45318E-03-4.09459E-01 3.29266E-14-3.22269E-14
 -1      3911 1.96662E+01 2.78477E-01 7.20044E-04-4.74522E-01 1.00797E-13-8.84394E-14
 -1      3912 1.97659E+01 2.62820E-01 7.33868E-04-3.55267E-01 1.03517E-13-7.23477E-14
 -1      3913 1.97703E+01 2.66744E-01-1.97574E-03-3.07824E-01 8.27457E-14-1.48662E-14
 -1      3914 1.97047E+01 3.02670E-01 1.11104E-03-3.50059E-01 8.34675E-14-1.10544E-13
 -1      3915 1.97985E+01 2.61806E-01 3.53079E-04-2.66578E-01 2.76765E-14-4.39999E-14
 -1      3916 1.98096E+01 2.54589E-01-1.52841E-03-2.29214E-01-1.08871E-14-5.52909E-14
 -1      3917 1.97537E+01 2.94666E-01 1.19926E-03-2.55978E-01 3.35211E-14-1.88491E-13
 -1      3918 1.98363E+01 2.41749E-01 1.19363E-04-1.98192E-01-8.53764E-15-5.34266E-14
 -1      3919 1.98498E+01 2.28504E-01-1.14879E-03-1.69170E-01-8.53790E-14-1.52624E-13
 -1      3920 1.98038E+01 2.68291E-01 1.12941E-03-1.85823E-01 7.83784E-15-6.15603E-14
 -1      3921 1.98730E+01 2.11990E-01-1.35302E-05-1.46028E-01-1.25699E-13-2.14150E-13
 -1      3922 1.98864E+01 1.96215E-01-8.44380E-04-1.23711E-01-9.67813E-14-3.19740E-13
 -1      3923 1.98497E+01 2.33112E-01 9.87303E-04-1.33975E-01-1.65585E-13-1.62344E-13
 -1      3924 1.99057E+01 1.78797E-01-8.03874E-05-1.06554E-01 4.14613E-15-3.66466E-13
 -1      3925 1.99176E+01 1.62741E-01-6.08997E-04-8.95330E-02 1.29679E-15-3.04918E-13
 -1      3926 1.98892E+01 1.95404E-01 8.21478E-04-9.58855E-02-5.62543E-14-3.59476E-13
 -1      3927 1.99330E+01 1.46106E-01-1.06077E-04-7.68794E-02 2.05267E-14-3.18702E-13
 -1      3928 1.99429E+01 1.31102E-01-4.31673E-04-6.39952E-02-4.63047E-15-4.19251E-13
 -1      3929 1.99215E+01 1.59025E-01 6.58741E-04-6.80223E-02 2.99992E-14-4.55892E-13
 -1      3930 1.99548E+01 1.16170E-01-1.07856E-04-5.47140E-02 3.85945E-14-3.12593E-13
 -1      3931 1.99626E+01 1.02910E-01-3.00669E-04-4.50376E-02 2.52817E-14-4.23178E-13
 -1      3932 1.99468E+01 1.26115E-01 5.12310E-04-4.77155E-02 1.19889E-14-4.60988E-13
 -1      3933 1.99714E+01 9.00846E-02-9.71192E-05-3.82743E-02-2.89882E-14-4.03260E-13
 -1      3934 1.99773E+01 7.88350E-02-2.05406E-04-3.10715E-02 3.50722E-14-3.19235E-13
 -1      3935 1.99661E+01 9.76570E-02 3.87547E-04-3.29767E-02-3.08122E-14-3.66715E-13
 -1      3936 1.99836E+01 6.81896E-02-8.10488E-05-2.61838E-02 2.05378E-13-3.13525E-13
 -1      3937 1.99879E+01 5.89501E-02-1.37096E-04-2.08788E-02 1.41603E-13-1.35843E-13
 -1      3938 1.99802E+01 7.38865E-02 2.85338E-04-2.23367E-02 1.94314E-13-2.11927E-13
 -1      3939 1.99923E+01 5.03626E-02-6.39068E-05-1.73848E-02-2.17284E-14-2.37672E-14
 -1      3940 1.99952E+01 4.29802E-02-8.87771E-05-1.35275E-02-2.07987E-14-1.52568E-13
 -1      3941 1.99901E+01 5.45906E-02 2.04179E-04-1.47128E-02 8.27759E-14-3.11327E-14
 -1      3942 1.99981E+01 3.62250E-02-4.80027E-05-1.10654E-02-1.50171E-14-2.75798E-13
 -1      3943 2.00000E+01 3.04708E-02-5.50968E-05-8.30484E-03-7.14321E-14-2.22507E-13
 -1      3944 1.99969E+01 3.93138E-02 1.41451E-04-9.30642E-03-9.99001E-14-1.84469E-13
 -1      3945 2.00018E+01 2.52803E-02-3.43996E-05-6.60250E-03-3.91678E-14-2.68214E-13
 -1      3946 2.00029E+01 2.08997E-02-3.20105E-05-4.66565E-03 2.01109E-15-2.56587E-13
 -1      3947 2.00012E+01 2.74951E-02 9.41665E-05-5.52673E-03-7.48790E-14-2.55341E-13
 -1      3948 2.00039E+01 1.70029E-02-2.34238E-05-3.51837E-03-3.20333E-14-2.72495E-13
 -1      3949 2.00045E+01 1.37459E-02-1.65219E-05-2.19370E-03-5.18231E-14-3.28014E-13
 -1      3950 2.00037E+01 1.85553E-02 5.94637E-05-2.93522E-03-5.72677E-14-3.83642E-13
 -1      3951 2.00050E+01 1.08897E-02-1.49597E-05-1.44746E-03 6.88987E-14-3.64922E-13
 -1      3952 2.00051E+01 8.52808E-03-6.43185E-06-5.71768E-04 2.53386E-13-3.16121E-13
 -1      3953 2.00050E+01 1.19469E-02 3.45781E-05-1.20539E-03 5.26772E-14-2.81659E-13
 -1      3954 2.00053E+01 6.48918E-03-8.69930E-06-1.11137E-04 2.42396E-13-3.01334E-13
 -1      3955 2.00052E+01 4.82428E-03-1.17705E-07 4.40517E-04 2.33130E-13-1.60527E-13
 -1      3956 2.00055E+01 7.18218E-03 1.73188E-05-9.39153E-05 2.54912E-13-3.28362E-13
 -1      3957 2.00051E+01 3.41285E-03-4.26005E-06 7.01589E-04-1.83643E-14-1.89807E-13
 -1      3958 2.00049E+01 2.27800E-03 3.59054E-06 1.02403E-03-2.15432E-13-2.29400E-13
 -1      3959 2.00054E+01 3.84294E-03 5.79377E-06 5.80114E-04 1.47132E-14-3.21795E-13
 -1      3960 2.00046E+01 1.33765E-03-1.25698E-06 1.14917E-03-1.77491E-13-2.53674E-13
 -1      3961 2.00044E+01 5.96896E-04 5.53332E-06 1.31353E-03-2.12012E-13-1.60730E-13
 -1      3962 2.00050E+01 1.58222E-03-1.51978E-06 9.50706E-04-1.51121E-13-3.45528E-13
 -1      3963 2.00041E+01 2.01462E-06 6.57290E-07 1.34926E-03-9.93617E-14 5.63655E-14
 -1      3964 2.00037E+01-4.52851E-04 6.31107E-06 1.40818E-03 5.97853E-14 1.73385E-13
 -1      3965 2.00044E+01 1.19351E-04-5.81559E-06 1.11637E-03 3.16174E-14 1.14414E-13
 -1      3966 2.00034E+01-8.00946E-04 1.77770E-06 1.38796E-03 2.89969E-13 2.91499E-14
 -1      3967 2.00031E+01-1.05422E-03 6.35090E-06 1.37973E-03 3.03430E-13-7.52983E-14
 -1      3968 2.00037E+01-7.67678E-04-8.00897E-06 1.14868E-03 1.29074E-13 2.06385E-13
 -1      3969 2.00028E+01-1.23152E-03 2.34441E-06 1.32718E-03 1.10033E-13-1.99681E-13
 -1      3970 2.00025E+01-1.34759E-03 5.93118E-06 1.27904E-03 1.66568E-13-3.10757E-13
 -1      3971 2.00030E+01-1.25094E-03-8.77688E-06 1.09888E-03 3.83735E-14-2.27799E-13
 -1      3972 2.00022E+01-1.41140E-03 2.57831E-06 1.21031E-03 2.23856E-13-2.09468E-13
 -1      3973 2.00020E+01-1.43907E-03 4.86352E-06 1.14081E-03 9.79565E-14-3.48103E-13
 -1      3974 2.00024E+01-1.46112E-03-8.42266E-06 1.00308E-03 1.54310E-13-4.28346E-13
 -1      3975 2.00017E+01-1.43148E-03 2.65547E-06 1.06749E-03 8.15576E-14-3.28294E-13
 -1      3976 2.00015E+01-1.40674E-03 3.83475E-06 9.89388E-04 1.89841E-13-3.32227E-13
 -1      3977 2.00019E+01-1.49555E-03-7.17891E-06 8.86819E-04 1.21223E-13-2.93621E-13
 -1      3978 1.97521E+01 3.68126E-01-1.24447E-03 1.49697E-01-9.25650E-14-5.65715E-14
 -1      3979 1.97030E+01 4.16031E-01-1.36946E-03 1.66681E-01-1.72017E-13 8.14579E-15
 -1      3980 1.97524E+01 3.61916E-01 2.02200E-03 1.07126E-01-1.01880E-13-2.33380E-14
 -1      3981 1.99568E+01 1.25570E-01-5.12140E-04 5.79923E-02 2.19657E-14 1.40829E-13
 -1      3982 1.99468E+01 1.45231E-01-6.61590E-05 6.85944E-02-8.10012E-15 1.72860E-13
 -1      3983 1.99294E+01 1.67085E-01-6.56190E-04 7.70419E-02-7.56744E-14 1.37504E-13
 -1      3984 1.99143E+01 1.92041E-01-1.98267E-04 8.98888E-02-1.19290E-13 1.06348E-13
 -1      3985 1.99272E+01 1.66652E-01 7.26306E-04 5.99392E-02-6.59459E-14 6.94989E-14
 -1      3986 1.99877E+01 6.80599E-02-2.96356E-04 3.00349E-02-3.35012E-14 1.01240E-13
 -1      3987 1.99837E+01 7.99075E-02 4.24283E-05 3.66438E-02-4.08995E-15 1.20830E-13
 -1      3988 1.99957E+01 4.88593E-02-2.19453E-04 2.05156E-02 7.13950E-14 6.92504E-14
 -1      3989 1.99933E+01 5.79095E-02 5.64460E-05 2.55386E-02-5.50123E-14 1.23483E-14
 -1      3990 1.99870E+01 6.81388E-02 2.39135E-04 2.40133E-02 4.40826E-14 1.58092E-13
 -1      3991 2.00007E+01 3.43320E-02-1.59262E-04 1.33793E-02 8.81607E-14 1.80859E-13
 -1      3992 1.99994E+01 4.11615E-02 5.81504E-05 1.71054E-02 1.22594E-13 9.66987E-14
 -1      3993 1.99953E+01 4.88771E-02 1.59469E-04 1.64652E-02 3.37800E-14 1.33949E-13
 -1      3994 2.00035E+01 2.34853E-02-1.12690E-04 8.17340E-03 7.39257E-14 1.33244E-13
 -1      3995 2.00029E+01 2.85675E-02 5.34745E-05 1.08678E-02 1.62046E-13 1.84166E-13
 -1      3996 2.00006E+01 3.42802E-02 1.03334E-04 1.07587E-02 1.33222E-13 1.66207E-13
 -1      3997 2.00050E+01 1.54989E-02-7.96712E-05 4.48192E-03-5.24676E-14 2.82851E-15
 -1      3998 2.00048E+01 1.92270E-02 4.49295E-05 6.37870E-03 9.10569E-15 7.23620E-14
 -1      3999 2.00036E+01 2.33767E-02 6.48678E-05 6.57065E-03 1.03705E-13 2.04486E-13
 -1      4000 2.00055E+01 9.49570E-03-5.29186E-05 1.85560E-03-1.33395E-13 3.69641E-14
 -1      4001 2.00056E+01 1.22699E-02 3.66494E-05 3.18539E-03-1.95450E-13-4.73558E-14
 -1      4002 2.00052E+01 1.52056E-02 4.00325E-05 3.53939E-03-8.41457E-14 3.06484E-13
 -1      4003 2.00054E+01 5.49892E-03-3.20623E-05 2.41488E-04-7.59125E-14 2.02680E-13
 -1      4004 2.00057E+01 7.34514E-03 2.94629E-05 1.06002E-03-5.05692E-14 1.70750E-13
 -1      4005 2.00058E+01 9.33174E-03 1.83530E-05 1.47151E-03-2.25939E-13 3.28709E-13
 -1      4006 2.00050E+01 2.74603E-03-1.87116E-05-7.53939E-04-1.80849E-13 3.48301E-13
 -1      4007 2.00053E+01 4.00593E-03 2.30808E-05-2.55922E-04-9.74643E-14 2.38242E-13
 -1      4008 2.00057E+01 5.32269E-03 6.15345E-06 1.63114E-04-1.42592E-13 3.74815E-13
 -1      4009 2.00044E+01 9.18387E-04-9.50117E-06-1.30904E-03 1.41155E-13 3.66661E-13
 -1      4010 2.00048E+01 1.74563E-03 1.73977E-05-1.03579E-03-4.45477E-14 2.77048E-13
 -1      4011 2.00053E+01 2.57685E-03-1.07849E-06-6.41081E-04-1.09439E-13 4.37050E-13
 -1      4012 2.00038E+01-2.37167E-04-3.34418E-06-1.56294E-03 1.86685E-13 3.76259E-13
 -1      4013 2.00041E+01 2.77411E-04 1.27902E-05-1.44251E-03 2.30300E-13 4.58264E-13
 -1      4014 2.00047E+01 7.63622E-04-5.26996E-06-1.08782E-03 1.03304E-13 5.03896E-13
 -1      4015 2.00031E+01-9.15274E-04 5.75564E-07-1.61927E-03 1.06598E-13 2.36346E-13
 -1      4016 2.00034E+01-6.21360E-04 9.16020E-06-1.59841E-03 1.43285E-13 3.50256E-13
 -1      4017 2.00040E+01-3.73592E-04-7.41393E-06-1.29002E-03 2.14803E-13 5.28229E-13
 -1      4018 2.00025E+01-1.26365E-03 2.89197E-06-1.55331E-03-1.37789E-13 4.21715E-13
 -1      4019 2.00028E+01-1.12081E-03 6.36839E-06-1.59357E-03 6.73368E-14 3.45644E-13
 -1      4020 2.00033E+01-1.03204E-03-8.20256E-06-1.33198E-03 5.89496E-14 4.27835E-13
 -1      4021 2.00019E+01-1.39278E-03 4.15842E-06-1.41818E-03-7.46010E-14 4.98633E-13
 -1      4022 2.00022E+01-1.34922E-03 4.27264E-06-1.49259E-03-6.55337E-15 4.77355E-13
 -1      4023 2.00027E+01-1.36135E-03-8.11366E-06-1.27505E-03-6.44733E-14 3.38618E-13
 -1      4024 2.00015E+01-1.38483E-03 4.33508E-06-1.24999E-03 3.18042E-14 1.04997E-13
 -1      4025 2.00017E+01-1.40237E-03 2.56051E-06-1.34066E-03-1.20348E-13 2.46478E-13
 -1      4026 2.00021E+01-1.47285E-03-7.29871E-06-1.16246E-03 2.43526E-14 2.61303E-13
 -1      4027 2.00011E+01-1.30019E-03 4.52476E-06-1.07113E-03 6.29557E-14 2.85658E-13
 -1      4028 2.00012E+01-1.35033E-03 1.37113E-06-1.16741E-03 9.59901E-14 8.24080E-14
 -1      4029 2.00016E+01-1.45034E-03-5.73362E-06-1.02642E-03 1.31539E-14 2.63461E-14
 -1      4030 2.37934E+01 2.61071E+00-5.34733E-02-1.98460E+00-1.77554E-13-2.54984E-13
 -1      4031 2.00010E+01-1.29118E-03 1.64206E-06 7.74178E-04 2.64348E-13 4.96408E-14
 -1      4032 2.00010E+01-1.32081E-03-1.08752E-06 6.07357E-04 2.43241E-13 5.55420E-14
 -1      4033 2.00012E+01-1.39711E-03-5.22536E-07 5.43686E-04 3.70714E-13 1.18624E-13
 -1      4034 2.00011E+01-1.32940E-03 1.53485E-06 8.46918E-04 2.38477E-13-7.50912E-14
 -1      4035 1.98898E+01 2.19743E-01-8.26196E-04 9.93939E-02-1.62102E-13 9.22605E-14
 -1      4036 1.98671E+01 2.51110E-01-4.23313E-04 1.14374E-01-1.49830E-13 6.76753E-14
 -1      4037 1.98311E+01 2.82808E-01 1.44610E-03 9.24937E-02-1.74553E-13 1.90608E-13
 -1      4038 1.98874E+01 2.18409E-01 1.02881E-03 7.59549E-02-1.00511E-13 1.09100E-13
 -1      4039 2.47444E+01-1.84860E+00 1.01829E-02 4.66754E-01 2.71539E-13-3.07565E-13
 -1      4040 1.75176E+01-1.43102E-01 2.42114E-02-2.95491E+00 4.90708E-14-1.08987E-13
 -1      4041 1.89116E+01-1.07335E+00-1.43559E-02-3.14259E+00 1.97326E-13-1.49800E-13
 -1      4042 1.89315E+01 9.06857E-01-2.10998E-03 1.39535E-01 7.43492E-14-7.38960E-14
 -1      4043 1.87195E+01 9.91968E-01-8.43730E-03 1.16321E-01-1.55719E-15-8.27857E-14
 -1      4044 2.41520E+01-2.11514E+00-9.66028E-03-8.68259E-03 2.45508E-13-2.70664E-13
 -1      4045 1.51116E+01 1.48947E+00 1.33385E-02-9.94494E-01-1.08692E-13 2.36331E-13
 -1      4046 1.99754E+01 9.31433E-02-3.92964E-04 4.23953E-02 3.74116E-14 7.87735E-14
 -1      4047 1.99689E+01 1.08483E-01 6.53034E-06 5.08787E-02 9.10352E-14 1.34618E-13
 -1      4048 1.99741E+01 9.32313E-02 3.51226E-04 3.36934E-02 3.94387E-14 6.74848E-14
 -1      4049 1.70971E+01 1.39929E+00-3.49063E-03-4.20602E-01 2.67540E-14 5.38880E-14
 -1      4050 1.64793E+01 1.44828E+00-2.76692E-02-5.88630E-01 7.50051E-15 1.19408E-13
 -1      4051 1.57036E+01 1.41826E+00 1.03712E-03-1.09535E+00-4.61220E-14 1.61878E-13
 -1      4052 2.00014E+01-1.42962E-03-5.16769E-06 7.62053E-04 3.69344E-13 3.86369E-14
 -1      4053 2.00012E+01-1.36382E-03 1.33630E-06 9.15779E-04 3.82923E-13-3.23859E-13
 -1      4054 1.90980E+01 8.18971E-01-5.58234E-03 1.77391E-01 1.90086E-13-1.18815E-13
 -1      4055 1.89983E+01 8.52475E-01 7.08422E-03 1.09157E-02 1.75527E-13-1.31359E-13
 -1      4056 1.92502E+01 7.38474E-01-1.87392E-03 1.80145E-01 2.43522E-13-7.05319E-14
 -1      4057 1.99550E+01 1.25534E-01 5.08023E-04 4.56871E-02 6.40346E-14-9.39020E-14
 -1      4058 2.00009E+01-1.25660E-03 1.51149E-06-9.41858E-04-7.00506E-14 2.92901E-13
 -1      4059 2.00012E+01-1.36432E-03-2.50879E-06-8.24904E-04-7.98520E-14 2.68937E-13
 -1      4060 1.64407E+01 6.11466E-01-2.01549E-02-2.30124E+00 1.27151E-14 1.72462E-14
 -1      4061 1.69976E+01 2.12180E-01 1.21944E-02-2.74129E+00 4.51848E-14-6.37441E-14
 -1      4062 1.79839E+01-9.67992E-02 1.30431E-02-2.55934E+00 5.56560E-14-1.84797E-13
 -1      4063 2.00015E+01-1.47295E-03 2.92462E-06 2.18638E-04 1.30250E-13-6.48804E-14
 -1      4064 2.00014E+01-1.46763E-03-3.47374E-06 1.92173E-05-1.42690E-14-3.95507E-13
 -1      4065 1.85015E+01 1.08358E+00-2.59489E-03 4.50577E-02-1.59683E-13-2.89881E-14
 -1      4066 1.82019E+01 1.16946E+00-1.23900E-02-1.00938E-02-2.03134E-13-1.07168E-13
 -1      4067 1.86150E+01 1.00572E+00 9.56021E-03-1.23509E-01-7.68076E-14-5.52437E-14
 -1      4068 2.00008E+01-1.21268E-03 1.25097E-06-8.94644E-04-1.71505E-13 2.41022E-13
 -1      4069 2.00006E+01-1.11438E-03 3.03297E-06-9.32713E-04-1.76470E-13 1.68147E-13
 -1      4070 2.00014E+01-1.44529E-03-1.63627E-06-4.57101E-04-1.79483E-13-3.20480E-13
 -1      4071 2.00013E+01-1.40462E-03 2.21350E-06-6.26301E-04-1.22647E-13-7.78480E-14
 -1      4072 2.00015E+01-1.44977E-03-1.64579E-07-7.52592E-04 1.72013E-14-6.00363E-14
 -1      4073 1.97871E+01-1.35441E+00 3.33771E-02-2.94696E+00 2.27905E-13-3.91195E-14
 -1      4074 2.05420E+01-1.66802E+00-4.53339E-03-2.55435E+00 2.32533E-13-2.55950E-14
 -1      4075 1.91470E+01-8.51905E-01-1.36222E-02-2.65804E+00 9.22578E-14-1.08963E-13
 -1      4076 2.00014E+01-1.45538E-03 2.61085E-06-1.67136E-04-6.44685E-14-3.71530E-13
 -1      4077 1.96373E+01 4.69792E-01-1.46203E-03 1.72258E-01-1.64489E-13 4.03262E-14
 -1      4078 1.95649E+01 5.28416E-01-2.26658E-03 1.87495E-01-4.08164E-14 7.53949E-15
 -1      4079 1.96424E+01 4.58248E-01 2.80388E-03 1.15630E-01-1.33424E-13 4.03126E-14
 -1      4080 1.79115E+01 1.25427E+00-3.66313E-03-1.31521E-01-1.10666E-13-8.03730E-14
 -1      4081 1.74835E+01 1.32822E+00-1.97648E-02-2.37856E-01-7.38261E-14 2.72983E-14
 -1      4082 1.74303E+01 1.27792E+00 3.02845E-02-7.11722E-01 5.37743E-15 8.14271E-14
 -1      4083 1.81118E+01 1.14605E+00 1.43574E-02-3.50011E-01-1.22732E-13-1.94731E-14
 -1      4084 2.11567E+01-1.78619E+00 8.70637E-03-2.10048E+00 1.78698E-13-2.63322E-14
 -1      4085 1.63398E+01 1.19763E+00 3.36825E-02-1.48776E+00 8.26032E-15 1.21795E-13
 -1      4086 2.00017E+01-1.49326E-03 2.16320E-06 6.42996E-04 3.11213E-13 1.68100E-13
 -1      4087 2.00015E+01-1.45074E-03 2.09459E-06 5.87531E-04 4.28660E-13 2.58510E-13
 -1      4088 2.00015E+01-1.47902E-03-3.35158E-06 4.29164E-04 3.23395E-13 1.97014E-13
 -1      4089 2.04076E+01-1.12280E+00 8.92292E-03-1.89531E+00 1.13356E-13 2.42679E-14
 -1      4090 2.00735E+01-8.11247E-01 4.04416E-03-1.76351E+00 7.86972E-14-6.43769E-14
 -1      4091 1.99062E+01-5.27970E-01 1.02558E-02-1.54823E+00 5.76921E-14-1.50381E-13
 -1      4092 1.97057E+01-3.05662E-01 1.94533E-03-1.39889E+00 2.59896E-14-9.72143E-14
 -1      4093 1.95695E+01-5.47631E-01-1.77818E-02-1.84462E+00-6.44038E-15-1.34750E-13
 -1      4094 1.96512E+01-1.25520E-01 8.46143E-03-1.20193E+00 2.03114E-14-1.29673E-13
 -1      4095 1.95409E+01 1.57947E-02-1.54507E-03-1.06706E+00 3.70031E-14-2.53788E-14
 -1      4096 1.93669E+01-9.15565E-02-8.94963E-03-1.38964E+00 2.07092E-14-2.06336E-13
 -1      4097 1.95484E+01 1.29453E-01 6.75248E-03-9.04831E-01-1.98336E-14-1.77218E-14
 -1      4098 1.94984E+01 2.09953E-01-2.50802E-03-7.91949E-01 1.89766E-14-8.69512E-14
 -1      4099 1.93233E+01 1.87438E-01-3.18693E-03-1.01572E+00 2.80040E-14-1.42458E-13
 -1      4100 1.95353E+01 2.72235E-01 4.68232E-03-6.67022E-01 9.20006E-14-6.30077E-14
 -1      4101 1.95228E+01 3.10952E-01-2.68305E-03-5.77118E-01 1.19563E-13-1.04945E-13
 -1      4102 1.93629E+01 3.35103E-01-8.71793E-04-7.25717E-01 4.83602E-14-4.06136E-14
 -1      4103 1.95716E+01 3.37670E-01 3.12591E-03-4.83999E-01 1.20881E-13-1.51045E-13
 -1      4104 1.95801E+01 3.48521E-01-2.46485E-03-4.14793E-01 7.01503E-14-1.19855E-13
 -1      4105 1.94415E+01 3.98117E-01 3.27921E-04-5.09385E-01 6.57362E-14-1.52906E-13
 -1      4106 1.96306E+01 3.52092E-01 1.99945E-03-3.47189E-01 2.15006E-14-1.63482E-13
 -1      4107 1.96496E+01 3.45644E-01-2.09390E-03-2.95092E-01 2.73037E-14-2.31778E-13
 -1      4108 1.95337E+01 4.06562E-01 9.03504E-04-3.52509E-01 2.31490E-14-2.27620E-13
 -1      4109 1.96966E+01 3.35276E-01 1.21930E-03-2.46956E-01 8.71382E-14-2.17104E-13
 -1      4110 1.97194E+01 3.19096E-01-1.69806E-03-2.08307E-01 5.82751E-14-1.88081E-13
 -1      4111 1.96251E+01 3.82506E-01 1.11430E-03-2.41228E-01 2.84760E-14-2.23736E-13
 -1      4112 1.97603E+01 3.01287E-01 6.99813E-04-1.74533E-01 1.46223E-14-1.41150E-13
 -1      4113 1.97830E+01 2.80562E-01-1.33548E-03-1.46125E-01 2.65598E-14-1.49183E-13
 -1      4114 1.97080E+01 3.41217E-01 1.12342E-03-1.63607E-01 3.80249E-14-1.41530E-13
 -1      4115 1.98171E+01 2.59682E-01 3.68041E-04-1.22685E-01-9.11573E-14-1.21802E-13
 -1      4116 1.98376E+01 2.37786E-01-1.02769E-03-1.01923E-01-1.39603E-13-1.39636E-13
 -1      4117 1.97790E+01 2.92825E-01 1.02716E-03-1.10158E-01-2.29834E-14-2.62820E-13
 -1      4118 1.98650E+01 2.16627E-01 1.65799E-04-8.57886E-02-9.76871E-14-2.01468E-13
 -1      4119 1.98824E+01 1.95628E-01-7.77228E-04-7.06643E-02-2.82391E-14-2.57431E-13
 -1      4120 1.98376E+01 2.43734E-01 8.85574E-04-7.37114E-02-1.19752E-13-1.60034E-13
 -1      4121 1.99038E+01 1.75841E-01 5.02479E-05-5.96242E-02 7.78785E-15-2.92023E-13
 -1      4122 1.99179E+01 1.56878E-01-5.79307E-04-4.86297E-02-1.59888E-14-3.70872E-13
 -1      4123 1.98843E+01 1.97726E-01 7.32430E-04-4.90325E-02-1.06196E-13-1.18884E-13
 -1      4124 1.99342E+01 1.39325E-01-1.00012E-05-4.11086E-02 6.62201E-14-4.15206E-13
 -1      4125 1.99452E+01 1.22916E-01-4.25977E-04-3.31316E-02 1.01547E-13-3.08967E-13
 -1      4126 1.99204E+01 1.56781E-01 5.85971E-04-3.23986E-02 7.66737E-15-2.87608E-13
 -1      4127 1.99572E+01 1.07936E-01-3.65415E-05-2.80266E-02 3.21958E-14-2.96575E-13
 -1      4128 1.99655E+01 9.41978E-02-3.08960E-04-2.22549E-02-1.69693E-14-2.30693E-13
 -1      4129 1.99477E+01 1.21690E-01 4.55557E-04-2.12188E-02 7.28343E-14-1.96461E-13
 -1      4130 1.99742E+01 8.17999E-02-4.37918E-05-1.88034E-02 6.18342E-14-2.05834E-13
 -1      4131 1.99801E+01 7.06071E-02-2.20750E-04-1.46455E-02 2.44187E-13-1.69893E-13
 -1      4132 1.99677E+01 9.25020E-02 3.44876E-04-1.37181E-02 1.40278E-14-8.14623E-15
 -1      4133 1.99862E+01 6.06097E-02-4.09962E-05-1.23246E-02 1.53339E-13-2.90218E-13
 -1      4134 1.99903E+01 5.17061E-02-1.54992E-04-9.34965E-03-3.06305E-14-2.18835E-13
 -1      4135 1.99820E+01 6.88267E-02 2.54270E-04-8.69433E-03 9.92060E-14-1.19230E-13
 -1      4136 1.99945E+01 4.38297E-02-3.38015E-05-7.80191E-03-1.97721E-13-2.52631E-13
 -1      4137 1.99972E+01 3.69017E-02-1.06503E-04-5.69466E-03-1.51741E-13-2.37141E-13
 -1      4138 1.99918E+01 5.00481E-02 1.82260E-04-5.33904E-03-1.99305E-13-3.28235E-13
 -1      4139 1.99998E+01 3.08305E-02-2.54271E-05-4.67591E-03-1.13244E-13-3.97480E-13
 -1      4140 2.00015E+01 2.55536E-02-7.11834E-05-3.20434E-03-1.00298E-13-3.86896E-13
 -1      4141 1.99983E+01 3.54616E-02 1.26521E-04-3.11044E-03-1.88624E-13-3.05877E-13
 -1      4142 2.00031E+01 2.09733E-02-1.76059E-05-2.54747E-03-2.58003E-14-3.24663E-13
 -1      4143 2.00040E+01 1.70405E-02-4.57674E-05-1.54034E-03 7.08838E-15-2.57419E-13
 -1      4144 2.00023E+01 2.43600E-02 8.42031E-05-1.64492E-03-5.80071E-14-3.51076E-13
 -1      4145 2.00049E+01 1.36623E-02-1.10882E-05-1.13033E-03-2.95358E-15-2.96008E-13
 -1      4146 2.00053E+01 1.07982E-02-2.78329E-05-4.59568E-04 5.56390E-14-2.20060E-13
 -1      4147 2.00046E+01 1.60860E-02 5.28156E-05-6.98270E-04-6.93812E-15-2.38795E-13
 -1      4148 2.00056E+01 8.36639E-03-6.00517E-06-2.17036E-04 1.47830E-13-2.32786E-13
 -1      4149 2.00057E+01 6.33429E-03-1.54277E-05 2.12320E-04 2.20179E-13-3.48698E-13
 -1      4150 2.00056E+01 1.00582E-02 3.06745E-05-1.03447E-04 6.69850E-14-1.78040E-13
 -1      4151 2.00057E+01 4.63230E-03-2.32110E-06 3.42596E-04 2.28775E-13-4.75452E-13
 -1      4152 2.00056E+01 3.23441E-03-7.06812E-06 6.01237E-04-1.02552E-13-4.83457E-13
 -1      4153 2.00059E+01 5.77588E-03 1.53480E-05 2.52631E-04 1.12585E-13-2.75989E-13
 -1      4154 2.00054E+01 2.08350E-03 1.70886E-07 6.57744E-04-1.10510E-13-3.38009E-13
 -1      4155 2.00051E+01 1.15894E-03-1.64034E-06 7.98071E-04 1.14724E-13-1.14238E-13
 -1      4156 2.00057E+01 2.82394E-03 5.10892E-06 4.48363E-04 1.30892E-14-3.26493E-13
 -1      4157 2.00048E+01 4.15086E-04 1.71860E-06 8.07605E-04 1.96852E-13-8.13285E-14
 -1      4158 2.00045E+01-1.64229E-04 1.69680E-06 8.68153E-04 1.37335E-13 1.18227E-13
 -1      4159 2.00051E+01 8.65311E-04-1.38830E-06 5.38126E-04 2.05159E-13-5.71483E-14
 -1      4160 2.00041E+01-6.14612E-04 2.56174E-06 8.49265E-04-7.14350E-14-7.21676E-14
 -1      4161 2.00038E+01-9.48600E-04 3.57461E-06 8.58045E-04-8.08528E-14-2.78867E-13
 -1      4162 2.00045E+01-3.68035E-04-5.19993E-06 5.59749E-04-8.24908E-14-2.80184E-13
 -1      4163 2.00034E+01-1.19338E-03 2.90971E-06 8.23425E-04 9.59942E-14-2.01856E-13
 -1      4164 2.00031E+01-1.35859E-03 4.45321E-06 8.00500E-04 1.23472E-13-1.55940E-13
 -1      4165 2.00038E+01-1.08516E-03-7.13688E-06 5.39474E-04 4.28942E-14-4.51454E-13
 -1      4166 2.00028E+01-1.46450E-03 2.88957E-06 7.58542E-04 3.12994E-14-4.02866E-14
 -1      4167 2.00025E+01-1.51785E-03 4.10087E-06 7.17940E-04-1.66087E-14-5.87069E-15
 -1      4168 2.00031E+01-1.44623E-03-7.79170E-06 4.95305E-04 1.30261E-13 9.30067E-15
 -1      4169 2.00022E+01-1.53035E-03 3.30884E-06 7.07112E-04 1.01559E-13-3.03250E-14
 -1      4170 2.00019E+01-1.52207E-03 2.97631E-06 6.56624E-04 3.52187E-13 1.66111E-13
 -1      4171 2.00020E+01-1.55976E-03-6.22268E-06 4.70342E-04 4.29756E-13 3.05982E-13
 -1      4172 2.00025E+01-1.56848E-03-8.27237E-06 4.71805E-04 5.57130E-14 1.41785E-13
 -1      4173 1.97570E+01 3.37125E-01-7.40588E-04 6.42774E-02-7.02375E-14-2.17123E-14
 -1      4174 1.97092E+01 3.77919E-01-1.47801E-03 6.78116E-02-1.35627E-13-7.06557E-14
 -1      4175 2.00016E+01-1.51423E-03 4.40835E-07-2.57422E-04-2.06040E-13-3.58949E-13
 -1      4176 1.99946E+01 4.62710E-02-1.72625E-04 1.15839E-02 6.40960E-14 1.29266E-13
 -1      4177 1.99915E+01 5.49224E-02-2.29832E-06 1.47120E-02 5.74317E-14 1.38836E-13
 -1      4178 1.99859E+01 6.46408E-02-2.30814E-04 1.69030E-02 7.26870E-15 1.07798E-13
 -1      4179 1.99809E+01 7.59121E-02-3.23604E-05 2.09299E-02-3.06675E-14 1.20459E-13
 -1      4180 1.99868E+01 6.28810E-02 2.14536E-04 1.17332E-02-4.71270E-15-8.42663E-14
 -1      4181 2.00034E+01 2.19124E-02-9.04801E-05 4.53097E-03 9.68474E-14 2.95097E-13
 -1      4182 2.00024E+01 2.67866E-02 1.95695E-05 6.25876E-03 2.22378E-13 3.59919E-13
 -1      4183 2.00052E+01 1.39465E-02-6.14872E-05 2.31748E-03-1.47073E-13 3.64369E-13
 -1      4184 2.00047E+01 1.76353E-02 2.08499E-05 3.57765E-03-8.29846E-15 3.67351E-13
 -1      4185 2.00038E+01 2.09005E-02 5.11316E-05 3.20538E-03 4.86050E-14 5.55188E-13
 -1      4186 2.00058E+01 8.54468E-03-3.94889E-05 8.96715E-04-1.65169E-13 3.74431E-13
 -1      4187 2.00058E+01 1.10448E-02 2.06122E-05 1.71344E-03-2.37676E-13 3.47362E-13
 -1      4188 2.00054E+01 1.33205E-02 2.27280E-05 1.67808E-03-1.28739E-13 3.74764E-13
 -1      4189 2.00058E+01 4.74973E-03-2.45809E-05-2.80171E-05-9.24467E-14 2.40502E-13
 -1      4190 2.00060E+01 6.49360E-03 1.88252E-05 5.01871E-04-6.21191E-14 2.76122E-13
 -1      4191 2.00060E+01 8.05555E-03 7.37367E-06 6.63256E-04-4.79373E-14 1.88486E-13
 -1      4192 2.00054E+01 2.16619E-03-1.39359E-05-5.87984E-04-4.69260E-14 1.88085E-13
 -1      4193 2.00057E+01 3.34284E-03 1.58023E-05-2.66213E-04-7.44959E-14 3.03915E-13
 -1      4194 2.00059E+01 4.37699E-03-1.67220E-06 6.06981E-07-1.13172E-13 9.20527E-14
 -1      4195 2.00048E+01 4.75714E-04-6.61350E-06-8.90370E-04 6.81862E-14 3.93948E-13
 -1      4196 2.00052E+01 1.23609E-03 1.28393E-05-7.15197E-04-8.03230E-15 2.43673E-13
 -1      4197 2.00055E+01 1.88603E-03-6.84595E-06-4.02597E-04-8.37013E-14 3.55112E-14
 -1      4198 2.00041E+01-5.69676E-04-1.77397E-06-1.01751E-03 2.13037E-13 3.29339E-13
 -1      4199 2.00045E+01-1.08260E-04 1.01661E-05-9.42023E-04 2.02677E-13 3.99161E-13
 -1      4200 2.00049E+01 2.68715E-04-9.44946E-06-6.21605E-04 1.67776E-13 1.17082E-14
 -1      4201 2.00034E+01-1.16053E-03 1.24766E-06-1.03088E-03 4.14535E-14 3.23867E-13
 -1      4202 2.00038E+01-9.08242E-04 7.86611E-06-1.02023E-03 1.50874E-13 4.44889E-13
 -1      4203 2.00042E+01-7.19560E-04-1.03674E-05-7.14881E-04 8.99369E-14 2.43700E-13
 -1      4204 2.00028E+01-1.44096E-03 3.10112E-06-9.75036E-04 4.36117E-14 8.99873E-14
 -1      4205 2.00031E+01-1.33017E-03 5.95732E-06-1.00402E-03 7.16336E-14 2.27203E-13
 -1      4206 2.00034E+01-1.26660E-03-1.02177E-05-7.26329E-04 1.62965E-13 2.77154E-13
 -1      4207 2.00022E+01-1.51816E-03 4.08244E-06-8.81225E-04-1.72096E-14-3.55852E-14
 -1      4208 2.00024E+01-1.49999E-03 4.18603E-06-9.32638E-04 8.72173E-14-8.49122E-14
 -1      4209 2.00028E+01-1.51406E-03-9.51392E-06-6.88055E-04 1.23055E-13 4.54347E-14
 -1      4210 2.00017E+01-1.48233E-03 3.34714E-06-7.87204E-04 2.04614E-14-1.90446E-13
 -1      4211 2.00019E+01-1.51159E-03 3.16944E-06-8.47202E-04-9.23336E-14-2.14208E-13
 -1      4212 2.00022E+01-1.57420E-03-9.61060E-06-6.36082E-04 1.01733E-13-1.47851E-13
 -1      4213 2.00018E+01-1.53677E-03-6.92023E-06-5.84809E-04-8.13896E-14-3.41557E-13
 -1      4214 2.00017E+01-1.52226E-03 3.98168E-06 2.49430E-04 2.32180E-13-1.48295E-14
 -1      4215 1.99255E+01 1.57747E-01-4.76815E-04 4.10063E-02 7.96850E-15-1.31868E-13
 -1      4216 1.99088E+01 1.80693E-01-3.25517E-04 4.77335E-02-1.28067E-14-3.30797E-14
 -1      4217 1.99534E+01 1.19081E-01-3.84048E-04 3.17423E-02 1.33653E-13-1.57636E-13
 -1      4218 1.99419E+01 1.37435E-01-1.77109E-04 3.77115E-02 9.53273E-14-1.03945E-13
 -1      4219 1.99286E+01 1.53356E-01 6.66469E-04 2.64760E-02 8.53535E-14-1.68445E-13
 -1      4220 1.94757E+01 5.92967E-01-1.69153E-03 1.85750E-01 6.60157E-14-3.86389E-14
 -1      4221 1.93710E+01 6.62303E-01-3.63743E-03 1.95070E-01 1.84097E-13-3.81946E-14
 -1      4222 1.92831E+01 7.05111E-01 5.34624E-03 8.16387E-02 1.82001E-13 3.00489E-14
 -1      4223 1.94905E+01 5.72979E-01 3.89172E-03 1.10768E-01 6.87119E-15 1.98738E-13
 -1      4224 2.00001E+01 3.23313E-02-1.26091E-04 7.52645E-03 1.39034E-13 1.40606E-13
 -1      4225 1.99983E+01 3.88742E-02 1.31171E-05 9.88176E-03 5.45555E-14 1.24838E-13
 -1      4226 2.00006E+01 3.12884E-02 8.85737E-05 5.33723E-03 5.15913E-14 3.76546E-13
 -1      4227 1.71272E+01 8.26669E-01 4.13694E-03-1.67012E+00 1.85719E-14 1.47057E-14
 -1      4228 1.99727E+01 8.85030E-02-3.01356E-04 2.36215E-02-9.19665E-14-1.41951E-14
 -1      4229 1.99650E+01 1.02984E-01-8.60913E-05 2.86285E-02 1.65510E-14-1.13534E-13
 -1      4230 1.99553E+01 1.15916E-01 4.64537E-04 2.11935E-02-4.05161E-15-2.19780E-13
 -1      4231 1.99740E+01 8.61678E-02 3.18846E-04 1.61348E-02-1.11875E-13-1.99020E-13
 -1      4232 1.98318E+01 2.65319E-01-6.67336E-04 5.93380E-02-1.80568E-13-3.06440E-14
 -1      4233 1.97978E+01 2.99610E-01-9.22905E-04 6.54920E-02-1.07225E-13-6.00069E-14
 -1      4234 1.97701E+01 3.23861E-01 1.83366E-03 3.02803E-02-8.37207E-14-1.39372E-13
 -1      4235 2.04481E+01-1.32213E+00-8.25842E-03-2.09269E+00 1.62047E-13 4.99021E-14
 -1      4236 1.98311E+01-9.72529E-01 4.93583E-03-2.29013E+00 1.01816E-13 4.68909E-14
 -1      4237 1.90887E+01 7.53436E-01 5.51578E-05-8.99150E-02 2.14551E-13-1.32567E-13
 -1      4238 1.89121E+01 8.11491E-01-7.49261E-03-1.49871E-01 1.31576E-13-1.49073E-13
 -1      4239 1.73869E+01 8.81410E-01-3.07708E-02-1.29124E+00-1.03997E-15-3.08452E-14
 -1      4240 1.77483E+01 4.91656E-01 2.79933E-02-1.95889E+00 1.60249E-14-4.42849E-14
 -1      4241 1.96546E+01 4.22981E-01-7.51690E-04 6.09955E-02-1.41111E-13 1.27542E-14
 -1      4242 1.95872E+01 4.71000E-01-2.30120E-03 5.87637E-02-9.07461E-14 5.62388E-14
 -1      4243 1.96759E+01 4.03272E-01 2.50609E-03 1.72740E-02-7.17087E-14-2.74846E-14
 -1      4244 1.80192E+01 1.21211E-02-1.76583E-02-2.32803E+00-2.41690E-15-1.55751E-13
 -1      4245 1.85560E+01-3.01278E-01 1.15686E-02-2.47929E+00-3.55488E-14-2.22074E-13
 -1      4246 1.92307E+01-6.83360E-01-2.72890E-03-2.37899E+00 2.16976E-14-7.72546E-14
 -1      4247 1.83106E+01 2.49978E-01 1.73879E-02-1.87256E+00-3.34871E-14-1.65799E-13
 -1      4248 2.00018E+01-1.56524E-03-7.59919E-06-7.13534E-06 6.68727E-14-3.05656E-13
 -1      4249 2.00018E+01-1.53652E-03 5.42674E-06-3.08679E-04-6.27240E-14-1.80002E-13
 -1      4250 2.00020E+01-1.56739E-03 4.06435E-06-3.25922E-04 1.99428E-13-1.12050E-13
 -1      4251 2.00019E+01-1.55222E-03 2.19932E-06 2.11116E-04 2.91684E-13 2.47702E-14
 -1      4252 1.99953E+01 4.49232E-02 1.40495E-04 8.13701E-03 4.94698E-14 1.00119E-13
 -1      4253 1.78148E+01 9.24317E-01 4.71841E-04-1.03037E+00-5.24745E-14-1.86561E-14
 -1      4254 1.87687E+01 8.70227E-01 9.29106E-04-2.42241E-01 3.66884E-14-1.45759E-13
 -1      4255 1.85359E+01 9.17279E-01-1.05884E-02-3.42939E-01-1.03538E-13-8.75192E-14
 -1      4256 1.89101E+01 7.78684E-01 7.64820E-03-3.42797E-01 7.11569E-14-1.73025E-13
 -1      4257 1.98863E+01 2.05988E-01-5.74525E-04 5.06956E-02-1.10964E-13-1.65001E-14
 -1      4258 1.98623E+01 2.34264E-01-5.60365E-04 5.76565E-02-1.51732E-13 4.00784E-15
 -1      4259 1.98398E+01 2.56285E-01 1.32340E-03 3.32922E-02-1.65428E-13-1.90180E-13
 -1      4260 1.98913E+01 1.99750E-01 9.44284E-04 3.10693E-02-1.11592E-13-1.41822E-13
 -1      4261 1.92043E+01 6.92085E-01-5.24331E-03-3.33606E-02 1.32629E-13-2.34353E-14
 -1      4262 1.91764E+01 6.90706E-01 5.97001E-03-1.74732E-01 9.43457E-14-7.86641E-14
 -1      4263 1.93317E+01 6.34722E-01-4.48359E-04-2.83756E-03 3.74252E-14 7.77664E-14
 -1      4264 1.90866E+01 6.21644E-02 1.01058E-02-1.49184E+00 4.59439E-15-1.24973E-13
 -1      4265 1.90121E+01 2.08855E-01-5.01114E-03-1.28120E+00-8.81015E-15-1.38725E-13
 -1      4266 1.91100E+01 3.16233E-01 8.65452E-03-1.05719E+00-5.96867E-15-1.66495E-13
 -1      4267 1.90986E+01 3.85416E-01-5.87136E-03-8.93845E-01 1.08832E-14-1.20234E-13
 -1      4268 1.87892E+01 4.41198E-01 3.23129E-03-1.13880E+00-1.33600E-14-1.32557E-13
 -1      4269 1.92025E+01 4.39620E-01 5.75616E-03-7.32696E-01 6.58929E-14-1.47529E-13
 -1      4270 1.92241E+01 4.64474E-01-5.11006E-03-6.10522E-01 6.01397E-14-1.20363E-13
 -1      4271 1.89749E+01 5.49293E-01 3.92596E-03-7.63061E-01 2.64045E-14-1.52847E-13
 -1      4272 1.93226E+01 4.80619E-01 3.69917E-03-4.96930E-01 8.78740E-14-1.32996E-13
 -1      4273 1.93597E+01 4.77683E-01-4.15190E-03-4.08381E-01 5.44517E-14-1.08602E-13
 -1      4274 1.91618E+01 5.73011E-01 3.66951E-03-4.95943E-01 3.73542E-14-1.16243E-13
 -1      4275 1.94463E+01 4.70537E-01 2.23823E-03-3.30758E-01 2.58705E-14-1.04324E-13
 -1      4276 1.94883E+01 4.51768E-01-3.23227E-03-2.68132E-01-1.26827E-14-1.09040E-13
 -1      4277 1.93340E+01 5.45841E-01 3.22243E-03-3.13116E-01 9.41502E-14 4.52723E-14
 -1      4278 1.95611E+01 4.31672E-01 1.27181E-03-2.16428E-01-2.94744E-14-7.53994E-14
 -1      4279 1.96021E+01 4.05040E-01-2.43805E-03-1.72951E-01 4.24920E-14-1.22233E-13
 -1      4280 1.94831E+01 4.91860E-01 2.68879E-03-1.91439E-01 1.20690E-14 2.72675E-14
 -1      4281 1.96613E+01 3.78806E-01 6.46585E-04-1.39398E-01-1.53384E-14-1.93837E-13
 -1      4282 1.96982E+01 3.49473E-01-1.80247E-03-1.09665E-01-2.47633E-14-2.42738E-13
 -1      4283 1.96073E+01 4.26330E-01 2.16089E-03-1.12693E-01-1.21592E-14-1.40243E-13
 -1      4284 1.97452E+01 3.21525E-01 2.66091E-04-8.84603E-02 2.66235E-15-2.49796E-13
 -1      4285 1.97766E+01 2.92646E-01-1.30802E-03-6.83478E-02-7.12271E-14-2.61169E-13
 -1      4286 1.97080E+01 3.58760E-01 1.68999E-03-6.32046E-02-2.88863E-14-2.28886E-13
 -1      4287 1.98132E+01 2.65628E-01 4.28146E-05-5.53523E-02-8.99822E-14-2.19430E-13
 -1      4288 1.98389E+01 2.39019E-01-9.38394E-04-4.18658E-02-9.33689E-14-1.35362E-13
 -1      4289 1.97876E+01 2.94649E-01 1.29324E-03-3.31571E-02-8.26832E-14-2.88712E-13
 -1      4290 1.98668E+01 2.14435E-01-7.30209E-05-3.41610E-02-1.45521E-13-1.05802E-13
 -1      4291 1.98872E+01 1.90983E-01-6.65646E-04-2.51677E-02-1.39148E-13-1.85047E-13
 -1      4292 1.98492E+01 2.36985E-01 9.77246E-04-1.56262E-02-1.10819E-13-2.02610E-13
 -1      4293 1.99080E+01 1.69529E-01-1.23776E-04-2.07899E-02-1.95715E-14-1.89568E-13
 -1      4294 1.99237E+01 1.49538E-01-4.67122E-04-1.48092E-02 7.58705E-14-1.62769E-13
 -1      4295 1.98961E+01 1.86990E-01 7.27852E-04-5.91746E-03-9.86798E-14-2.41769E-13
 -1      4296 1.99390E+01 1.31404E-01-1.35898E-04-1.24607E-02 9.30870E-14-1.54226E-13
 -1      4297 1.99508E+01 1.14815E-01-3.24158E-04-8.48484E-03 9.98800E-14-1.10420E-13
 -1      4298 1.99309E+01 1.44870E-01 5.34073E-04-9.31361E-04 7.35791E-14-1.04130E-13
 -1      4299 1.99617E+01 9.98822E-02-1.27084E-04-7.33212E-03 3.21329E-14-7.90029E-14
 -1      4300 1.99703E+01 8.64279E-02-2.22096E-04-4.68540E-03 2.96801E-14-3.99730E-15
 -1      4301 1.99563E+01 1.10212E-01 3.85605E-04 1.32204E-03 5.06614E-14-2.42774E-13
 -1      4302 1.99780E+01 7.44056E-02-1.08552E-04-4.20728E-03-1.06081E-13-1.33553E-13
 -1      4303 1.99840E+01 6.37165E-02-1.49789E-04-2.44174E-03-5.29961E-14-2.44566E-13
 -1      4304 1.99744E+01 8.22762E-02 2.73304E-04 2.08001E-03-1.05413E-13-2.66715E-13
 -1      4305 1.99892E+01 5.42347E-02-8.70425E-05-2.32224E-03-1.41996E-13-2.54899E-13
 -1      4306 1.99933E+01 4.59056E-02-9.89700E-05-1.14277E-03-2.99550E-13-2.89261E-13
 -1      4307 1.99869E+01 6.01801E-02 1.89438E-04 2.08476E-03-1.72576E-13-3.88287E-13
 -1      4308 1.99967E+01 3.85728E-02-6.63083E-05-1.19704E-03-2.62678E-13-2.35089E-13
 -1      4309 1.99993E+01 3.22054E-02-6.33945E-05-4.09708E-04-1.48964E-13-2.39800E-13
 -1      4310 1.99953E+01 4.30162E-02 1.27682E-04 1.76243E-03-2.43494E-13-1.43542E-13
 -1      4311 2.00014E+01 2.66455E-02-4.79152E-05-5.33293E-04-4.76516E-14-1.91680E-13
 -1      4312 2.00030E+01 2.18701E-02-3.82328E-05-8.21487E-06 2.59990E-14-1.01650E-13
 -1      4313 2.00006E+01 2.99245E-02 8.32942E-05 1.34280E-03-6.79148E-14 5.13786E-14
 -1      4314 2.00041E+01 1.77385E-02-3.32158E-05-1.52529E-04-5.57644E-14-1.21149E-13
 -1      4315 2.00050E+01 1.42351E-02-2.09575E-05 1.96016E-04-3.48772E-14-7.40937E-14
 -1      4316 2.00037E+01 2.01036E-02 4.55565E-05 9.42905E-04 2.90026E-14 1.38007E-13
 -1      4317 2.00055E+01 1.12284E-02-2.17734E-05 6.26596E-05 3.42198E-14-1.62606E-13
 -1      4318 2.00059E+01 8.71601E-03-1.02197E-05 2.87715E-04 5.08394E-14-1.84356E-13
 -1      4319 2.00054E+01 1.29109E-02 2.38511E-05 6.08275E-04-6.19531E-14-5.39209E-14
 -1      4320 2.00060E+01 6.58428E-03-1.30491E-05 1.76409E-04 1.01716E-13-1.14738E-13
 -1      4321 2.00060E+01 4.83076E-03-3.33298E-06 3.16626E-04-1.05627E-14-2.52992E-13
 -1      4322 2.00060E+01 7.75319E-03 9.99968E-06 3.50445E-04 1.45418E-13-1.96563E-13
 -1      4323 2.00059E+01 3.36420E-03-6.79412E-06 2.29014E-04-4.13461E-14-3.12303E-13
 -1      4324 2.00057E+01 2.18112E-03 9.07013E-07 3.11293E-04 2.15057E-14-1.72977E-13
 -1      4325 2.00060E+01 4.15114E-03 1.15681E-06 1.65315E-04-6.19561E-14-1.40291E-13
 -1      4326 2.00054E+01 1.21015E-03-2.50520E-06 2.45233E-04 1.78519E-13-3.35679E-13
 -1      4327 2.00051E+01 4.47060E-04 3.33267E-06 2.88351E-04 1.67326E-13-3.29155E-13
 -1      4328 2.00056E+01 1.71763E-03-4.18210E-06 4.06724E-05 3.99797E-14-3.32009E-13
 -1      4329 2.00048E+01-1.62690E-04 2.75045E-07 2.40250E-04-8.45540E-14-2.96410E-13
 -1      4330 2.00044E+01-6.23714E-04 4.53776E-06 2.57406E-04-1.69590E-13-3.91158E-13
 -1      4331 2.00049E+01 1.44386E-04-7.08783E-06-3.72926E-05 5.66429E-14-4.64836E-13
 -1      4332 2.00040E+01-9.76771E-04 1.94396E-06 2.23476E-04-1.72256E-13-2.49284E-13
 -1      4333 2.00037E+01-1.22657E-03 4.93216E-06 2.23969E-04 5.72138E-14-3.34756E-13
 -1      4334 2.00042E+01-8.09862E-04-8.35224E-06-8.12683E-05-8.48016E-14-1.59951E-13
 -1      4335 2.00033E+01-1.40267E-03 2.87487E-06 2.00772E-04 3.07866E-13-3.58500E-13
 -1      4336 2.00030E+01-1.51014E-03 4.58313E-06 1.91061E-04 2.26138E-13-5.47922E-14
 -1      4337 2.00035E+01-1.33090E-03-8.59983E-06-1.01841E-04 2.23579E-13-1.56942E-13
 -1      4338 1.99862E+01 6.08074E-02-1.81363E-04 6.27247E-03-3.15099E-14-2.41608E-13
 -1      4339 1.99810E+01 7.14315E-02-2.34035E-05 7.94287E-03-1.23544E-13-2.62958E-13
 -1      4340 2.00053E+01 1.29718E-02-4.15642E-05 1.01626E-03-1.55819E-13 1.69181E-13
 -1      4341 2.00049E+01 1.62896E-02 3.03218E-05 1.57098E-03-9.01414E-14 2.95318E-13
 -1      4342 2.00036E+01 2.01564E-02-6.58081E-05 1.84956E-03 4.59630E-14 4.41553E-13
 -1      4343 2.00025E+01 2.49616E-02 2.63960E-05 2.66587E-03 8.97224E-14 4.52314E-13
 -1      4344 2.00060E+01 4.20671E-03-1.53103E-05 3.97702E-05-1.51815E-13-1.91764E-14
 -1      4345 2.00061E+01 5.84194E-03 2.36200E-05 2.86963E-04 3.65691E-14-3.06294E-14
 -1      4346 2.00056E+01 1.76900E-03-7.67712E-06-2.00712E-04-4.34286E-14-6.05391E-14
 -1      4347 2.00059E+01 2.86146E-03 1.93382E-05-5.07699E-05-2.46513E-13-1.13771E-13
 -1      4348 2.00050E+01 1.90341E-04-2.58618E-06-3.33903E-04 1.57953E-13-2.30351E-13
 -1      4349 2.00053E+01 8.85997E-04 1.54119E-05-2.52800E-04 1.82536E-13-2.37182E-13
 -1      4350 2.00042E+01-7.69996E-04 6.42022E-07-3.93085E-04 1.73441E-15 2.09349E-14
 -1      4351 2.00046E+01-3.57709E-04 1.19956E-05-3.58832E-04 5.37073E-15-8.47356E-14
 -1      4352 2.00035E+01-1.29704E-03 2.57811E-06-4.03699E-04 1.37573E-13 1.14815E-13
 -1      4353 2.00039E+01-1.08144E-03 9.12919E-06-3.99890E-04 5.16434E-14 1.34231E-13
 -1      4354 2.00028E+01-1.53043E-03 3.82341E-06-3.84027E-04 1.59418E-13 6.66655E-14
 -1      4355 2.00032E+01-1.44700E-03 6.75773E-06-3.99060E-04 2.42453E-13-9.14344E-15
 -1      4356 1.98914E+01 1.90786E-01-4.80512E-04 1.05489E-02-1.36558E-13-2.45152E-13
 -1      4357 1.98688E+01 2.16240E-01-5.11464E-04 1.12201E-02-1.41756E-13-2.36227E-13
 -1      4358 1.99280E+01 1.47221E-01-3.91645E-04 1.12210E-02 6.00621E-14-2.27647E-13
 -1      4359 1.99118E+01 1.68249E-01-2.94644E-04 1.28905E-02-4.97476E-14-2.82372E-13
 -1      4360 1.99948E+01 4.34518E-02-1.33710E-04 4.49267E-03-1.21794E-13-1.10030E-14
 -1      4361 1.99915E+01 5.16339E-02 4.08838E-06 5.85869E-03 1.23556E-14-1.27980E-13
 -1      4362 1.92052E+01-5.02906E-01-2.26277E-04-2.17169E+00-8.43869E-14-8.96872E-14
 -1      4363 2.00060E+01 7.81152E-03-2.63459E-05 4.29090E-04 7.07134E-14 3.62223E-14
 -1      4364 2.00059E+01 1.01744E-02 2.78748E-05 8.08901E-04-1.01557E-13 1.27212E-13
 -1      4365 2.00003E+01 3.02348E-02-9.69650E-05 3.01910E-03-7.93721E-14 3.06658E-13
 -1      4366 1.99983E+01 3.64331E-02 1.78081E-05 4.08229E-03-1.91940E-13 1.34128E-13
 -1      4367 1.83591E+01 9.66898E-01 2.78353E-03-4.86795E-01-1.34068E-13-2.24620E-14
 -1      4368 1.80317E+01 9.94705E-01-1.65055E-02-6.43080E-01-5.16288E-14-1.39469E-14
 -1      4369 1.85750E+01 8.35912E-01 8.46525E-03-6.06836E-01-5.77430E-15-6.53577E-14
 -1      4370 1.81770E+01 7.40051E-01 6.73526E-03-1.15019E+00-2.98738E-14-4.62607E-14
 -1      4371 1.90630E+01-2.11605E-01 6.34838E-04-1.88489E+00-4.86512E-14-1.44420E-13
 -1      4372 1.96888E+01 3.74428E-01-6.78169E-04-2.69925E-02-6.51122E-15-1.10849E-13
 -1      4373 1.96314E+01 4.13425E-01-2.09375E-03-3.99103E-02-8.66732E-14-7.82793E-14
 -1      4374 1.86463E+01 1.08884E-01-2.17468E-03-1.77445E+00-3.90096E-14-1.03880E-13
 -1      4375 1.85324E+01 6.25235E-01 1.08220E-02-1.06746E+00-2.79167E-14-8.04288E-14
 -1      4376 1.83121E+01 4.47809E-01-1.60034E-02-1.44925E+00-2.06573E-14-9.38497E-14
 -1      4377 1.98417E+01 2.43122E-01-5.70680E-04 6.22258E-03-1.49377E-13-1.91552E-13
 -1      4378 1.98106E+01 2.73254E-01-8.44718E-04 4.71395E-03-1.73501E-13-2.49288E-13
 -1      4379 1.92566E+01 6.04561E-01 7.73671E-05-2.49930E-01 8.30888E-14-1.44356E-14
 -1      4380 1.91286E+01 6.36497E-01-6.60853E-03-3.20952E-01 7.65545E-14-6.86557E-14
 -1      4381 1.99545E+01 1.11684E-01-3.10538E-04 1.00872E-02 5.85715E-14-2.91937E-13
 -1      4382 1.99431E+01 1.28725E-01-1.57288E-04 1.20653E-02 7.68041E-14-2.57679E-13
 -1      4383 2.00021E+01-1.57604E-03 4.16961E-06 2.04504E-04 2.88889E-13 8.12359E-14
 -1      4384 1.99733E+01 8.32202E-02-2.40171E-04 8.23721E-03-1.31351E-13-2.20694E-13
 -1      4385 2.00027E+01-1.56511E-03 4.47888E-06 1.89751E-04 2.01789E-13-6.83799E-14
 -1      4386 2.00024E+01-1.58232E-03 3.65153E-06 2.03993E-04 2.60546E-13 1.22749E-13
 -1      4387 2.00022E+01-1.60188E-03-7.74084E-06-6.83960E-05 3.33424E-13 7.05022E-14
 -1      4388 2.00028E+01-1.55630E-03-8.08947E-06-9.41840E-05 2.62161E-13 1.78350E-14
 -1      4389 1.95509E+01 4.93564E-01 3.40124E-03-1.31278E-02-5.54631E-14 2.54629E-14
 -1      4390 1.95163E+01 5.22828E-01-6.82496E-04 4.23118E-02-1.41391E-14 7.87206E-14
 -1      4391 1.94235E+01 5.76526E-01-3.49983E-03 2.95507E-02 9.71748E-14 9.16172E-14
 -1      4392 1.97756E+01 3.04509E-01-6.49290E-04-4.74627E-03-7.52772E-14-2.09820E-13
 -1      4393 1.97333E+01 3.39202E-01-1.34955E-03-1.03442E-02 1.48971E-14-1.16569E-13
 -1      4394 2.00023E+01-1.57767E-03 4.59003E-06-3.49059E-04 2.78635E-13-4.19629E-14
 -1      4395 2.00025E+01-1.57174E-03 5.33975E-06-3.62313E-04 1.97415E-13 8.61347E-14
 -1      4396 1.99654E+01 9.67883E-02-7.30108E-05 1.01502E-02-9.88374E-14-2.90433E-13
 -1      4397 1.90425E+01 6.59249E-01 8.75827E-04-4.25573E-01 9.22038E-14-1.24885E-13
 -1      4398 1.88812E+01 6.74302E-01-9.15389E-03-5.36631E-01 8.87403E-15-1.56484E-13
 -1      4399 1.85961E+01 6.52349E-01-1.29284E-02-8.60127E-01-1.53245E-14-7.10623E-14
 -1      4400 1.87955E+01 6.74378E-01 3.14006E-03-6.89030E-01-2.16201E-14-1.24387E-13
 -1      4401 1.93341E+01 5.70210E-01-4.62869E-03-1.80458E-01 7.35705E-14-5.05795E-14
 -1      4402 1.94339E+01 5.30597E-01-3.99627E-04-1.37106E-01 9.06161E-14-3.96890E-14
 -1      4403 1.95004E+01 4.92220E-01-3.15800E-03-9.23744E-02 3.31750E-14 2.65554E-14
 -1      4404 1.95762E+01 4.51425E-01-6.25386E-04-6.77765E-02-1.23113E-13-3.18769E-15
 -1      4405 1.93874E+01 5.91426E-01 4.51471E-03-7.18875E-02 6.30298E-14-4.74699E-14
 -3
    1PSTEP                         3           1           1          
  100CL  101 1.000000000        4405                     0    1           1
 -4  TOSTRAIN    6    1
 -5  EXX         1    4    1    1
 -5  EYY         1    4    2    2
 -5  EZZ         1    4    3    3
 -5  EXY         1    4    1    2
 -5  EYZ         1    4    2    3
 -5  EZX         1    4    3    1
 -1         1 2.31290E-04-4.56494E-05-6.99660E-05-1.07803E-04-5.70699E-18 1.58073E-17
 -1         2 3.72760E-05-1.13181E-04 2.04148E-05-1.15173E-06 1.31529E-17 5.33472E-19
 -1         3 9.52372E-05-2.85711E-05-2.85713E-05 4.48773E-11 4.75817E-18 3.47917E-18
 -1         4 9.52372E-05-2.85711E-05-2.85713E-05-3.93592E-11-1.20508E-18 2.97883E-18
 -1         5 1.78652E-04-2.53535E-05-5.52378E-05 4.07045E-05-2.56016E-19 1.64333E-17
 -1         6 1.56951E-04 2.74338E-10-4.73256E-05-5.82889E-05-1.44641E-18 9.17040E-18
 -1         7 9.59812E-05-4.30346E-07-4.15936E-05-3.26021E-05-1.97041E-19-3.21198E-18
 -1         8 9.04412E-05 1.25976E-07-3.86484E-05-2.32169E-05-6.78950E-20-5.66603E-18
 -1         9 8.86040E-05 4.41822E-08-3.77226E-05-1.76804E-05-2.55301E-20-6.36420E-18
 -1        10 8.79060E-05-6.38095E-08-3.72536E-05-1.22878E-05 5.36675E-20-6.18346E-18
 -1        11 8.69180E-05-1.46344E-07-3.66888E-05-6.40844E-06 1.01128E-19-5.64491E-18
 -1        12 8.47684E-05-1.88620E-07-3.56823E-05-1.55056E-07 9.79382E-20-4.96560E-18
 -1        13 8.07549E-05-1.71599E-07-3.39881E-05 6.21817E-06 1.33355E-19-4.21752E-18
 -1        14 7.47563E-05-6.58777E-08-3.16267E-05 1.16114E-05 1.59454E-19-3.65030E-18
 -1        15 6.75243E-05 1.33275E-07-2.89425E-05 1.46851E-05 1.82059E-19-3.29452E-18
 -1        16 6.09790E-05 3.77867E-07-2.66608E-05 1.43760E-05 1.68771E-19-3.04568E-18
 -1        17 5.78366E-05 5.71995E-07-2.57217E-05 1.07844E-05 1.81178E-19-2.74484E-18
 -1        18 6.02522E-05 6.19896E-07-2.68397E-05 5.71871E-06 1.76130E-19-2.19420E-18
 -1        19 6.89378E-05 5.03171E-07-3.02716E-05 1.69060E-06 2.15888E-19-1.14896E-18
 -1        20 8.26502E-05 2.64323E-07-3.56055E-05 1.29575E-06 2.32299E-19 5.73511E-19
 -1        21 9.94155E-05-9.36805E-08-4.20821E-05 6.33445E-06 2.21923E-19 3.50171E-18
 -1        22 1.18866E-04-1.23495E-06-4.91007E-05 1.97717E-05 5.14573E-20 8.20893E-18
 -1        23 1.19989E-04-4.04645E-05-3.75962E-05-5.08434E-06-1.01027E-18 4.49976E-18
 -1        24 9.62981E-05-2.87191E-05-3.01010E-05 3.41090E-07-2.05207E-19 8.72537E-19
 -1        25 8.96446E-05-2.70106E-05-2.70509E-05 2.71207E-07-1.66783E-19-2.36826E-18
 -1        26 8.49810E-05-2.55855E-05-2.54470E-05 2.66159E-08-8.49043E-20-5.00881E-18
 -1        27 8.11046E-05-2.43987E-05-2.43120E-05-6.64797E-08-1.93312E-21-6.42414E-18
 -1        28 7.80570E-05-2.34662E-05-2.34619E-05-7.71156E-08-1.60969E-20-7.09463E-18
 -1        29 7.63353E-05-2.29399E-05-2.29938E-05-1.91692E-08 8.87300E-20-7.84999E-18
 -1        30 7.63886E-05-2.29492E-05-2.30251E-05 7.76610E-08-1.60829E-20-8.48235E-18
 -1        31 7.83088E-05-2.35180E-05-2.35813E-05 1.73531E-07-6.95229E-20-1.03493E-17
 -1        32 8.17357E-05-2.45374E-05-2.45656E-05 2.34107E-07 7.78489E-20-1.14646E-17
 -1        33 8.59790E-05-2.58006E-05-2.57895E-05 2.44476E-07 6.58429E-20-1.16560E-17
 -1        34 9.02658E-05-2.70773E-05-2.70377E-05 2.11301E-07 3.58953E-20-1.09270E-17
 -1        35 9.39740E-05-2.81824E-05-2.81311E-05 1.53931E-07-1.65589E-19-1.08202E-17
 -1        36 9.67536E-05-2.90120E-05-2.89636E-05 9.26448E-08 3.57561E-20-1.07660E-17
 -1        37 9.85257E-05-2.95424E-05-2.95054E-05 4.11553E-08-1.29375E-19-1.06521E-17
 -1        38 9.94039E-05-2.98072E-05-2.97837E-05 5.07812E-09-2.74678E-20-1.07240E-17
 -1        39 9.95980E-05-2.98683E-05-2.98565E-05-1.59406E-08 1.76944E-19-1.05357E-17
 -1        40 9.93359E-05-2.97931E-05-2.97896E-05-2.52212E-08-3.77664E-20-1.04976E-17
 -1        41 9.88165E-05-2.96405E-05-2.96419E-05-2.67512E-08-4.89089E-20-1.18414E-17
 -1        42 9.81909E-05-2.94554E-05-2.94592E-05-2.39569E-08-3.53780E-20-1.19754E-17
 -1        43 9.75608E-05-2.92683E-05-2.92727E-05-1.92954E-08-2.48665E-19-1.17072E-17
 -1        44 9.69864E-05-2.90972E-05-2.91012E-05-1.42977E-08-9.10679E-21-1.07899E-17
 -1        45 9.64968E-05-2.89510E-05-2.89542E-05-9.78425E-09-9.98172E-20-1.10806E-17
 -1        46 9.61004E-05-2.88323E-05-2.88347E-05-6.10061E-09 1.35430E-19-1.22169E-17
 -1        47 9.57932E-05-2.87402E-05-2.87417E-05-3.31030E-09-1.90623E-19-1.10768E-17
 -1        48 9.55646E-05-2.86714E-05-2.86723E-05-1.33040E-09 1.09145E-19-9.88583E-18
 -1        49 9.54012E-05-2.86221E-05-2.86225E-05-1.76443E-11 4.92485E-20-1.09666E-17
 -1        50 9.52896E-05-2.85883E-05-2.85884E-05 7.82272E-10-2.82426E-19-1.22775E-17
 -1        51 9.52176E-05-2.85664E-05-2.85663E-05 1.20971E-09 6.92592E-20-1.09700E-17
 -1        52 9.51748E-05-2.85533E-05-2.85531E-05 1.38097E-09-3.85214E-20-9.37236E-18
 -1        53 9.51528E-05-2.85465E-05-2.85462E-05 1.38640E-09-4.05423E-20-1.08785E-17
 -1        54 9.51448E-05-2.85439E-05-2.85436E-05 1.29275E-09 1.95795E-19-1.11102E-17
 -1        55 9.51460E-05-2.85441E-05-2.85439E-05 1.14710E-09-2.26004E-19-9.10837E-18
 -1        56 9.51526E-05-2.85460E-05-2.85458E-05 9.81137E-10 4.08514E-19-8.67633E-18
 -1        57 9.51621E-05-2.85488E-05-2.85486E-05 8.14984E-10-1.56116E-19-9.99770E-18
 -1        58 9.51727E-05-2.85519E-05-2.85517E-05 6.60504E-10 9.13887E-19-9.03780E-18
 -1        59 9.51833E-05-2.85550E-05-2.85549E-05 5.23835E-10 6.63752E-21-6.53531E-18
 -1        60 9.51933E-05-2.85580E-05-2.85579E-05 4.07335E-10 7.45197E-20-3.73509E-18
 -1        61 9.52022E-05-2.85606E-05-2.85606E-05 3.10996E-10 3.83326E-19-3.75185E-18
 -1        62 9.52099E-05-2.85629E-05-2.85629E-05 2.33434E-10-7.06456E-19-5.59691E-18
 -1        63 9.52164E-05-2.85649E-05-2.85649E-05 1.72558E-10-6.61154E-19-8.57363E-18
 -1        64 9.52218E-05-2.85665E-05-2.85665E-05 1.25992E-10 8.31250E-19-8.75365E-18
 -1        65 9.52262E-05-2.85678E-05-2.85678E-05 9.13014E-11-2.05907E-19-7.06681E-18
 -1        66 9.52297E-05-2.85689E-05-2.85689E-05 6.60364E-11 1.44428E-18-6.28188E-18
 -1        67 9.52325E-05-2.85697E-05-2.85697E-05 4.75066E-11 5.23638E-20-3.86673E-18
 -1        68 9.52346E-05-2.85704E-05-2.85704E-05 3.22748E-11 5.65110E-19-2.70579E-18
 -1        69 9.52361E-05-2.85708E-05-2.85708E-05 1.47125E-11-2.16970E-19-2.11964E-18
 -1        70 9.52370E-05-2.85711E-05-2.85711E-05-1.80714E-11 1.19286E-18-4.26087E-19
 -1        71 9.52373E-05-2.85712E-05-2.85712E-05-6.08274E-11 3.88595E-19 3.88505E-18
 -1        72 1.48985E-04-4.48054E-05-4.85796E-05-3.90998E-06 2.03473E-19 1.63302E-17
 -1        73 1.51608E-04-4.52163E-05-4.64052E-05-1.04642E-06 1.24554E-19 1.47353E-17
 -1        74 1.56875E-04-4.70362E-05-4.67411E-05-9.18841E-07-8.66885E-21 1.39873E-17
 -1        75 1.58157E-04-4.76541E-05-4.63060E-05-6.07663E-07 2.27640E-20 1.45078E-17
 -1        76 1.47497E-04-4.47083E-05-4.29126E-05 8.51402E-07-1.32587E-19 1.54851E-17
 -1        77 1.21328E-04-3.66531E-05-3.64799E-05 3.09707E-06 2.47765E-20 1.61034E-17
 -1        78 9.14063E-05-2.67561E-05-3.00818E-05 3.54029E-06-2.36177E-19 1.70780E-17
 -1        79 8.16688E-05-2.32414E-05-2.80366E-05 2.95317E-07 3.24592E-19 1.47293E-17
 -1        80 9.81616E-05-2.85868E-05-3.14492E-05-2.61053E-06-6.32760E-20 1.15834E-17
 -1        81 1.26860E-04-3.79685E-05-3.77785E-05-3.27290E-06 2.02312E-19 8.12506E-18
 -1        82 1.48409E-04-4.48712E-05-4.31964E-05-1.81837E-06-1.28074E-19 7.10851E-18
 -1        83 1.53822E-04-4.64451E-05-4.51144E-05-3.08653E-07 3.46795E-19 6.36639E-18
 -1        84 1.47849E-04-4.44821E-05-4.39446E-05 3.99482E-07-1.45558E-19 5.97682E-18
 -1        85 1.37450E-04-4.12518E-05-4.12315E-05 5.43813E-07 2.34445E-19 7.11931E-18
 -1        86 1.26987E-04-3.80742E-05-3.82468E-05 4.61602E-07 2.79471E-19 8.33981E-18
 -1        87 1.18237E-04-3.54468E-05-3.56384E-05 3.33897E-07-1.54225E-19 8.15182E-18
 -1        88 1.11529E-04-3.34426E-05-3.35943E-05 2.24820E-07 3.36597E-19 8.20784E-18
 -1        89 1.06612E-04-3.19754E-05-3.20814E-05 1.46281E-07-3.25871E-19 6.51501E-18
 -1        90 1.03092E-04-3.09247E-05-3.09947E-05 9.36455E-08 3.86036E-19 6.26851E-18
 -1        91 1.00604E-04-3.01810E-05-3.02264E-05 5.94744E-08-2.44993E-19 5.31727E-18
 -1        92 9.88579E-05-2.96584E-05-2.96876E-05 3.76422E-08-5.03739E-20 6.82050E-18
 -1        93 9.76359E-05-2.92922E-05-2.93113E-05 2.50330E-08-1.50938E-19 7.50242E-18
 -1        94 9.67554E-05-2.90279E-05-2.90400E-05 1.36979E-08 6.28210E-20 4.72241E-18
 -1        95 9.61826E-05-2.88561E-05-2.88639E-05 8.54148E-09-1.09340E-19 5.59098E-18
 -1        96 9.57916E-05-2.87386E-05-2.87437E-05 4.95020E-09 1.80134E-19 6.44201E-18
 -1        97 9.55292E-05-2.86596E-05-2.86630E-05 2.61710E-09 2.71660E-19 5.11042E-18
 -1        98 9.53573E-05-2.86079E-05-2.86100E-05 1.13480E-09-3.46882E-19 6.21684E-18
 -1        99 9.52487E-05-2.85752E-05-2.85765E-05 2.13831E-10-1.40375E-19 5.48122E-18
 -1       100 9.51839E-05-2.85556E-05-2.85564E-05-3.35099E-10-1.60922E-20 8.94611E-18
 -1       101 9.51488E-05-2.85450E-05-2.85454E-05-6.37622E-10 5.21420E-19 9.76913E-18
 -1       102 9.51336E-05-2.85403E-05-2.85405E-05-7.78439E-10-5.32740E-19 8.13098E-18
 -1       103 9.51311E-05-2.85395E-05-2.85395E-05-8.15335E-10 1.97351E-19 5.91437E-18
 -1       104 9.51364E-05-2.85410E-05-2.85410E-05-7.87978E-10-5.98769E-19 2.54169E-18
 -1       105 9.51459E-05-2.85439E-05-2.85438E-05-7.23599E-10 1.23340E-19 5.59785E-18
 -1       106 9.51575E-05-2.85473E-05-2.85472E-05-6.40069E-10 2.87282E-19 2.83114E-18
 -1       107 9.51696E-05-2.85509E-05-2.85508E-05-5.48860E-10 6.39800E-19 6.63572E-19
 -1       108 9.51817E-05-2.85545E-05-2.85544E-05-4.63388E-10-1.50034E-18 3.56940E-18
 -1       109 9.51922E-05-2.85577E-05-2.85576E-05-3.76939E-10 8.08755E-19 7.66316E-18
 -1       110 9.52015E-05-2.85605E-05-2.85604E-05-3.05201E-10 8.79930E-19-1.03227E-18
 -1       111 9.52095E-05-2.85629E-05-2.85627E-05-2.43005E-10 5.35401E-19-5.62589E-18
 -1       112 9.52161E-05-2.85648E-05-2.85648E-05-1.90974E-10-1.60064E-19-2.63352E-18
 -1       113 9.52216E-05-2.85665E-05-2.85664E-05-1.48715E-10-6.75742E-19 3.61292E-18
 -1       114 9.52261E-05-2.85678E-05-2.85678E-05-1.15457E-10-5.89484E-20 9.27789E-18
 -1       115 9.52297E-05-2.85689E-05-2.85689E-05-9.02055E-11 1.51028E-19 1.05687E-17
 -1       116 9.52325E-05-2.85697E-05-2.85697E-05-7.16980E-11 9.42504E-19 7.62535E-18
 -1       117 9.52346E-05-2.85704E-05-2.85703E-05-5.78565E-11 1.12502E-18 4.59299E-18
 -1       118 9.52361E-05-2.85708E-05-2.85708E-05-4.44781E-11-6.74178E-19 3.35819E-18
 -1       119 9.52370E-05-2.85711E-05-2.85711E-05-1.88068E-11-3.04768E-20 7.56517E-18
 -1       120 9.52373E-05-2.85712E-05-2.85712E-05 4.18451E-11-1.40386E-18 8.25641E-18
 -1       121 9.52371E-05-2.85710E-05-2.85712E-05 6.77837E-11 9.21463E-18-7.17419E-19
 -1       122 9.52372E-05-2.85713E-05-2.85711E-05 5.47385E-13 5.70000E-18-6.56038E-19
 -1       123 9.52374E-05-2.85722E-05-2.85708E-05-4.14540E-11 4.61478E-18-1.96643E-19
 -1       124 9.52378E-05-2.85734E-05-2.85705E-05-5.96922E-11 1.48166E-18 8.51209E-19
 -1       125 9.52382E-05-2.85748E-05-2.85701E-05-6.10422E-11 1.60813E-18-1.06381E-18
 -1       126 9.52386E-05-2.85760E-05-2.85697E-05-5.17244E-11-4.69374E-18 4.32510E-20
 -1       127 9.52389E-05-2.85770E-05-2.85694E-05-3.40585E-11-8.59143E-19 3.62666E-19
 -1       128 9.52390E-05-2.85775E-05-2.85693E-05-1.17452E-11 4.93865E-19 9.08585E-19
 -1       129 9.52390E-05-2.85775E-05-2.85693E-05 1.20442E-11 5.64550E-18 8.44450E-19
 -1       130 9.52389E-05-2.85770E-05-2.85694E-05 3.42321E-11 5.48560E-19-6.88850E-19
 -1       131 9.52386E-05-2.85760E-05-2.85697E-05 5.22601E-11-8.78882E-18-1.57097E-18
 -1       132 9.52382E-05-2.85748E-05-2.85701E-05 6.10753E-11-1.69215E-17 1.06572E-18
 -1       133 9.52378E-05-2.85734E-05-2.85705E-05 5.92716E-11-7.28126E-18 8.99469E-19
 -1       134 9.52374E-05-2.85721E-05-2.85708E-05 4.57136E-11 2.58891E-19 1.01679E-18
 -1       135 9.52372E-05-2.85713E-05-2.85711E-05-5.82696E-14 2.68701E-18-7.82834E-19
 -1       136 9.52371E-05-2.85710E-05-2.85712E-05-1.11145E-10-2.37419E-18-2.62656E-18
 -1       137 2.82398E-05-9.69536E-05 1.74943E-05-2.68160E-05 2.14657E-17 5.03593E-18
 -1       138 9.67346E-06-4.65244E-05 5.78679E-06-2.59683E-05 2.45805E-17 1.14792E-17
 -1       139 1.03387E-05 6.49091E-06-1.31353E-05 1.47157E-05 1.84458E-17 1.34310E-17
 -1       140 7.73061E-05 2.03186E-05-4.08800E-05 8.67174E-05 8.77696E-18 1.01835E-17
 -1       141 1.83204E-04-1.71994E-05-6.31811E-05 1.21424E-04 2.10255E-18 4.18265E-18
 -1       142 2.94228E-04-7.54119E-05-7.96745E-05 9.35417E-05-7.91446E-19-4.65445E-18
 -1       143 3.50917E-04-1.08297E-04-8.69499E-05 1.08259E-05 1.11650E-19-1.39833E-17
 -1       144 3.11788E-04-8.66791E-05-8.15787E-05-7.71655E-05 4.13699E-18-2.08180E-17
 -1       145 1.99703E-04-2.83021E-05-6.49097E-05-1.15093E-04 9.45310E-18-2.18103E-17
 -1       146 8.86911E-05 1.56826E-05-4.34559E-05-9.04368E-05 1.41306E-17-1.92158E-17
 -1       147 2.13855E-05 1.54009E-05-2.07705E-05-3.26166E-05 1.46977E-17-1.37423E-17
 -1       148 5.49635E-06-2.87602E-05 4.79112E-07 1.78058E-05 1.17229E-17-6.85483E-18
 -1       149 2.02685E-05-7.85539E-05 1.36695E-05 3.00040E-05 5.28422E-18-1.87565E-18
 -1       150 3.22778E-05-9.93700E-05 1.75990E-05 8.95923E-06-2.45420E-18-1.14720E-19
 -1       151 2.47559E-05-7.89409E-05 1.35266E-05-1.33478E-05-1.02061E-17-1.76393E-18
 -1       152 7.94694E-06-2.72790E-05 1.18369E-06-1.13817E-05-1.55291E-17-6.14046E-18
 -1       153 9.33400E-06 2.02608E-05-1.62204E-05 2.56081E-05-1.55316E-17-1.05595E-17
 -1       154 5.41633E-05 3.26921E-05-3.64771E-05 7.99515E-05-1.19029E-17-1.26725E-17
 -1       155 1.36679E-04 3.84552E-06-5.50597E-05 1.14223E-04-6.87706E-18-1.11719E-17
 -1       156 2.38977E-04-5.12255E-05-7.11661E-05 1.02056E-04-2.01064E-18-4.59134E-18
 -1       157 3.05126E-04-9.23589E-05-7.95432E-05 3.64993E-05 1.24262E-19 4.16317E-18
 -1       158 3.00781E-04-8.87195E-05-7.91581E-05-4.94191E-05-1.38766E-18 1.11949E-17
 -1       159 1.35618E-04 5.77457E-06-5.46882E-05-1.16252E-04-1.04717E-17 1.65265E-17
 -1       160 5.03728E-05 3.22357E-05-3.43279E-05-7.65129E-05-1.29274E-17 1.39312E-17
 -1       161 1.01426E-05 1.55484E-05-1.46680E-05-2.28498E-05-1.04431E-17 7.81388E-18
 -1       162 8.85600E-06-3.49946E-05 3.36077E-06 1.67301E-05-4.84926E-18 2.32341E-18
 -1       163 2.67481E-05-8.73181E-05 1.52553E-05 2.11140E-05 3.55373E-18-6.43348E-19
 -1       164 1.00452E-04-1.30326E-05-3.77105E-05-2.59170E-05-2.05596E-18-3.82345E-18
 -1       165 9.58273E-05-1.00529E-05-3.69579E-05-2.04593E-05-1.07193E-18-5.06061E-18
 -1       166 9.45685E-05-9.40503E-06-3.66376E-05-1.54835E-05-2.33772E-19-5.27027E-18
 -1       167 9.42959E-05-9.87531E-06-3.62870E-05-1.02177E-05 4.47602E-19-5.04449E-18
 -1       168 9.33133E-05-1.04683E-05-3.55935E-05-4.48671E-06 9.75583E-19-4.39712E-18
 -1       169 9.03527E-05-1.04930E-05-3.43005E-05 1.82134E-06 1.40139E-18-3.71726E-18
 -1       170 8.43732E-05-9.09871E-06-3.23249E-05 8.07137E-06 1.90060E-18-3.10364E-18
 -1       171 7.51731E-05-5.70148E-06-2.98322E-05 1.30949E-05 2.31426E-18-2.76387E-18
 -1       172 6.42935E-05-6.38726E-07-2.73376E-05 1.53574E-05 2.57803E-18-2.57734E-18
 -1       173 5.54322E-05 4.33255E-06-2.56747E-05 1.38750E-05 2.64206E-18-2.50695E-18
 -1       174 5.31300E-05 6.64866E-06-2.56886E-05 9.50237E-06 2.54783E-18-2.17737E-18
 -1       175 6.00420E-05 4.78497E-06-2.78733E-05 4.68497E-06 2.45522E-18-1.49867E-18
 -1       176 7.55630E-05-9.33862E-07-3.21101E-05 2.49618E-06 2.29985E-18-1.98590E-19
 -1       177 9.67125E-05-9.12649E-06-3.76959E-05 4.59846E-06 2.08119E-18 1.92515E-18
 -1       178 1.21968E-04-2.06151E-05-4.35806E-05 1.05493E-05 1.56736E-18 5.24615E-18
 -1       179 1.45063E-04-3.89568E-05-4.67241E-05 1.01705E-05 8.84660E-19 8.98363E-18
 -1       180 1.08826E-04-2.87635E-05-3.43224E-05-1.48973E-05-1.98489E-18-1.23347E-18
 -1       181 1.00654E-04-2.95236E-05-3.05302E-05-7.72376E-06-1.76011E-18-1.96610E-18
 -1       182 9.47106E-05-2.81582E-05-2.84730E-05-5.29366E-06-1.45089E-18-2.46524E-18
 -1       183 9.05754E-05-2.70083E-05-2.72023E-05-4.24166E-06-9.11639E-19-3.09811E-18
 -1       184 8.74204E-05-2.59470E-05-2.63198E-05-3.24726E-06-6.03121E-19-3.65083E-18
 -1       185 8.52891E-05-2.51544E-05-2.57539E-05-1.84785E-06-5.17610E-19-4.08212E-18
 -1       186 8.43863E-05-2.47980E-05-2.55234E-05-6.47868E-08-3.68555E-19-4.37923E-18
 -1       187 8.48216E-05-2.49670E-05-2.56401E-05 1.77693E-06-9.20842E-19-4.47647E-18
 -1       188 8.64545E-05-2.56124E-05-2.60662E-05 3.25368E-06-7.30807E-19-4.74105E-18
 -1       189 8.88950E-05-2.65583E-05-2.67105E-05 4.05584E-06-7.98846E-20-5.12747E-18
 -1       190 9.16312E-05-2.75775E-05-2.74505E-05 4.10943E-06 2.71587E-19-5.37822E-18
 -1       191 9.41919E-05-2.84780E-05-2.81657E-05 3.56167E-06 2.26875E-19-5.32004E-18
 -1       192 9.62579E-05-2.91505E-05-2.87657E-05 2.67425E-06 5.85942E-20-5.01567E-18
 -1       193 9.76923E-05-2.95692E-05-2.92024E-05 1.70631E-06-1.39846E-19-4.72652E-18
 -1       194 9.85071E-05-2.97643E-05-2.94680E-05 8.42815E-07-9.10412E-20-4.76832E-18
 -1       195 9.88052E-05-2.97915E-05-2.95831E-05 1.77261E-07 6.86849E-20-4.79958E-18
 -1       196 9.87259E-05-2.97091E-05-2.95830E-05-2.70811E-07-2.62400E-19-4.84611E-18
 -1       197 9.84064E-05-2.95663E-05-2.95057E-05-5.26817E-07-8.11490E-19-5.46185E-18
 -1       198 9.79612E-05-2.93997E-05-2.93850E-05-6.35403E-07-6.05897E-19-6.09171E-18
 -1       199 9.74752E-05-2.92332E-05-2.92471E-05-6.43326E-07 1.21610E-19-6.11318E-18
 -1       200 9.70049E-05-2.90809E-05-2.91100E-05-5.90608E-07 4.87303E-19-5.41521E-18
 -1       201 9.65829E-05-2.89500E-05-2.89849E-05-5.07472E-07-1.77847E-19-4.58558E-18
 -1       202 9.62244E-05-2.88423E-05-2.88772E-05-4.14570E-07 1.83469E-21-4.08540E-18
 -1       203 9.59329E-05-2.87572E-05-2.87887E-05-3.24657E-07 5.47122E-19-3.43972E-18
 -1       204 9.57047E-05-2.86921E-05-2.87189E-05-2.44636E-07 7.44999E-19-3.32032E-18
 -1       205 9.55321E-05-2.86440E-05-2.86656E-05-1.77428E-07-5.68966E-19-3.33610E-18
 -1       206 9.54061E-05-2.86096E-05-2.86264E-05-1.23456E-07-1.03480E-18-3.11009E-18
 -1       207 9.53174E-05-2.85861E-05-2.85987E-05-8.17297E-08 6.38075E-19-3.58650E-18
 -1       208 9.52578E-05-2.85707E-05-2.85798E-05-5.05821E-08 2.63911E-19-3.43953E-18
 -1       209 9.52199E-05-2.85614E-05-2.85677E-05-2.81344E-08-1.07174E-18-3.90678E-18
 -1       210 9.51979E-05-2.85563E-05-2.85605E-05-1.25666E-08-1.44613E-20-4.17562E-18
 -1       211 9.51871E-05-2.85542E-05-2.85568E-05-2.25792E-09 5.23644E-19-4.17526E-18
 -1       212 9.51837E-05-2.85540E-05-2.85555E-05 4.15705E-09 4.08535E-19-4.26684E-18
 -1       213 9.51851E-05-2.85550E-05-2.85557E-05 7.78160E-09-3.12505E-20-3.66858E-18
 -1       214 9.51893E-05-2.85566E-05-2.85568E-05 9.47739E-09 4.65426E-19-4.38700E-18
 -1       215 9.51949E-05-2.85586E-05-2.85584E-05 9.89730E-09 1.92983E-18-4.34958E-18
 -1       216 9.52011E-05-2.85606E-05-2.85602E-05 9.52182E-09 6.91058E-19-3.93612E-18
 -1       217 9.52072E-05-2.85625E-05-2.85620E-05 8.69399E-09 9.16573E-20-2.38640E-18
 -1       218 9.52129E-05-2.85642E-05-2.85637E-05 7.65034E-09-7.83401E-19-3.21403E-18
 -1       219 9.52179E-05-2.85657E-05-2.85653E-05 6.54688E-09-1.44854E-18-2.68028E-18
 -1       220 9.52223E-05-2.85670E-05-2.85666E-05 5.47998E-09-4.15356E-19-2.60845E-18
 -1       221 9.52260E-05-2.85681E-05-2.85677E-05 4.50255E-09 1.54049E-18-3.35400E-18
 -1       222 9.52291E-05-2.85689E-05-2.85686E-05 3.63592E-09 9.26351E-19-2.01352E-18
 -1       223 9.52316E-05-2.85697E-05-2.85694E-05 2.87802E-09 1.19229E-18-3.55878E-18
 -1       224 9.52335E-05-2.85702E-05-2.85700E-05 2.20879E-09 1.54274E-18-2.71453E-18
 -1       225 9.52350E-05-2.85707E-05-2.85704E-05 1.59449E-09 1.41152E-18-3.46326E-18
 -1       226 9.52361E-05-2.85710E-05-2.85708E-05 9.96115E-10 1.73601E-18-2.38747E-18
 -1       227 9.52368E-05-2.85712E-05-2.85710E-05 4.01230E-10 1.92509E-18-2.46657E-18
 -1       228 1.43293E-04-4.20269E-05-4.35430E-05-1.10991E-06 7.87820E-19 8.26580E-18
 -1       229 1.43917E-04-4.35407E-05-4.29409E-05-3.48114E-06 1.87788E-19 7.75271E-18
 -1       230 1.45526E-04-4.57453E-05-4.25989E-05 6.66598E-07-2.90532E-19 7.55957E-18
 -1       231 1.43607E-04-4.65377E-05-4.14778E-05 1.08306E-05-5.61404E-19 8.06264E-18
 -1       232 1.34771E-04-4.21988E-05-3.98578E-05 2.12864E-05-2.51357E-19 8.69961E-18
 -1       233 1.21946E-04-3.30613E-05-3.88039E-05 1.91364E-05 7.71329E-20 8.13320E-18
 -1       234 1.16432E-04-2.84403E-05-3.85656E-05-2.56063E-07 1.76580E-18 6.70648E-18
 -1       235 1.22933E-04-3.33345E-05-3.89397E-05-1.76156E-05 2.07211E-18 4.85652E-18
 -1       236 1.34249E-04-4.16568E-05-3.97775E-05-2.05173E-05 1.72124E-18 2.69571E-18
 -1       237 1.41056E-04-4.56715E-05-4.07464E-05-1.04894E-05 2.07404E-19 1.64203E-18
 -1       238 1.40132E-04-4.44454E-05-4.09204E-05 7.51537E-07-1.74701E-20 1.98128E-18
 -1       239 1.34490E-04-4.13024E-05-3.99356E-05 7.08827E-06 1.31293E-19 2.26855E-18
 -1       240 1.27177E-04-3.81969E-05-3.81663E-05 8.89152E-06-4.84572E-19 2.43672E-18
 -1       241 1.20034E-04-3.56807E-05-3.61780E-05 8.23757E-06-4.72826E-19 2.99866E-18
 -1       242 1.13892E-04-3.37648E-05-3.43522E-05 6.71009E-06-2.61505E-19 3.42427E-18
 -1       243 1.08972E-04-3.23355E-05-3.28449E-05 5.11909E-06 1.45139E-19 4.00628E-18
 -1       244 1.05193E-04-3.12791E-05-3.16728E-05 3.76934E-06 4.78751E-19 4.39750E-18
 -1       245 1.02366E-04-3.05032E-05-3.07922E-05 2.72171E-06 7.96343E-20 3.71751E-18
 -1       246 1.00286E-04-2.99367E-05-3.01437E-05 1.94358E-06 1.09976E-19 3.89552E-18
 -1       247 9.87714E-05-2.95252E-05-2.96720E-05 1.37831E-06-9.08105E-19 3.21465E-18
 -1       248 9.76760E-05-2.92273E-05-2.93314E-05 9.71989E-07 5.24506E-19 3.16948E-18
 -1       249 9.68593E-05-2.90054E-05-2.90773E-05 6.69691E-07 1.28522E-18 3.12700E-18
 -1       250 9.63118E-05-2.88564E-05-2.89073E-05 4.65303E-07-8.43939E-19 2.69440E-18
 -1       251 9.59251E-05-2.87512E-05-2.87872E-05 3.19718E-07-1.94217E-19 4.63317E-18
 -1       252 9.56559E-05-2.86782E-05-2.87035E-05 2.16096E-07 6.96099E-19 3.68362E-18
 -1       253 9.54716E-05-2.86284E-05-2.86462E-05 1.42635E-07 2.07998E-19 2.33851E-18
 -1       254 9.53484E-05-2.85954E-05-2.86078E-05 9.09244E-08-4.80413E-19 2.03239E-18
 -1       255 9.52685E-05-2.85743E-05-2.85828E-05 5.49242E-08-1.27059E-18 2.55391E-18
 -1       256 9.52192E-05-2.85616E-05-2.85672E-05 3.02639E-08 2.44669E-19 2.66385E-18
 -1       257 9.51911E-05-2.85546E-05-2.85583E-05 1.37589E-08-3.29078E-19 3.26612E-18
 -1       258 9.51773E-05-2.85515E-05-2.85537E-05 3.07700E-09 1.54712E-18 3.56869E-18
 -1       259 9.51729E-05-2.85509E-05-2.85522E-05-3.49425E-09 6.90658E-19 2.76786E-18
 -1       260 9.51744E-05-2.85518E-05-2.85524E-05-7.21141E-09-2.14482E-19 1.37051E-18
 -1       261 9.51793E-05-2.85536E-05-2.85538E-05-8.99266E-09 1.05849E-18 6.90240E-19
 -1       262 9.51860E-05-2.85558E-05-2.85557E-05-9.50769E-09 7.47097E-19 1.50715E-18
 -1       263 9.51937E-05-2.85583E-05-2.85580E-05-9.19612E-09-2.46773E-18 2.02760E-18
 -1       264 9.52009E-05-2.85605E-05-2.85602E-05-8.43758E-09 7.69719E-19 1.47527E-18
 -1       265 9.52076E-05-2.85625E-05-2.85622E-05-7.46216E-09 4.45919E-18 1.14125E-18
 -1       266 9.52136E-05-2.85643E-05-2.85640E-05-6.41847E-09 1.18261E-18-1.71393E-18
 -1       267 9.52188E-05-2.85659E-05-2.85656E-05-5.40021E-09-2.69799E-18-1.13337E-18
 -1       268 9.52232E-05-2.85672E-05-2.85669E-05-4.46146E-09-3.94336E-18 1.32137E-18
 -1       269 9.52269E-05-2.85682E-05-2.85680E-05-3.62731E-09-1.40728E-18 5.09522E-18
 -1       270 9.52299E-05-2.85691E-05-2.85689E-05-2.90170E-09-4.92224E-20 4.79775E-18
 -1       271 9.52323E-05-2.85698E-05-2.85696E-05-2.27275E-09 1.43473E-18 4.66886E-18
 -1       272 9.52341E-05-2.85704E-05-2.85702E-05-1.71555E-09 1.59337E-18 4.13655E-18
 -1       273 9.52355E-05-2.85708E-05-2.85706E-05-1.19507E-09-1.90910E-18 5.67879E-18
 -1       274 9.52364E-05-2.85711E-05-2.85709E-05-6.75315E-10 3.24713E-19 3.74841E-18
 -1       275 9.52370E-05-2.85712E-05-2.85711E-05-1.71000E-10-2.72728E-19 1.50474E-18
 -1       276 9.52371E-05-2.85715E-05-2.85710E-05-4.31238E-10 6.99413E-19-5.32408E-19
 -1       277 9.52373E-05-2.85721E-05-2.85708E-05-9.46937E-10 1.49831E-18-7.31286E-19
 -1       278 9.52376E-05-2.85730E-05-2.85705E-05-1.30217E-09 1.45981E-18-9.77193E-19
 -1       279 9.52380E-05-2.85741E-05-2.85703E-05-1.41735E-09 1.03447E-18-6.27181E-19
 -1       280 9.52384E-05-2.85750E-05-2.85700E-05-1.30120E-09-1.13164E-18-3.59732E-18
 -1       281 9.52387E-05-2.85759E-05-2.85698E-05-9.85678E-10-3.71289E-19 1.30502E-18
 -1       282 9.52389E-05-2.85764E-05-2.85696E-05-5.27435E-10-3.24453E-19 1.28657E-18
 -1       283 9.52389E-05-2.85766E-05-2.85696E-05 4.31599E-12 2.95646E-19 2.56065E-18
 -1       284 9.52389E-05-2.85764E-05-2.85696E-05 5.35204E-10-1.08918E-19-3.48763E-18
 -1       285 9.52387E-05-2.85759E-05-2.85698E-05 9.91395E-10-1.43680E-18-4.44259E-18
 -1       286 9.52384E-05-2.85750E-05-2.85700E-05 1.30050E-09-1.32236E-18-4.56610E-18
 -1       287 9.52380E-05-2.85740E-05-2.85703E-05 1.41659E-09-9.98110E-19 5.86702E-18
 -1       288 9.52376E-05-2.85730E-05-2.85705E-05 1.29759E-09-2.55745E-19 3.17877E-18
 -1       289 9.52373E-05-2.85721E-05-2.85708E-05 9.38609E-10-4.56679E-19 1.36849E-18
 -1       290 9.52370E-05-2.85716E-05-2.85709E-05 7.47129E-10-2.72570E-19-1.99550E-18
 -1       291 1.11833E-05-4.71750E-05 1.20919E-05 1.77225E-06 6.36577E-18 5.63510E-18
 -1       292 2.51736E-05-4.40947E-05 5.25333E-06 1.89112E-05 7.66861E-18 4.80734E-18
 -1       293 5.17619E-05-4.02768E-05-7.40176E-06 3.08468E-05 8.89152E-18 3.44626E-18
 -1       294 1.16266E-04-5.17158E-05-2.81572E-05 3.83571E-05 5.68190E-18-1.14625E-18
 -1       295 1.58613E-04-4.06829E-05-4.92874E-05 4.19370E-05 5.01655E-18-3.89635E-20
 -1       296 2.03732E-04-4.22469E-05-6.57978E-05 3.19819E-05 3.71722E-18-2.62559E-18
 -1       297 2.15551E-04-3.56495E-05-7.37428E-05 7.49361E-06 3.79767E-18-4.17661E-18
 -1       298 2.29119E-04-4.10775E-05-7.60870E-05-4.40932E-06 3.91837E-18-6.86012E-18
 -1       299 2.06052E-04-4.32354E-05-6.66727E-05-1.76583E-05 3.33858E-18-7.37575E-18
 -1       300 1.66806E-04-4.35351E-05-5.13755E-05-3.70807E-05 4.83052E-18-8.97135E-18
 -1       301 1.14119E-04-3.99224E-05-3.24843E-05-4.01110E-05 5.31344E-18-8.12580E-18
 -1       302 6.82562E-05-4.07859E-05-1.37844E-05-3.30247E-05 4.23665E-18-6.50066E-18
 -1       303 3.16225E-05-3.62459E-05-6.29375E-08-2.28057E-05 2.83968E-18-5.35648E-18
 -1       304 1.01363E-05-3.79146E-05 8.82073E-06-1.76950E-06 1.49972E-18-4.32590E-18
 -1       305 7.97854E-06-3.36268E-05 8.44672E-06 1.29469E-05-7.42001E-19-4.02394E-18
 -1       306 2.04340E-05-2.94382E-05 1.75463E-06 2.70204E-05-2.88118E-18-3.88709E-18
 -1       307 4.40407E-05-2.31815E-05-1.05428E-05 3.81317E-05-5.53960E-18-4.22828E-18
 -1       308 8.59914E-05-2.35135E-05-2.71593E-05 4.93094E-05-5.25097E-18-3.92356E-18
 -1       309 1.28532E-04-2.43154E-05-4.39051E-05 5.15103E-05-5.15144E-18-3.46775E-18
 -1       310 1.70392E-04-2.92600E-05-5.87014E-05 3.96907E-05-4.75857E-18-1.43276E-18
 -1       311 2.06267E-04-3.54314E-05-7.00046E-05 2.41284E-05-3.84998E-18 4.72221E-19
 -1       312 2.16807E-04-3.72149E-05-7.33982E-05-2.93365E-06-3.09061E-18 2.66463E-18
 -1       313 1.96383E-04-3.11833E-05-6.81419E-05-2.37455E-05-3.45833E-18 3.46849E-18
 -1       314 1.70730E-04-2.93928E-05-5.82468E-05-4.70272E-05-4.12464E-18 5.94575E-18
 -1       315 1.30685E-04-2.97303E-05-4.23970E-05-4.87465E-05-3.56717E-18 5.27214E-18
 -1       316 8.52912E-05-2.74185E-05-2.51864E-05-4.84736E-05-2.82570E-18 5.91441E-18
 -1       317 5.33941E-05-3.53142E-05-9.18952E-06-4.01011E-05-1.01326E-18 5.20534E-18
 -1       318 2.52289E-05-4.16427E-05 4.24248E-06-2.42331E-05 1.41285E-18 4.72787E-18
 -1       319 1.30655E-05-4.81599E-05 1.15785E-05-1.14808E-05 3.84669E-18 4.07656E-18
 -1       320 1.00016E-04-1.81987E-05-3.51449E-05-1.70894E-05-9.92085E-19-3.85140E-18
 -1       321 1.02028E-04-2.12869E-05-3.46891E-05-1.88329E-05-1.81099E-18-3.35677E-18
 -1       322 1.00021E-04-1.86091E-05-3.49787E-05-8.66276E-06 6.80605E-19-3.51141E-18
 -1       323 9.88374E-05-1.93444E-05-3.41501E-05-2.54274E-06 1.34721E-18-2.97450E-18
 -1       324 9.47000E-05-1.87609E-05-3.26152E-05 4.78312E-06 2.00004E-18-2.33941E-18
 -1       325 8.61740E-05-1.54386E-05-3.03634E-05 1.24704E-05 2.72253E-18-1.98640E-18
 -1       326 7.31722E-05-8.63606E-06-2.76728E-05 1.83652E-05 3.30008E-18-1.85442E-18
 -1       327 5.87093E-05 2.30842E-07-2.52277E-05 1.95236E-05 3.52461E-18-2.05083E-18
 -1       328 4.93160E-05 6.94348E-06-2.40518E-05 1.47075E-05 3.47322E-18-2.16970E-18
 -1       329 5.10891E-05 7.28073E-06-2.49594E-05 6.36620E-06 3.12842E-18-1.82684E-18
 -1       330 6.57196E-05 6.24280E-08-2.81757E-05-2.15309E-07 2.65765E-18-8.78224E-19
 -1       331 8.89175E-05-1.18649E-05-3.30607E-05-1.68109E-06 2.27296E-18 6.49992E-19
 -1       332 1.14661E-04-2.52301E-05-3.84344E-05 3.84225E-07 1.64198E-18 3.19657E-18
 -1       333 1.30470E-04-3.45154E-05-4.11989E-05-1.59350E-08 1.15564E-18 5.31579E-18
 -1       334 1.32824E-04-3.99825E-05-3.97816E-05-4.74031E-06 5.13596E-19 4.79881E-18
 -1       335 1.01277E-04-2.81439E-05-3.13017E-05-1.17065E-05-1.64929E-18-2.63506E-18
 -1       336 9.80362E-05-2.83114E-05-2.98562E-05-8.97985E-06-1.30927E-18-2.36496E-18
 -1       337 9.50114E-05-2.74055E-05-2.89538E-05-7.09635E-06-1.07569E-18-2.24775E-18
 -1       338 9.24827E-05-2.61965E-05-2.83919E-05-4.90000E-06-7.87970E-19-2.51688E-18
 -1       339 9.08208E-05-2.52771E-05-2.80749E-05-2.05986E-06-5.78983E-19-2.69333E-18
 -1       340 9.03114E-05-2.50653E-05-2.79484E-05 1.12586E-06-5.54888E-19-2.82381E-18
 -1       341 9.09791E-05-2.56787E-05-2.79743E-05 3.99904E-06-7.53840E-19-2.76184E-18
 -1       342 9.25209E-05-2.68935E-05-2.81186E-05 5.92143E-06-6.59872E-19-2.56766E-18
 -1       343 9.44331E-05-2.82906E-05-2.83445E-05 6.58943E-06-3.68293E-19-3.19868E-18
 -1       344 9.62309E-05-2.94799E-05-2.86101E-05 6.11321E-06 2.75050E-19-3.31536E-18
 -1       345 9.76044E-05-3.02491E-05-2.88725E-05 4.87920E-06 1.46246E-19-3.47985E-18
 -1       346 9.84496E-05-3.05780E-05-2.90954E-05 3.33856E-06 3.25910E-19-3.23796E-18
 -1       347 9.88106E-05-3.05657E-05-2.92554E-05 1.85204E-06-7.39839E-20-3.09954E-18
 -1       348 9.88016E-05-3.03463E-05-2.93443E-05 6.31962E-07 2.07022E-19-2.80213E-18
 -1       349 9.85483E-05-3.00364E-05-2.93670E-05-2.44173E-07-1.80594E-20-2.91620E-18
 -1       350 9.81589E-05-2.97148E-05-2.93362E-05-7.89855E-07-5.87557E-19-2.55293E-18
 -1       351 9.77139E-05-2.94249E-05-2.92683E-05-1.06504E-06-8.84834E-19-2.34717E-18
 -1       352 9.72676E-05-2.91846E-05-2.91790E-05-1.14362E-06-1.01942E-19-2.58038E-18
 -1       353 9.68533E-05-2.89964E-05-2.90813E-05-1.09452E-06 7.76395E-19-2.98329E-18
 -1       354 9.64883E-05-2.88550E-05-2.89851E-05-9.73287E-07 6.55031E-19-2.91987E-18
 -1       355 9.61797E-05-2.87523E-05-2.88967E-05-8.20284E-07 7.54683E-19-1.81887E-18
 -1       356 9.59271E-05-2.86800E-05-2.88194E-05-6.62210E-07 6.86592E-19-8.88570E-19
 -1       357 9.57264E-05-2.86306E-05-2.87546E-05-5.14981E-07 9.35769E-19-1.12705E-19
 -1       358 9.55712E-05-2.85979E-05-2.87022E-05-3.86706E-07-3.81591E-20-9.44972E-19
 -1       359 9.54543E-05-2.85771E-05-2.86611E-05-2.80284E-07-1.50052E-19-9.62387E-19
 -1       360 9.53686E-05-2.85647E-05-2.86298E-05-1.95405E-07-1.52965E-19 2.78762E-19
 -1       361 9.53078E-05-2.85580E-05-2.86067E-05-1.30001E-07 5.12185E-19-4.55148E-20
 -1       362 9.52661E-05-2.85549E-05-2.85902E-05-8.12124E-08-1.03239E-18-5.62213E-19
 -1       363 9.52388E-05-2.85543E-05-2.85789E-05-4.59986E-08-1.16942E-18 6.60068E-20
 -1       364 9.52221E-05-2.85550E-05-2.85715E-05-2.14886E-08 2.72215E-20-4.00113E-19
 -1       365 9.52129E-05-2.85566E-05-2.85669E-05-5.15701E-09 5.96078E-19 2.45320E-20
 -1       366 9.52089E-05-2.85585E-05-2.85644E-05 5.11066E-09-4.09882E-20-9.32613E-19
 -1       367 9.52083E-05-2.85604E-05-2.85633E-05 1.10192E-08-6.83565E-19-3.06932E-19
 -1       368 9.52097E-05-2.85623E-05-2.85632E-05 1.38999E-08 1.60277E-18-1.64206E-19
 -1       369 9.52124E-05-2.85640E-05-2.85636E-05 1.47634E-08 1.94266E-18-1.21269E-18
 -1       370 9.52156E-05-2.85655E-05-2.85644E-05 1.43555E-08 1.37396E-18-1.12270E-18
 -1       371 9.52190E-05-2.85668E-05-2.85653E-05 1.32105E-08-1.02611E-18-1.85823E-18
 -1       372 9.52222E-05-2.85678E-05-2.85662E-05 1.16987E-08 1.88486E-20-5.86030E-19
 -1       373 9.52252E-05-2.85687E-05-2.85671E-05 1.00657E-08-8.71301E-20 8.92977E-19
 -1       374 9.52278E-05-2.85694E-05-2.85679E-05 8.46383E-09-4.14274E-19 1.81143E-18
 -1       375 9.52301E-05-2.85700E-05-2.85686E-05 6.97742E-09 1.26525E-18-1.11591E-18
 -1       376 9.52320E-05-2.85704E-05-2.85693E-05 5.64127E-09 1.06352E-18-1.21618E-18
 -1       377 9.52335E-05-2.85708E-05-2.85698E-05 4.45393E-09 8.00291E-19-1.79026E-18
 -1       378 9.52348E-05-2.85711E-05-2.85702E-05 3.38929E-09 1.11708E-18-1.81758E-18
 -1       379 9.52358E-05-2.85714E-05-2.85705E-05 2.40891E-09 1.64265E-18-1.62221E-18
 -1       380 9.52365E-05-2.85715E-05-2.85707E-05 1.54482E-09 2.92800E-18-2.37816E-19
 -1       381 1.37957E-04-4.63909E-05-3.92089E-05-1.85998E-06-1.42229E-19 4.53445E-18
 -1       382 1.44566E-04-5.23625E-05-3.95290E-05 9.58582E-06-8.49412E-19 4.80535E-18
 -1       383 1.47876E-04-5.09828E-05-4.17128E-05 2.48028E-05-6.39722E-19 5.11161E-18
 -1       384 1.40605E-04-3.47785E-05-4.61713E-05 2.63930E-05 4.99061E-19 4.89896E-18
 -1       385 1.34508E-04-2.23380E-05-4.88867E-05 2.98024E-06 2.86604E-18 3.35704E-18
 -1       386 1.38797E-04-3.10163E-05-4.67723E-05-2.12647E-05 3.33683E-18 1.38821E-18
 -1       387 1.44645E-04-4.67848E-05-4.23048E-05-2.44402E-05 2.83986E-18-1.62035E-19
 -1       388 1.42994E-04-5.25690E-05-3.88506E-05-1.09275E-05 5.12614E-19-7.71687E-19
 -1       389 1.34764E-04-4.76445E-05-3.73737E-05 3.76264E-06-3.44610E-19-9.92511E-19
 -1       390 1.25935E-04-4.07870E-05-3.65280E-05 1.17890E-05 2.06332E-20-2.01071E-19
 -1       391 1.18772E-04-3.58689E-05-3.55558E-05 1.39291E-05-9.56158E-19 7.08308E-19
 -1       392 1.13259E-04-3.29982E-05-3.44038E-05 1.28673E-05-8.01866E-19 1.06128E-18
 -1       393 1.08991E-04-3.14239E-05-3.32357E-05 1.06168E-05-7.72411E-19 1.58963E-18
 -1       394 1.05652E-04-3.05291E-05-3.21822E-05 8.24439E-06-2.99651E-19 2.02324E-18
 -1       395 1.03043E-04-2.99736E-05-3.13016E-05 6.18431E-06-7.78939E-20 2.12502E-18
 -1       396 1.01023E-04-2.95950E-05-3.05999E-05 4.54567E-06 4.33592E-20 2.53423E-18
 -1       397 9.94758E-05-2.93196E-05-3.00575E-05 3.30024E-06 6.44287E-19 3.28208E-18
 -1       398 9.83045E-05-2.91127E-05-2.96465E-05 2.37659E-06-2.46083E-19 2.53060E-18
 -1       399 9.74256E-05-2.89556E-05-2.93392E-05 1.70039E-06 6.12338E-19 2.01331E-18
 -1       400 9.67466E-05-2.88322E-05-2.91024E-05 1.18784E-06 6.87531E-19 1.80522E-18
 -1       401 9.62768E-05-2.87459E-05-2.89392E-05 8.37642E-07-4.85894E-19 2.62833E-18
 -1       402 9.59346E-05-2.86823E-05-2.88205E-05 5.84250E-07-6.71183E-19 2.57365E-18
 -1       403 9.56892E-05-2.86369E-05-2.87353E-05 4.01654E-07 1.53105E-18 3.02783E-18
 -1       404 9.55158E-05-2.86052E-05-2.86750E-05 2.70639E-07 1.30323E-18 2.14200E-18
 -1       405 9.53956E-05-2.85839E-05-2.86329E-05 1.77269E-07-8.86461E-19 1.65759E-18
 -1       406 9.53143E-05-2.85702E-05-2.86041E-05 1.11391E-07-6.25565E-19 1.32733E-18
 -1       407 9.52611E-05-2.85619E-05-2.85850E-05 6.55639E-08-3.17064E-19 2.50426E-19
 -1       408 9.52279E-05-2.85575E-05-2.85728E-05 3.43069E-08 8.67349E-20 3.64137E-19
 -1       409 9.52088E-05-2.85557E-05-2.85654E-05 1.35663E-08 8.41800E-20 3.45732E-19
 -1       410 9.51991E-05-2.85556E-05-2.85614E-05 3.38817E-10 6.63806E-19 2.47073E-18
 -1       411 9.51958E-05-2.85565E-05-2.85597E-05-7.59869E-09 9.57799E-19 2.27473E-18
 -1       412 9.51965E-05-2.85580E-05-2.85593E-05-1.18856E-08 7.08157E-19 1.87850E-18
 -1       413 9.51995E-05-2.85597E-05-2.85599E-05-1.37203E-08 1.78595E-19 2.29892E-18
 -1       414 9.52041E-05-2.85616E-05-2.85610E-05-1.39575E-08-1.34528E-18 1.78154E-18
 -1       415 9.52088E-05-2.85633E-05-2.85624E-05-1.32049E-08 1.83876E-20-1.30191E-18
 -1       416 9.52135E-05-2.85648E-05-2.85637E-05-1.19390E-08 2.98913E-18-4.61246E-19
 -1       417 9.52179E-05-2.85662E-05-2.85650E-05-1.04454E-08 1.95860E-18 1.75868E-18
 -1       418 9.52219E-05-2.85673E-05-2.85662E-05-8.91004E-09-3.08933E-18 1.13869E-18
 -1       419 9.52253E-05-2.85683E-05-2.85673E-05-7.44588E-09-4.19345E-18 7.25496E-19
 -1       420 9.52282E-05-2.85691E-05-2.85682E-05-6.11273E-09-2.45357E-18-8.82734E-19
 -1       421 9.52306E-05-2.85697E-05-2.85690E-05-4.93166E-09-7.60301E-20-7.31745E-19
 -1       422 9.52326E-05-2.85702E-05-2.85696E-05-3.89559E-09-2.78478E-19 1.83793E-18
 -1       423 9.52342E-05-2.85707E-05-2.85701E-05-2.97714E-09 1.35082E-18 3.38618E-18
 -1       424 9.52354E-05-2.85710E-05-2.85705E-05-2.13533E-09-5.52239E-19 2.87131E-18
 -1       425 9.52363E-05-2.85713E-05-2.85707E-05-1.33769E-09 1.53660E-18 5.68774E-19
 -1       426 9.52367E-05-2.85714E-05-2.85709E-05-8.76766E-10 5.34254E-19 8.25682E-20
 -1       427 9.52378E-05-2.85736E-05-2.85704E-05-2.45213E-09 3.81171E-19-4.00139E-19
 -1       428 9.52372E-05-2.85726E-05-2.85705E-05-2.12438E-09 2.56743E-18-1.56040E-18
 -1       429 9.52369E-05-2.85720E-05-2.85707E-05-1.53836E-09 1.72068E-18-8.87954E-20
 -1       430 9.52383E-05-2.85745E-05-2.85702E-05-2.40361E-09 2.97571E-19-4.26038E-18
 -1       431 9.52388E-05-2.85753E-05-2.85700E-05-2.00262E-09 1.05023E-18-3.63912E-19
 -1       432 9.52391E-05-2.85759E-05-2.85699E-05-1.31849E-09 7.36712E-19 9.80138E-19
 -1       433 9.52393E-05-2.85763E-05-2.85699E-05-4.54420E-10-1.06990E-19 2.98059E-18
 -1       434 9.52393E-05-2.85763E-05-2.85699E-05 4.70185E-10-1.87862E-18-6.52862E-19
 -1       435 9.52391E-05-2.85759E-05-2.85699E-05 1.33124E-09-2.51479E-18-3.06418E-18
 -1       436 9.52388E-05-2.85753E-05-2.85700E-05 2.00149E-09 2.74706E-19-3.99260E-18
 -1       437 9.52383E-05-2.85745E-05-2.85702E-05 2.40322E-09 3.09014E-18 1.15399E-18
 -1       438 9.52378E-05-2.85736E-05-2.85704E-05 2.44849E-09 9.78541E-19 5.41310E-18
 -1       439 9.52372E-05-2.85726E-05-2.85705E-05 2.12546E-09 9.91635E-19 9.97346E-19
 -1       440 5.78685E-05-4.23280E-05-7.00542E-06 3.92184E-05 1.95082E-18-1.49925E-19
 -1       441 1.08821E-05-2.21221E-05 4.49427E-06-7.03635E-06 1.70426E-18 5.44706E-18
 -1       442 2.40500E-05-2.26687E-05-4.20622E-07 2.18625E-05-3.24361E-19 4.58679E-18
 -1       443 1.06422E-04-5.80424E-05-2.08791E-05 3.81022E-05 2.13876E-18-3.48705E-18
 -1       444 1.55375E-04-6.34210E-05-3.94963E-05 1.17082E-05 3.21100E-18-2.31102E-18
 -1       445 1.00075E-04-1.80077E-05-3.52616E-05-1.36397E-05-3.06479E-20-3.91984E-18
 -1       446 1.78378E-04-3.36179E-05-6.15426E-05-9.25158E-06 4.80649E-18-1.80587E-18
 -1       447 1.73272E-04-2.09953E-05-6.48366E-05 1.81088E-06 4.11023E-18-8.83687E-19
 -1       448 1.75060E-04-2.83405E-05-6.24458E-05 1.38133E-05 2.54968E-18-8.65774E-19
 -1       449 1.72202E-04-5.09159E-05-5.20138E-05 1.24509E-05 9.83935E-19-1.25626E-18
 -1       450 1.60653E-04-6.24602E-05-4.20813E-05-7.83878E-06 1.00977E-18-2.25025E-18
 -1       451 1.20424E-04-5.98352E-05-2.62515E-05-2.96373E-05 1.10358E-18-3.79285E-18
 -1       452 7.45913E-05-4.29481E-05-1.35870E-05-3.59157E-05 5.93876E-19-4.17092E-18
 -1       453 2.38293E-05-1.88327E-05-2.29204E-06-1.97224E-05 1.39173E-18-4.89384E-18
 -1       454 8.47532E-06-1.11626E-05 1.01992E-06 3.37196E-06 1.63992E-18-4.86292E-18
 -1       455 1.61403E-05-1.38250E-05-1.13190E-06 2.98134E-05 1.57919E-18-4.04035E-18
 -1       456 4.99916E-05-2.55947E-05-1.03701E-05 4.72307E-05 1.08611E-18-2.51759E-18
 -1       457 8.45274E-05-3.76201E-05-2.01928E-05 4.73801E-05-1.47595E-19-1.35061E-18
 -1       458 1.25388E-04-4.31953E-05-3.52164E-05 3.41013E-05-2.14860E-18-1.75124E-19
 -1       459 1.48318E-04-3.77870E-05-4.74106E-05 1.62463E-05-3.45748E-18 4.59833E-19
 -1       460 1.61008E-04-2.30383E-05-5.89690E-05 3.67954E-06-4.74614E-18 4.67880E-19
 -1       461 1.56814E-04-1.06285E-05-6.27124E-05-2.33781E-06-4.29583E-18 3.47389E-19
 -1       462 1.57692E-04-1.11590E-05-6.29789E-05-9.24094E-07-3.22995E-18 1.70783E-19
 -1       463 1.60724E-04-2.69868E-05-5.71906E-05-8.24875E-06-2.34416E-18 4.00752E-19
 -1       464 1.51731E-04-4.03475E-05-4.75036E-05-1.89420E-05-1.62518E-18 1.11808E-18
 -1       465 1.27445E-04-5.24742E-05-3.21974E-05-3.43446E-05 1.24371E-18 2.29398E-18
 -1       466 9.87472E-05-5.01145E-05-2.07572E-05-4.63627E-05 2.08624E-18 2.80082E-18
 -1       467 5.27965E-05-3.71470E-05-6.86838E-06-4.61991E-05 2.29525E-18 4.69664E-18
 -1       468 2.44061E-05-2.58803E-05 4.89048E-07-3.18455E-05 1.73144E-18 5.15557E-18
 -1       469 1.70391E-04-5.21404E-05-5.06436E-05-3.04964E-06 4.53660E-18-1.93092E-18
 -1       470 1.41151E-04-6.71503E-05-3.17895E-05 1.80714E-05 2.20641E-18-3.59941E-18
 -1       471 1.43549E-04-1.37710E-05-5.60145E-05 5.92028E-06-1.89958E-18-1.04561E-18
 -1       472 5.65566E-05-2.63953E-05-1.25110E-05-3.12480E-05 5.86094E-19-3.83817E-18
 -1       473 1.17675E-04-3.83052E-05-3.38936E-05-1.04028E-05 2.91803E-19 1.46380E-18
 -1       474 1.04448E-04-2.70867E-05-3.31864E-05-2.14796E-07 1.59412E-18-2.03057E-18
 -1       475 1.05468E-04-2.58874E-05-3.41431E-05-7.33945E-06 8.53251E-19-2.74582E-18
 -1       476 8.75614E-05-2.12434E-05-2.83954E-05 1.98416E-05 3.14546E-18-1.32616E-18
 -1       477 6.89749E-05-1.07941E-05-2.48397E-05 2.65881E-05 3.83645E-18-1.65385E-18
 -1       478 4.97683E-05 1.43929E-06-2.17570E-05 2.41307E-05 3.99706E-18-2.37429E-18
 -1       479 4.16902E-05 7.52071E-06-2.08790E-05 1.17570E-05 3.54516E-18-2.55502E-18
 -1       480 5.20320E-05 2.10664E-06-2.30014E-05-2.60564E-06 2.66568E-18-2.15717E-18
 -1       481 7.73608E-05-1.22151E-05-2.78063E-05-9.80348E-06 1.78157E-18-8.07679E-19
 -1       482 1.30979E-04-5.25634E-05-3.34678E-05-8.38789E-06-7.11640E-19 1.48999E-18
 -1       483 1.02564E-04-2.77709E-05-3.20459E-05-1.30079E-05-1.15195E-18-2.58463E-18
 -1       484 1.56422E-04-4.28398E-05-4.92319E-05-2.18343E-05 4.11817E-18-1.07843E-18
 -1       485 1.00864E-04-2.80344E-05-3.12030E-05-1.09615E-05-1.00502E-18-2.36632E-18
 -1       486 9.84870E-05-2.67170E-05-3.07492E-05-8.62240E-06-9.30373E-19-2.01618E-18
 -1       487 9.62655E-05-2.50542E-05-3.05113E-05-5.31103E-06-8.49787E-19-2.00721E-18
 -1       488 9.49381E-05-2.41140E-05-3.03468E-05-1.13336E-06-5.87209E-19-2.11213E-18
 -1       489 9.49209E-05-2.45263E-05-3.01635E-05 3.11410E-06-8.07353E-19-2.32436E-18
 -1       490 9.60673E-05-2.62045E-05-2.99367E-05 6.37643E-06-7.23121E-19-2.73290E-18
 -1       491 9.77597E-05-2.84661E-05-2.96946E-05 7.96040E-06-6.81203E-19-2.57280E-18
 -1       492 9.92997E-05-3.05057E-05-2.94828E-05 7.83037E-06-8.89926E-20-2.02617E-18
 -1       493 1.00247E-04-3.18096E-05-2.93323E-05 6.47153E-06 1.81709E-19-2.16533E-18
 -1       494 1.00512E-04-3.22770E-05-2.92468E-05 4.54107E-06 5.09681E-19-2.25572E-18
 -1       495 1.00238E-04-3.20916E-05-2.92094E-05 2.58727E-06 3.02480E-19-2.17758E-18
 -1       496 9.96468E-05-3.15315E-05-2.91956E-05 9.41049E-07 3.47389E-19-1.43227E-18
 -1       497 9.89313E-05-3.08403E-05-2.91844E-05-2.66933E-07-1.10392E-19-1.17648E-18
 -1       498 9.82210E-05-3.01780E-05-2.91630E-05-1.03976E-06-4.55914E-19-1.39572E-18
 -1       499 9.75841E-05-2.96244E-05-2.91266E-05-1.44884E-06-5.34477E-19-1.42325E-18
 -1       500 9.70466E-05-2.92029E-05-2.90763E-05-1.58787E-06-5.04644E-19-7.52305E-19
 -1       501 9.66099E-05-2.89051E-05-2.90164E-05-1.54654E-06 5.48718E-21-2.30366E-19
 -1       502 9.62638E-05-2.87088E-05-2.89519E-05-1.39876E-06 4.59160E-19-1.41453E-18
 -1       503 9.59943E-05-2.85888E-05-2.88877E-05-1.19953E-06 9.93777E-19-1.78105E-18
 -1       504 9.57871E-05-2.85224E-05-2.88274E-05-9.86379E-07 1.65424E-18-1.41863E-18
 -1       505 9.56297E-05-2.84914E-05-2.87732E-05-7.82671E-07 1.40457E-18-1.22855E-18
 -1       506 9.55114E-05-2.84823E-05-2.87265E-05-6.01196E-07 4.58443E-19-8.54069E-19
 -1       507 9.54236E-05-2.84857E-05-2.86874E-05-4.47448E-07-4.34137E-20-1.88311E-19
 -1       508 9.53594E-05-2.84955E-05-2.86557E-05-3.22235E-07 4.91140E-19 1.22529E-19
 -1       509 9.53131E-05-2.85077E-05-2.86307E-05-2.23624E-07-2.45956E-19-3.04571E-19
 -1       510 9.52805E-05-2.85200E-05-2.86115E-05-1.48300E-07-8.87217E-19 2.57219E-19
 -1       511 9.52581E-05-2.85313E-05-2.85971E-05-9.24498E-08-1.38136E-18 4.38351E-19
 -1       512 9.52433E-05-2.85410E-05-2.85866E-05-5.23031E-08-7.59614E-19 9.68182E-19
 -1       513 9.52339E-05-2.85490E-05-2.85792E-05-2.44331E-08-4.11486E-19-4.19941E-19
 -1       514 9.52285E-05-2.85553E-05-2.85742E-05-5.89016E-09 2.08483E-19-8.84946E-19
 -1       515 9.52257E-05-2.85602E-05-2.85709E-05 5.76244E-09-1.36006E-19 2.96255E-19
 -1       516 9.52248E-05-2.85638E-05-2.85690E-05 1.24728E-08 3.73740E-19 9.76822E-19
 -1       517 9.52250E-05-2.85665E-05-2.85679E-05 1.57541E-08 6.69363E-19 3.02541E-19
 -1       518 9.52259E-05-2.85684E-05-2.85675E-05 1.67513E-08 1.15209E-18-1.00256E-18
 -1       519 9.52272E-05-2.85698E-05-2.85675E-05 1.63076E-08-2.28023E-19-4.47832E-19
 -1       520 9.52286E-05-2.85707E-05-2.85677E-05 1.50265E-08-8.40977E-20 7.15232E-19
 -1       521 9.52301E-05-2.85712E-05-2.85681E-05 1.33257E-08 9.00197E-19 1.21416E-18
 -1       522 9.52314E-05-2.85716E-05-2.85685E-05 1.14816E-08 2.41807E-19 1.68064E-18
 -1       523 9.52326E-05-2.85718E-05-2.85689E-05 9.66539E-09-1.92703E-18 2.82443E-18
 -1       524 9.52337E-05-2.85719E-05-2.85694E-05 7.97125E-09-1.78746E-19 1.45687E-18
 -1       525 9.52346E-05-2.85720E-05-2.85697E-05 6.43900E-09-1.58374E-19 8.27251E-19
 -1       526 9.52354E-05-2.85720E-05-2.85700E-05 5.06732E-09 7.43280E-19 2.38517E-20
 -1       527 9.52361E-05-2.85721E-05-2.85703E-05 3.83246E-09 2.63751E-18-8.23577E-19
 -1       528 1.52096E-04-6.16021E-05-3.90435E-05-9.71062E-06 1.80273E-18-2.33636E-18
 -1       529 1.35194E-04-5.70953E-05-3.34142E-05 8.39342E-06 1.45901E-19-2.33135E-18
 -1       530 1.19306E-04-4.41514E-05-3.21768E-05 1.71142E-05-7.53356E-19-2.52053E-18
 -1       531 1.09863E-04-3.48650E-05-3.21452E-05 1.89752E-05-7.63729E-19-2.04511E-18
 -1       532 1.04961E-04-3.00675E-05-3.20952E-05 1.74775E-05-1.91755E-18-1.03383E-18
 -1       533 1.02398E-04-2.81487E-05-3.18146E-05 1.46826E-05-1.13687E-18 1.23881E-19
 -1       534 1.00875E-04-2.76463E-05-3.13729E-05 1.16999E-05-7.30238E-19 3.67825E-20
 -1       535 9.97798E-05-2.76984E-05-3.08804E-05 9.02109E-06 2.25805E-19 1.09733E-19
 -1       536 9.88857E-05-2.79027E-05-3.04111E-05 6.80833E-06-6.14649E-19-7.79848E-20
 -1       537 9.81250E-05-2.81039E-05-3.00010E-05 5.06532E-06-8.11481E-20 6.44817E-19
 -1       538 9.74807E-05-2.82576E-05-2.96609E-05 3.73062E-06 5.28722E-19 9.62445E-19
 -1       539 9.69449E-05-2.83620E-05-2.93883E-05 2.72538E-06-2.85100E-19 4.18557E-19
 -1       540 9.64930E-05-2.84318E-05-2.91659E-05 1.94526E-06 1.44683E-18 9.80017E-19
 -1       541 9.61551E-05-2.84726E-05-2.90045E-05 1.39948E-06 1.24904E-19 8.31671E-19
 -1       542 9.58925E-05-2.84975E-05-2.88820E-05 9.97270E-07-6.37796E-19 1.95442E-18
 -1       543 9.56930E-05-2.85131E-05-2.87903E-05 7.02075E-07 8.63532E-20 2.05707E-18
 -1       544 9.55442E-05-2.85235E-05-2.87224E-05 4.86507E-07 2.11223E-18 2.45699E-18
 -1       545 9.54355E-05-2.85310E-05-2.86728E-05 3.30092E-07 5.56141E-19 2.01048E-18
 -1       546 9.53577E-05-2.85370E-05-2.86370E-05 2.17577E-07-2.85346E-19 2.31094E-18
 -1       547 9.53034E-05-2.85422E-05-2.86117E-05 1.37578E-07 2.06587E-19 1.14057E-18
 -1       548 9.52666E-05-2.85467E-05-2.85941E-05 8.15717E-08 6.81615E-20 1.36877E-19
 -1       549 9.52428E-05-2.85508E-05-2.85822E-05 4.31645E-08-4.05987E-19 3.09070E-19
 -1       550 9.52281E-05-2.85544E-05-2.85744E-05 1.75551E-08-1.10213E-18 6.65333E-20
 -1       551 9.52199E-05-2.85576E-05-2.85695E-05 1.14243E-09 7.47261E-20 1.09540E-18
 -1       552 9.52161E-05-2.85604E-05-2.85667E-05-8.76618E-09 6.26074E-19 2.74758E-18
 -1       553 9.52152E-05-2.85627E-05-2.85654E-05-1.41679E-08 7.11160E-19 3.80714E-18
 -1       554 9.52162E-05-2.85647E-05-2.85649E-05-1.65926E-08 2.25174E-19 2.03834E-18
 -1       555 9.52181E-05-2.85663E-05-2.85651E-05-1.69093E-08 1.51797E-18-1.74966E-19
 -1       556 9.52206E-05-2.85676E-05-2.85656E-05-1.60558E-08 9.15368E-19-9.24528E-19
 -1       557 9.52231E-05-2.85686E-05-2.85662E-05-1.45546E-08 1.45022E-18 2.46036E-18
 -1       558 9.52256E-05-2.85694E-05-2.85670E-05-1.27602E-08-1.67356E-18 3.59505E-18
 -1       559 9.52279E-05-2.85700E-05-2.85677E-05-1.09031E-08-2.08860E-18 1.81545E-18
 -1       560 9.52299E-05-2.85704E-05-2.85684E-05-9.12260E-09-3.21599E-18-5.51309E-19
 -1       561 9.52317E-05-2.85708E-05-2.85690E-05-7.49135E-09-2.05271E-18-7.06109E-19
 -1       562 9.52331E-05-2.85711E-05-2.85695E-05-6.03406E-09-1.55409E-18 1.79867E-18
 -1       563 9.52344E-05-2.85713E-05-2.85699E-05-4.74175E-09 1.04529E-19 1.98645E-18
 -1       564 9.52354E-05-2.85715E-05-2.85702E-05-3.58389E-09 1.43890E-18 1.71117E-18
 -1       565 9.52362E-05-2.85717E-05-2.85705E-05-2.51805E-09 7.15653E-19 2.02979E-18
 -1       566 9.52389E-05-2.85751E-05-2.85702E-05-3.07313E-09 3.36120E-18-8.34513E-19
 -1       567 9.52395E-05-2.85758E-05-2.85701E-05-2.29619E-09 3.71093E-18 3.62972E-19
 -1       568 9.52373E-05-2.85731E-05-2.85704E-05-3.32209E-09 1.31642E-18-3.62374E-18
 -1       569 9.52381E-05-2.85741E-05-2.85703E-05-3.43403E-09 4.98536E-19-2.16709E-18
 -1       570 9.52399E-05-2.85763E-05-2.85701E-05-1.21945E-09 1.87795E-18 4.29060E-19
 -1       571 9.52400E-05-2.85765E-05-2.85701E-05 1.24149E-11-4.48731E-19 1.12230E-18
 -1       572 9.52399E-05-2.85763E-05-2.85701E-05 1.24203E-09-1.55438E-19-1.99417E-18
 -1       573 9.52395E-05-2.85758E-05-2.85701E-05 2.29554E-09-9.72281E-19-2.53121E-18
 -1       574 9.52389E-05-2.85751E-05-2.85702E-05 3.07008E-09-5.10601E-20-6.76657E-19
 -1       575 9.52381E-05-2.85741E-05-2.85703E-05 3.43298E-09 1.48340E-18 2.85954E-18
 -1       576 9.52373E-05-2.85731E-05-2.85704E-05 3.32671E-09 1.58521E-18 4.69488E-18
 -1       577 2.41472E-05-1.11560E-05-4.91365E-06 3.81269E-06-7.08450E-19 4.36720E-18
 -1       578 5.62769E-05-2.95363E-05-1.09425E-05 3.56429E-05-1.74701E-18-2.63057E-19
 -1       579 2.63952E-05-1.30278E-05-5.09023E-06-2.04352E-05 6.48510E-21 4.57345E-18
 -1       580 9.26634E-05-4.88235E-05-1.83714E-05 3.80474E-05-6.68891E-19-2.94582E-18
 -1       581 1.02930E-04-2.49819E-05-3.34446E-05-1.53023E-05-1.26227E-18-3.14218E-18
 -1       582 8.51460E-05-4.56921E-05-1.66220E-05-4.74086E-05 2.70299E-18 3.00747E-18
 -1       583 1.42007E-04-5.28311E-05-3.83611E-05-1.27222E-05 1.29044E-18-8.86526E-19
 -1       584 1.35232E-04-1.28602E-05-5.30737E-05-1.01554E-05-4.13336E-18-1.22793E-19
 -1       585 3.93859E-05-1.22683E-05-1.10807E-05 4.12015E-05 3.30819E-18-2.95614E-18
 -1       586 9.93122E-05-2.63214E-05-3.12965E-05 9.38170E-06 2.37727E-18-1.45534E-18
 -1       587 1.12525E-04-5.50639E-05-2.44358E-05-2.70289E-05-4.64756E-19-2.17296E-18
 -1       588 1.48118E-04-2.34269E-05-5.42910E-05-1.13609E-05 3.99069E-18 8.91687E-19
 -1       589 1.37098E-04-4.64647E-05-3.90535E-05 1.18326E-05-1.09318E-18 1.26314E-18
 -1       590 1.46262E-04-6.58787E-05-3.45278E-05-7.81746E-06-4.00911E-19-4.52448E-19
 -1       591 2.47998E-05-3.17126E-06-8.61318E-06-8.42512E-06 1.86747E-18-4.40923E-18
 -1       592 1.72993E-05-3.04193E-07-6.66050E-06 1.68209E-05 2.85756E-18-4.17026E-18
 -1       593 7.86930E-05-3.24964E-05-1.94601E-05 4.59062E-05 2.80093E-18-9.06061E-19
 -1       594 1.46739E-04-3.58363E-05-4.79040E-05 1.67277E-06-1.03923E-18-1.79815E-18
 -1       595 1.14519E-04-4.70183E-05-2.88648E-05 3.31800E-05 1.12023E-18 7.25153E-19
 -1       596 1.41357E-04-3.00811E-05-4.80941E-05-6.95263E-06-3.21798E-18 9.05478E-19
 -1       597 1.32038E-04-4.95812E-06-5.51465E-05-1.30602E-06-3.53620E-18-1.58316E-18
 -1       598 5.00328E-05-2.64351E-05-9.60584E-06-4.16725E-05 1.62397E-18 4.06290E-18
 -1       599 1.21119E-04-5.76435E-05-2.71493E-05-3.40826E-05 2.94386E-18 1.14961E-18
 -1       600 1.14980E-04-3.09672E-05-3.60111E-05-6.23482E-06 1.07606E-18 2.19601E-18
 -1       601 1.04533E-04-2.45043E-05-3.43617E-05-1.19390E-05 1.71060E-19-3.21385E-18
 -1       602 1.47789E-04-6.20962E-05-3.68013E-05 3.27802E-06-8.69440E-19 1.41150E-18
 -1       603 9.52367E-05-2.85724E-05-2.85704E-05-3.02762E-09 1.69141E-18-2.35288E-19
 -1       604 9.52365E-05-2.85722E-05-2.85704E-05 3.03720E-09 3.63560E-18 1.23110E-18
 -1       605 4.38516E-05-1.60420E-05-1.13466E-05 2.20367E-05-2.08690E-18 2.44327E-18
 -1       606 1.21709E-04-5.88688E-05-2.67621E-05 2.54568E-05 7.53065E-20-3.60496E-18
 -1       607 1.56786E-04-5.98130E-05-4.19633E-05 1.40585E-05-2.30777E-19 1.17409E-18
 -1       608 9.08317E-05-4.01100E-05-2.14143E-05-2.91153E-05-6.64921E-20-2.59549E-18
 -1       609 5.97346E-05-1.15014E-05-2.03892E-05 3.57036E-05 4.21402E-18-1.81882E-18
 -1       610 8.75792E-05-2.66752E-05-2.59600E-05 2.97116E-05 3.55236E-18-7.11514E-19
 -1       611 3.60618E-05 4.34597E-06-1.69384E-05 8.60093E-07 2.85880E-18-3.21751E-18
 -1       612 6.08432E-05-1.18638E-05-2.05932E-05-1.73546E-05 1.45474E-18-2.53906E-18
 -1       613 1.01101E-04-3.72098E-05-2.71650E-05-2.01995E-05 9.07913E-21-7.72243E-19
 -1       614 9.52371E-05-2.85731E-05-2.85703E-05 4.16230E-09 4.06466E-18 4.67537E-18
 -1       615 7.75503E-05-3.56097E-05-1.75767E-05-4.15803E-05 2.28286E-18 2.74780E-18
 -1       616 1.18845E-04-8.35288E-06-4.78442E-05-7.63811E-06-3.18032E-18-2.19499E-18
 -1       617 8.03284E-05-3.45834E-05-1.93088E-05 3.35659E-05-1.39067E-18-1.83875E-18
 -1       618 1.03691E-04-2.73863E-05-3.27071E-05-1.20409E-05-7.96273E-19-1.80472E-18
 -1       619 1.01274E-04-2.48912E-05-3.27306E-05-9.19804E-06-8.33679E-19-1.86097E-18
 -1       620 9.91398E-05-2.26747E-05-3.27681E-05-4.66530E-06-6.49424E-19-1.61718E-18
 -1       621 9.83274E-05-2.22415E-05-3.26080E-05 8.50823E-07-9.19595E-19-2.07404E-18
 -1       622 9.92187E-05-2.41687E-05-3.21647E-05 5.74214E-06-1.10480E-18-2.12334E-18
 -1       623 1.01119E-04-2.76056E-05-3.15058E-05 8.58180E-06-5.18710E-19-2.08445E-18
 -1       624 1.02914E-04-3.10909E-05-3.07813E-05 8.97306E-06 8.96844E-20-1.61160E-18
 -1       625 1.03797E-04-3.34811E-05-3.01352E-05 7.50747E-06 8.13551E-20-1.29568E-18
 -1       626 1.03600E-04-3.44255E-05-2.96470E-05 5.16398E-06 1.98292E-20-1.46991E-18
 -1       627 1.02610E-04-3.41867E-05-2.93258E-05 2.76435E-06 4.10977E-19-1.50980E-18
 -1       628 1.01243E-04-3.32547E-05-2.91394E-05 7.74875E-07 9.72325E-19-1.54369E-18
 -1       629 9.98400E-05-3.20758E-05-2.90429E-05-6.45902E-07 3.44570E-19-1.56302E-18
 -1       630 9.86004E-05-3.09449E-05-2.89960E-05-1.52357E-06-6.52170E-20-1.01158E-18
 -1       631 9.76039E-05-3.00088E-05-2.89698E-05-1.96338E-06-8.27016E-19-6.16624E-19
 -1       632 9.68535E-05-2.93101E-05-2.89474E-05-2.08782E-06 2.99195E-19-1.85133E-19
 -1       633 9.63151E-05-2.88327E-05-2.89211E-05-2.00673E-06 4.28603E-19-2.62722E-19
 -1       634 9.59429E-05-2.85352E-05-2.88889E-05-1.80695E-06-4.55198E-19 1.22957E-19
 -1       635 9.56928E-05-2.83710E-05-2.88521E-05-1.55148E-06-4.93541E-20-6.73347E-19
 -1       636 9.55287E-05-2.82981E-05-2.88130E-05-1.28275E-06 1.22734E-18-1.18743E-18
 -1       637 9.54227E-05-2.82831E-05-2.87740E-05-1.02702E-06 1.17313E-18-1.92380E-18
 -1       638 9.53551E-05-2.83014E-05-2.87372E-05-7.98702E-07 1.21639E-18-1.48301E-18
 -1       639 9.53123E-05-2.83363E-05-2.87039E-05-6.04054E-07 2.94995E-19-9.47730E-19
 -1       640 9.52851E-05-2.83770E-05-2.86748E-05-4.44046E-07 8.82234E-19-7.63082E-19
 -1       641 9.52679E-05-2.84171E-05-2.86503E-05-3.16518E-07-8.21103E-20 1.66947E-19
 -1       642 9.52568E-05-2.84531E-05-2.86301E-05-2.17672E-07 1.40176E-21-2.35290E-20
 -1       643 9.52497E-05-2.84837E-05-2.86140E-05-1.43077E-07-9.68534E-19 5.48808E-19
 -1       644 9.52449E-05-2.85085E-05-2.86013E-05-8.82892E-08-9.17350E-19 9.65714E-19
 -1       645 9.52418E-05-2.85279E-05-2.85916E-05-4.92139E-08-7.74895E-19 9.21787E-19
 -1       646 9.52397E-05-2.85426E-05-2.85844E-05-2.22747E-08 3.46375E-19 3.12062E-18
 -1       647 9.52383E-05-2.85535E-05-2.85792E-05-4.47296E-09-3.69162E-19 2.24432E-18
 -1       648 9.52373E-05-2.85612E-05-2.85755E-05 6.62573E-09 1.27525E-19 1.26518E-18
 -1       649 9.52368E-05-2.85665E-05-2.85730E-05 1.29442E-08-5.14889E-19 3.31188E-19
 -1       650 9.52364E-05-2.85700E-05-2.85713E-05 1.59632E-08 5.22612E-19-1.56827E-19
 -1       651 9.52363E-05-2.85722E-05-2.85703E-05 1.67958E-08 1.08892E-18-6.09565E-19
 -1       652 9.52362E-05-2.85735E-05-2.85698E-05 1.62575E-08 2.68282E-19-3.23467E-19
 -1       653 9.52362E-05-2.85740E-05-2.85695E-05 1.49294E-08 6.09688E-19 1.24466E-18
 -1       654 9.52363E-05-2.85742E-05-2.85695E-05 1.32116E-08 6.46003E-19-7.64150E-19
 -1       655 9.52364E-05-2.85741E-05-2.85696E-05 1.13677E-08 9.88358E-20-8.06589E-19
 -1       656 9.52365E-05-2.85739E-05-2.85697E-05 9.55897E-09 3.64128E-19 1.27346E-18
 -1       657 9.52367E-05-2.85736E-05-2.85699E-05 7.87256E-09-4.46887E-19 2.37604E-18
 -1       658 9.52368E-05-2.85734E-05-2.85700E-05 6.35579E-09 4.82572E-19 4.11921E-18
 -1       659 9.52370E-05-2.85732E-05-2.85702E-05 5.19446E-09 2.60000E-19 4.21257E-18
 -1       660 1.28333E-04-2.17205E-05-4.60930E-05-1.38465E-05-2.73158E-18-1.39813E-19
 -1       661 1.10203E-04-4.78380E-05-2.65541E-05 2.64873E-05-6.58912E-19-2.79252E-18
 -1       662 9.16354E-05-2.32902E-05-2.92840E-05 1.68451E-05-2.04962E-18-1.50721E-18
 -1       663 9.26846E-05-2.32448E-05-2.97567E-05 1.34193E-05-1.04316E-18-8.81568E-19
 -1       664 9.38079E-05-2.40662E-05-2.98854E-05 1.05589E-05-5.46440E-19-7.13288E-19
 -1       665 9.46635E-05-2.50666E-05-2.98234E-05 8.20115E-06 2.18722E-19 3.23574E-19
 -1       666 9.52084E-05-2.59653E-05-2.96724E-05 6.29363E-06-1.37053E-19 3.97102E-20
 -1       667 9.55032E-05-2.66808E-05-2.94928E-05 4.77857E-06 5.56858E-19-5.64436E-19
 -1       668 9.56268E-05-2.72165E-05-2.93169E-05 3.59245E-06 8.11908E-20-4.80891E-19
 -1       669 9.56471E-05-2.76212E-05-2.91527E-05 2.63801E-06 4.93543E-19-6.64036E-19
 -1       670 9.56117E-05-2.78933E-05-2.90213E-05 1.94761E-06 4.27887E-19-3.90082E-20
 -1       671 9.55527E-05-2.80860E-05-2.89136E-05 1.42313E-06-4.77682E-19 6.03144E-19
 -1       672 9.54885E-05-2.82226E-05-2.88278E-05 1.02783E-06 1.43672E-19 1.11157E-19
 -1       673 9.54285E-05-2.83200E-05-2.87605E-05 7.31965E-07 5.10413E-19 4.01364E-19
 -1       674 9.53770E-05-2.83899E-05-2.87085E-05 5.12239E-07 1.53685E-18 2.27536E-18
 -1       675 9.53353E-05-2.84406E-05-2.86690E-05 3.50543E-07-4.16427E-19 2.26623E-18
 -1       676 9.53029E-05-2.84775E-05-2.86393E-05 2.32866E-07-2.86808E-19 2.14355E-18
 -1       677 9.52786E-05-2.85045E-05-2.86174E-05 1.48387E-07 1.71126E-18 2.65606E-18
 -1       678 9.52611E-05-2.85244E-05-2.86014E-05 8.87705E-08 9.01530E-19 2.02066E-18
 -1       679 9.52489E-05-2.85390E-05-2.85899E-05 4.76086E-08 9.79453E-20 7.41644E-19
 -1       680 9.52407E-05-2.85496E-05-2.85819E-05 1.99935E-08-8.38863E-19 9.44429E-19
 -1       681 9.52356E-05-2.85572E-05-2.85764E-05 2.18451E-09-4.74573E-19 1.22011E-18
 -1       682 9.52326E-05-2.85627E-05-2.85728E-05-8.65091E-09-1.40961E-19 1.66245E-18
 -1       683 9.52311E-05-2.85666E-05-2.85705E-05-1.48213E-08 8.64896E-19 1.51927E-18
 -1       684 9.52307E-05-2.85691E-05-2.85692E-05-1.73676E-08 1.46279E-18 2.22546E-18
 -1       685 9.52308E-05-2.85708E-05-2.85686E-05-1.78256E-08 1.25111E-18 3.04023E-18
 -1       686 9.52313E-05-2.85718E-05-2.85684E-05-1.70021E-08 1.19413E-18 4.21788E-18
 -1       687 9.52321E-05-2.85724E-05-2.85684E-05-1.54617E-08 3.76210E-19 2.05653E-18
 -1       688 9.52328E-05-2.85727E-05-2.85687E-05-1.35893E-08-1.39703E-18 1.08665E-18
 -1       689 9.52336E-05-2.85727E-05-2.85689E-05-1.16343E-08-2.30196E-18 2.53211E-19
 -1       690 9.52343E-05-2.85727E-05-2.85693E-05-9.74793E-09-2.63773E-18 4.98107E-19
 -1       691 9.52350E-05-2.85726E-05-2.85696E-05-8.00949E-09-2.52682E-18-2.21008E-19
 -1       692 9.52356E-05-2.85726E-05-2.85699E-05-6.44693E-09-1.26366E-18 1.12350E-18
 -1       693 9.52361E-05-2.85725E-05-2.85701E-05-5.05566E-09 1.59635E-18 4.69909E-19
 -1       694 9.52364E-05-2.85724E-05-2.85703E-05-4.00661E-09 8.54473E-19-3.58570E-19
 -1       695 9.52410E-05-2.85769E-05-2.85703E-05-7.66042E-10 2.32153E-18-1.43901E-20
 -1       696 1.25084E-04-4.67476E-05-3.36069E-05 1.35019E-05 1.02161E-18 1.05700E-18
 -1       697 9.52399E-05-2.85759E-05-2.85703E-05-3.44240E-09 3.73756E-18-5.06697E-19
 -1       698 9.52410E-05-2.85769E-05-2.85703E-05 8.01439E-10 1.82161E-19-1.42182E-18
 -1       699 9.52406E-05-2.85766E-05-2.85703E-05-2.23994E-09 3.25908E-18-1.17964E-18
 -1       700 1.04980E-04-2.69255E-05-3.34575E-05-1.42407E-05-6.84027E-19-2.69863E-18
 -1       701 9.52406E-05-2.85766E-05-2.85703E-05 2.24807E-09 1.05360E-18-3.59023E-18
 -1       702 9.52399E-05-2.85759E-05-2.85703E-05 3.44780E-09 1.78874E-18-1.33056E-18
 -1       703 9.52389E-05-2.85749E-05-2.85703E-05 4.23756E-09 2.39558E-18 2.05912E-18
 -1       704 1.38240E-04-4.49752E-05-4.02819E-05 3.14029E-06 6.99279E-19-2.63372E-18
 -1       705 3.33391E-05 1.81707E-07-1.38845E-05 2.80087E-05 3.79395E-18-3.17812E-18
 -1       706 1.33628E-04-2.36766E-05-4.75925E-05 1.03715E-05-1.01697E-18-2.00935E-18
 -1       707 3.48528E-05-8.40200E-06-1.07301E-05-7.70343E-06-7.46097E-19 3.78957E-18
 -1       708 9.16890E-05-2.56172E-05-2.82808E-05 2.09470E-05-1.89985E-18-1.25560E-18
 -1       709 9.52468E-05-3.25075E-05-2.67572E-05 2.50773E-05-9.99830E-19-1.90409E-18
 -1       710 4.50899E-05-1.63611E-05-1.17947E-05-2.96051E-05 6.63121E-19 3.38305E-18
 -1       711 1.31966E-04-5.70267E-05-3.21662E-05-1.48399E-05 2.75824E-18-1.11139E-18
 -1       712 1.04981E-04-2.81285E-05-3.29294E-05-1.34056E-05-7.79981E-19-2.10770E-18
 -1       713 3.75053E-05 3.63495E-06-1.72225E-05 2.27958E-05 3.90792E-18-2.90045E-18
 -1       714 1.33327E-04-4.01167E-05-4.01992E-05-4.36780E-06-9.94079E-19 1.17870E-18
 -1       715 1.11186E-04-3.17324E-05-3.40692E-05-6.62119E-06 9.04000E-19-1.68899E-18
 -1       716 1.24114E-04-9.66911E-06-4.95369E-05 6.74644E-06-2.19953E-18-2.53091E-18
 -1       717 5.05695E-05-1.13147E-05-1.62114E-05-1.91901E-05 1.34286E-18-3.35711E-18
 -1       718 1.06722E-04-5.16634E-05-2.34410E-05-3.67251E-05 2.96541E-18 9.08906E-19
 -1       719 1.00822E-04-3.88749E-05-2.63594E-05 3.31370E-05 2.83820E-18 1.25854E-19
 -1       720 1.24954E-04-5.54163E-05-2.95767E-05-1.66823E-05-7.89594E-19-1.99953E-19
 -1       721 1.08808E-04-2.90255E-05-3.42012E-05-1.15921E-05 1.43140E-19-2.33877E-18
 -1       722 1.04347E-04-3.36404E-05-3.03061E-05 1.54940E-05 2.41711E-18-6.37033E-19
 -1       723 1.13289E-04-8.72995E-06-4.51271E-05 3.64617E-07-2.68104E-18-2.89517E-18
 -1       724 6.60716E-05-2.29593E-05-1.80580E-05 2.78271E-05-1.90034E-18 9.79911E-20
 -1       725 1.11120E-04-3.43007E-05-3.29483E-05 2.21879E-06 1.52172E-18-9.85835E-19
 -1       726 4.42409E-05-9.58586E-06-1.43411E-05 9.93469E-06-1.58451E-18 2.89444E-18
 -1       727 9.52389E-05-2.85749E-05-2.85703E-05-4.22359E-09 1.90709E-18 1.04662E-18
 -1       728 9.52377E-05-2.85737E-05-2.85703E-05-4.47324E-09 1.10518E-18-3.26754E-18
 -1       729 6.88781E-05-2.27898E-05-1.94959E-05 4.19926E-05 3.73933E-18-1.24667E-18
 -1       730 2.88001E-05 4.83046E-06-1.38238E-05 1.22214E-05 3.30496E-18-3.48305E-18
 -1       731 1.03674E-04-2.17762E-05-3.51094E-05-9.05687E-06-8.36498E-19-1.90520E-18
 -1       732 1.01680E-04-1.92941E-05-3.53109E-05-2.81587E-06-1.23952E-18-2.14836E-18
 -1       733 1.01985E-04-2.05739E-05-3.49009E-05 4.00618E-06-1.24392E-18-2.65601E-18
 -1       734 1.04304E-04-2.52518E-05-3.38919E-05 8.66101E-06-6.61970E-19-2.35405E-18
 -1       735 1.06872E-04-3.08755E-05-3.25785E-05 9.86546E-06 8.39268E-20-1.95464E-18
 -1       736 1.08099E-04-3.50730E-05-3.12976E-05 8.18264E-06 3.74379E-19-1.72856E-18
 -1       737 1.07564E-04-3.69228E-05-3.02742E-05 5.18305E-06 3.97905E-19-9.89065E-19
 -1       738 1.05761E-04-3.67659E-05-2.95701E-05 2.18835E-06 2.87874E-19-1.09474E-19
 -1       739 1.03419E-04-3.54179E-05-2.91442E-05-1.41675E-07 3.71880E-19-6.46363E-19
 -1       740 1.01122E-04-3.36415E-05-2.89207E-05-1.65995E-06 2.78905E-19-1.30576E-18
 -1       741 9.91812E-05-3.19269E-05-2.88236E-05-2.47981E-06 1.47818E-19-1.41118E-18
 -1       742 9.76976E-05-3.05121E-05-2.87939E-05-2.78982E-06-9.03787E-20-1.32935E-18
 -1       743 9.66476E-05-2.94641E-05-2.87930E-05-2.76738E-06 9.08952E-20-2.72676E-19
 -1       744 9.59532E-05-2.87569E-05-2.87984E-05-2.55036E-06 2.79506E-19-1.95085E-19
 -1       745 9.55249E-05-2.83260E-05-2.87995E-05-2.23597E-06 4.16510E-19-4.01547E-19
 -1       746 9.52821E-05-2.80991E-05-2.87927E-05-1.88828E-06-5.39071E-19 2.75935E-19
 -1       747 9.51606E-05-2.80113E-05-2.87782E-05-1.54692E-06 3.68192E-19 6.27151E-19
 -1       748 9.51133E-05-2.80109E-05-2.87581E-05-1.23432E-06 9.81439E-19-6.40701E-19
 -1       749 9.51079E-05-2.80600E-05-2.87348E-05-9.61352E-07 1.01717E-18-6.79779E-19
 -1       750 9.51234E-05-2.81324E-05-2.87104E-05-7.31414E-07 4.75601E-19-1.51545E-18
 -1       751 9.51469E-05-2.82113E-05-2.86867E-05-5.43337E-07 3.48946E-19-1.65055E-18
 -1       752 9.51714E-05-2.82868E-05-2.86648E-05-3.93392E-07 8.20554E-19-7.96515E-19
 -1       753 9.51931E-05-2.83539E-05-2.86454E-05-2.76630E-07 6.72440E-19-1.14343E-18
 -1       754 9.52107E-05-2.84103E-05-2.86287E-05-1.87757E-07-6.26002E-19-1.25530E-18
 -1       755 9.52240E-05-2.84560E-05-2.86149E-05-1.21664E-07-1.03606E-18-5.54322E-19
 -1       756 9.52333E-05-2.84917E-05-2.86036E-05-7.37151E-08-8.97630E-19 1.23072E-19
 -1       757 9.52395E-05-2.85187E-05-2.85946E-05-3.98921E-08 6.10753E-19-3.96788E-19
 -1       758 9.52432E-05-2.85387E-05-2.85877E-05-1.68231E-08-1.05703E-19 7.82356E-19
 -1       759 9.52451E-05-2.85529E-05-2.85824E-05-1.75793E-09-5.93204E-19 2.15355E-18
 -1       760 9.52457E-05-2.85627E-05-2.85784E-05 7.49278E-09-1.49029E-18 5.64939E-19
 -1       761 9.52456E-05-2.85692E-05-2.85756E-05 1.26333E-08-1.12768E-18 1.02621E-18
 -1       762 9.52449E-05-2.85732E-05-2.85736E-05 1.49617E-08-2.60520E-19 7.17124E-19
 -1       763 9.52440E-05-2.85755E-05-2.85722E-05 1.54448E-08 1.01321E-18-6.08885E-19
 -1       764 9.52429E-05-2.85766E-05-2.85713E-05 1.47856E-08 1.07472E-18-3.67365E-19
 -1       765 9.52419E-05-2.85769E-05-2.85708E-05 1.34815E-08 7.48009E-19-1.72340E-19
 -1       766 9.52410E-05-2.85767E-05-2.85704E-05 1.18722E-08 5.09565E-19 1.01679E-18
 -1       767 9.52402E-05-2.85762E-05-2.85703E-05 1.01802E-08 9.44461E-19 3.16318E-19
 -1       768 9.52395E-05-2.85756E-05-2.85702E-05 8.53984E-09 1.45202E-18-2.22290E-19
 -1       769 9.52389E-05-2.85751E-05-2.85702E-05 7.00197E-09 1.24697E-18 1.97907E-18
 -1       770 8.66163E-05-2.00682E-05-2.85207E-05 9.66880E-06-1.28537E-18-1.12736E-18
 -1       771 8.29451E-05-1.84091E-05-2.76568E-05 1.20540E-05-1.72994E-18-1.47880E-18
 -1       772 9.14203E-05-2.34457E-05-2.91312E-05 6.23636E-06 1.55041E-19 9.71219E-19
 -1       773 9.28026E-05-2.47429E-05-2.91678E-05 4.94009E-06 3.87623E-19 1.02830E-18
 -1       774 9.37242E-05-2.57491E-05-2.91317E-05 3.86459E-06 8.09067E-19 8.94358E-19
 -1       775 9.43445E-05-2.65381E-05-2.90595E-05 2.94707E-06 5.40001E-19-4.23035E-19
 -1       776 9.47136E-05-2.70895E-05-2.89815E-05 2.24821E-06-1.18524E-19-2.44753E-19
 -1       777 9.49416E-05-2.74939E-05-2.89060E-05 1.69294E-06 3.07433E-19 2.78022E-19
 -1       778 9.50790E-05-2.77894E-05-2.88383E-05 1.25787E-06 5.09471E-19 3.55150E-21
 -1       779 9.51597E-05-2.80052E-05-2.87804E-05 9.20973E-07-5.04188E-19-1.87720E-19
 -1       780 9.52055E-05-2.81632E-05-2.87323E-05 6.63117E-07 7.81780E-19 5.48738E-19
 -1       781 9.52303E-05-2.82789E-05-2.86934E-05 4.68096E-07 5.26053E-19 1.01118E-18
 -1       782 9.52428E-05-2.83638E-05-2.86624E-05 3.22471E-07 1.03507E-19-7.10423E-20
 -1       783 9.52483E-05-2.84260E-05-2.86381E-05 2.15267E-07-1.16354E-19 1.36779E-18
 -1       784 9.52500E-05-2.84713E-05-2.86194E-05 1.37622E-07 1.21285E-18 1.69186E-18
 -1       785 9.52496E-05-2.85042E-05-2.86052E-05 8.24635E-08 5.24277E-19 1.37975E-18
 -1       786 9.52484E-05-2.85279E-05-2.85945E-05 4.41951E-08-1.51339E-18 2.21872E-18
 -1       787 9.52468E-05-2.85446E-05-2.85866E-05 1.84353E-08-3.06752E-19 2.17443E-18
 -1       788 9.52452E-05-2.85563E-05-2.85809E-05 1.77882E-09 1.06772E-18 2.15774E-18
 -1       789 9.52436E-05-2.85645E-05-2.85768E-05-8.71834E-09 3.99939E-19 1.09273E-18
 -1       790 9.52423E-05-2.85696E-05-2.85740E-05-1.41004E-08 9.46771E-19 1.81153E-18
 -1       791 9.52412E-05-2.85727E-05-2.85722E-05-1.64713E-08 4.92690E-19 1.42976E-18
 -1       792 9.52403E-05-2.85745E-05-2.85711E-05-1.68806E-08 1.13042E-18 7.81763E-19
 -1       793 9.52395E-05-2.85753E-05-2.85704E-05-1.60866E-08 2.26970E-18 6.45697E-19
 -1       794 9.52389E-05-2.85756E-05-2.85700E-05-1.46217E-08-4.87927E-19 2.19297E-18
 -1       795 9.52385E-05-2.85755E-05-2.85699E-05-1.28469E-08-7.68254E-20 1.24344E-18
 -1       796 9.52381E-05-2.85751E-05-2.85699E-05-1.09956E-08-1.57363E-18 4.28792E-19
 -1       797 9.52378E-05-2.85747E-05-2.85699E-05-9.20951E-09-1.62891E-18-9.40087E-19
 -1       798 9.52376E-05-2.85743E-05-2.85700E-05-7.56752E-09-3.08092E-18-1.69081E-18
 -1       799 9.52375E-05-2.85739E-05-2.85701E-05-6.08955E-09 2.46931E-18-3.86434E-18
 -1       800 9.52424E-05-2.85777E-05-2.85705E-05 2.24374E-11 5.05238E-19-1.49785E-18
 -1       801 9.52401E-05-2.85759E-05-2.85704E-05 4.76922E-09 2.26884E-18 1.11643E-18
 -1       802 9.52421E-05-2.85775E-05-2.85705E-05 1.85851E-09 1.09243E-18-1.37302E-18
 -1       803 1.30028E-04-4.86892E-05-3.49828E-05 3.35444E-07 1.31308E-18-1.70227E-18
 -1       804 7.34738E-05-1.88506E-05-2.32854E-05 2.08656E-05-1.59077E-18 4.09223E-19
 -1       805 1.24926E-04-3.08457E-05-4.04705E-05-1.30189E-05-1.33369E-18-1.76355E-20
 -1       806 7.84611E-05-1.75758E-05-2.60733E-05 1.53461E-05-1.75787E-18-6.38384E-19
 -1       807 9.55805E-05-4.21803E-05-2.27224E-05-3.41136E-05 2.10946E-18 8.83237E-19
 -1       808 9.52413E-05-2.85769E-05-2.85705E-05 3.52700E-09 1.79086E-18-1.78814E-18
 -1       809 1.19433E-04-2.00858E-05-4.28972E-05 1.13486E-05-1.00769E-18-2.61131E-18
 -1       810 8.94136E-05-2.18549E-05-2.89532E-05 7.78807E-06-7.92624E-19 2.03874E-19
 -1       811 1.06559E-04-2.58124E-05-3.46125E-05-1.30129E-05-7.57202E-19-1.66057E-18
 -1       812 4.96687E-05-1.12419E-05-1.61163E-05-1.66366E-05-2.47069E-19 2.67149E-18
 -1       813 1.25099E-04-4.14206E-05-3.59435E-05-1.76224E-06 3.69027E-19 4.81499E-19
 -1       814 1.11638E-04-4.01529E-05-3.06007E-05 1.73658E-05 2.17899E-18 1.51109E-20
 -1       815 1.18557E-04-5.30663E-05-2.79966E-05-2.19400E-05 2.54938E-18-5.35489E-19
 -1       816 6.58839E-05-2.31548E-05-1.80582E-05-3.15588E-05 7.37190E-19 1.86076E-18
 -1       817 9.52385E-05-2.85746E-05-2.85703E-05 5.32693E-09 9.44799E-19 3.05545E-18
 -1       818 1.15416E-04-1.68823E-05-4.24480E-05-1.30321E-05-1.88152E-18-1.24640E-18
 -1       819 1.27823E-04-3.55614E-05-3.97806E-05 1.02748E-05 4.35216E-19-1.96097E-18
 -1       820 1.12964E-04-3.13992E-05-3.49777E-05-1.22249E-05 4.00479E-20-1.49379E-18
 -1       821 1.08716E-04-2.90812E-05-3.41174E-05-1.36655E-05-3.50309E-19-2.12198E-18
 -1       822 1.09877E-04-1.32141E-05-4.16100E-05-7.42498E-06-1.87488E-18-1.75915E-18
 -1       823 9.52413E-05-2.85769E-05-2.85705E-05-3.50796E-09 1.58245E-18-9.00141E-19
 -1       824 9.52394E-05-2.85754E-05-2.85703E-05-5.74416E-09 1.02883E-18-3.83185E-19
 -1       825 9.52405E-05-2.85763E-05-2.85704E-05-4.76043E-09 1.78184E-19 1.82881E-18
 -1       826 9.52421E-05-2.85775E-05-2.85705E-05-1.84740E-09 8.84162E-19-1.71212E-18
 -1       827 1.23574E-04-5.11109E-05-3.10856E-05-7.92748E-06 2.17778E-18-1.17490E-18
 -1       828 5.06417E-05-8.72284E-06-1.76869E-05-1.68815E-06-1.09317E-18 2.92626E-18
 -1       829 1.17822E-04-3.59275E-05-3.51265E-05-6.93514E-06 4.62930E-19-7.99295E-19
 -1       830 1.17869E-04-3.93629E-05-3.36636E-05 2.94647E-06 1.13256E-18-2.11073E-19
 -1       831 1.05322E-04-1.60517E-05-3.83412E-05 6.55036E-07-1.73851E-18-2.51560E-18
 -1       832 1.07178E-04-2.06559E-05-3.71263E-05 8.36012E-06-1.17073E-18-2.84754E-18
 -1       833 1.11275E-04-2.94104E-05-3.51034E-05 1.08019E-05 9.01627E-22-2.75633E-18
 -1       834 1.13188E-04-3.65396E-05-3.28563E-05 8.70672E-06 5.96702E-19-2.67120E-18
 -1       835 1.12462E-04-3.98595E-05-3.11135E-05 4.59179E-06 9.72585E-19-2.16117E-18
 -1       836 1.09590E-04-3.98664E-05-2.98832E-05 6.58273E-07 8.24790E-19-1.73906E-18
 -1       837 1.05948E-04-3.79465E-05-2.91445E-05-2.08832E-06 3.30300E-19-1.50031E-18
 -1       838 1.02513E-04-3.53947E-05-2.87646E-05-3.57722E-06 3.35502E-20-9.53867E-19
 -1       839 9.97207E-05-3.29625E-05-2.86103E-05-4.12687E-06 1.72699E-19-1.26021E-18
 -1       840 9.76751E-05-3.09904E-05-2.85788E-05-4.08810E-06 4.78989E-20-1.29499E-18
 -1       841 9.62967E-05-2.95543E-05-2.86035E-05-3.73408E-06 4.52706E-19-1.17869E-18
 -1       842 9.54422E-05-2.86021E-05-2.86454E-05-3.24296E-06 2.47970E-19 1.03054E-19
 -1       843 9.49655E-05-2.80348E-05-2.86844E-05-2.71998E-06 4.35082E-19 3.61881E-19
 -1       844 9.47426E-05-2.77482E-05-2.87117E-05-2.22205E-06 3.24232E-19 5.54700E-20
 -1       845 9.46783E-05-2.76514E-05-2.87257E-05-1.77654E-06 4.46903E-19 1.69304E-19
 -1       846 9.47046E-05-2.76729E-05-2.87278E-05-1.39360E-06 2.56338E-19 1.42123E-19
 -1       847 9.47759E-05-2.77603E-05-2.87209E-05-1.07380E-06 6.81770E-19-4.76348E-19
 -1       848 9.48633E-05-2.78778E-05-2.87080E-05-8.12760E-07-1.04559E-19-1.37687E-18
 -1       849 9.49500E-05-2.80024E-05-2.86918E-05-6.03797E-07 3.33031E-19-1.20847E-18
 -1       850 9.50272E-05-2.81204E-05-2.86743E-05-4.39477E-07 9.17944E-19-1.47360E-18
 -1       851 9.50914E-05-2.82248E-05-2.86571E-05-3.12465E-07 1.51775E-19-2.72788E-18
 -1       852 9.51421E-05-2.83128E-05-2.86411E-05-2.15983E-07-5.35227E-19-3.08278E-18
 -1       853 9.51803E-05-2.83843E-05-2.86269E-05-1.44023E-07 1.87690E-19-2.67674E-18
 -1       854 9.52079E-05-2.84404E-05-2.86146E-05-9.14172E-08-7.16867E-19-2.03248E-18
 -1       855 9.52269E-05-2.84833E-05-2.86044E-05-5.38292E-08-5.49622E-19-1.29916E-18
 -1       856 9.52393E-05-2.85152E-05-2.85960E-05-2.76929E-08-7.91937E-21-2.58002E-18
 -1       857 9.52467E-05-2.85382E-05-2.85893E-05-1.01307E-08 1.02703E-18-1.38979E-18
 -1       858 9.52506E-05-2.85543E-05-2.85841E-05 1.13875E-09-1.16185E-18-4.90637E-19
 -1       859 9.52521E-05-2.85651E-05-2.85801E-05 7.89324E-09 5.36407E-19 1.10921E-18
 -1       860 9.52520E-05-2.85720E-05-2.85771E-05 1.14939E-08-1.21583E-18 1.17142E-18
 -1       861 9.52510E-05-2.85761E-05-2.85749E-05 1.29636E-08-6.24249E-19-2.68239E-19
 -1       862 9.52494E-05-2.85783E-05-2.85734E-05 1.30561E-08 1.89897E-18 1.73151E-19
 -1       863 9.52477E-05-2.85791E-05-2.85723E-05 1.23137E-08 1.38166E-18 1.81853E-18
 -1       864 9.52459E-05-2.85790E-05-2.85715E-05 1.11161E-08 1.72281E-18 1.94835E-18
 -1       865 9.52442E-05-2.85785E-05-2.85710E-05 9.71872E-09 1.12580E-18 2.67026E-18
 -1       866 9.52427E-05-2.85777E-05-2.85707E-05 8.29556E-09 6.48220E-19 1.14319E-18
 -1       867 9.52414E-05-2.85769E-05-2.85705E-05 6.94593E-09 2.43361E-18-6.81223E-19
 -1       868 1.09675E-04-2.31309E-05-3.71725E-05-1.30547E-05-7.95463E-19-1.40862E-18
 -1       869 9.15544E-05-2.42326E-05-2.88522E-05 3.33096E-06 1.21685E-18-5.19077E-19
 -1       870 8.98631E-05-2.28422E-05-2.87234E-05 3.96439E-06 2.01245E-19-4.77449E-19
 -1       871 9.35840E-05-2.61771E-05-2.88887E-05 2.16836E-06 1.56900E-19-3.48580E-19
 -1       872 9.41325E-05-2.67940E-05-2.88594E-05 1.70373E-06-3.44691E-19-6.56963E-19
 -1       873 9.45067E-05-2.72581E-05-2.88208E-05 1.31377E-06-1.75346E-19-4.09474E-21
 -1       874 9.47603E-05-2.76058E-05-2.87805E-05 9.94496E-07-1.20337E-19 7.44996E-19
 -1       875 9.49315E-05-2.78658E-05-2.87424E-05 7.38696E-07-4.82224E-19 8.10695E-19
 -1       876 9.50464E-05-2.80599E-05-2.87085E-05 5.37658E-07 8.85639E-20 1.43468E-18
 -1       877 9.51229E-05-2.82044E-05-2.86794E-05 3.82480E-07 8.62282E-19 2.12309E-18
 -1       878 9.51734E-05-2.83117E-05-2.86550E-05 2.64803E-07-1.16700E-18 2.23090E-18
 -1       879 9.52062E-05-2.83909E-05-2.86351E-05 1.77174E-07 3.88970E-19 1.01253E-18
 -1       880 9.52269E-05-2.84488E-05-2.86192E-05 1.13188E-07 1.74741E-18 9.92167E-19
 -1       881 9.52395E-05-2.84909E-05-2.86066E-05 6.74856E-08-4.78680E-19 6.51815E-19
 -1       882 9.52466E-05-2.85209E-05-2.85968E-05 3.56835E-08-1.79952E-18 1.07980E-18
 -1       883 9.52502E-05-2.85420E-05-2.85892E-05 1.42430E-08 4.51748E-19 7.25886E-19
 -1       884 9.52515E-05-2.85570E-05-2.85834E-05-9.64765E-11 1.70419E-18 1.32697E-18
 -1       885 9.52512E-05-2.85663E-05-2.85792E-05-8.21372E-09 2.35704E-20 1.12940E-18
 -1       886 9.52502E-05-2.85722E-05-2.85763E-05-1.26068E-08 1.86585E-18 1.06648E-18
 -1       887 9.52487E-05-2.85757E-05-2.85741E-05-1.44734E-08 9.48796E-19 6.57843E-19
 -1       888 9.52471E-05-2.85775E-05-2.85727E-05-1.47033E-08 6.13780E-19 1.07214E-18
 -1       889 9.52454E-05-2.85782E-05-2.85717E-05-1.39367E-08-3.51983E-19 2.40267E-18
 -1       890 9.52439E-05-2.85781E-05-2.85711E-05-1.26214E-08-6.20706E-19 1.53044E-18
 -1       891 9.52425E-05-2.85776E-05-2.85707E-05-1.10599E-08-7.08361E-19 3.21205E-18
 -1       892 9.52414E-05-2.85770E-05-2.85705E-05-9.44534E-09-7.98175E-19 1.85902E-18
 -1       893 9.52403E-05-2.85762E-05-2.85703E-05-7.90504E-09-1.09531E-18 7.96876E-19
 -1       894 9.52398E-05-2.85758E-05-2.85703E-05-6.77741E-09-9.03765E-20-1.31186E-18
 -1       895 1.15333E-04-2.48779E-05-3.88484E-05-1.46654E-05-1.15821E-18-1.27606E-18
 -1       896 9.52438E-05-2.85786E-05-2.85708E-05 1.14039E-09-4.11059E-20-1.44231E-18
 -1       897 8.41247E-05-1.90032E-05-2.79101E-05 5.20879E-06-1.40972E-18-6.07218E-19
 -1       898 1.15798E-04-2.98810E-05-3.68797E-05-1.40803E-05-4.61851E-19-1.20578E-18
 -1       899 1.06263E-04-1.70265E-05-3.82709E-05-7.89257E-06-1.34875E-18-1.94615E-18
 -1       900 8.74694E-05-2.11013E-05-2.84439E-05 4.59837E-06-8.42138E-19-9.77599E-19
 -1       901 8.37212E-05-3.07194E-05-2.26148E-05-2.83231E-05 1.31006E-18 8.81093E-19
 -1       902 1.06782E-04-4.50521E-05-2.63906E-05-2.28033E-05 2.00057E-18-4.68588E-19
 -1       903 9.27594E-05-2.53378E-05-2.88949E-05 2.71826E-06 6.56681E-19-7.89391E-19
 -1       904 7.94980E-05-1.65975E-05-2.69550E-05 5.83132E-06-1.37937E-18 1.77997E-20
 -1       905 6.44603E-05-1.66939E-05-2.03280E-05-2.00515E-05 9.40339E-20 1.62706E-18
 -1       906 9.52434E-05-2.85783E-05-2.85708E-05 5.26238E-09 1.40701E-18 7.39281E-19
 -1       907 1.17968E-04-3.12900E-05-3.72476E-05 1.13114E-05 3.03145E-20-2.68850E-18
 -1       908 9.52432E-05-2.85782E-05-2.85707E-05-3.23888E-09 1.06845E-18-1.21715E-18
 -1       909 9.52424E-05-2.85776E-05-2.85706E-05-4.88710E-09-1.32180E-18 1.91313E-18
 -1       910 6.21497E-05-1.35365E-05-2.04779E-05 1.64629E-05-1.89799E-18 1.48840E-18
 -1       911 1.14208E-04-4.70745E-05-2.87709E-05-1.26952E-05 2.24137E-18-9.34652E-19
 -1       912 9.52440E-05-2.85787E-05-2.85708E-05 3.18249E-09 1.16358E-19-2.72052E-19
 -1       913 9.52438E-05-2.85787E-05-2.85708E-05-1.10302E-09 1.73177E-18-1.77497E-18
 -1       914 7.30942E-05-1.40906E-05-2.52800E-05 6.60582E-06-1.05301E-18 1.36770E-18
 -1       915 6.04592E-05-1.17158E-05-2.07877E-05-9.46968E-06-7.13775E-19 1.94581E-18
 -1       916 1.22736E-04-4.52808E-05-3.32510E-05 2.57585E-06 1.50653E-18-1.55349E-18
 -1       917 1.21659E-04-3.92635E-05-3.54021E-05 8.35324E-06 6.12302E-19-2.10649E-18
 -1       918 6.24102E-05-1.10851E-05-2.18913E-05 5.73130E-06-8.09232E-19 1.86196E-18
 -1       919 6.99867E-05-1.40412E-05-2.39482E-05 1.17144E-05-1.02852E-18 1.38211E-18
 -1       920 1.18364E-04-4.32475E-05-3.21489E-05 3.20147E-06 1.51857E-18-1.94188E-18
 -1       921 1.14017E-04-4.37625E-05-3.01181E-05-2.27338E-06 1.51174E-18-1.32777E-18
 -1       922 1.08474E-04-4.07738E-05-2.90119E-05-5.52769E-06 6.18801E-19-9.24505E-19
 -1       923 1.03567E-04-3.71385E-05-2.84677E-05-6.74695E-06 6.04918E-19-9.36044E-19
 -1       924 9.98001E-05-3.38082E-05-2.82824E-05-6.69292E-06 3.31134E-19-3.50805E-20
 -1       925 9.72025E-05-3.12191E-05-2.82794E-05-5.99002E-06-2.64458E-19-3.98798E-19
 -1       926 9.55620E-05-2.94030E-05-2.83545E-05-5.05665E-06 3.23879E-19-4.77174E-19
 -1       927 9.46257E-05-2.82413E-05-2.84509E-05-4.11448E-06 1.10353E-18 5.51658E-20
 -1       928 9.41709E-05-2.75786E-05-2.85399E-05-3.26578E-06 1.04642E-18 7.06337E-19
 -1       929 9.40243E-05-2.72692E-05-2.86097E-05-2.54596E-06 4.05534E-19 4.56245E-19
 -1       930 9.40600E-05-2.71930E-05-2.86576E-05-1.95716E-06 5.74092E-19 8.67331E-19
 -1       931 9.41916E-05-2.72588E-05-2.86857E-05-1.48663E-06-6.85827E-20 1.61839E-19
 -1       932 9.43629E-05-2.74013E-05-2.86980E-05-1.11659E-06-2.85962E-19-5.80948E-19
 -1       933 9.45396E-05-2.75764E-05-2.86986E-05-8.29045E-07 7.84502E-20-1.84874E-18
 -1       934 9.47026E-05-2.77560E-05-2.86915E-05-6.07812E-07 1.09979E-19-1.30166E-18
 -1       935 9.48430E-05-2.79237E-05-2.86797E-05-4.39158E-07 3.35879E-19-1.69941E-18
 -1       936 9.49580E-05-2.80712E-05-2.86658E-05-3.11799E-07-3.34048E-19-2.57606E-18
 -1       937 9.50483E-05-2.81954E-05-2.86512E-05-2.16621E-07 2.40959E-19-3.06399E-18
 -1       938 9.51169E-05-2.82965E-05-2.86373E-05-1.46342E-07 1.75673E-19-1.27246E-18
 -1       939 9.51671E-05-2.83763E-05-2.86246E-05-9.51792E-08 4.44596E-19-1.99065E-18
 -1       940 9.52025E-05-2.84377E-05-2.86134E-05-5.85664E-08-2.50525E-19-1.10507E-18
 -1       941 9.52264E-05-2.84838E-05-2.86040E-05-3.29153E-08-2.87462E-19-7.87639E-19
 -1       942 9.52417E-05-2.85174E-05-2.85961E-05-1.54237E-08 1.21579E-19-1.74475E-18
 -1       943 9.52507E-05-2.85413E-05-2.85898E-05-3.91847E-09 1.30120E-18-1.74842E-18
 -1       944 9.52553E-05-2.85576E-05-2.85847E-05 3.27034E-09 1.13432E-18-9.81684E-20
 -1       945 9.52569E-05-2.85684E-05-2.85808E-05 7.41225E-09-9.21760E-19-8.33953E-19
 -1       946 9.52565E-05-2.85750E-05-2.85778E-05 9.46032E-09-1.66634E-18-1.10020E-18
 -1       947 9.52550E-05-2.85787E-05-2.85756E-05 1.01193E-08 8.84061E-19-2.24255E-19
 -1       948 9.52529E-05-2.85805E-05-2.85739E-05 9.90087E-09 2.21824E-18-2.34793E-19
 -1       949 9.52506E-05-2.85809E-05-2.85727E-05 9.16851E-09 1.67368E-18-3.23479E-19
 -1       950 9.52483E-05-2.85805E-05-2.85719E-05 8.17280E-09 9.52139E-19-1.25062E-18
 -1       951 9.52461E-05-2.85797E-05-2.85713E-05 7.08368E-09 9.86646E-19-2.82330E-18
 -1       952 9.52447E-05-2.85790E-05-2.85710E-05 6.15580E-09 1.07774E-18-2.45981E-19
 -1       953 1.07307E-04-1.39905E-05-4.00862E-05 1.14979E-06-1.83543E-18-2.35654E-18
 -1       954 9.38537E-05-2.67040E-05-2.87785E-05 1.13568E-06-5.60168E-19-1.49903E-19
 -1       955 9.32538E-05-2.60994E-05-2.87805E-05 1.38518E-06-9.61402E-19-2.99321E-19
 -1       956 9.45870E-05-2.75296E-05-2.87389E-05 6.99872E-07-9.57611E-19 3.34105E-19
 -1       957 9.48025E-05-2.78036E-05-2.87138E-05 5.28610E-07 3.04371E-21 1.00877E-18
 -1       958 9.49540E-05-2.80118E-05-2.86895E-05 3.89286E-07 3.00752E-20 9.53946E-19
 -1       959 9.50594E-05-2.81691E-05-2.86673E-05 2.79042E-07-8.15624E-20 1.16772E-18
 -1       960 9.51319E-05-2.82871E-05-2.86478E-05 1.93944E-07-3.78493E-19 4.46769E-19
 -1       961 9.51809E-05-2.83748E-05-2.86312E-05 1.29788E-07 1.19969E-18 4.81002E-19
 -1       962 9.52133E-05-2.84392E-05-2.86175E-05 8.25618E-08 8.75908E-19 1.18820E-18
 -1       963 9.52338E-05-2.84859E-05-2.86063E-05 4.86749E-08-2.54380E-19-2.40635E-19
 -1       964 9.52462E-05-2.85192E-05-2.85973E-05 2.50338E-08-7.83267E-19-1.91120E-18
 -1       965 9.52532E-05-2.85433E-05-2.85899E-05 8.53439E-09-1.87069E-19-5.56470E-19
 -1       966 9.52560E-05-2.85587E-05-2.85846E-05-1.38673E-09 3.31973E-19 4.80184E-19
 -1       967 9.52565E-05-2.85687E-05-2.85805E-05-7.31087E-09-4.10313E-19 1.89687E-18
 -1       968 9.52555E-05-2.85749E-05-2.85774E-05-1.04335E-08 1.04280E-18 2.85684E-18
 -1       969 9.52537E-05-2.85783E-05-2.85752E-05-1.16702E-08 1.16540E-18 2.63052E-18
 -1       970 9.52516E-05-2.85799E-05-2.85736E-05-1.16943E-08 4.69644E-19 1.72047E-18
 -1       971 9.52493E-05-2.85803E-05-2.85724E-05-1.09894E-08 1.14102E-19 2.95840E-18
 -1       972 9.52472E-05-2.85799E-05-2.85717E-05-9.89282E-09-1.80035E-18 1.95967E-18
 -1       973 9.52452E-05-2.85792E-05-2.85711E-05-8.63039E-09 4.09967E-19 1.07087E-18
 -1       974 9.52434E-05-2.85782E-05-2.85708E-05-7.35089E-09 1.04635E-19 1.31045E-18
 -1       975 1.09618E-04-1.93570E-05-3.87733E-05-1.16419E-05-1.34387E-18-1.81085E-18
 -1       976 9.52412E-05-2.85768E-05-2.85705E-05-5.97791E-09-5.46451E-19 3.55331E-19
 -1       977 9.42823E-05-2.71710E-05-2.87620E-05 9.03545E-07-3.38457E-19-4.85977E-19
 -1       978 8.73310E-05-2.14722E-05-2.82258E-05 1.79664E-06-5.51596E-19-7.89517E-19
 -1       979 8.95620E-05-2.30198E-05-2.85183E-05 1.91704E-06 7.24565E-19-6.24343E-19
 -1       980 9.54872E-05-3.58780E-05-2.55074E-05-2.17773E-05 1.97890E-18-6.76089E-19
 -1       981 7.79545E-05-2.26317E-05-2.36694E-05-1.91572E-05 1.82240E-19 8.16493E-20
 -1       982 8.01268E-05-1.74365E-05-2.68647E-05 4.30257E-07-5.12699E-19-6.24966E-20
 -1       983 8.42830E-05-1.96105E-05-2.77172E-05 1.35524E-06-1.02570E-18-1.00577E-18
 -1       984 9.12228E-05-2.43045E-05-2.86795E-05 1.83026E-06 1.55055E-18-1.12331E-18
 -1       985 7.43304E-05-1.49203E-05-2.54361E-05-1.08363E-06-2.02156E-19 1.19983E-18
 -1       986 7.22732E-05-1.71674E-05-2.35922E-05-1.32024E-05-2.04746E-19 9.08412E-19
 -1       987 9.52422E-05-2.85775E-05-2.85706E-05-6.66360E-09-9.51171E-19 7.10386E-20
 -1       988 9.52447E-05-2.85791E-05-2.85710E-05-4.33421E-09-3.58753E-19 2.00303E-18
 -1       989 9.52457E-05-2.85798E-05-2.85711E-05 3.00509E-11-2.37317E-19-3.32619E-18
 -1       990 6.84872E-05-1.24635E-05-2.39614E-05 1.13964E-06-7.28647E-19 2.03611E-18
 -1       991 9.52455E-05-2.85797E-05-2.85711E-05-2.22464E-09 8.63582E-21-1.86724E-18
 -1       992 9.52463E-05-2.85800E-05-2.85712E-05 2.40426E-09 1.17804E-18 2.13396E-19
 -1       993 1.04540E-04-4.08696E-05-2.72766E-05-1.60998E-05 1.80591E-18-4.91830E-19
 -1       994 9.24052E-05-2.53111E-05-2.87546E-05 1.63159E-06 2.52998E-19-1.76014E-18
 -1       995 1.07756E-04-4.15966E-05-2.83637E-05-1.04419E-05 1.26790E-18-4.37952E-19
 -1       996 9.38035E-05-2.67687E-05-2.87292E-05 6.22606E-07-5.59227E-19 6.28443E-19
 -1       997 1.01990E-04-3.68344E-05-2.79238E-05-1.03885E-05 8.17162E-19-1.80781E-19
 -1       998 9.79378E-05-3.29431E-05-2.78575E-05-9.15530E-06 6.40500E-19-3.73793E-19
 -1       999 9.54469E-05-3.01885E-05-2.79696E-05-7.50328E-06-2.89599E-19-1.43258E-19
 -1      1000 9.40600E-05-2.84133E-05-2.81344E-05-5.90154E-06-3.32494E-20 9.07697E-19
 -1      1001 9.34048E-05-2.73760E-05-2.82978E-05-4.51567E-06 8.20691E-19-6.11997E-20
 -1      1002 9.32095E-05-2.68603E-05-2.84352E-05-3.39139E-06 1.24233E-18-8.96855E-19
 -1      1003 9.32830E-05-2.66912E-05-2.85392E-05-2.51326E-06 1.67288E-19-2.93710E-19
 -1      1004 9.34972E-05-2.67375E-05-2.86112E-05-1.84422E-06 5.64580E-19-1.14018E-18
 -1      1005 9.37696E-05-2.69050E-05-2.86562E-05-1.34276E-06-6.98880E-21-9.24056E-19
 -1      1006 9.40500E-05-2.71294E-05-2.86802E-05-9.70913E-07-3.96522E-19-6.10756E-19
 -1      1007 9.43101E-05-2.73694E-05-2.86888E-05-6.97131E-07-1.00807E-18-1.54764E-18
 -1      1008 9.45365E-05-2.75998E-05-2.86871E-05-4.96532E-07 1.73647E-19-2.53907E-18
 -1      1009 9.47245E-05-2.78069E-05-2.86789E-05-3.50115E-07-6.89199E-20-3.14497E-18
 -1      1010 9.48750E-05-2.79848E-05-2.86672E-05-2.43653E-07 2.55091E-19-2.36004E-18
 -1      1011 9.49915E-05-2.81323E-05-2.86539E-05-1.66607E-07-1.05781E-19-1.79856E-18
 -1      1012 9.50792E-05-2.82511E-05-2.86406E-05-1.11210E-07 1.81651E-18-1.01178E-18
 -1      1013 9.51431E-05-2.83442E-05-2.86281E-05-7.17346E-08-6.01933E-19-2.98265E-19
 -1      1014 9.51883E-05-2.84156E-05-2.86169E-05-4.39520E-08-5.23363E-19-1.57932E-18
 -1      1015 9.52189E-05-2.84690E-05-2.86071E-05-2.47272E-08-3.27299E-19-2.08875E-18
 -1      1016 9.52387E-05-2.85079E-05-2.85989E-05-1.17312E-08-2.00206E-19-2.19810E-18
 -1      1017 9.52506E-05-2.85356E-05-2.85922E-05-3.22646E-09 1.19479E-18-1.68468E-18
 -1      1018 9.52570E-05-2.85545E-05-2.85868E-05 2.07933E-09 1.85095E-18-2.23741E-18
 -1      1019 9.52595E-05-2.85671E-05-2.85825E-05 5.14553E-09-1.69435E-18-2.59359E-18
 -1      1020 9.52595E-05-2.85749E-05-2.85792E-05 6.67997E-09-8.08401E-20-1.06301E-18
 -1      1021 9.52581E-05-2.85793E-05-2.85766E-05 7.19983E-09 3.17031E-19 2.40497E-18
 -1      1022 9.52558E-05-2.85814E-05-2.85747E-05 7.07791E-09 8.82354E-19-6.31494E-19
 -1      1023 9.52532E-05-2.85820E-05-2.85734E-05 6.57824E-09 4.09458E-19-2.36111E-18
 -1      1024 9.52505E-05-2.85817E-05-2.85724E-05 5.88701E-09 4.53539E-19-2.21181E-18
 -1      1025 9.52480E-05-2.85808E-05-2.85717E-05 5.12071E-09 1.37332E-18-6.86327E-19
 -1      1026 9.32353E-05-2.62244E-05-2.87189E-05 7.01252E-07-1.01691E-18-1.84389E-19
 -1      1027 9.47581E-05-2.78074E-05-2.86932E-05 3.24256E-07-8.21716E-20 5.79267E-20
 -1      1028 9.45331E-05-2.75418E-05-2.87105E-05 4.18984E-07-4.88158E-19 6.68143E-19
 -1      1029 9.50359E-05-2.81693E-05-2.86571E-05 1.75740E-07-3.15349E-20 1.00589E-18
 -1      1030 9.51168E-05-2.82879E-05-2.86410E-05 1.22736E-07 1.70113E-19 8.41301E-19
 -1      1031 9.51724E-05-2.83765E-05-2.86268E-05 8.21131E-08 3.66706E-19 9.44901E-19
 -1      1032 9.52095E-05-2.84417E-05-2.86148E-05 5.19045E-08 1.34820E-18 1.32943E-18
 -1      1033 9.52333E-05-2.84890E-05-2.86047E-05 3.00698E-08 2.11609E-19 1.43128E-18
 -1      1034 9.52483E-05-2.85239E-05-2.85962E-05 1.42574E-08-1.58802E-18 1.66449E-18
 -1      1035 9.52560E-05-2.85466E-05-2.85897E-05 4.30614E-09-9.27685E-19 2.22554E-18
 -1      1036 9.52594E-05-2.85618E-05-2.85847E-05-2.02246E-09-1.04128E-18 2.83741E-18
 -1      1037 9.52600E-05-2.85716E-05-2.85807E-05-5.72912E-09-9.22629E-20 2.04663E-18
 -1      1038 9.52588E-05-2.85774E-05-2.85778E-05-7.61280E-09 1.15177E-18 3.76024E-18
 -1      1039 9.52567E-05-2.85804E-05-2.85755E-05-8.27653E-09 1.14786E-18 2.70905E-18
 -1      1040 9.52541E-05-2.85817E-05-2.85739E-05-8.16427E-09-4.74068E-19 2.31166E-18
 -1      1041 9.52515E-05-2.85817E-05-2.85727E-05-7.59340E-09 2.83525E-19 1.70393E-18
 -1      1042 9.52489E-05-2.85811E-05-2.85719E-05-6.78952E-09-2.52350E-19 6.98589E-19
 -1      1043 9.52465E-05-2.85801E-05-2.85713E-05-5.90171E-09 4.50211E-19 9.47493E-19
 -1      1044 9.52458E-05-2.85797E-05-2.85712E-05 4.33454E-09 2.73335E-18 5.04241E-19
 -1      1045 9.42241E-05-2.72013E-05-2.87241E-05 5.22003E-07-1.19797E-18 8.76069E-19
 -1      1046 8.84824E-05-2.85611E-05-2.56793E-05-1.70510E-05 3.04275E-19-1.36543E-18
 -1      1047 8.82502E-05-2.24832E-05-2.81861E-05-2.51905E-07 4.26002E-19-6.16355E-19
 -1      1048 9.49203E-05-2.80124E-05-2.86748E-05 2.42714E-07 7.71614E-19-2.40723E-19
 -1      1049 7.89217E-05-1.81542E-05-2.60454E-05-5.85759E-06 2.76443E-19 4.61973E-19
 -1      1050 9.00749E-05-2.36916E-05-2.84500E-05 3.55119E-07 1.63484E-18-5.52780E-19
 -1      1051 8.26244E-05-2.35555E-05-2.52964E-05-1.49333E-05 2.76414E-19-4.62583E-19
 -1      1052 9.52482E-05-2.85811E-05-2.85716E-05 2.27996E-10 8.86442E-20-2.10174E-18
 -1      1053 8.59299E-05-2.11470E-05-2.77645E-05-1.32810E-06-1.44540E-18-9.67210E-20
 -1      1054 9.52478E-05-2.85808E-05-2.85716E-05-3.43823E-09-1.36406E-18-1.96438E-18
 -1      1055 9.63316E-05-3.39413E-05-2.67403E-05-1.54622E-05 1.10476E-18 2.08620E-19
 -1      1056 9.24619E-05-2.55383E-05-2.86815E-05 7.24036E-07-5.58087E-19 9.31847E-19
 -1      1057 8.28603E-05-1.96410E-05-2.70878E-05-3.08717E-06-3.24061E-19 2.45307E-19
 -1      1058 9.52486E-05-2.85812E-05-2.85718E-05 2.88164E-09 2.39365E-18 1.80226E-18
 -1      1059 9.53310E-05-3.21012E-05-2.70966E-05-1.29163E-05 7.17414E-20-1.11272E-19
 -1      1060 9.29651E-05-2.89886E-05-2.74216E-05-9.89843E-06 9.17273E-20-1.18878E-18
 -1      1061 9.19116E-05-2.71783E-05-2.77427E-05-7.34216E-06 1.93730E-19-1.15259E-18
 -1      1062 9.16515E-05-2.62489E-05-2.80286E-05-5.28752E-06 7.40957E-20-6.71568E-19
 -1      1063 9.18146E-05-2.58851E-05-2.82549E-05-3.73748E-06 5.17606E-19-5.14527E-19
 -1      1064 9.21934E-05-2.58747E-05-2.84219E-05-2.60056E-06 2.80157E-19-1.21471E-18
 -1      1065 9.26572E-05-2.60683E-05-2.85378E-05-1.78728E-06-1.87008E-19-1.52687E-18
 -1      1066 9.31285E-05-2.63645E-05-2.86130E-05-1.21630E-06 4.50312E-19-1.05177E-18
 -1      1067 9.35651E-05-2.66978E-05-2.86573E-05-8.21242E-07 2.61229E-19-1.32132E-18
 -1      1068 9.39466E-05-2.70279E-05-2.86794E-05-5.50860E-07-7.35731E-19-1.23664E-18
 -1      1069 9.42667E-05-2.73321E-05-2.86862E-05-3.67345E-07-7.57787E-19-6.35223E-19
 -1      1070 9.45264E-05-2.75990E-05-2.86832E-05-2.43468E-07-4.76198E-19-1.31868E-18
 -1      1071 9.47315E-05-2.78249E-05-2.86743E-05-1.60140E-07 6.93150E-19-1.48184E-18
 -1      1072 9.48894E-05-2.80107E-05-2.86623E-05-1.04205E-07 1.73741E-19-6.43258E-19
 -1      1073 9.50080E-05-2.81598E-05-2.86492E-05-6.67130E-08 4.92290E-19 9.13918E-20
 -1      1074 9.50948E-05-2.82767E-05-2.86363E-05-4.16356E-08 1.52069E-19-1.76122E-18
 -1      1075 9.51567E-05-2.83665E-05-2.86244E-05-2.49295E-08-1.89993E-18-1.85901E-18
 -1      1076 9.51993E-05-2.84340E-05-2.86137E-05-1.38857E-08-8.22197E-19-2.70898E-18
 -1      1077 9.52276E-05-2.84836E-05-2.86046E-05-6.68425E-09-6.22240E-21-1.56727E-18
 -1      1078 9.52453E-05-2.85192E-05-2.85969E-05-2.09194E-09 1.30491E-19-1.34771E-18
 -1      1079 9.52554E-05-2.85440E-05-2.85906E-05 7.25775E-10 6.62735E-19-9.58164E-19
 -1      1080 9.52604E-05-2.85607E-05-2.85856E-05 2.34650E-09 2.26810E-19-3.04400E-18
 -1      1081 9.52618E-05-2.85714E-05-2.85816E-05 3.16923E-09 6.99077E-19-9.99141E-19
 -1      1082 9.52611E-05-2.85779E-05-2.85785E-05 3.47146E-09 9.25762E-19-5.03210E-19
 -1      1083 9.52590E-05-2.85813E-05-2.85762E-05 3.44613E-09-1.23061E-18-2.89658E-18
 -1      1084 9.52563E-05-2.85827E-05-2.85744E-05 3.22663E-09 1.29771E-18-1.90398E-18
 -1      1085 9.52534E-05-2.85827E-05-2.85732E-05 2.90535E-09 1.43628E-19 6.44164E-19
 -1      1086 9.52510E-05-2.85821E-05-2.85724E-05 2.92888E-09 1.79152E-18 1.74102E-18
 -1      1087 9.34151E-05-2.64727E-05-2.86896E-05 1.63351E-07-2.32500E-19-3.51783E-19
 -1      1088 9.51228E-05-2.83090E-05-2.86345E-05 6.06286E-08 6.73668E-19 2.20124E-19
 -1      1089 9.50440E-05-2.81975E-05-2.86485E-05 8.54524E-08-4.81700E-19-6.81830E-19
 -1      1090 9.52137E-05-2.84541E-05-2.86113E-05 2.58596E-08 9.35454E-19 3.39482E-18
 -1      1091 9.52379E-05-2.85003E-05-2.86018E-05 1.44207E-08-3.86038E-19 3.08598E-18
 -1      1092 9.52515E-05-2.85310E-05-2.85945E-05 6.85536E-09-1.10161E-18 2.07529E-18
 -1      1093 9.52587E-05-2.85521E-05-2.85886E-05 1.76764E-09 1.44144E-20 6.77952E-19
 -1      1094 9.52616E-05-2.85659E-05-2.85839E-05-1.44436E-09-1.03795E-18 4.08496E-19
 -1      1095 9.52618E-05-2.85746E-05-2.85802E-05-3.30270E-09 4.22858E-19 5.21307E-19
 -1      1096 9.52603E-05-2.85796E-05-2.85775E-05-4.21894E-09 1.00308E-18 6.13144E-19
 -1      1097 9.52578E-05-2.85820E-05-2.85754E-05-4.50710E-09 5.91032E-19 2.14285E-18
 -1      1098 9.52550E-05-2.85827E-05-2.85738E-05-4.39805E-09 1.06185E-18 9.27787E-19
 -1      1099 9.52521E-05-2.85824E-05-2.85727E-05-4.06155E-09 6.54539E-19-1.95903E-19
 -1      1100 9.52499E-05-2.85817E-05-2.85721E-05-3.77248E-09 3.10832E-19-2.00983E-18
 -1      1101 9.45668E-05-2.76187E-05-2.86920E-05 1.79876E-07-1.74458E-19-1.14187E-18
 -1      1102 9.47777E-05-2.78612E-05-2.86785E-05 1.47824E-07 7.63556E-19-1.17337E-18
 -1      1103 9.14348E-05-2.47004E-05-2.86004E-05 6.35853E-07 6.56774E-19 9.82154E-19
 -1      1104 9.51773E-05-2.83926E-05-2.86220E-05 4.08911E-08-2.54501E-19 9.61431E-19
 -1      1105 9.49324E-05-2.80510E-05-2.86634E-05 1.15055E-07-5.58623E-19-1.53608E-18
 -1      1106 9.39074E-05-2.69347E-05-2.87025E-05 2.05508E-07-9.88229E-19-1.37303E-18
 -1      1107 8.96240E-05-2.37192E-05-2.82448E-05-1.50802E-06 9.04957E-19-8.75223E-19
 -1      1108 8.46725E-05-2.27988E-05-2.65115E-05-9.60002E-06-1.14925E-19-5.49660E-19
 -1      1109 9.27692E-05-2.59119E-05-2.86531E-05 3.93214E-08-8.53687E-19 1.41534E-19
 -1      1110 8.89468E-05-2.74174E-05-2.63647E-05-1.37380E-05-6.02808E-19-1.17212E-18
 -1      1111 9.52499E-05-2.85818E-05-2.85720E-05-3.30948E-10 1.39442E-18-5.65544E-19
 -1      1112 8.80772E-05-2.29220E-05-2.79230E-05-2.79683E-06-8.81092E-20-9.51742E-19
 -1      1113 9.42834E-05-2.73135E-05-2.87014E-05 2.03596E-07-9.10801E-19-8.36602E-19
 -1      1114 9.09064E-05-2.45171E-05-2.84526E-05-6.98907E-07 2.09452E-19-2.74316E-19
 -1      1115 8.84963E-05-2.50027E-05-2.72135E-05-8.46189E-06-9.54047E-20-5.72197E-19
 -1      1116 8.91225E-05-2.45130E-05-2.76896E-05-5.73674E-06-1.26267E-19-8.28016E-19
 -1      1117 8.99462E-05-2.45089E-05-2.80449E-05-3.77717E-06 3.89807E-19-1.10967E-18
 -1      1118 9.08323E-05-2.48085E-05-2.82962E-05-2.41509E-06 5.06455E-19-1.31071E-19
 -1      1119 9.16715E-05-2.52516E-05-2.84659E-05-1.49805E-06 3.52795E-19-6.22458E-20
 -1      1120 9.24173E-05-2.57430E-05-2.85749E-05-8.97217E-07-7.60507E-20 4.47964E-20
 -1      1121 9.30531E-05-2.62263E-05-2.86401E-05-5.14652E-07-2.41649E-19-1.43531E-18
 -1      1122 9.35789E-05-2.66710E-05-2.86749E-05-2.78667E-07-9.29312E-20-1.51211E-18
 -1      1123 9.40030E-05-2.70620E-05-2.86890E-05-1.38497E-07-6.76243E-19-1.46167E-18
 -1      1124 9.43380E-05-2.73949E-05-2.86899E-05-5.89201E-08-1.01679E-18-1.41758E-18
 -1      1125 9.45975E-05-2.76711E-05-2.86827E-05-1.65335E-08 1.63304E-19-1.18689E-18
 -1      1126 9.47947E-05-2.78951E-05-2.86713E-05 3.90900E-09 7.76976E-19-1.26810E-18
 -1      1127 9.49418E-05-2.80734E-05-2.86579E-05 1.20208E-08-2.95592E-19-1.27208E-18
 -1      1128 9.50493E-05-2.82126E-05-2.86443E-05 1.36632E-08-1.03993E-18-2.33165E-18
 -1      1129 9.51261E-05-2.83195E-05-2.86314E-05 1.22708E-08-1.32758E-18-1.61167E-18
 -1      1130 9.51794E-05-2.83999E-05-2.86198E-05 9.75548E-09-1.49045E-18-3.21090E-19
 -1      1131 9.52152E-05-2.84594E-05-2.86096E-05 7.12617E-09 5.58628E-19 1.14349E-18
 -1      1132 9.52382E-05-2.85024E-05-2.86011E-05 4.80577E-09-5.93869E-19 4.24165E-19
 -1      1133 9.52519E-05-2.85326E-05-2.85940E-05 2.94631E-09 3.25192E-19-9.57523E-19
 -1      1134 9.52592E-05-2.85533E-05-2.85882E-05 1.57265E-09 3.73346E-19-8.92762E-19
 -1      1135 9.52622E-05-2.85669E-05-2.85837E-05 6.18189E-10-7.21098E-19-1.17527E-18
 -1      1136 9.52624E-05-2.85754E-05-2.85801E-05-2.67598E-12 1.28752E-18-3.18638E-18
 -1      1137 9.52608E-05-2.85801E-05-2.85774E-05-3.74281E-10-5.94399E-19-2.20317E-18
 -1      1138 9.52583E-05-2.85824E-05-2.85754E-05-5.69296E-10-2.09193E-19-3.00919E-19
 -1      1139 9.52553E-05-2.85830E-05-2.85738E-05-6.43791E-10 2.07209E-18-6.27793E-19
 -1      1140 8.62386E-05-2.22231E-05-2.74395E-05-4.78474E-06-1.95710E-19-4.26971E-20
 -1      1141 9.52525E-05-2.85827E-05-2.85728E-05-4.93491E-10 2.00069E-18 9.26420E-20
 -1      1142 9.19479E-05-2.52599E-05-2.85806E-05-2.19810E-07 5.42970E-19 1.47380E-22
 -1      1143 1.25171E-04 2.74338E-10-4.47125E-05-4.54429E-05-4.74762E-19 2.83968E-18
 -1      1144 9.41486E-05 7.58342E-11-3.96111E-05-2.73199E-05-1.56383E-19-4.05935E-18
 -1      1145 8.96514E-05 4.93688E-11-3.80949E-05-2.04261E-05-6.24687E-20-5.92304E-18
 -1      1146 8.83022E-05 4.70993E-11-3.74404E-05-1.50244E-05-6.72332E-21-6.16828E-18
 -1      1147 8.74216E-05 5.01630E-11-3.69446E-05-9.39362E-06 2.11229E-20-5.79445E-18
 -1      1148 8.58206E-05 5.36124E-11-3.61689E-05-3.30833E-06 3.62636E-20-5.24218E-18
 -1      1149 8.27052E-05 5.37175E-11-3.48256E-05 3.05499E-06 4.36222E-20-4.51717E-18
 -1      1150 7.76741E-05 4.61373E-11-3.27972E-05 9.01652E-06 6.01393E-20-3.85056E-18
 -1      1151 7.10710E-05 2.79329E-11-3.02651E-05 1.33341E-05 6.07746E-20-3.38713E-18
 -1      1152 6.42546E-05 1.09620E-12-2.77642E-05 1.47552E-05 6.54333E-20-3.12088E-18
 -1      1153 5.95108E-05-2.50809E-11-2.61325E-05 1.27499E-05 7.45389E-20-2.82914E-18
 -1      1154 5.92267E-05-3.73579E-11-2.62130E-05 8.28314E-06 8.16328E-20-2.41688E-18
 -1      1155 6.47534E-05-2.78707E-11-2.84806E-05 3.55992E-06 9.10560E-20-1.59874E-18
 -1      1156 7.58903E-05 1.78077E-12-3.28653E-05 1.22165E-06 1.02491E-19-2.25714E-19
 -1      1157 9.11411E-05 4.50941E-11-3.87616E-05 3.43278E-06 1.09691E-19 2.09707E-18
 -1      1158 1.09190E-04 1.09267E-10-4.54168E-05 1.23562E-05 8.30092E-20 5.91081E-18
 -1      1159 1.37602E-04 2.49180E-10-5.23159E-05 3.26426E-05 7.19978E-20 1.21351E-17
 -1      1160 1.39665E-04-2.74337E-05-4.30058E-05-2.86579E-05-1.58861E-18 6.80591E-18
 -1      1161 1.02467E-04-3.03064E-05-3.31850E-05-8.92019E-07-5.67486E-19 3.22847E-18
 -1      1162 9.22229E-05-2.76043E-05-2.85073E-05 3.07753E-07-1.98113E-19-9.02196E-19
 -1      1163 8.70598E-05-2.62004E-05-2.62371E-05 1.05423E-07-1.93041E-19-3.85821E-18
 -1      1164 8.28939E-05-2.49517E-05-2.48775E-05-2.72820E-08-6.57824E-20-5.98717E-18
 -1      1165 7.93950E-05-2.38953E-05-2.38785E-05-7.43185E-08 1.14515E-20-6.73636E-18
 -1      1166 7.69411E-05-2.31608E-05-2.32108E-05-4.85862E-08-6.00533E-20-7.62293E-18
 -1      1167 7.60679E-05-2.28992E-05-2.29874E-05 2.94974E-08-1.78009E-20-8.26457E-18
 -1      1168 7.70783E-05-2.31920E-05-2.32823E-05 1.25992E-07-3.49897E-20-9.38739E-18
 -1      1169 7.98364E-05-2.39974E-05-2.40592E-05 2.04329E-07 4.88268E-20-1.11921E-17
 -1      1170 8.37880E-05-2.51549E-05-2.51728E-05 2.40167E-07 1.51664E-20-1.19727E-17
 -1      1171 8.81638E-05-2.64417E-05-2.64178E-05 2.29399E-07 2.36673E-20-1.13947E-17
 -1      1172 9.22385E-05-2.76460E-05-2.75946E-05 1.84834E-07-9.18055E-20-1.09880E-17
 -1      1173 9.55166E-05-2.86209E-05-2.85600E-05 1.26020E-07-5.96530E-20-1.10906E-17
 -1      1174 9.77901E-05-2.93025E-05-2.92465E-05 6.97752E-08-3.36166E-20-1.07175E-17
 -1      1175 9.90900E-05-2.96973E-05-2.96542E-05 2.57527E-08-9.08542E-20-1.09370E-17
 -1      1176 9.95918E-05-2.98551E-05-2.98268E-05-3.29996E-09 4.80840E-21-1.08960E-17
 -1      1177 9.95241E-05-2.98423E-05-2.98270E-05-1.90600E-08 1.45353E-19-1.04628E-17
 -1      1178 9.91055E-05-2.97234E-05-2.97176E-05-2.50479E-08-1.05435E-19-1.13708E-17
 -1      1179 9.85129E-05-2.95507E-05-2.95509E-05-2.48917E-08 8.18311E-20-1.19393E-17
 -1      1180 9.78720E-05-2.93620E-05-2.93654E-05-2.15062E-08-1.74058E-19-1.22675E-17
 -1      1181 9.72625E-05-2.91813E-05-2.91860E-05-1.68934E-08-8.90417E-20-1.12299E-17
 -1      1182 9.67273E-05-2.90218E-05-2.90266E-05-1.22536E-08 8.28980E-21-1.07412E-17
 -1      1183 9.62838E-05-2.88892E-05-2.88933E-05-8.19899E-09-1.12322E-19-1.20476E-17
 -1      1184 9.59332E-05-2.87839E-05-2.87872E-05-4.96007E-09-2.27231E-20-1.18806E-17
 -1      1185 9.56671E-05-2.87037E-05-2.87062E-05-2.54749E-09-7.42115E-20-1.05155E-17
 -1      1186 9.54732E-05-2.86450E-05-2.86468E-05-8.62444E-10 1.90914E-19-1.01536E-17
 -1      1187 9.53378E-05-2.86038E-05-2.86050E-05 2.34749E-10-2.68417E-19-1.20189E-17
 -1      1188 9.52478E-05-2.85763E-05-2.85770E-05 8.86231E-10 6.20362E-20-1.18993E-17
 -1      1189 9.51920E-05-2.85591E-05-2.85595E-05 1.21784E-09-7.35912E-21-1.04316E-17
 -1      1190 9.51608E-05-2.85493E-05-2.85495E-05 1.33214E-09-1.50311E-19-9.54332E-18
 -1      1191 9.51468E-05-2.85448E-05-2.85448E-05 1.30792E-09 1.01385E-19-1.19366E-17
 -1      1192 9.51441E-05-2.85438E-05-2.85437E-05 1.20285E-09 7.28216E-20-1.05769E-17
 -1      1193 9.51485E-05-2.85449E-05-2.85448E-05 1.05725E-09 1.72618E-19-8.17365E-18
 -1      1194 9.51569E-05-2.85473E-05-2.85472E-05 8.97949E-10 4.66609E-20-9.46551E-18
 -1      1195 9.51672E-05-2.85503E-05-2.85501E-05 7.41806E-10 4.06112E-19-9.86651E-18
 -1      1196 9.51780E-05-2.85535E-05-2.85533E-05 5.98532E-10 4.23560E-19-7.93474E-18
 -1      1197 9.51884E-05-2.85565E-05-2.85564E-05 4.72950E-10 4.72709E-20-4.87386E-18
 -1      1198 9.51979E-05-2.85593E-05-2.85592E-05 3.66675E-10 8.48738E-20-3.24517E-18
 -1      1199 9.52062E-05-2.85618E-05-2.85617E-05 2.79337E-10-3.00363E-19-4.76203E-18
 -1      1200 9.52133E-05-2.85640E-05-2.85639E-05 2.09432E-10-1.73421E-19-6.78067E-18
 -1      1201 9.52193E-05-2.85657E-05-2.85657E-05 1.54880E-10-1.81015E-19-9.47554E-18
 -1      1202 9.52242E-05-2.85672E-05-2.85672E-05 1.13373E-10 3.21797E-19-7.69308E-18
 -1      1203 9.52281E-05-2.85684E-05-2.85684E-05 8.25218E-11 4.04286E-19-6.38302E-18
 -1      1204 9.52312E-05-2.85693E-05-2.85693E-05 5.97771E-11 7.42957E-19-4.73111E-18
 -1      1205 9.52337E-05-2.85701E-05-2.85700E-05 4.21034E-11-2.41851E-19-3.57021E-18
 -1      1206 9.52355E-05-2.85706E-05-2.85706E-05 2.51245E-11 2.86052E-19-2.31375E-18
 -1      1207 9.52367E-05-2.85710E-05-2.85709E-05 1.31031E-12 3.81681E-19-1.66235E-18
 -1      1208 9.52372E-05-2.85711E-05-2.85711E-05-4.36841E-11 3.50604E-19 1.68590E-18
 -1      1209 9.52373E-05-2.85712E-05-2.85712E-05-4.03426E-11-3.09094E-20 3.69004E-18
 -1      1210 1.70663E-04-4.88086E-05-5.19583E-05 1.23688E-05-1.59877E-19 1.67988E-17
 -1      1211 1.49607E-04-4.40863E-05-4.72800E-05 6.19972E-08 5.61159E-20 1.56635E-17
 -1      1212 1.54044E-04-4.59109E-05-4.65344E-05-6.09533E-07 6.53340E-20 1.44353E-17
 -1      1213 1.58429E-04-4.72690E-05-4.66393E-05-8.19772E-07 9.84676E-21 1.44092E-17
 -1      1214 1.55045E-04-4.63449E-05-4.48781E-05-3.42255E-07-1.30443E-19 1.51161E-17
 -1      1215 1.36946E-04-4.12691E-05-3.99611E-05 1.21904E-06-7.86020E-20 1.57374E-17
 -1      1216 1.06844E-04-3.23782E-05-3.32790E-05 2.80860E-06-2.03347E-19 1.66772E-17
 -1      1217 8.37146E-05-2.46998E-05-2.87726E-05 2.32040E-06-2.42993E-20 1.66646E-17
 -1      1218 8.67137E-05-2.51364E-05-2.94656E-05-3.51731E-07 7.05155E-20 1.31637E-17
 -1      1219 1.10925E-04-3.25659E-05-3.44747E-05-2.23710E-06 2.17039E-19 1.00937E-17
 -1      1220 1.38176E-04-4.13931E-05-4.05470E-05-2.37854E-06 6.06158E-21 7.47337E-18
 -1      1221 1.52353E-04-4.60056E-05-4.42862E-05-1.29488E-06 1.87499E-19 7.01280E-18
 -1      1222 1.51737E-04-4.57677E-05-4.46325E-05-2.57697E-07 1.13893E-19 6.02734E-18
 -1      1223 1.43075E-04-4.30238E-05-4.26401E-05 2.68735E-07 2.33798E-19 6.34407E-18
 -1      1224 1.32332E-04-3.97108E-05-3.97552E-05 4.11055E-07 4.40399E-20 8.31723E-18
 -1      1225 1.22577E-04-3.67539E-05-3.69412E-05 3.75826E-07 4.57745E-20 8.13125E-18
 -1      1226 1.14796E-04-3.44185E-05-3.46090E-05 2.90144E-07 8.14574E-20 8.56700E-18
 -1      1227 1.08978E-04-3.26802E-05-3.28298E-05 2.07295E-07 8.93719E-20 7.49955E-18
 -1      1228 1.04772E-04-3.14250E-05-3.15311E-05 1.42545E-07 1.37762E-19 6.61766E-18
 -1      1229 1.01784E-04-3.05331E-05-3.06052E-05 9.61946E-08 2.23771E-19 5.47890E-18
 -1      1230 9.96811E-05-2.99048E-05-2.99529E-05 6.43783E-08-9.09957E-20 6.05678E-18
 -1      1231 9.82103E-05-2.94648E-05-2.94968E-05 4.29739E-08-1.53588E-19 7.68626E-18
 -1      1232 9.71664E-05-2.91512E-05-2.91730E-05 2.95671E-08 1.08779E-19 6.39080E-18
 -1      1233 9.64483E-05-2.89364E-05-2.89505E-05 1.83582E-08 3.40871E-20 4.99169E-18
 -1      1234 9.59715E-05-2.87931E-05-2.88026E-05 1.20253E-08 1.37050E-19 6.63478E-18
 -1      1235 9.56487E-05-2.86961E-05-2.87024E-05 7.74387E-09 1.15618E-19 5.91672E-18
 -1      1236 9.54346E-05-2.86316E-05-2.86358E-05 4.85052E-09-1.48747E-20 5.30619E-18
 -1      1237 9.52966E-05-2.85899E-05-2.85928E-05 2.90297E-09 6.34607E-20 6.08337E-18
 -1      1238 9.52115E-05-2.85642E-05-2.85661E-05 1.60234E-09-3.35192E-19 6.82825E-18
 -1      1239 9.51629E-05-2.85494E-05-2.85506E-05 7.46905E-10 2.15016E-19 9.92211E-18
 -1      1240 9.51387E-05-2.85421E-05-2.85427E-05 1.98733E-10 2.56597E-19 9.09711E-18
 -1      1241 9.51306E-05-2.85395E-05-2.85399E-05-1.37748E-10-6.15113E-19 7.71401E-18
 -1      1242 9.51325E-05-2.85400E-05-2.85402E-05-3.29522E-10 2.98001E-19 3.76479E-18
 -1      1243 9.51403E-05-2.85423E-05-2.85423E-05-4.23928E-10-4.60919E-19 4.17290E-18
 -1      1244 9.51512E-05-2.85455E-05-2.85454E-05-4.54210E-10 1.26578E-19 4.61077E-18
 -1      1245 9.51632E-05-2.85491E-05-2.85489E-05-4.41844E-10 5.00014E-20 1.69784E-18
 -1      1246 9.51754E-05-2.85527E-05-2.85526E-05-4.07929E-10-4.39946E-20 8.92178E-19
 -1      1247 9.51869E-05-2.85561E-05-2.85560E-05-3.62511E-10-3.45249E-19 6.60797E-18
 -1      1248 9.51968E-05-2.85591E-05-2.85590E-05-3.12416E-10 4.80461E-19 4.40530E-18
 -1      1249 9.52055E-05-2.85617E-05-2.85615E-05-2.62865E-10 7.57016E-19-4.25069E-18
 -1      1250 9.52128E-05-2.85639E-05-2.85638E-05-2.16852E-10-8.49731E-20-4.23413E-18
 -1      1251 9.52189E-05-2.85657E-05-2.85656E-05-1.76213E-10 3.16385E-19 3.24171E-19
 -1      1252 9.52239E-05-2.85672E-05-2.85671E-05-1.41816E-10-3.08175E-19 6.70278E-18
 -1      1253 9.52279E-05-2.85684E-05-2.85683E-05-1.13941E-10-3.67281E-19 1.02510E-17
 -1      1254 9.52311E-05-2.85693E-05-2.85693E-05-9.24454E-11 6.56318E-19 9.11158E-18
 -1      1255 9.52336E-05-2.85701E-05-2.85700E-05-7.66172E-11 2.77544E-19 6.56425E-18
 -1      1256 9.52354E-05-2.85706E-05-2.85706E-05-6.44088E-11 9.72613E-19 3.39564E-18
 -1      1257 9.52366E-05-2.85710E-05-2.85709E-05-4.91308E-11-4.27236E-19 5.08458E-18
 -1      1258 9.52372E-05-2.85712E-05-2.85711E-05-1.29179E-11-2.65738E-20 7.83956E-18
 -1      1259 9.52373E-05-2.85712E-05-2.85712E-05 3.51004E-11 3.84750E-19 6.59430E-18
 -1      1260 9.52371E-05-2.85710E-05-2.85712E-05 3.97638E-11 8.09978E-18 6.29150E-19
 -1      1261 9.52371E-05-2.85711E-05-2.85711E-05 3.74243E-11 7.74286E-18-1.17575E-18
 -1      1262 9.52373E-05-2.85716E-05-2.85709E-05-2.12829E-11 5.65673E-18-7.47023E-19
 -1      1263 9.52376E-05-2.85727E-05-2.85706E-05-5.03005E-11 3.19955E-18-8.55994E-20
 -1      1264 9.52380E-05-2.85741E-05-2.85703E-05-5.99011E-11 2.10755E-18-2.64482E-19
 -1      1265 9.52384E-05-2.85755E-05-2.85699E-05-5.55109E-11-2.98666E-18-1.18234E-18
 -1      1266 9.52388E-05-2.85766E-05-2.85695E-05-4.26501E-11-3.36095E-18 9.12060E-19
 -1      1267 9.52390E-05-2.85774E-05-2.85693E-05-2.27590E-11 8.73280E-19-4.69657E-19
 -1      1268 9.52391E-05-2.85776E-05-2.85692E-05 1.44424E-13 3.25286E-18 7.67755E-19
 -1      1269 9.52390E-05-2.85773E-05-2.85693E-05 2.30213E-11 4.27649E-18 5.28746E-20
 -1      1270 9.52388E-05-2.85766E-05-2.85695E-05 4.27750E-11-3.60422E-18-1.28716E-18
 -1      1271 9.52384E-05-2.85754E-05-2.85699E-05 5.62985E-11-1.43838E-17-9.85987E-19
 -1      1272 9.52380E-05-2.85741E-05-2.85703E-05 5.97957E-11-1.35035E-17 6.26494E-19
 -1      1273 9.52376E-05-2.85727E-05-2.85706E-05 5.08852E-11-3.14387E-18 8.93463E-19
 -1      1274 9.52373E-05-2.85716E-05-2.85709E-05 2.58288E-11 2.76577E-18 4.99714E-19
 -1      1275 9.52372E-05-2.85711E-05-2.85711E-05-6.58457E-11 5.51878E-19-1.84770E-18
 -1      1276 9.52371E-05-2.85710E-05-2.85712E-05-4.25422E-11-2.97333E-18 3.45262E-19
 -1      1277 3.60090E-05-1.13219E-04 1.92402E-05-1.55833E-05 1.77276E-17 2.68118E-18
 -1      1278 1.96916E-05-7.68461E-05 1.19023E-05-3.05587E-05 2.42074E-17 8.88453E-18
 -1      1279 8.10261E-06-2.11726E-05-3.41165E-06-1.11770E-05 2.30545E-17 1.35144E-17
 -1      1280 3.93488E-05 1.73351E-05-2.68932E-05 4.97862E-05 1.32730E-17 1.22803E-17
 -1      1281 1.29543E-04 4.75718E-06-5.22395E-05 1.08689E-04 5.39729E-18 7.74358E-18
 -1      1282 2.45842E-04-4.69916E-05-7.15970E-05 1.14707E-04 5.59889E-19-6.26804E-20
 -1      1283 3.34984E-04-9.53505E-05-8.38134E-05 5.56100E-05-5.40195E-19-9.61637E-18
 -1      1284 3.47197E-04-1.03580E-04-8.46256E-05-3.59756E-05 2.11192E-18-1.81108E-17
 -1      1285 2.63251E-04-5.83798E-05-7.35663E-05-1.02424E-04 6.98506E-18-2.21126E-17
 -1      1286 1.44315E-04-3.41364E-06-5.42287E-05-1.07488E-04 1.21083E-17-2.11267E-17
 -1      1287 5.14323E-05 1.89167E-05-3.21135E-05-6.15440E-05 1.47316E-17-1.71473E-17
 -1      1288 9.98959E-06-6.57800E-06-9.96128E-06-2.62682E-06 1.36576E-17-1.06193E-17
 -1      1289 1.29199E-05-5.82989E-05 7.39641E-06 2.88202E-05 8.73714E-18-4.55111E-18
 -1      1290 2.96086E-05-9.73395E-05 1.58956E-05 2.20758E-05 1.34297E-18-9.47168E-19
 -1      1291 3.12198E-05-9.62114E-05 1.57818E-05-3.20138E-06-6.57890E-18-9.76047E-19
 -1      1292 1.74685E-05-5.76380E-05 7.59347E-06-1.59926E-05-1.35136E-17-4.18604E-18
 -1      1293 6.98562E-06-3.57725E-06-7.40344E-06 3.58299E-06-1.62495E-17-8.84048E-18
 -1      1294 2.89712E-05 2.95155E-05-2.63150E-05 5.24089E-05-1.40811E-17-1.21659E-17
 -1      1295 9.44616E-05 2.15955E-05-4.58172E-05 1.00138E-04-9.64686E-18-1.26072E-17
 -1      1296 1.90957E-04-2.26019E-05-6.33168E-05 1.13269E-04-4.40754E-18-8.41273E-18
 -1      1297 2.80808E-04-7.49223E-05-7.56168E-05 7.31826E-05-6.53380E-19-4.67562E-19
 -1      1298 3.13726E-04-9.51096E-05-7.96345E-05-6.90140E-06-4.40881E-19 8.26895E-18
 -1      1299 2.73420E-04-6.87501E-05-7.48357E-05-8.24719E-05-3.52366E-18 1.36076E-17
 -1      1300 1.87448E-04-1.92330E-05-6.24789E-05-1.17737E-04-8.21791E-18 1.69864E-17
 -1      1301 9.18844E-05 2.24919E-05-4.45947E-05-9.93625E-05-1.21287E-17 1.59462E-17
 -1      1302 2.73427E-05 2.69234E-05-2.44678E-05-4.90864E-05-1.24006E-17 1.14222E-17
 -1      1303 7.55189E-06-9.68480E-06-5.51565E-06 1.99861E-07-7.70631E-18 4.93990E-18
 -1      1304 1.86406E-05-6.54708E-05 9.49855E-06 2.27380E-05-8.13999E-19 1.11194E-18
 -1      1305 3.46509E-05-1.07268E-04 1.80327E-05 1.17947E-05 8.54148E-18-3.30846E-19
 -1      1306 1.10892E-04-2.33086E-05-4.03300E-05-1.93486E-05-6.29134E-19 5.74288E-19
 -1      1307 9.58667E-05-7.04345E-06-3.82520E-05-2.35951E-05-8.91502E-19-5.00369E-18
 -1      1308 9.80933E-05-7.00583E-06-3.95448E-05-2.92497E-05-1.44821E-18-3.99757E-18
 -1      1309 9.21386E-05-4.91226E-06-3.74090E-05-1.89696E-05-4.79977E-19-6.07479E-18
 -1      1310 9.30295E-05-4.83936E-06-3.78453E-05-2.18435E-05-7.12249E-19-5.75559E-18
 -1      1311 9.82372E-05-1.16231E-05-3.72357E-05-2.22843E-05-1.44742E-18-4.30187E-18
 -1      1312 9.12428E-05-4.73636E-06-3.69911E-05-1.38808E-05-9.34383E-21-6.08434E-18
 -1      1313 9.15419E-05-4.64157E-06-3.72155E-05-1.65542E-05-2.07867E-19-6.17429E-18
 -1      1314 9.51637E-05-9.59331E-06-3.67683E-05-1.79234E-05-6.47041E-19-5.11491E-18
 -1      1315 9.06306E-05-5.06157E-06-3.65246E-05-8.33170E-06 3.44742E-19-5.69341E-18
 -1      1316 9.10437E-05-4.98701E-06-3.68021E-05-1.11887E-05 2.39896E-19-5.98844E-18
 -1      1317 9.44336E-05-9.52899E-06-3.64512E-05-1.28778E-05 1.12477E-19-5.12055E-18
 -1      1318 8.90567E-05-5.41243E-06-3.56711E-05-2.35059E-06 6.23257E-19-5.00983E-18
 -1      1319 9.00750E-05-5.37197E-06-3.61703E-05-5.36050E-06 5.50439E-19-5.36638E-18
 -1      1320 9.38120E-05-1.00504E-05-3.59403E-05-7.37698E-06 6.31713E-19-4.66755E-18
 -1      1321 8.55171E-05-5.41512E-06-3.41747E-05 3.99271E-06 8.50527E-19-4.29348E-18
 -1      1322 8.75659E-05-5.42930E-06-3.50186E-05 9.12488E-07 7.99758E-19-4.71546E-18
 -1      1323 9.18502E-05-1.03845E-05-3.49557E-05-1.35122E-06 1.14749E-18-4.06195E-18
 -1      1324 7.94346E-05-4.62102E-06-3.20025E-05 9.82852E-06 1.14942E-18-3.67252E-18
 -1      1325 8.26526E-05-4.71849E-06-3.31807E-05 7.17288E-06 1.06769E-18-3.98150E-18
 -1      1326 8.73824E-05-9.76685E-06-3.33218E-05 4.96502E-06 1.51299E-18-3.35867E-18
 -1      1327 7.11169E-05-2.73071E-06-2.94090E-05 1.38969E-05 1.35663E-18-3.29588E-18
 -1      1328 7.51557E-05-2.91766E-06-3.07508E-05 1.22871E-05 1.30920E-18-3.52527E-18
 -1      1329 7.97846E-05-7.47264E-06-3.10773E-05 1.06699E-05 2.02422E-18-2.91607E-18
 -1      1330 6.23660E-05 4.13261E-08-2.70161E-05 1.49004E-05 1.46891E-18-3.06592E-18
 -1      1331 6.61676E-05-1.90916E-07-2.81600E-05 1.48545E-05 1.46653E-18-3.22518E-18
 -1      1332 6.97292E-05-3.34014E-06-2.85608E-05 1.43889E-05 2.33625E-18-2.63209E-18
 -1      1333 5.64498E-05 2.72005E-06-2.57125E-05 1.24087E-05 1.52263E-18-2.84353E-18
 -1      1334 5.84245E-05 2.53560E-06-2.61867E-05 1.39095E-05 1.49480E-18-3.03086E-18
 -1      1335 5.98465E-05 1.62176E-06-2.64513E-05 1.48002E-05 2.48202E-18-2.53230E-18
 -1      1336 5.67023E-05 3.93277E-06-2.62809E-05 7.75492E-06 1.48114E-18-2.38085E-18
 -1      1337 5.55503E-05 3.88099E-06-2.57285E-05 9.94099E-06 1.46062E-18-2.70396E-18
 -1      1338 5.42759E-05 5.24216E-06-2.56073E-05 1.17864E-05 2.48305E-18-2.33551E-18
 -1      1339 6.47003E-05 2.88892E-06-2.90941E-05 3.38484E-06 1.47553E-18-1.49020E-18
 -1      1340 5.99888E-05 2.99765E-06-2.73819E-05 5.05602E-06 1.39485E-18-2.04581E-18
 -1      1341 5.65600E-05 5.47824E-06-2.66936E-05 7.02857E-06 2.37095E-18-1.79911E-18
 -1      1342 7.94262E-05-1.94064E-07-3.38854E-05 2.06294E-06 1.42471E-18 3.55754E-20
 -1      1343 7.19218E-05 3.10352E-08-3.12273E-05 1.99669E-06 1.35737E-18-8.79405E-19
 -1      1344 6.77604E-05 1.72139E-06-2.99147E-05 3.39977E-06 2.27772E-18-8.38655E-19
 -1      1345 9.84049E-05-4.61706E-06-3.99269E-05 5.49561E-06 1.30295E-18 2.58154E-18
 -1      1346 8.92542E-05-4.28419E-06-3.67114E-05 2.89252E-06 1.23646E-18 1.09826E-18
 -1      1347 8.60506E-05-5.06193E-06-3.48477E-05 3.32308E-06 2.06771E-18 9.25781E-19
 -1      1348 1.20663E-04-1.15143E-05-4.63720E-05 1.51344E-05 8.89808E-19 6.54778E-18
 -1      1349 1.10221E-04-1.03836E-05-4.29688E-05 8.56239E-06 9.55453E-19 4.21801E-18
 -1      1350 1.09077E-04-1.42841E-05-4.06346E-05 7.34975E-06 1.74886E-18 3.62191E-18
 -1      1351 1.61973E-04-3.43339E-05-5.11169E-05 2.51931E-05 2.11652E-19 1.24876E-17
 -1      1352 1.33422E-04-2.24596E-05-4.82137E-05 1.63250E-05 3.61895E-19 8.56986E-18
 -1      1353 1.34516E-04-2.86373E-05-4.52290E-05 1.12916E-05 1.26177E-18 7.22053E-18
 -1      1354 1.45877E-04-4.12419E-05-4.76683E-05 1.41631E-06 6.17963E-19 1.25369E-17
 -1      1355 1.10979E-04-3.19310E-05-3.54262E-05-9.60708E-06-1.36658E-18 1.47532E-18
 -1      1356 1.02655E-04-2.90843E-05-3.21735E-05-6.34963E-06-1.12692E-18-1.73006E-19
 -1      1357 9.89875E-05-2.89521E-05-3.02926E-05-3.98979E-06-9.48597E-19-6.46948E-19
 -1      1358 9.52775E-05-2.82368E-05-2.87863E-05-3.59899E-06-8.86473E-19-2.09635E-18
 -1      1359 1.03991E-04-2.94303E-05-3.23399E-05-1.07140E-05-2.02960E-18-1.60272E-18
 -1      1360 9.23916E-05-2.75331E-05-2.77748E-05-2.62304E-06-8.54127E-19-2.41341E-18
 -1      1361 8.99464E-05-2.68889E-05-2.69683E-05-2.58312E-06-7.52827E-19-3.59039E-18
 -1      1362 9.71197E-05-2.86217E-05-2.94621E-05-6.38042E-06-1.62921E-18-2.26452E-18
 -1      1363 8.78595E-05-2.62855E-05-2.63297E-05-2.15153E-06-5.25577E-19-3.96315E-18
 -1      1364 8.59166E-05-2.56908E-05-2.57665E-05-2.10643E-06-4.21449E-19-4.72574E-18
 -1      1365 9.24371E-05-2.75528E-05-2.78250E-05-4.75326E-06-1.24642E-18-2.79593E-18
 -1      1366 8.43348E-05-2.51890E-05-2.53134E-05-1.69763E-06-3.02725E-19-4.91932E-18
 -1      1367 8.28439E-05-2.47001E-05-2.48992E-05-1.59855E-06-2.62378E-19-5.26898E-18
 -1      1368 8.88323E-05-2.64617E-05-2.67500E-05-3.76551E-06-7.46487E-19-3.49148E-18
 -1      1369 8.17778E-05-2.43431E-05-2.46047E-05-1.01956E-06-3.36818E-19-5.53056E-18
 -1      1370 8.09432E-05-2.40594E-05-2.43769E-05-8.57049E-07-2.11355E-19-5.87427E-18
 -1      1371 8.61788E-05-2.55482E-05-2.60252E-05-2.57459E-06-6.07931E-19-3.92024E-18
 -1      1372 8.04996E-05-2.39026E-05-2.42604E-05-1.17361E-07-1.01035E-19-5.96660E-18
 -1      1373 8.05179E-05-2.39056E-05-2.42691E-05 8.04748E-08-2.27852E-19-6.32843E-18
 -1      1374 8.46431E-05-2.49826E-05-2.56261E-05-9.70858E-07-3.57316E-19-4.26712E-18
 -1      1375 8.07553E-05-2.39786E-05-2.43425E-05 8.45516E-07-4.35855E-19-6.37428E-18
 -1      1376 8.16627E-05-2.42861E-05-2.45970E-05 1.02893E-06-5.06479E-19-7.21566E-18
 -1      1377 8.44138E-05-2.48920E-05-2.55697E-05 8.64435E-07-6.71379E-19-4.54609E-18
 -1      1378 8.25113E-05-2.45658E-05-2.48414E-05 1.64340E-06-4.14192E-19-7.55343E-18
 -1      1379 8.41370E-05-2.51168E-05-2.52961E-05 1.76595E-06-2.17009E-19-8.00236E-18
 -1      1380 8.54870E-05-2.52965E-05-2.58437E-05 2.54539E-06-9.21492E-19-4.71736E-18
 -1      1381 8.53993E-05-2.55301E-05-2.56604E-05 2.10086E-06-8.84711E-20-8.21651E-18
 -1      1382 8.74192E-05-2.62082E-05-2.62279E-05 2.14022E-06 9.71606E-21-8.34272E-18
 -1      1383 8.75894E-05-2.60862E-05-2.63829E-05 3.69576E-06-4.08300E-19-5.12329E-18
 -1      1384 8.88343E-05-2.66610E-05-2.66428E-05 2.16388E-06 1.70304E-19-8.29481E-18
 -1      1385 9.08842E-05-2.73381E-05-2.72235E-05 2.12712E-06 1.91950E-19-8.10155E-18
 -1      1386 9.02502E-05-2.70634E-05-2.70795E-05 4.12115E-06 1.44242E-19-5.37998E-18
 -1      1387 9.22107E-05-2.77482E-05-2.76214E-05 1.89978E-06 4.00306E-20-7.86450E-18
 -1      1388 9.39943E-05-2.83248E-05-2.81319E-05 1.81354E-06-4.55859E-20-7.82856E-18
 -1      1389 9.29584E-05-2.80208E-05-2.78108E-05 3.86228E-06 2.20516E-19-5.59734E-18
 -1      1390 9.50674E-05-2.86420E-05-2.84629E-05 1.44370E-06-5.75387E-21-7.64459E-18
 -1      1391 9.64145E-05-2.90656E-05-2.88531E-05 1.33913E-06 1.05638E-19-7.64290E-18
 -1      1392 9.53079E-05-2.88079E-05-2.84707E-05 3.13029E-06 1.37127E-19-5.25665E-18
 -1      1393 9.71624E-05-2.92738E-05-2.90919E-05 9.34847E-07-5.36939E-20-7.49418E-18
 -1      1394 9.80303E-05-2.95364E-05-2.93471E-05 8.36387E-07-1.23882E-19-7.53748E-18
 -1      1395 9.70698E-05-2.93557E-05-2.89899E-05 2.19074E-06-4.36520E-20-5.00631E-18
 -1      1396 9.84582E-05-2.96441E-05-2.94909E-05 4.75201E-07-1.24530E-19-7.66653E-18
 -1      1397 9.88966E-05-2.97675E-05-2.96229E-05 3.96551E-07-5.90805E-20-7.62004E-18
 -1      1398 9.81874E-05-2.96650E-05-2.93406E-05 1.26778E-06-1.06015E-19-4.89846E-18
 -1      1399 9.90570E-05-2.97960E-05-2.96842E-05 1.17860E-07-3.13286E-20-7.63895E-18
 -1      1400 9.91634E-05-2.98153E-05-2.97195E-05 6.32102E-08 8.97094E-20-7.63793E-18
 -1      1401 9.87264E-05-2.97780E-05-2.95300E-05 5.00352E-07-1.21622E-19-4.95383E-18
 -1      1402 9.91279E-05-2.97891E-05-2.97185E-05-1.24590E-07 1.01643E-19-7.46580E-18
 -1      1403 9.90103E-05-2.97409E-05-2.96875E-05-1.57160E-07-1.50639E-19-7.55534E-18
 -1      1404 9.88149E-05-2.97514E-05-2.95862E-05-5.63802E-08 4.28645E-20-4.86025E-18
 -1      1405 9.88500E-05-2.96820E-05-2.96454E-05-2.64596E-07-4.78325E-19-7.97006E-18
 -1      1406 9.86039E-05-2.95973E-05-2.95757E-05-2.79828E-07-5.56506E-19-8.52446E-18
 -1      1407 9.85960E-05-2.96393E-05-2.95463E-05-4.06792E-07-6.49405E-19-5.32626E-18
 -1      1408 9.83781E-05-2.95231E-05-2.95110E-05-3.25552E-07-1.48618E-19-8.73313E-18
 -1      1409 9.80772E-05-2.94245E-05-2.94241E-05-3.28739E-07-2.67320E-19-9.04915E-18
 -1      1410 9.81978E-05-2.94845E-05-2.94463E-05-5.86967E-07-7.17331E-19-5.65391E-18
 -1      1411 9.78299E-05-2.93473E-05-2.93509E-05-3.32324E-07 3.38695E-20-9.03341E-18
 -1      1412 9.75241E-05-2.92498E-05-2.92617E-05-3.28108E-07-1.24440E-19-9.07091E-18
 -1      1413 9.77210E-05-2.93176E-05-2.93163E-05-6.43217E-07-2.98049E-19-6.36788E-18
 -1      1414 9.72846E-05-2.91772E-05-2.91895E-05-3.06314E-07 4.58128E-20-8.29331E-18
 -1      1415 9.70039E-05-2.90895E-05-2.91072E-05-2.98239E-07 2.41806E-19-8.00719E-18
 -1      1416 9.72356E-05-2.91579E-05-2.91783E-05-6.19200E-07 1.75216E-19-6.10869E-18
 -1      1417 9.67890E-05-2.90256E-05-2.90417E-05-2.63721E-07-6.89207E-20-7.62793E-18
 -1      1418 9.65485E-05-2.89515E-05-2.89707E-05-2.54229E-07-7.97108E-20-7.86417E-18
 -1      1419 9.67854E-05-2.90160E-05-2.90469E-05-5.50097E-07 2.02149E-19-4.92565E-18
 -1      1420 9.63662E-05-2.88981E-05-2.89148E-05-2.15625E-07-1.17048E-19-7.71086E-18
 -1      1421 9.61705E-05-2.88386E-05-2.88568E-05-2.06236E-07 2.12422E-20-8.00083E-18
 -1      1422 9.63935E-05-2.88965E-05-2.89304E-05-4.61298E-07-1.30047E-19-4.58772E-18
 -1      1423 9.60224E-05-2.87957E-05-2.88111E-05-1.68879E-07 4.35986E-19-7.73123E-18
 -1      1424 9.58700E-05-2.87500E-05-2.87658E-05-1.60429E-07 3.44658E-19-7.35170E-18
 -1      1425 9.60685E-05-2.87999E-05-2.88323E-05-3.69422E-07 1.85934E-19-3.82487E-18
 -1      1426 9.57543E-05-2.87167E-05-2.87300E-05-1.27199E-07 2.93634E-19-7.14647E-18
 -1      1427 9.56403E-05-2.86829E-05-2.86959E-05-1.20058E-07 4.45987E-19-6.70304E-18
 -1      1428 9.58095E-05-2.87247E-05-2.87532E-05-2.84210E-07 6.55106E-19-3.56284E-18
 -1      1429 9.55530E-05-2.86580E-05-2.86688E-05-9.21692E-08-2.92653E-19-6.53591E-18
 -1      1430 9.54710E-05-2.86340E-05-2.86442E-05-8.64153E-08-3.10915E-19-7.27606E-18
 -1      1431 9.56103E-05-2.86680E-05-2.86917E-05-2.10499E-07 9.85908E-20-3.15345E-18
 -1      1432 9.54075E-05-2.86160E-05-2.86245E-05-6.40389E-08-5.94558E-19-7.15895E-18
 -1      1433 9.53511E-05-2.85997E-05-2.86075E-05-5.95824E-08-7.25924E-19-7.53907E-18
 -1      1434 9.54624E-05-2.86267E-05-2.86456E-05-1.49904E-07-8.27034E-19-3.55768E-18
 -1      1435 9.53066E-05-2.85872E-05-2.85936E-05-4.23020E-08 2.05178E-19-7.68786E-18
 -1      1436 9.52699E-05-2.85768E-05-2.85825E-05-3.89727E-08 5.21406E-19-7.29223E-18
 -1      1437 9.53565E-05-2.85978E-05-2.86122E-05-1.02099E-07-2.56664E-19-3.38236E-18
 -1      1438 9.52401E-05-2.85685E-05-2.85732E-05-2.60903E-08 1.41563E-20-7.09397E-18
 -1      1439 9.52179E-05-2.85625E-05-2.85664E-05-2.36905E-08 1.53690E-19-6.54281E-18
 -1      1440 9.52835E-05-2.85783E-05-2.85889E-05-6.57312E-08 5.14442E-19-3.78233E-18
 -1      1441 9.51991E-05-2.85572E-05-2.85605E-05-1.44213E-08-2.88595E-19-6.48081E-18
 -1      1442 9.51874E-05-2.85542E-05-2.85569E-05-1.27575E-08-5.20748E-19-6.83384E-18
 -1      1443 9.52358E-05-2.85660E-05-2.85735E-05-3.90088E-08-2.88885E-19-3.91098E-18
 -1      1444 9.51766E-05-2.85513E-05-2.85535E-05-6.34235E-09 2.83121E-20-7.38902E-18
 -1      1445 9.51720E-05-2.85503E-05-2.85520E-05-5.24138E-09 3.41616E-19-7.02164E-18
 -1      1446 9.52068E-05-2.85588E-05-2.85639E-05-2.00731E-08-9.18775E-19-4.34368E-18
 -1      1447 9.51668E-05-2.85489E-05-2.85504E-05-1.00517E-09 4.24502E-19-7.38081E-18
 -1      1448 9.51669E-05-2.85493E-05-2.85502E-05-3.20790E-10 2.71352E-19-6.68194E-18
 -1      1449 9.51910E-05-2.85552E-05-2.85585E-05-7.19882E-09 5.13052E-19-4.06275E-18
 -1      1450 9.51654E-05-2.85490E-05-2.85498E-05 2.30444E-09-3.03368E-21-6.69707E-18
 -1      1451 9.51683E-05-2.85501E-05-2.85505E-05 2.69047E-09 3.24333E-19-6.70729E-18
 -1      1452 9.51844E-05-2.85541E-05-2.85561E-05 1.10914E-09 3.91954E-19-4.32892E-18
 -1      1453 9.51692E-05-2.85504E-05-2.85508E-05 4.16313E-09-8.57900E-20-6.24825E-18
 -1      1454 9.51736E-05-2.85519E-05-2.85520E-05 4.34312E-09-3.78139E-19-6.71157E-18
 -1      1455 9.51838E-05-2.85545E-05-2.85555E-05 6.08521E-09 3.19204E-20-4.08589E-18
 -1      1456 9.51759E-05-2.85526E-05-2.85528E-05 5.02077E-09 8.57358E-20-6.92937E-18
 -1      1457 9.51809E-05-2.85543E-05-2.85542E-05 5.06462E-09 8.47738E-19-6.66493E-18
 -1      1458 9.51868E-05-2.85558E-05-2.85562E-05 8.71107E-09 4.95034E-20-4.18108E-18
 -1      1459 9.51839E-05-2.85552E-05-2.85551E-05 5.21783E-09 1.56644E-18-6.68109E-18
 -1      1460 9.51890E-05-2.85568E-05-2.85566E-05 5.17693E-09 9.49219E-19-5.33171E-18
 -1      1461 9.51919E-05-2.85576E-05-2.85576E-05 9.74270E-09 1.52186E-18-4.82450E-18
 -1      1462 9.51922E-05-2.85577E-05-2.85576E-05 5.00453E-09 6.58409E-19-5.05285E-18
 -1      1463 9.51970E-05-2.85593E-05-2.85590E-05 4.91556E-09 4.61395E-19-3.73553E-18
 -1      1464 9.51980E-05-2.85596E-05-2.85593E-05 9.74542E-09 1.26458E-18-4.23857E-18
 -1      1465 9.52002E-05-2.85602E-05-2.85600E-05 4.55926E-09 6.02775E-20-2.81875E-18
 -1      1466 9.52045E-05-2.85615E-05-2.85613E-05 4.44748E-09 1.58651E-19-3.37269E-18
 -1      1467 9.52042E-05-2.85615E-05-2.85611E-05 9.12966E-09 2.69851E-19-2.57853E-18
 -1      1468 9.52075E-05-2.85624E-05-2.85622E-05 4.00479E-09-1.80505E-19-3.73553E-18
 -1      1469 9.52112E-05-2.85635E-05-2.85633E-05 3.88689E-09-1.02508E-18-4.59844E-18
 -1      1470 9.52101E-05-2.85633E-05-2.85629E-05 8.18402E-09-4.43842E-19-3.22467E-18
 -1      1471 9.52139E-05-2.85643E-05-2.85641E-05 3.42195E-09-1.15570E-18-3.84821E-18
 -1      1472 9.52170E-05-2.85653E-05-2.85650E-05 3.30827E-09-9.77177E-19-5.65238E-18
 -1      1473 9.52155E-05-2.85649E-05-2.85645E-05 7.10380E-09-1.21225E-18-2.60288E-18
 -1      1474 9.52193E-05-2.85659E-05-2.85657E-05 2.86055E-09-8.32099E-19-5.55566E-18
 -1      1475 9.52220E-05-2.85667E-05-2.85665E-05 2.75688E-09 5.93545E-19-5.71994E-18
 -1      1476 9.52202E-05-2.85663E-05-2.85659E-05 6.01437E-09-1.23620E-18-3.09027E-18
 -1      1477 9.52238E-05-2.85673E-05-2.85671E-05 2.34785E-09 1.16063E-18-5.08682E-18
 -1      1478 9.52260E-05-2.85679E-05-2.85678E-05 2.25668E-09 6.45519E-19-4.93643E-18
 -1      1479 9.52243E-05-2.85675E-05-2.85672E-05 4.98977E-09 8.67177E-19-2.93372E-18
 -1      1480 9.52276E-05-2.85684E-05-2.85682E-05 1.89479E-09 8.33008E-20-4.20618E-18
 -1      1481 9.52293E-05-2.85689E-05-2.85688E-05 1.81626E-09 1.15108E-18-3.85388E-18
 -1      1482 9.52276E-05-2.85685E-05-2.85682E-05 4.06665E-09 1.02038E-18-2.71927E-18
 -1      1483 9.52306E-05-2.85693E-05-2.85691E-05 1.50024E-09 1.49121E-18-5.15959E-18
 -1      1484 9.52320E-05-2.85697E-05-2.85696E-05 1.43258E-09 8.94846E-19-4.07415E-18
 -1      1485 9.52304E-05-2.85693E-05-2.85690E-05 3.25437E-09 1.01330E-18-2.67477E-18
 -1      1486 9.52330E-05-2.85700E-05-2.85699E-05 1.15373E-09 6.73199E-19-3.99259E-18
 -1      1487 9.52340E-05-2.85703E-05-2.85702E-05 1.09361E-09 8.83250E-19-2.66436E-18
 -1      1488 9.52326E-05-2.85699E-05-2.85697E-05 2.54161E-09 1.33791E-18-3.84208E-18
 -1      1489 9.52348E-05-2.85705E-05-2.85704E-05 8.37321E-10 1.10113E-18-2.64059E-18
 -1      1490 9.52355E-05-2.85707E-05-2.85706E-05 7.79719E-10 6.73264E-19-2.46323E-18
 -1      1491 9.52343E-05-2.85704E-05-2.85702E-05 1.90145E-09 1.42503E-18-2.60071E-18
 -1      1492 9.52361E-05-2.85709E-05-2.85708E-05 5.29922E-10 5.45334E-19-1.93401E-18
 -1      1493 9.52365E-05-2.85710E-05-2.85709E-05 4.68658E-10 1.40396E-18-1.05919E-18
 -1      1494 9.52356E-05-2.85708E-05-2.85706E-05 1.29659E-09 1.40889E-18-2.99814E-18
 -1      1495 9.52369E-05-2.85711E-05-2.85710E-05 2.16861E-10 1.81133E-18-1.11286E-18
 -1      1496 9.52370E-05-2.85712E-05-2.85711E-05 1.50595E-10 1.12263E-18 6.79722E-19
 -1      1497 9.52365E-05-2.85711E-05-2.85709E-05 7.03250E-10 2.26529E-18-2.39239E-18
 -1      1498 9.52372E-05-2.85711E-05-2.85712E-05-5.13388E-11-1.33420E-18 7.95290E-19
 -1      1499 9.52370E-05-2.85712E-05-2.85711E-05 1.20616E-10 1.87599E-19-2.60135E-18
 -1      1500 1.48038E-04-4.40396E-05-4.49644E-05-1.52116E-06 4.42204E-19 1.14139E-17
 -1      1501 1.48752E-04-4.32305E-05-4.59577E-05-3.07685E-07 4.39134E-19 1.20656E-17
 -1      1502 1.43017E-04-3.94115E-05-4.48597E-05 4.47353E-06 8.53915E-19 8.79628E-18
 -1      1503 1.50378E-04-4.54459E-05-4.48209E-05-2.05620E-06 1.37246E-19 1.07833E-17
 -1      1504 1.48363E-04-4.42990E-05-4.47135E-05-2.06290E-06 2.03526E-19 1.11000E-17
 -1      1505 1.43088E-04-4.25813E-05-4.32235E-05-2.48702E-06 4.76985E-19 8.14803E-18
 -1      1506 1.51273E-04-4.64367E-05-4.44778E-05 6.30318E-07-9.28428E-20 1.09739E-17
 -1      1507 1.51073E-04-4.62580E-05-4.47389E-05-3.18236E-07-1.46312E-19 1.06424E-17
 -1      1508 1.44912E-04-4.45359E-05-4.28142E-05-1.67340E-06-6.22966E-20 7.73855E-18
 -1      1509 1.44666E-04-4.47985E-05-4.23285E-05 6.64997E-06-2.06722E-19 1.17185E-17
 -1      1510 1.49976E-04-4.68920E-05-4.38861E-05 4.53547E-06-2.77483E-19 1.11436E-17
 -1      1511 1.45393E-04-4.61129E-05-4.21258E-05 5.38857E-06-5.41201E-19 7.89369E-18
 -1      1512 1.27584E-04-3.85376E-05-3.83685E-05 1.25509E-05-3.16049E-20 1.22540E-17
 -1      1513 1.39733E-04-4.34881E-05-4.11703E-05 1.04356E-05-1.71915E-19 1.18538E-17
 -1      1514 1.40469E-04-4.47407E-05-4.07389E-05 1.60545E-05-4.34925E-19 8.39643E-18
 -1      1515 1.07361E-04-3.00981E-05-3.45198E-05 1.08367E-05 4.29340E-20 1.23720E-17
 -1      1516 1.20684E-04-3.53117E-05-3.72015E-05 1.11779E-05-1.25308E-19 1.20406E-17
 -1      1517 1.29234E-04-3.82225E-05-3.93302E-05 2.07490E-05-2.79627E-19 8.55503E-18
 -1      1518 1.00451E-04-2.70964E-05-3.31753E-05-6.93691E-07 1.08971E-18 1.06573E-17
 -1      1519 1.04111E-04-2.78101E-05-3.39937E-05 2.64988E-06 6.84614E-19 1.15896E-17
 -1      1520 1.18640E-04-3.04946E-05-3.87108E-05 9.86047E-06 9.51853E-19 7.41047E-18
 -1      1521 1.11482E-04-3.20306E-05-3.49850E-05-1.05611E-05 8.82979E-19 8.07985E-18
 -1      1522 1.03626E-04-2.80945E-05-3.35188E-05-7.80324E-06 1.13195E-18 9.44516E-18
 -1      1523 1.18568E-04-3.04330E-05-3.87701E-05-9.26971E-06 1.98290E-18 6.13699E-18
 -1      1524 1.30444E-04-3.99053E-05-3.86108E-05-1.19655E-05 9.09555E-19 5.40619E-18
 -1      1525 1.17492E-04-3.47721E-05-3.59051E-05-1.14471E-05 9.30625E-19 6.89612E-18
 -1      1526 1.27659E-04-3.71953E-05-3.93233E-05-1.95083E-05 2.01297E-18 3.69200E-18
 -1      1527 1.44107E-04-4.47256E-05-4.19020E-05-5.97247E-06 2.57286E-20 4.16401E-18
 -1      1528 1.34683E-04-4.17315E-05-3.96009E-05-7.33490E-06 2.47148E-19 4.66673E-18
 -1      1529 1.37327E-04-4.37598E-05-4.02074E-05-1.56009E-05 9.22545E-19 2.35676E-18
 -1      1530 1.46408E-04-4.48996E-05-4.30070E-05 4.59198E-07 1.64152E-19 4.08312E-18
 -1      1531 1.44267E-04-4.47570E-05-4.22509E-05-1.01880E-06 1.38702E-20 4.15745E-18
 -1      1532 1.40664E-04-4.52376E-05-4.07992E-05-4.68229E-06 1.22820E-19 1.62000E-18
 -1      1533 1.40865E-04-4.25877E-05-4.19571E-05 3.90777E-06-1.05800E-19 4.12055E-18
 -1      1534 1.43813E-04-4.39779E-05-4.25660E-05 3.09477E-06 9.27104E-20 4.30257E-18
 -1      1535 1.37535E-04-4.29686E-05-4.04227E-05 4.07494E-06-7.12037E-21 2.48137E-18
 -1      1536 1.32230E-04-3.96242E-05-3.97252E-05 4.78910E-06-4.26163E-21 4.45550E-18
 -1      1537 1.37176E-04-4.13937E-05-4.10133E-05 4.54140E-06-1.53277E-19 4.18678E-18
 -1      1538 1.31042E-04-3.97829E-05-3.90579E-05 8.05207E-06 8.75488E-21 2.30393E-18
 -1      1539 1.23548E-04-3.68878E-05-3.72386E-05 4.35797E-06-8.27727E-20 5.62949E-18
 -1      1540 1.28523E-04-3.84808E-05-3.86394E-05 4.39999E-06-3.00435E-19 5.20920E-18
 -1      1541 1.23736E-04-3.69442E-05-3.71819E-05 8.57236E-06-7.09589E-19 2.90890E-18
 -1      1542 1.16147E-04-3.46583E-05-3.50172E-05 3.49923E-06-2.46235E-19 5.76237E-18
 -1      1543 1.20329E-04-3.59141E-05-3.62409E-05 3.64107E-06 1.04026E-20 5.64532E-18
 -1      1544 1.17019E-04-3.47178E-05-3.52735E-05 7.46289E-06-2.15464E-19 3.05981E-18
 -1      1545 1.10338E-04-3.29484E-05-3.32363E-05 2.63886E-06 1.92515E-19 5.96630E-18
 -1      1546 1.13562E-04-3.38788E-05-3.41983E-05 2.79050E-06 3.70577E-22 5.91311E-18
 -1      1547 1.11438E-04-3.30420E-05-3.36042E-05 5.90242E-06-1.47106E-19 3.80260E-18
 -1      1548 1.05979E-04-3.16794E-05-3.18891E-05 1.92490E-06-1.90384E-20 5.16425E-18
 -1      1549 1.08354E-04-3.23478E-05-3.26043E-05 2.05416E-06 4.55016E-19 5.86445E-18
 -1      1550 1.07064E-04-3.17990E-05-3.22619E-05 4.43588E-06 3.60485E-19 4.34198E-18
 -1      1551 1.02790E-04-3.07553E-05-3.09019E-05 1.37914E-06 1.58845E-19 4.75162E-18
 -1      1552 1.04498E-04-3.12280E-05-3.14180E-05 1.47975E-06-1.08913E-19 4.75219E-18
 -1      1553 1.03752E-04-3.08838E-05-3.12337E-05 3.24117E-06 1.32905E-19 4.16044E-18
 -1      1554 1.00491E-04-3.00901E-05-3.01909E-05 9.78339E-07-1.71574E-19 4.49369E-18
 -1      1555 1.01703E-04-3.04217E-05-3.05575E-05 1.05342E-06 2.39452E-19 4.77028E-18
 -1      1556 1.01297E-04-3.02140E-05-3.04680E-05 2.33108E-06 2.97633E-19 3.60042E-18
 -1      1557 9.88491E-05-2.96148E-05-2.96838E-05 6.89748E-07-4.15903E-19 4.84796E-18
 -1      1558 9.97027E-05-2.98463E-05-2.99420E-05 7.44656E-07-5.31966E-19 4.43686E-18
 -1      1559 9.95027E-05-2.97263E-05-2.99073E-05 1.66102E-06-3.89013E-19 3.76085E-18
 -1      1560 9.76816E-05-2.92768E-05-2.93243E-05 4.83747E-07 8.84140E-20 5.26154E-18
 -1      1561 9.82811E-05-2.94379E-05-2.95053E-05 5.23504E-07 9.53350E-20 5.17814E-18
 -1      1562 9.82025E-05-2.93729E-05-2.95010E-05 1.17619E-06-3.57009E-19 3.06368E-18
 -1      1563 9.68253E-05-2.90288E-05-2.90604E-05 3.30997E-07 7.10018E-19 3.93759E-18
 -1      1564 9.72577E-05-2.91447E-05-2.91913E-05 3.61670E-07 6.04523E-19 5.02601E-18
 -1      1565 9.72494E-05-2.91130E-05-2.92030E-05 8.22096E-07 8.32379E-19 3.30798E-18
 -1      1566 9.62605E-05-2.88649E-05-2.88868E-05 2.28923E-07-4.95359E-19 3.86142E-18
 -1      1567 9.65432E-05-2.89395E-05-2.89723E-05 2.49402E-07-3.85279E-19 3.44829E-18
 -1      1568 9.65722E-05-2.89292E-05-2.89917E-05 5.68672E-07 3.91796E-19 2.71673E-18
 -1      1569 9.58680E-05-2.87511E-05-2.87662E-05 1.56311E-07-1.05155E-20 5.59693E-18
 -1      1570 9.60613E-05-2.88017E-05-2.88248E-05 1.71150E-07-1.98865E-19 4.87335E-18
 -1      1571 9.61075E-05-2.88023E-05-2.88465E-05 3.93667E-07-5.64926E-19 3.64861E-18
 -1      1572 9.55995E-05-2.86734E-05-2.86838E-05 1.04832E-07 4.85864E-19 4.20292E-18
 -1      1573 9.57297E-05-2.87070E-05-2.87233E-05 1.15576E-07 5.05693E-19 4.57994E-18
 -1      1574 9.57820E-05-2.87136E-05-2.87448E-05 2.68917E-07 4.76191E-19 4.58605E-18
 -1      1575 9.54195E-05-2.86214E-05-2.86284E-05 6.85031E-08-3.88013E-19 4.34384E-18
 -1      1576 9.55051E-05-2.86430E-05-2.86545E-05 7.62565E-08 9.38862E-20 3.56352E-18
 -1      1577 9.55572E-05-2.86525E-05-2.86744E-05 1.80213E-07 4.50256E-19 3.26318E-18
 -1      1578 9.53022E-05-2.85876E-05-2.85923E-05 4.30574E-08-2.42926E-19 3.83494E-18
 -1      1579 9.53566E-05-2.86009E-05-2.86089E-05 4.86233E-08-3.58471E-20 3.74023E-18
 -1      1580 9.54050E-05-2.86113E-05-2.86266E-05 1.17473E-07 1.34045E-19 1.81634E-18
 -1      1581 9.52288E-05-2.85666E-05-2.85697E-05 2.54445E-08-7.24119E-19 5.46514E-18
 -1      1582 9.52615E-05-2.85742E-05-2.85797E-05 2.94058E-08-9.50688E-19 3.77933E-18
 -1      1583 9.53046E-05-2.85844E-05-2.85950E-05 7.34800E-08-1.25813E-18 2.86373E-18
 -1      1584 9.51858E-05-2.85544E-05-2.85564E-05 1.34649E-08 3.67312E-19 6.13324E-18
 -1      1585 9.52038E-05-2.85582E-05-2.85619E-05 1.62486E-08 6.21544E-20 5.70947E-18
 -1      1586 9.52410E-05-2.85676E-05-2.85748E-05 4.30322E-08-5.47024E-19 2.51465E-18
 -1      1587 9.51636E-05-2.85483E-05-2.85494E-05 5.52102E-09-2.13234E-19 5.85997E-18
 -1      1588 9.51717E-05-2.85495E-05-2.85520E-05 7.44253E-09 2.21723E-19 6.24696E-18
 -1      1589 9.52030E-05-2.85579E-05-2.85626E-05 2.23518E-08 4.18357E-19 3.08885E-18
 -1      1590 9.51550E-05-2.85460E-05-2.85466E-05 4.46087E-10 8.20076E-19 4.71891E-18
 -1      1591 9.51568E-05-2.85457E-05-2.85473E-05 1.73986E-09 2.15492E-19 5.39735E-18
 -1      1592 9.51826E-05-2.85529E-05-2.85559E-05 8.67870E-09 1.78233E-19 3.63306E-18
 -1      1593 9.51552E-05-2.85463E-05-2.85465E-05-2.61425E-09 2.50541E-19 2.44267E-18
 -1      1594 9.51530E-05-2.85451E-05-2.85460E-05-1.77323E-09 5.87709E-19 3.48127E-18
 -1      1595 9.51740E-05-2.85511E-05-2.85528E-05-1.16986E-11 1.14808E-18 3.34482E-18
 -1      1596 9.51605E-05-2.85481E-05-2.85481E-05-4.28498E-09 9.83469E-20 3.32818E-18
 -1      1597 9.51561E-05-2.85464E-05-2.85468E-05-3.76615E-09-5.74588E-19 1.86438E-18
 -1      1598 9.51728E-05-2.85513E-05-2.85522E-05-5.20635E-09 2.61436E-19 2.21645E-18
 -1      1599 9.51686E-05-2.85506E-05-2.85505E-05-5.02095E-09 6.94851E-19 1.57815E-18
 -1      1600 9.51632E-05-2.85487E-05-2.85489E-05-4.72750E-09 4.97340E-19 2.73775E-18
 -1      1601 9.51763E-05-2.85527E-05-2.85531E-05-7.99482E-09 5.65905E-19 8.95413E-19
 -1      1602 9.51779E-05-2.85534E-05-2.85532E-05-5.16073E-09 3.98048E-19 1.32612E-18
 -1      1603 9.51721E-05-2.85516E-05-2.85516E-05-5.01100E-09 4.14640E-19 2.13041E-18
 -1      1604 9.51823E-05-2.85547E-05-2.85547E-05-9.17233E-09 8.64289E-19 1.36125E-18
 -1      1605 9.51877E-05-2.85564E-05-2.85562E-05-4.90124E-09-2.28911E-18 2.75433E-18
 -1      1606 9.51819E-05-2.85546E-05-2.85545E-05-4.85519E-09-8.19055E-19 1.71058E-18
 -1      1607 9.51896E-05-2.85570E-05-2.85568E-05-9.29276E-09-6.42308E-19 1.81620E-18
 -1      1608 9.51965E-05-2.85591E-05-2.85588E-05-4.43598E-09 1.08530E-18 4.35161E-18
 -1      1609 9.51915E-05-2.85575E-05-2.85573E-05-4.46169E-09-3.61516E-19 2.89893E-18
 -1      1610 9.51971E-05-2.85594E-05-2.85591E-05-8.78010E-09-1.05424E-18 1.45102E-18
 -1      1611 9.52045E-05-2.85615E-05-2.85612E-05-3.88900E-09 2.52764E-18 7.96924E-20
 -1      1612 9.52000E-05-2.85601E-05-2.85599E-05-3.94913E-09 2.36515E-18 3.92774E-18
 -1      1613 9.52042E-05-2.85615E-05-2.85612E-05-7.92553E-09 2.51976E-18 1.67315E-18
 -1      1614 9.52115E-05-2.85636E-05-2.85633E-05-3.32155E-09 7.18730E-19-3.79922E-18
 -1      1615 9.52077E-05-2.85624E-05-2.85622E-05-3.39878E-09 1.44611E-18-1.93283E-18
 -1      1616 9.52106E-05-2.85634E-05-2.85631E-05-6.92497E-09 3.48993E-18-2.34410E-19
 -1      1617 9.52174E-05-2.85653E-05-2.85651E-05-2.77838E-09-1.90897E-18-2.27089E-18
 -1      1618 9.52142E-05-2.85644E-05-2.85642E-05-2.86061E-09-1.14634E-18-3.29459E-18
 -1      1619 9.52162E-05-2.85651E-05-2.85648E-05-5.90018E-09-8.42001E-19-1.64696E-18
 -1      1620 9.52224E-05-2.85668E-05-2.85666E-05-2.28414E-09-2.48580E-18 2.55926E-18
 -1      1621 9.52197E-05-2.85660E-05-2.85659E-05-2.36393E-09-1.76405E-18-4.81757E-19
 -1      1622 9.52210E-05-2.85665E-05-2.85662E-05-4.92596E-09-3.11084E-18-2.65448E-19
 -1      1623 9.52265E-05-2.85680E-05-2.85679E-05-1.84923E-09-3.03933E-19 7.70969E-18
 -1      1624 9.52243E-05-2.85674E-05-2.85672E-05-1.92260E-09-1.22122E-18 5.03150E-18
 -1      1625 9.52251E-05-2.85677E-05-2.85674E-05-4.04248E-09-3.01455E-18 3.23550E-18
 -1      1626 9.52297E-05-2.85690E-05-2.85689E-05-1.47374E-09 2.06993E-19 7.82577E-18
 -1      1627 9.52280E-05-2.85685E-05-2.85684E-05-1.53934E-09-4.11725E-20 7.09584E-18
 -1      1628 9.52284E-05-2.85687E-05-2.85685E-05-3.26477E-09-7.85340E-19 5.21687E-18
 -1      1629 9.52323E-05-2.85698E-05-2.85697E-05-1.14983E-09 1.17050E-18 6.35433E-18
 -1      1630 9.52310E-05-2.85694E-05-2.85693E-05-1.20860E-09 6.62223E-19 7.03938E-18
 -1      1631 9.52311E-05-2.85695E-05-2.85693E-05-2.58934E-09 8.20966E-19 4.36171E-18
 -1      1632 9.52343E-05-2.85703E-05-2.85703E-05-8.62952E-10 8.30113E-19 4.25405E-18
 -1      1633 9.52333E-05-2.85701E-05-2.85700E-05-9.18076E-10 5.17445E-19 5.62576E-18
 -1      1634 9.52332E-05-2.85701E-05-2.85699E-05-1.99832E-09 9.35881E-19 4.74821E-18
 -1      1635 9.52358E-05-2.85708E-05-2.85707E-05-5.93053E-10-1.16127E-18 4.66120E-18
 -1      1636 9.52350E-05-2.85706E-05-2.85705E-05-6.50030E-10 5.53683E-19 4.56201E-18
 -1      1637 9.52348E-05-2.85706E-05-2.85704E-05-1.46205E-09 7.74274E-19 4.94678E-18
 -1      1638 9.52367E-05-2.85711E-05-2.85710E-05-3.18355E-10-2.77045E-19 5.63630E-18
 -1      1639 9.52363E-05-2.85709E-05-2.85708E-05-3.86021E-10-6.99113E-19 4.24331E-18
 -1      1640 9.52360E-05-2.85709E-05-2.85707E-05-9.46464E-10-8.68021E-19 5.30062E-18
 -1      1641 9.52371E-05-2.85712E-05-2.85711E-05-5.33835E-11 3.71773E-20 4.76875E-18
 -1      1642 9.52370E-05-2.85712E-05-2.85711E-05-1.24510E-10 1.93800E-19 4.83945E-18
 -1      1643 9.52367E-05-2.85711E-05-2.85710E-05-4.29191E-10 1.13863E-20 2.39071E-18
 -1      1644 9.52372E-05-2.85711E-05-2.85712E-05 3.65447E-11 3.77330E-18 3.81613E-18
 -1      1645 9.52371E-05-2.85714E-05-2.85710E-05-2.34913E-10 2.99821E-18-8.09764E-19
 -1      1646 9.52371E-05-2.85713E-05-2.85711E-05-1.67256E-10 4.74728E-18-5.55742E-19
 -1      1647 9.52374E-05-2.85722E-05-2.85708E-05-5.07017E-10 3.04615E-18-5.18597E-19
 -1      1648 9.52373E-05-2.85718E-05-2.85709E-05-4.56223E-10 3.50968E-18-7.29777E-19
 -1      1649 9.52372E-05-2.85718E-05-2.85709E-05-6.90306E-10 1.12799E-18-1.25856E-18
 -1      1650 9.52377E-05-2.85732E-05-2.85705E-05-6.82356E-10 2.10268E-18-2.66859E-19
 -1      1651 9.52375E-05-2.85726E-05-2.85707E-05-6.56549E-10 3.42030E-18-5.24419E-19
 -1      1652 9.52375E-05-2.85726E-05-2.85707E-05-1.13612E-09 1.79691E-18-7.17409E-19
 -1      1653 9.52381E-05-2.85744E-05-2.85702E-05-7.31224E-10 1.50177E-18-3.29766E-19
 -1      1654 9.52379E-05-2.85738E-05-2.85704E-05-7.31877E-10 9.70640E-19 1.05714E-18
 -1      1655 9.52378E-05-2.85735E-05-2.85704E-05-1.37239E-09 1.37708E-18-5.74739E-19
 -1      1656 9.52385E-05-2.85755E-05-2.85698E-05-6.60779E-10-2.71534E-18-1.96288E-18
 -1      1657 9.52383E-05-2.85749E-05-2.85700E-05-6.83478E-10 1.07325E-19-3.15395E-18
 -1      1658 9.52382E-05-2.85746E-05-2.85701E-05-1.37003E-09-1.82413E-19-3.62608E-18
 -1      1659 9.52388E-05-2.85764E-05-2.85696E-05-4.89053E-10-1.05075E-18 1.22068E-18
 -1      1660 9.52386E-05-2.85759E-05-2.85697E-05-5.29833E-10-1.96696E-18 1.27245E-18
 -1      1661 9.52385E-05-2.85755E-05-2.85699E-05-1.15244E-09-9.07730E-19-2.87577E-19
 -1      1662 9.52390E-05-2.85769E-05-2.85694E-05-2.46745E-10 7.11423E-20 6.76111E-19
 -1      1663 9.52389E-05-2.85767E-05-2.85695E-05-2.98483E-10-3.30770E-19 9.44314E-19
 -1      1664 9.52388E-05-2.85762E-05-2.85697E-05-7.62163E-10-5.70001E-19 1.47086E-18
 -1      1665 9.52390E-05-2.85770E-05-2.85694E-05 2.99050E-11 2.61106E-18 1.76040E-18
 -1      1666 9.52390E-05-2.85770E-05-2.85694E-05-2.54929E-11 4.60640E-19 2.12641E-18
 -1      1667 9.52389E-05-2.85766E-05-2.85696E-05-2.63438E-10 7.51895E-20 1.44847E-18
 -1      1668 9.52389E-05-2.85767E-05-2.85695E-05 3.02348E-10-9.32939E-21-1.86299E-18
 -1      1669 9.52390E-05-2.85769E-05-2.85694E-05 2.50813E-10 2.30628E-18-8.64085E-19
 -1      1670 9.52389E-05-2.85766E-05-2.85696E-05 2.71742E-10 6.34260E-20-5.66678E-20
 -1      1671 9.52386E-05-2.85759E-05-2.85697E-05 5.32463E-10-4.57905E-18-2.70321E-18
 -1      1672 9.52388E-05-2.85764E-05-2.85696E-05 4.92114E-10-7.84675E-19-2.15653E-18
 -1      1673 9.52388E-05-2.85762E-05-2.85697E-05 7.68977E-10-4.66358E-19-3.95093E-18
 -1      1674 9.52383E-05-2.85749E-05-2.85700E-05 6.83290E-10-7.98932E-18-1.33554E-18
 -1      1675 9.52385E-05-2.85755E-05-2.85698E-05 6.60959E-10-4.97912E-18-3.62521E-18
 -1      1676 9.52385E-05-2.85755E-05-2.85699E-05 1.15461E-09-2.25362E-18-5.46314E-18
 -1      1677 9.52379E-05-2.85737E-05-2.85704E-05 7.31137E-10-4.25096E-18 3.24354E-18
 -1      1678 9.52381E-05-2.85744E-05-2.85702E-05 7.30923E-10-8.37772E-18 3.73799E-18
 -1      1679 9.52382E-05-2.85746E-05-2.85701E-05 1.36989E-09-1.43667E-18 1.62328E-18
 -1      1680 9.52375E-05-2.85726E-05-2.85707E-05 6.55144E-10-6.75386E-19 2.09120E-18
 -1      1681 9.52377E-05-2.85732E-05-2.85705E-05 6.80150E-10-3.35847E-18 2.44663E-18
 -1      1682 9.52378E-05-2.85735E-05-2.85704E-05 1.36990E-09-7.68412E-19 4.12869E-18
 -1      1683 9.52373E-05-2.85718E-05-2.85709E-05 4.56847E-10 8.27308E-19 2.22363E-19
 -1      1684 9.52374E-05-2.85722E-05-2.85708E-05 5.08907E-10-1.06543E-19 1.65267E-18
 -1      1685 9.52375E-05-2.85726E-05-2.85707E-05 1.13014E-09-3.99497E-19 2.34070E-18
 -1      1686 9.52371E-05-2.85714E-05-2.85710E-05 2.79557E-10-4.58288E-19-2.71600E-18
 -1      1687 9.52371E-05-2.85715E-05-2.85710E-05 3.76014E-10 9.98736E-19-1.30047E-18
 -1      1688 9.52372E-05-2.85719E-05-2.85708E-05 8.44478E-10-4.60442E-19-1.98669E-19
 -1      1689 9.52369E-05-2.85714E-05-2.85709E-05 5.80391E-10 8.35493E-19-2.79677E-18
 -1      1690 2.07259E-05-7.02276E-05 1.48710E-05-1.00579E-05 1.36283E-17 4.63115E-18
 -1      1691 2.36046E-05-7.71323E-05 1.62782E-05-1.26238E-06 9.64114E-18 3.26828E-18
 -1      1692 2.02509E-05-4.55883E-05 5.70215E-06-2.18558E-06 1.56947E-17 7.36336E-18
 -1      1693 2.46413E-05-6.59618E-05 1.12473E-05-3.99144E-06 1.43055E-17 5.33747E-18
 -1      1694 3.23304E-05-1.71153E-05-1.00013E-05 2.11867E-05 1.39820E-17 8.00870E-18
 -1      1695 2.78900E-05-3.96360E-05-9.19780E-07 3.48552E-06 1.62207E-17 7.64786E-18
 -1      1696 9.74531E-05-1.72292E-05-3.39474E-05 5.81567E-05 7.41747E-18 4.36815E-18
 -1      1697 6.45691E-05-2.27864E-05-2.10397E-05 3.14521E-05 1.12706E-17 5.93431E-18
 -1      1698 1.66946E-04-2.58653E-05-5.60448E-05 8.01930E-05 3.66765E-18 2.15485E-18
 -1      1699 1.17994E-04-1.11810E-05-4.54060E-05 6.69187E-05 6.67123E-18 4.85858E-18
 -1      1700 2.42094E-04-5.61148E-05-7.25550E-05 6.29780E-05 1.47405E-18-3.42286E-18
 -1      1701 1.93664E-04-3.28579E-05-6.47188E-05 7.56915E-05 2.87187E-18 5.11608E-19
 -1      1702 2.75756E-04-6.96521E-05-8.02980E-05 1.21444E-05 1.84441E-18-8.45402E-18
 -1      1703 2.52494E-04-5.73373E-05-7.69151E-05 4.60089E-05 1.72816E-18-4.76880E-18
 -1      1704 2.67361E-04-6.51326E-05-7.89744E-05-3.70699E-05 3.74854E-18-1.33696E-17
 -1      1705 2.83868E-04-7.35947E-05-8.15066E-05-1.54353E-07 2.28212E-18-1.04599E-17
 -1      1706 2.03963E-04-3.97504E-05-6.61073E-05-6.43851E-05 6.02897E-18-1.43538E-17
 -1      1707 2.51898E-04-6.20586E-05-7.39412E-05-4.77484E-05 3.99752E-18-1.38397E-17
 -1      1708 1.28062E-04-1.59303E-05-4.76555E-05-6.53647E-05 9.19708E-18-1.39151E-17
 -1      1709 1.78153E-04-3.30604E-05-5.78512E-05-7.44996E-05 7.33065E-18-1.50060E-17
 -1      1710 6.72193E-05-1.17080E-05-2.68787E-05-3.94028E-05 9.76968E-18-1.09208E-17
 -1      1711 1.00422E-04-1.10912E-05-3.76780E-05-6.27424E-05 9.72733E-18-1.33171E-17
 -1      1712 3.51395E-05-3.12608E-05-6.90054E-06-1.03121E-05 7.87656E-18-6.75509E-18
 -1      1713 4.72036E-05-1.34737E-05-1.69794E-05-3.13536E-05 9.43934E-18-9.68582E-18
 -1      1714 2.35051E-05-5.25826E-05 6.73511E-06 2.61422E-06 4.18858E-18-3.78092E-18
 -1      1715 2.17166E-05-3.32457E-05 5.27682E-07-3.59010E-06 7.07103E-18-5.77634E-18
 -1      1716 2.00799E-05-6.52249E-05 1.32208E-05 4.91180E-06-3.25525E-19-2.12521E-18
 -1      1717 1.63676E-05-5.65818E-05 1.13218E-05 1.20594E-05 3.27548E-18-2.89770E-18
 -1      1718 1.71478E-05-5.45885E-05 1.10663E-05 1.77833E-06-5.13937E-18-2.69949E-18
 -1      1719 1.94154E-05-6.31175E-05 1.29764E-05 9.26371E-06-1.59920E-18-2.12097E-18
 -1      1720 1.66331E-05-2.88964E-05 1.67133E-06 8.89112E-06-8.98363E-18-4.64651E-18
 -1      1721 2.07885E-05-5.03236E-05 7.51633E-06 6.75586E-06-6.39044E-18-2.94831E-18
 -1      1722 2.79699E-05-1.70865E-06-1.31849E-05 3.05439E-05-1.06082E-17-7.06425E-18
 -1      1723 2.36376E-05-2.22205E-05-4.85390E-06 1.43006E-05-1.02643E-17-5.29480E-18
 -1      1724 7.04420E-05 4.00875E-06-3.15520E-05 6.20117E-05-8.60924E-18-7.91552E-18
 -1      1725 4.75769E-05-1.65891E-06-2.19667E-05 4.02316E-05-9.89080E-18-7.20825E-18
 -1      1726 1.29648E-04-8.62277E-06-4.92507E-05 8.04486E-05-6.16047E-18-7.14896E-18
 -1      1727 9.17313E-05 2.45097E-06-4.04159E-05 6.72706E-05-8.12389E-18-7.86555E-18
 -1      1728 1.99835E-04-3.77292E-05-6.47480E-05 6.98567E-05-3.62922E-18-2.99341E-18
 -1      1729 1.54879E-04-1.62663E-05-5.71206E-05 7.63213E-05-5.51630E-18-5.95888E-18
 -1      1730 2.51261E-04-6.22781E-05-7.47156E-05 3.25985E-05-1.84992E-18 1.93928E-18
 -1      1731 2.22127E-04-4.58305E-05-7.07169E-05 6.12465E-05-2.78563E-18-1.75166E-18
 -1      1732 2.56062E-04-6.36643E-05-7.63319E-05-2.35901E-05-2.11504E-18 6.69707E-18
 -1      1733 2.58274E-04-6.49866E-05-7.65293E-05 1.36445E-05-1.65320E-18 3.60053E-18
 -1      1734 2.13697E-04-4.11947E-05-6.92548E-05-6.38011E-05-4.47122E-18 9.45458E-18
 -1      1735 2.43457E-04-5.78707E-05-7.36037E-05-3.85314E-05-2.67525E-18 7.32260E-18
 -1      1736 1.53382E-04-1.44653E-05-5.66531E-05-8.13323E-05-6.89019E-18 1.12461E-17
 -1      1737 1.96026E-04-3.50003E-05-6.39536E-05-7.66064E-05-5.08389E-18 1.08361E-17
 -1      1738 9.20555E-05-1.44329E-06-3.86577E-05-6.42754E-05-7.74696E-18 9.57063E-18
 -1      1739 1.30846E-04-1.10955E-05-4.82892E-05-7.93645E-05-7.19343E-18 1.04439E-17
 -1      1740 4.63563E-05-4.83240E-06-2.01312E-05-3.77343E-05-6.58653E-18 6.89993E-18
 -1      1741 6.72025E-05 3.02189E-06-2.95281E-05-6.00233E-05-7.92484E-18 9.60874E-18
 -1      1742 2.97550E-05-3.25639E-05-3.13253E-06-1.40294E-05-2.89262E-18 3.74600E-18
 -1      1743 3.43930E-05-1.14616E-05-1.16536E-05-3.05378E-05-5.44134E-18 6.22950E-18
 -1      1744 2.39574E-05-6.08231E-05 9.64452E-06-1.34944E-06 2.44538E-18 2.08013E-18
 -1      1745 1.91120E-05-3.85092E-05 3.97055E-06-4.29532E-06-1.62800E-18 3.45568E-18
 -1      1746 2.43278E-05-7.73644E-05 1.59568E-05-4.74845E-06 8.19928E-18 2.08243E-18
 -1      1747 2.09709E-05-6.64088E-05 1.35059E-05 2.96681E-06 3.75701E-18 1.72689E-18
 -1      1748 1.35968E-04-4.62764E-05-3.83459E-05 3.79363E-05 5.61456E-18-1.37219E-19
 -1      1749 8.38200E-05-4.50544E-05-1.79786E-05 3.75788E-05 7.73680E-18 1.35314E-18
 -1      1750 9.52371E-05-2.85712E-05-2.85711E-05-3.93079E-11 3.46446E-18 1.13505E-18
 -1      1751 9.52370E-05-2.85714E-05-2.85710E-05-2.94825E-10 2.94418E-19 5.86434E-19
 -1      1752 1.72979E-05-4.81838E-05 8.85441E-06 9.94590E-06 7.78339E-18 5.56162E-18
 -1      1753 3.76748E-05-4.46948E-05-7.55309E-07 2.33459E-05 8.59654E-18 4.44173E-18
 -1      1754 1.18539E-05-5.12393E-05 1.20642E-05-5.00008E-06 5.26198E-18 5.01952E-18
 -1      1755 1.84120E-04-4.06739E-05-5.77225E-05 3.85548E-05 4.45539E-18-1.12740E-18
 -1      1756 2.16176E-04-3.91775E-05-7.01660E-05 2.02581E-05 3.72822E-18-3.81758E-18
 -1      1757 2.27568E-04-3.68863E-05-7.52019E-05 2.06813E-06 3.86882E-18-5.60318E-18
 -1      1758 2.22690E-04-4.11319E-05-7.16229E-05-1.16027E-05 3.66808E-18-7.33192E-18
 -1      1759 1.91084E-04-4.33808E-05-5.92725E-05-2.87335E-05 4.16888E-18-8.65414E-18
 -1      1760 1.41585E-04-4.13227E-05-4.19655E-05-3.93323E-05 5.23212E-18-9.02683E-18
 -1      1761 9.04689E-05-4.12313E-05-2.29424E-05-3.57578E-05 4.94159E-18-7.50302E-18
 -1      1762 4.88256E-05-4.10687E-05-6.59641E-06-2.67104E-05 3.57787E-18-6.10923E-18
 -1      1763 1.92706E-05-3.87395E-05 4.61341E-06-1.17327E-05 2.44665E-18-5.09956E-18
 -1      1764 8.47213E-06-3.86704E-05 8.83444E-06 5.94620E-06 1.95612E-19-4.28345E-18
 -1      1765 1.37594E-05-3.41022E-05 5.29313E-06 1.96985E-05-1.99392E-18-4.17312E-18
 -1      1766 3.18956E-05-2.84549E-05-4.15645E-06 3.16838E-05-4.45709E-18-4.20539E-18
 -1      1767 6.47897E-05-2.31175E-05-1.88870E-05 4.45366E-05-5.73272E-18-4.37493E-18
 -1      1768 1.07780E-04-2.35173E-05-3.54927E-05 5.05472E-05-5.40576E-18-3.97682E-18
 -1      1769 1.51971E-04-2.63199E-05-5.14509E-05 4.67646E-05-4.98225E-18-2.71135E-18
 -1      1770 1.91508E-04-3.15603E-05-6.44973E-05 3.28699E-05-4.37069E-18-5.64547E-19
 -1      1771 2.16430E-04-3.58134E-05-7.19612E-05 1.08427E-05-3.52493E-18 1.56299E-18
 -1      1772 2.10990E-04-3.38638E-05-7.10402E-05-1.39886E-05-3.10438E-18 3.26150E-18
 -1      1773 1.88201E-04-3.03309E-05-6.34764E-05-3.72987E-05-3.96073E-18 5.03730E-18
 -1      1774 1.51909E-04-2.84641E-05-5.03372E-05-4.83888E-05-4.09964E-18 6.03087E-18
 -1      1775 1.09119E-04-2.80448E-05-3.39234E-05-5.00486E-05-3.30385E-18 6.18080E-18
 -1      1776 6.90449E-05-3.22881E-05-1.70145E-05-4.32896E-05-1.94563E-18 5.64971E-18
 -1      1777 3.85582E-05-3.94470E-05-2.40736E-06-3.21225E-05-1.10114E-19 4.98558E-18
 -1      1778 1.85752E-05-4.75185E-05 8.08319E-06-1.73389E-05 2.79182E-18 4.49393E-18
 -1      1779 1.12405E-04-2.44711E-05-3.77708E-05-1.93258E-05-1.62220E-18 7.05155E-20
 -1      1780 9.74293E-05-1.40044E-05-3.58842E-05-1.62858E-05-5.64443E-19-4.23831E-18
 -1      1781 9.79038E-05-1.43926E-05-3.59977E-05-1.86380E-05-1.04677E-18-4.15777E-18
 -1      1782 9.90022E-05-1.57926E-05-3.58378E-05-1.95984E-05-1.37224E-18-3.78036E-18
 -1      1783 9.99962E-05-1.72654E-05-3.60520E-05-2.14258E-05-1.90514E-18-3.25615E-18
 -1      1784 1.00675E-04-1.92434E-05-3.49260E-05-1.78747E-05-1.40078E-18-3.63854E-18
 -1      1785 9.67236E-05-1.45924E-05-3.52666E-05-6.62232E-06 8.21526E-19-3.60209E-18
 -1      1786 9.70935E-05-1.43213E-05-3.56017E-05-9.35579E-06 5.52326E-19-3.91038E-18
 -1      1787 9.46198E-05-1.49374E-05-3.42033E-05-3.99655E-07 1.39627E-18-2.98621E-18
 -1      1788 9.60115E-05-1.49535E-05-3.48389E-05-3.45745E-06 1.17995E-18-3.39769E-18
 -1      1789 9.94470E-05-1.88559E-05-3.45889E-05-5.66441E-06 9.70632E-19-3.28162E-18
 -1      1790 8.94755E-05-1.38959E-05-3.24502E-05 6.41520E-06 1.94643E-18-2.40367E-18
 -1      1791 9.25033E-05-1.46275E-05-3.34266E-05 3.29809E-06 1.71224E-18-2.71948E-18
 -1      1792 9.67897E-05-1.90184E-05-3.34096E-05 1.06542E-06 1.62289E-18-2.65901E-18
 -1      1793 8.04705E-05-1.04850E-05-3.00851E-05 1.27937E-05 2.53763E-18-2.06197E-18
 -1      1794 8.53571E-05-1.22103E-05-3.13245E-05 1.01583E-05 2.31706E-18-2.26749E-18
 -1      1795 9.04466E-05-1.71938E-05-3.15090E-05 8.63300E-06 2.27091E-18-2.17192E-18
 -1      1796 6.84002E-05-4.53227E-06-2.75049E-05 1.68600E-05 2.97350E-18-1.91845E-18
 -1      1797 7.44115E-05-7.06814E-06-2.87566E-05 1.55078E-05 2.82935E-18-2.02927E-18
 -1      1798 7.96552E-05-1.22408E-05-2.90162E-05 1.55609E-05 2.93808E-18-1.93920E-18
 -1      1799 5.67583E-05 2.36402E-06-2.54704E-05 1.66646E-05 3.07814E-18-2.02822E-18
 -1      1800 6.18431E-05-1.04640E-07-2.63169E-05 1.72019E-05 3.07592E-18-2.06455E-18
 -1      1801 6.59049E-05-4.41157E-06-2.64140E-05 1.92376E-05 3.36496E-18-1.97092E-18
 -1      1802 5.11374E-05 6.84918E-06-2.49090E-05 1.20982E-05 3.01942E-18-1.93957E-18
 -1      1803 5.26386E-05 5.70684E-06-2.49189E-05 1.41542E-05 3.06789E-18-2.09020E-18
 -1      1804 5.40122E-05 3.46975E-06-2.45714E-05 1.73960E-05 3.40980E-18-2.12629E-18
 -1      1805 5.57759E-05 6.07689E-06-2.64616E-05 5.64745E-06 2.80757E-18-1.45137E-18
 -1      1806 5.20932E-05 7.02254E-06-2.53772E-05 7.95339E-06 2.84466E-18-1.78796E-18
 -1      1807 5.02069E-05 7.09126E-06-2.44180E-05 1.05857E-05 3.24055E-18-2.02789E-18
 -1      1808 7.09913E-05-4.05640E-07-3.01684E-05 1.38076E-06 2.50118E-18-3.67963E-19
 -1      1809 6.26094E-05 2.47934E-06-2.80631E-05 2.30525E-06 2.56533E-18-1.03509E-18
 -1      1810 5.83977E-05 3.61661E-06-2.64858E-05 2.84586E-06 2.83495E-18-1.36241E-18
 -1      1811 9.30666E-05-1.05882E-05-3.53552E-05 1.64676E-06 2.20615E-18 1.39141E-18
 -1      1812 8.19101E-05-6.38011E-06-3.26080E-05 4.69044E-07 2.25345E-18 3.75368E-19
 -1      1813 7.72185E-05-5.94006E-06-3.05717E-05-1.25107E-06 2.41559E-18-7.63785E-20
 -1      1814 1.18452E-04-2.32963E-05-4.08849E-05 5.11770E-06 1.63225E-18 4.27212E-18
 -1      1815 1.05698E-04-1.74435E-05-3.80701E-05 2.73572E-06 1.84021E-18 2.60563E-18
 -1      1816 1.01795E-04-1.84386E-05-3.57472E-05-6.63447E-07 1.91457E-18 1.91477E-18
 -1      1817 1.37169E-04-3.60237E-05-4.37599E-05 4.30583E-06 1.12158E-18 7.23917E-18
 -1      1818 1.26759E-04-2.81597E-05-4.22746E-05 5.52024E-06 1.33778E-18 5.43541E-18
 -1      1819 1.22762E-04-2.98989E-05-3.98508E-05 3.24282E-07 1.35872E-18 4.30134E-18
 -1      1820 1.36510E-04-3.80108E-05-4.24103E-05-8.81706E-07 1.04397E-18 6.84631E-18
 -1      1821 1.05818E-04-2.06267E-05-3.61558E-05-2.22063E-05-1.94241E-18-2.00408E-18
 -1      1822 1.38135E-04-4.19051E-05-4.13427E-05-4.28771E-06 3.45470E-19 6.31040E-18
 -1      1823 1.37789E-04-4.04812E-05-4.17233E-05-2.91595E-06 6.49648E-19 6.56122E-18
 -1      1824 1.31404E-04-3.70871E-05-4.04487E-05-2.53090E-06 7.94252E-19 5.07969E-18
 -1      1825 1.05701E-04-2.42831E-05-3.45926E-05-1.80790E-05-1.91789E-18-2.29827E-18
 -1      1826 1.01127E-04-2.86523E-05-3.09533E-05-9.84832E-06-1.64430E-18-2.29361E-18
 -1      1827 9.81417E-05-2.83257E-05-2.99083E-05-8.32786E-06-1.44571E-18-2.65483E-18
 -1      1828 9.64854E-05-2.81813E-05-2.91817E-05-7.23623E-06-1.41351E-18-2.46119E-18
 -1      1829 9.44189E-05-2.77026E-05-2.85477E-05-6.54481E-06-1.12512E-18-2.76293E-18
 -1      1830 9.95104E-05-2.82388E-05-3.05496E-05-1.02366E-05-1.51657E-18-2.52270E-18
 -1      1831 9.28886E-05-2.72297E-05-2.80823E-05-5.73213E-06-9.92309E-19-2.66056E-18
 -1      1832 9.12995E-05-2.66533E-05-2.76546E-05-5.10086E-06-8.12900E-19-2.96775E-18
 -1      1833 9.63855E-05-2.78473E-05-2.93877E-05-8.04005E-06-1.21641E-18-2.30099E-18
 -1      1834 9.00425E-05-2.61210E-05-2.73572E-05-4.13267E-06-7.49958E-19-3.05046E-18
 -1      1835 8.89677E-05-2.56403E-05-2.70879E-05-3.28991E-06-6.15383E-19-3.31443E-18
 -1      1836 9.36125E-05-2.67956E-05-2.86604E-05-6.03321E-06-9.60883E-19-2.38452E-18
 -1      1837 8.81471E-05-2.52512E-05-2.69199E-05-2.02619E-06-5.44278E-19-3.34795E-18
 -1      1838 8.76887E-05-2.50273E-05-2.68074E-05-9.75564E-07-4.01189E-19-3.60189E-18
 -1      1839 9.15087E-05-2.57385E-05-2.82237E-05-3.51207E-06-7.14247E-19-2.65147E-18
 -1      1840 8.74354E-05-2.49279E-05-2.67490E-05 4.47103E-07-5.00941E-19-3.59185E-18
 -1      1841 8.76465E-05-2.50480E-05-2.67929E-05 1.52276E-06-6.52566E-19-3.58619E-18
 -1      1842 9.04219E-05-2.51783E-05-2.80038E-05-4.71230E-07-5.74791E-19-2.79976E-18
 -1      1843 8.79687E-05-2.52759E-05-2.68275E-05 2.80926E-06-8.64966E-19-3.48845E-18
 -1      1844 8.87784E-05-2.57131E-05-2.70093E-05 3.66738E-06-7.58366E-19-3.52272E-18
 -1      1845 9.05223E-05-2.53789E-05-2.79551E-05 2.59480E-06-6.28753E-19-2.91634E-18
 -1      1846 8.95276E-05-2.61794E-05-2.71166E-05 4.53162E-06-7.66727E-19-3.53582E-18
 -1      1847 9.07413E-05-2.68065E-05-2.73965E-05 4.99583E-06-3.45563E-19-3.67878E-18
 -1      1848 9.16707E-05-2.62885E-05-2.80420E-05 5.01799E-06-7.43493E-19-2.74259E-18
 -1      1849 9.16733E-05-2.73495E-05-2.75512E-05 5.29932E-06-1.76731E-19-4.03418E-18
 -1      1850 9.30355E-05-2.80034E-05-2.78763E-05 5.33021E-06 4.04242E-20-4.18745E-18
 -1      1851 9.34501E-05-2.75894E-05-2.82291E-05 6.31711E-06-5.62352E-19-2.88861E-18
 -1      1852 9.39151E-05-2.84727E-05-2.80497E-05 5.11896E-06 1.74672E-19-4.33461E-18
 -1      1853 9.51907E-05-2.90224E-05-2.83675E-05 4.80407E-06 3.97335E-19-4.45745E-18
 -1      1854 9.53502E-05-2.88800E-05-2.84768E-05 6.39849E-06-1.73791E-20-3.39479E-18
 -1      1855 9.58668E-05-2.93346E-05-2.85325E-05 4.24941E-06 1.82585E-19-4.50860E-18
 -1      1856 9.68962E-05-2.97151E-05-2.88020E-05 3.74028E-06 3.19937E-20-4.43462E-18
 -1      1857 9.69640E-05-2.98592E-05-2.87425E-05 5.52105E-06 2.37394E-19-3.46304E-18
 -1      1858 9.73169E-05-2.98595E-05-2.89378E-05 3.04504E-06 1.61290E-19-4.39272E-18
 -1      1859 9.80317E-05-3.00672E-05-2.91363E-05 2.49009E-06 1.54233E-19-4.05542E-18
 -1      1860 9.80839E-05-3.04098E-05-2.89862E-05 4.11342E-06 2.94228E-19-3.40982E-18
 -1      1861 9.82166E-05-3.00786E-05-2.92313E-05 1.81785E-06-1.46082E-19-3.83839E-18
 -1      1862 9.86226E-05-3.01463E-05-2.93535E-05 1.32245E-06-4.62692E-20-3.71756E-18
 -1      1863 9.86845E-05-3.05698E-05-2.91782E-05 2.58639E-06 1.32413E-19-3.25168E-18
 -1      1864 9.86257E-05-3.00739E-05-2.94053E-05 7.70121E-07 8.24633E-20-3.92136E-18
 -1      1865 9.87744E-05-3.00463E-05-2.94594E-05 3.87584E-07 2.50278E-19-3.69497E-18
 -1      1866 9.88507E-05-3.04553E-05-2.93027E-05 1.22687E-06 8.33136E-21-3.20593E-18
 -1      1867 9.86560E-05-2.99334E-05-2.94725E-05-9.19039E-09 1.01922E-19-3.73975E-18
 -1      1868 9.86168E-05-2.98516E-05-2.94735E-05-2.67476E-07-1.42346E-19-3.76216E-18
 -1      1869 9.87072E-05-3.01915E-05-2.93581E-05 1.77894E-07 1.54738E-19-2.72112E-18
 -1      1870 9.84293E-05-2.97287E-05-2.94566E-05-5.14628E-07-6.91037E-19-3.80657E-18
 -1      1871 9.82704E-05-2.96236E-05-2.94213E-05-6.62792E-07-7.50540E-19-3.87872E-18
 -1      1872 9.83740E-05-2.98762E-05-2.93534E-05-5.30868E-07-4.31682E-19-2.82347E-18
 -1      1873 9.80534E-05-2.95083E-05-2.93841E-05-7.87519E-07-6.93814E-19-3.97163E-18
 -1      1874 9.78319E-05-2.94002E-05-2.93280E-05-8.50746E-07-7.59588E-19-3.99362E-18
 -1      1875 9.79467E-05-2.95706E-05-2.93035E-05-9.37973E-07-7.12962E-19-2.51781E-18
 -1      1876 9.76125E-05-2.93007E-05-2.92796E-05-8.86611E-07-4.85119E-19-4.30992E-18
 -1      1877 9.73705E-05-2.92012E-05-2.92148E-05-8.91480E-07 4.78862E-20-4.11117E-18
 -1      1878 9.74934E-05-2.93055E-05-2.92242E-05-1.11149E-06-5.75234E-19-2.35168E-18
 -1      1879 9.71656E-05-2.91199E-05-2.91625E-05-8.69753E-07 4.11780E-19-4.31068E-18
 -1      1880 9.69313E-05-2.90345E-05-2.90975E-05-8.39173E-07 7.22853E-19-4.23063E-18
 -1      1881 9.70578E-05-2.90911E-05-2.91303E-05-1.12339E-06 2.97920E-19-2.98705E-18
 -1      1882 9.67499E-05-2.89706E-05-2.90465E-05-7.85006E-07 6.13230E-19-3.86210E-18
 -1      1883 9.65395E-05-2.89008E-05-2.89867E-05-7.36408E-07 2.16103E-19-3.48325E-18
 -1      1884 9.66650E-05-2.89262E-05-2.90330E-05-1.03608E-06 8.50037E-19-2.93105E-18
 -1      1885 9.63855E-05-2.88520E-05-2.89401E-05-6.68022E-07 1.13697E-19-2.83600E-18
 -1      1886 9.62067E-05-2.87973E-05-2.88883E-05-6.13419E-07 4.42628E-19-2.57599E-18
 -1      1887 9.63267E-05-2.88040E-05-2.89405E-05-8.97498E-07 6.21794E-19-2.60279E-18
 -1      1888 9.60802E-05-2.87609E-05-2.88480E-05-5.42832E-07 4.30488E-19-2.36775E-18
 -1      1889 9.59347E-05-2.87195E-05-2.88052E-05-4.89720E-07 5.64868E-19-2.01247E-18
 -1      1890 9.60456E-05-2.87164E-05-2.88575E-05-7.41045E-07 7.02380E-19-1.42511E-18
 -1      1891 9.58340E-05-2.86930E-05-2.87716E-05-4.24065E-07 5.56410E-19-1.57285E-18
 -1      1892 9.57199E-05-2.86626E-05-2.87376E-05-3.76561E-07 7.46072E-19-1.54122E-18
 -1      1893 9.58193E-05-2.86554E-05-2.87864E-05-5.87890E-07 9.24056E-19-5.70323E-19
 -1      1894 9.56418E-05-2.86439E-05-2.87107E-05-3.19450E-07 3.88004E-19-2.00692E-18
 -1      1895 9.55554E-05-2.86224E-05-2.86845E-05-2.79350E-07-9.36127E-20-1.89042E-18
 -1      1896 9.56421E-05-2.86143E-05-2.87279E-05-4.49917E-07 3.16376E-19-6.71791E-19
 -1      1897 9.54964E-05-2.86094E-05-2.86636E-05-2.32051E-07-4.24662E-19-2.20068E-18
 -1      1898 9.54333E-05-2.85948E-05-2.86442E-05-1.99675E-07-5.21005E-19-2.00810E-18
 -1      1899 9.55069E-05-2.85875E-05-2.86812E-05-3.32527E-07-1.12528E-19-8.95656E-19
 -1      1900 9.53900E-05-2.85861E-05-2.86284E-05-1.62025E-07-7.11489E-19-1.28543E-18
 -1      1901 9.53455E-05-2.85766E-05-2.86145E-05-1.36850E-07-8.38631E-20-1.55704E-18
 -1      1902 9.54067E-05-2.85709E-05-2.86451E-05-2.36939E-07 7.49717E-20-2.78888E-19
 -1      1903 9.53147E-05-2.85711E-05-2.86030E-05-1.07901E-07 4.07472E-19-2.03591E-18
 -1      1904 9.52847E-05-2.85654E-05-2.85934E-05-8.89862E-08 7.51133E-19-1.76474E-18
 -1      1905 9.53344E-05-2.85613E-05-2.86179E-05-1.61913E-07-2.32637E-19-2.48662E-19
 -1      1906 9.52635E-05-2.85621E-05-2.85853E-05-6.74449E-08-3.80730E-19-1.84842E-18
 -1      1907 9.52445E-05-2.85590E-05-2.85790E-05-5.37097E-08-9.93335E-19-2.10431E-18
 -1      1908 9.52840E-05-2.85564E-05-2.85982E-05-1.04949E-07 2.30892E-20-3.21844E-19
 -1      1909 9.52306E-05-2.85572E-05-2.85735E-05-3.82072E-08-1.28426E-18-1.84237E-18
 -1      1910 9.52194E-05-2.85560E-05-2.85697E-05-2.85928E-08-6.51899E-19-2.24284E-18
 -1      1911 9.52502E-05-2.85546E-05-2.85844E-05-6.30790E-08-1.05091E-18-3.37506E-19
 -1      1912 9.52109E-05-2.85552E-05-2.85662E-05-1.78414E-08-2.45459E-19-2.43664E-18
 -1      1913 9.52053E-05-2.85551E-05-2.85641E-05-1.13965E-08 2.99996E-19-2.27036E-18
 -1      1914 9.52288E-05-2.85546E-05-2.85751E-05-3.33355E-08-6.99194E-19 6.27281E-20
 -1      1915 9.52006E-05-2.85550E-05-2.85620E-05-4.26686E-09 1.44148E-19-2.36142E-18
 -1      1916 9.51988E-05-2.85557E-05-2.85612E-05-1.84550E-10 5.06338E-19-1.73747E-18
 -1      1917 9.52163E-05-2.85558E-05-2.85691E-05-1.30158E-08 4.01524E-19-3.40668E-19
 -1      1918 9.51967E-05-2.85560E-05-2.85601E-05 4.26674E-09 3.06716E-19-2.25444E-18
 -1      1919 9.51973E-05-2.85570E-05-2.85600E-05 6.64282E-09 2.37186E-19-1.90593E-18
 -1      1920 9.52101E-05-2.85575E-05-2.85656E-05 2.00926E-10 2.72002E-19-2.78671E-19
 -1      1921 9.51969E-05-2.85575E-05-2.85596E-05 9.17442E-09-1.08932E-19-1.96952E-18
 -1      1922 9.51990E-05-2.85587E-05-2.85600E-05 1.03601E-08-8.27952E-20-2.39826E-18
 -1      1923 9.52080E-05-2.85594E-05-2.85638E-05 8.22340E-09-5.24198E-19-7.85371E-19
 -1      1924 9.51997E-05-2.85593E-05-2.85601E-05 1.15632E-08 1.25291E-18-2.50347E-18
 -1      1925 9.52024E-05-2.85605E-05-2.85608E-05 1.19518E-08 1.93456E-18-2.18711E-18
 -1      1926 9.52087E-05-2.85613E-05-2.85632E-05 1.25676E-08 6.35720E-19-2.86561E-19
 -1      1927 9.52038E-05-2.85612E-05-2.85611E-05 1.22739E-08 1.63729E-18-2.93592E-18
 -1      1928 9.52068E-05-2.85624E-05-2.85619E-05 1.21569E-08 1.04938E-18-2.81402E-18
 -1      1929 9.52109E-05-2.85631E-05-2.85634E-05 1.44020E-08 1.66734E-18-7.16727E-19
 -1      1930 9.52084E-05-2.85630E-05-2.85623E-05 1.19275E-08 1.17398E-18-2.53969E-18
 -1      1931 9.52114E-05-2.85640E-05-2.85632E-05 1.15147E-08 1.23691E-18-1.50207E-18
 -1      1932 9.52139E-05-2.85647E-05-2.85640E-05 1.46023E-08 1.58565E-18-9.37995E-19
 -1      1933 9.52131E-05-2.85646E-05-2.85637E-05 1.09692E-08-4.52253E-19-2.12905E-18
 -1      1934 9.52159E-05-2.85655E-05-2.85645E-05 1.04064E-08-7.26529E-19-2.11089E-18
 -1      1935 9.52173E-05-2.85661E-05-2.85648E-05 1.38064E-08 2.54716E-20-1.62411E-18
 -1      1936 9.52175E-05-2.85660E-05-2.85650E-05 9.70732E-09-2.22848E-19-1.76336E-18
 -1      1937 9.52200E-05-2.85668E-05-2.85657E-05 9.09187E-09-5.18476E-19-1.72403E-18
 -1      1938 9.52206E-05-2.85673E-05-2.85657E-05 1.24649E-08-3.13294E-19-1.20468E-18
 -1      1939 9.52215E-05-2.85672E-05-2.85662E-05 8.34647E-09-8.96001E-19-1.24496E-18
 -1      1940 9.52237E-05-2.85678E-05-2.85668E-05 7.73963E-09-4.14962E-19-8.00519E-19
 -1      1941 9.52238E-05-2.85682E-05-2.85666E-05 1.08840E-08-4.24873E-19-1.53175E-19
 -1      1942 9.52250E-05-2.85682E-05-2.85673E-05 7.01402E-09-4.14441E-19-3.00185E-19
 -1      1943 9.52269E-05-2.85687E-05-2.85678E-05 6.45048E-09 1.00711E-18-1.08262E-18
 -1      1944 9.52266E-05-2.85690E-05-2.85675E-05 9.26154E-09-1.72897E-20 1.57471E-18
 -1      1945 9.52280E-05-2.85690E-05-2.85682E-05 5.78071E-09 1.38022E-18-2.26929E-18
 -1      1946 9.52295E-05-2.85694E-05-2.85686E-05 5.27587E-09 1.28454E-18-1.55850E-18
 -1      1947 9.52290E-05-2.85697E-05-2.85683E-05 7.71489E-09 5.20827E-19 1.84252E-19
 -1      1948 9.52305E-05-2.85697E-05-2.85689E-05 4.67615E-09 1.28416E-18-1.73474E-18
 -1      1949 9.52317E-05-2.85700E-05-2.85693E-05 4.23123E-09 1.04366E-18-1.25632E-18
 -1      1950 9.52311E-05-2.85702E-05-2.85689E-05 6.30291E-09 1.30711E-18-1.45603E-18
 -1      1951 9.52325E-05-2.85702E-05-2.85696E-05 3.69958E-09 9.41414E-19-2.14900E-18
 -1      1952 9.52335E-05-2.85705E-05-2.85699E-05 3.30487E-09 1.66759E-18-1.96292E-18
 -1      1953 9.52328E-05-2.85706E-05-2.85695E-05 5.04198E-09 4.01874E-19-1.25997E-18
 -1      1954 9.52341E-05-2.85707E-05-2.85701E-05 2.82861E-09 1.22246E-18-2.28768E-18
 -1      1955 9.52349E-05-2.85709E-05-2.85703E-05 2.46795E-09 9.21993E-19-2.81453E-18
 -1      1956 9.52342E-05-2.85709E-05-2.85700E-05 3.91695E-09 1.65012E-18-2.20105E-18
 -1      1957 9.52354E-05-2.85710E-05-2.85705E-05 2.02778E-09 1.68266E-18-3.49336E-18
 -1      1958 9.52359E-05-2.85712E-05-2.85706E-05 1.68133E-09 2.11146E-18-2.38673E-18
 -1      1959 9.52353E-05-2.85712E-05-2.85703E-05 2.89726E-09 9.95043E-19-1.64862E-18
 -1      1960 9.52363E-05-2.85713E-05-2.85707E-05 1.28585E-09 2.62193E-18-2.18367E-18
 -1      1961 9.52366E-05-2.85714E-05-2.85708E-05 9.59020E-10 2.27428E-18-1.68492E-18
 -1      1962 9.52367E-05-2.85716E-05-2.85708E-05 1.14250E-09 1.30860E-18-7.76330E-19
 -1      1963 9.52362E-05-2.85715E-05-2.85706E-05 1.96961E-09 2.56038E-18-8.20647E-19
 -1      1964 1.41252E-04-4.60331E-05-4.08745E-05-4.13879E-07-1.47582E-19 6.08782E-18
 -1      1965 1.40611E-04-4.44791E-05-4.11109E-05-2.66949E-06 2.40346E-20 6.08555E-18
 -1      1966 1.35129E-04-4.31547E-05-3.94794E-05-3.71241E-06 2.04241E-19 4.67317E-18
 -1      1967 1.43393E-04-4.89940E-05-4.05040E-05 1.06930E-05-5.75962E-19 6.42935E-18
 -1      1968 1.44487E-04-4.88123E-05-4.09376E-05 4.76599E-06-5.90144E-19 6.07464E-18
 -1      1969 1.41084E-04-4.93860E-05-3.93291E-05 3.33773E-06-6.03590E-19 4.69874E-18
 -1      1970 1.40467E-04-4.52533E-05-4.09152E-05 2.33418E-05-3.25261E-19 6.89204E-18
 -1      1971 1.44961E-04-4.90275E-05-4.12491E-05 1.69395E-05-5.74527E-19 6.50185E-18
 -1      1972 1.45904E-04-5.17160E-05-4.05847E-05 1.68295E-05-6.85071E-19 5.08302E-18
 -1      1973 1.31539E-04-3.35870E-05-4.25759E-05 2.26214E-05 3.86671E-19 6.55376E-18
 -1      1974 1.38125E-04-4.00457E-05-4.24729E-05 2.31791E-05 2.80580E-20 6.85281E-18
 -1      1975 1.44623E-04-4.32323E-05-4.38771E-05 2.68293E-05-2.50934E-19 5.00480E-18
 -1      1976 1.25955E-04-2.62004E-05-4.36743E-05 7.53511E-07 2.25671E-18 5.01830E-18
 -1      1977 1.28610E-04-2.81027E-05-4.36918E-05 1.12259E-05 1.45541E-18 5.68435E-18
 -1      1978 1.38275E-04-2.80211E-05-4.76996E-05 1.59250E-05 1.68051E-18 4.08778E-18
 -1      1979 1.30762E-04-3.27239E-05-4.27763E-05-1.92642E-05 2.68097E-18 3.24018E-18
 -1      1980 1.27770E-04-2.86376E-05-4.29882E-05-1.00543E-05 2.46614E-18 4.17040E-18
 -1      1981 1.37731E-04-2.69735E-05-4.79914E-05-9.69789E-06 3.00866E-18 2.39112E-18
 -1      1982 1.39533E-04-4.44702E-05-4.09443E-05-2.27589E-05 2.20483E-18 1.29080E-18
 -1      1983 1.33956E-04-3.91079E-05-4.10546E-05-2.12690E-05 2.55179E-18 2.22631E-18
 -1      1984 1.41727E-04-3.91793E-05-4.44910E-05-2.37222E-05 3.17193E-18 5.97529E-19
 -1      1985 1.42267E-04-4.89748E-05-3.97357E-05-1.08821E-05 2.56558E-19 6.93194E-19
 -1      1986 1.38935E-04-4.70219E-05-3.95955E-05-1.58222E-05 1.03113E-18 1.05274E-18
 -1      1987 1.43548E-04-4.96517E-05-4.04671E-05-1.79492E-05 1.60770E-18-5.15870E-19
 -1      1988 1.37706E-04-4.58813E-05-3.91078E-05 2.24007E-06-2.21883E-19 7.35728E-19
 -1      1989 1.38108E-04-4.70002E-05-3.91195E-05-3.13574E-06-9.76205E-20 4.32291E-19
 -1      1990 1.38349E-04-5.00138E-05-3.80509E-05-3.14904E-06 1.34784E-19-8.34769E-19
 -1      1991 1.30344E-04-4.09546E-05-3.82203E-05 9.50523E-06 1.04317E-19 1.08950E-18
 -1      1992 1.33098E-04-4.29159E-05-3.86796E-05 6.44222E-06-1.44049E-19 1.28397E-18
 -1      1993 1.30029E-04-4.41993E-05-3.69367E-05 8.12731E-06-1.52413E-19-4.55849E-19
 -1      1994 1.22980E-04-3.69821E-05-3.68702E-05 1.14818E-05-8.24021E-19 1.64892E-18
 -1      1995 1.26606E-04-3.87365E-05-3.76736E-05 1.05581E-05-2.58967E-19 1.22587E-18
 -1      1996 1.22264E-04-3.83572E-05-3.60438E-05 1.30059E-05-3.29138E-19 1.47053E-19
 -1      1997 1.16592E-04-3.43082E-05-3.53091E-05 1.05951E-05-5.70677E-19 2.15432E-18
 -1      1998 1.20161E-04-3.56430E-05-3.62219E-05 1.08681E-05-8.51995E-19 1.83923E-18
 -1      1999 1.16023E-04-3.44591E-05-3.49838E-05 1.34331E-05-9.64587E-19 9.47426E-19
 -1      2000 1.11375E-04-3.25735E-05-3.38127E-05 8.67788E-06-3.83130E-19 2.42688E-18
 -1      2001 1.14457E-04-3.35441E-05-3.46616E-05 9.40376E-06-3.59314E-19 2.04291E-18
 -1      2002 1.11148E-04-3.22251E-05-3.38223E-05 1.17303E-05-5.91216E-19 1.29192E-18
 -1      2003 1.07254E-04-3.14182E-05-3.25293E-05 6.67830E-06 2.81109E-20 3.20753E-18
 -1      2004 1.09730E-04-3.21187E-05-3.32376E-05 7.46157E-06-3.82210E-19 2.88196E-18
 -1      2005 1.07329E-04-3.09793E-05-3.27094E-05 9.40654E-06-6.97042E-19 1.83973E-18
 -1      2006 1.04075E-04-3.06168E-05-3.14992E-05 4.96490E-06 1.97696E-19 3.63893E-18
 -1      2007 1.05979E-04-3.11230E-05-3.20546E-05 5.64621E-06 3.20549E-20 3.48122E-18
 -1      2008 1.04338E-04-3.02479E-05-3.17408E-05 7.19115E-06-6.79512E-20 2.12177E-18
 -1      2009 1.01664E-04-3.00428E-05-3.07047E-05 3.61918E-06-3.63298E-21 3.46772E-18
 -1      2010 1.03090E-04-3.04090E-05-3.11248E-05 4.15921E-06 3.35303E-19 3.78929E-18
 -1      2011 1.02014E-04-2.97785E-05-3.09489E-05 5.34652E-06 1.14280E-19 2.36119E-18
 -1      2012 9.98609E-05-2.96241E-05-3.01067E-05 2.60786E-06 2.72951E-19 3.84349E-18
 -1      2013 1.00911E-04-2.98888E-05-3.04178E-05 3.01649E-06 5.34544E-19 3.68001E-18
 -1      2014 1.00227E-04-2.94513E-05-3.03266E-05 3.90944E-06 4.06768E-19 2.65342E-18
 -1      2015 9.85251E-05-2.93163E-05-2.96635E-05 1.86511E-06-5.69742E-19 3.04220E-18
 -1      2016 9.92896E-05-2.95073E-05-2.98908E-05 2.16702E-06 1.28792E-20 3.37725E-18
 -1      2017 9.88683E-05-2.92110E-05-2.98500E-05 2.82894E-06 1.65158E-19 2.92965E-18
 -1      2018 9.75428E-05-2.90901E-05-2.93383E-05 1.32619E-06 5.84898E-19 2.22734E-18
 -1      2019 9.80965E-05-2.92276E-05-2.95031E-05 1.54637E-06-3.49914E-19 2.58841E-18
 -1      2020 9.78462E-05-2.90302E-05-2.94912E-05 2.03212E-06-5.83708E-20 2.46206E-18
 -1      2021 9.67980E-05-2.89179E-05-2.90919E-05 9.20463E-07 8.62270E-19 2.85790E-18
 -1      2022 9.72090E-05-2.90197E-05-2.92149E-05 1.08620E-06 8.02655E-19 2.55513E-18
 -1      2023 9.70694E-05-2.88897E-05-2.92189E-05 1.43963E-06 7.03138E-19 1.88803E-18
 -1      2024 9.62915E-05-2.88005E-05-2.89246E-05 6.44955E-07-8.79893E-19 2.93360E-18
 -1      2025 9.65687E-05-2.88688E-05-2.90076E-05 7.58857E-07 5.02781E-19 2.75672E-18
 -1      2026 9.64991E-05-2.87869E-05-2.90198E-05 1.01000E-06 2.95504E-19 2.09635E-18
 -1      2027 9.59283E-05-2.87165E-05-2.88048E-05 4.46904E-07-4.83007E-19 3.81059E-18
 -1      2028 9.61237E-05-2.87643E-05-2.88634E-05 5.29253E-07-8.71480E-19 3.06222E-18
 -1      2029 9.60953E-05-2.87124E-05-2.88789E-05 7.08978E-07-8.24472E-19 2.78725E-18
 -1      2030 9.56717E-05-2.86574E-05-2.87201E-05 3.04938E-07 9.54085E-19 3.48381E-18
 -1      2031 9.58079E-05-2.86904E-05-2.87611E-05 3.64327E-07 8.09923E-19 4.08288E-18
 -1      2032 9.58037E-05-2.86584E-05-2.87772E-05 4.91630E-07 7.05479E-19 3.00777E-18
 -1      2033 9.54934E-05-2.86168E-05-2.86610E-05 2.03608E-07 1.10669E-18 2.32353E-18
 -1      2034 9.55866E-05-2.86390E-05-2.86892E-05 2.46271E-07 9.16263E-19 3.29602E-18
 -1      2035 9.55962E-05-2.86202E-05-2.87046E-05 3.35257E-07 1.31053E-18 2.70339E-18
 -1      2036 9.53719E-05-2.85897E-05-2.86206E-05 1.31785E-07-7.86918E-19 1.88926E-18
 -1      2037 9.54344E-05-2.86042E-05-2.86396E-05 1.62237E-07 1.12049E-19 1.83174E-18
 -1      2038 9.54509E-05-2.85939E-05-2.86535E-05 2.23356E-07 5.16022E-19 1.62444E-18
 -1      2039 9.52915E-05-2.85723E-05-2.85936E-05 8.14080E-08-7.79522E-19 2.29397E-18
 -1      2040 9.53320E-05-2.85814E-05-2.86061E-05 1.02934E-07-1.15937E-18 2.40476E-18
 -1      2041 9.53513E-05-2.85766E-05-2.86182E-05 1.43931E-07-1.49105E-18 1.67300E-18
 -1      2042 9.52404E-05-2.85618E-05-2.85762E-05 4.66027E-08-1.61164E-19 1.65721E-18
 -1      2043 9.52654E-05-2.85671E-05-2.85840E-05 6.16090E-08-6.91814E-19 1.52290E-18
 -1      2044 9.52850E-05-2.85657E-05-2.85943E-05 8.82142E-08-3.85581E-19 4.05540E-19
 -1      2045 9.52097E-05-2.85562E-05-2.85656E-05 2.30614E-08-1.18761E-19 1.98009E-18
 -1      2046 9.52241E-05-2.85588E-05-2.85702E-05 3.33218E-08 2.57096E-19 1.58467E-18
 -1      2047 9.52425E-05-2.85595E-05-2.85787E-05 4.97650E-08 2.35270E-19 2.67790E-19
 -1      2048 9.51933E-05-2.85537E-05-2.85596E-05 7.61153E-09 1.13867E-18 2.44589E-18
 -1      2049 9.52004E-05-2.85547E-05-2.85620E-05 1.44397E-08-5.42515E-19 1.80077E-18
 -1      2050 9.52168E-05-2.85564E-05-2.85690E-05 2.38298E-08-2.18336E-19 4.40067E-19
 -1      2051 9.51862E-05-2.85533E-05-2.85568E-05-2.08848E-09 6.91833E-19 2.87668E-18
 -1      2052 9.51886E-05-2.85532E-05-2.85577E-05 2.28239E-09 1.16008E-18 3.45648E-18
 -1      2053 9.52029E-05-2.85555E-05-2.85633E-05 6.88904E-09 6.00998E-19 1.96077E-18
 -1      2054 9.51853E-05-2.85542E-05-2.85560E-05-7.76528E-09 3.37279E-19 1.80761E-18
 -1      2055 9.51846E-05-2.85535E-05-2.85560E-05-5.12853E-09 5.82844E-19 2.60207E-18
 -1      2056 9.51967E-05-2.85560E-05-2.85605E-05-3.66427E-09 8.40713E-19 1.99991E-18
 -1      2057 9.51881E-05-2.85559E-05-2.85566E-05-1.06876E-08 9.28189E-19 1.22019E-18
 -1      2058 9.51857E-05-2.85548E-05-2.85560E-05-9.24993E-09 9.21466E-20 1.31203E-18
 -1      2059 9.51956E-05-2.85572E-05-2.85594E-05-9.75669E-09 6.73650E-19 1.47782E-18
 -1      2060 9.51929E-05-2.85578E-05-2.85578E-05-1.17882E-08 5.18961E-19 1.63018E-18
 -1      2061 9.51896E-05-2.85566E-05-2.85569E-05-1.11458E-08 6.36426E-19 1.91208E-18
 -1      2062 9.51977E-05-2.85588E-05-2.85596E-05-1.28070E-08 5.81584E-19 2.54015E-18
 -1      2063 9.51990E-05-2.85600E-05-2.85595E-05-1.16883E-08-1.81919E-18 1.92409E-18
 -1      2064 9.51952E-05-2.85587E-05-2.85585E-05-1.15870E-08-4.25885E-19 1.66373E-18
 -1      2065 9.52016E-05-2.85606E-05-2.85605E-05-1.38336E-08-7.19399E-19 1.85444E-18
 -1      2066 9.52049E-05-2.85619E-05-2.85612E-05-1.08825E-08 1.63875E-19 2.24266E-19
 -1      2067 9.52013E-05-2.85608E-05-2.85602E-05-1.11082E-08-6.71301E-19 4.56403E-20
 -1      2068 9.52063E-05-2.85624E-05-2.85617E-05-1.35689E-08-1.18293E-19 3.03782E-19
 -1      2069 9.52106E-05-2.85637E-05-2.85629E-05-9.73294E-09 3.76263E-18 8.73786E-19
 -1      2070 9.52073E-05-2.85627E-05-2.85620E-05-1.01324E-08 1.97319E-18 6.42888E-19
 -1      2071 9.52111E-05-2.85641E-05-2.85630E-05-1.25603E-08 1.22122E-18-8.96512E-19
 -1      2072 9.52158E-05-2.85653E-05-2.85645E-05-8.44518E-09 1.31554E-18 7.72195E-19
 -1      2073 9.52128E-05-2.85644E-05-2.85636E-05-8.92200E-09 3.83706E-18 1.39309E-18
 -1      2074 9.52157E-05-2.85655E-05-2.85644E-05-1.11802E-08 3.15296E-18 6.45973E-19
 -1      2075 9.52204E-05-2.85666E-05-2.85659E-05-7.15615E-09-2.44190E-18 4.00226E-19
 -1      2076 9.52178E-05-2.85658E-05-2.85651E-05-7.64878E-09-1.04410E-18-1.27332E-19
 -1      2077 9.52199E-05-2.85667E-05-2.85656E-05-9.66614E-09-8.86855E-19 1.59682E-18
 -1      2078 9.52243E-05-2.85677E-05-2.85671E-05-5.94733E-09-4.05691E-18 4.10885E-19
 -1      2079 9.52221E-05-2.85671E-05-2.85664E-05-6.41826E-09-3.21643E-18-1.24408E-19
 -1      2080 9.52236E-05-2.85678E-05-2.85668E-05-8.16742E-09-3.29456E-18 9.83822E-19
 -1      2081 9.52276E-05-2.85687E-05-2.85681E-05-4.85953E-09-2.27755E-18 1.14896E-18
 -1      2082 9.52257E-05-2.85681E-05-2.85676E-05-5.28903E-09-3.67885E-18-3.62473E-20
 -1      2083 9.52268E-05-2.85687E-05-2.85678E-05-6.77021E-09-3.69119E-18-2.88470E-20
 -1      2084 9.52303E-05-2.85694E-05-2.85689E-05-3.90393E-09-5.16997E-20 2.01862E-18
 -1      2085 9.52288E-05-2.85690E-05-2.85685E-05-4.28551E-09-6.24390E-19 1.69661E-18
 -1      2086 9.52294E-05-2.85694E-05-2.85686E-05-5.51487E-09-1.19374E-18-8.67707E-19
 -1      2087 9.52325E-05-2.85700E-05-2.85696E-05-3.07001E-09 1.20852E-18 3.15933E-18
 -1      2088 9.52313E-05-2.85697E-05-2.85693E-05-3.40720E-09 3.02965E-19 2.78572E-18
 -1      2089 9.52316E-05-2.85700E-05-2.85693E-05-4.40836E-09 7.39253E-20 5.59320E-19
 -1      2090 9.52342E-05-2.85705E-05-2.85701E-05-2.33066E-09 1.70280E-18 3.83609E-18
 -1      2091 9.52332E-05-2.85703E-05-2.85699E-05-2.63533E-09 1.08909E-18 4.41620E-18
 -1      2092 9.52334E-05-2.85705E-05-2.85698E-05-3.43362E-09 2.46245E-19 2.99269E-18
 -1      2093 9.52355E-05-2.85709E-05-2.85705E-05-1.64736E-09-2.04658E-18 4.37280E-18
 -1      2094 9.52348E-05-2.85707E-05-2.85703E-05-1.93771E-09 1.37228E-18 3.76482E-18
 -1      2095 9.52348E-05-2.85708E-05-2.85703E-05-2.55616E-09 1.02307E-18 3.09498E-18
 -1      2096 9.52364E-05-2.85712E-05-2.85708E-05-9.89598E-10 1.98085E-18 2.42637E-18
 -1      2097 9.52359E-05-2.85710E-05-2.85707E-05-1.27885E-09-4.70661E-19 3.52553E-18
 -1      2098 9.52359E-05-2.85712E-05-2.85706E-05-1.73782E-09-1.26733E-19 1.74902E-18
 -1      2099 9.52369E-05-2.85713E-05-2.85710E-05-5.09360E-10 9.99865E-20 5.83968E-19
 -1      2100 9.52366E-05-2.85713E-05-2.85709E-05-7.82296E-10 1.04270E-18 1.35806E-18
 -1      2101 9.52365E-05-2.85714E-05-2.85708E-05-1.10695E-09 1.40618E-18 1.64924E-19
 -1      2102 9.52369E-05-2.85715E-05-2.85709E-05-6.47359E-10 2.79919E-19 4.78759E-19
 -1      2103 9.52379E-05-2.85738E-05-2.85703E-05-1.92894E-09 1.17059E-18-1.10750E-18
 -1      2104 9.52377E-05-2.85733E-05-2.85704E-05-1.86784E-09 6.60705E-19-1.71030E-19
 -1      2105 9.52375E-05-2.85729E-05-2.85705E-05-1.71917E-09 7.01295E-19-1.13263E-18
 -1      2106 9.52372E-05-2.85724E-05-2.85707E-05-1.52169E-09 1.72259E-18-6.47038E-19
 -1      2107 9.52375E-05-2.85731E-05-2.85704E-05-2.30753E-09 1.33712E-18-5.53340E-19
 -1      2108 9.52371E-05-2.85721E-05-2.85707E-05-1.24556E-09 1.36329E-18-1.00250E-18
 -1      2109 9.52370E-05-2.85717E-05-2.85708E-05-9.61546E-10 9.29980E-19-5.84065E-19
 -1      2110 9.52368E-05-2.85717E-05-2.85708E-05-1.20569E-09 1.10692E-18-1.08332E-19
 -1      2111 9.52371E-05-2.85723E-05-2.85706E-05-1.83573E-09 2.24956E-18-6.19551E-19
 -1      2112 9.52384E-05-2.85748E-05-2.85701E-05-1.83873E-09-7.40919E-19-4.06035E-18
 -1      2113 9.52381E-05-2.85743E-05-2.85702E-05-1.90984E-09 8.61262E-19-3.24861E-18
 -1      2114 9.52380E-05-2.85741E-05-2.85703E-05-2.44506E-09 5.69964E-19-2.90188E-18
 -1      2115 9.52387E-05-2.85756E-05-2.85699E-05-1.47401E-09 4.31405E-19-2.88023E-19
 -1      2116 9.52385E-05-2.85752E-05-2.85700E-05-1.66104E-09-8.51313E-20-5.90600E-19
 -1      2117 9.52385E-05-2.85749E-05-2.85701E-05-2.21853E-09 4.82757E-19-1.75297E-18
 -1      2118 9.52390E-05-2.85762E-05-2.85698E-05-8.99037E-10-1.27342E-19 8.16614E-19
 -1      2119 9.52389E-05-2.85759E-05-2.85698E-05-1.16894E-09-9.63620E-20 9.31320E-19
 -1      2120 9.52389E-05-2.85757E-05-2.85700E-05-1.67158E-09 1.03789E-18-2.69324E-19
 -1      2121 9.52391E-05-2.85764E-05-2.85697E-05-2.00415E-10 1.28787E-19 2.09528E-18
 -1      2122 9.52391E-05-2.85763E-05-2.85697E-05-5.13178E-10 1.17450E-20 2.16255E-18
 -1      2123 9.52392E-05-2.85761E-05-2.85699E-05-8.92139E-10 3.39742E-19 1.98626E-18
 -1      2124 9.52391E-05-2.85763E-05-2.85697E-05 5.24846E-10-9.10285E-19-2.00893E-18
 -1      2125 9.52391E-05-2.85764E-05-2.85697E-05 2.12601E-10-4.49787E-19 1.32120E-18
 -1      2126 9.52393E-05-2.85763E-05-2.85699E-05 7.98192E-12-7.30051E-19 1.01288E-18
 -1      2127 9.52389E-05-2.85759E-05-2.85698E-05 1.17782E-09-2.20991E-18-4.06586E-18
 -1      2128 9.52390E-05-2.85761E-05-2.85698E-05 9.09455E-10-1.04495E-18-3.58374E-18
 -1      2129 9.52392E-05-2.85761E-05-2.85699E-05 9.06593E-10-2.09943E-18-2.03193E-18
 -1      2130 9.52385E-05-2.85752E-05-2.85700E-05 1.65974E-09-8.75525E-19-4.69546E-18
 -1      2131 9.52387E-05-2.85756E-05-2.85699E-05 1.47671E-09-5.64485E-19-4.41506E-18
 -1      2132 9.52389E-05-2.85757E-05-2.85700E-05 1.67704E-09-1.46621E-18-3.70041E-18
 -1      2133 9.52381E-05-2.85743E-05-2.85702E-05 1.90903E-09 1.07369E-18 3.92276E-18
 -1      2134 9.52384E-05-2.85748E-05-2.85701E-05 1.83777E-09 1.21738E-18-1.21527E-18
 -1      2135 9.52385E-05-2.85749E-05-2.85701E-05 2.21768E-09 1.78026E-18-1.57614E-18
 -1      2136 9.52377E-05-2.85733E-05-2.85705E-05 1.86462E-09 6.24061E-19 4.14521E-18
 -1      2137 9.52379E-05-2.85738E-05-2.85703E-05 1.92691E-09 2.77925E-19 5.44359E-18
 -1      2138 9.52380E-05-2.85740E-05-2.85703E-05 2.44277E-09 1.96692E-18 3.46152E-18
 -1      2139 9.52372E-05-2.85724E-05-2.85707E-05 1.51523E-09 5.47666E-19 1.39069E-18
 -1      2140 9.52374E-05-2.85728E-05-2.85705E-05 1.71354E-09 1.69100E-19 2.18275E-18
 -1      2141 9.52375E-05-2.85731E-05-2.85705E-05 2.30212E-09 4.38740E-19 3.18919E-18
 -1      2142 5.61337E-05-4.21850E-05-7.08169E-06 3.58039E-05 5.30031E-18 1.64250E-18
 -1      2143 4.03142E-05-4.16235E-05-1.04251E-06 2.85371E-05 4.58118E-18 2.46021E-18
 -1      2144 1.09447E-05-3.35279E-05 8.21527E-06-1.56205E-06 3.80106E-18 5.50571E-18
 -1      2145 1.19354E-05-3.42034E-05 7.99618E-06-1.06870E-05 2.74142E-18 4.80734E-18
 -1      2146 2.52276E-05-3.28532E-05 2.46779E-06 2.20084E-05 3.71720E-18 4.24194E-18
 -1      2147 1.70713E-05-3.31061E-05 5.61904E-06 1.09405E-05 2.69579E-18 5.20163E-18
 -1      2148 1.09283E-04-5.40686E-05-2.42913E-05 3.78622E-05 3.97978E-18-2.59277E-18
 -1      2149 7.99393E-05-4.95167E-05-1.45324E-05 3.48634E-05 5.16732E-18-1.48231E-19
 -1      2150 8.24879E-05-5.06526E-05-1.39086E-05 3.94520E-05 2.18704E-18-1.39389E-18
 -1      2151 1.57470E-04-5.26039E-05-4.40329E-05 2.67856E-05 4.22796E-18-1.34594E-18
 -1      2152 1.35782E-04-5.66249E-05-3.42688E-05 2.57743E-05 4.19154E-18-2.06845E-18
 -1      2153 9.71709E-05-1.39471E-05-3.57558E-05-1.18783E-05 2.18670E-19-4.10570E-18
 -1      2154 9.71867E-05-1.37672E-05-3.59104E-05-1.43898E-05-1.67623E-19-4.23326E-18
 -1      2155 9.99717E-05-1.79477E-05-3.52325E-05-1.54306E-05-4.82432E-19-3.91763E-18
 -1      2156 9.99709E-05-1.80359E-05-3.51322E-05-1.11300E-05 3.19389E-19-3.73084E-18
 -1      2157 1.94811E-04-3.46789E-05-6.75034E-05 1.36172E-06 3.94251E-18-2.89389E-18
 -1      2158 1.91521E-04-3.89839E-05-6.37455E-05 9.16675E-06 4.09117E-18-2.33951E-18
 -1      2159 1.99577E-04-3.08614E-05-7.02855E-05 1.83689E-06 3.80021E-18-3.83897E-18
 -1      2160 1.92905E-04-2.81730E-05-6.92711E-05 2.56742E-06 3.98105E-18-2.60928E-18
 -1      2161 1.89295E-04-3.61814E-05-6.46660E-05 3.94161E-07 2.79606E-18-3.90313E-18
 -1      2162 1.99723E-04-3.47690E-05-6.89641E-05 2.36305E-06 3.33773E-18-3.81991E-18
 -1      2163 1.70402E-04-4.89142E-05-5.19882E-05-1.09145E-05 2.66477E-18-4.95260E-18
 -1      2164 1.85936E-04-4.63178E-05-5.89715E-05-4.30739E-06 2.29641E-18-4.29319E-18
 -1      2165 1.38587E-04-5.22915E-05-3.77604E-05-2.36934E-05 3.01459E-18-5.20290E-18
 -1      2166 1.62694E-04-5.29503E-05-4.64407E-05-2.19906E-05 3.01523E-18-5.42270E-18
 -1      2167 1.68908E-04-5.67126E-05-4.71925E-05 1.32467E-06 1.14021E-18-1.88719E-18
 -1      2168 9.37678E-05-4.94992E-05-2.03262E-05-3.15140E-05 2.59150E-18-5.06568E-18
 -1      2169 1.17869E-04-5.03958E-05-2.91301E-05-3.49518E-05 3.33900E-18-5.74585E-18
 -1      2170 5.24931E-05-3.78852E-05-7.12193E-06-2.97903E-05 1.80799E-18-4.65762E-18
 -1      2171 7.24509E-05-4.22784E-05-1.34626E-05-3.56025E-05 2.47757E-18-5.19541E-18
 -1      2172 1.67144E-05-2.79712E-05 3.10684E-06-9.72367E-06 1.43445E-18-4.69002E-18
 -1      2173 2.79184E-05-2.76045E-05-1.14510E-06-2.14030E-05 1.95919E-18-4.89818E-18
 -1      2174 7.95775E-06-2.15046E-05 4.68554E-06 9.18228E-06 4.41939E-19-4.28768E-18
 -1      2175 1.00235E-05-2.42004E-05 4.79142E-06-5.28735E-07 1.55716E-18-4.49097E-18
 -1      2176 1.85352E-05-2.11615E-05 2.99575E-07 2.94263E-05-7.15743E-19-3.81377E-18
 -1      2177 1.20476E-05-2.29667E-05 3.47996E-06 2.02353E-05 4.65445E-19-3.95141E-18
 -1      2178 4.82997E-05-2.51436E-05-1.03240E-05 4.36742E-05-2.14384E-18-3.12566E-18
 -1      2179 3.48039E-05-2.63272E-05-4.58120E-06 3.70059E-05-7.66141E-19-3.19713E-18
 -1      2180 8.47961E-05-3.04289E-05-2.33848E-05 4.83424E-05-2.81893E-18-2.50658E-18
 -1      2181 6.46961E-05-3.05778E-05-1.56480E-05 4.30406E-05-2.52373E-18-2.82909E-18
 -1      2182 6.77072E-05-3.23210E-05-1.52352E-05 4.72476E-05 3.65071E-19-2.05882E-18
 -1      2183 1.26238E-04-3.35518E-05-3.93200E-05 4.26414E-05-3.82012E-18-1.72795E-18
 -1      2184 1.05688E-04-3.37482E-05-3.14159E-05 4.12380E-05-3.51857E-18-2.05490E-18
 -1      2185 1.57453E-04-3.27621E-05-5.27602E-05 2.84391E-05-4.14821E-18-5.71324E-19
 -1      2186 1.39207E-04-3.25327E-05-4.58427E-05 3.28671E-05-4.11393E-18-1.36923E-18
 -1      2187 1.81052E-04-2.82550E-05-6.42694E-05 1.47838E-05-4.36074E-18 4.90856E-19
 -1      2188 1.65095E-04-2.68485E-05-5.89687E-05 2.02879E-05-4.56805E-18-4.81115E-19
 -1      2189 1.83854E-04-2.33713E-05-6.78701E-05-6.51129E-07-3.69095E-18 1.30231E-18
 -1      2190 1.79858E-04-2.32037E-05-6.63539E-05 7.87656E-06-4.09202E-18 5.77888E-19
 -1      2191 1.76349E-04-2.13770E-05-6.56339E-05-1.02775E-05-3.19162E-18 1.38956E-18
 -1      2192 1.85175E-04-2.32734E-05-6.80237E-05-3.77278E-06-3.22296E-18 1.31867E-18
 -1      2193 1.59551E-04-1.03532E-05-6.29702E-05-1.33119E-06-3.77734E-18 1.71418E-19
 -1      2194 1.66610E-04-2.96929E-05-5.78288E-05-2.56522E-05-3.07304E-18 2.87906E-18
 -1      2195 1.76075E-04-2.80647E-05-6.24254E-05-1.65362E-05-2.96398E-18 1.98121E-18
 -1      2196 1.40834E-04-3.55110E-05-4.51299E-05-3.31665E-05-2.51791E-18 3.15223E-18
 -1      2197 1.59932E-04-3.42822E-05-5.26229E-05-3.32131E-05-3.07118E-18 3.47961E-18
 -1      2198 1.07652E-04-4.13689E-05-2.89692E-05-4.14006E-05-5.35748E-19 3.98868E-18
 -1      2199 1.28092E-04-4.08224E-05-3.69765E-05-4.14542E-05-1.22354E-18 3.55881E-18
 -1      2200 7.60277E-05-4.22701E-05-1.52821E-05-4.32889E-05 6.67885E-19 3.88407E-18
 -1      2201 9.30601E-05-3.97307E-05-2.27732E-05-4.74750E-05-3.65495E-19 3.95882E-18
 -1      2202 1.13891E-04-5.16832E-05-2.64932E-05-4.03311E-05 1.65722E-18 2.73782E-18
 -1      2203 3.87555E-05-3.85696E-05-1.56202E-06-3.48659E-05 1.76733E-18 4.76742E-18
 -1      2204 5.30657E-05-3.58526E-05-7.87817E-06-4.35963E-05 5.37866E-19 4.84153E-18
 -1      2205 1.82854E-05-3.55519E-05 5.83013E-06-2.09022E-05 2.70818E-18 4.47233E-18
 -1      2206 2.54622E-05-3.34468E-05 2.42026E-06-2.94196E-05 1.63139E-18 5.03053E-18
 -1      2207 1.84592E-04-4.65746E-05-5.78414E-05 1.48049E-05 4.14922E-18-2.18111E-18
 -1      2208 1.65429E-04-4.82580E-05-5.02816E-05 1.78519E-05 4.58954E-18-1.21295E-18
 -1      2209 1.64184E-04-5.83149E-05-4.49832E-05 4.56378E-06 4.05792E-18-1.93124E-18
 -1      2210 1.30597E-04-6.02450E-05-3.01753E-05 2.76423E-05 3.73796E-18-2.94047E-18
 -1      2211 1.25625E-04-6.24420E-05-2.65802E-05 2.90182E-05 2.45809E-18-3.95141E-18
 -1      2212 1.47079E-04-6.59403E-05-3.55857E-05 1.42328E-05 2.59541E-18-2.89812E-18
 -1      2213 1.02216E-04-2.60722E-05-3.27317E-05-1.37555E-05-1.79764E-18-2.66919E-18
 -1      2214 1.77075E-04-4.26850E-05-5.62976E-05-6.13429E-06 4.77240E-18-1.82663E-18
 -1      2215 1.02101E-04-2.53505E-05-3.29454E-05-1.51861E-05-1.78454E-18-2.86726E-18
 -1      2216 3.99496E-05-3.37712E-05-3.22589E-06 3.04696E-05 1.12994E-18 2.14321E-18
 -1      2217 1.65128E-05-2.31088E-05 2.26560E-06 7.63215E-06 8.90549E-19 5.37951E-18
 -1      2218 9.52371E-05-2.85721E-05-2.85707E-05 1.43897E-09 4.44891E-19 2.58988E-19
 -1      2219 1.71006E-05-2.51154E-05 2.67600E-06-1.97089E-05 1.68115E-18 5.24229E-18
 -1      2220 7.58597E-05-4.43042E-05-1.36838E-05-4.71576E-05 2.19509E-18 3.87817E-18
 -1      2221 1.40725E-04-4.68065E-05-3.98389E-05-2.66844E-05-2.69992E-19 1.80460E-18
 -1      2222 1.66752E-04-2.13162E-05-6.16562E-05-6.42025E-06-2.55973E-18 7.95576E-19
 -1      2223 1.49887E-04-1.25046E-05-5.93980E-05 2.53834E-06-2.46698E-18-1.55748E-19
 -1      2224 1.52774E-04-1.99086E-05-5.67195E-05-3.17634E-07-2.14786E-18-4.80691E-19
 -1      2225 1.61485E-04-1.63650E-05-6.10979E-05 6.68625E-07-4.54518E-18 4.99961E-19
 -1      2226 1.56691E-04-3.04161E-05-5.33664E-05 1.00053E-05-4.13585E-18 1.99476E-19
 -1      2227 1.05718E-04-4.09885E-05-2.76071E-05 4.13460E-05-1.30380E-18-9.32583E-19
 -1      2228 3.27080E-05-2.03794E-05-5.56984E-06 3.91004E-05 1.20300E-18-3.48660E-18
 -1      2229 1.16258E-05-1.33867E-05 2.28177E-07 1.67736E-05 1.57972E-18-4.53713E-18
 -1      2230 1.61244E-05-1.61368E-05-4.86444E-07-8.18057E-06 1.51884E-18-5.09448E-18
 -1      2231 4.59467E-05-3.11177E-05-6.78058E-06-2.78778E-05 1.51111E-18-4.58097E-18
 -1      2232 6.47134E-05-3.47846E-05-1.30661E-05-3.29916E-05 4.35587E-19-3.91033E-18
 -1      2233 4.06715E-05-2.23916E-05-7.52714E-06-2.62953E-05 1.02237E-18-4.32156E-18
 -1      2234 1.41977E-04-6.19017E-05-3.42704E-05-1.92489E-05 1.13608E-18-3.33096E-18
 -1      2235 1.76643E-04-3.95439E-05-5.76060E-05 1.42540E-05 1.72519E-18-1.36203E-18
 -1      2236 1.78610E-04-2.68264E-05-6.38689E-05-4.01859E-06 4.44184E-18-1.47045E-18
 -1      2237 1.75793E-04-2.31463E-05-6.37627E-05 8.52320E-06 3.28141E-18-9.91346E-19
 -1      2238 9.69661E-05-5.24615E-05-1.95639E-05-3.29873E-05 7.98752E-19-4.20938E-18
 -1      2239 1.38320E-04-4.06235E-05-4.14031E-05 2.54406E-05-2.85450E-18 4.70103E-20
 -1      2240 1.57825E-04-3.33096E-05-5.24932E-05-1.36461E-05-2.05300E-18 1.02533E-18
 -1      2241 3.85071E-05-3.24824E-05-3.05930E-06-3.90592E-05 2.11038E-18 5.31852E-18
 -1      2242 1.28360E-04-4.30776E-05-3.65716E-05-6.15978E-06 7.45389E-20 2.99871E-18
 -1      2243 1.25388E-04-3.86439E-05-3.69560E-05-7.02052E-06 3.79100E-19 3.12415E-18
 -1      2244 9.96685E-05-2.29235E-05-3.28863E-05 2.29977E-06 1.81181E-18-2.17734E-18
 -1      2245 1.01502E-04-2.32380E-05-3.36377E-05-1.29784E-06 1.45271E-18-2.54954E-18
 -1      2246 1.02289E-04-2.26798E-05-3.41382E-05-4.97146E-06 1.15162E-18-2.82934E-18
 -1      2247 1.02618E-04-2.23325E-05-3.45285E-05-7.89018E-06 7.55132E-19-3.16197E-18
 -1      2248 1.04973E-04-2.63401E-05-3.37017E-05-3.90228E-06 1.19185E-18-2.37909E-18
 -1      2249 7.99711E-05-1.47756E-05-2.79961E-05 1.91876E-05 3.26298E-18-1.61714E-18
 -1      2250 8.69974E-05-1.82148E-05-2.93873E-05 1.59617E-05 2.96810E-18-1.70443E-18
 -1      2251 6.32183E-05-5.12095E-06-2.50007E-05 2.30103E-05 3.72379E-18-1.86161E-18
 -1      2252 7.15163E-05-9.59686E-06-2.63133E-05 2.21607E-05 3.57319E-18-1.77155E-18
 -1      2253 7.82330E-05-1.62828E-05-2.66147E-05 2.35263E-05 3.41541E-18-1.48608E-18
 -1      2254 4.91093E-05 4.25732E-06-2.29262E-05 1.92280E-05 3.73798E-18-2.30290E-18
 -1      2255 5.48719E-05 8.33135E-07-2.36056E-05 2.15989E-05 3.78368E-18-2.22145E-18
 -1      2256 5.94159E-05-4.88207E-06-2.32593E-05 2.59178E-05 3.87962E-18-2.04212E-18
 -1      2257 4.63551E-05 7.43542E-06-2.29585E-05 8.93515E-06 3.34407E-18-2.22277E-18
 -1      2258 4.56688E-05 7.24060E-06-2.25320E-05 1.32655E-05 3.54226E-18-2.38843E-18
 -1      2259 4.54388E-05 4.62938E-06-2.11686E-05 1.82075E-05 3.71318E-18-2.51820E-18
 -1      2260 5.94339E-05 1.03171E-06-2.56852E-05-1.26566E-06 2.68055E-18-1.50405E-18
 -1      2261 5.13143E-05 4.68372E-06-2.40331E-05 2.08009E-06 2.91850E-18-1.99836E-18
 -1      2262 4.65452E-05 5.01710E-06-2.17856E-05 4.43701E-06 3.07549E-18-2.42005E-18
 -1      2263 8.36548E-05-1.20907E-05-3.05312E-05-5.34796E-06 2.08336E-18-6.06555E-20
 -1      2264 7.10675E-05-6.00246E-06-2.80222E-05-4.66914E-06 2.23817E-18-8.34169E-19
 -1      2265 6.48125E-05-5.22541E-06-2.53764E-05-6.48462E-06 2.22596E-18-1.44647E-18
 -1      2266 1.38792E-04-5.33113E-05-3.66993E-05 8.21290E-07-7.80541E-19 3.02078E-18
 -1      2267 1.34869E-04-4.90902E-05-3.64375E-05-4.36522E-06-5.00636E-19 2.98324E-18
 -1      2268 1.23253E-04-4.52730E-05-3.35829E-05-9.91545E-06-1.93838E-19 1.55849E-18
 -1      2269 1.01826E-04-2.78519E-05-3.16805E-05-1.24284E-05-1.36292E-18-2.61337E-18
 -1      2270 1.00332E-04-2.80983E-05-3.09724E-05-1.09386E-05-1.17844E-18-2.46894E-18
 -1      2271 1.65248E-04-3.80140E-05-5.50255E-05-1.47453E-05 4.56275E-18-1.13608E-18
 -1      2272 1.63186E-04-4.67673E-05-5.01629E-05-1.37239E-05 4.25825E-18-1.53228E-18
 -1      2273 9.94852E-05-2.81617E-05-3.05299E-05-1.00176E-05-1.09833E-18-2.28686E-18
 -1      2274 9.79904E-05-2.77009E-05-3.00988E-05-8.97907E-06-1.01022E-18-2.29471E-18
 -1      2275 1.01713E-04-2.79543E-05-3.16019E-05-1.19664E-05-1.14035E-18-2.46659E-18
 -1      2276 9.68044E-05-2.71149E-05-2.98474E-05-7.88766E-06-1.03709E-18-2.12238E-18
 -1      2277 9.55381E-05-2.63993E-05-2.95868E-05-6.69564E-06-8.64606E-19-2.19883E-18
 -1      2278 9.96184E-05-2.73748E-05-3.09635E-05-9.82917E-06-9.55642E-19-2.18755E-18
 -1      2279 9.44358E-05-2.56866E-05-2.94485E-05-5.14153E-06-7.61385E-19-2.22744E-18
 -1      2280 9.36013E-05-2.51242E-05-2.93021E-05-3.61536E-06-6.91437E-19-2.28210E-18
 -1      2281 9.72944E-05-2.58849E-05-3.06236E-05-7.02109E-06-8.95732E-19-1.98442E-18
 -1      2282 9.29419E-05-2.47165E-05-2.92134E-05-1.65195E-06-5.92787E-19-2.43432E-18
 -1      2283 9.26835E-05-2.46044E-05-2.91468E-05 5.32256E-08-5.46694E-19-2.48830E-18
 -1      2284 9.55038E-05-2.45884E-05-3.04267E-05-3.25308E-06-7.71512E-19-2.10698E-18
 -1      2285 9.26682E-05-2.47514E-05-2.90667E-05 2.05172E-06-7.08397E-19-2.58444E-18
 -1      2286 9.29985E-05-2.51795E-05-2.90585E-05 3.58185E-06-6.89678E-19-2.60936E-18
 -1      2287 9.48360E-05-2.43275E-05-3.02552E-05 1.01170E-06-6.79889E-19-2.13239E-18
 -1      2288 9.35542E-05-2.58435E-05-2.89735E-05 5.12653E-06-7.26827E-19-2.79698E-18
 -1      2289 9.43230E-05-2.66610E-05-2.90106E-05 6.13930E-06-5.85054E-19-2.74713E-18
 -1      2290 9.54317E-05-2.53681E-05-3.00506E-05 4.81489E-06-7.85892E-19-2.59510E-18
 -1      2291 9.51471E-05-2.75651E-05-2.89283E-05 6.90254E-06-6.80424E-19-2.72947E-18
 -1      2292 9.61038E-05-2.84862E-05-2.89999E-05 7.24279E-06-6.18071E-19-2.85802E-18
 -1      2293 9.68956E-05-2.73323E-05-2.98153E-05 7.25552E-06-6.89117E-19-2.78794E-18
 -1      2294 9.68543E-05-2.93038E-05-2.89348E-05 7.19799E-06-2.51163E-19-2.66283E-18
 -1      2295 9.77563E-05-3.00682E-05-2.90279E-05 6.93465E-06 1.85381E-19-2.68560E-18
 -1      2296 9.85485E-05-2.94803E-05-2.95873E-05 7.96766E-06-4.15158E-19-2.19117E-18
 -1      2297 9.82177E-05-3.05900E-05-2.89886E-05 6.30025E-06 1.80981E-19-2.63092E-18
 -1      2298 9.89083E-05-3.10641E-05-2.90871E-05 5.64530E-06 2.28069E-19-2.80305E-18
 -1      2299 9.98093E-05-3.11534E-05-2.94055E-05 7.19200E-06 6.10956E-20-2.14169E-18
 -1      2300 9.90360E-05-3.12475E-05-2.90719E-05 4.72841E-06 3.96620E-19-2.62981E-18
 -1      2301 9.94614E-05-3.14286E-05-2.91599E-05 3.92083E-06 4.48650E-19-2.49982E-18
 -1      2302 1.00415E-04-3.20416E-05-2.92876E-05 5.51732E-06 3.78151E-19-2.22962E-18
 -1      2303 9.93257E-05-3.13469E-05-2.91596E-05 2.98403E-06 2.48872E-19-2.51871E-18
 -1      2304 9.95072E-05-3.13092E-05-2.92251E-05 2.21048E-06 1.84068E-19-2.55801E-18
 -1      2305 1.00401E-04-3.21843E-05-2.92269E-05 3.55506E-06 3.81118E-19-2.42214E-18
 -1      2306 9.92159E-05-3.10747E-05-2.92286E-05 1.41587E-06 1.08592E-20-2.27849E-18
 -1      2307 9.92108E-05-3.09110E-05-2.92659E-05 7.84056E-07 1.39978E-19-2.10496E-18
 -1      2308 9.99573E-05-3.18121E-05-2.92020E-05 1.74554E-06 3.31199E-19-1.87985E-18
 -1      2309 9.88586E-05-3.06228E-05-2.92648E-05 1.97905E-07 2.47253E-20-1.93941E-18
 -1      2310 9.87307E-05-3.04104E-05-2.92740E-05-2.54130E-07 3.64820E-20-2.11589E-18
 -1      2311 9.92951E-05-3.11865E-05-2.91901E-05 3.16594E-07 1.17034E-19-1.29070E-18
 -1      2312 9.83808E-05-3.01336E-05-2.92639E-05-6.31115E-07-2.77657E-19-2.41923E-18
 -1      2313 9.81847E-05-2.99228E-05-2.92496E-05-9.11481E-07-3.52591E-19-2.10781E-18
 -1      2314 9.85764E-05-3.05096E-05-2.91742E-05-6.71413E-07-3.33687E-19-1.39368E-18
 -1      2315 9.78706E-05-2.96902E-05-2.92296E-05-1.11275E-06-2.77252E-19-2.15333E-18
 -1      2316 9.76468E-05-2.95069E-05-2.91984E-05-1.25288E-06-6.62529E-19-1.91221E-18
 -1      2317 9.78994E-05-2.99014E-05-2.91454E-05-1.25828E-06-4.48813E-19-1.46824E-18
 -1      2318 9.73812E-05-2.93283E-05-2.91704E-05-1.32339E-06-9.01370E-19-1.62805E-18
 -1      2319 9.71573E-05-2.91818E-05-2.91290E-05-1.36157E-06-4.04890E-19-1.54989E-18
 -1      2320 9.73103E-05-2.94138E-05-2.91019E-05-1.52809E-06-5.14401E-19-1.26067E-18
 -1      2321 9.69410E-05-2.90539E-05-2.90960E-05-1.34468E-06 6.93323E-20-1.64696E-18
 -1      2322 9.67333E-05-2.89436E-05-2.90503E-05-1.31657E-06 3.59276E-19-1.94659E-18
 -1      2323 9.68222E-05-2.90541E-05-2.90466E-05-1.57328E-06-2.61095E-19-3.40364E-19
 -1      2324 9.65615E-05-2.88574E-05-2.90153E-05-1.24805E-06 5.70949E-19-2.31010E-18
 -1      2325 9.63787E-05-2.87784E-05-2.89699E-05-1.18243E-06 5.83351E-19-2.39229E-18
 -1      2326 9.64304E-05-2.88071E-05-2.89842E-05-1.47591E-06 1.58191E-19-7.80131E-19
 -1      2327 9.62446E-05-2.87237E-05-2.89355E-05-1.08891E-06 8.20609E-19-2.44856E-18
 -1      2328 9.60901E-05-2.86696E-05-2.88934E-05-1.00674E-06 1.13767E-18-2.24177E-18
 -1      2329 9.61227E-05-2.86489E-05-2.89197E-05-1.30042E-06 7.15922E-19-1.70775E-18
 -1      2330 9.59867E-05-2.86373E-05-2.88614E-05-9.06354E-07 1.21530E-18-1.76751E-18
 -1      2331 9.58603E-05-2.86017E-05-2.88244E-05-8.21578E-07 1.05800E-18-1.14030E-18
 -1      2332 9.58846E-05-2.85557E-05-2.88573E-05-1.09294E-06 1.41539E-18-1.61414E-18
 -1      2333 9.57815E-05-2.85845E-05-2.87959E-05-7.25575E-07 1.11130E-18-8.97113E-19
 -1      2334 9.56811E-05-2.85623E-05-2.87647E-05-6.46542E-07 1.39438E-18-6.13627E-19
 -1      2335 9.57028E-05-2.85069E-05-2.88000E-05-8.83768E-07 1.48473E-18-1.34783E-18
 -1      2336 9.56217E-05-2.85547E-05-2.87404E-05-5.61069E-07 6.27188E-19-6.40978E-19
 -1      2337 9.55441E-05-2.85418E-05-2.87149E-05-4.92071E-07 9.76923E-20-8.70807E-19
 -1      2338 9.55656E-05-2.84869E-05-2.87495E-05-6.90810E-07 8.75745E-19-1.10483E-18
 -1      2339 9.54998E-05-2.85400E-05-2.86948E-05-4.19750E-07-1.13066E-19-3.85753E-19
 -1      2340 9.54413E-05-2.85332E-05-2.86746E-05-3.62348E-07-4.70356E-22-3.23757E-19
 -1      2341 9.54632E-05-2.84840E-05-2.87066E-05-5.23085E-07 1.32676E-19-3.08882E-19
 -1      2342 9.54089E-05-2.85346E-05-2.86585E-05-3.03553E-07 3.74251E-19-3.23603E-19
 -1      2343 9.53660E-05-2.85318E-05-2.86430E-05-2.57619E-07 5.76911E-19 3.53248E-19
 -1      2344 9.53879E-05-2.84906E-05-2.86713E-05-3.83644E-07 3.55436E-19-2.07898E-20
 -1      2345 9.53425E-05-2.85346E-05-2.86304E-05-2.11414E-07-2.21625E-19-1.06424E-19
 -1      2346 9.53121E-05-2.85343E-05-2.86189E-05-1.75882E-07 2.87122E-20 2.63602E-19
 -1      2347 9.53332E-05-2.85016E-05-2.86430E-05-2.71855E-07-1.50004E-19-1.45215E-19
 -1      2348 9.52955E-05-2.85377E-05-2.86093E-05-1.40676E-07-1.00584E-19 3.80615E-19
 -1      2349 9.52746E-05-2.85387E-05-2.86010E-05-1.14049E-07-9.48530E-19-2.85513E-20
 -1      2350 9.52944E-05-2.85138E-05-2.86209E-05-1.85047E-07-2.24176E-19-1.48101E-20
 -1      2351 9.52632E-05-2.85421E-05-2.85938E-05-8.80233E-08-1.44970E-18-2.73166E-19
 -1      2352 9.52495E-05-2.85438E-05-2.85881E-05-6.86989E-08-1.08073E-18 5.89291E-20
 -1      2353 9.52674E-05-2.85256E-05-2.86041E-05-1.19626E-07-1.29073E-18 3.55457E-19
 -1      2354 9.52418E-05-2.85468E-05-2.85829E-05-5.00583E-08-1.08787E-18-4.04258E-20
 -1      2355 9.52334E-05-2.85488E-05-2.85791E-05-3.65152E-08-3.70991E-19 3.26549E-19
 -1      2356 9.52492E-05-2.85361E-05-2.85917E-05-7.17828E-08-8.22068E-19 5.34820E-19
 -1      2357 9.52286E-05-2.85514E-05-2.85755E-05-2.36335E-08-6.87629E-20-7.01183E-19
 -1      2358 9.52240E-05-2.85534E-05-2.85731E-05-1.45269E-08 5.83928E-19-4.77345E-20
 -1      2359 9.52375E-05-2.85450E-05-2.85828E-05-3.79114E-08-8.01810E-19 7.12736E-19
 -1      2360 9.52211E-05-2.85555E-05-2.85707E-05-6.00840E-09 4.93197E-19-2.71080E-19
 -1      2361 9.52191E-05-2.85573E-05-2.85693E-05-2.07369E-10 2.24224E-20-7.20128E-19
 -1      2362 9.52304E-05-2.85521E-05-2.85766E-05-1.48199E-08 1.61566E-19-7.36872E-19
 -1      2363 9.52176E-05-2.85590E-05-2.85678E-05 5.09815E-09-2.92877E-19-3.91480E-19
 -1      2364 9.52173E-05-2.85606E-05-2.85671E-05 8.50933E-09-7.13046E-19-5.13270E-20
 -1      2365 9.52265E-05-2.85577E-05-2.85725E-05 1.84631E-10 1.01399E-19-3.35860E-19
 -1      2366 9.52167E-05-2.85619E-05-2.85662E-05 1.15188E-08 4.06005E-20 2.84343E-19
 -1      2367 9.52174E-05-2.85633E-05-2.85660E-05 1.32585E-08 1.14269E-18 3.85621E-19
 -1      2368 9.52248E-05-2.85620E-05-2.85699E-05 9.29280E-09-1.38678E-19 1.21263E-19
 -1      2369 9.52175E-05-2.85643E-05-2.85656E-05 1.46822E-08 8.55355E-19-2.24911E-19
 -1      2370 9.52188E-05-2.85654E-05-2.85657E-05 1.52981E-08 1.53386E-18-3.15609E-19
 -1      2371 9.52246E-05-2.85652E-05-2.85684E-05 1.42326E-08 6.78869E-19 6.05965E-19
 -1      2372 9.52192E-05-2.85661E-05-2.85656E-05 1.56720E-08 1.72124E-18-9.29524E-19
 -1      2373 9.52208E-05-2.85671E-05-2.85659E-05 1.55703E-08 7.95728E-19-1.02349E-18
 -1      2374 9.52253E-05-2.85675E-05-2.85677E-05 1.63300E-08 1.00863E-18-1.39571E-19
 -1      2375 9.52215E-05-2.85676E-05-2.85660E-05 1.52876E-08 7.80691E-20-1.39139E-18
 -1      2376 9.52231E-05-2.85683E-05-2.85663E-05 1.47613E-08-7.23843E-19-1.54264E-18
 -1      2377 9.52265E-05-2.85691E-05-2.85675E-05 1.65764E-08 1.96286E-19-1.10536E-18
 -1      2378 9.52238E-05-2.85687E-05-2.85665E-05 1.41025E-08-3.20990E-19-5.74456E-19
 -1      2379 9.52254E-05-2.85693E-05-2.85669E-05 1.33557E-08 1.87230E-19 4.77461E-20
 -1      2380 9.52279E-05-2.85702E-05-2.85676E-05 1.56927E-08-1.94090E-19 5.63309E-19
 -1      2381 9.52262E-05-2.85695E-05-2.85672E-05 1.25142E-08 1.05821E-19 3.30613E-19
 -1      2382 9.52276E-05-2.85700E-05-2.85676E-05 1.16836E-08 4.42265E-19 1.15864E-18
 -1      2383 9.52293E-05-2.85709E-05-2.85679E-05 1.41872E-08 1.81095E-19 6.54446E-19
 -1      2384 9.52283E-05-2.85701E-05-2.85678E-05 1.07863E-08 5.23847E-19 1.24698E-18
 -1      2385 9.52296E-05-2.85705E-05-2.85682E-05 9.95804E-09-1.31469E-19 1.98455E-18
 -1      2386 9.52307E-05-2.85714E-05-2.85683E-05 1.24055E-08 1.18640E-18 1.68057E-18
 -1      2387 9.52302E-05-2.85706E-05-2.85684E-05 9.08296E-09-1.38255E-18 1.88542E-18
 -1      2388 9.52313E-05-2.85709E-05-2.85688E-05 8.30579E-09-9.97066E-20 7.79922E-19
 -1      2389 9.52320E-05-2.85717E-05-2.85687E-05 1.05699E-08-1.13653E-18 2.23913E-18
 -1      2390 9.52319E-05-2.85709E-05-2.85690E-05 7.49497E-09 4.27534E-19-1.91162E-19
 -1      2391 9.52328E-05-2.85711E-05-2.85693E-05 6.79066E-09 3.85314E-19-3.82602E-19
 -1      2392 9.52332E-05-2.85718E-05-2.85692E-05 8.81208E-09-1.01921E-18 2.43896E-18
 -1      2393 9.52333E-05-2.85712E-05-2.85695E-05 6.06077E-09 1.77044E-20-1.00754E-18
 -1      2394 9.52341E-05-2.85714E-05-2.85697E-05 5.43195E-09-1.89692E-19-1.01250E-18
 -1      2395 9.52342E-05-2.85719E-05-2.85695E-05 7.19802E-09-1.20357E-19 8.86080E-19
 -1      2396 9.52345E-05-2.85714E-05-2.85699E-05 4.77980E-09 8.93933E-19-1.15458E-18
 -1      2397 9.52351E-05-2.85716E-05-2.85701E-05 4.21215E-09 1.59786E-18-1.16664E-18
 -1      2398 9.52350E-05-2.85720E-05-2.85699E-05 5.74789E-09 1.39155E-19 5.73999E-19
 -1      2399 9.52354E-05-2.85716E-05-2.85702E-05 3.62868E-09 1.81982E-18-1.03473E-18
 -1      2400 9.52359E-05-2.85717E-05-2.85704E-05 3.11048E-09 1.74161E-18-5.67730E-19
 -1      2401 9.52358E-05-2.85721E-05-2.85701E-05 4.44045E-09 1.78879E-18-1.19625E-18
 -1      2402 1.56196E-04-4.11922E-05-4.97819E-05 2.12993E-05 7.86047E-19 1.87110E-18
 -1      2403 1.58646E-04-5.20651E-05-4.61481E-05 2.00959E-05 1.88465E-20 2.14829E-18
 -1      2404 1.51139E-04-4.65207E-05-4.54598E-05-2.26730E-05 3.45801E-18-5.70794E-19
 -1      2405 1.47939E-04-3.56958E-05-4.81443E-05-2.15671E-05 3.79386E-18 2.64486E-19
 -1      2406 1.47602E-04-5.73464E-05-3.88135E-05-1.01698E-05 1.13252E-18-1.55060E-18
 -1      2407 1.48249E-04-5.29391E-05-4.10171E-05-1.69631E-05 2.46391E-18-1.12422E-18
 -1      2408 1.34684E-04-5.15715E-05-3.54114E-05 5.63497E-06-1.84124E-19-1.84703E-18
 -1      2409 1.38925E-04-5.46577E-05-3.62080E-05-8.81936E-07 4.67880E-19-1.66794E-18
 -1      2410 1.22637E-04-4.19492E-05-3.44065E-05 1.40650E-05-3.61789E-19-1.58121E-18
 -1      2411 1.27117E-04-4.62034E-05-3.47543E-05 1.06234E-05-4.61448E-19-1.83910E-18
 -1      2412 1.26063E-04-5.02149E-05-3.27057E-05 1.31589E-05-3.05038E-19-2.31050E-18
 -1      2413 1.14368E-04-3.51073E-05-3.39058E-05 1.62942E-05-9.29959E-19-7.10489E-19
 -1      2414 1.18040E-04-3.81171E-05-3.42885E-05 1.54433E-05-2.76212E-19-1.19577E-18
 -1      2415 1.14121E-04-3.94806E-05-3.21422E-05 1.82667E-05-6.79890E-19-2.32834E-18
 -1      2416 1.09168E-04-3.14422E-05-3.33015E-05 1.51100E-05-1.38244E-18 5.15003E-20
 -1      2417 1.12000E-04-3.31550E-05-3.37872E-05 1.56888E-05-1.38033E-18-2.27124E-19
 -1      2418 1.07220E-04-3.24289E-05-3.21227E-05 1.83038E-05-1.31068E-18-1.78480E-18
 -1      2419 1.05758E-04-2.97859E-05-3.25676E-05 1.26238E-05-1.09707E-18 9.10769E-19
 -1      2420 1.07943E-04-3.06780E-05-3.30852E-05 1.37492E-05-9.38527E-19 4.60280E-19
 -1      2421 1.03622E-04-2.90884E-05-3.19618E-05 1.61027E-05-1.38491E-18-3.10805E-19
 -1      2422 1.03323E-04-2.91227E-05-3.18095E-05 9.95562E-06-5.48140E-19 8.54643E-19
 -1      2423 1.05025E-04-2.95852E-05-3.22914E-05 1.11430E-05-9.20497E-19 9.01935E-19
 -1      2424 1.01624E-04-2.78904E-05-3.15977E-05 1.31876E-05-1.02196E-18 5.11942E-20
 -1      2425 1.01463E-04-2.88790E-05-3.11139E-05 7.58747E-06 4.16138E-20 7.21547E-19
 -1      2426 1.02788E-04-2.91331E-05-3.15252E-05 8.62870E-06-2.35316E-20 7.10995E-19
 -1      2427 1.00319E-04-2.76705E-05-3.11271E-05 1.03462E-05-2.51354E-19 2.76756E-19
 -1      2428 9.99963E-05-2.87884E-05-3.05214E-05 5.66207E-06-3.18266E-19 1.25875E-18
 -1      2429 1.01021E-04-2.89420E-05-3.08540E-05 6.49959E-06-2.53614E-19 8.23783E-19
 -1      2430 9.93185E-05-2.77999E-05-3.06440E-05 7.89776E-06-1.49412E-19-1.03837E-19
 -1      2431 9.88333E-05-2.87441E-05-3.00400E-05 4.16884E-06 1.86509E-19 1.96437E-18
 -1      2432 9.96173E-05-2.88463E-05-3.03000E-05 4.81233E-06-2.35788E-19 1.60214E-18
 -1      2433 9.84861E-05-2.80027E-05-3.02034E-05 5.92104E-06-3.95546E-19 3.31323E-19
 -1      2434 9.79178E-05-2.87101E-05-2.96609E-05 3.04131E-06 1.17541E-19 1.77237E-18
 -1      2435 9.85111E-05-2.87831E-05-2.98596E-05 3.52337E-06 6.16177E-19 2.03017E-18
 -1      2436 9.77818E-05-2.81800E-05-2.98282E-05 4.38474E-06 2.81725E-19 6.42867E-19
 -1      2437 9.72041E-05-2.86780E-05-2.93686E-05 2.20251E-06 1.03089E-19 1.30845E-18
 -1      2438 9.76499E-05-2.87317E-05-2.95183E-05 2.55895E-06-3.33400E-19 1.51801E-18
 -1      2439 9.71931E-05-2.83092E-05-2.95222E-05 3.21783E-06 2.31564E-19 8.42124E-19
 -1      2440 9.66334E-05-2.86461E-05-2.91373E-05 1.55801E-06 1.07830E-18 1.22852E-18
 -1      2441 9.69759E-05-2.86877E-05-2.92530E-05 1.82915E-06 1.30100E-18 1.57018E-18
 -1      2442 9.67010E-05-2.83951E-05-2.92746E-05 2.32698E-06 4.49765E-19 5.73884E-19
 -1      2443 9.62262E-05-2.86191E-05-2.89738E-05 1.11186E-06-2.22056E-19 1.45846E-18
 -1      2444 9.64647E-05-2.86480E-05-2.90544E-05 1.29942E-06 3.76594E-19 7.99369E-19
 -1      2445 9.63092E-05-2.84519E-05-2.90835E-05 1.66654E-06 9.06974E-19 8.80394E-19
 -1      2446 9.59211E-05-2.85971E-05-2.88525E-05 7.85494E-07-8.27948E-19 1.72974E-18
 -1      2447 9.60943E-05-2.86179E-05-2.89113E-05 9.22098E-07-5.49695E-19 1.96532E-18
 -1      2448 9.60112E-05-2.84845E-05-2.89418E-05 1.19385E-06-2.65558E-19 1.30715E-18
 -1      2449 9.56966E-05-2.85802E-05-2.87636E-05 5.47801E-07 9.79212E-19 2.18993E-18
 -1      2450 9.58209E-05-2.85947E-05-2.88060E-05 6.46885E-07-5.41011E-20 1.97562E-18
 -1      2451 9.57826E-05-2.85048E-05-2.88350E-05 8.46261E-07-5.53668E-19 2.18762E-18
 -1      2452 9.55340E-05-2.85682E-05-2.86991E-05 3.75479E-07 1.29720E-18 2.43429E-18
 -1      2453 9.56218E-05-2.85777E-05-2.87294E-05 4.47014E-07 1.60442E-18 2.61743E-18
 -1      2454 9.56106E-05-2.85179E-05-2.87555E-05 5.91735E-07 1.10959E-18 2.10679E-18
 -1      2455 9.54184E-05-2.85603E-05-2.86531E-05 2.51356E-07-1.30555E-19 1.97441E-18
 -1      2456 9.54793E-05-2.85662E-05-2.86743E-05 3.02648E-07 9.23831E-19 2.00654E-18
 -1      2457 9.54837E-05-2.85270E-05-2.86969E-05 4.06385E-07 1.51634E-18 2.10881E-18
 -1      2458 9.53380E-05-2.85556E-05-2.86207E-05 1.62761E-07-6.72037E-19 1.52446E-18
 -1      2459 9.53792E-05-2.85589E-05-2.86353E-05 1.99180E-07-8.45339E-19 1.86326E-18
 -1      2460 9.53919E-05-2.85338E-05-2.86544E-05 2.72402E-07 1.47638E-20 2.23527E-18
 -1      2461 9.52837E-05-2.85535E-05-2.85984E-05 1.00312E-07-8.43707E-20-1.33631E-19
 -1      2462 9.53106E-05-2.85549E-05-2.86082E-05 1.25822E-07 3.20542E-19 4.13452E-19
 -1      2463 9.53270E-05-2.85394E-05-2.86240E-05 1.76509E-07-1.17867E-19 1.85820E-18
 -1      2464 9.52483E-05-2.85532E-05-2.85834E-05 5.70349E-08 1.72094E-19-2.99959E-20
 -1      2465 9.52651E-05-2.85533E-05-2.85898E-05 7.45738E-08 2.98231E-19-3.21616E-20
 -1      2466 9.52824E-05-2.85443E-05-2.86026E-05 1.08781E-07 2.53158E-19 2.49800E-19
 -1      2467 9.52264E-05-2.85540E-05-2.85737E-05 2.77285E-08-2.44573E-19-1.84277E-19
 -1      2468 9.52362E-05-2.85534E-05-2.85777E-05 3.94832E-08-2.76813E-20 1.21029E-19
 -1      2469 9.52528E-05-2.85487E-05-2.85879E-05 6.17821E-08-2.14225E-19 3.93394E-19
 -1      2470 9.52140E-05-2.85555E-05-2.85678E-05 8.50940E-09-2.56339E-19 1.57271E-18
 -1      2471 9.52190E-05-2.85545E-05-2.85700E-05 1.61083E-08-3.48828E-19 1.01152E-19
 -1      2472 9.52340E-05-2.85525E-05-2.85781E-05 2.99315E-08-6.75329E-19 2.41797E-19
 -1      2473 9.52081E-05-2.85574E-05-2.85645E-05-3.51928E-09 7.28077E-19 2.25756E-18
 -1      2474 9.52098E-05-2.85561E-05-2.85656E-05 1.13519E-09 1.75524E-19 1.80034E-18
 -1      2475 9.52230E-05-2.85560E-05-2.85718E-05 9.03976E-09-6.28021E-19 7.76694E-19
 -1      2476 9.52065E-05-2.85594E-05-2.85630E-05-1.05113E-08 5.06348E-19 2.48061E-18
 -1      2477 9.52061E-05-2.85581E-05-2.85633E-05-7.90340E-09 1.01876E-18 2.75305E-18
 -1      2478 9.52173E-05-2.85589E-05-2.85681E-05-4.03035E-09 7.24783E-19 2.04767E-18
 -1      2479 9.52075E-05-2.85614E-05-2.85626E-05-1.40607E-08 6.14453E-19 3.05364E-18
 -1      2480 9.52059E-05-2.85601E-05-2.85624E-05-1.28309E-08 1.09677E-18 3.21748E-18
 -1      2481 9.52152E-05-2.85615E-05-2.85660E-05-1.16174E-08 3.68126E-19 3.08226E-18
 -1      2482 9.52101E-05-2.85633E-05-2.85629E-05-1.53358E-08-7.02562E-19 1.32005E-18
 -1      2483 9.52079E-05-2.85620E-05-2.85625E-05-1.50230E-08 1.27091E-19 2.23350E-18
 -1      2484 9.52154E-05-2.85637E-05-2.85651E-05-1.54892E-08 6.97136E-19 3.47666E-18
 -1      2485 9.52134E-05-2.85649E-05-2.85637E-05-1.50791E-08 9.56787E-19-7.59581E-19
 -1      2486 9.52111E-05-2.85638E-05-2.85631E-05-1.53510E-08 6.17662E-19 8.84021E-19
 -1      2487 9.52170E-05-2.85655E-05-2.85650E-05-1.68134E-08 6.61056E-19 3.71171E-19
 -1      2488 9.52170E-05-2.85662E-05-2.85646E-05-1.39983E-08 1.55486E-18-1.24162E-18
 -1      2489 9.52146E-05-2.85653E-05-2.85640E-05-1.45825E-08 4.33094E-19-1.41200E-18
 -1      2490 9.52193E-05-2.85669E-05-2.85653E-05-1.65217E-08 1.25575E-18-5.25380E-19
 -1      2491 9.52205E-05-2.85674E-05-2.85656E-05-1.24878E-08 1.77360E-18 1.97511E-18
 -1      2492 9.52183E-05-2.85666E-05-2.85650E-05-1.32215E-08 2.27350E-18 7.33848E-19
 -1      2493 9.52218E-05-2.85681E-05-2.85659E-05-1.53271E-08 1.16942E-18 1.45490E-19
 -1      2494 9.52237E-05-2.85683E-05-2.85666E-05-1.08157E-08-2.79748E-18 2.26174E-18
 -1      2495 9.52217E-05-2.85677E-05-2.85660E-05-1.15925E-08-3.48057E-19 2.45736E-18
 -1      2496 9.52244E-05-2.85690E-05-2.85666E-05-1.36673E-08-2.54925E-20 3.47277E-18
 -1      2497 9.52265E-05-2.85691E-05-2.85675E-05-9.15196E-09-2.82136E-18 1.26009E-18
 -1      2498 9.52248E-05-2.85686E-05-2.85670E-05-9.90591E-09-2.57406E-18 1.46701E-18
 -1      2499 9.52268E-05-2.85697E-05-2.85673E-05-1.18338E-08-1.96959E-18 3.06270E-18
 -1      2500 9.52290E-05-2.85697E-05-2.85683E-05-7.59435E-09-2.48367E-18-7.43114E-19
 -1      2501 9.52276E-05-2.85693E-05-2.85678E-05-8.28943E-09-3.90806E-18 6.64390E-19
 -1      2502 9.52289E-05-2.85702E-05-2.85680E-05-1.00104E-08-2.84650E-18 2.92501E-19
 -1      2503 9.52311E-05-2.85702E-05-2.85690E-05-6.18872E-09-1.25888E-18-8.60209E-19
 -1      2504 9.52299E-05-2.85699E-05-2.85686E-05-6.81045E-09-1.53218E-18-5.32864E-19
 -1      2505 9.52308E-05-2.85706E-05-2.85687E-05-8.30224E-09-2.33174E-18-8.72293E-19
 -1      2506 9.52328E-05-2.85706E-05-2.85695E-05-4.94312E-09-1.37025E-18 2.13699E-18
 -1      2507 9.52318E-05-2.85704E-05-2.85692E-05-5.49277E-09-1.12007E-18 6.88839E-19
 -1      2508 9.52324E-05-2.85709E-05-2.85692E-05-6.75737E-09-2.27350E-18 3.47277E-19
 -1      2509 9.52342E-05-2.85710E-05-2.85700E-05-3.83953E-09 7.20367E-19 1.69713E-18
 -1      2510 9.52334E-05-2.85708E-05-2.85697E-05-4.32910E-09-4.94890E-19 1.52011E-18
 -1      2511 9.52338E-05-2.85712E-05-2.85697E-05-5.38319E-09-7.40629E-19 2.51237E-18
 -1      2512 9.52354E-05-2.85713E-05-2.85703E-05-2.84219E-09 2.51384E-19 2.23721E-18
 -1      2513 9.52347E-05-2.85711E-05-2.85702E-05-3.29143E-09 1.41409E-18 2.40501E-18
 -1      2514 9.52349E-05-2.85714E-05-2.85701E-05-4.15957E-09 1.01023E-18 1.86083E-18
 -1      2515 9.52362E-05-2.85715E-05-2.85706E-05-1.91477E-09 1.11627E-18 6.64166E-19
 -1      2516 9.52358E-05-2.85714E-05-2.85705E-05-2.33776E-09 7.22586E-19 2.51537E-18
 -1      2517 9.52358E-05-2.85716E-05-2.85704E-05-3.04605E-09 8.55716E-19 2.40386E-18
 -1      2518 9.52366E-05-2.85716E-05-2.85707E-05-1.45524E-09 1.50271E-18-2.58586E-19
 -1      2519 9.52388E-05-2.85752E-05-2.85701E-05-2.52006E-09 2.12204E-18-7.55408E-19
 -1      2520 9.52386E-05-2.85748E-05-2.85702E-05-2.73907E-09 1.68620E-18-2.57877E-18
 -1      2521 9.52393E-05-2.85759E-05-2.85700E-05-1.78761E-09 2.52741E-18 8.80056E-19
 -1      2522 9.52391E-05-2.85756E-05-2.85701E-05-2.15645E-09 2.10695E-18 1.12455E-19
 -1      2523 9.52392E-05-2.85755E-05-2.85702E-05-2.70115E-09 3.40199E-18-1.21819E-19
 -1      2524 9.52375E-05-2.85733E-05-2.85704E-05-2.88206E-09 5.56925E-19-1.51255E-18
 -1      2525 9.52372E-05-2.85729E-05-2.85704E-05-2.71002E-09 2.56867E-18-2.57242E-18
 -1      2526 9.52382E-05-2.85743E-05-2.85702E-05-2.90487E-09 2.98750E-19-3.59182E-18
 -1      2527 9.52379E-05-2.85739E-05-2.85703E-05-2.93747E-09-4.86291E-20-1.48155E-18
 -1      2528 9.52377E-05-2.85736E-05-2.85703E-05-3.40584E-09 8.75266E-19-2.39926E-18
 -1      2529 9.52385E-05-2.85746E-05-2.85702E-05-3.27418E-09 1.98516E-18-1.90706E-18
 -1      2530 9.52396E-05-2.85763E-05-2.85700E-05-8.17535E-10 5.49932E-19 1.84569E-18
 -1      2531 9.52395E-05-2.85761E-05-2.85700E-05-1.28172E-09 1.71557E-18 7.46514E-19
 -1      2532 9.52397E-05-2.85761E-05-2.85701E-05-1.76829E-09 3.22424E-18 5.96992E-20
 -1      2533 9.52396E-05-2.85763E-05-2.85700E-05 2.58320E-10-1.11478E-18 2.18664E-19
 -1      2534 9.52396E-05-2.85763E-05-2.85700E-05-2.38089E-10-7.80766E-19 2.89352E-18
 -1      2535 9.52399E-05-2.85764E-05-2.85701E-05-6.07050E-10 1.50520E-19 1.62954E-18
 -1      2536 9.52395E-05-2.85761E-05-2.85700E-05 1.29914E-09-1.18133E-18-2.61413E-18
 -1      2537 9.52396E-05-2.85763E-05-2.85700E-05 8.36740E-10-1.13132E-18-1.65817E-18
 -1      2538 9.52399E-05-2.85764E-05-2.85701E-05 6.31055E-10 4.51334E-19-7.90492E-19
 -1      2539 9.52391E-05-2.85756E-05-2.85701E-05 2.15518E-09-4.33776E-19-3.08934E-18
 -1      2540 9.52393E-05-2.85759E-05-2.85700E-05 1.79410E-09-1.44399E-18-2.72229E-18
 -1      2541 9.52397E-05-2.85761E-05-2.85701E-05 1.77915E-09-6.04586E-19-2.75719E-18
 -1      2542 9.52386E-05-2.85748E-05-2.85702E-05 2.73796E-09 1.14108E-18-2.91558E-19
 -1      2543 9.52388E-05-2.85752E-05-2.85701E-05 2.51868E-09 8.25096E-20-2.20631E-18
 -1      2544 9.52392E-05-2.85755E-05-2.85702E-05 2.69921E-09-5.18694E-19-1.39038E-18
 -1      2545 9.52379E-05-2.85738E-05-2.85703E-05 2.92702E-09 1.39237E-18 4.49331E-18
 -1      2546 9.52382E-05-2.85743E-05-2.85702E-05 2.90542E-09 1.95208E-18 2.22425E-18
 -1      2547 9.52385E-05-2.85746E-05-2.85702E-05 3.27904E-09 4.89352E-19 1.00193E-18
 -1      2548 9.52372E-05-2.85729E-05-2.85704E-05 2.70896E-09 9.76136E-19 1.91442E-18
 -1      2549 9.52375E-05-2.85733E-05-2.85704E-05 2.88337E-09 1.07900E-18 4.68332E-18
 -1      2550 9.52377E-05-2.85736E-05-2.85703E-05 3.39117E-09 2.14251E-18 3.85932E-18
 -1      2551 2.33227E-05-1.64720E-05-2.63208E-06 1.24220E-05-5.56501E-19 4.69341E-18
 -1      2552 1.78083E-05-1.64777E-05-3.04630E-07-2.01625E-06 4.43303E-19 4.80183E-18
 -1      2553 5.71127E-05-3.61199E-05-8.86284E-06 3.78328E-05 7.19978E-20-5.70900E-19
 -1      2554 3.99814E-05-2.57647E-05-5.76413E-06 2.91021E-05-9.51430E-19 2.12012E-18
 -1      2555 1.87705E-05-1.70699E-05-4.96452E-07-1.33687E-05 7.65930E-19 4.88103E-18
 -1      2556 2.50034E-05-1.90051E-05-2.30882E-06-2.64672E-05 7.48565E-19 4.72602E-18
 -1      2557 2.51588E-05-1.25071E-05-4.85665E-06-8.25879E-06-2.35131E-19 4.51214E-18
 -1      2558 9.52368E-05-2.85721E-05-2.85706E-05 1.86142E-09 2.24153E-18 9.37644E-19
 -1      2559 9.83418E-05-5.35548E-05-1.93295E-05 3.80153E-05 6.40992E-19-3.10424E-18
 -1      2560 7.59246E-05-4.55203E-05-1.29877E-05 3.84260E-05 5.14149E-19-1.71154E-18
 -1      2561 7.45904E-05-3.96955E-05-1.44940E-05 3.72911E-05-1.12105E-18-1.68454E-18
 -1      2562 1.02321E-04-2.32653E-05-3.39694E-05-1.66052E-05-1.45488E-18-3.33206E-18
 -1      2563 1.01994E-04-2.64715E-05-3.24077E-05-1.36185E-05-1.50888E-18-2.94293E-18
 -1      2564 1.02800E-04-2.62568E-05-3.27416E-05-1.42115E-05-1.23459E-18-2.78867E-18
 -1      2565 1.01589E-04-2.16078E-05-3.42843E-05-1.62531E-05-1.14056E-18-3.44036E-18
 -1      2566 6.94811E-05-4.10814E-05-1.19619E-05-4.64326E-05 2.49832E-18 3.67411E-18
 -1      2567 9.08153E-05-4.79118E-05-1.84732E-05-4.71995E-05 2.32045E-18 2.89286E-18
 -1      2568 1.35052E-04-5.22101E-05-3.55296E-05-2.30465E-05 1.24620E-18 5.75771E-19
 -1      2569 1.46060E-04-4.69999E-05-4.26785E-05-1.62089E-05-1.15726E-19 5.12455E-20
 -1      2570 1.44903E-04-1.18604E-05-5.77312E-05-5.52460E-06-4.27074E-18 1.55007E-19
 -1      2571 1.47599E-04-1.79325E-05-5.59431E-05-4.68402E-06-4.41156E-18 4.16317E-19
 -1      2572 4.35807E-05-1.87102E-05-1.05584E-05 4.43305E-05 2.15930E-18-2.64761E-18
 -1      2573 2.80079E-05-1.25983E-05-6.25578E-06 3.50666E-05 2.49959E-18-3.47241E-18
 -1      2574 1.56747E-04-3.21791E-05-5.40038E-05 1.95856E-05 1.57972E-18 1.96586E-18
 -1      2575 9.26619E-05-2.07907E-05-3.08037E-05 1.10016E-05 2.58406E-18-1.72644E-18
 -1      2576 9.69272E-05-2.24833E-05-3.19350E-05 7.06088E-06 2.17481E-18-1.93769E-18
 -1      2577 1.01910E-04-2.66898E-05-3.22816E-05 4.45424E-06 1.92968E-18-1.70397E-18
 -1      2578 9.34605E-05-2.39503E-05-2.98788E-05 1.46022E-05 2.68695E-18-1.40310E-18
 -1      2579 9.36220E-05-4.85107E-05-1.92247E-05-3.15216E-05 1.13291E-19-3.25758E-18
 -1      2580 1.16321E-04-5.79255E-05-2.51406E-05-2.88898E-05 3.84341E-19-2.95297E-18
 -1      2581 1.60256E-04-2.22855E-05-5.95151E-05-5.21700E-06 4.04119E-18 1.57389E-19
 -1      2582 1.64137E-04-2.85135E-05-5.80892E-05-1.13894E-05 4.46132E-18-6.33792E-19
 -1      2583 1.41484E-04-4.22932E-05-4.30050E-05 1.45109E-05-2.33972E-18 9.14372E-19
 -1      2584 1.31673E-04-4.47395E-05-3.73138E-05 2.19365E-05-1.52392E-18 7.06637E-19
 -1      2585 1.34095E-04-6.26447E-05-3.07426E-05-1.77416E-05 3.07473E-19-1.98312E-18
 -1      2586 1.52218E-04-6.43420E-05-3.80107E-05-7.95465E-06 3.48766E-19-1.30231E-18
 -1      2587 1.66454E-05-6.58863E-06-3.99118E-06-2.28431E-06 1.71074E-18-4.60511E-18
 -1      2588 2.46547E-05-1.09343E-05-5.45283E-06-1.47959E-05 1.67278E-18-4.63962E-18
 -1      2589 1.60445E-05-6.64132E-06-3.85753E-06 2.37153E-05 2.22261E-18-4.04119E-18
 -1      2590 1.31202E-05-5.54415E-06-2.93412E-06 9.45679E-06 2.29831E-18-4.44353E-18
 -1      2591 2.07363E-05-2.11777E-06-7.51184E-06 3.75172E-06 2.41748E-18-4.34358E-18
 -1      2592 8.09847E-05-3.50292E-05-1.97296E-05 4.71797E-05 1.29638E-18-1.01887E-18
 -1      2593 6.49958E-05-2.88945E-05-1.51488E-05 4.60159E-05 2.00577E-18-1.66453E-18
 -1      2594 1.49196E-04-3.80161E-05-4.77700E-05-7.69056E-06-1.13767E-18-4.24364E-19
 -1      2595 1.53096E-04-3.14702E-05-5.24087E-05-4.35308E-06-1.63403E-18-5.85300E-19
 -1      2596 1.19010E-04-4.54233E-05-3.17681E-05 3.40544E-05-5.57559E-19 3.34790E-19
 -1      2597 1.00085E-04-4.20248E-05-2.48052E-05 4.00137E-05 5.45701E-19-2.43151E-19
 -1      2598 1.49690E-04-2.67158E-05-5.32140E-05-1.28566E-06-4.00371E-18 6.70850E-19
 -1      2599 1.44910E-04-3.36750E-05-4.79270E-05 3.46141E-06-3.26171E-18 7.30989E-19
 -1      2600 1.39367E-04-2.14453E-05-5.06878E-05-8.72210E-06-3.64415E-18 4.24575E-19
 -1      2601 1.45043E-04-8.51033E-06-5.90210E-05 1.63824E-07-3.30449E-18-6.13252E-19
 -1      2602 1.43915E-04-7.86534E-06-5.88546E-05-2.67408E-06-3.82160E-18-5.09331E-19
 -1      2603 3.75943E-05-2.56701E-05-4.80188E-06-3.64375E-05 1.64007E-18 4.75673E-18
 -1      2604 5.10022E-05-3.15814E-05-8.20445E-06-4.45005E-05 1.92192E-18 4.33490E-18
 -1      2605 1.10491E-04-5.36629E-05-2.41471E-05-3.93240E-05 2.53284E-18 2.06401E-18
 -1      2606 1.23352E-04-5.51073E-05-2.95080E-05-3.48725E-05 2.07163E-18 1.85373E-18
 -1      2607 1.60083E-04-5.83586E-05-4.40975E-05-6.06678E-06 3.10766E-18-2.17412E-18
 -1      2608 1.54320E-04-6.30395E-05-3.92652E-05-5.15448E-07 2.40875E-18-2.19911E-18
 -1      2609 1.24345E-04-3.59808E-05-3.79116E-05-5.32521E-06 8.33920E-19 3.47392E-18
 -1      2610 1.22736E-04-3.24315E-05-3.86701E-05-2.89668E-06 1.07420E-18 3.71890E-18
 -1      2611 1.14590E-04-2.77258E-05-3.72133E-05-2.93009E-06 1.35768E-18 2.76482E-18
 -1      2612 1.16123E-04-3.46907E-05-3.49354E-05-8.37008E-06 7.14486E-19 1.82373E-18
 -1      2613 1.30270E-04-6.14476E-05-2.94266E-05-1.79325E-05-3.98529E-19-1.34149E-18
 -1      2614 1.05035E-04-2.50130E-05-3.42805E-05-9.77761E-06 4.63911E-19-2.95002E-18
 -1      2615 1.02449E-04-2.16874E-05-3.46645E-05-1.04232E-05 4.78005E-19-3.35420E-18
 -1      2616 1.02297E-04-2.14760E-05-3.47659E-05-1.26215E-05 9.62987E-20-3.58030E-18
 -1      2617 1.47008E-04-5.72426E-05-3.82440E-05 7.21539E-06-9.34224E-19 3.19416E-18
 -1      2618 1.38453E-04-5.75025E-05-3.49207E-05-3.03491E-06-8.30569E-19 1.49182E-18
 -1      2619 1.01766E-04-2.14000E-05-3.45029E-05-4.02956E-06 1.64012E-18 1.40226E-18
 -1      2620 1.55484E-04-5.31856E-05-4.40639E-05-1.69678E-05 3.07214E-18-1.87427E-18
 -1      2621 6.78595E-05-3.65739E-05-1.29399E-05-4.47352E-05 2.24294E-18 3.46331E-18
 -1      2622 1.03782E-04-5.22033E-05-2.18504E-05-4.16423E-05 2.76853E-18 2.11377E-18
 -1      2623 3.78999E-05-1.99198E-05-7.18172E-06-3.15298E-05 6.73179E-19 4.53374E-18
 -1      2624 1.57028E-04-3.22531E-05-5.37434E-05-1.64569E-05 4.20404E-18-1.21761E-19
 -1      2625 1.52987E-04-2.37570E-05-5.58499E-05 9.39027E-06 2.78420E-18 1.36743E-18
 -1      2626 1.43028E-04-5.96283E-05-3.60048E-05-5.33037E-07 9.49074E-19-2.28185E-18
 -1      2627 9.52366E-05-2.85719E-05-2.85706E-05-2.02277E-09 1.19471E-18 6.63477E-19
 -1      2628 9.52370E-05-2.85725E-05-2.85705E-05-2.56727E-09 2.78459E-18-1.36156E-18
 -1      2629 9.52368E-05-2.85722E-05-2.85706E-05-2.26586E-09 1.79576E-18 8.53999E-19
 -1      2630 9.52364E-05-2.85721E-05-2.85704E-05-2.77998E-09 6.92890E-19 9.84832E-19
 -1      2631 9.52370E-05-2.85728E-05-2.85704E-05-3.18169E-09 1.62545E-18-2.27894E-18
 -1      2632 1.26847E-04-4.72963E-05-3.39382E-05 2.26647E-05-3.28225E-20 9.80652E-19
 -1      2633 9.52364E-05-2.85719E-05-2.85705E-05 2.28288E-09 3.27357E-18 7.90019E-19
 -1      2634 9.52369E-05-2.85724E-05-2.85705E-05 2.57640E-09 2.66817E-18 1.05670E-18
 -1      2635 9.52369E-05-2.85726E-05-2.85704E-05 3.19189E-09 2.49032E-18 3.11989E-18
 -1      2636 9.52361E-05-2.85718E-05-2.85704E-05 2.73165E-09 2.41395E-18 1.23992E-19
 -1      2637 3.53800E-05-1.94565E-05-6.27098E-06 2.19175E-05-1.29236E-18 3.47665E-18
 -1      2638 3.40550E-05-1.36000E-05-8.12089E-06 1.39164E-05-1.24937E-18 3.52133E-18
 -1      2639 4.94820E-05-2.26701E-05-1.10779E-05 2.81953E-05-1.98195E-18 1.27944E-18
 -1      2640 1.45183E-04-4.46021E-05-4.31432E-05-5.38341E-06 1.18558E-19-1.21655E-18
 -1      2641 1.52139E-04-2.20780E-05-5.65150E-05 1.48018E-06 3.63674E-18 1.44297E-18
 -1      2642 1.49451E-04-5.68350E-05-3.98519E-05 1.43740E-05-6.14906E-19 3.22841E-18
 -1      2643 9.66489E-05-2.19352E-05-3.19177E-05-8.32515E-06 1.35959E-18 6.56451E-19
 -1      2644 9.52363E-05-2.85722E-05-2.85703E-05 3.42550E-09 3.01075E-18 2.62916E-19
 -1      2645 1.34739E-04-8.54758E-06-5.43762E-05-5.83790E-06-3.86226E-18-7.90599E-19
 -1      2646 2.71146E-05-5.94623E-06-8.53784E-06 2.95233E-05 3.00718E-18-3.69179E-18
 -1      2647 1.15875E-04-5.94214E-05-2.39594E-05 3.13686E-05 1.05816E-18-3.51857E-18
 -1      2648 1.08513E-04-5.43263E-05-2.26585E-05 3.23849E-05-1.73854E-19-3.24922E-18
 -1      2649 1.30016E-04-6.29851E-05-2.90233E-05 2.10733E-05 1.23127E-18-3.50677E-18
 -1      2650 1.01689E-04-2.14622E-05-3.44286E-05-1.48451E-05-6.35038E-19-3.60296E-18
 -1      2651 1.32771E-04-5.60284E-05-3.27666E-05-2.32471E-05 2.26348E-18 6.07746E-20
 -1      2652 1.41882E-04-2.23775E-05-5.16151E-05-4.69991E-06 3.47199E-18 2.22182E-18
 -1      2653 5.88774E-05-2.26560E-05-1.50976E-05 4.43997E-05 2.99405E-18-2.03595E-18
 -1      2654 1.46334E-04-2.48960E-05-5.22535E-05 4.23024E-06-1.50518E-18-1.34445E-18
 -1      2655 1.40700E-04-3.87530E-05-4.37717E-05 2.39547E-06-2.19593E-18 9.55665E-19
 -1      2656 3.98848E-05-1.51591E-05-1.01560E-05-1.99073E-05 1.17653E-18-4.24279E-18
 -1      2657 1.52947E-04-6.33934E-05-3.84332E-05 2.74446E-06-2.67980E-19 1.47595E-19
 -1      2658 1.59016E-04-6.13848E-05-4.20616E-05 4.82578E-06 1.70360E-19-4.58245E-19
 -1      2659 1.63288E-04-5.59791E-05-4.64195E-05 1.36289E-05 2.95456E-19 4.46810E-20
 -1      2660 7.37411E-05-3.27007E-05-1.70959E-05-3.04094E-05 3.25684E-19-3.14260E-18
 -1      2661 8.45832E-05-4.21355E-05-1.78163E-05-3.17460E-05 2.40981E-19-3.48300E-18
 -1      2662 1.01264E-04-4.78057E-05-2.29655E-05-2.78510E-05-3.08426E-19-2.40610E-18
 -1      2663 9.71960E-05-4.03097E-05-2.40818E-05 3.98951E-05 1.98290E-18-2.13135E-19
 -1      2664 1.38453E-04-8.92510E-06-5.58510E-05 1.71992E-06-2.77276E-18-1.23360E-18
 -1      2665 1.47324E-04-6.36495E-05-3.57827E-05 4.90708E-06 1.81678E-18-2.78017E-18
 -1      2666 5.35394E-05-4.65407E-06-2.09403E-05 2.96424E-05 4.10361E-18-2.07920E-18
 -1      2667 6.51428E-05-1.11074E-05-2.27157E-05 3.07379E-05 4.00456E-18-1.71294E-18
 -1      2668 7.73864E-05-1.84742E-05-2.52928E-05 2.81065E-05 3.73981E-18-1.21237E-18
 -1      2669 8.77522E-05-2.38201E-05-2.72048E-05 2.45006E-05 3.33984E-18-1.03343E-18
 -1      2670 7.41262E-05-1.94034E-05-2.32120E-05 3.30912E-05 3.77925E-18-1.30480E-18
 -1      2671 4.44357E-05 3.28585E-06-2.00320E-05-8.41702E-07 2.73245E-18-2.70860E-18
 -1      2672 3.88419E-05 5.89390E-06-1.90171E-05 6.63648E-06 3.22858E-18-2.82178E-18
 -1      2673 7.01126E-05-1.17119E-05-2.44337E-05-1.27751E-05 1.57661E-18-1.63387E-18
 -1      2674 5.56785E-05-4.55099E-06-2.18456E-05-9.67129E-06 2.07883E-18-2.33442E-18
 -1      2675 1.16624E-04-4.56630E-05-3.03036E-05-1.46862E-05-3.19543E-19 3.86525E-19
 -1      2676 1.10109E-04-3.75302E-05-3.06404E-05-1.47451E-05 1.07679E-19 4.06761E-19
 -1      2677 9.52366E-05-2.85726E-05-2.85703E-05 3.99616E-09 3.98915E-18 2.01908E-18
 -1      2678 9.52368E-05-2.85727E-05-2.85703E-05 3.58708E-09 4.18016E-18 3.00634E-18
 -1      2679 9.52372E-05-2.85731E-05-2.85703E-05 3.73258E-09 3.02828E-18 5.29412E-18
 -1      2680 9.74712E-05-2.57517E-05-3.06678E-05-1.10175E-05 1.04190E-18 2.31690E-19
 -1      2681 6.45225E-05-3.09084E-05-1.37720E-05-4.14115E-05 2.10054E-18 3.29136E-18
 -1      2682 8.05238E-05-4.05854E-05-1.70461E-05-4.47194E-05 2.46508E-18 3.08129E-18
 -1      2683 1.24859E-04-6.63639E-06-5.13572E-05-4.22440E-06-3.48088E-18-1.90077E-18
 -1      2684 1.26794E-04-1.01034E-05-5.05027E-05-9.27571E-06-3.68968E-18-1.22375E-18
 -1      2685 8.66446E-05-4.22751E-05-1.87617E-05 3.58634E-05-1.11512E-18-2.54459E-18
 -1      2686 6.90213E-05-3.19673E-05-1.53016E-05 3.42350E-05-1.64367E-18-1.30676E-18
 -1      2687 1.02278E-04-2.77635E-05-3.19404E-05-1.14686E-05-8.41190E-19-2.11501E-18
 -1      2688 1.01078E-04-2.69462E-05-3.17445E-05-1.02989E-05-7.71245E-19-2.00237E-18
 -1      2689 9.99056E-05-2.59050E-05-3.17275E-05-8.90044E-06-8.73071E-19-1.96554E-18
 -1      2690 9.87985E-05-2.48823E-05-3.16349E-05-7.20024E-06-8.61992E-19-2.08760E-18
 -1      2691 1.02455E-04-2.61069E-05-3.27086E-05-1.07203E-05-8.40601E-19-1.75756E-18
 -1      2692 9.77430E-05-2.39415E-05-3.16309E-05-5.00521E-06-7.73166E-19-1.89952E-18
 -1      2693 9.70780E-05-2.33656E-05-3.15597E-05-2.84182E-06-6.09372E-19-1.90213E-18
 -1      2694 1.00174E-04-2.37867E-05-3.27529E-05-7.01161E-06-7.42506E-19-1.77173E-18
 -1      2695 9.66743E-05-2.31698E-05-3.14777E-05-1.94271E-07-6.91335E-19-1.97307E-18
 -1      2696 9.66644E-05-2.34563E-05-3.13752E-05 2.00786E-06-8.41841E-19-2.16567E-18
 -1      2697 9.86741E-05-2.24643E-05-3.26966E-05-1.92373E-06-7.23771E-19-1.77239E-18
 -1      2698 9.70941E-05-2.42409E-05-3.11758E-05 4.36410E-06-1.02574E-18-2.26233E-18
 -1      2699 9.76660E-05-2.53305E-05-3.10312E-05 6.03574E-06-8.85293E-19-2.37629E-18
 -1      2700 9.87301E-05-2.32114E-05-3.23958E-05 3.36943E-06-1.09351E-18-2.14145E-18
 -1      2701 9.85926E-05-2.67498E-05-3.07413E-05 7.43306E-06-6.66025E-19-2.39967E-18
 -1      2702 9.94411E-05-2.81904E-05-3.05780E-05 8.21623E-06-4.92144E-19-2.29203E-18
 -1      2703 1.00170E-04-2.58837E-05-3.18411E-05 7.28112E-06-8.44589E-19-2.20688E-18
 -1      2704 1.00317E-04-2.96372E-05-3.02611E-05 8.45024E-06-2.28119E-19-2.04917E-18
 -1      2705 1.01094E-04-3.09106E-05-3.01123E-05 8.34614E-06 5.03670E-21-1.86881E-18
 -1      2706 1.02058E-04-2.93393E-05-3.11445E-05 8.88664E-06-9.64613E-20-1.74846E-18
 -1      2707 1.01523E-04-3.19056E-05-2.98302E-05 7.67235E-06-1.44210E-19-1.69788E-18
 -1      2708 1.02006E-04-3.26979E-05-2.97188E-05 6.95390E-06 1.09646E-19-1.75198E-18
 -1      2709 1.03406E-04-3.22804E-05-3.04544E-05 8.30295E-06 4.36485E-20-1.49329E-18
 -1      2710 1.01904E-04-3.30875E-05-2.95060E-05 5.82858E-06 1.08162E-19-1.71479E-18
 -1      2711 1.02044E-04-3.33548E-05-2.94370E-05 4.84077E-06 2.70026E-19-1.97445E-18
 -1      2712 1.03731E-04-3.39535E-05-2.98850E-05 6.35190E-06 6.71931E-20-1.22474E-18
 -1      2713 1.01553E-04-3.32429E-05-2.92974E-05 3.66320E-06 3.42211E-19-2.07155E-18
 -1      2714 1.01419E-04-3.31142E-05-2.92618E-05 2.68125E-06 3.65130E-19-1.91508E-18
 -1      2715 1.03112E-04-3.43092E-05-2.94803E-05 3.95126E-06 1.93834E-19-1.66237E-18
 -1      2716 1.00741E-04-3.27049E-05-2.91808E-05 1.68845E-06 5.60392E-19-1.83925E-18
 -1      2717 1.00446E-04-3.23575E-05-2.91646E-05 8.71825E-07 7.69588E-19-1.62773E-18
 -1      2718 1.01913E-04-3.37239E-05-2.92278E-05 1.74467E-06 6.92498E-19-1.40837E-18
 -1      2719 9.97494E-05-3.18406E-05-2.91221E-05 1.51946E-07 3.72003E-19-1.40377E-18
 -1      2720 9.93897E-05-3.14231E-05-2.91127E-05-4.40651E-07 6.47765E-21-1.13675E-18
 -1      2721 1.00517E-04-3.26672E-05-2.90880E-05 3.85427E-08 6.50984E-19-1.75265E-18
 -1      2722 9.87739E-05-3.09259E-05-2.90907E-05-8.93112E-07-1.15935E-19-9.41248E-19
 -1      2723 9.84158E-05-3.05324E-05-2.90798E-05-1.26749E-06-2.43412E-19-8.36390E-19
 -1      2724 9.91940E-05-3.15112E-05-2.90177E-05-1.10661E-06 1.02862E-19-1.24242E-18
 -1      2725 9.79203E-05-3.01195E-05-2.90656E-05-1.50099E-06-5.08164E-19-9.11313E-19
 -1      2726 9.75991E-05-2.97951E-05-2.90491E-05-1.69481E-06-7.02120E-19-8.79072E-19
 -1      2727 9.80788E-05-3.04769E-05-2.89822E-05-1.75979E-06-3.37627E-19-8.88855E-19
 -1      2728 9.72257E-05-2.94856E-05-2.90356E-05-1.76884E-06-2.16119E-19-9.05531E-19
 -1      2729 9.69546E-05-2.92420E-05-2.90131E-05-1.82945E-06 9.66710E-20-5.68073E-19
 -1      2730 9.72100E-05-2.96591E-05-2.89584E-05-2.03664E-06-4.18953E-19-3.38425E-19
 -1      2731 9.66865E-05-2.90294E-05-2.89972E-05-1.79861E-06 8.27087E-20-3.43089E-19
 -1      2732 9.64664E-05-2.88603E-05-2.89700E-05-1.77066E-06 2.14247E-19-9.12091E-21
 -1      2733 9.65701E-05-2.90710E-05-2.89343E-05-2.05402E-06 3.32918E-19-1.78741E-19
 -1      2734 9.62809E-05-2.87265E-05-2.89513E-05-1.67863E-06-6.91338E-20 3.50810E-19
 -1      2735 9.61067E-05-2.86177E-05-2.89217E-05-1.59870E-06 7.26388E-20-3.13220E-19
 -1      2736 9.61186E-05-2.86836E-05-2.89052E-05-1.91038E-06 1.03400E-19-8.09569E-20
 -1      2737 9.59819E-05-2.85426E-05-2.89009E-05-1.47736E-06 3.45304E-19-8.75946E-19
 -1      2738 9.58465E-05-2.84786E-05-2.88710E-05-1.37264E-06 5.98224E-19-1.19417E-18
 -1      2739 9.58102E-05-2.84529E-05-2.88706E-05-1.68054E-06-4.72059E-19-3.83821E-19
 -1      2740 9.57644E-05-2.84437E-05-2.88495E-05-1.24355E-06 8.58884E-19-1.31801E-18
 -1      2741 9.56604E-05-2.84108E-05-2.88211E-05-1.13258E-06 1.47131E-18-1.30747E-18
 -1      2742 9.56051E-05-2.83344E-05-2.88325E-05-1.41701E-06 5.70929E-19-1.02576E-18
 -1      2743 9.56073E-05-2.84015E-05-2.88001E-05-1.00912E-06 1.47522E-18-1.82202E-18
 -1      2744 9.55284E-05-2.83889E-05-2.87743E-05-9.03445E-07 1.40918E-18-1.68183E-18
 -1      2745 9.54713E-05-2.82905E-05-2.87934E-05-1.15395E-06 1.27156E-18-1.72752E-18
 -1      2746 9.54944E-05-2.83944E-05-2.87548E-05-7.92996E-07 1.27668E-18-1.64207E-18
 -1      2747 9.54352E-05-2.83940E-05-2.87324E-05-6.98940E-07 9.59576E-19-1.38280E-18
 -1      2748 9.53855E-05-2.82922E-05-2.87554E-05-9.11510E-07 1.13694E-18-1.62330E-18
 -1      2749 9.54135E-05-2.84071E-05-2.87150E-05-6.04738E-07 4.15349E-19-1.22556E-18
 -1      2750 9.53696E-05-2.84133E-05-2.86960E-05-5.25004E-07 1.14455E-19-8.46194E-19
 -1      2751 9.53309E-05-2.83189E-05-2.87203E-05-6.99896E-07 7.20002E-19-1.30380E-18
 -1      2752 9.53558E-05-2.84292E-05-2.86811E-05-4.47615E-07 5.37746E-19-9.76513E-19
 -1      2753 9.53237E-05-2.84384E-05-2.86656E-05-3.82575E-07 8.41463E-19-5.27697E-19
 -1      2754 9.52964E-05-2.83567E-05-2.86892E-05-5.22609E-07 4.55599E-19-9.48025E-19
 -1      2755 9.53148E-05-2.84543E-05-2.86530E-05-3.20978E-07-9.62458E-20-6.12885E-20
 -1      2756 9.52917E-05-2.84643E-05-2.86407E-05-2.69635E-07-4.84548E-19-3.43578E-19
 -1      2757 9.52746E-05-2.83971E-05-2.86624E-05-3.78979E-07 6.17020E-19-1.88004E-19
 -1      2758 9.52859E-05-2.84787E-05-2.86305E-05-2.21985E-07 6.65154E-20-3.45410E-19
 -1      2759 9.52696E-05-2.84882E-05-2.86209E-05-1.82647E-07-5.18101E-19-4.14287E-19
 -1      2760 9.52608E-05-2.84351E-05-2.86400E-05-2.65973E-07-5.78902E-20 2.69721E-19
 -1      2761 9.52659E-05-2.85004E-05-2.86128E-05-1.46777E-07-1.23804E-18 2.38858E-19
 -1      2762 9.52547E-05-2.85088E-05-2.86056E-05-1.17499E-07-1.36181E-18 3.13432E-19
 -1      2763 9.52520E-05-2.84684E-05-2.86219E-05-1.79444E-07-4.93118E-19 2.04908E-19
 -1      2764 9.52521E-05-2.85187E-05-2.85993E-05-9.12364E-08-9.15432E-19 6.08917E-19
 -1      2765 9.52447E-05-2.85258E-05-2.85940E-05-7.00905E-08-4.25524E-19 8.14786E-19
 -1      2766 9.52462E-05-2.84961E-05-2.86075E-05-1.14936E-07-1.03056E-18 4.22820E-19
 -1      2767 9.52430E-05-2.85336E-05-2.85892E-05-5.14336E-08-8.01144E-19 9.50548E-19
 -1      2768 9.52383E-05-2.85392E-05-2.85854E-05-3.66650E-08-8.09296E-19 2.31457E-19
 -1      2769 9.52425E-05-2.85182E-05-2.85964E-05-6.81676E-08-7.79709E-19 8.05825E-19
 -1      2770 9.52372E-05-2.85451E-05-2.85819E-05-2.38681E-08-3.73690E-19 9.80642E-19
 -1      2771 9.52344E-05-2.85496E-05-2.85793E-05-1.39619E-08 1.99806E-19 1.02967E-18
 -1      2772 9.52400E-05-2.85353E-05-2.85879E-05-3.52995E-08-2.29711E-19 1.82063E-18
 -1      2773 9.52337E-05-2.85539E-05-2.85768E-05-5.56441E-09 3.12019E-19 7.45026E-19
 -1      2774 9.52323E-05-2.85573E-05-2.85750E-05 7.34912E-10 4.84009E-19 1.26184E-18
 -1      2775 9.52384E-05-2.85480E-05-2.85817E-05-1.30436E-08 7.34200E-20 3.03718E-18
 -1      2776 9.52317E-05-2.85603E-05-2.85733E-05 5.91607E-09 6.81021E-20 8.41568E-19
 -1      2777 9.52313E-05-2.85628E-05-2.85722E-05 9.61535E-09-1.72437E-19 1.01150E-18
 -1      2778 9.52374E-05-2.85573E-05-2.85773E-05 1.31501E-09 4.98223E-20 1.62835E-18
 -1      2779 9.52309E-05-2.85649E-05-2.85710E-05 1.25122E-08 5.54731E-21 1.05976E-18
 -1      2780 9.52310E-05-2.85667E-05-2.85704E-05 1.43964E-08 7.18533E-20 3.21012E-19
 -1      2781 9.52368E-05-2.85639E-05-2.85742E-05 9.95227E-09-1.12031E-20 8.45890E-19
 -1      2782 9.52308E-05-2.85681E-05-2.85697E-05 1.57248E-08 5.95033E-19 1.25216E-20
 -1      2783 9.52313E-05-2.85694E-05-2.85694E-05 1.63901E-08 9.60606E-19-4.93377E-19
 -1      2784 9.52364E-05-2.85683E-05-2.85721E-05 1.45668E-08-6.16130E-20-3.75143E-19
 -1      2785 9.52312E-05-2.85702E-05-2.85689E-05 1.66862E-08 1.01644E-18-7.28851E-19
 -1      2786 9.52318E-05-2.85711E-05-2.85689E-05 1.65735E-08 6.02903E-19 4.85399E-20
 -1      2787 9.52362E-05-2.85711E-05-2.85708E-05 1.64525E-08 5.81555E-19-1.22976E-19
 -1      2788 9.52318E-05-2.85716E-05-2.85687E-05 1.62291E-08 2.97991E-19 6.92618E-20
 -1      2789 9.52325E-05-2.85721E-05-2.85687E-05 1.56557E-08 1.10910E-19 2.83074E-19
 -1      2790 9.52361E-05-2.85728E-05-2.85700E-05 1.65706E-08 9.44858E-19-7.06530E-19
 -1      2791 9.52325E-05-2.85723E-05-2.85686E-05 1.49484E-08-8.54847E-20 7.93383E-19
 -1      2792 9.52332E-05-2.85727E-05-2.85688E-05 1.41352E-08 5.18943E-19 9.80743E-19
 -1      2793 9.52362E-05-2.85737E-05-2.85696E-05 1.56171E-08 2.21747E-19 6.99866E-19
 -1      2794 9.52332E-05-2.85727E-05-2.85688E-05 1.32556E-08 1.31556E-18 4.63671E-19
 -1      2795 9.52339E-05-2.85729E-05-2.85690E-05 1.23500E-08 9.44510E-19 1.89721E-19
 -1      2796 9.52362E-05-2.85741E-05-2.85695E-05 1.40805E-08 7.44450E-19 4.63427E-19
 -1      2797 9.52339E-05-2.85728E-05-2.85690E-05 1.14223E-08-3.33951E-19 5.86230E-19
 -1      2798 9.52345E-05-2.85729E-05-2.85692E-05 1.05169E-08-8.10477E-19 8.98931E-19
 -1      2799 9.52363E-05-2.85742E-05-2.85695E-05 1.22909E-08 2.02288E-19-7.47347E-19
 -1      2800 9.52346E-05-2.85728E-05-2.85693E-05 9.61647E-09-1.16669E-18 2.53867E-18
 -1      2801 9.52351E-05-2.85729E-05-2.85695E-05 8.76336E-09-1.91099E-19 2.07971E-18
 -1      2802 9.52365E-05-2.85740E-05-2.85696E-05 1.04596E-08 5.10637E-19-4.40294E-20
 -1      2803 9.52352E-05-2.85728E-05-2.85696E-05 7.93014E-09-3.42405E-19 2.65289E-18
 -1      2804 9.52356E-05-2.85728E-05-2.85698E-05 7.15286E-09-4.54643E-20 2.47028E-18
 -1      2805 9.52366E-05-2.85738E-05-2.85698E-05 8.70963E-09-7.62696E-20 2.11861E-18
 -1      2806 9.52357E-05-2.85727E-05-2.85699E-05 6.40538E-09 1.18295E-19 3.34187E-18
 -1      2807 9.52361E-05-2.85727E-05-2.85700E-05 5.71192E-09 8.93460E-20 2.82858E-18
 -1      2808 9.52367E-05-2.85735E-05-2.85700E-05 7.10587E-09 1.60647E-19 2.76024E-18
 -1      2809 9.52362E-05-2.85726E-05-2.85701E-05 5.13528E-09 3.78237E-19 1.96427E-18
 -1      2810 9.52365E-05-2.85727E-05-2.85702E-05 4.49949E-09 1.73025E-18 1.60584E-18
 -1      2811 9.52370E-05-2.85732E-05-2.85702E-05 4.66139E-09 2.32568E-18 4.40348E-18
 -1      2812 9.52369E-05-2.85733E-05-2.85701E-05 5.77298E-09 1.62320E-19 3.69000E-18
 -1      2813 1.31231E-04-1.76008E-05-4.94451E-05-1.13520E-05-3.41174E-18-2.62580E-19
 -1      2814 1.34923E-04-2.54253E-05-4.71094E-05-1.10317E-05-2.97690E-18 5.29819E-19
 -1      2815 1.43116E-04-2.81494E-05-5.03510E-05-1.64073E-05 3.68819E-18 1.20400E-18
 -1      2816 1.15225E-04-4.57409E-05-2.94216E-05 2.13832E-05-7.52192E-19-2.38286E-18
 -1      2817 1.23354E-04-5.30906E-05-3.00145E-05 1.79882E-05-2.06782E-19-2.45003E-18
 -1      2818 9.70577E-05-2.57429E-05-3.05804E-05 1.57948E-05-1.41613E-18-6.04626E-19
 -1      2819 9.83599E-05-2.67293E-05-3.06402E-05 1.71780E-05-1.91938E-18-8.92346E-19
 -1      2820 9.67904E-05-2.54805E-05-3.05877E-05 1.26000E-05-9.15949E-19-4.41336E-19
 -1      2821 9.75366E-05-2.56937E-05-3.07497E-05 1.40527E-05-1.12168E-18-2.53966E-19
 -1      2822 9.22312E-05-2.32488E-05-2.95390E-05 1.51072E-05-1.47793E-18-1.40881E-18
 -1      2823 9.67999E-05-2.59208E-05-3.04001E-05 9.82241E-06-2.49585E-19-1.62483E-20
 -1      2824 9.73235E-05-2.58332E-05-3.06049E-05 1.11345E-05-7.30128E-19-3.98835E-19
 -1      2825 9.33267E-05-2.36520E-05-2.98327E-05 1.19677E-05-9.17749E-19-8.58063E-19
 -1      2826 9.67834E-05-2.65218E-05-3.01301E-05 7.52639E-06-2.48336E-19 5.01069E-20
 -1      2827 9.72082E-05-2.63541E-05-3.03365E-05 8.62157E-06 1.56992E-19 3.32211E-19
 -1      2828 9.42963E-05-2.45676E-05-2.98607E-05 9.36056E-06-2.89399E-19-2.36050E-19
 -1      2829 9.66780E-05-2.70674E-05-2.98461E-05 5.69226E-06-1.09521E-19 4.95146E-20
 -1      2830 9.70413E-05-2.69069E-05-3.00324E-05 6.56475E-06-3.80728E-19 5.85416E-21
 -1      2831 9.49736E-05-2.55183E-05-2.97506E-05 7.22996E-06 1.08518E-19 3.62444E-19
 -1      2832 9.65043E-05-2.74965E-05-2.95837E-05 4.26128E-06 4.57165E-19 1.27396E-19
 -1      2833 9.68144E-05-2.73692E-05-2.97415E-05 4.93654E-06 3.11924E-19 1.95189E-20
 -1      2834 9.53754E-05-2.63251E-05-2.95832E-05 5.52107E-06 1.36245E-19-3.67745E-19
 -1      2835 9.62976E-05-2.78117E-05-2.93576E-05 3.16224E-06-4.17172E-20 1.57394E-19
 -1      2836 9.65580E-05-2.77186E-05-2.94860E-05 3.67578E-06 4.11658E-19 4.14474E-19
 -1      2837 9.55727E-05-2.69499E-05-2.94045E-05 4.17356E-06 4.21869E-19-6.22335E-19
 -1      2838 9.60799E-05-2.80435E-05-2.91627E-05 2.29194E-06 8.43721E-19-3.19920E-20
 -1      2839 9.62996E-05-2.79764E-05-2.92685E-05 2.69248E-06 2.49103E-19-2.87196E-19
 -1      2840 9.56385E-05-2.74196E-05-2.92337E-05 3.10484E-06 3.20248E-19-3.92429E-19
 -1      2841 9.58925E-05-2.81960E-05-2.90152E-05 1.67293E-06 3.58711E-19 7.86835E-19
 -1      2842 9.60587E-05-2.81516E-05-2.90931E-05 1.95674E-06 9.69558E-19 6.39961E-19
 -1      2843 9.56261E-05-2.77578E-05-2.90860E-05 2.28524E-06 4.64353E-19-6.42587E-19
 -1      2844 9.57301E-05-2.83017E-05-2.88995E-05 1.20912E-06-5.26223E-19 1.75634E-18
 -1      2845 9.58595E-05-2.82709E-05-2.89589E-05 1.41955E-06-2.33250E-19 1.10529E-18
 -1      2846 9.55770E-05-2.79899E-05-2.89664E-05 1.67929E-06-8.98457E-20 2.24741E-19
 -1      2847 9.55967E-05-2.83754E-05-2.88101E-05 8.63734E-07-1.42788E-19 1.68918E-18
 -1      2848 9.56954E-05-2.83537E-05-2.88550E-05 1.01911E-06-9.99050E-20 1.71361E-18
 -1      2849 9.55151E-05-2.81544E-05-2.88698E-05 1.22080E-06-8.61502E-20 3.26660E-19
 -1      2850 9.54911E-05-2.84274E-05-2.87422E-05 6.08066E-07 1.59489E-18 1.56464E-18
 -1      2851 9.55649E-05-2.84117E-05-2.87756E-05 7.22162E-07 3.69351E-19 1.62886E-18
 -1      2852 9.54533E-05-2.82713E-05-2.87934E-05 8.76302E-07 1.84643E-19 2.70515E-19
 -1      2853 9.54099E-05-2.84647E-05-2.86911E-05 4.20130E-07 9.81035E-19 2.32887E-18
 -1      2854 9.54640E-05-2.84531E-05-2.87157E-05 5.03348E-07 2.13384E-18 2.33657E-18
 -1      2855 9.53982E-05-2.83549E-05-2.87339E-05 6.19353E-07 1.10778E-18 1.01780E-18
 -1      2856 9.53493E-05-2.84920E-05-2.86533E-05 2.83190E-07-2.86983E-19 2.51701E-18
 -1      2857 9.53881E-05-2.84831E-05-2.86712E-05 3.43354E-07-2.04661E-20 2.29642E-18
 -1      2858 9.53524E-05-2.84152E-05-2.86883E-05 4.29298E-07 6.19272E-19 2.44724E-18
 -1      2859 9.53052E-05-2.85122E-05-2.86257E-05 1.84516E-07-2.65964E-19 2.46097E-18
 -1      2860 9.53324E-05-2.85052E-05-2.86385E-05 2.27513E-07-2.82052E-20 2.42503E-18
 -1      2861 9.53160E-05-2.84590E-05-2.86538E-05 2.90119E-07-2.99006E-19 2.17430E-18
 -1      2862 9.52742E-05-2.85274E-05-2.86058E-05 1.14423E-07 7.50492E-19 1.72038E-18
 -1      2863 9.52926E-05-2.85218E-05-2.86148E-05 1.44690E-07 8.95327E-19 2.60194E-18
 -1      2864 9.52883E-05-2.84910E-05-2.86281E-05 1.89432E-07 7.53634E-19 2.14401E-18
 -1      2865 9.52531E-05-2.85389E-05-2.85918E-05 6.55386E-08 6.75786E-20 1.36433E-18
 -1      2866 9.52651E-05-2.85344E-05-2.85980E-05 8.64262E-08 4.05351E-19 1.38935E-18
 -1      2867 9.52680E-05-2.85144E-05-2.86092E-05 1.17687E-07 1.33057E-18 2.15926E-18
 -1      2868 9.52393E-05-2.85476E-05-2.85822E-05 3.22581E-08-5.84938E-19 4.44825E-20
 -1      2869 9.52467E-05-2.85440E-05-2.85862E-05 4.62947E-08-8.01242E-20 2.74379E-19
 -1      2870 9.52535E-05-2.85316E-05-2.85955E-05 6.75296E-08 6.73199E-19 1.23412E-18
 -1      2871 9.52309E-05-2.85542E-05-2.85757E-05 1.03284E-08-3.86797E-19 3.41278E-19
 -1      2872 9.52351E-05-2.85514E-05-2.85783E-05 1.94193E-08-1.17817E-18 6.55796E-21
 -1      2873 9.52437E-05-2.85442E-05-2.85858E-05 3.33188E-08-8.12583E-19 8.85780E-19
 -1      2874 9.52263E-05-2.85593E-05-2.85716E-05-3.46387E-09-2.61636E-20 1.66352E-18
 -1      2875 9.52282E-05-2.85570E-05-2.85731E-05 2.11169E-09-2.90536E-19 4.31537E-19
 -1      2876 9.52374E-05-2.85534E-05-2.85791E-05 1.07427E-08-3.79260E-19 8.84511E-19
 -1      2877 9.52242E-05-2.85630E-05-2.85691E-05-1.15370E-08 3.48892E-20 2.71559E-18
 -1      2878 9.52247E-05-2.85612E-05-2.85699E-05-8.40028E-09 5.06157E-19 2.15894E-18
 -1      2879 9.52335E-05-2.85599E-05-2.85746E-05-3.47358E-09 1.24954E-20 1.76748E-18
 -1      2880 9.52238E-05-2.85659E-05-2.85677E-05-1.57957E-08 8.88143E-19 2.35432E-18
 -1      2881 9.52234E-05-2.85644E-05-2.85680E-05-1.42989E-08 7.86532E-19 2.77819E-18
 -1      2882 9.52314E-05-2.85646E-05-2.85716E-05-1.19138E-08 2.57629E-19 1.47574E-18
 -1      2883 9.52245E-05-2.85679E-05-2.85671E-05-1.71935E-08 1.23460E-18 1.55451E-18
 -1      2884 9.52236E-05-2.85668E-05-2.85671E-05-1.68592E-08 1.03852E-18 2.43070E-18
 -1      2885 9.52306E-05-2.85679E-05-2.85698E-05-1.62001E-08 1.23000E-18 1.59870E-18
 -1      2886 9.52257E-05-2.85693E-05-2.85671E-05-1.69759E-08 1.35990E-18 2.37014E-18
 -1      2887 9.52246E-05-2.85685E-05-2.85669E-05-1.73025E-08 1.26419E-18 1.18154E-18
 -1      2888 9.52306E-05-2.85700E-05-2.85689E-05-1.76658E-08 8.32197E-19 1.56672E-18
 -1      2889 9.52273E-05-2.85702E-05-2.85673E-05-1.57992E-08 1.00268E-18 2.95527E-18
 -1      2890 9.52260E-05-2.85696E-05-2.85670E-05-1.64997E-08 1.06860E-18 1.84419E-18
 -1      2891 9.52310E-05-2.85713E-05-2.85685E-05-1.74554E-08 1.70667E-18 4.23879E-18
 -1      2892 9.52288E-05-2.85709E-05-2.85677E-05-1.41219E-08-4.70165E-19 2.95869E-18
 -1      2893 9.52276E-05-2.85705E-05-2.85674E-05-1.50020E-08 5.99510E-19 2.72548E-18
 -1      2894 9.52316E-05-2.85721E-05-2.85684E-05-1.62536E-08 5.97077E-19 3.20954E-18
 -1      2895 9.52303E-05-2.85713E-05-2.85682E-05-1.22504E-08-1.95205E-18 1.86530E-18
 -1      2896 9.52292E-05-2.85710E-05-2.85678E-05-1.31829E-08-1.52868E-18 2.10364E-18
 -1      2897 9.52324E-05-2.85725E-05-2.85685E-05-1.45341E-08-4.54578E-19 1.08480E-18
 -1      2898 9.52317E-05-2.85716E-05-2.85686E-05-1.03782E-08-2.96546E-18 1.26192E-19
 -1      2899 9.52307E-05-2.85713E-05-2.85683E-05-1.12850E-08-2.32032E-18 7.02810E-19
 -1      2900 9.52332E-05-2.85727E-05-2.85688E-05-1.26121E-08-1.63145E-18 5.42980E-19
 -1      2901 9.52330E-05-2.85717E-05-2.85691E-05-8.61644E-09-2.17159E-18-2.36274E-19
 -1      2902 9.52321E-05-2.85716E-05-2.85688E-05-9.45535E-09-2.80579E-18-1.25633E-19
 -1      2903 9.52340E-05-2.85727E-05-2.85691E-05-1.06866E-08-2.65774E-18 2.11573E-19
 -1      2904 9.52340E-05-2.85718E-05-2.85695E-05-7.01648E-09-2.23572E-18 5.80246E-19
 -1      2905 9.52333E-05-2.85717E-05-2.85693E-05-7.77127E-09-2.94210E-18-5.37373E-19
 -1      2906 9.52347E-05-2.85727E-05-2.85694E-05-8.87203E-09-2.51297E-18-1.36520E-20
 -1      2907 9.52350E-05-2.85719E-05-2.85699E-05-5.58795E-09-5.51393E-19 1.92246E-18
 -1      2908 9.52343E-05-2.85718E-05-2.85697E-05-6.25986E-09-1.08407E-18 1.67644E-18
 -1      2909 9.52353E-05-2.85726E-05-2.85697E-05-7.22011E-09-2.10265E-18 6.81942E-19
 -1      2910 9.52357E-05-2.85720E-05-2.85702E-05-4.31891E-09 1.40888E-18 9.38136E-19
 -1      2911 9.52352E-05-2.85719E-05-2.85700E-05-4.91620E-09 1.00481E-18 1.64393E-18
 -1      2912 9.52359E-05-2.85725E-05-2.85700E-05-5.74287E-09 5.69353E-19 7.35204E-19
 -1      2913 9.52363E-05-2.85721E-05-2.85704E-05-3.25051E-09 8.81973E-20 1.17033E-18
 -1      2914 9.52358E-05-2.85720E-05-2.85702E-05-3.79955E-09 1.48067E-18 3.58119E-19
 -1      2915 9.52363E-05-2.85725E-05-2.85702E-05-4.52903E-09 1.25700E-18 5.10390E-19
 -1      2916 9.52365E-05-2.85724E-05-2.85703E-05-3.50629E-09 5.50135E-19-1.50250E-19
 -1      2917 9.52405E-05-2.85767E-05-2.85702E-05-3.61640E-10 6.69665E-19 5.21013E-19
 -1      2918 9.52404E-05-2.85766E-05-2.85702E-05-1.00397E-09 2.04436E-18 4.33782E-19
 -1      2919 1.29996E-04-4.69108E-05-3.60914E-05 1.33445E-05-1.14614E-20 1.12253E-18
 -1      2920 1.20372E-04-4.64481E-05-3.14481E-05 2.25767E-05 1.07086E-18 1.02189E-18
 -1      2921 9.52397E-05-2.85758E-05-2.85702E-05-2.85335E-09 3.53536E-18-1.08415E-18
 -1      2922 9.52394E-05-2.85755E-05-2.85702E-05-3.26079E-09 3.59133E-18-7.13004E-19
 -1      2923 9.52404E-05-2.85766E-05-2.85702E-05 1.03274E-09-1.77279E-19-1.36361E-18
 -1      2924 9.52405E-05-2.85767E-05-2.85702E-05 3.91614E-10 2.12091E-19-8.85497E-19
 -1      2925 9.52410E-05-2.85770E-05-2.85703E-05 1.78879E-11 1.30340E-18-7.08357E-19
 -1      2926 9.52403E-05-2.85764E-05-2.85702E-05-1.71204E-09 2.42207E-18-4.06393E-19
 -1      2927 9.52400E-05-2.85762E-05-2.85702E-05-2.27402E-09 3.29335E-18-5.91343E-19
 -1      2928 9.52403E-05-2.85762E-05-2.85703E-05-2.85660E-09 3.29071E-18-1.04367E-18
 -1      2929 9.52408E-05-2.85768E-05-2.85703E-05-1.51169E-09 3.01153E-18-7.80409E-19
 -1      2930 1.03850E-04-2.60004E-05-3.34382E-05-1.46710E-05-9.37222E-19-2.88042E-18
 -1      2931 1.03618E-04-2.71698E-05-3.27800E-05-1.35603E-05-9.60429E-19-2.67651E-18
 -1      2932 9.52400E-05-2.85762E-05-2.85702E-05 2.27791E-09-2.21491E-19-3.08068E-18
 -1      2933 9.52403E-05-2.85764E-05-2.85702E-05 1.72732E-09 3.29089E-19-2.50136E-18
 -1      2934 9.52408E-05-2.85768E-05-2.85703E-05 1.53237E-09 2.23068E-19-2.35357E-18
 -1      2935 9.52393E-05-2.85755E-05-2.85702E-05 3.25962E-09 9.60927E-19-7.29050E-19
 -1      2936 9.52397E-05-2.85758E-05-2.85702E-05 2.85201E-09 4.09970E-19-1.58164E-18
 -1      2937 9.52402E-05-2.85762E-05-2.85703E-05 2.86212E-09 1.31417E-18-2.44636E-18
 -1      2938 9.52384E-05-2.85745E-05-2.85703E-05 3.84607E-09 1.62332E-18 1.50474E-18
 -1      2939 9.52389E-05-2.85750E-05-2.85702E-05 3.62349E-09 1.44610E-18 5.87908E-19
 -1      2940 9.52394E-05-2.85754E-05-2.85703E-05 3.85442E-09 2.22975E-18 6.22272E-19
 -1      2941 9.52377E-05-2.85736E-05-2.85703E-05 3.80020E-09 2.48103E-18 3.10102E-18
 -1      2942 1.39995E-04-4.81073E-05-3.94529E-05-4.12696E-06 8.97537E-19-1.83923E-18
 -1      2943 1.41894E-04-4.09731E-05-4.39006E-05 1.76754E-06-3.10967E-19-2.26761E-18
 -1      2944 1.02977E-04-2.28933E-05-3.43331E-05-1.41173E-05-3.49059E-19-3.22679E-18
 -1      2945 3.54166E-05-5.63115E-06-1.24289E-05 3.44350E-05 3.57310E-18-3.06880E-18
 -1      2946 2.55508E-05 1.28814E-08-1.03822E-05 2.25591E-05 3.35436E-18-3.64436E-18
 -1      2947 1.40117E-04-2.89886E-05-4.79092E-05 6.64944E-06-1.10263E-18-1.97232E-18
 -1      2948 1.37889E-04-1.89274E-05-5.16785E-05 7.24532E-06-1.43614E-18-1.57569E-18
 -1      2949 2.93742E-05-9.76801E-06-7.86650E-06-1.87428E-06-7.30614E-19 3.99545E-18
 -1      2950 3.04741E-05-1.06773E-05-7.92009E-06-1.41264E-05-2.19593E-19 4.01769E-18
 -1      2951 9.84687E-05-2.78365E-05-3.02365E-05 1.91608E-05-2.12449E-18-1.13105E-18
 -1      2952 1.01007E-04-3.04505E-05-3.01555E-05 2.00602E-05-1.38435E-18-1.59851E-18
 -1      2953 9.16329E-05-2.44020E-05-2.88056E-05 1.88444E-05-2.03495E-18-1.18509E-18
 -1      2954 1.47531E-04-6.35790E-05-3.56733E-05-1.59367E-06-7.42160E-19 4.38340E-19
 -1      2955 1.51733E-04-6.10398E-05-3.93556E-05 8.01915E-06-4.27368E-19 1.23963E-18
 -1      2956 1.02874E-04-3.35544E-05-2.95253E-05 2.18293E-05-1.01571E-18-1.99835E-18
 -1      2957 1.07561E-04-3.87299E-05-2.93951E-05 2.15836E-05-8.77632E-19-2.25792E-18
 -1      2958 9.32506E-05-2.91575E-05-2.75148E-05 2.30979E-05-1.45032E-18-1.62350E-18
 -1      2959 1.38311E-04-6.25504E-05-3.24308E-05 1.25657E-05 9.69217E-19-2.65534E-18
 -1      2960 3.61689E-05-1.47469E-05-8.52920E-06-2.47039E-05 2.65280E-19 3.94654E-18
 -1      2961 4.68021E-05-2.14077E-05-1.06509E-05-3.57692E-05 9.74723E-19 3.60285E-18
 -1      2962 3.96583E-05-1.22375E-05-1.10924E-05-1.86637E-05 8.85679E-20 3.80487E-18
 -1      2963 1.27362E-04-5.69265E-05-2.98895E-05-2.35884E-05 2.99225E-18-1.12232E-19
 -1      2964 1.36052E-04-5.54187E-05-3.50288E-05-1.44823E-05 2.12015E-18-9.72076E-19
 -1      2965 1.03728E-04-2.80044E-05-3.24692E-05-1.31906E-05-9.17755E-19-2.39808E-18
 -1      2966 1.02879E-04-2.80169E-05-3.20900E-05-1.21441E-05-9.22672E-19-2.33183E-18
 -1      2967 1.04337E-04-2.77413E-05-3.28228E-05-1.27126E-05-8.46652E-19-1.91011E-18
 -1      2968 1.05022E-04-2.76041E-05-3.31630E-05-1.37395E-05-7.34943E-19-2.35640E-18
 -1      2969 1.53210E-04-5.49174E-05-4.19699E-05 1.95328E-05-3.62212E-19 3.24202E-18
 -1      2970 8.77091E-05-2.41347E-05-2.73515E-05-1.55262E-05 9.14372E-19-7.28660E-19
 -1      2971 3.91515E-05 5.66660E-06-1.90766E-05 1.69337E-05 3.71376E-18-2.68716E-18
 -1      2972 4.41221E-05 2.49054E-06-1.95445E-05 2.34493E-05 3.98902E-18-2.61114E-18
 -1      2973 1.36578E-04-3.56684E-05-4.39501E-05-5.06444E-06-2.15194E-18 1.11438E-18
 -1      2974 1.35459E-04-4.27160E-05-3.97310E-05 2.95232E-06-9.56935E-19 1.22513E-18
 -1      2975 1.30044E-04-4.39477E-05-3.68899E-05 4.51795E-06 7.93696E-20 9.59265E-19
 -1      2976 1.08066E-04-2.95091E-05-3.36236E-05-3.43306E-06 1.27834E-18-1.84073E-18
 -1      2977 1.08090E-04-2.88932E-05-3.40655E-05-6.79731E-06 8.66035E-19-2.30614E-18
 -1      2978 1.33811E-04-1.17590E-05-5.26838E-05 6.20536E-06-2.02229E-18-1.94352E-18
 -1      2979 1.27827E-04-7.15547E-06-5.23266E-05 3.01520E-06-2.81977E-18-2.26377E-18
 -1      2980 3.72514E-05-7.03395E-06-1.25002E-05-1.41494E-05 1.59973E-18-3.85675E-18
 -1      2981 5.36077E-05-1.90490E-05-1.43095E-05-2.51371E-05 1.07467E-18-3.58613E-18
 -1      2982 9.66677E-05-4.83204E-05-2.02551E-05-4.14232E-05 3.02751E-18 1.91244E-18
 -1      2983 1.12755E-04-5.48657E-05-2.51225E-05-3.59930E-05 3.00337E-18 9.56452E-19
 -1      2984 9.26905E-05-4.39764E-05-2.04491E-05-3.92172E-05 2.58409E-18 2.03055E-18
 -1      2985 1.06577E-04-4.30967E-05-2.74429E-05 3.36508E-05 1.96363E-18 4.03168E-19
 -1      2986 9.04637E-05-3.54902E-05-2.30998E-05 3.88566E-05 2.84190E-18-3.34843E-19
 -1      2987 1.34421E-04-6.08791E-05-3.17480E-05-1.27889E-05-5.75135E-19-3.26425E-19
 -1      2988 1.36579E-04-5.93812E-05-3.31208E-05-7.32929E-06-7.90070E-19 5.56580E-19
 -1      2989 1.28636E-04-5.36267E-05-3.15683E-05-1.21725E-05-7.88905E-19 7.47477E-19
 -1      2990 1.19574E-04-5.50002E-05-2.71051E-05-2.10951E-05-7.16060E-19-1.19888E-18
 -1      2991 1.07389E-04-2.76080E-05-3.41753E-05-9.50437E-06 5.60701E-19-2.48899E-18
 -1      2992 1.06477E-04-2.67440E-05-3.42571E-05-1.16440E-05 1.17309E-19-2.78557E-18
 -1      2993 1.10035E-04-3.01322E-05-3.41712E-05-9.22471E-06 5.28985E-19-2.01980E-18
 -1      2994 9.62367E-05-3.02978E-05-2.81992E-05 2.25690E-05 2.90940E-18-5.89753E-19
 -1      2995 9.57813E-05-2.72525E-05-2.92993E-05 1.76830E-05 2.82699E-18-9.31055E-19
 -1      2996 1.01692E-04-2.99106E-05-3.07832E-05 1.24494E-05 2.41469E-18-1.09067E-18
 -1      2997 4.77441E-05-3.47723E-06-1.85587E-05-8.54035E-06 2.14905E-18-2.96271E-18
 -1      2998 4.78831E-05-3.78440E-06-1.85524E-05 2.97695E-05 4.09159E-18-2.47106E-18
 -1      2999 1.36646E-04-3.45011E-05-4.40553E-05 7.21139E-06-1.26208E-19-2.27195E-18
 -1      3000 1.22214E-04-7.40398E-06-4.97594E-05-6.28816E-07-3.03195E-18-2.44045E-18
 -1      3001 1.16286E-04-8.53540E-06-4.64776E-05-3.41463E-06-2.86318E-18-2.64147E-18
 -1      3002 1.18367E-04-8.84167E-06-4.73340E-05 3.54212E-06-2.53517E-18-2.80382E-18
 -1      3003 6.11065E-05-2.59378E-05-1.45640E-05-3.65582E-05 1.54149E-18 2.99087E-18
 -1      3004 1.23920E-04-1.45989E-05-4.72071E-05-1.09948E-05-2.94238E-18-1.24959E-18
 -1      3005 7.19943E-05-2.86065E-05-1.85987E-05 3.08829E-05-1.42820E-18-8.76150E-19
 -1      3006 6.17945E-05-2.66844E-05-1.47344E-05 3.16689E-05-1.76712E-18 8.09975E-20
 -1      3007 5.50297E-05-1.94564E-05-1.47470E-05 2.50200E-05-2.07020E-18 1.15980E-18
 -1      3008 1.31639E-04-3.12187E-05-4.32807E-05-9.46641E-06-1.91197E-18 7.07378E-19
 -1      3009 1.05434E-04-3.03469E-05-3.20975E-05 5.81929E-06 2.00275E-18-1.16409E-18
 -1      3010 1.07528E-04-3.07214E-05-3.30237E-05 1.16841E-06 1.57995E-18-1.52353E-18
 -1      3011 1.11143E-04-3.27870E-05-3.35584E-05-2.37760E-06 1.16739E-18-1.34105E-18
 -1      3012 4.35473E-05-1.28389E-05-1.28019E-05 1.57546E-05-1.73541E-18 2.76302E-18
 -1      3013 3.52133E-05-1.04863E-05-9.89369E-06 6.88094E-06-1.19410E-18 3.49316E-18
 -1      3014 3.97203E-05-9.07492E-06-1.25289E-05 1.73474E-06-1.17708E-18 3.40655E-18
 -1      3015 1.04953E-04-2.56818E-05-3.39535E-05-1.33143E-05-2.28950E-19-3.01049E-18
 -1      3016 1.01415E-04-3.96941E-05-2.65698E-05 2.59954E-05-7.42001E-19-2.31370E-18
 -1      3017 8.07661E-05-2.49567E-05-2.37598E-05-1.98945E-05 7.48512E-19-1.67623E-18
 -1      3018 9.52369E-05-2.85728E-05-2.85703E-05-3.66316E-09 8.97018E-19-2.59089E-18
 -1      3019 1.12164E-04-4.63332E-05-2.83032E-05-1.86606E-05-3.97417E-19-4.43898E-19
 -1      3020 1.13786E-04-4.34472E-05-2.99746E-05 2.36647E-05 1.95596E-18 5.76565E-19
 -1      3021 9.52394E-05-2.85754E-05-2.85703E-05-3.85455E-09 3.40897E-18 9.13722E-19
 -1      3022 9.52389E-05-2.85750E-05-2.85702E-05-3.63077E-09 2.83230E-18 6.14378E-19
 -1      3023 9.52385E-05-2.85745E-05-2.85703E-05-3.82664E-09 1.32676E-18-5.85325E-19
 -1      3024 9.52379E-05-2.85739E-05-2.85703E-05-3.92773E-09 1.02028E-18-1.99909E-18
 -1      3025 9.52374E-05-2.85734E-05-2.85703E-05-3.88751E-09 1.35937E-18-3.01332E-18
 -1      3026 9.52382E-05-2.85743E-05-2.85703E-05-4.37331E-09 1.29290E-18-1.61975E-18
 -1      3027 9.52380E-05-2.85740E-05-2.85703E-05 4.25824E-09 2.21444E-18 3.02487E-18
 -1      3028 1.35721E-04-5.15320E-05-3.61798E-05-5.72792E-06 1.79787E-18-1.88666E-18
 -1      3029 8.56203E-05-3.12000E-05-2.29315E-05 3.80335E-05 3.24752E-18-6.87526E-19
 -1      3030 7.28711E-05-2.75091E-05-1.93909E-05 4.41367E-05 3.18336E-18-1.08526E-18
 -1      3031 5.49288E-05-1.74833E-05-1.54478E-05 4.19810E-05 3.48988E-18-2.08328E-18
 -1      3032 3.12515E-05 2.12942E-06-1.37473E-05 1.96395E-05 3.57551E-18-3.39036E-18
 -1      3033 2.34735E-05 2.41256E-06-1.03799E-05 1.46141E-05 3.03497E-18-3.78708E-18
 -1      3034 1.29378E-04-1.67086E-05-4.86941E-05 8.34700E-06-1.62344E-18-2.06872E-18
 -1      3035 1.02494E-04-4.82358E-05-2.27015E-05 3.16836E-05-6.68838E-19-2.83375E-18
 -1      3036 9.66748E-05-4.22568E-05-2.30112E-05 3.08420E-05-1.07308E-18-2.47778E-18
 -1      3037 1.15000E-04-5.34066E-05-2.66014E-05 2.60992E-05-3.39343E-19-3.22428E-18
 -1      3038 1.28957E-04-5.75020E-05-3.02295E-05 1.69263E-05 9.62441E-20-2.90612E-18
 -1      3039 9.52371E-05-2.85731E-05-2.85703E-05-4.26955E-09 1.28446E-18-2.31775E-18
 -1      3040 2.62885E-05 1.18729E-06-1.11937E-05 2.60402E-06 2.56309E-18-3.89550E-18
 -1      3041 1.20479E-04-5.50631E-05-2.78430E-05-2.62746E-05 3.00120E-18 4.56074E-20
 -1      3042 1.08589E-04-4.83528E-05-2.56386E-05-2.33053E-05-3.89529E-19-1.43249E-18
 -1      3043 6.97525E-05-2.58939E-05-1.85108E-05-2.51213E-05 6.72862E-19-2.93867E-18
 -1      3044 3.23529E-05 4.65903E-06-1.54484E-05 6.16880E-06 3.13141E-18-3.33043E-18
 -1      3045 3.18526E-05 3.30400E-07-1.30810E-05-3.37322E-06 2.39202E-18-3.75532E-18
 -1      3046 3.65014E-05 5.72328E-06-1.76078E-05 1.19923E-05 3.44371E-18-2.97986E-18
 -1      3047 1.02490E-04-2.35078E-05-3.38965E-05-9.07718E-06-8.29316E-19-1.86477E-18
 -1      3048 1.01416E-04-2.21057E-05-3.39495E-05-6.80301E-06-7.76301E-19-1.82994E-18
 -1      3049 1.00441E-04-2.10694E-05-3.40245E-05-3.76094E-06-9.81659E-19-1.88521E-18
 -1      3050 1.00030E-04-2.07959E-05-3.39509E-05-9.46868E-07-1.12374E-18-2.22588E-18
 -1      3051 1.02686E-04-2.05367E-05-3.52298E-05-6.03509E-06-1.01795E-18-1.94094E-18
 -1      3052 1.00174E-04-2.13311E-05-3.37560E-05 2.36558E-06-1.11442E-18-2.40134E-18
 -1      3053 1.00630E-04-2.25552E-05-3.35074E-05 4.85107E-06-1.10285E-18-2.35836E-18
 -1      3054 1.01822E-04-1.99134E-05-3.51302E-05 6.30758E-07-1.25991E-18-2.46480E-18
 -1      3055 1.01750E-04-2.45115E-05-3.30471E-05 7.14953E-06-9.09861E-19-2.32083E-18
 -1      3056 1.02706E-04-2.66505E-05-3.26683E-05 8.54038E-06-6.00897E-19-2.17146E-18
 -1      3057 1.03190E-04-2.29246E-05-3.44149E-05 6.49484E-06-9.95214E-19-2.67192E-18
 -1      3058 1.03956E-04-2.90274E-05-3.20697E-05 9.20994E-06-2.39613E-19-1.79974E-18
 -1      3059 1.04868E-04-3.11504E-05-3.16537E-05 9.32499E-06 7.54364E-20-1.73704E-18
 -1      3060 1.05671E-04-2.80528E-05-3.32435E-05 9.43834E-06-2.47752E-19-1.93263E-18
 -1      3061 1.05461E-04-3.29444E-05-3.10667E-05 8.58641E-06 6.67278E-20-1.63841E-18
 -1      3062 1.05920E-04-3.43499E-05-3.06991E-05 7.78954E-06 2.95881E-19-1.55012E-18
 -1      3063 1.07572E-04-3.29683E-05-3.19340E-05 9.12189E-06 1.75212E-19-2.02907E-18
 -1      3064 1.05655E-04-3.51578E-05-3.02261E-05 6.35835E-06 2.24898E-19-1.22907E-18
 -1      3065 1.05571E-04-3.56743E-05-2.99515E-05 5.16500E-06 2.21183E-19-1.28777E-18
 -1      3066 1.07875E-04-3.59983E-05-3.07749E-05 6.70134E-06 3.82112E-19-1.41936E-18
 -1      3067 1.04678E-04-3.56127E-05-2.96233E-05 3.68122E-06 1.76209E-19-9.33399E-19
 -1      3068 1.04190E-04-3.54372E-05-2.94442E-05 2.49786E-06 4.64362E-19-7.87692E-19
 -1      3069 1.06654E-04-3.68527E-05-2.99100E-05 3.66154E-06 4.00774E-19-5.87729E-19
 -1      3070 1.03029E-04-3.48467E-05-2.92439E-05 1.30729E-06 3.36078E-19-9.64203E-19
 -1      3071 1.02347E-04-3.42872E-05-2.91411E-05 3.50198E-07 7.33139E-19-1.05952E-18
 -1      3072 1.04543E-04-3.60993E-05-2.93467E-05 9.84874E-07 3.09518E-19-1.51882E-19
 -1      3073 1.01205E-04-3.34962E-05-2.90346E-05-4.51291E-07 6.77944E-19-1.39682E-18
 -1      3074 1.00500E-04-3.28145E-05-2.89826E-05-1.11942E-06 3.75916E-19-1.62166E-18
 -1      3075 1.02208E-04-3.45336E-05-2.90250E-05-9.35878E-07 4.18450E-19-1.20819E-18
 -1      3076 9.95338E-05-3.20421E-05-2.89349E-05-1.57271E-06 2.79016E-19-1.48117E-18
 -1      3077 9.89092E-05-3.14021E-05-2.89112E-05-1.97397E-06 6.51612E-21-1.49725E-18
 -1      3078 1.00092E-04-3.27855E-05-2.88676E-05-2.09633E-06 1.51779E-19-1.31932E-18
 -1      3079 9.81690E-05-3.07586E-05-2.88949E-05-2.16556E-06-2.19980E-19-1.40241E-18
 -1      3080 9.76659E-05-3.02371E-05-2.88834E-05-2.35609E-06-5.58211E-19-1.32107E-18
 -1      3081 9.83898E-05-3.12192E-05-2.88064E-05-2.65254E-06-1.55748E-20-1.40374E-18
 -1      3082 9.71411E-05-2.97565E-05-2.88804E-05-2.37252E-06-5.27992E-19-5.31327E-19
 -1      3083 9.67619E-05-2.93725E-05-2.88717E-05-2.41360E-06 4.83496E-20-2.60196E-19
 -1      3084 9.71355E-05-2.99872E-05-2.87924E-05-2.78938E-06 5.27303E-20-7.46095E-19
 -1      3085 9.64144E-05-2.90455E-05-2.88716E-05-2.32454E-06 3.52781E-19-1.84619E-19
 -1      3086 9.61422E-05-2.87867E-05-2.88611E-05-2.26962E-06 3.45531E-19-3.28730E-19
 -1      3087 9.62747E-05-2.91095E-05-2.87954E-05-2.66469E-06 1.40961E-19-2.51855E-19
 -1      3088 9.59275E-05-2.85855E-05-2.88590E-05-2.12545E-06 4.49238E-19-3.66328E-19
 -1      3089 9.57393E-05-2.84271E-05-2.88454E-05-2.01614E-06-6.75292E-20-1.79392E-19
 -1      3090 9.57222E-05-2.85406E-05-2.87991E-05-2.39566E-06 3.69230E-19-2.11480E-19
 -1      3091 9.56174E-05-2.83193E-05-2.88396E-05-1.85076E-06-6.74374E-19-2.03323E-20
 -1      3092 9.54911E-05-2.82345E-05-2.88234E-05-1.71696E-06-4.98362E-19-1.34467E-19
 -1      3093 9.53931E-05-2.82119E-05-2.87963E-05-2.06252E-06-1.14859E-19-1.31484E-19
 -1      3094 9.54299E-05-2.81908E-05-2.88142E-05-1.55170E-06-4.48923E-20-1.29620E-19
 -1      3095 9.53470E-05-2.81560E-05-2.87964E-05-1.41340E-06 8.49678E-19-3.24283E-19
 -1      3096 9.52151E-05-2.80547E-05-2.87857E-05-1.71675E-06-1.66970E-19 4.07890E-19
 -1      3097 9.53230E-05-2.81527E-05-2.87848E-05-1.26060E-06 1.05759E-18-6.77994E-19
 -1      3098 9.52697E-05-2.81492E-05-2.87667E-05-1.13010E-06 8.09921E-19-1.23978E-18
 -1      3099 9.51334E-05-2.80108E-05-2.87684E-05-1.38911E-06 7.93874E-19 8.15043E-20
 -1      3100 9.52666E-05-2.81690E-05-2.87539E-05-9.95941E-07 1.03332E-18-1.14205E-18
 -1      3101 9.52327E-05-2.81834E-05-2.87365E-05-8.79914E-07 1.19356E-18-8.26229E-19
 -1      3102 9.51086E-05-2.80353E-05-2.87465E-05-1.09606E-06 9.31081E-19-9.61992E-19
 -1      3103 9.52402E-05-2.82142E-05-2.87235E-05-7.66582E-07 9.48579E-19-1.22536E-18
 -1      3104 9.52187E-05-2.82370E-05-2.87075E-05-6.67830E-07 5.25975E-19-7.30829E-19
 -1      3105 9.51145E-05-2.80961E-05-2.87226E-05-8.44576E-07 6.79730E-19-1.15154E-18
 -1      3106 9.52303E-05-2.82712E-05-2.86951E-05-5.75025E-07 3.02416E-19-1.12404E-18
 -1      3107 9.52168E-05-2.82967E-05-2.86810E-05-4.93858E-07 5.09712E-19-1.02974E-18
 -1      3108 9.51344E-05-2.81718E-05-2.86985E-05-6.35684E-07 4.31029E-19-1.85807E-18
 -1      3109 9.52288E-05-2.83295E-05-2.86697E-05-4.19874E-07 8.81669E-19-9.08662E-19
 -1      3110 9.52202E-05-2.83542E-05-2.86577E-05-3.55119E-07 7.72422E-19-5.10359E-19
 -1      3111 9.51586E-05-2.82490E-05-2.86756E-05-4.66864E-07 5.77777E-19-1.22997E-18
 -1      3112 9.52309E-05-2.83834E-05-2.86478E-05-2.97566E-07 5.27609E-19-2.06255E-19
 -1      3113 9.52255E-05-2.84054E-05-2.86379E-05-2.47281E-07 1.90592E-19 2.63029E-20
 -1      3114 9.51818E-05-2.83204E-05-2.86550E-05-3.33730E-07 9.29054E-19-8.75483E-19
 -1      3115 9.52342E-05-2.84300E-05-2.86295E-05-2.03554E-07-4.31345E-19-3.36043E-19
 -1      3116 9.52306E-05-2.84485E-05-2.86214E-05-1.65505E-07-5.57339E-19 5.62714E-20
 -1      3117 9.52015E-05-2.83821E-05-2.86369E-05-2.31134E-07-1.11810E-19-1.30102E-18
 -1      3118 9.52371E-05-2.84684E-05-2.86145E-05-1.33069E-07-1.03797E-18-4.70678E-20
 -1      3119 9.52348E-05-2.84835E-05-2.86081E-05-1.05025E-07-1.27618E-18 4.98569E-19
 -1      3120 9.52169E-05-2.84331E-05-2.86217E-05-1.53857E-07-8.40744E-19-9.88061E-19
 -1      3121 9.52394E-05-2.84990E-05-2.86025E-05-8.15733E-08-1.26687E-18 8.78202E-19
 -1      3122 9.52379E-05-2.85107E-05-2.85976E-05-6.14822E-08-7.86824E-19 7.78102E-19
 -1      3123 9.52283E-05-2.84738E-05-2.86091E-05-9.70178E-08-9.69868E-19-1.96598E-19
 -1      3124 9.52409E-05-2.85225E-05-2.85932E-05-4.50117E-08-2.28105E-21 7.85668E-19
 -1      3125 9.52398E-05-2.85314E-05-2.85895E-05-3.10785E-08 5.27702E-19 1.61487E-18
 -1      3126 9.52361E-05-2.85052E-05-2.85990E-05-5.62871E-08-1.81121E-20-3.53057E-19
 -1      3127 9.52416E-05-2.85400E-05-2.85861E-05-1.99106E-08 3.22537E-19 2.22313E-18
 -1      3128 9.52410E-05-2.85466E-05-2.85834E-05-1.06286E-08-7.73650E-19 1.48775E-18
 -1      3129 9.52411E-05-2.85287E-05-2.85911E-05-2.79691E-08 2.77755E-19 2.36599E-19
 -1      3130 9.52419E-05-2.85527E-05-2.85809E-05-3.39532E-09-9.55194E-19 2.12742E-18
 -1      3131 9.52414E-05-2.85575E-05-2.85789E-05 2.46147E-09-2.56196E-19 1.71484E-18
 -1      3132 9.52439E-05-2.85458E-05-2.85850E-05-9.00502E-09-3.23760E-19 1.48590E-18
 -1      3133 9.52417E-05-2.85616E-05-2.85770E-05 6.84695E-09-5.01357E-19 1.19561E-18
 -1      3134 9.52414E-05-2.85649E-05-2.85757E-05 1.02494E-08-7.96250E-19 7.19978E-19
 -1      3135 9.52452E-05-2.85578E-05-2.85804E-05 3.07189E-09-1.03506E-18 1.30087E-18
 -1      3136 9.52413E-05-2.85676E-05-2.85743E-05 1.26311E-08-8.73846E-19 4.04949E-19
 -1      3137 9.52411E-05-2.85698E-05-2.85734E-05 1.43292E-08-3.04894E-19 6.18354E-19
 -1      3138 9.52455E-05-2.85659E-05-2.85770E-05 1.02052E-08-1.11123E-18 2.74651E-19
 -1      3139 9.52407E-05-2.85715E-05-2.85725E-05 1.53481E-08 1.48780E-19 3.49401E-19
 -1      3140 9.52407E-05-2.85728E-05-2.85719E-05 1.59076E-08 2.65609E-19-4.85694E-19
 -1      3141 9.52451E-05-2.85712E-05-2.85746E-05 1.38927E-08-7.84436E-19 1.29594E-18
 -1      3142 9.52402E-05-2.85738E-05-2.85713E-05 1.60397E-08 1.13379E-18-1.02307E-18
 -1      3143 9.52402E-05-2.85745E-05-2.85710E-05 1.58768E-08 5.75476E-19-8.11320E-19
 -1      3144 9.52443E-05-2.85743E-05-2.85729E-05 1.52639E-08 4.71958E-19 2.03841E-19
 -1      3145 9.52396E-05-2.85750E-05-2.85706E-05 1.54666E-08 6.61233E-19-5.07543E-19
 -1      3146 9.52396E-05-2.85753E-05-2.85704E-05 1.48794E-08 1.19556E-18 9.95726E-20
 -1      3147 9.52434E-05-2.85760E-05-2.85717E-05 1.51512E-08 1.14794E-18-7.88011E-19
 -1      3148 9.52391E-05-2.85754E-05-2.85702E-05 1.41696E-08 7.06849E-19 5.76607E-19
 -1      3149 9.52391E-05-2.85756E-05-2.85701E-05 1.33646E-08 2.78222E-19-3.85368E-19
 -1      3150 9.52424E-05-2.85767E-05-2.85710E-05 1.41524E-08 8.23395E-19-5.95447E-19
 -1      3151 9.52387E-05-2.85754E-05-2.85700E-05 1.25200E-08 8.13073E-20-4.13694E-19
 -1      3152 9.52387E-05-2.85754E-05-2.85700E-05 1.16342E-08 3.83234E-19-1.91670E-19
 -1      3153 9.52414E-05-2.85768E-05-2.85706E-05 1.26841E-08 6.36643E-19 5.34262E-19
 -1      3154 9.52383E-05-2.85752E-05-2.85699E-05 1.07616E-08 3.28060E-19-4.98763E-19
 -1      3155 9.52384E-05-2.85750E-05-2.85700E-05 9.88038E-09 8.24665E-19-2.06467E-19
 -1      3156 9.52405E-05-2.85764E-05-2.85703E-05 1.10261E-08 8.29928E-19 7.47364E-19
 -1      3157 9.52380E-05-2.85748E-05-2.85700E-05 9.04249E-09 1.04802E-18 2.70235E-19
 -1      3158 9.52381E-05-2.85746E-05-2.85700E-05 8.21407E-09 5.84940E-19 6.22087E-19
 -1      3159 9.52398E-05-2.85759E-05-2.85702E-05 9.35443E-09 1.22506E-18-3.43588E-19
 -1      3160 9.52378E-05-2.85743E-05-2.85701E-05 7.43678E-09 4.46906E-19 1.60852E-18
 -1      3161 9.52379E-05-2.85742E-05-2.85701E-05 6.69365E-09 1.18532E-18 2.50777E-18
 -1      3162 9.52392E-05-2.85753E-05-2.85702E-05 7.76649E-09 1.38161E-18 9.00884E-19
 -1      3163 9.01530E-05-2.20993E-05-2.92137E-05 1.01797E-05-7.89500E-19-8.43101E-19
 -1      3164 8.95683E-05-2.16108E-05-2.91091E-05 1.14849E-05-1.15300E-18-9.51824E-19
 -1      3165 8.77425E-05-2.08721E-05-2.87198E-05 1.28284E-05-1.38353E-18-1.22180E-18
 -1      3166 8.71909E-05-2.07723E-05-2.84276E-05 1.43854E-05-1.86153E-18-1.46611E-18
 -1      3167 8.49933E-05-1.92408E-05-2.81129E-05 1.08391E-05-1.50316E-18-1.48955E-18
 -1      3168 9.32852E-05-2.47265E-05-2.94086E-05 6.29540E-06 2.96590E-20 7.70697E-19
 -1      3169 9.29988E-05-2.42275E-05-2.94639E-05 7.19292E-06 3.03019E-19 8.19728E-19
 -1      3170 9.41355E-05-2.57304E-05-2.93355E-05 4.87865E-06 3.96189E-19 4.72331E-19
 -1      3171 9.39778E-05-2.53300E-05-2.94114E-05 5.60300E-06 3.36704E-20 6.96707E-19
 -1      3172 9.21837E-05-2.40982E-05-2.91544E-05 5.57849E-06 2.43825E-19 1.11119E-18
 -1      3173 9.46655E-05-2.64990E-05-2.92282E-05 3.74077E-06 4.66484E-19 5.05283E-20
 -1      3174 9.45969E-05-2.61947E-05-2.93067E-05 4.31604E-06 8.21795E-19 3.24039E-19
 -1      3175 9.33085E-05-2.52483E-05-2.91522E-05 4.39403E-06 6.61621E-19 1.05811E-18
 -1      3176 9.49906E-05-2.70930E-05-2.91089E-05 2.79946E-06 3.50272E-19-6.99795E-19
 -1      3177 9.49748E-05-2.68605E-05-2.91843E-05 3.26638E-06 2.49080E-19-5.37070E-19
 -1      3178 9.40636E-05-2.61467E-05-2.90967E-05 3.39770E-06 6.97073E-19 5.40354E-19
 -1      3179 9.51615E-05-2.75026E-05-2.90035E-05 2.10166E-06 1.43217E-19-1.98211E-19
 -1      3180 9.51764E-05-2.73423E-05-2.90652E-05 2.44484E-06 1.53526E-19-5.07385E-19
 -1      3181 9.45440E-05-2.68146E-05-2.90207E-05 2.59119E-06 1.60156E-19-8.38782E-19
 -1      3182 9.52476E-05-2.77990E-05-2.89113E-05 1.56002E-06-7.18526E-20 1.45289E-20
 -1      3183 9.52751E-05-2.76830E-05-2.89624E-05 1.82280E-06 4.18840E-19 2.19706E-19
 -1      3184 9.48355E-05-2.72925E-05-2.89435E-05 1.96499E-06 2.08297E-19 3.29283E-19
 -1      3185 9.52850E-05-2.80132E-05-2.88341E-05 1.14377E-06 7.72723E-20-1.55963E-19
 -1      3186 9.53158E-05-2.79294E-05-2.88753E-05 1.34339E-06 6.20435E-20-1.43923E-20
 -1      3187 9.50138E-05-2.76422E-05-2.88718E-05 1.47083E-06 3.11203E-19-3.75755E-19
 -1      3188 9.52956E-05-2.81683E-05-2.87711E-05 8.26793E-07-2.25677E-19-6.29272E-20
 -1      3189 9.53248E-05-2.81074E-05-2.88038E-05 9.77224E-07-1.21291E-19-3.57207E-19
 -1      3190 9.51204E-05-2.78976E-05-2.88089E-05 1.08572E-06 4.90131E-20 1.88955E-19
 -1      3191 9.52927E-05-2.82810E-05-2.87209E-05 5.87683E-07 1.13025E-18 8.97331E-19
 -1      3192 9.53180E-05-2.82365E-05-2.87463E-05 7.00083E-07 5.66573E-19 1.74526E-19
 -1      3193 9.51822E-05-2.80844E-05-2.87559E-05 7.89088E-07-3.28399E-20 1.52529E-19
 -1      3194 9.52841E-05-2.83632E-05-2.86815E-05 4.09171E-07 7.50429E-20 1.52261E-18
 -1      3195 9.53047E-05-2.83305E-05-2.87010E-05 4.92347E-07 1.10912E-18 1.36550E-18
 -1      3196 9.52169E-05-2.82212E-05-2.87125E-05 5.63271E-07 6.56616E-19 6.95778E-19
 -1      3197 9.52740E-05-2.84233E-05-2.86511E-05 2.77460E-07-1.30948E-19 1.04694E-18
 -1      3198 9.52901E-05-2.83992E-05-2.86658E-05 3.38315E-07-1.05419E-19 9.61020E-19
 -1      3199 9.52353E-05-2.83214E-05-2.86776E-05 3.93459E-07 3.51540E-19 2.82552E-19
 -1      3200 9.52644E-05-2.84673E-05-2.86279E-05 1.81610E-07 8.52734E-19 1.89425E-18
 -1      3201 9.52765E-05-2.84494E-05-2.86389E-05 2.25527E-07-1.92630E-19 1.45104E-18
 -1      3202 9.52443E-05-2.83949E-05-2.86500E-05 2.67458E-07-1.51455E-19 4.79076E-19
 -1      3203 9.52563E-05-2.84994E-05-2.86105E-05 1.12996E-07 8.54692E-19 1.76363E-18
 -1      3204 9.52650E-05-2.84862E-05-2.86185E-05 1.44161E-07 1.25270E-18 1.95052E-18
 -1      3205 9.52480E-05-2.84486E-05-2.86286E-05 1.75365E-07 7.12745E-19 1.60357E-18
 -1      3206 9.52499E-05-2.85227E-05-2.85976E-05 6.48624E-08 5.87944E-19 1.22641E-18
 -1      3207 9.52560E-05-2.85130E-05-2.86034E-05 8.65161E-08 1.02707E-18 1.46477E-18
 -1      3208 9.52488E-05-2.84878E-05-2.86121E-05 1.09227E-07 1.01103E-18 1.40650E-18
 -1      3209 9.52450E-05-2.85396E-05-2.85882E-05 3.19502E-08-1.37151E-18 1.92369E-18
 -1      3210 9.52491E-05-2.85325E-05-2.85923E-05 4.65888E-08-8.92963E-19 1.94759E-18
 -1      3211 9.52482E-05-2.85161E-05-2.85997E-05 6.27210E-08-4.45296E-19 1.91829E-18
 -1      3212 9.52416E-05-2.85515E-05-2.85815E-05 1.01946E-08-3.70698E-19 2.22110E-18
 -1      3213 9.52441E-05-2.85464E-05-2.85844E-05 1.97309E-08-3.94665E-19 2.19763E-18
 -1      3214 9.52469E-05-2.85363E-05-2.85905E-05 3.08689E-08-8.36485E-19 1.75183E-18
 -1      3215 9.52392E-05-2.85599E-05-2.85769E-05-3.52954E-09 1.34281E-19 2.16395E-18
 -1      3216 9.52407E-05-2.85563E-05-2.85788E-05 2.37183E-09 2.03116E-19 2.52677E-18
 -1      3217 9.52455E-05-2.85505E-05-2.85837E-05 9.79210E-09 3.45714E-19 2.12731E-18
 -1      3218 9.52375E-05-2.85659E-05-2.85736E-05-1.18468E-08 5.75813E-19 1.27815E-18
 -1      3219 9.52383E-05-2.85632E-05-2.85749E-05-8.41859E-09 6.59852E-20 1.08026E-18
 -1      3220 9.52440E-05-2.85604E-05-2.85788E-05-3.70833E-09 9.75347E-19 1.36953E-18
 -1      3221 9.52366E-05-2.85696E-05-2.85716E-05-1.57863E-08 1.09064E-18 1.69897E-18
 -1      3222 9.52369E-05-2.85679E-05-2.85723E-05-1.42627E-08 4.45424E-19 1.39625E-18
 -1      3223 9.52427E-05-2.85670E-05-2.85753E-05-1.15571E-08 2.93331E-19 1.64023E-18
 -1      3224 9.52361E-05-2.85719E-05-2.85704E-05-1.71877E-08 3.27093E-19 1.82694E-18
 -1      3225 9.52360E-05-2.85708E-05-2.85708E-05-1.67872E-08 9.80551E-19 1.70732E-18
 -1      3226 9.52415E-05-2.85711E-05-2.85731E-05-1.53873E-08 1.00936E-18 1.67048E-18
 -1      3227 9.52359E-05-2.85732E-05-2.85697E-05-1.69698E-08 9.80968E-19 2.91214E-18
 -1      3228 9.52356E-05-2.85725E-05-2.85699E-05-1.72656E-08 1.11494E-18 2.51389E-18
 -1      3229 9.52406E-05-2.85736E-05-2.85716E-05-1.67405E-08 8.32954E-19 9.70709E-19
 -1      3230 9.52358E-05-2.85739E-05-2.85694E-05-1.57945E-08 1.38534E-18 1.36169E-18
 -1      3231 9.52355E-05-2.85735E-05-2.85694E-05-1.64890E-08 1.62026E-18 2.64159E-18
 -1      3232 9.52398E-05-2.85749E-05-2.85707E-05-1.65214E-08 1.56831E-18 9.42516E-19
 -1      3233 9.52359E-05-2.85741E-05-2.85693E-05-1.41195E-08-9.31850E-19 1.83772E-18
 -1      3234 9.52355E-05-2.85740E-05-2.85692E-05-1.50092E-08-1.15669E-19 1.72447E-18
 -1      3235 9.52392E-05-2.85755E-05-2.85702E-05-1.53736E-08 8.91189E-19 1.12695E-18
 -1      3236 9.52361E-05-2.85741E-05-2.85694E-05-1.22498E-08-1.15110E-18 9.07790E-19
 -1      3237 9.52357E-05-2.85741E-05-2.85693E-05-1.32013E-08-7.45927E-19 1.21552E-18
 -1      3238 9.52387E-05-2.85755E-05-2.85699E-05-1.37416E-08-1.81349E-19 1.95654E-18
 -1      3239 9.52362E-05-2.85739E-05-2.85696E-05-1.03772E-08-2.29396E-18 5.33493E-19
 -1      3240 9.52359E-05-2.85739E-05-2.85694E-05-1.13087E-08-1.99491E-18 5.12843E-19
 -1      3241 9.52383E-05-2.85753E-05-2.85699E-05-1.19209E-08-7.18516E-19 6.93465E-19
 -1      3242 9.52364E-05-2.85737E-05-2.85697E-05-8.61214E-09-1.58763E-18-7.94084E-19
 -1      3243 9.52361E-05-2.85737E-05-2.85696E-05-9.47912E-09-2.21485E-18-2.15743E-19
 -1      3244 9.52379E-05-2.85749E-05-2.85699E-05-1.00978E-08-1.50901E-18-4.73144E-19
 -1      3245 9.52366E-05-2.85734E-05-2.85699E-05-7.00154E-09-2.22596E-18-3.93144E-19
 -1      3246 9.52363E-05-2.85735E-05-2.85698E-05-7.79079E-09-2.55919E-18-7.27364E-19
 -1      3247 9.52377E-05-2.85745E-05-2.85700E-05-8.38108E-09-2.62548E-18-1.05653E-18
 -1      3248 9.52368E-05-2.85732E-05-2.85701E-05-5.55316E-09 2.10831E-18-1.95539E-18
 -1      3249 9.52366E-05-2.85733E-05-2.85700E-05-6.26966E-09 1.01996E-18-1.04320E-18
 -1      3250 9.52376E-05-2.85741E-05-2.85701E-05-6.81942E-09 2.39350E-19-2.66326E-18
 -1      3251 9.52369E-05-2.85732E-05-2.85702E-05-4.78263E-09 1.32647E-18-2.39758E-18
 -1      3252 9.68018E-05-3.81390E-05-2.44106E-05-2.39757E-05-4.47869E-20-1.70190E-18
 -1      3253 9.52417E-05-2.85773E-05-2.85704E-05 4.22614E-10 5.20818E-19-1.65565E-18
 -1      3254 9.52417E-05-2.85773E-05-2.85704E-05-3.82505E-10 1.26604E-18-8.28580E-19
 -1      3255 9.52394E-05-2.85754E-05-2.85703E-05 4.48476E-09 2.69889E-18 2.29362E-18
 -1      3256 9.52400E-05-2.85759E-05-2.85703E-05 4.08677E-09 2.26323E-18 1.54111E-19
 -1      3257 9.52413E-05-2.85770E-05-2.85704E-05 2.06130E-09 8.22710E-19-2.86615E-18
 -1      3258 9.52416E-05-2.85772E-05-2.85704E-05 1.31991E-09 7.54932E-19-1.12201E-18
 -1      3259 9.52422E-05-2.85777E-05-2.85705E-05 9.45193E-10 1.27487E-18-9.26571E-19
 -1      3260 1.30912E-04-5.22144E-05-3.37194E-05-6.86429E-06 1.87924E-18-1.62307E-18
 -1      3261 1.33799E-04-4.73430E-05-3.74575E-05 1.13298E-06 1.05658E-18-2.29551E-18
 -1      3262 8.27634E-05-2.23219E-05-2.58393E-05 2.10497E-05-1.80532E-18-7.49757E-19
 -1      3263 8.45353E-05-2.58921E-05-2.49169E-05 2.34116E-05-1.41624E-18-8.25089E-19
 -1      3264 1.26313E-04-2.68182E-05-4.31495E-05-1.31089E-05-2.09773E-18-9.12678E-20
 -1      3265 1.29253E-04-3.47300E-05-4.04380E-05-9.37038E-06-1.29575E-18 6.75932E-19
 -1      3266 8.49900E-05-2.05012E-05-2.76981E-05 1.62563E-05-1.91854E-18-1.17071E-18
 -1      3267 8.49896E-05-2.14626E-05-2.71147E-05 1.81512E-05-1.64487E-18-9.21688E-19
 -1      3268 7.63355E-05-1.82765E-05-2.47799E-05 1.77907E-05-1.57553E-18-8.06005E-20
 -1      3269 8.09383E-05-1.79852E-05-2.69053E-05 1.36532E-05-1.58283E-18-1.12443E-18
 -1      3270 1.06764E-04-2.76816E-05-3.38708E-05-1.30845E-05-3.17037E-19-2.59927E-18
 -1      3271 8.74070E-05-3.88292E-05-2.02740E-05-3.72890E-05 2.21637E-18 1.75643E-18
 -1      3272 9.99253E-05-4.68504E-05-2.30102E-05-3.56997E-05 2.35338E-18 1.01093E-18
 -1      3273 3.57056E-05 1.78858E-06-1.55568E-05 2.54062E-05 3.81784E-18-3.05578E-18
 -1      3274 3.30579E-05 4.20297E-06-1.55381E-05 1.76440E-05 3.58165E-18-3.17267E-18
 -1      3275 9.52406E-05-2.85764E-05-2.85704E-05 3.48498E-09 1.96196E-18-1.58432E-18
 -1      3276 9.52410E-05-2.85767E-05-2.85704E-05 2.87256E-09 2.03384E-18-2.26956E-18
 -1      3277 9.52417E-05-2.85772E-05-2.85705E-05 2.70627E-09 1.05282E-18-1.90094E-18
 -1      3278 9.52407E-05-2.85764E-05-2.85704E-05 4.17887E-09 2.13005E-18-6.27424E-19
 -1      3279 1.26340E-04-2.16822E-05-4.51770E-05 1.11114E-05-1.03158E-18-2.24464E-18
 -1      3280 1.21466E-04-1.48594E-05-4.61747E-05 8.65610E-06-1.62821E-18-2.41381E-18
 -1      3281 9.19943E-05-2.34851E-05-2.93968E-05 8.04062E-06-3.34857E-19 1.76488E-19
 -1      3282 9.15484E-05-2.29255E-05-2.93991E-05 9.13147E-06-5.18129E-19-1.93072E-20
 -1      3283 8.81745E-05-2.09670E-05-2.87522E-05 8.71264E-06-1.02886E-18-3.17641E-19
 -1      3284 1.05117E-04-2.67849E-05-3.36077E-05-1.23540E-05-8.03695E-19-1.76609E-18
 -1      3285 1.03849E-04-2.51748E-05-3.36680E-05-1.08922E-05-8.26987E-19-1.74469E-18
 -1      3286 1.05166E-04-2.38146E-05-3.48413E-05-1.10339E-05-8.21999E-19-1.74219E-18
 -1      3287 8.87271E-05-3.35168E-05-2.33037E-05 2.88130E-05-1.16644E-18-1.75108E-18
 -1      3288 6.37710E-05-1.71514E-05-1.99705E-05 3.85401E-05 4.02891E-18-1.48241E-18
 -1      3289 5.13152E-05-1.22787E-05-1.61866E-05 3.81290E-05 3.87973E-18-2.32235E-18
 -1      3290 4.22123E-05-9.79794E-06-1.34783E-05-1.22845E-05-7.27257E-19 3.28956E-18
 -1      3291 4.68740E-05-1.36144E-05-1.39716E-05-2.29988E-05 2.03579E-19 3.08892E-18
 -1      3292 4.20615E-05-2.89803E-06-1.64670E-05-8.76607E-06 2.04357E-18-3.29633E-18
 -1      3293 7.60642E-05-2.58193E-05-2.12486E-05 2.68837E-05-1.54398E-18-4.03188E-19
 -1      3294 1.28366E-04-4.12962E-05-3.78771E-05-2.05096E-06-3.26617E-19 7.13149E-19
 -1      3295 1.25345E-04-4.35452E-05-3.48513E-05 5.43523E-06 6.39470E-19 7.68921E-19
 -1      3296 1.17376E-04-4.36530E-05-3.19677E-05 1.60449E-05 1.61161E-18 5.15635E-19
 -1      3297 1.06632E-04-3.92566E-05-2.85852E-05 2.45885E-05 2.55619E-18 1.71385E-19
 -1      3298 1.13546E-04-5.22713E-05-2.58809E-05-2.88750E-05 2.55645E-18 8.83826E-20
 -1      3299 1.24370E-04-5.51548E-05-2.99207E-05-1.88243E-05 2.66953E-18-7.82870E-19
 -1      3300 5.61956E-05-1.97051E-05-1.50842E-05-3.04406E-05 7.00232E-19 2.63374E-18
 -1      3301 7.04877E-05-2.93045E-05-1.77145E-05-3.67057E-05 1.43244E-18 2.30848E-18
 -1      3302 7.92875E-05-2.48420E-05-2.29249E-05 3.54721E-05 3.70167E-18-9.58232E-19
 -1      3303 9.52377E-05-2.85738E-05-2.85703E-05 4.75345E-09 2.23880E-18 3.73810E-18
 -1      3304 9.52387E-05-2.85747E-05-2.85703E-05 4.78308E-09 2.09449E-18 2.69038E-18
 -1      3305 9.52394E-05-2.85753E-05-2.85703E-05 5.07741E-09 1.89427E-18 1.87144E-18
 -1      3306 9.52377E-05-2.85739E-05-2.85702E-05 5.28146E-09 3.98817E-19 3.82044E-18
 -1      3307 1.16919E-04-1.27340E-05-4.50802E-05-1.02706E-05-2.48292E-18-1.62273E-18
 -1      3308 1.21610E-04-1.86915E-05-4.42775E-05-1.37761E-05-2.29122E-18-7.21249E-19
 -1      3309 1.32910E-04-3.95553E-05-4.01175E-05 7.17400E-06 5.43530E-19-2.28138E-18
 -1      3310 1.30311E-04-3.00674E-05-4.34897E-05 1.00979E-05-2.61363E-19-2.14950E-18
 -1      3311 1.24016E-04-2.79725E-05-4.14365E-05 1.08345E-05-1.85791E-19-2.20504E-18
 -1      3312 1.29690E-04-4.26068E-05-3.74179E-05 5.57814E-06 8.35955E-19-1.85214E-18
 -1      3313 9.52376E-05-2.85738E-05-2.85702E-05-5.25947E-09 1.23525E-18-3.80920E-18
 -1      3314 4.65672E-05-5.49263E-06-1.71721E-05 3.28776E-05 4.00318E-18-2.48138E-18
 -1      3315 9.30755E-05-3.26238E-05-2.60724E-05 3.16080E-05 3.18934E-18-2.94688E-19
 -1      3316 9.99638E-05-3.36957E-05-2.82079E-05 2.38199E-05 2.88830E-18-3.59023E-19
 -1      3317 1.07508E-04-3.69682E-05-3.04212E-05 1.66440E-05 2.27594E-18-3.96947E-19
 -1      3318 1.16587E-04-1.39644E-05-4.42446E-05 6.09188E-06-1.98375E-18-2.77017E-18
 -1      3319 1.12335E-04-3.17332E-05-3.45184E-05-9.47807E-06 5.39958E-19-1.51712E-18
 -1      3320 1.10591E-04-3.03432E-05-3.45184E-05-1.15776E-05 8.35965E-20-1.95311E-18
 -1      3321 1.08020E-04-3.40035E-05-3.17037E-05 8.63107E-06 1.89497E-18-7.69748E-19
 -1      3322 1.20416E-04-2.38079E-05-4.16158E-05-1.32841E-05-1.60309E-18-7.11481E-19
 -1      3323 9.05268E-05-2.26552E-05-2.90511E-05 7.00105E-06-4.08527E-19 4.15164E-19
 -1      3324 9.52377E-05-2.85740E-05-2.85702E-05 5.82629E-09 4.96256E-19 3.51049E-18
 -1      3325 1.08989E-04-2.92810E-05-3.41536E-05-1.26255E-05-9.09121E-20-2.23977E-18
 -1      3326 1.06574E-04-2.80688E-05-3.37118E-05-1.36366E-05-5.12840E-19-2.48035E-18
 -1      3327 1.06702E-04-2.84499E-05-3.35289E-05-1.35275E-05-5.62102E-19-2.14386E-18
 -1      3328 1.10907E-04-3.00987E-05-3.45689E-05-1.29883E-05-1.99798E-19-1.79737E-18
 -1      3329 5.49169E-05-1.61257E-05-1.59924E-05 1.89832E-05-1.83790E-18 1.46516E-18
 -1      3330 1.14420E-04-1.13161E-05-4.45491E-05-7.52736E-06-2.41468E-18-1.96735E-18
 -1      3331 1.12698E-04-1.49573E-05-4.20354E-05-9.89885E-06-1.85384E-18-1.49215E-18
 -1      3332 1.11488E-04-1.06412E-05-4.34173E-05-3.98337E-06-2.27847E-18-2.28839E-18
 -1      3333 9.52410E-05-2.85767E-05-2.85704E-05-2.86100E-09 2.56654E-18-1.20977E-18
 -1      3334 9.52406E-05-2.85764E-05-2.85704E-05-3.46972E-09 2.65489E-18-9.23319E-20
 -1      3335 9.52385E-05-2.85745E-05-2.85703E-05-5.10996E-09 1.00770E-18-1.81925E-18
 -1      3336 9.52384E-05-2.85746E-05-2.85702E-05-5.94933E-09 1.68923E-18-2.63895E-18
 -1      3337 9.52391E-05-2.85751E-05-2.85703E-05-4.96504E-09 1.09081E-18 3.07550E-19
 -1      3338 9.52402E-05-2.85761E-05-2.85703E-05-4.08696E-09 1.96617E-18 1.15416E-18
 -1      3339 9.52397E-05-2.85756E-05-2.85703E-05-4.48807E-09 1.14956E-18 1.59362E-18
 -1      3340 9.52400E-05-2.85758E-05-2.85704E-05-5.26596E-09 5.94049E-19 1.10073E-18
 -1      3341 9.52409E-05-2.85766E-05-2.85704E-05-4.14427E-09 9.89774E-19 1.23475E-18
 -1      3342 9.52416E-05-2.85772E-05-2.85704E-05-1.29205E-09 1.66374E-18-1.06516E-18
 -1      3343 9.52413E-05-2.85770E-05-2.85704E-05-2.05020E-09 2.58201E-18-1.34809E-18
 -1      3344 9.52422E-05-2.85777E-05-2.85705E-05-9.16648E-10 2.43023E-19-1.74113E-18
 -1      3345 1.27685E-04-5.38981E-05-3.16053E-05-1.11786E-05 2.28184E-18-1.22153E-18
 -1      3346 1.26687E-04-4.98880E-05-3.29615E-05-3.73631E-06 1.68223E-18-1.26800E-18
 -1      3347 1.21126E-04-5.20877E-05-2.96271E-05-1.51311E-05 2.55108E-18-9.26776E-19
 -1      3348 1.19138E-04-4.13008E-05-3.32594E-05 8.15982E-06 1.29061E-18 1.78234E-19
 -1      3349 1.25674E-04-3.63414E-05-3.82454E-05-7.89425E-06-4.99088E-19 3.67321E-19
 -1      3350 8.07447E-05-3.27254E-05-2.02704E-05-3.36690E-05 1.56013E-18 1.49395E-18
 -1      3351 4.35139E-05-8.71923E-06-1.43995E-05-4.79228E-06-1.08414E-18 3.42424E-18
 -1      3352 5.02894E-05-1.00137E-05-1.68809E-05-8.77297E-06-6.76344E-19 2.73766E-18
 -1      3353 4.68953E-05-9.09409E-06-1.60130E-05 3.96344E-06-1.43132E-18 3.25017E-18
 -1      3354 7.38455E-05-2.54087E-05-2.06843E-05-2.37084E-05 6.89697E-19-2.48287E-18
 -1      3355 9.52387E-05-2.85748E-05-2.85702E-05 6.15021E-09 6.92672E-19 2.21546E-18
 -1      3356 1.08011E-04-4.82739E-05-2.53460E-05-2.81698E-05 2.23590E-18 1.10875E-19
 -1      3357 5.77145E-05-1.70185E-05-1.69851E-05-2.43689E-05 3.74124E-19 2.28053E-18
 -1      3358 5.63519E-05-1.13566E-05-1.84190E-05-1.80968E-05 1.39099E-18-2.95318E-18
 -1      3359 1.06194E-04-2.81151E-05-3.34709E-05-1.29613E-05-5.98882E-19-2.00715E-18
 -1      3360 1.14810E-04-3.53637E-05-3.40067E-05-2.25265E-06 1.00354E-18-8.85831E-19
 -1      3361 1.14181E-04-3.40088E-05-3.45189E-05-6.48765E-06 7.04884E-19-1.21758E-18
 -1      3362 1.15415E-04-3.32542E-05-3.50830E-05-9.93334E-06 2.64367E-19-1.07841E-18
 -1      3363 1.07782E-04-2.76703E-05-3.43610E-05-1.34908E-05-5.91649E-19-1.87082E-18
 -1      3364 1.10093E-04-2.86088E-05-3.49221E-05-1.30873E-05-3.21794E-19-1.66104E-18
 -1      3365 1.11810E-04-3.68659E-05-3.19745E-05 9.18291E-06 1.81136E-18-4.41660E-19
 -1      3366 1.14184E-04-3.69811E-05-3.32609E-05 2.71288E-06 1.35272E-18-6.27632E-19
 -1      3367 1.17590E-04-3.74120E-05-3.44191E-05-1.97068E-06 7.59985E-19-5.41557E-19
 -1      3368 1.15197E-04-3.96265E-05-3.22314E-05 9.83325E-06 1.56955E-18-4.62493E-20
 -1      3369 1.03423E-04-1.75893E-05-3.67952E-05-1.04000E-06-1.45631E-18-2.32652E-18
 -1      3370 1.03591E-04-1.83516E-05-3.65778E-05 2.26735E-06-1.46510E-18-2.57487E-18
 -1      3371 1.04577E-04-2.04821E-05-3.60468E-05 6.07760E-06-1.19585E-18-2.77052E-18
 -1      3372 1.05893E-04-2.34240E-05-3.54767E-05 8.27658E-06-8.04072E-19-2.62605E-18
 -1      3373 1.06248E-04-1.80887E-05-3.78276E-05 4.48541E-06-1.50086E-18-2.64588E-18
 -1      3374 1.07637E-04-2.69616E-05-3.45347E-05 9.72371E-06-3.60644E-19-2.47075E-18
 -1      3375 1.09014E-04-3.03988E-05-3.37974E-05 1.02160E-05 8.70963E-20-2.35550E-18
 -1      3376 1.09471E-04-2.49894E-05-3.62030E-05 9.76482E-06-5.48004E-19-2.73819E-18
 -1      3377 1.09989E-04-3.34625E-05-3.27836E-05 9.27693E-06 2.66400E-19-2.44635E-18
 -1      3378 1.10615E-04-3.58662E-05-3.20812E-05 8.35667E-06 5.40210E-19-2.26907E-18
 -1      3379 1.12461E-04-3.32624E-05-3.39482E-05 9.79651E-06 3.12840E-19-2.73363E-18
 -1      3380 1.10238E-04-3.73958E-05-3.12365E-05 6.41023E-06 6.36097E-19-1.98663E-18
 -1      3381 1.09987E-04-3.83662E-05-3.06858E-05 4.87843E-06 7.58800E-19-1.61100E-18
 -1      3382 1.12896E-04-3.81838E-05-3.19949E-05 6.71734E-06 7.37510E-19-2.38110E-18
 -1      3383 1.08577E-04-3.84240E-05-3.00984E-05 2.92228E-06 5.45298E-19-1.12823E-18
 -1      3384 1.07685E-04-3.82415E-05-2.97264E-05 1.46590E-06 4.10068E-19-9.13540E-19
 -1      3385 1.10983E-04-3.98750E-05-3.04772E-05 2.57648E-06 9.92471E-19-1.96226E-18
 -1      3386 1.05889E-04-3.74276E-05-2.93687E-05 3.09347E-08 1.22464E-19-7.85651E-19
 -1      3387 1.04717E-04-3.66080E-05-2.91478E-05-1.05403E-06 3.78620E-19-8.33563E-19
 -1      3388 1.07669E-04-3.89191E-05-2.94951E-05-7.83619E-07 4.66030E-19-1.75275E-18
 -1      3389 1.03012E-04-3.54751E-05-2.89601E-05-1.88555E-06 2.10248E-19-9.69580E-19
 -1      3390 1.01857E-04-3.44610E-05-2.88469E-05-2.56163E-06 2.61813E-19-1.13893E-18
 -1      3391 1.04116E-04-3.66758E-05-2.89413E-05-2.88297E-06 2.36408E-19-1.16015E-18
 -1      3392 1.00466E-04-3.33545E-05-2.87676E-05-2.91930E-06 9.91740E-20-1.13899E-18
 -1      3393 9.94869E-05-3.24074E-05-2.87206E-05-3.25861E-06 1.44574E-19-1.25478E-18
 -1      3394 1.01014E-04-3.41796E-05-2.86794E-05-3.88436E-06 1.72719E-19-9.28490E-19
 -1      3395 9.84648E-05-3.14934E-05-2.87012E-05-3.30555E-06-9.32948E-20-1.12018E-18
 -1      3396 9.77149E-05-3.07299E-05-2.86893E-05-3.40743E-06-4.79328E-20-1.30129E-18
 -1      3397 9.86177E-05-3.19748E-05-2.85902E-05-4.12501E-06 8.49020E-20-1.22914E-18
 -1      3398 9.70241E-05-3.00537E-05-2.86978E-05-3.27823E-06 2.98309E-19-1.11544E-18
 -1      3399 9.64928E-05-2.94986E-05-2.87004E-05-3.23026E-06 2.25866E-19-5.06333E-19
 -1      3400 9.69292E-05-3.02700E-05-2.85891E-05-3.91908E-06 4.09012E-19-1.54907E-18
 -1      3401 9.60633E-05-2.90437E-05-2.87178E-05-3.01663E-06 2.93535E-19-1.59303E-19
 -1      3402 9.57115E-05-2.86758E-05-2.87235E-05-2.88440E-06 2.21862E-19-9.46999E-20
 -1      3403 9.58323E-05-2.90761E-05-2.86239E-05-3.49093E-06 3.55747E-19-4.71065E-19
 -1      3404 9.54711E-05-2.84000E-05-2.87399E-05-2.64285E-06 3.15171E-19 2.43390E-21
 -1      3405 9.52539E-05-2.81807E-05-2.87431E-05-2.47134E-06 5.06911E-19-2.11090E-19
 -1      3406 9.51813E-05-2.83168E-05-2.86650E-05-2.98087E-06 2.92270E-19 3.42355E-19
 -1      3407 9.51407E-05-2.80374E-05-2.87543E-05-2.23398E-06 3.94595E-19-2.74620E-19
 -1      3408 9.50174E-05-2.79261E-05-2.87531E-05-2.05214E-06 1.79548E-20 3.96569E-20
 -1      3409 9.48415E-05-2.78903E-05-2.86985E-05-2.46895E-06 3.61370E-19 1.41846E-19
 -1      3410 9.49840E-05-2.78733E-05-2.87581E-05-1.83557E-06-1.80504E-20-2.74481E-20
 -1      3411 9.49222E-05-2.78348E-05-2.87526E-05-1.66085E-06 3.75008E-19 3.64139E-19
 -1      3412 9.47043E-05-2.76990E-05-2.87192E-05-1.99664E-06 4.07960E-19 7.21352E-20
 -1      3413 9.49345E-05-2.78391E-05-2.87522E-05-1.47228E-06 2.88660E-19 3.35040E-19
 -1      3414 9.49103E-05-2.78457E-05-2.87435E-05-1.31425E-06 9.54255E-19-2.80632E-19
 -1      3415 9.46891E-05-2.76616E-05-2.87272E-05-1.58232E-06 1.84706E-19 4.07358E-20
 -1      3416 9.49454E-05-2.78822E-05-2.87389E-05-1.15540E-06 1.10675E-18-5.69752E-19
 -1      3417 9.49425E-05-2.79138E-05-2.87282E-05-1.01841E-06 8.89649E-19-4.08966E-19
 -1      3418 9.47400E-05-2.77163E-05-2.87247E-05-1.23111E-06 6.84092E-19-1.42209E-19
 -1      3419 9.49857E-05-2.79655E-05-2.87210E-05-8.88001E-07 4.30282E-19-1.00180E-18
 -1      3420 9.49935E-05-2.80085E-05-2.87095E-05-7.73086E-07 1.50007E-19-1.29810E-18
 -1      3421 9.48204E-05-2.78189E-05-2.87147E-05-9.40962E-07 2.80563E-19-1.06173E-18
 -1      3422 9.50366E-05-2.80643E-05-2.87008E-05-6.68331E-07 1.52815E-19-1.65883E-18
 -1      3423 9.50484E-05-2.81098E-05-2.86895E-05-5.74532E-07 3.37521E-19-1.60746E-18
 -1      3424 9.49077E-05-2.79400E-05-2.87000E-05-7.06279E-07-1.81735E-20-1.32330E-18
 -1      3425 9.50869E-05-2.81631E-05-2.86803E-05-4.92008E-07 5.28049E-19-1.59992E-18
 -1      3426 9.50992E-05-2.82062E-05-2.86697E-05-4.17267E-07 7.59315E-19-1.25167E-18
 -1      3427 9.49897E-05-2.80614E-05-2.86831E-05-5.19957E-07 6.99177E-19-1.14954E-18
 -1      3428 9.51312E-05-2.82535E-05-2.86609E-05-3.53453E-07 4.41099E-19-1.58804E-18
 -1      3429 9.51422E-05-2.82915E-05-2.86514E-05-2.95215E-07 4.63004E-19-2.29249E-18
 -1      3430 9.50603E-05-2.81726E-05-2.86657E-05-3.74589E-07 5.77762E-19-2.16928E-18
 -1      3431 9.51675E-05-2.83314E-05-2.86432E-05-2.46774E-07-2.38805E-20-2.61972E-18
 -1      3432 9.51764E-05-2.83633E-05-2.86350E-05-2.02374E-07-5.40700E-19-2.61184E-18
 -1      3433 9.51175E-05-2.82689E-05-2.86491E-05-2.63108E-07-2.07071E-19-2.86084E-18
 -1      3434 9.51954E-05-2.83957E-05-2.86278E-05-1.66308E-07-2.85283E-19-2.08921E-18
 -1      3435 9.52022E-05-2.84215E-05-2.86209E-05-1.33204E-07-3.74916E-19-1.26975E-18
 -1      3436 9.51617E-05-2.83486E-05-2.86339E-05-1.79118E-07-6.12358E-20-3.02425E-18
 -1      3437 9.52159E-05-2.84470E-05-2.86148E-05-1.06910E-07-8.31542E-19-1.60398E-18
 -1      3438 9.52207E-05-2.84671E-05-2.86091E-05-8.28096E-08-6.47083E-19-8.81642E-19
 -1      3439 9.51944E-05-2.84124E-05-2.86207E-05-1.17029E-07-4.31915E-19-2.39997E-18
 -1      3440 9.52301E-05-2.84865E-05-2.86040E-05-6.40940E-08-1.01215E-18-9.74995E-19
 -1      3441 9.52333E-05-2.85018E-05-2.85995E-05-4.70134E-08-2.97662E-19-1.14081E-18
 -1      3442 9.52175E-05-2.84619E-05-2.86094E-05-7.20932E-08-6.96664E-19-1.36154E-18
 -1      3443 9.52394E-05-2.85163E-05-2.85954E-05-3.40677E-08 5.36361E-19-1.68234E-18
 -1      3444 9.52413E-05-2.85275E-05-2.85919E-05-2.23438E-08 1.42940E-20-8.38245E-19
 -1      3445 9.52331E-05-2.84993E-05-2.86001E-05-4.03615E-08-1.49120E-19-2.42152E-18
 -1      3446 9.52450E-05-2.85379E-05-2.85886E-05-1.37076E-08 4.26426E-19-2.32429E-19
 -1      3447 9.52460E-05-2.85460E-05-2.85859E-05-5.98304E-09 3.26189E-19 6.30058E-19
 -1      3448 9.52429E-05-2.85267E-05-2.85926E-05-1.86163E-08 3.64414E-19-1.72100E-18
 -1      3449 9.52479E-05-2.85532E-05-2.85833E-05-4.99269E-10-9.29064E-19 9.57113E-19
 -1      3450 9.52483E-05-2.85588E-05-2.85813E-05 4.30848E-09-1.63591E-18 1.26333E-19
 -1      3451 9.52485E-05-2.85463E-05-2.85867E-05-4.28201E-09-1.59659E-20-1.01876E-18
 -1      3452 9.52490E-05-2.85636E-05-2.85793E-05 7.54006E-09-6.81019E-19 4.23927E-19
 -1      3453 9.52489E-05-2.85674E-05-2.85779E-05 1.02756E-08-1.86111E-19 8.29516E-19
 -1      3454 9.52512E-05-2.85597E-05-2.85821E-05 4.66711E-09-3.53862E-19 5.04659E-19
 -1      3455 9.52489E-05-2.85704E-05-2.85764E-05 1.19426E-08-1.11479E-18 1.14080E-18
 -1      3456 9.52485E-05-2.85728E-05-2.85754E-05 1.32511E-08-8.00005E-19 8.36400E-19
 -1      3457 9.52519E-05-2.85686E-05-2.85786E-05 9.79708E-09-2.03767E-19 1.34580E-18
 -1      3458 9.52480E-05-2.85745E-05-2.85743E-05 1.38689E-08-3.78840E-19 5.11910E-19
 -1      3459 9.52476E-05-2.85759E-05-2.85736E-05 1.42326E-08 1.75729E-19-2.45573E-19
 -1      3460 9.52514E-05-2.85741E-05-2.85760E-05 1.22969E-08-8.89440E-19 6.30701E-19
 -1      3461 9.52468E-05-2.85768E-05-2.85728E-05 1.41792E-08 1.24532E-18-5.71325E-20
 -1      3462 9.52463E-05-2.85775E-05-2.85723E-05 1.39503E-08 1.25451E-18 6.32672E-19
 -1      3463 9.52501E-05-2.85772E-05-2.85741E-05 1.30524E-08 5.61037E-19-4.59119E-19
 -1      3464 9.52454E-05-2.85778E-05-2.85718E-05 1.34968E-08 1.03237E-18 1.16500E-18
 -1      3465 9.52449E-05-2.85780E-05-2.85715E-05 1.29256E-08 1.43731E-18 8.24288E-19
 -1      3466 9.52485E-05-2.85787E-05-2.85728E-05 1.27092E-08 1.77483E-18 6.74507E-19
 -1      3467 9.52440E-05-2.85779E-05-2.85712E-05 1.22605E-08 1.21225E-18 1.22772E-18
 -1      3468 9.52435E-05-2.85779E-05-2.85710E-05 1.15192E-08 1.02036E-18 2.00598E-18
 -1      3469 9.52467E-05-2.85791E-05-2.85719E-05 1.17268E-08 1.54973E-18 1.98200E-18
 -1      3470 9.52426E-05-2.85776E-05-2.85707E-05 1.07688E-08 8.60030E-19 2.44374E-18
 -1      3471 9.52422E-05-2.85773E-05-2.85706E-05 9.97077E-09 1.30388E-18 2.22812E-18
 -1      3472 9.52450E-05-2.85788E-05-2.85713E-05 1.04215E-08 1.43026E-18 2.08902E-18
 -1      3473 9.52415E-05-2.85770E-05-2.85705E-05 9.21877E-09 6.61722E-19 1.47671E-18
 -1      3474 9.52411E-05-2.85767E-05-2.85705E-05 8.42886E-09 1.07242E-18 8.34595E-19
 -1      3475 9.52434E-05-2.85781E-05-2.85709E-05 9.00486E-09 7.56885E-19 1.69605E-18
 -1      3476 9.52405E-05-2.85763E-05-2.85704E-05 7.72522E-09 2.31298E-18-3.35563E-19
 -1      3477 9.52402E-05-2.85760E-05-2.85704E-05 6.96844E-09 2.28448E-18 1.32930E-18
 -1      3478 9.52420E-05-2.85773E-05-2.85706E-05 7.61861E-09 1.49450E-18-5.38414E-19
 -1      3479 1.07889E-04-2.46430E-05-3.58300E-05-1.27790E-05-7.28405E-19-1.53077E-18
 -1      3480 1.06490E-04-2.21284E-05-3.61468E-05-1.10417E-05-8.13205E-19-1.61689E-18
 -1      3481 9.26123E-05-2.49976E-05-2.89946E-05 3.62144E-06 9.56936E-19 2.11732E-19
 -1      3482 9.21428E-05-2.44771E-05-2.90029E-05 4.11138E-06 9.82438E-19 2.04308E-19
 -1      3483 9.12915E-05-2.37980E-05-2.89486E-05 4.48700E-06 3.46428E-19 3.21741E-19
 -1      3484 9.05879E-05-2.31321E-05-2.89169E-05 5.06131E-06 2.10259E-19 2.63721E-19
 -1      3485 9.07890E-05-2.35408E-05-2.87933E-05 3.64731E-06 6.49190E-19-4.61266E-19
 -1      3486 9.41387E-05-2.66405E-05-2.89368E-05 2.21789E-06-2.09881E-19-3.55469E-19
 -1      3487 9.39509E-05-2.63488E-05-2.89712E-05 2.55007E-06 4.56504E-19-4.24009E-19
 -1      3488 9.45313E-05-2.71507E-05-2.88840E-05 1.70462E-06 1.56484E-19 1.46259E-19
 -1      3489 9.44145E-05-2.69335E-05-2.89185E-05 1.97208E-06-1.74992E-19-2.15116E-19
 -1      3490 9.38796E-05-2.64865E-05-2.88748E-05 1.93280E-06-2.80122E-19-7.49785E-19
 -1      3491 9.47897E-05-2.75297E-05-2.88305E-05 1.28985E-06 3.20120E-19 6.60544E-20
 -1      3492 9.47191E-05-2.73689E-05-2.88622E-05 1.50184E-06 8.69317E-20 3.81544E-19
 -1      3493 9.43331E-05-2.70269E-05-2.88404E-05 1.50563E-06-2.18368E-19-2.59995E-19
 -1      3494 9.49584E-05-2.78106E-05-2.87811E-05 9.60295E-07-1.76224E-19 3.76155E-19
 -1      3495 9.49168E-05-2.76916E-05-2.88087E-05 1.12600E-06 5.71295E-19 5.54148E-19
 -1      3496 9.46417E-05-2.74325E-05-2.88007E-05 1.15127E-06-7.52758E-20 2.50096E-20
 -1      3497 9.50679E-05-2.80188E-05-2.87379E-05 7.02513E-07-1.62253E-19 7.55876E-19
 -1      3498 9.50441E-05-2.79306E-05-2.87610E-05 8.30353E-07-7.26078E-19 1.50735E-19
 -1      3499 9.48507E-05-2.77362E-05-2.87614E-05 8.64092E-07-3.61855E-19 8.85328E-19
 -1      3500 9.51382E-05-2.81729E-05-2.87013E-05 5.03868E-07 3.39851E-19 1.74847E-18
 -1      3501 9.51253E-05-2.81076E-05-2.87202E-05 6.01218E-07 6.56695E-19 1.38258E-18
 -1      3502 9.49916E-05-2.79631E-05-2.87253E-05 6.36057E-07-1.38650E-19 1.09319E-18
 -1      3503 9.51831E-05-2.82869E-05-2.86711E-05 3.53072E-07 6.63574E-19 1.26038E-18
 -1      3504 9.51764E-05-2.82385E-05-2.86863E-05 4.26208E-07 8.25637E-19 1.62247E-18
 -1      3505 9.50860E-05-2.81323E-05-2.86937E-05 4.58320E-07 4.47324E-19 1.56667E-18
 -1      3506 9.52112E-05-2.83710E-05-2.86467E-05 2.40379E-07-8.27454E-19 1.67186E-18
 -1      3507 9.52082E-05-2.83352E-05-2.86587E-05 2.94526E-07-4.79227E-19 1.21711E-18
 -1      3508 9.51487E-05-2.82582E-05-2.86670E-05 3.22229E-07-5.61579E-20 2.40887E-18
 -1      3509 9.52284E-05-2.84328E-05-2.86274E-05 1.57582E-07 9.72207E-19 1.35574E-18
 -1      3510 9.52274E-05-2.84065E-05-2.86367E-05 1.97017E-07 1.38769E-19 1.41261E-18
 -1      3511 9.51899E-05-2.83513E-05-2.86449E-05 2.19869E-07-4.01395E-19 1.57877E-18
 -1      3512 9.52386E-05-2.84778E-05-2.86122E-05 9.79105E-08 8.61173E-19 1.45555E-18
 -1      3513 9.52387E-05-2.84586E-05-2.86194E-05 1.26088E-07 1.81245E-18 1.45518E-18
 -1      3514 9.52164E-05-2.84199E-05-2.86270E-05 1.44309E-07 1.23443E-18 7.42127E-19
 -1      3515 9.52442E-05-2.85104E-05-2.86006E-05 5.58649E-08-1.09410E-18 1.34664E-18
 -1      3516 9.52448E-05-2.84964E-05-2.86060E-05 7.55402E-08-3.21796E-19 1.21565E-18
 -1      3517 9.52329E-05-2.84699E-05-2.86127E-05 8.96685E-08 4.66643E-19 9.53369E-19
 -1      3518 9.52470E-05-2.85335E-05-2.85917E-05 2.70495E-08-1.08381E-18 1.32257E-18
 -1      3519 9.52477E-05-2.85235E-05-2.85957E-05 4.03964E-08-1.56357E-18 1.33006E-18
 -1      3520 9.52427E-05-2.85059E-05-2.86015E-05 5.10818E-08-1.21162E-18 4.24799E-19
 -1      3521 9.52479E-05-2.85497E-05-2.85851E-05 7.98224E-09 8.76555E-19 1.17314E-18
 -1      3522 9.52487E-05-2.85427E-05-2.85880E-05 1.67126E-08 4.20699E-20 1.47122E-18
 -1      3523 9.52481E-05-2.85314E-05-2.85929E-05 2.46021E-08-7.52250E-19 1.23703E-18
 -1      3524 9.52477E-05-2.85611E-05-2.85800E-05-4.45379E-09 8.79645E-19 1.19414E-18
 -1      3525 9.52485E-05-2.85562E-05-2.85822E-05 1.09838E-09 1.55189E-18 1.80172E-18
 -1      3526 9.52506E-05-2.85495E-05-2.85862E-05 6.79213E-09 1.53776E-18 9.79667E-19
 -1      3527 9.52469E-05-2.85682E-05-2.85766E-05-1.11992E-08 4.70227E-19 1.37226E-18
 -1      3528 9.52476E-05-2.85651E-05-2.85781E-05-8.24669E-09-5.04806E-20 1.49113E-18
 -1      3529 9.52511E-05-2.85616E-05-2.85812E-05-4.33455E-09 5.85569E-19 1.31422E-18
 -1      3530 9.52458E-05-2.85726E-05-2.85742E-05-1.45800E-08 1.17284E-18 7.75662E-19
 -1      3531 9.52464E-05-2.85707E-05-2.85752E-05-1.31966E-08 1.77125E-18 1.61886E-18
 -1      3532 9.52505E-05-2.85693E-05-2.85777E-05-1.05382E-08 9.65375E-19 1.32793E-18
 -1      3533 9.52446E-05-2.85752E-05-2.85726E-05-1.57144E-08 1.19948E-18 8.85018E-20
 -1      3534 9.52450E-05-2.85741E-05-2.85732E-05-1.53578E-08 1.06075E-18 1.04366E-18
 -1      3535 9.52493E-05-2.85740E-05-2.85752E-05-1.36251E-08 1.47163E-18 5.26731E-19
 -1      3536 9.52434E-05-2.85765E-05-2.85715E-05-1.54279E-08 1.85974E-18 6.90190E-19
 -1      3537 9.52437E-05-2.85759E-05-2.85719E-05-1.57099E-08 1.28446E-18 5.93367E-19
 -1      3538 9.52477E-05-2.85766E-05-2.85734E-05-1.46417E-08 5.86859E-19 1.07064E-18
 -1      3539 9.52422E-05-2.85769E-05-2.85708E-05-1.43073E-08-5.85136E-19 1.70128E-18
 -1      3540 9.52425E-05-2.85767E-05-2.85711E-05-1.49545E-08 1.06783E-18 1.53807E-18
 -1      3541 9.52461E-05-2.85778E-05-2.85722E-05-1.43510E-08 2.29543E-19 2.13319E-18
 -1      3542 9.52412E-05-2.85768E-05-2.85705E-05-1.27574E-08-2.63257E-19 1.48579E-18
 -1      3543 9.52415E-05-2.85768E-05-2.85706E-05-1.35829E-08-3.31611E-19 1.68261E-18
 -1      3544 9.52446E-05-2.85781E-05-2.85714E-05-1.32947E-08-4.98063E-19 1.57368E-18
 -1      3545 9.52403E-05-2.85764E-05-2.85703E-05-1.10465E-08-8.51233E-19 1.65701E-18
 -1      3546 9.52405E-05-2.85765E-05-2.85703E-05-1.19284E-08-2.16236E-19 2.14836E-18
 -1      3547 9.52432E-05-2.85779E-05-2.85709E-05-1.18461E-08-8.93857E-19 2.76440E-18
 -1      3548 9.52396E-05-2.85758E-05-2.85702E-05-9.34210E-09-1.31163E-18 7.45391E-19
 -1      3549 9.52398E-05-2.85760E-05-2.85702E-05-1.02055E-08-1.19543E-18 1.06679E-18
 -1      3550 9.52419E-05-2.85773E-05-2.85706E-05-1.02524E-08-4.02367E-19 1.94378E-18
 -1      3551 9.52390E-05-2.85752E-05-2.85702E-05-7.74158E-09-1.89249E-18-5.43977E-19
 -1      3552 9.52391E-05-2.85755E-05-2.85701E-05-8.54460E-09-1.47146E-18 4.22246E-19
 -1      3553 9.52408E-05-2.85766E-05-2.85704E-05-8.66792E-09-1.31962E-18 1.94320E-18
 -1      3554 9.52387E-05-2.85748E-05-2.85702E-05-6.45265E-09 1.20573E-18-2.80065E-18
 -1      3555 9.52387E-05-2.85750E-05-2.85702E-05-7.18260E-09-1.20630E-18-1.79828E-18
 -1      3556 9.52401E-05-2.85760E-05-2.85703E-05-7.33290E-09-3.12303E-19-9.71650E-19
 -1      3557 9.52396E-05-2.85756E-05-2.85703E-05-6.24901E-09 3.06325E-19-1.25096E-18
 -1      3558 1.12907E-04-2.03164E-05-3.98693E-05 1.00010E-05-1.19527E-18-2.92203E-18
 -1      3559 1.09861E-04-1.48247E-05-4.09293E-05 4.81095E-06-1.91276E-18-2.79681E-18
 -1      3560 9.52417E-05-2.85773E-05-2.85705E-05-2.69531E-09 1.52819E-18-1.46793E-18
 -1      3561 1.15404E-04-2.11782E-05-4.06116E-05-1.39218E-05-1.56082E-18-1.29710E-18
 -1      3562 1.19707E-04-2.74564E-05-3.96718E-05-1.36543E-05-1.20782E-18-6.81954E-19
 -1      3563 9.52429E-05-2.85781E-05-2.85707E-05 1.49815E-09 6.10360E-19-8.73962E-19
 -1      3564 9.52431E-05-2.85782E-05-2.85707E-05 5.75129E-10 6.78411E-19-1.22791E-18
 -1      3565 8.66776E-05-2.04358E-05-2.84340E-05 6.57558E-06-1.19815E-18-2.95669E-19
 -1      3566 8.52512E-05-1.95083E-05-2.81930E-05 7.35082E-06-1.51091E-18-7.73180E-19
 -1      3567 1.14117E-04-3.09130E-05-3.58582E-05-1.28147E-05-2.51145E-19-1.37115E-18
 -1      3568 1.10960E-04-2.72670E-05-3.58019E-05-1.36964E-05-5.34822E-19-1.40631E-18
 -1      3569 1.13014E-04-2.64540E-05-3.70690E-05-1.37306E-05-5.66010E-19-1.33276E-18
 -1      3570 1.17346E-04-3.30578E-05-3.60931E-05-1.08076E-05-3.57805E-20-9.76536E-19
 -1      3571 9.52396E-05-2.85755E-05-2.85703E-05 5.87029E-09 1.28886E-18 1.65735E-18
 -1      3572 1.04957E-04-1.96811E-05-3.66304E-05-8.38812E-06-1.09075E-18-1.84018E-18
 -1      3573 1.03852E-04-1.80517E-05-3.67751E-05-5.30876E-06-1.27157E-18-1.98257E-18
 -1      3574 1.05661E-04-1.61629E-05-3.83793E-05-3.60199E-06-1.58257E-18-2.26413E-18
 -1      3575 1.08024E-04-2.00749E-05-3.77369E-05-1.06045E-05-1.11558E-18-1.60594E-18
 -1      3576 8.93826E-05-2.22781E-05-2.87905E-05 5.46919E-06-4.32036E-19-2.28665E-19
 -1      3577 8.83611E-05-2.14627E-05-2.86832E-05 6.13364E-06-8.25783E-19-4.57816E-19
 -1      3578 8.87870E-05-2.19778E-05-2.85928E-05 4.28242E-06-3.18753E-19-7.61639E-19
 -1      3579 1.19883E-04-3.06346E-05-3.85278E-05-1.31834E-05-8.08241E-19-7.15197E-19
 -1      3580 1.20690E-04-3.50779E-05-3.66735E-05-8.70937E-06-1.27902E-19-3.17485E-19
 -1      3581 7.55009E-05-2.68993E-05-2.04564E-05-2.97102E-05 9.90896E-19 1.22147E-18
 -1      3582 8.85977E-05-3.64309E-05-2.25910E-05-3.14390E-05 1.55616E-18 8.77235E-19
 -1      3583 1.02096E-04-4.36642E-05-2.46878E-05-2.79521E-05 1.89772E-18-9.31968E-20
 -1      3584 1.11852E-04-4.89918E-05-2.70994E-05-2.25292E-05 2.22267E-18-5.13137E-19
 -1      3585 1.21256E-04-4.05722E-05-3.47049E-05 8.72368E-07 7.88962E-19 8.56364E-20
 -1      3586 9.35366E-05-2.59460E-05-2.89797E-05 2.84874E-06 5.90207E-19-2.81416E-19
 -1      3587 9.32189E-05-2.55332E-05-2.90085E-05 3.27542E-06 7.19853E-19-2.62586E-21
 -1      3588 9.22111E-05-2.47885E-05-2.88768E-05 3.02229E-06 1.05502E-18-6.60264E-19
 -1      3589 9.32063E-05-2.57600E-05-2.88936E-05 2.44064E-06 3.96073E-19-5.54697E-19
 -1      3590 9.52407E-05-2.85764E-05-2.85704E-05 5.82625E-09 1.96107E-18 6.02634E-19
 -1      3591 8.29256E-05-1.83518E-05-2.77385E-05 7.86612E-06-1.41998E-18-6.45157E-19
 -1      3592 8.10573E-05-1.74459E-05-2.72727E-05 8.82441E-06-1.65220E-18-6.02223E-19
 -1      3593 8.20791E-05-1.78201E-05-2.74570E-05 5.51946E-06-1.40306E-18-6.64557E-19
 -1      3594 5.72780E-05-1.40355E-05-1.82754E-05-1.83031E-05 7.79270E-20 2.16179E-18
 -1      3595 6.44625E-05-1.98108E-05-1.91640E-05-2.57154E-05 4.21531E-19 1.64224E-18
 -1      3596 8.59762E-05-2.00614E-05-2.81921E-05 4.90592E-06-1.12429E-18-6.91693E-19
 -1      3597 9.52424E-05-2.85776E-05-2.85707E-05 6.13172E-09 1.94264E-18 1.49854E-19
 -1      3598 9.52417E-05-2.85771E-05-2.85706E-05 5.04127E-09 2.09432E-18 6.59247E-19
 -1      3599 9.52424E-05-2.85776E-05-2.85706E-05 4.37524E-09 1.36760E-18-4.70102E-19
 -1      3600 1.18523E-04-2.56993E-05-3.99878E-05 1.13900E-05-4.64359E-19-2.64960E-18
 -1      3601 1.12666E-04-2.56700E-05-3.73493E-05 9.97175E-06-5.53774E-19-2.87540E-18
 -1      3602 1.14546E-04-3.03231E-05-3.61802E-05 1.09635E-05 3.26769E-20-2.75474E-18
 -1      3603 1.22812E-04-3.31476E-05-3.85223E-05 1.09114E-05 2.28143E-19-2.18666E-18
 -1      3604 9.52426E-05-2.85778E-05-2.85706E-05-2.52817E-09 1.19751E-18-1.48755E-18
 -1      3605 9.52422E-05-2.85775E-05-2.85706E-05-3.37134E-09 1.11289E-18-1.23763E-18
 -1      3606 9.52419E-05-2.85773E-05-2.85705E-05-4.18181E-09-2.11324E-19 6.80245E-19
 -1      3607 9.52415E-05-2.85769E-05-2.85705E-05-4.81931E-09-8.46884E-19 1.83952E-18
 -1      3608 9.52428E-05-2.85779E-05-2.85707E-05-4.06405E-09-9.81696E-20 3.13198E-19
 -1      3609 6.34319E-05-1.72657E-05-1.91591E-05 2.16637E-05-1.91846E-18 6.59256E-19
 -1      3610 5.33323E-05-1.15297E-05-1.75027E-05 1.36322E-05-1.84948E-18 1.80916E-18
 -1      3611 1.16508E-04-4.98974E-05-2.84444E-05-1.68549E-05 2.44300E-18-6.15843E-19
 -1      3612 1.18532E-04-4.89118E-05-2.98814E-05-1.02287E-05 2.31586E-18-1.09577E-18
 -1      3613 1.10670E-04-4.62047E-05-2.76295E-05-1.77614E-05 2.24495E-18-6.49598E-19
 -1      3614 7.39704E-05-2.35268E-05-2.13807E-05-2.46885E-05 7.86655E-19 1.24224E-18
 -1      3615 5.63172E-05-1.13789E-05-1.89770E-05 7.97819E-06-1.55992E-18 2.23214E-18
 -1      3616 9.52426E-05-2.85778E-05-2.85706E-05 3.35960E-09 3.19496E-19-1.07092E-18
 -1      3617 9.52430E-05-2.85781E-05-2.85707E-05 2.50800E-09 3.11688E-19-1.14735E-18
 -1      3618 9.52439E-05-2.85787E-05-2.85708E-05 2.14962E-09-2.40429E-19-8.47703E-19
 -1      3619 9.52437E-05-2.85785E-05-2.85708E-05 4.21572E-09 4.82998E-19 3.88785E-19
 -1      3620 9.52431E-05-2.85782E-05-2.85707E-05-5.28975E-10 6.97497E-19-1.55073E-18
 -1      3621 9.52430E-05-2.85781E-05-2.85707E-05-1.48026E-09 9.51954E-19-2.00178E-18
 -1      3622 9.52435E-05-2.85784E-05-2.85708E-05-2.18093E-09 1.88348E-18-1.57493E-18
 -1      3623 9.52438E-05-2.85787E-05-2.85708E-05 2.43950E-11 8.46331E-19-1.58225E-18
 -1      3624 7.78656E-05-1.62842E-05-2.64760E-05 9.59926E-06-1.45220E-18-7.99139E-20
 -1      3625 7.55752E-05-1.56681E-05-2.56193E-05 1.09124E-05-1.32000E-18 2.98649E-19
 -1      3626 7.66391E-05-1.53387E-05-2.61672E-05 6.21093E-06-1.30497E-18 7.59054E-19
 -1      3627 9.58050E-05-3.83421E-05-2.44599E-05-2.60405E-05 1.58235E-18 1.05284E-20
 -1      3628 1.20969E-04-3.84343E-05-3.55325E-05-4.62691E-06 4.38201E-19-2.41497E-19
 -1      3629 5.52953E-05-1.02606E-05-1.92593E-05-5.85192E-06-7.29722E-19 2.34602E-18
 -1      3630 5.55085E-05-1.16383E-05-1.85700E-05-1.30348E-05-3.88537E-19 2.29710E-18
 -1      3631 6.26676E-05-1.42383E-05-2.05461E-05-1.43238E-05-2.79121E-19 1.88174E-18
 -1      3632 6.74458E-05-1.61511E-05-2.18775E-05 1.86716E-05-1.72349E-18 1.06334E-18
 -1      3633 6.94251E-05-2.30623E-05-1.95339E-05 2.51926E-05-1.57500E-18 1.41878E-20
 -1      3634 1.23297E-04-4.82580E-05-3.22198E-05-2.67512E-06 1.65574E-18-1.12279E-18
 -1      3635 1.26386E-04-4.69481E-05-3.41239E-05 1.45920E-06 1.31478E-18-1.39649E-18
 -1      3636 1.25918E-04-4.35732E-05-3.53368E-05 4.66695E-06 9.64559E-19-1.71269E-18
 -1      3637 1.24490E-04-3.76087E-05-3.74990E-05 9.01211E-06 5.09398E-19-1.84698E-18
 -1      3638 1.20219E-04-3.56761E-05-3.63123E-05 9.76129E-06 2.29625E-19-2.30148E-18
 -1      3639 1.22296E-04-4.22808E-05-3.43886E-05 5.66972E-06 1.09748E-18-1.91948E-18
 -1      3640 6.21776E-05-1.25465E-05-2.12079E-05 1.08763E-05-1.23877E-18 1.92229E-18
 -1      3641 5.67319E-05-9.86509E-06-1.98155E-05 2.17431E-06-1.09043E-18 2.09612E-18
 -1      3642 7.17567E-05-1.63440E-05-2.36325E-05 1.58171E-05-1.12096E-18 8.22588E-19
 -1      3643 6.69983E-05-1.42049E-05-2.23671E-05 1.37164E-05-1.30613E-18 1.53808E-18
 -1      3644 6.59444E-05-1.25816E-05-2.29201E-05 8.86000E-06-7.38255E-19 1.82337E-18
 -1      3645 1.15458E-04-3.42451E-05-3.48872E-05 9.79107E-06 3.42853E-19-2.68438E-18
 -1      3646 1.15863E-04-3.98661E-05-3.25899E-05 6.02861E-06 9.70895E-19-2.21685E-18
 -1      3647 1.15436E-04-4.15870E-05-3.16389E-05 3.95202E-06 1.17019E-18-1.91149E-18
 -1      3648 1.13310E-04-4.18001E-05-3.06639E-05 1.12819E-06 1.24936E-18-1.64958E-18
 -1      3649 1.11785E-04-4.15750E-05-3.00303E-05-6.81898E-07 1.36373E-18-1.44920E-18
 -1      3650 1.16198E-04-4.37657E-05-3.10631E-05 2.67323E-07 1.48117E-18-1.85639E-18
 -1      3651 1.09132E-04-4.04457E-05-2.94678E-05-2.46037E-06 7.69479E-19-1.40593E-18
 -1      3652 1.07268E-04-3.92331E-05-2.90956E-05-3.66451E-06 4.71885E-19-1.42814E-18
 -1      3653 1.11016E-04-4.22549E-05-2.95504E-05-4.03282E-06 1.16050E-18-8.93284E-19
 -1      3654 1.04870E-04-3.76536E-05-2.88170E-05-4.44203E-06 4.34128E-19-1.21346E-18
 -1      3655 1.03114E-04-3.61928E-05-2.86316E-05-5.05404E-06 1.62470E-19-8.59284E-19
 -1      3656 1.05844E-04-3.89643E-05-2.87199E-05-6.21391E-06 5.93254E-19-9.81968E-19
 -1      3657 1.01256E-04-3.46812E-05-2.85283E-05-5.15802E-06 1.95371E-19-5.08895E-19
 -1      3658 9.98289E-05-3.33544E-05-2.84575E-05-5.33858E-06 2.84706E-19-7.18802E-19
 -1      3659 1.01547E-04-3.54586E-05-2.83648E-05-6.75809E-06 5.32020E-19-4.07204E-19
 -1      3660 9.85371E-05-3.21390E-05-2.84464E-05-5.07607E-06 1.15916E-19-1.11846E-18
 -1      3661 9.74931E-05-3.10994E-05-2.84365E-05-4.99692E-06 5.81884E-20-8.88438E-19
 -1      3662 9.84071E-05-3.24908E-05-2.82765E-05-6.35258E-06 4.21556E-20-1.80420E-19
 -1      3663 9.66710E-05-3.02225E-05-2.84664E-05-4.58480E-06 4.39820E-19-1.08088E-18
 -1      3664 9.59684E-05-2.94857E-05-2.84837E-05-4.37305E-06 5.89403E-19-7.34388E-19
 -1      3665 9.63237E-05-3.02896E-05-2.83157E-05-5.52144E-06-1.44898E-19-7.34674E-19
 -1      3666 9.54952E-05-2.89095E-05-2.85262E-05-3.93250E-06 7.05854E-19-6.30014E-19
 -1      3667 9.50602E-05-2.84336E-05-2.85511E-05-3.66896E-06 6.07510E-19-6.72588E-20
 -1      3668 9.50607E-05-2.88047E-05-2.84030E-05-4.57821E-06 7.59893E-19-2.05559E-20
 -1      3669 9.48273E-05-2.80939E-05-2.85914E-05-3.25955E-06 6.16753E-19 5.41619E-19
 -1      3670 9.45849E-05-2.78194E-05-2.86139E-05-2.99053E-06 7.14930E-19 6.84157E-19
 -1      3671 9.43819E-05-2.78970E-05-2.84964E-05-3.68130E-06 1.02842E-18 3.38100E-19
 -1      3672 9.45065E-05-2.76510E-05-2.86457E-05-2.63610E-06 4.93053E-19 7.88448E-19
 -1      3673 9.43934E-05-2.75203E-05-2.86617E-05-2.38570E-06 3.22678E-19 6.02857E-19
 -1      3674 9.40916E-05-2.74147E-05-2.85760E-05-2.89742E-06 6.57370E-19 3.82574E-19
 -1      3675 9.44071E-05-2.74674E-05-2.86835E-05-2.09144E-06 5.03516E-19 7.59837E-19
 -1      3676 9.43747E-05-2.74321E-05-2.86923E-05-1.87046E-06 6.14540E-19 8.33137E-19
 -1      3677 9.40421E-05-2.72248E-05-2.86347E-05-2.24425E-06 4.67345E-19 6.63720E-19
 -1      3678 9.44372E-05-2.74511E-05-2.87048E-05-1.63266E-06 1.96118E-19 4.83387E-19
 -1      3679 9.44509E-05-2.74739E-05-2.87072E-05-1.44436E-06 2.99342E-20 2.93367E-19
 -1      3680 9.41289E-05-2.72219E-05-2.86726E-05-1.71591E-06 1.15335E-19 4.55330E-19
 -1      3681 9.45340E-05-2.75330E-05-2.87122E-05-1.25577E-06 1.37460E-19 1.55793E-19
 -1      3682 9.45706E-05-2.75873E-05-2.87097E-05-1.09936E-06 3.54158E-20-4.30515E-19
 -1      3683 9.42816E-05-2.73276E-05-2.86925E-05-1.29688E-06 5.36395E-20-3.78318E-19
 -1      3684 9.46570E-05-2.76645E-05-2.87093E-05-9.51908E-07 3.23008E-19-1.25395E-18
 -1      3685 9.47018E-05-2.77322E-05-2.87035E-05-8.24618E-07 4.10046E-20-1.43281E-18
 -1      3686 9.44558E-05-2.74875E-05-2.86988E-05-9.69169E-07-3.24306E-19-1.39915E-18
 -1      3687 9.47818E-05-2.78135E-05-2.86994E-05-7.10697E-07-1.82382E-19-1.42944E-18
 -1      3688 9.48263E-05-2.78832E-05-2.86918E-05-6.08926E-07 3.05154E-19-1.27392E-18
 -1      3689 9.46253E-05-2.76656E-05-2.86954E-05-7.15659E-07 4.16531E-20-1.43166E-18
 -1      3690 9.48953E-05-2.79601E-05-2.86856E-05-5.21869E-07 5.35677E-19-1.21633E-18
 -1      3691 9.49349E-05-2.80252E-05-2.86772E-05-4.41825E-07 7.39693E-19-1.12027E-18
 -1      3692 9.47764E-05-2.78397E-05-2.86858E-05-5.21410E-07 3.91191E-19-1.76601E-18
 -1      3693 9.49915E-05-2.80934E-05-2.86699E-05-3.76026E-07 1.82600E-19-1.72220E-18
 -1      3694 9.50245E-05-2.81505E-05-2.86615E-05-3.14073E-07-2.73768E-19-2.05635E-18
 -1      3695 9.49034E-05-2.79975E-05-2.86729E-05-3.73941E-07 1.36384E-20-2.11979E-18
 -1      3696 9.50690E-05-2.82082E-05-2.86541E-05-2.64926E-07 4.50689E-20-2.83218E-18
 -1      3697 9.50951E-05-2.82560E-05-2.86463E-05-2.17755E-07-1.31856E-19-2.78867E-18
 -1      3698 9.50054E-05-2.81335E-05-2.86585E-05-2.63083E-07-3.04171E-19-2.81634E-18
 -1      3699 9.51288E-05-2.83031E-05-2.86392E-05-1.81533E-07-2.43575E-19-2.31240E-18
 -1      3700 9.51485E-05-2.83418E-05-2.86322E-05-1.46235E-07 3.88557E-19-2.25656E-18
 -1      3701 9.50842E-05-2.82462E-05-2.86443E-05-1.80665E-07 2.29733E-19-2.43014E-18
 -1      3702 9.51732E-05-2.83791E-05-2.86258E-05-1.19948E-07 1.59300E-19-2.53410E-18
 -1      3703 9.51875E-05-2.84095E-05-2.86197E-05-9.40332E-08-1.18240E-19-2.03964E-18
 -1      3704 9.51431E-05-2.83367E-05-2.86309E-05-1.20178E-07 4.41608E-19-1.45190E-18
 -1      3705 9.52048E-05-2.84381E-05-2.86141E-05-7.53078E-08-6.13727E-19-1.53005E-18
 -1      3706 9.52147E-05-2.84614E-05-2.86089E-05-5.66897E-08 3.80600E-20-6.89446E-19
 -1      3707 9.51855E-05-2.84073E-05-2.86190E-05-7.64634E-08 1.30221E-19-1.63215E-18
 -1      3708 9.52264E-05-2.84828E-05-2.86042E-05-4.36520E-08-2.72038E-19-1.11173E-18
 -1      3709 9.52329E-05-2.85001E-05-2.86000E-05-3.06153E-08-5.16161E-19-1.52892E-18
 -1      3710 9.52149E-05-2.84610E-05-2.86086E-05-4.54593E-08-2.06343E-19-1.15233E-18
 -1      3711 9.52404E-05-2.85158E-05-2.85961E-05-2.17997E-08 2.83657E-19-1.72458E-18
 -1      3712 9.52443E-05-2.85283E-05-2.85927E-05-1.29582E-08 7.75232E-19-1.46596E-18
 -1      3713 9.52343E-05-2.85008E-05-2.86000E-05-2.39813E-08 5.34793E-20-1.07560E-18
 -1      3714 9.52487E-05-2.85394E-05-2.85896E-05-7.22811E-09 1.11844E-18-1.53067E-18
 -1      3715 9.52508E-05-2.85481E-05-2.85870E-05-1.48007E-09 2.90921E-19-1.28977E-18
 -1      3716 9.52463E-05-2.85295E-05-2.85929E-05-9.54998E-09 4.60462E-19-1.82795E-18
 -1      3717 9.52529E-05-2.85557E-05-2.85845E-05 2.03668E-09 6.31705E-20-4.72224E-19
 -1      3718 9.52538E-05-2.85616E-05-2.85824E-05 5.55233E-09 7.41835E-19 5.60405E-19
 -1      3719 9.52530E-05-2.85496E-05-2.85872E-05-2.50520E-10 1.15362E-18-9.35230E-19
 -1      3720 9.52545E-05-2.85666E-05-2.85805E-05 7.51712E-09 1.61033E-19 2.92505E-19
 -1      3721 9.52546E-05-2.85704E-05-2.85790E-05 9.46214E-09-1.01992E-18 4.78144E-19
 -1      3722 9.52560E-05-2.85631E-05-2.85827E-05 5.38183E-09 3.72823E-19-1.61257E-19
 -1      3723 9.52543E-05-2.85734E-05-2.85775E-05 1.03697E-08-1.42907E-18 1.97155E-20
 -1      3724 9.52539E-05-2.85757E-05-2.85764E-05 1.12436E-08-9.55898E-19-2.98430E-19
 -1      3725 9.52566E-05-2.85717E-05-2.85793E-05 8.45453E-09-1.60484E-18-1.32344E-18
 -1      3726 9.52531E-05-2.85774E-05-2.85753E-05 1.14581E-08-2.06381E-20-5.54484E-19
 -1      3727 9.52523E-05-2.85786E-05-2.85745E-05 1.16308E-08 1.51605E-18-5.21699E-20
 -1      3728 9.52557E-05-2.85769E-05-2.85766E-05 9.79359E-09-7.54385E-19-1.13500E-18
 -1      3729 9.52512E-05-2.85793E-05-2.85737E-05 1.14151E-08 2.48711E-18-2.28917E-19
 -1      3730 9.52504E-05-2.85798E-05-2.85731E-05 1.11543E-08 1.78959E-18 3.29236E-19
 -1      3731 9.52539E-05-2.85796E-05-2.85747E-05 1.00050E-08 2.16983E-18 2.55812E-19
 -1      3732 9.52492E-05-2.85800E-05-2.85725E-05 1.06940E-08 1.18638E-18 5.08552E-19
 -1      3733 9.52483E-05-2.85800E-05-2.85721E-05 1.01884E-08 2.03592E-18 8.97016E-19
 -1      3734 9.52517E-05-2.85807E-05-2.85733E-05 9.52471E-09 1.35088E-18-6.99215E-19
 -1      3735 9.52471E-05-2.85798E-05-2.85717E-05 9.61069E-09 1.67967E-18 5.65177E-19
 -1      3736 9.52463E-05-2.85795E-05-2.85715E-05 8.98852E-09 1.33677E-18 9.25537E-19
 -1      3737 9.52494E-05-2.85807E-05-2.85723E-05 8.65925E-09 1.71219E-18-9.32824E-20
 -1      3738 9.52452E-05-2.85791E-05-2.85712E-05 8.37598E-09 3.56022E-19 1.25523E-19
 -1      3739 9.52444E-05-2.85787E-05-2.85710E-05 7.72352E-09 8.75107E-19-4.85882E-19
 -1      3740 9.52471E-05-2.85801E-05-2.85716E-05 7.61620E-09 5.07890E-19-1.92756E-18
 -1      3741 9.52437E-05-2.85784E-05-2.85709E-05 7.21339E-09 1.19661E-18 2.84448E-19
 -1      3742 9.52431E-05-2.85779E-05-2.85708E-05 6.58570E-09 1.57045E-18-4.22035E-19
 -1      3743 9.52441E-05-2.85786E-05-2.85709E-05 5.71634E-09 1.24397E-18 5.13447E-19
 -1      3744 9.52454E-05-2.85794E-05-2.85712E-05 6.60142E-09 1.45856E-18-2.25201E-18
 -1      3745 1.10246E-04-1.17355E-05-4.24748E-05 8.51387E-07-2.15080E-18-2.58988E-18
 -1      3746 1.08461E-04-1.31470E-05-4.09175E-05-2.94903E-06-1.87814E-18-2.08898E-18
 -1      3747 9.41726E-05-2.69839E-05-2.88004E-05 1.23147E-06-5.69701E-19 9.88283E-20
 -1      3748 9.39833E-05-2.67455E-05-2.88174E-05 1.41315E-06-7.39424E-19-3.18546E-20
 -1      3749 9.36814E-05-2.64487E-05-2.88208E-05 1.55414E-06-6.49890E-19-3.60607E-19
 -1      3750 9.34039E-05-2.61354E-05-2.88322E-05 1.76585E-06-8.35286E-20-4.01944E-19
 -1      3751 9.35759E-05-2.64026E-05-2.87805E-05 1.25994E-06-8.90228E-19 5.30014E-20
 -1      3752 9.47563E-05-2.77008E-05-2.87411E-05 7.22458E-07-5.38827E-19 8.60782E-19
 -1      3753 9.46696E-05-2.75641E-05-2.87591E-05 8.45140E-07-7.23339E-19 6.22858E-19
 -1      3754 9.49227E-05-2.79345E-05-2.87115E-05 5.35295E-07-1.12504E-19 9.30668E-19
 -1      3755 9.48645E-05-2.78315E-05-2.87278E-05 6.32683E-07 1.04595E-19 9.45394E-19
 -1      3756 9.47012E-05-2.76669E-05-2.87264E-05 6.12836E-07-4.36862E-19 8.02326E-19
 -1      3757 9.50374E-05-2.81105E-05-2.86847E-05 3.87343E-07 1.05774E-19 1.38495E-18
 -1      3758 9.49986E-05-2.80331E-05-2.86988E-05 4.63139E-07-1.28895E-19 7.78852E-19
 -1      3759 9.48824E-05-2.79079E-05-2.87016E-05 4.57635E-07 1.09682E-19 7.00583E-19
 -1      3760 9.51159E-05-2.82424E-05-2.86613E-05 2.72896E-07-6.94288E-19 1.98433E-18
 -1      3761 9.50903E-05-2.81845E-05-2.86732E-05 3.30786E-07 1.76925E-19 1.87403E-18
 -1      3762 9.50093E-05-2.80906E-05-2.86783E-05 3.33009E-07-4.86057E-20 1.16204E-18
 -1      3763 9.51688E-05-2.83406E-05-2.86416E-05 1.86195E-07 1.28159E-19 9.88946E-19
 -1      3764 9.51522E-05-2.82975E-05-2.86514E-05 2.29584E-07-5.69423E-19 1.63640E-18
 -1      3765 9.50972E-05-2.82282E-05-2.86574E-05 2.35518E-07-1.00080E-19 9.47023E-19
 -1      3766 9.52038E-05-2.84131E-05-2.86253E-05 1.21892E-07 1.57651E-18 3.89860E-19
 -1      3767 9.51933E-05-2.83813E-05-2.86332E-05 1.53773E-07 8.10001E-19 9.64739E-19
 -1      3768 9.51573E-05-2.83310E-05-2.86394E-05 1.61069E-07 2.11920E-19 5.25663E-19
 -1      3769 9.52264E-05-2.84660E-05-2.86121E-05 7.52683E-08 2.44600E-19 9.89711E-19
 -1      3770 9.52200E-05-2.84429E-05-2.86184E-05 9.81861E-08 1.18270E-18 1.14715E-18
 -1      3771 9.51976E-05-2.84070E-05-2.86242E-05 1.05541E-07 1.02230E-18 9.00220E-19
 -1      3772 9.52403E-05-2.85041E-05-2.86015E-05 4.23169E-08-1.32577E-18 3.62366E-19
 -1      3773 9.52367E-05-2.84875E-05-2.86065E-05 5.83781E-08-4.33396E-19 5.19621E-19
 -1      3774 9.52237E-05-2.84626E-05-2.86118E-05 6.51256E-08 2.95102E-19 6.16486E-19
 -1      3775 9.52483E-05-2.85311E-05-2.85933E-05 1.97089E-08-2.17625E-19-4.25522E-19
 -1      3776 9.52465E-05-2.85193E-05-2.85971E-05 3.06401E-08-1.10865E-18-3.20923E-19
 -1      3777 9.52400E-05-2.85025E-05-2.86017E-05 3.64926E-08-5.22621E-19-1.55554E-18
 -1      3778 9.52524E-05-2.85506E-05-2.85867E-05 4.23076E-09 9.01754E-19 4.17353E-19
 -1      3779 9.52518E-05-2.85421E-05-2.85897E-05 1.15812E-08 2.45160E-20-2.31725E-19
 -1      3780 9.52496E-05-2.85312E-05-2.85935E-05 1.64943E-08-6.57384E-19-1.40881E-18
 -1      3781 9.52537E-05-2.85628E-05-2.85819E-05-4.81197E-09 2.56151E-19 9.97082E-19
 -1      3782 9.52538E-05-2.85575E-05-2.85840E-05-5.39966E-10 1.08002E-18 9.73098E-19
 -1      3783 9.52545E-05-2.85510E-05-2.85872E-05 3.38370E-09 2.78968E-19 5.12760E-19
 -1      3784 9.52534E-05-2.85707E-05-2.85784E-05-9.98625E-09 8.40209E-19 2.12303E-18
 -1      3785 9.52540E-05-2.85673E-05-2.85799E-05-7.60826E-09-1.00503E-19 1.89555E-18
 -1      3786 9.52561E-05-2.85637E-05-2.85825E-05-4.48912E-09-1.68378E-19 8.63753E-19
 -1      3787 9.52522E-05-2.85754E-05-2.85758E-05-1.24886E-08 6.47295E-19 2.06676E-18
 -1      3788 9.52529E-05-2.85734E-05-2.85769E-05-1.13978E-08 1.20318E-18 2.16156E-18
 -1      3789 9.52559E-05-2.85718E-05-2.85789E-05-8.96835E-09 6.52497E-19 2.26406E-18
 -1      3790 9.52505E-05-2.85780E-05-2.85739E-05-1.32242E-08 7.01632E-19 2.39076E-18
 -1      3791 9.52513E-05-2.85769E-05-2.85747E-05-1.29761E-08 1.16836E-18 2.24257E-18
 -1      3792 9.52545E-05-2.85766E-05-2.85763E-05-1.11151E-08 1.16494E-18 2.82107E-18
 -1      3793 9.52486E-05-2.85791E-05-2.85726E-05-1.28519E-08-1.24763E-19 2.33119E-18
 -1      3794 9.52494E-05-2.85787E-05-2.85731E-05-1.31255E-08-1.51189E-19 1.68782E-18
 -1      3795 9.52525E-05-2.85791E-05-2.85744E-05-1.17216E-08 4.21879E-19 2.13091E-18
 -1      3796 9.52467E-05-2.85792E-05-2.85717E-05-1.18387E-08-5.67695E-20 1.87623E-18
 -1      3797 9.52474E-05-2.85792E-05-2.85721E-05-1.24079E-08 3.56035E-19 2.68512E-18
 -1      3798 9.52503E-05-2.85801E-05-2.85730E-05-1.13643E-08 6.87044E-19 2.75667E-18
 -1      3799 9.52449E-05-2.85788E-05-2.85712E-05-1.05055E-08-1.50003E-18 2.24022E-18
 -1      3800 9.52456E-05-2.85790E-05-2.85714E-05-1.12163E-08-1.47551E-18 1.57343E-18
 -1      3801 9.52481E-05-2.85801E-05-2.85720E-05-1.04519E-08-7.93665E-19 2.74636E-18
 -1      3802 9.52433E-05-2.85781E-05-2.85708E-05-9.06336E-09-5.12673E-20 1.56925E-18
 -1      3803 9.52439E-05-2.85784E-05-2.85709E-05-9.81548E-09-1.68237E-19 2.32358E-18
 -1      3804 9.52461E-05-2.85796E-05-2.85714E-05-9.26436E-09-8.09014E-19 1.11618E-18
 -1      3805 9.52419E-05-2.85772E-05-2.85706E-05-7.65458E-09-9.10773E-19 8.11130E-19
 -1      3806 9.52424E-05-2.85776E-05-2.85706E-05-8.37742E-09-3.39892E-19 1.88054E-18
 -1      3807 9.52442E-05-2.85787E-05-2.85710E-05-7.98630E-09 4.49074E-19 1.43459E-18
 -1      3808 1.12589E-04-1.83456E-05-4.05267E-05-1.22860E-05-1.55875E-18-1.58097E-18
 -1      3809 1.12690E-04-2.22988E-05-3.88555E-05-1.30833E-05-1.24213E-18-1.57800E-18
 -1      3810 9.52409E-05-2.85765E-05-2.85704E-05-5.36019E-09-2.74123E-19 8.55562E-19
 -1      3811 9.52403E-05-2.85761E-05-2.85704E-05-5.85069E-09-5.80854E-20 2.04389E-19
 -1      3812 9.52405E-05-2.85763E-05-2.85704E-05-6.37742E-09-4.95360E-19 9.68579E-20
 -1      3813 9.52419E-05-2.85772E-05-2.85706E-05-5.45057E-09-8.01249E-19 1.11504E-18
 -1      3814 7.39869E-05-1.58674E-05-2.50113E-05 1.35830E-05-1.57798E-18 3.13349E-19
 -1      3815 1.09716E-04-1.62219E-05-4.01783E-05-9.69702E-06-1.60293E-18-1.76718E-18
 -1      3816 9.45165E-05-2.73916E-05-2.87718E-05 9.53655E-07-3.47259E-19-5.97276E-21
 -1      3817 9.43881E-05-2.72108E-05-2.87904E-05 1.10486E-06-2.52549E-19-5.10864E-19
 -1      3818 9.44445E-05-2.73508E-05-2.87507E-05 8.00344E-07-6.28829E-19-2.18865E-19
 -1      3819 1.15541E-04-2.75158E-05-3.77733E-05-1.43781E-05-7.59921E-19-1.23840E-18
 -1      3820 8.85355E-05-2.21416E-05-2.84744E-05 2.92494E-06-2.06661E-19-7.62366E-19
 -1      3821 8.73256E-05-2.12962E-05-2.83243E-05 3.13540E-06-7.16021E-19-7.90371E-19
 -1      3822 9.05166E-05-2.36173E-05-2.86859E-05 2.65496E-06 9.57578E-19-7.79765E-19
 -1      3823 8.96617E-05-2.29369E-05-2.86134E-05 2.89927E-06 4.34864E-19-5.13182E-19
 -1      3824 8.85497E-05-2.22500E-05-2.83799E-05 1.86825E-06 2.68939E-20-6.15391E-19
 -1      3825 9.02646E-05-3.33834E-05-2.41373E-05-2.49258E-05 1.78279E-18-1.14495E-19
 -1      3826 1.00569E-04-4.05300E-05-2.58765E-05-2.24649E-05 1.97548E-18-4.43157E-19
 -1      3827 7.15577E-05-1.96986E-05-2.20798E-05-1.95475E-05 1.48044E-19 8.76507E-19
 -1      3828 7.99899E-05-2.64763E-05-2.30958E-05-2.37246E-05 7.69794E-19 7.37620E-19
 -1      3829 6.13809E-05-1.13072E-05-2.12468E-05-1.81717E-06-8.50884E-19 1.83900E-18
 -1      3830 8.19892E-05-1.81925E-05-2.73812E-05 2.91989E-06-1.00178E-18-6.49511E-19
 -1      3831 7.96471E-05-1.70205E-05-2.68884E-05 2.99480E-06-8.50335E-19-1.10988E-19
 -1      3832 8.57862E-05-2.03340E-05-2.80785E-05 3.04057E-06-8.71369E-19-1.00230E-18
 -1      3833 8.40944E-05-1.93207E-05-2.77988E-05 3.18997E-06-1.09713E-18-4.97470E-19
 -1      3834 8.24330E-05-1.85385E-05-2.73106E-05 9.20490E-07-9.91679E-19-4.95109E-19
 -1      3835 8.59601E-05-2.05499E-05-2.79842E-05 1.59145E-06-7.75299E-19-8.96052E-19
 -1      3836 1.12726E-04-2.39844E-05-3.80290E-05-1.39144E-05-9.64387E-19-1.37918E-18
 -1      3837 7.16995E-05-1.39985E-05-2.46108E-05 9.03615E-06-1.00340E-18 1.31845E-18
 -1      3838 9.19630E-05-2.48172E-05-2.87881E-05 2.29560E-06 1.08577E-18-1.33940E-18
 -1      3839 9.13547E-05-2.42706E-05-2.87606E-05 2.55196E-06 1.46294E-18-1.05378E-18
 -1      3840 9.04653E-05-2.36668E-05-2.86041E-05 1.87991E-06 1.28775E-18-6.94120E-19
 -1      3841 1.07392E-04-1.73436E-05-3.85852E-05 4.83634E-06-1.51629E-18-2.58587E-18
 -1      3842 7.68021E-05-1.58178E-05-2.61907E-05 2.55787E-06-6.12782E-19 6.57657E-19
 -1      3843 7.36799E-05-1.45774E-05-2.53413E-05 2.48827E-06-7.31780E-19 1.43537E-18
 -1      3844 7.76104E-05-1.62363E-05-2.61899E-05-2.65590E-07-1.88010E-20 6.81574E-19
 -1      3845 1.06614E-04-1.51335E-05-3.92488E-05-3.60731E-06-1.62010E-18-2.17459E-18
 -1      3846 1.08148E-04-1.55600E-05-3.99018E-05-7.64567E-06-1.55117E-18-1.83828E-18
 -1      3847 9.40829E-05-2.69382E-05-2.87708E-05 1.01853E-06-2.79413E-19-4.43464E-19
 -1      3848 6.64647E-05-1.45406E-05-2.22236E-05-1.15470E-05-5.14612E-19 1.43882E-18
 -1      3849 6.87585E-05-1.71061E-05-2.20699E-05-1.66565E-05-1.44207E-19 1.32406E-18
 -1      3850 7.52414E-05-1.99424E-05-2.36423E-05-1.59002E-05 9.94106E-21 3.77445E-19
 -1      3851 9.52410E-05-2.85766E-05-2.85705E-05-6.72080E-09-4.61118E-19-4.66093E-19
 -1      3852 9.52413E-05-2.85768E-05-2.85705E-05-7.27573E-09-9.08230E-19 3.36244E-19
 -1      3853 9.52428E-05-2.85779E-05-2.85707E-05-7.00610E-09-7.69777E-19 6.15660E-19
 -1      3854 9.52417E-05-2.85771E-05-2.85706E-05-6.30868E-09-6.57747E-19-3.23758E-19
 -1      3855 9.52439E-05-2.85786E-05-2.85708E-05-3.78037E-09 6.41441E-19 7.69698E-19
 -1      3856 9.52435E-05-2.85784E-05-2.85708E-05-4.61840E-09-4.19719E-19 2.35659E-18
 -1      3857 9.52448E-05-2.85792E-05-2.85710E-05 5.93010E-10 3.35217E-21-2.38462E-18
 -1      3858 9.52448E-05-2.85792E-05-2.85710E-05-5.31653E-10 1.03933E-18-2.45565E-18
 -1      3859 1.14287E-04-4.53341E-05-2.95426E-05-7.31671E-06 1.74341E-18-9.42358E-19
 -1      3860 1.18630E-04-4.71826E-05-3.05934E-05-4.80028E-06 1.83580E-18-1.35739E-18
 -1      3861 7.05384E-05-1.33684E-05-2.46203E-05 3.84611E-06-8.33356E-19 1.72498E-18
 -1      3862 6.91151E-05-1.31661E-05-2.38993E-05 6.30439E-06-6.85812E-19 1.86389E-18
 -1      3863 6.57390E-05-1.18963E-05-2.29622E-05 3.37753E-06-6.57058E-19 2.02689E-18
 -1      3864 7.16626E-05-1.36611E-05-2.47114E-05-7.47005E-08-6.23578E-19 1.63300E-18
 -1      3865 9.52447E-05-2.85792E-05-2.85709E-05-1.65926E-09 1.38483E-18-1.66311E-18
 -1      3866 9.52443E-05-2.85789E-05-2.85709E-05-2.74038E-09 8.83397E-19-1.33313E-18
 -1      3867 9.52451E-05-2.85794E-05-2.85710E-05-3.26741E-09 3.64709E-19 2.15480E-19
 -1      3868 9.52457E-05-2.85797E-05-2.85711E-05-1.08072E-09-6.16972E-20-2.63878E-18
 -1      3869 9.52450E-05-2.85793E-05-2.85710E-05 1.76176E-09 1.25118E-19-9.80359E-19
 -1      3870 9.52460E-05-2.85799E-05-2.85712E-05 1.19299E-09-6.72590E-20-1.89846E-18
 -1      3871 9.52451E-05-2.85794E-05-2.85710E-05 2.79289E-09 1.00129E-18-9.80800E-20
 -1      3872 6.43002E-05-1.20345E-05-2.23809E-05-3.93211E-06-9.43572E-19 1.90024E-18
 -1      3873 1.05848E-04-4.28143E-05-2.68610E-05-1.91156E-05 2.00065E-18-5.36120E-19
 -1      3874 1.09274E-04-4.40158E-05-2.79616E-05-1.44817E-05 2.12338E-18-9.06931E-19
 -1      3875 1.00027E-04-3.85422E-05-2.64102E-05-1.90962E-05 1.71884E-18-5.58463E-19
 -1      3876 8.66832E-05-2.92625E-05-2.44978E-05-2.10767E-05 1.17209E-18-3.74703E-19
 -1      3877 9.29767E-05-2.57440E-05-2.88228E-05 1.91440E-06 2.64344E-19-1.04844E-18
 -1      3878 9.25596E-05-2.53239E-05-2.88212E-05 2.15706E-06 5.35513E-19-1.55679E-18
 -1      3879 9.18626E-05-2.48097E-05-2.87201E-05 1.73399E-06 9.24674E-19-1.72876E-18
 -1      3880 9.28626E-05-2.57068E-05-2.87694E-05 1.50934E-06-4.05518E-19-1.28209E-18
 -1      3881 1.08007E-04-1.80048E-05-3.85315E-05-9.72829E-06-1.34961E-18-1.79747E-18
 -1      3882 1.10786E-04-4.42790E-05-2.85386E-05-1.16673E-05 1.80716E-18-7.77464E-19
 -1      3883 1.11243E-04-4.28820E-05-2.92658E-05-6.35238E-06 1.44924E-18-6.74844E-19
 -1      3884 1.08328E-04-4.11900E-05-2.87037E-05-7.87768E-06 9.11823E-19-6.70802E-19
 -1      3885 1.06025E-04-4.11640E-05-2.78340E-05-1.32491E-05 1.56243E-18-2.90603E-19
 -1      3886 1.06363E-04-1.51600E-05-3.92316E-05 8.65029E-07-1.82634E-18-2.43411E-18
 -1      3887 1.17350E-04-3.78487E-05-3.40724E-05 8.50935E-06 5.96450E-19-2.53401E-18
 -1      3888 1.19976E-04-4.13155E-05-3.37154E-05 5.65737E-06 1.10788E-18-2.10203E-18
 -1      3889 9.40353E-05-2.69698E-05-2.87460E-05 7.69114E-07-5.60973E-19 3.90749E-19
 -1      3890 9.38194E-05-2.67364E-05-2.87527E-05 8.71761E-07-3.34763E-19 2.04210E-24
 -1      3891 1.05314E-04-3.88620E-05-2.84446E-05-8.08046E-06 7.31621E-19-6.87218E-19
 -1      3892 1.02852E-04-3.69739E-05-2.81978E-05-8.51010E-06 8.39669E-19-8.49251E-19
 -1      3893 1.04601E-04-3.90952E-05-2.81297E-05-1.04320E-05 8.68394E-19-4.93940E-19
 -1      3894 1.00782E-04-3.50385E-05-2.81454E-05-8.06104E-06 7.66761E-19-4.88266E-19
 -1      3895 9.89081E-05-3.33769E-05-2.80724E-05-7.88934E-06 4.03885E-19-2.52806E-19
 -1      3896 9.97538E-05-3.48578E-05-2.78782E-05-9.83733E-06 8.98664E-19-9.95065E-20
 -1      3897 9.76178E-05-3.19663E-05-2.81137E-05-7.18198E-06-8.65262E-20-2.70344E-20
 -1      3898 9.63327E-05-3.07150E-05-2.81248E-05-6.73364E-06-6.02010E-19-1.49648E-19
 -1      3899 9.65840E-05-3.15591E-05-2.79115E-05-8.33212E-06 3.02303E-19-2.49091E-19
 -1      3900 9.56125E-05-2.97764E-05-2.81986E-05-6.00165E-06-2.40136E-19 2.27357E-19
 -1      3901 9.48031E-05-2.89217E-05-2.82439E-05-5.47606E-06 1.13997E-20 1.91069E-19
 -1      3902 9.46981E-05-2.92906E-05-2.80525E-05-6.68781E-06-2.86419E-19 2.91536E-19
 -1      3903 9.44616E-05-2.83522E-05-2.83207E-05-4.82126E-06 6.27055E-19 3.92882E-20
 -1      3904 9.40012E-05-2.78212E-05-2.83735E-05-4.31732E-06 1.24484E-18 8.21958E-20
 -1      3905 9.37082E-05-2.78843E-05-2.82177E-05-5.18992E-06 2.92632E-19 7.41009E-19
 -1      3906 9.38972E-05-2.75202E-05-2.84396E-05-3.77345E-06 1.29225E-18-2.72447E-19
 -1      3907 9.36747E-05-2.72295E-05-2.84866E-05-3.33311E-06 1.19880E-18-1.02570E-19
 -1      3908 9.33010E-05-2.71099E-05-2.83684E-05-3.93597E-06 1.17616E-18-7.61867E-19
 -1      3909 9.37097E-05-2.71117E-05-2.85374E-05-2.90011E-06 4.49982E-19 1.74706E-19
 -1      3910 9.36391E-05-2.69876E-05-2.85736E-05-2.53475E-06 2.03831E-19-1.99500E-19
 -1      3911 9.32495E-05-2.67695E-05-2.84889E-05-2.93752E-06 6.23978E-19-5.47482E-19
 -1      3912 9.37470E-05-2.69866E-05-2.86090E-05-2.19927E-06 6.40817E-19-4.47867E-19
 -1      3913 9.37659E-05-2.69702E-05-2.86337E-05-1.90558E-06 5.12236E-19-9.20292E-20
 -1      3914 9.33978E-05-2.67098E-05-2.85766E-05-2.16703E-06 5.16703E-19-6.84319E-19
 -1      3915 9.39042E-05-2.70374E-05-2.86560E-05-1.65025E-06 1.71331E-19-2.72380E-19
 -1      3916 9.39700E-05-2.70849E-05-2.86704E-05-1.41894E-06-6.73964E-20-3.42277E-19
 -1      3917 9.36426E-05-2.68181E-05-2.86348E-05-1.58462E-06 2.07511E-19-1.16685E-18
 -1      3918 9.41129E-05-2.71865E-05-2.86823E-05-1.22690E-06-5.28521E-20-3.30736E-19
 -1      3919 9.41978E-05-2.72670E-05-2.86887E-05-1.04724E-06-5.28537E-19-9.44814E-19
 -1      3920 9.39188E-05-2.70151E-05-2.86690E-05-1.15034E-06 4.85200E-20-3.81088E-19
 -1      3921 9.43307E-05-2.73806E-05-2.86930E-05-9.03983E-07-7.78137E-19-1.32569E-18
 -1      3922 9.44180E-05-2.74736E-05-2.86935E-05-7.65831E-07-5.99122E-19-1.97934E-18
 -1      3923 9.41881E-05-2.72481E-05-2.86851E-05-8.29372E-07-1.02505E-18-1.00499E-18
 -1      3924 9.45339E-05-2.75852E-05-2.86926E-05-6.59619E-07 2.56666E-20-2.26860E-18
 -1      3925 9.46142E-05-2.76779E-05-2.86891E-05-5.54252E-07 8.02772E-21-1.88759E-18
 -1      3926 9.44301E-05-2.74838E-05-2.86884E-05-5.93577E-07-3.48241E-19-2.22533E-18
 -1      3927 9.47107E-05-2.77799E-05-2.86850E-05-4.75920E-07 1.27070E-19-1.97291E-18
 -1      3928 9.47797E-05-2.78650E-05-2.86792E-05-3.96161E-07-2.86648E-20-2.59536E-18
 -1      3929 9.46360E-05-2.77029E-05-2.86833E-05-4.21091E-07 1.85709E-19-2.82219E-18
 -1      3930 9.48570E-05-2.79535E-05-2.86733E-05-3.38706E-07 2.38918E-19-1.93510E-18
 -1      3931 9.49133E-05-2.80275E-05-2.86664E-05-2.78804E-07 1.56506E-19-2.61967E-18
 -1      3932 9.48040E-05-2.78957E-05-2.86732E-05-2.95382E-07 7.42170E-20-2.85373E-18
 -1      3933 9.49734E-05-2.81015E-05-2.86597E-05-2.36936E-07-1.79451E-19-2.49637E-18
 -1      3934 9.50176E-05-2.81633E-05-2.86526E-05-1.92347E-07 2.17114E-19-1.97622E-18
 -1      3935 9.49365E-05-2.80585E-05-2.86606E-05-2.04141E-07-1.90742E-19-2.27014E-18
 -1      3936 9.50629E-05-2.82232E-05-2.86459E-05-1.62090E-07 1.27139E-18-1.94087E-18
 -1      3937 9.50963E-05-2.82732E-05-2.86390E-05-1.29250E-07 8.76591E-19-8.40933E-19
 -1      3938 9.50377E-05-2.81917E-05-2.86473E-05-1.38275E-07 1.20289E-18-1.31193E-18
 -1      3939 9.51295E-05-2.83205E-05-2.86327E-05-1.07620E-07-1.34509E-19-1.47130E-19
 -1      3940 9.51539E-05-2.83597E-05-2.86264E-05-8.37419E-08-1.28754E-19-9.44469E-19
 -1      3941 9.51128E-05-2.82977E-05-2.86343E-05-9.10791E-08 5.12422E-19-1.92726E-19
 -1      3942 9.51774E-05-2.83961E-05-2.86207E-05-6.85003E-08-9.29628E-20-1.70732E-18
 -1      3943 9.51945E-05-2.84262E-05-2.86152E-05-5.14109E-08-4.42199E-19-1.37742E-18
 -1      3944 9.51668E-05-2.83799E-05-2.86224E-05-5.76112E-08-6.18429E-19-1.14195E-18
 -1      3945 9.52106E-05-2.84536E-05-2.86103E-05-4.08726E-08-2.42467E-19-1.66037E-18
 -1      3946 9.52221E-05-2.84760E-05-2.86056E-05-2.88826E-08 1.24496E-20-1.58840E-18
 -1      3947 9.52043E-05-2.84423E-05-2.86119E-05-3.42131E-08-4.63536E-19-1.58068E-18
 -1      3948 9.52325E-05-2.84960E-05-2.86014E-05-2.17804E-08-1.98302E-19-1.68688E-18
 -1      3949 9.52398E-05-2.85123E-05-2.85975E-05-1.35800E-08-3.20809E-19-2.03056E-18
 -1      3950 9.52292E-05-2.84885E-05-2.86030E-05-1.81704E-08-3.54514E-19-2.37493E-18
 -1      3951 9.52462E-05-2.85266E-05-2.85941E-05-8.96044E-09 4.26516E-19-2.25904E-18
 -1      3952 9.52504E-05-2.85382E-05-2.85910E-05-3.53952E-09 1.56858E-18-1.95694E-18
 -1      3953 9.52449E-05-2.85218E-05-2.85955E-05-7.46192E-09 3.26097E-19-1.74360E-18
 -1      3954 9.52539E-05-2.85480E-05-2.85883E-05-6.87990E-10 1.50055E-18-1.86540E-18
 -1      3955 9.52560E-05-2.85559E-05-2.85858E-05 2.72701E-09 1.44318E-18-9.93741E-19
 -1      3956 9.52539E-05-2.85451E-05-2.85894E-05-5.81380E-10 1.57803E-18-2.03272E-18
 -1      3957 9.52575E-05-2.85624E-05-2.85836E-05 4.34317E-09-1.13684E-19-1.17500E-18
 -1      3958 9.52581E-05-2.85676E-05-2.85816E-05 6.33922E-09-1.33362E-18-1.42010E-18
 -1      3959 9.52582E-05-2.85608E-05-2.85846E-05 3.59118E-09 9.10815E-20-1.99206E-18
 -1      3960 9.52583E-05-2.85717E-05-2.85800E-05 7.11391E-09-1.09876E-18-1.57037E-18
 -1      3961 9.52580E-05-2.85748E-05-2.85785E-05 8.13139E-09-1.31246E-18-9.94993E-19
 -1      3962 9.52594E-05-2.85710E-05-2.85808E-05 5.88532E-09-9.35512E-19-2.13898E-18
 -1      3963 9.52574E-05-2.85772E-05-2.85772E-05 8.35254E-09-6.15096E-19 3.48930E-19
 -1      3964 9.52566E-05-2.85789E-05-2.85761E-05 8.71730E-09 3.70100E-19 1.07334E-18
 -1      3965 9.52587E-05-2.85771E-05-2.85779E-05 6.91083E-09 1.95727E-19 7.08279E-19
 -1      3966 9.52555E-05-2.85801E-05-2.85752E-05 8.59212E-09 1.79505E-18 1.80451E-19
 -1      3967 9.52544E-05-2.85809E-05-2.85743E-05 8.54118E-09 1.87838E-18-4.66132E-19
 -1      3968 9.52569E-05-2.85804E-05-2.85757E-05 7.11087E-09 7.99030E-19 1.27762E-18
 -1      3969 9.52531E-05-2.85813E-05-2.85736E-05 8.21588E-09 6.81154E-19-1.23612E-18
 -1      3970 9.52519E-05-2.85814E-05-2.85731E-05 7.91787E-09 1.03114E-18-1.92373E-18
 -1      3971 9.52544E-05-2.85817E-05-2.85740E-05 6.80261E-09 2.37550E-19-1.41019E-18
 -1      3972 9.52506E-05-2.85813E-05-2.85726E-05 7.49237E-09 1.38578E-18-1.29671E-18
 -1      3973 9.52494E-05-2.85811E-05-2.85721E-05 7.06215E-09 6.06397E-19-2.15493E-18
 -1      3974 9.52518E-05-2.85818E-05-2.85729E-05 6.20957E-09 9.55250E-19-2.65167E-18
 -1      3975 9.52482E-05-2.85807E-05-2.85718E-05 6.60828E-09 5.04881E-19-2.03230E-18
 -1      3976 9.52471E-05-2.85802E-05-2.85715E-05 6.12478E-09 1.17521E-18-2.05664E-18
 -1      3977 9.52492E-05-2.85812E-05-2.85720E-05 5.48983E-09 7.50427E-19-1.81766E-18
 -1      3978 9.35333E-05-2.64625E-05-2.87491E-05 9.26698E-07-5.73021E-19-3.50204E-19
 -1      3979 9.32313E-05-2.61640E-05-2.87480E-05 1.03183E-06-1.06487E-18 5.04264E-20
 -1      3980 9.35390E-05-2.64972E-05-2.87251E-05 6.63160E-07-6.30684E-19-1.44474E-19
 -1      3981 9.48537E-05-2.79110E-05-2.86915E-05 3.59000E-07 1.35978E-19 8.71796E-19
 -1      3982 9.47774E-05-2.78038E-05-2.87032E-05 4.24632E-07-5.01436E-20 1.07008E-18
 -1      3983 9.46643E-05-2.76740E-05-2.87124E-05 4.76926E-07-4.68461E-19 8.51213E-19
 -1      3984 9.45557E-05-2.75342E-05-2.87242E-05 5.56454E-07-7.38464E-19 6.58344E-19
 -1      3985 9.46522E-05-2.76749E-05-2.87020E-05 3.71052E-07-4.08236E-19 4.30231E-19
 -1      3986 9.50829E-05-2.82294E-05-2.86526E-05 1.85930E-07-2.07388E-19 6.26722E-19
 -1      3987 9.50464E-05-2.81677E-05-2.86621E-05 2.26842E-07-2.53187E-20 7.47994E-19
 -1      3988 9.51483E-05-2.83324E-05-2.86362E-05 1.27001E-07 4.41969E-19 4.28693E-19
 -1      3989 9.51236E-05-2.82862E-05-2.86444E-05 1.58096E-07-3.40552E-19 7.64422E-20
 -1      3990 9.50783E-05-2.82287E-05-2.86490E-05 1.48654E-07 2.72892E-19 9.78662E-19
 -1      3991 9.51925E-05-2.84087E-05-2.86222E-05 8.28245E-08 5.45757E-19 1.11961E-18
 -1      3992 9.51762E-05-2.83746E-05-2.86290E-05 1.05890E-07 7.58918E-19 5.98611E-19
 -1      3993 9.51458E-05-2.83322E-05-2.86338E-05 1.01927E-07 2.09114E-19 8.29210E-19
 -1      3994 9.52215E-05-2.84645E-05-2.86105E-05 5.05972E-08 4.57635E-19 8.24846E-19
 -1      3995 9.52111E-05-2.84396E-05-2.86162E-05 6.72769E-08 1.00314E-18 1.14007E-18
 -1      3996 9.51916E-05-2.84091E-05-2.86207E-05 6.66015E-08 8.24707E-19 1.02890E-18
 -1      3997 9.52397E-05-2.85046E-05-2.86010E-05 2.77452E-08-3.24800E-19 1.75098E-20
 -1      3998 9.52334E-05-2.84868E-05-2.86055E-05 3.94872E-08 5.63685E-20 4.47955E-19
 -1      3999 9.52218E-05-2.84654E-05-2.86097E-05 4.06754E-08 6.41982E-19 1.26587E-18
 -1      4000 9.52507E-05-2.85340E-05-2.85931E-05 1.14871E-08-8.25778E-19 2.28826E-19
 -1      4001 9.52472E-05-2.85211E-05-2.85968E-05 1.97191E-08-1.20993E-18-2.93155E-19
 -1      4002 9.52410E-05-2.85065E-05-2.86004E-05 2.19105E-08-5.20902E-19 1.89728E-18
 -1      4003 9.52560E-05-2.85529E-05-2.85872E-05 1.49493E-09-4.69935E-19 1.25468E-18
 -1      4004 9.52546E-05-2.85446E-05-2.85899E-05 6.56204E-09-3.13047E-19 1.05702E-18
 -1      4005 9.52522E-05-2.85352E-05-2.85929E-05 9.10936E-09-1.39867E-18 2.03486E-18
 -1      4006 9.52580E-05-2.85655E-05-2.85826E-05-4.66724E-09-1.11954E-18 2.15615E-18
 -1      4007 9.52577E-05-2.85600E-05-2.85847E-05-1.58428E-09-6.03350E-19 1.47483E-18
 -1      4008 9.52576E-05-2.85542E-05-2.85871E-05 1.00976E-09-8.82711E-19 2.32028E-18
 -1      4009 9.52578E-05-2.85733E-05-2.85791E-05-8.10361E-09 8.73819E-19 2.26981E-18
 -1      4010 9.52583E-05-2.85700E-05-2.85807E-05-6.41206E-09-2.75771E-19 1.71506E-18
 -1      4011 9.52596E-05-2.85667E-05-2.85827E-05-3.96860E-09-6.77480E-19 2.70555E-18
 -1      4012 9.52563E-05-2.85779E-05-2.85765E-05-9.67536E-09 1.15567E-18 2.32922E-18
 -1      4013 9.52572E-05-2.85760E-05-2.85776E-05-8.92982E-09 1.42566E-18 2.83687E-18
 -1      4014 9.52593E-05-2.85745E-05-2.85792E-05-6.73413E-09 6.39503E-19 3.11936E-18
 -1      4015 9.52542E-05-2.85802E-05-2.85746E-05-1.00241E-08 6.59892E-19 1.46310E-18
 -1      4016 9.52553E-05-2.85793E-05-2.85754E-05-9.89493E-09 8.87005E-19 2.16825E-18
 -1      4017 9.52576E-05-2.85789E-05-2.85766E-05-7.98581E-09 1.32974E-18 3.26999E-18
 -1      4018 9.52518E-05-2.85810E-05-2.85732E-05-9.61574E-09-8.52979E-19 2.61062E-18
 -1      4019 9.52529E-05-2.85807E-05-2.85738E-05-9.86499E-09 4.16847E-19 2.13970E-18
 -1      4020 9.52553E-05-2.85810E-05-2.85747E-05-8.24558E-09 3.64926E-19 2.64850E-18
 -1      4021 9.52494E-05-2.85808E-05-2.85722E-05-8.77922E-09-4.61816E-19 3.08677E-18
 -1      4022 9.52504E-05-2.85810E-05-2.85726E-05-9.23985E-09-4.05685E-20 2.95506E-18
 -1      4023 9.52527E-05-2.85817E-05-2.85733E-05-7.89315E-09-3.99120E-19 2.09621E-18
 -1      4024 9.52471E-05-2.85801E-05-2.85715E-05-7.73803E-09 1.96883E-19 6.49984E-19
 -1      4025 9.52481E-05-2.85805E-05-2.85718E-05-8.29933E-09-7.45013E-19 1.52582E-18
 -1      4026 9.52501E-05-2.85814E-05-2.85723E-05-7.19619E-09 1.50754E-19 1.61759E-18
 -1      4027 9.52450E-05-2.85791E-05-2.85711E-05-6.63083E-09 3.89726E-19 1.76836E-18
 -1      4028 9.52459E-05-2.85796E-05-2.85712E-05-7.22683E-09 5.94224E-19 5.10145E-19
 -1      4029 9.52476E-05-2.85806E-05-2.85716E-05-6.35400E-09 8.14288E-20 1.63095E-19
 -1      4030 1.09649E-04-2.14822E-05-3.79748E-05-1.22856E-05-1.09916E-18-1.57847E-18
 -1      4031 9.52446E-05-2.85790E-05-2.85710E-05 4.79253E-09 1.63644E-18 3.07300E-19
 -1      4032 9.52448E-05-2.85792E-05-2.85710E-05 3.75983E-09 1.50578E-18 3.43831E-19
 -1      4033 9.52460E-05-2.85799E-05-2.85712E-05 3.36567E-09 2.29489E-18 7.34337E-19
 -1      4034 9.52453E-05-2.85793E-05-2.85711E-05 5.24282E-09 1.47628E-18-4.64850E-19
 -1      4035 9.44004E-05-2.73664E-05-2.87318E-05 6.15295E-07-1.00349E-18 5.71136E-19
 -1      4036 9.42469E-05-2.71851E-05-2.87422E-05 7.08028E-07-9.27521E-19 4.18942E-19
 -1      4037 9.40276E-05-2.69855E-05-2.87272E-05 5.72580E-07-1.08057E-18 1.17995E-18
 -1      4038 9.43882E-05-2.73719E-05-2.87176E-05 4.70197E-07-6.22212E-19 6.75382E-19
 -1      4039 1.20457E-04-4.41666E-05-3.26598E-05 2.88943E-06 1.68096E-18-1.90397E-18
 -1      4040 8.35871E-05-2.57412E-05-2.47055E-05-1.82923E-05 3.03770E-19-6.74682E-19
 -1      4041 9.16092E-05-3.21073E-05-2.55516E-05-1.94542E-05 1.22155E-18-9.27342E-19
 -1      4042 8.88575E-05-2.27236E-05-2.83505E-05 8.63788E-07 4.60257E-19-4.57451E-19
 -1      4043 8.77356E-05-2.20065E-05-2.81995E-05 7.20085E-07-9.63955E-21-5.12484E-19
 -1      4044 1.18045E-04-4.45611E-05-3.15272E-05-5.37494E-08 1.51981E-18-1.67553E-18
 -1      4045 6.98129E-05-1.45143E-05-2.36522E-05-6.15639E-06-6.72852E-19 1.46300E-18
 -1      4046 9.49884E-05-2.80922E-05-2.86712E-05 2.62447E-07 2.31596E-19 4.87645E-19
 -1      4047 9.49352E-05-2.80105E-05-2.86820E-05 3.14963E-07 5.63551E-19 8.33352E-19
 -1      4048 9.49811E-05-2.80910E-05-2.86659E-05 2.08578E-07 2.44145E-19 4.17763E-19
 -1      4049 7.94209E-05-1.77562E-05-2.64401E-05-2.60372E-06 1.65621E-19 3.33594E-19
 -1      4050 7.64436E-05-1.66058E-05-2.57426E-05-3.64390E-06 4.64346E-20 7.39188E-19
 -1      4051 7.27513E-05-1.56815E-05-2.44548E-05-6.78072E-06-2.85513E-19 1.00211E-18
 -1      4052 9.52468E-05-2.85802E-05-2.85714E-05 4.71747E-09 2.28641E-18 2.39181E-19
 -1      4053 9.52460E-05-2.85797E-05-2.85713E-05 5.66911E-09 2.37047E-18-2.00484E-18
 -1      4054 8.97809E-05-2.33750E-05-2.84794E-05 1.09813E-06 1.17672E-18-7.35522E-19
 -1      4055 8.92401E-05-2.30911E-05-2.83245E-05 6.75733E-08 1.08660E-18-8.13171E-19
 -1      4056 9.06155E-05-2.39811E-05-2.85642E-05 1.11518E-06 1.50752E-18-4.36626E-19
 -1      4057 9.48437E-05-2.79101E-05-2.86840E-05 2.82825E-07 3.96404E-19-5.81298E-19
 -1      4058 9.52441E-05-2.85787E-05-2.85709E-05-5.83055E-09-4.33647E-19 1.81320E-18
 -1      4059 9.52456E-05-2.85796E-05-2.85711E-05-5.10655E-09-4.94322E-19 1.66485E-18
 -1      4060 7.74445E-05-2.05462E-05-2.44563E-05-1.42458E-05 7.87145E-20 1.06763E-19
 -1      4061 8.06202E-05-2.32893E-05-2.45273E-05-1.69699E-05 2.79714E-19-3.94607E-19
 -1      4062 8.57571E-05-2.61708E-05-2.54908E-05-1.58436E-05 3.44541E-19-1.14398E-18
 -1      4063 9.52472E-05-2.85806E-05-2.85714E-05 1.35347E-09 8.06308E-19-4.01640E-19
 -1      4064 9.52469E-05-2.85804E-05-2.85714E-05 1.18964E-10-8.83322E-20-2.44838E-18
 -1      4065 8.65583E-05-2.12671E-05-2.79911E-05 2.78929E-07-9.88515E-19-1.79451E-19
 -1      4066 8.50228E-05-2.04162E-05-2.77324E-05-6.24852E-08-1.25749E-18-6.63424E-19
 -1      4067 8.71927E-05-2.18174E-05-2.79841E-05-7.64579E-07-4.75475E-19-3.41986E-19
 -1      4068 9.52436E-05-2.85783E-05-2.85708E-05-5.53827E-09-1.06170E-18 1.49204E-18
 -1      4069 9.52424E-05-2.85776E-05-2.85706E-05-5.77394E-09-1.09243E-18 1.04091E-18
 -1      4070 9.52467E-05-2.85803E-05-2.85713E-05-2.82967E-09-1.11108E-18-1.98392E-18
 -1      4071 9.52462E-05-2.85800E-05-2.85713E-05-3.87710E-09-7.59242E-19-4.81916E-19
 -1      4072 9.52471E-05-2.85804E-05-2.85715E-05-4.65890E-09 1.06484E-19-3.71653E-19
 -1      4073 9.61117E-05-3.47646E-05-2.61735E-05-1.82431E-05 1.41084E-18-2.42167E-19
 -1      4074 1.00208E-04-3.72821E-05-2.69844E-05-1.58127E-05 1.43949E-18-1.58445E-19
 -1      4075 9.24128E-05-3.13901E-05-2.62008E-05-1.64546E-05 5.71119E-19-6.74536E-19
 -1      4076 9.52469E-05-2.85804E-05-2.85713E-05-1.03465E-09-3.99090E-19-2.29994E-18
 -1      4077 9.28419E-05-2.58141E-05-2.87314E-05 1.06636E-06-1.01827E-18 2.49638E-19
 -1      4078 9.24145E-05-2.54303E-05-2.87155E-05 1.16068E-06-2.52673E-19 4.66730E-20
 -1      4079 9.28767E-05-2.58825E-05-2.87019E-05 7.15806E-07-8.25956E-19 2.49554E-19
 -1      4080 8.35063E-05-1.96099E-05-2.73971E-05-8.14176E-07-6.85073E-19-4.97547E-19
 -1      4081 8.13857E-05-1.86234E-05-2.69681E-05-1.47244E-06-4.57018E-19 1.68988E-19
 -1      4082 8.11325E-05-1.88583E-05-2.65818E-05-4.40590E-06 3.32899E-20 5.04072E-19
 -1      4083 8.45888E-05-2.04371E-05-2.74428E-05-2.16674E-06-7.59767E-19-1.20547E-19
 -1      4084 1.03285E-04-3.87420E-05-2.76307E-05-1.30029E-05 1.10623E-18-1.63009E-19
 -1      4085 7.60494E-05-1.76876E-05-2.48930E-05-9.20995E-06 5.11371E-20 7.53975E-19
 -1      4086 9.52483E-05-2.85810E-05-2.85717E-05 3.98045E-09 1.92655E-18 1.04062E-18
 -1      4087 9.52472E-05-2.85804E-05-2.85715E-05 3.63710E-09 2.65361E-18 1.60030E-18
 -1      4088 9.52474E-05-2.85806E-05-2.85715E-05 2.65673E-09 2.00197E-18 1.21961E-18
 -1      4089 9.87703E-05-3.45131E-05-2.75072E-05-1.17329E-05 7.01727E-19 1.50229E-19
 -1      4090 9.67411E-05-3.25452E-05-2.74982E-05-1.09170E-05 4.87173E-19-3.98522E-19
 -1      4091 9.55308E-05-3.09662E-05-2.76343E-05-9.58431E-06 3.57141E-19-9.30927E-19
 -1      4092 9.42706E-05-2.96093E-05-2.77051E-05-8.65978E-06 1.60888E-19-6.01804E-19
 -1      4093 9.39958E-05-3.05388E-05-2.72588E-05-1.14191E-05-3.98656E-20-8.34168E-19
 -1      4094 9.37443E-05-2.86829E-05-2.78535E-05-7.44050E-06 1.25738E-19-8.02740E-19
 -1      4095 9.30315E-05-2.78381E-05-2.79455E-05-6.60561E-06 2.29067E-19-1.57106E-19
 -1      4096 9.23669E-05-2.80902E-05-2.75788E-05-8.60252E-06 1.28200E-19-1.27732E-18
 -1      4097 9.28931E-05-2.73195E-05-2.80791E-05-5.60133E-06-1.22780E-19-1.09706E-19
 -1      4098 9.25533E-05-2.68515E-05-2.81668E-05-4.90254E-06 1.17474E-19-5.38270E-19
 -1      4099 9.17525E-05-2.67076E-05-2.78877E-05-6.28779E-06 1.73358E-19-8.81880E-19
 -1      4100 9.26298E-05-2.66180E-05-2.82742E-05-4.12919E-06 5.69527E-19-3.90047E-19
 -1      4101 9.25252E-05-2.64051E-05-2.83467E-05-3.57263E-06 7.40150E-19-6.49657E-19
 -1      4102 9.17269E-05-2.60643E-05-2.81442E-05-4.49253E-06 2.99372E-19-2.51417E-19
 -1      4103 9.27110E-05-2.63559E-05-2.84269E-05-2.99619E-06 7.48314E-19-9.35040E-19
 -1      4104 9.27441E-05-2.63084E-05-2.84812E-05-2.56777E-06 4.34263E-19-7.41956E-19
 -1      4105 9.20092E-05-2.58782E-05-2.83407E-05-3.15334E-06 4.06939E-19-9.46558E-19
 -1      4106 9.29733E-05-2.63700E-05-2.85372E-05-2.14927E-06 1.33099E-19-1.01203E-18
 -1      4107 9.30789E-05-2.64220E-05-2.85747E-05-1.82676E-06 1.69023E-19-1.43482E-18
 -1      4108 9.24357E-05-2.59706E-05-2.84818E-05-2.18220E-06 1.43303E-19-1.40907E-18
 -1      4109 9.33125E-05-2.65432E-05-2.86111E-05-1.52877E-06 5.39427E-19-1.34397E-18
 -1      4110 9.34485E-05-2.66486E-05-2.86345E-05-1.28952E-06 3.60751E-19-1.16431E-18
 -1      4111 9.29048E-05-2.62160E-05-2.85770E-05-1.49332E-06 1.76280E-19-1.38503E-18
 -1      4112 9.36652E-05-2.67953E-05-2.86561E-05-1.08044E-06 9.05188E-20-8.73783E-19
 -1      4113 9.38059E-05-2.69235E-05-2.86686E-05-9.04586E-07 1.64418E-19-9.23513E-19
 -1      4114 9.33584E-05-2.65310E-05-2.86363E-05-1.01281E-06 2.35392E-19-8.76141E-19
 -1      4115 9.39954E-05-2.70740E-05-2.86793E-05-7.59476E-07-5.64307E-19-7.54013E-19
 -1      4116 9.41264E-05-2.72056E-05-2.86840E-05-6.30951E-07-8.64208E-19-8.64414E-19
 -1      4117 9.37661E-05-2.68628E-05-2.86692E-05-6.81930E-07-1.42278E-19-1.62698E-18
 -1      4118 9.42854E-05-2.73472E-05-2.86872E-05-5.31072E-07-6.04730E-19-1.24718E-18
 -1      4119 9.43997E-05-2.74707E-05-2.86866E-05-4.37446E-07-1.74814E-19-1.59362E-18
 -1      4120 9.41153E-05-2.71801E-05-2.86834E-05-4.56309E-07-7.41323E-19-9.90688E-19
 -1      4121 9.45288E-05-2.75967E-05-2.86850E-05-3.69102E-07 4.82105E-20-1.80776E-18
 -1      4122 9.46238E-05-2.77063E-05-2.86810E-05-3.01041E-07-9.89784E-20-2.29587E-18
 -1      4123 9.44035E-05-2.74656E-05-2.86851E-05-3.03535E-07-6.57402E-19-7.35949E-19
 -1      4124 9.47257E-05-2.78140E-05-2.86765E-05-2.54482E-07 4.09934E-19-2.57032E-18
 -1      4125 9.48019E-05-2.79071E-05-2.86707E-05-2.05101E-07 6.28622E-19-1.91265E-18
 -1      4126 9.46344E-05-2.77120E-05-2.86790E-05-2.00563E-07 4.74647E-20-1.78043E-18
 -1      4127 9.48803E-05-2.79963E-05-2.86647E-05-1.73498E-07 1.99307E-19-1.83594E-18
 -1      4128 9.49395E-05-2.80731E-05-2.86581E-05-1.37768E-07-1.05048E-19-1.42810E-18
 -1      4129 9.48146E-05-2.79179E-05-2.86684E-05-1.31354E-07 4.50879E-19-1.21618E-18
 -1      4130 9.49983E-05-2.81449E-05-2.86516E-05-1.16402E-07 3.82783E-19-1.27421E-18
 -1      4131 9.50429E-05-2.82065E-05-2.86449E-05-9.06626E-08 1.51164E-18-1.05172E-18
 -1      4132 9.49517E-05-2.80853E-05-2.86558E-05-8.49218E-08 8.68389E-20-5.04291E-20
 -1      4133 9.50859E-05-2.82631E-05-2.86385E-05-7.62952E-08 9.49238E-19-1.79659E-18
 -1      4134 9.51185E-05-2.83112E-05-2.86322E-05-5.78788E-08-1.89617E-19-1.35469E-18
 -1      4135 9.50535E-05-2.82183E-05-2.86428E-05-5.38221E-08 6.14133E-19-7.38090E-19
 -1      4136 9.51491E-05-2.83547E-05-2.86263E-05-4.82975E-08-1.22399E-18-1.56390E-18
 -1      4137 9.51722E-05-2.83915E-05-2.86206E-05-3.52527E-08-9.39350E-19-1.46801E-18
 -1      4138 9.51272E-05-2.83216E-05-2.86303E-05-3.30512E-08-1.23379E-18-2.03193E-18
 -1      4139 9.51933E-05-2.84243E-05-2.86153E-05-2.89461E-08-7.01033E-19-2.46059E-18
 -1      4140 9.52090E-05-2.84518E-05-2.86105E-05-1.98364E-08-6.20893E-19-2.39507E-18
 -1      4141 9.51790E-05-2.84003E-05-2.86190E-05-1.92551E-08-1.16767E-18-1.89352E-18
 -1      4142 9.52229E-05-2.84760E-05-2.86059E-05-1.57701E-08-1.59716E-19-2.00982E-18
 -1      4143 9.52331E-05-2.84960E-05-2.86018E-05-9.53545E-09 4.38804E-20-1.59354E-18
 -1      4144 9.52140E-05-2.84588E-05-2.86091E-05-1.01828E-08-3.59091E-19-2.17333E-18
 -1      4145 9.52418E-05-2.85133E-05-2.85980E-05-6.99728E-09-1.82840E-20-1.83243E-18
 -1      4146 9.52480E-05-2.85275E-05-2.85946E-05-2.84494E-09 3.44432E-19-1.36227E-18
 -1      4147 9.52368E-05-2.85014E-05-2.86007E-05-4.32262E-09-4.29503E-20-1.47826E-18
 -1      4148 9.52529E-05-2.85396E-05-2.85914E-05-1.34356E-09 9.15135E-19-1.44105E-18
 -1      4149 9.52562E-05-2.85494E-05-2.85887E-05 1.31436E-09 1.36301E-18-2.15861E-18
 -1      4150 9.52505E-05-2.85316E-05-2.85937E-05-6.40386E-10 4.14669E-19-1.10215E-18
 -1      4151 9.52586E-05-2.85575E-05-2.85862E-05 2.12083E-09 1.41622E-18-2.94327E-18
 -1      4152 9.52600E-05-2.85640E-05-2.85840E-05 3.72194E-09-6.34846E-19-2.99283E-18
 -1      4153 9.52579E-05-2.85524E-05-2.85880E-05 1.56390E-09 6.96954E-19-1.70851E-18
 -1      4154 9.52606E-05-2.85692E-05-2.85821E-05 4.07175E-09-6.84106E-19-2.09244E-18
 -1      4155 9.52608E-05-2.85732E-05-2.85804E-05 4.94044E-09 7.10198E-19-7.07189E-19
 -1      4156 9.52610E-05-2.85661E-05-2.85835E-05 2.77558E-09 8.10283E-20-2.02115E-18
 -1      4157 9.52603E-05-2.85763E-05-2.85789E-05 4.99946E-09 1.21861E-18-5.03462E-19
 -1      4158 9.52597E-05-2.85786E-05-2.85776E-05 5.37428E-09 8.50166E-19 7.31880E-19
 -1      4159 9.52614E-05-2.85747E-05-2.85800E-05 3.33126E-09 1.27003E-18-3.53775E-19
 -1      4160 9.52586E-05-2.85802E-05-2.85764E-05 5.25735E-09-4.42217E-19-4.46752E-19
 -1      4161 9.52575E-05-2.85814E-05-2.85755E-05 5.31170E-09-5.00517E-19-1.72632E-18
 -1      4162 9.52600E-05-2.85796E-05-2.85773E-05 3.46511E-09-5.10657E-19-1.73447E-18
 -1      4163 9.52561E-05-2.85820E-05-2.85746E-05 5.09739E-09 5.94250E-19-1.24959E-18
 -1      4164 9.52548E-05-2.85823E-05-2.85739E-05 4.95548E-09 7.64351E-19-9.65342E-19
 -1      4165 9.52576E-05-2.85820E-05-2.85753E-05 3.33960E-09 2.65535E-19-2.79471E-18
 -1      4166 9.52534E-05-2.85824E-05-2.85733E-05 4.69573E-09 1.93758E-19-2.49393E-19
 -1      4167 9.52520E-05-2.85822E-05-2.85728E-05 4.44439E-09-1.02816E-19-3.63424E-20
 -1      4168 9.52548E-05-2.85827E-05-2.85738E-05 3.06617E-09 8.06376E-19 5.75756E-20
 -1      4169 9.52508E-05-2.85819E-05-2.85724E-05 4.37736E-09 6.28701E-19-1.87726E-19
 -1      4170 9.52495E-05-2.85814E-05-2.85720E-05 4.06482E-09 2.18021E-18 1.02830E-18
 -1      4171 9.52497E-05-2.85817E-05-2.85721E-05 2.91164E-09 2.66039E-18 1.89417E-18
 -1      4172 9.52521E-05-2.85824E-05-2.85728E-05 2.92070E-09 3.44890E-19 8.77717E-19
 -1      4173 9.36002E-05-2.66178E-05-2.87093E-05 3.97908E-07-4.34804E-19-1.34409E-19
 -1      4174 9.33157E-05-2.63543E-05-2.87030E-05 4.19786E-07-8.39598E-19-4.37393E-19
 -1      4175 9.52481E-05-2.85810E-05-2.85716E-05-1.59356E-09-1.27549E-18-2.22207E-18
 -1      4176 9.51467E-05-2.83432E-05-2.86307E-05 7.17096E-08 3.96785E-19 8.00217E-19
 -1      4177 9.51190E-05-2.82977E-05-2.86377E-05 9.10742E-08 3.55530E-19 8.59459E-19
 -1      4178 9.50791E-05-2.82432E-05-2.86448E-05 1.04638E-07 4.49967E-20 6.67322E-19
 -1      4179 9.50387E-05-2.81826E-05-2.86527E-05 1.29566E-07-1.89847E-19 7.45697E-19
 -1      4180 9.50852E-05-2.82535E-05-2.86414E-05 7.26339E-08-2.91739E-20-5.21648E-19
 -1      4181 9.52231E-05-2.84718E-05-2.86080E-05 2.80488E-08 5.99532E-19 1.82679E-18
 -1      4182 9.52113E-05-2.84473E-05-2.86130E-05 3.87447E-08 1.37662E-18 2.22807E-18
 -1      4183 9.52429E-05-2.85123E-05-2.85990E-05 1.43463E-08-9.10452E-19 2.25562E-18
 -1      4184 9.52355E-05-2.84943E-05-2.86033E-05 2.21474E-08-5.13714E-20 2.27408E-18
 -1      4185 9.52262E-05-2.84774E-05-2.86065E-05 1.98428E-08 3.00888E-19 3.43688E-18
 -1      4186 9.52536E-05-2.85390E-05-2.85921E-05 5.55109E-09-1.02248E-18 2.31790E-18
 -1      4187 9.52498E-05-2.85271E-05-2.85954E-05 1.06070E-08-1.47133E-18 2.15034E-18
 -1      4188 9.52448E-05-2.85158E-05-2.85981E-05 1.03881E-08-7.96957E-19 2.31997E-18
 -1      4189 9.52590E-05-2.85571E-05-2.85866E-05-1.73439E-10-5.72289E-19 1.48882E-18
 -1      4190 9.52574E-05-2.85491E-05-2.85892E-05 3.10682E-09-3.84546E-19 1.70933E-18
 -1      4191 9.52551E-05-2.85416E-05-2.85915E-05 4.10587E-09-2.96755E-19 1.16682E-18
 -1      4192 9.52608E-05-2.85688E-05-2.85823E-05-3.63990E-09-2.90494E-19 1.16433E-18
 -1      4193 9.52605E-05-2.85637E-05-2.85843E-05-1.64799E-09-4.61165E-19 1.88138E-18
 -1      4194 9.52601E-05-2.85591E-05-2.85862E-05 3.75750E-12-7.00588E-19 5.69850E-19
 -1      4195 9.52603E-05-2.85760E-05-2.85790E-05-5.51181E-09 4.22105E-19 2.43872E-18
 -1      4196 9.52609E-05-2.85729E-05-2.85805E-05-4.42741E-09-4.97238E-20 1.50845E-18
 -1      4197 9.52616E-05-2.85703E-05-2.85820E-05-2.49227E-09-5.18151E-19 2.19831E-19
 -1      4198 9.52585E-05-2.85800E-05-2.85765E-05-6.29885E-09 1.31880E-18 2.03877E-18
 -1      4199 9.52596E-05-2.85784E-05-2.85776E-05-5.83157E-09 1.25466E-18 2.47100E-18
 -1      4200 9.52609E-05-2.85771E-05-2.85788E-05-3.84803E-09 1.03861E-18 7.24795E-20
 -1      4201 9.52560E-05-2.85818E-05-2.85746E-05-6.38163E-09 2.56617E-19 2.00489E-18
 -1      4202 9.52573E-05-2.85812E-05-2.85755E-05-6.31568E-09 9.33981E-19 2.75407E-18
 -1      4203 9.52589E-05-2.85808E-05-2.85764E-05-4.42545E-09 5.56752E-19 1.50862E-18
 -1      4204 9.52533E-05-2.85822E-05-2.85733E-05-6.03594E-09 2.69977E-19 5.57064E-19
 -1      4205 9.52546E-05-2.85822E-05-2.85739E-05-6.21536E-09 4.43446E-19 1.40649E-18
 -1      4206 9.52563E-05-2.85824E-05-2.85746E-05-4.49632E-09 1.00883E-18 1.71571E-18
 -1      4207 9.52505E-05-2.85817E-05-2.85723E-05-5.45520E-09-1.06536E-19-2.20289E-19
 -1      4208 9.52518E-05-2.85820E-05-2.85727E-05-5.77347E-09 5.39916E-19-5.25647E-19
 -1      4209 9.52534E-05-2.85826E-05-2.85733E-05-4.25939E-09 7.61770E-19 2.81262E-19
 -1      4210 9.52482E-05-2.85809E-05-2.85717E-05-4.87317E-09 1.26666E-19-1.17895E-18
 -1      4211 9.52494E-05-2.85814E-05-2.85720E-05-5.24458E-09-5.71589E-19-1.32605E-18
 -1      4212 9.52509E-05-2.85821E-05-2.85724E-05-3.93765E-09 6.29777E-19-9.15269E-19
 -1      4213 9.52488E-05-2.85813E-05-2.85718E-05-3.62024E-09-5.03840E-19-2.11440E-18
 -1      4214 9.52484E-05-2.85811E-05-2.85717E-05 1.54409E-09 1.43730E-18-9.18020E-20
 -1      4215 9.46588E-05-2.77132E-05-2.86927E-05 2.53849E-07 4.93288E-20-8.16324E-19
 -1      4216 9.45463E-05-2.75803E-05-2.87009E-05 2.95493E-07-7.92795E-20-2.04779E-19
 -1      4217 9.48464E-05-2.79372E-05-2.86767E-05 1.96500E-07 8.27376E-19-9.75845E-19
 -1      4218 9.47653E-05-2.78337E-05-2.86856E-05 2.33452E-07 5.90121E-19-6.43466E-19
 -1      4219 9.46782E-05-2.77402E-05-2.86854E-05 1.63899E-07 5.28379E-19-1.04275E-18
 -1      4220 9.18968E-05-2.49964E-05-2.86776E-05 1.14988E-06 4.08669E-19-2.39193E-19
 -1      4221 9.13019E-05-2.45138E-05-2.86363E-05 1.20758E-06 1.13965E-18-2.36443E-19
 -1      4222 9.08094E-05-2.41973E-05-2.85291E-05 5.05382E-07 1.12667E-18 1.86017E-19
 -1      4223 9.19876E-05-2.51206E-05-2.86435E-05 6.85706E-07 4.25366E-20 1.23029E-18
 -1      4224 9.51928E-05-2.84175E-05-2.86184E-05 4.65923E-08 8.60685E-19 8.70418E-19
 -1      4225 9.51743E-05-2.83839E-05-2.86244E-05 6.11728E-08 3.37724E-19 7.72805E-19
 -1      4226 9.51962E-05-2.84234E-05-2.86166E-05 3.30400E-08 3.19375E-19 2.33100E-18
 -1      4227 8.03711E-05-2.05368E-05-2.56286E-05-1.03388E-05 1.14968E-19 9.10428E-20
 -1      4228 9.49823E-05-2.81106E-05-2.86603E-05 1.46228E-07-5.69317E-19-8.78743E-20
 -1      4229 9.49246E-05-2.80309E-05-2.86690E-05 1.77224E-07 1.02458E-19-7.02832E-19
 -1      4230 9.48592E-05-2.79563E-05-2.86710E-05 1.31198E-07-2.50814E-20-1.36054E-18
 -1      4231 9.49910E-05-2.81245E-05-2.86559E-05 9.98818E-08-6.92560E-19-1.23203E-18
 -1      4232 9.40590E-05-2.70667E-05-2.87133E-05 3.67331E-07-1.11780E-18-1.89701E-19
 -1      4233 9.38485E-05-2.68545E-05-2.87150E-05 4.05427E-07-6.63777E-19-3.71471E-19
 -1      4234 9.36778E-05-2.67034E-05-2.86969E-05 1.87450E-07-5.18271E-19-8.62781E-19
 -1      4235 9.92726E-05-3.54957E-05-2.73622E-05-1.29548E-05 1.00315E-18 3.08921E-19
 -1      4236 9.58161E-05-3.29683E-05-2.69173E-05-1.41770E-05 6.30295E-19 2.90277E-19
 -1      4237 8.98223E-05-2.36819E-05-2.83457E-05-5.56617E-07 1.32817E-18-8.20651E-19
 -1      4238 8.89092E-05-2.31424E-05-2.82123E-05-9.27774E-07 8.14519E-19-9.22834E-19
 -1      4239 8.15797E-05-2.05973E-05-2.62442E-05-7.99338E-06-6.43877E-21-1.90944E-19
 -1      4240 8.37732E-05-2.30534E-05-2.59237E-05-1.21265E-05 9.91988E-20-2.74144E-19
 -1      4241 9.29902E-05-2.60627E-05-2.86859E-05 3.77591E-07-8.73543E-19 7.89545E-20
 -1      4242 9.26028E-05-2.57356E-05-2.86655E-05 3.63775E-07-5.61762E-19 3.48145E-19
 -1      4243 9.31153E-05-2.61917E-05-2.86727E-05 1.06934E-07-4.43911E-19-1.70142E-19
 -1      4244 8.58138E-05-2.56588E-05-2.58432E-05-1.44116E-05-1.49620E-20-9.64175E-19
 -1      4245 8.87755E-05-2.79597E-05-2.60230E-05-1.53480E-05-2.20063E-19-1.37475E-18
 -1      4246 9.25547E-05-3.07226E-05-2.65091E-05-1.47271E-05 1.34317E-19-4.78246E-19
 -1      4247 8.68114E-05-2.49925E-05-2.64323E-05-1.15920E-05-2.07306E-19-1.02637E-18
 -1      4248 9.52490E-05-2.85815E-05-2.85718E-05-4.41711E-11 4.13974E-19-1.89216E-18
 -1      4249 9.52489E-05-2.85813E-05-2.85718E-05-1.91087E-09-3.88291E-19-1.11430E-18
 -1      4250 9.52499E-05-2.85818E-05-2.85721E-05-2.01761E-09 1.23455E-18-6.93641E-19
 -1      4251 9.52493E-05-2.85815E-05-2.85719E-05 1.30691E-09 1.80567E-18 1.53339E-19
 -1      4252 9.51512E-05-2.83510E-05-2.86282E-05 5.03720E-08 3.06242E-19 6.19781E-19
 -1      4253 8.35112E-05-2.10489E-05-2.67679E-05-6.37846E-06-3.24840E-19-1.15486E-19
 -1      4254 8.81304E-05-2.26699E-05-2.80512E-05-1.49959E-06 2.27119E-19-9.02320E-19
 -1      4255 8.69708E-05-2.20967E-05-2.78406E-05-2.12295E-06-6.40950E-19-5.41786E-19
 -1      4256 8.89247E-05-2.33173E-05-2.80904E-05-2.12208E-06 4.40494E-19-1.07111E-18
 -1      4257 9.44032E-05-2.74273E-05-2.87060E-05 3.13830E-07-6.86921E-19-1.02143E-19
 -1      4258 9.42487E-05-2.72584E-05-2.87121E-05 3.56921E-07-9.39290E-19 2.48104E-20
 -1      4259 9.41074E-05-2.71241E-05-2.87024E-05 2.06095E-07-1.02408E-18-1.17730E-18
 -1      4260 9.44336E-05-2.74662E-05-2.86970E-05 1.92334E-07-6.90809E-19-8.77944E-19
 -1      4261 9.04679E-05-2.41316E-05-2.84484E-05-2.06518E-07 8.21036E-19-1.45076E-19
 -1      4262 9.03210E-05-2.41143E-05-2.83532E-05-1.08168E-06 5.84045E-19-4.86968E-19
 -1      4263 9.11494E-05-2.45935E-05-2.85255E-05-1.75659E-08 2.31680E-19 4.81411E-19
 -1      4264 9.07851E-05-2.69849E-05-2.73072E-05-9.23522E-06 2.84420E-20-7.73645E-19
 -1      4265 9.02425E-05-2.61584E-05-2.74823E-05-7.93122E-06-5.45389E-20-8.58776E-19
 -1      4266 9.05361E-05-2.58065E-05-2.77106E-05-6.54452E-06-3.69485E-20-1.03068E-18
 -1      4267 9.04033E-05-2.54400E-05-2.78622E-05-5.53333E-06 6.73726E-20-7.44303E-19
 -1      4268 8.88375E-05-2.47454E-05-2.74566E-05-7.04971E-06-8.27023E-20-8.20593E-19
 -1      4269 9.08040E-05-2.53469E-05-2.80327E-05-4.53574E-06 4.07909E-19-9.13273E-19
 -1      4270 9.08869E-05-2.52439E-05-2.81508E-05-3.77942E-06 3.72294E-19-7.45105E-19
 -1      4271 8.95663E-05-2.44969E-05-2.78730E-05-4.72371E-06 1.63455E-19-9.46198E-19
 -1      4272 9.13205E-05-2.53203E-05-2.82727E-05-3.07623E-06 5.43982E-19-8.23306E-19
 -1      4273 9.15124E-05-2.53760E-05-2.83588E-05-2.52807E-06 3.37082E-19-6.72296E-19
 -1      4274 9.04231E-05-2.46507E-05-2.81752E-05-3.07013E-06 2.31240E-19-7.19600E-19
 -1      4275 9.19260E-05-2.55430E-05-2.84419E-05-2.04755E-06 1.60151E-19-6.45813E-19
 -1      4276 9.21607E-05-2.56845E-05-2.85012E-05-1.65986E-06-7.85117E-20-6.75008E-19
 -1      4277 9.12823E-05-2.50254E-05-2.83844E-05-1.93834E-06 5.82835E-19 2.80257E-19
 -1      4278 9.25296E-05-2.58907E-05-2.85550E-05-1.33979E-06-1.82461E-19-4.66758E-19
 -1      4279 9.27681E-05-2.60707E-05-2.85932E-05-1.07065E-06 2.63045E-19-7.56682E-19
 -1      4280 9.20701E-05-2.54946E-05-2.85228E-05-1.18510E-06 7.47131E-20 1.68799E-19
 -1      4281 9.30833E-05-2.62847E-05-2.86257E-05-8.62941E-07-9.49523E-20-1.19994E-18
 -1      4282 9.33041E-05-2.64735E-05-2.86481E-05-6.78876E-07-1.53297E-19-1.50267E-18
 -1      4283 9.27561E-05-2.59834E-05-2.86092E-05-6.97624E-07-7.52713E-20-8.68171E-19
 -1      4284 9.35652E-05-2.66768E-05-2.86655E-05-5.47611E-07 1.64812E-20-1.54635E-18
 -1      4285 9.37582E-05-2.68569E-05-2.86766E-05-4.23106E-07-4.40930E-19-1.61676E-18
 -1      4286 9.33325E-05-2.64483E-05-2.86587E-05-3.91267E-07-1.78820E-19-1.41691E-18
 -1      4287 9.39690E-05-2.70397E-05-2.86838E-05-3.42657E-07-5.57033E-19-1.35837E-18
 -1      4288 9.41309E-05-2.72018E-05-2.86872E-05-2.59169E-07-5.77998E-19-8.37956E-19
 -1      4289 9.38038E-05-2.68667E-05-2.86827E-05-2.05259E-07-5.11848E-19-1.78727E-18
 -1      4290 9.42976E-05-2.73599E-05-2.86878E-05-2.11473E-07-9.00841E-19-6.54964E-19
 -1      4291 9.44289E-05-2.74999E-05-2.86863E-05-1.55800E-07-8.61395E-19-1.14553E-18
 -1      4292 9.41802E-05-2.72289E-05-2.86899E-05-9.67334E-08-6.86025E-19-1.25425E-18
 -1      4293 9.45582E-05-2.76326E-05-2.86828E-05-1.28699E-07-1.21157E-19-1.17352E-18
 -1      4294 9.46619E-05-2.77497E-05-2.86783E-05-9.16757E-08 4.69675E-19-1.00762E-18
 -1      4295 9.44750E-05-2.75336E-05-2.86866E-05-3.66319E-08-6.10875E-19-1.49667E-18
 -1      4296 9.47602E-05-2.78584E-05-2.86727E-05-7.71379E-08 5.76253E-19-9.54729E-19
 -1      4297 9.48401E-05-2.79539E-05-2.86667E-05-5.25252E-08 6.18305E-19-6.83555E-19
 -1      4298 9.47014E-05-2.77836E-05-2.86772E-05-5.76557E-09 4.55490E-19-6.44613E-19
 -1      4299 9.49134E-05-2.80410E-05-2.86601E-05-4.53893E-08 1.98918E-19-4.89066E-19
 -1      4300 9.49735E-05-2.81171E-05-2.86535E-05-2.90049E-08 1.83734E-19-2.47452E-20
 -1      4301 9.48721E-05-2.79848E-05-2.86646E-05 8.18406E-09 3.13618E-19-1.50289E-18
 -1      4302 9.50270E-05-2.81855E-05-2.86468E-05-2.60451E-08-6.56695E-19-8.26755E-19
 -1      4303 9.50710E-05-2.82449E-05-2.86403E-05-1.51155E-08-3.28071E-19-1.51398E-18
 -1      4304 9.49983E-05-2.81435E-05-2.86511E-05 1.28762E-08-6.52555E-19-1.65109E-18
 -1      4305 9.51093E-05-2.82976E-05-2.86339E-05-1.43758E-08-8.79025E-19-1.57794E-18
 -1      4306 9.51407E-05-2.83431E-05-2.86279E-05-7.07430E-09-1.85435E-18-1.79067E-18
 -1      4307 9.50895E-05-2.82664E-05-2.86378E-05 1.29056E-08-1.06833E-18-2.40368E-18
 -1      4308 9.51672E-05-2.83829E-05-2.86221E-05-7.41022E-09-1.62610E-18-1.45531E-18
 -1      4309 9.51889E-05-2.84170E-05-2.86168E-05-2.53629E-09-9.22160E-19-1.48447E-18
 -1      4310 9.51540E-05-2.83600E-05-2.86255E-05 1.09103E-08-1.50734E-18-8.88593E-19
 -1      4311 9.52067E-05-2.84465E-05-2.86117E-05-3.30134E-09-2.94986E-19-1.18659E-18
 -1      4312 9.52211E-05-2.84715E-05-2.86071E-05-5.08539E-11 1.60946E-19-6.29260E-19
 -1      4313 9.51981E-05-2.84299E-05-2.86146E-05 8.31256E-09-4.20425E-19 3.18058E-19
 -1      4314 9.52325E-05-2.84928E-05-2.86028E-05-9.44229E-10-3.45208E-19-7.49968E-19
 -1      4315 9.52416E-05-2.85107E-05-2.85990E-05 1.21343E-09-2.15907E-19-4.58675E-19
 -1      4316 9.52272E-05-2.84811E-05-2.86053E-05 5.83703E-09 1.79540E-19 8.54332E-19
 -1      4317 9.52484E-05-2.85258E-05-2.85955E-05 3.87893E-10 2.11837E-19-1.00661E-18
 -1      4318 9.52536E-05-2.85383E-05-2.85923E-05 1.78109E-09 3.14720E-19-1.14125E-18
 -1      4319 9.52453E-05-2.85177E-05-2.85975E-05 3.76551E-09-3.83519E-19-3.33796E-19
 -1      4320 9.52572E-05-2.85486E-05-2.85895E-05 1.09206E-09 6.29668E-19-7.10284E-19
 -1      4321 9.52598E-05-2.85570E-05-2.85869E-05 1.96007E-09-6.53884E-20-1.56614E-18
 -1      4322 9.52557E-05-2.85431E-05-2.85911E-05 2.16942E-09 9.00205E-19-1.21682E-18
 -1      4323 9.52613E-05-2.85638E-05-2.85847E-05 1.41770E-09-2.55952E-19-1.93331E-18
 -1      4324 9.52620E-05-2.85692E-05-2.85827E-05 1.92705E-09 1.33131E-19-1.07081E-18
 -1      4325 9.52607E-05-2.85602E-05-2.85859E-05 1.02338E-09-3.83538E-19-8.68469E-19
 -1      4326 9.52621E-05-2.85734E-05-2.85809E-05 1.51811E-09 1.10512E-18-2.07802E-18
 -1      4327 9.52618E-05-2.85766E-05-2.85793E-05 1.78503E-09 1.03583E-18-2.03763E-18
 -1      4328 9.52622E-05-2.85712E-05-2.85819E-05 2.51782E-10 2.47494E-19-2.05529E-18
 -1      4329 9.52610E-05-2.85790E-05-2.85780E-05 1.48726E-09-5.23430E-19-1.83492E-18
 -1      4330 9.52600E-05-2.85807E-05-2.85768E-05 1.59347E-09-1.04984E-18-2.42145E-18
 -1      4331 9.52615E-05-2.85778E-05-2.85787E-05-2.30859E-10 3.50646E-19-2.87755E-18
 -1      4332 9.52587E-05-2.85818E-05-2.85758E-05 1.38342E-09-1.06635E-18-1.54319E-18
 -1      4333 9.52574E-05-2.85825E-05-2.85749E-05 1.38648E-09 3.54181E-19-2.07230E-18
 -1      4334 9.52594E-05-2.85813E-05-2.85764E-05-5.03090E-10-5.24962E-19-9.90172E-19
 -1      4335 9.52559E-05-2.85828E-05-2.85741E-05 1.24287E-09 1.90584E-18-2.21929E-18
 -1      4336 9.52544E-05-2.85829E-05-2.85735E-05 1.18276E-09 1.39990E-18-3.39190E-19
 -1      4337 9.52567E-05-2.85828E-05-2.85746E-05-6.30446E-10 1.38406E-18-9.71547E-19
 -1      4338 9.50857E-05-2.82619E-05-2.86394E-05 3.88296E-08-1.95061E-19-1.49567E-18
 -1      4339 9.50454E-05-2.82040E-05-2.86464E-05 4.91702E-08-7.64798E-19-1.62783E-18
 -1      4340 9.52450E-05-2.85172E-05-2.85978E-05 6.29116E-09-9.64594E-19 1.04731E-18
 -1      4341 9.52379E-05-2.85008E-05-2.86015E-05 9.72511E-09-5.58018E-19 1.82816E-18
 -1      4342 9.52267E-05-2.84805E-05-2.86057E-05 1.14497E-08 2.84533E-19 2.73342E-18
 -1      4343 9.52142E-05-2.84561E-05-2.86105E-05 1.65030E-08 5.55424E-19 2.80004E-18
 -1      4344 9.52606E-05-2.85599E-05-2.85861E-05 2.46197E-10-9.39807E-19-1.18711E-19
 -1      4345 9.52590E-05-2.85524E-05-2.85884E-05 1.77643E-09 2.26380E-19-1.89610E-19
 -1      4346 9.52621E-05-2.85710E-05-2.85820E-05-1.24250E-09-2.68844E-19-3.74766E-19
 -1      4347 9.52619E-05-2.85662E-05-2.85838E-05-3.14290E-10-1.52603E-18-7.04296E-19
 -1      4348 9.52614E-05-2.85776E-05-2.85788E-05-2.06702E-09 9.77805E-19-1.42598E-18
 -1      4349 9.52621E-05-2.85748E-05-2.85802E-05-1.56495E-09 1.12998E-18-1.46827E-18
 -1      4350 9.52594E-05-2.85812E-05-2.85764E-05-2.43338E-09 1.07368E-20 1.29597E-19
 -1      4351 9.52606E-05-2.85797E-05-2.85775E-05-2.22134E-09 3.32474E-20-5.24554E-19
 -1      4352 9.52567E-05-2.85826E-05-2.85746E-05-2.49909E-09 8.51640E-19 7.10757E-19
 -1      4353 9.52581E-05-2.85821E-05-2.85754E-05-2.47551E-09 3.19697E-19 8.30956E-19
 -1      4354 9.52537E-05-2.85828E-05-2.85733E-05-2.37731E-09 9.86873E-19 4.12691E-19
 -1      4355 9.52552E-05-2.85828E-05-2.85738E-05-2.47037E-09 1.50090E-18-5.66022E-20
 -1      4356 9.44491E-05-2.75071E-05-2.86911E-05 6.53026E-08-8.45357E-19-1.51761E-18
 -1      4357 9.43050E-05-2.73535E-05-2.86953E-05 6.94576E-08-8.77534E-19-1.46236E-18
 -1      4358 9.46855E-05-2.77670E-05-2.86808E-05 6.94631E-08 3.71813E-19-1.40924E-18
 -1      4359 9.45782E-05-2.76438E-05-2.86872E-05 7.97986E-08-3.07962E-19-1.74802E-18
 -1      4360 9.51515E-05-2.83569E-05-2.86267E-05 2.78117E-08-7.53960E-19-6.81139E-20
 -1      4361 9.51237E-05-2.83134E-05-2.86330E-05 3.62681E-08 7.64872E-20-7.92257E-19
 -1      4362 9.21722E-05-2.98305E-05-2.67187E-05-1.34438E-05-5.22391E-19-5.55209E-19
 -1      4363 9.52555E-05-2.85427E-05-2.85913E-05 2.65627E-09 4.37750E-19 2.24233E-19
 -1      4364 9.52516E-05-2.85315E-05-2.85943E-05 5.00748E-09-6.28684E-19 7.87503E-19
 -1      4365 9.51965E-05-2.84278E-05-2.86155E-05 1.86897E-08-4.91351E-19 1.89836E-18
 -1      4366 9.51778E-05-2.83955E-05-2.86209E-05 2.52713E-08-1.18820E-18 8.30315E-19
 -1      4367 8.60390E-05-2.16270E-05-2.75953E-05-3.01350E-06-8.29944E-19-1.39050E-19
 -1      4368 8.44679E-05-2.09993E-05-2.72592E-05-3.98097E-06-3.19607E-19-8.63361E-20
 -1      4369 8.72462E-05-2.25673E-05-2.76896E-05-3.75660E-06-3.57462E-20-4.04596E-19
 -1      4370 8.54904E-05-2.24527E-05-2.69923E-05-7.12023E-06-1.84932E-19-2.86375E-19
 -1      4371 9.10774E-05-2.82413E-05-2.69275E-05-1.16683E-05-3.01170E-19-8.94026E-19
 -1      4372 9.32223E-05-2.63429E-05-2.86650E-05-1.67097E-07-4.03076E-20-6.86211E-19
 -1      4373 9.28951E-05-2.60731E-05-2.86454E-05-2.47064E-07-5.36549E-19-4.84586E-19
 -1      4374 8.86394E-05-2.61160E-05-2.68035E-05-1.09847E-05-2.41488E-19-6.43066E-19
 -1      4375 8.73411E-05-2.35131E-05-2.73166E-05-6.60811E-06-1.72815E-19-4.97893E-19
 -1      4376 8.65835E-05-2.40048E-05-2.68761E-05-8.97154E-06-1.27878E-19-5.80977E-19
 -1      4377 9.41380E-05-2.71868E-05-2.86954E-05 3.85207E-08-9.24713E-19-1.18580E-18
 -1      4378 9.39470E-05-2.69984E-05-2.86952E-05 2.91816E-08-1.07405E-18-1.54321E-18
 -1      4379 9.08341E-05-2.46306E-05-2.83727E-05-1.54719E-06 5.14359E-19-8.93628E-20
 -1      4380 9.01887E-05-2.42862E-05-2.82673E-05-1.98684E-06 4.73909E-19-4.25011E-19
 -1      4381 9.48623E-05-2.79742E-05-2.86675E-05 6.24448E-08 3.62586E-19-1.80723E-18
 -1      4382 9.47835E-05-2.78770E-05-2.86748E-05 7.46897E-08 4.75454E-19-1.59516E-18
 -1      4383 9.52505E-05-2.85820E-05-2.85722E-05 1.26598E-09 1.78836E-18 5.02889E-19
 -1      4384 9.49922E-05-2.81366E-05-2.86533E-05 5.09923E-08-8.13128E-19-1.36620E-18
 -1      4385 9.52530E-05-2.85827E-05-2.85730E-05 1.17465E-09 1.24917E-18-4.23304E-19
 -1      4386 9.52518E-05-2.85824E-05-2.85726E-05 1.26281E-09 1.61290E-18 7.59874E-19
 -1      4387 9.52511E-05-2.85823E-05-2.85724E-05-4.23404E-10 2.06405E-18 4.36442E-19
 -1      4388 9.52538E-05-2.85829E-05-2.85733E-05-5.83044E-10 1.62290E-18 1.10407E-19
 -1      4389 9.23898E-05-2.55845E-05-2.86188E-05-8.12673E-08-3.43343E-19 1.57627E-19
 -1      4390 9.21888E-05-2.53898E-05-2.86306E-05 2.61930E-07-8.75275E-20 4.87318E-19
 -1      4391 9.16744E-05-2.49975E-05-2.85882E-05 1.82933E-07 6.01558E-19 5.67154E-19
 -1      4392 9.37353E-05-2.67998E-05-2.86889E-05-2.93817E-08-4.66002E-19-1.29888E-18
 -1      4393 9.34854E-05-2.65732E-05-2.86814E-05-6.40355E-08 9.22200E-20-7.21616E-19
 -1      4394 9.52513E-05-2.85822E-05-2.85724E-05-2.16084E-09 1.72488E-18-2.59770E-19
 -1      4395 9.52523E-05-2.85825E-05-2.85728E-05-2.24289E-09 1.22209E-18 5.33215E-19
 -1      4396 9.49353E-05-2.80610E-05-2.86606E-05 6.28343E-08-6.11851E-19-1.79792E-18
 -1      4397 8.97357E-05-2.40656E-05-2.81412E-05-2.63450E-06 5.70785E-19-7.73096E-19
 -1      4398 8.89601E-05-2.37490E-05-2.79800E-05-3.32200E-06 5.49333E-20-9.68707E-19
 -1      4399 8.76395E-05-2.34410E-05-2.75594E-05-5.32459E-06-9.48660E-20-4.39909E-19
 -1      4400 8.85343E-05-2.36438E-05-2.77991E-05-4.26543E-06-1.33839E-19-7.70014E-19
 -1      4401 9.12593E-05-2.48983E-05-2.84568E-05-1.11712E-06 4.55437E-19-3.13112E-19
 -1      4402 9.17848E-05-2.52354E-05-2.85226E-05-8.48754E-07 5.60957E-19-2.45694E-19
 -1      4403 9.21605E-05-2.55093E-05-2.85760E-05-5.71841E-07 2.05369E-19 1.64390E-19
 -1      4404 9.25759E-05-2.58154E-05-2.86138E-05-4.19569E-07-7.62130E-19-1.97333E-20
 -1      4405 9.14695E-05-2.48864E-05-2.85196E-05-4.45018E-07 3.90185E-19-2.93861E-19
 -3
    1PSTEP                         4           1           1          
  100CL  101 1.000000000        4405                     0    1           1
 -4  ERROR       1    1
 -5  STR(%)      1    1    0    0
 -1         1 1.24087E+01
 -1         2 2.47597E+01
 -1         3 5.40529E-05
 -1         4 5.84569E-05
 -1         5 1.02936E+01
 -1         6 1.35308E+01
 -1         7 1.35308E+01
 -1         8 3.68519E+00
 -1         9 1.76827E+00
 -1        10 1.60899E+00
 -1        11 1.75641E+00
 -1        12 1.94738E+00
 -1        13 2.06082E+00
 -1        14 2.50198E+00
 -1        15 2.86510E+00
 -1        16 2.86510E+00
 -1        17 2.36198E+00
 -1        18 4.09819E+00
 -1        19 5.23466E+00
 -1        20 5.40980E+00
 -1        21 5.66060E+00
 -1        22 8.27240E+00
 -1        23 1.35308E+01
 -1        24 4.50822E+00
 -1        25 3.88461E+00
 -1        26 3.08714E+00
 -1        27 2.94351E+00
 -1        28 2.98342E+00
 -1        29 2.98342E+00
 -1        30 2.83499E+00
 -1        31 2.83499E+00
 -1        32 2.55362E+00
 -1        33 2.02254E+00
 -1        34 1.40312E+00
 -1        35 9.24468E-01
 -1        36 7.04478E-01
 -1        37 4.67758E-01
 -1        38 3.91776E-01
 -1        39 3.21730E-01
 -1        40 2.96252E-01
 -1        41 2.65360E-01
 -1        42 2.15943E-01
 -1        43 1.62392E-01
 -1        44 1.37346E-01
 -1        45 1.21014E-01
 -1        46 1.00784E-01
 -1        47 8.01628E-02
 -1        48 6.12062E-02
 -1        49 4.76386E-02
 -1        50 4.10237E-02
 -1        51 3.41057E-02
 -1        52 2.75315E-02
 -1        53 2.16529E-02
 -1        54 1.66204E-02
 -1        55 1.25360E-02
 -1        56 1.05007E-02
 -1        57 8.57845E-03
 -1        58 6.85457E-03
 -1        59 5.36588E-03
 -1        60 4.16165E-03
 -1        61 3.23444E-03
 -1        62 2.46340E-03
 -1        63 1.83556E-03
 -1        64 1.35365E-03
 -1        65 1.11672E-03
 -1        66 9.06663E-04
 -1        67 7.24043E-04
 -1        68 5.64266E-04
 -1        69 4.29360E-04
 -1        70 3.77373E-04
 -1        71 2.33313E-04
 -1        72 1.02936E+01
 -1        73 1.98471E+00
 -1        74 2.59447E+00
 -1        75 3.39396E+00
 -1        76 3.82587E+00
 -1        77 6.57087E+00
 -1        78 9.93153E+00
 -1        79 1.07959E+01
 -1        80 1.07959E+01
 -1        81 7.31950E+00
 -1        82 3.19617E+00
 -1        83 3.62678E+00
 -1        84 3.62678E+00
 -1        85 3.59311E+00
 -1        86 2.98870E+00
 -1        87 2.40230E+00
 -1        88 1.82229E+00
 -1        89 1.32268E+00
 -1        90 9.29419E-01
 -1        91 6.36914E-01
 -1        92 4.53994E-01
 -1        93 3.26284E-01
 -1        94 2.39971E-01
 -1        95 1.60383E-01
 -1        96 1.11578E-01
 -1        97 7.64840E-02
 -1        98 5.14041E-02
 -1        99 3.82396E-02
 -1       100 3.07911E-02
 -1       101 2.44848E-02
 -1       102 1.92260E-02
 -1       103 1.49008E-02
 -1       104 1.23107E-02
 -1       105 1.05864E-02
 -1       106 8.89005E-03
 -1       107 7.31643E-03
 -1       108 5.99216E-03
 -1       109 4.68502E-03
 -1       110 3.75630E-03
 -1       111 2.95804E-03
 -1       112 2.28850E-03
 -1       113 1.73747E-03
 -1       114 1.29046E-03
 -1       115 9.31221E-04
 -1       116 7.31686E-04
 -1       117 5.70314E-04
 -1       118 4.22804E-04
 -1       119 2.72342E-04
 -1       120 1.86803E-04
 -1       121 7.63211E-05
 -1       122 7.63211E-05
 -1       123 6.93910E-05
 -1       124 3.84888E-05
 -1       125 3.27416E-05
 -1       126 5.66120E-05
 -1       127 7.10660E-05
 -1       128 7.52665E-05
 -1       129 7.52665E-05
 -1       130 7.08307E-05
 -1       131 5.58084E-05
 -1       132 3.26407E-05
 -1       133 3.90154E-05
 -1       134 6.87390E-05
 -1       135 1.01942E-04
 -1       136 1.09859E-04
 -1       137 2.62016E+01
 -1       138 3.09661E+01
 -1       139 3.09661E+01
 -1       140 2.45581E+01
 -1       141 1.28189E+01
 -1       142 1.42161E+01
 -1       143 1.42161E+01
 -1       144 1.32727E+01
 -1       145 1.32616E+01
 -1       146 1.84913E+01
 -1       147 4.65810E+01
 -1       148 4.65810E+01
 -1       149 2.81483E+01
 -1       150 2.72909E+01
 -1       151 2.72909E+01
 -1       152 4.74290E+01
 -1       153 4.74290E+01
 -1       154 1.93486E+01
 -1       155 1.18631E+01
 -1       156 1.18631E+01
 -1       157 1.15530E+01
 -1       158 1.24087E+01
 -1       159 1.16489E+01
 -1       160 2.06199E+01
 -1       161 4.69195E+01
 -1       162 4.69195E+01
 -1       163 2.44195E+01
 -1       164 6.19449E+00
 -1       165 2.28707E+00
 -1       166 1.68353E+00
 -1       167 1.75641E+00
 -1       168 1.94738E+00
 -1       169 2.06082E+00
 -1       170 2.39010E+00
 -1       171 3.11356E+00
 -1       172 3.33313E+00
 -1       173 3.33313E+00
 -1       174 3.97258E+00
 -1       175 5.42724E+00
 -1       176 5.61405E+00
 -1       177 5.57392E+00
 -1       178 5.66060E+00
 -1       179 1.02936E+01
 -1       180 4.50822E+00
 -1       181 3.88461E+00
 -1       182 3.08714E+00
 -1       183 2.88070E+00
 -1       184 2.94351E+00
 -1       185 2.98342E+00
 -1       186 2.79729E+00
 -1       187 2.83499E+00
 -1       188 2.55362E+00
 -1       189 2.02254E+00
 -1       190 1.50349E+00
 -1       191 1.07606E+00
 -1       192 7.50673E-01
 -1       193 4.67758E-01
 -1       194 3.91776E-01
 -1       195 3.21730E-01
 -1       196 2.96252E-01
 -1       197 2.65360E-01
 -1       198 2.15943E-01
 -1       199 1.71946E-01
 -1       200 1.40956E-01
 -1       201 1.21014E-01
 -1       202 1.00784E-01
 -1       203 8.01628E-02
 -1       204 6.27496E-02
 -1       205 4.83802E-02
 -1       206 4.10237E-02
 -1       207 3.41057E-02
 -1       208 2.75315E-02
 -1       209 2.16529E-02
 -1       210 1.66204E-02
 -1       211 1.29308E-02
 -1       212 1.05007E-02
 -1       213 8.57845E-03
 -1       214 6.85457E-03
 -1       215 5.49111E-03
 -1       216 4.38477E-03
 -1       217 3.52614E-03
 -1       218 2.83079E-03
 -1       219 2.22415E-03
 -1       220 1.70926E-03
 -1       221 1.28171E-03
 -1       222 9.33106E-04
 -1       223 7.24043E-04
 -1       224 5.64266E-04
 -1       225 4.29360E-04
 -1       226 3.77373E-04
 -1       227 2.33313E-04
 -1       228 2.42426E+00
 -1       229 2.02775E+00
 -1       230 2.59447E+00
 -1       231 3.39396E+00
 -1       232 3.82587E+00
 -1       233 6.57087E+00
 -1       234 9.93153E+00
 -1       235 1.07959E+01
 -1       236 7.31950E+00
 -1       237 3.19617E+00
 -1       238 3.03050E+00
 -1       239 3.62678E+00
 -1       240 3.59311E+00
 -1       241 2.98870E+00
 -1       242 2.40230E+00
 -1       243 1.88710E+00
 -1       244 1.41530E+00
 -1       245 1.02280E+00
 -1       246 7.19184E-01
 -1       247 5.01705E-01
 -1       248 3.45442E-01
 -1       249 2.41606E-01
 -1       250 1.61803E-01
 -1       251 1.14813E-01
 -1       252 8.05271E-02
 -1       253 5.56404E-02
 -1       254 3.82396E-02
 -1       255 3.07911E-02
 -1       256 2.44848E-02
 -1       257 1.92260E-02
 -1       258 1.49008E-02
 -1       259 1.23107E-02
 -1       260 1.05864E-02
 -1       261 8.89005E-03
 -1       262 7.31643E-03
 -1       263 5.99216E-03
 -1       264 4.68502E-03
 -1       265 3.75630E-03
 -1       266 2.95905E-03
 -1       267 2.33022E-03
 -1       268 1.80067E-03
 -1       269 1.36269E-03
 -1       270 1.00541E-03
 -1       271 7.31686E-04
 -1       272 5.70314E-04
 -1       273 4.22804E-04
 -1       274 2.82491E-04
 -1       275 1.86803E-04
 -1       276 1.10635E-04
 -1       277 1.10635E-04
 -1       278 1.07246E-04
 -1       279 5.70954E-05
 -1       280 1.02235E-04
 -1       281 1.32071E-04
 -1       282 1.44197E-04
 -1       283 1.44197E-04
 -1       284 1.44098E-04
 -1       285 1.31108E-04
 -1       286 1.02473E-04
 -1       287 5.76250E-05
 -1       288 1.10048E-04
 -1       289 1.10048E-04
 -1       290 1.39429E-04
 -1       291 2.95696E+01
 -1       292 3.22685E+01
 -1       293 3.22685E+01
 -1       294 2.78496E+01
 -1       295 1.18185E+01
 -1       296 1.28189E+01
 -1       297 1.42161E+01
 -1       298 1.32727E+01
 -1       299 1.32616E+01
 -1       300 1.14049E+01
 -1       301 1.89713E+01
 -1       302 4.65810E+01
 -1       303 3.76280E+01
 -1       304 3.59251E+01
 -1       305 3.59251E+01
 -1       306 2.84959E+01
 -1       307 4.74290E+01
 -1       308 2.11890E+01
 -1       309 1.05029E+01
 -1       310 1.18631E+01
 -1       311 1.15530E+01
 -1       312 1.12576E+01
 -1       313 1.24087E+01
 -1       314 1.16489E+01
 -1       315 1.13810E+01
 -1       316 2.15551E+01
 -1       317 4.69195E+01
 -1       318 2.83376E+01
 -1       319 2.95696E+01
 -1       320 1.01851E+00
 -1       321 2.70106E+00
 -1       322 1.30847E+00
 -1       323 1.87516E+00
 -1       324 2.72679E+00
 -1       325 3.43154E+00
 -1       326 3.99223E+00
 -1       327 4.04551E+00
 -1       328 4.94890E+00
 -1       329 6.06709E+00
 -1       330 6.61204E+00
 -1       331 7.25069E+00
 -1       332 5.14483E+00
 -1       333 2.96605E+00
 -1       334 3.27834E+00
 -1       335 2.47749E+00
 -1       336 2.35099E+00
 -1       337 2.29653E+00
 -1       338 2.25691E+00
 -1       339 2.13292E+00
 -1       340 2.00755E+00
 -1       341 1.97284E+00
 -1       342 1.77324E+00
 -1       343 1.43687E+00
 -1       344 1.16377E+00
 -1       345 8.38434E-01
 -1       346 5.61641E-01
 -1       347 3.33129E-01
 -1       348 1.58243E-01
 -1       349 1.64618E-01
 -1       350 1.94163E-01
 -1       351 1.89904E-01
 -1       352 1.66743E-01
 -1       353 1.47348E-01
 -1       354 1.27157E-01
 -1       355 1.05964E-01
 -1       356 8.35336E-02
 -1       357 6.27496E-02
 -1       358 4.83802E-02
 -1       359 3.59939E-02
 -1       360 2.58372E-02
 -1       361 2.11739E-02
 -1       362 1.78770E-02
 -1       363 1.46866E-02
 -1       364 1.17780E-02
 -1       365 9.23728E-03
 -1       366 7.40889E-03
 -1       367 6.34043E-03
 -1       368 5.28132E-03
 -1       369 4.29737E-03
 -1       370 3.53755E-03
 -1       371 2.85741E-03
 -1       372 2.28866E-03
 -1       373 1.83657E-03
 -1       374 1.43940E-03
 -1       375 1.10022E-03
 -1       376 8.17476E-04
 -1       377 5.87412E-04
 -1       378 4.22620E-04
 -1       379 3.09718E-04
 -1       380 2.03351E-04
 -1       381 4.59450E+00
 -1       382 4.36971E+00
 -1       383 3.68101E+00
 -1       384 7.47270E+00
 -1       385 9.97891E+00
 -1       386 7.77442E+00
 -1       387 3.76622E+00
 -1       388 4.12019E+00
 -1       389 3.55830E+00
 -1       390 3.12594E+00
 -1       391 2.80041E+00
 -1       392 2.52022E+00
 -1       393 2.21470E+00
 -1       394 1.79116E+00
 -1       395 1.36755E+00
 -1       396 1.00377E+00
 -1       397 7.16790E-01
 -1       398 5.01705E-01
 -1       399 3.45442E-01
 -1       400 2.41606E-01
 -1       401 1.61803E-01
 -1       402 1.14813E-01
 -1       403 8.05271E-02
 -1       404 5.56404E-02
 -1       405 3.76866E-02
 -1       406 2.50590E-02
 -1       407 1.84387E-02
 -1       408 1.51402E-02
 -1       409 1.22106E-02
 -1       410 9.68626E-03
 -1       411 7.56215E-03
 -1       412 6.19778E-03
 -1       413 5.40201E-03
 -1       414 4.64338E-03
 -1       415 3.83370E-03
 -1       416 3.20696E-03
 -1       417 2.62483E-03
 -1       418 2.10645E-03
 -1       419 1.65811E-03
 -1       420 1.27899E-03
 -1       421 9.63988E-04
 -1       422 7.05862E-04
 -1       423 5.28519E-04
 -1       424 4.02910E-04
 -1       425 2.82491E-04
 -1       426 1.64838E-04
 -1       427 1.19088E-04
 -1       428 1.39585E-04
 -1       429 1.86665E-04
 -1       430 1.38411E-04
 -1       431 1.82422E-04
 -1       432 2.03201E-04
 -1       433 2.03201E-04
 -1       434 2.02312E-04
 -1       435 2.02312E-04
 -1       436 1.82349E-04
 -1       437 1.39100E-04
 -1       438 1.20939E-04
 -1       439 1.81727E-04
 -1       440 3.22685E+01
 -1       441 3.88030E+01
 -1       442 3.88030E+01
 -1       443 1.90284E+01
 -1       444 1.00333E+01
 -1       445 1.11960E+00
 -1       446 8.77085E+00
 -1       447 1.12679E+01
 -1       448 1.05521E+01
 -1       449 7.76420E+00
 -1       450 9.25745E+00
 -1       451 1.62057E+01
 -1       452 2.71020E+01
 -1       453 3.01255E+01
 -1       454 3.59251E+01
 -1       455 3.07689E+01
 -1       456 2.84959E+01
 -1       457 1.67555E+01
 -1       458 9.80138E+00
 -1       459 6.62618E+00
 -1       460 9.53982E+00
 -1       461 1.12576E+01
 -1       462 1.07752E+01
 -1       463 8.51762E+00
 -1       464 7.36497E+00
 -1       465 9.45554E+00
 -1       466 1.65825E+01
 -1       467 2.83376E+01
 -1       468 2.92296E+01
 -1       469 7.85167E+00
 -1       470 1.00100E+01
 -1       471 9.45070E+00
 -1       472 2.33523E+01
 -1       473 8.71338E+00
 -1       474 2.38485E+00
 -1       475 1.39416E+00
 -1       476 4.74426E+00
 -1       477 6.21100E+00
 -1       478 7.07876E+00
 -1       479 8.98137E+00
 -1       480 8.98137E+00
 -1       481 8.71338E+00
 -1       482 7.02074E+00
 -1       483 1.55481E+00
 -1       484 5.59500E+00
 -1       485 1.75682E+00
 -1       486 1.78586E+00
 -1       487 1.70332E+00
 -1       488 1.53421E+00
 -1       489 1.47639E+00
 -1       490 1.45970E+00
 -1       491 1.32440E+00
 -1       492 1.17893E+00
 -1       493 9.40512E-01
 -1       494 6.98374E-01
 -1       495 4.93313E-01
 -1       496 3.17621E-01
 -1       497 2.61256E-01
 -1       498 2.01958E-01
 -1       499 1.80270E-01
 -1       500 1.73528E-01
 -1       501 1.56058E-01
 -1       502 1.37727E-01
 -1       503 1.18103E-01
 -1       504 9.69687E-02
 -1       505 7.61222E-02
 -1       506 5.73109E-02
 -1       507 4.13516E-02
 -1       508 2.84472E-02
 -1       509 1.88829E-02
 -1       510 1.33501E-02
 -1       511 1.06222E-02
 -1       512 9.43820E-03
 -1       513 8.11197E-03
 -1       514 6.78198E-03
 -1       515 5.53485E-03
 -1       516 4.64255E-03
 -1       517 4.02384E-03
 -1       518 3.38770E-03
 -1       519 2.79896E-03
 -1       520 2.30654E-03
 -1       521 1.85556E-03
 -1       522 1.45780E-03
 -1       523 1.14576E-03
 -1       524 8.85621E-04
 -1       525 6.65355E-04
 -1       526 4.84274E-04
 -1       527 3.14775E-04
 -1       528 5.07265E+00
 -1       529 5.79083E+00
 -1       530 5.42578E+00
 -1       531 3.86765E+00
 -1       532 3.30132E+00
 -1       533 2.70505E+00
 -1       534 2.11224E+00
 -1       535 1.59334E+00
 -1       536 1.17198E+00
 -1       537 8.46127E-01
 -1       538 6.02089E-01
 -1       539 4.23182E-01
 -1       540 2.97375E-01
 -1       541 1.97562E-01
 -1       542 1.33099E-01
 -1       543 8.78504E-02
 -1       544 5.63151E-02
 -1       545 3.66283E-02
 -1       546 2.62702E-02
 -1       547 1.85686E-02
 -1       548 1.51402E-02
 -1       549 1.22106E-02
 -1       550 9.68626E-03
 -1       551 7.98194E-03
 -1       552 6.66578E-03
 -1       553 5.44812E-03
 -1       554 4.37866E-03
 -1       555 3.75897E-03
 -1       556 3.15355E-03
 -1       557 2.58244E-03
 -1       558 2.10531E-03
 -1       559 1.68637E-03
 -1       560 1.32049E-03
 -1       561 1.00917E-03
 -1       562 7.50480E-04
 -1       563 5.40694E-04
 -1       564 3.76746E-04
 -1       565 2.58666E-04
 -1       566 2.33570E-04
 -1       567 2.67026E-04
 -1       568 2.21733E-04
 -1       569 1.91913E-04
 -1       570 2.68656E-04
 -1       571 2.68873E-04
 -1       572 2.68873E-04
 -1       573 2.66981E-04
 -1       574 2.31573E-04
 -1       575 2.59950E-04
 -1       576 2.27927E-04
 -1       577 3.88030E+01
 -1       578 2.26894E+01
 -1       579 2.92296E+01
 -1       580 1.41931E+01
 -1       581 1.17718E+00
 -1       582 1.36453E+01
 -1       583 5.68878E+00
 -1       584 7.26721E+00
 -1       585 2.05310E+01
 -1       586 3.60085E+00
 -1       587 1.28112E+01
 -1       588 7.77442E+00
 -1       589 5.81264E+00
 -1       590 7.87206E+00
 -1       591 3.01255E+01
 -1       592 3.07689E+01
 -1       593 1.33981E+01
 -1       594 4.54131E+00
 -1       595 8.86174E+00
 -1       596 5.46224E+00
 -1       597 7.77123E+00
 -1       598 1.97040E+01
 -1       599 9.38019E+00
 -1       600 7.47435E+00
 -1       601 9.67411E-01
 -1       602 5.96064E+00
 -1       603 2.21733E-04
 -1       604 1.99766E-04
 -1       605 1.84735E+01
 -1       606 9.15489E+00
 -1       607 4.54814E+00
 -1       608 1.31690E+01
 -1       609 1.14204E+01
 -1       610 7.42622E+00
 -1       611 1.19269E+01
 -1       612 1.19269E+01
 -1       613 1.10953E+01
 -1       614 4.00922E-04
 -1       615 1.19212E+01
 -1       616 5.36990E+00
 -1       617 1.09334E+01
 -1       618 1.41352E+00
 -1       619 1.44233E+00
 -1       620 1.41736E+00
 -1       621 1.27461E+00
 -1       622 1.39907E+00
 -1       623 1.27759E+00
 -1       624 1.19082E+00
 -1       625 1.07468E+00
 -1       626 9.01352E-01
 -1       627 6.98374E-01
 -1       628 5.22035E-01
 -1       629 4.10398E-01
 -1       630 2.98629E-01
 -1       631 2.39231E-01
 -1       632 2.12063E-01
 -1       633 1.82910E-01
 -1       634 1.55558E-01
 -1       635 1.31370E-01
 -1       636 1.07813E-01
 -1       637 8.55539E-02
 -1       638 6.56817E-02
 -1       639 4.88167E-02
 -1       640 3.50607E-02
 -1       641 2.42130E-02
 -1       642 1.59194E-02
 -1       643 9.76897E-03
 -1       644 6.33047E-03
 -1       645 5.72097E-03
 -1       646 5.43129E-03
 -1       647 4.90966E-03
 -1       648 4.27717E-03
 -1       649 3.61640E-03
 -1       650 3.10605E-03
 -1       651 2.66893E-03
 -1       652 2.22866E-03
 -1       653 1.81405E-03
 -1       654 1.45712E-03
 -1       655 1.15146E-03
 -1       656 8.86226E-04
 -1       657 6.65355E-04
 -1       658 4.98846E-04
 -1       659 3.93697E-04
 -1       660 3.62438E+00
 -1       661 7.92707E+00
 -1       662 3.28656E+00
 -1       663 2.38975E+00
 -1       664 1.72390E+00
 -1       665 1.20950E+00
 -1       666 8.49529E-01
 -1       667 6.15863E-01
 -1       668 4.46843E-01
 -1       669 3.20505E-01
 -1       670 2.25892E-01
 -1       671 1.59312E-01
 -1       672 1.10780E-01
 -1       673 7.56493E-02
 -1       674 5.04402E-02
 -1       675 3.25477E-02
 -1       676 2.00203E-02
 -1       677 1.28259E-02
 -1       678 1.05608E-02
 -1       679 9.32449E-03
 -1       680 7.98194E-03
 -1       681 6.66578E-03
 -1       682 5.44812E-03
 -1       683 4.51298E-03
 -1       684 3.77261E-03
 -1       685 3.15355E-03
 -1       686 2.59229E-03
 -1       687 2.12665E-03
 -1       688 1.70545E-03
 -1       689 1.33680E-03
 -1       690 1.02985E-03
 -1       691 7.94262E-04
 -1       692 5.95593E-04
 -1       693 4.31467E-04
 -1       694 3.61711E-04
 -1       695 3.50052E-04
 -1       696 5.88026E+00
 -1       697 3.77925E-04
 -1       698 3.48582E-04
 -1       699 3.50052E-04
 -1       700 1.07222E+00
 -1       701 3.48582E-04
 -1       702 3.32885E-04
 -1       703 4.00922E-04
 -1       704 3.11587E+00
 -1       705 1.64971E+01
 -1       706 4.02076E+00
 -1       707 1.44120E+01
 -1       708 4.88164E+00
 -1       709 5.72661E+00
 -1       710 1.50331E+01
 -1       711 6.35552E+00
 -1       712 1.18683E+00
 -1       713 9.32405E+00
 -1       714 3.46363E+00
 -1       715 1.67437E+00
 -1       716 5.56768E+00
 -1       717 1.78624E+01
 -1       718 7.51940E+00
 -1       719 7.89076E+00
 -1       720 9.03786E+00
 -1       721 1.07222E+00
 -1       722 4.40267E+00
 -1       723 5.31348E+00
 -1       724 1.09172E+01
 -1       725 2.66640E+00
 -1       726 1.44120E+01
 -1       727 3.81693E-04
 -1       728 3.81693E-04
 -1       729 1.14796E+01
 -1       730 1.17842E+01
 -1       731 1.64444E+00
 -1       732 1.66237E+00
 -1       733 1.72193E+00
 -1       734 1.54862E+00
 -1       735 1.27250E+00
 -1       736 1.31037E+00
 -1       737 1.12264E+00
 -1       738 9.16239E-01
 -1       739 7.71004E-01
 -1       740 5.86406E-01
 -1       741 4.10398E-01
 -1       742 3.41201E-01
 -1       743 2.78720E-01
 -1       744 2.25058E-01
 -1       745 1.84432E-01
 -1       746 1.52134E-01
 -1       747 1.20967E-01
 -1       748 9.32507E-02
 -1       749 7.00490E-02
 -1       750 5.20057E-02
 -1       751 3.77088E-02
 -1       752 2.66172E-02
 -1       753 1.81845E-02
 -1       754 1.19045E-02
 -1       755 7.33166E-03
 -1       756 4.08658E-03
 -1       757 3.24505E-03
 -1       758 3.56866E-03
 -1       759 3.54046E-03
 -1       760 3.29656E-03
 -1       761 2.93542E-03
 -1       762 2.52817E-03
 -1       763 2.24634E-03
 -1       764 1.92796E-03
 -1       765 1.60718E-03
 -1       766 1.30478E-03
 -1       767 1.03188E-03
 -1       768 7.93440E-04
 -1       769 5.90444E-04
 -1       770 2.29109E+00
 -1       771 3.27892E+00
 -1       772 1.12367E+00
 -1       773 7.85113E-01
 -1       774 5.46006E-01
 -1       775 3.74861E-01
 -1       776 2.53290E-01
 -1       777 1.71566E-01
 -1       778 1.17765E-01
 -1       779 8.05753E-02
 -1       780 5.67160E-02
 -1       781 3.89841E-02
 -1       782 2.59979E-02
 -1       783 1.66417E-02
 -1       784 1.00276E-02
 -1       785 6.17883E-03
 -1       786 5.74562E-03
 -1       787 5.43051E-03
 -1       788 4.88572E-03
 -1       789 4.22279E-03
 -1       790 3.55461E-03
 -1       791 3.05921E-03
 -1       792 2.61710E-03
 -1       793 2.18020E-03
 -1       794 1.77368E-03
 -1       795 1.41037E-03
 -1       796 1.09528E-03
 -1       797 8.28277E-04
 -1       798 6.06372E-04
 -1       799 5.10207E-04
 -1       800 4.19295E-04
 -1       801 7.78175E-04
 -1       802 6.16384E-04
 -1       803 2.46500E+00
 -1       804 6.23942E+00
 -1       805 2.31596E+00
 -1       806 4.46074E+00
 -1       807 8.22384E+00
 -1       808 7.78175E-04
 -1       809 4.02076E+00
 -1       810 1.60466E+00
 -1       811 2.15928E+00
 -1       812 8.94209E+00
 -1       813 3.98949E+00
 -1       814 5.27049E+00
 -1       815 5.55891E+00
 -1       816 9.33158E+00
 -1       817 4.20074E-04
 -1       818 3.54576E+00
 -1       819 2.33122E+00
 -1       820 1.64882E+00
 -1       821 1.22513E+00
 -1       822 3.42879E+00
 -1       823 4.31058E-04
 -1       824 5.10207E-04
 -1       825 4.29269E-04
 -1       826 4.31058E-04
 -1       827 3.46385E+00
 -1       828 9.05558E+00
 -1       829 2.07065E+00
 -1       830 3.16554E+00
 -1       831 1.72193E+00
 -1       832 3.73052E+00
 -1       833 1.56687E+00
 -1       834 1.90227E+00
 -1       835 1.38937E+00
 -1       836 1.29412E+00
 -1       837 1.05354E+00
 -1       838 7.71004E-01
 -1       839 6.07751E-01
 -1       840 4.83225E-01
 -1       841 3.66812E-01
 -1       842 2.94471E-01
 -1       843 2.31534E-01
 -1       844 1.80625E-01
 -1       845 1.36957E-01
 -1       846 1.08172E-01
 -1       847 8.68027E-02
 -1       848 6.74156E-02
 -1       849 5.04951E-02
 -1       850 3.64565E-02
 -1       851 2.52822E-02
 -1       852 1.72489E-02
 -1       853 1.11662E-02
 -1       854 6.69756E-03
 -1       855 3.52428E-03
 -1       856 1.82882E-03
 -1       857 2.35806E-03
 -1       858 2.58358E-03
 -1       859 2.55492E-03
 -1       860 2.37232E-03
 -1       861 2.10715E-03
 -1       862 1.86514E-03
 -1       863 1.62545E-03
 -1       864 1.37256E-03
 -1       865 1.12729E-03
 -1       866 9.01373E-04
 -1       867 7.57510E-04
 -1       868 2.15928E+00
 -1       869 6.19443E-01
 -1       870 8.69020E-01
 -1       871 3.14341E-01
 -1       872 2.18810E-01
 -1       873 1.53189E-01
 -1       874 1.05847E-01
 -1       875 7.21648E-02
 -1       876 4.91956E-02
 -1       877 3.26713E-02
 -1       878 2.10980E-02
 -1       879 1.29656E-02
 -1       880 7.35415E-03
 -1       881 4.21296E-03
 -1       882 3.27947E-03
 -1       883 3.57658E-03
 -1       884 3.51499E-03
 -1       885 3.24352E-03
 -1       886 2.87079E-03
 -1       887 2.46009E-03
 -1       888 2.16602E-03
 -1       889 1.85088E-03
 -1       890 1.53869E-03
 -1       891 1.24733E-03
 -1       892 9.86397E-04
 -1       893 7.60654E-04
 -1       894 5.86722E-04
 -1       895 1.97313E+00
 -1       896 5.92630E-04
 -1       897 1.77506E+00
 -1       898 2.31596E+00
 -1       899 1.66237E+00
 -1       900 1.23020E+00
 -1       901 6.00942E+00
 -1       902 5.58046E+00
 -1       903 4.40944E-01
 -1       904 2.73849E+00
 -1       905 6.11234E+00
 -1       906 7.78175E-04
 -1       907 2.55407E+00
 -1       908 5.54590E-04
 -1       909 5.36786E-04
 -1       910 9.05558E+00
 -1       911 2.75288E+00
 -1       912 6.16384E-04
 -1       913 5.54590E-04
 -1       914 3.24793E+00
 -1       915 6.06685E+00
 -1       916 2.20841E+00
 -1       917 1.90227E+00
 -1       918 6.06685E+00
 -1       919 3.63257E+00
 -1       920 2.09810E+00
 -1       921 2.21749E+00
 -1       922 1.53155E+00
 -1       923 1.21455E+00
 -1       924 1.02225E+00
 -1       925 8.17753E-01
 -1       926 6.07281E-01
 -1       927 4.25929E-01
 -1       928 2.86462E-01
 -1       929 2.06938E-01
 -1       930 1.66503E-01
 -1       931 1.36502E-01
 -1       932 1.08172E-01
 -1       933 8.32691E-02
 -1       934 6.23855E-02
 -1       935 4.54741E-02
 -1       936 3.21656E-02
 -1       937 2.19569E-02
 -1       938 1.46737E-02
 -1       939 9.47121E-03
 -1       940 5.70253E-03
 -1       941 3.15020E-03
 -1       942 1.82882E-03
 -1       943 1.62628E-03
 -1       944 1.93394E-03
 -1       945 1.99629E-03
 -1       946 1.90503E-03
 -1       947 1.72587E-03
 -1       948 1.52293E-03
 -1       949 1.32963E-03
 -1       950 1.12483E-03
 -1       951 9.25508E-04
 -1       952 7.63997E-04
 -1       953 2.26642E+00
 -1       954 1.68107E-01
 -1       955 2.31427E-01
 -1       956 8.69106E-02
 -1       957 6.08639E-02
 -1       958 4.16488E-02
 -1       959 2.85135E-02
 -1       960 1.88952E-02
 -1       961 1.19720E-02
 -1       962 7.16330E-03
 -1       963 3.87531E-03
 -1       964 1.92528E-03
 -1       965 2.33702E-03
 -1       966 2.52988E-03
 -1       967 2.47581E-03
 -1       968 2.28170E-03
 -1       969 2.01615E-03
 -1       970 1.75004E-03
 -1       971 1.51938E-03
 -1       972 1.27949E-03
 -1       973 1.04847E-03
 -1       974 8.34829E-04
 -1       975 2.00070E+00
 -1       976 5.14212E-04
 -1       977 1.21805E-01
 -1       978 8.06910E-01
 -1       979 5.68481E-01
 -1       980 4.51874E+00
 -1       981 4.59679E+00
 -1       982 1.75898E+00
 -1       983 1.18999E+00
 -1       984 4.16681E-01
 -1       985 2.46817E+00
 -1       986 4.38928E+00
 -1       987 6.74317E-04
 -1       988 7.58485E-04
 -1       989 5.84762E-04
 -1       990 4.38928E+00
 -1       991 7.58485E-04
 -1       992 6.75100E-04
 -1       993 2.72056E+00
 -1       994 3.10268E-01
 -1       995 2.16251E+00
 -1       996 1.15624E-01
 -1       997 1.83174E+00
 -1       998 1.21455E+00
 -1       999 9.04782E-01
 -1      1000 6.64058E-01
 -1      1001 4.63237E-01
 -1      1002 3.30031E-01
 -1      1003 2.48273E-01
 -1      1004 1.83482E-01
 -1      1005 1.41600E-01
 -1      1006 1.07506E-01
 -1      1007 8.02864E-02
 -1      1008 5.89708E-02
 -1      1009 4.25355E-02
 -1      1010 3.00382E-02
 -1      1011 2.06676E-02
 -1      1012 1.43141E-02
 -1      1013 1.01321E-02
 -1      1014 6.89480E-03
 -1      1015 4.46147E-03
 -1      1016 2.68504E-03
 -1      1017 1.58329E-03
 -1      1018 1.10695E-03
 -1      1019 1.19937E-03
 -1      1020 1.19174E-03
 -1      1021 1.19174E-03
 -1      1022 1.12116E-03
 -1      1023 1.00622E-03
 -1      1024 8.68884E-04
 -1      1025 8.16679E-04
 -1      1026 1.64040E-01
 -1      1027 4.61930E-02
 -1      1028 6.41895E-02
 -1      1029 2.22370E-02
 -1      1030 1.50944E-02
 -1      1031 9.81999E-03
 -1      1032 6.01425E-03
 -1      1033 3.53277E-03
 -1      1034 1.92528E-03
 -1      1035 1.54948E-03
 -1      1036 1.82633E-03
 -1      1037 1.87266E-03
 -1      1038 1.77827E-03
 -1      1039 1.60519E-03
 -1      1040 1.39549E-03
 -1      1041 1.19296E-03
 -1      1042 1.01103E-03
 -1      1043 8.76007E-04
 -1      1044 7.18842E-04
 -1      1045 8.71132E-02
 -1      1046 3.44344E+00
 -1      1047 6.27103E-01
 -1      1048 3.23662E-02
 -1      1049 2.50850E+00
 -1      1050 4.61033E-01
 -1      1051 2.89702E+00
 -1      1052 6.60571E-04
 -1      1053 8.52353E-01
 -1      1054 7.86376E-04
 -1      1055 1.91850E+00
 -1      1056 2.30468E-01
 -1      1057 1.21807E+00
 -1      1058 7.18842E-04
 -1      1059 1.72163E+00
 -1      1060 1.16891E+00
 -1      1061 8.85071E-01
 -1      1062 5.94746E-01
 -1      1063 4.27497E-01
 -1      1064 3.30031E-01
 -1      1065 2.48273E-01
 -1      1066 1.83482E-01
 -1      1067 1.33818E-01
 -1      1068 9.65054E-02
 -1      1069 6.88284E-02
 -1      1070 5.19153E-02
 -1      1071 3.89166E-02
 -1      1072 2.83997E-02
 -1      1073 2.01302E-02
 -1      1074 1.41203E-02
 -1      1075 9.74576E-03
 -1      1076 6.46295E-03
 -1      1077 4.05862E-03
 -1      1078 2.33948E-03
 -1      1079 1.17062E-03
 -1      1080 1.04137E-03
 -1      1081 1.18215E-03
 -1      1082 1.19174E-03
 -1      1083 1.12116E-03
 -1      1084 1.00622E-03
 -1      1085 9.06187E-04
 -1      1086 8.16679E-04
 -1      1087 1.38488E-01
 -1      1088 1.38427E-02
 -1      1089 1.99547E-02
 -1      1090 5.85327E-03
 -1      1091 3.53277E-03
 -1      1092 1.85203E-03
 -1      1093 1.05482E-03
 -1      1094 1.31737E-03
 -1      1095 1.38925E-03
 -1      1096 1.34183E-03
 -1      1097 1.23450E-03
 -1      1098 1.14648E-03
 -1      1099 1.02215E-03
 -1      1100 8.76007E-04
 -1      1101 5.31657E-02
 -1      1102 3.87627E-02
 -1      1103 3.23766E-01
 -1      1104 9.23622E-03
 -1      1105 2.78546E-02
 -1      1106 1.00265E-01
 -1      1107 4.61033E-01
 -1      1108 1.86738E+00
 -1      1109 1.85937E-01
 -1      1110 1.72163E+00
 -1      1111 7.33472E-04
 -1      1112 6.30027E-01
 -1      1113 7.30094E-02
 -1      1114 3.25825E-01
 -1      1115 1.04836E+00
 -1      1116 8.16557E-01
 -1      1117 5.94746E-01
 -1      1118 4.26728E-01
 -1      1119 2.99011E-01
 -1      1120 2.06936E-01
 -1      1121 1.48706E-01
 -1      1122 1.15970E-01
 -1      1123 8.85560E-02
 -1      1124 6.63659E-02
 -1      1125 4.87852E-02
 -1      1126 3.51273E-02
 -1      1127 2.49550E-02
 -1      1128 1.72701E-02
 -1      1129 1.20249E-02
 -1      1130 8.11786E-03
 -1      1131 5.23665E-03
 -1      1132 3.16700E-03
 -1      1133 1.71651E-03
 -1      1134 8.35010E-04
 -1      1135 1.13913E-03
 -1      1136 1.24883E-03
 -1      1137 1.23450E-03
 -1      1138 1.14648E-03
 -1      1139 1.02215E-03
 -1      1140 9.83496E-01
 -1      1141 8.46965E-04
 -1      1142 2.49390E-01
 -1      1143 1.35308E+01
 -1      1144 8.60800E+00
 -1      1145 2.72673E+00
 -1      1146 1.68863E+00
 -1      1147 1.68270E+00
 -1      1148 1.85189E+00
 -1      1149 2.00410E+00
 -1      1150 2.28140E+00
 -1      1151 2.68354E+00
 -1      1152 2.86510E+00
 -1      1153 2.61354E+00
 -1      1154 3.23008E+00
 -1      1155 4.66642E+00
 -1      1156 5.32223E+00
 -1      1157 5.53520E+00
 -1      1158 6.96650E+00
 -1      1159 9.28302E+00
 -1      1160 1.35308E+01
 -1      1161 9.01952E+00
 -1      1162 4.19642E+00
 -1      1163 3.48587E+00
 -1      1164 3.01533E+00
 -1      1165 2.96347E+00
 -1      1166 2.98342E+00
 -1      1167 2.90921E+00
 -1      1168 2.83499E+00
 -1      1169 2.69431E+00
 -1      1170 2.28808E+00
 -1      1171 1.71283E+00
 -1      1172 1.16380E+00
 -1      1173 8.14473E-01
 -1      1174 5.86118E-01
 -1      1175 4.29767E-01
 -1      1176 3.56753E-01
 -1      1177 3.08991E-01
 -1      1178 2.80806E-01
 -1      1179 2.40652E-01
 -1      1180 1.89168E-01
 -1      1181 1.49869E-01
 -1      1182 1.29180E-01
 -1      1183 1.10899E-01
 -1      1184 9.04734E-02
 -1      1185 7.06845E-02
 -1      1186 5.44224E-02
 -1      1187 4.43311E-02
 -1      1188 3.75647E-02
 -1      1189 3.08186E-02
 -1      1190 2.45922E-02
 -1      1191 1.91366E-02
 -1      1192 1.45782E-02
 -1      1193 1.15184E-02
 -1      1194 9.53960E-03
 -1      1195 7.71651E-03
 -1      1196 6.11022E-03
 -1      1197 4.76376E-03
 -1      1198 3.69805E-03
 -1      1199 2.84892E-03
 -1      1200 2.14948E-03
 -1      1201 1.59461E-03
 -1      1202 1.23519E-03
 -1      1203 1.01169E-03
 -1      1204 8.15353E-04
 -1      1205 6.44154E-04
 -1      1206 4.96813E-04
 -1      1207 4.03367E-04
 -1      1208 3.05343E-04
 -1      1209 1.45885E-04
 -1      1210 1.02936E+01
 -1      1211 6.13918E+00
 -1      1212 2.28959E+00
 -1      1213 2.99421E+00
 -1      1214 3.60991E+00
 -1      1215 5.19837E+00
 -1      1216 8.25120E+00
 -1      1217 1.03637E+01
 -1      1218 1.07959E+01
 -1      1219 9.05769E+00
 -1      1220 5.25784E+00
 -1      1221 3.41148E+00
 -1      1222 3.62678E+00
 -1      1223 3.60994E+00
 -1      1224 3.29090E+00
 -1      1225 2.69550E+00
 -1      1226 2.11229E+00
 -1      1227 1.57248E+00
 -1      1228 1.12605E+00
 -1      1229 7.83167E-01
 -1      1230 5.45454E-01
 -1      1231 3.90139E-01
 -1      1232 2.83127E-01
 -1      1233 2.00177E-01
 -1      1234 1.35981E-01
 -1      1235 9.40310E-02
 -1      1236 6.39440E-02
 -1      1237 4.48219E-02
 -1      1238 3.45153E-02
 -1      1239 2.76379E-02
 -1      1240 2.18554E-02
 -1      1241 1.70634E-02
 -1      1242 1.36058E-02
 -1      1243 1.14486E-02
 -1      1244 9.73824E-03
 -1      1245 8.10324E-03
 -1      1246 6.65430E-03
 -1      1247 5.33859E-03
 -1      1248 4.22066E-03
 -1      1249 3.35717E-03
 -1      1250 2.62327E-03
 -1      1251 2.01298E-03
 -1      1252 1.51396E-03
 -1      1253 1.11084E-03
 -1      1254 8.31454E-04
 -1      1255 6.51000E-04
 -1      1256 4.96559E-04
 -1      1257 3.47573E-04
 -1      1258 2.29572E-04
 -1      1259 1.20428E-04
 -1      1260 6.51870E-05
 -1      1261 7.63211E-05
 -1      1262 7.28561E-05
 -1      1263 5.39399E-05
 -1      1264 3.56152E-05
 -1      1265 4.46768E-05
 -1      1266 6.38390E-05
 -1      1267 7.31663E-05
 -1      1268 7.52665E-05
 -1      1269 7.30486E-05
 -1      1270 6.33196E-05
 -1      1271 4.42245E-05
 -1      1272 3.58280E-05
 -1      1273 5.38772E-05
 -1      1274 8.53405E-05
 -1      1275 1.05901E-04
 -1      1276 8.41579E-05
 -1      1277 2.54807E+01
 -1      1278 2.85839E+01
 -1      1279 3.09661E+01
 -1      1280 2.77621E+01
 -1      1281 1.86885E+01
 -1      1282 1.35175E+01
 -1      1283 1.42161E+01
 -1      1284 1.37444E+01
 -1      1285 1.32671E+01
 -1      1286 1.58764E+01
 -1      1287 3.25361E+01
 -1      1288 4.65810E+01
 -1      1289 3.73647E+01
 -1      1290 2.77196E+01
 -1      1291 2.72909E+01
 -1      1292 3.73600E+01
 -1      1293 4.74290E+01
 -1      1294 3.33888E+01
 -1      1295 1.56059E+01
 -1      1296 1.18631E+01
 -1      1297 1.17080E+01
 -1      1298 1.19808E+01
 -1      1299 1.24087E+01
 -1      1300 1.20288E+01
 -1      1301 1.61344E+01
 -1      1302 3.37697E+01
 -1      1303 4.69195E+01
 -1      1304 3.56695E+01
 -1      1305 2.45896E+01
 -1      1306 1.35308E+01
 -1      1307 4.93984E+00
 -1      1308 9.86265E+00
 -1      1309 2.02767E+00
 -1      1310 2.98613E+00
 -1      1311 4.24078E+00
 -1      1312 1.64626E+00
 -1      1313 1.72590E+00
 -1      1314 1.98530E+00
 -1      1315 1.75641E+00
 -1      1316 1.68270E+00
 -1      1317 1.71997E+00
 -1      1318 1.94738E+00
 -1      1319 1.85189E+00
 -1      1320 1.85189E+00
 -1      1321 2.06082E+00
 -1      1322 2.00410E+00
 -1      1323 2.00410E+00
 -1      1324 2.44604E+00
 -1      1325 2.22546E+00
 -1      1326 2.22546E+00
 -1      1327 2.98933E+00
 -1      1328 2.80777E+00
 -1      1329 2.75183E+00
 -1      1330 3.09911E+00
 -1      1331 3.09911E+00
 -1      1332 3.22334E+00
 -1      1333 2.84755E+00
 -1      1334 3.09911E+00
 -1      1335 3.33313E+00
 -1      1336 4.03538E+00
 -1      1337 3.16728E+00
 -1      1338 3.65285E+00
 -1      1339 5.33095E+00
 -1      1340 4.76271E+00
 -1      1341 4.69991E+00
 -1      1342 5.51192E+00
 -1      1343 5.42436E+00
 -1      1344 5.52065E+00
 -1      1345 5.61726E+00
 -1      1346 5.49186E+00
 -1      1347 5.59399E+00
 -1      1348 6.96650E+00
 -1      1349 5.66060E+00
 -1      1350 5.61726E+00
 -1      1351 1.02936E+01
 -1      1352 9.28302E+00
 -1      1353 7.97712E+00
 -1      1354 1.02936E+01
 -1      1355 9.01952E+00
 -1      1356 4.50822E+00
 -1      1357 4.19642E+00
 -1      1358 3.88461E+00
 -1      1359 4.19642E+00
 -1      1360 3.48587E+00
 -1      1361 3.08714E+00
 -1      1362 3.48587E+00
 -1      1363 2.98392E+00
 -1      1364 2.91211E+00
 -1      1365 2.98392E+00
 -1      1366 2.94351E+00
 -1      1367 2.96347E+00
 -1      1368 2.91211E+00
 -1      1369 2.98342E+00
 -1      1370 2.98342E+00
 -1      1371 2.96347E+00
 -1      1372 2.89036E+00
 -1      1373 2.81614E+00
 -1      1374 2.89036E+00
 -1      1375 2.83499E+00
 -1      1376 2.83499E+00
 -1      1377 2.81614E+00
 -1      1378 2.69431E+00
 -1      1379 2.55362E+00
 -1      1380 2.69431E+00
 -1      1381 2.28808E+00
 -1      1382 2.02254E+00
 -1      1383 2.28808E+00
 -1      1384 1.76301E+00
 -1      1385 1.45330E+00
 -1      1386 1.76301E+00
 -1      1387 1.23959E+00
 -1      1388 1.00026E+00
 -1      1389 1.28977E+00
 -1      1390 8.37571E-01
 -1      1391 7.27575E-01
 -1      1392 9.13366E-01
 -1      1393 5.86118E-01
 -1      1394 4.67758E-01
 -1      1395 6.09216E-01
 -1      1396 4.29767E-01
 -1      1397 3.91776E-01
 -1      1398 4.29767E-01
 -1      1399 3.56753E-01
 -1      1400 3.21730E-01
 -1      1401 3.56753E-01
 -1      1402 3.08991E-01
 -1      1403 2.96252E-01
 -1      1404 3.08991E-01
 -1      1405 2.80806E-01
 -1      1406 2.65360E-01
 -1      1407 2.80806E-01
 -1      1408 2.40652E-01
 -1      1409 2.15943E-01
 -1      1410 2.40652E-01
 -1      1411 1.93944E-01
 -1      1412 1.67169E-01
 -1      1413 1.93944E-01
 -1      1414 1.51674E-01
 -1      1415 1.39151E-01
 -1      1416 1.56451E-01
 -1      1417 1.29180E-01
 -1      1418 1.21014E-01
 -1      1419 1.30985E-01
 -1      1420 1.10899E-01
 -1      1421 1.00784E-01
 -1      1422 1.10899E-01
 -1      1423 9.04734E-02
 -1      1424 8.01628E-02
 -1      1425 9.04734E-02
 -1      1426 7.14562E-02
 -1      1427 6.19779E-02
 -1      1428 7.14562E-02
 -1      1429 5.47932E-02
 -1      1430 4.80094E-02
 -1      1431 5.55649E-02
 -1      1432 4.43311E-02
 -1      1433 4.10237E-02
 -1      1434 4.47019E-02
 -1      1435 3.75647E-02
 -1      1436 3.41057E-02
 -1      1437 3.75647E-02
 -1      1438 3.08186E-02
 -1      1439 2.75315E-02
 -1      1440 3.08186E-02
 -1      1441 2.45922E-02
 -1      1442 2.16529E-02
 -1      1443 2.45922E-02
 -1      1444 1.91366E-02
 -1      1445 1.66204E-02
 -1      1446 1.91366E-02
 -1      1447 1.47756E-02
 -1      1448 1.27334E-02
 -1      1449 1.47756E-02
 -1      1450 1.15184E-02
 -1      1451 1.05007E-02
 -1      1452 1.17158E-02
 -1      1453 9.53960E-03
 -1      1454 8.57845E-03
 -1      1455 9.53960E-03
 -1      1456 7.71651E-03
 -1      1457 6.85457E-03
 -1      1458 7.71651E-03
 -1      1459 6.17284E-03
 -1      1460 5.42850E-03
 -1      1461 6.17284E-03
 -1      1462 4.87532E-03
 -1      1463 4.27321E-03
 -1      1464 4.93794E-03
 -1      1465 3.84389E-03
 -1      1466 3.38029E-03
 -1      1467 3.95545E-03
 -1      1468 3.03262E-03
 -1      1469 2.64709E-03
 -1      1470 3.17846E-03
 -1      1471 2.34377E-03
 -1      1472 2.02986E-03
 -1      1473 2.52747E-03
 -1      1474 1.77241E-03
 -1      1475 1.53146E-03
 -1      1476 1.96671E-03
 -1      1477 1.31768E-03
 -1      1478 1.19922E-03
 -1      1479 1.49549E-03
 -1      1480 1.02492E-03
 -1      1481 9.19885E-04
 -1      1482 1.10741E-03
 -1      1483 8.15353E-04
 -1      1484 7.24043E-04
 -1      1485 8.28575E-04
 -1      1486 6.44154E-04
 -1      1487 5.64266E-04
 -1      1488 6.44154E-04
 -1      1489 4.96813E-04
 -1      1490 4.29360E-04
 -1      1491 4.96813E-04
 -1      1492 4.03367E-04
 -1      1493 3.77373E-04
 -1      1494 4.03367E-04
 -1      1495 3.05343E-04
 -1      1496 2.33313E-04
 -1      1497 3.05343E-04
 -1      1498 1.71586E-04
 -1      1499 1.71586E-04
 -1      1500 2.20448E+00
 -1      1501 6.35895E+00
 -1      1502 6.35895E+00
 -1      1503 2.31111E+00
 -1      1504 2.00623E+00
 -1      1505 2.22600E+00
 -1      1506 2.99421E+00
 -1      1507 2.59447E+00
 -1      1508 2.31111E+00
 -1      1509 3.60991E+00
 -1      1510 3.39396E+00
 -1      1511 2.99421E+00
 -1      1512 5.19837E+00
 -1      1513 3.82587E+00
 -1      1514 3.60991E+00
 -1      1515 8.25120E+00
 -1      1516 6.57087E+00
 -1      1517 5.19837E+00
 -1      1518 1.03637E+01
 -1      1519 9.93153E+00
 -1      1520 8.25120E+00
 -1      1521 1.07959E+01
 -1      1522 1.07959E+01
 -1      1523 1.03637E+01
 -1      1524 7.31950E+00
 -1      1525 9.05769E+00
 -1      1526 9.05769E+00
 -1      1527 3.19617E+00
 -1      1528 5.25784E+00
 -1      1529 5.25784E+00
 -1      1530 3.32864E+00
 -1      1531 3.11333E+00
 -1      1532 3.11333E+00
 -1      1533 3.62678E+00
 -1      1534 3.62678E+00
 -1      1535 3.32864E+00
 -1      1536 3.59311E+00
 -1      1537 3.60994E+00
 -1      1538 3.60994E+00
 -1      1539 2.98870E+00
 -1      1540 3.29090E+00
 -1      1541 3.29090E+00
 -1      1542 2.40230E+00
 -1      1543 2.69550E+00
 -1      1544 2.69550E+00
 -1      1545 1.85469E+00
 -1      1546 2.14470E+00
 -1      1547 2.14470E+00
 -1      1548 1.36899E+00
 -1      1549 1.61879E+00
 -1      1550 1.65120E+00
 -1      1551 9.76107E-01
 -1      1552 1.17274E+00
 -1      1553 1.21905E+00
 -1      1554 6.78049E-01
 -1      1555 8.24302E-01
 -1      1556 8.70990E-01
 -1      1557 4.77850E-01
 -1      1558 5.69310E-01
 -1      1559 6.10444E-01
 -1      1560 3.35863E-01
 -1      1561 3.99718E-01
 -1      1562 4.23573E-01
 -1      1563 2.40788E-01
 -1      1564 2.83945E-01
 -1      1565 2.93524E-01
 -1      1566 1.61093E-01
 -1      1567 2.00887E-01
 -1      1568 2.01705E-01
 -1      1569 1.13195E-01
 -1      1570 1.37598E-01
 -1      1571 1.38308E-01
 -1      1572 7.85055E-02
 -1      1573 9.60525E-02
 -1      1574 9.76699E-02
 -1      1575 5.35223E-02
 -1      1576 6.60622E-02
 -1      1577 6.80838E-02
 -1      1578 3.82396E-02
 -1      1579 4.48219E-02
 -1      1580 4.69400E-02
 -1      1581 3.07911E-02
 -1      1582 3.45153E-02
 -1      1583 3.45153E-02
 -1      1584 2.44848E-02
 -1      1585 2.76379E-02
 -1      1586 2.76379E-02
 -1      1587 1.92260E-02
 -1      1588 2.18554E-02
 -1      1589 2.18554E-02
 -1      1590 1.49008E-02
 -1      1591 1.70634E-02
 -1      1592 1.70634E-02
 -1      1593 1.23107E-02
 -1      1594 1.36058E-02
 -1      1595 1.36058E-02
 -1      1596 1.05864E-02
 -1      1597 1.14486E-02
 -1      1598 1.14486E-02
 -1      1599 8.89005E-03
 -1      1600 9.73824E-03
 -1      1601 9.73824E-03
 -1      1602 7.31643E-03
 -1      1603 8.10324E-03
 -1      1604 8.10324E-03
 -1      1605 5.99216E-03
 -1      1606 6.65430E-03
 -1      1607 6.65430E-03
 -1      1608 4.68502E-03
 -1      1609 5.33859E-03
 -1      1610 5.33859E-03
 -1      1611 3.75630E-03
 -1      1612 4.22066E-03
 -1      1613 4.22066E-03
 -1      1614 2.95854E-03
 -1      1615 3.35767E-03
 -1      1616 3.35767E-03
 -1      1617 2.30936E-03
 -1      1618 2.64413E-03
 -1      1619 2.64463E-03
 -1      1620 1.76907E-03
 -1      1621 2.04458E-03
 -1      1622 2.06545E-03
 -1      1623 1.32658E-03
 -1      1624 1.55008E-03
 -1      1625 1.58168E-03
 -1      1626 9.68317E-04
 -1      1627 1.14794E-03
 -1      1628 1.18405E-03
 -1      1629 7.31686E-04
 -1      1630 8.31454E-04
 -1      1631 8.68550E-04
 -1      1632 5.70314E-04
 -1      1633 6.51000E-04
 -1      1634 6.51000E-04
 -1      1635 4.22804E-04
 -1      1636 4.96559E-04
 -1      1637 4.96559E-04
 -1      1638 2.77416E-04
 -1      1639 3.52647E-04
 -1      1640 3.52647E-04
 -1      1641 1.86803E-04
 -1      1642 2.29572E-04
 -1      1643 2.34647E-04
 -1      1644 1.31562E-04
 -1      1645 9.34781E-05
 -1      1646 9.34781E-05
 -1      1647 9.00130E-05
 -1      1648 9.34781E-05
 -1      1649 1.10635E-04
 -1      1650 7.28672E-05
 -1      1651 8.83184E-05
 -1      1652 1.08940E-04
 -1      1653 4.49185E-05
 -1      1654 4.77921E-05
 -1      1655 8.21705E-05
 -1      1656 7.94238E-05
 -1      1657 6.74886E-05
 -1      1658 7.96654E-05
 -1      1659 1.01568E-04
 -1      1660 9.43413E-05
 -1      1661 1.17153E-04
 -1      1662 1.09732E-04
 -1      1663 1.07632E-04
 -1      1664 1.38134E-04
 -1      1665 1.09732E-04
 -1      1666 1.09732E-04
 -1      1667 1.44197E-04
 -1      1668 1.07464E-04
 -1      1669 1.09682E-04
 -1      1670 1.44148E-04
 -1      1671 9.34581E-05
 -1      1672 1.00969E-04
 -1      1673 1.37603E-04
 -1      1674 6.75567E-05
 -1      1675 7.91406E-05
 -1      1676 1.16790E-04
 -1      1677 4.83202E-05
 -1      1678 4.51328E-05
 -1      1679 8.00489E-05
 -1      1680 8.93937E-05
 -1      1681 7.45319E-05
 -1      1682 8.38367E-05
 -1      1683 1.05995E-04
 -1      1684 8.93937E-05
 -1      1685 1.10048E-04
 -1      1686 1.24644E-04
 -1      1687 1.20686E-04
 -1      1688 1.24739E-04
 -1      1689 1.86371E-04
 -1      1690 2.78856E+01
 -1      1691 2.71647E+01
 -1      1692 3.16173E+01
 -1      1693 2.92351E+01
 -1      1694 3.16173E+01
 -1      1695 3.16173E+01
 -1      1696 2.62039E+01
 -1      1697 2.94079E+01
 -1      1698 1.23187E+01
 -1      1699 1.81883E+01
 -1      1700 1.35175E+01
 -1      1701 1.28189E+01
 -1      1702 1.42161E+01
 -1      1703 1.42161E+01
 -1      1704 1.32727E+01
 -1      1705 1.37444E+01
 -1      1706 1.32616E+01
 -1      1707 1.32671E+01
 -1      1708 1.49481E+01
 -1      1709 1.23332E+01
 -1      1710 3.27762E+01
 -1      1711 1.87313E+01
 -1      1712 4.65810E+01
 -1      1713 4.65810E+01
 -1      1714 3.28881E+01
 -1      1715 4.21045E+01
 -1      1716 3.16080E+01
 -1      1717 3.20367E+01
 -1      1718 3.16080E+01
 -1      1719 3.16080E+01
 -1      1720 3.79625E+01
 -1      1721 2.78934E+01
 -1      1722 4.74290E+01
 -1      1723 4.74290E+01
 -1      1724 2.02688E+01
 -1      1725 3.43090E+01
 -1      1726 1.11830E+01
 -1      1727 1.49258E+01
 -1      1728 1.18631E+01
 -1      1729 1.18631E+01
 -1      1730 1.15530E+01
 -1      1731 1.17080E+01
 -1      1732 1.18331E+01
 -1      1733 1.14053E+01
 -1      1734 1.24087E+01
 -1      1735 1.24087E+01
 -1      1736 1.16489E+01
 -1      1737 1.20288E+01
 -1      1738 1.60005E+01
 -1      1739 1.15150E+01
 -1      1740 3.42373E+01
 -1      1741 2.10875E+01
 -1      1742 4.69195E+01
 -1      1743 4.69195E+01
 -1      1744 2.63786E+01
 -1      1745 3.76286E+01
 -1      1746 2.71647E+01
 -1      1747 2.69946E+01
 -1      1748 1.98340E+01
 -1      1749 3.00591E+01
 -1      1750 1.31562E-04
 -1      1751 1.48719E-04
 -1      1752 3.09191E+01
 -1      1753 3.22685E+01
 -1      1754 2.95696E+01
 -1      1755 1.23187E+01
 -1      1756 1.35175E+01
 -1      1757 1.37444E+01
 -1      1758 1.32671E+01
 -1      1759 1.23332E+01
 -1      1760 1.51881E+01
 -1      1761 3.27762E+01
 -1      1762 4.21045E+01
 -1      1763 3.67765E+01
 -1      1764 3.59251E+01
 -1      1765 3.22105E+01
 -1      1766 3.79625E+01
 -1      1767 3.43090E+01
 -1      1768 1.58460E+01
 -1      1769 1.11830E+01
 -1      1770 1.17080E+01
 -1      1771 1.14053E+01
 -1      1772 1.18331E+01
 -1      1773 1.20288E+01
 -1      1774 1.15150E+01
 -1      1775 1.64681E+01
 -1      1776 3.42373E+01
 -1      1777 3.76286E+01
 -1      1778 2.89536E+01
 -1      1779 9.86265E+00
 -1      1780 1.35102E+00
 -1      1781 1.65279E+00
 -1      1782 2.49407E+00
 -1      1783 4.44778E+00
 -1      1784 1.85978E+00
 -1      1785 1.62792E+00
 -1      1786 1.53244E+00
 -1      1787 1.96799E+00
 -1      1788 1.91127E+00
 -1      1789 1.59181E+00
 -1      1790 2.55844E+00
 -1      1791 2.39380E+00
 -1      1792 2.30097E+00
 -1      1793 3.27255E+00
 -1      1794 2.91082E+00
 -1      1795 3.07916E+00
 -1      1796 3.66268E+00
 -1      1797 3.55289E+00
 -1      1798 3.71188E+00
 -1      1799 3.68932E+00
 -1      1800 3.68932E+00
 -1      1801 4.01887E+00
 -1      1802 4.46074E+00
 -1      1803 4.14101E+00
 -1      1804 4.49721E+00
 -1      1805 5.74716E+00
 -1      1806 5.01983E+00
 -1      1807 5.50799E+00
 -1      1808 6.11305E+00
 -1      1809 6.01964E+00
 -1      1810 6.33956E+00
 -1      1811 6.41230E+00
 -1      1812 6.43237E+00
 -1      1813 6.93136E+00
 -1      1814 5.40272E+00
 -1      1815 5.35938E+00
 -1      1816 6.19776E+00
 -1      1817 6.62985E+00
 -1      1818 4.31333E+00
 -1      1819 4.05544E+00
 -1      1820 2.69515E+00
 -1      1821 5.35136E+00
 -1      1822 2.65304E+00
 -1      1823 2.85130E+00
 -1      1824 3.12219E+00
 -1      1825 3.60464E+00
 -1      1826 3.18105E+00
 -1      1827 2.78231E+00
 -1      1828 2.71906E+00
 -1      1829 2.61585E+00
 -1      1830 2.41424E+00
 -1      1831 2.58862E+00
 -1      1832 2.62002E+00
 -1      1833 2.32376E+00
 -1      1834 2.60021E+00
 -1      1835 2.62017E+00
 -1      1836 2.27672E+00
 -1      1837 2.55817E+00
 -1      1838 2.46510E+00
 -1      1839 2.19491E+00
 -1      1840 2.40242E+00
 -1      1841 2.42127E+00
 -1      1842 2.07023E+00
 -1      1843 2.40392E+00
 -1      1844 2.26323E+00
 -1      1845 1.99019E+00
 -1      1846 2.16343E+00
 -1      1847 1.89789E+00
 -1      1848 1.87304E+00
 -1      1849 1.72971E+00
 -1      1850 1.47018E+00
 -1      1851 1.60505E+00
 -1      1852 1.33363E+00
 -1      1853 1.11991E+00
 -1      1854 1.30032E+00
 -1      1855 9.57247E-01
 -1      1856 7.94554E-01
 -1      1857 1.00110E+00
 -1      1858 6.56157E-01
 -1      1859 5.14700E-01
 -1      1860 7.00038E-01
 -1      1861 4.00444E-01
 -1      1862 3.62453E-01
 -1      1863 4.47385E-01
 -1      1864 2.75009E-01
 -1      1865 2.39987E-01
 -1      1866 2.45686E-01
 -1      1867 2.43174E-01
 -1      1868 2.30435E-01
 -1      1869 1.61430E-01
 -1      1870 2.45207E-01
 -1      1871 2.29762E-01
 -1      1872 1.79390E-01
 -1      1873 2.27632E-01
 -1      1874 2.02923E-01
 -1      1875 1.92033E-01
 -1      1876 1.91343E-01
 -1      1877 1.69344E-01
 -1      1878 1.78323E-01
 -1      1879 1.59647E-01
 -1      1880 1.44152E-01
 -1      1881 1.57046E-01
 -1      1882 1.34056E-01
 -1      1883 1.24085E-01
 -1      1884 1.37253E-01
 -1      1885 1.13489E-01
 -1      1886 1.03374E-01
 -1      1887 1.16560E-01
 -1      1888 9.21588E-02
 -1      1889 8.18482E-02
 -1      1890 9.47486E-02
 -1      1891 7.14562E-02
 -1      1892 6.27496E-02
 -1      1893 7.31416E-02
 -1      1894 5.55649E-02
 -1      1895 4.83802E-02
 -1      1896 5.55649E-02
 -1      1897 4.21870E-02
 -1      1898 3.85088E-02
 -1      1899 4.21870E-02
 -1      1900 3.34304E-02
 -1      1901 2.99715E-02
 -1      1902 3.09156E-02
 -1      1903 2.76398E-02
 -1      1904 2.43527E-02
 -1      1905 2.35056E-02
 -1      1906 2.27043E-02
 -1      1907 1.97649E-02
 -1      1908 1.95254E-02
 -1      1909 1.81697E-02
 -1      1910 1.56535E-02
 -1      1911 1.62818E-02
 -1      1912 1.41992E-02
 -1      1913 1.23544E-02
 -1      1914 1.32323E-02
 -1      1915 1.10840E-02
 -1      1916 9.86901E-03
 -1      1917 1.05076E-02
 -1      1918 8.95482E-03
 -1      1919 7.99367E-03
 -1      1920 8.32308E-03
 -1      1921 7.45944E-03
 -1      1922 6.59750E-03
 -1      1923 6.87466E-03
 -1      1924 6.06794E-03
 -1      1925 5.38622E-03
 -1      1926 5.81087E-03
 -1      1927 4.89424E-03
 -1      1928 4.34107E-03
 -1      1929 4.78934E-03
 -1      1930 3.96116E-03
 -1      1931 3.53184E-03
 -1      1932 3.91746E-03
 -1      1933 3.19177E-03
 -1      1934 2.84410E-03
 -1      1935 3.19748E-03
 -1      1936 2.55973E-03
 -1      1937 2.25641E-03
 -1      1938 2.57304E-03
 -1      1939 2.03036E-03
 -1      1940 1.77292E-03
 -1      1941 2.06262E-03
 -1      1942 1.57433E-03
 -1      1943 1.36056E-03
 -1      1944 1.63799E-03
 -1      1945 1.19096E-03
 -1      1946 1.01666E-03
 -1      1947 1.26981E-03
 -1      1948 8.75291E-04
 -1      1949 7.70759E-04
 -1      1950 9.58847E-04
 -1      1951 6.55727E-04
 -1      1952 5.75839E-04
 -1      1953 7.02444E-04
 -1      1954 4.93443E-04
 -1      1955 4.25990E-04
 -1      1956 5.05016E-04
 -1      1957 3.69539E-04
 -1      1958 3.43546E-04
 -1      1959 3.66169E-04
 -1      1960 2.90362E-04
 -1      1961 2.18332E-04
 -1      1962 1.71390E-04
 -1      1963 2.56534E-04
 -1      1964 3.59449E+00
 -1      1965 3.31112E+00
 -1      1966 3.93642E+00
 -1      1967 3.88183E+00
 -1      1968 3.48209E+00
 -1      1969 4.48211E+00
 -1      1970 3.75344E+00
 -1      1971 3.53748E+00
 -1      1972 4.02536E+00
 -1      1973 7.02179E+00
 -1      1974 5.64928E+00
 -1      1975 5.57685E+00
 -1      1976 9.95522E+00
 -1      1977 8.27489E+00
 -1      1978 8.72581E+00
 -1      1979 9.28514E+00
 -1      1980 8.85297E+00
 -1      1981 8.87667E+00
 -1      1982 5.54286E+00
 -1      1983 7.28104E+00
 -1      1984 5.77032E+00
 -1      1985 3.65818E+00
 -1      1986 5.71984E+00
 -1      1987 3.94320E+00
 -1      1988 3.29440E+00
 -1      1989 3.37724E+00
 -1      1990 3.83925E+00
 -1      1991 3.37636E+00
 -1      1992 3.07822E+00
 -1      1993 3.34212E+00
 -1      1994 3.19676E+00
 -1      1995 3.21360E+00
 -1      1996 2.96318E+00
 -1      1997 2.75446E+00
 -1      1998 3.05666E+00
 -1      1999 2.66031E+00
 -1      2000 2.30850E+00
 -1      2001 2.60170E+00
 -1      2002 2.36746E+00
 -1      2003 1.83913E+00
 -1      2004 2.09673E+00
 -1      2005 2.00293E+00
 -1      2006 1.39143E+00
 -1      2007 1.62733E+00
 -1      2008 1.57936E+00
 -1      2009 1.01328E+00
 -1      2010 1.20953E+00
 -1      2011 1.18566E+00
 -1      2012 7.17987E-01
 -1      2013 8.69793E-01
 -1      2014 8.60277E-01
 -1      2015 5.01705E-01
 -1      2016 6.10444E-01
 -1      2017 6.09247E-01
 -1      2018 3.45442E-01
 -1      2019 4.23573E-01
 -1      2020 4.23573E-01
 -1      2021 2.41606E-01
 -1      2022 2.93524E-01
 -1      2023 2.93524E-01
 -1      2024 1.61803E-01
 -1      2025 2.01705E-01
 -1      2026 2.01705E-01
 -1      2027 1.14813E-01
 -1      2028 1.38308E-01
 -1      2029 1.38308E-01
 -1      2030 8.05271E-02
 -1      2031 9.76699E-02
 -1      2032 9.76699E-02
 -1      2033 5.56404E-02
 -1      2034 6.80838E-02
 -1      2035 6.80838E-02
 -1      2036 3.79631E-02
 -1      2037 4.66635E-02
 -1      2038 4.66635E-02
 -1      2039 2.79251E-02
 -1      2040 3.16493E-02
 -1      2041 3.13728E-02
 -1      2042 2.14618E-02
 -1      2043 2.46149E-02
 -1      2044 2.17489E-02
 -1      2045 1.71831E-02
 -1      2046 1.98125E-02
 -1      2047 1.67895E-02
 -1      2048 1.35557E-02
 -1      2049 1.57183E-02
 -1      2050 1.36754E-02
 -1      2051 1.09985E-02
 -1      2052 1.22935E-02
 -1      2053 1.09484E-02
 -1      2054 9.07429E-03
 -1      2055 9.93642E-03
 -1      2056 8.62420E-03
 -1      2057 7.54391E-03
 -1      2058 8.39211E-03
 -1      2059 6.87996E-03
 -1      2060 6.35922E-03
 -1      2061 7.14603E-03
 -1      2062 5.79989E-03
 -1      2063 5.31777E-03
 -1      2064 5.97990E-03
 -1      2065 5.02269E-03
 -1      2066 4.25936E-03
 -1      2067 4.91293E-03
 -1      2068 4.23854E-03
 -1      2069 3.48163E-03
 -1      2070 3.94599E-03
 -1      2071 3.52033E-03
 -1      2072 2.79194E-03
 -1      2073 3.19056E-03
 -1      2074 2.91590E-03
 -1      2075 2.21834E-03
 -1      2076 2.53275E-03
 -1      2077 2.36564E-03
 -1      2078 1.72939E-03
 -1      2079 1.99417E-03
 -1      2080 1.88228E-03
 -1      2081 1.32084E-03
 -1      2082 1.53983E-03
 -1      2083 1.46855E-03
 -1      2084 9.84701E-04
 -1      2085 1.16334E-03
 -1      2086 1.12149E-03
 -1      2087 7.18774E-04
 -1      2088 8.55638E-04
 -1      2089 8.34925E-04
 -1      2090 5.49416E-04
 -1      2091 6.30102E-04
 -1      2092 6.17190E-04
 -1      2093 4.12857E-04
 -1      2094 4.86612E-04
 -1      2095 4.65714E-04
 -1      2096 2.82491E-04
 -1      2097 3.52647E-04
 -1      2098 3.42701E-04
 -1      2099 1.75821E-04
 -1      2100 2.23664E-04
 -1      2101 2.23664E-04
 -1      2102 1.37737E-04
 -1      2103 8.80917E-05
 -1      2104 1.13167E-04
 -1      2105 1.23415E-04
 -1      2106 1.25110E-04
 -1      2107 1.29336E-04
 -1      2108 1.48650E-04
 -1      2109 1.48650E-04
 -1      2110 1.75751E-04
 -1      2111 1.63125E-04
 -1      2112 1.20323E-04
 -1      2113 9.77530E-05
 -1      2114 1.28749E-04
 -1      2115 1.57246E-04
 -1      2116 1.42329E-04
 -1      2117 1.60416E-04
 -1      2118 1.73699E-04
 -1      2119 1.67636E-04
 -1      2120 1.92811E-04
 -1      2121 1.73699E-04
 -1      2122 1.73699E-04
 -1      2123 2.03201E-04
 -1      2124 1.73205E-04
 -1      2125 1.73255E-04
 -1      2126 2.02757E-04
 -1      2127 1.66710E-04
 -1      2128 1.73205E-04
 -1      2129 2.02312E-04
 -1      2130 1.42411E-04
 -1      2131 1.56728E-04
 -1      2132 1.92331E-04
 -1      2133 9.83625E-05
 -1      2134 1.20786E-04
 -1      2135 1.60725E-04
 -1      2136 1.15493E-04
 -1      2137 8.92818E-05
 -1      2138 1.30019E-04
 -1      2139 1.45888E-04
 -1      2140 1.45888E-04
 -1      2141 1.51333E-04
 -1      2142 3.22685E+01
 -1      2143 3.22685E+01
 -1      2144 3.41863E+01
 -1      2145 3.41863E+01
 -1      2146 3.55358E+01
 -1      2147 3.41863E+01
 -1      2148 2.34390E+01
 -1      2149 2.56485E+01
 -1      2150 2.56485E+01
 -1      2151 1.09259E+01
 -1      2152 1.89414E+01
 -1      2153 1.43800E+00
 -1      2154 1.40156E+00
 -1      2155 1.06905E+00
 -1      2156 1.21403E+00
 -1      2157 1.14935E+01
 -1      2158 1.07949E+01
 -1      2159 1.22703E+01
 -1      2160 1.27420E+01
 -1      2161 1.19068E+01
 -1      2162 1.19124E+01
 -1      2163 9.58454E+00
 -1      2164 1.05129E+01
 -1      2165 1.41144E+01
 -1      2166 1.03312E+01
 -1      2167 8.51083E+00
 -1      2168 3.13934E+01
 -1      2169 1.75885E+01
 -1      2170 3.23650E+01
 -1      2171 3.68415E+01
 -1      2172 3.30253E+01
 -1      2173 3.38768E+01
 -1      2174 3.59251E+01
 -1      2175 3.59251E+01
 -1      2176 2.96324E+01
 -1      2177 3.33470E+01
 -1      2178 3.79625E+01
 -1      2179 2.84959E+01
 -1      2180 1.89722E+01
 -1      2181 3.20922E+01
 -1      2182 2.26257E+01
 -1      2183 1.01522E+01
 -1      2184 1.54952E+01
 -1      2185 9.24464E+00
 -1      2186 8.56456E+00
 -1      2187 1.05464E+01
 -1      2188 1.07015E+01
 -1      2189 1.12576E+01
 -1      2190 1.14053E+01
 -1      2191 1.15919E+01
 -1      2192 1.10164E+01
 -1      2193 1.10164E+01
 -1      2194 1.00833E+01
 -1      2195 1.04632E+01
 -1      2196 9.37298E+00
 -1      2197 9.50694E+00
 -1      2198 1.55053E+01
 -1      2199 1.04183E+01
 -1      2200 3.17510E+01
 -1      2201 1.90688E+01
 -1      2202 1.30190E+01
 -1      2203 2.83376E+01
 -1      2204 3.76286E+01
 -1      2205 2.93996E+01
 -1      2206 2.87836E+01
 -1      2207 1.03353E+01
 -1      2208 9.83509E+00
 -1      2209 8.94247E+00
 -1      2210 1.89298E+01
 -1      2211 1.45192E+01
 -1      2212 1.00217E+01
 -1      2213 3.29283E+00
 -1      2214 8.31126E+00
 -1      2215 2.58927E+00
 -1      2216 3.55358E+01
 -1      2217 3.88030E+01
 -1      2218 1.60578E-04
 -1      2219 3.40163E+01
 -1      2220 2.24601E+01
 -1      2221 8.41026E+00
 -1      2222 1.09297E+01
 -1      2223 1.01129E+01
 -1      2224 8.98416E+00
 -1      2225 1.03987E+01
 -1      2226 8.08300E+00
 -1      2227 1.32784E+01
 -1      2228 2.96324E+01
 -1      2229 3.33470E+01
 -1      2230 3.30253E+01
 -1      2231 3.04901E+01
 -1      2232 2.52271E+01
 -1      2233 2.67389E+01
 -1      2234 1.27316E+01
 -1      2235 9.15813E+00
 -1      2236 1.00194E+01
 -1      2237 1.09100E+01
 -1      2238 2.16538E+01
 -1      2239 8.21378E+00
 -1      2240 7.94129E+00
 -1      2241 2.87836E+01
 -1      2242 6.65394E+00
 -1      2243 5.99586E+00
 -1      2244 2.55582E+00
 -1      2245 2.13000E+00
 -1      2246 1.63466E+00
 -1      2247 1.35131E+00
 -1      2248 1.88950E+00
 -1      2249 4.36824E+00
 -1      2250 4.08790E+00
 -1      2251 5.12826E+00
 -1      2252 5.10162E+00
 -1      2253 5.47763E+00
 -1      2254 6.01383E+00
 -1      2255 5.56214E+00
 -1      2256 6.64488E+00
 -1      2257 7.52423E+00
 -1      2258 6.96514E+00
 -1      2259 8.03007E+00
 -1      2260 7.79671E+00
 -1      2261 7.52423E+00
 -1      2262 8.98137E+00
 -1      2263 7.98203E+00
 -1      2264 7.66271E+00
 -1      2265 8.84738E+00
 -1      2266 5.69523E+00
 -1      2267 5.80762E+00
 -1      2268 7.86706E+00
 -1      2269 2.01615E+00
 -1      2270 1.95290E+00
 -1      2271 7.18293E+00
 -1      2272 6.72334E+00
 -1      2273 2.05390E+00
 -1      2274 2.02668E+00
 -1      2275 1.65582E+00
 -1      2276 2.04119E+00
 -1      2277 2.02138E+00
 -1      2278 1.77134E+00
 -1      2279 1.98011E+00
 -1      2280 1.91812E+00
 -1      2281 1.74459E+00
 -1      2282 1.83357E+00
 -1      2283 1.77088E+00
 -1      2284 1.61877E+00
 -1      2285 1.74197E+00
 -1      2286 1.72462E+00
 -1      2287 1.50530E+00
 -1      2288 1.71627E+00
 -1      2289 1.61647E+00
 -1      2290 1.46804E+00
 -1      2291 1.54882E+00
 -1      2292 1.38063E+00
 -1      2293 1.39205E+00
 -1      2294 1.30790E+00
 -1      2295 1.17135E+00
 -1      2296 1.25166E+00
 -1      2297 1.05214E+00
 -1      2298 8.89473E-01
 -1      2299 1.05972E+00
 -1      2300 7.68404E-01
 -1      2301 6.30007E-01
 -1      2302 8.19443E-01
 -1      2303 5.27477E-01
 -1      2304 4.13221E-01
 -1      2305 5.95843E-01
 -1      2306 3.25375E-01
 -1      2307 2.37932E-01
 -1      2308 4.05467E-01
 -1      2309 2.09749E-01
 -1      2310 2.12937E-01
 -1      2311 2.89438E-01
 -1      2312 1.83288E-01
 -1      2313 1.98060E-01
 -1      2314 2.31607E-01
 -1      2315 1.87216E-01
 -1      2316 1.85087E-01
 -1      2317 1.91114E-01
 -1      2318 1.81716E-01
 -1      2319 1.70136E-01
 -1      2320 1.76899E-01
 -1      2321 1.61401E-01
 -1      2322 1.51703E-01
 -1      2323 1.64793E-01
 -1      2324 1.42538E-01
 -1      2325 1.32442E-01
 -1      2326 1.46893E-01
 -1      2327 1.22630E-01
 -1      2328 1.12034E-01
 -1      2329 1.27915E-01
 -1      2330 1.01466E-01
 -1      2331 9.02511E-02
 -1      2332 1.07536E-01
 -1      2333 7.98279E-02
 -1      2334 6.94359E-02
 -1      2335 8.65455E-02
 -1      2336 6.00303E-02
 -1      2337 5.28456E-02
 -1      2338 6.67166E-02
 -1      2339 4.48659E-02
 -1      2340 3.86727E-02
 -1      2341 4.93313E-02
 -1      2342 3.22205E-02
 -1      2343 2.71422E-02
 -1      2344 3.48994E-02
 -1      2345 2.23601E-02
 -1      2346 2.00284E-02
 -1      2347 2.36650E-02
 -1      2348 1.72620E-02
 -1      2349 1.56135E-02
 -1      2350 1.61165E-02
 -1      2351 1.42496E-02
 -1      2352 1.26544E-02
 -1      2353 1.19861E-02
 -1      2354 1.20624E-02
 -1      2355 1.06081E-02
 -1      2356 1.00302E-02
 -1      2357 9.94496E-03
 -1      2358 8.67462E-03
 -1      2359 8.77508E-03
 -1      2360 8.00963E-03
 -1      2361 7.09544E-03
 -1      2362 7.44697E-03
 -1      2363 6.47187E-03
 -1      2364 5.93764E-03
 -1      2365 6.15842E-03
 -1      2366 5.49149E-03
 -1      2367 4.96193E-03
 -1      2368 5.08870E-03
 -1      2369 4.65258E-03
 -1      2370 4.16060E-03
 -1      2371 4.33319E-03
 -1      2372 3.84254E-03
 -1      2373 3.46263E-03
 -1      2374 3.70577E-03
 -1      2375 3.16826E-03
 -1      2376 2.82819E-03
 -1      2377 3.09333E-03
 -1      2378 2.58198E-03
 -1      2379 2.29760E-03
 -1      2380 2.55275E-03
 -1      2381 2.07211E-03
 -1      2382 1.84607E-03
 -1      2383 2.08105E-03
 -1      2384 1.64718E-03
 -1      2385 1.44860E-03
 -1      2386 1.65668E-03
 -1      2387 1.29258E-03
 -1      2388 1.12299E-03
 -1      2389 1.30178E-03
 -1      2390 9.92919E-04
 -1      2391 8.51549E-04
 -1      2392 1.01569E-03
 -1      2393 7.41415E-04
 -1      2394 6.26383E-04
 -1      2395 7.75488E-04
 -1      2396 5.35843E-04
 -1      2397 4.53447E-04
 -1      2398 5.74815E-04
 -1      2399 3.68697E-04
 -1      2400 3.12246E-04
 -1      2401 3.99524E-04
 -1      2402 7.61845E+00
 -1      2403 5.72261E+00
 -1      2404 4.68061E+00
 -1      2405 6.68471E+00
 -1      2406 4.59642E+00
 -1      2407 4.41943E+00
 -1      2408 4.67456E+00
 -1      2409 4.95551E+00
 -1      2410 4.27586E+00
 -1      2411 4.49204E+00
 -1      2412 5.60830E+00
 -1      2413 3.33403E+00
 -1      2414 3.49680E+00
 -1      2415 4.64672E+00
 -1      2416 2.91077E+00
 -1      2417 3.05086E+00
 -1      2418 3.58449E+00
 -1      2419 2.45987E+00
 -1      2420 2.61263E+00
 -1      2421 3.00318E+00
 -1      2422 1.95170E+00
 -1      2423 2.16347E+00
 -1      2424 2.40864E+00
 -1      2425 1.48045E+00
 -1      2426 1.69225E+00
 -1      2427 1.85279E+00
 -1      2428 1.08787E+00
 -1      2429 1.26977E+00
 -1      2430 1.38266E+00
 -1      2431 7.81458E-01
 -1      2432 9.24946E-01
 -1      2433 1.00905E+00
 -1      2434 5.51897E-01
 -1      2435 6.59439E-01
 -1      2436 7.24108E-01
 -1      2437 3.84312E-01
 -1      2438 4.62443E-01
 -1      2439 5.12635E-01
 -1      2440 2.69491E-01
 -1      2441 3.21408E-01
 -1      2442 3.60278E-01
 -1      2443 1.79682E-01
 -1      2444 2.19584E-01
 -1      2445 2.47468E-01
 -1      2446 1.23956E-01
 -1      2447 1.47451E-01
 -1      2448 1.65331E-01
 -1      2449 8.41887E-02
 -1      2450 1.01332E-01
 -1      2451 1.10475E-01
 -1      2452 5.59778E-02
 -1      2453 6.84211E-02
 -1      2454 7.20827E-02
 -1      2455 3.71575E-02
 -1      2456 4.61344E-02
 -1      2457 4.64717E-02
 -1      2458 2.56646E-02
 -1      2459 3.19784E-02
 -1      2460 3.14492E-02
 -1      2461 1.85036E-02
 -1      2462 2.18138E-02
 -1      2463 2.24194E-02
 -1      2464 1.51402E-02
 -1      2465 1.67895E-02
 -1      2466 1.68544E-02
 -1      2467 1.22106E-02
 -1      2468 1.36754E-02
 -1      2469 1.36754E-02
 -1      2470 9.68626E-03
 -1      2471 1.09484E-02
 -1      2472 1.09484E-02
 -1      2473 7.77205E-03
 -1      2474 8.83410E-03
 -1      2475 8.83410E-03
 -1      2476 6.43178E-03
 -1      2477 7.11397E-03
 -1      2478 7.32386E-03
 -1      2479 5.42506E-03
 -1      2480 5.82295E-03
 -1      2481 6.05695E-03
 -1      2482 4.51102E-03
 -1      2483 4.89034E-03
 -1      2484 4.91339E-03
 -1      2485 3.79633E-03
 -1      2486 4.20117E-03
 -1      2487 4.06881E-03
 -1      2488 3.18026E-03
 -1      2489 3.49363E-03
 -1      2490 3.45626E-03
 -1      2491 2.60363E-03
 -1      2492 2.89470E-03
 -1      2493 2.86799E-03
 -1      2494 2.10588E-03
 -1      2495 2.36507E-03
 -1      2496 2.34387E-03
 -1      2497 1.67224E-03
 -1      2498 1.89641E-03
 -1      2499 1.89584E-03
 -1      2500 1.29974E-03
 -1      2501 1.48930E-03
 -1      2502 1.50343E-03
 -1      2503 9.86579E-04
 -1      2504 1.14408E-03
 -1      2505 1.16483E-03
 -1      2506 7.28171E-04
 -1      2507 8.57234E-04
 -1      2508 8.79824E-04
 -1      2509 5.34606E-04
 -1      2510 6.23278E-04
 -1      2511 6.45587E-04
 -1      2512 3.89828E-04
 -1      2513 4.52632E-04
 -1      2514 4.58720E-04
 -1      2515 2.70578E-04
 -1      2516 3.30788E-04
 -1      2517 3.17706E-04
 -1      2518 2.34578E-04
 -1      2519 2.07996E-04
 -1      2520 1.85990E-04
 -1      2521 2.35114E-04
 -1      2522 2.24724E-04
 -1      2523 2.50298E-04
 -1      2524 1.70410E-04
 -1      2525 1.80659E-04
 -1      2526 1.65162E-04
 -1      2527 1.55500E-04
 -1      2528 2.06823E-04
 -1      2529 2.12742E-04
 -1      2530 2.35928E-04
 -1      2531 2.35928E-04
 -1      2532 2.67841E-04
 -1      2533 2.35593E-04
 -1      2534 2.36037E-04
 -1      2535 2.68765E-04
 -1      2536 2.35593E-04
 -1      2537 2.35593E-04
 -1      2538 2.68873E-04
 -1      2539 2.24665E-04
 -1      2540 2.34647E-04
 -1      2541 2.67927E-04
 -1      2542 1.85336E-04
 -1      2543 2.06961E-04
 -1      2544 2.49277E-04
 -1      2545 1.90444E-04
 -1      2546 1.99525E-04
 -1      2547 2.45761E-04
 -1      2548 2.04827E-04
 -1      2549 1.74433E-04
 -1      2550 2.43938E-04
 -1      2551 3.88030E+01
 -1      2552 3.88030E+01
 -1      2553 2.74790E+01
 -1      2554 3.07462E+01
 -1      2555 3.40163E+01
 -1      2556 2.92296E+01
 -1      2557 3.40163E+01
 -1      2558 1.92539E-04
 -1      2559 1.66107E+01
 -1      2560 2.32308E+01
 -1      2561 1.84413E+01
 -1      2562 1.93912E+00
 -1      2563 1.82733E+00
 -1      2564 1.36600E+00
 -1      2565 1.09785E+00
 -1      2566 2.09915E+01
 -1      2567 1.51139E+01
 -1      2568 7.57216E+00
 -1      2569 6.52688E+00
 -1      2570 9.26239E+00
 -1      2571 8.40352E+00
 -1      2572 2.45134E+01
 -1      2573 2.56499E+01
 -1      2574 9.01238E+00
 -1      2575 3.51620E+00
 -1      2576 3.16382E+00
 -1      2577 2.99285E+00
 -1      2578 4.17256E+00
 -1      2579 1.99566E+01
 -1      2580 1.45084E+01
 -1      2581 9.52114E+00
 -1      2582 8.27263E+00
 -1      2583 6.21941E+00
 -1      2584 7.80701E+00
 -1      2585 1.20389E+01
 -1      2586 8.56475E+00
 -1      2587 3.30253E+01
 -1      2588 3.01255E+01
 -1      2589 3.07689E+01
 -1      2590 3.33470E+01
 -1      2591 3.04472E+01
 -1      2592 1.50768E+01
 -1      2593 2.09470E+01
 -1      2594 5.95314E+00
 -1      2595 6.52946E+00
 -1      2596 9.33156E+00
 -1      2597 1.28086E+01
 -1      2598 7.50103E+00
 -1      2599 6.04421E+00
 -1      2600 6.36473E+00
 -1      2601 9.27319E+00
 -1      2602 9.51440E+00
 -1      2603 2.44668E+01
 -1      2604 2.40208E+01
 -1      2605 1.29814E+01
 -1      2606 9.41787E+00
 -1      2607 6.46216E+00
 -1      2608 7.55296E+00
 -1      2609 5.37635E+00
 -1      2610 5.22020E+00
 -1      2611 6.30959E+00
 -1      2612 8.09387E+00
 -1      2613 1.03416E+01
 -1      2614 1.18078E+00
 -1      2615 1.13794E+00
 -1      2616 1.04350E+00
 -1      2617 5.16517E+00
 -1      2618 6.49069E+00
 -1      2619 7.36252E+00
 -1      2620 5.33383E+00
 -1      2621 1.66746E+01
 -1      2622 1.15127E+01
 -1      2623 2.44668E+01
 -1      2624 8.27263E+00
 -1      2625 1.02655E+01
 -1      2626 5.43174E+00
 -1      2627 2.22665E-04
 -1      2628 1.80659E-04
 -1      2629 2.04199E-04
 -1      2630 2.40199E-04
 -1      2631 2.21733E-04
 -1      2632 7.33719E+00
 -1      2633 2.01558E-04
 -1      2634 1.90747E-04
 -1      2635 2.13846E-04
 -1      2636 2.54742E-04
 -1      2637 2.86383E+01
 -1      2638 2.86383E+01
 -1      2639 2.05815E+01
 -1      2640 5.11505E+00
 -1      2641 1.06234E+01
 -1      2642 4.82082E+00
 -1      2643 8.09387E+00
 -1      2644 2.57270E-04
 -1      2645 7.51922E+00
 -1      2646 2.56499E+01
 -1      2647 1.40916E+01
 -1      2648 1.16740E+01
 -1      2649 9.58246E+00
 -1      2650 1.14839E+00
 -1      2651 7.53449E+00
 -1      2652 8.87667E+00
 -1      2653 1.69646E+01
 -1      2654 6.99601E+00
 -1      2655 5.63744E+00
 -1      2656 2.67389E+01
 -1      2657 6.21010E+00
 -1      2658 6.90279E+00
 -1      2659 6.15617E+00
 -1      2660 1.82606E+01
 -1      2661 2.01355E+01
 -1      2662 1.29901E+01
 -1      2663 1.11299E+01
 -1      2664 8.61096E+00
 -1      2665 7.54134E+00
 -1      2666 9.24958E+00
 -1      2667 8.81570E+00
 -1      2668 6.81861E+00
 -1      2669 6.08524E+00
 -1      2670 9.42331E+00
 -1      2671 1.04541E+01
 -1      2672 1.04541E+01
 -1      2673 1.03201E+01
 -1      2674 1.04541E+01
 -1      2675 9.05803E+00
 -1      2676 9.90435E+00
 -1      2677 3.57848E-04
 -1      2678 3.00344E-04
 -1      2679 3.14425E-04
 -1      2680 8.71338E+00
 -1      2681 1.58126E+01
 -1      2682 1.27832E+01
 -1      2683 6.57056E+00
 -1      2684 6.31856E+00
 -1      2685 1.25633E+01
 -1      2686 1.68114E+01
 -1      2687 1.58517E+00
 -1      2688 1.59969E+00
 -1      2689 1.61409E+00
 -1      2690 1.57282E+00
 -1      2691 1.42793E+00
 -1      2692 1.56034E+00
 -1      2693 1.47579E+00
 -1      2694 1.42984E+00
 -1      2695 1.40441E+00
 -1      2696 1.37550E+00
 -1      2697 1.34599E+00
 -1      2698 1.43773E+00
 -1      2699 1.42938E+00
 -1      2700 1.33684E+00
 -1      2701 1.36864E+00
 -1      2702 1.30099E+00
 -1      2703 1.33833E+00
 -1      2704 1.25761E+00
 -1      2705 1.18488E+00
 -1      2706 1.23420E+00
 -1      2707 1.12680E+00
 -1      2708 1.00759E+00
 -1      2709 1.13275E+00
 -1      2710 9.20932E-01
 -1      2711 7.99863E-01
 -1      2712 9.88014E-01
 -1      2713 6.98374E-01
 -1      2714 5.95843E-01
 -1      2715 7.99863E-01
 -1      2716 5.07674E-01
 -1      2717 4.19828E-01
 -1      2718 6.10205E-01
 -1      2719 3.64009E-01
 -1      2720 3.35827E-01
 -1      2721 4.66217E-01
 -1      2722 2.79942E-01
 -1      2723 2.50294E-01
 -1      2724 3.54513E-01
 -1      2725 2.20595E-01
 -1      2726 2.09751E-01
 -1      2727 2.68930E-01
 -1      2728 1.96166E-01
 -1      2729 1.92795E-01
 -1      2730 2.25647E-01
 -1      2731 1.78219E-01
 -1      2732 1.69484E-01
 -1      2733 1.97486E-01
 -1      2734 1.55808E-01
 -1      2735 1.46643E-01
 -1      2736 1.69234E-01
 -1      2737 1.34549E-01
 -1      2738 1.24737E-01
 -1      2739 1.43464E-01
 -1      2740 1.12958E-01
 -1      2741 1.02391E-01
 -1      2742 1.19592E-01
 -1      2743 9.12613E-02
 -1      2744 8.08381E-02
 -1      2745 9.66837E-02
 -1      2746 7.09020E-02
 -1      2747 6.14963E-02
 -1      2748 7.56178E-02
 -1      2749 5.30638E-02
 -1      2750 4.50841E-02
 -1      2751 5.72492E-02
 -1      2752 3.82061E-02
 -1      2753 3.17539E-02
 -1      2754 4.19387E-02
 -1      2755 2.63301E-02
 -1      2756 2.15480E-02
 -1      2757 2.96368E-02
 -1      2758 1.74012E-02
 -1      2759 1.46347E-02
 -1      2760 2.00662E-02
 -1      2761 1.15595E-02
 -1      2762 1.01956E-02
 -1      2763 1.28442E-02
 -1      2764 8.47633E-03
 -1      2765 7.88433E-03
 -1      2766 8.04972E-03
 -1      2767 7.57958E-03
 -1      2768 6.91647E-03
 -1      2769 6.02572E-03
 -1      2770 6.77163E-03
 -1      2771 6.10663E-03
 -1      2772 5.57613E-03
 -1      2773 5.84582E-03
 -1      2774 5.22225E-03
 -1      2775 5.17047E-03
 -1      2776 4.90601E-03
 -1      2777 4.45986E-03
 -1      2778 4.59341E-03
 -1      2779 4.12947E-03
 -1      2780 3.82012E-03
 -1      2781 3.94678E-03
 -1      2782 3.56495E-03
 -1      2783 3.24688E-03
 -1      2784 3.36123E-03
 -1      2785 3.02832E-03
 -1      2786 2.73395E-03
 -1      2787 2.88749E-03
 -1      2788 2.51381E-03
 -1      2789 2.26760E-03
 -1      2790 2.44879E-03
 -1      2791 2.06030E-03
 -1      2792 1.83481E-03
 -1      2793 2.02135E-03
 -1      2794 1.65634E-03
 -1      2795 1.45746E-03
 -1      2796 1.63558E-03
 -1      2797 1.30463E-03
 -1      2798 1.14861E-03
 -1      2799 1.30429E-03
 -1      2800 1.01599E-03
 -1      2801 8.85923E-04
 -1      2802 1.01884E-03
 -1      2803 7.75488E-04
 -1      2804 6.65355E-04
 -1      2805 7.75790E-04
 -1      2806 5.82101E-04
 -1      2807 4.91560E-04
 -1      2808 5.82101E-04
 -1      2809 4.38986E-04
 -1      2810 3.54236E-04
 -1      2811 3.97310E-04
 -1      2812 4.46272E-04
 -1      2813 5.44580E+00
 -1      2814 4.54331E+00
 -1      2815 7.77442E+00
 -1      2816 6.67643E+00
 -1      2817 6.85895E+00
 -1      2818 2.99581E+00
 -1      2819 3.29394E+00
 -1      2820 2.25099E+00
 -1      2821 2.54740E+00
 -1      2822 2.83816E+00
 -1      2823 1.65862E+00
 -1      2824 1.91807E+00
 -1      2825 2.05683E+00
 -1      2826 1.19074E+00
 -1      2827 1.40142E+00
 -1      2828 1.46670E+00
 -1      2829 8.47828E-01
 -1      2830 1.01076E+00
 -1      2831 1.02951E+00
 -1      2832 6.08976E-01
 -1      2833 7.30995E-01
 -1      2834 7.32696E-01
 -1      2835 4.35013E-01
 -1      2836 5.24466E-01
 -1      2837 5.31353E-01
 -1      2838 3.08940E-01
 -1      2839 3.71844E-01
 -1      2840 3.83674E-01
 -1      2841 2.11727E-01
 -1      2842 2.61633E-01
 -1      2843 2.73199E-01
 -1      2844 1.46206E-01
 -1      2845 1.78437E-01
 -1      2846 1.92602E-01
 -1      2847 9.93154E-02
 -1      2848 1.21940E-01
 -1      2849 1.35046E-01
 -1      2850 6.59822E-02
 -1      2851 8.17498E-02
 -1      2852 9.32149E-02
 -1      2853 4.35343E-02
 -1      2854 5.33776E-02
 -1      2855 6.30448E-02
 -1      2856 2.94089E-02
 -1      2857 3.45880E-02
 -1      2858 4.14939E-02
 -1      2859 1.92944E-02
 -1      2860 2.31452E-02
 -1      2861 2.62840E-02
 -1      2862 1.39831E-02
 -1      2863 1.56973E-02
 -1      2864 1.64231E-02
 -1      2865 1.13857E-02
 -1      2866 1.28505E-02
 -1      2867 1.16934E-02
 -1      2868 9.50538E-03
 -1      2869 1.07675E-02
 -1      2870 9.94266E-03
 -1      2871 7.98194E-03
 -1      2872 8.83410E-03
 -1      2873 8.65322E-03
 -1      2874 6.66578E-03
 -1      2875 7.32386E-03
 -1      2876 7.32386E-03
 -1      2877 5.44812E-03
 -1      2878 6.05695E-03
 -1      2879 6.05695E-03
 -1      2880 4.44582E-03
 -1      2881 4.98055E-03
 -1      2882 4.98055E-03
 -1      2883 3.76579E-03
 -1      2884 4.07564E-03
 -1      2885 4.14280E-03
 -1      2886 3.15355E-03
 -1      2887 3.45626E-03
 -1      2888 3.46308E-03
 -1      2889 2.58736E-03
 -1      2890 2.87292E-03
 -1      2891 2.87292E-03
 -1      2892 2.11598E-03
 -1      2893 2.35454E-03
 -1      2894 2.35947E-03
 -1      2895 1.69591E-03
 -1      2896 1.90538E-03
 -1      2897 1.91605E-03
 -1      2898 1.32865E-03
 -1      2899 1.51159E-03
 -1      2900 1.52113E-03
 -1      2901 1.01951E-03
 -1      2902 1.17517E-03
 -1      2903 1.18332E-03
 -1      2904 7.72371E-04
 -1      2905 9.01715E-04
 -1      2906 9.12054E-04
 -1      2907 5.68144E-04
 -1      2908 6.73036E-04
 -1      2909 6.94928E-04
 -1      2910 4.04107E-04
 -1      2911 4.86081E-04
 -1      2912 5.13530E-04
 -1      2913 3.10189E-04
 -1      2914 3.69229E-04
 -1      2915 3.96589E-04
 -1      2916 2.91722E-04
 -1      2917 3.09463E-04
 -1      2918 3.09354E-04
 -1      2919 5.84645E+00
 -1      2920 7.37100E+00
 -1      2921 3.22475E-04
 -1      2922 3.05747E-04
 -1      2923 3.08728E-04
 -1      2924 3.08728E-04
 -1      2925 3.49317E-04
 -1      2926 3.09354E-04
 -1      2927 3.08539E-04
 -1      2928 3.63988E-04
 -1      2929 3.50052E-04
 -1      2930 1.12470E+00
 -1      2931 1.31352E+00
 -1      2932 3.07782E-04
 -1      2933 3.08728E-04
 -1      2934 3.48582E-04
 -1      2935 2.82229E-04
 -1      2936 2.99933E-04
 -1      2937 3.40733E-04
 -1      2938 3.30436E-04
 -1      2939 3.16248E-04
 -1      2940 3.66903E-04
 -1      2941 3.30436E-04
 -1      2942 4.40233E+00
 -1      2943 3.82859E+00
 -1      2944 1.09591E+00
 -1      2945 1.85140E+01
 -1      2946 2.36330E+01
 -1      2947 4.28104E+00
 -1      2948 6.73573E+00
 -1      2949 2.66075E+01
 -1      2950 2.18208E+01
 -1      2951 4.09148E+00
 -1      2952 4.37465E+00
 -1      2953 4.08410E+00
 -1      2954 6.91635E+00
 -1      2955 5.25439E+00
 -1      2956 4.79713E+00
 -1      2957 5.57620E+00
 -1      2958 5.30413E+00
 -1      2959 7.90043E+00
 -1      2960 2.21314E+01
 -1      2961 1.73686E+01
 -1      2962 1.47226E+01
 -1      2963 7.86785E+00
 -1      2964 6.02215E+00
 -1      2965 1.37082E+00
 -1      2966 1.47183E+00
 -1      2967 1.30018E+00
 -1      2968 1.12953E+00
 -1      2969 4.11457E+00
 -1      2970 9.90435E+00
 -1      2971 9.15271E+00
 -1      2972 8.20141E+00
 -1      2973 4.46293E+00
 -1      2974 4.63813E+00
 -1      2975 4.67195E+00
 -1      2976 2.02961E+00
 -1      2977 1.53426E+00
 -1      2978 7.50919E+00
 -1      2979 6.66946E+00
 -1      2980 2.39940E+01
 -1      2981 2.06073E+01
 -1      2982 1.05823E+01
 -1      2983 8.44979E+00
 -1      2984 9.72030E+00
 -1      2985 8.37625E+00
 -1      2986 1.06445E+01
 -1      2987 8.45496E+00
 -1      2988 7.49925E+00
 -1      2989 8.02930E+00
 -1      2990 1.09245E+01
 -1      2991 1.23319E+00
 -1      2992 1.01982E+00
 -1      2993 1.37329E+00
 -1      2994 5.91444E+00
 -1      2995 4.57346E+00
 -1      2996 4.00176E+00
 -1      2997 1.19269E+01
 -1      2998 1.03722E+01
 -1      2999 3.56831E+00
 -1      3000 6.54236E+00
 -1      3001 5.34169E+00
 -1      3002 5.44058E+00
 -1      3003 1.34772E+01
 -1      3004 4.49714E+00
 -1      3005 1.09253E+01
 -1      3006 1.68033E+01
 -1      3007 1.46954E+01
 -1      3008 3.54400E+00
 -1      3009 3.13363E+00
 -1      3010 2.52562E+00
 -1      3011 2.17038E+00
 -1      3012 1.64428E+01
 -1      3013 2.66075E+01
 -1      3014 1.44120E+01
 -1      3015 1.01982E+00
 -1      3016 6.82684E+00
 -1      3017 1.15111E+01
 -1      3018 2.91722E-04
 -1      3019 1.00666E+01
 -1      3020 6.88551E+00
 -1      3021 3.79809E-04
 -1      3022 3.07632E-04
 -1      3023 2.86803E-04
 -1      3024 2.86803E-04
 -1      3025 3.01713E-04
 -1      3026 3.81693E-04
 -1      3027 4.00922E-04
 -1      3028 4.73569E+00
 -1      3029 9.68518E+00
 -1      3030 1.24389E+01
 -1      3031 1.60053E+01
 -1      3032 1.41406E+01
 -1      3033 2.12765E+01
 -1      3034 4.79422E+00
 -1      3035 1.10601E+01
 -1      3036 9.43026E+00
 -1      3037 8.54098E+00
 -1      3038 7.47286E+00
 -1      3039 3.71702E-04
 -1      3040 2.09549E+01
 -1      3041 6.93746E+00
 -1      3042 1.11034E+01
 -1      3043 1.55157E+01
 -1      3044 1.18555E+01
 -1      3045 2.10262E+01
 -1      3046 1.03828E+01
 -1      3047 1.54338E+00
 -1      3048 1.53090E+00
 -1      3049 1.53987E+00
 -1      3050 1.46849E+00
 -1      3051 1.65340E+00
 -1      3052 1.49827E+00
 -1      3053 1.56050E+00
 -1      3054 1.69215E+00
 -1      3055 1.47385E+00
 -1      3056 1.41310E+00
 -1      3057 1.63527E+00
 -1      3058 1.27504E+00
 -1      3059 1.23166E+00
 -1      3060 1.41056E+00
 -1      3061 1.25059E+00
 -1      3062 1.19252E+00
 -1      3063 1.29143E+00
 -1      3064 1.09866E+00
 -1      3065 1.01200E+00
 -1      3066 1.21650E+00
 -1      3067 9.08795E-01
 -1      3068 8.07306E-01
 -1      3069 1.01944E+00
 -1      3070 7.34689E-01
 -1      3071 6.46520E-01
 -1      3072 8.43621E-01
 -1      3073 5.54221E-01
 -1      3074 4.98402E-01
 -1      3075 6.78705E-01
 -1      3076 4.10398E-01
 -1      3077 3.54513E-01
 -1      3078 4.98402E-01
 -1      3079 3.19915E-01
 -1      3080 2.90216E-01
 -1      3081 3.75800E-01
 -1      3082 2.58976E-01
 -1      3083 2.45391E-01
 -1      3084 3.09961E-01
 -1      3085 2.18560E-01
 -1      3086 2.03984E-01
 -1      3087 2.51889E-01
 -1      3088 1.83671E-01
 -1      3089 1.69995E-01
 -1      3090 2.04745E-01
 -1      3091 1.53846E-01
 -1      3092 1.41752E-01
 -1      3093 1.68283E-01
 -1      3094 1.26169E-01
 -1      3095 1.14390E-01
 -1      3096 1.36551E-01
 -1      3097 1.00532E-01
 -1      3098 8.94023E-02
 -1      3099 1.07109E-01
 -1      3100 7.78014E-02
 -1      3101 6.78653E-02
 -1      3102 8.16498E-02
 -1      3103 5.88437E-02
 -1      3104 5.04112E-02
 -1      3105 6.10273E-02
 -1      3106 4.32627E-02
 -1      3107 3.63847E-02
 -1      3108 4.48573E-02
 -1      3109 3.08389E-02
 -1      3110 2.54151E-02
 -1      3111 3.21630E-02
 -1      3112 2.11987E-02
 -1      3113 1.70520E-02
 -1      3114 2.24009E-02
 -1      3115 1.39120E-02
 -1      3116 1.08368E-02
 -1      3117 1.50445E-02
 -1      3118 8.55031E-03
 -1      3119 6.83106E-03
 -1      3120 9.61810E-03
 -1      3121 5.20852E-03
 -1      3122 4.90377E-03
 -1      3123 5.70912E-03
 -1      3124 4.48301E-03
 -1      3125 4.33817E-03
 -1      3126 3.66581E-03
 -1      3127 4.49997E-03
 -1      3128 4.23916E-03
 -1      3129 3.40685E-03
 -1      3130 4.22506E-03
 -1      3131 3.90881E-03
 -1      3132 3.55456E-03
 -1      3133 3.78686E-03
 -1      3134 3.45648E-03
 -1      3135 3.41851E-03
 -1      3136 3.27591E-03
 -1      3137 3.02074E-03
 -1      3138 3.11599E-03
 -1      3139 2.81711E-03
 -1      3140 2.59855E-03
 -1      3141 2.73179E-03
 -1      3142 2.45764E-03
 -1      3143 2.23750E-03
 -1      3144 2.38726E-03
 -1      3145 2.07831E-03
 -1      3146 1.87101E-03
 -1      3147 2.08715E-03
 -1      3148 1.71062E-03
 -1      3149 1.53215E-03
 -1      3150 1.76757E-03
 -1      3151 1.38095E-03
 -1      3152 1.22812E-03
 -1      3153 1.45598E-03
 -1      3154 1.09167E-03
 -1      3155 9.59051E-04
 -1      3156 1.16833E-03
 -1      3157 8.39833E-04
 -1      3158 7.29398E-04
 -1      3159 9.12658E-04
 -1      3160 6.27900E-04
 -1      3161 5.44645E-04
 -1      3162 6.91942E-04
 -1      3163 2.00749E+00
 -1      3164 2.34042E+00
 -1      3165 2.83434E+00
 -1      3166 3.28274E+00
 -1      3167 2.78501E+00
 -1      3168 9.86598E-01
 -1      3169 1.16658E+00
 -1      3170 7.00488E-01
 -1      3171 8.17321E-01
 -1      3172 9.54390E-01
 -1      3173 4.96425E-01
 -1      3174 5.80934E-01
 -1      3175 6.65560E-01
 -1      3176 3.47683E-01
 -1      3177 4.10852E-01
 -1      3178 4.60434E-01
 -1      3179 2.39591E-01
 -1      3180 2.86898E-01
 -1      3181 3.14076E-01
 -1      3182 1.65439E-01
 -1      3183 1.98729E-01
 -1      3184 2.12428E-01
 -1      3185 1.14273E-01
 -1      3186 1.38539E-01
 -1      3187 1.44666E-01
 -1      3188 7.81123E-02
 -1      3189 9.56779E-02
 -1      3190 9.91703E-02
 -1      3191 5.35781E-02
 -1      3192 6.61827E-02
 -1      3193 6.86456E-02
 -1      3194 3.57659E-02
 -1      3195 4.47122E-02
 -1      3196 4.78501E-02
 -1      3197 2.30091E-02
 -1      3198 2.92728E-02
 -1      3199 3.24910E-02
 -1      3200 1.47338E-02
 -1      3201 1.83310E-02
 -1      3202 2.13198E-02
 -1      3203 1.02942E-02
 -1      3204 1.14268E-02
 -1      3205 1.33347E-02
 -1      3206 7.75166E-03
 -1      3207 8.36982E-03
 -1      3208 8.10323E-03
 -1      3209 6.86378E-03
 -1      3210 7.53506E-03
 -1      3211 5.96223E-03
 -1      3212 6.04815E-03
 -1      3213 6.70623E-03
 -1      3214 5.58807E-03
 -1      3215 5.16692E-03
 -1      3216 5.77575E-03
 -1      3217 5.15811E-03
 -1      3218 4.36789E-03
 -1      3219 4.83545E-03
 -1      3220 4.55425E-03
 -1      3221 3.66361E-03
 -1      3222 4.03380E-03
 -1      3223 3.88870E-03
 -1      3224 3.10638E-03
 -1      3225 3.41591E-03
 -1      3226 3.30691E-03
 -1      3227 2.60469E-03
 -1      3228 2.88532E-03
 -1      3229 2.83816E-03
 -1      3230 2.15342E-03
 -1      3231 2.38624E-03
 -1      3232 2.39865E-03
 -1      3233 1.73957E-03
 -1      3234 1.95017E-03
 -1      3235 1.97694E-03
 -1      3236 1.37359E-03
 -1      3237 1.55791E-03
 -1      3238 1.59203E-03
 -1      3239 1.06256E-03
 -1      3240 1.21604E-03
 -1      3241 1.25282E-03
 -1      3242 8.11270E-04
 -1      3243 9.29062E-04
 -1      3244 9.61778E-04
 -1      3245 6.00982E-04
 -1      3246 7.00317E-04
 -1      3247 7.17324E-04
 -1      3248 4.70837E-04
 -1      3249 5.52900E-04
 -1      3250 5.58289E-04
 -1      3251 4.06580E-04
 -1      3252 1.21321E+01
 -1      3253 3.83938E-04
 -1      3254 3.84674E-04
 -1      3255 5.89549E-04
 -1      3256 5.55530E-04
 -1      3257 4.82483E-04
 -1      3258 4.82483E-04
 -1      3259 5.17840E-04
 -1      3260 4.41026E+00
 -1      3261 2.79043E+00
 -1      3262 5.56053E+00
 -1      3263 5.98302E+00
 -1      3264 2.97017E+00
 -1      3265 2.88979E+00
 -1      3266 3.87365E+00
 -1      3267 4.67119E+00
 -1      3268 5.35008E+00
 -1      3269 3.86983E+00
 -1      3270 1.07222E+00
 -1      3271 1.00725E+01
 -1      3272 7.87162E+00
 -1      3273 1.29106E+01
 -1      3274 1.05541E+01
 -1      3275 5.55530E-04
 -1      3276 5.63378E-04
 -1      3277 6.97280E-04
 -1      3278 7.78175E-04
 -1      3279 4.02076E+00
 -1      3280 4.79422E+00
 -1      3281 1.40708E+00
 -1      3282 1.66428E+00
 -1      3283 1.94787E+00
 -1      3284 1.78640E+00
 -1      3285 1.80080E+00
 -1      3286 1.90186E+00
 -1      3287 8.33003E+00
 -1      3288 1.14500E+01
 -1      3289 1.59757E+01
 -1      3290 1.16771E+01
 -1      3291 1.19876E+01
 -1      3292 1.48946E+01
 -1      3293 8.58643E+00
 -1      3294 3.72656E+00
 -1      3295 4.93488E+00
 -1      3296 5.57538E+00
 -1      3297 6.58063E+00
 -1      3298 6.53915E+00
 -1      3299 5.95721E+00
 -1      3300 1.21824E+01
 -1      3301 1.06264E+01
 -1      3302 9.45291E+00
 -1      3303 4.10498E-04
 -1      3304 4.10498E-04
 -1      3305 5.99124E-04
 -1      3306 4.06885E-04
 -1      3307 4.45783E+00
 -1      3308 3.58507E+00
 -1      3309 2.72355E+00
 -1      3310 3.17599E+00
 -1      3311 3.17599E+00
 -1      3312 2.39811E+00
 -1      3313 4.45950E-04
 -1      3314 1.39587E+01
 -1      3315 7.65849E+00
 -1      3316 6.34836E+00
 -1      3317 4.83658E+00
 -1      3318 4.66712E+00
 -1      3319 1.66160E+00
 -1      3320 1.36052E+00
 -1      3321 3.53453E+00
 -1      3322 2.93086E+00
 -1      3323 1.36416E+00
 -1      3324 4.59460E-04
 -1      3325 1.14867E+00
 -1      3326 1.14867E+00
 -1      3327 1.20598E+00
 -1      3328 1.43698E+00
 -1      3329 1.26646E+01
 -1      3330 4.39934E+00
 -1      3331 3.48728E+00
 -1      3332 4.37114E+00
 -1      3333 3.90555E-04
 -1      3334 4.04491E-04
 -1      3335 4.45950E-04
 -1      3336 5.10207E-04
 -1      3337 4.45950E-04
 -1      3338 4.03597E-04
 -1      3339 4.05481E-04
 -1      3340 4.69738E-04
 -1      3341 4.30163E-04
 -1      3342 3.90555E-04
 -1      3343 3.90555E-04
 -1      3344 4.25176E-04
 -1      3345 4.90968E+00
 -1      3346 2.96442E+00
 -1      3347 4.51138E+00
 -1      3348 4.62999E+00
 -1      3349 3.15273E+00
 -1      3350 8.77771E+00
 -1      3351 1.17338E+01
 -1      3352 8.99884E+00
 -1      3353 1.17338E+01
 -1      3354 1.25479E+01
 -1      3355 5.05259E-04
 -1      3356 6.89138E+00
 -1      3357 9.13684E+00
 -1      3358 1.48946E+01
 -1      3359 1.31933E+00
 -1      3360 2.36852E+00
 -1      3361 1.87251E+00
 -1      3362 1.85974E+00
 -1      3363 1.69220E+00
 -1      3364 1.90405E+00
 -1      3365 3.78410E+00
 -1      3366 2.91597E+00
 -1      3367 2.61810E+00
 -1      3368 4.21802E+00
 -1      3369 1.69215E+00
 -1      3370 1.72193E+00
 -1      3371 2.72622E+00
 -1      3372 2.63957E+00
 -1      3373 2.72622E+00
 -1      3374 1.55775E+00
 -1      3375 1.41969E+00
 -1      3376 2.64870E+00
 -1      3377 1.58739E+00
 -1      3378 1.60632E+00
 -1      3379 1.73457E+00
 -1      3380 1.34987E+00
 -1      3381 1.25600E+00
 -1      3382 1.64582E+00
 -1      3383 1.20838E+00
 -1      3384 1.10518E+00
 -1      3385 1.34174E+00
 -1      3386 9.84888E-01
 -1      3387 9.12271E-01
 -1      3388 1.17383E+00
 -1      3389 7.71004E-01
 -1      3390 6.78705E-01
 -1      3391 9.12271E-01
 -1      3392 5.97079E-01
 -1      3393 5.09074E-01
 -1      3394 6.89378E-01
 -1      3395 4.46811E-01
 -1      3396 4.12213E-01
 -1      3397 5.45488E-01
 -1      3398 3.54007E-01
 -1      3399 3.22766E-01
 -1      3400 4.25019E-01
 -1      3401 2.86596E-01
 -1      3402 2.59765E-01
 -1      3403 3.30641E-01
 -1      3404 2.28296E-01
 -1      3405 2.07983E-01
 -1      3406 2.63003E-01
 -1      3407 1.82528E-01
 -1      3408 1.66380E-01
 -1      3409 2.06080E-01
 -1      3410 1.44545E-01
 -1      3411 1.28962E-01
 -1      3412 1.58791E-01
 -1      3413 1.14570E-01
 -1      3414 1.00711E-01
 -1      3415 1.22564E-01
 -1      3416 9.00267E-02
 -1      3417 7.84258E-02
 -1      3418 9.74874E-02
 -1      3419 6.87323E-02
 -1      3420 5.97107E-02
 -1      3421 7.71091E-02
 -1      3422 5.12504E-02
 -1      3423 4.41019E-02
 -1      3424 5.89553E-02
 -1      3425 3.70826E-02
 -1      3426 3.15369E-02
 -1      3427 4.34758E-02
 -1      3428 2.59497E-02
 -1      3429 2.17334E-02
 -1      3430 3.08694E-02
 -1      3431 1.77167E-02
 -1      3432 1.45767E-02
 -1      3433 2.12656E-02
 -1      3434 1.15354E-02
 -1      3435 9.24892E-03
 -1      3436 1.42076E-02
 -1      3437 7.01461E-03
 -1      3438 5.39207E-03
 -1      3439 8.93187E-03
 -1      3440 3.80543E-03
 -1      3441 3.38466E-03
 -1      3442 5.11092E-03
 -1      3443 2.53693E-03
 -1      3444 2.69874E-03
 -1      3445 2.67655E-03
 -1      3446 2.96336E-03
 -1      3447 2.94926E-03
 -1      3448 2.09344E-03
 -1      3449 3.06202E-03
 -1      3450 2.94007E-03
 -1      3451 2.47082E-03
 -1      3452 2.92574E-03
 -1      3453 2.74517E-03
 -1      3454 2.56925E-03
 -1      3455 2.65387E-03
 -1      3456 2.45025E-03
 -1      3457 2.46362E-03
 -1      3458 2.31766E-03
 -1      3459 2.17675E-03
 -1      3460 2.23974E-03
 -1      3461 2.05574E-03
 -1      3462 1.89655E-03
 -1      3463 1.98615E-03
 -1      3464 1.77671E-03
 -1      3465 1.61631E-03
 -1      3466 1.74529E-03
 -1      3467 1.48987E-03
 -1      3468 1.33867E-03
 -1      3469 1.49901E-03
 -1      3470 1.21603E-03
 -1      3471 1.07958E-03
 -1      3472 1.24993E-03
 -1      3473 9.66624E-04
 -1      3474 8.47406E-04
 -1      3475 1.01433E-03
 -1      3476 7.75475E-04
 -1      3477 6.73977E-04
 -1      3478 8.29442E-04
 -1      3479 2.15928E+00
 -1      3480 1.90186E+00
 -1      3481 5.82725E-01
 -1      3482 7.02278E-01
 -1      3483 8.27067E-01
 -1      3484 9.96343E-01
 -1      3485 7.44232E-01
 -1      3486 2.83816E-01
 -1      3487 3.44601E-01
 -1      3488 1.95188E-01
 -1      3489 2.36050E-01
 -1      3490 2.66575E-01
 -1      3491 1.35477E-01
 -1      3492 1.62377E-01
 -1      3493 1.85999E-01
 -1      3494 9.32109E-02
 -1      3495 1.11806E-01
 -1      3496 1.29518E-01
 -1      3497 6.44404E-02
 -1      3498 7.63700E-02
 -1      3499 8.90057E-02
 -1      3500 4.40899E-02
 -1      3501 5.29558E-02
 -1      3502 6.06802E-02
 -1      3503 2.93346E-02
 -1      3504 3.58277E-02
 -1      3505 4.09335E-02
 -1      3506 1.88698E-02
 -1      3507 2.35479E-02
 -1      3508 2.68846E-02
 -1      3509 1.14966E-02
 -1      3510 1.48036E-02
 -1      3511 1.70318E-02
 -1      3512 6.76649E-03
 -1      3513 8.69089E-03
 -1      3514 1.01599E-02
 -1      3515 4.97929E-03
 -1      3516 5.19589E-03
 -1      3517 5.78356E-03
 -1      3518 4.35499E-03
 -1      3519 4.51255E-03
 -1      3520 3.74621E-03
 -1      3521 4.23115E-03
 -1      3522 4.50355E-03
 -1      3523 3.42803E-03
 -1      3524 3.86889E-03
 -1      3525 4.20035E-03
 -1      3526 3.54579E-03
 -1      3527 3.39906E-03
 -1      3528 3.73315E-03
 -1      3529 3.37925E-03
 -1      3530 2.96500E-03
 -1      3531 3.21270E-03
 -1      3532 3.05715E-03
 -1      3533 2.53859E-03
 -1      3534 2.75965E-03
 -1      3535 2.66544E-03
 -1      3536 2.17311E-03
 -1      3537 2.39156E-03
 -1      3538 2.31305E-03
 -1      3539 1.81228E-03
 -1      3540 2.01554E-03
 -1      3541 2.00845E-03
 -1      3542 1.47453E-03
 -1      3543 1.65619E-03
 -1      3544 1.69478E-03
 -1      3545 1.17131E-03
 -1      3546 1.32885E-03
 -1      3547 1.39301E-03
 -1      3548 9.07337E-04
 -1      3549 1.04084E-03
 -1      3550 1.11687E-03
 -1      3551 6.83513E-04
 -1      3552 7.94465E-04
 -1      3553 8.73525E-04
 -1      3554 5.48464E-04
 -1      3555 5.96547E-04
 -1      3556 6.73688E-04
 -1      3557 5.48464E-04
 -1      3558 3.87564E+00
 -1      3559 4.52200E+00
 -1      3560 4.31058E-04
 -1      3561 2.75945E+00
 -1      3562 2.14455E+00
 -1      3563 6.04507E-04
 -1      3564 5.05962E-04
 -1      3565 1.68986E+00
 -1      3566 2.03307E+00
 -1      3567 1.98239E+00
 -1      3568 2.23762E+00
 -1      3569 2.23762E+00
 -1      3570 2.19331E+00
 -1      3571 6.84310E-04
 -1      3572 1.65340E+00
 -1      3573 1.66237E+00
 -1      3574 1.69215E+00
 -1      3575 1.91082E+00
 -1      3576 1.17693E+00
 -1      3577 1.41743E+00
 -1      3578 1.04961E+00
 -1      3579 2.31596E+00
 -1      3580 3.15273E+00
 -1      3581 7.67050E+00
 -1      3582 7.11663E+00
 -1      3583 6.90215E+00
 -1      3584 5.56969E+00
 -1      3585 3.57752E+00
 -1      3586 4.07903E-01
 -1      3587 4.93475E-01
 -1      3588 5.30194E-01
 -1      3589 3.77642E-01
 -1      3590 7.67843E-04
 -1      3591 2.51479E+00
 -1      3592 3.00871E+00
 -1      3593 2.25678E+00
 -1      3594 7.52721E+00
 -1      3595 7.72196E+00
 -1      3596 1.50263E+00
 -1      3597 7.67843E-04
 -1      3598 7.78175E-04
 -1      3599 7.78175E-04
 -1      3600 3.28741E+00
 -1      3601 3.14229E+00
 -1      3602 2.06047E+00
 -1      3603 2.44264E+00
 -1      3604 4.92824E-04
 -1      3605 4.92824E-04
 -1      3606 4.83922E-04
 -1      3607 4.83027E-04
 -1      3608 5.45688E-04
 -1      3609 9.98638E+00
 -1      3610 1.17338E+01
 -1      3611 4.15589E+00
 -1      3612 3.10836E+00
 -1      3613 4.16667E+00
 -1      3614 6.06088E+00
 -1      3615 9.05558E+00
 -1      3616 6.97280E-04
 -1      3617 6.16384E-04
 -1      3618 6.04507E-04
 -1      3619 6.97280E-04
 -1      3620 4.86942E-04
 -1      3621 4.92824E-04
 -1      3622 5.54590E-04
 -1      3623 5.73610E-04
 -1      3624 3.26342E+00
 -1      3625 3.85433E+00
 -1      3626 2.99321E+00
 -1      3627 5.79494E+00
 -1      3628 3.03007E+00
 -1      3629 7.56121E+00
 -1      3630 7.50447E+00
 -1      3631 6.08959E+00
 -1      3632 7.64750E+00
 -1      3633 9.99451E+00
 -1      3634 2.83613E+00
 -1      3635 2.33670E+00
 -1      3636 2.18364E+00
 -1      3637 2.11675E+00
 -1      3638 2.22817E+00
 -1      3639 2.05534E+00
 -1      3640 7.56121E+00
 -1      3641 7.56121E+00
 -1      3642 4.93599E+00
 -1      3643 6.34407E+00
 -1      3644 4.84971E+00
 -1      3645 2.22817E+00
 -1      3646 2.00019E+00
 -1      3647 1.74373E+00
 -1      3648 1.80343E+00
 -1      3649 1.75580E+00
 -1      3650 2.15779E+00
 -1      3651 1.41284E+00
 -1      3652 1.29255E+00
 -1      3653 1.87452E+00
 -1      3654 1.13405E+00
 -1      3655 9.92779E-01
 -1      3656 1.37305E+00
 -1      3657 8.96625E-01
 -1      3658 8.14999E-01
 -1      3659 1.11840E+00
 -1      3660 7.12752E-01
 -1      3661 6.50489E-01
 -1      3662 9.20000E-01
 -1      3663 5.45253E-01
 -1      3664 4.87047E-01
 -1      3665 7.12517E-01
 -1      3666 3.96370E-01
 -1      3667 3.60200E-01
 -1      3668 5.16605E-01
 -1      3669 2.90467E-01
 -1      3670 2.58998E-01
 -1      3671 3.56195E-01
 -1      3672 2.19236E-01
 -1      3673 1.93782E-01
 -1      3674 2.46700E-01
 -1      3675 1.73564E-01
 -1      3676 1.51730E-01
 -1      3677 1.86720E-01
 -1      3678 1.36729E-01
 -1      3679 1.22337E-01
 -1      3680 1.51502E-01
 -1      3681 1.08172E-01
 -1      3682 9.74874E-02
 -1      3683 1.22337E-01
 -1      3684 8.50359E-02
 -1      3685 7.53423E-02
 -1      3686 9.57206E-02
 -1      3687 6.49005E-02
 -1      3688 5.64403E-02
 -1      3689 7.28273E-02
 -1      3690 4.79846E-02
 -1      3691 4.09653E-02
 -1      3692 5.39298E-02
 -1      3693 3.43111E-02
 -1      3694 2.87239E-02
 -1      3695 3.88199E-02
 -1      3696 2.36195E-02
 -1      3697 1.96029E-02
 -1      3698 2.70612E-02
 -1      3699 1.59613E-02
 -1      3700 1.29199E-02
 -1      3701 1.83153E-02
 -1      3702 1.03187E-02
 -1      3703 8.08438E-03
 -1      3704 1.20724E-02
 -1      3705 6.20005E-03
 -1      3706 4.61341E-03
 -1      3707 7.58687E-03
 -1      3708 3.33724E-03
 -1      3709 2.48951E-03
 -1      3710 4.42637E-03
 -1      3711 1.82882E-03
 -1      3712 2.09344E-03
 -1      3713 2.48951E-03
 -1      3714 1.99217E-03
 -1      3715 2.10493E-03
 -1      3716 1.72755E-03
 -1      3717 2.25876E-03
 -1      3718 2.24443E-03
 -1      3719 1.78011E-03
 -1      3720 2.27560E-03
 -1      3721 2.18431E-03
 -1      3722 1.96511E-03
 -1      3723 2.13868E-03
 -1      3724 2.00609E-03
 -1      3725 1.95066E-03
 -1      3726 1.91651E-03
 -1      3727 1.79550E-03
 -1      3728 1.81545E-03
 -1      3729 1.69404E-03
 -1      3730 1.57419E-03
 -1      3731 1.62440E-03
 -1      3732 1.47754E-03
 -1      3733 1.35109E-03
 -1      3734 1.42628E-03
 -1      3735 1.24870E-03
 -1      3736 1.12606E-03
 -1      3737 1.22723E-03
 -1      3738 1.02640E-03
 -1      3739 9.13440E-04
 -1      3740 1.02517E-03
 -1      3741 8.32685E-04
 -1      3742 7.60754E-04
 -1      3743 7.71086E-04
 -1      3744 8.44752E-04
 -1      3745 3.78995E+00
 -1      3746 2.84760E+00
 -1      3747 1.60648E-01
 -1      3748 1.93459E-01
 -1      3749 2.25118E-01
 -1      3750 2.72884E-01
 -1      3751 1.99767E-01
 -1      3752 7.95377E-02
 -1      3753 9.63786E-02
 -1      3754 5.50297E-02
 -1      3755 6.65143E-02
 -1      3756 7.38872E-02
 -1      3757 3.71601E-02
 -1      3758 4.54222E-02
 -1      3759 5.12564E-02
 -1      3760 2.48057E-02
 -1      3761 3.05924E-02
 -1      3762 3.50812E-02
 -1      3763 1.59304E-02
 -1      3764 1.99966E-02
 -1      3765 2.37044E-02
 -1      3766 9.66310E-03
 -1      3767 1.24688E-02
 -1      3768 1.54336E-02
 -1      3769 5.68813E-03
 -1      3770 7.25873E-03
 -1      3771 9.56767E-03
 -1      3772 3.57739E-03
 -1      3773 4.04414E-03
 -1      3774 5.51931E-03
 -1      3775 2.75093E-03
 -1      3776 2.60237E-03
 -1      3777 2.90030E-03
 -1      3778 2.92600E-03
 -1      3779 2.95680E-03
 -1      3780 2.13115E-03
 -1      3781 2.88670E-03
 -1      3782 3.02244E-03
 -1      3783 2.43345E-03
 -1      3784 2.67330E-03
 -1      3785 2.85966E-03
 -1      3786 2.50284E-03
 -1      3787 2.37089E-03
 -1      3788 2.57624E-03
 -1      3789 2.37875E-03
 -1      3790 2.09108E-03
 -1      3791 2.23812E-03
 -1      3792 2.14892E-03
 -1      3793 1.80046E-03
 -1      3794 1.95803E-03
 -1      3795 1.88309E-03
 -1      3796 1.52904E-03
 -1      3797 1.68513E-03
 -1      3798 1.63471E-03
 -1      3799 1.26341E-03
 -1      3800 1.40909E-03
 -1      3801 1.39943E-03
 -1      3802 1.01743E-03
 -1      3803 1.14790E-03
 -1      3804 1.16398E-03
 -1      3805 7.97742E-04
 -1      3806 9.10613E-04
 -1      3807 9.41649E-04
 -1      3808 2.77323E+00
 -1      3809 1.98692E+00
 -1      3810 4.71740E-04
 -1      3811 5.12210E-04
 -1      3812 5.50467E-04
 -1      3813 5.25499E-04
 -1      3814 4.04665E+00
 -1      3815 2.71475E+00
 -1      3816 1.13826E-01
 -1      3817 1.37497E-01
 -1      3818 1.04358E-01
 -1      3819 2.14455E+00
 -1      3820 8.37965E-01
 -1      3821 1.01855E+00
 -1      3822 5.93962E-01
 -1      3823 7.18751E-01
 -1      3824 6.87696E-01
 -1      3825 5.26408E+00
 -1      3826 5.04960E+00
 -1      3827 5.35456E+00
 -1      3828 5.30311E+00
 -1      3829 6.06685E+00
 -1      3830 1.76702E+00
 -1      3831 2.24874E+00
 -1      3832 1.21009E+00
 -1      3833 1.48253E+00
 -1      3834 1.47449E+00
 -1      3835 9.98451E-01
 -1      3836 2.06621E+00
 -1      3837 3.44025E+00
 -1      3838 4.28813E-01
 -1      3839 5.18062E-01
 -1      3840 4.92581E-01
 -1      3841 2.99847E+00
 -1      3842 2.60333E+00
 -1      3843 2.85805E+00
 -1      3844 2.11358E+00
 -1      3845 1.96439E+00
 -1      3846 2.54558E+00
 -1      3847 1.44956E-01
 -1      3848 5.22806E+00
 -1      3849 5.25081E+00
 -1      3850 4.49304E+00
 -1      3851 6.30519E-04
 -1      3852 7.17485E-04
 -1      3853 7.54573E-04
 -1      3854 5.94264E-04
 -1      3855 6.56537E-04
 -1      3856 6.47635E-04
 -1      3857 5.88696E-04
 -1      3858 5.69676E-04
 -1      3859 2.48519E+00
 -1      3860 2.84067E+00
 -1      3861 3.81860E+00
 -1      3862 4.01092E+00
 -1      3863 5.22806E+00
 -1      3864 3.42873E+00
 -1      3865 6.56537E-04
 -1      3866 6.56537E-04
 -1      3867 7.58485E-04
 -1      3868 6.71624E-04
 -1      3869 6.33865E-04
 -1      3870 6.29931E-04
 -1      3871 6.45742E-04
 -1      3872 5.22806E+00
 -1      3873 4.15051E+00
 -1      3874 2.73672E+00
 -1      3875 3.61965E+00
 -1      3876 4.55777E+00
 -1      3877 3.12304E-01
 -1      3878 3.75606E-01
 -1      3879 3.63474E-01
 -1      3880 2.70847E-01
 -1      3881 1.83154E+00
 -1      3882 2.45770E+00
 -1      3883 2.19000E+00
 -1      3884 1.84703E+00
 -1      3885 2.44154E+00
 -1      3886 1.99417E+00
 -1      3887 1.90227E+00
 -1      3888 2.00019E+00
 -1      3889 1.18715E-01
 -1      3890 1.41866E-01
 -1      3891 1.68164E+00
 -1      3892 1.52314E+00
 -1      3893 1.99713E+00
 -1      3894 1.21455E+00
 -1      3895 1.11840E+00
 -1      3896 1.52314E+00
 -1      3897 9.63514E-01
 -1      3898 8.61268E-01
 -1      3899 1.05967E+00
 -1      3900 7.40906E-01
 -1      3901 6.35670E-01
 -1      3902 7.84420E-01
 -1      3903 5.35259E-01
 -1      3904 4.44583E-01
 -1      3905 5.63648E-01
 -1      3906 3.77980E-01
 -1      3907 3.08246E-01
 -1      3908 3.96634E-01
 -1      3909 2.67367E-01
 -1      3910 2.27605E-01
 -1      3911 2.89152E-01
 -1      3912 1.95210E-01
 -1      3913 1.74992E-01
 -1      3914 2.15878E-01
 -1      3915 1.54051E-01
 -1      3916 1.39051E-01
 -1      3917 1.62541E-01
 -1      3918 1.22004E-01
 -1      3919 1.07839E-01
 -1      3920 1.24553E-01
 -1      3921 9.42293E-02
 -1      3922 8.17778E-02
 -1      3923 9.38963E-02
 -1      3924 7.11199E-02
 -1      3925 6.06782E-02
 -1      3926 6.96286E-02
 -1      3927 5.24605E-02
 -1      3928 4.40048E-02
 -1      3929 5.07531E-02
 -1      3930 3.77562E-02
 -1      3931 3.11019E-02
 -1      3932 3.62868E-02
 -1      3933 2.64166E-02
 -1      3934 2.13122E-02
 -1      3935 2.53529E-02
 -1      3936 1.81355E-02
 -1      3937 1.44939E-02
 -1      3938 1.74909E-02
 -1      3939 1.24029E-02
 -1      3940 9.80164E-03
 -1      3941 1.22231E-02
 -1      3942 8.18300E-03
 -1      3943 6.29867E-03
 -1      3944 8.51344E-03
 -1      3945 5.08200E-03
 -1      3946 3.80584E-03
 -1      3947 5.67814E-03
 -1      3948 2.91762E-03
 -1      3949 2.25693E-03
 -1      3950 3.57326E-03
 -1      3951 1.70606E-03
 -1      3952 1.60479E-03
 -1      3953 2.13417E-03
 -1      3954 1.36661E-03
 -1      3955 1.52044E-03
 -1      3956 1.34512E-03
 -1      3957 1.56665E-03
 -1      3958 1.59783E-03
 -1      3959 1.15316E-03
 -1      3960 1.59401E-03
 -1      3961 1.54838E-03
 -1      3962 1.19556E-03
 -1      3963 1.54838E-03
 -1      3964 1.45880E-03
 -1      3965 1.19174E-03
 -1      3966 1.42351E-03
 -1      3967 1.32205E-03
 -1      3968 1.15645E-03
 -1      3969 1.26458E-03
 -1      3970 1.16793E-03
 -1      3971 1.06369E-03
 -1      3972 1.09926E-03
 -1      3973 9.96856E-04
 -1      3974 9.37554E-04
 -1      3975 9.70754E-04
 -1      3976 8.71093E-04
 -1      3977 8.42782E-04
 -1      3978 1.66073E-01
 -1      3979 1.97733E-01
 -1      3980 1.39832E-01
 -1      3981 4.39209E-02
 -1      3982 5.35284E-02
 -1      3983 6.25267E-02
 -1      3984 7.55501E-02
 -1      3985 5.51913E-02
 -1      3986 2.05661E-02
 -1      3987 2.53752E-02
 -1      3988 1.35332E-02
 -1      3989 1.69948E-02
 -1      3990 1.86657E-02
 -1      3991 8.49165E-03
 -1      3992 1.08960E-02
 -1      3993 1.24572E-02
 -1      3994 4.94478E-03
 -1      3995 6.58878E-03
 -1      3996 7.91712E-03
 -1      3997 2.72902E-03
 -1      3998 3.70404E-03
 -1      3999 4.77351E-03
 -1      4000 2.13115E-03
 -1      4001 1.92528E-03
 -1      4002 2.72902E-03
 -1      4003 2.03968E-03
 -1      4004 1.94325E-03
 -1      4005 1.73738E-03
 -1      4006 2.15107E-03
 -1      4007 2.17811E-03
 -1      4008 1.68791E-03
 -1      4009 2.07718E-03
 -1      4010 2.17423E-03
 -1      4011 1.84950E-03
 -1      4012 1.89721E-03
 -1      4013 2.02998E-03
 -1      4014 1.82547E-03
 -1      4015 1.67761E-03
 -1      4016 1.81067E-03
 -1      4017 1.69173E-03
 -1      4018 1.45744E-03
 -1      4019 1.57276E-03
 -1      4020 1.50034E-03
 -1      4021 1.23622E-03
 -1      4022 1.35617E-03
 -1      4023 1.29422E-03
 -1      4024 1.02975E-03
 -1      4025 1.14526E-03
 -1      4026 1.10199E-03
 -1      4027 8.55418E-04
 -1      4028 9.62237E-04
 -1      4029 9.43516E-04
 -1      4030 2.07999E+00
 -1      4031 7.48509E-04
 -1      4032 6.67613E-04
 -1      4033 6.96971E-04
 -1      4034 7.41419E-04
 -1      4035 8.70119E-02
 -1      4036 1.04459E-01
 -1      4037 1.01369E-01
 -1      4038 7.56513E-02
 -1      4039 2.15325E+00
 -1      4040 4.02012E+00
 -1      4041 3.98109E+00
 -1      4042 5.97792E-01
 -1      4043 7.17006E-01
 -1      4044 2.21295E+00
 -1      4045 4.38928E+00
 -1      4046 3.04399E-02
 -1      4047 3.70075E-02
 -1      4048 2.73016E-02
 -1      4049 2.13374E+00
 -1      4050 2.48834E+00
 -1      4051 3.42873E+00
 -1      4052 7.67761E-04
 -1      4053 8.22175E-04
 -1      4054 5.14757E-01
 -1      4055 5.44068E-01
 -1      4056 4.38857E-01
 -1      4057 3.92796E-02
 -1      4058 7.96657E-04
 -1      4059 8.17246E-04
 -1      4060 3.64315E+00
 -1      4061 3.74691E+00
 -1      4062 3.17023E+00
 -1      4063 6.67836E-04
 -1      4064 6.22667E-04
 -1      4065 8.29631E-01
 -1      4066 1.02117E+00
 -1      4067 7.39728E-01
 -1      4068 7.16401E-04
 -1      4069 6.05551E-04
 -1      4070 7.72431E-04
 -1      4071 7.72431E-04
 -1      4072 8.31192E-04
 -1      4073 3.21862E+00
 -1      4074 2.31953E+00
 -1      4075 2.68097E+00
 -1      4076 7.09528E-04
 -1      4077 2.30947E-01
 -1      4078 2.70368E-01
 -1      4079 1.97254E-01
 -1      4080 1.20403E+00
 -1      4081 1.48853E+00
 -1      4082 1.86329E+00
 -1      4083 1.03521E+00
 -1      4084 2.27615E+00
 -1      4085 3.44889E+00
 -1      4086 7.67761E-04
 -1      4087 7.18842E-04
 -1      4088 6.96971E-04
 -1      4089 1.77668E+00
 -1      4090 1.46809E+00
 -1      4091 1.19173E+00
 -1      4092 1.03685E+00
 -1      4093 1.44527E+00
 -1      4094 8.94926E-01
 -1      4095 7.74564E-01
 -1      4096 1.02699E+00
 -1      4097 6.29402E-01
 -1      4098 5.28992E-01
 -1      4099 7.39908E-01
 -1      4100 4.45367E-01
 -1      4101 3.78764E-01
 -1      4102 5.11122E-01
 -1      4103 3.30031E-01
 -1      4104 2.89152E-01
 -1      4105 3.78764E-01
 -1      4106 2.48273E-01
 -1      4107 2.15878E-01
 -1      4108 2.89152E-01
 -1      4109 1.83482E-01
 -1      4110 1.62541E-01
 -1      4111 2.15878E-01
 -1      4112 1.37709E-01
 -1      4113 1.20662E-01
 -1      4114 1.58650E-01
 -1      4115 1.02006E-01
 -1      4116 8.83959E-02
 -1      4117 1.15162E-01
 -1      4118 7.45574E-02
 -1      4119 6.38996E-02
 -1      4120 8.26669E-02
 -1      4121 5.54431E-02
 -1      4122 4.72254E-02
 -1      4123 6.03719E-02
 -1      4124 4.07260E-02
 -1      4125 3.44774E-02
 -1      4126 4.54160E-02
 -1      4127 2.92190E-02
 -1      4128 2.45336E-02
 -1      4129 3.36581E-02
 -1      4130 2.03989E-02
 -1      4131 1.72222E-02
 -1      4132 2.42649E-02
 -1      4133 1.42172E-02
 -1      4134 1.21262E-02
 -1      4135 1.71252E-02
 -1      4136 9.93891E-03
 -1      4137 8.32028E-03
 -1      4138 1.19330E-02
 -1      4139 6.67887E-03
 -1      4140 5.46221E-03
 -1      4141 8.10435E-03
 -1      4142 4.26005E-03
 -1      4143 3.37183E-03
 -1      4144 5.26078E-03
 -1      4145 2.51226E-03
 -1      4146 1.96139E-03
 -1      4147 3.19905E-03
 -1      4148 1.37696E-03
 -1      4149 1.13878E-03
 -1      4150 1.75505E-03
 -1      4151 1.07416E-03
 -1      4152 1.12037E-03
 -1      4153 1.10600E-03
 -1      4154 1.19076E-03
 -1      4155 1.18694E-03
 -1      4156 1.11176E-03
 -1      4157 1.19174E-03
 -1      4158 1.19174E-03
 -1      4159 1.18694E-03
 -1      4160 1.15645E-03
 -1      4161 1.12116E-03
 -1      4162 1.15645E-03
 -1      4163 1.06369E-03
 -1      4164 1.00622E-03
 -1      4165 1.06369E-03
 -1      4166 9.56206E-04
 -1      4167 8.87536E-04
 -1      4168 9.56206E-04
 -1      4169 8.42782E-04
 -1      4170 8.16679E-04
 -1      4171 7.67761E-04
 -1      4172 8.61433E-04
 -1      4173 1.27056E-01
 -1      4174 1.51264E-01
 -1      4175 7.23474E-04
 -1      4176 1.18314E-02
 -1      4177 1.44686E-02
 -1      4178 1.75246E-02
 -1      4179 2.10958E-02
 -1      4180 1.68987E-02
 -1      4181 4.69302E-03
 -1      4182 5.93376E-03
 -1      4183 2.72902E-03
 -1      4184 3.53277E-03
 -1      4185 4.69302E-03
 -1      4186 1.70076E-03
 -1      4187 1.88866E-03
 -1      4188 2.69240E-03
 -1      4189 1.44058E-03
 -1      4190 1.30215E-03
 -1      4191 1.45343E-03
 -1      4192 1.59502E-03
 -1      4193 1.57185E-03
 -1      4194 1.18610E-03
 -1      4195 1.58376E-03
 -1      4196 1.63096E-03
 -1      4197 1.35331E-03
 -1      4198 1.47351E-03
 -1      4199 1.56005E-03
 -1      4200 1.36554E-03
 -1      4201 1.31499E-03
 -1      4202 1.41984E-03
 -1      4203 1.28816E-03
 -1      4204 1.16972E-03
 -1      4205 1.27098E-03
 -1      4206 1.19049E-03
 -1      4207 1.01659E-03
 -1      4208 1.10755E-03
 -1      4209 1.08431E-03
 -1      4210 8.76007E-04
 -1      4211 9.43516E-04
 -1      4212 9.49078E-04
 -1      4213 8.31192E-04
 -1      4214 6.89707E-04
 -1      4215 4.96794E-02
 -1      4216 5.86776E-02
 -1      4217 3.55644E-02
 -1      4218 4.24778E-02
 -1      4219 4.59642E-02
 -1      4220 3.17017E-01
 -1      4221 3.70224E-01
 -1      4222 3.92399E-01
 -1      4223 2.77117E-01
 -1      4224 7.62524E-03
 -1      4225 9.52811E-03
 -1      4226 7.54475E-03
 -1      4227 2.70276E+00
 -1      4228 2.50458E-02
 -1      4229 3.01104E-02
 -1      4230 3.33086E-02
 -1      4231 2.39047E-02
 -1      4232 9.36889E-02
 -1      4233 1.07944E-01
 -1      4234 1.19376E-01
 -1      4235 1.87512E+00
 -1      4236 1.82007E+00
 -1      4237 4.61033E-01
 -1      4238 5.44068E-01
 -1      4239 2.18794E+00
 -1      4240 2.38220E+00
 -1      4241 1.74988E-01
 -1      4242 2.08202E-01
 -1      4243 1.62213E-01
 -1      4244 2.30933E+00
 -1      4245 2.58254E+00
 -1      4246 1.82007E+00
 -1      4247 1.79450E+00
 -1      4248 6.97022E-04
 -1      4249 7.59924E-04
 -1      4250 8.04740E-04
 -1      4251 7.26157E-04
 -1      4252 1.15395E-02
 -1      4253 1.54273E+00
 -1      4254 6.28565E-01
 -1      4255 7.41190E-01
 -1      4256 5.45530E-01
 -1      4257 6.85995E-02
 -1      4258 8.00613E-02
 -1      4259 8.66370E-02
 -1      4260 6.30876E-02
 -1      4261 3.93429E-01
 -1      4262 3.93429E-01
 -1      4263 3.24796E-01
 -1      4264 1.10864E+00
 -1      4265 9.66717E-01
 -1      4266 8.50814E-01
 -1      4267 7.05651E-01
 -1      4268 9.32460E-01
 -1      4269 5.94746E-01
 -1      4270 5.11122E-01
 -1      4271 7.05651E-01
 -1      4272 4.27112E-01
 -1      4273 3.78379E-01
 -1      4274 5.10737E-01
 -1      4275 3.14521E-01
 -1      4276 2.73642E-01
 -1      4277 3.62869E-01
 -1      4278 2.27605E-01
 -1      4279 1.95209E-01
 -1      4280 2.52973E-01
 -1      4281 1.66094E-01
 -1      4282 1.41262E-01
 -1      4283 1.77821E-01
 -1      4284 1.24894E-01
 -1      4285 1.06238E-01
 -1      4286 1.32338E-01
 -1      4287 9.25307E-02
 -1      4288 7.86922E-02
 -1      4289 1.02263E-01
 -1      4290 6.75972E-02
 -1      4291 5.91406E-02
 -1      4292 7.74609E-02
 -1      4293 5.03503E-02
 -1      4294 4.38509E-02
 -1      4295 5.75756E-02
 -1      4296 3.70220E-02
 -1      4297 3.17635E-02
 -1      4298 4.19563E-02
 -1      4299 2.66774E-02
 -1      4300 2.25426E-02
 -1      4301 3.00412E-02
 -1      4302 1.87002E-02
 -1      4303 1.56952E-02
 -1      4304 2.11126E-02
 -1      4305 1.30726E-02
 -1      4306 1.08853E-02
 -1      4307 1.46475E-02
 -1      4308 8.93181E-03
 -1      4309 7.29040E-03
 -1      4310 1.00714E-02
 -1      4311 5.84980E-03
 -1      4312 4.64763E-03
 -1      4313 6.67725E-03
 -1      4314 3.61281E-03
 -1      4315 2.75324E-03
 -1      4316 4.20183E-03
 -1      4317 2.02799E-03
 -1      4318 1.44357E-03
 -1      4319 2.44176E-03
 -1      4320 1.00282E-03
 -1      4321 9.38189E-04
 -1      4322 1.27576E-03
 -1      4323 1.09025E-03
 -1      4324 1.16064E-03
 -1      4325 9.87070E-04
 -1      4326 1.21549E-03
 -1      4327 1.22028E-03
 -1      4328 1.19398E-03
 -1      4329 1.21312E-03
 -1      4330 1.17783E-03
 -1      4331 1.24166E-03
 -1      4332 1.13382E-03
 -1      4333 1.07635E-03
 -1      4334 1.19049E-03
 -1      4335 1.01419E-03
 -1      4336 9.64168E-04
 -1      4337 1.08431E-03
 -1      4338 1.55564E-02
 -1      4339 1.86124E-02
 -1      4340 2.50952E-03
 -1      4341 3.34989E-03
 -1      4342 4.38471E-03
 -1      4343 5.54496E-03
 -1      4344 1.07619E-03
 -1      4345 9.44915E-04
 -1      4346 1.26419E-03
 -1      4347 1.22825E-03
 -1      4348 1.29533E-03
 -1      4349 1.31904E-03
 -1      4350 1.23450E-03
 -1      4351 1.28816E-03
 -1      4352 1.14648E-03
 -1      4353 1.19049E-03
 -1      4354 1.02215E-03
 -1      4355 1.08431E-03
 -1      4356 5.97658E-02
 -1      4357 6.96877E-02
 -1      4358 4.37739E-02
 -1      4359 5.09755E-02
 -1      4360 1.06306E-02
 -1      4361 1.29338E-02
 -1      4362 1.72163E+00
 -1      4363 1.38567E-03
 -1      4364 1.78427E-03
 -1      4365 6.98556E-03
 -1      4366 8.67704E-03
 -1      4367 9.17924E-01
 -1      4368 1.10078E+00
 -1      4369 8.06761E-01
 -1      4370 1.42544E+00
 -1      4371 1.44527E+00
 -1      4372 1.43597E-01
 -1      4373 1.67321E-01
 -1      4374 1.38500E+00
 -1      4375 1.01593E+00
 -1      4376 1.45787E+00
 -1      4377 8.07827E-02
 -1      4378 9.44103E-02
 -1      4379 3.76276E-01
 -1      4380 4.43880E-01
 -1      4381 3.14910E-02
 -1      4382 3.69450E-02
 -1      4383 7.75076E-04
 -1      4384 2.24549E-02
 -1      4385 8.76576E-04
 -1      4386 8.31822E-04
 -1      4387 7.90218E-04
 -1      4388 9.34557E-04
 -1      4389 2.17664E-01
 -1      4390 2.39929E-01
 -1      4391 2.86578E-01
 -1      4392 1.08117E-01
 -1      4393 1.27229E-01
 -1      4394 8.61486E-04
 -1      4395 9.34557E-04
 -1      4396 2.64048E-02
 -1      4397 5.27889E-01
 -1      4398 6.12387E-01
 -1      4399 9.00026E-01
 -1      4400 7.23292E-01
 -1      4401 3.12418E-01
 -1      4402 2.74200E-01
 -1      4403 2.28163E-01
 -1      4404 1.96437E-01
 -1      4405 2.87608E-01
 -3
 9999
