    1C
    1UUSER                                                              
    1UDATE              27.october.2022                                 
    1UTIME              01:14:03                                        
    1UHOST                                                              
    1UPGM               CalculiX                                        
    1UVERSION           Version 2.17                             
    1UCOMPILETIME       Thu Jul 23 21:43:50 CEST 2020                    
    1UDIR                                                               
    1UDBN                                                               
    1UMAT    1SOLIDMATERIAL                                             
    2C                          4249                                     1
 -1         1 1.62351E+01 2.79618E+01 0.00000E+00
 -1         2 2.32351E+01 2.09618E+01 0.00000E+00
 -1         3 1.50000E+02 0.00000E+00 0.00000E+00
 -1         4 1.50000E+02 5.00000E+01 0.00000E+00
 -1         5 0.00000E+00 0.00000E+00 0.00000E+00
 -1         6 0.00000E+00 5.00000E+01 0.00000E+00
 -1         7 0.00000E+00 4.69500E+01 0.00000E+00
 -1         8 0.00000E+00 4.39500E+01 0.00000E+00
 -1         9 0.00000E+00 4.09000E+01 0.00000E+00
 -1        10 0.00000E+00 3.79000E+01 0.00000E+00
 -1        11 0.00000E+00 3.48500E+01 0.00000E+00
 -1        12 0.00000E+00 3.18500E+01 0.00000E+00
 -1        13 0.00000E+00 2.88500E+01 0.00000E+00
 -1        14 0.00000E+00 2.58500E+01 0.00000E+00
 -1        15 0.00000E+00 2.31500E+01 0.00000E+00
 -1        16 0.00000E+00 2.02500E+01 0.00000E+00
 -1        17 0.00000E+00 1.77000E+01 0.00000E+00
 -1        18 0.00000E+00 1.50000E+01 0.00000E+00
 -1        19 0.00000E+00 1.20500E+01 0.00000E+00
 -1        20 0.00000E+00 9.05000E+00 0.00000E+00
 -1        21 0.00000E+00 6.00000E+00 0.00000E+00
 -1        22 0.00000E+00 3.00000E+00 0.00000E+00
 -1        23 3.15000E+00 5.00000E+01 0.00000E+00
 -1        24 6.15000E+00 5.00000E+01 0.00000E+00
 -1        25 9.15000E+00 5.00000E+01 0.00000E+00
 -1        26 1.21500E+01 5.00000E+01 0.00000E+00
 -1        27 1.51500E+01 5.00000E+01 0.00000E+00
 -1        28 1.81500E+01 5.00000E+01 0.00000E+00
 -1        29 2.11500E+01 5.00000E+01 0.00000E+00
 -1        30 2.41500E+01 5.00000E+01 0.00000E+00
 -1        31 2.71500E+01 5.00000E+01 0.00000E+00
 -1        32 3.01500E+01 5.00000E+01 0.00000E+00
 -1        33 3.31500E+01 5.00000E+01 0.00000E+00
 -1        34 3.61500E+01 5.00000E+01 0.00000E+00
 -1        35 3.91500E+01 5.00000E+01 0.00000E+00
 -1        36 4.21500E+01 5.00000E+01 0.00000E+00
 -1        37 4.51500E+01 5.00000E+01 0.00000E+00
 -1        38 4.81500E+01 5.00000E+01 0.00000E+00
 -1        39 5.11500E+01 5.00000E+01 0.00000E+00
 -1        40 5.41500E+01 5.00000E+01 0.00000E+00
 -1        41 5.71500E+01 5.00000E+01 0.00000E+00
 -1        42 6.01500E+01 5.00000E+01 0.00000E+00
 -1        43 6.31500E+01 5.00000E+01 0.00000E+00
 -1        44 6.61500E+01 5.00000E+01 0.00000E+00
 -1        45 6.91500E+01 5.00000E+01 0.00000E+00
 -1        46 7.21500E+01 5.00000E+01 0.00000E+00
 -1        47 7.51500E+01 5.00000E+01 0.00000E+00
 -1        48 7.81500E+01 5.00000E+01 0.00000E+00
 -1        49 8.11500E+01 5.00000E+01 0.00000E+00
 -1        50 8.41500E+01 5.00000E+01 0.00000E+00
 -1        51 8.71500E+01 5.00000E+01 0.00000E+00
 -1        52 9.01500E+01 5.00000E+01 0.00000E+00
 -1        53 9.31500E+01 5.00000E+01 0.00000E+00
 -1        54 9.61500E+01 5.00000E+01 0.00000E+00
 -1        55 9.91500E+01 5.00000E+01 0.00000E+00
 -1        56 1.02150E+02 5.00000E+01 0.00000E+00
 -1        57 1.05150E+02 5.00000E+01 0.00000E+00
 -1        58 1.08150E+02 5.00000E+01 0.00000E+00
 -1        59 1.11150E+02 5.00000E+01 0.00000E+00
 -1        60 1.14150E+02 5.00000E+01 0.00000E+00
 -1        61 1.17150E+02 5.00000E+01 0.00000E+00
 -1        62 1.20150E+02 5.00000E+01 0.00000E+00
 -1        63 1.23150E+02 5.00000E+01 0.00000E+00
 -1        64 1.26150E+02 5.00000E+01 0.00000E+00
 -1        65 1.29150E+02 5.00000E+01 0.00000E+00
 -1        66 1.32150E+02 5.00000E+01 0.00000E+00
 -1        67 1.35150E+02 5.00000E+01 0.00000E+00
 -1        68 1.38150E+02 5.00000E+01 0.00000E+00
 -1        69 1.41150E+02 5.00000E+01 0.00000E+00
 -1        70 1.44150E+02 5.00000E+01 0.00000E+00
 -1        71 1.47150E+02 5.00000E+01 0.00000E+00
 -1        72 3.15000E+00 0.00000E+00 0.00000E+00
 -1        73 6.15000E+00 0.00000E+00 0.00000E+00
 -1        74 9.15000E+00 0.00000E+00 0.00000E+00
 -1        75 1.21500E+01 0.00000E+00 0.00000E+00
 -1        76 1.51500E+01 0.00000E+00 0.00000E+00
 -1        77 1.81500E+01 0.00000E+00 0.00000E+00
 -1        78 2.11500E+01 0.00000E+00 0.00000E+00
 -1        79 2.41500E+01 0.00000E+00 0.00000E+00
 -1        80 2.71500E+01 0.00000E+00 0.00000E+00
 -1        81 3.01500E+01 0.00000E+00 0.00000E+00
 -1        82 3.31500E+01 0.00000E+00 0.00000E+00
 -1        83 3.61500E+01 0.00000E+00 0.00000E+00
 -1        84 3.91500E+01 0.00000E+00 0.00000E+00
 -1        85 4.21500E+01 0.00000E+00 0.00000E+00
 -1        86 4.51500E+01 0.00000E+00 0.00000E+00
 -1        87 4.81500E+01 0.00000E+00 0.00000E+00
 -1        88 5.11500E+01 0.00000E+00 0.00000E+00
 -1        89 5.41500E+01 0.00000E+00 0.00000E+00
 -1        90 5.71500E+01 0.00000E+00 0.00000E+00
 -1        91 6.01500E+01 0.00000E+00 0.00000E+00
 -1        92 6.31500E+01 0.00000E+00 0.00000E+00
 -1        93 6.61500E+01 0.00000E+00 0.00000E+00
 -1        94 6.91500E+01 0.00000E+00 0.00000E+00
 -1        95 7.21500E+01 0.00000E+00 0.00000E+00
 -1        96 7.51500E+01 0.00000E+00 0.00000E+00
 -1        97 7.81500E+01 0.00000E+00 0.00000E+00
 -1        98 8.11500E+01 0.00000E+00 0.00000E+00
 -1        99 8.41500E+01 0.00000E+00 0.00000E+00
 -1       100 8.71500E+01 0.00000E+00 0.00000E+00
 -1       101 9.01500E+01 0.00000E+00 0.00000E+00
 -1       102 9.31500E+01 0.00000E+00 0.00000E+00
 -1       103 9.61500E+01 0.00000E+00 0.00000E+00
 -1       104 9.91500E+01 0.00000E+00 0.00000E+00
 -1       105 1.02150E+02 0.00000E+00 0.00000E+00
 -1       106 1.05150E+02 0.00000E+00 0.00000E+00
 -1       107 1.08150E+02 0.00000E+00 0.00000E+00
 -1       108 1.11150E+02 0.00000E+00 0.00000E+00
 -1       109 1.14150E+02 0.00000E+00 0.00000E+00
 -1       110 1.17150E+02 0.00000E+00 0.00000E+00
 -1       111 1.20150E+02 0.00000E+00 0.00000E+00
 -1       112 1.23150E+02 0.00000E+00 0.00000E+00
 -1       113 1.26150E+02 0.00000E+00 0.00000E+00
 -1       114 1.29150E+02 0.00000E+00 0.00000E+00
 -1       115 1.32150E+02 0.00000E+00 0.00000E+00
 -1       116 1.35150E+02 0.00000E+00 0.00000E+00
 -1       117 1.38150E+02 0.00000E+00 0.00000E+00
 -1       118 1.41150E+02 0.00000E+00 0.00000E+00
 -1       119 1.44150E+02 0.00000E+00 0.00000E+00
 -1       120 1.47150E+02 0.00000E+00 0.00000E+00
 -1       121 1.50000E+02 2.95000E+00 0.00000E+00
 -1       122 1.50000E+02 5.90000E+00 0.00000E+00
 -1       123 1.50000E+02 8.85000E+00 0.00000E+00
 -1       124 1.50000E+02 1.18000E+01 0.00000E+00
 -1       125 1.50000E+02 1.47500E+01 0.00000E+00
 -1       126 1.50000E+02 1.76500E+01 0.00000E+00
 -1       127 1.50000E+02 2.06000E+01 0.00000E+00
 -1       128 1.50000E+02 2.35500E+01 0.00000E+00
 -1       129 1.50000E+02 2.65000E+01 0.00000E+00
 -1       130 1.50000E+02 2.94500E+01 0.00000E+00
 -1       131 1.50000E+02 3.24000E+01 0.00000E+00
 -1       132 1.50000E+02 3.53000E+01 0.00000E+00
 -1       133 1.50000E+02 3.82500E+01 0.00000E+00
 -1       134 1.50000E+02 4.12000E+01 0.00000E+00
 -1       135 1.50000E+02 4.41500E+01 0.00000E+00
 -1       136 1.50000E+02 4.71000E+01 0.00000E+00
 -1       137 2.30786E+01 1.94898E+01 0.00000E+00
 -1       138 2.25646E+01 1.79722E+01 0.00000E+00
 -1       139 2.17856E+01 1.66966E+01 0.00000E+00
 -1       140 2.07806E+01 1.56384E+01 0.00000E+00
 -1       141 1.94150E+01 1.47258E+01 0.00000E+00
 -1       142 1.80467E+01 1.42003E+01 0.00000E+00
 -1       143 1.66470E+01 1.39739E+01 0.00000E+00
 -1       144 1.50582E+01 1.40615E+01 0.00000E+00
 -1       145 1.36487E+01 1.44572E+01 0.00000E+00
 -1       146 1.22776E+01 1.51879E+01 0.00000E+00
 -1       147 1.11544E+01 1.61466E+01 0.00000E+00
 -1       148 1.02425E+01 1.73440E+01 0.00000E+00
 -1       149 9.64283E+00 1.86078E+01 0.00000E+00
 -1       150 9.28957E+00 2.00905E+01 0.00000E+00
 -1       151 9.25659E+00 2.15093E+01 0.00000E+00
 -1       152 9.57316E+00 2.31108E+01 0.00000E+00
 -1       153 1.01893E+01 2.44899E+01 0.00000E+00
 -1       154 1.10138E+01 2.56242E+01 0.00000E+00
 -1       155 1.20404E+01 2.65658E+01 0.00000E+00
 -1       156 1.33276E+01 2.73294E+01 0.00000E+00
 -1       157 1.47367E+01 2.77995E+01 0.00000E+00
 -1       158 1.77582E+01 2.77941E+01 0.00000E+00
 -1       159 1.93184E+01 2.72462E+01 0.00000E+00
 -1       160 2.06341E+01 2.64069E+01 0.00000E+00
 -1       161 2.17083E+01 2.53258E+01 0.00000E+00
 -1       162 2.25173E+01 2.40496E+01 0.00000E+00
 -1       163 2.30557E+01 2.25365E+01 0.00000E+00
 -1       164 2.59800E+00 4.54500E+01 0.00000E+00
 -1       165 2.59800E+00 4.24000E+01 0.00000E+00
 -1       166 2.59800E+00 3.94000E+01 0.00000E+00
 -1       167 2.59800E+00 3.63500E+01 0.00000E+00
 -1       168 2.59800E+00 3.33500E+01 0.00000E+00
 -1       169 2.59800E+00 3.03500E+01 0.00000E+00
 -1       170 2.59800E+00 2.73500E+01 0.00000E+00
 -1       171 2.59800E+00 2.46500E+01 0.00000E+00
 -1       172 2.59800E+00 2.17500E+01 0.00000E+00
 -1       173 2.59800E+00 1.92000E+01 0.00000E+00
 -1       174 2.59800E+00 1.65000E+01 0.00000E+00
 -1       175 2.59800E+00 1.35500E+01 0.00000E+00
 -1       176 2.59800E+00 1.05500E+01 0.00000E+00
 -1       177 2.59800E+00 7.50000E+00 0.00000E+00
 -1       178 2.59800E+00 4.50000E+00 0.00000E+00
 -1       179 2.87400E+00 2.25000E+00 0.00000E+00
 -1       180 4.65000E+00 4.74020E+01 0.00000E+00
 -1       181 7.65000E+00 4.74020E+01 0.00000E+00
 -1       182 1.06500E+01 4.74020E+01 0.00000E+00
 -1       183 1.36500E+01 4.74020E+01 0.00000E+00
 -1       184 1.66500E+01 4.74020E+01 0.00000E+00
 -1       185 1.96500E+01 4.74020E+01 0.00000E+00
 -1       186 2.26500E+01 4.74020E+01 0.00000E+00
 -1       187 2.56500E+01 4.74020E+01 0.00000E+00
 -1       188 2.86500E+01 4.74020E+01 0.00000E+00
 -1       189 3.16500E+01 4.74020E+01 0.00000E+00
 -1       190 3.46500E+01 4.74020E+01 0.00000E+00
 -1       191 3.76500E+01 4.74020E+01 0.00000E+00
 -1       192 4.06500E+01 4.74020E+01 0.00000E+00
 -1       193 4.36500E+01 4.74020E+01 0.00000E+00
 -1       194 4.66500E+01 4.74020E+01 0.00000E+00
 -1       195 4.96500E+01 4.74020E+01 0.00000E+00
 -1       196 5.26500E+01 4.74020E+01 0.00000E+00
 -1       197 5.56500E+01 4.74020E+01 0.00000E+00
 -1       198 5.86500E+01 4.74020E+01 0.00000E+00
 -1       199 6.16500E+01 4.74020E+01 0.00000E+00
 -1       200 6.46500E+01 4.74020E+01 0.00000E+00
 -1       201 6.76500E+01 4.74020E+01 0.00000E+00
 -1       202 7.06500E+01 4.74020E+01 0.00000E+00
 -1       203 7.36500E+01 4.74020E+01 0.00000E+00
 -1       204 7.66500E+01 4.74020E+01 0.00000E+00
 -1       205 7.96500E+01 4.74020E+01 0.00000E+00
 -1       206 8.26500E+01 4.74020E+01 0.00000E+00
 -1       207 8.56500E+01 4.74020E+01 0.00000E+00
 -1       208 8.86500E+01 4.74020E+01 0.00000E+00
 -1       209 9.16500E+01 4.74020E+01 0.00000E+00
 -1       210 9.46500E+01 4.74020E+01 0.00000E+00
 -1       211 9.76500E+01 4.74020E+01 0.00000E+00
 -1       212 1.00650E+02 4.74020E+01 0.00000E+00
 -1       213 1.03650E+02 4.74020E+01 0.00000E+00
 -1       214 1.06650E+02 4.74020E+01 0.00000E+00
 -1       215 1.09650E+02 4.74020E+01 0.00000E+00
 -1       216 1.12650E+02 4.74020E+01 0.00000E+00
 -1       217 1.15650E+02 4.74020E+01 0.00000E+00
 -1       218 1.18650E+02 4.74020E+01 0.00000E+00
 -1       219 1.21650E+02 4.74020E+01 0.00000E+00
 -1       220 1.24650E+02 4.74020E+01 0.00000E+00
 -1       221 1.27650E+02 4.74020E+01 0.00000E+00
 -1       222 1.30650E+02 4.74020E+01 0.00000E+00
 -1       223 1.33650E+02 4.74020E+01 0.00000E+00
 -1       224 1.36650E+02 4.74020E+01 0.00000E+00
 -1       225 1.39650E+02 4.74020E+01 0.00000E+00
 -1       226 1.42650E+02 4.74020E+01 0.00000E+00
 -1       227 1.45650E+02 4.74020E+01 0.00000E+00
 -1       228 5.87400E+00 2.25000E+00 0.00000E+00
 -1       229 8.87400E+00 2.25000E+00 0.00000E+00
 -1       230 1.18740E+01 2.25000E+00 0.00000E+00
 -1       231 1.48740E+01 2.25000E+00 0.00000E+00
 -1       232 1.78740E+01 2.25000E+00 0.00000E+00
 -1       233 2.08740E+01 2.25000E+00 0.00000E+00
 -1       234 2.38740E+01 2.25000E+00 0.00000E+00
 -1       235 2.68740E+01 2.25000E+00 0.00000E+00
 -1       236 2.98740E+01 2.25000E+00 0.00000E+00
 -1       237 3.28740E+01 2.25000E+00 0.00000E+00
 -1       238 3.58740E+01 2.25000E+00 0.00000E+00
 -1       239 3.88740E+01 2.25000E+00 0.00000E+00
 -1       240 4.18740E+01 2.25000E+00 0.00000E+00
 -1       241 4.48740E+01 2.25000E+00 0.00000E+00
 -1       242 4.78740E+01 2.25000E+00 0.00000E+00
 -1       243 5.08740E+01 2.25000E+00 0.00000E+00
 -1       244 5.38740E+01 2.25000E+00 0.00000E+00
 -1       245 5.68740E+01 2.25000E+00 0.00000E+00
 -1       246 5.98740E+01 2.25000E+00 0.00000E+00
 -1       247 6.28740E+01 2.25000E+00 0.00000E+00
 -1       248 6.58740E+01 2.25000E+00 0.00000E+00
 -1       249 6.88740E+01 2.25000E+00 0.00000E+00
 -1       250 7.18740E+01 2.25000E+00 0.00000E+00
 -1       251 7.48740E+01 2.25000E+00 0.00000E+00
 -1       252 7.78740E+01 2.25000E+00 0.00000E+00
 -1       253 8.08740E+01 2.25000E+00 0.00000E+00
 -1       254 8.38740E+01 2.25000E+00 0.00000E+00
 -1       255 8.68740E+01 2.25000E+00 0.00000E+00
 -1       256 8.98740E+01 2.25000E+00 0.00000E+00
 -1       257 9.28740E+01 2.25000E+00 0.00000E+00
 -1       258 9.58740E+01 2.25000E+00 0.00000E+00
 -1       259 9.88740E+01 2.25000E+00 0.00000E+00
 -1       260 1.01874E+02 2.25000E+00 0.00000E+00
 -1       261 1.04874E+02 2.25000E+00 0.00000E+00
 -1       262 1.07874E+02 2.25000E+00 0.00000E+00
 -1       263 1.10874E+02 2.25000E+00 0.00000E+00
 -1       264 1.13874E+02 2.25000E+00 0.00000E+00
 -1       265 1.16874E+02 2.25000E+00 0.00000E+00
 -1       266 1.19874E+02 2.25000E+00 0.00000E+00
 -1       267 1.22874E+02 2.25000E+00 0.00000E+00
 -1       268 1.25874E+02 2.25000E+00 0.00000E+00
 -1       269 1.28874E+02 2.25000E+00 0.00000E+00
 -1       270 1.31874E+02 2.25000E+00 0.00000E+00
 -1       271 1.34874E+02 2.25000E+00 0.00000E+00
 -1       272 1.37874E+02 2.25000E+00 0.00000E+00
 -1       273 1.40874E+02 2.25000E+00 0.00000E+00
 -1       274 1.43874E+02 2.25000E+00 0.00000E+00
 -1       275 1.46874E+02 2.25000E+00 0.00000E+00
 -1       276 1.47402E+02 4.42500E+00 0.00000E+00
 -1       277 1.47402E+02 7.37500E+00 0.00000E+00
 -1       278 1.47402E+02 1.03250E+01 0.00000E+00
 -1       279 1.47402E+02 1.32750E+01 0.00000E+00
 -1       280 1.47402E+02 1.61750E+01 0.00000E+00
 -1       281 1.47402E+02 1.91250E+01 0.00000E+00
 -1       282 1.47402E+02 2.20750E+01 0.00000E+00
 -1       283 1.47402E+02 2.50250E+01 0.00000E+00
 -1       284 1.47402E+02 2.79750E+01 0.00000E+00
 -1       285 1.47402E+02 3.09250E+01 0.00000E+00
 -1       286 1.47402E+02 3.38250E+01 0.00000E+00
 -1       287 1.47402E+02 3.67750E+01 0.00000E+00
 -1       288 1.47402E+02 3.97250E+01 0.00000E+00
 -1       289 1.47402E+02 4.26750E+01 0.00000E+00
 -1       290 1.46526E+02 4.50385E+01 0.00000E+00
 -1       291 2.43625E+01 2.00976E+01 0.00000E+00
 -1       292 2.42874E+01 1.82345E+01 0.00000E+00
 -1       293 2.33529E+01 1.66152E+01 0.00000E+00
 -1       294 2.21622E+01 1.53326E+01 0.00000E+00
 -1       295 2.09577E+01 1.38954E+01 0.00000E+00
 -1       296 1.91955E+01 1.32530E+01 0.00000E+00
 -1       297 1.75404E+01 1.28903E+01 0.00000E+00
 -1       298 1.57675E+01 1.24725E+01 0.00000E+00
 -1       299 1.40031E+01 1.30114E+01 0.00000E+00
 -1       300 1.22747E+01 1.35308E+01 0.00000E+00
 -1       301 1.08201E+01 1.46176E+01 0.00000E+00
 -1       302 9.66726E+00 1.59600E+01 0.00000E+00
 -1       303 8.84736E+00 1.74561E+01 0.00000E+00
 -1       304 8.04231E+00 1.90099E+01 0.00000E+00
 -1       305 8.06101E+00 2.07718E+01 0.00000E+00
 -1       306 7.89671E+00 2.26102E+01 0.00000E+00
 -1       307 8.46826E+00 2.44316E+01 0.00000E+00
 -1       308 9.62087E+00 2.57699E+01 0.00000E+00
 -1       309 1.07076E+01 2.69885E+01 0.00000E+00
 -1       310 1.20654E+01 2.79903E+01 0.00000E+00
 -1       311 1.36484E+01 2.87145E+01 0.00000E+00
 -1       312 1.53373E+01 2.92526E+01 0.00000E+00
 -1       313 1.71294E+01 2.90831E+01 0.00000E+00
 -1       314 1.89956E+01 2.88222E+01 0.00000E+00
 -1       315 2.06283E+01 2.78487E+01 0.00000E+00
 -1       316 2.20313E+01 2.67209E+01 0.00000E+00
 -1       317 2.31368E+01 2.53368E+01 0.00000E+00
 -1       318 2.40866E+01 2.37557E+01 0.00000E+00
 -1       319 2.44333E+01 2.18959E+01 0.00000E+00
 -1       320 3.38220E+00 4.66086E+01 0.00000E+00
 -1       321 5.19600E+00 4.09000E+01 0.00000E+00
 -1       322 5.19600E+00 4.39500E+01 0.00000E+00
 -1       323 5.19600E+00 3.48500E+01 0.00000E+00
 -1       324 5.19600E+00 3.18500E+01 0.00000E+00
 -1       325 5.19600E+00 2.88500E+01 0.00000E+00
 -1       326 5.19600E+00 2.61500E+01 0.00000E+00
 -1       327 5.19600E+00 2.32500E+01 0.00000E+00
 -1       328 4.64825E+00 1.78500E+01 0.00000E+00
 -1       329 4.64825E+00 1.49000E+01 0.00000E+00
 -1       330 4.64825E+00 1.19000E+01 0.00000E+00
 -1       331 4.64825E+00 8.85000E+00 0.00000E+00
 -1       332 4.64825E+00 5.85000E+00 0.00000E+00
 -1       333 5.26112E+00 4.05000E+00 0.00000E+00
 -1       334 8.26112E+00 4.05000E+00 0.00000E+00
 -1       335 9.15000E+00 4.48040E+01 0.00000E+00
 -1       336 1.21500E+01 4.48040E+01 0.00000E+00
 -1       337 1.51500E+01 4.48040E+01 0.00000E+00
 -1       338 1.81500E+01 4.48040E+01 0.00000E+00
 -1       339 2.11500E+01 4.48040E+01 0.00000E+00
 -1       340 2.41500E+01 4.48040E+01 0.00000E+00
 -1       341 2.71500E+01 4.48040E+01 0.00000E+00
 -1       342 3.01500E+01 4.48040E+01 0.00000E+00
 -1       343 3.31500E+01 4.48040E+01 0.00000E+00
 -1       344 3.61500E+01 4.48040E+01 0.00000E+00
 -1       345 3.91500E+01 4.48040E+01 0.00000E+00
 -1       346 4.21500E+01 4.48040E+01 0.00000E+00
 -1       347 4.51500E+01 4.48040E+01 0.00000E+00
 -1       348 4.81500E+01 4.48040E+01 0.00000E+00
 -1       349 5.11500E+01 4.48040E+01 0.00000E+00
 -1       350 5.41500E+01 4.48040E+01 0.00000E+00
 -1       351 5.71500E+01 4.48040E+01 0.00000E+00
 -1       352 6.01500E+01 4.48040E+01 0.00000E+00
 -1       353 6.31500E+01 4.48040E+01 0.00000E+00
 -1       354 6.61500E+01 4.48040E+01 0.00000E+00
 -1       355 6.91500E+01 4.48040E+01 0.00000E+00
 -1       356 7.21500E+01 4.48040E+01 0.00000E+00
 -1       357 7.51500E+01 4.48040E+01 0.00000E+00
 -1       358 7.81500E+01 4.48040E+01 0.00000E+00
 -1       359 8.11500E+01 4.48040E+01 0.00000E+00
 -1       360 8.41500E+01 4.48040E+01 0.00000E+00
 -1       361 8.71500E+01 4.48040E+01 0.00000E+00
 -1       362 9.01500E+01 4.48040E+01 0.00000E+00
 -1       363 9.31500E+01 4.48040E+01 0.00000E+00
 -1       364 9.61500E+01 4.48040E+01 0.00000E+00
 -1       365 9.91500E+01 4.48040E+01 0.00000E+00
 -1       366 1.02150E+02 4.48040E+01 0.00000E+00
 -1       367 1.05150E+02 4.48040E+01 0.00000E+00
 -1       368 1.08150E+02 4.48040E+01 0.00000E+00
 -1       369 1.11150E+02 4.48040E+01 0.00000E+00
 -1       370 1.14150E+02 4.48040E+01 0.00000E+00
 -1       371 1.17150E+02 4.48040E+01 0.00000E+00
 -1       372 1.20150E+02 4.48040E+01 0.00000E+00
 -1       373 1.23150E+02 4.48040E+01 0.00000E+00
 -1       374 1.26150E+02 4.48040E+01 0.00000E+00
 -1       375 1.29150E+02 4.48040E+01 0.00000E+00
 -1       376 1.32150E+02 4.48040E+01 0.00000E+00
 -1       377 1.35150E+02 4.48040E+01 0.00000E+00
 -1       378 1.38150E+02 4.48040E+01 0.00000E+00
 -1       379 1.41150E+02 4.48040E+01 0.00000E+00
 -1       380 1.43838E+02 4.49212E+01 0.00000E+00
 -1       381 1.12611E+01 4.05000E+00 0.00000E+00
 -1       382 1.42611E+01 4.05000E+00 0.00000E+00
 -1       383 1.72611E+01 4.05000E+00 0.00000E+00
 -1       384 2.02611E+01 4.05000E+00 0.00000E+00
 -1       385 2.32611E+01 4.05000E+00 0.00000E+00
 -1       386 2.62611E+01 4.05000E+00 0.00000E+00
 -1       387 2.92611E+01 4.05000E+00 0.00000E+00
 -1       388 3.22611E+01 4.05000E+00 0.00000E+00
 -1       389 3.52611E+01 4.05000E+00 0.00000E+00
 -1       390 3.82611E+01 4.05000E+00 0.00000E+00
 -1       391 4.12611E+01 4.05000E+00 0.00000E+00
 -1       392 4.42611E+01 4.05000E+00 0.00000E+00
 -1       393 4.72611E+01 4.05000E+00 0.00000E+00
 -1       394 5.02611E+01 4.05000E+00 0.00000E+00
 -1       395 5.32611E+01 4.05000E+00 0.00000E+00
 -1       396 5.62611E+01 4.05000E+00 0.00000E+00
 -1       397 5.92611E+01 4.05000E+00 0.00000E+00
 -1       398 6.22611E+01 4.05000E+00 0.00000E+00
 -1       399 6.52611E+01 4.05000E+00 0.00000E+00
 -1       400 6.82611E+01 4.05000E+00 0.00000E+00
 -1       401 7.12611E+01 4.05000E+00 0.00000E+00
 -1       402 7.42611E+01 4.05000E+00 0.00000E+00
 -1       403 7.72611E+01 4.05000E+00 0.00000E+00
 -1       404 8.02611E+01 4.05000E+00 0.00000E+00
 -1       405 8.32611E+01 4.05000E+00 0.00000E+00
 -1       406 8.62611E+01 4.05000E+00 0.00000E+00
 -1       407 8.92611E+01 4.05000E+00 0.00000E+00
 -1       408 9.22611E+01 4.05000E+00 0.00000E+00
 -1       409 9.52611E+01 4.05000E+00 0.00000E+00
 -1       410 9.82611E+01 4.05000E+00 0.00000E+00
 -1       411 1.01261E+02 4.05000E+00 0.00000E+00
 -1       412 1.04261E+02 4.05000E+00 0.00000E+00
 -1       413 1.07261E+02 4.05000E+00 0.00000E+00
 -1       414 1.10261E+02 4.05000E+00 0.00000E+00
 -1       415 1.13261E+02 4.05000E+00 0.00000E+00
 -1       416 1.16261E+02 4.05000E+00 0.00000E+00
 -1       417 1.19261E+02 4.05000E+00 0.00000E+00
 -1       418 1.22261E+02 4.05000E+00 0.00000E+00
 -1       419 1.25261E+02 4.05000E+00 0.00000E+00
 -1       420 1.28261E+02 4.05000E+00 0.00000E+00
 -1       421 1.31261E+02 4.05000E+00 0.00000E+00
 -1       422 1.34261E+02 4.05000E+00 0.00000E+00
 -1       423 1.37261E+02 4.05000E+00 0.00000E+00
 -1       424 1.40261E+02 4.05000E+00 0.00000E+00
 -1       425 1.43261E+02 4.05000E+00 0.00000E+00
 -1       426 1.45332E+02 4.23750E+00 0.00000E+00
 -1       427 1.44804E+02 1.18000E+01 0.00000E+00
 -1       428 1.44804E+02 8.85000E+00 0.00000E+00
 -1       429 1.45068E+02 6.54375E+00 0.00000E+00
 -1       430 1.44804E+02 1.47000E+01 0.00000E+00
 -1       431 1.44804E+02 1.76500E+01 0.00000E+00
 -1       432 1.44804E+02 2.06000E+01 0.00000E+00
 -1       433 1.44804E+02 2.35500E+01 0.00000E+00
 -1       434 1.44804E+02 2.65000E+01 0.00000E+00
 -1       435 1.44804E+02 2.94500E+01 0.00000E+00
 -1       436 1.44804E+02 3.23500E+01 0.00000E+00
 -1       437 1.44804E+02 3.53000E+01 0.00000E+00
 -1       438 1.44804E+02 3.82500E+01 0.00000E+00
 -1       439 1.44804E+02 4.12000E+01 0.00000E+00
 -1       440 2.49428E+01 1.67770E+01 0.00000E+00
 -1       441 2.61117E+01 2.09293E+01 0.00000E+00
 -1       442 2.60365E+01 1.90662E+01 0.00000E+00
 -1       443 2.40145E+01 1.48070E+01 0.00000E+00
 -1       444 2.28100E+01 1.33699E+01 0.00000E+00
 -1       445 5.19600E+00 3.78750E+01 0.00000E+00
 -1       446 1.87172E+01 1.14781E+01 0.00000E+00
 -1       447 1.69443E+01 1.10604E+01 0.00000E+00
 -1       448 1.45067E+01 1.15023E+01 0.00000E+00
 -1       449 1.27177E+01 1.18692E+01 0.00000E+00
 -1       450 1.06211E+01 1.28345E+01 0.00000E+00
 -1       451 9.19680E+00 1.43897E+01 0.00000E+00
 -1       452 8.04715E+00 1.60449E+01 0.00000E+00
 -1       453 7.24211E+00 1.75987E+01 0.00000E+00
 -1       454 6.67176E+00 1.99055E+01 0.00000E+00
 -1       455 6.50747E+00 2.17439E+01 0.00000E+00
 -1       456 6.94576E+00 2.39089E+01 0.00000E+00
 -1       457 7.93544E+00 2.60559E+01 0.00000E+00
 -1       458 9.02218E+00 2.72745E+01 0.00000E+00
 -1       459 1.04677E+01 2.87346E+01 0.00000E+00
 -1       460 1.22827E+01 2.96073E+01 0.00000E+00
 -1       461 1.40994E+01 3.02186E+01 0.00000E+00
 -1       462 1.63870E+01 3.07919E+01 0.00000E+00
 -1       463 1.82532E+01 3.05310E+01 0.00000E+00
 -1       464 2.06903E+01 2.98086E+01 0.00000E+00
 -1       465 2.22994E+01 2.84909E+01 0.00000E+00
 -1       466 2.37932E+01 2.69947E+01 0.00000E+00
 -1       467 2.47947E+01 2.52568E+01 0.00000E+00
 -1       468 2.57813E+01 2.31094E+01 0.00000E+00
 -1       469 2.04793E+01 1.21205E+01 0.00000E+00
 -1       470 4.83836E+00 2.08696E+01 0.00000E+00
 -1       471 2.66919E+01 1.76087E+01 0.00000E+00
 -1       472 1.56835E+01 1.00901E+01 0.00000E+00
 -1       473 7.24625E+00 3.03500E+01 0.00000E+00
 -1       474 7.41382E+00 3.33500E+01 0.00000E+00
 -1       475 6.86607E+00 1.34000E+01 0.00000E+00
 -1       476 7.24625E+00 7.35000E+00 0.00000E+00
 -1       477 7.75368E+00 5.70000E+00 0.00000E+00
 -1       478 1.06500E+01 4.22060E+01 0.00000E+00
 -1       479 1.07537E+01 5.70000E+00 0.00000E+00
 -1       480 1.37537E+01 5.70000E+00 0.00000E+00
 -1       481 1.36500E+01 4.22060E+01 0.00000E+00
 -1       482 1.66500E+01 4.22060E+01 0.00000E+00
 -1       483 1.96500E+01 4.22060E+01 0.00000E+00
 -1       484 2.26500E+01 4.22060E+01 0.00000E+00
 -1       485 2.56500E+01 4.22060E+01 0.00000E+00
 -1       486 2.86500E+01 4.22060E+01 0.00000E+00
 -1       487 3.16500E+01 4.22060E+01 0.00000E+00
 -1       488 3.46500E+01 4.22060E+01 0.00000E+00
 -1       489 3.76500E+01 4.22060E+01 0.00000E+00
 -1       490 4.06500E+01 4.22060E+01 0.00000E+00
 -1       491 4.36500E+01 4.22060E+01 0.00000E+00
 -1       492 4.66500E+01 4.22060E+01 0.00000E+00
 -1       493 4.96500E+01 4.22060E+01 0.00000E+00
 -1       494 5.26500E+01 4.22060E+01 0.00000E+00
 -1       495 5.56500E+01 4.22060E+01 0.00000E+00
 -1       496 5.86500E+01 4.22060E+01 0.00000E+00
 -1       497 6.16500E+01 4.22060E+01 0.00000E+00
 -1       498 6.46500E+01 4.22060E+01 0.00000E+00
 -1       499 6.76500E+01 4.22060E+01 0.00000E+00
 -1       500 7.06500E+01 4.22060E+01 0.00000E+00
 -1       501 7.36500E+01 4.22060E+01 0.00000E+00
 -1       502 7.66500E+01 4.22060E+01 0.00000E+00
 -1       503 7.96500E+01 4.22060E+01 0.00000E+00
 -1       504 8.26500E+01 4.22060E+01 0.00000E+00
 -1       505 8.56500E+01 4.22060E+01 0.00000E+00
 -1       506 8.86500E+01 4.22060E+01 0.00000E+00
 -1       507 9.16500E+01 4.22060E+01 0.00000E+00
 -1       508 9.46500E+01 4.22060E+01 0.00000E+00
 -1       509 9.76500E+01 4.22060E+01 0.00000E+00
 -1       510 1.00650E+02 4.22060E+01 0.00000E+00
 -1       511 1.03650E+02 4.22060E+01 0.00000E+00
 -1       512 1.06650E+02 4.22060E+01 0.00000E+00
 -1       513 1.09650E+02 4.22060E+01 0.00000E+00
 -1       514 1.12650E+02 4.22060E+01 0.00000E+00
 -1       515 1.15650E+02 4.22060E+01 0.00000E+00
 -1       516 1.18650E+02 4.22060E+01 0.00000E+00
 -1       517 1.21650E+02 4.22060E+01 0.00000E+00
 -1       518 1.24650E+02 4.22060E+01 0.00000E+00
 -1       519 1.27650E+02 4.22060E+01 0.00000E+00
 -1       520 1.30650E+02 4.22060E+01 0.00000E+00
 -1       521 1.33650E+02 4.22060E+01 0.00000E+00
 -1       522 1.36650E+02 4.22060E+01 0.00000E+00
 -1       523 1.39650E+02 4.22060E+01 0.00000E+00
 -1       524 1.87611E+01 6.64800E+00 0.00000E+00
 -1       525 2.17611E+01 6.64800E+00 0.00000E+00
 -1       526 2.47611E+01 6.64800E+00 0.00000E+00
 -1       527 2.77611E+01 6.64800E+00 0.00000E+00
 -1       528 3.07611E+01 6.64800E+00 0.00000E+00
 -1       529 3.37611E+01 6.64800E+00 0.00000E+00
 -1       530 3.67611E+01 6.64800E+00 0.00000E+00
 -1       531 3.97611E+01 6.64800E+00 0.00000E+00
 -1       532 4.27611E+01 6.64800E+00 0.00000E+00
 -1       533 4.57611E+01 6.64800E+00 0.00000E+00
 -1       534 4.87611E+01 6.64800E+00 0.00000E+00
 -1       535 5.17611E+01 6.64800E+00 0.00000E+00
 -1       536 5.47611E+01 6.64800E+00 0.00000E+00
 -1       537 5.77611E+01 6.64800E+00 0.00000E+00
 -1       538 6.07611E+01 6.64800E+00 0.00000E+00
 -1       539 6.37611E+01 6.64800E+00 0.00000E+00
 -1       540 6.67611E+01 6.64800E+00 0.00000E+00
 -1       541 6.97611E+01 6.64800E+00 0.00000E+00
 -1       542 7.27611E+01 6.64800E+00 0.00000E+00
 -1       543 7.57611E+01 6.64800E+00 0.00000E+00
 -1       544 7.87611E+01 6.64800E+00 0.00000E+00
 -1       545 8.17611E+01 6.64800E+00 0.00000E+00
 -1       546 8.47611E+01 6.64800E+00 0.00000E+00
 -1       547 8.77611E+01 6.64800E+00 0.00000E+00
 -1       548 9.07611E+01 6.64800E+00 0.00000E+00
 -1       549 9.37611E+01 6.64800E+00 0.00000E+00
 -1       550 9.67611E+01 6.64800E+00 0.00000E+00
 -1       551 9.97611E+01 6.64800E+00 0.00000E+00
 -1       552 1.02761E+02 6.64800E+00 0.00000E+00
 -1       553 1.05761E+02 6.64800E+00 0.00000E+00
 -1       554 1.08761E+02 6.64800E+00 0.00000E+00
 -1       555 1.11761E+02 6.64800E+00 0.00000E+00
 -1       556 1.14761E+02 6.64800E+00 0.00000E+00
 -1       557 1.17761E+02 6.64800E+00 0.00000E+00
 -1       558 1.20761E+02 6.64800E+00 0.00000E+00
 -1       559 1.23761E+02 6.64800E+00 0.00000E+00
 -1       560 1.26761E+02 6.64800E+00 0.00000E+00
 -1       561 1.29761E+02 6.64800E+00 0.00000E+00
 -1       562 1.32761E+02 6.64800E+00 0.00000E+00
 -1       563 1.35761E+02 6.64800E+00 0.00000E+00
 -1       564 1.38761E+02 6.64800E+00 0.00000E+00
 -1       565 1.41761E+02 6.64800E+00 0.00000E+00
 -1       566 1.42206E+02 1.61750E+01 0.00000E+00
 -1       567 1.42206E+02 1.91250E+01 0.00000E+00
 -1       568 1.42206E+02 1.03250E+01 0.00000E+00
 -1       569 1.42206E+02 1.32500E+01 0.00000E+00
 -1       570 1.42206E+02 2.20750E+01 0.00000E+00
 -1       571 1.42206E+02 2.50250E+01 0.00000E+00
 -1       572 1.42206E+02 2.79750E+01 0.00000E+00
 -1       573 1.42206E+02 3.08750E+01 0.00000E+00
 -1       574 1.42206E+02 3.38250E+01 0.00000E+00
 -1       575 1.42206E+02 3.67750E+01 0.00000E+00
 -1       576 1.42206E+02 3.97250E+01 0.00000E+00
 -1       577 2.58786E+01 1.51324E+01 0.00000E+00
 -1       578 2.76422E+01 2.22763E+01 0.00000E+00
 -1       579 1.62574E+01 6.17400E+00 0.00000E+00
 -1       580 2.77878E+01 1.99286E+01 0.00000E+00
 -1       581 2.48552E+01 1.28791E+01 0.00000E+00
 -1       582 2.01283E+01 1.03454E+01 0.00000E+00
 -1       583 2.66181E+01 2.47942E+01 0.00000E+00
 -1       584 1.48262E+01 3.21689E+01 0.00000E+00
 -1       585 7.24625E+00 1.04000E+01 0.00000E+00
 -1       586 7.24625E+00 2.75000E+01 0.00000E+00
 -1       587 1.32675E+01 1.00056E+01 0.00000E+00
 -1       588 1.82049E+01 9.68141E+00 0.00000E+00
 -1       589 1.08820E+01 1.06417E+01 0.00000E+00
 -1       590 8.87405E+00 1.20209E+01 0.00000E+00
 -1       591 6.27057E+00 1.61098E+01 0.00000E+00
 -1       592 1.07047E+01 3.05657E+01 0.00000E+00
 -1       593 2.27937E+01 3.07360E+01 0.00000E+00
 -1       594 8.64517E+00 2.90933E+01 0.00000E+00
 -1       595 1.26440E+01 3.15385E+01 0.00000E+00
 -1       596 1.75460E+01 3.22771E+01 0.00000E+00
 -1       597 1.99354E+01 3.17338E+01 0.00000E+00
 -1       598 2.42876E+01 2.92397E+01 0.00000E+00
 -1       599 2.57799E+01 2.69821E+01 0.00000E+00
 -1       600 7.92300E+00 4.15530E+01 0.00000E+00
 -1       601 2.24550E+01 1.12336E+01 0.00000E+00
 -1       602 7.41382E+00 3.63750E+01 0.00000E+00
 -1       603 2.84432E+01 1.84711E+01 0.00000E+00
 -1       604 1.41678E+02 4.22645E+01 0.00000E+00
 -1       605 7.66841E+00 3.89640E+01 0.00000E+00
 -1       606 1.69441E+01 8.71119E+00 0.00000E+00
 -1       607 1.02462E+01 7.35000E+00 0.00000E+00
 -1       608 9.30575E+00 3.18224E+01 0.00000E+00
 -1       609 2.62611E+01 9.24600E+00 0.00000E+00
 -1       610 1.51500E+01 3.96080E+01 0.00000E+00
 -1       611 1.81500E+01 3.96080E+01 0.00000E+00
 -1       612 2.11500E+01 3.96080E+01 0.00000E+00
 -1       613 2.41500E+01 3.96080E+01 0.00000E+00
 -1       614 2.71500E+01 3.96080E+01 0.00000E+00
 -1       615 3.01500E+01 3.96080E+01 0.00000E+00
 -1       616 3.31500E+01 3.96080E+01 0.00000E+00
 -1       617 3.61500E+01 3.96080E+01 0.00000E+00
 -1       618 3.91500E+01 3.96080E+01 0.00000E+00
 -1       619 4.21500E+01 3.96080E+01 0.00000E+00
 -1       620 4.51500E+01 3.96080E+01 0.00000E+00
 -1       621 4.81500E+01 3.96080E+01 0.00000E+00
 -1       622 5.11500E+01 3.96080E+01 0.00000E+00
 -1       623 5.41500E+01 3.96080E+01 0.00000E+00
 -1       624 5.71500E+01 3.96080E+01 0.00000E+00
 -1       625 6.01500E+01 3.96080E+01 0.00000E+00
 -1       626 6.31500E+01 3.96080E+01 0.00000E+00
 -1       627 6.61500E+01 3.96080E+01 0.00000E+00
 -1       628 6.91500E+01 3.96080E+01 0.00000E+00
 -1       629 7.21500E+01 3.96080E+01 0.00000E+00
 -1       630 7.51500E+01 3.96080E+01 0.00000E+00
 -1       631 7.81500E+01 3.96080E+01 0.00000E+00
 -1       632 8.11500E+01 3.96080E+01 0.00000E+00
 -1       633 8.41500E+01 3.96080E+01 0.00000E+00
 -1       634 8.71500E+01 3.96080E+01 0.00000E+00
 -1       635 9.01500E+01 3.96080E+01 0.00000E+00
 -1       636 9.31500E+01 3.96080E+01 0.00000E+00
 -1       637 9.61500E+01 3.96080E+01 0.00000E+00
 -1       638 9.91500E+01 3.96080E+01 0.00000E+00
 -1       639 1.02150E+02 3.96080E+01 0.00000E+00
 -1       640 1.05150E+02 3.96080E+01 0.00000E+00
 -1       641 1.08150E+02 3.96080E+01 0.00000E+00
 -1       642 1.11150E+02 3.96080E+01 0.00000E+00
 -1       643 1.14150E+02 3.96080E+01 0.00000E+00
 -1       644 1.17150E+02 3.96080E+01 0.00000E+00
 -1       645 1.20150E+02 3.96080E+01 0.00000E+00
 -1       646 1.23150E+02 3.96080E+01 0.00000E+00
 -1       647 1.26150E+02 3.96080E+01 0.00000E+00
 -1       648 1.29150E+02 3.96080E+01 0.00000E+00
 -1       649 1.32150E+02 3.96080E+01 0.00000E+00
 -1       650 1.35150E+02 3.96080E+01 0.00000E+00
 -1       651 1.38150E+02 3.96080E+01 0.00000E+00
 -1       652 2.95941E+01 2.12190E+01 0.00000E+00
 -1       653 2.92611E+01 9.24600E+00 0.00000E+00
 -1       654 3.22611E+01 9.24600E+00 0.00000E+00
 -1       655 3.52611E+01 9.24600E+00 0.00000E+00
 -1       656 3.82611E+01 9.24600E+00 0.00000E+00
 -1       657 4.12611E+01 9.24600E+00 0.00000E+00
 -1       658 4.42611E+01 9.24600E+00 0.00000E+00
 -1       659 4.72611E+01 9.24600E+00 0.00000E+00
 -1       660 5.02611E+01 9.24600E+00 0.00000E+00
 -1       661 5.32611E+01 9.24600E+00 0.00000E+00
 -1       662 5.62611E+01 9.24600E+00 0.00000E+00
 -1       663 5.92611E+01 9.24600E+00 0.00000E+00
 -1       664 6.22611E+01 9.24600E+00 0.00000E+00
 -1       665 6.52611E+01 9.24600E+00 0.00000E+00
 -1       666 6.82611E+01 9.24600E+00 0.00000E+00
 -1       667 7.12611E+01 9.24600E+00 0.00000E+00
 -1       668 7.42611E+01 9.24600E+00 0.00000E+00
 -1       669 7.72611E+01 9.24600E+00 0.00000E+00
 -1       670 8.02611E+01 9.24600E+00 0.00000E+00
 -1       671 8.32611E+01 9.24600E+00 0.00000E+00
 -1       672 8.62611E+01 9.24600E+00 0.00000E+00
 -1       673 8.92611E+01 9.24600E+00 0.00000E+00
 -1       674 9.22611E+01 9.24600E+00 0.00000E+00
 -1       675 9.52611E+01 9.24600E+00 0.00000E+00
 -1       676 9.82611E+01 9.24600E+00 0.00000E+00
 -1       677 1.01261E+02 9.24600E+00 0.00000E+00
 -1       678 1.04261E+02 9.24600E+00 0.00000E+00
 -1       679 1.07261E+02 9.24600E+00 0.00000E+00
 -1       680 1.10261E+02 9.24600E+00 0.00000E+00
 -1       681 1.13261E+02 9.24600E+00 0.00000E+00
 -1       682 1.16261E+02 9.24600E+00 0.00000E+00
 -1       683 1.19261E+02 9.24600E+00 0.00000E+00
 -1       684 1.22261E+02 9.24600E+00 0.00000E+00
 -1       685 1.25261E+02 9.24600E+00 0.00000E+00
 -1       686 1.28261E+02 9.24600E+00 0.00000E+00
 -1       687 1.31261E+02 9.24600E+00 0.00000E+00
 -1       688 1.34261E+02 9.24600E+00 0.00000E+00
 -1       689 1.37261E+02 9.24600E+00 0.00000E+00
 -1       690 1.39734E+02 9.78550E+00 0.00000E+00
 -1       691 1.39608E+02 2.35500E+01 0.00000E+00
 -1       692 1.40178E+02 3.96665E+01 0.00000E+00
 -1       693 1.39608E+02 1.76500E+01 0.00000E+00
 -1       694 1.39608E+02 2.65000E+01 0.00000E+00
 -1       695 1.39608E+02 2.06000E+01 0.00000E+00
 -1       696 1.39608E+02 2.94000E+01 0.00000E+00
 -1       697 1.39608E+02 3.23500E+01 0.00000E+00
 -1       698 1.39608E+02 3.53000E+01 0.00000E+00
 -1       699 2.88741E+01 2.42446E+01 0.00000E+00
 -1       700 2.70237E+01 2.94263E+01 0.00000E+00
 -1       701 2.20955E+01 3.33288E+01 0.00000E+00
 -1       702 2.79147E+01 1.58353E+01 0.00000E+00
 -1       703 2.69285E+01 1.32965E+01 0.00000E+00
 -1       704 1.96989E+01 8.47138E+00 0.00000E+00
 -1       705 1.32462E+01 7.35000E+00 0.00000E+00
 -1       706 1.61113E+01 3.41042E+01 0.00000E+00
 -1       707 1.91581E+01 3.38413E+01 0.00000E+00
 -1       708 2.80360E+01 2.64325E+01 0.00000E+00
 -1       709 1.12451E+01 3.27952E+01 0.00000E+00
 -1       710 1.45413E+01 8.16636E+00 0.00000E+00
 -1       711 1.21500E+01 3.96080E+01 0.00000E+00
 -1       712 2.49916E+01 3.14365E+01 0.00000E+00
 -1       713 1.34273E+01 3.34256E+01 0.00000E+00
 -1       714 9.90920E+00 3.92860E+01 0.00000E+00
 -1       715 9.63163E+00 3.48625E+01 0.00000E+00
 -1       716 3.02495E+01 1.97615E+01 0.00000E+00
 -1       717 1.39608E+02 1.47250E+01 0.00000E+00
 -1       718 1.39671E+02 1.22552E+01 0.00000E+00
 -1       719 1.15465E+01 8.34266E+00 0.00000E+00
 -1       720 1.38879E+02 3.74540E+01 0.00000E+00
 -1       721 3.01892E+01 1.67501E+01 0.00000E+00
 -1       722 3.37611E+01 1.18440E+01 0.00000E+00
 -1       723 3.07611E+01 1.18440E+01 0.00000E+00
 -1       724 1.96500E+01 3.70100E+01 0.00000E+00
 -1       725 2.26500E+01 3.70100E+01 0.00000E+00
 -1       726 2.56500E+01 3.70100E+01 0.00000E+00
 -1       727 2.86500E+01 3.70100E+01 0.00000E+00
 -1       728 3.16500E+01 3.70100E+01 0.00000E+00
 -1       729 3.46500E+01 3.70100E+01 0.00000E+00
 -1       730 3.76500E+01 3.70100E+01 0.00000E+00
 -1       731 4.06500E+01 3.70100E+01 0.00000E+00
 -1       732 4.36500E+01 3.70100E+01 0.00000E+00
 -1       733 4.66500E+01 3.70100E+01 0.00000E+00
 -1       734 4.96500E+01 3.70100E+01 0.00000E+00
 -1       735 5.26500E+01 3.70100E+01 0.00000E+00
 -1       736 5.56500E+01 3.70100E+01 0.00000E+00
 -1       737 5.86500E+01 3.70100E+01 0.00000E+00
 -1       738 6.16500E+01 3.70100E+01 0.00000E+00
 -1       739 6.46500E+01 3.70100E+01 0.00000E+00
 -1       740 6.76500E+01 3.70100E+01 0.00000E+00
 -1       741 7.06500E+01 3.70100E+01 0.00000E+00
 -1       742 7.36500E+01 3.70100E+01 0.00000E+00
 -1       743 7.66500E+01 3.70100E+01 0.00000E+00
 -1       744 7.96500E+01 3.70100E+01 0.00000E+00
 -1       745 8.26500E+01 3.70100E+01 0.00000E+00
 -1       746 8.56500E+01 3.70100E+01 0.00000E+00
 -1       747 8.86500E+01 3.70100E+01 0.00000E+00
 -1       748 9.16500E+01 3.70100E+01 0.00000E+00
 -1       749 9.46500E+01 3.70100E+01 0.00000E+00
 -1       750 9.76500E+01 3.70100E+01 0.00000E+00
 -1       751 1.00650E+02 3.70100E+01 0.00000E+00
 -1       752 1.03650E+02 3.70100E+01 0.00000E+00
 -1       753 1.06650E+02 3.70100E+01 0.00000E+00
 -1       754 1.09650E+02 3.70100E+01 0.00000E+00
 -1       755 1.12650E+02 3.70100E+01 0.00000E+00
 -1       756 1.15650E+02 3.70100E+01 0.00000E+00
 -1       757 1.18650E+02 3.70100E+01 0.00000E+00
 -1       758 1.21650E+02 3.70100E+01 0.00000E+00
 -1       759 1.24650E+02 3.70100E+01 0.00000E+00
 -1       760 1.27650E+02 3.70100E+01 0.00000E+00
 -1       761 1.30650E+02 3.70100E+01 0.00000E+00
 -1       762 1.33650E+02 3.70100E+01 0.00000E+00
 -1       763 1.36264E+02 3.72320E+01 0.00000E+00
 -1       764 3.67611E+01 1.18440E+01 0.00000E+00
 -1       765 3.97611E+01 1.18440E+01 0.00000E+00
 -1       766 4.27611E+01 1.18440E+01 0.00000E+00
 -1       767 4.57611E+01 1.18440E+01 0.00000E+00
 -1       768 4.87611E+01 1.18440E+01 0.00000E+00
 -1       769 5.17611E+01 1.18440E+01 0.00000E+00
 -1       770 5.47611E+01 1.18440E+01 0.00000E+00
 -1       771 5.77611E+01 1.18440E+01 0.00000E+00
 -1       772 6.07611E+01 1.18440E+01 0.00000E+00
 -1       773 6.37611E+01 1.18440E+01 0.00000E+00
 -1       774 6.67611E+01 1.18440E+01 0.00000E+00
 -1       775 6.97611E+01 1.18440E+01 0.00000E+00
 -1       776 7.27611E+01 1.18440E+01 0.00000E+00
 -1       777 7.57611E+01 1.18440E+01 0.00000E+00
 -1       778 7.87611E+01 1.18440E+01 0.00000E+00
 -1       779 8.17611E+01 1.18440E+01 0.00000E+00
 -1       780 8.47611E+01 1.18440E+01 0.00000E+00
 -1       781 8.77611E+01 1.18440E+01 0.00000E+00
 -1       782 9.07611E+01 1.18440E+01 0.00000E+00
 -1       783 9.37611E+01 1.18440E+01 0.00000E+00
 -1       784 9.67611E+01 1.18440E+01 0.00000E+00
 -1       785 9.97611E+01 1.18440E+01 0.00000E+00
 -1       786 1.02761E+02 1.18440E+01 0.00000E+00
 -1       787 1.05761E+02 1.18440E+01 0.00000E+00
 -1       788 1.08761E+02 1.18440E+01 0.00000E+00
 -1       789 1.11761E+02 1.18440E+01 0.00000E+00
 -1       790 1.14761E+02 1.18440E+01 0.00000E+00
 -1       791 1.17761E+02 1.18440E+01 0.00000E+00
 -1       792 1.20761E+02 1.18440E+01 0.00000E+00
 -1       793 1.23761E+02 1.18440E+01 0.00000E+00
 -1       794 1.26761E+02 1.18440E+01 0.00000E+00
 -1       795 1.29761E+02 1.18440E+01 0.00000E+00
 -1       796 1.32761E+02 1.18440E+01 0.00000E+00
 -1       797 1.35761E+02 1.18440E+01 0.00000E+00
 -1       798 1.37716E+02 1.20496E+01 0.00000E+00
 -1       799 1.66500E+01 3.70100E+01 0.00000E+00
 -1       800 1.37010E+02 3.38250E+01 0.00000E+00
 -1       801 1.37010E+02 2.50250E+01 0.00000E+00
 -1       802 2.78030E+01 3.22464E+01 0.00000E+00
 -1       803 2.94721E+01 2.85861E+01 0.00000E+00
 -1       804 9.77042E+00 3.70742E+01 0.00000E+00
 -1       805 1.43078E+01 3.55902E+01 0.00000E+00
 -1       806 2.49400E+01 3.45198E+01 0.00000E+00
 -1       807 1.37010E+02 2.79250E+01 0.00000E+00
 -1       808 3.02131E+01 2.60120E+01 0.00000E+00
 -1       809 1.18138E+01 3.54929E+01 0.00000E+00
 -1       810 2.90203E+01 1.39448E+01 0.00000E+00
 -1       811 1.37010E+02 3.08750E+01 0.00000E+00
 -1       812 3.15547E+01 2.32840E+01 0.00000E+00
 -1       813 1.37010E+02 1.61875E+01 0.00000E+00
 -1       814 1.37010E+02 1.91375E+01 0.00000E+00
 -1       815 1.37010E+02 2.20812E+01 0.00000E+00
 -1       816 3.02514E+01 3.14062E+01 0.00000E+00
 -1       817 3.22101E+01 2.18265E+01 0.00000E+00
 -1       818 1.36637E+02 3.55285E+01 0.00000E+00
 -1       819 3.52611E+01 1.44420E+01 0.00000E+00
 -1       820 3.22611E+01 1.44420E+01 0.00000E+00
 -1       821 3.01500E+01 3.44120E+01 0.00000E+00
 -1       822 3.31500E+01 3.44120E+01 0.00000E+00
 -1       823 3.61500E+01 3.44120E+01 0.00000E+00
 -1       824 3.91500E+01 3.44120E+01 0.00000E+00
 -1       825 4.21500E+01 3.44120E+01 0.00000E+00
 -1       826 4.51500E+01 3.44120E+01 0.00000E+00
 -1       827 4.81500E+01 3.44120E+01 0.00000E+00
 -1       828 5.11500E+01 3.44120E+01 0.00000E+00
 -1       829 5.41500E+01 3.44120E+01 0.00000E+00
 -1       830 5.71500E+01 3.44120E+01 0.00000E+00
 -1       831 6.01500E+01 3.44120E+01 0.00000E+00
 -1       832 6.31500E+01 3.44120E+01 0.00000E+00
 -1       833 6.61500E+01 3.44120E+01 0.00000E+00
 -1       834 6.91500E+01 3.44120E+01 0.00000E+00
 -1       835 7.21500E+01 3.44120E+01 0.00000E+00
 -1       836 7.51500E+01 3.44120E+01 0.00000E+00
 -1       837 7.81500E+01 3.44120E+01 0.00000E+00
 -1       838 8.11500E+01 3.44120E+01 0.00000E+00
 -1       839 8.41500E+01 3.44120E+01 0.00000E+00
 -1       840 8.71500E+01 3.44120E+01 0.00000E+00
 -1       841 9.01500E+01 3.44120E+01 0.00000E+00
 -1       842 9.31500E+01 3.44120E+01 0.00000E+00
 -1       843 9.61500E+01 3.44120E+01 0.00000E+00
 -1       844 9.91500E+01 3.44120E+01 0.00000E+00
 -1       845 1.02150E+02 3.44120E+01 0.00000E+00
 -1       846 1.05150E+02 3.44120E+01 0.00000E+00
 -1       847 1.08150E+02 3.44120E+01 0.00000E+00
 -1       848 1.11150E+02 3.44120E+01 0.00000E+00
 -1       849 1.14150E+02 3.44120E+01 0.00000E+00
 -1       850 1.17150E+02 3.44120E+01 0.00000E+00
 -1       851 1.20150E+02 3.44120E+01 0.00000E+00
 -1       852 1.23150E+02 3.44120E+01 0.00000E+00
 -1       853 1.26150E+02 3.44120E+01 0.00000E+00
 -1       854 1.29150E+02 3.44120E+01 0.00000E+00
 -1       855 1.32150E+02 3.44120E+01 0.00000E+00
 -1       856 4.12611E+01 1.44420E+01 0.00000E+00
 -1       857 4.42611E+01 1.44420E+01 0.00000E+00
 -1       858 4.72611E+01 1.44420E+01 0.00000E+00
 -1       859 5.02611E+01 1.44420E+01 0.00000E+00
 -1       860 5.32611E+01 1.44420E+01 0.00000E+00
 -1       861 5.62611E+01 1.44420E+01 0.00000E+00
 -1       862 5.92611E+01 1.44420E+01 0.00000E+00
 -1       863 6.22611E+01 1.44420E+01 0.00000E+00
 -1       864 6.52611E+01 1.44420E+01 0.00000E+00
 -1       865 6.82611E+01 1.44420E+01 0.00000E+00
 -1       866 7.12611E+01 1.44420E+01 0.00000E+00
 -1       867 7.42611E+01 1.44420E+01 0.00000E+00
 -1       868 7.72611E+01 1.44420E+01 0.00000E+00
 -1       869 8.02611E+01 1.44420E+01 0.00000E+00
 -1       870 8.32611E+01 1.44420E+01 0.00000E+00
 -1       871 8.62611E+01 1.44420E+01 0.00000E+00
 -1       872 8.92611E+01 1.44420E+01 0.00000E+00
 -1       873 9.22611E+01 1.44420E+01 0.00000E+00
 -1       874 9.52611E+01 1.44420E+01 0.00000E+00
 -1       875 9.82611E+01 1.44420E+01 0.00000E+00
 -1       876 1.01261E+02 1.44420E+01 0.00000E+00
 -1       877 1.04261E+02 1.44420E+01 0.00000E+00
 -1       878 1.07261E+02 1.44420E+01 0.00000E+00
 -1       879 1.10261E+02 1.44420E+01 0.00000E+00
 -1       880 1.13261E+02 1.44420E+01 0.00000E+00
 -1       881 1.16261E+02 1.44420E+01 0.00000E+00
 -1       882 1.19261E+02 1.44420E+01 0.00000E+00
 -1       883 1.22261E+02 1.44420E+01 0.00000E+00
 -1       884 1.25261E+02 1.44420E+01 0.00000E+00
 -1       885 1.28261E+02 1.44420E+01 0.00000E+00
 -1       886 1.31261E+02 1.44420E+01 0.00000E+00
 -1       887 1.34261E+02 1.44420E+01 0.00000E+00
 -1       888 1.37363E+02 1.41186E+01 0.00000E+00
 -1       889 3.82611E+01 1.44420E+01 0.00000E+00
 -1       890 1.34412E+02 2.64750E+01 0.00000E+00
 -1       891 3.27237E+01 2.55528E+01 0.00000E+00
 -1       892 3.19827E+01 2.81269E+01 0.00000E+00
 -1       893 3.21017E+01 1.82181E+01 0.00000E+00
 -1       894 2.71500E+01 3.44120E+01 0.00000E+00
 -1       895 1.34412E+02 2.35313E+01 0.00000E+00
 -1       896 1.34394E+02 3.49702E+01 0.00000E+00
 -1       897 3.41107E+01 2.34026E+01 0.00000E+00
 -1       898 1.34261E+02 1.73920E+01 0.00000E+00
 -1       899 1.34412E+02 2.94250E+01 0.00000E+00
 -1       900 1.34580E+02 3.26435E+01 0.00000E+00
 -1       901 3.48065E+01 2.75461E+01 0.00000E+00
 -1       902 4.87611E+01 1.70400E+01 0.00000E+00
 -1       903 3.51017E+01 1.82181E+01 0.00000E+00
 -1       904 3.46500E+01 3.18140E+01 0.00000E+00
 -1       905 3.76500E+01 3.18140E+01 0.00000E+00
 -1       906 4.06500E+01 3.18140E+01 0.00000E+00
 -1       907 4.36500E+01 3.18140E+01 0.00000E+00
 -1       908 4.66500E+01 3.18140E+01 0.00000E+00
 -1       909 4.96500E+01 3.18140E+01 0.00000E+00
 -1       910 5.26500E+01 3.18140E+01 0.00000E+00
 -1       911 5.56500E+01 3.18140E+01 0.00000E+00
 -1       912 5.86500E+01 3.18140E+01 0.00000E+00
 -1       913 6.16500E+01 3.18140E+01 0.00000E+00
 -1       914 6.46500E+01 3.18140E+01 0.00000E+00
 -1       915 6.76500E+01 3.18140E+01 0.00000E+00
 -1       916 7.06500E+01 3.18140E+01 0.00000E+00
 -1       917 7.36500E+01 3.18140E+01 0.00000E+00
 -1       918 7.66500E+01 3.18140E+01 0.00000E+00
 -1       919 7.96500E+01 3.18140E+01 0.00000E+00
 -1       920 8.26500E+01 3.18140E+01 0.00000E+00
 -1       921 8.56500E+01 3.18140E+01 0.00000E+00
 -1       922 8.86500E+01 3.18140E+01 0.00000E+00
 -1       923 9.16500E+01 3.18140E+01 0.00000E+00
 -1       924 9.46500E+01 3.18140E+01 0.00000E+00
 -1       925 9.76500E+01 3.18140E+01 0.00000E+00
 -1       926 1.00650E+02 3.18140E+01 0.00000E+00
 -1       927 1.03650E+02 3.18140E+01 0.00000E+00
 -1       928 1.06650E+02 3.18140E+01 0.00000E+00
 -1       929 1.09650E+02 3.18140E+01 0.00000E+00
 -1       930 1.12650E+02 3.18140E+01 0.00000E+00
 -1       931 1.15650E+02 3.18140E+01 0.00000E+00
 -1       932 1.18650E+02 3.18140E+01 0.00000E+00
 -1       933 1.21650E+02 3.18140E+01 0.00000E+00
 -1       934 1.24650E+02 3.18140E+01 0.00000E+00
 -1       935 1.27650E+02 3.18140E+01 0.00000E+00
 -1       936 1.30650E+02 3.18140E+01 0.00000E+00
 -1       937 4.57611E+01 1.70400E+01 0.00000E+00
 -1       938 4.27611E+01 1.70400E+01 0.00000E+00
 -1       939 5.17611E+01 1.70400E+01 0.00000E+00
 -1       940 5.47611E+01 1.70400E+01 0.00000E+00
 -1       941 5.77611E+01 1.70400E+01 0.00000E+00
 -1       942 6.07611E+01 1.70400E+01 0.00000E+00
 -1       943 6.37611E+01 1.70400E+01 0.00000E+00
 -1       944 6.67611E+01 1.70400E+01 0.00000E+00
 -1       945 6.97611E+01 1.70400E+01 0.00000E+00
 -1       946 7.27611E+01 1.70400E+01 0.00000E+00
 -1       947 7.57611E+01 1.70400E+01 0.00000E+00
 -1       948 7.87611E+01 1.70400E+01 0.00000E+00
 -1       949 8.17611E+01 1.70400E+01 0.00000E+00
 -1       950 8.47611E+01 1.70400E+01 0.00000E+00
 -1       951 8.77611E+01 1.70400E+01 0.00000E+00
 -1       952 9.07611E+01 1.70400E+01 0.00000E+00
 -1       953 9.37611E+01 1.70400E+01 0.00000E+00
 -1       954 9.67611E+01 1.70400E+01 0.00000E+00
 -1       955 9.97611E+01 1.70400E+01 0.00000E+00
 -1       956 1.02761E+02 1.70400E+01 0.00000E+00
 -1       957 1.05761E+02 1.70400E+01 0.00000E+00
 -1       958 1.08761E+02 1.70400E+01 0.00000E+00
 -1       959 1.11761E+02 1.70400E+01 0.00000E+00
 -1       960 1.14761E+02 1.70400E+01 0.00000E+00
 -1       961 1.17761E+02 1.70400E+01 0.00000E+00
 -1       962 1.20761E+02 1.70400E+01 0.00000E+00
 -1       963 1.23761E+02 1.70400E+01 0.00000E+00
 -1       964 1.26761E+02 1.70400E+01 0.00000E+00
 -1       965 1.29761E+02 1.70400E+01 0.00000E+00
 -1       966 1.32011E+02 1.72160E+01 0.00000E+00
 -1       967 3.97611E+01 1.70400E+01 0.00000E+00
 -1       968 1.34412E+02 2.05875E+01 0.00000E+00
 -1       969 3.46062E+01 2.08103E+01 0.00000E+00
 -1       970 3.61935E+01 2.53959E+01 0.00000E+00
 -1       971 3.74314E+01 1.76290E+01 0.00000E+00
 -1       972 3.66890E+01 2.28037E+01 0.00000E+00
 -1       973 1.31814E+02 2.50031E+01 0.00000E+00
 -1       974 1.31814E+02 2.79531E+01 0.00000E+00
 -1       975 1.32162E+02 2.04115E+01 0.00000E+00
 -1       976 5.02611E+01 1.96380E+01 0.00000E+00
 -1       977 3.91500E+01 2.92160E+01 0.00000E+00
 -1       978 4.21500E+01 2.92160E+01 0.00000E+00
 -1       979 4.51500E+01 2.92160E+01 0.00000E+00
 -1       980 4.81500E+01 2.92160E+01 0.00000E+00
 -1       981 5.11500E+01 2.92160E+01 0.00000E+00
 -1       982 5.41500E+01 2.92160E+01 0.00000E+00
 -1       983 5.71500E+01 2.92160E+01 0.00000E+00
 -1       984 6.01500E+01 2.92160E+01 0.00000E+00
 -1       985 6.31500E+01 2.92160E+01 0.00000E+00
 -1       986 6.61500E+01 2.92160E+01 0.00000E+00
 -1       987 6.91500E+01 2.92160E+01 0.00000E+00
 -1       988 7.21500E+01 2.92160E+01 0.00000E+00
 -1       989 7.51500E+01 2.92160E+01 0.00000E+00
 -1       990 7.81500E+01 2.92160E+01 0.00000E+00
 -1       991 8.11500E+01 2.92160E+01 0.00000E+00
 -1       992 8.41500E+01 2.92160E+01 0.00000E+00
 -1       993 8.71500E+01 2.92160E+01 0.00000E+00
 -1       994 9.01500E+01 2.92160E+01 0.00000E+00
 -1       995 9.31500E+01 2.92160E+01 0.00000E+00
 -1       996 9.61500E+01 2.92160E+01 0.00000E+00
 -1       997 9.91500E+01 2.92160E+01 0.00000E+00
 -1       998 1.02150E+02 2.92160E+01 0.00000E+00
 -1       999 1.05150E+02 2.92160E+01 0.00000E+00
 -1      1000 1.08150E+02 2.92160E+01 0.00000E+00
 -1      1001 1.11150E+02 2.92160E+01 0.00000E+00
 -1      1002 1.14150E+02 2.92160E+01 0.00000E+00
 -1      1003 1.17150E+02 2.92160E+01 0.00000E+00
 -1      1004 1.20150E+02 2.92160E+01 0.00000E+00
 -1      1005 1.23150E+02 2.92160E+01 0.00000E+00
 -1      1006 1.26150E+02 2.92160E+01 0.00000E+00
 -1      1007 1.29150E+02 2.92160E+01 0.00000E+00
 -1      1008 4.72611E+01 1.96380E+01 0.00000E+00
 -1      1009 4.42611E+01 1.96380E+01 0.00000E+00
 -1      1010 5.62611E+01 1.96380E+01 0.00000E+00
 -1      1011 5.92611E+01 1.96380E+01 0.00000E+00
 -1      1012 6.22611E+01 1.96380E+01 0.00000E+00
 -1      1013 6.52611E+01 1.96380E+01 0.00000E+00
 -1      1014 6.82611E+01 1.96380E+01 0.00000E+00
 -1      1015 7.12611E+01 1.96380E+01 0.00000E+00
 -1      1016 7.42611E+01 1.96380E+01 0.00000E+00
 -1      1017 7.72611E+01 1.96380E+01 0.00000E+00
 -1      1018 8.02611E+01 1.96380E+01 0.00000E+00
 -1      1019 8.32611E+01 1.96380E+01 0.00000E+00
 -1      1020 8.62611E+01 1.96380E+01 0.00000E+00
 -1      1021 8.92611E+01 1.96380E+01 0.00000E+00
 -1      1022 9.22611E+01 1.96380E+01 0.00000E+00
 -1      1023 9.52611E+01 1.96380E+01 0.00000E+00
 -1      1024 9.82611E+01 1.96380E+01 0.00000E+00
 -1      1025 1.01261E+02 1.96380E+01 0.00000E+00
 -1      1026 1.04261E+02 1.96380E+01 0.00000E+00
 -1      1027 1.07261E+02 1.96380E+01 0.00000E+00
 -1      1028 1.10261E+02 1.96380E+01 0.00000E+00
 -1      1029 1.13261E+02 1.96380E+01 0.00000E+00
 -1      1030 1.16261E+02 1.96380E+01 0.00000E+00
 -1      1031 1.19261E+02 1.96380E+01 0.00000E+00
 -1      1032 1.22261E+02 1.96380E+01 0.00000E+00
 -1      1033 1.25261E+02 1.96380E+01 0.00000E+00
 -1      1034 1.28261E+02 1.96380E+01 0.00000E+00
 -1      1035 4.12611E+01 1.96380E+01 0.00000E+00
 -1      1036 1.31988E+02 2.27073E+01 0.00000E+00
 -1      1037 5.32611E+01 1.96380E+01 0.00000E+00
 -1      1038 3.71844E+01 2.02114E+01 0.00000E+00
 -1      1039 1.30212E+02 2.00247E+01 0.00000E+00
 -1      1040 1.29310E+02 2.36589E+01 0.00000E+00
 -1      1041 3.97263E+01 2.57159E+01 0.00000E+00
 -1      1042 1.29230E+02 2.64374E+01 0.00000E+00
 -1      1043 3.92228E+01 1.99247E+01 0.00000E+00
 -1      1044 4.27263E+01 2.57159E+01 0.00000E+00
 -1      1045 4.57263E+01 2.57159E+01 0.00000E+00
 -1      1046 4.87263E+01 2.57159E+01 0.00000E+00
 -1      1047 5.17263E+01 2.57159E+01 0.00000E+00
 -1      1048 5.47263E+01 2.57159E+01 0.00000E+00
 -1      1049 5.77263E+01 2.57159E+01 0.00000E+00
 -1      1050 6.07263E+01 2.57159E+01 0.00000E+00
 -1      1051 6.37263E+01 2.57159E+01 0.00000E+00
 -1      1052 6.67263E+01 2.57159E+01 0.00000E+00
 -1      1053 6.97263E+01 2.57159E+01 0.00000E+00
 -1      1054 7.27263E+01 2.57159E+01 0.00000E+00
 -1      1055 7.57263E+01 2.57159E+01 0.00000E+00
 -1      1056 7.87263E+01 2.57159E+01 0.00000E+00
 -1      1057 8.17263E+01 2.57159E+01 0.00000E+00
 -1      1058 8.47263E+01 2.57159E+01 0.00000E+00
 -1      1059 8.77263E+01 2.57159E+01 0.00000E+00
 -1      1060 9.07263E+01 2.57159E+01 0.00000E+00
 -1      1061 9.37263E+01 2.57159E+01 0.00000E+00
 -1      1062 9.67263E+01 2.57159E+01 0.00000E+00
 -1      1063 9.97263E+01 2.57159E+01 0.00000E+00
 -1      1064 1.02726E+02 2.57159E+01 0.00000E+00
 -1      1065 1.05726E+02 2.57159E+01 0.00000E+00
 -1      1066 1.08726E+02 2.57159E+01 0.00000E+00
 -1      1067 1.11726E+02 2.57159E+01 0.00000E+00
 -1      1068 1.14726E+02 2.57159E+01 0.00000E+00
 -1      1069 1.17726E+02 2.57159E+01 0.00000E+00
 -1      1070 1.20726E+02 2.57159E+01 0.00000E+00
 -1      1071 1.23726E+02 2.57159E+01 0.00000E+00
 -1      1072 4.87611E+01 2.22360E+01 0.00000E+00
 -1      1073 4.57611E+01 2.22360E+01 0.00000E+00
 -1      1074 6.37611E+01 2.22360E+01 0.00000E+00
 -1      1075 6.07611E+01 2.22360E+01 0.00000E+00
 -1      1076 5.77611E+01 2.22360E+01 0.00000E+00
 -1      1077 6.67611E+01 2.22360E+01 0.00000E+00
 -1      1078 6.97611E+01 2.22360E+01 0.00000E+00
 -1      1079 7.27611E+01 2.22360E+01 0.00000E+00
 -1      1080 7.57611E+01 2.22360E+01 0.00000E+00
 -1      1081 7.87611E+01 2.22360E+01 0.00000E+00
 -1      1082 8.17611E+01 2.22360E+01 0.00000E+00
 -1      1083 8.47611E+01 2.22360E+01 0.00000E+00
 -1      1084 8.77611E+01 2.22360E+01 0.00000E+00
 -1      1085 9.07611E+01 2.22360E+01 0.00000E+00
 -1      1086 9.37611E+01 2.22360E+01 0.00000E+00
 -1      1087 9.67611E+01 2.22360E+01 0.00000E+00
 -1      1088 9.97611E+01 2.22360E+01 0.00000E+00
 -1      1089 1.02761E+02 2.22360E+01 0.00000E+00
 -1      1090 1.05761E+02 2.22360E+01 0.00000E+00
 -1      1091 1.08761E+02 2.22360E+01 0.00000E+00
 -1      1092 1.11761E+02 2.22360E+01 0.00000E+00
 -1      1093 1.14761E+02 2.22360E+01 0.00000E+00
 -1      1094 1.17761E+02 2.22360E+01 0.00000E+00
 -1      1095 1.20761E+02 2.22360E+01 0.00000E+00
 -1      1096 1.23761E+02 2.22360E+01 0.00000E+00
 -1      1097 1.26761E+02 2.22360E+01 0.00000E+00
 -1      1098 4.00057E+01 2.23845E+01 0.00000E+00
 -1      1099 1.29761E+02 2.18418E+01 0.00000E+00
 -1      1100 5.47611E+01 2.22360E+01 0.00000E+00
 -1      1101 4.27611E+01 2.22360E+01 0.00000E+00
 -1      1102 5.17611E+01 2.22360E+01 0.00000E+00
 -1      1103 1.26770E+02 2.52160E+01 0.00000E+00
 -1      1104 0.00000E+00 4.84750E+01 0.00000E+00
 -1      1105 0.00000E+00 4.54500E+01 0.00000E+00
 -1      1106 0.00000E+00 4.24250E+01 0.00000E+00
 -1      1107 0.00000E+00 3.94000E+01 0.00000E+00
 -1      1108 0.00000E+00 3.63750E+01 0.00000E+00
 -1      1109 0.00000E+00 3.33500E+01 0.00000E+00
 -1      1110 0.00000E+00 3.03500E+01 0.00000E+00
 -1      1111 0.00000E+00 2.73500E+01 0.00000E+00
 -1      1112 0.00000E+00 2.45000E+01 0.00000E+00
 -1      1113 0.00000E+00 2.17000E+01 0.00000E+00
 -1      1114 0.00000E+00 1.89750E+01 0.00000E+00
 -1      1115 0.00000E+00 1.63500E+01 0.00000E+00
 -1      1116 0.00000E+00 1.35250E+01 0.00000E+00
 -1      1117 0.00000E+00 1.05500E+01 0.00000E+00
 -1      1118 0.00000E+00 7.52500E+00 0.00000E+00
 -1      1119 0.00000E+00 4.50000E+00 0.00000E+00
 -1      1120 0.00000E+00 1.50000E+00 0.00000E+00
 -1      1121 1.57500E+00 5.00000E+01 0.00000E+00
 -1      1122 4.65000E+00 5.00000E+01 0.00000E+00
 -1      1123 7.65000E+00 5.00000E+01 0.00000E+00
 -1      1124 1.06500E+01 5.00000E+01 0.00000E+00
 -1      1125 1.36500E+01 5.00000E+01 0.00000E+00
 -1      1126 1.66500E+01 5.00000E+01 0.00000E+00
 -1      1127 1.96500E+01 5.00000E+01 0.00000E+00
 -1      1128 2.26500E+01 5.00000E+01 0.00000E+00
 -1      1129 2.56500E+01 5.00000E+01 0.00000E+00
 -1      1130 2.86500E+01 5.00000E+01 0.00000E+00
 -1      1131 3.16500E+01 5.00000E+01 0.00000E+00
 -1      1132 3.46500E+01 5.00000E+01 0.00000E+00
 -1      1133 3.76500E+01 5.00000E+01 0.00000E+00
 -1      1134 4.06500E+01 5.00000E+01 0.00000E+00
 -1      1135 4.36500E+01 5.00000E+01 0.00000E+00
 -1      1136 4.66500E+01 5.00000E+01 0.00000E+00
 -1      1137 4.96500E+01 5.00000E+01 0.00000E+00
 -1      1138 5.26500E+01 5.00000E+01 0.00000E+00
 -1      1139 5.56500E+01 5.00000E+01 0.00000E+00
 -1      1140 5.86500E+01 5.00000E+01 0.00000E+00
 -1      1141 6.16500E+01 5.00000E+01 0.00000E+00
 -1      1142 6.46500E+01 5.00000E+01 0.00000E+00
 -1      1143 6.76500E+01 5.00000E+01 0.00000E+00
 -1      1144 7.06500E+01 5.00000E+01 0.00000E+00
 -1      1145 7.36500E+01 5.00000E+01 0.00000E+00
 -1      1146 7.66500E+01 5.00000E+01 0.00000E+00
 -1      1147 7.96500E+01 5.00000E+01 0.00000E+00
 -1      1148 8.26500E+01 5.00000E+01 0.00000E+00
 -1      1149 8.56500E+01 5.00000E+01 0.00000E+00
 -1      1150 8.86500E+01 5.00000E+01 0.00000E+00
 -1      1151 9.16500E+01 5.00000E+01 0.00000E+00
 -1      1152 9.46500E+01 5.00000E+01 0.00000E+00
 -1      1153 9.76500E+01 5.00000E+01 0.00000E+00
 -1      1154 1.00650E+02 5.00000E+01 0.00000E+00
 -1      1155 1.03650E+02 5.00000E+01 0.00000E+00
 -1      1156 1.06650E+02 5.00000E+01 0.00000E+00
 -1      1157 1.09650E+02 5.00000E+01 0.00000E+00
 -1      1158 1.12650E+02 5.00000E+01 0.00000E+00
 -1      1159 1.15650E+02 5.00000E+01 0.00000E+00
 -1      1160 1.18650E+02 5.00000E+01 0.00000E+00
 -1      1161 1.21650E+02 5.00000E+01 0.00000E+00
 -1      1162 1.24650E+02 5.00000E+01 0.00000E+00
 -1      1163 1.27650E+02 5.00000E+01 0.00000E+00
 -1      1164 1.30650E+02 5.00000E+01 0.00000E+00
 -1      1165 1.33650E+02 5.00000E+01 0.00000E+00
 -1      1166 1.36650E+02 5.00000E+01 0.00000E+00
 -1      1167 1.39650E+02 5.00000E+01 0.00000E+00
 -1      1168 1.42650E+02 5.00000E+01 0.00000E+00
 -1      1169 1.45650E+02 5.00000E+01 0.00000E+00
 -1      1170 1.48575E+02 5.00000E+01 0.00000E+00
 -1      1171 1.57500E+00 0.00000E+00 0.00000E+00
 -1      1172 4.65000E+00 0.00000E+00 0.00000E+00
 -1      1173 7.65000E+00 0.00000E+00 0.00000E+00
 -1      1174 1.06500E+01 0.00000E+00 0.00000E+00
 -1      1175 1.36500E+01 0.00000E+00 0.00000E+00
 -1      1176 1.66500E+01 0.00000E+00 0.00000E+00
 -1      1177 1.96500E+01 0.00000E+00 0.00000E+00
 -1      1178 2.26500E+01 0.00000E+00 0.00000E+00
 -1      1179 2.56500E+01 0.00000E+00 0.00000E+00
 -1      1180 2.86500E+01 0.00000E+00 0.00000E+00
 -1      1181 3.16500E+01 0.00000E+00 0.00000E+00
 -1      1182 3.46500E+01 0.00000E+00 0.00000E+00
 -1      1183 3.76500E+01 0.00000E+00 0.00000E+00
 -1      1184 4.06500E+01 0.00000E+00 0.00000E+00
 -1      1185 4.36500E+01 0.00000E+00 0.00000E+00
 -1      1186 4.66500E+01 0.00000E+00 0.00000E+00
 -1      1187 4.96500E+01 0.00000E+00 0.00000E+00
 -1      1188 5.26500E+01 0.00000E+00 0.00000E+00
 -1      1189 5.56500E+01 0.00000E+00 0.00000E+00
 -1      1190 5.86500E+01 0.00000E+00 0.00000E+00
 -1      1191 6.16500E+01 0.00000E+00 0.00000E+00
 -1      1192 6.46500E+01 0.00000E+00 0.00000E+00
 -1      1193 6.76500E+01 0.00000E+00 0.00000E+00
 -1      1194 7.06500E+01 0.00000E+00 0.00000E+00
 -1      1195 7.36500E+01 0.00000E+00 0.00000E+00
 -1      1196 7.66500E+01 0.00000E+00 0.00000E+00
 -1      1197 7.96500E+01 0.00000E+00 0.00000E+00
 -1      1198 8.26500E+01 0.00000E+00 0.00000E+00
 -1      1199 8.56500E+01 0.00000E+00 0.00000E+00
 -1      1200 8.86500E+01 0.00000E+00 0.00000E+00
 -1      1201 9.16500E+01 0.00000E+00 0.00000E+00
 -1      1202 9.46500E+01 0.00000E+00 0.00000E+00
 -1      1203 9.76500E+01 0.00000E+00 0.00000E+00
 -1      1204 1.00650E+02 0.00000E+00 0.00000E+00
 -1      1205 1.03650E+02 0.00000E+00 0.00000E+00
 -1      1206 1.06650E+02 0.00000E+00 0.00000E+00
 -1      1207 1.09650E+02 0.00000E+00 0.00000E+00
 -1      1208 1.12650E+02 0.00000E+00 0.00000E+00
 -1      1209 1.15650E+02 0.00000E+00 0.00000E+00
 -1      1210 1.18650E+02 0.00000E+00 0.00000E+00
 -1      1211 1.21650E+02 0.00000E+00 0.00000E+00
 -1      1212 1.24650E+02 0.00000E+00 0.00000E+00
 -1      1213 1.27650E+02 0.00000E+00 0.00000E+00
 -1      1214 1.30650E+02 0.00000E+00 0.00000E+00
 -1      1215 1.33650E+02 0.00000E+00 0.00000E+00
 -1      1216 1.36650E+02 0.00000E+00 0.00000E+00
 -1      1217 1.39650E+02 0.00000E+00 0.00000E+00
 -1      1218 1.42650E+02 0.00000E+00 0.00000E+00
 -1      1219 1.45650E+02 0.00000E+00 0.00000E+00
 -1      1220 1.48575E+02 0.00000E+00 0.00000E+00
 -1      1221 1.50000E+02 1.47500E+00 0.00000E+00
 -1      1222 1.50000E+02 4.42500E+00 0.00000E+00
 -1      1223 1.50000E+02 7.37500E+00 0.00000E+00
 -1      1224 1.50000E+02 1.03250E+01 0.00000E+00
 -1      1225 1.50000E+02 1.32750E+01 0.00000E+00
 -1      1226 1.50000E+02 1.62000E+01 0.00000E+00
 -1      1227 1.50000E+02 1.91250E+01 0.00000E+00
 -1      1228 1.50000E+02 2.20750E+01 0.00000E+00
 -1      1229 1.50000E+02 2.50250E+01 0.00000E+00
 -1      1230 1.50000E+02 2.79750E+01 0.00000E+00
 -1      1231 1.50000E+02 3.09250E+01 0.00000E+00
 -1      1232 1.50000E+02 3.38500E+01 0.00000E+00
 -1      1233 1.50000E+02 3.67750E+01 0.00000E+00
 -1      1234 1.50000E+02 3.97250E+01 0.00000E+00
 -1      1235 1.50000E+02 4.26750E+01 0.00000E+00
 -1      1236 1.50000E+02 4.56250E+01 0.00000E+00
 -1      1237 1.50000E+02 4.85500E+01 0.00000E+00
 -1      1238 2.31959E+01 2.02216E+01 0.00000E+00
 -1      1239 2.28652E+01 1.87162E+01 0.00000E+00
 -1      1240 2.22093E+01 1.73135E+01 0.00000E+00
 -1      1241 2.13108E+01 1.61412E+01 0.00000E+00
 -1      1242 2.01247E+01 1.51419E+01 0.00000E+00
 -1      1243 1.87447E+01 1.44271E+01 0.00000E+00
 -1      1244 1.73526E+01 1.40516E+01 0.00000E+00
 -1      1245 1.58501E+01 1.39724E+01 0.00000E+00
 -1      1246 1.43431E+01 1.42224E+01 0.00000E+00
 -1      1247 1.29428E+01 1.47844E+01 0.00000E+00
 -1      1248 1.16906E+01 1.56376E+01 0.00000E+00
 -1      1249 1.06662E+01 1.67207E+01 0.00000E+00
 -1      1250 9.91103E+00 1.79609E+01 0.00000E+00
 -1      1251 9.42572E+00 1.93395E+01 0.00000E+00
 -1      1252 9.23703E+00 2.07991E+01 0.00000E+00
 -1      1253 9.36803E+00 2.23193E+01 0.00000E+00
 -1      1254 9.84391E+00 2.38170E+01 0.00000E+00
 -1      1255 1.05731E+01 2.50777E+01 0.00000E+00
 -1      1256 1.15036E+01 2.61206E+01 0.00000E+00
 -1      1257 1.26635E+01 2.69821E+01 0.00000E+00
 -1      1258 1.40196E+01 2.76019E+01 0.00000E+00
 -1      1259 1.54815E+01 2.79211E+01 0.00000E+00
 -1      1260 1.70013E+01 2.79198E+01 0.00000E+00
 -1      1261 1.85546E+01 2.75664E+01 0.00000E+00
 -1      1262 1.99997E+01 2.68633E+01 0.00000E+00
 -1      1263 2.12007E+01 2.58957E+01 0.00000E+00
 -1      1264 2.21474E+01 2.47096E+01 0.00000E+00
 -1      1265 2.28300E+01 2.33085E+01 0.00000E+00
 -1      1266 2.31901E+01 2.17543E+01 0.00000E+00
 -1      1267 1.57500E+00 4.84750E+01 0.00000E+00
 -1      1268 1.29900E+00 4.47000E+01 0.00000E+00
 -1      1269 1.29900E+00 4.62000E+01 0.00000E+00
 -1      1270 1.29900E+00 4.16500E+01 0.00000E+00
 -1      1271 1.29900E+00 4.31750E+01 0.00000E+00
 -1      1272 2.59800E+00 4.39250E+01 0.00000E+00
 -1      1273 1.29900E+00 3.86500E+01 0.00000E+00
 -1      1274 1.29900E+00 4.01500E+01 0.00000E+00
 -1      1275 2.59800E+00 4.09000E+01 0.00000E+00
 -1      1276 1.29900E+00 3.56000E+01 0.00000E+00
 -1      1277 1.29900E+00 3.71250E+01 0.00000E+00
 -1      1278 2.59800E+00 3.78750E+01 0.00000E+00
 -1      1279 1.29900E+00 3.26000E+01 0.00000E+00
 -1      1280 1.29900E+00 3.41000E+01 0.00000E+00
 -1      1281 2.59800E+00 3.48500E+01 0.00000E+00
 -1      1282 1.29900E+00 2.96000E+01 0.00000E+00
 -1      1283 1.29900E+00 3.11000E+01 0.00000E+00
 -1      1284 2.59800E+00 3.18500E+01 0.00000E+00
 -1      1285 1.29900E+00 2.66000E+01 0.00000E+00
 -1      1286 1.29900E+00 2.81000E+01 0.00000E+00
 -1      1287 2.59800E+00 2.88500E+01 0.00000E+00
 -1      1288 1.29900E+00 2.39000E+01 0.00000E+00
 -1      1289 1.29900E+00 2.52500E+01 0.00000E+00
 -1      1290 2.59800E+00 2.60000E+01 0.00000E+00
 -1      1291 1.29900E+00 2.10000E+01 0.00000E+00
 -1      1292 1.29900E+00 2.24500E+01 0.00000E+00
 -1      1293 2.59800E+00 2.32000E+01 0.00000E+00
 -1      1294 1.29900E+00 1.84500E+01 0.00000E+00
 -1      1295 1.29900E+00 1.97250E+01 0.00000E+00
 -1      1296 2.59800E+00 2.04750E+01 0.00000E+00
 -1      1297 1.29900E+00 1.57500E+01 0.00000E+00
 -1      1298 1.29900E+00 1.71000E+01 0.00000E+00
 -1      1299 2.59800E+00 1.78500E+01 0.00000E+00
 -1      1300 1.29900E+00 1.28000E+01 0.00000E+00
 -1      1301 1.29900E+00 1.42750E+01 0.00000E+00
 -1      1302 2.59800E+00 1.50250E+01 0.00000E+00
 -1      1303 1.29900E+00 9.80000E+00 0.00000E+00
 -1      1304 1.29900E+00 1.13000E+01 0.00000E+00
 -1      1305 2.59800E+00 1.20500E+01 0.00000E+00
 -1      1306 1.29900E+00 6.75000E+00 0.00000E+00
 -1      1307 1.29900E+00 8.27500E+00 0.00000E+00
 -1      1308 2.59800E+00 9.02500E+00 0.00000E+00
 -1      1309 1.29900E+00 3.75000E+00 0.00000E+00
 -1      1310 1.29900E+00 5.25000E+00 0.00000E+00
 -1      1311 2.59800E+00 6.00000E+00 0.00000E+00
 -1      1312 1.43700E+00 1.12500E+00 0.00000E+00
 -1      1313 1.43700E+00 2.62500E+00 0.00000E+00
 -1      1314 2.73600E+00 3.37500E+00 0.00000E+00
 -1      1315 3.01200E+00 1.12500E+00 0.00000E+00
 -1      1316 3.90000E+00 4.87010E+01 0.00000E+00
 -1      1317 5.40000E+00 4.87010E+01 0.00000E+00
 -1      1318 6.90000E+00 4.87010E+01 0.00000E+00
 -1      1319 8.40000E+00 4.87010E+01 0.00000E+00
 -1      1320 6.15000E+00 4.74020E+01 0.00000E+00
 -1      1321 9.90000E+00 4.87010E+01 0.00000E+00
 -1      1322 1.14000E+01 4.87010E+01 0.00000E+00
 -1      1323 9.15000E+00 4.74020E+01 0.00000E+00
 -1      1324 1.29000E+01 4.87010E+01 0.00000E+00
 -1      1325 1.44000E+01 4.87010E+01 0.00000E+00
 -1      1326 1.21500E+01 4.74020E+01 0.00000E+00
 -1      1327 1.59000E+01 4.87010E+01 0.00000E+00
 -1      1328 1.74000E+01 4.87010E+01 0.00000E+00
 -1      1329 1.51500E+01 4.74020E+01 0.00000E+00
 -1      1330 1.89000E+01 4.87010E+01 0.00000E+00
 -1      1331 2.04000E+01 4.87010E+01 0.00000E+00
 -1      1332 1.81500E+01 4.74020E+01 0.00000E+00
 -1      1333 2.19000E+01 4.87010E+01 0.00000E+00
 -1      1334 2.34000E+01 4.87010E+01 0.00000E+00
 -1      1335 2.11500E+01 4.74020E+01 0.00000E+00
 -1      1336 2.49000E+01 4.87010E+01 0.00000E+00
 -1      1337 2.64000E+01 4.87010E+01 0.00000E+00
 -1      1338 2.41500E+01 4.74020E+01 0.00000E+00
 -1      1339 2.79000E+01 4.87010E+01 0.00000E+00
 -1      1340 2.94000E+01 4.87010E+01 0.00000E+00
 -1      1341 2.71500E+01 4.74020E+01 0.00000E+00
 -1      1342 3.09000E+01 4.87010E+01 0.00000E+00
 -1      1343 3.24000E+01 4.87010E+01 0.00000E+00
 -1      1344 3.01500E+01 4.74020E+01 0.00000E+00
 -1      1345 3.39000E+01 4.87010E+01 0.00000E+00
 -1      1346 3.54000E+01 4.87010E+01 0.00000E+00
 -1      1347 3.31500E+01 4.74020E+01 0.00000E+00
 -1      1348 3.69000E+01 4.87010E+01 0.00000E+00
 -1      1349 3.84000E+01 4.87010E+01 0.00000E+00
 -1      1350 3.61500E+01 4.74020E+01 0.00000E+00
 -1      1351 3.99000E+01 4.87010E+01 0.00000E+00
 -1      1352 4.14000E+01 4.87010E+01 0.00000E+00
 -1      1353 3.91500E+01 4.74020E+01 0.00000E+00
 -1      1354 4.29000E+01 4.87010E+01 0.00000E+00
 -1      1355 4.44000E+01 4.87010E+01 0.00000E+00
 -1      1356 4.21500E+01 4.74020E+01 0.00000E+00
 -1      1357 4.59000E+01 4.87010E+01 0.00000E+00
 -1      1358 4.74000E+01 4.87010E+01 0.00000E+00
 -1      1359 4.51500E+01 4.74020E+01 0.00000E+00
 -1      1360 4.89000E+01 4.87010E+01 0.00000E+00
 -1      1361 5.04000E+01 4.87010E+01 0.00000E+00
 -1      1362 4.81500E+01 4.74020E+01 0.00000E+00
 -1      1363 5.19000E+01 4.87010E+01 0.00000E+00
 -1      1364 5.34000E+01 4.87010E+01 0.00000E+00
 -1      1365 5.11500E+01 4.74020E+01 0.00000E+00
 -1      1366 5.49000E+01 4.87010E+01 0.00000E+00
 -1      1367 5.64000E+01 4.87010E+01 0.00000E+00
 -1      1368 5.41500E+01 4.74020E+01 0.00000E+00
 -1      1369 5.79000E+01 4.87010E+01 0.00000E+00
 -1      1370 5.94000E+01 4.87010E+01 0.00000E+00
 -1      1371 5.71500E+01 4.74020E+01 0.00000E+00
 -1      1372 6.09000E+01 4.87010E+01 0.00000E+00
 -1      1373 6.24000E+01 4.87010E+01 0.00000E+00
 -1      1374 6.01500E+01 4.74020E+01 0.00000E+00
 -1      1375 6.39000E+01 4.87010E+01 0.00000E+00
 -1      1376 6.54000E+01 4.87010E+01 0.00000E+00
 -1      1377 6.31500E+01 4.74020E+01 0.00000E+00
 -1      1378 6.69000E+01 4.87010E+01 0.00000E+00
 -1      1379 6.84000E+01 4.87010E+01 0.00000E+00
 -1      1380 6.61500E+01 4.74020E+01 0.00000E+00
 -1      1381 6.99000E+01 4.87010E+01 0.00000E+00
 -1      1382 7.14000E+01 4.87010E+01 0.00000E+00
 -1      1383 6.91500E+01 4.74020E+01 0.00000E+00
 -1      1384 7.29000E+01 4.87010E+01 0.00000E+00
 -1      1385 7.44000E+01 4.87010E+01 0.00000E+00
 -1      1386 7.21500E+01 4.74020E+01 0.00000E+00
 -1      1387 7.59000E+01 4.87010E+01 0.00000E+00
 -1      1388 7.74000E+01 4.87010E+01 0.00000E+00
 -1      1389 7.51500E+01 4.74020E+01 0.00000E+00
 -1      1390 7.89000E+01 4.87010E+01 0.00000E+00
 -1      1391 8.04000E+01 4.87010E+01 0.00000E+00
 -1      1392 7.81500E+01 4.74020E+01 0.00000E+00
 -1      1393 8.19000E+01 4.87010E+01 0.00000E+00
 -1      1394 8.34000E+01 4.87010E+01 0.00000E+00
 -1      1395 8.11500E+01 4.74020E+01 0.00000E+00
 -1      1396 8.49000E+01 4.87010E+01 0.00000E+00
 -1      1397 8.64000E+01 4.87010E+01 0.00000E+00
 -1      1398 8.41500E+01 4.74020E+01 0.00000E+00
 -1      1399 8.79000E+01 4.87010E+01 0.00000E+00
 -1      1400 8.94000E+01 4.87010E+01 0.00000E+00
 -1      1401 8.71500E+01 4.74020E+01 0.00000E+00
 -1      1402 9.09000E+01 4.87010E+01 0.00000E+00
 -1      1403 9.24000E+01 4.87010E+01 0.00000E+00
 -1      1404 9.01500E+01 4.74020E+01 0.00000E+00
 -1      1405 9.39000E+01 4.87010E+01 0.00000E+00
 -1      1406 9.54000E+01 4.87010E+01 0.00000E+00
 -1      1407 9.31500E+01 4.74020E+01 0.00000E+00
 -1      1408 9.69000E+01 4.87010E+01 0.00000E+00
 -1      1409 9.84000E+01 4.87010E+01 0.00000E+00
 -1      1410 9.61500E+01 4.74020E+01 0.00000E+00
 -1      1411 9.99000E+01 4.87010E+01 0.00000E+00
 -1      1412 1.01400E+02 4.87010E+01 0.00000E+00
 -1      1413 9.91500E+01 4.74020E+01 0.00000E+00
 -1      1414 1.02900E+02 4.87010E+01 0.00000E+00
 -1      1415 1.04400E+02 4.87010E+01 0.00000E+00
 -1      1416 1.02150E+02 4.74020E+01 0.00000E+00
 -1      1417 1.05900E+02 4.87010E+01 0.00000E+00
 -1      1418 1.07400E+02 4.87010E+01 0.00000E+00
 -1      1419 1.05150E+02 4.74020E+01 0.00000E+00
 -1      1420 1.08900E+02 4.87010E+01 0.00000E+00
 -1      1421 1.10400E+02 4.87010E+01 0.00000E+00
 -1      1422 1.08150E+02 4.74020E+01 0.00000E+00
 -1      1423 1.11900E+02 4.87010E+01 0.00000E+00
 -1      1424 1.13400E+02 4.87010E+01 0.00000E+00
 -1      1425 1.11150E+02 4.74020E+01 0.00000E+00
 -1      1426 1.14900E+02 4.87010E+01 0.00000E+00
 -1      1427 1.16400E+02 4.87010E+01 0.00000E+00
 -1      1428 1.14150E+02 4.74020E+01 0.00000E+00
 -1      1429 1.17900E+02 4.87010E+01 0.00000E+00
 -1      1430 1.19400E+02 4.87010E+01 0.00000E+00
 -1      1431 1.17150E+02 4.74020E+01 0.00000E+00
 -1      1432 1.20900E+02 4.87010E+01 0.00000E+00
 -1      1433 1.22400E+02 4.87010E+01 0.00000E+00
 -1      1434 1.20150E+02 4.74020E+01 0.00000E+00
 -1      1435 1.23900E+02 4.87010E+01 0.00000E+00
 -1      1436 1.25400E+02 4.87010E+01 0.00000E+00
 -1      1437 1.23150E+02 4.74020E+01 0.00000E+00
 -1      1438 1.26900E+02 4.87010E+01 0.00000E+00
 -1      1439 1.28400E+02 4.87010E+01 0.00000E+00
 -1      1440 1.26150E+02 4.74020E+01 0.00000E+00
 -1      1441 1.29900E+02 4.87010E+01 0.00000E+00
 -1      1442 1.31400E+02 4.87010E+01 0.00000E+00
 -1      1443 1.29150E+02 4.74020E+01 0.00000E+00
 -1      1444 1.32900E+02 4.87010E+01 0.00000E+00
 -1      1445 1.34400E+02 4.87010E+01 0.00000E+00
 -1      1446 1.32150E+02 4.74020E+01 0.00000E+00
 -1      1447 1.35900E+02 4.87010E+01 0.00000E+00
 -1      1448 1.37400E+02 4.87010E+01 0.00000E+00
 -1      1449 1.35150E+02 4.74020E+01 0.00000E+00
 -1      1450 1.38900E+02 4.87010E+01 0.00000E+00
 -1      1451 1.40400E+02 4.87010E+01 0.00000E+00
 -1      1452 1.38150E+02 4.74020E+01 0.00000E+00
 -1      1453 1.41900E+02 4.87010E+01 0.00000E+00
 -1      1454 1.43400E+02 4.87010E+01 0.00000E+00
 -1      1455 1.41150E+02 4.74020E+01 0.00000E+00
 -1      1456 1.44900E+02 4.87010E+01 0.00000E+00
 -1      1457 1.46400E+02 4.87010E+01 0.00000E+00
 -1      1458 1.44150E+02 4.74020E+01 0.00000E+00
 -1      1459 1.48575E+02 4.85500E+01 0.00000E+00
 -1      1460 1.47825E+02 4.72510E+01 0.00000E+00
 -1      1461 6.01200E+00 1.12500E+00 0.00000E+00
 -1      1462 4.51200E+00 1.12500E+00 0.00000E+00
 -1      1463 4.37400E+00 2.25000E+00 0.00000E+00
 -1      1464 9.01200E+00 1.12500E+00 0.00000E+00
 -1      1465 7.51200E+00 1.12500E+00 0.00000E+00
 -1      1466 7.37400E+00 2.25000E+00 0.00000E+00
 -1      1467 1.20120E+01 1.12500E+00 0.00000E+00
 -1      1468 1.05120E+01 1.12500E+00 0.00000E+00
 -1      1469 1.03740E+01 2.25000E+00 0.00000E+00
 -1      1470 1.50120E+01 1.12500E+00 0.00000E+00
 -1      1471 1.35120E+01 1.12500E+00 0.00000E+00
 -1      1472 1.33740E+01 2.25000E+00 0.00000E+00
 -1      1473 1.80120E+01 1.12500E+00 0.00000E+00
 -1      1474 1.65120E+01 1.12500E+00 0.00000E+00
 -1      1475 1.63740E+01 2.25000E+00 0.00000E+00
 -1      1476 2.10120E+01 1.12500E+00 0.00000E+00
 -1      1477 1.95120E+01 1.12500E+00 0.00000E+00
 -1      1478 1.93740E+01 2.25000E+00 0.00000E+00
 -1      1479 2.40120E+01 1.12500E+00 0.00000E+00
 -1      1480 2.25120E+01 1.12500E+00 0.00000E+00
 -1      1481 2.23740E+01 2.25000E+00 0.00000E+00
 -1      1482 2.70120E+01 1.12500E+00 0.00000E+00
 -1      1483 2.55120E+01 1.12500E+00 0.00000E+00
 -1      1484 2.53740E+01 2.25000E+00 0.00000E+00
 -1      1485 3.00120E+01 1.12500E+00 0.00000E+00
 -1      1486 2.85120E+01 1.12500E+00 0.00000E+00
 -1      1487 2.83740E+01 2.25000E+00 0.00000E+00
 -1      1488 3.30120E+01 1.12500E+00 0.00000E+00
 -1      1489 3.15120E+01 1.12500E+00 0.00000E+00
 -1      1490 3.13740E+01 2.25000E+00 0.00000E+00
 -1      1491 3.60120E+01 1.12500E+00 0.00000E+00
 -1      1492 3.45120E+01 1.12500E+00 0.00000E+00
 -1      1493 3.43740E+01 2.25000E+00 0.00000E+00
 -1      1494 3.90120E+01 1.12500E+00 0.00000E+00
 -1      1495 3.75120E+01 1.12500E+00 0.00000E+00
 -1      1496 3.73740E+01 2.25000E+00 0.00000E+00
 -1      1497 4.20120E+01 1.12500E+00 0.00000E+00
 -1      1498 4.05120E+01 1.12500E+00 0.00000E+00
 -1      1499 4.03740E+01 2.25000E+00 0.00000E+00
 -1      1500 4.50120E+01 1.12500E+00 0.00000E+00
 -1      1501 4.35120E+01 1.12500E+00 0.00000E+00
 -1      1502 4.33740E+01 2.25000E+00 0.00000E+00
 -1      1503 4.80120E+01 1.12500E+00 0.00000E+00
 -1      1504 4.65120E+01 1.12500E+00 0.00000E+00
 -1      1505 4.63740E+01 2.25000E+00 0.00000E+00
 -1      1506 5.10120E+01 1.12500E+00 0.00000E+00
 -1      1507 4.95120E+01 1.12500E+00 0.00000E+00
 -1      1508 4.93740E+01 2.25000E+00 0.00000E+00
 -1      1509 5.40120E+01 1.12500E+00 0.00000E+00
 -1      1510 5.25120E+01 1.12500E+00 0.00000E+00
 -1      1511 5.23740E+01 2.25000E+00 0.00000E+00
 -1      1512 5.70120E+01 1.12500E+00 0.00000E+00
 -1      1513 5.55120E+01 1.12500E+00 0.00000E+00
 -1      1514 5.53740E+01 2.25000E+00 0.00000E+00
 -1      1515 6.00120E+01 1.12500E+00 0.00000E+00
 -1      1516 5.85120E+01 1.12500E+00 0.00000E+00
 -1      1517 5.83740E+01 2.25000E+00 0.00000E+00
 -1      1518 6.30120E+01 1.12500E+00 0.00000E+00
 -1      1519 6.15120E+01 1.12500E+00 0.00000E+00
 -1      1520 6.13740E+01 2.25000E+00 0.00000E+00
 -1      1521 6.60120E+01 1.12500E+00 0.00000E+00
 -1      1522 6.45120E+01 1.12500E+00 0.00000E+00
 -1      1523 6.43740E+01 2.25000E+00 0.00000E+00
 -1      1524 6.90120E+01 1.12500E+00 0.00000E+00
 -1      1525 6.75120E+01 1.12500E+00 0.00000E+00
 -1      1526 6.73740E+01 2.25000E+00 0.00000E+00
 -1      1527 7.20120E+01 1.12500E+00 0.00000E+00
 -1      1528 7.05120E+01 1.12500E+00 0.00000E+00
 -1      1529 7.03740E+01 2.25000E+00 0.00000E+00
 -1      1530 7.50120E+01 1.12500E+00 0.00000E+00
 -1      1531 7.35120E+01 1.12500E+00 0.00000E+00
 -1      1532 7.33740E+01 2.25000E+00 0.00000E+00
 -1      1533 7.80120E+01 1.12500E+00 0.00000E+00
 -1      1534 7.65120E+01 1.12500E+00 0.00000E+00
 -1      1535 7.63740E+01 2.25000E+00 0.00000E+00
 -1      1536 8.10120E+01 1.12500E+00 0.00000E+00
 -1      1537 7.95120E+01 1.12500E+00 0.00000E+00
 -1      1538 7.93740E+01 2.25000E+00 0.00000E+00
 -1      1539 8.40120E+01 1.12500E+00 0.00000E+00
 -1      1540 8.25120E+01 1.12500E+00 0.00000E+00
 -1      1541 8.23740E+01 2.25000E+00 0.00000E+00
 -1      1542 8.70120E+01 1.12500E+00 0.00000E+00
 -1      1543 8.55120E+01 1.12500E+00 0.00000E+00
 -1      1544 8.53740E+01 2.25000E+00 0.00000E+00
 -1      1545 9.00120E+01 1.12500E+00 0.00000E+00
 -1      1546 8.85120E+01 1.12500E+00 0.00000E+00
 -1      1547 8.83740E+01 2.25000E+00 0.00000E+00
 -1      1548 9.30120E+01 1.12500E+00 0.00000E+00
 -1      1549 9.15120E+01 1.12500E+00 0.00000E+00
 -1      1550 9.13740E+01 2.25000E+00 0.00000E+00
 -1      1551 9.60120E+01 1.12500E+00 0.00000E+00
 -1      1552 9.45120E+01 1.12500E+00 0.00000E+00
 -1      1553 9.43740E+01 2.25000E+00 0.00000E+00
 -1      1554 9.90120E+01 1.12500E+00 0.00000E+00
 -1      1555 9.75120E+01 1.12500E+00 0.00000E+00
 -1      1556 9.73740E+01 2.25000E+00 0.00000E+00
 -1      1557 1.02012E+02 1.12500E+00 0.00000E+00
 -1      1558 1.00512E+02 1.12500E+00 0.00000E+00
 -1      1559 1.00374E+02 2.25000E+00 0.00000E+00
 -1      1560 1.05012E+02 1.12500E+00 0.00000E+00
 -1      1561 1.03512E+02 1.12500E+00 0.00000E+00
 -1      1562 1.03374E+02 2.25000E+00 0.00000E+00
 -1      1563 1.08012E+02 1.12500E+00 0.00000E+00
 -1      1564 1.06512E+02 1.12500E+00 0.00000E+00
 -1      1565 1.06374E+02 2.25000E+00 0.00000E+00
 -1      1566 1.11012E+02 1.12500E+00 0.00000E+00
 -1      1567 1.09512E+02 1.12500E+00 0.00000E+00
 -1      1568 1.09374E+02 2.25000E+00 0.00000E+00
 -1      1569 1.14012E+02 1.12500E+00 0.00000E+00
 -1      1570 1.12512E+02 1.12500E+00 0.00000E+00
 -1      1571 1.12374E+02 2.25000E+00 0.00000E+00
 -1      1572 1.17012E+02 1.12500E+00 0.00000E+00
 -1      1573 1.15512E+02 1.12500E+00 0.00000E+00
 -1      1574 1.15374E+02 2.25000E+00 0.00000E+00
 -1      1575 1.20012E+02 1.12500E+00 0.00000E+00
 -1      1576 1.18512E+02 1.12500E+00 0.00000E+00
 -1      1577 1.18374E+02 2.25000E+00 0.00000E+00
 -1      1578 1.23012E+02 1.12500E+00 0.00000E+00
 -1      1579 1.21512E+02 1.12500E+00 0.00000E+00
 -1      1580 1.21374E+02 2.25000E+00 0.00000E+00
 -1      1581 1.26012E+02 1.12500E+00 0.00000E+00
 -1      1582 1.24512E+02 1.12500E+00 0.00000E+00
 -1      1583 1.24374E+02 2.25000E+00 0.00000E+00
 -1      1584 1.29012E+02 1.12500E+00 0.00000E+00
 -1      1585 1.27512E+02 1.12500E+00 0.00000E+00
 -1      1586 1.27374E+02 2.25000E+00 0.00000E+00
 -1      1587 1.32012E+02 1.12500E+00 0.00000E+00
 -1      1588 1.30512E+02 1.12500E+00 0.00000E+00
 -1      1589 1.30374E+02 2.25000E+00 0.00000E+00
 -1      1590 1.35012E+02 1.12500E+00 0.00000E+00
 -1      1591 1.33512E+02 1.12500E+00 0.00000E+00
 -1      1592 1.33374E+02 2.25000E+00 0.00000E+00
 -1      1593 1.38012E+02 1.12500E+00 0.00000E+00
 -1      1594 1.36512E+02 1.12500E+00 0.00000E+00
 -1      1595 1.36374E+02 2.25000E+00 0.00000E+00
 -1      1596 1.41012E+02 1.12500E+00 0.00000E+00
 -1      1597 1.39512E+02 1.12500E+00 0.00000E+00
 -1      1598 1.39374E+02 2.25000E+00 0.00000E+00
 -1      1599 1.44012E+02 1.12500E+00 0.00000E+00
 -1      1600 1.42512E+02 1.12500E+00 0.00000E+00
 -1      1601 1.42374E+02 2.25000E+00 0.00000E+00
 -1      1602 1.47012E+02 1.12500E+00 0.00000E+00
 -1      1603 1.45512E+02 1.12500E+00 0.00000E+00
 -1      1604 1.45374E+02 2.25000E+00 0.00000E+00
 -1      1605 1.48575E+02 1.47500E+00 0.00000E+00
 -1      1606 1.48701E+02 5.16250E+00 0.00000E+00
 -1      1607 1.48701E+02 3.68750E+00 0.00000E+00
 -1      1608 1.48701E+02 8.11250E+00 0.00000E+00
 -1      1609 1.48701E+02 6.63750E+00 0.00000E+00
 -1      1610 1.47402E+02 5.90000E+00 0.00000E+00
 -1      1611 1.48701E+02 1.10625E+01 0.00000E+00
 -1      1612 1.48701E+02 9.58750E+00 0.00000E+00
 -1      1613 1.47402E+02 8.85000E+00 0.00000E+00
 -1      1614 1.48701E+02 1.40125E+01 0.00000E+00
 -1      1615 1.48701E+02 1.25375E+01 0.00000E+00
 -1      1616 1.47402E+02 1.18000E+01 0.00000E+00
 -1      1617 1.48701E+02 1.69125E+01 0.00000E+00
 -1      1618 1.48701E+02 1.54625E+01 0.00000E+00
 -1      1619 1.47402E+02 1.47250E+01 0.00000E+00
 -1      1620 1.48701E+02 1.98625E+01 0.00000E+00
 -1      1621 1.48701E+02 1.83875E+01 0.00000E+00
 -1      1622 1.47402E+02 1.76500E+01 0.00000E+00
 -1      1623 1.48701E+02 2.28125E+01 0.00000E+00
 -1      1624 1.48701E+02 2.13375E+01 0.00000E+00
 -1      1625 1.47402E+02 2.06000E+01 0.00000E+00
 -1      1626 1.48701E+02 2.57625E+01 0.00000E+00
 -1      1627 1.48701E+02 2.42875E+01 0.00000E+00
 -1      1628 1.47402E+02 2.35500E+01 0.00000E+00
 -1      1629 1.48701E+02 2.87125E+01 0.00000E+00
 -1      1630 1.48701E+02 2.72375E+01 0.00000E+00
 -1      1631 1.47402E+02 2.65000E+01 0.00000E+00
 -1      1632 1.48701E+02 3.16625E+01 0.00000E+00
 -1      1633 1.48701E+02 3.01875E+01 0.00000E+00
 -1      1634 1.47402E+02 2.94500E+01 0.00000E+00
 -1      1635 1.48701E+02 3.45625E+01 0.00000E+00
 -1      1636 1.48701E+02 3.31125E+01 0.00000E+00
 -1      1637 1.47402E+02 3.23750E+01 0.00000E+00
 -1      1638 1.48701E+02 3.75125E+01 0.00000E+00
 -1      1639 1.48701E+02 3.60375E+01 0.00000E+00
 -1      1640 1.47402E+02 3.53000E+01 0.00000E+00
 -1      1641 1.48701E+02 4.04625E+01 0.00000E+00
 -1      1642 1.48701E+02 3.89875E+01 0.00000E+00
 -1      1643 1.47402E+02 3.82500E+01 0.00000E+00
 -1      1644 1.48701E+02 4.34125E+01 0.00000E+00
 -1      1645 1.48701E+02 4.19375E+01 0.00000E+00
 -1      1646 1.47402E+02 4.12000E+01 0.00000E+00
 -1      1647 1.48263E+02 4.60692E+01 0.00000E+00
 -1      1648 1.48263E+02 4.45942E+01 0.00000E+00
 -1      1649 1.46964E+02 4.38568E+01 0.00000E+00
 -1      1650 1.46088E+02 4.62202E+01 0.00000E+00
 -1      1651 2.37205E+01 1.97937E+01 0.00000E+00
 -1      1652 2.37988E+01 2.05297E+01 0.00000E+00
 -1      1653 2.34260E+01 1.81033E+01 0.00000E+00
 -1      1654 2.36830E+01 1.88621E+01 0.00000E+00
 -1      1655 2.25692E+01 1.66559E+01 0.00000E+00
 -1      1656 2.29587E+01 1.72937E+01 0.00000E+00
 -1      1657 2.14714E+01 1.54855E+01 0.00000E+00
 -1      1658 2.19739E+01 1.60146E+01 0.00000E+00
 -1      1659 2.01864E+01 1.43106E+01 0.00000E+00
 -1      1660 2.08691E+01 1.47669E+01 0.00000E+00
 -1      1661 1.86211E+01 1.37266E+01 0.00000E+00
 -1      1662 1.93053E+01 1.39894E+01 0.00000E+00
 -1      1663 1.70937E+01 1.34321E+01 0.00000E+00
 -1      1664 1.77935E+01 1.35453E+01 0.00000E+00
 -1      1665 1.54128E+01 1.32670E+01 0.00000E+00
 -1      1666 1.62072E+01 1.32232E+01 0.00000E+00
 -1      1667 1.38259E+01 1.37343E+01 0.00000E+00
 -1      1668 1.45307E+01 1.35364E+01 0.00000E+00
 -1      1669 1.22762E+01 1.43593E+01 0.00000E+00
 -1      1670 1.29617E+01 1.39940E+01 0.00000E+00
 -1      1671 1.09872E+01 1.53821E+01 0.00000E+00
 -1      1672 1.15489E+01 1.49028E+01 0.00000E+00
 -1      1673 9.95490E+00 1.66520E+01 0.00000E+00
 -1      1674 1.04108E+01 1.60533E+01 0.00000E+00
 -1      1675 9.24510E+00 1.80319E+01 0.00000E+00
 -1      1676 9.54494E+00 1.74001E+01 0.00000E+00
 -1      1677 8.66594E+00 1.95502E+01 0.00000E+00
 -1      1678 8.84257E+00 1.88088E+01 0.00000E+00
 -1      1679 8.65880E+00 2.11405E+01 0.00000E+00
 -1      1680 8.67529E+00 2.04311E+01 0.00000E+00
 -1      1681 8.73493E+00 2.28605E+01 0.00000E+00
 -1      1682 8.57665E+00 2.20598E+01 0.00000E+00
 -1      1683 9.32876E+00 2.44607E+01 0.00000E+00
 -1      1684 9.02071E+00 2.37712E+01 0.00000E+00
 -1      1685 1.03173E+01 2.56970E+01 0.00000E+00
 -1      1686 9.90507E+00 2.51299E+01 0.00000E+00
 -1      1687 1.13740E+01 2.67771E+01 0.00000E+00
 -1      1688 1.08607E+01 2.63063E+01 0.00000E+00
 -1      1689 1.26965E+01 2.76598E+01 0.00000E+00
 -1      1690 1.20529E+01 2.72780E+01 0.00000E+00
 -1      1691 1.41925E+01 2.82570E+01 0.00000E+00
 -1      1692 1.34880E+01 2.80220E+01 0.00000E+00
 -1      1693 1.57862E+01 2.86072E+01 0.00000E+00
 -1      1694 1.50370E+01 2.85261E+01 0.00000E+00
 -1      1695 1.74438E+01 2.84386E+01 0.00000E+00
 -1      1696 1.66822E+01 2.85224E+01 0.00000E+00
 -1      1697 1.91570E+01 2.80342E+01 0.00000E+00
 -1      1698 1.83769E+01 2.83081E+01 0.00000E+00
 -1      1699 2.06312E+01 2.71278E+01 0.00000E+00
 -1      1700 1.99734E+01 2.75474E+01 0.00000E+00
 -1      1701 2.18698E+01 2.60233E+01 0.00000E+00
 -1      1702 2.13327E+01 2.65639E+01 0.00000E+00
 -1      1703 2.28271E+01 2.46932E+01 0.00000E+00
 -1      1704 2.24226E+01 2.53313E+01 0.00000E+00
 -1      1705 2.35712E+01 2.31461E+01 0.00000E+00
 -1      1706 2.33020E+01 2.39026E+01 0.00000E+00
 -1      1707 2.38342E+01 2.14289E+01 0.00000E+00
 -1      1708 2.37445E+01 2.22162E+01 0.00000E+00
 -1      1709 2.15600E+01 1.46140E+01 0.00000E+00
 -1      1710 2.27575E+01 1.59739E+01 0.00000E+00
 -1      1711 1.48437E+02 2.60000E+00 0.00000E+00
 -1      1712 1.47138E+02 3.33750E+00 0.00000E+00
 -1      1713 2.43249E+01 1.91660E+01 0.00000E+00
 -1      1714 2.38201E+01 1.74248E+01 0.00000E+00
 -1      1715 2.43979E+01 2.09967E+01 0.00000E+00
 -1      1716 2.00766E+01 1.35742E+01 0.00000E+00
 -1      1717 1.83680E+01 1.30716E+01 0.00000E+00
 -1      1718 1.66539E+01 1.26814E+01 0.00000E+00
 -1      1719 1.48853E+01 1.27419E+01 0.00000E+00
 -1      1720 1.31389E+01 1.32711E+01 0.00000E+00
 -1      1721 1.15474E+01 1.40742E+01 0.00000E+00
 -1      1722 1.02437E+01 1.52888E+01 0.00000E+00
 -1      1723 9.25731E+00 1.67081E+01 0.00000E+00
 -1      1724 8.44483E+00 1.82330E+01 0.00000E+00
 -1      1725 8.05166E+00 1.98908E+01 0.00000E+00
 -1      1726 7.97886E+00 2.16910E+01 0.00000E+00
 -1      1727 8.18248E+00 2.35209E+01 0.00000E+00
 -1      1728 9.04457E+00 2.51007E+01 0.00000E+00
 -1      1729 1.01642E+01 2.63792E+01 0.00000E+00
 -1      1730 1.13865E+01 2.74894E+01 0.00000E+00
 -1      1731 1.28569E+01 2.83524E+01 0.00000E+00
 -1      1732 1.44928E+01 2.89836E+01 0.00000E+00
 -1      1733 1.62333E+01 2.91678E+01 0.00000E+00
 -1      1734 1.80625E+01 2.89526E+01 0.00000E+00
 -1      1735 1.98119E+01 2.83354E+01 0.00000E+00
 -1      1736 2.13298E+01 2.72848E+01 0.00000E+00
 -1      1737 2.25840E+01 2.60288E+01 0.00000E+00
 -1      1738 2.36117E+01 2.45462E+01 0.00000E+00
 -1      1739 2.42600E+01 2.28258E+01 0.00000E+00
 -1      1740 1.69110E+00 4.67793E+01 0.00000E+00
 -1      1741 3.26610E+00 4.83043E+01 0.00000E+00
 -1      1742 3.89700E+00 4.01500E+01 0.00000E+00
 -1      1743 3.89700E+00 4.16500E+01 0.00000E+00
 -1      1744 3.89700E+00 4.31750E+01 0.00000E+00
 -1      1745 3.89700E+00 4.47000E+01 0.00000E+00
 -1      1746 5.19600E+00 4.24250E+01 0.00000E+00
 -1      1747 3.89700E+00 3.41000E+01 0.00000E+00
 -1      1748 3.89700E+00 3.56000E+01 0.00000E+00
 -1      1749 3.89700E+00 3.11000E+01 0.00000E+00
 -1      1750 3.89700E+00 3.26000E+01 0.00000E+00
 -1      1751 5.19600E+00 3.33500E+01 0.00000E+00
 -1      1752 3.89700E+00 2.81000E+01 0.00000E+00
 -1      1753 3.89700E+00 2.96000E+01 0.00000E+00
 -1      1754 5.19600E+00 3.03500E+01 0.00000E+00
 -1      1755 3.89700E+00 2.54000E+01 0.00000E+00
 -1      1756 3.89700E+00 2.67500E+01 0.00000E+00
 -1      1757 5.19600E+00 2.75000E+01 0.00000E+00
 -1      1758 3.89700E+00 2.25000E+01 0.00000E+00
 -1      1759 3.89700E+00 2.39500E+01 0.00000E+00
 -1      1760 5.19600E+00 2.47000E+01 0.00000E+00
 -1      1761 3.62312E+00 1.71750E+01 0.00000E+00
 -1      1762 3.62312E+00 1.85250E+01 0.00000E+00
 -1      1763 3.62312E+00 1.42250E+01 0.00000E+00
 -1      1764 3.62312E+00 1.57000E+01 0.00000E+00
 -1      1765 4.64825E+00 1.63750E+01 0.00000E+00
 -1      1766 3.62312E+00 1.12250E+01 0.00000E+00
 -1      1767 3.62312E+00 1.27250E+01 0.00000E+00
 -1      1768 4.64825E+00 1.34000E+01 0.00000E+00
 -1      1769 3.62312E+00 8.17500E+00 0.00000E+00
 -1      1770 3.62312E+00 9.70000E+00 0.00000E+00
 -1      1771 4.64825E+00 1.03750E+01 0.00000E+00
 -1      1772 3.62312E+00 5.17500E+00 0.00000E+00
 -1      1773 3.62312E+00 6.67500E+00 0.00000E+00
 -1      1774 4.64825E+00 7.35000E+00 0.00000E+00
 -1      1775 4.06756E+00 3.15000E+00 0.00000E+00
 -1      1776 3.92956E+00 4.27500E+00 0.00000E+00
 -1      1777 4.95468E+00 4.95000E+00 0.00000E+00
 -1      1778 5.56756E+00 3.15000E+00 0.00000E+00
 -1      1779 4.01610E+00 4.70053E+01 0.00000E+00
 -1      1780 8.56756E+00 3.15000E+00 0.00000E+00
 -1      1781 7.06756E+00 3.15000E+00 0.00000E+00
 -1      1782 6.76112E+00 4.05000E+00 0.00000E+00
 -1      1783 8.40000E+00 4.61030E+01 0.00000E+00
 -1      1784 9.90000E+00 4.61030E+01 0.00000E+00
 -1      1785 1.14000E+01 4.61030E+01 0.00000E+00
 -1      1786 1.29000E+01 4.61030E+01 0.00000E+00
 -1      1787 1.06500E+01 4.48040E+01 0.00000E+00
 -1      1788 1.44000E+01 4.61030E+01 0.00000E+00
 -1      1789 1.59000E+01 4.61030E+01 0.00000E+00
 -1      1790 1.36500E+01 4.48040E+01 0.00000E+00
 -1      1791 1.74000E+01 4.61030E+01 0.00000E+00
 -1      1792 1.89000E+01 4.61030E+01 0.00000E+00
 -1      1793 1.66500E+01 4.48040E+01 0.00000E+00
 -1      1794 2.04000E+01 4.61030E+01 0.00000E+00
 -1      1795 2.19000E+01 4.61030E+01 0.00000E+00
 -1      1796 1.96500E+01 4.48040E+01 0.00000E+00
 -1      1797 2.34000E+01 4.61030E+01 0.00000E+00
 -1      1798 2.49000E+01 4.61030E+01 0.00000E+00
 -1      1799 2.26500E+01 4.48040E+01 0.00000E+00
 -1      1800 2.64000E+01 4.61030E+01 0.00000E+00
 -1      1801 2.79000E+01 4.61030E+01 0.00000E+00
 -1      1802 2.56500E+01 4.48040E+01 0.00000E+00
 -1      1803 2.94000E+01 4.61030E+01 0.00000E+00
 -1      1804 3.09000E+01 4.61030E+01 0.00000E+00
 -1      1805 2.86500E+01 4.48040E+01 0.00000E+00
 -1      1806 3.24000E+01 4.61030E+01 0.00000E+00
 -1      1807 3.39000E+01 4.61030E+01 0.00000E+00
 -1      1808 3.16500E+01 4.48040E+01 0.00000E+00
 -1      1809 3.54000E+01 4.61030E+01 0.00000E+00
 -1      1810 3.69000E+01 4.61030E+01 0.00000E+00
 -1      1811 3.46500E+01 4.48040E+01 0.00000E+00
 -1      1812 3.84000E+01 4.61030E+01 0.00000E+00
 -1      1813 3.99000E+01 4.61030E+01 0.00000E+00
 -1      1814 3.76500E+01 4.48040E+01 0.00000E+00
 -1      1815 4.14000E+01 4.61030E+01 0.00000E+00
 -1      1816 4.29000E+01 4.61030E+01 0.00000E+00
 -1      1817 4.06500E+01 4.48040E+01 0.00000E+00
 -1      1818 4.44000E+01 4.61030E+01 0.00000E+00
 -1      1819 4.59000E+01 4.61030E+01 0.00000E+00
 -1      1820 4.36500E+01 4.48040E+01 0.00000E+00
 -1      1821 4.74000E+01 4.61030E+01 0.00000E+00
 -1      1822 4.89000E+01 4.61030E+01 0.00000E+00
 -1      1823 4.66500E+01 4.48040E+01 0.00000E+00
 -1      1824 5.04000E+01 4.61030E+01 0.00000E+00
 -1      1825 5.19000E+01 4.61030E+01 0.00000E+00
 -1      1826 4.96500E+01 4.48040E+01 0.00000E+00
 -1      1827 5.34000E+01 4.61030E+01 0.00000E+00
 -1      1828 5.49000E+01 4.61030E+01 0.00000E+00
 -1      1829 5.26500E+01 4.48040E+01 0.00000E+00
 -1      1830 5.64000E+01 4.61030E+01 0.00000E+00
 -1      1831 5.79000E+01 4.61030E+01 0.00000E+00
 -1      1832 5.56500E+01 4.48040E+01 0.00000E+00
 -1      1833 5.94000E+01 4.61030E+01 0.00000E+00
 -1      1834 6.09000E+01 4.61030E+01 0.00000E+00
 -1      1835 5.86500E+01 4.48040E+01 0.00000E+00
 -1      1836 6.24000E+01 4.61030E+01 0.00000E+00
 -1      1837 6.39000E+01 4.61030E+01 0.00000E+00
 -1      1838 6.16500E+01 4.48040E+01 0.00000E+00
 -1      1839 6.54000E+01 4.61030E+01 0.00000E+00
 -1      1840 6.69000E+01 4.61030E+01 0.00000E+00
 -1      1841 6.46500E+01 4.48040E+01 0.00000E+00
 -1      1842 6.84000E+01 4.61030E+01 0.00000E+00
 -1      1843 6.99000E+01 4.61030E+01 0.00000E+00
 -1      1844 6.76500E+01 4.48040E+01 0.00000E+00
 -1      1845 7.14000E+01 4.61030E+01 0.00000E+00
 -1      1846 7.29000E+01 4.61030E+01 0.00000E+00
 -1      1847 7.06500E+01 4.48040E+01 0.00000E+00
 -1      1848 7.44000E+01 4.61030E+01 0.00000E+00
 -1      1849 7.59000E+01 4.61030E+01 0.00000E+00
 -1      1850 7.36500E+01 4.48040E+01 0.00000E+00
 -1      1851 7.74000E+01 4.61030E+01 0.00000E+00
 -1      1852 7.89000E+01 4.61030E+01 0.00000E+00
 -1      1853 7.66500E+01 4.48040E+01 0.00000E+00
 -1      1854 8.04000E+01 4.61030E+01 0.00000E+00
 -1      1855 8.19000E+01 4.61030E+01 0.00000E+00
 -1      1856 7.96500E+01 4.48040E+01 0.00000E+00
 -1      1857 8.34000E+01 4.61030E+01 0.00000E+00
 -1      1858 8.49000E+01 4.61030E+01 0.00000E+00
 -1      1859 8.26500E+01 4.48040E+01 0.00000E+00
 -1      1860 8.64000E+01 4.61030E+01 0.00000E+00
 -1      1861 8.79000E+01 4.61030E+01 0.00000E+00
 -1      1862 8.56500E+01 4.48040E+01 0.00000E+00
 -1      1863 8.94000E+01 4.61030E+01 0.00000E+00
 -1      1864 9.09000E+01 4.61030E+01 0.00000E+00
 -1      1865 8.86500E+01 4.48040E+01 0.00000E+00
 -1      1866 9.24000E+01 4.61030E+01 0.00000E+00
 -1      1867 9.39000E+01 4.61030E+01 0.00000E+00
 -1      1868 9.16500E+01 4.48040E+01 0.00000E+00
 -1      1869 9.54000E+01 4.61030E+01 0.00000E+00
 -1      1870 9.69000E+01 4.61030E+01 0.00000E+00
 -1      1871 9.46500E+01 4.48040E+01 0.00000E+00
 -1      1872 9.84000E+01 4.61030E+01 0.00000E+00
 -1      1873 9.99000E+01 4.61030E+01 0.00000E+00
 -1      1874 9.76500E+01 4.48040E+01 0.00000E+00
 -1      1875 1.01400E+02 4.61030E+01 0.00000E+00
 -1      1876 1.02900E+02 4.61030E+01 0.00000E+00
 -1      1877 1.00650E+02 4.48040E+01 0.00000E+00
 -1      1878 1.04400E+02 4.61030E+01 0.00000E+00
 -1      1879 1.05900E+02 4.61030E+01 0.00000E+00
 -1      1880 1.03650E+02 4.48040E+01 0.00000E+00
 -1      1881 1.07400E+02 4.61030E+01 0.00000E+00
 -1      1882 1.08900E+02 4.61030E+01 0.00000E+00
 -1      1883 1.06650E+02 4.48040E+01 0.00000E+00
 -1      1884 1.10400E+02 4.61030E+01 0.00000E+00
 -1      1885 1.11900E+02 4.61030E+01 0.00000E+00
 -1      1886 1.09650E+02 4.48040E+01 0.00000E+00
 -1      1887 1.13400E+02 4.61030E+01 0.00000E+00
 -1      1888 1.14900E+02 4.61030E+01 0.00000E+00
 -1      1889 1.12650E+02 4.48040E+01 0.00000E+00
 -1      1890 1.16400E+02 4.61030E+01 0.00000E+00
 -1      1891 1.17900E+02 4.61030E+01 0.00000E+00
 -1      1892 1.15650E+02 4.48040E+01 0.00000E+00
 -1      1893 1.19400E+02 4.61030E+01 0.00000E+00
 -1      1894 1.20900E+02 4.61030E+01 0.00000E+00
 -1      1895 1.18650E+02 4.48040E+01 0.00000E+00
 -1      1896 1.22400E+02 4.61030E+01 0.00000E+00
 -1      1897 1.23900E+02 4.61030E+01 0.00000E+00
 -1      1898 1.21650E+02 4.48040E+01 0.00000E+00
 -1      1899 1.25400E+02 4.61030E+01 0.00000E+00
 -1      1900 1.26900E+02 4.61030E+01 0.00000E+00
 -1      1901 1.24650E+02 4.48040E+01 0.00000E+00
 -1      1902 1.28400E+02 4.61030E+01 0.00000E+00
 -1      1903 1.29900E+02 4.61030E+01 0.00000E+00
 -1      1904 1.27650E+02 4.48040E+01 0.00000E+00
 -1      1905 1.31400E+02 4.61030E+01 0.00000E+00
 -1      1906 1.32900E+02 4.61030E+01 0.00000E+00
 -1      1907 1.30650E+02 4.48040E+01 0.00000E+00
 -1      1908 1.34400E+02 4.61030E+01 0.00000E+00
 -1      1909 1.35900E+02 4.61030E+01 0.00000E+00
 -1      1910 1.33650E+02 4.48040E+01 0.00000E+00
 -1      1911 1.37400E+02 4.61030E+01 0.00000E+00
 -1      1912 1.38900E+02 4.61030E+01 0.00000E+00
 -1      1913 1.36650E+02 4.48040E+01 0.00000E+00
 -1      1914 1.40400E+02 4.61030E+01 0.00000E+00
 -1      1915 1.41900E+02 4.61030E+01 0.00000E+00
 -1      1916 1.39650E+02 4.48040E+01 0.00000E+00
 -1      1917 1.43244E+02 4.61616E+01 0.00000E+00
 -1      1918 1.44744E+02 4.61616E+01 0.00000E+00
 -1      1919 1.45182E+02 4.49799E+01 0.00000E+00
 -1      1920 1.42494E+02 4.48626E+01 0.00000E+00
 -1      1921 1.15676E+01 3.15000E+00 0.00000E+00
 -1      1922 1.00676E+01 3.15000E+00 0.00000E+00
 -1      1923 9.76112E+00 4.05000E+00 0.00000E+00
 -1      1924 1.45676E+01 3.15000E+00 0.00000E+00
 -1      1925 1.30676E+01 3.15000E+00 0.00000E+00
 -1      1926 1.27611E+01 4.05000E+00 0.00000E+00
 -1      1927 1.75676E+01 3.15000E+00 0.00000E+00
 -1      1928 1.60676E+01 3.15000E+00 0.00000E+00
 -1      1929 1.57611E+01 4.05000E+00 0.00000E+00
 -1      1930 2.05676E+01 3.15000E+00 0.00000E+00
 -1      1931 1.90676E+01 3.15000E+00 0.00000E+00
 -1      1932 1.87611E+01 4.05000E+00 0.00000E+00
 -1      1933 2.35676E+01 3.15000E+00 0.00000E+00
 -1      1934 2.20676E+01 3.15000E+00 0.00000E+00
 -1      1935 2.17611E+01 4.05000E+00 0.00000E+00
 -1      1936 2.65676E+01 3.15000E+00 0.00000E+00
 -1      1937 2.50676E+01 3.15000E+00 0.00000E+00
 -1      1938 2.47611E+01 4.05000E+00 0.00000E+00
 -1      1939 2.95676E+01 3.15000E+00 0.00000E+00
 -1      1940 2.80676E+01 3.15000E+00 0.00000E+00
 -1      1941 2.77611E+01 4.05000E+00 0.00000E+00
 -1      1942 3.25676E+01 3.15000E+00 0.00000E+00
 -1      1943 3.10676E+01 3.15000E+00 0.00000E+00
 -1      1944 3.07611E+01 4.05000E+00 0.00000E+00
 -1      1945 3.55676E+01 3.15000E+00 0.00000E+00
 -1      1946 3.40676E+01 3.15000E+00 0.00000E+00
 -1      1947 3.37611E+01 4.05000E+00 0.00000E+00
 -1      1948 3.85676E+01 3.15000E+00 0.00000E+00
 -1      1949 3.70676E+01 3.15000E+00 0.00000E+00
 -1      1950 3.67611E+01 4.05000E+00 0.00000E+00
 -1      1951 4.15676E+01 3.15000E+00 0.00000E+00
 -1      1952 4.00676E+01 3.15000E+00 0.00000E+00
 -1      1953 3.97611E+01 4.05000E+00 0.00000E+00
 -1      1954 4.45676E+01 3.15000E+00 0.00000E+00
 -1      1955 4.30676E+01 3.15000E+00 0.00000E+00
 -1      1956 4.27611E+01 4.05000E+00 0.00000E+00
 -1      1957 4.75676E+01 3.15000E+00 0.00000E+00
 -1      1958 4.60676E+01 3.15000E+00 0.00000E+00
 -1      1959 4.57611E+01 4.05000E+00 0.00000E+00
 -1      1960 5.05676E+01 3.15000E+00 0.00000E+00
 -1      1961 4.90676E+01 3.15000E+00 0.00000E+00
 -1      1962 4.87611E+01 4.05000E+00 0.00000E+00
 -1      1963 5.35676E+01 3.15000E+00 0.00000E+00
 -1      1964 5.20676E+01 3.15000E+00 0.00000E+00
 -1      1965 5.17611E+01 4.05000E+00 0.00000E+00
 -1      1966 5.65676E+01 3.15000E+00 0.00000E+00
 -1      1967 5.50676E+01 3.15000E+00 0.00000E+00
 -1      1968 5.47611E+01 4.05000E+00 0.00000E+00
 -1      1969 5.95676E+01 3.15000E+00 0.00000E+00
 -1      1970 5.80676E+01 3.15000E+00 0.00000E+00
 -1      1971 5.77611E+01 4.05000E+00 0.00000E+00
 -1      1972 6.25676E+01 3.15000E+00 0.00000E+00
 -1      1973 6.10676E+01 3.15000E+00 0.00000E+00
 -1      1974 6.07611E+01 4.05000E+00 0.00000E+00
 -1      1975 6.55676E+01 3.15000E+00 0.00000E+00
 -1      1976 6.40676E+01 3.15000E+00 0.00000E+00
 -1      1977 6.37611E+01 4.05000E+00 0.00000E+00
 -1      1978 6.85676E+01 3.15000E+00 0.00000E+00
 -1      1979 6.70676E+01 3.15000E+00 0.00000E+00
 -1      1980 6.67611E+01 4.05000E+00 0.00000E+00
 -1      1981 7.15676E+01 3.15000E+00 0.00000E+00
 -1      1982 7.00676E+01 3.15000E+00 0.00000E+00
 -1      1983 6.97611E+01 4.05000E+00 0.00000E+00
 -1      1984 7.45676E+01 3.15000E+00 0.00000E+00
 -1      1985 7.30676E+01 3.15000E+00 0.00000E+00
 -1      1986 7.27611E+01 4.05000E+00 0.00000E+00
 -1      1987 7.75676E+01 3.15000E+00 0.00000E+00
 -1      1988 7.60676E+01 3.15000E+00 0.00000E+00
 -1      1989 7.57611E+01 4.05000E+00 0.00000E+00
 -1      1990 8.05676E+01 3.15000E+00 0.00000E+00
 -1      1991 7.90676E+01 3.15000E+00 0.00000E+00
 -1      1992 7.87611E+01 4.05000E+00 0.00000E+00
 -1      1993 8.35676E+01 3.15000E+00 0.00000E+00
 -1      1994 8.20676E+01 3.15000E+00 0.00000E+00
 -1      1995 8.17611E+01 4.05000E+00 0.00000E+00
 -1      1996 8.65676E+01 3.15000E+00 0.00000E+00
 -1      1997 8.50676E+01 3.15000E+00 0.00000E+00
 -1      1998 8.47611E+01 4.05000E+00 0.00000E+00
 -1      1999 8.95676E+01 3.15000E+00 0.00000E+00
 -1      2000 8.80676E+01 3.15000E+00 0.00000E+00
 -1      2001 8.77611E+01 4.05000E+00 0.00000E+00
 -1      2002 9.25676E+01 3.15000E+00 0.00000E+00
 -1      2003 9.10676E+01 3.15000E+00 0.00000E+00
 -1      2004 9.07611E+01 4.05000E+00 0.00000E+00
 -1      2005 9.55676E+01 3.15000E+00 0.00000E+00
 -1      2006 9.40676E+01 3.15000E+00 0.00000E+00
 -1      2007 9.37611E+01 4.05000E+00 0.00000E+00
 -1      2008 9.85676E+01 3.15000E+00 0.00000E+00
 -1      2009 9.70676E+01 3.15000E+00 0.00000E+00
 -1      2010 9.67611E+01 4.05000E+00 0.00000E+00
 -1      2011 1.01568E+02 3.15000E+00 0.00000E+00
 -1      2012 1.00068E+02 3.15000E+00 0.00000E+00
 -1      2013 9.97611E+01 4.05000E+00 0.00000E+00
 -1      2014 1.04568E+02 3.15000E+00 0.00000E+00
 -1      2015 1.03068E+02 3.15000E+00 0.00000E+00
 -1      2016 1.02761E+02 4.05000E+00 0.00000E+00
 -1      2017 1.07568E+02 3.15000E+00 0.00000E+00
 -1      2018 1.06068E+02 3.15000E+00 0.00000E+00
 -1      2019 1.05761E+02 4.05000E+00 0.00000E+00
 -1      2020 1.10568E+02 3.15000E+00 0.00000E+00
 -1      2021 1.09068E+02 3.15000E+00 0.00000E+00
 -1      2022 1.08761E+02 4.05000E+00 0.00000E+00
 -1      2023 1.13568E+02 3.15000E+00 0.00000E+00
 -1      2024 1.12068E+02 3.15000E+00 0.00000E+00
 -1      2025 1.11761E+02 4.05000E+00 0.00000E+00
 -1      2026 1.16568E+02 3.15000E+00 0.00000E+00
 -1      2027 1.15068E+02 3.15000E+00 0.00000E+00
 -1      2028 1.14761E+02 4.05000E+00 0.00000E+00
 -1      2029 1.19568E+02 3.15000E+00 0.00000E+00
 -1      2030 1.18068E+02 3.15000E+00 0.00000E+00
 -1      2031 1.17761E+02 4.05000E+00 0.00000E+00
 -1      2032 1.22568E+02 3.15000E+00 0.00000E+00
 -1      2033 1.21068E+02 3.15000E+00 0.00000E+00
 -1      2034 1.20761E+02 4.05000E+00 0.00000E+00
 -1      2035 1.25568E+02 3.15000E+00 0.00000E+00
 -1      2036 1.24068E+02 3.15000E+00 0.00000E+00
 -1      2037 1.23761E+02 4.05000E+00 0.00000E+00
 -1      2038 1.28568E+02 3.15000E+00 0.00000E+00
 -1      2039 1.27068E+02 3.15000E+00 0.00000E+00
 -1      2040 1.26761E+02 4.05000E+00 0.00000E+00
 -1      2041 1.31568E+02 3.15000E+00 0.00000E+00
 -1      2042 1.30068E+02 3.15000E+00 0.00000E+00
 -1      2043 1.29761E+02 4.05000E+00 0.00000E+00
 -1      2044 1.34568E+02 3.15000E+00 0.00000E+00
 -1      2045 1.33068E+02 3.15000E+00 0.00000E+00
 -1      2046 1.32761E+02 4.05000E+00 0.00000E+00
 -1      2047 1.37568E+02 3.15000E+00 0.00000E+00
 -1      2048 1.36068E+02 3.15000E+00 0.00000E+00
 -1      2049 1.35761E+02 4.05000E+00 0.00000E+00
 -1      2050 1.40568E+02 3.15000E+00 0.00000E+00
 -1      2051 1.39068E+02 3.15000E+00 0.00000E+00
 -1      2052 1.38761E+02 4.05000E+00 0.00000E+00
 -1      2053 1.43568E+02 3.15000E+00 0.00000E+00
 -1      2054 1.42068E+02 3.15000E+00 0.00000E+00
 -1      2055 1.41761E+02 4.05000E+00 0.00000E+00
 -1      2056 1.46103E+02 3.24375E+00 0.00000E+00
 -1      2057 1.44603E+02 3.24375E+00 0.00000E+00
 -1      2058 1.44296E+02 4.14375E+00 0.00000E+00
 -1      2059 1.46367E+02 4.33125E+00 0.00000E+00
 -1      2060 1.46103E+02 1.25375E+01 0.00000E+00
 -1      2061 1.46103E+02 1.10625E+01 0.00000E+00
 -1      2062 1.46103E+02 9.58750E+00 0.00000E+00
 -1      2063 1.46103E+02 8.11250E+00 0.00000E+00
 -1      2064 1.44804E+02 1.03250E+01 0.00000E+00
 -1      2065 1.46235E+02 6.95937E+00 0.00000E+00
 -1      2066 1.46235E+02 5.48438E+00 0.00000E+00
 -1      2067 1.45200E+02 5.39063E+00 0.00000E+00
 -1      2068 1.44936E+02 7.69688E+00 0.00000E+00
 -1      2069 1.46103E+02 1.54375E+01 0.00000E+00
 -1      2070 1.46103E+02 1.39875E+01 0.00000E+00
 -1      2071 1.44804E+02 1.32500E+01 0.00000E+00
 -1      2072 1.46103E+02 1.83875E+01 0.00000E+00
 -1      2073 1.46103E+02 1.69125E+01 0.00000E+00
 -1      2074 1.44804E+02 1.61750E+01 0.00000E+00
 -1      2075 1.46103E+02 2.13375E+01 0.00000E+00
 -1      2076 1.46103E+02 1.98625E+01 0.00000E+00
 -1      2077 1.44804E+02 1.91250E+01 0.00000E+00
 -1      2078 1.46103E+02 2.42875E+01 0.00000E+00
 -1      2079 1.46103E+02 2.28125E+01 0.00000E+00
 -1      2080 1.44804E+02 2.20750E+01 0.00000E+00
 -1      2081 1.46103E+02 2.72375E+01 0.00000E+00
 -1      2082 1.46103E+02 2.57625E+01 0.00000E+00
 -1      2083 1.44804E+02 2.50250E+01 0.00000E+00
 -1      2084 1.46103E+02 3.01875E+01 0.00000E+00
 -1      2085 1.46103E+02 2.87125E+01 0.00000E+00
 -1      2086 1.44804E+02 2.79750E+01 0.00000E+00
 -1      2087 1.46103E+02 3.30875E+01 0.00000E+00
 -1      2088 1.46103E+02 3.16375E+01 0.00000E+00
 -1      2089 1.44804E+02 3.09000E+01 0.00000E+00
 -1      2090 1.46103E+02 3.60375E+01 0.00000E+00
 -1      2091 1.46103E+02 3.45625E+01 0.00000E+00
 -1      2092 1.44804E+02 3.38250E+01 0.00000E+00
 -1      2093 1.46103E+02 3.89875E+01 0.00000E+00
 -1      2094 1.46103E+02 3.75125E+01 0.00000E+00
 -1      2095 1.44804E+02 3.67750E+01 0.00000E+00
 -1      2096 1.46103E+02 4.19375E+01 0.00000E+00
 -1      2097 1.46103E+02 4.04625E+01 0.00000E+00
 -1      2098 1.44804E+02 3.97250E+01 0.00000E+00
 -1      2099 2.41478E+01 1.66961E+01 0.00000E+00
 -1      2100 2.46151E+01 1.75057E+01 0.00000E+00
 -1      2101 2.52371E+01 2.05134E+01 0.00000E+00
 -1      2102 2.52725E+01 2.14126E+01 0.00000E+00
 -1      2103 2.51619E+01 1.86504E+01 0.00000E+00
 -1      2104 2.51995E+01 1.95819E+01 0.00000E+00
 -1      2105 2.60741E+01 1.99977E+01 0.00000E+00
 -1      2106 2.30884E+01 1.50698E+01 0.00000E+00
 -1      2107 2.36837E+01 1.57111E+01 0.00000E+00
 -1      2108 2.18839E+01 1.36326E+01 0.00000E+00
 -1      2109 2.24861E+01 1.43512E+01 0.00000E+00
 -1      2110 2.34123E+01 1.40884E+01 0.00000E+00
 -1      2111 3.89700E+00 3.71125E+01 0.00000E+00
 -1      2112 3.89700E+00 3.86375E+01 0.00000E+00
 -1      2113 5.19600E+00 3.93875E+01 0.00000E+00
 -1      2114 5.19600E+00 3.63625E+01 0.00000E+00
 -1      2115 1.81288E+01 1.21842E+01 0.00000E+00
 -1      2116 1.89564E+01 1.23656E+01 0.00000E+00
 -1      2117 1.63559E+01 1.17664E+01 0.00000E+00
 -1      2118 1.72423E+01 1.19753E+01 0.00000E+00
 -1      2119 1.78307E+01 1.12692E+01 0.00000E+00
 -1      2120 1.42549E+01 1.22568E+01 0.00000E+00
 -1      2121 1.51371E+01 1.19874E+01 0.00000E+00
 -1      2122 1.24962E+01 1.27000E+01 0.00000E+00
 -1      2123 1.33604E+01 1.24403E+01 0.00000E+00
 -1      2124 1.07206E+01 1.37261E+01 0.00000E+00
 -1      2125 1.14479E+01 1.31826E+01 0.00000E+00
 -1      2126 9.43203E+00 1.51749E+01 0.00000E+00
 -1      2127 1.00085E+01 1.45037E+01 0.00000E+00
 -1      2128 8.44725E+00 1.67505E+01 0.00000E+00
 -1      2129 8.85721E+00 1.60024E+01 0.00000E+00
 -1      2130 7.64221E+00 1.83043E+01 0.00000E+00
 -1      2131 8.04473E+00 1.75274E+01 0.00000E+00
 -1      2132 7.64463E+00 1.68218E+01 0.00000E+00
 -1      2133 7.36638E+00 2.03386E+01 0.00000E+00
 -1      2134 7.35704E+00 1.94577E+01 0.00000E+00
 -1      2135 7.20209E+00 2.21770E+01 0.00000E+00
 -1      2136 7.28424E+00 2.12578E+01 0.00000E+00
 -1      2137 6.58961E+00 2.08247E+01 0.00000E+00
 -1      2138 7.70701E+00 2.41702E+01 0.00000E+00
 -1      2139 7.42123E+00 2.32595E+01 0.00000E+00
 -1      2140 8.77816E+00 2.59129E+01 0.00000E+00
 -1      2141 8.20185E+00 2.52437E+01 0.00000E+00
 -1      2142 9.86489E+00 2.71315E+01 0.00000E+00
 -1      2143 9.32152E+00 2.65222E+01 0.00000E+00
 -1      2144 8.47881E+00 2.66652E+01 0.00000E+00
 -1      2145 1.12665E+01 2.83624E+01 0.00000E+00
 -1      2146 1.05877E+01 2.78615E+01 0.00000E+00
 -1      2147 1.29656E+01 2.91609E+01 0.00000E+00
 -1      2148 1.21741E+01 2.87988E+01 0.00000E+00
 -1      2149 1.47183E+01 2.97356E+01 0.00000E+00
 -1      2150 1.38739E+01 2.94666E+01 0.00000E+00
 -1      2151 1.67582E+01 2.99375E+01 0.00000E+00
 -1      2152 1.58622E+01 3.00223E+01 0.00000E+00
 -1      2153 1.86244E+01 2.96766E+01 0.00000E+00
 -1      2154 1.76913E+01 2.98070E+01 0.00000E+00
 -1      2155 1.73201E+01 3.06615E+01 0.00000E+00
 -1      2156 2.06593E+01 2.88286E+01 0.00000E+00
 -1      2157 1.98429E+01 2.93154E+01 0.00000E+00
 -1      2158 2.21653E+01 2.76059E+01 0.00000E+00
 -1      2159 2.14638E+01 2.81698E+01 0.00000E+00
 -1      2160 2.34650E+01 2.61657E+01 0.00000E+00
 -1      2161 2.29122E+01 2.68578E+01 0.00000E+00
 -1      2162 2.44406E+01 2.45063E+01 0.00000E+00
 -1      2163 2.39657E+01 2.52968E+01 0.00000E+00
 -1      2164 2.51073E+01 2.25026E+01 0.00000E+00
 -1      2165 2.49340E+01 2.34325E+01 0.00000E+00
 -1      2166 1.98374E+01 1.26868E+01 0.00000E+00
 -1      2167 2.07185E+01 1.30080E+01 0.00000E+00
 -1      2168 1.95983E+01 1.17993E+01 0.00000E+00
 -1      2169 3.71818E+00 2.13098E+01 0.00000E+00
 -1      2170 5.01718E+00 2.20598E+01 0.00000E+00
 -1      2171 3.71818E+00 2.00348E+01 0.00000E+00
 -1      2172 2.16447E+01 1.27452E+01 0.00000E+00
 -1      2173 6.42300E+00 4.56760E+01 0.00000E+00
 -1      2174 7.17300E+00 4.43770E+01 0.00000E+00
 -1      2175 4.92300E+00 4.56760E+01 0.00000E+00
 -1      2176 2.99010E+00 4.60293E+01 0.00000E+00
 -1      2177 2.54896E+01 1.79216E+01 0.00000E+00
 -1      2178 2.63642E+01 1.83374E+01 0.00000E+00
 -1      2179 2.58174E+01 1.71928E+01 0.00000E+00
 -1      2180 2.44786E+01 1.57920E+01 0.00000E+00
 -1      2181 1.45665E+02 4.31193E+01 0.00000E+00
 -1      2182 2.59465E+01 2.20193E+01 0.00000E+00
 -1      2183 2.52880E+01 2.41831E+01 0.00000E+00
 -1      2184 2.42939E+01 2.61258E+01 0.00000E+00
 -1      2185 2.30463E+01 2.77428E+01 0.00000E+00
 -1      2186 1.94717E+01 3.01698E+01 0.00000E+00
 -1      2187 1.52432E+01 3.05053E+01 0.00000E+00
 -1      2188 1.31911E+01 2.99129E+01 0.00000E+00
 -1      2189 9.74494E+00 2.80046E+01 0.00000E+00
 -1      2190 6.72661E+00 2.28264E+01 0.00000E+00
 -1      2191 6.95694E+00 1.87521E+01 0.00000E+00
 -1      2192 8.62198E+00 1.52173E+01 0.00000E+00
 -1      2193 9.90896E+00 1.36121E+01 0.00000E+00
 -1      2194 1.16694E+01 1.23519E+01 0.00000E+00
 -1      2195 1.50951E+01 1.07962E+01 0.00000E+00
 -1      2196 1.57255E+01 1.12813E+01 0.00000E+00
 -1      2197 1.63139E+01 1.05753E+01 0.00000E+00
 -1      2198 1.36122E+01 1.16858E+01 0.00000E+00
 -1      2199 7.44060E+00 2.49824E+01 0.00000E+00
 -1      2200 1.13752E+01 2.91709E+01 0.00000E+00
 -1      2201 2.14948E+01 2.91497E+01 0.00000E+00
 -1      2202 4.28910E+00 4.52793E+01 0.00000E+00
 -1      2203 6.22112E+00 2.96000E+01 0.00000E+00
 -1      2204 6.22112E+00 3.11000E+01 0.00000E+00
 -1      2205 6.30491E+00 3.26000E+01 0.00000E+00
 -1      2206 6.30491E+00 3.41000E+01 0.00000E+00
 -1      2207 4.74330E+00 1.93598E+01 0.00000E+00
 -1      2208 5.75716E+00 1.26500E+01 0.00000E+00
 -1      2209 5.75716E+00 1.41500E+01 0.00000E+00
 -1      2210 5.94725E+00 6.60000E+00 0.00000E+00
 -1      2211 5.94725E+00 8.10000E+00 0.00000E+00
 -1      2212 6.50740E+00 4.87500E+00 0.00000E+00
 -1      2213 6.20097E+00 5.77500E+00 0.00000E+00
 -1      2214 7.49997E+00 6.52500E+00 0.00000E+00
 -1      2215 8.00740E+00 4.87500E+00 0.00000E+00
 -1      2216 9.90000E+00 4.35050E+01 0.00000E+00
 -1      2217 1.14000E+01 4.35050E+01 0.00000E+00
 -1      2218 1.10074E+01 4.87500E+00 0.00000E+00
 -1      2219 9.50740E+00 4.87500E+00 0.00000E+00
 -1      2220 9.25368E+00 5.70000E+00 0.00000E+00
 -1      2221 1.40074E+01 4.87500E+00 0.00000E+00
 -1      2222 1.25074E+01 4.87500E+00 0.00000E+00
 -1      2223 1.22537E+01 5.70000E+00 0.00000E+00
 -1      2224 1.29000E+01 4.35050E+01 0.00000E+00
 -1      2225 1.44000E+01 4.35050E+01 0.00000E+00
 -1      2226 1.21500E+01 4.22060E+01 0.00000E+00
 -1      2227 1.59000E+01 4.35050E+01 0.00000E+00
 -1      2228 1.74000E+01 4.35050E+01 0.00000E+00
 -1      2229 1.51500E+01 4.22060E+01 0.00000E+00
 -1      2230 1.89000E+01 4.35050E+01 0.00000E+00
 -1      2231 2.04000E+01 4.35050E+01 0.00000E+00
 -1      2232 1.81500E+01 4.22060E+01 0.00000E+00
 -1      2233 2.19000E+01 4.35050E+01 0.00000E+00
 -1      2234 2.34000E+01 4.35050E+01 0.00000E+00
 -1      2235 2.11500E+01 4.22060E+01 0.00000E+00
 -1      2236 2.49000E+01 4.35050E+01 0.00000E+00
 -1      2237 2.64000E+01 4.35050E+01 0.00000E+00
 -1      2238 2.41500E+01 4.22060E+01 0.00000E+00
 -1      2239 2.79000E+01 4.35050E+01 0.00000E+00
 -1      2240 2.94000E+01 4.35050E+01 0.00000E+00
 -1      2241 2.71500E+01 4.22060E+01 0.00000E+00
 -1      2242 3.09000E+01 4.35050E+01 0.00000E+00
 -1      2243 3.24000E+01 4.35050E+01 0.00000E+00
 -1      2244 3.01500E+01 4.22060E+01 0.00000E+00
 -1      2245 3.39000E+01 4.35050E+01 0.00000E+00
 -1      2246 3.54000E+01 4.35050E+01 0.00000E+00
 -1      2247 3.31500E+01 4.22060E+01 0.00000E+00
 -1      2248 3.69000E+01 4.35050E+01 0.00000E+00
 -1      2249 3.84000E+01 4.35050E+01 0.00000E+00
 -1      2250 3.61500E+01 4.22060E+01 0.00000E+00
 -1      2251 3.99000E+01 4.35050E+01 0.00000E+00
 -1      2252 4.14000E+01 4.35050E+01 0.00000E+00
 -1      2253 3.91500E+01 4.22060E+01 0.00000E+00
 -1      2254 4.29000E+01 4.35050E+01 0.00000E+00
 -1      2255 4.44000E+01 4.35050E+01 0.00000E+00
 -1      2256 4.21500E+01 4.22060E+01 0.00000E+00
 -1      2257 4.59000E+01 4.35050E+01 0.00000E+00
 -1      2258 4.74000E+01 4.35050E+01 0.00000E+00
 -1      2259 4.51500E+01 4.22060E+01 0.00000E+00
 -1      2260 4.89000E+01 4.35050E+01 0.00000E+00
 -1      2261 5.04000E+01 4.35050E+01 0.00000E+00
 -1      2262 4.81500E+01 4.22060E+01 0.00000E+00
 -1      2263 5.19000E+01 4.35050E+01 0.00000E+00
 -1      2264 5.34000E+01 4.35050E+01 0.00000E+00
 -1      2265 5.11500E+01 4.22060E+01 0.00000E+00
 -1      2266 5.49000E+01 4.35050E+01 0.00000E+00
 -1      2267 5.64000E+01 4.35050E+01 0.00000E+00
 -1      2268 5.41500E+01 4.22060E+01 0.00000E+00
 -1      2269 5.79000E+01 4.35050E+01 0.00000E+00
 -1      2270 5.94000E+01 4.35050E+01 0.00000E+00
 -1      2271 5.71500E+01 4.22060E+01 0.00000E+00
 -1      2272 6.09000E+01 4.35050E+01 0.00000E+00
 -1      2273 6.24000E+01 4.35050E+01 0.00000E+00
 -1      2274 6.01500E+01 4.22060E+01 0.00000E+00
 -1      2275 6.39000E+01 4.35050E+01 0.00000E+00
 -1      2276 6.54000E+01 4.35050E+01 0.00000E+00
 -1      2277 6.31500E+01 4.22060E+01 0.00000E+00
 -1      2278 6.69000E+01 4.35050E+01 0.00000E+00
 -1      2279 6.84000E+01 4.35050E+01 0.00000E+00
 -1      2280 6.61500E+01 4.22060E+01 0.00000E+00
 -1      2281 6.99000E+01 4.35050E+01 0.00000E+00
 -1      2282 7.14000E+01 4.35050E+01 0.00000E+00
 -1      2283 6.91500E+01 4.22060E+01 0.00000E+00
 -1      2284 7.29000E+01 4.35050E+01 0.00000E+00
 -1      2285 7.44000E+01 4.35050E+01 0.00000E+00
 -1      2286 7.21500E+01 4.22060E+01 0.00000E+00
 -1      2287 7.59000E+01 4.35050E+01 0.00000E+00
 -1      2288 7.74000E+01 4.35050E+01 0.00000E+00
 -1      2289 7.51500E+01 4.22060E+01 0.00000E+00
 -1      2290 7.89000E+01 4.35050E+01 0.00000E+00
 -1      2291 8.04000E+01 4.35050E+01 0.00000E+00
 -1      2292 7.81500E+01 4.22060E+01 0.00000E+00
 -1      2293 8.19000E+01 4.35050E+01 0.00000E+00
 -1      2294 8.34000E+01 4.35050E+01 0.00000E+00
 -1      2295 8.11500E+01 4.22060E+01 0.00000E+00
 -1      2296 8.49000E+01 4.35050E+01 0.00000E+00
 -1      2297 8.64000E+01 4.35050E+01 0.00000E+00
 -1      2298 8.41500E+01 4.22060E+01 0.00000E+00
 -1      2299 8.79000E+01 4.35050E+01 0.00000E+00
 -1      2300 8.94000E+01 4.35050E+01 0.00000E+00
 -1      2301 8.71500E+01 4.22060E+01 0.00000E+00
 -1      2302 9.09000E+01 4.35050E+01 0.00000E+00
 -1      2303 9.24000E+01 4.35050E+01 0.00000E+00
 -1      2304 9.01500E+01 4.22060E+01 0.00000E+00
 -1      2305 9.39000E+01 4.35050E+01 0.00000E+00
 -1      2306 9.54000E+01 4.35050E+01 0.00000E+00
 -1      2307 9.31500E+01 4.22060E+01 0.00000E+00
 -1      2308 9.69000E+01 4.35050E+01 0.00000E+00
 -1      2309 9.84000E+01 4.35050E+01 0.00000E+00
 -1      2310 9.61500E+01 4.22060E+01 0.00000E+00
 -1      2311 9.99000E+01 4.35050E+01 0.00000E+00
 -1      2312 1.01400E+02 4.35050E+01 0.00000E+00
 -1      2313 9.91500E+01 4.22060E+01 0.00000E+00
 -1      2314 1.02900E+02 4.35050E+01 0.00000E+00
 -1      2315 1.04400E+02 4.35050E+01 0.00000E+00
 -1      2316 1.02150E+02 4.22060E+01 0.00000E+00
 -1      2317 1.05900E+02 4.35050E+01 0.00000E+00
 -1      2318 1.07400E+02 4.35050E+01 0.00000E+00
 -1      2319 1.05150E+02 4.22060E+01 0.00000E+00
 -1      2320 1.08900E+02 4.35050E+01 0.00000E+00
 -1      2321 1.10400E+02 4.35050E+01 0.00000E+00
 -1      2322 1.08150E+02 4.22060E+01 0.00000E+00
 -1      2323 1.11900E+02 4.35050E+01 0.00000E+00
 -1      2324 1.13400E+02 4.35050E+01 0.00000E+00
 -1      2325 1.11150E+02 4.22060E+01 0.00000E+00
 -1      2326 1.14900E+02 4.35050E+01 0.00000E+00
 -1      2327 1.16400E+02 4.35050E+01 0.00000E+00
 -1      2328 1.14150E+02 4.22060E+01 0.00000E+00
 -1      2329 1.17900E+02 4.35050E+01 0.00000E+00
 -1      2330 1.19400E+02 4.35050E+01 0.00000E+00
 -1      2331 1.17150E+02 4.22060E+01 0.00000E+00
 -1      2332 1.20900E+02 4.35050E+01 0.00000E+00
 -1      2333 1.22400E+02 4.35050E+01 0.00000E+00
 -1      2334 1.20150E+02 4.22060E+01 0.00000E+00
 -1      2335 1.23900E+02 4.35050E+01 0.00000E+00
 -1      2336 1.25400E+02 4.35050E+01 0.00000E+00
 -1      2337 1.23150E+02 4.22060E+01 0.00000E+00
 -1      2338 1.26900E+02 4.35050E+01 0.00000E+00
 -1      2339 1.28400E+02 4.35050E+01 0.00000E+00
 -1      2340 1.26150E+02 4.22060E+01 0.00000E+00
 -1      2341 1.29900E+02 4.35050E+01 0.00000E+00
 -1      2342 1.31400E+02 4.35050E+01 0.00000E+00
 -1      2343 1.29150E+02 4.22060E+01 0.00000E+00
 -1      2344 1.32900E+02 4.35050E+01 0.00000E+00
 -1      2345 1.34400E+02 4.35050E+01 0.00000E+00
 -1      2346 1.32150E+02 4.22060E+01 0.00000E+00
 -1      2347 1.35900E+02 4.35050E+01 0.00000E+00
 -1      2348 1.37400E+02 4.35050E+01 0.00000E+00
 -1      2349 1.35150E+02 4.22060E+01 0.00000E+00
 -1      2350 1.38900E+02 4.35050E+01 0.00000E+00
 -1      2351 1.40400E+02 4.35050E+01 0.00000E+00
 -1      2352 1.38150E+02 4.22060E+01 0.00000E+00
 -1      2353 1.95111E+01 5.34900E+00 0.00000E+00
 -1      2354 1.80111E+01 5.34900E+00 0.00000E+00
 -1      2355 2.25111E+01 5.34900E+00 0.00000E+00
 -1      2356 2.10111E+01 5.34900E+00 0.00000E+00
 -1      2357 2.02611E+01 6.64800E+00 0.00000E+00
 -1      2358 2.55111E+01 5.34900E+00 0.00000E+00
 -1      2359 2.40111E+01 5.34900E+00 0.00000E+00
 -1      2360 2.32611E+01 6.64800E+00 0.00000E+00
 -1      2361 2.85111E+01 5.34900E+00 0.00000E+00
 -1      2362 2.70111E+01 5.34900E+00 0.00000E+00
 -1      2363 2.62611E+01 6.64800E+00 0.00000E+00
 -1      2364 3.15111E+01 5.34900E+00 0.00000E+00
 -1      2365 3.00111E+01 5.34900E+00 0.00000E+00
 -1      2366 2.92611E+01 6.64800E+00 0.00000E+00
 -1      2367 3.45111E+01 5.34900E+00 0.00000E+00
 -1      2368 3.30111E+01 5.34900E+00 0.00000E+00
 -1      2369 3.22611E+01 6.64800E+00 0.00000E+00
 -1      2370 3.75111E+01 5.34900E+00 0.00000E+00
 -1      2371 3.60111E+01 5.34900E+00 0.00000E+00
 -1      2372 3.52611E+01 6.64800E+00 0.00000E+00
 -1      2373 4.05111E+01 5.34900E+00 0.00000E+00
 -1      2374 3.90111E+01 5.34900E+00 0.00000E+00
 -1      2375 3.82611E+01 6.64800E+00 0.00000E+00
 -1      2376 4.35111E+01 5.34900E+00 0.00000E+00
 -1      2377 4.20111E+01 5.34900E+00 0.00000E+00
 -1      2378 4.12611E+01 6.64800E+00 0.00000E+00
 -1      2379 4.65111E+01 5.34900E+00 0.00000E+00
 -1      2380 4.50111E+01 5.34900E+00 0.00000E+00
 -1      2381 4.42611E+01 6.64800E+00 0.00000E+00
 -1      2382 4.95111E+01 5.34900E+00 0.00000E+00
 -1      2383 4.80111E+01 5.34900E+00 0.00000E+00
 -1      2384 4.72611E+01 6.64800E+00 0.00000E+00
 -1      2385 5.25111E+01 5.34900E+00 0.00000E+00
 -1      2386 5.10111E+01 5.34900E+00 0.00000E+00
 -1      2387 5.02611E+01 6.64800E+00 0.00000E+00
 -1      2388 5.55111E+01 5.34900E+00 0.00000E+00
 -1      2389 5.40111E+01 5.34900E+00 0.00000E+00
 -1      2390 5.32611E+01 6.64800E+00 0.00000E+00
 -1      2391 5.85111E+01 5.34900E+00 0.00000E+00
 -1      2392 5.70111E+01 5.34900E+00 0.00000E+00
 -1      2393 5.62611E+01 6.64800E+00 0.00000E+00
 -1      2394 6.15111E+01 5.34900E+00 0.00000E+00
 -1      2395 6.00111E+01 5.34900E+00 0.00000E+00
 -1      2396 5.92611E+01 6.64800E+00 0.00000E+00
 -1      2397 6.45111E+01 5.34900E+00 0.00000E+00
 -1      2398 6.30111E+01 5.34900E+00 0.00000E+00
 -1      2399 6.22611E+01 6.64800E+00 0.00000E+00
 -1      2400 6.75111E+01 5.34900E+00 0.00000E+00
 -1      2401 6.60111E+01 5.34900E+00 0.00000E+00
 -1      2402 6.52611E+01 6.64800E+00 0.00000E+00
 -1      2403 7.05111E+01 5.34900E+00 0.00000E+00
 -1      2404 6.90111E+01 5.34900E+00 0.00000E+00
 -1      2405 6.82611E+01 6.64800E+00 0.00000E+00
 -1      2406 7.35111E+01 5.34900E+00 0.00000E+00
 -1      2407 7.20111E+01 5.34900E+00 0.00000E+00
 -1      2408 7.12611E+01 6.64800E+00 0.00000E+00
 -1      2409 7.65111E+01 5.34900E+00 0.00000E+00
 -1      2410 7.50111E+01 5.34900E+00 0.00000E+00
 -1      2411 7.42611E+01 6.64800E+00 0.00000E+00
 -1      2412 7.95111E+01 5.34900E+00 0.00000E+00
 -1      2413 7.80111E+01 5.34900E+00 0.00000E+00
 -1      2414 7.72611E+01 6.64800E+00 0.00000E+00
 -1      2415 8.25111E+01 5.34900E+00 0.00000E+00
 -1      2416 8.10111E+01 5.34900E+00 0.00000E+00
 -1      2417 8.02611E+01 6.64800E+00 0.00000E+00
 -1      2418 8.55111E+01 5.34900E+00 0.00000E+00
 -1      2419 8.40111E+01 5.34900E+00 0.00000E+00
 -1      2420 8.32611E+01 6.64800E+00 0.00000E+00
 -1      2421 8.85111E+01 5.34900E+00 0.00000E+00
 -1      2422 8.70111E+01 5.34900E+00 0.00000E+00
 -1      2423 8.62611E+01 6.64800E+00 0.00000E+00
 -1      2424 9.15111E+01 5.34900E+00 0.00000E+00
 -1      2425 9.00111E+01 5.34900E+00 0.00000E+00
 -1      2426 8.92611E+01 6.64800E+00 0.00000E+00
 -1      2427 9.45111E+01 5.34900E+00 0.00000E+00
 -1      2428 9.30111E+01 5.34900E+00 0.00000E+00
 -1      2429 9.22611E+01 6.64800E+00 0.00000E+00
 -1      2430 9.75111E+01 5.34900E+00 0.00000E+00
 -1      2431 9.60111E+01 5.34900E+00 0.00000E+00
 -1      2432 9.52611E+01 6.64800E+00 0.00000E+00
 -1      2433 1.00511E+02 5.34900E+00 0.00000E+00
 -1      2434 9.90111E+01 5.34900E+00 0.00000E+00
 -1      2435 9.82611E+01 6.64800E+00 0.00000E+00
 -1      2436 1.03511E+02 5.34900E+00 0.00000E+00
 -1      2437 1.02011E+02 5.34900E+00 0.00000E+00
 -1      2438 1.01261E+02 6.64800E+00 0.00000E+00
 -1      2439 1.06511E+02 5.34900E+00 0.00000E+00
 -1      2440 1.05011E+02 5.34900E+00 0.00000E+00
 -1      2441 1.04261E+02 6.64800E+00 0.00000E+00
 -1      2442 1.09511E+02 5.34900E+00 0.00000E+00
 -1      2443 1.08011E+02 5.34900E+00 0.00000E+00
 -1      2444 1.07261E+02 6.64800E+00 0.00000E+00
 -1      2445 1.12511E+02 5.34900E+00 0.00000E+00
 -1      2446 1.11011E+02 5.34900E+00 0.00000E+00
 -1      2447 1.10261E+02 6.64800E+00 0.00000E+00
 -1      2448 1.15511E+02 5.34900E+00 0.00000E+00
 -1      2449 1.14011E+02 5.34900E+00 0.00000E+00
 -1      2450 1.13261E+02 6.64800E+00 0.00000E+00
 -1      2451 1.18511E+02 5.34900E+00 0.00000E+00
 -1      2452 1.17011E+02 5.34900E+00 0.00000E+00
 -1      2453 1.16261E+02 6.64800E+00 0.00000E+00
 -1      2454 1.21511E+02 5.34900E+00 0.00000E+00
 -1      2455 1.20011E+02 5.34900E+00 0.00000E+00
 -1      2456 1.19261E+02 6.64800E+00 0.00000E+00
 -1      2457 1.24511E+02 5.34900E+00 0.00000E+00
 -1      2458 1.23011E+02 5.34900E+00 0.00000E+00
 -1      2459 1.22261E+02 6.64800E+00 0.00000E+00
 -1      2460 1.27511E+02 5.34900E+00 0.00000E+00
 -1      2461 1.26011E+02 5.34900E+00 0.00000E+00
 -1      2462 1.25261E+02 6.64800E+00 0.00000E+00
 -1      2463 1.30511E+02 5.34900E+00 0.00000E+00
 -1      2464 1.29011E+02 5.34900E+00 0.00000E+00
 -1      2465 1.28261E+02 6.64800E+00 0.00000E+00
 -1      2466 1.33511E+02 5.34900E+00 0.00000E+00
 -1      2467 1.32011E+02 5.34900E+00 0.00000E+00
 -1      2468 1.31261E+02 6.64800E+00 0.00000E+00
 -1      2469 1.36511E+02 5.34900E+00 0.00000E+00
 -1      2470 1.35011E+02 5.34900E+00 0.00000E+00
 -1      2471 1.34261E+02 6.64800E+00 0.00000E+00
 -1      2472 1.39511E+02 5.34900E+00 0.00000E+00
 -1      2473 1.38011E+02 5.34900E+00 0.00000E+00
 -1      2474 1.37261E+02 6.64800E+00 0.00000E+00
 -1      2475 1.42511E+02 5.34900E+00 0.00000E+00
 -1      2476 1.41011E+02 5.34900E+00 0.00000E+00
 -1      2477 1.40261E+02 6.64800E+00 0.00000E+00
 -1      2478 1.44164E+02 5.29688E+00 0.00000E+00
 -1      2479 1.43505E+02 1.69125E+01 0.00000E+00
 -1      2480 1.43505E+02 1.54375E+01 0.00000E+00
 -1      2481 1.43505E+02 1.98625E+01 0.00000E+00
 -1      2482 1.43505E+02 1.83875E+01 0.00000E+00
 -1      2483 1.42206E+02 1.76500E+01 0.00000E+00
 -1      2484 1.43505E+02 1.10625E+01 0.00000E+00
 -1      2485 1.43505E+02 9.58750E+00 0.00000E+00
 -1      2486 1.43505E+02 1.39750E+01 0.00000E+00
 -1      2487 1.43505E+02 1.25250E+01 0.00000E+00
 -1      2488 1.42206E+02 1.17875E+01 0.00000E+00
 -1      2489 1.42206E+02 1.47125E+01 0.00000E+00
 -1      2490 1.43505E+02 2.28125E+01 0.00000E+00
 -1      2491 1.43505E+02 2.13375E+01 0.00000E+00
 -1      2492 1.42206E+02 2.06000E+01 0.00000E+00
 -1      2493 1.43505E+02 2.57625E+01 0.00000E+00
 -1      2494 1.43505E+02 2.42875E+01 0.00000E+00
 -1      2495 1.42206E+02 2.35500E+01 0.00000E+00
 -1      2496 1.43505E+02 2.87125E+01 0.00000E+00
 -1      2497 1.43505E+02 2.72375E+01 0.00000E+00
 -1      2498 1.42206E+02 2.65000E+01 0.00000E+00
 -1      2499 1.43505E+02 3.16125E+01 0.00000E+00
 -1      2500 1.43505E+02 3.01625E+01 0.00000E+00
 -1      2501 1.42206E+02 2.94250E+01 0.00000E+00
 -1      2502 1.43505E+02 3.45625E+01 0.00000E+00
 -1      2503 1.43505E+02 3.30875E+01 0.00000E+00
 -1      2504 1.42206E+02 3.23500E+01 0.00000E+00
 -1      2505 1.43505E+02 3.75125E+01 0.00000E+00
 -1      2506 1.43505E+02 3.60375E+01 0.00000E+00
 -1      2507 1.42206E+02 3.53000E+01 0.00000E+00
 -1      2508 1.43505E+02 4.04625E+01 0.00000E+00
 -1      2509 1.43505E+02 3.89875E+01 0.00000E+00
 -1      2510 1.42206E+02 3.82500E+01 0.00000E+00
 -1      2511 2.49465E+01 1.49697E+01 0.00000E+00
 -1      2512 2.54107E+01 1.59547E+01 0.00000E+00
 -1      2513 1.44321E+02 4.30606E+01 0.00000E+00
 -1      2514 2.68769E+01 2.16028E+01 0.00000E+00
 -1      2515 2.67118E+01 2.26928E+01 0.00000E+00
 -1      2516 1.67593E+01 5.11200E+00 0.00000E+00
 -1      2517 1.52593E+01 5.11200E+00 0.00000E+00
 -1      2518 1.50055E+01 5.93700E+00 0.00000E+00
 -1      2519 1.75093E+01 6.41100E+00 0.00000E+00
 -1      2520 2.69122E+01 1.94974E+01 0.00000E+00
 -1      2521 2.69497E+01 2.04290E+01 0.00000E+00
 -1      2522 2.38326E+01 1.31245E+01 0.00000E+00
 -1      2523 2.44349E+01 1.38430E+01 0.00000E+00
 -1      2524 1.94227E+01 1.09118E+01 0.00000E+00
 -1      2525 2.03038E+01 1.12330E+01 0.00000E+00
 -1      2526 2.61997E+01 2.39518E+01 0.00000E+00
 -1      2527 2.57064E+01 2.50255E+01 0.00000E+00
 -1      2528 1.56066E+01 3.14804E+01 0.00000E+00
 -1      2529 1.44628E+01 3.11938E+01 0.00000E+00
 -1      2530 6.07088E+00 2.35795E+01 0.00000E+00
 -1      2531 5.85173E+00 2.24969E+01 0.00000E+00
 -1      2532 7.45661E+00 1.47224E+01 0.00000E+00
 -1      2533 8.03144E+00 1.38949E+01 0.00000E+00
 -1      2534 6.07088E+00 2.50295E+01 0.00000E+00
 -1      2535 5.94725E+00 9.62500E+00 0.00000E+00
 -1      2536 5.94725E+00 1.11500E+01 0.00000E+00
 -1      2537 7.24625E+00 8.87500E+00 0.00000E+00
 -1      2538 6.22113E+00 2.68250E+01 0.00000E+00
 -1      2539 6.22113E+00 2.81750E+01 0.00000E+00
 -1      2540 5.67291E+00 2.13067E+01 0.00000E+00
 -1      2541 1.29926E+01 1.09374E+01 0.00000E+00
 -1      2542 1.38871E+01 1.07540E+01 0.00000E+00
 -1      2543 1.75746E+01 1.03709E+01 0.00000E+00
 -1      2544 1.84610E+01 1.05798E+01 0.00000E+00
 -1      2545 1.07516E+01 1.17381E+01 0.00000E+00
 -1      2546 1.17998E+01 1.12555E+01 0.00000E+00
 -1      2547 9.03543E+00 1.32053E+01 0.00000E+00
 -1      2548 9.74759E+00 1.24277E+01 0.00000E+00
 -1      2549 9.87804E+00 1.13313E+01 0.00000E+00
 -1      2550 7.87006E+00 1.27104E+01 0.00000E+00
 -1      2551 6.75634E+00 1.68543E+01 0.00000E+00
 -1      2552 7.15886E+00 1.60774E+01 0.00000E+00
 -1      2553 5.75506E+00 2.03875E+01 0.00000E+00
 -1      2554 1.14937E+01 3.00865E+01 0.00000E+00
 -1      2555 1.05862E+01 2.96501E+01 0.00000E+00
 -1      2556 8.13422E+00 2.73872E+01 0.00000E+00
 -1      2557 7.59085E+00 2.67780E+01 0.00000E+00
 -1      2558 2.25466E+01 2.96135E+01 0.00000E+00
 -1      2559 2.17420E+01 3.02723E+01 0.00000E+00
 -1      2560 9.55643E+00 2.89140E+01 0.00000E+00
 -1      2561 8.83367E+00 2.81839E+01 0.00000E+00
 -1      2562 1.33717E+01 3.08785E+01 0.00000E+00
 -1      2563 1.24634E+01 3.05729E+01 0.00000E+00
 -1      2564 1.78996E+01 3.14040E+01 0.00000E+00
 -1      2565 1.69665E+01 3.15345E+01 0.00000E+00
 -1      2566 2.03128E+01 3.07712E+01 0.00000E+00
 -1      2567 1.90943E+01 3.11324E+01 0.00000E+00
 -1      2568 2.40404E+01 2.81172E+01 0.00000E+00
 -1      2569 2.32935E+01 2.88653E+01 0.00000E+00
 -1      2570 2.35407E+01 2.99879E+01 0.00000E+00
 -1      2571 2.52873E+01 2.61195E+01 0.00000E+00
 -1      2572 2.47866E+01 2.69884E+01 0.00000E+00
 -1      2573 6.55950E+00 4.27515E+01 0.00000E+00
 -1      2574 8.53650E+00 4.31785E+01 0.00000E+00
 -1      2575 9.28650E+00 4.18795E+01 0.00000E+00
 -1      2576 6.55950E+00 4.12265E+01 0.00000E+00
 -1      2577 2.14671E+01 1.16771E+01 0.00000E+00
 -1      2578 2.26325E+01 1.23017E+01 0.00000E+00
 -1      2579 5.66001E+00 1.88777E+01 0.00000E+00
 -1      2580 5.94518E+00 1.77243E+01 0.00000E+00
 -1      2581 7.33003E+00 3.18500E+01 0.00000E+00
 -1      2582 7.41382E+00 3.48625E+01 0.00000E+00
 -1      2583 6.30491E+00 3.56125E+01 0.00000E+00
 -1      2584 6.30491E+00 3.71250E+01 0.00000E+00
 -1      2585 7.05616E+00 1.19000E+01 0.00000E+00
 -1      2586 7.24625E+00 2.89250E+01 0.00000E+00
 -1      2587 5.45941E+00 1.55049E+01 0.00000E+00
 -1      2588 5.45941E+00 1.69799E+01 0.00000E+00
 -1      2589 2.72399E+01 1.87687E+01 0.00000E+00
 -1      2590 2.81155E+01 1.91999E+01 0.00000E+00
 -1      2591 2.75676E+01 1.80399E+01 0.00000E+00
 -1      2592 1.91666E+01 1.00134E+01 0.00000E+00
 -1      2593 2.62853E+01 1.63705E+01 0.00000E+00
 -1      2594 2.71302E+01 2.35352E+01 0.00000E+00
 -1      2595 1.43414E+02 6.59587E+00 0.00000E+00
 -1      2596 1.43283E+02 7.74900E+00 0.00000E+00
 -1      2597 2.53669E+01 1.40057E+01 0.00000E+00
 -1      2598 1.42758E+02 4.35929E+01 0.00000E+00
 -1      2599 1.43241E+02 4.17323E+01 0.00000E+00
 -1      2600 1.41942E+02 4.09948E+01 0.00000E+00
 -1      2601 1.41414E+02 4.35342E+01 0.00000E+00
 -1      2602 2.77150E+01 2.11025E+01 0.00000E+00
 -1      2603 2.36551E+01 1.20563E+01 0.00000E+00
 -1      2604 6.43220E+00 3.84195E+01 0.00000E+00
 -1      2605 6.43220E+00 3.99320E+01 0.00000E+00
 -1      2606 7.79570E+00 4.02585E+01 0.00000E+00
 -1      2607 7.54111E+00 3.76695E+01 0.00000E+00
 -1      2608 2.12916E+01 1.07895E+01 0.00000E+00
 -1      2609 2.61990E+01 2.58882E+01 0.00000E+00
 -1      2610 1.37351E+01 3.18537E+01 0.00000E+00
 -1      2611 2.50338E+01 2.81109E+01 0.00000E+00
 -1      2612 2.13646E+01 3.12349E+01 0.00000E+00
 -1      2613 1.87407E+01 3.20055E+01 0.00000E+00
 -1      2614 1.44755E+01 1.00479E+01 0.00000E+00
 -1      2615 9.67492E+00 2.98295E+01 0.00000E+00
 -1      2616 6.56832E+00 1.47549E+01 0.00000E+00
 -1      2617 1.69442E+01 9.88578E+00 0.00000E+00
 -1      2618 1.75745E+01 9.19630E+00 0.00000E+00
 -1      2619 1.63138E+01 9.40067E+00 0.00000E+00
 -1      2620 6.56572E+00 2.61030E+01 0.00000E+00
 -1      2621 1.61861E+01 3.22230E+01 0.00000E+00
 -1      2622 1.20748E+01 1.03237E+01 0.00000E+00
 -1      2623 7.94571E+00 2.82966E+01 0.00000E+00
 -1      2624 1.16744E+01 3.10521E+01 0.00000E+00
 -1      2625 1.41984E+02 8.48650E+00 0.00000E+00
 -1      2626 1.40664E+02 4.22352E+01 0.00000E+00
 -1      2627 7.94571E+00 2.97216E+01 0.00000E+00
 -1      2628 8.99997E+00 6.52500E+00 0.00000E+00
 -1      2629 8.74625E+00 7.35000E+00 0.00000E+00
 -1      2630 1.05000E+01 6.52500E+00 0.00000E+00
 -1      2631 8.97546E+00 3.04578E+01 0.00000E+00
 -1      2632 8.27600E+00 3.10862E+01 0.00000E+00
 -1      2633 1.00052E+01 3.11940E+01 0.00000E+00
 -1      2634 2.70111E+01 7.94700E+00 0.00000E+00
 -1      2635 2.55111E+01 7.94700E+00 0.00000E+00
 -1      2636 1.44000E+01 4.09070E+01 0.00000E+00
 -1      2637 1.59000E+01 4.09070E+01 0.00000E+00
 -1      2638 1.74000E+01 4.09070E+01 0.00000E+00
 -1      2639 1.89000E+01 4.09070E+01 0.00000E+00
 -1      2640 1.66500E+01 3.96080E+01 0.00000E+00
 -1      2641 2.04000E+01 4.09070E+01 0.00000E+00
 -1      2642 2.19000E+01 4.09070E+01 0.00000E+00
 -1      2643 1.96500E+01 3.96080E+01 0.00000E+00
 -1      2644 2.34000E+01 4.09070E+01 0.00000E+00
 -1      2645 2.49000E+01 4.09070E+01 0.00000E+00
 -1      2646 2.26500E+01 3.96080E+01 0.00000E+00
 -1      2647 2.64000E+01 4.09070E+01 0.00000E+00
 -1      2648 2.79000E+01 4.09070E+01 0.00000E+00
 -1      2649 2.56500E+01 3.96080E+01 0.00000E+00
 -1      2650 2.94000E+01 4.09070E+01 0.00000E+00
 -1      2651 3.09000E+01 4.09070E+01 0.00000E+00
 -1      2652 2.86500E+01 3.96080E+01 0.00000E+00
 -1      2653 3.24000E+01 4.09070E+01 0.00000E+00
 -1      2654 3.39000E+01 4.09070E+01 0.00000E+00
 -1      2655 3.16500E+01 3.96080E+01 0.00000E+00
 -1      2656 3.54000E+01 4.09070E+01 0.00000E+00
 -1      2657 3.69000E+01 4.09070E+01 0.00000E+00
 -1      2658 3.46500E+01 3.96080E+01 0.00000E+00
 -1      2659 3.84000E+01 4.09070E+01 0.00000E+00
 -1      2660 3.99000E+01 4.09070E+01 0.00000E+00
 -1      2661 3.76500E+01 3.96080E+01 0.00000E+00
 -1      2662 4.14000E+01 4.09070E+01 0.00000E+00
 -1      2663 4.29000E+01 4.09070E+01 0.00000E+00
 -1      2664 4.06500E+01 3.96080E+01 0.00000E+00
 -1      2665 4.44000E+01 4.09070E+01 0.00000E+00
 -1      2666 4.59000E+01 4.09070E+01 0.00000E+00
 -1      2667 4.36500E+01 3.96080E+01 0.00000E+00
 -1      2668 4.74000E+01 4.09070E+01 0.00000E+00
 -1      2669 4.89000E+01 4.09070E+01 0.00000E+00
 -1      2670 4.66500E+01 3.96080E+01 0.00000E+00
 -1      2671 5.04000E+01 4.09070E+01 0.00000E+00
 -1      2672 5.19000E+01 4.09070E+01 0.00000E+00
 -1      2673 4.96500E+01 3.96080E+01 0.00000E+00
 -1      2674 5.34000E+01 4.09070E+01 0.00000E+00
 -1      2675 5.49000E+01 4.09070E+01 0.00000E+00
 -1      2676 5.26500E+01 3.96080E+01 0.00000E+00
 -1      2677 5.64000E+01 4.09070E+01 0.00000E+00
 -1      2678 5.79000E+01 4.09070E+01 0.00000E+00
 -1      2679 5.56500E+01 3.96080E+01 0.00000E+00
 -1      2680 5.94000E+01 4.09070E+01 0.00000E+00
 -1      2681 6.09000E+01 4.09070E+01 0.00000E+00
 -1      2682 5.86500E+01 3.96080E+01 0.00000E+00
 -1      2683 6.24000E+01 4.09070E+01 0.00000E+00
 -1      2684 6.39000E+01 4.09070E+01 0.00000E+00
 -1      2685 6.16500E+01 3.96080E+01 0.00000E+00
 -1      2686 6.54000E+01 4.09070E+01 0.00000E+00
 -1      2687 6.69000E+01 4.09070E+01 0.00000E+00
 -1      2688 6.46500E+01 3.96080E+01 0.00000E+00
 -1      2689 6.84000E+01 4.09070E+01 0.00000E+00
 -1      2690 6.99000E+01 4.09070E+01 0.00000E+00
 -1      2691 6.76500E+01 3.96080E+01 0.00000E+00
 -1      2692 7.14000E+01 4.09070E+01 0.00000E+00
 -1      2693 7.29000E+01 4.09070E+01 0.00000E+00
 -1      2694 7.06500E+01 3.96080E+01 0.00000E+00
 -1      2695 7.44000E+01 4.09070E+01 0.00000E+00
 -1      2696 7.59000E+01 4.09070E+01 0.00000E+00
 -1      2697 7.36500E+01 3.96080E+01 0.00000E+00
 -1      2698 7.74000E+01 4.09070E+01 0.00000E+00
 -1      2699 7.89000E+01 4.09070E+01 0.00000E+00
 -1      2700 7.66500E+01 3.96080E+01 0.00000E+00
 -1      2701 8.04000E+01 4.09070E+01 0.00000E+00
 -1      2702 8.19000E+01 4.09070E+01 0.00000E+00
 -1      2703 7.96500E+01 3.96080E+01 0.00000E+00
 -1      2704 8.34000E+01 4.09070E+01 0.00000E+00
 -1      2705 8.49000E+01 4.09070E+01 0.00000E+00
 -1      2706 8.26500E+01 3.96080E+01 0.00000E+00
 -1      2707 8.64000E+01 4.09070E+01 0.00000E+00
 -1      2708 8.79000E+01 4.09070E+01 0.00000E+00
 -1      2709 8.56500E+01 3.96080E+01 0.00000E+00
 -1      2710 8.94000E+01 4.09070E+01 0.00000E+00
 -1      2711 9.09000E+01 4.09070E+01 0.00000E+00
 -1      2712 8.86500E+01 3.96080E+01 0.00000E+00
 -1      2713 9.24000E+01 4.09070E+01 0.00000E+00
 -1      2714 9.39000E+01 4.09070E+01 0.00000E+00
 -1      2715 9.16500E+01 3.96080E+01 0.00000E+00
 -1      2716 9.54000E+01 4.09070E+01 0.00000E+00
 -1      2717 9.69000E+01 4.09070E+01 0.00000E+00
 -1      2718 9.46500E+01 3.96080E+01 0.00000E+00
 -1      2719 9.84000E+01 4.09070E+01 0.00000E+00
 -1      2720 9.99000E+01 4.09070E+01 0.00000E+00
 -1      2721 9.76500E+01 3.96080E+01 0.00000E+00
 -1      2722 1.01400E+02 4.09070E+01 0.00000E+00
 -1      2723 1.02900E+02 4.09070E+01 0.00000E+00
 -1      2724 1.00650E+02 3.96080E+01 0.00000E+00
 -1      2725 1.04400E+02 4.09070E+01 0.00000E+00
 -1      2726 1.05900E+02 4.09070E+01 0.00000E+00
 -1      2727 1.03650E+02 3.96080E+01 0.00000E+00
 -1      2728 1.07400E+02 4.09070E+01 0.00000E+00
 -1      2729 1.08900E+02 4.09070E+01 0.00000E+00
 -1      2730 1.06650E+02 3.96080E+01 0.00000E+00
 -1      2731 1.10400E+02 4.09070E+01 0.00000E+00
 -1      2732 1.11900E+02 4.09070E+01 0.00000E+00
 -1      2733 1.09650E+02 3.96080E+01 0.00000E+00
 -1      2734 1.13400E+02 4.09070E+01 0.00000E+00
 -1      2735 1.14900E+02 4.09070E+01 0.00000E+00
 -1      2736 1.12650E+02 3.96080E+01 0.00000E+00
 -1      2737 1.16400E+02 4.09070E+01 0.00000E+00
 -1      2738 1.17900E+02 4.09070E+01 0.00000E+00
 -1      2739 1.15650E+02 3.96080E+01 0.00000E+00
 -1      2740 1.19400E+02 4.09070E+01 0.00000E+00
 -1      2741 1.20900E+02 4.09070E+01 0.00000E+00
 -1      2742 1.18650E+02 3.96080E+01 0.00000E+00
 -1      2743 1.22400E+02 4.09070E+01 0.00000E+00
 -1      2744 1.23900E+02 4.09070E+01 0.00000E+00
 -1      2745 1.21650E+02 3.96080E+01 0.00000E+00
 -1      2746 1.25400E+02 4.09070E+01 0.00000E+00
 -1      2747 1.26900E+02 4.09070E+01 0.00000E+00
 -1      2748 1.24650E+02 3.96080E+01 0.00000E+00
 -1      2749 1.28400E+02 4.09070E+01 0.00000E+00
 -1      2750 1.29900E+02 4.09070E+01 0.00000E+00
 -1      2751 1.27650E+02 3.96080E+01 0.00000E+00
 -1      2752 1.31400E+02 4.09070E+01 0.00000E+00
 -1      2753 1.32900E+02 4.09070E+01 0.00000E+00
 -1      2754 1.30650E+02 3.96080E+01 0.00000E+00
 -1      2755 1.34400E+02 4.09070E+01 0.00000E+00
 -1      2756 1.35900E+02 4.09070E+01 0.00000E+00
 -1      2757 1.33650E+02 3.96080E+01 0.00000E+00
 -1      2758 1.37400E+02 4.09070E+01 0.00000E+00
 -1      2759 1.38900E+02 4.09070E+01 0.00000E+00
 -1      2760 1.36650E+02 3.96080E+01 0.00000E+00
 -1      2761 2.36080E+01 8.94078E+00 0.00000E+00
 -1      2762 2.21080E+01 8.94078E+00 0.00000E+00
 -1      2763 2.86910E+01 2.05738E+01 0.00000E+00
 -1      2764 2.86182E+01 2.17476E+01 0.00000E+00
 -1      2765 3.00111E+01 7.94700E+00 0.00000E+00
 -1      2766 2.85111E+01 7.94700E+00 0.00000E+00
 -1      2767 2.77611E+01 9.24600E+00 0.00000E+00
 -1      2768 3.30111E+01 7.94700E+00 0.00000E+00
 -1      2769 3.15111E+01 7.94700E+00 0.00000E+00
 -1      2770 3.07611E+01 9.24600E+00 0.00000E+00
 -1      2771 3.60111E+01 7.94700E+00 0.00000E+00
 -1      2772 3.45111E+01 7.94700E+00 0.00000E+00
 -1      2773 3.37611E+01 9.24600E+00 0.00000E+00
 -1      2774 3.90111E+01 7.94700E+00 0.00000E+00
 -1      2775 3.75111E+01 7.94700E+00 0.00000E+00
 -1      2776 3.67611E+01 9.24600E+00 0.00000E+00
 -1      2777 4.20111E+01 7.94700E+00 0.00000E+00
 -1      2778 4.05111E+01 7.94700E+00 0.00000E+00
 -1      2779 3.97611E+01 9.24600E+00 0.00000E+00
 -1      2780 4.50111E+01 7.94700E+00 0.00000E+00
 -1      2781 4.35111E+01 7.94700E+00 0.00000E+00
 -1      2782 4.27611E+01 9.24600E+00 0.00000E+00
 -1      2783 4.80111E+01 7.94700E+00 0.00000E+00
 -1      2784 4.65111E+01 7.94700E+00 0.00000E+00
 -1      2785 4.57611E+01 9.24600E+00 0.00000E+00
 -1      2786 5.10111E+01 7.94700E+00 0.00000E+00
 -1      2787 4.95111E+01 7.94700E+00 0.00000E+00
 -1      2788 4.87611E+01 9.24600E+00 0.00000E+00
 -1      2789 5.40111E+01 7.94700E+00 0.00000E+00
 -1      2790 5.25111E+01 7.94700E+00 0.00000E+00
 -1      2791 5.17611E+01 9.24600E+00 0.00000E+00
 -1      2792 5.70111E+01 7.94700E+00 0.00000E+00
 -1      2793 5.55111E+01 7.94700E+00 0.00000E+00
 -1      2794 5.47611E+01 9.24600E+00 0.00000E+00
 -1      2795 6.00111E+01 7.94700E+00 0.00000E+00
 -1      2796 5.85111E+01 7.94700E+00 0.00000E+00
 -1      2797 5.77611E+01 9.24600E+00 0.00000E+00
 -1      2798 6.30111E+01 7.94700E+00 0.00000E+00
 -1      2799 6.15111E+01 7.94700E+00 0.00000E+00
 -1      2800 6.07611E+01 9.24600E+00 0.00000E+00
 -1      2801 6.60111E+01 7.94700E+00 0.00000E+00
 -1      2802 6.45111E+01 7.94700E+00 0.00000E+00
 -1      2803 6.37611E+01 9.24600E+00 0.00000E+00
 -1      2804 6.90111E+01 7.94700E+00 0.00000E+00
 -1      2805 6.75111E+01 7.94700E+00 0.00000E+00
 -1      2806 6.67611E+01 9.24600E+00 0.00000E+00
 -1      2807 7.20111E+01 7.94700E+00 0.00000E+00
 -1      2808 7.05111E+01 7.94700E+00 0.00000E+00
 -1      2809 6.97611E+01 9.24600E+00 0.00000E+00
 -1      2810 7.50111E+01 7.94700E+00 0.00000E+00
 -1      2811 7.35111E+01 7.94700E+00 0.00000E+00
 -1      2812 7.27611E+01 9.24600E+00 0.00000E+00
 -1      2813 7.80111E+01 7.94700E+00 0.00000E+00
 -1      2814 7.65111E+01 7.94700E+00 0.00000E+00
 -1      2815 7.57611E+01 9.24600E+00 0.00000E+00
 -1      2816 8.10111E+01 7.94700E+00 0.00000E+00
 -1      2817 7.95111E+01 7.94700E+00 0.00000E+00
 -1      2818 7.87611E+01 9.24600E+00 0.00000E+00
 -1      2819 8.40111E+01 7.94700E+00 0.00000E+00
 -1      2820 8.25111E+01 7.94700E+00 0.00000E+00
 -1      2821 8.17611E+01 9.24600E+00 0.00000E+00
 -1      2822 8.70111E+01 7.94700E+00 0.00000E+00
 -1      2823 8.55111E+01 7.94700E+00 0.00000E+00
 -1      2824 8.47611E+01 9.24600E+00 0.00000E+00
 -1      2825 9.00111E+01 7.94700E+00 0.00000E+00
 -1      2826 8.85111E+01 7.94700E+00 0.00000E+00
 -1      2827 8.77611E+01 9.24600E+00 0.00000E+00
 -1      2828 9.30111E+01 7.94700E+00 0.00000E+00
 -1      2829 9.15111E+01 7.94700E+00 0.00000E+00
 -1      2830 9.07611E+01 9.24600E+00 0.00000E+00
 -1      2831 9.60111E+01 7.94700E+00 0.00000E+00
 -1      2832 9.45111E+01 7.94700E+00 0.00000E+00
 -1      2833 9.37611E+01 9.24600E+00 0.00000E+00
 -1      2834 9.90111E+01 7.94700E+00 0.00000E+00
 -1      2835 9.75111E+01 7.94700E+00 0.00000E+00
 -1      2836 9.67611E+01 9.24600E+00 0.00000E+00
 -1      2837 1.02011E+02 7.94700E+00 0.00000E+00
 -1      2838 1.00511E+02 7.94700E+00 0.00000E+00
 -1      2839 9.97611E+01 9.24600E+00 0.00000E+00
 -1      2840 1.05011E+02 7.94700E+00 0.00000E+00
 -1      2841 1.03511E+02 7.94700E+00 0.00000E+00
 -1      2842 1.02761E+02 9.24600E+00 0.00000E+00
 -1      2843 1.08011E+02 7.94700E+00 0.00000E+00
 -1      2844 1.06511E+02 7.94700E+00 0.00000E+00
 -1      2845 1.05761E+02 9.24600E+00 0.00000E+00
 -1      2846 1.11011E+02 7.94700E+00 0.00000E+00
 -1      2847 1.09511E+02 7.94700E+00 0.00000E+00
 -1      2848 1.08761E+02 9.24600E+00 0.00000E+00
 -1      2849 1.14011E+02 7.94700E+00 0.00000E+00
 -1      2850 1.12511E+02 7.94700E+00 0.00000E+00
 -1      2851 1.11761E+02 9.24600E+00 0.00000E+00
 -1      2852 1.17011E+02 7.94700E+00 0.00000E+00
 -1      2853 1.15511E+02 7.94700E+00 0.00000E+00
 -1      2854 1.14761E+02 9.24600E+00 0.00000E+00
 -1      2855 1.20011E+02 7.94700E+00 0.00000E+00
 -1      2856 1.18511E+02 7.94700E+00 0.00000E+00
 -1      2857 1.17761E+02 9.24600E+00 0.00000E+00
 -1      2858 1.23011E+02 7.94700E+00 0.00000E+00
 -1      2859 1.21511E+02 7.94700E+00 0.00000E+00
 -1      2860 1.20761E+02 9.24600E+00 0.00000E+00
 -1      2861 1.26011E+02 7.94700E+00 0.00000E+00
 -1      2862 1.24511E+02 7.94700E+00 0.00000E+00
 -1      2863 1.23761E+02 9.24600E+00 0.00000E+00
 -1      2864 1.29011E+02 7.94700E+00 0.00000E+00
 -1      2865 1.27511E+02 7.94700E+00 0.00000E+00
 -1      2866 1.26761E+02 9.24600E+00 0.00000E+00
 -1      2867 1.32011E+02 7.94700E+00 0.00000E+00
 -1      2868 1.30511E+02 7.94700E+00 0.00000E+00
 -1      2869 1.29761E+02 9.24600E+00 0.00000E+00
 -1      2870 1.35011E+02 7.94700E+00 0.00000E+00
 -1      2871 1.33511E+02 7.94700E+00 0.00000E+00
 -1      2872 1.32761E+02 9.24600E+00 0.00000E+00
 -1      2873 1.38011E+02 7.94700E+00 0.00000E+00
 -1      2874 1.36511E+02 7.94700E+00 0.00000E+00
 -1      2875 1.35761E+02 9.24600E+00 0.00000E+00
 -1      2876 1.40747E+02 8.21675E+00 0.00000E+00
 -1      2877 1.39247E+02 8.21675E+00 0.00000E+00
 -1      2878 1.38497E+02 9.51575E+00 0.00000E+00
 -1      2879 1.40970E+02 1.00553E+01 0.00000E+00
 -1      2880 1.40907E+02 2.42875E+01 0.00000E+00
 -1      2881 1.40907E+02 2.28125E+01 0.00000E+00
 -1      2882 1.39914E+02 4.09362E+01 0.00000E+00
 -1      2883 1.40928E+02 4.09655E+01 0.00000E+00
 -1      2884 1.39164E+02 3.96372E+01 0.00000E+00
 -1      2885 1.40907E+02 1.83875E+01 0.00000E+00
 -1      2886 1.40907E+02 1.69125E+01 0.00000E+00
 -1      2887 1.40907E+02 2.72375E+01 0.00000E+00
 -1      2888 1.40907E+02 2.57625E+01 0.00000E+00
 -1      2889 1.39608E+02 2.50250E+01 0.00000E+00
 -1      2890 1.40907E+02 2.13375E+01 0.00000E+00
 -1      2891 1.40907E+02 1.98625E+01 0.00000E+00
 -1      2892 1.39608E+02 1.91250E+01 0.00000E+00
 -1      2893 1.39608E+02 2.20750E+01 0.00000E+00
 -1      2894 1.40907E+02 3.01375E+01 0.00000E+00
 -1      2895 1.40907E+02 2.86875E+01 0.00000E+00
 -1      2896 1.39608E+02 2.79500E+01 0.00000E+00
 -1      2897 1.40907E+02 3.30875E+01 0.00000E+00
 -1      2898 1.40907E+02 3.16125E+01 0.00000E+00
 -1      2899 1.39608E+02 3.08750E+01 0.00000E+00
 -1      2900 1.40907E+02 3.60375E+01 0.00000E+00
 -1      2901 1.40907E+02 3.45625E+01 0.00000E+00
 -1      2902 1.39608E+02 3.38250E+01 0.00000E+00
 -1      2903 2.82582E+01 2.32604E+01 0.00000E+00
 -1      2904 2.77461E+01 2.45194E+01 0.00000E+00
 -1      2905 1.41192E+02 3.96958E+01 0.00000E+00
 -1      2906 2.64018E+01 2.82042E+01 0.00000E+00
 -1      2907 2.56556E+01 2.93330E+01 0.00000E+00
 -1      2908 2.24446E+01 3.20324E+01 0.00000E+00
 -1      2909 2.10154E+01 3.25313E+01 0.00000E+00
 -1      2910 8.74625E+00 8.87500E+00 0.00000E+00
 -1      2911 8.06015E+00 1.12104E+01 0.00000E+00
 -1      2912 2.68966E+01 1.54838E+01 0.00000E+00
 -1      2913 2.73033E+01 1.67220E+01 0.00000E+00
 -1      2914 2.58918E+01 1.30878E+01 0.00000E+00
 -1      2915 2.64035E+01 1.42144E+01 0.00000E+00
 -1      2916 1.89519E+01 9.07639E+00 0.00000E+00
 -1      2917 1.99136E+01 9.40839E+00 0.00000E+00
 -1      2918 8.35978E+00 3.25862E+01 0.00000E+00
 -1      2919 1.35000E+01 6.52500E+00 0.00000E+00
 -1      2920 1.20000E+01 6.52500E+00 0.00000E+00
 -1      2921 1.17462E+01 7.35000E+00 0.00000E+00
 -1      2922 1.68286E+01 3.31906E+01 0.00000E+00
 -1      2923 1.54688E+01 3.31366E+01 0.00000E+00
 -1      2924 1.95467E+01 3.27876E+01 0.00000E+00
 -1      2925 1.83520E+01 3.30592E+01 0.00000E+00
 -1      2926 2.73270E+01 2.56134E+01 0.00000E+00
 -1      2927 2.69080E+01 2.67073E+01 0.00000E+00
 -1      2928 2.84550E+01 2.53386E+01 0.00000E+00
 -1      2929 1.19446E+01 3.21668E+01 0.00000E+00
 -1      2930 1.09749E+01 3.16804E+01 0.00000E+00
 -1      2931 1.02754E+01 3.23088E+01 0.00000E+00
 -1      2932 1.39044E+01 9.08600E+00 0.00000E+00
 -1      2933 1.51124E+01 9.12825E+00 0.00000E+00
 -1      2934 1.14000E+01 4.09070E+01 0.00000E+00
 -1      2935 1.29000E+01 4.09070E+01 0.00000E+00
 -1      2936 1.36500E+01 3.96080E+01 0.00000E+00
 -1      2937 2.46396E+01 3.03381E+01 0.00000E+00
 -1      2938 2.38927E+01 3.10862E+01 0.00000E+00
 -1      2939 1.41268E+01 3.27973E+01 0.00000E+00
 -1      2940 1.30357E+01 3.24820E+01 0.00000E+00
 -1      2941 1.23362E+01 3.31104E+01 0.00000E+00
 -1      2942 8.91610E+00 4.04195E+01 0.00000E+00
 -1      2943 1.02796E+01 4.07460E+01 0.00000E+00
 -1      2944 1.10296E+01 3.94470E+01 0.00000E+00
 -1      2945 8.78881E+00 3.91250E+01 0.00000E+00
 -1      2946 2.43580E+01 1.02398E+01 0.00000E+00
 -1      2947 2.55582E+01 1.10625E+01 0.00000E+00
 -1      2948 8.52272E+00 3.41063E+01 0.00000E+00
 -1      2949 8.52272E+00 3.56188E+01 0.00000E+00
 -1      2950 2.81790E+01 1.71532E+01 0.00000E+00
 -1      2951 1.47693E+01 3.37649E+01 0.00000E+00
 -1      2952 2.90187E+01 1.98450E+01 0.00000E+00
 -1      2953 2.99218E+01 2.04902E+01 0.00000E+00
 -1      2954 2.93464E+01 1.91163E+01 0.00000E+00
 -1      2955 1.57427E+01 8.43877E+00 0.00000E+00
 -1      2956 1.40907E+02 1.54500E+01 0.00000E+00
 -1      2957 1.40907E+02 1.39875E+01 0.00000E+00
 -1      2958 1.39608E+02 1.61875E+01 0.00000E+00
 -1      2959 2.09447E+01 8.49670E+00 0.00000E+00
 -1      2960 2.92341E+01 2.27318E+01 0.00000E+00
 -1      2961 2.60077E+01 3.04314E+01 0.00000E+00
 -1      2962 1.40938E+02 1.27526E+01 0.00000E+00
 -1      2963 1.40938E+02 1.12901E+01 0.00000E+00
 -1      2964 1.39702E+02 1.10204E+01 0.00000E+00
 -1      2965 1.39639E+02 1.34901E+01 0.00000E+00
 -1      2966 2.35436E+01 3.23826E+01 0.00000E+00
 -1      2967 1.78526E+01 7.67959E+00 0.00000E+00
 -1      2968 1.66007E+01 7.44259E+00 0.00000E+00
 -1      2969 1.41192E+02 3.82207E+01 0.00000E+00
 -1      2970 2.75298E+01 2.79294E+01 0.00000E+00
 -1      2971 2.06268E+01 3.35851E+01 0.00000E+00
 -1      2972 9.46869E+00 3.33424E+01 0.00000E+00
 -1      2973 2.74216E+01 1.45659E+01 0.00000E+00
 -1      2974 9.06414E+00 1.05209E+01 0.00000E+00
 -1      2975 1.76347E+01 3.39727E+01 0.00000E+00
 -1      2976 1.32569E+01 8.67782E+00 0.00000E+00
 -1      2977 1.38938E+01 7.75818E+00 0.00000E+00
 -1      2978 1.12143E+01 9.49220E+00 0.00000E+00
 -1      2979 1.24070E+01 9.17415E+00 0.00000E+00
 -1      2980 1.39529E+02 3.85602E+01 0.00000E+00
 -1      2981 1.40542E+02 3.71145E+01 0.00000E+00
 -1      2982 1.39243E+02 3.63770E+01 0.00000E+00
 -1      2983 1.38514E+02 3.85310E+01 0.00000E+00
 -1      2984 1.05641E+01 8.99587E+00 0.00000E+00
 -1      2985 2.90520E+01 1.62927E+01 0.00000E+00
 -1      2986 2.93162E+01 1.76106E+01 0.00000E+00
 -1      2987 3.45111E+01 1.05450E+01 0.00000E+00
 -1      2988 3.30111E+01 1.05450E+01 0.00000E+00
 -1      2989 1.53994E+01 7.17018E+00 0.00000E+00
 -1      2990 3.15111E+01 1.05450E+01 0.00000E+00
 -1      2991 3.00111E+01 1.05450E+01 0.00000E+00
 -1      2992 3.22611E+01 1.18440E+01 0.00000E+00
 -1      2993 2.07300E+01 7.55969E+00 0.00000E+00
 -1      2994 1.89000E+01 3.83090E+01 0.00000E+00
 -1      2995 2.04000E+01 3.83090E+01 0.00000E+00
 -1      2996 2.19000E+01 3.83090E+01 0.00000E+00
 -1      2997 2.34000E+01 3.83090E+01 0.00000E+00
 -1      2998 2.11500E+01 3.70100E+01 0.00000E+00
 -1      2999 2.49000E+01 3.83090E+01 0.00000E+00
 -1      3000 2.64000E+01 3.83090E+01 0.00000E+00
 -1      3001 2.41500E+01 3.70100E+01 0.00000E+00
 -1      3002 2.79000E+01 3.83090E+01 0.00000E+00
 -1      3003 2.94000E+01 3.83090E+01 0.00000E+00
 -1      3004 2.71500E+01 3.70100E+01 0.00000E+00
 -1      3005 3.09000E+01 3.83090E+01 0.00000E+00
 -1      3006 3.24000E+01 3.83090E+01 0.00000E+00
 -1      3007 3.01500E+01 3.70100E+01 0.00000E+00
 -1      3008 3.39000E+01 3.83090E+01 0.00000E+00
 -1      3009 3.54000E+01 3.83090E+01 0.00000E+00
 -1      3010 3.31500E+01 3.70100E+01 0.00000E+00
 -1      3011 3.69000E+01 3.83090E+01 0.00000E+00
 -1      3012 3.84000E+01 3.83090E+01 0.00000E+00
 -1      3013 3.61500E+01 3.70100E+01 0.00000E+00
 -1      3014 3.99000E+01 3.83090E+01 0.00000E+00
 -1      3015 4.14000E+01 3.83090E+01 0.00000E+00
 -1      3016 3.91500E+01 3.70100E+01 0.00000E+00
 -1      3017 4.29000E+01 3.83090E+01 0.00000E+00
 -1      3018 4.44000E+01 3.83090E+01 0.00000E+00
 -1      3019 4.21500E+01 3.70100E+01 0.00000E+00
 -1      3020 4.59000E+01 3.83090E+01 0.00000E+00
 -1      3021 4.74000E+01 3.83090E+01 0.00000E+00
 -1      3022 4.51500E+01 3.70100E+01 0.00000E+00
 -1      3023 4.89000E+01 3.83090E+01 0.00000E+00
 -1      3024 5.04000E+01 3.83090E+01 0.00000E+00
 -1      3025 4.81500E+01 3.70100E+01 0.00000E+00
 -1      3026 5.19000E+01 3.83090E+01 0.00000E+00
 -1      3027 5.34000E+01 3.83090E+01 0.00000E+00
 -1      3028 5.11500E+01 3.70100E+01 0.00000E+00
 -1      3029 5.49000E+01 3.83090E+01 0.00000E+00
 -1      3030 5.64000E+01 3.83090E+01 0.00000E+00
 -1      3031 5.41500E+01 3.70100E+01 0.00000E+00
 -1      3032 5.79000E+01 3.83090E+01 0.00000E+00
 -1      3033 5.94000E+01 3.83090E+01 0.00000E+00
 -1      3034 5.71500E+01 3.70100E+01 0.00000E+00
 -1      3035 6.09000E+01 3.83090E+01 0.00000E+00
 -1      3036 6.24000E+01 3.83090E+01 0.00000E+00
 -1      3037 6.01500E+01 3.70100E+01 0.00000E+00
 -1      3038 6.39000E+01 3.83090E+01 0.00000E+00
 -1      3039 6.54000E+01 3.83090E+01 0.00000E+00
 -1      3040 6.31500E+01 3.70100E+01 0.00000E+00
 -1      3041 6.69000E+01 3.83090E+01 0.00000E+00
 -1      3042 6.84000E+01 3.83090E+01 0.00000E+00
 -1      3043 6.61500E+01 3.70100E+01 0.00000E+00
 -1      3044 6.99000E+01 3.83090E+01 0.00000E+00
 -1      3045 7.14000E+01 3.83090E+01 0.00000E+00
 -1      3046 6.91500E+01 3.70100E+01 0.00000E+00
 -1      3047 7.29000E+01 3.83090E+01 0.00000E+00
 -1      3048 7.44000E+01 3.83090E+01 0.00000E+00
 -1      3049 7.21500E+01 3.70100E+01 0.00000E+00
 -1      3050 7.59000E+01 3.83090E+01 0.00000E+00
 -1      3051 7.74000E+01 3.83090E+01 0.00000E+00
 -1      3052 7.51500E+01 3.70100E+01 0.00000E+00
 -1      3053 7.89000E+01 3.83090E+01 0.00000E+00
 -1      3054 8.04000E+01 3.83090E+01 0.00000E+00
 -1      3055 7.81500E+01 3.70100E+01 0.00000E+00
 -1      3056 8.19000E+01 3.83090E+01 0.00000E+00
 -1      3057 8.34000E+01 3.83090E+01 0.00000E+00
 -1      3058 8.11500E+01 3.70100E+01 0.00000E+00
 -1      3059 8.49000E+01 3.83090E+01 0.00000E+00
 -1      3060 8.64000E+01 3.83090E+01 0.00000E+00
 -1      3061 8.41500E+01 3.70100E+01 0.00000E+00
 -1      3062 8.79000E+01 3.83090E+01 0.00000E+00
 -1      3063 8.94000E+01 3.83090E+01 0.00000E+00
 -1      3064 8.71500E+01 3.70100E+01 0.00000E+00
 -1      3065 9.09000E+01 3.83090E+01 0.00000E+00
 -1      3066 9.24000E+01 3.83090E+01 0.00000E+00
 -1      3067 9.01500E+01 3.70100E+01 0.00000E+00
 -1      3068 9.39000E+01 3.83090E+01 0.00000E+00
 -1      3069 9.54000E+01 3.83090E+01 0.00000E+00
 -1      3070 9.31500E+01 3.70100E+01 0.00000E+00
 -1      3071 9.69000E+01 3.83090E+01 0.00000E+00
 -1      3072 9.84000E+01 3.83090E+01 0.00000E+00
 -1      3073 9.61500E+01 3.70100E+01 0.00000E+00
 -1      3074 9.99000E+01 3.83090E+01 0.00000E+00
 -1      3075 1.01400E+02 3.83090E+01 0.00000E+00
 -1      3076 9.91500E+01 3.70100E+01 0.00000E+00
 -1      3077 1.02900E+02 3.83090E+01 0.00000E+00
 -1      3078 1.04400E+02 3.83090E+01 0.00000E+00
 -1      3079 1.02150E+02 3.70100E+01 0.00000E+00
 -1      3080 1.05900E+02 3.83090E+01 0.00000E+00
 -1      3081 1.07400E+02 3.83090E+01 0.00000E+00
 -1      3082 1.05150E+02 3.70100E+01 0.00000E+00
 -1      3083 1.08900E+02 3.83090E+01 0.00000E+00
 -1      3084 1.10400E+02 3.83090E+01 0.00000E+00
 -1      3085 1.08150E+02 3.70100E+01 0.00000E+00
 -1      3086 1.11900E+02 3.83090E+01 0.00000E+00
 -1      3087 1.13400E+02 3.83090E+01 0.00000E+00
 -1      3088 1.11150E+02 3.70100E+01 0.00000E+00
 -1      3089 1.14900E+02 3.83090E+01 0.00000E+00
 -1      3090 1.16400E+02 3.83090E+01 0.00000E+00
 -1      3091 1.14150E+02 3.70100E+01 0.00000E+00
 -1      3092 1.17900E+02 3.83090E+01 0.00000E+00
 -1      3093 1.19400E+02 3.83090E+01 0.00000E+00
 -1      3094 1.17150E+02 3.70100E+01 0.00000E+00
 -1      3095 1.20900E+02 3.83090E+01 0.00000E+00
 -1      3096 1.22400E+02 3.83090E+01 0.00000E+00
 -1      3097 1.20150E+02 3.70100E+01 0.00000E+00
 -1      3098 1.23900E+02 3.83090E+01 0.00000E+00
 -1      3099 1.25400E+02 3.83090E+01 0.00000E+00
 -1      3100 1.23150E+02 3.70100E+01 0.00000E+00
 -1      3101 1.26900E+02 3.83090E+01 0.00000E+00
 -1      3102 1.28400E+02 3.83090E+01 0.00000E+00
 -1      3103 1.26150E+02 3.70100E+01 0.00000E+00
 -1      3104 1.29900E+02 3.83090E+01 0.00000E+00
 -1      3105 1.31400E+02 3.83090E+01 0.00000E+00
 -1      3106 1.29150E+02 3.70100E+01 0.00000E+00
 -1      3107 1.32900E+02 3.83090E+01 0.00000E+00
 -1      3108 1.34400E+02 3.83090E+01 0.00000E+00
 -1      3109 1.32150E+02 3.70100E+01 0.00000E+00
 -1      3110 1.35707E+02 3.84200E+01 0.00000E+00
 -1      3111 1.37207E+02 3.84200E+01 0.00000E+00
 -1      3112 1.37572E+02 3.73430E+01 0.00000E+00
 -1      3113 1.34957E+02 3.71210E+01 0.00000E+00
 -1      3114 1.92300E+01 7.55969E+00 0.00000E+00
 -1      3115 3.75111E+01 1.05450E+01 0.00000E+00
 -1      3116 3.60111E+01 1.05450E+01 0.00000E+00
 -1      3117 3.52611E+01 1.18440E+01 0.00000E+00
 -1      3118 4.05111E+01 1.05450E+01 0.00000E+00
 -1      3119 3.90111E+01 1.05450E+01 0.00000E+00
 -1      3120 3.82611E+01 1.18440E+01 0.00000E+00
 -1      3121 4.35111E+01 1.05450E+01 0.00000E+00
 -1      3122 4.20111E+01 1.05450E+01 0.00000E+00
 -1      3123 4.12611E+01 1.18440E+01 0.00000E+00
 -1      3124 4.65111E+01 1.05450E+01 0.00000E+00
 -1      3125 4.50111E+01 1.05450E+01 0.00000E+00
 -1      3126 4.42611E+01 1.18440E+01 0.00000E+00
 -1      3127 4.95111E+01 1.05450E+01 0.00000E+00
 -1      3128 4.80111E+01 1.05450E+01 0.00000E+00
 -1      3129 4.72611E+01 1.18440E+01 0.00000E+00
 -1      3130 5.25111E+01 1.05450E+01 0.00000E+00
 -1      3131 5.10111E+01 1.05450E+01 0.00000E+00
 -1      3132 5.02611E+01 1.18440E+01 0.00000E+00
 -1      3133 5.55111E+01 1.05450E+01 0.00000E+00
 -1      3134 5.40111E+01 1.05450E+01 0.00000E+00
 -1      3135 5.32611E+01 1.18440E+01 0.00000E+00
 -1      3136 5.85111E+01 1.05450E+01 0.00000E+00
 -1      3137 5.70111E+01 1.05450E+01 0.00000E+00
 -1      3138 5.62611E+01 1.18440E+01 0.00000E+00
 -1      3139 6.15111E+01 1.05450E+01 0.00000E+00
 -1      3140 6.00111E+01 1.05450E+01 0.00000E+00
 -1      3141 5.92611E+01 1.18440E+01 0.00000E+00
 -1      3142 6.45111E+01 1.05450E+01 0.00000E+00
 -1      3143 6.30111E+01 1.05450E+01 0.00000E+00
 -1      3144 6.22611E+01 1.18440E+01 0.00000E+00
 -1      3145 6.75111E+01 1.05450E+01 0.00000E+00
 -1      3146 6.60111E+01 1.05450E+01 0.00000E+00
 -1      3147 6.52611E+01 1.18440E+01 0.00000E+00
 -1      3148 7.05111E+01 1.05450E+01 0.00000E+00
 -1      3149 6.90111E+01 1.05450E+01 0.00000E+00
 -1      3150 6.82611E+01 1.18440E+01 0.00000E+00
 -1      3151 7.35111E+01 1.05450E+01 0.00000E+00
 -1      3152 7.20111E+01 1.05450E+01 0.00000E+00
 -1      3153 7.12611E+01 1.18440E+01 0.00000E+00
 -1      3154 7.65111E+01 1.05450E+01 0.00000E+00
 -1      3155 7.50111E+01 1.05450E+01 0.00000E+00
 -1      3156 7.42611E+01 1.18440E+01 0.00000E+00
 -1      3157 7.95111E+01 1.05450E+01 0.00000E+00
 -1      3158 7.80111E+01 1.05450E+01 0.00000E+00
 -1      3159 7.72611E+01 1.18440E+01 0.00000E+00
 -1      3160 8.25111E+01 1.05450E+01 0.00000E+00
 -1      3161 8.10111E+01 1.05450E+01 0.00000E+00
 -1      3162 8.02611E+01 1.18440E+01 0.00000E+00
 -1      3163 8.55111E+01 1.05450E+01 0.00000E+00
 -1      3164 8.40111E+01 1.05450E+01 0.00000E+00
 -1      3165 8.32611E+01 1.18440E+01 0.00000E+00
 -1      3166 8.85111E+01 1.05450E+01 0.00000E+00
 -1      3167 8.70111E+01 1.05450E+01 0.00000E+00
 -1      3168 8.62611E+01 1.18440E+01 0.00000E+00
 -1      3169 9.15111E+01 1.05450E+01 0.00000E+00
 -1      3170 9.00111E+01 1.05450E+01 0.00000E+00
 -1      3171 8.92611E+01 1.18440E+01 0.00000E+00
 -1      3172 9.45111E+01 1.05450E+01 0.00000E+00
 -1      3173 9.30111E+01 1.05450E+01 0.00000E+00
 -1      3174 9.22611E+01 1.18440E+01 0.00000E+00
 -1      3175 9.75111E+01 1.05450E+01 0.00000E+00
 -1      3176 9.60111E+01 1.05450E+01 0.00000E+00
 -1      3177 9.52611E+01 1.18440E+01 0.00000E+00
 -1      3178 1.00511E+02 1.05450E+01 0.00000E+00
 -1      3179 9.90111E+01 1.05450E+01 0.00000E+00
 -1      3180 9.82611E+01 1.18440E+01 0.00000E+00
 -1      3181 1.03511E+02 1.05450E+01 0.00000E+00
 -1      3182 1.02011E+02 1.05450E+01 0.00000E+00
 -1      3183 1.01261E+02 1.18440E+01 0.00000E+00
 -1      3184 1.06511E+02 1.05450E+01 0.00000E+00
 -1      3185 1.05011E+02 1.05450E+01 0.00000E+00
 -1      3186 1.04261E+02 1.18440E+01 0.00000E+00
 -1      3187 1.09511E+02 1.05450E+01 0.00000E+00
 -1      3188 1.08011E+02 1.05450E+01 0.00000E+00
 -1      3189 1.07261E+02 1.18440E+01 0.00000E+00
 -1      3190 1.12511E+02 1.05450E+01 0.00000E+00
 -1      3191 1.11011E+02 1.05450E+01 0.00000E+00
 -1      3192 1.10261E+02 1.18440E+01 0.00000E+00
 -1      3193 1.15511E+02 1.05450E+01 0.00000E+00
 -1      3194 1.14011E+02 1.05450E+01 0.00000E+00
 -1      3195 1.13261E+02 1.18440E+01 0.00000E+00
 -1      3196 1.18511E+02 1.05450E+01 0.00000E+00
 -1      3197 1.17011E+02 1.05450E+01 0.00000E+00
 -1      3198 1.16261E+02 1.18440E+01 0.00000E+00
 -1      3199 1.21511E+02 1.05450E+01 0.00000E+00
 -1      3200 1.20011E+02 1.05450E+01 0.00000E+00
 -1      3201 1.19261E+02 1.18440E+01 0.00000E+00
 -1      3202 1.24511E+02 1.05450E+01 0.00000E+00
 -1      3203 1.23011E+02 1.05450E+01 0.00000E+00
 -1      3204 1.22261E+02 1.18440E+01 0.00000E+00
 -1      3205 1.27511E+02 1.05450E+01 0.00000E+00
 -1      3206 1.26011E+02 1.05450E+01 0.00000E+00
 -1      3207 1.25261E+02 1.18440E+01 0.00000E+00
 -1      3208 1.30511E+02 1.05450E+01 0.00000E+00
 -1      3209 1.29011E+02 1.05450E+01 0.00000E+00
 -1      3210 1.28261E+02 1.18440E+01 0.00000E+00
 -1      3211 1.33511E+02 1.05450E+01 0.00000E+00
 -1      3212 1.32011E+02 1.05450E+01 0.00000E+00
 -1      3213 1.31261E+02 1.18440E+01 0.00000E+00
 -1      3214 1.36511E+02 1.05450E+01 0.00000E+00
 -1      3215 1.35011E+02 1.05450E+01 0.00000E+00
 -1      3216 1.34261E+02 1.18440E+01 0.00000E+00
 -1      3217 1.38725E+02 1.09176E+01 0.00000E+00
 -1      3218 1.37489E+02 1.06478E+01 0.00000E+00
 -1      3219 1.36739E+02 1.19468E+01 0.00000E+00
 -1      3220 1.38693E+02 1.21524E+01 0.00000E+00
 -1      3221 1.59000E+01 3.83090E+01 0.00000E+00
 -1      3222 1.74000E+01 3.83090E+01 0.00000E+00
 -1      3223 1.81500E+01 3.70100E+01 0.00000E+00
 -1      3224 1.38309E+02 3.45625E+01 0.00000E+00
 -1      3225 1.38309E+02 3.30875E+01 0.00000E+00
 -1      3226 1.38309E+02 2.57625E+01 0.00000E+00
 -1      3227 1.38309E+02 2.42875E+01 0.00000E+00
 -1      3228 1.83215E+01 8.59128E+00 0.00000E+00
 -1      3229 1.04384E+01 3.38288E+01 0.00000E+00
 -1      3230 2.74134E+01 3.08364E+01 0.00000E+00
 -1      3231 2.63973E+01 3.18414E+01 0.00000E+00
 -1      3232 2.87540E+01 2.75093E+01 0.00000E+00
 -1      3233 2.82479E+01 2.90062E+01 0.00000E+00
 -1      3234 1.41475E+01 6.93318E+00 0.00000E+00
 -1      3235 8.59212E+00 3.67246E+01 0.00000E+00
 -1      3236 8.71941E+00 3.80191E+01 0.00000E+00
 -1      3237 9.83981E+00 3.81801E+01 0.00000E+00
 -1      3238 9.70103E+00 3.59684E+01 0.00000E+00
 -1      3239 1.52096E+01 3.48472E+01 0.00000E+00
 -1      3240 1.38676E+01 3.45079E+01 0.00000E+00
 -1      3241 2.49658E+01 3.29781E+01 0.00000E+00
 -1      3242 2.35178E+01 3.39243E+01 0.00000E+00
 -1      3243 2.65948E+01 1.12712E+01 0.00000E+00
 -1      3244 1.38309E+02 2.86625E+01 0.00000E+00
 -1      3245 1.38309E+02 2.72125E+01 0.00000E+00
 -1      3246 1.37010E+02 2.64750E+01 0.00000E+00
 -1      3247 2.95436E+01 2.51283E+01 0.00000E+00
 -1      3248 2.91245E+01 2.62223E+01 0.00000E+00
 -1      3249 1.15295E+01 3.41441E+01 0.00000E+00
 -1      3250 1.07227E+01 3.51777E+01 0.00000E+00
 -1      3251 1.26206E+01 3.44593E+01 0.00000E+00
 -1      3252 1.79040E+01 3.54256E+01 0.00000E+00
 -1      3253 1.63807E+01 3.55571E+01 0.00000E+00
 -1      3254 2.79744E+01 1.36207E+01 0.00000E+00
 -1      3255 2.84675E+01 1.48901E+01 0.00000E+00
 -1      3256 2.80948E+01 1.12712E+01 0.00000E+00
 -1      3257 2.08728E+01 3.51694E+01 0.00000E+00
 -1      3258 1.94040E+01 3.54256E+01 0.00000E+00
 -1      3259 1.38309E+02 3.16125E+01 0.00000E+00
 -1      3260 1.38309E+02 3.01375E+01 0.00000E+00
 -1      3261 1.37010E+02 2.94000E+01 0.00000E+00
 -1      3262 1.37010E+02 3.23500E+01 0.00000E+00
 -1      3263 1.32289E+01 3.75991E+01 0.00000E+00
 -1      3264 1.47289E+01 3.75991E+01 0.00000E+00
 -1      3265 3.05744E+01 2.22515E+01 0.00000E+00
 -1      3266 3.02144E+01 2.37643E+01 0.00000E+00
 -1      3267 3.02194E+01 1.82558E+01 0.00000E+00
 -1      3268 1.38309E+02 1.69188E+01 0.00000E+00
 -1      3269 1.38309E+02 1.54563E+01 0.00000E+00
 -1      3270 1.54789E+01 3.63001E+01 0.00000E+00
 -1      3271 2.98426E+01 2.72991E+01 0.00000E+00
 -1      3272 1.38309E+02 1.98687E+01 0.00000E+00
 -1      3273 1.38309E+02 1.83937E+01 0.00000E+00
 -1      3274 1.37010E+02 1.76625E+01 0.00000E+00
 -1      3275 1.08964E+01 7.84633E+00 0.00000E+00
 -1      3276 1.30608E+01 3.55415E+01 0.00000E+00
 -1      3277 1.38309E+02 2.28156E+01 0.00000E+00
 -1      3278 1.38309E+02 2.13406E+01 0.00000E+00
 -1      3279 1.37010E+02 2.06094E+01 0.00000E+00
 -1      3280 1.37010E+02 2.35531E+01 0.00000E+00
 -1      3281 2.86375E+01 3.04163E+01 0.00000E+00
 -1      3282 2.90272E+01 3.18263E+01 0.00000E+00
 -1      3283 2.98617E+01 2.99962E+01 0.00000E+00
 -1      3284 1.07921E+01 3.62836E+01 0.00000E+00
 -1      3285 2.63715E+01 3.33831E+01 0.00000E+00
 -1      3286 1.19819E+01 3.75505E+01 0.00000E+00
 -1      3287 3.08839E+01 2.46480E+01 0.00000E+00
 -1      3288 2.96048E+01 1.53475E+01 0.00000E+00
 -1      3289 3.12298E+01 2.07940E+01 0.00000E+00
 -1      3290 3.09021E+01 2.15227E+01 0.00000E+00
 -1      3291 3.18824E+01 2.25553E+01 0.00000E+00
 -1      3292 2.23728E+01 3.51694E+01 0.00000E+00
 -1      3293 1.23964E+01 7.84633E+00 0.00000E+00
 -1      3294 2.88448E+01 1.25702E+01 0.00000E+00
 -1      3295 2.37950E+01 3.57649E+01 0.00000E+00
 -1      3296 1.37758E+02 3.64912E+01 0.00000E+00
 -1      3297 1.38123E+02 3.54142E+01 0.00000E+00
 -1      3298 1.36824E+02 3.46768E+01 0.00000E+00
 -1      3299 1.36451E+02 3.63802E+01 0.00000E+00
 -1      3300 3.60111E+01 1.31430E+01 0.00000E+00
 -1      3301 3.45111E+01 1.31430E+01 0.00000E+00
 -1      3302 3.30111E+01 1.31430E+01 0.00000E+00
 -1      3303 3.15111E+01 1.31430E+01 0.00000E+00
 -1      3304 3.37611E+01 1.44420E+01 0.00000E+00
 -1      3305 2.52950E+01 3.57649E+01 0.00000E+00
 -1      3306 2.94000E+01 3.57110E+01 0.00000E+00
 -1      3307 3.09000E+01 3.57110E+01 0.00000E+00
 -1      3308 3.24000E+01 3.57110E+01 0.00000E+00
 -1      3309 3.39000E+01 3.57110E+01 0.00000E+00
 -1      3310 3.16500E+01 3.44120E+01 0.00000E+00
 -1      3311 3.54000E+01 3.57110E+01 0.00000E+00
 -1      3312 3.69000E+01 3.57110E+01 0.00000E+00
 -1      3313 3.46500E+01 3.44120E+01 0.00000E+00
 -1      3314 3.84000E+01 3.57110E+01 0.00000E+00
 -1      3315 3.99000E+01 3.57110E+01 0.00000E+00
 -1      3316 3.76500E+01 3.44120E+01 0.00000E+00
 -1      3317 4.14000E+01 3.57110E+01 0.00000E+00
 -1      3318 4.29000E+01 3.57110E+01 0.00000E+00
 -1      3319 4.06500E+01 3.44120E+01 0.00000E+00
 -1      3320 4.44000E+01 3.57110E+01 0.00000E+00
 -1      3321 4.59000E+01 3.57110E+01 0.00000E+00
 -1      3322 4.36500E+01 3.44120E+01 0.00000E+00
 -1      3323 4.74000E+01 3.57110E+01 0.00000E+00
 -1      3324 4.89000E+01 3.57110E+01 0.00000E+00
 -1      3325 4.66500E+01 3.44120E+01 0.00000E+00
 -1      3326 5.04000E+01 3.57110E+01 0.00000E+00
 -1      3327 5.19000E+01 3.57110E+01 0.00000E+00
 -1      3328 4.96500E+01 3.44120E+01 0.00000E+00
 -1      3329 5.34000E+01 3.57110E+01 0.00000E+00
 -1      3330 5.49000E+01 3.57110E+01 0.00000E+00
 -1      3331 5.26500E+01 3.44120E+01 0.00000E+00
 -1      3332 5.64000E+01 3.57110E+01 0.00000E+00
 -1      3333 5.79000E+01 3.57110E+01 0.00000E+00
 -1      3334 5.56500E+01 3.44120E+01 0.00000E+00
 -1      3335 5.94000E+01 3.57110E+01 0.00000E+00
 -1      3336 6.09000E+01 3.57110E+01 0.00000E+00
 -1      3337 5.86500E+01 3.44120E+01 0.00000E+00
 -1      3338 6.24000E+01 3.57110E+01 0.00000E+00
 -1      3339 6.39000E+01 3.57110E+01 0.00000E+00
 -1      3340 6.16500E+01 3.44120E+01 0.00000E+00
 -1      3341 6.54000E+01 3.57110E+01 0.00000E+00
 -1      3342 6.69000E+01 3.57110E+01 0.00000E+00
 -1      3343 6.46500E+01 3.44120E+01 0.00000E+00
 -1      3344 6.84000E+01 3.57110E+01 0.00000E+00
 -1      3345 6.99000E+01 3.57110E+01 0.00000E+00
 -1      3346 6.76500E+01 3.44120E+01 0.00000E+00
 -1      3347 7.14000E+01 3.57110E+01 0.00000E+00
 -1      3348 7.29000E+01 3.57110E+01 0.00000E+00
 -1      3349 7.06500E+01 3.44120E+01 0.00000E+00
 -1      3350 7.44000E+01 3.57110E+01 0.00000E+00
 -1      3351 7.59000E+01 3.57110E+01 0.00000E+00
 -1      3352 7.36500E+01 3.44120E+01 0.00000E+00
 -1      3353 7.74000E+01 3.57110E+01 0.00000E+00
 -1      3354 7.89000E+01 3.57110E+01 0.00000E+00
 -1      3355 7.66500E+01 3.44120E+01 0.00000E+00
 -1      3356 8.04000E+01 3.57110E+01 0.00000E+00
 -1      3357 8.19000E+01 3.57110E+01 0.00000E+00
 -1      3358 7.96500E+01 3.44120E+01 0.00000E+00
 -1      3359 8.34000E+01 3.57110E+01 0.00000E+00
 -1      3360 8.49000E+01 3.57110E+01 0.00000E+00
 -1      3361 8.26500E+01 3.44120E+01 0.00000E+00
 -1      3362 8.64000E+01 3.57110E+01 0.00000E+00
 -1      3363 8.79000E+01 3.57110E+01 0.00000E+00
 -1      3364 8.56500E+01 3.44120E+01 0.00000E+00
 -1      3365 8.94000E+01 3.57110E+01 0.00000E+00
 -1      3366 9.09000E+01 3.57110E+01 0.00000E+00
 -1      3367 8.86500E+01 3.44120E+01 0.00000E+00
 -1      3368 9.24000E+01 3.57110E+01 0.00000E+00
 -1      3369 9.39000E+01 3.57110E+01 0.00000E+00
 -1      3370 9.16500E+01 3.44120E+01 0.00000E+00
 -1      3371 9.54000E+01 3.57110E+01 0.00000E+00
 -1      3372 9.69000E+01 3.57110E+01 0.00000E+00
 -1      3373 9.46500E+01 3.44120E+01 0.00000E+00
 -1      3374 9.84000E+01 3.57110E+01 0.00000E+00
 -1      3375 9.99000E+01 3.57110E+01 0.00000E+00
 -1      3376 9.76500E+01 3.44120E+01 0.00000E+00
 -1      3377 1.01400E+02 3.57110E+01 0.00000E+00
 -1      3378 1.02900E+02 3.57110E+01 0.00000E+00
 -1      3379 1.00650E+02 3.44120E+01 0.00000E+00
 -1      3380 1.04400E+02 3.57110E+01 0.00000E+00
 -1      3381 1.05900E+02 3.57110E+01 0.00000E+00
 -1      3382 1.03650E+02 3.44120E+01 0.00000E+00
 -1      3383 1.07400E+02 3.57110E+01 0.00000E+00
 -1      3384 1.08900E+02 3.57110E+01 0.00000E+00
 -1      3385 1.06650E+02 3.44120E+01 0.00000E+00
 -1      3386 1.10400E+02 3.57110E+01 0.00000E+00
 -1      3387 1.11900E+02 3.57110E+01 0.00000E+00
 -1      3388 1.09650E+02 3.44120E+01 0.00000E+00
 -1      3389 1.13400E+02 3.57110E+01 0.00000E+00
 -1      3390 1.14900E+02 3.57110E+01 0.00000E+00
 -1      3391 1.12650E+02 3.44120E+01 0.00000E+00
 -1      3392 1.16400E+02 3.57110E+01 0.00000E+00
 -1      3393 1.17900E+02 3.57110E+01 0.00000E+00
 -1      3394 1.15650E+02 3.44120E+01 0.00000E+00
 -1      3395 1.19400E+02 3.57110E+01 0.00000E+00
 -1      3396 1.20900E+02 3.57110E+01 0.00000E+00
 -1      3397 1.18650E+02 3.44120E+01 0.00000E+00
 -1      3398 1.22400E+02 3.57110E+01 0.00000E+00
 -1      3399 1.23900E+02 3.57110E+01 0.00000E+00
 -1      3400 1.21650E+02 3.44120E+01 0.00000E+00
 -1      3401 1.25400E+02 3.57110E+01 0.00000E+00
 -1      3402 1.26900E+02 3.57110E+01 0.00000E+00
 -1      3403 1.24650E+02 3.44120E+01 0.00000E+00
 -1      3404 1.28400E+02 3.57110E+01 0.00000E+00
 -1      3405 1.29900E+02 3.57110E+01 0.00000E+00
 -1      3406 1.27650E+02 3.44120E+01 0.00000E+00
 -1      3407 1.31400E+02 3.57110E+01 0.00000E+00
 -1      3408 1.32900E+02 3.57110E+01 0.00000E+00
 -1      3409 1.30650E+02 3.44120E+01 0.00000E+00
 -1      3410 4.20111E+01 1.31430E+01 0.00000E+00
 -1      3411 4.05111E+01 1.31430E+01 0.00000E+00
 -1      3412 4.50111E+01 1.31430E+01 0.00000E+00
 -1      3413 4.35111E+01 1.31430E+01 0.00000E+00
 -1      3414 4.27611E+01 1.44420E+01 0.00000E+00
 -1      3415 4.80111E+01 1.31430E+01 0.00000E+00
 -1      3416 4.65111E+01 1.31430E+01 0.00000E+00
 -1      3417 4.57611E+01 1.44420E+01 0.00000E+00
 -1      3418 5.10111E+01 1.31430E+01 0.00000E+00
 -1      3419 4.95111E+01 1.31430E+01 0.00000E+00
 -1      3420 4.87611E+01 1.44420E+01 0.00000E+00
 -1      3421 5.40111E+01 1.31430E+01 0.00000E+00
 -1      3422 5.25111E+01 1.31430E+01 0.00000E+00
 -1      3423 5.17611E+01 1.44420E+01 0.00000E+00
 -1      3424 5.70111E+01 1.31430E+01 0.00000E+00
 -1      3425 5.55111E+01 1.31430E+01 0.00000E+00
 -1      3426 5.47611E+01 1.44420E+01 0.00000E+00
 -1      3427 6.00111E+01 1.31430E+01 0.00000E+00
 -1      3428 5.85111E+01 1.31430E+01 0.00000E+00
 -1      3429 5.77611E+01 1.44420E+01 0.00000E+00
 -1      3430 6.30111E+01 1.31430E+01 0.00000E+00
 -1      3431 6.15111E+01 1.31430E+01 0.00000E+00
 -1      3432 6.07611E+01 1.44420E+01 0.00000E+00
 -1      3433 6.60111E+01 1.31430E+01 0.00000E+00
 -1      3434 6.45111E+01 1.31430E+01 0.00000E+00
 -1      3435 6.37611E+01 1.44420E+01 0.00000E+00
 -1      3436 6.90111E+01 1.31430E+01 0.00000E+00
 -1      3437 6.75111E+01 1.31430E+01 0.00000E+00
 -1      3438 6.67611E+01 1.44420E+01 0.00000E+00
 -1      3439 7.20111E+01 1.31430E+01 0.00000E+00
 -1      3440 7.05111E+01 1.31430E+01 0.00000E+00
 -1      3441 6.97611E+01 1.44420E+01 0.00000E+00
 -1      3442 7.50111E+01 1.31430E+01 0.00000E+00
 -1      3443 7.35111E+01 1.31430E+01 0.00000E+00
 -1      3444 7.27611E+01 1.44420E+01 0.00000E+00
 -1      3445 7.80111E+01 1.31430E+01 0.00000E+00
 -1      3446 7.65111E+01 1.31430E+01 0.00000E+00
 -1      3447 7.57611E+01 1.44420E+01 0.00000E+00
 -1      3448 8.10111E+01 1.31430E+01 0.00000E+00
 -1      3449 7.95111E+01 1.31430E+01 0.00000E+00
 -1      3450 7.87611E+01 1.44420E+01 0.00000E+00
 -1      3451 8.40111E+01 1.31430E+01 0.00000E+00
 -1      3452 8.25111E+01 1.31430E+01 0.00000E+00
 -1      3453 8.17611E+01 1.44420E+01 0.00000E+00
 -1      3454 8.70111E+01 1.31430E+01 0.00000E+00
 -1      3455 8.55111E+01 1.31430E+01 0.00000E+00
 -1      3456 8.47611E+01 1.44420E+01 0.00000E+00
 -1      3457 9.00111E+01 1.31430E+01 0.00000E+00
 -1      3458 8.85111E+01 1.31430E+01 0.00000E+00
 -1      3459 8.77611E+01 1.44420E+01 0.00000E+00
 -1      3460 9.30111E+01 1.31430E+01 0.00000E+00
 -1      3461 9.15111E+01 1.31430E+01 0.00000E+00
 -1      3462 9.07611E+01 1.44420E+01 0.00000E+00
 -1      3463 9.60111E+01 1.31430E+01 0.00000E+00
 -1      3464 9.45111E+01 1.31430E+01 0.00000E+00
 -1      3465 9.37611E+01 1.44420E+01 0.00000E+00
 -1      3466 9.90111E+01 1.31430E+01 0.00000E+00
 -1      3467 9.75111E+01 1.31430E+01 0.00000E+00
 -1      3468 9.67611E+01 1.44420E+01 0.00000E+00
 -1      3469 1.02011E+02 1.31430E+01 0.00000E+00
 -1      3470 1.00511E+02 1.31430E+01 0.00000E+00
 -1      3471 9.97611E+01 1.44420E+01 0.00000E+00
 -1      3472 1.05011E+02 1.31430E+01 0.00000E+00
 -1      3473 1.03511E+02 1.31430E+01 0.00000E+00
 -1      3474 1.02761E+02 1.44420E+01 0.00000E+00
 -1      3475 1.08011E+02 1.31430E+01 0.00000E+00
 -1      3476 1.06511E+02 1.31430E+01 0.00000E+00
 -1      3477 1.05761E+02 1.44420E+01 0.00000E+00
 -1      3478 1.11011E+02 1.31430E+01 0.00000E+00
 -1      3479 1.09511E+02 1.31430E+01 0.00000E+00
 -1      3480 1.08761E+02 1.44420E+01 0.00000E+00
 -1      3481 1.14011E+02 1.31430E+01 0.00000E+00
 -1      3482 1.12511E+02 1.31430E+01 0.00000E+00
 -1      3483 1.11761E+02 1.44420E+01 0.00000E+00
 -1      3484 1.17011E+02 1.31430E+01 0.00000E+00
 -1      3485 1.15511E+02 1.31430E+01 0.00000E+00
 -1      3486 1.14761E+02 1.44420E+01 0.00000E+00
 -1      3487 1.20011E+02 1.31430E+01 0.00000E+00
 -1      3488 1.18511E+02 1.31430E+01 0.00000E+00
 -1      3489 1.17761E+02 1.44420E+01 0.00000E+00
 -1      3490 1.23011E+02 1.31430E+01 0.00000E+00
 -1      3491 1.21511E+02 1.31430E+01 0.00000E+00
 -1      3492 1.20761E+02 1.44420E+01 0.00000E+00
 -1      3493 1.26011E+02 1.31430E+01 0.00000E+00
 -1      3494 1.24511E+02 1.31430E+01 0.00000E+00
 -1      3495 1.23761E+02 1.44420E+01 0.00000E+00
 -1      3496 1.29011E+02 1.31430E+01 0.00000E+00
 -1      3497 1.27511E+02 1.31430E+01 0.00000E+00
 -1      3498 1.26761E+02 1.44420E+01 0.00000E+00
 -1      3499 1.32011E+02 1.31430E+01 0.00000E+00
 -1      3500 1.30511E+02 1.31430E+01 0.00000E+00
 -1      3501 1.29761E+02 1.44420E+01 0.00000E+00
 -1      3502 1.35011E+02 1.31430E+01 0.00000E+00
 -1      3503 1.33511E+02 1.31430E+01 0.00000E+00
 -1      3504 1.32761E+02 1.44420E+01 0.00000E+00
 -1      3505 1.38485E+02 1.44218E+01 0.00000E+00
 -1      3506 1.38517E+02 1.31869E+01 0.00000E+00
 -1      3507 1.37539E+02 1.30841E+01 0.00000E+00
 -1      3508 1.37186E+02 1.51530E+01 0.00000E+00
 -1      3509 3.90111E+01 1.31430E+01 0.00000E+00
 -1      3510 3.75111E+01 1.31430E+01 0.00000E+00
 -1      3511 3.97611E+01 1.44420E+01 0.00000E+00
 -1      3512 1.35711E+02 2.72000E+01 0.00000E+00
 -1      3513 1.35711E+02 2.57500E+01 0.00000E+00
 -1      3514 3.21392E+01 2.44184E+01 0.00000E+00
 -1      3515 3.14684E+01 2.57824E+01 0.00000E+00
 -1      3516 3.10979E+01 2.70695E+01 0.00000E+00
 -1      3517 3.07274E+01 2.83565E+01 0.00000E+00
 -1      3518 3.23532E+01 2.68398E+01 0.00000E+00
 -1      3519 1.09602E+01 3.83411E+01 0.00000E+00
 -1      3520 3.06407E+01 1.41934E+01 0.00000E+00
 -1      3521 3.12252E+01 1.55961E+01 0.00000E+00
 -1      3522 3.11454E+01 1.74841E+01 0.00000E+00
 -1      3523 3.11756E+01 1.89898E+01 0.00000E+00
 -1      3524 3.67611E+01 1.44420E+01 0.00000E+00
 -1      3525 2.64000E+01 3.57110E+01 0.00000E+00
 -1      3526 2.79000E+01 3.57110E+01 0.00000E+00
 -1      3527 1.34412E+02 2.50031E+01 0.00000E+00
 -1      3528 1.35711E+02 2.42781E+01 0.00000E+00
 -1      3529 1.35711E+02 2.28062E+01 0.00000E+00
 -1      3530 1.34022E+02 3.59901E+01 0.00000E+00
 -1      3531 1.35329E+02 3.61011E+01 0.00000E+00
 -1      3532 1.35515E+02 3.52494E+01 0.00000E+00
 -1      3533 1.33272E+02 3.46911E+01 0.00000E+00
 -1      3534 1.35636E+02 1.53147E+01 0.00000E+00
 -1      3535 1.35812E+02 1.42803E+01 0.00000E+00
 -1      3536 1.36562E+02 1.29813E+01 0.00000E+00
 -1      3537 3.11170E+01 2.97665E+01 0.00000E+00
 -1      3538 3.28327E+01 2.33433E+01 0.00000E+00
 -1      3539 3.34172E+01 2.44777E+01 0.00000E+00
 -1      3540 3.02007E+01 3.29091E+01 0.00000E+00
 -1      3541 2.89765E+01 3.33292E+01 0.00000E+00
 -1      3542 1.35636E+02 1.82647E+01 0.00000E+00
 -1      3543 1.35636E+02 1.67897E+01 0.00000E+00
 -1      3544 1.34261E+02 1.59170E+01 0.00000E+00
 -1      3545 1.35711E+02 2.86750E+01 0.00000E+00
 -1      3546 1.34412E+02 2.79500E+01 0.00000E+00
 -1      3547 1.35711E+02 3.01500E+01 0.00000E+00
 -1      3548 2.86500E+01 3.44120E+01 0.00000E+00
 -1      3549 1.35702E+02 3.43976E+01 0.00000E+00
 -1      3550 2.98907E+01 1.28944E+01 0.00000E+00
 -1      3551 3.21814E+01 1.63300E+01 0.00000E+00
 -1      3552 2.74765E+01 3.33292E+01 0.00000E+00
 -1      3553 2.60450E+01 3.44659E+01 0.00000E+00
 -1      3554 3.21559E+01 2.00223E+01 0.00000E+00
 -1      3555 3.31604E+01 2.26145E+01 0.00000E+00
 -1      3556 1.34487E+02 3.38069E+01 0.00000E+00
 -1      3557 1.35795E+02 3.32342E+01 0.00000E+00
 -1      3558 1.35795E+02 3.17593E+01 0.00000E+00
 -1      3559 1.33365E+02 3.35277E+01 0.00000E+00
 -1      3560 3.37651E+01 2.65495E+01 0.00000E+00
 -1      3561 3.33946E+01 2.78365E+01 0.00000E+00
 -1      3562 4.95111E+01 1.57410E+01 0.00000E+00
 -1      3563 4.80111E+01 1.57410E+01 0.00000E+00
 -1      3564 3.17007E+01 3.29091E+01 0.00000E+00
 -1      3565 3.51814E+01 1.63300E+01 0.00000E+00
 -1      3566 3.36814E+01 1.63300E+01 0.00000E+00
 -1      3567 3.36017E+01 1.82181E+01 0.00000E+00
 -1      3568 3.39000E+01 3.31130E+01 0.00000E+00
 -1      3569 3.54000E+01 3.31130E+01 0.00000E+00
 -1      3570 3.69000E+01 3.31130E+01 0.00000E+00
 -1      3571 3.84000E+01 3.31130E+01 0.00000E+00
 -1      3572 3.61500E+01 3.18140E+01 0.00000E+00
 -1      3573 3.99000E+01 3.31130E+01 0.00000E+00
 -1      3574 4.14000E+01 3.31130E+01 0.00000E+00
 -1      3575 3.91500E+01 3.18140E+01 0.00000E+00
 -1      3576 4.29000E+01 3.31130E+01 0.00000E+00
 -1      3577 4.44000E+01 3.31130E+01 0.00000E+00
 -1      3578 4.21500E+01 3.18140E+01 0.00000E+00
 -1      3579 4.59000E+01 3.31130E+01 0.00000E+00
 -1      3580 4.74000E+01 3.31130E+01 0.00000E+00
 -1      3581 4.51500E+01 3.18140E+01 0.00000E+00
 -1      3582 4.89000E+01 3.31130E+01 0.00000E+00
 -1      3583 5.04000E+01 3.31130E+01 0.00000E+00
 -1      3584 4.81500E+01 3.18140E+01 0.00000E+00
 -1      3585 5.19000E+01 3.31130E+01 0.00000E+00
 -1      3586 5.34000E+01 3.31130E+01 0.00000E+00
 -1      3587 5.11500E+01 3.18140E+01 0.00000E+00
 -1      3588 5.49000E+01 3.31130E+01 0.00000E+00
 -1      3589 5.64000E+01 3.31130E+01 0.00000E+00
 -1      3590 5.41500E+01 3.18140E+01 0.00000E+00
 -1      3591 5.79000E+01 3.31130E+01 0.00000E+00
 -1      3592 5.94000E+01 3.31130E+01 0.00000E+00
 -1      3593 5.71500E+01 3.18140E+01 0.00000E+00
 -1      3594 6.09000E+01 3.31130E+01 0.00000E+00
 -1      3595 6.24000E+01 3.31130E+01 0.00000E+00
 -1      3596 6.01500E+01 3.18140E+01 0.00000E+00
 -1      3597 6.39000E+01 3.31130E+01 0.00000E+00
 -1      3598 6.54000E+01 3.31130E+01 0.00000E+00
 -1      3599 6.31500E+01 3.18140E+01 0.00000E+00
 -1      3600 6.69000E+01 3.31130E+01 0.00000E+00
 -1      3601 6.84000E+01 3.31130E+01 0.00000E+00
 -1      3602 6.61500E+01 3.18140E+01 0.00000E+00
 -1      3603 6.99000E+01 3.31130E+01 0.00000E+00
 -1      3604 7.14000E+01 3.31130E+01 0.00000E+00
 -1      3605 6.91500E+01 3.18140E+01 0.00000E+00
 -1      3606 7.29000E+01 3.31130E+01 0.00000E+00
 -1      3607 7.44000E+01 3.31130E+01 0.00000E+00
 -1      3608 7.21500E+01 3.18140E+01 0.00000E+00
 -1      3609 7.59000E+01 3.31130E+01 0.00000E+00
 -1      3610 7.74000E+01 3.31130E+01 0.00000E+00
 -1      3611 7.51500E+01 3.18140E+01 0.00000E+00
 -1      3612 7.89000E+01 3.31130E+01 0.00000E+00
 -1      3613 8.04000E+01 3.31130E+01 0.00000E+00
 -1      3614 7.81500E+01 3.18140E+01 0.00000E+00
 -1      3615 8.19000E+01 3.31130E+01 0.00000E+00
 -1      3616 8.34000E+01 3.31130E+01 0.00000E+00
 -1      3617 8.11500E+01 3.18140E+01 0.00000E+00
 -1      3618 8.49000E+01 3.31130E+01 0.00000E+00
 -1      3619 8.64000E+01 3.31130E+01 0.00000E+00
 -1      3620 8.41500E+01 3.18140E+01 0.00000E+00
 -1      3621 8.79000E+01 3.31130E+01 0.00000E+00
 -1      3622 8.94000E+01 3.31130E+01 0.00000E+00
 -1      3623 8.71500E+01 3.18140E+01 0.00000E+00
 -1      3624 9.09000E+01 3.31130E+01 0.00000E+00
 -1      3625 9.24000E+01 3.31130E+01 0.00000E+00
 -1      3626 9.01500E+01 3.18140E+01 0.00000E+00
 -1      3627 9.39000E+01 3.31130E+01 0.00000E+00
 -1      3628 9.54000E+01 3.31130E+01 0.00000E+00
 -1      3629 9.31500E+01 3.18140E+01 0.00000E+00
 -1      3630 9.69000E+01 3.31130E+01 0.00000E+00
 -1      3631 9.84000E+01 3.31130E+01 0.00000E+00
 -1      3632 9.61500E+01 3.18140E+01 0.00000E+00
 -1      3633 9.99000E+01 3.31130E+01 0.00000E+00
 -1      3634 1.01400E+02 3.31130E+01 0.00000E+00
 -1      3635 9.91500E+01 3.18140E+01 0.00000E+00
 -1      3636 1.02900E+02 3.31130E+01 0.00000E+00
 -1      3637 1.04400E+02 3.31130E+01 0.00000E+00
 -1      3638 1.02150E+02 3.18140E+01 0.00000E+00
 -1      3639 1.05900E+02 3.31130E+01 0.00000E+00
 -1      3640 1.07400E+02 3.31130E+01 0.00000E+00
 -1      3641 1.05150E+02 3.18140E+01 0.00000E+00
 -1      3642 1.08900E+02 3.31130E+01 0.00000E+00
 -1      3643 1.10400E+02 3.31130E+01 0.00000E+00
 -1      3644 1.08150E+02 3.18140E+01 0.00000E+00
 -1      3645 1.11900E+02 3.31130E+01 0.00000E+00
 -1      3646 1.13400E+02 3.31130E+01 0.00000E+00
 -1      3647 1.11150E+02 3.18140E+01 0.00000E+00
 -1      3648 1.14900E+02 3.31130E+01 0.00000E+00
 -1      3649 1.16400E+02 3.31130E+01 0.00000E+00
 -1      3650 1.14150E+02 3.18140E+01 0.00000E+00
 -1      3651 1.17900E+02 3.31130E+01 0.00000E+00
 -1      3652 1.19400E+02 3.31130E+01 0.00000E+00
 -1      3653 1.17150E+02 3.18140E+01 0.00000E+00
 -1      3654 1.20900E+02 3.31130E+01 0.00000E+00
 -1      3655 1.22400E+02 3.31130E+01 0.00000E+00
 -1      3656 1.20150E+02 3.18140E+01 0.00000E+00
 -1      3657 1.23900E+02 3.31130E+01 0.00000E+00
 -1      3658 1.25400E+02 3.31130E+01 0.00000E+00
 -1      3659 1.23150E+02 3.18140E+01 0.00000E+00
 -1      3660 1.26900E+02 3.31130E+01 0.00000E+00
 -1      3661 1.28400E+02 3.31130E+01 0.00000E+00
 -1      3662 1.26150E+02 3.18140E+01 0.00000E+00
 -1      3663 1.29900E+02 3.31130E+01 0.00000E+00
 -1      3664 1.31400E+02 3.31130E+01 0.00000E+00
 -1      3665 1.29150E+02 3.18140E+01 0.00000E+00
 -1      3666 4.65111E+01 1.57410E+01 0.00000E+00
 -1      3667 4.50111E+01 1.57410E+01 0.00000E+00
 -1      3668 4.72611E+01 1.70400E+01 0.00000E+00
 -1      3669 4.35111E+01 1.57410E+01 0.00000E+00
 -1      3670 4.20111E+01 1.57410E+01 0.00000E+00
 -1      3671 4.42611E+01 1.70400E+01 0.00000E+00
 -1      3672 5.25111E+01 1.57410E+01 0.00000E+00
 -1      3673 5.10111E+01 1.57410E+01 0.00000E+00
 -1      3674 5.02611E+01 1.70400E+01 0.00000E+00
 -1      3675 5.55111E+01 1.57410E+01 0.00000E+00
 -1      3676 5.40111E+01 1.57410E+01 0.00000E+00
 -1      3677 5.32611E+01 1.70400E+01 0.00000E+00
 -1      3678 5.85111E+01 1.57410E+01 0.00000E+00
 -1      3679 5.70111E+01 1.57410E+01 0.00000E+00
 -1      3680 5.62611E+01 1.70400E+01 0.00000E+00
 -1      3681 6.15111E+01 1.57410E+01 0.00000E+00
 -1      3682 6.00111E+01 1.57410E+01 0.00000E+00
 -1      3683 5.92611E+01 1.70400E+01 0.00000E+00
 -1      3684 6.45111E+01 1.57410E+01 0.00000E+00
 -1      3685 6.30111E+01 1.57410E+01 0.00000E+00
 -1      3686 6.22611E+01 1.70400E+01 0.00000E+00
 -1      3687 6.75111E+01 1.57410E+01 0.00000E+00
 -1      3688 6.60111E+01 1.57410E+01 0.00000E+00
 -1      3689 6.52611E+01 1.70400E+01 0.00000E+00
 -1      3690 7.05111E+01 1.57410E+01 0.00000E+00
 -1      3691 6.90111E+01 1.57410E+01 0.00000E+00
 -1      3692 6.82611E+01 1.70400E+01 0.00000E+00
 -1      3693 7.35111E+01 1.57410E+01 0.00000E+00
 -1      3694 7.20111E+01 1.57410E+01 0.00000E+00
 -1      3695 7.12611E+01 1.70400E+01 0.00000E+00
 -1      3696 7.65111E+01 1.57410E+01 0.00000E+00
 -1      3697 7.50111E+01 1.57410E+01 0.00000E+00
 -1      3698 7.42611E+01 1.70400E+01 0.00000E+00
 -1      3699 7.95111E+01 1.57410E+01 0.00000E+00
 -1      3700 7.80111E+01 1.57410E+01 0.00000E+00
 -1      3701 7.72611E+01 1.70400E+01 0.00000E+00
 -1      3702 8.25111E+01 1.57410E+01 0.00000E+00
 -1      3703 8.10111E+01 1.57410E+01 0.00000E+00
 -1      3704 8.02611E+01 1.70400E+01 0.00000E+00
 -1      3705 8.55111E+01 1.57410E+01 0.00000E+00
 -1      3706 8.40111E+01 1.57410E+01 0.00000E+00
 -1      3707 8.32611E+01 1.70400E+01 0.00000E+00
 -1      3708 8.85111E+01 1.57410E+01 0.00000E+00
 -1      3709 8.70111E+01 1.57410E+01 0.00000E+00
 -1      3710 8.62611E+01 1.70400E+01 0.00000E+00
 -1      3711 9.15111E+01 1.57410E+01 0.00000E+00
 -1      3712 9.00111E+01 1.57410E+01 0.00000E+00
 -1      3713 8.92611E+01 1.70400E+01 0.00000E+00
 -1      3714 9.45111E+01 1.57410E+01 0.00000E+00
 -1      3715 9.30111E+01 1.57410E+01 0.00000E+00
 -1      3716 9.22611E+01 1.70400E+01 0.00000E+00
 -1      3717 9.75111E+01 1.57410E+01 0.00000E+00
 -1      3718 9.60111E+01 1.57410E+01 0.00000E+00
 -1      3719 9.52611E+01 1.70400E+01 0.00000E+00
 -1      3720 1.00511E+02 1.57410E+01 0.00000E+00
 -1      3721 9.90111E+01 1.57410E+01 0.00000E+00
 -1      3722 9.82611E+01 1.70400E+01 0.00000E+00
 -1      3723 1.03511E+02 1.57410E+01 0.00000E+00
 -1      3724 1.02011E+02 1.57410E+01 0.00000E+00
 -1      3725 1.01261E+02 1.70400E+01 0.00000E+00
 -1      3726 1.06511E+02 1.57410E+01 0.00000E+00
 -1      3727 1.05011E+02 1.57410E+01 0.00000E+00
 -1      3728 1.04261E+02 1.70400E+01 0.00000E+00
 -1      3729 1.09511E+02 1.57410E+01 0.00000E+00
 -1      3730 1.08011E+02 1.57410E+01 0.00000E+00
 -1      3731 1.07261E+02 1.70400E+01 0.00000E+00
 -1      3732 1.12511E+02 1.57410E+01 0.00000E+00
 -1      3733 1.11011E+02 1.57410E+01 0.00000E+00
 -1      3734 1.10261E+02 1.70400E+01 0.00000E+00
 -1      3735 1.15511E+02 1.57410E+01 0.00000E+00
 -1      3736 1.14011E+02 1.57410E+01 0.00000E+00
 -1      3737 1.13261E+02 1.70400E+01 0.00000E+00
 -1      3738 1.18511E+02 1.57410E+01 0.00000E+00
 -1      3739 1.17011E+02 1.57410E+01 0.00000E+00
 -1      3740 1.16261E+02 1.70400E+01 0.00000E+00
 -1      3741 1.21511E+02 1.57410E+01 0.00000E+00
 -1      3742 1.20011E+02 1.57410E+01 0.00000E+00
 -1      3743 1.19261E+02 1.70400E+01 0.00000E+00
 -1      3744 1.24511E+02 1.57410E+01 0.00000E+00
 -1      3745 1.23011E+02 1.57410E+01 0.00000E+00
 -1      3746 1.22261E+02 1.70400E+01 0.00000E+00
 -1      3747 1.27511E+02 1.57410E+01 0.00000E+00
 -1      3748 1.26011E+02 1.57410E+01 0.00000E+00
 -1      3749 1.25261E+02 1.70400E+01 0.00000E+00
 -1      3750 1.30511E+02 1.57410E+01 0.00000E+00
 -1      3751 1.29011E+02 1.57410E+01 0.00000E+00
 -1      3752 1.28261E+02 1.70400E+01 0.00000E+00
 -1      3753 1.33136E+02 1.58290E+01 0.00000E+00
 -1      3754 1.31636E+02 1.58290E+01 0.00000E+00
 -1      3755 1.30886E+02 1.71280E+01 0.00000E+00
 -1      3756 1.33136E+02 1.73040E+01 0.00000E+00
 -1      3757 3.33163E+01 2.99704E+01 0.00000E+00
 -1      3758 3.24507E+01 3.16101E+01 0.00000E+00
 -1      3759 4.05111E+01 1.57410E+01 0.00000E+00
 -1      3760 3.90111E+01 1.57410E+01 0.00000E+00
 -1      3761 4.12611E+01 1.70400E+01 0.00000E+00
 -1      3762 1.35711E+02 2.13344E+01 0.00000E+00
 -1      3763 1.35711E+02 1.98625E+01 0.00000E+00
 -1      3764 1.34412E+02 2.20594E+01 0.00000E+00
 -1      3765 3.33539E+01 1.95142E+01 0.00000E+00
 -1      3766 3.34081E+01 2.13184E+01 0.00000E+00
 -1      3767 3.43584E+01 2.21064E+01 0.00000E+00
 -1      3768 3.48539E+01 1.95142E+01 0.00000E+00
 -1      3769 3.51521E+01 2.43992E+01 0.00000E+00
 -1      3770 3.44586E+01 2.54743E+01 0.00000E+00
 -1      3771 3.55000E+01 2.64710E+01 0.00000E+00
 -1      3772 3.78463E+01 1.60355E+01 0.00000E+00
 -1      3773 3.63463E+01 1.60355E+01 0.00000E+00
 -1      3774 3.62665E+01 1.79236E+01 0.00000E+00
 -1      3775 3.85963E+01 1.73345E+01 0.00000E+00
 -1      3776 1.34337E+02 1.89897E+01 0.00000E+00
 -1      3777 1.34496E+02 3.10343E+01 0.00000E+00
 -1      3778 1.32615E+02 3.22287E+01 0.00000E+00
 -1      3779 3.56476E+01 2.18070E+01 0.00000E+00
 -1      3780 3.53998E+01 2.31031E+01 0.00000E+00
 -1      3781 3.64412E+01 2.40998E+01 0.00000E+00
 -1      3782 3.47283E+01 2.96801E+01 0.00000E+00
 -1      3783 1.33113E+02 2.57391E+01 0.00000E+00
 -1      3784 1.33113E+02 2.42672E+01 0.00000E+00
 -1      3785 1.33113E+02 2.86891E+01 0.00000E+00
 -1      3786 1.33113E+02 2.72141E+01 0.00000E+00
 -1      3787 1.31814E+02 2.64781E+01 0.00000E+00
 -1      3788 1.33287E+02 2.04995E+01 0.00000E+00
 -1      3789 1.33212E+02 1.89018E+01 0.00000E+00
 -1      3790 1.32087E+02 1.88137E+01 0.00000E+00
 -1      3791 5.10111E+01 1.83390E+01 0.00000E+00
 -1      3792 4.95111E+01 1.83390E+01 0.00000E+00
 -1      3793 3.84000E+01 3.05150E+01 0.00000E+00
 -1      3794 3.99000E+01 3.05150E+01 0.00000E+00
 -1      3795 4.14000E+01 3.05150E+01 0.00000E+00
 -1      3796 4.29000E+01 3.05150E+01 0.00000E+00
 -1      3797 4.06500E+01 2.92160E+01 0.00000E+00
 -1      3798 4.44000E+01 3.05150E+01 0.00000E+00
 -1      3799 4.59000E+01 3.05150E+01 0.00000E+00
 -1      3800 4.36500E+01 2.92160E+01 0.00000E+00
 -1      3801 4.74000E+01 3.05150E+01 0.00000E+00
 -1      3802 4.89000E+01 3.05150E+01 0.00000E+00
 -1      3803 4.66500E+01 2.92160E+01 0.00000E+00
 -1      3804 5.04000E+01 3.05150E+01 0.00000E+00
 -1      3805 5.19000E+01 3.05150E+01 0.00000E+00
 -1      3806 4.96500E+01 2.92160E+01 0.00000E+00
 -1      3807 5.34000E+01 3.05150E+01 0.00000E+00
 -1      3808 5.49000E+01 3.05150E+01 0.00000E+00
 -1      3809 5.26500E+01 2.92160E+01 0.00000E+00
 -1      3810 5.64000E+01 3.05150E+01 0.00000E+00
 -1      3811 5.79000E+01 3.05150E+01 0.00000E+00
 -1      3812 5.56500E+01 2.92160E+01 0.00000E+00
 -1      3813 5.94000E+01 3.05150E+01 0.00000E+00
 -1      3814 6.09000E+01 3.05150E+01 0.00000E+00
 -1      3815 5.86500E+01 2.92160E+01 0.00000E+00
 -1      3816 6.24000E+01 3.05150E+01 0.00000E+00
 -1      3817 6.39000E+01 3.05150E+01 0.00000E+00
 -1      3818 6.16500E+01 2.92160E+01 0.00000E+00
 -1      3819 6.54000E+01 3.05150E+01 0.00000E+00
 -1      3820 6.69000E+01 3.05150E+01 0.00000E+00
 -1      3821 6.46500E+01 2.92160E+01 0.00000E+00
 -1      3822 6.84000E+01 3.05150E+01 0.00000E+00
 -1      3823 6.99000E+01 3.05150E+01 0.00000E+00
 -1      3824 6.76500E+01 2.92160E+01 0.00000E+00
 -1      3825 7.14000E+01 3.05150E+01 0.00000E+00
 -1      3826 7.29000E+01 3.05150E+01 0.00000E+00
 -1      3827 7.06500E+01 2.92160E+01 0.00000E+00
 -1      3828 7.44000E+01 3.05150E+01 0.00000E+00
 -1      3829 7.59000E+01 3.05150E+01 0.00000E+00
 -1      3830 7.36500E+01 2.92160E+01 0.00000E+00
 -1      3831 7.74000E+01 3.05150E+01 0.00000E+00
 -1      3832 7.89000E+01 3.05150E+01 0.00000E+00
 -1      3833 7.66500E+01 2.92160E+01 0.00000E+00
 -1      3834 8.04000E+01 3.05150E+01 0.00000E+00
 -1      3835 8.19000E+01 3.05150E+01 0.00000E+00
 -1      3836 7.96500E+01 2.92160E+01 0.00000E+00
 -1      3837 8.34000E+01 3.05150E+01 0.00000E+00
 -1      3838 8.49000E+01 3.05150E+01 0.00000E+00
 -1      3839 8.26500E+01 2.92160E+01 0.00000E+00
 -1      3840 8.64000E+01 3.05150E+01 0.00000E+00
 -1      3841 8.79000E+01 3.05150E+01 0.00000E+00
 -1      3842 8.56500E+01 2.92160E+01 0.00000E+00
 -1      3843 8.94000E+01 3.05150E+01 0.00000E+00
 -1      3844 9.09000E+01 3.05150E+01 0.00000E+00
 -1      3845 8.86500E+01 2.92160E+01 0.00000E+00
 -1      3846 9.24000E+01 3.05150E+01 0.00000E+00
 -1      3847 9.39000E+01 3.05150E+01 0.00000E+00
 -1      3848 9.16500E+01 2.92160E+01 0.00000E+00
 -1      3849 9.54000E+01 3.05150E+01 0.00000E+00
 -1      3850 9.69000E+01 3.05150E+01 0.00000E+00
 -1      3851 9.46500E+01 2.92160E+01 0.00000E+00
 -1      3852 9.84000E+01 3.05150E+01 0.00000E+00
 -1      3853 9.99000E+01 3.05150E+01 0.00000E+00
 -1      3854 9.76500E+01 2.92160E+01 0.00000E+00
 -1      3855 1.01400E+02 3.05150E+01 0.00000E+00
 -1      3856 1.02900E+02 3.05150E+01 0.00000E+00
 -1      3857 1.00650E+02 2.92160E+01 0.00000E+00
 -1      3858 1.04400E+02 3.05150E+01 0.00000E+00
 -1      3859 1.05900E+02 3.05150E+01 0.00000E+00
 -1      3860 1.03650E+02 2.92160E+01 0.00000E+00
 -1      3861 1.07400E+02 3.05150E+01 0.00000E+00
 -1      3862 1.08900E+02 3.05150E+01 0.00000E+00
 -1      3863 1.06650E+02 2.92160E+01 0.00000E+00
 -1      3864 1.10400E+02 3.05150E+01 0.00000E+00
 -1      3865 1.11900E+02 3.05150E+01 0.00000E+00
 -1      3866 1.09650E+02 2.92160E+01 0.00000E+00
 -1      3867 1.13400E+02 3.05150E+01 0.00000E+00
 -1      3868 1.14900E+02 3.05150E+01 0.00000E+00
 -1      3869 1.12650E+02 2.92160E+01 0.00000E+00
 -1      3870 1.16400E+02 3.05150E+01 0.00000E+00
 -1      3871 1.17900E+02 3.05150E+01 0.00000E+00
 -1      3872 1.15650E+02 2.92160E+01 0.00000E+00
 -1      3873 1.19400E+02 3.05150E+01 0.00000E+00
 -1      3874 1.20900E+02 3.05150E+01 0.00000E+00
 -1      3875 1.18650E+02 2.92160E+01 0.00000E+00
 -1      3876 1.22400E+02 3.05150E+01 0.00000E+00
 -1      3877 1.23900E+02 3.05150E+01 0.00000E+00
 -1      3878 1.21650E+02 2.92160E+01 0.00000E+00
 -1      3879 1.25400E+02 3.05150E+01 0.00000E+00
 -1      3880 1.26900E+02 3.05150E+01 0.00000E+00
 -1      3881 1.24650E+02 2.92160E+01 0.00000E+00
 -1      3882 1.28400E+02 3.05150E+01 0.00000E+00
 -1      3883 1.29900E+02 3.05150E+01 0.00000E+00
 -1      3884 1.27650E+02 2.92160E+01 0.00000E+00
 -1      3885 4.80111E+01 1.83390E+01 0.00000E+00
 -1      3886 4.65111E+01 1.83390E+01 0.00000E+00
 -1      3887 4.87611E+01 1.96380E+01 0.00000E+00
 -1      3888 4.50111E+01 1.83390E+01 0.00000E+00
 -1      3889 4.35111E+01 1.83390E+01 0.00000E+00
 -1      3890 4.57611E+01 1.96380E+01 0.00000E+00
 -1      3891 1.32531E+02 3.06195E+01 0.00000E+00
 -1      3892 5.70111E+01 1.83390E+01 0.00000E+00
 -1      3893 5.55111E+01 1.83390E+01 0.00000E+00
 -1      3894 6.00111E+01 1.83390E+01 0.00000E+00
 -1      3895 5.85111E+01 1.83390E+01 0.00000E+00
 -1      3896 5.77611E+01 1.96380E+01 0.00000E+00
 -1      3897 6.30111E+01 1.83390E+01 0.00000E+00
 -1      3898 6.15111E+01 1.83390E+01 0.00000E+00
 -1      3899 6.07611E+01 1.96380E+01 0.00000E+00
 -1      3900 6.60111E+01 1.83390E+01 0.00000E+00
 -1      3901 6.45111E+01 1.83390E+01 0.00000E+00
 -1      3902 6.37611E+01 1.96380E+01 0.00000E+00
 -1      3903 6.90111E+01 1.83390E+01 0.00000E+00
 -1      3904 6.75111E+01 1.83390E+01 0.00000E+00
 -1      3905 6.67611E+01 1.96380E+01 0.00000E+00
 -1      3906 7.20111E+01 1.83390E+01 0.00000E+00
 -1      3907 7.05111E+01 1.83390E+01 0.00000E+00
 -1      3908 6.97611E+01 1.96380E+01 0.00000E+00
 -1      3909 7.50111E+01 1.83390E+01 0.00000E+00
 -1      3910 7.35111E+01 1.83390E+01 0.00000E+00
 -1      3911 7.27611E+01 1.96380E+01 0.00000E+00
 -1      3912 7.80111E+01 1.83390E+01 0.00000E+00
 -1      3913 7.65111E+01 1.83390E+01 0.00000E+00
 -1      3914 7.57611E+01 1.96380E+01 0.00000E+00
 -1      3915 8.10111E+01 1.83390E+01 0.00000E+00
 -1      3916 7.95111E+01 1.83390E+01 0.00000E+00
 -1      3917 7.87611E+01 1.96380E+01 0.00000E+00
 -1      3918 8.40111E+01 1.83390E+01 0.00000E+00
 -1      3919 8.25111E+01 1.83390E+01 0.00000E+00
 -1      3920 8.17611E+01 1.96380E+01 0.00000E+00
 -1      3921 8.70111E+01 1.83390E+01 0.00000E+00
 -1      3922 8.55111E+01 1.83390E+01 0.00000E+00
 -1      3923 8.47611E+01 1.96380E+01 0.00000E+00
 -1      3924 9.00111E+01 1.83390E+01 0.00000E+00
 -1      3925 8.85111E+01 1.83390E+01 0.00000E+00
 -1      3926 8.77611E+01 1.96380E+01 0.00000E+00
 -1      3927 9.30111E+01 1.83390E+01 0.00000E+00
 -1      3928 9.15111E+01 1.83390E+01 0.00000E+00
 -1      3929 9.07611E+01 1.96380E+01 0.00000E+00
 -1      3930 9.60111E+01 1.83390E+01 0.00000E+00
 -1      3931 9.45111E+01 1.83390E+01 0.00000E+00
 -1      3932 9.37611E+01 1.96380E+01 0.00000E+00
 -1      3933 9.90111E+01 1.83390E+01 0.00000E+00
 -1      3934 9.75111E+01 1.83390E+01 0.00000E+00
 -1      3935 9.67611E+01 1.96380E+01 0.00000E+00
 -1      3936 1.02011E+02 1.83390E+01 0.00000E+00
 -1      3937 1.00511E+02 1.83390E+01 0.00000E+00
 -1      3938 9.97611E+01 1.96380E+01 0.00000E+00
 -1      3939 1.05011E+02 1.83390E+01 0.00000E+00
 -1      3940 1.03511E+02 1.83390E+01 0.00000E+00
 -1      3941 1.02761E+02 1.96380E+01 0.00000E+00
 -1      3942 1.08011E+02 1.83390E+01 0.00000E+00
 -1      3943 1.06511E+02 1.83390E+01 0.00000E+00
 -1      3944 1.05761E+02 1.96380E+01 0.00000E+00
 -1      3945 1.11011E+02 1.83390E+01 0.00000E+00
 -1      3946 1.09511E+02 1.83390E+01 0.00000E+00
 -1      3947 1.08761E+02 1.96380E+01 0.00000E+00
 -1      3948 1.14011E+02 1.83390E+01 0.00000E+00
 -1      3949 1.12511E+02 1.83390E+01 0.00000E+00
 -1      3950 1.11761E+02 1.96380E+01 0.00000E+00
 -1      3951 1.17011E+02 1.83390E+01 0.00000E+00
 -1      3952 1.15511E+02 1.83390E+01 0.00000E+00
 -1      3953 1.14761E+02 1.96380E+01 0.00000E+00
 -1      3954 1.20011E+02 1.83390E+01 0.00000E+00
 -1      3955 1.18511E+02 1.83390E+01 0.00000E+00
 -1      3956 1.17761E+02 1.96380E+01 0.00000E+00
 -1      3957 1.23011E+02 1.83390E+01 0.00000E+00
 -1      3958 1.21511E+02 1.83390E+01 0.00000E+00
 -1      3959 1.20761E+02 1.96380E+01 0.00000E+00
 -1      3960 1.26011E+02 1.83390E+01 0.00000E+00
 -1      3961 1.24511E+02 1.83390E+01 0.00000E+00
 -1      3962 1.23761E+02 1.96380E+01 0.00000E+00
 -1      3963 1.29011E+02 1.83390E+01 0.00000E+00
 -1      3964 1.27511E+02 1.83390E+01 0.00000E+00
 -1      3965 1.26761E+02 1.96380E+01 0.00000E+00
 -1      3966 4.20111E+01 1.83390E+01 0.00000E+00
 -1      3967 4.05111E+01 1.83390E+01 0.00000E+00
 -1      3968 4.27611E+01 1.96380E+01 0.00000E+00
 -1      3969 3.62283E+01 2.96801E+01 0.00000E+00
 -1      3970 3.76717E+01 2.73059E+01 0.00000E+00
 -1      3971 3.69783E+01 2.83811E+01 0.00000E+00
 -1      3972 1.33200E+02 2.31193E+01 0.00000E+00
 -1      3973 1.33200E+02 2.16474E+01 0.00000E+00
 -1      3974 1.32075E+02 2.15594E+01 0.00000E+00
 -1      3975 1.31901E+02 2.38552E+01 0.00000E+00
 -1      3976 5.40111E+01 1.83390E+01 0.00000E+00
 -1      3977 5.25111E+01 1.83390E+01 0.00000E+00
 -1      3978 5.17611E+01 1.96380E+01 0.00000E+00
 -1      3979 5.47611E+01 1.96380E+01 0.00000E+00
 -1      3980 3.61431E+01 1.92148E+01 0.00000E+00
 -1      3981 3.58953E+01 2.05109E+01 0.00000E+00
 -1      3982 3.69367E+01 2.15075E+01 0.00000E+00
 -1      3983 3.73079E+01 1.89202E+01 0.00000E+00
 -1      3984 1.30482E+02 2.85846E+01 0.00000E+00
 -1      3985 1.31232E+02 2.98836E+01 0.00000E+00
 -1      3986 1.31111E+02 1.86204E+01 0.00000E+00
 -1      3987 1.29986E+02 1.85324E+01 0.00000E+00
 -1      3988 1.29236E+02 1.98314E+01 0.00000E+00
 -1      3989 1.31187E+02 2.02181E+01 0.00000E+00
 -1      3990 1.30562E+02 2.43310E+01 0.00000E+00
 -1      3991 1.30649E+02 2.31831E+01 0.00000E+00
 -1      3992 3.79599E+01 2.55559E+01 0.00000E+00
 -1      3993 3.94381E+01 2.74659E+01 0.00000E+00
 -1      3994 1.30522E+02 2.71953E+01 0.00000E+00
 -1      3995 1.30522E+02 2.57203E+01 0.00000E+00
 -1      3996 1.29270E+02 2.50482E+01 0.00000E+00
 -1      3997 1.29190E+02 2.78267E+01 0.00000E+00
 -1      3998 3.94920E+01 1.84824E+01 0.00000E+00
 -1      3999 3.83271E+01 1.87769E+01 0.00000E+00
 -1      4000 3.82036E+01 2.00681E+01 0.00000E+00
 -1      4001 4.02420E+01 1.97814E+01 0.00000E+00
 -1      4002 3.82076E+01 2.42598E+01 0.00000E+00
 -1      4003 4.09381E+01 2.74659E+01 0.00000E+00
 -1      4004 4.24381E+01 2.74659E+01 0.00000E+00
 -1      4005 4.39381E+01 2.74659E+01 0.00000E+00
 -1      4006 4.12263E+01 2.57159E+01 0.00000E+00
 -1      4007 4.54381E+01 2.74659E+01 0.00000E+00
 -1      4008 4.69381E+01 2.74659E+01 0.00000E+00
 -1      4009 4.42263E+01 2.57159E+01 0.00000E+00
 -1      4010 4.84381E+01 2.74659E+01 0.00000E+00
 -1      4011 4.99381E+01 2.74659E+01 0.00000E+00
 -1      4012 4.72263E+01 2.57159E+01 0.00000E+00
 -1      4013 5.14381E+01 2.74659E+01 0.00000E+00
 -1      4014 5.29381E+01 2.74659E+01 0.00000E+00
 -1      4015 5.02263E+01 2.57159E+01 0.00000E+00
 -1      4016 5.44381E+01 2.74659E+01 0.00000E+00
 -1      4017 5.59381E+01 2.74659E+01 0.00000E+00
 -1      4018 5.32263E+01 2.57159E+01 0.00000E+00
 -1      4019 5.74381E+01 2.74659E+01 0.00000E+00
 -1      4020 5.89381E+01 2.74659E+01 0.00000E+00
 -1      4021 5.62263E+01 2.57159E+01 0.00000E+00
 -1      4022 6.04381E+01 2.74659E+01 0.00000E+00
 -1      4023 6.19381E+01 2.74659E+01 0.00000E+00
 -1      4024 5.92263E+01 2.57159E+01 0.00000E+00
 -1      4025 6.34381E+01 2.74659E+01 0.00000E+00
 -1      4026 6.49381E+01 2.74659E+01 0.00000E+00
 -1      4027 6.22263E+01 2.57159E+01 0.00000E+00
 -1      4028 6.64381E+01 2.74659E+01 0.00000E+00
 -1      4029 6.79381E+01 2.74659E+01 0.00000E+00
 -1      4030 6.52263E+01 2.57159E+01 0.00000E+00
 -1      4031 6.94381E+01 2.74659E+01 0.00000E+00
 -1      4032 7.09381E+01 2.74659E+01 0.00000E+00
 -1      4033 6.82263E+01 2.57159E+01 0.00000E+00
 -1      4034 7.24381E+01 2.74659E+01 0.00000E+00
 -1      4035 7.39381E+01 2.74659E+01 0.00000E+00
 -1      4036 7.12263E+01 2.57159E+01 0.00000E+00
 -1      4037 7.54381E+01 2.74659E+01 0.00000E+00
 -1      4038 7.69381E+01 2.74659E+01 0.00000E+00
 -1      4039 7.42263E+01 2.57159E+01 0.00000E+00
 -1      4040 7.84381E+01 2.74659E+01 0.00000E+00
 -1      4041 7.99381E+01 2.74659E+01 0.00000E+00
 -1      4042 7.72263E+01 2.57159E+01 0.00000E+00
 -1      4043 8.14381E+01 2.74659E+01 0.00000E+00
 -1      4044 8.29381E+01 2.74659E+01 0.00000E+00
 -1      4045 8.02263E+01 2.57159E+01 0.00000E+00
 -1      4046 8.44381E+01 2.74659E+01 0.00000E+00
 -1      4047 8.59381E+01 2.74659E+01 0.00000E+00
 -1      4048 8.32263E+01 2.57159E+01 0.00000E+00
 -1      4049 8.74381E+01 2.74659E+01 0.00000E+00
 -1      4050 8.89381E+01 2.74659E+01 0.00000E+00
 -1      4051 8.62263E+01 2.57159E+01 0.00000E+00
 -1      4052 9.04381E+01 2.74659E+01 0.00000E+00
 -1      4053 9.19381E+01 2.74659E+01 0.00000E+00
 -1      4054 8.92263E+01 2.57159E+01 0.00000E+00
 -1      4055 9.34381E+01 2.74659E+01 0.00000E+00
 -1      4056 9.49381E+01 2.74659E+01 0.00000E+00
 -1      4057 9.22263E+01 2.57159E+01 0.00000E+00
 -1      4058 9.64381E+01 2.74659E+01 0.00000E+00
 -1      4059 9.79381E+01 2.74659E+01 0.00000E+00
 -1      4060 9.52263E+01 2.57159E+01 0.00000E+00
 -1      4061 9.94381E+01 2.74659E+01 0.00000E+00
 -1      4062 1.00938E+02 2.74659E+01 0.00000E+00
 -1      4063 9.82263E+01 2.57159E+01 0.00000E+00
 -1      4064 1.02438E+02 2.74659E+01 0.00000E+00
 -1      4065 1.03938E+02 2.74659E+01 0.00000E+00
 -1      4066 1.01226E+02 2.57159E+01 0.00000E+00
 -1      4067 1.05438E+02 2.74659E+01 0.00000E+00
 -1      4068 1.06938E+02 2.74659E+01 0.00000E+00
 -1      4069 1.04226E+02 2.57159E+01 0.00000E+00
 -1      4070 1.08438E+02 2.74659E+01 0.00000E+00
 -1      4071 1.09938E+02 2.74659E+01 0.00000E+00
 -1      4072 1.07226E+02 2.57159E+01 0.00000E+00
 -1      4073 1.11438E+02 2.74659E+01 0.00000E+00
 -1      4074 1.12938E+02 2.74659E+01 0.00000E+00
 -1      4075 1.10226E+02 2.57159E+01 0.00000E+00
 -1      4076 1.14438E+02 2.74659E+01 0.00000E+00
 -1      4077 1.15938E+02 2.74659E+01 0.00000E+00
 -1      4078 1.13226E+02 2.57159E+01 0.00000E+00
 -1      4079 1.17438E+02 2.74659E+01 0.00000E+00
 -1      4080 1.18938E+02 2.74659E+01 0.00000E+00
 -1      4081 1.16226E+02 2.57159E+01 0.00000E+00
 -1      4082 1.20438E+02 2.74659E+01 0.00000E+00
 -1      4083 1.21938E+02 2.74659E+01 0.00000E+00
 -1      4084 1.19226E+02 2.57159E+01 0.00000E+00
 -1      4085 1.23438E+02 2.74659E+01 0.00000E+00
 -1      4086 1.24938E+02 2.74659E+01 0.00000E+00
 -1      4087 1.22226E+02 2.57159E+01 0.00000E+00
 -1      4088 1.27690E+02 2.78267E+01 0.00000E+00
 -1      4089 4.95111E+01 2.09370E+01 0.00000E+00
 -1      4090 4.80111E+01 2.09370E+01 0.00000E+00
 -1      4091 4.65111E+01 2.09370E+01 0.00000E+00
 -1      4092 4.50111E+01 2.09370E+01 0.00000E+00
 -1      4093 4.72611E+01 2.22360E+01 0.00000E+00
 -1      4094 6.45111E+01 2.09370E+01 0.00000E+00
 -1      4095 6.30111E+01 2.09370E+01 0.00000E+00
 -1      4096 6.15111E+01 2.09370E+01 0.00000E+00
 -1      4097 6.00111E+01 2.09370E+01 0.00000E+00
 -1      4098 6.22611E+01 2.22360E+01 0.00000E+00
 -1      4099 5.85111E+01 2.09370E+01 0.00000E+00
 -1      4100 5.70111E+01 2.09370E+01 0.00000E+00
 -1      4101 5.92611E+01 2.22360E+01 0.00000E+00
 -1      4102 6.75111E+01 2.09370E+01 0.00000E+00
 -1      4103 6.60111E+01 2.09370E+01 0.00000E+00
 -1      4104 6.52611E+01 2.22360E+01 0.00000E+00
 -1      4105 7.05111E+01 2.09370E+01 0.00000E+00
 -1      4106 6.90111E+01 2.09370E+01 0.00000E+00
 -1      4107 6.82611E+01 2.22360E+01 0.00000E+00
 -1      4108 7.35111E+01 2.09370E+01 0.00000E+00
 -1      4109 7.20111E+01 2.09370E+01 0.00000E+00
 -1      4110 7.12611E+01 2.22360E+01 0.00000E+00
 -1      4111 7.65111E+01 2.09370E+01 0.00000E+00
 -1      4112 7.50111E+01 2.09370E+01 0.00000E+00
 -1      4113 7.42611E+01 2.22360E+01 0.00000E+00
 -1      4114 7.95111E+01 2.09370E+01 0.00000E+00
 -1      4115 7.80111E+01 2.09370E+01 0.00000E+00
 -1      4116 7.72611E+01 2.22360E+01 0.00000E+00
 -1      4117 8.25111E+01 2.09370E+01 0.00000E+00
 -1      4118 8.10111E+01 2.09370E+01 0.00000E+00
 -1      4119 8.02611E+01 2.22360E+01 0.00000E+00
 -1      4120 8.55111E+01 2.09370E+01 0.00000E+00
 -1      4121 8.40111E+01 2.09370E+01 0.00000E+00
 -1      4122 8.32611E+01 2.22360E+01 0.00000E+00
 -1      4123 8.85111E+01 2.09370E+01 0.00000E+00
 -1      4124 8.70111E+01 2.09370E+01 0.00000E+00
 -1      4125 8.62611E+01 2.22360E+01 0.00000E+00
 -1      4126 9.15111E+01 2.09370E+01 0.00000E+00
 -1      4127 9.00111E+01 2.09370E+01 0.00000E+00
 -1      4128 8.92611E+01 2.22360E+01 0.00000E+00
 -1      4129 9.45111E+01 2.09370E+01 0.00000E+00
 -1      4130 9.30111E+01 2.09370E+01 0.00000E+00
 -1      4131 9.22611E+01 2.22360E+01 0.00000E+00
 -1      4132 9.75111E+01 2.09370E+01 0.00000E+00
 -1      4133 9.60111E+01 2.09370E+01 0.00000E+00
 -1      4134 9.52611E+01 2.22360E+01 0.00000E+00
 -1      4135 1.00511E+02 2.09370E+01 0.00000E+00
 -1      4136 9.90111E+01 2.09370E+01 0.00000E+00
 -1      4137 9.82611E+01 2.22360E+01 0.00000E+00
 -1      4138 1.03511E+02 2.09370E+01 0.00000E+00
 -1      4139 1.02011E+02 2.09370E+01 0.00000E+00
 -1      4140 1.01261E+02 2.22360E+01 0.00000E+00
 -1      4141 1.06511E+02 2.09370E+01 0.00000E+00
 -1      4142 1.05011E+02 2.09370E+01 0.00000E+00
 -1      4143 1.04261E+02 2.22360E+01 0.00000E+00
 -1      4144 1.09511E+02 2.09370E+01 0.00000E+00
 -1      4145 1.08011E+02 2.09370E+01 0.00000E+00
 -1      4146 1.07261E+02 2.22360E+01 0.00000E+00
 -1      4147 1.12511E+02 2.09370E+01 0.00000E+00
 -1      4148 1.11011E+02 2.09370E+01 0.00000E+00
 -1      4149 1.10261E+02 2.22360E+01 0.00000E+00
 -1      4150 1.15511E+02 2.09370E+01 0.00000E+00
 -1      4151 1.14011E+02 2.09370E+01 0.00000E+00
 -1      4152 1.13261E+02 2.22360E+01 0.00000E+00
 -1      4153 1.18511E+02 2.09370E+01 0.00000E+00
 -1      4154 1.17011E+02 2.09370E+01 0.00000E+00
 -1      4155 1.16261E+02 2.22360E+01 0.00000E+00
 -1      4156 1.21511E+02 2.09370E+01 0.00000E+00
 -1      4157 1.20011E+02 2.09370E+01 0.00000E+00
 -1      4158 1.19261E+02 2.22360E+01 0.00000E+00
 -1      4159 1.24511E+02 2.09370E+01 0.00000E+00
 -1      4160 1.23011E+02 2.09370E+01 0.00000E+00
 -1      4161 1.22261E+02 2.22360E+01 0.00000E+00
 -1      4162 1.27511E+02 2.09370E+01 0.00000E+00
 -1      4163 1.26011E+02 2.09370E+01 0.00000E+00
 -1      4164 1.25261E+02 2.22360E+01 0.00000E+00
 -1      4165 3.83473E+01 2.25941E+01 0.00000E+00
 -1      4166 3.98660E+01 2.40502E+01 0.00000E+00
 -1      4167 1.30874E+02 2.22746E+01 0.00000E+00
 -1      4168 1.30962E+02 2.11267E+01 0.00000E+00
 -1      4169 1.29986E+02 2.09333E+01 0.00000E+00
 -1      4170 1.29536E+02 2.27503E+01 0.00000E+00
 -1      4171 3.85951E+01 2.12980E+01 0.00000E+00
 -1      4172 4.13660E+01 2.40502E+01 0.00000E+00
 -1      4173 1.28036E+02 2.29474E+01 0.00000E+00
 -1      4174 1.28261E+02 2.20389E+01 0.00000E+00
 -1      4175 1.29011E+02 2.07399E+01 0.00000E+00
 -1      4176 5.62611E+01 2.22360E+01 0.00000E+00
 -1      4177 5.55111E+01 2.09370E+01 0.00000E+00
 -1      4178 5.40111E+01 2.09370E+01 0.00000E+00
 -1      4179 4.35111E+01 2.09370E+01 0.00000E+00
 -1      4180 4.20111E+01 2.09370E+01 0.00000E+00
 -1      4181 1.26478E+02 2.60766E+01 0.00000E+00
 -1      4182 5.25111E+01 2.09370E+01 0.00000E+00
 -1      4183 5.10111E+01 2.09370E+01 0.00000E+00
 -1      4184 5.02611E+01 2.22360E+01 0.00000E+00
 -1      4185 5.32611E+01 2.22360E+01 0.00000E+00
 -1      4186 4.42611E+01 2.22360E+01 0.00000E+00
 -1      4187 4.13834E+01 2.23102E+01 0.00000E+00
 -1      4188 4.06334E+01 2.10112E+01 0.00000E+00
 -1      4189 1.28040E+02 2.44374E+01 0.00000E+00
 -1      4190 1.26765E+02 2.37260E+01 0.00000E+00
 -1      4191 4.27437E+01 2.39759E+01 0.00000E+00
 -1      4192 3.96142E+01 2.11546E+01 0.00000E+00
 -1      4193 4.42437E+01 2.39759E+01 0.00000E+00
 -1      4194 4.57437E+01 2.39759E+01 0.00000E+00
 -1      4195 4.72437E+01 2.39759E+01 0.00000E+00
 -1      4196 4.87437E+01 2.39759E+01 0.00000E+00
 -1      4197 5.02437E+01 2.39759E+01 0.00000E+00
 -1      4198 5.17437E+01 2.39759E+01 0.00000E+00
 -1      4199 5.32437E+01 2.39759E+01 0.00000E+00
 -1      4200 5.47437E+01 2.39759E+01 0.00000E+00
 -1      4201 5.62437E+01 2.39759E+01 0.00000E+00
 -1      4202 5.77437E+01 2.39759E+01 0.00000E+00
 -1      4203 5.92437E+01 2.39759E+01 0.00000E+00
 -1      4204 6.07437E+01 2.39759E+01 0.00000E+00
 -1      4205 6.22437E+01 2.39759E+01 0.00000E+00
 -1      4206 6.37437E+01 2.39759E+01 0.00000E+00
 -1      4207 6.52437E+01 2.39759E+01 0.00000E+00
 -1      4208 6.67437E+01 2.39759E+01 0.00000E+00
 -1      4209 6.82437E+01 2.39759E+01 0.00000E+00
 -1      4210 6.97437E+01 2.39759E+01 0.00000E+00
 -1      4211 7.12437E+01 2.39759E+01 0.00000E+00
 -1      4212 7.27437E+01 2.39759E+01 0.00000E+00
 -1      4213 7.42437E+01 2.39759E+01 0.00000E+00
 -1      4214 7.57437E+01 2.39759E+01 0.00000E+00
 -1      4215 7.72437E+01 2.39759E+01 0.00000E+00
 -1      4216 7.87437E+01 2.39759E+01 0.00000E+00
 -1      4217 8.02437E+01 2.39759E+01 0.00000E+00
 -1      4218 8.17437E+01 2.39759E+01 0.00000E+00
 -1      4219 8.32437E+01 2.39759E+01 0.00000E+00
 -1      4220 8.47437E+01 2.39759E+01 0.00000E+00
 -1      4221 8.62437E+01 2.39759E+01 0.00000E+00
 -1      4222 8.77437E+01 2.39759E+01 0.00000E+00
 -1      4223 8.92437E+01 2.39759E+01 0.00000E+00
 -1      4224 9.07437E+01 2.39759E+01 0.00000E+00
 -1      4225 9.22437E+01 2.39759E+01 0.00000E+00
 -1      4226 9.37437E+01 2.39759E+01 0.00000E+00
 -1      4227 9.52437E+01 2.39759E+01 0.00000E+00
 -1      4228 9.67437E+01 2.39759E+01 0.00000E+00
 -1      4229 9.82437E+01 2.39759E+01 0.00000E+00
 -1      4230 9.97437E+01 2.39759E+01 0.00000E+00
 -1      4231 1.01244E+02 2.39759E+01 0.00000E+00
 -1      4232 1.02744E+02 2.39759E+01 0.00000E+00
 -1      4233 1.04244E+02 2.39759E+01 0.00000E+00
 -1      4234 1.05744E+02 2.39759E+01 0.00000E+00
 -1      4235 1.07244E+02 2.39759E+01 0.00000E+00
 -1      4236 1.08744E+02 2.39759E+01 0.00000E+00
 -1      4237 1.10244E+02 2.39759E+01 0.00000E+00
 -1      4238 1.11744E+02 2.39759E+01 0.00000E+00
 -1      4239 1.13244E+02 2.39759E+01 0.00000E+00
 -1      4240 1.14744E+02 2.39759E+01 0.00000E+00
 -1      4241 1.16244E+02 2.39759E+01 0.00000E+00
 -1      4242 1.17744E+02 2.39759E+01 0.00000E+00
 -1      4243 1.19244E+02 2.39759E+01 0.00000E+00
 -1      4244 1.20744E+02 2.39759E+01 0.00000E+00
 -1      4245 1.22244E+02 2.39759E+01 0.00000E+00
 -1      4246 1.23744E+02 2.39759E+01 0.00000E+00
 -1      4247 1.25265E+02 2.37260E+01 0.00000E+00
 -1      4248 1.28000E+02 2.58267E+01 0.00000E+00
 -1      4249 1.25248E+02 2.54659E+01 0.00000E+00
 -3
    3C                          2043                                     1
 -1       164    8    0    1
 -2         6         7        23      1104      1267      1121
 -1       165    8    0    1
 -2         7         8       164      1105      1268      1269
 -1       166    8    0    1
 -2         8         9       165      1106      1270      1271
 -1       167    8    0    1
 -2         8       165       164      1271      1272      1268
 -1       168    8    0    1
 -2         9        10       166      1107      1273      1274
 -1       169    8    0    1
 -2         9       166       165      1274      1275      1270
 -1       170    8    0    1
 -2        10        11       167      1108      1276      1277
 -1       171    8    0    1
 -2        10       167       166      1277      1278      1273
 -1       172    8    0    1
 -2        11        12       168      1109      1279      1280
 -1       173    8    0    1
 -2        11       168       167      1280      1281      1276
 -1       174    8    0    1
 -2        12        13       169      1110      1282      1283
 -1       175    8    0    1
 -2        12       169       168      1283      1284      1279
 -1       176    8    0    1
 -2        13        14       170      1111      1285      1286
 -1       177    8    0    1
 -2        13       170       169      1286      1287      1282
 -1       178    8    0    1
 -2        14        15       171      1112      1288      1289
 -1       179    8    0    1
 -2        14       171       170      1289      1290      1285
 -1       180    8    0    1
 -2        15        16       172      1113      1291      1292
 -1       181    8    0    1
 -2        15       172       171      1292      1293      1288
 -1       182    8    0    1
 -2        16        17       173      1114      1294      1295
 -1       183    8    0    1
 -2        16       173       172      1295      1296      1291
 -1       184    8    0    1
 -2        17        18       174      1115      1297      1298
 -1       185    8    0    1
 -2        17       174       173      1298      1299      1294
 -1       186    8    0    1
 -2        18        19       175      1116      1300      1301
 -1       187    8    0    1
 -2        18       175       174      1301      1302      1297
 -1       188    8    0    1
 -2        19        20       176      1117      1303      1304
 -1       189    8    0    1
 -2        19       176       175      1304      1305      1300
 -1       190    8    0    1
 -2        20        21       177      1118      1306      1307
 -1       191    8    0    1
 -2        20       177       176      1307      1308      1303
 -1       192    8    0    1
 -2        21        22       178      1119      1309      1310
 -1       193    8    0    1
 -2        21       178       177      1310      1311      1306
 -1       194    8    0    1
 -2        22         5       179      1120      1312      1313
 -1       195    8    0    1
 -2       178        22       179      1309      1313      1314
 -1       196    8    0    1
 -2         5        72       179      1171      1315      1312
 -1       197    8    0    1
 -2        24        23       180      1122      1316      1317
 -1       198    8    0    1
 -2        25        24       181      1123      1318      1319
 -1       199    8    0    1
 -2        24       180       181      1317      1320      1318
 -1       200    8    0    1
 -2        26        25       182      1124      1321      1322
 -1       201    8    0    1
 -2        25       181       182      1319      1323      1321
 -1       202    8    0    1
 -2        27        26       183      1125      1324      1325
 -1       203    8    0    1
 -2        26       182       183      1322      1326      1324
 -1       204    8    0    1
 -2        28        27       184      1126      1327      1328
 -1       205    8    0    1
 -2        27       183       184      1325      1329      1327
 -1       206    8    0    1
 -2        29        28       185      1127      1330      1331
 -1       207    8    0    1
 -2        28       184       185      1328      1332      1330
 -1       208    8    0    1
 -2        30        29       186      1128      1333      1334
 -1       209    8    0    1
 -2        29       185       186      1331      1335      1333
 -1       210    8    0    1
 -2        31        30       187      1129      1336      1337
 -1       211    8    0    1
 -2        30       186       187      1334      1338      1336
 -1       212    8    0    1
 -2        32        31       188      1130      1339      1340
 -1       213    8    0    1
 -2        31       187       188      1337      1341      1339
 -1       214    8    0    1
 -2        33        32       189      1131      1342      1343
 -1       215    8    0    1
 -2        32       188       189      1340      1344      1342
 -1       216    8    0    1
 -2        34        33       190      1132      1345      1346
 -1       217    8    0    1
 -2        33       189       190      1343      1347      1345
 -1       218    8    0    1
 -2        35        34       191      1133      1348      1349
 -1       219    8    0    1
 -2        34       190       191      1346      1350      1348
 -1       220    8    0    1
 -2        36        35       192      1134      1351      1352
 -1       221    8    0    1
 -2        35       191       192      1349      1353      1351
 -1       222    8    0    1
 -2        37        36       193      1135      1354      1355
 -1       223    8    0    1
 -2        36       192       193      1352      1356      1354
 -1       224    8    0    1
 -2        38        37       194      1136      1357      1358
 -1       225    8    0    1
 -2        37       193       194      1355      1359      1357
 -1       226    8    0    1
 -2        39        38       195      1137      1360      1361
 -1       227    8    0    1
 -2        38       194       195      1358      1362      1360
 -1       228    8    0    1
 -2        40        39       196      1138      1363      1364
 -1       229    8    0    1
 -2        39       195       196      1361      1365      1363
 -1       230    8    0    1
 -2        41        40       197      1139      1366      1367
 -1       231    8    0    1
 -2        40       196       197      1364      1368      1366
 -1       232    8    0    1
 -2        42        41       198      1140      1369      1370
 -1       233    8    0    1
 -2        41       197       198      1367      1371      1369
 -1       234    8    0    1
 -2        43        42       199      1141      1372      1373
 -1       235    8    0    1
 -2        42       198       199      1370      1374      1372
 -1       236    8    0    1
 -2        44        43       200      1142      1375      1376
 -1       237    8    0    1
 -2        43       199       200      1373      1377      1375
 -1       238    8    0    1
 -2        45        44       201      1143      1378      1379
 -1       239    8    0    1
 -2        44       200       201      1376      1380      1378
 -1       240    8    0    1
 -2        46        45       202      1144      1381      1382
 -1       241    8    0    1
 -2        45       201       202      1379      1383      1381
 -1       242    8    0    1
 -2        47        46       203      1145      1384      1385
 -1       243    8    0    1
 -2        46       202       203      1382      1386      1384
 -1       244    8    0    1
 -2        48        47       204      1146      1387      1388
 -1       245    8    0    1
 -2        47       203       204      1385      1389      1387
 -1       246    8    0    1
 -2        49        48       205      1147      1390      1391
 -1       247    8    0    1
 -2        48       204       205      1388      1392      1390
 -1       248    8    0    1
 -2        50        49       206      1148      1393      1394
 -1       249    8    0    1
 -2        49       205       206      1391      1395      1393
 -1       250    8    0    1
 -2        51        50       207      1149      1396      1397
 -1       251    8    0    1
 -2        50       206       207      1394      1398      1396
 -1       252    8    0    1
 -2        52        51       208      1150      1399      1400
 -1       253    8    0    1
 -2        51       207       208      1397      1401      1399
 -1       254    8    0    1
 -2        53        52       209      1151      1402      1403
 -1       255    8    0    1
 -2        52       208       209      1400      1404      1402
 -1       256    8    0    1
 -2        54        53       210      1152      1405      1406
 -1       257    8    0    1
 -2        53       209       210      1403      1407      1405
 -1       258    8    0    1
 -2        55        54       211      1153      1408      1409
 -1       259    8    0    1
 -2        54       210       211      1406      1410      1408
 -1       260    8    0    1
 -2        56        55       212      1154      1411      1412
 -1       261    8    0    1
 -2        55       211       212      1409      1413      1411
 -1       262    8    0    1
 -2        57        56       213      1155      1414      1415
 -1       263    8    0    1
 -2        56       212       213      1412      1416      1414
 -1       264    8    0    1
 -2        58        57       214      1156      1417      1418
 -1       265    8    0    1
 -2        57       213       214      1415      1419      1417
 -1       266    8    0    1
 -2        59        58       215      1157      1420      1421
 -1       267    8    0    1
 -2        58       214       215      1418      1422      1420
 -1       268    8    0    1
 -2        60        59       216      1158      1423      1424
 -1       269    8    0    1
 -2        59       215       216      1421      1425      1423
 -1       270    8    0    1
 -2        61        60       217      1159      1426      1427
 -1       271    8    0    1
 -2        60       216       217      1424      1428      1426
 -1       272    8    0    1
 -2        62        61       218      1160      1429      1430
 -1       273    8    0    1
 -2        61       217       218      1427      1431      1429
 -1       274    8    0    1
 -2        63        62       219      1161      1432      1433
 -1       275    8    0    1
 -2        62       218       219      1430      1434      1432
 -1       276    8    0    1
 -2        64        63       220      1162      1435      1436
 -1       277    8    0    1
 -2        63       219       220      1433      1437      1435
 -1       278    8    0    1
 -2        65        64       221      1163      1438      1439
 -1       279    8    0    1
 -2        64       220       221      1436      1440      1438
 -1       280    8    0    1
 -2        66        65       222      1164      1441      1442
 -1       281    8    0    1
 -2        65       221       222      1439      1443      1441
 -1       282    8    0    1
 -2        67        66       223      1165      1444      1445
 -1       283    8    0    1
 -2        66       222       223      1442      1446      1444
 -1       284    8    0    1
 -2        68        67       224      1166      1447      1448
 -1       285    8    0    1
 -2        67       223       224      1445      1449      1447
 -1       286    8    0    1
 -2        69        68       225      1167      1450      1451
 -1       287    8    0    1
 -2        68       224       225      1448      1452      1450
 -1       288    8    0    1
 -2        70        69       226      1168      1453      1454
 -1       289    8    0    1
 -2        69       225       226      1451      1455      1453
 -1       290    8    0    1
 -2        71        70       227      1169      1456      1457
 -1       291    8    0    1
 -2        70       226       227      1454      1458      1456
 -1       292    8    0    1
 -2         4        71       136      1170      1459      1237
 -1       293    8    0    1
 -2       136        71       227      1459      1457      1460
 -1       294    8    0    1
 -2        72        73       228      1172      1461      1462
 -1       295    8    0    1
 -2        72       228       179      1462      1463      1315
 -1       296    8    0    1
 -2        73        74       229      1173      1464      1465
 -1       297    8    0    1
 -2        73       229       228      1465      1466      1461
 -1       298    8    0    1
 -2        74        75       230      1174      1467      1468
 -1       299    8    0    1
 -2        74       230       229      1468      1469      1464
 -1       300    8    0    1
 -2        75        76       231      1175      1470      1471
 -1       301    8    0    1
 -2        75       231       230      1471      1472      1467
 -1       302    8    0    1
 -2        76        77       232      1176      1473      1474
 -1       303    8    0    1
 -2        76       232       231      1474      1475      1470
 -1       304    8    0    1
 -2        77        78       233      1177      1476      1477
 -1       305    8    0    1
 -2        77       233       232      1477      1478      1473
 -1       306    8    0    1
 -2        78        79       234      1178      1479      1480
 -1       307    8    0    1
 -2        78       234       233      1480      1481      1476
 -1       308    8    0    1
 -2        79        80       235      1179      1482      1483
 -1       309    8    0    1
 -2        79       235       234      1483      1484      1479
 -1       310    8    0    1
 -2        80        81       236      1180      1485      1486
 -1       311    8    0    1
 -2        80       236       235      1486      1487      1482
 -1       312    8    0    1
 -2        81        82       237      1181      1488      1489
 -1       313    8    0    1
 -2        81       237       236      1489      1490      1485
 -1       314    8    0    1
 -2        82        83       238      1182      1491      1492
 -1       315    8    0    1
 -2        82       238       237      1492      1493      1488
 -1       316    8    0    1
 -2        83        84       239      1183      1494      1495
 -1       317    8    0    1
 -2        83       239       238      1495      1496      1491
 -1       318    8    0    1
 -2        84        85       240      1184      1497      1498
 -1       319    8    0    1
 -2        84       240       239      1498      1499      1494
 -1       320    8    0    1
 -2        85        86       241      1185      1500      1501
 -1       321    8    0    1
 -2        85       241       240      1501      1502      1497
 -1       322    8    0    1
 -2        86        87       242      1186      1503      1504
 -1       323    8    0    1
 -2        86       242       241      1504      1505      1500
 -1       324    8    0    1
 -2        87        88       243      1187      1506      1507
 -1       325    8    0    1
 -2        87       243       242      1507      1508      1503
 -1       326    8    0    1
 -2        88        89       244      1188      1509      1510
 -1       327    8    0    1
 -2        88       244       243      1510      1511      1506
 -1       328    8    0    1
 -2        89        90       245      1189      1512      1513
 -1       329    8    0    1
 -2        89       245       244      1513      1514      1509
 -1       330    8    0    1
 -2        90        91       246      1190      1515      1516
 -1       331    8    0    1
 -2        90       246       245      1516      1517      1512
 -1       332    8    0    1
 -2        91        92       247      1191      1518      1519
 -1       333    8    0    1
 -2        91       247       246      1519      1520      1515
 -1       334    8    0    1
 -2        92        93       248      1192      1521      1522
 -1       335    8    0    1
 -2        92       248       247      1522      1523      1518
 -1       336    8    0    1
 -2        93        94       249      1193      1524      1525
 -1       337    8    0    1
 -2        93       249       248      1525      1526      1521
 -1       338    8    0    1
 -2        94        95       250      1194      1527      1528
 -1       339    8    0    1
 -2        94       250       249      1528      1529      1524
 -1       340    8    0    1
 -2        95        96       251      1195      1530      1531
 -1       341    8    0    1
 -2        95       251       250      1531      1532      1527
 -1       342    8    0    1
 -2        96        97       252      1196      1533      1534
 -1       343    8    0    1
 -2        96       252       251      1534      1535      1530
 -1       344    8    0    1
 -2        97        98       253      1197      1536      1537
 -1       345    8    0    1
 -2        97       253       252      1537      1538      1533
 -1       346    8    0    1
 -2        98        99       254      1198      1539      1540
 -1       347    8    0    1
 -2        98       254       253      1540      1541      1536
 -1       348    8    0    1
 -2        99       100       255      1199      1542      1543
 -1       349    8    0    1
 -2        99       255       254      1543      1544      1539
 -1       350    8    0    1
 -2       100       101       256      1200      1545      1546
 -1       351    8    0    1
 -2       100       256       255      1546      1547      1542
 -1       352    8    0    1
 -2       101       102       257      1201      1548      1549
 -1       353    8    0    1
 -2       101       257       256      1549      1550      1545
 -1       354    8    0    1
 -2       102       103       258      1202      1551      1552
 -1       355    8    0    1
 -2       102       258       257      1552      1553      1548
 -1       356    8    0    1
 -2       103       104       259      1203      1554      1555
 -1       357    8    0    1
 -2       103       259       258      1555      1556      1551
 -1       358    8    0    1
 -2       104       105       260      1204      1557      1558
 -1       359    8    0    1
 -2       104       260       259      1558      1559      1554
 -1       360    8    0    1
 -2       105       106       261      1205      1560      1561
 -1       361    8    0    1
 -2       105       261       260      1561      1562      1557
 -1       362    8    0    1
 -2       106       107       262      1206      1563      1564
 -1       363    8    0    1
 -2       106       262       261      1564      1565      1560
 -1       364    8    0    1
 -2       107       108       263      1207      1566      1567
 -1       365    8    0    1
 -2       107       263       262      1567      1568      1563
 -1       366    8    0    1
 -2       108       109       264      1208      1569      1570
 -1       367    8    0    1
 -2       108       264       263      1570      1571      1566
 -1       368    8    0    1
 -2       109       110       265      1209      1572      1573
 -1       369    8    0    1
 -2       109       265       264      1573      1574      1569
 -1       370    8    0    1
 -2       110       111       266      1210      1575      1576
 -1       371    8    0    1
 -2       110       266       265      1576      1577      1572
 -1       372    8    0    1
 -2       111       112       267      1211      1578      1579
 -1       373    8    0    1
 -2       111       267       266      1579      1580      1575
 -1       374    8    0    1
 -2       112       113       268      1212      1581      1582
 -1       375    8    0    1
 -2       112       268       267      1582      1583      1578
 -1       376    8    0    1
 -2       113       114       269      1213      1584      1585
 -1       377    8    0    1
 -2       113       269       268      1585      1586      1581
 -1       378    8    0    1
 -2       114       115       270      1214      1587      1588
 -1       379    8    0    1
 -2       114       270       269      1588      1589      1584
 -1       380    8    0    1
 -2       115       116       271      1215      1590      1591
 -1       381    8    0    1
 -2       115       271       270      1591      1592      1587
 -1       382    8    0    1
 -2       116       117       272      1216      1593      1594
 -1       383    8    0    1
 -2       116       272       271      1594      1595      1590
 -1       384    8    0    1
 -2       117       118       273      1217      1596      1597
 -1       385    8    0    1
 -2       117       273       272      1597      1598      1593
 -1       386    8    0    1
 -2       118       119       274      1218      1599      1600
 -1       387    8    0    1
 -2       118       274       273      1600      1601      1596
 -1       388    8    0    1
 -2       119       120       275      1219      1602      1603
 -1       389    8    0    1
 -2       119       275       274      1603      1604      1599
 -1       390    8    0    1
 -2       120         3       121      1220      1221      1605
 -1       391    8    0    1
 -2       121       122       276      1222      1606      1607
 -1       392    8    0    1
 -2       122       123       277      1223      1608      1609
 -1       393    8    0    1
 -2       122       277       276      1609      1610      1606
 -1       394    8    0    1
 -2       123       124       278      1224      1611      1612
 -1       395    8    0    1
 -2       123       278       277      1612      1613      1608
 -1       396    8    0    1
 -2       124       125       279      1225      1614      1615
 -1       397    8    0    1
 -2       124       279       278      1615      1616      1611
 -1       398    8    0    1
 -2       125       126       280      1226      1617      1618
 -1       399    8    0    1
 -2       125       280       279      1618      1619      1614
 -1       400    8    0    1
 -2       126       127       281      1227      1620      1621
 -1       401    8    0    1
 -2       126       281       280      1621      1622      1617
 -1       402    8    0    1
 -2       127       128       282      1228      1623      1624
 -1       403    8    0    1
 -2       127       282       281      1624      1625      1620
 -1       404    8    0    1
 -2       128       129       283      1229      1626      1627
 -1       405    8    0    1
 -2       128       283       282      1627      1628      1623
 -1       406    8    0    1
 -2       129       130       284      1230      1629      1630
 -1       407    8    0    1
 -2       129       284       283      1630      1631      1626
 -1       408    8    0    1
 -2       130       131       285      1231      1632      1633
 -1       409    8    0    1
 -2       130       285       284      1633      1634      1629
 -1       410    8    0    1
 -2       131       132       286      1232      1635      1636
 -1       411    8    0    1
 -2       131       286       285      1636      1637      1632
 -1       412    8    0    1
 -2       132       133       287      1233      1638      1639
 -1       413    8    0    1
 -2       132       287       286      1639      1640      1635
 -1       414    8    0    1
 -2       133       134       288      1234      1641      1642
 -1       415    8    0    1
 -2       133       288       287      1642      1643      1638
 -1       416    8    0    1
 -2       134       135       289      1235      1644      1645
 -1       417    8    0    1
 -2       134       289       288      1645      1646      1641
 -1       418    8    0    1
 -2       135       136       290      1236      1647      1648
 -1       419    8    0    1
 -2       289       135       290      1644      1648      1649
 -1       420    8    0    1
 -2       136       227       290      1460      1650      1647
 -1       421    8    0    1
 -2         2       137       291      1238      1651      1652
 -1       422    8    0    1
 -2       137       138       292      1239      1653      1654
 -1       423    8    0    1
 -2       138       139       293      1240      1655      1656
 -1       424    8    0    1
 -2       139       140       294      1241      1657      1658
 -1       425    8    0    1
 -2       140       141       295      1242      1659      1660
 -1       426    8    0    1
 -2       141       142       296      1243      1661      1662
 -1       427    8    0    1
 -2       142       143       297      1244      1663      1664
 -1       428    8    0    1
 -2       143       144       298      1245      1665      1666
 -1       429    8    0    1
 -2       144       145       299      1246      1667      1668
 -1       430    8    0    1
 -2       145       146       300      1247      1669      1670
 -1       431    8    0    1
 -2       146       147       301      1248      1671      1672
 -1       432    8    0    1
 -2       147       148       302      1249      1673      1674
 -1       433    8    0    1
 -2       148       149       303      1250      1675      1676
 -1       434    8    0    1
 -2       149       150       304      1251      1677      1678
 -1       435    8    0    1
 -2       150       151       305      1252      1679      1680
 -1       436    8    0    1
 -2       151       152       306      1253      1681      1682
 -1       437    8    0    1
 -2       152       153       307      1254      1683      1684
 -1       438    8    0    1
 -2       153       154       308      1255      1685      1686
 -1       439    8    0    1
 -2       154       155       309      1256      1687      1688
 -1       440    8    0    1
 -2       155       156       310      1257      1689      1690
 -1       441    8    0    1
 -2       156       157       311      1258      1691      1692
 -1       442    8    0    1
 -2       157         1       312      1259      1693      1694
 -1       443    8    0    1
 -2         1       158       313      1260      1695      1696
 -1       444    8    0    1
 -2       158       159       314      1261      1697      1698
 -1       445    8    0    1
 -2       159       160       315      1262      1699      1700
 -1       446    8    0    1
 -2       160       161       316      1263      1701      1702
 -1       447    8    0    1
 -2       161       162       317      1264      1703      1704
 -1       448    8    0    1
 -2       162       163       318      1265      1705      1706
 -1       449    8    0    1
 -2       163         2       319      1266      1707      1708
 -1       450    8    0    1
 -2       294       140       295      1657      1660      1709
 -1       451    8    0    1
 -2       293       139       294      1655      1658      1710
 -1       452    8    0    1
 -2       120       121       275      1605      1711      1602
 -1       453    8    0    1
 -2       121       276       275      1607      1712      1711
 -1       454    8    0    1
 -2       291       137       292      1651      1654      1713
 -1       455    8    0    1
 -2       292       138       293      1653      1656      1714
 -1       456    8    0    1
 -2         2       291       319      1652      1715      1707
 -1       457    8    0    1
 -2       141       296       295      1662      1716      1659
 -1       458    8    0    1
 -2       142       297       296      1664      1717      1661
 -1       459    8    0    1
 -2       143       298       297      1666      1718      1663
 -1       460    8    0    1
 -2       144       299       298      1668      1719      1665
 -1       461    8    0    1
 -2       145       300       299      1670      1720      1667
 -1       462    8    0    1
 -2       146       301       300      1672      1721      1669
 -1       463    8    0    1
 -2       147       302       301      1674      1722      1671
 -1       464    8    0    1
 -2       148       303       302      1676      1723      1673
 -1       465    8    0    1
 -2       149       304       303      1678      1724      1675
 -1       466    8    0    1
 -2       150       305       304      1680      1725      1677
 -1       467    8    0    1
 -2       151       306       305      1682      1726      1679
 -1       468    8    0    1
 -2       152       307       306      1684      1727      1681
 -1       469    8    0    1
 -2       153       308       307      1686      1728      1683
 -1       470    8    0    1
 -2       154       309       308      1688      1729      1685
 -1       471    8    0    1
 -2       155       310       309      1690      1730      1687
 -1       472    8    0    1
 -2       156       311       310      1692      1731      1689
 -1       473    8    0    1
 -2       157       312       311      1694      1732      1691
 -1       474    8    0    1
 -2         1       313       312      1696      1733      1693
 -1       475    8    0    1
 -2       158       314       313      1698      1734      1695
 -1       476    8    0    1
 -2       159       315       314      1700      1735      1697
 -1       477    8    0    1
 -2       160       316       315      1702      1736      1699
 -1       478    8    0    1
 -2       161       317       316      1704      1737      1701
 -1       479    8    0    1
 -2       162       318       317      1706      1738      1703
 -1       480    8    0    1
 -2       163       319       318      1708      1739      1705
 -1       481    8    0    1
 -2        23         7       320      1267      1740      1741
 -1       482    8    0    1
 -2       165       166       321      1275      1742      1743
 -1       483    8    0    1
 -2       164       165       322      1272      1744      1745
 -1       484    8    0    1
 -2       165       321       322      1743      1746      1744
 -1       485    8    0    1
 -2       167       168       323      1281      1747      1748
 -1       486    8    0    1
 -2       168       169       324      1284      1749      1750
 -1       487    8    0    1
 -2       168       324       323      1750      1751      1747
 -1       488    8    0    1
 -2       169       170       325      1287      1752      1753
 -1       489    8    0    1
 -2       169       325       324      1753      1754      1749
 -1       490    8    0    1
 -2       170       171       326      1290      1755      1756
 -1       491    8    0    1
 -2       170       326       325      1756      1757      1752
 -1       492    8    0    1
 -2       171       172       327      1293      1758      1759
 -1       493    8    0    1
 -2       171       327       326      1759      1760      1755
 -1       494    8    0    1
 -2       173       174       328      1299      1761      1762
 -1       495    8    0    1
 -2       174       175       329      1302      1763      1764
 -1       496    8    0    1
 -2       174       329       328      1764      1765      1761
 -1       497    8    0    1
 -2       175       176       330      1305      1766      1767
 -1       498    8    0    1
 -2       175       330       329      1767      1768      1763
 -1       499    8    0    1
 -2       176       177       331      1308      1769      1770
 -1       500    8    0    1
 -2       176       331       330      1770      1771      1766
 -1       501    8    0    1
 -2       177       178       332      1311      1772      1773
 -1       502    8    0    1
 -2       177       332       331      1773      1774      1769
 -1       503    8    0    1
 -2       178       179       333      1314      1775      1776
 -1       504    8    0    1
 -2       332       178       333      1772      1776      1777
 -1       505    8    0    1
 -2       179       228       333      1463      1778      1775
 -1       506    8    0    1
 -2       180        23       320      1316      1741      1779
 -1       507    8    0    1
 -2       228       229       334      1466      1780      1781
 -1       508    8    0    1
 -2       228       334       333      1781      1782      1778
 -1       509    8    0    1
 -2       182       181       335      1323      1783      1784
 -1       510    8    0    1
 -2       183       182       336      1326      1785      1786
 -1       511    8    0    1
 -2       182       335       336      1784      1787      1785
 -1       512    8    0    1
 -2       184       183       337      1329      1788      1789
 -1       513    8    0    1
 -2       183       336       337      1786      1790      1788
 -1       514    8    0    1
 -2       185       184       338      1332      1791      1792
 -1       515    8    0    1
 -2       184       337       338      1789      1793      1791
 -1       516    8    0    1
 -2       186       185       339      1335      1794      1795
 -1       517    8    0    1
 -2       185       338       339      1792      1796      1794
 -1       518    8    0    1
 -2       187       186       340      1338      1797      1798
 -1       519    8    0    1
 -2       186       339       340      1795      1799      1797
 -1       520    8    0    1
 -2       188       187       341      1341      1800      1801
 -1       521    8    0    1
 -2       187       340       341      1798      1802      1800
 -1       522    8    0    1
 -2       189       188       342      1344      1803      1804
 -1       523    8    0    1
 -2       188       341       342      1801      1805      1803
 -1       524    8    0    1
 -2       190       189       343      1347      1806      1807
 -1       525    8    0    1
 -2       189       342       343      1804      1808      1806
 -1       526    8    0    1
 -2       191       190       344      1350      1809      1810
 -1       527    8    0    1
 -2       190       343       344      1807      1811      1809
 -1       528    8    0    1
 -2       192       191       345      1353      1812      1813
 -1       529    8    0    1
 -2       191       344       345      1810      1814      1812
 -1       530    8    0    1
 -2       193       192       346      1356      1815      1816
 -1       531    8    0    1
 -2       192       345       346      1813      1817      1815
 -1       532    8    0    1
 -2       194       193       347      1359      1818      1819
 -1       533    8    0    1
 -2       193       346       347      1816      1820      1818
 -1       534    8    0    1
 -2       195       194       348      1362      1821      1822
 -1       535    8    0    1
 -2       194       347       348      1819      1823      1821
 -1       536    8    0    1
 -2       196       195       349      1365      1824      1825
 -1       537    8    0    1
 -2       195       348       349      1822      1826      1824
 -1       538    8    0    1
 -2       197       196       350      1368      1827      1828
 -1       539    8    0    1
 -2       196       349       350      1825      1829      1827
 -1       540    8    0    1
 -2       198       197       351      1371      1830      1831
 -1       541    8    0    1
 -2       197       350       351      1828      1832      1830
 -1       542    8    0    1
 -2       199       198       352      1374      1833      1834
 -1       543    8    0    1
 -2       198       351       352      1831      1835      1833
 -1       544    8    0    1
 -2       200       199       353      1377      1836      1837
 -1       545    8    0    1
 -2       199       352       353      1834      1838      1836
 -1       546    8    0    1
 -2       201       200       354      1380      1839      1840
 -1       547    8    0    1
 -2       200       353       354      1837      1841      1839
 -1       548    8    0    1
 -2       202       201       355      1383      1842      1843
 -1       549    8    0    1
 -2       201       354       355      1840      1844      1842
 -1       550    8    0    1
 -2       203       202       356      1386      1845      1846
 -1       551    8    0    1
 -2       202       355       356      1843      1847      1845
 -1       552    8    0    1
 -2       204       203       357      1389      1848      1849
 -1       553    8    0    1
 -2       203       356       357      1846      1850      1848
 -1       554    8    0    1
 -2       205       204       358      1392      1851      1852
 -1       555    8    0    1
 -2       204       357       358      1849      1853      1851
 -1       556    8    0    1
 -2       206       205       359      1395      1854      1855
 -1       557    8    0    1
 -2       205       358       359      1852      1856      1854
 -1       558    8    0    1
 -2       207       206       360      1398      1857      1858
 -1       559    8    0    1
 -2       206       359       360      1855      1859      1857
 -1       560    8    0    1
 -2       208       207       361      1401      1860      1861
 -1       561    8    0    1
 -2       207       360       361      1858      1862      1860
 -1       562    8    0    1
 -2       209       208       362      1404      1863      1864
 -1       563    8    0    1
 -2       208       361       362      1861      1865      1863
 -1       564    8    0    1
 -2       210       209       363      1407      1866      1867
 -1       565    8    0    1
 -2       209       362       363      1864      1868      1866
 -1       566    8    0    1
 -2       211       210       364      1410      1869      1870
 -1       567    8    0    1
 -2       210       363       364      1867      1871      1869
 -1       568    8    0    1
 -2       212       211       365      1413      1872      1873
 -1       569    8    0    1
 -2       211       364       365      1870      1874      1872
 -1       570    8    0    1
 -2       213       212       366      1416      1875      1876
 -1       571    8    0    1
 -2       212       365       366      1873      1877      1875
 -1       572    8    0    1
 -2       214       213       367      1419      1878      1879
 -1       573    8    0    1
 -2       213       366       367      1876      1880      1878
 -1       574    8    0    1
 -2       215       214       368      1422      1881      1882
 -1       575    8    0    1
 -2       214       367       368      1879      1883      1881
 -1       576    8    0    1
 -2       216       215       369      1425      1884      1885
 -1       577    8    0    1
 -2       215       368       369      1882      1886      1884
 -1       578    8    0    1
 -2       217       216       370      1428      1887      1888
 -1       579    8    0    1
 -2       216       369       370      1885      1889      1887
 -1       580    8    0    1
 -2       218       217       371      1431      1890      1891
 -1       581    8    0    1
 -2       217       370       371      1888      1892      1890
 -1       582    8    0    1
 -2       219       218       372      1434      1893      1894
 -1       583    8    0    1
 -2       218       371       372      1891      1895      1893
 -1       584    8    0    1
 -2       220       219       373      1437      1896      1897
 -1       585    8    0    1
 -2       219       372       373      1894      1898      1896
 -1       586    8    0    1
 -2       221       220       374      1440      1899      1900
 -1       587    8    0    1
 -2       220       373       374      1897      1901      1899
 -1       588    8    0    1
 -2       222       221       375      1443      1902      1903
 -1       589    8    0    1
 -2       221       374       375      1900      1904      1902
 -1       590    8    0    1
 -2       223       222       376      1446      1905      1906
 -1       591    8    0    1
 -2       222       375       376      1903      1907      1905
 -1       592    8    0    1
 -2       224       223       377      1449      1908      1909
 -1       593    8    0    1
 -2       223       376       377      1906      1910      1908
 -1       594    8    0    1
 -2       225       224       378      1452      1911      1912
 -1       595    8    0    1
 -2       224       377       378      1909      1913      1911
 -1       596    8    0    1
 -2       226       225       379      1455      1914      1915
 -1       597    8    0    1
 -2       225       378       379      1912      1916      1914
 -1       598    8    0    1
 -2       227       226       380      1458      1917      1918
 -1       599    8    0    1
 -2       290       227       380      1650      1918      1919
 -1       600    8    0    1
 -2       226       379       380      1915      1920      1917
 -1       601    8    0    1
 -2       229       230       381      1469      1921      1922
 -1       602    8    0    1
 -2       229       381       334      1922      1923      1780
 -1       603    8    0    1
 -2       230       231       382      1472      1924      1925
 -1       604    8    0    1
 -2       230       382       381      1925      1926      1921
 -1       605    8    0    1
 -2       231       232       383      1475      1927      1928
 -1       606    8    0    1
 -2       231       383       382      1928      1929      1924
 -1       607    8    0    1
 -2       232       233       384      1478      1930      1931
 -1       608    8    0    1
 -2       232       384       383      1931      1932      1927
 -1       609    8    0    1
 -2       233       234       385      1481      1933      1934
 -1       610    8    0    1
 -2       233       385       384      1934      1935      1930
 -1       611    8    0    1
 -2       234       235       386      1484      1936      1937
 -1       612    8    0    1
 -2       234       386       385      1937      1938      1933
 -1       613    8    0    1
 -2       235       236       387      1487      1939      1940
 -1       614    8    0    1
 -2       235       387       386      1940      1941      1936
 -1       615    8    0    1
 -2       236       237       388      1490      1942      1943
 -1       616    8    0    1
 -2       236       388       387      1943      1944      1939
 -1       617    8    0    1
 -2       237       238       389      1493      1945      1946
 -1       618    8    0    1
 -2       237       389       388      1946      1947      1942
 -1       619    8    0    1
 -2       238       239       390      1496      1948      1949
 -1       620    8    0    1
 -2       238       390       389      1949      1950      1945
 -1       621    8    0    1
 -2       239       240       391      1499      1951      1952
 -1       622    8    0    1
 -2       239       391       390      1952      1953      1948
 -1       623    8    0    1
 -2       240       241       392      1502      1954      1955
 -1       624    8    0    1
 -2       240       392       391      1955      1956      1951
 -1       625    8    0    1
 -2       241       242       393      1505      1957      1958
 -1       626    8    0    1
 -2       241       393       392      1958      1959      1954
 -1       627    8    0    1
 -2       242       243       394      1508      1960      1961
 -1       628    8    0    1
 -2       242       394       393      1961      1962      1957
 -1       629    8    0    1
 -2       243       244       395      1511      1963      1964
 -1       630    8    0    1
 -2       243       395       394      1964      1965      1960
 -1       631    8    0    1
 -2       244       245       396      1514      1966      1967
 -1       632    8    0    1
 -2       244       396       395      1967      1968      1963
 -1       633    8    0    1
 -2       245       246       397      1517      1969      1970
 -1       634    8    0    1
 -2       245       397       396      1970      1971      1966
 -1       635    8    0    1
 -2       246       247       398      1520      1972      1973
 -1       636    8    0    1
 -2       246       398       397      1973      1974      1969
 -1       637    8    0    1
 -2       247       248       399      1523      1975      1976
 -1       638    8    0    1
 -2       247       399       398      1976      1977      1972
 -1       639    8    0    1
 -2       248       249       400      1526      1978      1979
 -1       640    8    0    1
 -2       248       400       399      1979      1980      1975
 -1       641    8    0    1
 -2       249       250       401      1529      1981      1982
 -1       642    8    0    1
 -2       249       401       400      1982      1983      1978
 -1       643    8    0    1
 -2       250       251       402      1532      1984      1985
 -1       644    8    0    1
 -2       250       402       401      1985      1986      1981
 -1       645    8    0    1
 -2       251       252       403      1535      1987      1988
 -1       646    8    0    1
 -2       251       403       402      1988      1989      1984
 -1       647    8    0    1
 -2       252       253       404      1538      1990      1991
 -1       648    8    0    1
 -2       252       404       403      1991      1992      1987
 -1       649    8    0    1
 -2       253       254       405      1541      1993      1994
 -1       650    8    0    1
 -2       253       405       404      1994      1995      1990
 -1       651    8    0    1
 -2       254       255       406      1544      1996      1997
 -1       652    8    0    1
 -2       254       406       405      1997      1998      1993
 -1       653    8    0    1
 -2       255       256       407      1547      1999      2000
 -1       654    8    0    1
 -2       255       407       406      2000      2001      1996
 -1       655    8    0    1
 -2       256       257       408      1550      2002      2003
 -1       656    8    0    1
 -2       256       408       407      2003      2004      1999
 -1       657    8    0    1
 -2       257       258       409      1553      2005      2006
 -1       658    8    0    1
 -2       257       409       408      2006      2007      2002
 -1       659    8    0    1
 -2       258       259       410      1556      2008      2009
 -1       660    8    0    1
 -2       258       410       409      2009      2010      2005
 -1       661    8    0    1
 -2       259       260       411      1559      2011      2012
 -1       662    8    0    1
 -2       259       411       410      2012      2013      2008
 -1       663    8    0    1
 -2       260       261       412      1562      2014      2015
 -1       664    8    0    1
 -2       260       412       411      2015      2016      2011
 -1       665    8    0    1
 -2       261       262       413      1565      2017      2018
 -1       666    8    0    1
 -2       261       413       412      2018      2019      2014
 -1       667    8    0    1
 -2       262       263       414      1568      2020      2021
 -1       668    8    0    1
 -2       262       414       413      2021      2022      2017
 -1       669    8    0    1
 -2       263       264       415      1571      2023      2024
 -1       670    8    0    1
 -2       263       415       414      2024      2025      2020
 -1       671    8    0    1
 -2       264       265       416      1574      2026      2027
 -1       672    8    0    1
 -2       264       416       415      2027      2028      2023
 -1       673    8    0    1
 -2       265       266       417      1577      2029      2030
 -1       674    8    0    1
 -2       265       417       416      2030      2031      2026
 -1       675    8    0    1
 -2       266       267       418      1580      2032      2033
 -1       676    8    0    1
 -2       266       418       417      2033      2034      2029
 -1       677    8    0    1
 -2       267       268       419      1583      2035      2036
 -1       678    8    0    1
 -2       267       419       418      2036      2037      2032
 -1       679    8    0    1
 -2       268       269       420      1586      2038      2039
 -1       680    8    0    1
 -2       268       420       419      2039      2040      2035
 -1       681    8    0    1
 -2       269       270       421      1589      2041      2042
 -1       682    8    0    1
 -2       269       421       420      2042      2043      2038
 -1       683    8    0    1
 -2       270       271       422      1592      2044      2045
 -1       684    8    0    1
 -2       270       422       421      2045      2046      2041
 -1       685    8    0    1
 -2       271       272       423      1595      2047      2048
 -1       686    8    0    1
 -2       271       423       422      2048      2049      2044
 -1       687    8    0    1
 -2       272       273       424      1598      2050      2051
 -1       688    8    0    1
 -2       272       424       423      2051      2052      2047
 -1       689    8    0    1
 -2       273       274       425      1601      2053      2054
 -1       690    8    0    1
 -2       273       425       424      2054      2055      2050
 -1       691    8    0    1
 -2       274       275       426      1604      2056      2057
 -1       692    8    0    1
 -2       425       274       426      2053      2057      2058
 -1       693    8    0    1
 -2       275       276       426      1712      2059      2056
 -1       694    8    0    1
 -2       278       279       427      1616      2060      2061
 -1       695    8    0    1
 -2       277       278       428      1613      2062      2063
 -1       696    8    0    1
 -2       278       427       428      2061      2064      2062
 -1       697    8    0    1
 -2       276       277       429      1610      2065      2066
 -1       698    8    0    1
 -2       426       276       429      2059      2066      2067
 -1       699    8    0    1
 -2       277       428       429      2063      2068      2065
 -1       700    8    0    1
 -2       279       280       430      1619      2069      2070
 -1       701    8    0    1
 -2       279       430       427      2070      2071      2060
 -1       702    8    0    1
 -2       280       281       431      1622      2072      2073
 -1       703    8    0    1
 -2       280       431       430      2073      2074      2069
 -1       704    8    0    1
 -2       281       282       432      1625      2075      2076
 -1       705    8    0    1
 -2       281       432       431      2076      2077      2072
 -1       706    8    0    1
 -2       282       283       433      1628      2078      2079
 -1       707    8    0    1
 -2       282       433       432      2079      2080      2075
 -1       708    8    0    1
 -2       283       284       434      1631      2081      2082
 -1       709    8    0    1
 -2       283       434       433      2082      2083      2078
 -1       710    8    0    1
 -2       284       285       435      1634      2084      2085
 -1       711    8    0    1
 -2       284       435       434      2085      2086      2081
 -1       712    8    0    1
 -2       285       286       436      1637      2087      2088
 -1       713    8    0    1
 -2       285       436       435      2088      2089      2084
 -1       714    8    0    1
 -2       286       287       437      1640      2090      2091
 -1       715    8    0    1
 -2       286       437       436      2091      2092      2087
 -1       716    8    0    1
 -2       287       288       438      1643      2093      2094
 -1       717    8    0    1
 -2       287       438       437      2094      2095      2090
 -1       718    8    0    1
 -2       288       289       439      1646      2096      2097
 -1       719    8    0    1
 -2       288       439       438      2097      2098      2093
 -1       720    8    0    1
 -2       292       293       440      1714      2099      2100
 -1       721    8    0    1
 -2       319       291       441      1715      2101      2102
 -1       722    8    0    1
 -2       291       292       442      1713      2103      2104
 -1       723    8    0    1
 -2       291       442       441      2104      2105      2101
 -1       724    8    0    1
 -2       293       294       443      1710      2106      2107
 -1       725    8    0    1
 -2       294       295       444      1709      2108      2109
 -1       726    8    0    1
 -2       294       444       443      2109      2110      2106
 -1       727    8    0    1
 -2       166       167       445      1278      2111      2112
 -1       728    8    0    1
 -2       321       166       445      1742      2112      2113
 -1       729    8    0    1
 -2       167       323       445      1748      2114      2111
 -1       730    8    0    1
 -2       296       297       446      1717      2115      2116
 -1       731    8    0    1
 -2       297       298       447      1718      2117      2118
 -1       732    8    0    1
 -2       297       447       446      2118      2119      2115
 -1       733    8    0    1
 -2       298       299       448      1719      2120      2121
 -1       734    8    0    1
 -2       299       300       449      1720      2122      2123
 -1       735    8    0    1
 -2       300       301       450      1721      2124      2125
 -1       736    8    0    1
 -2       301       302       451      1722      2126      2127
 -1       737    8    0    1
 -2       302       303       452      1723      2128      2129
 -1       738    8    0    1
 -2       303       304       453      1724      2130      2131
 -1       739    8    0    1
 -2       303       453       452      2131      2132      2128
 -1       740    8    0    1
 -2       304       305       454      1725      2133      2134
 -1       741    8    0    1
 -2       305       306       455      1726      2135      2136
 -1       742    8    0    1
 -2       305       455       454      2136      2137      2133
 -1       743    8    0    1
 -2       306       307       456      1727      2138      2139
 -1       744    8    0    1
 -2       307       308       457      1728      2140      2141
 -1       745    8    0    1
 -2       308       309       458      1729      2142      2143
 -1       746    8    0    1
 -2       308       458       457      2143      2144      2140
 -1       747    8    0    1
 -2       309       310       459      1730      2145      2146
 -1       748    8    0    1
 -2       310       311       460      1731      2147      2148
 -1       749    8    0    1
 -2       311       312       461      1732      2149      2150
 -1       750    8    0    1
 -2       312       313       462      1733      2151      2152
 -1       751    8    0    1
 -2       313       314       463      1734      2153      2154
 -1       752    8    0    1
 -2       313       463       462      2154      2155      2151
 -1       753    8    0    1
 -2       314       315       464      1735      2156      2157
 -1       754    8    0    1
 -2       315       316       465      1736      2158      2159
 -1       755    8    0    1
 -2       316       317       466      1737      2160      2161
 -1       756    8    0    1
 -2       317       318       467      1738      2162      2163
 -1       757    8    0    1
 -2       318       319       468      1739      2164      2165
 -1       758    8    0    1
 -2       295       296       469      1716      2166      2167
 -1       759    8    0    1
 -2       296       446       469      2116      2168      2166
 -1       760    8    0    1
 -2       327       172       470      1758      2169      2170
 -1       761    8    0    1
 -2       172       173       470      1296      2171      2169
 -1       762    8    0    1
 -2       444       295       469      2108      2167      2172
 -1       763    8    0    1
 -2       335       181       322      1783      2173      2174
 -1       764    8    0    1
 -2       181       180       322      1320      2175      2173
 -1       765    8    0    1
 -2         7       164       320      1269      2176      1740
 -1       766    8    0    1
 -2       442       292       471      2103      2177      2178
 -1       767    8    0    1
 -2       292       440       471      2100      2179      2177
 -1       768    8    0    1
 -2       293       443       440      2107      2180      2099
 -1       769    8    0    1
 -2       439       289       290      2096      1649      2181
 -1       770    8    0    1
 -2       319       441       468      2102      2182      2164
 -1       771    8    0    1
 -2       467       318       468      2162      2165      2183
 -1       772    8    0    1
 -2       466       317       467      2160      2163      2184
 -1       773    8    0    1
 -2       465       316       466      2158      2161      2185
 -1       774    8    0    1
 -2       463       314       464      2153      2157      2186
 -1       775    8    0    1
 -2       461       312       462      2149      2152      2187
 -1       776    8    0    1
 -2       460       311       461      2147      2150      2188
 -1       777    8    0    1
 -2       458       309       459      2142      2146      2189
 -1       778    8    0    1
 -2       455       306       456      2135      2139      2190
 -1       779    8    0    1
 -2       453       304       454      2130      2134      2191
 -1       780    8    0    1
 -2       451       302       452      2126      2129      2192
 -1       781    8    0    1
 -2       450       301       451      2124      2127      2193
 -1       782    8    0    1
 -2       449       300       450      2122      2125      2194
 -1       783    8    0    1
 -2       298       448       472      2121      2195      2196
 -1       784    8    0    1
 -2       298       472       447      2196      2197      2117
 -1       785    8    0    1
 -2       448       299       449      2120      2123      2198
 -1       786    8    0    1
 -2       456       307       457      2138      2141      2199
 -1       787    8    0    1
 -2       459       310       460      2145      2148      2200
 -1       788    8    0    1
 -2       464       315       465      2156      2159      2201
 -1       789    8    0    1
 -2       320       164       322      2176      1745      2202
 -1       790    8    0    1
 -2       324       325       473      1754      2203      2204
 -1       791    8    0    1
 -2       323       324       474      1751      2205      2206
 -1       792    8    0    1
 -2       173       328       470      1762      2207      2171
 -1       793    8    0    1
 -2       329       330       475      1768      2208      2209
 -1       794    8    0    1
 -2       331       332       476      1774      2210      2211
 -1       795    8    0    1
 -2       332       333       477      1777      2212      2213
 -1       796    8    0    1
 -2       476       332       477      2210      2213      2214
 -1       797    8    0    1
 -2       333       334       477      1782      2215      2212
 -1       798    8    0    1
 -2       336       335       478      1787      2216      2217
 -1       799    8    0    1
 -2       334       381       479      1923      2218      2219
 -1       800    8    0    1
 -2       334       479       477      2219      2220      2215
 -1       801    8    0    1
 -2       381       382       480      1926      2221      2222
 -1       802    8    0    1
 -2       381       480       479      2222      2223      2218
 -1       803    8    0    1
 -2       180       320       322      1779      2202      2175
 -1       804    8    0    1
 -2       337       336       481      1790      2224      2225
 -1       805    8    0    1
 -2       336       478       481      2217      2226      2224
 -1       806    8    0    1
 -2       338       337       482      1793      2227      2228
 -1       807    8    0    1
 -2       337       481       482      2225      2229      2227
 -1       808    8    0    1
 -2       339       338       483      1796      2230      2231
 -1       809    8    0    1
 -2       338       482       483      2228      2232      2230
 -1       810    8    0    1
 -2       340       339       484      1799      2233      2234
 -1       811    8    0    1
 -2       339       483       484      2231      2235      2233
 -1       812    8    0    1
 -2       341       340       485      1802      2236      2237
 -1       813    8    0    1
 -2       340       484       485      2234      2238      2236
 -1       814    8    0    1
 -2       342       341       486      1805      2239      2240
 -1       815    8    0    1
 -2       341       485       486      2237      2241      2239
 -1       816    8    0    1
 -2       343       342       487      1808      2242      2243
 -1       817    8    0    1
 -2       342       486       487      2240      2244      2242
 -1       818    8    0    1
 -2       344       343       488      1811      2245      2246
 -1       819    8    0    1
 -2       343       487       488      2243      2247      2245
 -1       820    8    0    1
 -2       345       344       489      1814      2248      2249
 -1       821    8    0    1
 -2       344       488       489      2246      2250      2248
 -1       822    8    0    1
 -2       346       345       490      1817      2251      2252
 -1       823    8    0    1
 -2       345       489       490      2249      2253      2251
 -1       824    8    0    1
 -2       347       346       491      1820      2254      2255
 -1       825    8    0    1
 -2       346       490       491      2252      2256      2254
 -1       826    8    0    1
 -2       348       347       492      1823      2257      2258
 -1       827    8    0    1
 -2       347       491       492      2255      2259      2257
 -1       828    8    0    1
 -2       349       348       493      1826      2260      2261
 -1       829    8    0    1
 -2       348       492       493      2258      2262      2260
 -1       830    8    0    1
 -2       350       349       494      1829      2263      2264
 -1       831    8    0    1
 -2       349       493       494      2261      2265      2263
 -1       832    8    0    1
 -2       351       350       495      1832      2266      2267
 -1       833    8    0    1
 -2       350       494       495      2264      2268      2266
 -1       834    8    0    1
 -2       352       351       496      1835      2269      2270
 -1       835    8    0    1
 -2       351       495       496      2267      2271      2269
 -1       836    8    0    1
 -2       353       352       497      1838      2272      2273
 -1       837    8    0    1
 -2       352       496       497      2270      2274      2272
 -1       838    8    0    1
 -2       354       353       498      1841      2275      2276
 -1       839    8    0    1
 -2       353       497       498      2273      2277      2275
 -1       840    8    0    1
 -2       355       354       499      1844      2278      2279
 -1       841    8    0    1
 -2       354       498       499      2276      2280      2278
 -1       842    8    0    1
 -2       356       355       500      1847      2281      2282
 -1       843    8    0    1
 -2       355       499       500      2279      2283      2281
 -1       844    8    0    1
 -2       357       356       501      1850      2284      2285
 -1       845    8    0    1
 -2       356       500       501      2282      2286      2284
 -1       846    8    0    1
 -2       358       357       502      1853      2287      2288
 -1       847    8    0    1
 -2       357       501       502      2285      2289      2287
 -1       848    8    0    1
 -2       359       358       503      1856      2290      2291
 -1       849    8    0    1
 -2       358       502       503      2288      2292      2290
 -1       850    8    0    1
 -2       360       359       504      1859      2293      2294
 -1       851    8    0    1
 -2       359       503       504      2291      2295      2293
 -1       852    8    0    1
 -2       361       360       505      1862      2296      2297
 -1       853    8    0    1
 -2       360       504       505      2294      2298      2296
 -1       854    8    0    1
 -2       362       361       506      1865      2299      2300
 -1       855    8    0    1
 -2       361       505       506      2297      2301      2299
 -1       856    8    0    1
 -2       363       362       507      1868      2302      2303
 -1       857    8    0    1
 -2       362       506       507      2300      2304      2302
 -1       858    8    0    1
 -2       364       363       508      1871      2305      2306
 -1       859    8    0    1
 -2       363       507       508      2303      2307      2305
 -1       860    8    0    1
 -2       365       364       509      1874      2308      2309
 -1       861    8    0    1
 -2       364       508       509      2306      2310      2308
 -1       862    8    0    1
 -2       366       365       510      1877      2311      2312
 -1       863    8    0    1
 -2       365       509       510      2309      2313      2311
 -1       864    8    0    1
 -2       367       366       511      1880      2314      2315
 -1       865    8    0    1
 -2       366       510       511      2312      2316      2314
 -1       866    8    0    1
 -2       368       367       512      1883      2317      2318
 -1       867    8    0    1
 -2       367       511       512      2315      2319      2317
 -1       868    8    0    1
 -2       369       368       513      1886      2320      2321
 -1       869    8    0    1
 -2       368       512       513      2318      2322      2320
 -1       870    8    0    1
 -2       370       369       514      1889      2323      2324
 -1       871    8    0    1
 -2       369       513       514      2321      2325      2323
 -1       872    8    0    1
 -2       371       370       515      1892      2326      2327
 -1       873    8    0    1
 -2       370       514       515      2324      2328      2326
 -1       874    8    0    1
 -2       372       371       516      1895      2329      2330
 -1       875    8    0    1
 -2       371       515       516      2327      2331      2329
 -1       876    8    0    1
 -2       373       372       517      1898      2332      2333
 -1       877    8    0    1
 -2       372       516       517      2330      2334      2332
 -1       878    8    0    1
 -2       374       373       518      1901      2335      2336
 -1       879    8    0    1
 -2       373       517       518      2333      2337      2335
 -1       880    8    0    1
 -2       375       374       519      1904      2338      2339
 -1       881    8    0    1
 -2       374       518       519      2336      2340      2338
 -1       882    8    0    1
 -2       376       375       520      1907      2341      2342
 -1       883    8    0    1
 -2       375       519       520      2339      2343      2341
 -1       884    8    0    1
 -2       377       376       521      1910      2344      2345
 -1       885    8    0    1
 -2       376       520       521      2342      2346      2344
 -1       886    8    0    1
 -2       378       377       522      1913      2347      2348
 -1       887    8    0    1
 -2       377       521       522      2345      2349      2347
 -1       888    8    0    1
 -2       379       378       523      1916      2350      2351
 -1       889    8    0    1
 -2       378       522       523      2348      2352      2350
 -1       890    8    0    1
 -2       383       384       524      1932      2353      2354
 -1       891    8    0    1
 -2       384       385       525      1935      2355      2356
 -1       892    8    0    1
 -2       384       525       524      2356      2357      2353
 -1       893    8    0    1
 -2       385       386       526      1938      2358      2359
 -1       894    8    0    1
 -2       385       526       525      2359      2360      2355
 -1       895    8    0    1
 -2       386       387       527      1941      2361      2362
 -1       896    8    0    1
 -2       386       527       526      2362      2363      2358
 -1       897    8    0    1
 -2       387       388       528      1944      2364      2365
 -1       898    8    0    1
 -2       387       528       527      2365      2366      2361
 -1       899    8    0    1
 -2       388       389       529      1947      2367      2368
 -1       900    8    0    1
 -2       388       529       528      2368      2369      2364
 -1       901    8    0    1
 -2       389       390       530      1950      2370      2371
 -1       902    8    0    1
 -2       389       530       529      2371      2372      2367
 -1       903    8    0    1
 -2       390       391       531      1953      2373      2374
 -1       904    8    0    1
 -2       390       531       530      2374      2375      2370
 -1       905    8    0    1
 -2       391       392       532      1956      2376      2377
 -1       906    8    0    1
 -2       391       532       531      2377      2378      2373
 -1       907    8    0    1
 -2       392       393       533      1959      2379      2380
 -1       908    8    0    1
 -2       392       533       532      2380      2381      2376
 -1       909    8    0    1
 -2       393       394       534      1962      2382      2383
 -1       910    8    0    1
 -2       393       534       533      2383      2384      2379
 -1       911    8    0    1
 -2       394       395       535      1965      2385      2386
 -1       912    8    0    1
 -2       394       535       534      2386      2387      2382
 -1       913    8    0    1
 -2       395       396       536      1968      2388      2389
 -1       914    8    0    1
 -2       395       536       535      2389      2390      2385
 -1       915    8    0    1
 -2       396       397       537      1971      2391      2392
 -1       916    8    0    1
 -2       396       537       536      2392      2393      2388
 -1       917    8    0    1
 -2       397       398       538      1974      2394      2395
 -1       918    8    0    1
 -2       397       538       537      2395      2396      2391
 -1       919    8    0    1
 -2       398       399       539      1977      2397      2398
 -1       920    8    0    1
 -2       398       539       538      2398      2399      2394
 -1       921    8    0    1
 -2       399       400       540      1980      2400      2401
 -1       922    8    0    1
 -2       399       540       539      2401      2402      2397
 -1       923    8    0    1
 -2       400       401       541      1983      2403      2404
 -1       924    8    0    1
 -2       400       541       540      2404      2405      2400
 -1       925    8    0    1
 -2       401       402       542      1986      2406      2407
 -1       926    8    0    1
 -2       401       542       541      2407      2408      2403
 -1       927    8    0    1
 -2       402       403       543      1989      2409      2410
 -1       928    8    0    1
 -2       402       543       542      2410      2411      2406
 -1       929    8    0    1
 -2       403       404       544      1992      2412      2413
 -1       930    8    0    1
 -2       403       544       543      2413      2414      2409
 -1       931    8    0    1
 -2       404       405       545      1995      2415      2416
 -1       932    8    0    1
 -2       404       545       544      2416      2417      2412
 -1       933    8    0    1
 -2       405       406       546      1998      2418      2419
 -1       934    8    0    1
 -2       405       546       545      2419      2420      2415
 -1       935    8    0    1
 -2       406       407       547      2001      2421      2422
 -1       936    8    0    1
 -2       406       547       546      2422      2423      2418
 -1       937    8    0    1
 -2       407       408       548      2004      2424      2425
 -1       938    8    0    1
 -2       407       548       547      2425      2426      2421
 -1       939    8    0    1
 -2       408       409       549      2007      2427      2428
 -1       940    8    0    1
 -2       408       549       548      2428      2429      2424
 -1       941    8    0    1
 -2       409       410       550      2010      2430      2431
 -1       942    8    0    1
 -2       409       550       549      2431      2432      2427
 -1       943    8    0    1
 -2       410       411       551      2013      2433      2434
 -1       944    8    0    1
 -2       410       551       550      2434      2435      2430
 -1       945    8    0    1
 -2       411       412       552      2016      2436      2437
 -1       946    8    0    1
 -2       411       552       551      2437      2438      2433
 -1       947    8    0    1
 -2       412       413       553      2019      2439      2440
 -1       948    8    0    1
 -2       412       553       552      2440      2441      2436
 -1       949    8    0    1
 -2       413       414       554      2022      2442      2443
 -1       950    8    0    1
 -2       413       554       553      2443      2444      2439
 -1       951    8    0    1
 -2       414       415       555      2025      2445      2446
 -1       952    8    0    1
 -2       414       555       554      2446      2447      2442
 -1       953    8    0    1
 -2       415       416       556      2028      2448      2449
 -1       954    8    0    1
 -2       415       556       555      2449      2450      2445
 -1       955    8    0    1
 -2       416       417       557      2031      2451      2452
 -1       956    8    0    1
 -2       416       557       556      2452      2453      2448
 -1       957    8    0    1
 -2       417       418       558      2034      2454      2455
 -1       958    8    0    1
 -2       417       558       557      2455      2456      2451
 -1       959    8    0    1
 -2       418       419       559      2037      2457      2458
 -1       960    8    0    1
 -2       418       559       558      2458      2459      2454
 -1       961    8    0    1
 -2       419       420       560      2040      2460      2461
 -1       962    8    0    1
 -2       419       560       559      2461      2462      2457
 -1       963    8    0    1
 -2       420       421       561      2043      2463      2464
 -1       964    8    0    1
 -2       420       561       560      2464      2465      2460
 -1       965    8    0    1
 -2       421       422       562      2046      2466      2467
 -1       966    8    0    1
 -2       421       562       561      2467      2468      2463
 -1       967    8    0    1
 -2       422       423       563      2049      2469      2470
 -1       968    8    0    1
 -2       422       563       562      2470      2471      2466
 -1       969    8    0    1
 -2       423       424       564      2052      2472      2473
 -1       970    8    0    1
 -2       423       564       563      2473      2474      2469
 -1       971    8    0    1
 -2       424       425       565      2055      2475      2476
 -1       972    8    0    1
 -2       424       565       564      2476      2477      2472
 -1       973    8    0    1
 -2       425       426       429      2058      2067      2478
 -1       974    8    0    1
 -2       430       431       566      2074      2479      2480
 -1       975    8    0    1
 -2       431       432       567      2077      2481      2482
 -1       976    8    0    1
 -2       431       567       566      2482      2483      2479
 -1       977    8    0    1
 -2       428       427       568      2064      2484      2485
 -1       978    8    0    1
 -2       427       430       569      2071      2486      2487
 -1       979    8    0    1
 -2       568       427       569      2484      2487      2488
 -1       980    8    0    1
 -2       430       566       569      2480      2489      2486
 -1       981    8    0    1
 -2       432       433       570      2080      2490      2491
 -1       982    8    0    1
 -2       432       570       567      2491      2492      2481
 -1       983    8    0    1
 -2       433       434       571      2083      2493      2494
 -1       984    8    0    1
 -2       433       571       570      2494      2495      2490
 -1       985    8    0    1
 -2       434       435       572      2086      2496      2497
 -1       986    8    0    1
 -2       434       572       571      2497      2498      2493
 -1       987    8    0    1
 -2       435       436       573      2089      2499      2500
 -1       988    8    0    1
 -2       435       573       572      2500      2501      2496
 -1       989    8    0    1
 -2       436       437       574      2092      2502      2503
 -1       990    8    0    1
 -2       436       574       573      2503      2504      2499
 -1       991    8    0    1
 -2       437       438       575      2095      2505      2506
 -1       992    8    0    1
 -2       437       575       574      2506      2507      2502
 -1       993    8    0    1
 -2       438       439       576      2098      2508      2509
 -1       994    8    0    1
 -2       438       576       575      2509      2510      2505
 -1       995    8    0    1
 -2       440       443       577      2180      2511      2512
 -1       996    8    0    1
 -2       439       290       380      2181      1919      2513
 -1       997    8    0    1
 -2       468       441       578      2182      2514      2515
 -1       998    8    0    1
 -2       382       383       579      1929      2516      2517
 -1       999    8    0    1
 -2       480       382       579      2221      2517      2518
 -1      1000    8    0    1
 -2       383       524       579      2354      2519      2516
 -1      1001    8    0    1
 -2       441       442       580      2105      2520      2521
 -1      1002    8    0    1
 -2       443       444       581      2110      2522      2523
 -1      1003    8    0    1
 -2       469       446       582      2168      2524      2525
 -1      1004    8    0    1
 -2       467       468       583      2183      2526      2527
 -1      1005    8    0    1
 -2       461       462       584      2187      2528      2529
 -1      1006    8    0    1
 -2       455       456       327      2190      2530      2531
 -1      1007    8    0    1
 -2       451       452       475      2192      2532      2533
 -1      1008    8    0    1
 -2       327       456       326      2530      2534      1760
 -1      1009    8    0    1
 -2       330       331       585      1771      2535      2536
 -1      1010    8    0    1
 -2       331       476       585      2211      2537      2535
 -1      1011    8    0    1
 -2       325       326       586      1757      2538      2539
 -1      1012    8    0    1
 -2       327       470       455      2170      2540      2531
 -1      1013    8    0    1
 -2       448       449       587      2198      2541      2542
 -1      1014    8    0    1
 -2       446       447       588      2119      2543      2544
 -1      1015    8    0    1
 -2       449       450       589      2194      2545      2546
 -1      1016    8    0    1
 -2       450       451       590      2193      2547      2548
 -1      1017    8    0    1
 -2       589       450       590      2545      2548      2549
 -1      1018    8    0    1
 -2       451       475       590      2533      2550      2547
 -1      1019    8    0    1
 -2       452       453       591      2132      2551      2552
 -1      1020    8    0    1
 -2       454       455       470      2137      2540      2553
 -1      1021    8    0    1
 -2       459       460       592      2200      2554      2555
 -1      1022    8    0    1
 -2       457       458       586      2144      2556      2557
 -1      1023    8    0    1
 -2       464       465       593      2201      2558      2559
 -1      1024    8    0    1
 -2       458       459       594      2189      2560      2561
 -1      1025    8    0    1
 -2       460       461       595      2188      2562      2563
 -1      1026    8    0    1
 -2       462       463       596      2155      2564      2565
 -1      1027    8    0    1
 -2       463       464       597      2186      2566      2567
 -1      1028    8    0    1
 -2       465       466       598      2185      2568      2569
 -1      1029    8    0    1
 -2       465       598       593      2569      2570      2558
 -1      1030    8    0    1
 -2       466       467       599      2184      2571      2572
 -1      1031    8    0    1
 -2       335       322       600      2174      2573      2574
 -1      1032    8    0    1
 -2       478       335       600      2216      2574      2575
 -1      1033    8    0    1
 -2       322       321       600      1746      2576      2573
 -1      1034    8    0    1
 -2       444       469       601      2172      2577      2578
 -1      1035    8    0    1
 -2       470       328       454      2207      2579      2553
 -1      1036    8    0    1
 -2       454       328       453      2579      2580      2191
 -1      1037    8    0    1
 -2       324       473       474      2204      2581      2205
 -1      1038    8    0    1
 -2       323       474       602      2206      2582      2583
 -1      1039    8    0    1
 -2       323       602       445      2583      2584      2114
 -1      1040    8    0    1
 -2       330       585       475      2536      2585      2208
 -1      1041    8    0    1
 -2       325       586       473      2539      2586      2203
 -1      1042    8    0    1
 -2       328       329       591      1765      2587      2588
 -1      1043    8    0    1
 -2       580       442       603      2520      2589      2590
 -1      1044    8    0    1
 -2       442       471       603      2178      2591      2589
 -1      1045    8    0    1
 -2       328       591       453      2588      2551      2580
 -1      1046    8    0    1
 -2       582       446       588      2524      2544      2592
 -1      1047    8    0    1
 -2       471       440       577      2179      2512      2593
 -1      1048    8    0    1
 -2       468       578       583      2515      2594      2526
 -1      1049    8    0    1
 -2       425       429       565      2478      2595      2475
 -1      1050    8    0    1
 -2       429       428       565      2068      2596      2595
 -1      1051    8    0    1
 -2       577       443       581      2511      2523      2597
 -1      1052    8    0    1
 -2       439       380       604      2513      2598      2599
 -1      1053    8    0    1
 -2       576       439       604      2508      2599      2600
 -1      1054    8    0    1
 -2       380       379       604      1920      2601      2598
 -1      1055    8    0    1
 -2       578       441       580      2514      2521      2602
 -1      1056    8    0    1
 -2       581       444       601      2522      2578      2603
 -1      1057    8    0    1
 -2       321       445       605      2113      2604      2605
 -1      1058    8    0    1
 -2       600       321       605      2576      2605      2606
 -1      1059    8    0    1
 -2       445       602       605      2584      2607      2604
 -1      1060    8    0    1
 -2       469       582       601      2525      2608      2577
 -1      1061    8    0    1
 -2       467       583       599      2527      2609      2571
 -1      1062    8    0    1
 -2       461       584       595      2529      2610      2562
 -1      1063    8    0    1
 -2       598       466       599      2568      2572      2611
 -1      1064    8    0    1
 -2       597       464       593      2566      2559      2612
 -1      1065    8    0    1
 -2       596       463       597      2564      2567      2613
 -1      1066    8    0    1
 -2       448       587       472      2542      2614      2195
 -1      1067    8    0    1
 -2       594       459       592      2560      2555      2615
 -1      1068    8    0    1
 -2       452       591       475      2552      2616      2532
 -1      1069    8    0    1
 -2       588       447       606      2543      2617      2618
 -1      1070    8    0    1
 -2       447       472       606      2197      2619      2617
 -1      1071    8    0    1
 -2       326       456       457      2534      2199      2620
 -1      1072    8    0    1
 -2       586       326       457      2538      2620      2557
 -1      1073    8    0    1
 -2       584       462       596      2528      2565      2621
 -1      1074    8    0    1
 -2       587       449       589      2541      2546      2622
 -1      1075    8    0    1
 -2       586       458       594      2556      2561      2623
 -1      1076    8    0    1
 -2       592       460       595      2554      2563      2624
 -1      1077    8    0    1
 -2       591       329       475      2587      2209      2616
 -1      1078    8    0    1
 -2       565       428       568      2596      2485      2625
 -1      1079    8    0    1
 -2       604       379       523      2601      2351      2626
 -1      1080    8    0    1
 -2       473       586       594      2586      2623      2627
 -1      1081    8    0    1
 -2       476       477       607      2214      2628      2629
 -1      1082    8    0    1
 -2       477       479       607      2220      2630      2628
 -1      1083    8    0    1
 -2       473       594       608      2627      2631      2632
 -1      1084    8    0    1
 -2       594       592       608      2615      2633      2631
 -1      1085    8    0    1
 -2       526       527       609      2363      2634      2635
 -1      1086    8    0    1
 -2       482       481       610      2229      2636      2637
 -1      1087    8    0    1
 -2       483       482       611      2232      2638      2639
 -1      1088    8    0    1
 -2       482       610       611      2637      2640      2638
 -1      1089    8    0    1
 -2       484       483       612      2235      2641      2642
 -1      1090    8    0    1
 -2       483       611       612      2639      2643      2641
 -1      1091    8    0    1
 -2       485       484       613      2238      2644      2645
 -1      1092    8    0    1
 -2       484       612       613      2642      2646      2644
 -1      1093    8    0    1
 -2       486       485       614      2241      2647      2648
 -1      1094    8    0    1
 -2       485       613       614      2645      2649      2647
 -1      1095    8    0    1
 -2       487       486       615      2244      2650      2651
 -1      1096    8    0    1
 -2       486       614       615      2648      2652      2650
 -1      1097    8    0    1
 -2       488       487       616      2247      2653      2654
 -1      1098    8    0    1
 -2       487       615       616      2651      2655      2653
 -1      1099    8    0    1
 -2       489       488       617      2250      2656      2657
 -1      1100    8    0    1
 -2       488       616       617      2654      2658      2656
 -1      1101    8    0    1
 -2       490       489       618      2253      2659      2660
 -1      1102    8    0    1
 -2       489       617       618      2657      2661      2659
 -1      1103    8    0    1
 -2       491       490       619      2256      2662      2663
 -1      1104    8    0    1
 -2       490       618       619      2660      2664      2662
 -1      1105    8    0    1
 -2       492       491       620      2259      2665      2666
 -1      1106    8    0    1
 -2       491       619       620      2663      2667      2665
 -1      1107    8    0    1
 -2       493       492       621      2262      2668      2669
 -1      1108    8    0    1
 -2       492       620       621      2666      2670      2668
 -1      1109    8    0    1
 -2       494       493       622      2265      2671      2672
 -1      1110    8    0    1
 -2       493       621       622      2669      2673      2671
 -1      1111    8    0    1
 -2       495       494       623      2268      2674      2675
 -1      1112    8    0    1
 -2       494       622       623      2672      2676      2674
 -1      1113    8    0    1
 -2       496       495       624      2271      2677      2678
 -1      1114    8    0    1
 -2       495       623       624      2675      2679      2677
 -1      1115    8    0    1
 -2       497       496       625      2274      2680      2681
 -1      1116    8    0    1
 -2       496       624       625      2678      2682      2680
 -1      1117    8    0    1
 -2       498       497       626      2277      2683      2684
 -1      1118    8    0    1
 -2       497       625       626      2681      2685      2683
 -1      1119    8    0    1
 -2       499       498       627      2280      2686      2687
 -1      1120    8    0    1
 -2       498       626       627      2684      2688      2686
 -1      1121    8    0    1
 -2       500       499       628      2283      2689      2690
 -1      1122    8    0    1
 -2       499       627       628      2687      2691      2689
 -1      1123    8    0    1
 -2       501       500       629      2286      2692      2693
 -1      1124    8    0    1
 -2       500       628       629      2690      2694      2692
 -1      1125    8    0    1
 -2       502       501       630      2289      2695      2696
 -1      1126    8    0    1
 -2       501       629       630      2693      2697      2695
 -1      1127    8    0    1
 -2       503       502       631      2292      2698      2699
 -1      1128    8    0    1
 -2       502       630       631      2696      2700      2698
 -1      1129    8    0    1
 -2       504       503       632      2295      2701      2702
 -1      1130    8    0    1
 -2       503       631       632      2699      2703      2701
 -1      1131    8    0    1
 -2       505       504       633      2298      2704      2705
 -1      1132    8    0    1
 -2       504       632       633      2702      2706      2704
 -1      1133    8    0    1
 -2       506       505       634      2301      2707      2708
 -1      1134    8    0    1
 -2       505       633       634      2705      2709      2707
 -1      1135    8    0    1
 -2       507       506       635      2304      2710      2711
 -1      1136    8    0    1
 -2       506       634       635      2708      2712      2710
 -1      1137    8    0    1
 -2       508       507       636      2307      2713      2714
 -1      1138    8    0    1
 -2       507       635       636      2711      2715      2713
 -1      1139    8    0    1
 -2       509       508       637      2310      2716      2717
 -1      1140    8    0    1
 -2       508       636       637      2714      2718      2716
 -1      1141    8    0    1
 -2       510       509       638      2313      2719      2720
 -1      1142    8    0    1
 -2       509       637       638      2717      2721      2719
 -1      1143    8    0    1
 -2       511       510       639      2316      2722      2723
 -1      1144    8    0    1
 -2       510       638       639      2720      2724      2722
 -1      1145    8    0    1
 -2       512       511       640      2319      2725      2726
 -1      1146    8    0    1
 -2       511       639       640      2723      2727      2725
 -1      1147    8    0    1
 -2       513       512       641      2322      2728      2729
 -1      1148    8    0    1
 -2       512       640       641      2726      2730      2728
 -1      1149    8    0    1
 -2       514       513       642      2325      2731      2732
 -1      1150    8    0    1
 -2       513       641       642      2729      2733      2731
 -1      1151    8    0    1
 -2       515       514       643      2328      2734      2735
 -1      1152    8    0    1
 -2       514       642       643      2732      2736      2734
 -1      1153    8    0    1
 -2       516       515       644      2331      2737      2738
 -1      1154    8    0    1
 -2       515       643       644      2735      2739      2737
 -1      1155    8    0    1
 -2       517       516       645      2334      2740      2741
 -1      1156    8    0    1
 -2       516       644       645      2738      2742      2740
 -1      1157    8    0    1
 -2       518       517       646      2337      2743      2744
 -1      1158    8    0    1
 -2       517       645       646      2741      2745      2743
 -1      1159    8    0    1
 -2       519       518       647      2340      2746      2747
 -1      1160    8    0    1
 -2       518       646       647      2744      2748      2746
 -1      1161    8    0    1
 -2       520       519       648      2343      2749      2750
 -1      1162    8    0    1
 -2       519       647       648      2747      2751      2749
 -1      1163    8    0    1
 -2       521       520       649      2346      2752      2753
 -1      1164    8    0    1
 -2       520       648       649      2750      2754      2752
 -1      1165    8    0    1
 -2       522       521       650      2349      2755      2756
 -1      1166    8    0    1
 -2       521       649       650      2753      2757      2755
 -1      1167    8    0    1
 -2       523       522       651      2352      2758      2759
 -1      1168    8    0    1
 -2       522       650       651      2756      2760      2758
 -1      1169    8    0    1
 -2       525       526       601      2360      2761      2762
 -1      1170    8    0    1
 -2       578       580       652      2602      2763      2764
 -1      1171    8    0    1
 -2       527       528       653      2366      2765      2766
 -1      1172    8    0    1
 -2       527       653       609      2766      2767      2634
 -1      1173    8    0    1
 -2       528       529       654      2369      2768      2769
 -1      1174    8    0    1
 -2       528       654       653      2769      2770      2765
 -1      1175    8    0    1
 -2       529       530       655      2372      2771      2772
 -1      1176    8    0    1
 -2       529       655       654      2772      2773      2768
 -1      1177    8    0    1
 -2       530       531       656      2375      2774      2775
 -1      1178    8    0    1
 -2       530       656       655      2775      2776      2771
 -1      1179    8    0    1
 -2       531       532       657      2378      2777      2778
 -1      1180    8    0    1
 -2       531       657       656      2778      2779      2774
 -1      1181    8    0    1
 -2       532       533       658      2381      2780      2781
 -1      1182    8    0    1
 -2       532       658       657      2781      2782      2777
 -1      1183    8    0    1
 -2       533       534       659      2384      2783      2784
 -1      1184    8    0    1
 -2       533       659       658      2784      2785      2780
 -1      1185    8    0    1
 -2       534       535       660      2387      2786      2787
 -1      1186    8    0    1
 -2       534       660       659      2787      2788      2783
 -1      1187    8    0    1
 -2       535       536       661      2390      2789      2790
 -1      1188    8    0    1
 -2       535       661       660      2790      2791      2786
 -1      1189    8    0    1
 -2       536       537       662      2393      2792      2793
 -1      1190    8    0    1
 -2       536       662       661      2793      2794      2789
 -1      1191    8    0    1
 -2       537       538       663      2396      2795      2796
 -1      1192    8    0    1
 -2       537       663       662      2796      2797      2792
 -1      1193    8    0    1
 -2       538       539       664      2399      2798      2799
 -1      1194    8    0    1
 -2       538       664       663      2799      2800      2795
 -1      1195    8    0    1
 -2       539       540       665      2402      2801      2802
 -1      1196    8    0    1
 -2       539       665       664      2802      2803      2798
 -1      1197    8    0    1
 -2       540       541       666      2405      2804      2805
 -1      1198    8    0    1
 -2       540       666       665      2805      2806      2801
 -1      1199    8    0    1
 -2       541       542       667      2408      2807      2808
 -1      1200    8    0    1
 -2       541       667       666      2808      2809      2804
 -1      1201    8    0    1
 -2       542       543       668      2411      2810      2811
 -1      1202    8    0    1
 -2       542       668       667      2811      2812      2807
 -1      1203    8    0    1
 -2       543       544       669      2414      2813      2814
 -1      1204    8    0    1
 -2       543       669       668      2814      2815      2810
 -1      1205    8    0    1
 -2       544       545       670      2417      2816      2817
 -1      1206    8    0    1
 -2       544       670       669      2817      2818      2813
 -1      1207    8    0    1
 -2       545       546       671      2420      2819      2820
 -1      1208    8    0    1
 -2       545       671       670      2820      2821      2816
 -1      1209    8    0    1
 -2       546       547       672      2423      2822      2823
 -1      1210    8    0    1
 -2       546       672       671      2823      2824      2819
 -1      1211    8    0    1
 -2       547       548       673      2426      2825      2826
 -1      1212    8    0    1
 -2       547       673       672      2826      2827      2822
 -1      1213    8    0    1
 -2       548       549       674      2429      2828      2829
 -1      1214    8    0    1
 -2       548       674       673      2829      2830      2825
 -1      1215    8    0    1
 -2       549       550       675      2432      2831      2832
 -1      1216    8    0    1
 -2       549       675       674      2832      2833      2828
 -1      1217    8    0    1
 -2       550       551       676      2435      2834      2835
 -1      1218    8    0    1
 -2       550       676       675      2835      2836      2831
 -1      1219    8    0    1
 -2       551       552       677      2438      2837      2838
 -1      1220    8    0    1
 -2       551       677       676      2838      2839      2834
 -1      1221    8    0    1
 -2       552       553       678      2441      2840      2841
 -1      1222    8    0    1
 -2       552       678       677      2841      2842      2837
 -1      1223    8    0    1
 -2       553       554       679      2444      2843      2844
 -1      1224    8    0    1
 -2       553       679       678      2844      2845      2840
 -1      1225    8    0    1
 -2       554       555       680      2447      2846      2847
 -1      1226    8    0    1
 -2       554       680       679      2847      2848      2843
 -1      1227    8    0    1
 -2       555       556       681      2450      2849      2850
 -1      1228    8    0    1
 -2       555       681       680      2850      2851      2846
 -1      1229    8    0    1
 -2       556       557       682      2453      2852      2853
 -1      1230    8    0    1
 -2       556       682       681      2853      2854      2849
 -1      1231    8    0    1
 -2       557       558       683      2456      2855      2856
 -1      1232    8    0    1
 -2       557       683       682      2856      2857      2852
 -1      1233    8    0    1
 -2       558       559       684      2459      2858      2859
 -1      1234    8    0    1
 -2       558       684       683      2859      2860      2855
 -1      1235    8    0    1
 -2       559       560       685      2462      2861      2862
 -1      1236    8    0    1
 -2       559       685       684      2862      2863      2858
 -1      1237    8    0    1
 -2       560       561       686      2465      2864      2865
 -1      1238    8    0    1
 -2       560       686       685      2865      2866      2861
 -1      1239    8    0    1
 -2       561       562       687      2468      2867      2868
 -1      1240    8    0    1
 -2       561       687       686      2868      2869      2864
 -1      1241    8    0    1
 -2       562       563       688      2471      2870      2871
 -1      1242    8    0    1
 -2       562       688       687      2871      2872      2867
 -1      1243    8    0    1
 -2       563       564       689      2474      2873      2874
 -1      1244    8    0    1
 -2       563       689       688      2874      2875      2870
 -1      1245    8    0    1
 -2       564       565       690      2477      2876      2877
 -1      1246    8    0    1
 -2       689       564       690      2873      2877      2878
 -1      1247    8    0    1
 -2       565       568       690      2625      2879      2876
 -1      1248    8    0    1
 -2       570       571       691      2495      2880      2881
 -1      1249    8    0    1
 -2       604       523       692      2626      2882      2883
 -1      1250    8    0    1
 -2       523       651       692      2759      2884      2882
 -1      1251    8    0    1
 -2       566       567       693      2483      2885      2886
 -1      1252    8    0    1
 -2       571       572       694      2498      2887      2888
 -1      1253    8    0    1
 -2       571       694       691      2888      2889      2880
 -1      1254    8    0    1
 -2       567       570       695      2492      2890      2891
 -1      1255    8    0    1
 -2       693       567       695      2885      2891      2892
 -1      1256    8    0    1
 -2       570       691       695      2881      2893      2890
 -1      1257    8    0    1
 -2       572       573       696      2501      2894      2895
 -1      1258    8    0    1
 -2       572       696       694      2895      2896      2887
 -1      1259    8    0    1
 -2       573       574       697      2504      2897      2898
 -1      1260    8    0    1
 -2       573       697       696      2898      2899      2894
 -1      1261    8    0    1
 -2       574       575       698      2507      2900      2901
 -1      1262    8    0    1
 -2       574       698       697      2901      2902      2897
 -1      1263    8    0    1
 -2       583       578       699      2594      2903      2904
 -1      1264    8    0    1
 -2       576       604       692      2600      2883      2905
 -1      1265    8    0    1
 -2       598       599       700      2611      2906      2907
 -1      1266    8    0    1
 -2       597       593       701      2612      2908      2909
 -1      1267    8    0    1
 -2       585       476       607      2537      2629      2910
 -1      1268    8    0    1
 -2       475       585       590      2585      2911      2550
 -1      1269    8    0    1
 -2       471       577       702      2593      2912      2913
 -1      1270    8    0    1
 -2       577       581       703      2597      2914      2915
 -1      1271    8    0    1
 -2       582       588       704      2592      2916      2917
 -1      1272    8    0    1
 -2       474       473       608      2581      2632      2918
 -1      1273    8    0    1
 -2       479       480       705      2223      2919      2920
 -1      1274    8    0    1
 -2       479       705       607      2920      2921      2630
 -1      1275    8    0    1
 -2       584       596       706      2621      2922      2923
 -1      1276    8    0    1
 -2       596       597       707      2613      2924      2925
 -1      1277    8    0    1
 -2       599       583       708      2609      2926      2927
 -1      1278    8    0    1
 -2       583       699       708      2904      2928      2926
 -1      1279    8    0    1
 -2       592       595       709      2624      2929      2930
 -1      1280    8    0    1
 -2       592       709       608      2930      2931      2633
 -1      1281    8    0    1
 -2       472       587       710      2614      2932      2933
 -1      1282    8    0    1
 -2       481       478       711      2226      2934      2935
 -1      1283    8    0    1
 -2       481       711       610      2935      2936      2636
 -1      1284    8    0    1
 -2       593       598       712      2570      2937      2938
 -1      1285    8    0    1
 -2       595       584       713      2610      2939      2940
 -1      1286    8    0    1
 -2       595       713       709      2940      2941      2929
 -1      1287    8    0    1
 -2       478       600       714      2575      2942      2943
 -1      1288    8    0    1
 -2       711       478       714      2934      2943      2944
 -1      1289    8    0    1
 -2       600       605       714      2606      2945      2942
 -1      1290    8    0    1
 -2       581       601       609      2603      2946      2947
 -1      1291    8    0    1
 -2       601       526       609      2761      2635      2946
 -1      1292    8    0    1
 -2       602       474       715      2582      2948      2949
 -1      1293    8    0    1
 -2       603       471       702      2591      2913      2950
 -1      1294    8    0    1
 -2       584       706       713      2923      2951      2939
 -1      1295    8    0    1
 -2       652       580       716      2763      2952      2953
 -1      1296    8    0    1
 -2       580       603       716      2590      2954      2952
 -1      1297    8    0    1
 -2       472       710       606      2933      2955      2619
 -1      1298    8    0    1
 -2       569       566       717      2489      2956      2957
 -1      1299    8    0    1
 -2       566       693       717      2886      2958      2956
 -1      1300    8    0    1
 -2       525       601       582      2762      2608      2959
 -1      1301    8    0    1
 -2       578       652       699      2764      2960      2903
 -1      1302    8    0    1
 -2       598       700       712      2907      2961      2937
 -1      1303    8    0    1
 -2       568       569       718      2488      2962      2963
 -1      1304    8    0    1
 -2       690       568       718      2879      2963      2964
 -1      1305    8    0    1
 -2       569       717       718      2957      2965      2962
 -1      1306    8    0    1
 -2       701       593       712      2908      2938      2966
 -1      1307    8    0    1
 -2       579       524       606      2519      2967      2968
 -1      1308    8    0    1
 -2       575       576       692      2510      2905      2969
 -1      1309    8    0    1
 -2       700       599       708      2906      2927      2970
 -1      1310    8    0    1
 -2       597       701       707      2909      2971      2924
 -1      1311    8    0    1
 -2       715       474       608      2948      2918      2972
 -1      1312    8    0    1
 -2       702       577       703      2912      2915      2973
 -1      1313    8    0    1
 -2       590       585       589      2911      2974      2549
 -1      1314    8    0    1
 -2       706       596       707      2922      2925      2975
 -1      1315    8    0    1
 -2       710       587       705      2932      2976      2977
 -1      1316    8    0    1
 -2       587       589       719      2622      2978      2979
 -1      1317    8    0    1
 -2       575       692       720      2969      2980      2981
 -1      1318    8    0    1
 -2       698       575       720      2900      2981      2982
 -1      1319    8    0    1
 -2       692       651       720      2884      2983      2980
 -1      1320    8    0    1
 -2       589       585       607      2974      2910      2984
 -1      1321    8    0    1
 -2       603       702       721      2950      2985      2986
 -1      1322    8    0    1
 -2       654       655       722      2773      2987      2988
 -1      1323    8    0    1
 -2       606       710       579      2955      2989      2968
 -1      1324    8    0    1
 -2       653       654       723      2770      2990      2991
 -1      1325    8    0    1
 -2       654       722       723      2988      2992      2990
 -1      1326    8    0    1
 -2       525       582       704      2959      2917      2993
 -1      1327    8    0    1
 -2       612       611       724      2643      2994      2995
 -1      1328    8    0    1
 -2       613       612       725      2646      2996      2997
 -1      1329    8    0    1
 -2       612       724       725      2995      2998      2996
 -1      1330    8    0    1
 -2       614       613       726      2649      2999      3000
 -1      1331    8    0    1
 -2       613       725       726      2997      3001      2999
 -1      1332    8    0    1
 -2       615       614       727      2652      3002      3003
 -1      1333    8    0    1
 -2       614       726       727      3000      3004      3002
 -1      1334    8    0    1
 -2       616       615       728      2655      3005      3006
 -1      1335    8    0    1
 -2       615       727       728      3003      3007      3005
 -1      1336    8    0    1
 -2       617       616       729      2658      3008      3009
 -1      1337    8    0    1
 -2       616       728       729      3006      3010      3008
 -1      1338    8    0    1
 -2       618       617       730      2661      3011      3012
 -1      1339    8    0    1
 -2       617       729       730      3009      3013      3011
 -1      1340    8    0    1
 -2       619       618       731      2664      3014      3015
 -1      1341    8    0    1
 -2       618       730       731      3012      3016      3014
 -1      1342    8    0    1
 -2       620       619       732      2667      3017      3018
 -1      1343    8    0    1
 -2       619       731       732      3015      3019      3017
 -1      1344    8    0    1
 -2       621       620       733      2670      3020      3021
 -1      1345    8    0    1
 -2       620       732       733      3018      3022      3020
 -1      1346    8    0    1
 -2       622       621       734      2673      3023      3024
 -1      1347    8    0    1
 -2       621       733       734      3021      3025      3023
 -1      1348    8    0    1
 -2       623       622       735      2676      3026      3027
 -1      1349    8    0    1
 -2       622       734       735      3024      3028      3026
 -1      1350    8    0    1
 -2       624       623       736      2679      3029      3030
 -1      1351    8    0    1
 -2       623       735       736      3027      3031      3029
 -1      1352    8    0    1
 -2       625       624       737      2682      3032      3033
 -1      1353    8    0    1
 -2       624       736       737      3030      3034      3032
 -1      1354    8    0    1
 -2       626       625       738      2685      3035      3036
 -1      1355    8    0    1
 -2       625       737       738      3033      3037      3035
 -1      1356    8    0    1
 -2       627       626       739      2688      3038      3039
 -1      1357    8    0    1
 -2       626       738       739      3036      3040      3038
 -1      1358    8    0    1
 -2       628       627       740      2691      3041      3042
 -1      1359    8    0    1
 -2       627       739       740      3039      3043      3041
 -1      1360    8    0    1
 -2       629       628       741      2694      3044      3045
 -1      1361    8    0    1
 -2       628       740       741      3042      3046      3044
 -1      1362    8    0    1
 -2       630       629       742      2697      3047      3048
 -1      1363    8    0    1
 -2       629       741       742      3045      3049      3047
 -1      1364    8    0    1
 -2       631       630       743      2700      3050      3051
 -1      1365    8    0    1
 -2       630       742       743      3048      3052      3050
 -1      1366    8    0    1
 -2       632       631       744      2703      3053      3054
 -1      1367    8    0    1
 -2       631       743       744      3051      3055      3053
 -1      1368    8    0    1
 -2       633       632       745      2706      3056      3057
 -1      1369    8    0    1
 -2       632       744       745      3054      3058      3056
 -1      1370    8    0    1
 -2       634       633       746      2709      3059      3060
 -1      1371    8    0    1
 -2       633       745       746      3057      3061      3059
 -1      1372    8    0    1
 -2       635       634       747      2712      3062      3063
 -1      1373    8    0    1
 -2       634       746       747      3060      3064      3062
 -1      1374    8    0    1
 -2       636       635       748      2715      3065      3066
 -1      1375    8    0    1
 -2       635       747       748      3063      3067      3065
 -1      1376    8    0    1
 -2       637       636       749      2718      3068      3069
 -1      1377    8    0    1
 -2       636       748       749      3066      3070      3068
 -1      1378    8    0    1
 -2       638       637       750      2721      3071      3072
 -1      1379    8    0    1
 -2       637       749       750      3069      3073      3071
 -1      1380    8    0    1
 -2       639       638       751      2724      3074      3075
 -1      1381    8    0    1
 -2       638       750       751      3072      3076      3074
 -1      1382    8    0    1
 -2       640       639       752      2727      3077      3078
 -1      1383    8    0    1
 -2       639       751       752      3075      3079      3077
 -1      1384    8    0    1
 -2       641       640       753      2730      3080      3081
 -1      1385    8    0    1
 -2       640       752       753      3078      3082      3080
 -1      1386    8    0    1
 -2       642       641       754      2733      3083      3084
 -1      1387    8    0    1
 -2       641       753       754      3081      3085      3083
 -1      1388    8    0    1
 -2       643       642       755      2736      3086      3087
 -1      1389    8    0    1
 -2       642       754       755      3084      3088      3086
 -1      1390    8    0    1
 -2       644       643       756      2739      3089      3090
 -1      1391    8    0    1
 -2       643       755       756      3087      3091      3089
 -1      1392    8    0    1
 -2       645       644       757      2742      3092      3093
 -1      1393    8    0    1
 -2       644       756       757      3090      3094      3092
 -1      1394    8    0    1
 -2       646       645       758      2745      3095      3096
 -1      1395    8    0    1
 -2       645       757       758      3093      3097      3095
 -1      1396    8    0    1
 -2       647       646       759      2748      3098      3099
 -1      1397    8    0    1
 -2       646       758       759      3096      3100      3098
 -1      1398    8    0    1
 -2       648       647       760      2751      3101      3102
 -1      1399    8    0    1
 -2       647       759       760      3099      3103      3101
 -1      1400    8    0    1
 -2       649       648       761      2754      3104      3105
 -1      1401    8    0    1
 -2       648       760       761      3102      3106      3104
 -1      1402    8    0    1
 -2       650       649       762      2757      3107      3108
 -1      1403    8    0    1
 -2       649       761       762      3105      3109      3107
 -1      1404    8    0    1
 -2       651       650       763      2760      3110      3111
 -1      1405    8    0    1
 -2       720       651       763      2983      3111      3112
 -1      1406    8    0    1
 -2       650       762       763      3108      3113      3110
 -1      1407    8    0    1
 -2       524       525       704      2357      2993      3114
 -1      1408    8    0    1
 -2       655       656       764      2776      3115      3116
 -1      1409    8    0    1
 -2       655       764       722      3116      3117      2987
 -1      1410    8    0    1
 -2       656       657       765      2779      3118      3119
 -1      1411    8    0    1
 -2       656       765       764      3119      3120      3115
 -1      1412    8    0    1
 -2       657       658       766      2782      3121      3122
 -1      1413    8    0    1
 -2       657       766       765      3122      3123      3118
 -1      1414    8    0    1
 -2       658       659       767      2785      3124      3125
 -1      1415    8    0    1
 -2       658       767       766      3125      3126      3121
 -1      1416    8    0    1
 -2       659       660       768      2788      3127      3128
 -1      1417    8    0    1
 -2       659       768       767      3128      3129      3124
 -1      1418    8    0    1
 -2       660       661       769      2791      3130      3131
 -1      1419    8    0    1
 -2       660       769       768      3131      3132      3127
 -1      1420    8    0    1
 -2       661       662       770      2794      3133      3134
 -1      1421    8    0    1
 -2       661       770       769      3134      3135      3130
 -1      1422    8    0    1
 -2       662       663       771      2797      3136      3137
 -1      1423    8    0    1
 -2       662       771       770      3137      3138      3133
 -1      1424    8    0    1
 -2       663       664       772      2800      3139      3140
 -1      1425    8    0    1
 -2       663       772       771      3140      3141      3136
 -1      1426    8    0    1
 -2       664       665       773      2803      3142      3143
 -1      1427    8    0    1
 -2       664       773       772      3143      3144      3139
 -1      1428    8    0    1
 -2       665       666       774      2806      3145      3146
 -1      1429    8    0    1
 -2       665       774       773      3146      3147      3142
 -1      1430    8    0    1
 -2       666       667       775      2809      3148      3149
 -1      1431    8    0    1
 -2       666       775       774      3149      3150      3145
 -1      1432    8    0    1
 -2       667       668       776      2812      3151      3152
 -1      1433    8    0    1
 -2       667       776       775      3152      3153      3148
 -1      1434    8    0    1
 -2       668       669       777      2815      3154      3155
 -1      1435    8    0    1
 -2       668       777       776      3155      3156      3151
 -1      1436    8    0    1
 -2       669       670       778      2818      3157      3158
 -1      1437    8    0    1
 -2       669       778       777      3158      3159      3154
 -1      1438    8    0    1
 -2       670       671       779      2821      3160      3161
 -1      1439    8    0    1
 -2       670       779       778      3161      3162      3157
 -1      1440    8    0    1
 -2       671       672       780      2824      3163      3164
 -1      1441    8    0    1
 -2       671       780       779      3164      3165      3160
 -1      1442    8    0    1
 -2       672       673       781      2827      3166      3167
 -1      1443    8    0    1
 -2       672       781       780      3167      3168      3163
 -1      1444    8    0    1
 -2       673       674       782      2830      3169      3170
 -1      1445    8    0    1
 -2       673       782       781      3170      3171      3166
 -1      1446    8    0    1
 -2       674       675       783      2833      3172      3173
 -1      1447    8    0    1
 -2       674       783       782      3173      3174      3169
 -1      1448    8    0    1
 -2       675       676       784      2836      3175      3176
 -1      1449    8    0    1
 -2       675       784       783      3176      3177      3172
 -1      1450    8    0    1
 -2       676       677       785      2839      3178      3179
 -1      1451    8    0    1
 -2       676       785       784      3179      3180      3175
 -1      1452    8    0    1
 -2       677       678       786      2842      3181      3182
 -1      1453    8    0    1
 -2       677       786       785      3182      3183      3178
 -1      1454    8    0    1
 -2       678       679       787      2845      3184      3185
 -1      1455    8    0    1
 -2       678       787       786      3185      3186      3181
 -1      1456    8    0    1
 -2       679       680       788      2848      3187      3188
 -1      1457    8    0    1
 -2       679       788       787      3188      3189      3184
 -1      1458    8    0    1
 -2       680       681       789      2851      3190      3191
 -1      1459    8    0    1
 -2       680       789       788      3191      3192      3187
 -1      1460    8    0    1
 -2       681       682       790      2854      3193      3194
 -1      1461    8    0    1
 -2       681       790       789      3194      3195      3190
 -1      1462    8    0    1
 -2       682       683       791      2857      3196      3197
 -1      1463    8    0    1
 -2       682       791       790      3197      3198      3193
 -1      1464    8    0    1
 -2       683       684       792      2860      3199      3200
 -1      1465    8    0    1
 -2       683       792       791      3200      3201      3196
 -1      1466    8    0    1
 -2       684       685       793      2863      3202      3203
 -1      1467    8    0    1
 -2       684       793       792      3203      3204      3199
 -1      1468    8    0    1
 -2       685       686       794      2866      3205      3206
 -1      1469    8    0    1
 -2       685       794       793      3206      3207      3202
 -1      1470    8    0    1
 -2       686       687       795      2869      3208      3209
 -1      1471    8    0    1
 -2       686       795       794      3209      3210      3205
 -1      1472    8    0    1
 -2       687       688       796      2872      3211      3212
 -1      1473    8    0    1
 -2       687       796       795      3212      3213      3208
 -1      1474    8    0    1
 -2       688       689       797      2875      3214      3215
 -1      1475    8    0    1
 -2       688       797       796      3215      3216      3211
 -1      1476    8    0    1
 -2       689       690       798      2878      3217      3218
 -1      1477    8    0    1
 -2       797       689       798      3214      3218      3219
 -1      1478    8    0    1
 -2       690       718       798      2964      3220      3217
 -1      1479    8    0    1
 -2       611       610       799      2640      3221      3222
 -1      1480    8    0    1
 -2       611       799       724      3222      3223      2994
 -1      1481    8    0    1
 -2       697       698       800      2902      3224      3225
 -1      1482    8    0    1
 -2       691       694       801      2889      3226      3227
 -1      1483    8    0    1
 -2       606       524       704      2967      3114      3228
 -1      1484    8    0    1
 -2       608       709       715      2931      3229      2972
 -1      1485    8    0    1
 -2       712       700       802      2961      3230      3231
 -1      1486    8    0    1
 -2       700       708       803      2970      3232      3233
 -1      1487    8    0    1
 -2       480       579       710      2518      2989      3234
 -1      1488    8    0    1
 -2       605       602       804      2607      3235      3236
 -1      1489    8    0    1
 -2       714       605       804      2945      3236      3237
 -1      1490    8    0    1
 -2       602       715       804      2949      3238      3235
 -1      1491    8    0    1
 -2       713       706       805      2951      3239      3240
 -1      1492    8    0    1
 -2       701       712       806      2966      3241      3242
 -1      1493    8    0    1
 -2       588       606       704      2618      3228      2916
 -1      1494    8    0    1
 -2       703       581       609      2914      2947      3243
 -1      1495    8    0    1
 -2       694       696       807      2896      3244      3245
 -1      1496    8    0    1
 -2       694       807       801      3245      3246      3226
 -1      1497    8    0    1
 -2       708       699       808      2928      3247      3248
 -1      1498    8    0    1
 -2       715       709       809      3229      3249      3250
 -1      1499    8    0    1
 -2       709       713       809      2941      3251      3249
 -1      1500    8    0    1
 -2       706       707       799      2975      3252      3253
 -1      1501    8    0    1
 -2       702       703       810      2973      3254      3255
 -1      1502    8    0    1
 -2       705       480       710      2919      3234      2977
 -1      1503    8    0    1
 -2       703       609       653      3243      2767      3256
 -1      1504    8    0    1
 -2       707       701       724      2971      3257      3258
 -1      1505    8    0    1
 -2       696       697       811      2899      3259      3260
 -1      1506    8    0    1
 -2       807       696       811      3244      3260      3261
 -1      1507    8    0    1
 -2       697       800       811      3225      3262      3259
 -1      1508    8    0    1
 -2       610       711       805      2936      3263      3264
 -1      1509    8    0    1
 -2       699       652       812      2960      3265      3266
 -1      1510    8    0    1
 -2       716       603       721      2954      2986      3267
 -1      1511    8    0    1
 -2       717       693       813      2958      3268      3269
 -1      1512    8    0    1
 -2       610       805       799      3264      3270      3221
 -1      1513    8    0    1
 -2       707       724       799      3258      3223      3252
 -1      1514    8    0    1
 -2       708       808       803      3248      3271      3232
 -1      1515    8    0    1
 -2       693       695       814      2892      3272      3273
 -1      1516    8    0    1
 -2       693       814       813      3273      3274      3268
 -1      1517    8    0    1
 -2       589       607       719      2984      3275      2978
 -1      1518    8    0    1
 -2       809       713       805      3251      3240      3276
 -1      1519    8    0    1
 -2       695       691       815      2893      3277      3278
 -1      1520    8    0    1
 -2       814       695       815      3272      3278      3279
 -1      1521    8    0    1
 -2       691       801       815      3227      3280      3277
 -1      1522    8    0    1
 -2       802       700       816      3230      3281      3282
 -1      1523    8    0    1
 -2       700       803       816      3233      3283      3281
 -1      1524    8    0    1
 -2       804       715       809      3238      3250      3284
 -1      1525    8    0    1
 -2       806       712       802      3241      3231      3285
 -1      1526    8    0    1
 -2       805       711       809      3263      3286      3276
 -1      1527    8    0    1
 -2       808       699       812      3247      3266      3287
 -1      1528    8    0    1
 -2       721       702       810      2985      3255      3288
 -1      1529    8    0    1
 -2       652       716       817      2953      3289      3290
 -1      1530    8    0    1
 -2       652       817       812      3290      3291      3265
 -1      1531    8    0    1
 -2       724       701       725      3257      3292      2998
 -1      1532    8    0    1
 -2       705       587       719      2976      2979      3293
 -1      1533    8    0    1
 -2       703       653       723      3256      2991      3294
 -1      1534    8    0    1
 -2       725       701       806      3292      3242      3295
 -1      1535    8    0    1
 -2       698       720       818      2982      3296      3297
 -1      1536    8    0    1
 -2       800       698       818      3224      3297      3298
 -1      1537    8    0    1
 -2       720       763       818      3112      3299      3296
 -1      1538    8    0    1
 -2       706       799       805      3253      3270      3239
 -1      1539    8    0    1
 -2       722       764       819      3117      3300      3301
 -1      1540    8    0    1
 -2       719       607       705      3275      2921      3293
 -1      1541    8    0    1
 -2       723       722       820      2992      3302      3303
 -1      1542    8    0    1
 -2       722       819       820      3301      3304      3302
 -1      1543    8    0    1
 -2       726       725       806      3001      3295      3305
 -1      1544    8    0    1
 -2       728       727       821      3007      3306      3307
 -1      1545    8    0    1
 -2       729       728       822      3010      3308      3309
 -1      1546    8    0    1
 -2       728       821       822      3307      3310      3308
 -1      1547    8    0    1
 -2       730       729       823      3013      3311      3312
 -1      1548    8    0    1
 -2       729       822       823      3309      3313      3311
 -1      1549    8    0    1
 -2       731       730       824      3016      3314      3315
 -1      1550    8    0    1
 -2       730       823       824      3312      3316      3314
 -1      1551    8    0    1
 -2       732       731       825      3019      3317      3318
 -1      1552    8    0    1
 -2       731       824       825      3315      3319      3317
 -1      1553    8    0    1
 -2       733       732       826      3022      3320      3321
 -1      1554    8    0    1
 -2       732       825       826      3318      3322      3320
 -1      1555    8    0    1
 -2       734       733       827      3025      3323      3324
 -1      1556    8    0    1
 -2       733       826       827      3321      3325      3323
 -1      1557    8    0    1
 -2       735       734       828      3028      3326      3327
 -1      1558    8    0    1
 -2       734       827       828      3324      3328      3326
 -1      1559    8    0    1
 -2       736       735       829      3031      3329      3330
 -1      1560    8    0    1
 -2       735       828       829      3327      3331      3329
 -1      1561    8    0    1
 -2       737       736       830      3034      3332      3333
 -1      1562    8    0    1
 -2       736       829       830      3330      3334      3332
 -1      1563    8    0    1
 -2       738       737       831      3037      3335      3336
 -1      1564    8    0    1
 -2       737       830       831      3333      3337      3335
 -1      1565    8    0    1
 -2       739       738       832      3040      3338      3339
 -1      1566    8    0    1
 -2       738       831       832      3336      3340      3338
 -1      1567    8    0    1
 -2       740       739       833      3043      3341      3342
 -1      1568    8    0    1
 -2       739       832       833      3339      3343      3341
 -1      1569    8    0    1
 -2       741       740       834      3046      3344      3345
 -1      1570    8    0    1
 -2       740       833       834      3342      3346      3344
 -1      1571    8    0    1
 -2       742       741       835      3049      3347      3348
 -1      1572    8    0    1
 -2       741       834       835      3345      3349      3347
 -1      1573    8    0    1
 -2       743       742       836      3052      3350      3351
 -1      1574    8    0    1
 -2       742       835       836      3348      3352      3350
 -1      1575    8    0    1
 -2       744       743       837      3055      3353      3354
 -1      1576    8    0    1
 -2       743       836       837      3351      3355      3353
 -1      1577    8    0    1
 -2       745       744       838      3058      3356      3357
 -1      1578    8    0    1
 -2       744       837       838      3354      3358      3356
 -1      1579    8    0    1
 -2       746       745       839      3061      3359      3360
 -1      1580    8    0    1
 -2       745       838       839      3357      3361      3359
 -1      1581    8    0    1
 -2       747       746       840      3064      3362      3363
 -1      1582    8    0    1
 -2       746       839       840      3360      3364      3362
 -1      1583    8    0    1
 -2       748       747       841      3067      3365      3366
 -1      1584    8    0    1
 -2       747       840       841      3363      3367      3365
 -1      1585    8    0    1
 -2       749       748       842      3070      3368      3369
 -1      1586    8    0    1
 -2       748       841       842      3366      3370      3368
 -1      1587    8    0    1
 -2       750       749       843      3073      3371      3372
 -1      1588    8    0    1
 -2       749       842       843      3369      3373      3371
 -1      1589    8    0    1
 -2       751       750       844      3076      3374      3375
 -1      1590    8    0    1
 -2       750       843       844      3372      3376      3374
 -1      1591    8    0    1
 -2       752       751       845      3079      3377      3378
 -1      1592    8    0    1
 -2       751       844       845      3375      3379      3377
 -1      1593    8    0    1
 -2       753       752       846      3082      3380      3381
 -1      1594    8    0    1
 -2       752       845       846      3378      3382      3380
 -1      1595    8    0    1
 -2       754       753       847      3085      3383      3384
 -1      1596    8    0    1
 -2       753       846       847      3381      3385      3383
 -1      1597    8    0    1
 -2       755       754       848      3088      3386      3387
 -1      1598    8    0    1
 -2       754       847       848      3384      3388      3386
 -1      1599    8    0    1
 -2       756       755       849      3091      3389      3390
 -1      1600    8    0    1
 -2       755       848       849      3387      3391      3389
 -1      1601    8    0    1
 -2       757       756       850      3094      3392      3393
 -1      1602    8    0    1
 -2       756       849       850      3390      3394      3392
 -1      1603    8    0    1
 -2       758       757       851      3097      3395      3396
 -1      1604    8    0    1
 -2       757       850       851      3393      3397      3395
 -1      1605    8    0    1
 -2       759       758       852      3100      3398      3399
 -1      1606    8    0    1
 -2       758       851       852      3396      3400      3398
 -1      1607    8    0    1
 -2       760       759       853      3103      3401      3402
 -1      1608    8    0    1
 -2       759       852       853      3399      3403      3401
 -1      1609    8    0    1
 -2       761       760       854      3106      3404      3405
 -1      1610    8    0    1
 -2       760       853       854      3402      3406      3404
 -1      1611    8    0    1
 -2       762       761       855      3109      3407      3408
 -1      1612    8    0    1
 -2       761       854       855      3405      3409      3407
 -1      1613    8    0    1
 -2       765       766       856      3123      3410      3411
 -1      1614    8    0    1
 -2       766       767       857      3126      3412      3413
 -1      1615    8    0    1
 -2       766       857       856      3413      3414      3410
 -1      1616    8    0    1
 -2       767       768       858      3129      3415      3416
 -1      1617    8    0    1
 -2       767       858       857      3416      3417      3412
 -1      1618    8    0    1
 -2       768       769       859      3132      3418      3419
 -1      1619    8    0    1
 -2       768       859       858      3419      3420      3415
 -1      1620    8    0    1
 -2       769       770       860      3135      3421      3422
 -1      1621    8    0    1
 -2       769       860       859      3422      3423      3418
 -1      1622    8    0    1
 -2       770       771       861      3138      3424      3425
 -1      1623    8    0    1
 -2       770       861       860      3425      3426      3421
 -1      1624    8    0    1
 -2       771       772       862      3141      3427      3428
 -1      1625    8    0    1
 -2       771       862       861      3428      3429      3424
 -1      1626    8    0    1
 -2       772       773       863      3144      3430      3431
 -1      1627    8    0    1
 -2       772       863       862      3431      3432      3427
 -1      1628    8    0    1
 -2       773       774       864      3147      3433      3434
 -1      1629    8    0    1
 -2       773       864       863      3434      3435      3430
 -1      1630    8    0    1
 -2       774       775       865      3150      3436      3437
 -1      1631    8    0    1
 -2       774       865       864      3437      3438      3433
 -1      1632    8    0    1
 -2       775       776       866      3153      3439      3440
 -1      1633    8    0    1
 -2       775       866       865      3440      3441      3436
 -1      1634    8    0    1
 -2       776       777       867      3156      3442      3443
 -1      1635    8    0    1
 -2       776       867       866      3443      3444      3439
 -1      1636    8    0    1
 -2       777       778       868      3159      3445      3446
 -1      1637    8    0    1
 -2       777       868       867      3446      3447      3442
 -1      1638    8    0    1
 -2       778       779       869      3162      3448      3449
 -1      1639    8    0    1
 -2       778       869       868      3449      3450      3445
 -1      1640    8    0    1
 -2       779       780       870      3165      3451      3452
 -1      1641    8    0    1
 -2       779       870       869      3452      3453      3448
 -1      1642    8    0    1
 -2       780       781       871      3168      3454      3455
 -1      1643    8    0    1
 -2       780       871       870      3455      3456      3451
 -1      1644    8    0    1
 -2       781       782       872      3171      3457      3458
 -1      1645    8    0    1
 -2       781       872       871      3458      3459      3454
 -1      1646    8    0    1
 -2       782       783       873      3174      3460      3461
 -1      1647    8    0    1
 -2       782       873       872      3461      3462      3457
 -1      1648    8    0    1
 -2       783       784       874      3177      3463      3464
 -1      1649    8    0    1
 -2       783       874       873      3464      3465      3460
 -1      1650    8    0    1
 -2       784       785       875      3180      3466      3467
 -1      1651    8    0    1
 -2       784       875       874      3467      3468      3463
 -1      1652    8    0    1
 -2       785       786       876      3183      3469      3470
 -1      1653    8    0    1
 -2       785       876       875      3470      3471      3466
 -1      1654    8    0    1
 -2       786       787       877      3186      3472      3473
 -1      1655    8    0    1
 -2       786       877       876      3473      3474      3469
 -1      1656    8    0    1
 -2       787       788       878      3189      3475      3476
 -1      1657    8    0    1
 -2       787       878       877      3476      3477      3472
 -1      1658    8    0    1
 -2       788       789       879      3192      3478      3479
 -1      1659    8    0    1
 -2       788       879       878      3479      3480      3475
 -1      1660    8    0    1
 -2       789       790       880      3195      3481      3482
 -1      1661    8    0    1
 -2       789       880       879      3482      3483      3478
 -1      1662    8    0    1
 -2       790       791       881      3198      3484      3485
 -1      1663    8    0    1
 -2       790       881       880      3485      3486      3481
 -1      1664    8    0    1
 -2       791       792       882      3201      3487      3488
 -1      1665    8    0    1
 -2       791       882       881      3488      3489      3484
 -1      1666    8    0    1
 -2       792       793       883      3204      3490      3491
 -1      1667    8    0    1
 -2       792       883       882      3491      3492      3487
 -1      1668    8    0    1
 -2       793       794       884      3207      3493      3494
 -1      1669    8    0    1
 -2       793       884       883      3494      3495      3490
 -1      1670    8    0    1
 -2       794       795       885      3210      3496      3497
 -1      1671    8    0    1
 -2       794       885       884      3497      3498      3493
 -1      1672    8    0    1
 -2       795       796       886      3213      3499      3500
 -1      1673    8    0    1
 -2       795       886       885      3500      3501      3496
 -1      1674    8    0    1
 -2       796       797       887      3216      3502      3503
 -1      1675    8    0    1
 -2       796       887       886      3503      3504      3499
 -1      1676    8    0    1
 -2       718       717       888      2965      3505      3506
 -1      1677    8    0    1
 -2       798       718       888      3220      3506      3507
 -1      1678    8    0    1
 -2       717       813       888      3269      3508      3505
 -1      1679    8    0    1
 -2       764       765       889      3120      3509      3510
 -1      1680    8    0    1
 -2       765       856       889      3411      3511      3509
 -1      1681    8    0    1
 -2       801       807       890      3246      3512      3513
 -1      1682    8    0    1
 -2       808       812       891      3287      3514      3515
 -1      1683    8    0    1
 -2       803       808       892      3271      3516      3517
 -1      1684    8    0    1
 -2       808       891       892      3515      3518      3516
 -1      1685    8    0    1
 -2       809       711       804      3286      3519      3284
 -1      1686    8    0    1
 -2       711       714       804      2944      3237      3519
 -1      1687    8    0    1
 -2       721       810       820      3288      3520      3521
 -1      1688    8    0    1
 -2       716       721       893      3267      3522      3523
 -1      1689    8    0    1
 -2       819       764       889      3300      3510      3524
 -1      1690    8    0    1
 -2       727       726       894      3004      3525      3526
 -1      1691    8    0    1
 -2       801       890       895      3513      3527      3528
 -1      1692    8    0    1
 -2       801       895       815      3528      3529      3280
 -1      1693    8    0    1
 -2       763       762       896      3113      3530      3531
 -1      1694    8    0    1
 -2       818       763       896      3299      3531      3532
 -1      1695    8    0    1
 -2       762       855       896      3408      3533      3530
 -1      1696    8    0    1
 -2       888       813       887      3508      3534      3535
 -1      1697    8    0    1
 -2       797       798       888      3219      3507      3536
 -1      1698    8    0    1
 -2       816       803       892      3283      3517      3537
 -1      1699    8    0    1
 -2       891       812       897      3514      3538      3539
 -1      1700    8    0    1
 -2       802       816       821      3282      3540      3541
 -1      1701    8    0    1
 -2       813       814       898      3274      3542      3543
 -1      1702    8    0    1
 -2       813       898       887      3543      3544      3534
 -1      1703    8    0    1
 -2       890       807       899      3512      3545      3546
 -1      1704    8    0    1
 -2       807       811       899      3261      3547      3545
 -1      1705    8    0    1
 -2       727       894       821      3526      3548      3306
 -1      1706    8    0    1
 -2       800       818       896      3298      3532      3549
 -1      1707    8    0    1
 -2       810       703       723      3254      3294      3550
 -1      1708    8    0    1
 -2       721       820       893      3521      3551      3522
 -1      1709    8    0    1
 -2       806       802       894      3285      3552      3553
 -1      1710    8    0    1
 -2       817       716       893      3289      3523      3554
 -1      1711    8    0    1
 -2       812       817       897      3291      3555      3538
 -1      1712    8    0    1
 -2       806       894       726      3553      3525      3305
 -1      1713    8    0    1
 -2       810       723       820      3550      3303      3520
 -1      1714    8    0    1
 -2       800       896       900      3549      3556      3557
 -1      1715    8    0    1
 -2       811       800       900      3262      3557      3558
 -1      1716    8    0    1
 -2       896       855       900      3533      3559      3556
 -1      1717    8    0    1
 -2       797       888       887      3536      3535      3502
 -1      1718    8    0    1
 -2       802       821       894      3541      3548      3552
 -1      1719    8    0    1
 -2       892       891       901      3518      3560      3561
 -1      1720    8    0    1
 -2       858       859       902      3420      3562      3563
 -1      1721    8    0    1
 -2       822       821       816      3310      3540      3564
 -1      1722    8    0    1
 -2       820       819       903      3304      3565      3566
 -1      1723    8    0    1
 -2       820       903       893      3566      3567      3551
 -1      1724    8    0    1
 -2       823       822       904      3313      3568      3569
 -1      1725    8    0    1
 -2       824       823       905      3316      3570      3571
 -1      1726    8    0    1
 -2       823       904       905      3569      3572      3570
 -1      1727    8    0    1
 -2       825       824       906      3319      3573      3574
 -1      1728    8    0    1
 -2       824       905       906      3571      3575      3573
 -1      1729    8    0    1
 -2       826       825       907      3322      3576      3577
 -1      1730    8    0    1
 -2       825       906       907      3574      3578      3576
 -1      1731    8    0    1
 -2       827       826       908      3325      3579      3580
 -1      1732    8    0    1
 -2       826       907       908      3577      3581      3579
 -1      1733    8    0    1
 -2       828       827       909      3328      3582      3583
 -1      1734    8    0    1
 -2       827       908       909      3580      3584      3582
 -1      1735    8    0    1
 -2       829       828       910      3331      3585      3586
 -1      1736    8    0    1
 -2       828       909       910      3583      3587      3585
 -1      1737    8    0    1
 -2       830       829       911      3334      3588      3589
 -1      1738    8    0    1
 -2       829       910       911      3586      3590      3588
 -1      1739    8    0    1
 -2       831       830       912      3337      3591      3592
 -1      1740    8    0    1
 -2       830       911       912      3589      3593      3591
 -1      1741    8    0    1
 -2       832       831       913      3340      3594      3595
 -1      1742    8    0    1
 -2       831       912       913      3592      3596      3594
 -1      1743    8    0    1
 -2       833       832       914      3343      3597      3598
 -1      1744    8    0    1
 -2       832       913       914      3595      3599      3597
 -1      1745    8    0    1
 -2       834       833       915      3346      3600      3601
 -1      1746    8    0    1
 -2       833       914       915      3598      3602      3600
 -1      1747    8    0    1
 -2       835       834       916      3349      3603      3604
 -1      1748    8    0    1
 -2       834       915       916      3601      3605      3603
 -1      1749    8    0    1
 -2       836       835       917      3352      3606      3607
 -1      1750    8    0    1
 -2       835       916       917      3604      3608      3606
 -1      1751    8    0    1
 -2       837       836       918      3355      3609      3610
 -1      1752    8    0    1
 -2       836       917       918      3607      3611      3609
 -1      1753    8    0    1
 -2       838       837       919      3358      3612      3613
 -1      1754    8    0    1
 -2       837       918       919      3610      3614      3612
 -1      1755    8    0    1
 -2       839       838       920      3361      3615      3616
 -1      1756    8    0    1
 -2       838       919       920      3613      3617      3615
 -1      1757    8    0    1
 -2       840       839       921      3364      3618      3619
 -1      1758    8    0    1
 -2       839       920       921      3616      3620      3618
 -1      1759    8    0    1
 -2       841       840       922      3367      3621      3622
 -1      1760    8    0    1
 -2       840       921       922      3619      3623      3621
 -1      1761    8    0    1
 -2       842       841       923      3370      3624      3625
 -1      1762    8    0    1
 -2       841       922       923      3622      3626      3624
 -1      1763    8    0    1
 -2       843       842       924      3373      3627      3628
 -1      1764    8    0    1
 -2       842       923       924      3625      3629      3627
 -1      1765    8    0    1
 -2       844       843       925      3376      3630      3631
 -1      1766    8    0    1
 -2       843       924       925      3628      3632      3630
 -1      1767    8    0    1
 -2       845       844       926      3379      3633      3634
 -1      1768    8    0    1
 -2       844       925       926      3631      3635      3633
 -1      1769    8    0    1
 -2       846       845       927      3382      3636      3637
 -1      1770    8    0    1
 -2       845       926       927      3634      3638      3636
 -1      1771    8    0    1
 -2       847       846       928      3385      3639      3640
 -1      1772    8    0    1
 -2       846       927       928      3637      3641      3639
 -1      1773    8    0    1
 -2       848       847       929      3388      3642      3643
 -1      1774    8    0    1
 -2       847       928       929      3640      3644      3642
 -1      1775    8    0    1
 -2       849       848       930      3391      3645      3646
 -1      1776    8    0    1
 -2       848       929       930      3643      3647      3645
 -1      1777    8    0    1
 -2       850       849       931      3394      3648      3649
 -1      1778    8    0    1
 -2       849       930       931      3646      3650      3648
 -1      1779    8    0    1
 -2       851       850       932      3397      3651      3652
 -1      1780    8    0    1
 -2       850       931       932      3649      3653      3651
 -1      1781    8    0    1
 -2       852       851       933      3400      3654      3655
 -1      1782    8    0    1
 -2       851       932       933      3652      3656      3654
 -1      1783    8    0    1
 -2       853       852       934      3403      3657      3658
 -1      1784    8    0    1
 -2       852       933       934      3655      3659      3657
 -1      1785    8    0    1
 -2       854       853       935      3406      3660      3661
 -1      1786    8    0    1
 -2       853       934       935      3658      3662      3660
 -1      1787    8    0    1
 -2       855       854       936      3409      3663      3664
 -1      1788    8    0    1
 -2       854       935       936      3661      3665      3663
 -1      1789    8    0    1
 -2       857       858       937      3417      3666      3667
 -1      1790    8    0    1
 -2       858       902       937      3563      3668      3666
 -1      1791    8    0    1
 -2       856       857       938      3414      3669      3670
 -1      1792    8    0    1
 -2       857       937       938      3667      3671      3669
 -1      1793    8    0    1
 -2       859       860       939      3423      3672      3673
 -1      1794    8    0    1
 -2       859       939       902      3673      3674      3562
 -1      1795    8    0    1
 -2       860       861       940      3426      3675      3676
 -1      1796    8    0    1
 -2       860       940       939      3676      3677      3672
 -1      1797    8    0    1
 -2       861       862       941      3429      3678      3679
 -1      1798    8    0    1
 -2       861       941       940      3679      3680      3675
 -1      1799    8    0    1
 -2       862       863       942      3432      3681      3682
 -1      1800    8    0    1
 -2       862       942       941      3682      3683      3678
 -1      1801    8    0    1
 -2       863       864       943      3435      3684      3685
 -1      1802    8    0    1
 -2       863       943       942      3685      3686      3681
 -1      1803    8    0    1
 -2       864       865       944      3438      3687      3688
 -1      1804    8    0    1
 -2       864       944       943      3688      3689      3684
 -1      1805    8    0    1
 -2       865       866       945      3441      3690      3691
 -1      1806    8    0    1
 -2       865       945       944      3691      3692      3687
 -1      1807    8    0    1
 -2       866       867       946      3444      3693      3694
 -1      1808    8    0    1
 -2       866       946       945      3694      3695      3690
 -1      1809    8    0    1
 -2       867       868       947      3447      3696      3697
 -1      1810    8    0    1
 -2       867       947       946      3697      3698      3693
 -1      1811    8    0    1
 -2       868       869       948      3450      3699      3700
 -1      1812    8    0    1
 -2       868       948       947      3700      3701      3696
 -1      1813    8    0    1
 -2       869       870       949      3453      3702      3703
 -1      1814    8    0    1
 -2       869       949       948      3703      3704      3699
 -1      1815    8    0    1
 -2       870       871       950      3456      3705      3706
 -1      1816    8    0    1
 -2       870       950       949      3706      3707      3702
 -1      1817    8    0    1
 -2       871       872       951      3459      3708      3709
 -1      1818    8    0    1
 -2       871       951       950      3709      3710      3705
 -1      1819    8    0    1
 -2       872       873       952      3462      3711      3712
 -1      1820    8    0    1
 -2       872       952       951      3712      3713      3708
 -1      1821    8    0    1
 -2       873       874       953      3465      3714      3715
 -1      1822    8    0    1
 -2       873       953       952      3715      3716      3711
 -1      1823    8    0    1
 -2       874       875       954      3468      3717      3718
 -1      1824    8    0    1
 -2       874       954       953      3718      3719      3714
 -1      1825    8    0    1
 -2       875       876       955      3471      3720      3721
 -1      1826    8    0    1
 -2       875       955       954      3721      3722      3717
 -1      1827    8    0    1
 -2       876       877       956      3474      3723      3724
 -1      1828    8    0    1
 -2       876       956       955      3724      3725      3720
 -1      1829    8    0    1
 -2       877       878       957      3477      3726      3727
 -1      1830    8    0    1
 -2       877       957       956      3727      3728      3723
 -1      1831    8    0    1
 -2       878       879       958      3480      3729      3730
 -1      1832    8    0    1
 -2       878       958       957      3730      3731      3726
 -1      1833    8    0    1
 -2       879       880       959      3483      3732      3733
 -1      1834    8    0    1
 -2       879       959       958      3733      3734      3729
 -1      1835    8    0    1
 -2       880       881       960      3486      3735      3736
 -1      1836    8    0    1
 -2       880       960       959      3736      3737      3732
 -1      1837    8    0    1
 -2       881       882       961      3489      3738      3739
 -1      1838    8    0    1
 -2       881       961       960      3739      3740      3735
 -1      1839    8    0    1
 -2       882       883       962      3492      3741      3742
 -1      1840    8    0    1
 -2       882       962       961      3742      3743      3738
 -1      1841    8    0    1
 -2       883       884       963      3495      3744      3745
 -1      1842    8    0    1
 -2       883       963       962      3745      3746      3741
 -1      1843    8    0    1
 -2       884       885       964      3498      3747      3748
 -1      1844    8    0    1
 -2       884       964       963      3748      3749      3744
 -1      1845    8    0    1
 -2       885       886       965      3501      3750      3751
 -1      1846    8    0    1
 -2       885       965       964      3751      3752      3747
 -1      1847    8    0    1
 -2       886       887       966      3504      3753      3754
 -1      1848    8    0    1
 -2       965       886       966      3750      3754      3755
 -1      1849    8    0    1
 -2       887       898       966      3544      3756      3753
 -1      1850    8    0    1
 -2       816       892       904      3537      3757      3758
 -1      1851    8    0    1
 -2       889       856       967      3511      3759      3760
 -1      1852    8    0    1
 -2       856       938       967      3670      3761      3759
 -1      1853    8    0    1
 -2       814       815       968      3279      3762      3763
 -1      1854    8    0    1
 -2       815       895       968      3529      3764      3762
 -1      1855    8    0    1
 -2       817       893       969      3554      3765      3766
 -1      1856    8    0    1
 -2       897       817       969      3555      3766      3767
 -1      1857    8    0    1
 -2       893       903       969      3567      3768      3765
 -1      1858    8    0    1
 -2       891       897       970      3539      3769      3770
 -1      1859    8    0    1
 -2       891       970       901      3770      3771      3560
 -1      1860    8    0    1
 -2       819       889       971      3524      3772      3773
 -1      1861    8    0    1
 -2       903       819       971      3565      3773      3774
 -1      1862    8    0    1
 -2       889       967       971      3760      3775      3772
 -1      1863    8    0    1
 -2       822       816       904      3564      3758      3568
 -1      1864    8    0    1
 -2       814       968       898      3763      3776      3542
 -1      1865    8    0    1
 -2       811       900       899      3558      3777      3547
 -1      1866    8    0    1
 -2       900       855       936      3559      3664      3778
 -1      1867    8    0    1
 -2       897       969       972      3767      3779      3780
 -1      1868    8    0    1
 -2       897       972       970      3780      3781      3769
 -1      1869    8    0    1
 -2       904       892       901      3757      3561      3782
 -1      1870    8    0    1
 -2       895       890       973      3527      3783      3784
 -1      1871    8    0    1
 -2       890       899       974      3546      3785      3786
 -1      1872    8    0    1
 -2       890       974       973      3786      3787      3783
 -1      1873    8    0    1
 -2       898       968       975      3776      3788      3789
 -1      1874    8    0    1
 -2       898       975       966      3789      3790      3756
 -1      1875    8    0    1
 -2       902       939       976      3674      3791      3792
 -1      1876    8    0    1
 -2       906       905       977      3575      3793      3794
 -1      1877    8    0    1
 -2       907       906       978      3578      3795      3796
 -1      1878    8    0    1
 -2       906       977       978      3794      3797      3795
 -1      1879    8    0    1
 -2       908       907       979      3581      3798      3799
 -1      1880    8    0    1
 -2       907       978       979      3796      3800      3798
 -1      1881    8    0    1
 -2       909       908       980      3584      3801      3802
 -1      1882    8    0    1
 -2       908       979       980      3799      3803      3801
 -1      1883    8    0    1
 -2       910       909       981      3587      3804      3805
 -1      1884    8    0    1
 -2       909       980       981      3802      3806      3804
 -1      1885    8    0    1
 -2       911       910       982      3590      3807      3808
 -1      1886    8    0    1
 -2       910       981       982      3805      3809      3807
 -1      1887    8    0    1
 -2       912       911       983      3593      3810      3811
 -1      1888    8    0    1
 -2       911       982       983      3808      3812      3810
 -1      1889    8    0    1
 -2       913       912       984      3596      3813      3814
 -1      1890    8    0    1
 -2       912       983       984      3811      3815      3813
 -1      1891    8    0    1
 -2       914       913       985      3599      3816      3817
 -1      1892    8    0    1
 -2       913       984       985      3814      3818      3816
 -1      1893    8    0    1
 -2       915       914       986      3602      3819      3820
 -1      1894    8    0    1
 -2       914       985       986      3817      3821      3819
 -1      1895    8    0    1
 -2       916       915       987      3605      3822      3823
 -1      1896    8    0    1
 -2       915       986       987      3820      3824      3822
 -1      1897    8    0    1
 -2       917       916       988      3608      3825      3826
 -1      1898    8    0    1
 -2       916       987       988      3823      3827      3825
 -1      1899    8    0    1
 -2       918       917       989      3611      3828      3829
 -1      1900    8    0    1
 -2       917       988       989      3826      3830      3828
 -1      1901    8    0    1
 -2       919       918       990      3614      3831      3832
 -1      1902    8    0    1
 -2       918       989       990      3829      3833      3831
 -1      1903    8    0    1
 -2       920       919       991      3617      3834      3835
 -1      1904    8    0    1
 -2       919       990       991      3832      3836      3834
 -1      1905    8    0    1
 -2       921       920       992      3620      3837      3838
 -1      1906    8    0    1
 -2       920       991       992      3835      3839      3837
 -1      1907    8    0    1
 -2       922       921       993      3623      3840      3841
 -1      1908    8    0    1
 -2       921       992       993      3838      3842      3840
 -1      1909    8    0    1
 -2       923       922       994      3626      3843      3844
 -1      1910    8    0    1
 -2       922       993       994      3841      3845      3843
 -1      1911    8    0    1
 -2       924       923       995      3629      3846      3847
 -1      1912    8    0    1
 -2       923       994       995      3844      3848      3846
 -1      1913    8    0    1
 -2       925       924       996      3632      3849      3850
 -1      1914    8    0    1
 -2       924       995       996      3847      3851      3849
 -1      1915    8    0    1
 -2       926       925       997      3635      3852      3853
 -1      1916    8    0    1
 -2       925       996       997      3850      3854      3852
 -1      1917    8    0    1
 -2       927       926       998      3638      3855      3856
 -1      1918    8    0    1
 -2       926       997       998      3853      3857      3855
 -1      1919    8    0    1
 -2       928       927       999      3641      3858      3859
 -1      1920    8    0    1
 -2       927       998       999      3856      3860      3858
 -1      1921    8    0    1
 -2       929       928      1000      3644      3861      3862
 -1      1922    8    0    1
 -2       928       999      1000      3859      3863      3861
 -1      1923    8    0    1
 -2       930       929      1001      3647      3864      3865
 -1      1924    8    0    1
 -2       929      1000      1001      3862      3866      3864
 -1      1925    8    0    1
 -2       931       930      1002      3650      3867      3868
 -1      1926    8    0    1
 -2       930      1001      1002      3865      3869      3867
 -1      1927    8    0    1
 -2       932       931      1003      3653      3870      3871
 -1      1928    8    0    1
 -2       931      1002      1003      3868      3872      3870
 -1      1929    8    0    1
 -2       933       932      1004      3656      3873      3874
 -1      1930    8    0    1
 -2       932      1003      1004      3871      3875      3873
 -1      1931    8    0    1
 -2       934       933      1005      3659      3876      3877
 -1      1932    8    0    1
 -2       933      1004      1005      3874      3878      3876
 -1      1933    8    0    1
 -2       935       934      1006      3662      3879      3880
 -1      1934    8    0    1
 -2       934      1005      1006      3877      3881      3879
 -1      1935    8    0    1
 -2       936       935      1007      3665      3882      3883
 -1      1936    8    0    1
 -2       935      1006      1007      3880      3884      3882
 -1      1937    8    0    1
 -2       937       902      1008      3668      3885      3886
 -1      1938    8    0    1
 -2       902       976      1008      3792      3887      3885
 -1      1939    8    0    1
 -2       938       937      1009      3671      3888      3889
 -1      1940    8    0    1
 -2       937      1008      1009      3886      3890      3888
 -1      1941    8    0    1
 -2       899       900       936      3777      3778      3891
 -1      1942    8    0    1
 -2       940       941      1010      3680      3892      3893
 -1      1943    8    0    1
 -2       941       942      1011      3683      3894      3895
 -1      1944    8    0    1
 -2       941      1011      1010      3895      3896      3892
 -1      1945    8    0    1
 -2       942       943      1012      3686      3897      3898
 -1      1946    8    0    1
 -2       942      1012      1011      3898      3899      3894
 -1      1947    8    0    1
 -2       943       944      1013      3689      3900      3901
 -1      1948    8    0    1
 -2       943      1013      1012      3901      3902      3897
 -1      1949    8    0    1
 -2       944       945      1014      3692      3903      3904
 -1      1950    8    0    1
 -2       944      1014      1013      3904      3905      3900
 -1      1951    8    0    1
 -2       945       946      1015      3695      3906      3907
 -1      1952    8    0    1
 -2       945      1015      1014      3907      3908      3903
 -1      1953    8    0    1
 -2       946       947      1016      3698      3909      3910
 -1      1954    8    0    1
 -2       946      1016      1015      3910      3911      3906
 -1      1955    8    0    1
 -2       947       948      1017      3701      3912      3913
 -1      1956    8    0    1
 -2       947      1017      1016      3913      3914      3909
 -1      1957    8    0    1
 -2       948       949      1018      3704      3915      3916
 -1      1958    8    0    1
 -2       948      1018      1017      3916      3917      3912
 -1      1959    8    0    1
 -2       949       950      1019      3707      3918      3919
 -1      1960    8    0    1
 -2       949      1019      1018      3919      3920      3915
 -1      1961    8    0    1
 -2       950       951      1020      3710      3921      3922
 -1      1962    8    0    1
 -2       950      1020      1019      3922      3923      3918
 -1      1963    8    0    1
 -2       951       952      1021      3713      3924      3925
 -1      1964    8    0    1
 -2       951      1021      1020      3925      3926      3921
 -1      1965    8    0    1
 -2       952       953      1022      3716      3927      3928
 -1      1966    8    0    1
 -2       952      1022      1021      3928      3929      3924
 -1      1967    8    0    1
 -2       953       954      1023      3719      3930      3931
 -1      1968    8    0    1
 -2       953      1023      1022      3931      3932      3927
 -1      1969    8    0    1
 -2       954       955      1024      3722      3933      3934
 -1      1970    8    0    1
 -2       954      1024      1023      3934      3935      3930
 -1      1971    8    0    1
 -2       955       956      1025      3725      3936      3937
 -1      1972    8    0    1
 -2       955      1025      1024      3937      3938      3933
 -1      1973    8    0    1
 -2       956       957      1026      3728      3939      3940
 -1      1974    8    0    1
 -2       956      1026      1025      3940      3941      3936
 -1      1975    8    0    1
 -2       957       958      1027      3731      3942      3943
 -1      1976    8    0    1
 -2       957      1027      1026      3943      3944      3939
 -1      1977    8    0    1
 -2       958       959      1028      3734      3945      3946
 -1      1978    8    0    1
 -2       958      1028      1027      3946      3947      3942
 -1      1979    8    0    1
 -2       959       960      1029      3737      3948      3949
 -1      1980    8    0    1
 -2       959      1029      1028      3949      3950      3945
 -1      1981    8    0    1
 -2       960       961      1030      3740      3951      3952
 -1      1982    8    0    1
 -2       960      1030      1029      3952      3953      3948
 -1      1983    8    0    1
 -2       961       962      1031      3743      3954      3955
 -1      1984    8    0    1
 -2       961      1031      1030      3955      3956      3951
 -1      1985    8    0    1
 -2       962       963      1032      3746      3957      3958
 -1      1986    8    0    1
 -2       962      1032      1031      3958      3959      3954
 -1      1987    8    0    1
 -2       963       964      1033      3749      3960      3961
 -1      1988    8    0    1
 -2       963      1033      1032      3961      3962      3957
 -1      1989    8    0    1
 -2       964       965      1034      3752      3963      3964
 -1      1990    8    0    1
 -2       964      1034      1033      3964      3965      3960
 -1      1991    8    0    1
 -2       967       938      1035      3761      3966      3967
 -1      1992    8    0    1
 -2       938      1009      1035      3889      3968      3966
 -1      1993    8    0    1
 -2       905       904       901      3572      3782      3969
 -1      1994    8    0    1
 -2       901       970       977      3771      3970      3971
 -1      1995    8    0    1
 -2       968       895      1036      3764      3972      3973
 -1      1996    8    0    1
 -2       975       968      1036      3788      3973      3974
 -1      1997    8    0    1
 -2       895       973      1036      3784      3975      3972
 -1      1998    8    0    1
 -2       939       940      1037      3677      3976      3977
 -1      1999    8    0    1
 -2       976       939      1037      3791      3977      3978
 -1      2000    8    0    1
 -2       940      1010      1037      3893      3979      3976
 -1      2001    8    0    1
 -2       969       903      1038      3768      3980      3981
 -1      2002    8    0    1
 -2       969      1038       972      3981      3982      3779
 -1      2003    8    0    1
 -2       905       901       977      3969      3971      3793
 -1      2004    8    0    1
 -2      1038       903       971      3980      3774      3983
 -1      2005    8    0    1
 -2       936      1007       974      3883      3984      3985
 -1      2006    8    0    1
 -2       899       936       974      3891      3985      3785
 -1      2007    8    0    1
 -2       965       966      1039      3755      3986      3987
 -1      2008    8    0    1
 -2      1034       965      1039      3963      3987      3988
 -1      2009    8    0    1
 -2       966       975      1039      3790      3989      3986
 -1      2010    8    0    1
 -2      1036       973      1040      3975      3990      3991
 -1      2011    8    0    1
 -2       977       970      1041      3970      3992      3993
 -1      2012    8    0    1
 -2       973       974      1042      3787      3994      3995
 -1      2013    8    0    1
 -2      1040       973      1042      3990      3995      3996
 -1      2014    8    0    1
 -2       974      1007      1042      3984      3997      3994
 -1      2015    8    0    1
 -2       971       967      1043      3775      3998      3999
 -1      2016    8    0    1
 -2      1038       971      1043      3983      3999      4000
 -1      2017    8    0    1
 -2       967      1035      1043      3967      4001      3998
 -1      2018    8    0    1
 -2       970       972      1041      3781      4002      3992
 -1      2019    8    0    1
 -2       978       977      1041      3797      3993      4003
 -1      2020    8    0    1
 -2       979       978      1044      3800      4004      4005
 -1      2021    8    0    1
 -2       978      1041      1044      4003      4006      4004
 -1      2022    8    0    1
 -2       980       979      1045      3803      4007      4008
 -1      2023    8    0    1
 -2       979      1044      1045      4005      4009      4007
 -1      2024    8    0    1
 -2       981       980      1046      3806      4010      4011
 -1      2025    8    0    1
 -2       980      1045      1046      4008      4012      4010
 -1      2026    8    0    1
 -2       982       981      1047      3809      4013      4014
 -1      2027    8    0    1
 -2       981      1046      1047      4011      4015      4013
 -1      2028    8    0    1
 -2       983       982      1048      3812      4016      4017
 -1      2029    8    0    1
 -2       982      1047      1048      4014      4018      4016
 -1      2030    8    0    1
 -2       984       983      1049      3815      4019      4020
 -1      2031    8    0    1
 -2       983      1048      1049      4017      4021      4019
 -1      2032    8    0    1
 -2       985       984      1050      3818      4022      4023
 -1      2033    8    0    1
 -2       984      1049      1050      4020      4024      4022
 -1      2034    8    0    1
 -2       986       985      1051      3821      4025      4026
 -1      2035    8    0    1
 -2       985      1050      1051      4023      4027      4025
 -1      2036    8    0    1
 -2       987       986      1052      3824      4028      4029
 -1      2037    8    0    1
 -2       986      1051      1052      4026      4030      4028
 -1      2038    8    0    1
 -2       988       987      1053      3827      4031      4032
 -1      2039    8    0    1
 -2       987      1052      1053      4029      4033      4031
 -1      2040    8    0    1
 -2       989       988      1054      3830      4034      4035
 -1      2041    8    0    1
 -2       988      1053      1054      4032      4036      4034
 -1      2042    8    0    1
 -2       990       989      1055      3833      4037      4038
 -1      2043    8    0    1
 -2       989      1054      1055      4035      4039      4037
 -1      2044    8    0    1
 -2       991       990      1056      3836      4040      4041
 -1      2045    8    0    1
 -2       990      1055      1056      4038      4042      4040
 -1      2046    8    0    1
 -2       992       991      1057      3839      4043      4044
 -1      2047    8    0    1
 -2       991      1056      1057      4041      4045      4043
 -1      2048    8    0    1
 -2       993       992      1058      3842      4046      4047
 -1      2049    8    0    1
 -2       992      1057      1058      4044      4048      4046
 -1      2050    8    0    1
 -2       994       993      1059      3845      4049      4050
 -1      2051    8    0    1
 -2       993      1058      1059      4047      4051      4049
 -1      2052    8    0    1
 -2       995       994      1060      3848      4052      4053
 -1      2053    8    0    1
 -2       994      1059      1060      4050      4054      4052
 -1      2054    8    0    1
 -2       996       995      1061      3851      4055      4056
 -1      2055    8    0    1
 -2       995      1060      1061      4053      4057      4055
 -1      2056    8    0    1
 -2       997       996      1062      3854      4058      4059
 -1      2057    8    0    1
 -2       996      1061      1062      4056      4060      4058
 -1      2058    8    0    1
 -2       998       997      1063      3857      4061      4062
 -1      2059    8    0    1
 -2       997      1062      1063      4059      4063      4061
 -1      2060    8    0    1
 -2       999       998      1064      3860      4064      4065
 -1      2061    8    0    1
 -2       998      1063      1064      4062      4066      4064
 -1      2062    8    0    1
 -2      1000       999      1065      3863      4067      4068
 -1      2063    8    0    1
 -2       999      1064      1065      4065      4069      4067
 -1      2064    8    0    1
 -2      1001      1000      1066      3866      4070      4071
 -1      2065    8    0    1
 -2      1000      1065      1066      4068      4072      4070
 -1      2066    8    0    1
 -2      1002      1001      1067      3869      4073      4074
 -1      2067    8    0    1
 -2      1001      1066      1067      4071      4075      4073
 -1      2068    8    0    1
 -2      1003      1002      1068      3872      4076      4077
 -1      2069    8    0    1
 -2      1002      1067      1068      4074      4078      4076
 -1      2070    8    0    1
 -2      1004      1003      1069      3875      4079      4080
 -1      2071    8    0    1
 -2      1003      1068      1069      4077      4081      4079
 -1      2072    8    0    1
 -2      1005      1004      1070      3878      4082      4083
 -1      2073    8    0    1
 -2      1004      1069      1070      4080      4084      4082
 -1      2074    8    0    1
 -2      1006      1005      1071      3881      4085      4086
 -1      2075    8    0    1
 -2      1005      1070      1071      4083      4087      4085
 -1      2076    8    0    1
 -2      1007      1006      1042      3884      4088      3997
 -1      2077    8    0    1
 -2      1008       976      1072      3887      4089      4090
 -1      2078    8    0    1
 -2      1009      1008      1073      3890      4091      4092
 -1      2079    8    0    1
 -2      1008      1072      1073      4090      4093      4091
 -1      2080    8    0    1
 -2      1012      1013      1074      3902      4094      4095
 -1      2081    8    0    1
 -2      1011      1012      1075      3899      4096      4097
 -1      2082    8    0    1
 -2      1012      1074      1075      4095      4098      4096
 -1      2083    8    0    1
 -2      1010      1011      1076      3896      4099      4100
 -1      2084    8    0    1
 -2      1011      1075      1076      4097      4101      4099
 -1      2085    8    0    1
 -2      1013      1014      1077      3905      4102      4103
 -1      2086    8    0    1
 -2      1013      1077      1074      4103      4104      4094
 -1      2087    8    0    1
 -2      1014      1015      1078      3908      4105      4106
 -1      2088    8    0    1
 -2      1014      1078      1077      4106      4107      4102
 -1      2089    8    0    1
 -2      1015      1016      1079      3911      4108      4109
 -1      2090    8    0    1
 -2      1015      1079      1078      4109      4110      4105
 -1      2091    8    0    1
 -2      1016      1017      1080      3914      4111      4112
 -1      2092    8    0    1
 -2      1016      1080      1079      4112      4113      4108
 -1      2093    8    0    1
 -2      1017      1018      1081      3917      4114      4115
 -1      2094    8    0    1
 -2      1017      1081      1080      4115      4116      4111
 -1      2095    8    0    1
 -2      1018      1019      1082      3920      4117      4118
 -1      2096    8    0    1
 -2      1018      1082      1081      4118      4119      4114
 -1      2097    8    0    1
 -2      1019      1020      1083      3923      4120      4121
 -1      2098    8    0    1
 -2      1019      1083      1082      4121      4122      4117
 -1      2099    8    0    1
 -2      1020      1021      1084      3926      4123      4124
 -1      2100    8    0    1
 -2      1020      1084      1083      4124      4125      4120
 -1      2101    8    0    1
 -2      1021      1022      1085      3929      4126      4127
 -1      2102    8    0    1
 -2      1021      1085      1084      4127      4128      4123
 -1      2103    8    0    1
 -2      1022      1023      1086      3932      4129      4130
 -1      2104    8    0    1
 -2      1022      1086      1085      4130      4131      4126
 -1      2105    8    0    1
 -2      1023      1024      1087      3935      4132      4133
 -1      2106    8    0    1
 -2      1023      1087      1086      4133      4134      4129
 -1      2107    8    0    1
 -2      1024      1025      1088      3938      4135      4136
 -1      2108    8    0    1
 -2      1024      1088      1087      4136      4137      4132
 -1      2109    8    0    1
 -2      1025      1026      1089      3941      4138      4139
 -1      2110    8    0    1
 -2      1025      1089      1088      4139      4140      4135
 -1      2111    8    0    1
 -2      1026      1027      1090      3944      4141      4142
 -1      2112    8    0    1
 -2      1026      1090      1089      4142      4143      4138
 -1      2113    8    0    1
 -2      1027      1028      1091      3947      4144      4145
 -1      2114    8    0    1
 -2      1027      1091      1090      4145      4146      4141
 -1      2115    8    0    1
 -2      1028      1029      1092      3950      4147      4148
 -1      2116    8    0    1
 -2      1028      1092      1091      4148      4149      4144
 -1      2117    8    0    1
 -2      1029      1030      1093      3953      4150      4151
 -1      2118    8    0    1
 -2      1029      1093      1092      4151      4152      4147
 -1      2119    8    0    1
 -2      1030      1031      1094      3956      4153      4154
 -1      2120    8    0    1
 -2      1030      1094      1093      4154      4155      4150
 -1      2121    8    0    1
 -2      1031      1032      1095      3959      4156      4157
 -1      2122    8    0    1
 -2      1031      1095      1094      4157      4158      4153
 -1      2123    8    0    1
 -2      1032      1033      1096      3962      4159      4160
 -1      2124    8    0    1
 -2      1032      1096      1095      4160      4161      4156
 -1      2125    8    0    1
 -2      1033      1034      1097      3965      4162      4163
 -1      2126    8    0    1
 -2      1033      1097      1096      4163      4164      4159
 -1      2127    8    0    1
 -2      1041       972      1098      4002      4165      4166
 -1      2128    8    0    1
 -2       975      1036      1099      3974      4167      4168
 -1      2129    8    0    1
 -2      1039       975      1099      3989      4168      4169
 -1      2130    8    0    1
 -2      1036      1040      1099      3991      4170      4167
 -1      2131    8    0    1
 -2       972      1038      1098      3982      4171      4165
 -1      2132    8    0    1
 -2      1044      1041      1098      4006      4166      4172
 -1      2133    8    0    1
 -2      1099      1040      1097      4170      4173      4174
 -1      2134    8    0    1
 -2      1034      1039      1099      3988      4169      4175
 -1      2135    8    0    1
 -2      1010      1076      1100      4100      4176      4177
 -1      2136    8    0    1
 -2      1010      1100      1037      4177      4178      3979
 -1      2137    8    0    1
 -2      1097      1034      1099      4162      4175      4174
 -1      2138    8    0    1
 -2      1035      1009      1101      3968      4179      4180
 -1      2139    8    0    1
 -2      1006      1071      1042      4086      4181      4088
 -1      2140    8    0    1
 -2       976      1037      1102      3978      4182      4183
 -1      2141    8    0    1
 -2      1072       976      1102      4089      4183      4184
 -1      2142    8    0    1
 -2      1037      1100      1102      4178      4185      4182
 -1      2143    8    0    1
 -2      1101      1009      1073      4179      4092      4186
 -1      2144    8    0    1
 -2      1035      1101      1098      4180      4187      4188
 -1      2145    8    0    1
 -2      1097      1040      1103      4173      4189      4190
 -1      2146    8    0    1
 -2      1098      1101      1044      4187      4191      4172
 -1      2147    8    0    1
 -2      1038      1043      1098      4000      4192      4171
 -1      2148    8    0    1
 -2      1045      1044      1101      4009      4191      4193
 -1      2149    8    0    1
 -2      1046      1045      1073      4012      4194      4195
 -1      2150    8    0    1
 -2      1047      1046      1072      4015      4196      4197
 -1      2151    8    0    1
 -2      1048      1047      1102      4018      4198      4199
 -1      2152    8    0    1
 -2      1049      1048      1100      4021      4200      4201
 -1      2153    8    0    1
 -2      1050      1049      1076      4024      4202      4203
 -1      2154    8    0    1
 -2      1051      1050      1075      4027      4204      4205
 -1      2155    8    0    1
 -2      1052      1051      1074      4030      4206      4207
 -1      2156    8    0    1
 -2      1053      1052      1077      4033      4208      4209
 -1      2157    8    0    1
 -2      1054      1053      1078      4036      4210      4211
 -1      2158    8    0    1
 -2      1055      1054      1079      4039      4212      4213
 -1      2159    8    0    1
 -2      1056      1055      1080      4042      4214      4215
 -1      2160    8    0    1
 -2      1057      1056      1081      4045      4216      4217
 -1      2161    8    0    1
 -2      1058      1057      1082      4048      4218      4219
 -1      2162    8    0    1
 -2      1059      1058      1083      4051      4220      4221
 -1      2163    8    0    1
 -2      1060      1059      1084      4054      4222      4223
 -1      2164    8    0    1
 -2      1061      1060      1085      4057      4224      4225
 -1      2165    8    0    1
 -2      1062      1061      1086      4060      4226      4227
 -1      2166    8    0    1
 -2      1063      1062      1087      4063      4228      4229
 -1      2167    8    0    1
 -2      1064      1063      1088      4066      4230      4231
 -1      2168    8    0    1
 -2      1065      1064      1089      4069      4232      4233
 -1      2169    8    0    1
 -2      1066      1065      1090      4072      4234      4235
 -1      2170    8    0    1
 -2      1067      1066      1091      4075      4236      4237
 -1      2171    8    0    1
 -2      1068      1067      1092      4078      4238      4239
 -1      2172    8    0    1
 -2      1069      1068      1093      4081      4240      4241
 -1      2173    8    0    1
 -2      1070      1069      1094      4084      4242      4243
 -1      2174    8    0    1
 -2      1071      1070      1095      4087      4244      4245
 -1      2175    8    0    1
 -2      1073      1072      1046      4093      4196      4195
 -1      2176    8    0    1
 -2      1090      1065      1089      4234      4233      4143
 -1      2177    8    0    1
 -2      1092      1067      1091      4238      4237      4149
 -1      2178    8    0    1
 -2      1085      1060      1084      4224      4223      4128
 -1      2179    8    0    1
 -2      1082      1057      1081      4218      4217      4119
 -1      2180    8    0    1
 -2      1074      1051      1075      4206      4205      4098
 -1      2181    8    0    1
 -2      1073      1045      1101      4194      4193      4186
 -1      2182    8    0    1
 -2      1047      1072      1102      4197      4184      4198
 -1      2183    8    0    1
 -2      1050      1076      1075      4203      4101      4204
 -1      2184    8    0    1
 -2      1052      1074      1077      4207      4104      4208
 -1      2185    8    0    1
 -2      1053      1077      1078      4209      4107      4210
 -1      2186    8    0    1
 -2      1054      1078      1079      4211      4110      4212
 -1      2187    8    0    1
 -2      1055      1079      1080      4213      4113      4214
 -1      2188    8    0    1
 -2      1056      1080      1081      4215      4116      4216
 -1      2189    8    0    1
 -2      1058      1082      1083      4219      4122      4220
 -1      2190    8    0    1
 -2      1059      1083      1084      4221      4125      4222
 -1      2191    8    0    1
 -2      1061      1085      1086      4225      4131      4226
 -1      2192    8    0    1
 -2      1062      1086      1087      4227      4134      4228
 -1      2193    8    0    1
 -2      1063      1087      1088      4229      4137      4230
 -1      2194    8    0    1
 -2      1064      1088      1089      4231      4140      4232
 -1      2195    8    0    1
 -2      1066      1090      1091      4235      4146      4236
 -1      2196    8    0    1
 -2      1068      1092      1093      4239      4152      4240
 -1      2197    8    0    1
 -2      1069      1093      1094      4241      4155      4242
 -1      2198    8    0    1
 -2      1070      1094      1095      4243      4158      4244
 -1      2199    8    0    1
 -2      1071      1095      1096      4245      4161      4246
 -1      2200    8    0    1
 -2      1035      1098      1043      4188      4192      4001
 -1      2201    8    0    1
 -2      1096      1097      1103      4164      4190      4247
 -1      2202    8    0    1
 -2      1076      1049      1100      4202      4201      4176
 -1      2203    8    0    1
 -2      1048      1102      1100      4199      4185      4200
 -1      2204    8    0    1
 -2      1103      1040      1042      4189      3996      4248
 -1      2205    8    0    1
 -2      1096      1103      1071      4247      4249      4246
 -1      2206    8    0    1
 -2      1042      1071      1103      4181      4249      4248
 -3
    1PSTEP                         1           1           1          
  100CL  101 1.000000000        4249                     0    1           1
 -4  DISP        4    1
 -5  D1          1    2    1    0
 -5  D2          1    2    2    0
 -5  D3          1    2    3    0
 -5  ALL         1    2    0    0    1ALL
 -1         1 1.89795E-03-3.06343E-04-4.01633E-15
 -1         2 4.05808E-03 3.40934E-04-8.40942E-15
 -1         3 1.55429E-02 3.07437E-03-2.54957E-13
 -1         4 1.46630E-02 1.64573E-03-2.60938E-13
 -1         5 0.00000E+00 0.00000E+00 0.00000E+00
 -1         6 0.00000E+00 0.00000E+00 0.00000E+00
 -1         7 0.00000E+00 0.00000E+00 0.00000E+00
 -1         8 0.00000E+00 0.00000E+00 0.00000E+00
 -1         9 0.00000E+00 0.00000E+00 0.00000E+00
 -1        10 0.00000E+00 0.00000E+00 0.00000E+00
 -1        11 0.00000E+00 0.00000E+00 0.00000E+00
 -1        12 0.00000E+00 0.00000E+00 0.00000E+00
 -1        13 0.00000E+00 0.00000E+00 0.00000E+00
 -1        14 0.00000E+00 0.00000E+00 0.00000E+00
 -1        15 0.00000E+00 0.00000E+00 0.00000E+00
 -1        16 0.00000E+00 0.00000E+00 0.00000E+00
 -1        17 0.00000E+00 0.00000E+00 0.00000E+00
 -1        18 0.00000E+00 0.00000E+00 0.00000E+00
 -1        19 0.00000E+00 0.00000E+00 0.00000E+00
 -1        20 0.00000E+00 0.00000E+00 0.00000E+00
 -1        21 0.00000E+00 0.00000E+00 0.00000E+00
 -1        22 0.00000E+00 0.00000E+00 0.00000E+00
 -1        23 4.94611E-04-3.30686E-04 4.64039E-17
 -1        24 8.26346E-04-5.21324E-04-2.55231E-16
 -1        25 1.12072E-03-6.55996E-04-8.90797E-16
 -1        26 1.39433E-03-7.45112E-04-1.85355E-15
 -1        27 1.65515E-03-7.91151E-04-3.13969E-15
 -1        28 1.91167E-03-7.95038E-04-4.74470E-15
 -1        29 2.17255E-03-7.61011E-04-6.66121E-15
 -1        30 2.44459E-03-6.97623E-04-8.87420E-15
 -1        31 2.73087E-03-6.15989E-04-1.13725E-14
 -1        32 3.03058E-03-5.26940E-04-1.41439E-14
 -1        33 3.34026E-03-4.38790E-04-1.71741E-14
 -1        34 3.65545E-03-3.56518E-04-2.04465E-14
 -1        35 3.97209E-03-2.82130E-04-2.39491E-14
 -1        36 4.28717E-03-2.15574E-04-2.76696E-14
 -1        37 4.59888E-03-1.55679E-04-3.15963E-14
 -1        38 4.90639E-03-1.00862E-04-3.57231E-14
 -1        39 5.20961E-03-4.95588E-05-4.00468E-14
 -1        40 5.50884E-03-4.37356E-07-4.45638E-14
 -1        41 5.80463E-03 4.75348E-05-4.92620E-14
 -1        42 6.09759E-03 9.50988E-05-5.41443E-14
 -1        43 6.38830E-03 1.42748E-04-5.92222E-14
 -1        44 6.67729E-03 1.90784E-04-6.44832E-14
 -1        45 6.96502E-03 2.39365E-04-6.99200E-14
 -1        46 7.25183E-03 2.88551E-04-7.55267E-14
 -1        47 7.53802E-03 3.38340E-04-8.13021E-14
 -1        48 7.82380E-03 3.88689E-04-8.72428E-14
 -1        49 8.10932E-03 4.39535E-04-9.33325E-14
 -1        50 8.39470E-03 4.90808E-04-9.95724E-14
 -1        51 8.68001E-03 5.42438E-04-1.05961E-13
 -1        52 8.96531E-03 5.94358E-04-1.12494E-13
 -1        53 9.25063E-03 6.46509E-04-1.19150E-13
 -1        54 9.53598E-03 6.98842E-04-1.25935E-13
 -1        55 9.82138E-03 7.51313E-04-1.32835E-13
 -1        56 1.01068E-02 8.03889E-04-1.39832E-13
 -1        57 1.03923E-02 8.56541E-04-1.46917E-13
 -1        58 1.06779E-02 9.09249E-04-1.54084E-13
 -1        59 1.09634E-02 9.61995E-04-1.61326E-13
 -1        60 1.12490E-02 1.01477E-03-1.68639E-13
 -1        61 1.15347E-02 1.06756E-03-1.76008E-13
 -1        62 1.18203E-02 1.12036E-03-1.83444E-13
 -1        63 1.21060E-02 1.17316E-03-1.90959E-13
 -1        64 1.23917E-02 1.22597E-03-1.98546E-13
 -1        65 1.26774E-02 1.27877E-03-2.06212E-13
 -1        66 1.29631E-02 1.33158E-03-2.13959E-13
 -1        67 1.32488E-02 1.38438E-03-2.21778E-13
 -1        68 1.35345E-02 1.43719E-03-2.29638E-13
 -1        69 1.38202E-02 1.48998E-03-2.37527E-13
 -1        70 1.41059E-02 1.54278E-03-2.45432E-13
 -1        71 1.43916E-02 1.59557E-03-2.53370E-13
 -1        72 6.09610E-04 3.68228E-04 8.94806E-17
 -1        73 1.05229E-03 6.12134E-04-1.10948E-16
 -1        74 1.44887E-03 8.36098E-04-6.01610E-16
 -1        75 1.79739E-03 1.03781E-03-1.39556E-15
 -1        76 2.10156E-03 1.18883E-03-2.50446E-15
 -1        77 2.38196E-03 1.26404E-03-3.93839E-15
 -1        78 2.66845E-03 1.26295E-03-5.69546E-15
 -1        79 2.98262E-03 1.21153E-03-7.76488E-15
 -1        80 3.32773E-03 1.14534E-03-1.01255E-14
 -1        81 3.69309E-03 1.09178E-03-1.27575E-14
 -1        82 4.06424E-03 1.06368E-03-1.56410E-14
 -1        83 4.43005E-03 1.06232E-03-1.87595E-14
 -1        84 4.78455E-03 1.08315E-03-2.21128E-14
 -1        85 5.12596E-03 1.12014E-03-2.56967E-14
 -1        86 5.45494E-03 1.16784E-03-2.95045E-14
 -1        87 5.77323E-03 1.22208E-03-3.35215E-14
 -1        88 6.08285E-03 1.27993E-03-3.77310E-14
 -1        89 6.38570E-03 1.33947E-03-4.21417E-14
 -1        90 6.68343E-03 1.39950E-03-4.67522E-14
 -1        91 6.97733E-03 1.45930E-03-5.15489E-14
 -1        92 7.26844E-03 1.51849E-03-5.65221E-14
 -1        93 7.55755E-03 1.57689E-03-6.16766E-14
 -1        94 7.84526E-03 1.63446E-03-6.69917E-14
 -1        95 8.13201E-03 1.69121E-03-7.24705E-14
 -1        96 8.41812E-03 1.74723E-03-7.81089E-14
 -1        97 8.70383E-03 1.80259E-03-8.39004E-14
 -1        98 8.98929E-03 1.85741E-03-8.98419E-14
 -1        99 9.27462E-03 1.91176E-03-9.59436E-14
 -1       100 9.55991E-03 1.96573E-03-1.02210E-13
 -1       101 9.84518E-03 2.01940E-03-1.08635E-13
 -1       102 1.01305E-02 2.07284E-03-1.15205E-13
 -1       103 1.04158E-02 2.12609E-03-1.21898E-13
 -1       104 1.07012E-02 2.17920E-03-1.28703E-13
 -1       105 1.09867E-02 2.23220E-03-1.35609E-13
 -1       106 1.12722E-02 2.28513E-03-1.42608E-13
 -1       107 1.15577E-02 2.33800E-03-1.49695E-13
 -1       108 1.18433E-02 2.39083E-03-1.56880E-13
 -1       109 1.21289E-02 2.44364E-03-1.64157E-13
 -1       110 1.24145E-02 2.49643E-03-1.71511E-13
 -1       111 1.27001E-02 2.54921E-03-1.78949E-13
 -1       112 1.29858E-02 2.60199E-03-1.86448E-13
 -1       113 1.32715E-02 2.65476E-03-1.94015E-13
 -1       114 1.35572E-02 2.70754E-03-2.01618E-13
 -1       115 1.38429E-02 2.76031E-03-2.09233E-13
 -1       116 1.41286E-02 2.81309E-03-2.16871E-13
 -1       117 1.44143E-02 2.86587E-03-2.24526E-13
 -1       118 1.47000E-02 2.91865E-03-2.32187E-13
 -1       119 1.49857E-02 2.97143E-03-2.39884E-13
 -1       120 1.52714E-02 3.02422E-03-2.47607E-13
 -1       121 1.54910E-02 2.99008E-03-2.55321E-13
 -1       122 1.54391E-02 2.90580E-03-2.55688E-13
 -1       123 1.53871E-02 2.82151E-03-2.56020E-13
 -1       124 1.53352E-02 2.73722E-03-2.56361E-13
 -1       125 1.52833E-02 2.65293E-03-2.56705E-13
 -1       126 1.52323E-02 2.57007E-03-2.57080E-13
 -1       127 1.51804E-02 2.48578E-03-2.57482E-13
 -1       128 1.51285E-02 2.40148E-03-2.57885E-13
 -1       129 1.50765E-02 2.31719E-03-2.58277E-13
 -1       130 1.50246E-02 2.23289E-03-2.58649E-13
 -1       131 1.49727E-02 2.14860E-03-2.59018E-13
 -1       132 1.49217E-02 2.06573E-03-2.59383E-13
 -1       133 1.48698E-02 1.98144E-03-2.59753E-13
 -1       134 1.48179E-02 1.89716E-03-2.60100E-13
 -1       135 1.47660E-02 1.81287E-03-2.60407E-13
 -1       136 1.47141E-02 1.72858E-03-2.60684E-13
 -1       137 4.02748E-03 4.77853E-04-8.24447E-15
 -1       138 3.88650E-03 6.13601E-04-7.81642E-15
 -1       139 3.65967E-03 7.25605E-04-7.21942E-15
 -1       140 3.35678E-03 8.11796E-04-6.49981E-15
 -1       141 2.93994E-03 8.72869E-04-5.58876E-15
 -1       142 2.51614E-03 8.87084E-04-4.74579E-15
 -1       143 2.08128E-03 8.60487E-04-3.95075E-15
 -1       144 1.60144E-03 7.84527E-04-3.12670E-15
 -1       145 1.18611E-03 6.79775E-04-2.46116E-15
 -1       146 8.07157E-04 5.47152E-04-1.86885E-15
 -1       147 5.20612E-04 4.18475E-04-1.42356E-15
 -1       148 3.10790E-04 2.99039E-04-1.08793E-15
 -1       149 1.88457E-04 2.05535E-04-8.80743E-16
 -1       150 1.25492E-04 1.25686E-04-7.66755E-16
 -1       151 1.26416E-04 6.33339E-05-7.63676E-16
 -1       152 1.95589E-04 1.82890E-07-8.85790E-16
 -1       153 3.28336E-04-5.94872E-05-1.12411E-15
 -1       154 5.15180E-04-1.19547E-04-1.45916E-15
 -1       155 7.63222E-04-1.79997E-04-1.90338E-15
 -1       156 1.09383E-03-2.39730E-04-2.50200E-15
 -1       157 1.47628E-03-2.84440E-04-3.20840E-15
 -1       158 2.34336E-03-2.98114E-04-4.89680E-15
 -1       159 2.80857E-03-2.51250E-04-5.85711E-15
 -1       160 3.21106E-03-1.73635E-04-6.70945E-15
 -1       161 3.54591E-03-7.08914E-05-7.42733E-15
 -1       162 3.80454E-03 5.11142E-05-7.97059E-15
 -1       163 3.98512E-03 1.93733E-04-8.32157E-15
 -1       164 2.77535E-04-1.66875E-04-8.24604E-17
 -1       165 2.64898E-04-1.28657E-04-1.17507E-16
 -1       166 2.62112E-04-9.47231E-05-1.31168E-16
 -1       167 2.58132E-04-5.61175E-05-1.33011E-16
 -1       168 2.44605E-04-1.21114E-05-1.27685E-16
 -1       169 2.12665E-04 3.28900E-05-1.18585E-16
 -1       170 1.58931E-04 6.46444E-05-1.07560E-16
 -1       171 1.03777E-04 6.75326E-05-9.81881E-17
 -1       172 6.59086E-05 4.16335E-05-9.21809E-17
 -1       173 7.08096E-05 9.34111E-06-9.22825E-17
 -1       174 1.15151E-04-1.05510E-05-9.57215E-17
 -1       175 1.82996E-04 7.40469E-07-9.75240E-17
 -1       176 2.43318E-04 4.21165E-05-9.19641E-17
 -1       177 2.87881E-04 9.78996E-05-7.41865E-17
 -1       178 3.29420E-04 1.59713E-04-3.75744E-17
 -1       179 4.26800E-04 2.50514E-04 2.52755E-18
 -1       180 5.45235E-04-3.48956E-04-2.18169E-16
 -1       181 8.83949E-04-5.15097E-04-7.37139E-16
 -1       182 1.19703E-03-6.31247E-04-1.56889E-15
 -1       183 1.49374E-03-7.02238E-04-2.71699E-15
 -1       184 1.78102E-03-7.28360E-04-4.18003E-15
 -1       185 2.06554E-03-7.11763E-04-5.95409E-15
 -1       186 2.35301E-03-6.59421E-04-8.02913E-15
 -1       187 2.64695E-03-5.82438E-04-1.03922E-14
 -1       188 2.94822E-03-4.93068E-04-1.30315E-14
 -1       189 3.25553E-03-4.01660E-04-1.59329E-14
 -1       190 3.56649E-03-3.15047E-04-1.90821E-14
 -1       191 3.87857E-03-2.36503E-04-2.24633E-14
 -1       192 4.18969E-03-1.66632E-04-2.60677E-14
 -1       193 4.49842E-03-1.04455E-04-2.98824E-14
 -1       194 4.80401E-03-4.83158E-05-3.39010E-14
 -1       195 5.10622E-03 3.54404E-06-3.81173E-14
 -1       196 5.40516E-03 5.26757E-05-4.25263E-14
 -1       197 5.70117E-03 1.00307E-04-4.71241E-14
 -1       198 5.99465E-03 1.47335E-04-5.19052E-14
 -1       199 6.28605E-03 1.94364E-04-5.68743E-14
 -1       200 6.57580E-03 2.41771E-04-6.20299E-14
 -1       201 6.86426E-03 2.89761E-04-6.73650E-14
 -1       202 7.15176E-03 3.38420E-04-7.28744E-14
 -1       203 7.43855E-03 3.87756E-04-7.85530E-14
 -1       204 7.72485E-03 4.37727E-04-8.43948E-14
 -1       205 8.01080E-03 4.88266E-04-9.03942E-14
 -1       206 8.29652E-03 5.39295E-04-9.65420E-14
 -1       207 8.58211E-03 5.90735E-04-1.02838E-13
 -1       208 8.86763E-03 6.42510E-04-1.09279E-13
 -1       209 9.15311E-03 6.94554E-04-1.15856E-13
 -1       210 9.43859E-03 7.46807E-04-1.22561E-13
 -1       211 9.72408E-03 7.99223E-04-1.29383E-13
 -1       212 1.00096E-02 8.51759E-04-1.36312E-13
 -1       213 1.02951E-02 9.04386E-04-1.43335E-13
 -1       214 1.05807E-02 9.57077E-04-1.50446E-13
 -1       215 1.08663E-02 1.00981E-03-1.57639E-13
 -1       216 1.11519E-02 1.06258E-03-1.64907E-13
 -1       217 1.14375E-02 1.11537E-03-1.72241E-13
 -1       218 1.17232E-02 1.16817E-03-1.79637E-13
 -1       219 1.20089E-02 1.22097E-03-1.87104E-13
 -1       220 1.22945E-02 1.27378E-03-1.94646E-13
 -1       221 1.25802E-02 1.32659E-03-2.02263E-13
 -1       222 1.28659E-02 1.37940E-03-2.09952E-13
 -1       223 1.31516E-02 1.43221E-03-2.17712E-13
 -1       224 1.34373E-02 1.48501E-03-2.25526E-13
 -1       225 1.37230E-02 1.53781E-03-2.33382E-13
 -1       226 1.40088E-02 1.59061E-03-2.41265E-13
 -1       227 1.42945E-02 1.64341E-03-2.49180E-13
 -1       228 8.69475E-04 4.95636E-04-2.28021E-16
 -1       229 1.27853E-03 7.29468E-04-7.31315E-16
 -1       230 1.65322E-03 9.44300E-04-1.52958E-15
 -1       231 1.99773E-03 1.10935E-03-2.64005E-15
 -1       232 2.32379E-03 1.19437E-03-4.07429E-15
 -1       233 2.64834E-03 1.19583E-03-5.82979E-15
 -1       234 2.98391E-03 1.14138E-03-7.89556E-15
 -1       235 3.33270E-03 1.07042E-03-1.02549E-14
 -1       236 3.68923E-03 1.01310E-03-1.28839E-14
 -1       237 4.04592E-03 9.83145E-04-1.57633E-14
 -1       238 4.39686E-03 9.81599E-04-1.88766E-14
 -1       239 4.73883E-03 1.00332E-03-2.22185E-14
 -1       240 5.07085E-03 1.04173E-03-2.57872E-14
 -1       241 5.39337E-03 1.09099E-03-2.95755E-14
 -1       242 5.70754E-03 1.14672E-03-3.35726E-14
 -1       243 6.01474E-03 1.20590E-03-3.77689E-14
 -1       244 6.31636E-03 1.26657E-03-4.21628E-14
 -1       245 6.61360E-03 1.32751E-03-4.67507E-14
 -1       246 6.90750E-03 1.38804E-03-5.15253E-14
 -1       247 7.19887E-03 1.44780E-03-5.64843E-14
 -1       248 7.48839E-03 1.50664E-03-6.16196E-14
 -1       249 7.77656E-03 1.56453E-03-6.69206E-14
 -1       250 8.06376E-03 1.62154E-03-7.23825E-14
 -1       251 8.35030E-03 1.67774E-03-7.80063E-14
 -1       252 8.63638E-03 1.73323E-03-8.37851E-14
 -1       253 8.92218E-03 1.78814E-03-8.97157E-14
 -1       254 9.20779E-03 1.84255E-03-9.58033E-14
 -1       255 9.49330E-03 1.89657E-03-1.02046E-13
 -1       256 9.77876E-03 1.95027E-03-1.08445E-13
 -1       257 1.00642E-02 2.00372E-03-1.14990E-13
 -1       258 1.03497E-02 2.05698E-03-1.21661E-13
 -1       259 1.06351E-02 2.11009E-03-1.28448E-13
 -1       260 1.09207E-02 2.16309E-03-1.35340E-13
 -1       261 1.12062E-02 2.21602E-03-1.42329E-13
 -1       262 1.14918E-02 2.26889E-03-1.49405E-13
 -1       263 1.17774E-02 2.32172E-03-1.56580E-13
 -1       264 1.20630E-02 2.37452E-03-1.63840E-13
 -1       265 1.23486E-02 2.42731E-03-1.71181E-13
 -1       266 1.26343E-02 2.48008E-03-1.78604E-13
 -1       267 1.29199E-02 2.53286E-03-1.86092E-13
 -1       268 1.32056E-02 2.58563E-03-1.93637E-13
 -1       269 1.34913E-02 2.63840E-03-2.01218E-13
 -1       270 1.37770E-02 2.69117E-03-2.08820E-13
 -1       271 1.40627E-02 2.74395E-03-2.16451E-13
 -1       272 1.43484E-02 2.79672E-03-2.24101E-13
 -1       273 1.46341E-02 2.84951E-03-2.31767E-13
 -1       274 1.49199E-02 2.90229E-03-2.39460E-13
 -1       275 1.52056E-02 2.95508E-03-2.47176E-13
 -1       276 1.52176E-02 2.90222E-03-2.48806E-13
 -1       277 1.51657E-02 2.81794E-03-2.49166E-13
 -1       278 1.51138E-02 2.73365E-03-2.49522E-13
 -1       279 1.50618E-02 2.64936E-03-2.49881E-13
 -1       280 1.50108E-02 2.56650E-03-2.50237E-13
 -1       281 1.49589E-02 2.48221E-03-2.50608E-13
 -1       282 1.49070E-02 2.39791E-03-2.50989E-13
 -1       283 1.48551E-02 2.31362E-03-2.51367E-13
 -1       284 1.48032E-02 2.22932E-03-2.51734E-13
 -1       285 1.47513E-02 2.14503E-03-2.52089E-13
 -1       286 1.47002E-02 2.06216E-03-2.52427E-13
 -1       287 1.46483E-02 1.97787E-03-2.52758E-13
 -1       288 1.45964E-02 1.89358E-03-2.53079E-13
 -1       289 1.45445E-02 1.80930E-03-2.53382E-13
 -1       290 1.44195E-02 1.72635E-03-2.51289E-13
 -1       291 4.07281E-03 3.86100E-04-9.43686E-15
 -1       292 3.95241E-03 4.48976E-04-9.33390E-15
 -1       293 3.70602E-03 5.52447E-04-8.50776E-15
 -1       294 3.39755E-03 6.79763E-04-7.54120E-15
 -1       295 3.00259E-03 8.07055E-04-6.63923E-15
 -1       296 2.62616E-03 9.14991E-04-5.44442E-15
 -1       297 2.27004E-03 9.47323E-04-4.44135E-15
 -1       298 1.90761E-03 9.07877E-04-3.48911E-15
 -1       299 1.52306E-03 7.62457E-04-2.65839E-15
 -1       300 1.16233E-03 5.74259E-04-1.95982E-15
 -1       301 8.00972E-04 3.86420E-04-1.44162E-15
 -1       302 4.96282E-04 2.45042E-04-1.07267E-15
 -1       303 2.78968E-04 1.58922E-04-8.29764E-16
 -1       304 1.53052E-04 1.01776E-04-6.50948E-16
 -1       305 1.10678E-04 8.79369E-05-6.28374E-16
 -1       306 1.54703E-04 7.84811E-05-6.39650E-16
 -1       307 2.92222E-04 5.68751E-05-8.04920E-16
 -1       308 4.86601E-04-6.84948E-06-1.12443E-15
 -1       309 7.37842E-04-8.51084E-05-1.51290E-15
 -1       310 1.03943E-03-1.87193E-04-2.05299E-15
 -1       311 1.37489E-03-2.90990E-04-2.76024E-15
 -1       312 1.72270E-03-3.66960E-04-3.61547E-15
 -1       313 2.07752E-03-3.70106E-04-4.59999E-15
 -1       314 2.45333E-03-3.05461E-04-5.75490E-15
 -1       315 2.86561E-03-1.74014E-04-6.82990E-15
 -1       316 3.25003E-03-2.40124E-05-7.82004E-15
 -1       317 3.59673E-03 1.16260E-04-8.62824E-15
 -1       318 3.87686E-03 2.41677E-04-9.35369E-15
 -1       319 4.05002E-03 3.20938E-04-9.56768E-15
 -1       320 3.79937E-04-2.40878E-04-1.16735E-16
 -1       321 5.43409E-04-2.28458E-04-4.59912E-16
 -1       322 5.53916E-04-2.92484E-04-4.10716E-16
 -1       323 5.30925E-04-9.80090E-05-4.66315E-16
 -1       324 4.90998E-04-2.19717E-05-4.41111E-16
 -1       325 3.99392E-04 5.09988E-05-4.02930E-16
 -1       326 2.73179E-04 9.16317E-05-3.61080E-16
 -1       327 1.43054E-04 8.94886E-05-3.20129E-16
 -1       328 1.48603E-04 1.77320E-05-2.59893E-16
 -1       329 2.78624E-04 2.47118E-05-2.77393E-16
 -1       330 4.10713E-04 8.29030E-05-2.83034E-16
 -1       331 5.05452E-04 1.70139E-04-2.66056E-16
 -1       332 5.74525E-04 2.65349E-04-2.18961E-16
 -1       333 7.07780E-04 3.75154E-04-2.35536E-16
 -1       334 1.12017E-03 6.10208E-04-7.11481E-16
 -1       335 1.00047E-03-5.01649E-04-1.26315E-15
 -1       336 1.32153E-03-5.97843E-04-2.27933E-15
 -1       337 1.63132E-03-6.49008E-04-3.60538E-15
 -1       338 1.93458E-03-6.53509E-04-5.24079E-15
 -1       339 2.23675E-03-6.15559E-04-7.18013E-15
 -1       340 2.54186E-03-5.45740E-04-9.41214E-15
 -1       341 2.85115E-03-4.57776E-04-1.19225E-14
 -1       342 3.16356E-03-3.64280E-04-1.46988E-14
 -1       343 3.47697E-03-2.74088E-04-1.77266E-14
 -1       344 3.78937E-03-1.91813E-04-2.09908E-14
 -1       345 4.09940E-03-1.18770E-04-2.44797E-14
 -1       346 4.40633E-03-5.42500E-05-2.81829E-14
 -1       347 4.70996E-03 3.39549E-06-3.20924E-14
 -1       348 5.01039E-03 5.60448E-05-3.62023E-14
 -1       349 5.30791E-03 1.05416E-04-4.05065E-14
 -1       350 5.60290E-03 1.52903E-04-4.49994E-14
 -1       351 5.89574E-03 1.99545E-04-4.96786E-14
 -1       352 6.18681E-03 2.46060E-04-5.45429E-14
 -1       353 6.47646E-03 2.92905E-04-5.95949E-14
 -1       354 6.76499E-03 3.40339E-04-6.48290E-14
 -1       355 7.05265E-03 3.88482E-04-7.02395E-14
 -1       356 7.33967E-03 4.37361E-04-7.58223E-14
 -1       357 7.62621E-03 4.86939E-04-8.15695E-14
 -1       358 7.91240E-03 5.37152E-04-8.74766E-14
 -1       359 8.19836E-03 5.87915E-04-9.35340E-14
 -1       360 8.48415E-03 6.39143E-04-9.97385E-14
 -1       361 8.76984E-03 6.90753E-04-1.06089E-13
 -1       362 9.05547E-03 7.42671E-04-1.12581E-13
 -1       363 9.34107E-03 7.94830E-04-1.19205E-13
 -1       364 9.62666E-03 8.47176E-04-1.25952E-13
 -1       365 9.91225E-03 8.99663E-04-1.32814E-13
 -1       366 1.01978E-02 9.52255E-04-1.39773E-13
 -1       367 1.04835E-02 1.00492E-03-1.46827E-13
 -1       368 1.07691E-02 1.05765E-03-1.53966E-13
 -1       369 1.10547E-02 1.11040E-03-1.61186E-13
 -1       370 1.13404E-02 1.16319E-03-1.68482E-13
 -1       371 1.16260E-02 1.21598E-03-1.75841E-13
 -1       372 1.19117E-02 1.26879E-03-1.83265E-13
 -1       373 1.21974E-02 1.32160E-03-1.90759E-13
 -1       374 1.24831E-02 1.37441E-03-1.98329E-13
 -1       375 1.27688E-02 1.42722E-03-2.05972E-13
 -1       376 1.30545E-02 1.48003E-03-2.13677E-13
 -1       377 1.33402E-02 1.53284E-03-2.21444E-13
 -1       378 1.36259E-02 1.58564E-03-2.29257E-13
 -1       379 1.39116E-02 1.63844E-03-2.37109E-13
 -1       380 1.41656E-02 1.68240E-03-2.44184E-13
 -1       381 1.51245E-03 8.38052E-04-1.47126E-15
 -1       382 1.88038E-03 1.02492E-03-2.53951E-15
 -1       383 2.22936E-03 1.13171E-03-3.93036E-15
 -1       384 2.57362E-03 1.14542E-03-5.64580E-15
 -1       385 2.92418E-03 1.09246E-03-7.67453E-15
 -1       386 3.28157E-03 1.01752E-03-9.99892E-15
 -1       387 3.63964E-03 9.55139E-04-1.25959E-14
 -1       388 3.99220E-03 9.21074E-04-1.54422E-14
 -1       389 4.33595E-03 9.16764E-04-1.85226E-14
 -1       390 4.67008E-03 9.36902E-04-2.18270E-14
 -1       391 4.99509E-03 9.74603E-04-2.53561E-14
 -1       392 5.31205E-03 1.02378E-03-2.91039E-14
 -1       393 5.62214E-03 1.07980E-03-3.30590E-14
 -1       394 5.92656E-03 1.13948E-03-3.72170E-14
 -1       395 6.22640E-03 1.20072E-03-4.15701E-14
 -1       396 6.52258E-03 1.26225E-03-4.61175E-14
 -1       397 6.81593E-03 1.32333E-03-5.08559E-14
 -1       398 7.10709E-03 1.38358E-03-5.57758E-14
 -1       399 7.39659E-03 1.44285E-03-6.08753E-14
 -1       400 7.68487E-03 1.50110E-03-6.61427E-14
 -1       401 7.97225E-03 1.55839E-03-7.15711E-14
 -1       402 8.25899E-03 1.61482E-03-7.71632E-14
 -1       403 8.54528E-03 1.67051E-03-8.29105E-14
 -1       404 8.83126E-03 1.72555E-03-8.88122E-14
 -1       405 9.11704E-03 1.78008E-03-9.48673E-14
 -1       406 9.40270E-03 1.83418E-03-1.01073E-13
 -1       407 9.68828E-03 1.88794E-03-1.07436E-13
 -1       408 9.97384E-03 1.94143E-03-1.13944E-13
 -1       409 1.02594E-02 1.99472E-03-1.20584E-13
 -1       410 1.05449E-02 2.04786E-03-1.27341E-13
 -1       411 1.08305E-02 2.10087E-03-1.34208E-13
 -1       412 1.11161E-02 2.15381E-03-1.41173E-13
 -1       413 1.14017E-02 2.20668E-03-1.48230E-13
 -1       414 1.16873E-02 2.25951E-03-1.55384E-13
 -1       415 1.19729E-02 2.31232E-03-1.62624E-13
 -1       416 1.22586E-02 2.36511E-03-1.69946E-13
 -1       417 1.25442E-02 2.41788E-03-1.77348E-13
 -1       418 1.28299E-02 2.47065E-03-1.84818E-13
 -1       419 1.31156E-02 2.52342E-03-1.92342E-13
 -1       420 1.34013E-02 2.57619E-03-1.99909E-13
 -1       421 1.36870E-02 2.62896E-03-2.07500E-13
 -1       422 1.39727E-02 2.68174E-03-2.15119E-13
 -1       423 1.42584E-02 2.73451E-03-2.22761E-13
 -1       424 1.45441E-02 2.78729E-03-2.30423E-13
 -1       425 1.48298E-02 2.84008E-03-2.38112E-13
 -1       426 1.50237E-02 2.87115E-03-2.43452E-13
 -1       427 1.48404E-02 2.64579E-03-2.43036E-13
 -1       428 1.48923E-02 2.73008E-03-2.42673E-13
 -1       429 1.49580E-02 2.80062E-03-2.43064E-13
 -1       430 1.47893E-02 2.56293E-03-2.43390E-13
 -1       431 1.47374E-02 2.47864E-03-2.43750E-13
 -1       432 1.46855E-02 2.39434E-03-2.44111E-13
 -1       433 1.46336E-02 2.31005E-03-2.44474E-13
 -1       434 1.45817E-02 2.22575E-03-2.44833E-13
 -1       435 1.45298E-02 2.14146E-03-2.45178E-13
 -1       436 1.44788E-02 2.05859E-03-2.45498E-13
 -1       437 1.44268E-02 1.97430E-03-2.45808E-13
 -1       438 1.43749E-02 1.89001E-03-2.46105E-13
 -1       439 1.43230E-02 1.80572E-03-2.46390E-13
 -1       440 3.82399E-03 4.68973E-04-9.88261E-15
 -1       441 4.10109E-03 3.71760E-04-1.10869E-14
 -1       442 4.06232E-03 3.96543E-04-1.09457E-14
 -1       443 3.50372E-03 5.81366E-04-9.02896E-15
 -1       444 3.18788E-03 7.11205E-04-8.01430E-15
 -1       445 5.41545E-04-1.66530E-04-4.74657E-16
 -1       446 2.41922E-03 9.75979E-04-5.12148E-15
 -1       447 2.13325E-03 9.83300E-04-4.09411E-15
 -1       448 1.73089E-03 8.52709E-04-2.89648E-15
 -1       449 1.42331E-03 6.82281E-04-2.16188E-15
 -1       450 1.02480E-03 4.34217E-04-1.45003E-15
 -1       451 6.75640E-04 2.47647E-04-1.03684E-15
 -1       452 3.98462E-04 1.29246E-04-7.49927E-16
 -1       453 2.28634E-04 7.75668E-05-5.77927E-16
 -1       454 1.15660E-04 6.87056E-05-4.68795E-16
 -1       455 1.16689E-04 8.19289E-05-4.52854E-16
 -1       456 2.13270E-04 9.20535E-05-5.50100E-16
 -1       457 4.24761E-04 6.07161E-05-7.92145E-16
 -1       458 6.27230E-04 8.81038E-08-1.08620E-15
 -1       459 9.28345E-04-1.12588E-04-1.56723E-15
 -1       460 1.24307E-03-2.44083E-04-2.25326E-15
 -1       461 1.54712E-03-3.51464E-04-3.06814E-15
 -1       462 1.90218E-03-4.11910E-04-4.27569E-15
 -1       463 2.19066E-03-3.76006E-04-5.37470E-15
 -1       464 2.60622E-03-2.26133E-04-6.99653E-15
 -1       465 2.98303E-03-5.73980E-05-8.15005E-15
 -1       466 3.37225E-03 1.15596E-04-9.29761E-15
 -1       467 3.70771E-03 2.40473E-04-1.00791E-14
 -1       468 3.99177E-03 3.33677E-04-1.08727E-14
 -1       469 2.73082E-03 8.94531E-04-6.27618E-15
 -1       470 9.55738E-05 5.64162E-05-2.69316E-16
 -1       471 3.99764E-03 4.23893E-04-1.14898E-14
 -1       472 1.95424E-03 9.54573E-04-3.43560E-15
 -1       473 6.64649E-04-3.02258E-05-7.99647E-16
 -1       474 7.66764E-04-1.29559E-04-8.97706E-16
 -1       475 5.46279E-04 1.37712E-04-5.95359E-16
 -1       476 8.78615E-04 3.98009E-04-6.30084E-16
 -1       477 9.96100E-04 5.03326E-04-6.80025E-16
 -1       478 1.15156E-03-4.83427E-04-1.83457E-15
 -1       479 1.39744E-03 7.39575E-04-1.40814E-15
 -1       480 1.78192E-03 9.47719E-04-2.43998E-15
 -1       481 1.47667E-03-5.60426E-04-3.02450E-15
 -1       482 1.79375E-03-5.89573E-04-4.52243E-15
 -1       483 2.10758E-03-5.68895E-04-6.32696E-15
 -1       484 2.42334E-03-5.07139E-04-8.42949E-15
 -1       485 2.74298E-03-4.20202E-04-1.08154E-14
 -1       486 3.06476E-03-3.24220E-04-1.34704E-14
 -1       487 3.38543E-03-2.30656E-04-1.63791E-14
 -1       488 3.70234E-03-1.45374E-04-1.95277E-14
 -1       489 4.01423E-03-7.00476E-05-2.29051E-14
 -1       490 4.32101E-03-3.95128E-06-2.64977E-14
 -1       491 4.62322E-03 5.46840E-05-3.02991E-14
 -1       492 4.92164E-03 1.07859E-04-3.43018E-14
 -1       493 5.21704E-03 1.57399E-04-3.85008E-14
 -1       494 5.51008E-03 2.04794E-04-4.28902E-14
 -1       495 5.80129E-03 2.51165E-04-4.74674E-14
 -1       496 6.09109E-03 2.97300E-04-5.22305E-14
 -1       497 6.37981E-03 3.43711E-04-5.71780E-14
 -1       498 6.66771E-03 3.90701E-04-6.23115E-14
 -1       499 6.95497E-03 4.38417E-04-6.76246E-14
 -1       500 7.24177E-03 4.86904E-04-7.31096E-14
 -1       501 7.52821E-03 5.36138E-04-7.87635E-14
 -1       502 7.81440E-03 5.86054E-04-8.45785E-14
 -1       503 8.10041E-03 6.36570E-04-9.05463E-14
 -1       504 8.38628E-03 6.87596E-04-9.66615E-14
 -1       505 8.67207E-03 7.39044E-04-1.02923E-13
 -1       506 8.95780E-03 7.90834E-04-1.09327E-13
 -1       507 9.24349E-03 8.42895E-04-1.15870E-13
 -1       508 9.52916E-03 8.95167E-04-1.22541E-13
 -1       509 9.81483E-03 9.47599E-04-1.29333E-13
 -1       510 1.01005E-02 1.00015E-03-1.36229E-13
 -1       511 1.03861E-02 1.05279E-03-1.43220E-13
 -1       512 1.06718E-02 1.10549E-03-1.50306E-13
 -1       513 1.09575E-02 1.15824E-03-1.57478E-13
 -1       514 1.12432E-02 1.21102E-03-1.64731E-13
 -1       515 1.15289E-02 1.26381E-03-1.72053E-13
 -1       516 1.18145E-02 1.31661E-03-1.79436E-13
 -1       517 1.21002E-02 1.36942E-03-1.86887E-13
 -1       518 1.23859E-02 1.42224E-03-1.94412E-13
 -1       519 1.26716E-02 1.47505E-03-2.02007E-13
 -1       520 1.29573E-02 1.52786E-03-2.09668E-13
 -1       521 1.32431E-02 1.58067E-03-2.17388E-13
 -1       522 1.35288E-02 1.63347E-03-2.25156E-13
 -1       523 1.38145E-02 1.68627E-03-2.32965E-13
 -1       524 2.38135E-03 1.07949E-03-4.95300E-15
 -1       525 2.75359E-03 1.03639E-03-6.86901E-15
 -1       526 3.13053E-03 9.52770E-04-9.09183E-15
 -1       527 3.50147E-03 8.77543E-04-1.15931E-14
 -1       528 3.85782E-03 8.33508E-04-1.43473E-14
 -1       529 4.19734E-03 8.22151E-04-1.73351E-14
 -1       530 4.52289E-03 8.37361E-04-2.05461E-14
 -1       531 4.83814E-03 8.71715E-04-2.39758E-14
 -1       532 5.14609E-03 9.18808E-04-2.76238E-14
 -1       533 5.44877E-03 9.73751E-04-3.14798E-14
 -1       534 5.74753E-03 1.03308E-03-3.55396E-14
 -1       535 6.04328E-03 1.09447E-03-3.97961E-14
 -1       536 6.33666E-03 1.15645E-03-4.42482E-14
 -1       537 6.62817E-03 1.21814E-03-4.88913E-14
 -1       538 6.91820E-03 1.27905E-03-5.37210E-14
 -1       539 7.20706E-03 1.33896E-03-5.87311E-14
 -1       540 7.49503E-03 1.39781E-03-6.39128E-14
 -1       541 7.78232E-03 1.45563E-03-6.92623E-14
 -1       542 8.06910E-03 1.51252E-03-7.47765E-14
 -1       543 8.35549E-03 1.56859E-03-8.04474E-14
 -1       544 8.64162E-03 1.62395E-03-8.62717E-14
 -1       545 8.92756E-03 1.67872E-03-9.22524E-14
 -1       546 9.21337E-03 1.73302E-03-9.83805E-14
 -1       547 9.49909E-03 1.78693E-03-1.04661E-13
 -1       548 9.78477E-03 1.84054E-03-1.11090E-13
 -1       549 1.00704E-02 1.89392E-03-1.17656E-13
 -1       550 1.03561E-02 1.94712E-03-1.24348E-13
 -1       551 1.06417E-02 2.00018E-03-1.31156E-13
 -1       552 1.09273E-02 2.05315E-03-1.38068E-13
 -1       553 1.12130E-02 2.10604E-03-1.45075E-13
 -1       554 1.14986E-02 2.15889E-03-1.52178E-13
 -1       555 1.17843E-02 2.21170E-03-1.59373E-13
 -1       556 1.20699E-02 2.26449E-03-1.66650E-13
 -1       557 1.23556E-02 2.31727E-03-1.74006E-13
 -1       558 1.26413E-02 2.37004E-03-1.81439E-13
 -1       559 1.29270E-02 2.42281E-03-1.88932E-13
 -1       560 1.32127E-02 2.47558E-03-1.96470E-13
 -1       561 1.34984E-02 2.52835E-03-2.04042E-13
 -1       562 1.37841E-02 2.58112E-03-2.11641E-13
 -1       563 1.40698E-02 2.63390E-03-2.19266E-13
 -1       564 1.43555E-02 2.68668E-03-2.26914E-13
 -1       565 1.46412E-02 2.73946E-03-2.34590E-13
 -1       566 1.45159E-02 2.47507E-03-2.36903E-13
 -1       567 1.44640E-02 2.39078E-03-2.37255E-13
 -1       568 1.46189E-02 2.64222E-03-2.36189E-13
 -1       569 1.45674E-02 2.55865E-03-2.36548E-13
 -1       570 1.44121E-02 2.30648E-03-2.37607E-13
 -1       571 1.43602E-02 2.22218E-03-2.37953E-13
 -1       572 1.43083E-02 2.13789E-03-2.38283E-13
 -1       573 1.42573E-02 2.05502E-03-2.38593E-13
 -1       574 1.42054E-02 1.97073E-03-2.38886E-13
 -1       575 1.41535E-02 1.88643E-03-2.39165E-13
 -1       576 1.41016E-02 1.80214E-03-2.39434E-13
 -1       577 3.72322E-03 5.10939E-04-1.06414E-14
 -1       578 4.09842E-03 3.76343E-04-1.25853E-14
 -1       579 2.08112E-03 1.05107E-03-3.57708E-15
 -1       580 4.13890E-03 3.96395E-04-1.26215E-14
 -1       581 3.40340E-03 6.46190E-04-9.64620E-15
 -1       582 2.59222E-03 9.65048E-04-5.98705E-15
 -1       583 3.87050E-03 3.18096E-04-1.17219E-14
 -1       584 1.67649E-03-4.06009E-04-3.52341E-15
 -1       585 7.66935E-04 2.72742E-04-6.70898E-16
 -1       586 4.97363E-04 5.04637E-05-7.17562E-16
 -1       587 1.61074E-03 7.93214E-04-2.37714E-15
 -1       588 2.30995E-03 1.01640E-03-4.77150E-15
 -1       589 1.23820E-03 5.55143E-04-1.55290E-15
 -1       590 8.73523E-04 3.20779E-04-1.00935E-15
 -1       591 3.00171E-04 5.49646E-05-4.69316E-16
 -1       592 1.08726E-03-1.85418E-04-1.74079E-15
 -1       593 2.81279E-03-1.19523E-04-8.63890E-15
 -1       594 7.48286E-04-3.77690E-05-1.08163E-15
 -1       595 1.37996E-03-3.13354E-04-2.50481E-15
 -1       596 2.02876E-03-4.17059E-04-5.02268E-15
 -1       597 2.36377E-03-3.24005E-04-6.54784E-15
 -1       598 3.14370E-03 4.09240E-05-9.81511E-15
 -1       599 3.56321E-03 2.18557E-04-1.10390E-14
 -1       600 8.48075E-04-3.63681E-04-1.03027E-15
 -1       601 2.96198E-03 8.31995E-04-7.66064E-15
 -1       602 7.90219E-04-2.14045E-04-9.30428E-16
 -1       603 4.12740E-03 4.18447E-04-1.31746E-14
 -1       604 1.40066E-02 1.72029E-03-2.38276E-13
 -1       605 8.19882E-04-2.89065E-04-9.94864E-16
 -1       606 2.14152E-03 1.01986E-03-4.04133E-15
 -1       607 1.28268E-03 6.36003E-04-1.32277E-15
 -1       608 9.59637E-04-1.57914E-04-1.35662E-15
 -1       609 3.38264E-03 7.92465E-04-1.05671E-14
 -1       610 1.65139E-03-5.21956E-04-3.80352E-15
 -1       611 1.97439E-03-5.23751E-04-5.47028E-15
 -1       612 2.29900E-03-4.71183E-04-7.44284E-15
 -1       613 2.62927E-03-3.82887E-04-9.70721E-15
 -1       614 2.96285E-03-2.81442E-04-1.22448E-14
 -1       615 3.29411E-03-1.82989E-04-1.50395E-14
 -1       616 3.61857E-03-9.48470E-05-1.80760E-14
 -1       617 3.93450E-03-1.83582E-05-2.13417E-14
 -1       618 4.24232E-03 4.79462E-05-2.48264E-14
 -1       619 4.54350E-03 1.06400E-04-2.85193E-14
 -1       620 4.83971E-03 1.59284E-04-3.24155E-14
 -1       621 5.13240E-03 2.08529E-04-3.65103E-14
 -1       622 5.42271E-03 2.55641E-04-4.07944E-14
 -1       623 5.71143E-03 3.01733E-04-4.52702E-14
 -1       624 5.99912E-03 3.47586E-04-4.99334E-14
 -1       625 6.28614E-03 3.93711E-04-5.47806E-14
 -1       626 6.57273E-03 4.40415E-04-5.98125E-14
 -1       627 6.85903E-03 4.87855E-04-6.50271E-14
 -1       628 7.14514E-03 5.36083E-04-7.04159E-14
 -1       629 7.43112E-03 5.85079E-04-7.59746E-14
 -1       630 7.71702E-03 6.34785E-04-8.16969E-14
 -1       631 8.00286E-03 6.85118E-04-8.75747E-14
 -1       632 8.28866E-03 7.35988E-04-9.36024E-14
 -1       633 8.57443E-03 7.87308E-04-9.97767E-14
 -1       634 8.86018E-03 8.38993E-04-1.06097E-13
 -1       635 9.14592E-03 8.90969E-04-1.12556E-13
 -1       636 9.43164E-03 9.43175E-04-1.19149E-13
 -1       637 9.71736E-03 9.95556E-04-1.25867E-13
 -1       638 1.00031E-02 1.04807E-03-1.32696E-13
 -1       639 1.02888E-02 1.10068E-03-1.39629E-13
 -1       640 1.05745E-02 1.15336E-03-1.46659E-13
 -1       641 1.08602E-02 1.20609E-03-1.53782E-13
 -1       642 1.11459E-02 1.25886E-03-1.60988E-13
 -1       643 1.14316E-02 1.31165E-03-1.68268E-13
 -1       644 1.17173E-02 1.36445E-03-1.75615E-13
 -1       645 1.20031E-02 1.41725E-03-1.83028E-13
 -1       646 1.22888E-02 1.47006E-03-1.90509E-13
 -1       647 1.25745E-02 1.52288E-03-1.98058E-13
 -1       648 1.28602E-02 1.57569E-03-2.05675E-13
 -1       649 1.31459E-02 1.62849E-03-2.13353E-13
 -1       650 1.34316E-02 1.68130E-03-2.21081E-13
 -1       651 1.37173E-02 1.73410E-03-2.28851E-13
 -1       652 4.20182E-03 4.05902E-04-1.44280E-14
 -1       653 3.74783E-03 7.39708E-04-1.32353E-14
 -1       654 4.08390E-03 7.25337E-04-1.61368E-14
 -1       655 4.39977E-03 7.39474E-04-1.92574E-14
 -1       656 4.70284E-03 7.72698E-04-2.25941E-14
 -1       657 4.99875E-03 8.18453E-04-2.61452E-14
 -1       658 5.29086E-03 8.72133E-04-2.99043E-14
 -1       659 5.58097E-03 9.30489E-04-3.38678E-14
 -1       660 5.86999E-03 9.91274E-04-3.80288E-14
 -1       661 6.15832E-03 1.05298E-03-4.23837E-14
 -1       662 6.44616E-03 1.11466E-03-4.69330E-14
 -1       663 6.73358E-03 1.17574E-03-5.16717E-14
 -1       664 7.02066E-03 1.23593E-03-5.65904E-14
 -1       665 7.30744E-03 1.29510E-03-6.16872E-14
 -1       666 7.59396E-03 1.35325E-03-6.69559E-14
 -1       667 7.88027E-03 1.41045E-03-7.23909E-14
 -1       668 8.16641E-03 1.46680E-03-7.79872E-14
 -1       669 8.45242E-03 1.52241E-03-8.37358E-14
 -1       670 8.73833E-03 1.57739E-03-8.96395E-14
 -1       671 9.02417E-03 1.63186E-03-9.56934E-14
 -1       672 9.30995E-03 1.68591E-03-1.01897E-13
 -1       673 9.59570E-03 1.73963E-03-1.08247E-13
 -1       674 9.88142E-03 1.79309E-03-1.14739E-13
 -1       675 1.01671E-02 1.84635E-03-1.21362E-13
 -1       676 1.04528E-02 1.89946E-03-1.28109E-13
 -1       677 1.07385E-02 1.95246E-03-1.34967E-13
 -1       678 1.10242E-02 2.00538E-03-1.41925E-13
 -1       679 1.13099E-02 2.05825E-03-1.48979E-13
 -1       680 1.15956E-02 2.11107E-03-1.56126E-13
 -1       681 1.18813E-02 2.16387E-03-1.63358E-13
 -1       682 1.21670E-02 2.21665E-03-1.70669E-13
 -1       683 1.24527E-02 2.26943E-03-1.78061E-13
 -1       684 1.27384E-02 2.32220E-03-1.85524E-13
 -1       685 1.30241E-02 2.37496E-03-1.93038E-13
 -1       686 1.33098E-02 2.42773E-03-2.00588E-13
 -1       687 1.35955E-02 2.48050E-03-2.08171E-13
 -1       688 1.38812E-02 2.53328E-03-2.15777E-13
 -1       689 1.41670E-02 2.58606E-03-2.23413E-13
 -1       690 1.43929E-02 2.61414E-03-2.29792E-13
 -1       691 1.41387E-02 2.21862E-03-2.31102E-13
 -1       692 1.39094E-02 1.76812E-03-2.34132E-13
 -1       693 1.42426E-02 2.38721E-03-2.30424E-13
 -1       694 1.40868E-02 2.13432E-03-2.31422E-13
 -1       695 1.41906E-02 2.30291E-03-2.30767E-13
 -1       696 1.40358E-02 2.05145E-03-2.31720E-13
 -1       697 1.39839E-02 1.96715E-03-2.32007E-13
 -1       698 1.39320E-02 1.88286E-03-2.32272E-13
 -1       699 4.04047E-03 3.64668E-04-1.38448E-14
 -1       700 3.44297E-03 1.51838E-04-1.22344E-14
 -1       701 2.56736E-03-2.58252E-04-8.16182E-15
 -1       702 3.95139E-03 4.73158E-04-1.25273E-14
 -1       703 3.67708E-03 5.79004E-04-1.14652E-14
 -1       704 2.50063E-03 1.02653E-03-5.62799E-15
 -1       705 1.68201E-03 8.67526E-04-2.31416E-15
 -1       706 1.81856E-03-4.43741E-04-4.26693E-15
 -1       707 2.18688E-03-3.96898E-04-6.09133E-15
 -1       708 3.81100E-03 2.98961E-04-1.31084E-14
 -1       709 1.22316E-03-2.77409E-04-2.01777E-15
 -1       710 1.83467E-03 9.29670E-04-2.86934E-15
 -1       711 1.32297E-03-4.63683E-04-2.44670E-15
 -1       712 3.04292E-03-2.95923E-05-1.04685E-14
 -1       713 1.49991E-03-3.81536E-04-2.91751E-15
 -1       714 1.07344E-03-3.83693E-04-1.63746E-15
 -1       715 1.04509E-03-2.61710E-04-1.52702E-15
 -1       716 4.23866E-03 4.25130E-04-1.50045E-14
 -1       717 1.42940E-02 2.47079E-03-2.30074E-13
 -1       718 1.43435E-02 2.54247E-03-2.29935E-13
 -1       719 1.42882E-03 7.04992E-04-1.73907E-15
 -1       720 1.38247E-02 1.80848E-03-2.30566E-13
 -1       721 4.16262E-03 4.67952E-04-1.47637E-14
 -1       722 4.30395E-03 6.42414E-04-1.79631E-14
 -1       723 4.00512E-03 6.24325E-04-1.49261E-14
 -1       724 2.17493E-03-4.43929E-04-6.45276E-15
 -1       725 2.51606E-03-3.51495E-04-8.59493E-15
 -1       726 2.86379E-03-2.38347E-04-1.10199E-14
 -1       727 3.20843E-03-1.30732E-04-1.37055E-14
 -1       728 3.54237E-03-3.86628E-05-1.66343E-14
 -1       729 3.86320E-03 3.80171E-05-1.97920E-14
 -1       730 4.17207E-03 1.02790E-04-2.31678E-14
 -1       731 4.47169E-03 1.59389E-04-2.67552E-14
 -1       732 4.76491E-03 2.10706E-04-3.05439E-14
 -1       733 5.05402E-03 2.58831E-04-3.45330E-14
 -1       734 5.34071E-03 3.05223E-04-3.87147E-14
 -1       735 5.62609E-03 3.50881E-04-4.30865E-14
 -1       736 5.91087E-03 3.96481E-04-4.76507E-14
 -1       737 6.19547E-03 4.42454E-04-5.23993E-14
 -1       738 6.48012E-03 4.89056E-04-5.73316E-14
 -1       739 6.76492E-03 5.36416E-04-6.24472E-14
 -1       740 7.04990E-03 5.84568E-04-6.77397E-14
 -1       741 7.33507E-03 6.33491E-04-7.32037E-14
 -1       742 7.62039E-03 6.83123E-04-7.88339E-14
 -1       743 7.90585E-03 7.33385E-04-8.46219E-14
 -1       744 8.19140E-03 7.84188E-04-9.05625E-14
 -1       745 8.47703E-03 8.35444E-04-9.66528E-14
 -1       746 8.76271E-03 8.87073E-04-1.02888E-13
 -1       747 9.04842E-03 9.39000E-04-1.09263E-13
 -1       748 9.33416E-03 9.91164E-04-1.15775E-13
 -1       749 9.61990E-03 1.04351E-03-1.22418E-13
 -1       750 9.90566E-03 1.09599E-03-1.29182E-13
 -1       751 1.01914E-02 1.14858E-03-1.36054E-13
 -1       752 1.04772E-02 1.20125E-03-1.43026E-13
 -1       753 1.07629E-02 1.25396E-03-1.50095E-13
 -1       754 1.10487E-02 1.30672E-03-1.57253E-13
 -1       755 1.13344E-02 1.35950E-03-1.64493E-13
 -1       756 1.16201E-02 1.41229E-03-1.71799E-13
 -1       757 1.19059E-02 1.46509E-03-1.79175E-13
 -1       758 1.21916E-02 1.51790E-03-1.86615E-13
 -1       759 1.24773E-02 1.57071E-03-1.94124E-13
 -1       760 1.27630E-02 1.62352E-03-2.01698E-13
 -1       761 1.30487E-02 1.67633E-03-2.09332E-13
 -1       762 1.33345E-02 1.72913E-03-2.17023E-13
 -1       763 1.35796E-02 1.76881E-03-2.23780E-13
 -1       764 4.58900E-03 6.77728E-04-2.12099E-14
 -1       765 4.86863E-03 7.23576E-04-2.46679E-14
 -1       766 5.14689E-03 7.76211E-04-2.83327E-14
 -1       767 5.42571E-03 8.33126E-04-3.21992E-14
 -1       768 5.70578E-03 8.92531E-04-3.62664E-14
 -1       769 5.98720E-03 9.53133E-04-4.05279E-14
 -1       770 6.26980E-03 1.01402E-03-4.49807E-14
 -1       771 6.55333E-03 1.07460E-03-4.96275E-14
 -1       772 6.83757E-03 1.13451E-03-5.44562E-14
 -1       773 7.12232E-03 1.19357E-03-5.94652E-14
 -1       774 7.40741E-03 1.25172E-03-6.46507E-14
 -1       775 7.69275E-03 1.30899E-03-7.00068E-14
 -1       776 7.97825E-03 1.36543E-03-7.55276E-14
 -1       777 8.26385E-03 1.42114E-03-8.12022E-14
 -1       778 8.54952E-03 1.47623E-03-8.70318E-14
 -1       779 8.83523E-03 1.53080E-03-9.30110E-14
 -1       780 9.12096E-03 1.58494E-03-9.91404E-14
 -1       781 9.40670E-03 1.63874E-03-1.05416E-13
 -1       782 9.69245E-03 1.69226E-03-1.11833E-13
 -1       783 9.97819E-03 1.74557E-03-1.18386E-13
 -1       784 1.02639E-02 1.79872E-03-1.25068E-13
 -1       785 1.05497E-02 1.85176E-03-1.31869E-13
 -1       786 1.08354E-02 1.90470E-03-1.38778E-13
 -1       787 1.11212E-02 1.95758E-03-1.45782E-13
 -1       788 1.14069E-02 2.01042E-03-1.52881E-13
 -1       789 1.16926E-02 2.06323E-03-1.60068E-13
 -1       790 1.19783E-02 2.11602E-03-1.67337E-13
 -1       791 1.22641E-02 2.16880E-03-1.74691E-13
 -1       792 1.25498E-02 2.22157E-03-1.82120E-13
 -1       793 1.28355E-02 2.27434E-03-1.89607E-13
 -1       794 1.31212E-02 2.32711E-03-1.97139E-13
 -1       795 1.34069E-02 2.37988E-03-2.04702E-13
 -1       796 1.36927E-02 2.43266E-03-2.12297E-13
 -1       797 1.39784E-02 2.48543E-03-2.19915E-13
 -1       798 1.41609E-02 2.51395E-03-2.24919E-13
 -1       799 1.84154E-03-4.82014E-04-4.61494E-15
 -1       800 1.37105E-02 1.87928E-03-2.25424E-13
 -1       801 1.38653E-02 2.13075E-03-2.24596E-13
 -1       802 3.32862E-03 4.65379E-05-1.29794E-14
 -1       803 3.75964E-03 2.49167E-04-1.45373E-14
 -1       804 1.06315E-03-3.23924E-04-1.59528E-15
 -1       805 1.59351E-03-4.38310E-04-3.38172E-15
 -1       806 2.86854E-03-1.69193E-04-1.04470E-14
 -1       807 1.38143E-02 2.04788E-03-2.24886E-13
 -1       808 4.00831E-03 3.41473E-04-1.52147E-14
 -1       809 1.30469E-03-3.63407E-04-2.30052E-15
 -1       810 3.93019E-03 5.41391E-04-1.34342E-14
 -1       811 1.37624E-02 1.96358E-03-2.25166E-13
 -1       812 4.24140E-03 4.04311E-04-1.64828E-14
 -1       813 1.40209E-02 2.38329E-03-2.23616E-13
 -1       814 1.39689E-02 2.29899E-03-2.23956E-13
 -1       815 1.39171E-02 2.21487E-03-2.24283E-13
 -1       816 3.65031E-03 1.53127E-04-1.53238E-14
 -1       817 4.32265E-03 4.27925E-04-1.70962E-14
 -1       818 1.36450E-02 1.82404E-03-2.24606E-13
 -1       819 4.49666E-03 5.88809E-04-1.98231E-14
 -1       820 4.24132E-03 5.49147E-04-1.66608E-14
 -1       821 3.48180E-03 2.41140E-05-1.52010E-14
 -1       822 3.80634E-03 1.00071E-04-1.82549E-14
 -1       823 4.11411E-03 1.61313E-04-2.15264E-14
 -1       824 4.40995E-03 2.14026E-04-2.50061E-14
 -1       825 4.69824E-03 2.62217E-04-2.86901E-14
 -1       826 4.98219E-03 3.08185E-04-3.25716E-14
 -1       827 5.26400E-03 3.53271E-04-3.66497E-14
 -1       828 5.54503E-03 3.98249E-04-4.09197E-14
 -1       829 5.82608E-03 4.43577E-04-4.53808E-14
 -1       830 6.10759E-03 4.89522E-04-5.00319E-14
 -1       831 6.38974E-03 5.36221E-04-5.48672E-14
 -1       832 6.67257E-03 5.83728E-04-5.98839E-14
 -1       833 6.95604E-03 6.32034E-04-6.50799E-14
 -1       834 7.24006E-03 6.81094E-04-7.04507E-14
 -1       835 7.52455E-03 7.30837E-04-7.59899E-14
 -1       836 7.80941E-03 7.81182E-04-8.16856E-14
 -1       837 8.09456E-03 8.32043E-04-8.75394E-14
 -1       838 8.37992E-03 8.83336E-04-9.35449E-14
 -1       839 8.66544E-03 9.34985E-04-9.96961E-14
 -1       840 8.95106E-03 9.86921E-04-1.05990E-13
 -1       841 9.23675E-03 1.03909E-03-1.12421E-13
 -1       842 9.52249E-03 1.09143E-03-1.18988E-13
 -1       843 9.80826E-03 1.14390E-03-1.25681E-13
 -1       844 1.00940E-02 1.19648E-03-1.32491E-13
 -1       845 1.03798E-02 1.24913E-03-1.39406E-13
 -1       846 1.06656E-02 1.30184E-03-1.46420E-13
 -1       847 1.09514E-02 1.35459E-03-1.53528E-13
 -1       848 1.12371E-02 1.40736E-03-1.60721E-13
 -1       849 1.15229E-02 1.46015E-03-1.67988E-13
 -1       850 1.18086E-02 1.51294E-03-1.75325E-13
 -1       851 1.20944E-02 1.56575E-03-1.82730E-13
 -1       852 1.23801E-02 1.61855E-03-1.90201E-13
 -1       853 1.26659E-02 1.67136E-03-1.97734E-13
 -1       854 1.29516E-02 1.72417E-03-2.05328E-13
 -1       855 1.32373E-02 1.77697E-03-2.12984E-13
 -1       856 5.01420E-03 6.87327E-04-2.67620E-14
 -1       857 5.27930E-03 7.42216E-04-3.05342E-14
 -1       858 5.54873E-03 7.99391E-04-3.45062E-14
 -1       859 5.82190E-03 8.57962E-04-3.86747E-14
 -1       860 6.09817E-03 9.17179E-04-4.30355E-14
 -1       861 6.37688E-03 9.76470E-04-4.75880E-14
 -1       862 6.65749E-03 1.03544E-03-5.23275E-14
 -1       863 6.93954E-03 1.09384E-03-5.72479E-14
 -1       864 7.22267E-03 1.15154E-03-6.23474E-14
 -1       865 7.50659E-03 1.20851E-03-6.76212E-14
 -1       866 7.79110E-03 1.26478E-03-7.30631E-14
 -1       867 8.07601E-03 1.32040E-03-7.86686E-14
 -1       868 8.36123E-03 1.37544E-03-8.44245E-14
 -1       869 8.64664E-03 1.43000E-03-9.03328E-14
 -1       870 8.93220E-03 1.48414E-03-9.63908E-14
 -1       871 9.21785E-03 1.53795E-03-1.02593E-13
 -1       872 9.50356E-03 1.59149E-03-1.08934E-13
 -1       873 9.78931E-03 1.64483E-03-1.15421E-13
 -1       874 1.00751E-02 1.69800E-03-1.22035E-13
 -1       875 1.03608E-02 1.75105E-03-1.28775E-13
 -1       876 1.06466E-02 1.80401E-03-1.35630E-13
 -1       877 1.09324E-02 1.85691E-03-1.42589E-13
 -1       878 1.12182E-02 1.90976E-03-1.49641E-13
 -1       879 1.15039E-02 1.96258E-03-1.56783E-13
 -1       880 1.17897E-02 2.01538E-03-1.64010E-13
 -1       881 1.20754E-02 2.06816E-03-1.71323E-13
 -1       882 1.23611E-02 2.12094E-03-1.78716E-13
 -1       883 1.26469E-02 2.17371E-03-1.86174E-13
 -1       884 1.29326E-02 2.22648E-03-1.93682E-13
 -1       885 1.32183E-02 2.27926E-03-2.01229E-13
 -1       886 1.35041E-02 2.33203E-03-2.08806E-13
 -1       887 1.37898E-02 2.38481E-03-2.16414E-13
 -1       888 1.40909E-02 2.44862E-03-2.24271E-13
 -1       889 4.75358E-03 6.35719E-04-2.31899E-14
 -1       890 1.35924E-02 2.04360E-03-2.18092E-13
 -1       891 4.21790E-03 3.76963E-04-1.77688E-14
 -1       892 4.01757E-03 3.03680E-04-1.70507E-14
 -1       893 4.32683E-03 4.68565E-04-1.67839E-14
 -1       894 3.13778E-03-7.47683E-05-1.23744E-14
 -1       895 1.36442E-02 2.12772E-03-2.17801E-13
 -1       896 1.34412E-02 1.80051E-03-2.18784E-13
 -1       897 4.39953E-03 4.27473E-04-1.91706E-14
 -1       898 1.37379E-02 2.30051E-03-2.16754E-13
 -1       899 1.35405E-02 1.95929E-03-2.18368E-13
 -1       900 1.34999E-02 1.87028E-03-2.19076E-13
 -1       901 4.28783E-03 3.52157E-04-2.00443E-14
 -1       902 5.66000E-03 7.68176E-04-3.68242E-14
 -1       903 4.52960E-03 5.12154E-04-1.99603E-14
 -1       904 4.07428E-03 2.23024E-04-1.98980E-14
 -1       905 4.36169E-03 2.69622E-04-2.32741E-14
 -1       906 4.64113E-03 3.13206E-04-2.68525E-14
 -1       907 4.91728E-03 3.56037E-04-3.06286E-14
 -1       908 5.19240E-03 3.99287E-04-3.46022E-14
 -1       909 5.46783E-03 4.43375E-04-3.87684E-14
 -1       910 5.74428E-03 4.88443E-04-4.31267E-14
 -1       911 6.02205E-03 5.34509E-04-4.76771E-14
 -1       912 6.30121E-03 5.81533E-04-5.24156E-14
 -1       913 6.58168E-03 6.29449E-04-5.73353E-14
 -1       914 6.86333E-03 6.78174E-04-6.24353E-14
 -1       915 7.14597E-03 7.27622E-04-6.77110E-14
 -1       916 7.42942E-03 7.77700E-04-7.31607E-14
 -1       917 7.71353E-03 8.28321E-04-7.87697E-14
 -1       918 7.99813E-03 8.79401E-04-8.45338E-14
 -1       919 8.28312E-03 9.30861E-04-9.04542E-14
 -1       920 8.56839E-03 9.82634E-04-9.65233E-14
 -1       921 8.85386E-03 1.03466E-03-1.02736E-13
 -1       922 9.13946E-03 1.08688E-03-1.09086E-13
 -1       923 9.42515E-03 1.13926E-03-1.15574E-13
 -1       924 9.71090E-03 1.19176E-03-1.22194E-13
 -1       925 9.99668E-03 1.24435E-03-1.28937E-13
 -1       926 1.02825E-02 1.29701E-03-1.35796E-13
 -1       927 1.05683E-02 1.34972E-03-1.42758E-13
 -1       928 1.08541E-02 1.40246E-03-1.49814E-13
 -1       929 1.11399E-02 1.45523E-03-1.56958E-13
 -1       930 1.14256E-02 1.50801E-03-1.64181E-13
 -1       931 1.17114E-02 1.56081E-03-1.71477E-13
 -1       932 1.19972E-02 1.61360E-03-1.78847E-13
 -1       933 1.22829E-02 1.66641E-03-1.86284E-13
 -1       934 1.25687E-02 1.71921E-03-1.93783E-13
 -1       935 1.28544E-02 1.77201E-03-2.01343E-13
 -1       936 1.31401E-02 1.82481E-03-2.08956E-13
 -1       937 5.39558E-03 7.12655E-04-3.27477E-14
 -1       938 5.13762E-03 6.58806E-04-2.88701E-14
 -1       939 5.92950E-03 8.24787E-04-4.10936E-14
 -1       940 6.20299E-03 8.81957E-04-4.55539E-14
 -1       941 6.47959E-03 9.39257E-04-5.02023E-14
 -1       942 6.75858E-03 9.96379E-04-5.50359E-14
 -1       943 7.03940E-03 1.05313E-03-6.00498E-14
 -1       944 7.32161E-03 1.10940E-03-6.52389E-14
 -1       945 7.60486E-03 1.16516E-03-7.06007E-14
 -1       946 7.88888E-03 1.22042E-03-7.61312E-14
 -1       947 8.17346E-03 1.27521E-03-8.18174E-14
 -1       948 8.45845E-03 1.32959E-03-8.76561E-14
 -1       949 8.74373E-03 1.38362E-03-9.36429E-14
 -1       950 9.02920E-03 1.43735E-03-9.97752E-14
 -1       951 9.31481E-03 1.49085E-03-1.06046E-13
 -1       952 9.60051E-03 1.54416E-03-1.12459E-13
 -1       953 9.88626E-03 1.59732E-03-1.19010E-13
 -1       954 1.01720E-02 1.65037E-03-1.25686E-13
 -1       955 1.04578E-02 1.70333E-03-1.32486E-13
 -1       956 1.07436E-02 1.75624E-03-1.39396E-13
 -1       957 1.10294E-02 1.80909E-03-1.46405E-13
 -1       958 1.13152E-02 1.86192E-03-1.53503E-13
 -1       959 1.16010E-02 1.91472E-03-1.60686E-13
 -1       960 1.18867E-02 1.96751E-03-1.67957E-13
 -1       961 1.21725E-02 2.02029E-03-1.75316E-13
 -1       962 1.24583E-02 2.07307E-03-1.82742E-13
 -1       963 1.27440E-02 2.12585E-03-1.90223E-13
 -1       964 1.30297E-02 2.17862E-03-1.97747E-13
 -1       965 1.33155E-02 2.23140E-03-2.05310E-13
 -1       966 1.35267E-02 2.26595E-03-2.11020E-13
 -1       967 4.88775E-03 6.07224E-04-2.51909E-14
 -1       968 1.36960E-02 2.21185E-03-2.17488E-13
 -1       969 4.48722E-03 4.68651E-04-1.95841E-14
 -1       970 4.48475E-03 4.14504E-04-2.15321E-14
 -1       971 4.70206E-03 5.58215E-04-2.25179E-14
 -1       972 4.59641E-03 4.65492E-04-2.19925E-14
 -1       973 1.33708E-02 2.03994E-03-2.11330E-13
 -1       974 1.33189E-02 1.95564E-03-2.11602E-13
 -1       975 1.34848E-02 2.17729E-03-2.11746E-13
 -1       976 5.76121E-03 7.37050E-04-3.91513E-14
 -1       977 4.59443E-03 3.61949E-04-2.50307E-14
 -1       978 4.85923E-03 4.01129E-04-2.87021E-14
 -1       979 5.12531E-03 4.42369E-04-3.25704E-14
 -1       980 5.39369E-03 4.85599E-04-3.66339E-14
 -1       981 5.66462E-03 5.30570E-04-4.08890E-14
 -1       982 5.93809E-03 5.77002E-04-4.53380E-14
 -1       983 6.21388E-03 6.24641E-04-4.99758E-14
 -1       984 6.49175E-03 6.73274E-04-5.47996E-14
 -1       985 6.77138E-03 7.22723E-04-5.98035E-14
 -1       986 7.05249E-03 7.72842E-04-6.49841E-14
 -1       987 7.33479E-03 8.23512E-04-7.03428E-14
 -1       988 7.61805E-03 8.74632E-04-7.58647E-14
 -1       989 7.90204E-03 9.26119E-04-8.15432E-14
 -1       990 8.18659E-03 9.77903E-04-8.73765E-14
 -1       991 8.47155E-03 1.02992E-03-9.33644E-14
 -1       992 8.75681E-03 1.08214E-03-9.94985E-14
 -1       993 9.04229E-03 1.13450E-03-1.05768E-13
 -1       994 9.32791E-03 1.18698E-03-1.12176E-13
 -1       995 9.61362E-03 1.23954E-03-1.18720E-13
 -1       996 9.89938E-03 1.29218E-03-1.25394E-13
 -1       997 1.01852E-02 1.34486E-03-1.32191E-13
 -1       998 1.04710E-02 1.39759E-03-1.39096E-13
 -1       999 1.07568E-02 1.45034E-03-1.46101E-13
 -1      1000 1.10426E-02 1.50311E-03-1.53198E-13
 -1      1001 1.13284E-02 1.55589E-03-1.60378E-13
 -1      1002 1.16142E-02 1.60868E-03-1.67633E-13
 -1      1003 1.19000E-02 1.66147E-03-1.74963E-13
 -1      1004 1.21857E-02 1.71427E-03-1.82366E-13
 -1      1005 1.24715E-02 1.76706E-03-1.89836E-13
 -1      1006 1.27572E-02 1.81986E-03-1.97363E-13
 -1      1007 1.30430E-02 1.87266E-03-2.04941E-13
 -1      1008 5.49794E-03 6.83939E-04-3.49731E-14
 -1      1009 5.24155E-03 6.32527E-04-3.09913E-14
 -1      1010 6.30253E-03 8.46260E-04-4.80823E-14
 -1      1011 6.57850E-03 9.01506E-04-5.28267E-14
 -1      1012 6.85697E-03 9.56783E-04-5.77538E-14
 -1      1013 7.13738E-03 1.01192E-03-6.28613E-14
 -1      1014 7.41927E-03 1.06681E-03-6.81414E-14
 -1      1015 7.70228E-03 1.12140E-03-7.35927E-14
 -1      1016 7.98613E-03 1.17571E-03-7.92079E-14
 -1      1017 8.27060E-03 1.22972E-03-8.49768E-14
 -1      1018 8.55552E-03 1.28349E-03-9.08949E-14
 -1      1019 8.84075E-03 1.33704E-03-9.69604E-14
 -1      1020 9.12621E-03 1.39041E-03-1.03163E-13
 -1      1021 9.41182E-03 1.44363E-03-1.09506E-13
 -1      1022 9.69752E-03 1.49673E-03-1.15988E-13
 -1      1023 9.98328E-03 1.54974E-03-1.22605E-13
 -1      1024 1.02691E-02 1.60268E-03-1.29347E-13
 -1      1025 1.05549E-02 1.65557E-03-1.36204E-13
 -1      1026 1.08407E-02 1.70842E-03-1.43166E-13
 -1      1027 1.11265E-02 1.76125E-03-1.50227E-13
 -1      1028 1.14123E-02 1.81406E-03-1.57369E-13
 -1      1029 1.16981E-02 1.86685E-03-1.64596E-13
 -1      1030 1.19839E-02 1.91964E-03-1.71912E-13
 -1      1031 1.22696E-02 1.97242E-03-1.79303E-13
 -1      1032 1.25554E-02 2.02520E-03-1.86757E-13
 -1      1033 1.28411E-02 2.07798E-03-1.94258E-13
 -1      1034 1.31269E-02 2.13076E-03-2.01801E-13
 -1      1035 4.99416E-03 5.83372E-04-2.72072E-14
 -1      1036 1.34278E-02 2.10862E-03-2.11544E-13
 -1      1037 6.02980E-03 7.91317E-04-4.35234E-14
 -1      1038 4.67376E-03 5.12007E-04-2.24158E-14
 -1      1039 1.33058E-02 2.15403E-03-2.06766E-13
 -1      1040 1.31560E-02 2.03431E-03-2.04854E-13
 -1      1041 4.75568E-03 4.48958E-04-2.56482E-14
 -1      1042 1.30995E-02 1.95348E-03-2.04908E-13
 -1      1043 4.83022E-03 5.46612E-04-2.47665E-14
 -1      1044 5.00472E-03 4.88053E-04-2.93480E-14
 -1      1045 5.26073E-03 5.30575E-04-3.32428E-14
 -1      1046 5.52254E-03 5.75832E-04-3.73347E-14
 -1      1047 5.78916E-03 6.23181E-04-4.16209E-14
 -1      1048 6.05977E-03 6.72092E-04-4.60972E-14
 -1      1049 6.33369E-03 7.22146E-04-5.07604E-14
 -1      1050 6.61032E-03 7.73019E-04-5.56108E-14
 -1      1051 6.88914E-03 8.24474E-04-6.06419E-14
 -1      1052 7.16972E-03 8.76337E-04-6.58492E-14
 -1      1053 7.45169E-03 9.28482E-04-7.12279E-14
 -1      1054 7.73473E-03 9.80824E-04-7.67730E-14
 -1      1055 8.01859E-03 1.03330E-03-8.24741E-14
 -1      1056 8.30306E-03 1.08587E-03-8.83283E-14
 -1      1057 8.58798E-03 1.13851E-03-9.43336E-14
 -1      1058 8.87322E-03 1.19119E-03-1.00481E-13
 -1      1059 9.15869E-03 1.24391E-03-1.06766E-13
 -1      1060 9.44431E-03 1.29665E-03-1.13187E-13
 -1      1061 9.73002E-03 1.34940E-03-1.19745E-13
 -1      1062 1.00158E-02 1.40217E-03-1.26436E-13
 -1      1063 1.03016E-02 1.45495E-03-1.33247E-13
 -1      1064 1.05874E-02 1.50773E-03-1.40167E-13
 -1      1065 1.08732E-02 1.56051E-03-1.47182E-13
 -1      1066 1.11591E-02 1.61330E-03-1.54290E-13
 -1      1067 1.14449E-02 1.66609E-03-1.61481E-13
 -1      1068 1.17307E-02 1.71888E-03-1.68751E-13
 -1      1069 1.20164E-02 1.77167E-03-1.76096E-13
 -1      1070 1.23022E-02 1.82446E-03-1.83514E-13
 -1      1071 1.25880E-02 1.87725E-03-1.90994E-13
 -1      1072 5.58999E-03 6.53536E-04-3.72120E-14
 -1      1073 5.33117E-03 6.04588E-04-3.31260E-14
 -1      1074 6.95326E-03 9.16189E-04-6.04870E-14
 -1      1075 6.67446E-03 8.62596E-04-5.54634E-14
 -1      1076 6.39802E-03 8.09241E-04-5.06205E-14
 -1      1077 7.23388E-03 9.69857E-04-6.56868E-14
 -1      1078 7.51592E-03 1.02350E-03-7.10593E-14
 -1      1079 7.79904E-03 1.07706E-03-7.65998E-14
 -1      1080 8.08298E-03 1.13052E-03-8.22969E-14
 -1      1081 8.36751E-03 1.18386E-03-8.81447E-14
 -1      1082 8.65247E-03 1.23709E-03-9.41436E-14
 -1      1083 8.93775E-03 1.29022E-03-1.00287E-13
 -1      1084 9.22324E-03 1.34327E-03-1.06562E-13
 -1      1085 9.50887E-03 1.39626E-03-1.12978E-13
 -1      1086 9.79460E-03 1.44919E-03-1.19530E-13
 -1      1087 1.00804E-02 1.50208E-03-1.26214E-13
 -1      1088 1.03662E-02 1.55493E-03-1.33019E-13
 -1      1089 1.06520E-02 1.60777E-03-1.39934E-13
 -1      1090 1.09378E-02 1.66058E-03-1.46948E-13
 -1      1091 1.12236E-02 1.71339E-03-1.54053E-13
 -1      1092 1.15094E-02 1.76618E-03-1.61239E-13
 -1      1093 1.17952E-02 1.81898E-03-1.68510E-13
 -1      1094 1.20810E-02 1.87176E-03-1.75862E-13
 -1      1095 1.23668E-02 1.92455E-03-1.83285E-13
 -1      1096 1.26525E-02 1.97733E-03-1.90762E-13
 -1      1097 1.29383E-02 2.03012E-03-1.98285E-13
 -1      1098 4.85623E-03 5.15564E-04-2.58469E-14
 -1      1099 1.32309E-02 2.09417E-03-2.05813E-13
 -1      1100 6.12456E-03 7.56368E-04-4.59645E-14
 -1      1101 5.08024E-03 5.58119E-04-2.92380E-14
 -1      1102 5.85489E-03 7.04316E-04-4.14933E-14
 -1      1103 1.28866E-02 1.94509E-03-1.98586E-13
 -1      1104 0.00000E+00 0.00000E+00 0.00000E+00
 -1      1105 0.00000E+00 0.00000E+00 0.00000E+00
 -1      1106 0.00000E+00 0.00000E+00 0.00000E+00
 -1      1107 0.00000E+00 0.00000E+00 0.00000E+00
 -1      1108 0.00000E+00 0.00000E+00 0.00000E+00
 -1      1109 0.00000E+00 0.00000E+00 0.00000E+00
 -1      1110 0.00000E+00 0.00000E+00 0.00000E+00
 -1      1111 0.00000E+00 0.00000E+00 0.00000E+00
 -1      1112 0.00000E+00 0.00000E+00 0.00000E+00
 -1      1113 0.00000E+00 0.00000E+00 0.00000E+00
 -1      1114 0.00000E+00 0.00000E+00 0.00000E+00
 -1      1115 0.00000E+00 0.00000E+00 0.00000E+00
 -1      1116 0.00000E+00 0.00000E+00 0.00000E+00
 -1      1117 0.00000E+00 0.00000E+00 0.00000E+00
 -1      1118 0.00000E+00 0.00000E+00 0.00000E+00
 -1      1119 0.00000E+00 0.00000E+00 0.00000E+00
 -1      1120 0.00000E+00 0.00000E+00 0.00000E+00
 -1      1121 2.54301E-04-1.85161E-04 1.47316E-17
 -1      1122 6.52669E-04-4.34682E-04-1.53740E-16
 -1      1123 9.67071E-04-6.02786E-04-6.13116E-16
 -1      1124 1.25397E-03-7.15788E-04-1.41539E-15
 -1      1125 1.52296E-03-7.83440E-04-2.54122E-15
 -1      1126 1.78250E-03-8.07474E-04-3.98688E-15
 -1      1127 2.04162E-03-7.90223E-04-5.74649E-15
 -1      1128 2.30835E-03-7.38257E-04-7.81009E-15
 -1      1129 2.58774E-03-6.62074E-04-1.01642E-14
 -1      1130 2.88089E-03-5.73412E-04-1.27967E-14
 -1      1131 3.18563E-03-4.82356E-04-1.56956E-14
 -1      1132 3.49800E-03-3.95694E-04-1.88459E-14
 -1      1133 3.81378E-03-3.16778E-04-2.22309E-14
 -1      1134 4.12950E-03-2.46322E-04-2.58425E-14
 -1      1135 4.44277E-03-1.83448E-04-2.96652E-14
 -1      1136 4.75230E-03-1.26576E-04-3.36898E-14
 -1      1137 5.05763E-03-7.40052E-05-3.79140E-14
 -1      1138 5.35886E-03-2.42195E-05-4.23344E-14
 -1      1139 5.65640E-03 2.39887E-05-4.69413E-14
 -1      1140 5.95082E-03 7.15071E-05-5.17301E-14
 -1      1141 6.24270E-03 1.18942E-04-5.67107E-14
 -1      1142 6.53260E-03 1.66676E-04-6.18813E-14
 -1      1143 6.82100E-03 2.14922E-04-6.72290E-14
 -1      1144 7.10831E-03 2.63778E-04-7.27471E-14
 -1      1145 7.39484E-03 3.13260E-04-7.84391E-14
 -1      1146 7.68085E-03 3.63337E-04-8.42990E-14
 -1      1147 7.96651E-03 4.13952E-04-9.03123E-14
 -1      1148 8.25198E-03 4.65032E-04-9.64727E-14
 -1      1149 8.53733E-03 5.16505E-04-1.02787E-13
 -1      1150 8.82265E-03 5.68301E-04-1.09250E-13
 -1      1151 9.10796E-03 6.20355E-04-1.15841E-13
 -1      1152 9.39330E-03 6.72614E-04-1.22559E-13
 -1      1153 9.67868E-03 7.25030E-04-1.29398E-13
 -1      1154 9.96411E-03 7.77564E-04-1.36347E-13
 -1      1155 1.02496E-02 8.30188E-04-1.43386E-13
 -1      1156 1.05351E-02 8.82875E-04-1.50511E-13
 -1      1157 1.08206E-02 9.35608E-04-1.57715E-13
 -1      1158 1.11062E-02 9.88371E-04-1.64997E-13
 -1      1159 1.13918E-02 1.04116E-03-1.72337E-13
 -1      1160 1.16775E-02 1.09395E-03-1.79736E-13
 -1      1161 1.19631E-02 1.14676E-03-1.87214E-13
 -1      1162 1.22488E-02 1.19956E-03-1.94766E-13
 -1      1163 1.25345E-02 1.25237E-03-2.02391E-13
 -1      1164 1.28202E-02 1.30518E-03-2.10098E-13
 -1      1165 1.31059E-02 1.35798E-03-2.17879E-13
 -1      1166 1.33916E-02 1.41079E-03-2.25715E-13
 -1      1167 1.36773E-02 1.46359E-03-2.33592E-13
 -1      1168 1.39630E-02 1.51638E-03-2.41486E-13
 -1      1169 1.42488E-02 1.56918E-03-2.49404E-13
 -1      1170 1.45273E-02 1.62065E-03-2.57157E-13
 -1      1171 3.31724E-04 2.17784E-04 4.51028E-17
 -1      1172 8.23513E-04 4.88829E-04-4.77049E-17
 -1      1173 1.24531E-03 7.27942E-04-3.95043E-16
 -1      1174 1.62108E-03 9.49839E-04-1.04087E-15
 -1      1175 1.94870E-03 1.13539E-03-1.99363E-15
 -1      1176 2.24043E-03 1.25262E-03-3.26537E-15
 -1      1177 2.52296E-03 1.28561E-03-4.85953E-15
 -1      1178 2.82325E-03 1.24941E-03-6.77248E-15
 -1      1179 3.15366E-03 1.18004E-03-8.98636E-15
 -1      1180 3.50969E-03 1.11291E-03-1.14800E-14
 -1      1181 3.87829E-03 1.06902E-03-1.42363E-14
 -1      1182 4.24669E-03 1.05425E-03-1.72339E-14
 -1      1183 4.60662E-03 1.06545E-03-2.04708E-14
 -1      1184 4.95440E-03 1.09623E-03-2.39382E-14
 -1      1185 5.28953E-03 1.14028E-03-2.76345E-14
 -1      1186 5.61320E-03 1.19259E-03-3.15448E-14
 -1      1187 5.92725E-03 1.24961E-03-3.56569E-14
 -1      1188 6.23360E-03 1.30898E-03-3.99639E-14
 -1      1189 6.53402E-03 1.36919E-03-4.44741E-14
 -1      1190 6.82994E-03 1.42938E-03-4.91793E-14
 -1      1191 7.12255E-03 1.48903E-03-5.40635E-14
 -1      1192 7.41274E-03 1.54790E-03-5.91249E-14
 -1      1193 7.70122E-03 1.60592E-03-6.43580E-14
 -1      1194 7.98850E-03 1.66308E-03-6.97536E-14
 -1      1195 8.27497E-03 1.71945E-03-7.53136E-14
 -1      1196 8.56090E-03 1.77512E-03-8.10263E-14
 -1      1197 8.84651E-03 1.83018E-03-8.68939E-14
 -1      1198 9.13193E-03 1.88473E-03-9.29135E-14
 -1      1199 9.41724E-03 1.93887E-03-9.90956E-14
 -1      1200 9.70253E-03 1.99267E-03-1.05444E-13
 -1      1201 9.98783E-03 2.04620E-03-1.11942E-13
 -1      1202 1.02732E-02 2.09953E-03-1.18567E-13
 -1      1203 1.05585E-02 2.15269E-03-1.25314E-13
 -1      1204 1.08439E-02 2.20574E-03-1.32169E-13
 -1      1205 1.11294E-02 2.25869E-03-1.39122E-13
 -1      1206 1.14149E-02 2.31158E-03-1.46160E-13
 -1      1207 1.17005E-02 2.36443E-03-1.53297E-13
 -1      1208 1.19861E-02 2.41725E-03-1.60527E-13
 -1      1209 1.22717E-02 2.47004E-03-1.67845E-13
 -1      1210 1.25573E-02 2.52283E-03-1.75244E-13
 -1      1211 1.28430E-02 2.57560E-03-1.82708E-13
 -1      1212 1.31287E-02 2.62838E-03-1.90237E-13
 -1      1213 1.34143E-02 2.68115E-03-1.97821E-13
 -1      1214 1.37000E-02 2.73392E-03-2.05434E-13
 -1      1215 1.39857E-02 2.78670E-03-2.13057E-13
 -1      1216 1.42714E-02 2.83948E-03-2.20703E-13
 -1      1217 1.45572E-02 2.89226E-03-2.28357E-13
 -1      1218 1.48429E-02 2.94504E-03-2.36041E-13
 -1      1219 1.51286E-02 2.99782E-03-2.43749E-13
 -1      1220 1.54072E-02 3.04929E-03-2.51289E-13
 -1      1221 1.55169E-02 3.03222E-03-2.55139E-13
 -1      1222 1.54650E-02 2.94794E-03-2.55512E-13
 -1      1223 1.54131E-02 2.86365E-03-2.55854E-13
 -1      1224 1.53612E-02 2.77937E-03-2.56188E-13
 -1      1225 1.53093E-02 2.69508E-03-2.56531E-13
 -1      1226 1.52578E-02 2.61150E-03-2.56884E-13
 -1      1227 1.52063E-02 2.52792E-03-2.57280E-13
 -1      1228 1.51544E-02 2.44363E-03-2.57683E-13
 -1      1229 1.51025E-02 2.35933E-03-2.58078E-13
 -1      1230 1.50506E-02 2.27504E-03-2.58463E-13
 -1      1231 1.49987E-02 2.19074E-03-2.58828E-13
 -1      1232 1.49472E-02 2.10716E-03-2.59197E-13
 -1      1233 1.48958E-02 2.02359E-03-2.59566E-13
 -1      1234 1.48438E-02 1.93930E-03-2.59928E-13
 -1      1235 1.47919E-02 1.85501E-03-2.60250E-13
 -1      1236 1.47400E-02 1.77073E-03-2.60545E-13
 -1      1237 1.46886E-02 1.68716E-03-2.60820E-13
 -1      1238 4.08985E-03 3.96986E-04-8.37713E-15
 -1      1239 3.98994E-03 5.14414E-04-8.09310E-15
 -1      1240 3.77924E-03 6.33029E-04-7.59293E-15
 -1      1241 3.49024E-03 7.43062E-04-6.95441E-15
 -1      1242 3.11812E-03 8.40682E-04-6.15998E-15
 -1      1243 2.69849E-03 9.04368E-04-5.29457E-15
 -1      1244 2.28553E-03 9.14347E-04-4.48014E-15
 -1      1245 1.84926E-03 8.62184E-04-3.66336E-15
 -1      1246 1.41763E-03 7.54259E-04-2.90688E-15
 -1      1247 1.02267E-03 6.08967E-04-2.25541E-15
 -1      1248 6.79679E-04 4.55468E-04-1.71528E-15
 -1      1249 4.12538E-04 3.20623E-04-1.30314E-15
 -1      1250 2.29943E-04 2.17614E-04-1.01722E-15
 -1      1251 1.25080E-04 1.44804E-04-8.45210E-16
 -1      1252 9.16418E-05 9.36202E-05-7.86246E-16
 -1      1253 1.30914E-04 5.01227E-05-8.48113E-16
 -1      1254 2.46518E-04 1.43520E-06-1.04437E-15
 -1      1255 4.23370E-04-5.69764E-05-1.35177E-15
 -1      1256 6.56060E-04-1.26722E-04-1.76259E-15
 -1      1257 9.53304E-04-2.05639E-04-2.30340E-15
 -1      1258 1.30771E-03-2.79828E-04-2.97470E-15
 -1      1259 1.69632E-03-3.28582E-04-3.74248E-15
 -1      1260 2.11008E-03-3.38675E-04-4.58932E-15
 -1      1261 2.54916E-03-2.97583E-04-5.50279E-15
 -1      1262 2.97899E-03-2.11676E-04-6.39465E-15
 -1      1263 3.35933E-03-9.89511E-05-7.16126E-15
 -1      1264 3.67900E-03 2.51884E-05-7.77289E-15
 -1      1265 3.92489E-03 1.53388E-04-8.20726E-15
 -1      1266 4.06878E-03 2.79545E-04-8.41970E-15
 -1      1267 1.93479E-04-1.39441E-04-3.12115E-17
 -1      1268 1.30294E-04-7.66533E-05-7.64634E-17
 -1      1269 1.35921E-04-8.78335E-05-6.39544E-17
 -1      1270 1.27567E-04-5.88894E-05-9.39461E-17
 -1      1271 1.28899E-04-6.74480E-05-8.87691E-17
 -1      1272 2.63508E-04-1.45735E-04-2.13019E-16
 -1      1273 1.26819E-04-4.05184E-05-1.00912E-16
 -1      1274 1.27581E-04-4.97232E-05-9.93942E-17
 -1      1275 2.60009E-04-1.10460E-04-2.42238E-16
 -1      1276 1.23941E-04-1.75208E-05-1.01725E-16
 -1      1277 1.26143E-04-2.88537E-05-1.02118E-16
 -1      1278 2.58943E-04-7.28459E-05-2.52443E-16
 -1      1279 1.15307E-04 9.43416E-06-9.78628E-17
 -1      1280 1.20823E-04-3.22923E-06-9.91638E-17
 -1      1281 2.52214E-04-2.78531E-05-2.49339E-16
 -1      1282 9.73689E-05 3.56995E-05-9.11543E-17
 -1      1283 1.07673E-04 2.44429E-05-9.27128E-17
 -1      1284 2.31018E-04 2.26080E-05-2.36573E-16
 -1      1285 7.05667E-05 5.01714E-05-8.26840E-17
 -1      1286 8.43925E-05 4.56607E-05-8.41476E-17
 -1      1287 1.87550E-04 6.73188E-05-2.17206E-16
 -1      1288 4.61719E-05 4.40172E-05-7.44982E-17
 -1      1289 5.70902E-05 4.85165E-05-7.53724E-17
 -1      1290 1.29018E-04 8.55460E-05-1.95163E-16
 -1      1291 3.31832E-05 1.83387E-05-6.98497E-17
 -1      1292 3.67303E-05 2.99921E-05-7.00259E-17
 -1      1293 7.66400E-05 6.69497E-05-1.77023E-16
 -1      1294 4.06267E-05-7.63139E-06-6.92263E-17
 -1      1295 3.47533E-05 1.85674E-06-6.89485E-17
 -1      1296 5.90834E-05 2.34630E-05-1.69332E-16
 -1      1297 6.42897E-05-2.20105E-05-7.18216E-17
 -1      1298 5.14889E-05-1.91491E-05-7.17064E-17
 -1      1299 8.55116E-05-1.60357E-05-1.72632E-16
 -1      1300 9.59414E-05-1.45457E-05-7.40781E-17
 -1      1301 8.06833E-05-2.15154E-05-7.50946E-17
 -1      1302 1.45980E-04-2.77844E-05-1.81577E-16
 -1      1303 1.22633E-04 1.06234E-05-7.15438E-17
 -1      1304 1.10216E-04-2.62370E-06-7.44034E-17
 -1      1305 2.13182E-04 9.04829E-08-1.85792E-16
 -1      1306 1.42495E-04 4.23600E-05-6.02410E-17
 -1      1307 1.32581E-04 2.71345E-05-6.65565E-17
 -1      1308 2.64281E-04 5.35740E-05-1.76345E-16
 -1      1309 1.62367E-04 7.70537E-05-3.67002E-17
 -1      1310 1.50644E-04 5.93118E-05-4.91415E-17
 -1      1311 3.01596E-04 1.15175E-04-1.47302E-16
 -1      1312 2.27891E-04 1.42535E-04 5.39391E-18
 -1      1313 1.92325E-04 1.05361E-04-2.22532E-17
 -1      1314 3.59984E-04 1.89313E-04-1.06049E-16
 -1      1315 4.87532E-04 2.95863E-04-3.84079E-17
 -1      1316 4.92139E-04-3.39375E-04-1.71927E-16
 -1      1317 6.68407E-04-4.42132E-04-3.27294E-16
 -1      1318 8.34484E-04-5.26859E-04-5.73882E-16
 -1      1319 9.93130E-04-5.96790E-04-9.03439E-16
 -1      1320 7.07070E-04-4.43626E-04-5.25879E-16
 -1      1321 1.14521E-03-6.54572E-04-1.31099E-15
 -1      1322 1.29206E-03-7.00419E-04-1.79965E-15
 -1      1323 1.03578E-03-5.87163E-04-1.19979E-15
 -1      1324 1.43485E-03-7.35271E-04-2.36786E-15
 -1      1325 1.57463E-03-7.58727E-04-3.01603E-15
 -1      1326 1.34300E-03-6.81642E-04-2.18980E-15
 -1      1327 1.71245E-03-7.71164E-04-3.74292E-15
 -1      1328 1.84929E-03-7.72582E-04-4.54805E-15
 -1      1329 1.63627E-03-7.30149E-04-3.49532E-15
 -1      1330 1.98610E-03-7.63690E-04-5.43051E-15
 -1      1331 2.12372E-03-7.45196E-04-6.38938E-15
 -1      1332 1.92284E-03-7.33530E-04-5.11266E-15
 -1      1333 2.26285E-03-7.18423E-04-7.42338E-15
 -1      1334 2.40400E-03-6.84643E-04-8.53068E-15
 -1      1335 2.20925E-03-6.96268E-04-7.03602E-15
 -1      1336 2.54751E-03-6.45544E-04-9.70887E-15
 -1      1337 2.69351E-03-6.02574E-04-1.09572E-14
 -1      1338 2.50025E-03-6.27963E-04-9.25341E-15
 -1      1339 2.84196E-03-5.57311E-04-1.22744E-14
 -1      1340 2.99265E-03-5.11019E-04-1.36586E-14
 -1      1341 2.79803E-03-5.41150E-04-1.17528E-14
 -1      1342 3.14529E-03-4.64820E-04-1.51069E-14
 -1      1343 3.29952E-03-4.19590E-04-1.66199E-14
 -1      1344 3.10235E-03-4.47832E-04-1.45208E-14
 -1      1345 3.45492E-03-3.75901E-04-1.81934E-14
 -1      1346 3.61111E-03-3.34224E-04-1.98262E-14
 -1      1347 3.41137E-03-3.56910E-04-1.75436E-14
 -1      1348 3.76770E-03-2.94682E-04-2.15178E-14
 -1      1349 3.92436E-03-2.57429E-04-2.32655E-14
 -1      1350 3.72269E-03-2.73391E-04-2.08072E-14
 -1      1351 4.08080E-03-2.22311E-04-2.50688E-14
 -1      1352 4.23678E-03-1.89283E-04-2.69257E-14
 -1      1353 4.03407E-03-1.98969E-04-2.42992E-14
 -1      1354 4.39212E-03-1.58071E-04-2.88344E-14
 -1      1355 4.54669E-03-1.28530E-04-3.07944E-14
 -1      1356 4.34381E-03-1.33176E-04-2.80078E-14
 -1      1357 4.70041E-03-1.00369E-04-3.28049E-14
 -1      1358 4.85323E-03-7.34119E-05-3.48647E-14
 -1      1359 4.65086E-03-7.44599E-05-3.19227E-14
 -1      1360 5.00512E-03-4.74077E-05-3.69748E-14
 -1      1361 5.15609E-03-2.21845E-05-3.91341E-14
 -1      1362 4.95470E-03-2.09543E-05-3.60392E-14
 -1      1363 5.30619E-03 2.44820E-06-4.13403E-14
 -1      1364 5.45543E-03 2.66378E-05-4.35943E-14
 -1      1365 5.25527E-03 2.90854E-05-4.03510E-14
 -1      1366 5.60389E-03 5.05165E-05-4.58953E-14
 -1      1367 5.75161E-03 7.42007E-05-4.82418E-14
 -1      1368 5.55277E-03 7.70899E-05-4.48533E-14
 -1      1369 5.89866E-03 9.77737E-05-5.06360E-14
 -1      1370 6.04509E-03 1.21322E-04-5.30756E-14
 -1      1371 5.84756E-03 1.24131E-04-4.95428E-14
 -1      1372 6.19099E-03 1.44891E-04-5.55624E-14
 -1      1373 6.33639E-03 1.68543E-04-5.80979E-14
 -1      1374 6.14006E-03 1.70953E-04-5.44186E-14
 -1      1375 6.48137E-03 1.92296E-04-6.06786E-14
 -1      1376 6.62597E-03 2.16190E-04-6.33043E-14
 -1      1377 6.43069E-03 2.18034E-04-5.94804E-14
 -1      1378 6.77024E-03 2.40229E-04-6.59757E-14
 -1      1379 6.91423E-03 2.64435E-04-6.86887E-14
 -1      1380 6.71984E-03 2.65650E-04-6.47256E-14
 -1      1381 7.05798E-03 2.88802E-04-7.14453E-14
 -1      1382 7.20151E-03 3.13341E-04-7.42437E-14
 -1      1383 7.00787E-03 3.13930E-04-7.01472E-14
 -1      1384 7.34488E-03 3.38040E-04-7.70853E-14
 -1      1385 7.48810E-03 3.62902E-04-7.99712E-14
 -1      1386 7.29505E-03 3.62911E-04-7.57391E-14
 -1      1387 7.63121E-03 3.87913E-04-8.28954E-14
 -1      1388 7.77421E-03 4.13071E-04-8.58597E-14
 -1      1389 7.58162E-03 4.12566E-04-8.14976E-14
 -1      1390 7.91714E-03 4.38361E-04-8.88630E-14
 -1      1391 8.06000E-03 4.63778E-04-9.19016E-14
 -1      1392 7.86777E-03 4.62833E-04-8.74182E-14
 -1      1393 8.20281E-03 4.89308E-04-9.49797E-14
 -1      1394 8.34558E-03 5.14946E-04-9.80942E-14
 -1      1395 8.15362E-03 5.13635E-04-9.34908E-14
 -1      1396 8.48833E-03 5.40678E-04-1.01247E-13
 -1      1397 8.63106E-03 5.66498E-04-1.04437E-13
 -1      1398 8.43930E-03 5.64890E-04-9.97127E-14
 -1      1399 8.77377E-03 5.92394E-04-1.07662E-13
 -1      1400 8.91648E-03 6.18361E-04-1.10921E-13
 -1      1401 8.72486E-03 6.16518E-04-1.06080E-13
 -1      1402 9.05919E-03 6.44389E-04-1.14213E-13
 -1      1403 9.20189E-03 6.70473E-04-1.17536E-13
 -1      1404 9.01037E-03 6.68447E-04-1.12588E-13
 -1      1405 9.34460E-03 6.96604E-04-1.20891E-13
 -1      1406 9.48731E-03 7.22778E-04-1.24276E-13
 -1      1407 9.29585E-03 7.20612E-04-1.19228E-13
 -1      1408 9.63003E-03 7.48989E-04-1.27690E-13
 -1      1409 9.77276E-03 7.75232E-04-1.31133E-13
 -1      1410 9.58134E-03 7.72961E-04-1.25989E-13
 -1      1411 9.91549E-03 8.01503E-04-1.34602E-13
 -1      1412 1.00582E-02 8.27797E-04-1.38095E-13
 -1      1413 9.86684E-03 8.25450E-04-1.32863E-13
 -1      1414 1.02010E-02 8.54112E-04-1.41611E-13
 -1      1415 1.03437E-02 8.80443E-04-1.45147E-13
 -1      1416 1.01524E-02 8.78041E-04-1.39839E-13
 -1      1417 1.04865E-02 9.06790E-04-1.48706E-13
 -1      1418 1.06293E-02 9.33148E-04-1.52284E-13
 -1      1419 1.04379E-02 9.30708E-04-1.46905E-13
 -1      1420 1.07721E-02 9.59517E-04-1.55884E-13
 -1      1421 1.09149E-02 9.85894E-04-1.59502E-13
 -1      1422 1.07235E-02 9.83429E-04-1.54056E-13
 -1      1423 1.10577E-02 1.01228E-03-1.63137E-13
 -1      1424 1.12005E-02 1.03867E-03-1.66793E-13
 -1      1425 1.10091E-02 1.03619E-03-1.61285E-13
 -1      1426 1.13433E-02 1.06506E-03-1.70461E-13
 -1      1427 1.14861E-02 1.09146E-03-1.74141E-13
 -1      1428 1.12947E-02 1.08897E-03-1.68585E-13
 -1      1429 1.16289E-02 1.11786E-03-1.77841E-13
 -1      1430 1.17718E-02 1.14426E-03-1.81561E-13
 -1      1431 1.15804E-02 1.14176E-03-1.75950E-13
 -1      1432 1.19146E-02 1.17066E-03-1.85296E-13
 -1      1433 1.20574E-02 1.19707E-03-1.89052E-13
 -1      1434 1.18660E-02 1.19457E-03-1.83382E-13
 -1      1435 1.22003E-02 1.22347E-03-1.92828E-13
 -1      1436 1.23431E-02 1.24988E-03-1.96617E-13
 -1      1437 1.21517E-02 1.24738E-03-1.90888E-13
 -1      1438 1.24859E-02 1.27628E-03-2.00428E-13
 -1      1439 1.26288E-02 1.30268E-03-2.04258E-13
 -1      1440 1.24374E-02 1.30019E-03-1.98469E-13
 -1      1441 1.27716E-02 1.32909E-03-2.08107E-13
 -1      1442 1.29145E-02 1.35549E-03-2.11974E-13
 -1      1443 1.27231E-02 1.35300E-03-2.06121E-13
 -1      1444 1.30573E-02 1.38190E-03-2.15857E-13
 -1      1445 1.32002E-02 1.40830E-03-2.19756E-13
 -1      1446 1.30088E-02 1.40581E-03-2.13844E-13
 -1      1447 1.33430E-02 1.43470E-03-2.23668E-13
 -1      1448 1.34859E-02 1.46110E-03-2.27591E-13
 -1      1449 1.32945E-02 1.45861E-03-2.21629E-13
 -1      1450 1.36288E-02 1.48750E-03-2.31521E-13
 -1      1451 1.37716E-02 1.51390E-03-2.35462E-13
 -1      1452 1.35802E-02 1.51141E-03-2.29461E-13
 -1      1453 1.39145E-02 1.54030E-03-2.39410E-13
 -1      1454 1.40573E-02 1.56670E-03-2.43358E-13
 -1      1455 1.38659E-02 1.56421E-03-2.37330E-13
 -1      1456 1.42002E-02 1.59309E-03-2.47313E-13
 -1      1457 1.43430E-02 1.61949E-03-2.51279E-13
 -1      1458 1.41516E-02 1.61701E-03-2.45226E-13
 -1      1459 1.45528E-02 1.66208E-03-2.57032E-13
 -1      1460 1.45043E-02 1.68600E-03-2.54930E-13
 -1      1461 9.40602E-04 5.52207E-04-2.50464E-16
 -1      1462 7.20174E-04 4.27619E-04-1.07892E-16
 -1      1463 6.38705E-04 3.68177E-04-1.58497E-16
 -1      1464 1.34835E-03 7.87936E-04-7.53344E-16
 -1      1465 1.14995E-03 6.71658E-04-4.65489E-16
 -1      1466 1.06758E-03 6.14149E-04-5.21190E-16
 -1      1467 1.71409E-03 1.00277E-03-1.55350E-15
 -1      1468 1.53625E-03 8.99625E-04-1.11502E-15
 -1      1469 1.46269E-03 8.47560E-04-1.17408E-15
 -1      1470 2.04371E-03 1.16561E-03-2.66586E-15
 -1      1471 1.88254E-03 1.09269E-03-2.06939E-15
 -1      1472 1.82403E-03 1.04779E-03-2.12950E-15
 -1      1473 2.35281E-03 1.24605E-03-4.09879E-15
 -1      1474 2.19934E-03 1.21659E-03-3.34200E-15
 -1      1475 2.15947E-03 1.17846E-03-3.40183E-15
 -1      1476 2.66252E-03 1.24191E-03-5.85190E-15
 -1      1477 2.50623E-03 1.25296E-03-4.93553E-15
 -1      1478 2.48453E-03 1.21855E-03-4.99587E-15
 -1      1479 2.98835E-03 1.18220E-03-7.91664E-15
 -1      1480 2.82287E-03 1.21638E-03-6.84647E-15
 -1      1481 2.81494E-03 1.18213E-03-6.90591E-15
 -1      1482 3.33353E-03 1.10726E-03-1.02703E-14
 -1      1483 3.15879E-03 1.14447E-03-9.05813E-15
 -1      1484 3.15789E-03 1.10841E-03-9.11745E-15
 -1      1485 3.69155E-03 1.04789E-03-1.28956E-14
 -1      1486 3.51156E-03 1.07463E-03-1.15503E-14
 -1      1487 3.51103E-03 1.03653E-03-1.16089E-14
 -1      1488 4.05287E-03 1.01742E-03-1.57714E-14
 -1      1489 3.87240E-03 1.02896E-03-1.43031E-14
 -1      1490 3.86755E-03 9.89514E-04-1.43604E-14
 -1      1491 4.40963E-03 1.01620E-03-1.88856E-14
 -1      1492 4.23223E-03 1.01352E-03-1.72996E-14
 -1      1493 4.22096E-03 9.73547E-04-1.73543E-14
 -1      1494 4.75725E-03 1.03851E-03-2.22335E-14
 -1      1495 4.58478E-03 1.02487E-03-2.05310E-14
 -1      1496 4.56700E-03 9.85007E-04-2.05819E-14
 -1      1497 5.09406E-03 1.07741E-03-2.58076E-14
 -1      1498 4.92705E-03 1.05628E-03-2.39919E-14
 -1      1499 4.90376E-03 1.01690E-03-2.40362E-14
 -1      1500 5.42029E-03 1.12698E-03-2.96033E-14
 -1      1501 5.25845E-03 1.10116E-03-2.76791E-14
 -1      1502 5.23098E-03 1.06244E-03-2.77146E-14
 -1      1503 5.73715E-03 1.18282E-03-3.36060E-14
 -1      1504 5.57980E-03 1.15431E-03-3.15795E-14
 -1      1505 5.54939E-03 1.11630E-03-3.16060E-14
 -1      1506 6.04620E-03 1.24196E-03-3.78088E-14
 -1      1507 5.89254E-03 1.21211E-03-3.56828E-14
 -1      1508 5.86022E-03 1.17476E-03-3.57013E-14
 -1      1509 6.34901E-03 1.30250E-03-4.22085E-14
 -1      1510 6.19828E-03 1.27214E-03-3.99840E-14
 -1      1511 6.16480E-03 1.23538E-03-3.99941E-14
 -1      1512 6.64697E-03 1.36327E-03-4.68061E-14
 -1      1513 6.49851E-03 1.33290E-03-4.44832E-14
 -1      1514 6.46438E-03 1.29665E-03-4.44841E-14
 -1      1515 6.94126E-03 1.42362E-03-5.15919E-14
 -1      1516 6.79451E-03 1.39352E-03-4.91760E-14
 -1      1517 6.76008E-03 1.35768E-03-4.91667E-14
 -1      1518 7.23281E-03 1.48320E-03-5.65565E-14
 -1      1519 7.08732E-03 1.45352E-03-5.40515E-14
 -1      1520 7.05283E-03 1.41800E-03-5.40323E-14
 -1      1521 7.52236E-03 1.54188E-03-6.16947E-14
 -1      1522 7.37779E-03 1.51266E-03-5.91036E-14
 -1      1523 7.34337E-03 1.47739E-03-5.90765E-14
 -1      1524 7.81048E-03 1.59964E-03-6.70025E-14
 -1      1525 7.66657E-03 1.57087E-03-6.43291E-14
 -1      1526 7.63228E-03 1.53580E-03-6.42924E-14
 -1      1527 8.09759E-03 1.65652E-03-7.24739E-14
 -1      1528 7.95414E-03 1.62818E-03-6.97172E-14
 -1      1529 7.92002E-03 1.59327E-03-6.96740E-14
 -1      1530 8.38401E-03 1.71262E-03-7.81018E-14
 -1      1531 8.24087E-03 1.68466E-03-7.52689E-14
 -1      1532 8.20693E-03 1.64986E-03-7.52171E-14
 -1      1533 8.66998E-03 1.76804E-03-8.38871E-14
 -1      1534 8.52704E-03 1.74041E-03-8.09758E-14
 -1      1535 8.49327E-03 1.70569E-03-8.09179E-14
 -1      1536 8.95566E-03 1.82289E-03-8.98254E-14
 -1      1537 8.81285E-03 1.79553E-03-8.68361E-14
 -1      1538 8.77924E-03 1.76086E-03-8.67730E-14
 -1      1539 9.24116E-03 1.87725E-03-9.59168E-14
 -1      1540 9.09843E-03 1.85012E-03-9.28519E-14
 -1      1541 9.06495E-03 1.81550E-03-9.27812E-14
 -1      1542 9.52658E-03 1.93123E-03-1.02172E-13
 -1      1543 9.38388E-03 1.90429E-03-9.90247E-14
 -1      1544 9.35052E-03 1.86969E-03-9.89465E-14
 -1      1545 9.81197E-03 1.98490E-03-1.08583E-13
 -1      1546 9.66928E-03 1.95810E-03-1.05357E-13
 -1      1547 9.63602E-03 1.92352E-03-1.05267E-13
 -1      1548 1.00974E-02 2.03833E-03-1.15135E-13
 -1      1549 9.95466E-03 2.01164E-03-1.11842E-13
 -1      1550 9.92148E-03 1.97708E-03-1.11737E-13
 -1      1551 1.03828E-02 2.09157E-03-1.21809E-13
 -1      1552 1.02401E-02 2.06497E-03-1.18459E-13
 -1      1553 1.02069E-02 2.03041E-03-1.18343E-13
 -1      1554 1.06682E-02 2.14467E-03-1.28606E-13
 -1      1555 1.05255E-02 2.11814E-03-1.25192E-13
 -1      1556 1.04924E-02 2.08358E-03-1.25070E-13
 -1      1557 1.09537E-02 2.19767E-03-1.35501E-13
 -1      1558 1.08109E-02 2.17118E-03-1.32041E-13
 -1      1559 1.07779E-02 2.13663E-03-1.31906E-13
 -1      1560 1.12392E-02 2.25059E-03-1.42490E-13
 -1      1561 1.10964E-02 2.22414E-03-1.38985E-13
 -1      1562 1.10634E-02 2.18958E-03-1.38846E-13
 -1      1563 1.15247E-02 2.30346E-03-1.49576E-13
 -1      1564 1.13820E-02 2.27703E-03-1.46022E-13
 -1      1565 1.13490E-02 2.24247E-03-1.45877E-13
 -1      1566 1.18103E-02 2.35628E-03-1.56753E-13
 -1      1567 1.16675E-02 2.32987E-03-1.53152E-13
 -1      1568 1.16346E-02 2.29532E-03-1.53003E-13
 -1      1569 1.20959E-02 2.40909E-03-1.64018E-13
 -1      1570 1.19531E-02 2.38269E-03-1.60375E-13
 -1      1571 1.19202E-02 2.34813E-03-1.60219E-13
 -1      1572 1.23816E-02 2.46187E-03-1.71371E-13
 -1      1573 1.22387E-02 2.43548E-03-1.67683E-13
 -1      1574 1.22058E-02 2.40092E-03-1.67520E-13
 -1      1575 1.26672E-02 2.51465E-03-1.78796E-13
 -1      1576 1.25244E-02 2.48826E-03-1.75074E-13
 -1      1577 1.24914E-02 2.45370E-03-1.74902E-13
 -1      1578 1.29529E-02 2.56742E-03-1.86287E-13
 -1      1579 1.28100E-02 2.54104E-03-1.82534E-13
 -1      1580 1.27771E-02 2.50647E-03-1.82356E-13
 -1      1581 1.32386E-02 2.62020E-03-1.93834E-13
 -1      1582 1.30957E-02 2.59381E-03-1.90054E-13
 -1      1583 1.30628E-02 2.55924E-03-1.89869E-13
 -1      1584 1.35243E-02 2.67297E-03-2.01424E-13
 -1      1585 1.33814E-02 2.64658E-03-1.97626E-13
 -1      1586 1.33485E-02 2.61201E-03-1.97431E-13
 -1      1587 1.38100E-02 2.72574E-03-2.09037E-13
 -1      1588 1.36671E-02 2.69935E-03-2.05229E-13
 -1      1589 1.36342E-02 2.66479E-03-2.05026E-13
 -1      1590 1.40957E-02 2.77852E-03-2.16667E-13
 -1      1591 1.39528E-02 2.75213E-03-2.12849E-13
 -1      1592 1.39199E-02 2.71756E-03-2.12641E-13
 -1      1593 1.43814E-02 2.83129E-03-2.24317E-13
 -1      1594 1.42385E-02 2.80491E-03-2.20491E-13
 -1      1595 1.42056E-02 2.77034E-03-2.20280E-13
 -1      1596 1.46671E-02 2.88408E-03-2.31984E-13
 -1      1597 1.45242E-02 2.85769E-03-2.28148E-13
 -1      1598 1.44913E-02 2.82311E-03-2.27937E-13
 -1      1599 1.49528E-02 2.93686E-03-2.39682E-13
 -1      1600 1.48099E-02 2.91047E-03-2.35828E-13
 -1      1601 1.47770E-02 2.87590E-03-2.35618E-13
 -1      1602 1.52385E-02 2.98965E-03-2.47397E-13
 -1      1603 1.50956E-02 2.96325E-03-2.43537E-13
 -1      1604 1.50627E-02 2.92868E-03-2.43321E-13
 -1      1605 1.53812E-02 3.00715E-03-2.51467E-13
 -1      1606 1.53283E-02 2.90401E-03-2.52252E-13
 -1      1607 1.53543E-02 2.94615E-03-2.52069E-13
 -1      1608 1.52764E-02 2.81972E-03-2.52595E-13
 -1      1609 1.53024E-02 2.86187E-03-2.52428E-13
 -1      1610 1.51916E-02 2.86008E-03-2.48992E-13
 -1      1611 1.52245E-02 2.73544E-03-2.52942E-13
 -1      1612 1.52505E-02 2.77758E-03-2.52765E-13
 -1      1613 1.51397E-02 2.77579E-03-2.49344E-13
 -1      1614 1.51726E-02 2.65115E-03-2.53292E-13
 -1      1615 1.51985E-02 2.69329E-03-2.53118E-13
 -1      1616 1.50878E-02 2.69150E-03-2.49697E-13
 -1      1617 1.51215E-02 2.56828E-03-2.53656E-13
 -1      1618 1.51471E-02 2.60971E-03-2.53471E-13
 -1      1619 1.50363E-02 2.60793E-03-2.50055E-13
 -1      1620 1.50696E-02 2.48399E-03-2.54043E-13
 -1      1621 1.50956E-02 2.52614E-03-2.53847E-13
 -1      1622 1.49849E-02 2.52435E-03-2.50420E-13
 -1      1623 1.50177E-02 2.39970E-03-2.54432E-13
 -1      1624 1.50437E-02 2.44184E-03-2.54237E-13
 -1      1625 1.49329E-02 2.44006E-03-2.50797E-13
 -1      1626 1.49658E-02 2.31540E-03-2.54815E-13
 -1      1627 1.49918E-02 2.35755E-03-2.54627E-13
 -1      1628 1.48810E-02 2.35576E-03-2.51176E-13
 -1      1629 1.49139E-02 2.23111E-03-2.55187E-13
 -1      1630 1.49399E-02 2.27325E-03-2.55001E-13
 -1      1631 1.48291E-02 2.27147E-03-2.51548E-13
 -1      1632 1.48620E-02 2.14681E-03-2.55545E-13
 -1      1633 1.48879E-02 2.18896E-03-2.55366E-13
 -1      1634 1.47772E-02 2.18717E-03-2.51906E-13
 -1      1635 1.48110E-02 2.06395E-03-2.55896E-13
 -1      1636 1.48365E-02 2.10538E-03-2.55724E-13
 -1      1637 1.47257E-02 2.10360E-03-2.52253E-13
 -1      1638 1.47591E-02 1.97966E-03-2.56247E-13
 -1      1639 1.47850E-02 2.02180E-03-2.56072E-13
 -1      1640 1.46743E-02 2.02002E-03-2.52591E-13
 -1      1641 1.47072E-02 1.89537E-03-2.56582E-13
 -1      1642 1.47331E-02 1.93751E-03-2.56419E-13
 -1      1643 1.46224E-02 1.93573E-03-2.52920E-13
 -1      1644 1.46552E-02 1.81108E-03-2.56886E-13
 -1      1645 1.46812E-02 1.85323E-03-2.56740E-13
 -1      1646 1.45705E-02 1.85144E-03-2.53234E-13
 -1      1647 1.45668E-02 1.72747E-03-2.55983E-13
 -1      1648 1.45927E-02 1.76961E-03-2.55841E-13
 -1      1649 1.44820E-02 1.76782E-03-2.52337E-13
 -1      1650 1.43570E-02 1.68488E-03-2.50238E-13
 -1      1651 4.08659E-03 3.97605E-04-8.86323E-15
 -1      1652 4.10870E-03 3.65893E-04-8.94810E-15
 -1      1653 3.92879E-03 4.71109E-04-8.60629E-15
 -1      1654 4.02013E-03 4.31429E-04-8.82635E-15
 -1      1655 3.66063E-03 5.83508E-04-7.91540E-15
 -1      1656 3.79425E-03 5.31925E-04-8.21813E-15
 -1      1657 3.33591E-03 7.15597E-04-7.09860E-15
 -1      1658 3.49442E-03 6.56540E-04-7.46137E-15
 -1      1659 2.92225E-03 8.44520E-04-6.21280E-15
 -1      1660 3.11142E-03 7.80483E-04-6.67511E-15
 -1      1661 2.54478E-03 9.37351E-04-5.21574E-15
 -1      1662 2.71711E-03 9.03831E-04-5.63902E-15
 -1      1663 2.18246E-03 9.53172E-04-4.32765E-15
 -1      1664 2.34827E-03 9.54769E-04-4.72433E-15
 -1      1665 1.80206E-03 8.87397E-04-3.43885E-15
 -1      1666 1.97992E-03 9.34231E-04-3.84642E-15
 -1      1667 1.41533E-03 7.32143E-04-2.68221E-15
 -1      1668 1.58477E-03 8.07760E-04-3.00999E-15
 -1      1669 1.04494E-03 5.37432E-04-2.02145E-15
 -1      1670 1.21902E-03 6.30171E-04-2.30819E-15
 -1      1671 6.95295E-04 3.59441E-04-1.51959E-15
 -1      1672 8.45308E-04 4.37040E-04-1.73334E-15
 -1      1673 4.07535E-04 2.27983E-04-1.14666E-15
 -1      1674 5.29254E-04 2.83983E-04-1.30713E-15
 -1      1675 2.15574E-04 1.51151E-04-9.04962E-16
 -1      1676 2.90803E-04 1.81627E-04-1.00376E-15
 -1      1677 1.10055E-04 1.04479E-04-7.51050E-16
 -1      1678 1.49836E-04 1.18010E-04-8.03161E-16
 -1      1679 8.89282E-05 8.87638E-05-7.33107E-16
 -1      1680 8.80492E-05 9.56416E-05-7.33551E-16
 -1      1681 1.57335E-04 7.64122E-05-8.05281E-16
 -1      1682 1.13339E-04 8.31734E-05-7.47523E-16
 -1      1683 3.13189E-04 4.59356E-05-1.01940E-15
 -1      1684 2.33228E-04 6.26821E-05-9.06783E-16
 -1      1685 5.21298E-04-2.30145E-05-1.36433E-15
 -1      1686 4.16233E-04 7.43079E-06-1.20105E-15
 -1      1687 7.86259E-04-1.08360E-04-1.79955E-15
 -1      1688 6.58190E-04-6.56113E-05-1.58268E-15
 -1      1689 1.10430E-03-2.15857E-04-2.38755E-15
 -1      1690 9.50610E-04-1.64026E-04-2.09351E-15
 -1      1691 1.44808E-03-3.16191E-04-3.11014E-15
 -1      1692 1.28817E-03-2.72626E-04-2.76144E-15
 -1      1693 1.80400E-03-3.79412E-04-3.94761E-15
 -1      1694 1.64239E-03-3.57915E-04-3.54756E-15
 -1      1695 2.17222E-03-3.70487E-04-4.87932E-15
 -1      1696 2.00032E-03-3.82141E-04-4.44038E-15
 -1      1697 2.56752E-03-2.88138E-04-5.92378E-15
 -1      1698 2.37887E-03-3.37386E-04-5.44288E-15
 -1      1699 2.98102E-03-1.53236E-04-6.86784E-15
 -1      1700 2.79672E-03-2.19540E-04-6.43973E-15
 -1      1701 3.36263E-03-4.15231E-06-7.69819E-15
 -1      1702 3.18995E-03-7.29791E-05-7.33701E-15
 -1      1703 3.69804E-03 1.31125E-04-8.35102E-15
 -1      1704 3.55067E-03 7.15261E-05-8.07751E-15
 -1      1705 3.95861E-03 2.48725E-04-8.87082E-15
 -1      1706 3.84800E-03 2.02113E-04-8.69268E-15
 -1      1707 4.09710E-03 3.27985E-04-9.01214E-15
 -1      1708 4.05191E-03 2.93187E-04-8.96820E-15
 -1      1709 3.16456E-03 7.22425E-04-7.17354E-15
 -1      1710 3.54115E-03 5.76793E-04-8.08209E-15
 -1      1711 1.53483E-02 2.97258E-03-2.51253E-13
 -1      1712 1.52116E-02 2.92865E-03-2.47997E-13
 -1      1713 4.05448E-03 3.94885E-04-9.41401E-15
 -1      1714 3.84744E-03 4.58329E-04-8.95817E-15
 -1      1715 4.11096E-03 3.52656E-04-9.52460E-15
 -1      1716 2.78022E-03 8.71446E-04-6.13593E-15
 -1      1717 2.42371E-03 9.65038E-04-5.05423E-15
 -1      1718 2.07907E-03 9.70994E-04-4.07744E-15
 -1      1719 1.74103E-03 8.68198E-04-3.18262E-15
 -1      1720 1.37279E-03 6.75606E-04-2.40460E-15
 -1      1721 1.00884E-03 4.58798E-04-1.78312E-15
 -1      1722 6.57644E-04 2.77107E-04-1.32288E-15
 -1      1723 3.76356E-04 1.61785E-04-1.00135E-15
 -1      1724 1.90320E-04 9.91230E-05-7.77937E-16
 -1      1725 9.88744E-05 8.62627E-05-6.74753E-16
 -1      1726 1.00681E-04 9.12372E-05-6.70985E-16
 -1      1727 2.00988E-04 9.57162E-05-7.67605E-16
 -1      1728 3.83795E-04 6.27260E-05-1.02040E-15
 -1      1729 6.24347E-04-1.28486E-05-1.39415E-15
 -1      1730 9.14403E-04-1.17455E-04-1.87457E-15
 -1      1731 1.23708E-03-2.43191E-04-2.51305E-15
 -1      1732 1.57274E-03-3.54187E-04-3.30370E-15
 -1      1733 1.89741E-03-4.05452E-04-4.22313E-15
 -1      1734 2.24697E-03-3.70283E-04-5.28408E-15
 -1      1735 2.62189E-03-2.49057E-04-6.38668E-15
 -1      1736 3.02670E-03-8.27030E-05-7.40022E-15
 -1      1737 3.41135E-03 8.17944E-05-8.27948E-15
 -1      1738 3.75240E-03 2.19511E-04-9.02632E-15
 -1      1739 4.00368E-03 3.05982E-04-9.48642E-15
 -1      1740 1.83109E-04-1.22193E-04-6.42932E-17
 -1      1741 3.96323E-04-2.76068E-04-1.48346E-16
 -1      1742 3.97905E-04-1.57181E-04-3.79877E-16
 -1      1743 3.98663E-04-1.82016E-04-3.66840E-16
 -1      1744 4.00893E-04-2.07903E-04-3.46308E-16
 -1      1745 4.08063E-04-2.35396E-04-3.15665E-16
 -1      1746 5.40876E-04-2.60865E-04-5.37425E-16
 -1      1747 3.84710E-04-4.02398E-05-3.79078E-16
 -1      1748 3.93343E-04-7.25332E-05-3.85949E-16
 -1      1749 3.46458E-04 2.83524E-05-3.56689E-16
 -1      1750 3.70214E-04-5.72372E-06-3.69821E-16
 -1      1751 5.18933E-04-5.19790E-05-5.56087E-16
 -1      1752 2.69250E-04 8.64286E-05-3.23946E-16
 -1      1753 3.12561E-04 6.10608E-05-3.41483E-16
 -1      1754 4.56179E-04 3.17798E-05-5.18208E-16
 -1      1755 1.75154E-04 1.06013E-04-2.89563E-16
 -1      1756 2.22193E-04 1.02156E-04-3.06802E-16
 -1      1757 3.41148E-04 9.66166E-05-4.67427E-16
 -1      1758 9.20852E-05 7.79459E-05-2.60466E-16
 -1      1759 1.25779E-04 9.75374E-05-2.72114E-16
 -1      1760 1.97378E-04 1.15023E-04-4.11421E-16
 -1      1761 1.32489E-04-1.62263E-05-2.42041E-16
 -1      1762 9.77842E-05-1.05093E-06-2.36024E-16
 -1      1763 2.35289E-04-1.13792E-05-2.57213E-16
 -1      1764 1.83220E-04-2.06986E-05-2.50559E-16
 -1      1765 2.03393E-04-5.70630E-06-3.38034E-16
 -1      1766 3.29959E-04 4.24489E-05-2.60452E-16
 -1      1767 2.86526E-04 1.15841E-05-2.61198E-16
 -1      1768 3.47532E-04 2.62652E-05-3.58735E-16
 -1      1769 3.95530E-04 1.20310E-04-2.41642E-16
 -1      1770 3.65968E-04 8.05738E-05-2.54489E-16
 -1      1771 4.62643E-04 1.07265E-04-3.58464E-16
 -1      1772 4.46183E-04 2.04074E-04-1.94357E-16
 -1      1773 4.20153E-04 1.61638E-04-2.22411E-16
 -1      1774 5.37033E-04 2.05139E-04-3.27592E-16
 -1      1775 5.58514E-04 3.06527E-04-1.71128E-16
 -1      1776 5.06904E-04 2.55762E-04-1.95726E-16
 -1      1777 6.30219E-04 3.10607E-04-3.07791E-16
 -1      1778 7.73280E-04 4.29788E-04-3.10773E-16
 -1      1779 4.49741E-04-2.95674E-04-2.56156E-16
 -1      1780 1.18948E-03 6.72344E-04-8.05522E-16
 -1      1781 9.84593E-04 5.51635E-04-5.23182E-16
 -1      1782 9.08010E-04 4.89341E-04-5.18344E-16
 -1      1783 9.29655E-04-5.16147E-04-1.08264E-15
 -1      1784 1.09238E-03-5.75720E-04-1.50653E-15
 -1      1785 1.25025E-03-6.23976E-04-2.00762E-15
 -1      1786 1.40503E-03-6.60498E-04-2.58760E-15
 -1      1787 1.15841E-03-5.62673E-04-1.82272E-15
 -1      1788 1.55640E-03-6.85651E-04-3.24487E-15
 -1      1789 1.70603E-03-6.98881E-04-3.98050E-15
 -1      1790 1.47503E-03-6.37704E-04-2.99222E-15
 -1      1791 1.85387E-03-7.00756E-04-4.79326E-15
 -1      1792 2.00151E-03-6.91502E-04-5.68240E-15
 -1      1793 1.78182E-03-6.65359E-04-4.47133E-15
 -1      1794 2.14892E-03-6.72312E-04-6.64704E-15
 -1      1795 2.29725E-03-6.44297E-04-7.68615E-15
 -1      1796 2.08442E-03-6.46642E-04-6.25708E-15
 -1      1797 2.44645E-03-6.09209E-04-8.79756E-15
 -1      1798 2.59699E-03-5.68579E-04-9.97966E-15
 -1      1799 2.38811E-03-5.89381E-04-8.34071E-15
 -1      1800 2.74887E-03-5.24270E-04-1.12312E-14
 -1      1801 2.90187E-03-4.77730E-04-1.25505E-14
 -1      1802 2.69562E-03-5.06688E-04-1.07101E-14
 -1      1803 3.05609E-03-4.30477E-04-1.39360E-14
 -1      1804 3.21091E-03-3.83527E-04-1.53850E-14
 -1      1805 3.00691E-03-4.12645E-04-1.33516E-14
 -1      1806 3.36650E-03-3.37834E-04-1.68966E-14
 -1      1807 3.52212E-03-2.93926E-04-1.84685E-14
 -1      1808 3.32016E-03-3.18473E-04-1.62514E-14
 -1      1809 3.67800E-03-2.52213E-04-2.00993E-14
 -1      1810 3.83348E-03-2.12851E-04-2.17883E-14
 -1      1811 3.63322E-03-2.30942E-04-1.93947E-14
 -1      1812 3.98877E-03-1.75854E-04-2.35331E-14
 -1      1813 4.14340E-03-1.41153E-04-2.53325E-14
 -1      1814 3.94443E-03-1.52803E-04-2.27701E-14
 -1      1815 4.29752E-03-1.08543E-04-2.71840E-14
 -1      1816 4.45084E-03-7.78528E-05-2.90886E-14
 -1      1817 4.25283E-03-8.40776E-05-2.63644E-14
 -1      1818 4.60348E-03-4.87928E-05-3.10449E-14
 -1      1819 4.75530E-03-2.11689E-05-3.30509E-14
 -1      1820 4.55800E-03-2.33379E-05-3.01697E-14
 -1      1821 4.90637E-03 5.30656E-06-3.51068E-14
 -1      1822 5.05666E-03 3.08124E-05-3.72122E-14
 -1      1823 4.85995E-03 3.13576E-05-3.41786E-14
 -1      1824 5.20620E-03 5.55904E-05-3.93659E-14
 -1      1825 5.35504E-03 7.97883E-05-4.15668E-14
 -1      1826 5.15887E-03 8.19162E-05-3.83837E-14
 -1      1827 5.50319E-03 1.03588E-04-4.38151E-14
 -1      1828 5.65074E-03 1.27104E-04-4.61099E-14
 -1      1829 5.45511E-03 1.29950E-04-4.27811E-14
 -1      1830 5.79768E-03 1.50461E-04-4.84536E-14
 -1      1831 5.94412E-03 1.73741E-04-5.08429E-14
 -1      1832 5.74903E-03 1.76698E-04-4.73678E-14
 -1      1833 6.09005E-03 1.97023E-04-5.32775E-14
 -1      1834 6.23557E-03 2.20363E-04-5.57593E-14
 -1      1835 6.04101E-03 2.23039E-04-5.21408E-14
 -1      1836 6.38068E-03 2.43804E-04-5.82875E-14
 -1      1837 6.52546E-03 2.67383E-04-6.08615E-14
 -1      1838 6.33141E-03 2.69551E-04-5.70981E-14
 -1      1839 6.66992E-03 2.91115E-04-6.34808E-14
 -1      1840 6.81412E-03 3.15024E-04-6.61448E-14
 -1      1841 6.62053E-03 3.16580E-04-6.22416E-14
 -1      1842 6.95808E-03 3.39110E-04-6.88522E-14
 -1      1843 7.10184E-03 3.63383E-04-7.16028E-14
 -1      1844 6.90867E-03 3.64303E-04-6.75618E-14
 -1      1845 7.24542E-03 3.87834E-04-7.43973E-14
 -1      1846 7.38885E-03 4.12468E-04-7.72314E-14
 -1      1847 7.19604E-03 4.12780E-04-7.30583E-14
 -1      1848 7.53215E-03 4.37268E-04-8.01073E-14
 -1      1849 7.67535E-03 4.62234E-04-8.30245E-14
 -1      1850 7.48285E-03 4.61997E-04-7.87221E-14
 -1      1851 7.81845E-03 4.87350E-04-8.59791E-14
 -1      1852 7.96149E-03 5.12611E-04-8.89732E-14
 -1      1853 7.76923E-03 5.11895E-04-8.45467E-14
 -1      1854 8.10445E-03 5.38001E-04-9.20068E-14
 -1      1855 8.24737E-03 5.63515E-04-9.50760E-14
 -1      1856 8.05533E-03 5.62394E-04-9.05269E-14
 -1      1857 8.39025E-03 5.89136E-04-9.81831E-14
 -1      1858 8.53310E-03 6.14859E-04-1.01327E-13
 -1      1859 8.34122E-03 6.13406E-04-9.66593E-14
 -1      1860 8.67592E-03 6.40669E-04-1.04506E-13
 -1      1861 8.81872E-03 6.66563E-04-1.07720E-13
 -1      1862 8.62697E-03 6.64843E-04-1.02936E-13
 -1      1863 8.96151E-03 6.92526E-04-1.10969E-13
 -1      1864 9.10429E-03 7.18554E-04-1.14252E-13
 -1      1865 8.91264E-03 7.16624E-04-1.09357E-13
 -1      1866 9.24707E-03 7.44637E-04-1.17567E-13
 -1      1867 9.38984E-03 7.70771E-04-1.20914E-13
 -1      1868 9.19826E-03 7.68678E-04-1.15913E-13
 -1      1869 9.53261E-03 7.96947E-04-1.24292E-13
 -1      1870 9.67539E-03 8.23161E-04-1.27698E-13
 -1      1871 9.48386E-03 8.20945E-04-1.22598E-13
 -1      1872 9.81816E-03 8.49407E-04-1.31129E-13
 -1      1873 9.96094E-03 8.75681E-04-1.34588E-13
 -1      1874 9.76945E-03 8.73374E-04-1.29401E-13
 -1      1875 1.01037E-02 9.01979E-04-1.38071E-13
 -1      1876 1.02465E-02 9.28297E-04-1.41577E-13
 -1      1877 1.00550E-02 9.25924E-04-1.36309E-13
 -1      1878 1.03893E-02 9.54633E-04-1.45108E-13
 -1      1879 1.05321E-02 9.80983E-04-1.48659E-13
 -1      1880 1.03407E-02 9.78563E-04-1.43314E-13
 -1      1881 1.06749E-02 1.00734E-03-1.52231E-13
 -1      1882 1.08177E-02 1.03372E-03-1.55825E-13
 -1      1883 1.06263E-02 1.03126E-03-1.50412E-13
 -1      1884 1.09605E-02 1.06010E-03-1.59435E-13
 -1      1885 1.11033E-02 1.08648E-03-1.63066E-13
 -1      1886 1.09119E-02 1.08401E-03-1.57590E-13
 -1      1887 1.12461E-02 1.11288E-03-1.66713E-13
 -1      1888 1.13890E-02 1.13927E-03-1.70378E-13
 -1      1889 1.11976E-02 1.13679E-03-1.64845E-13
 -1      1890 1.15318E-02 1.16567E-03-1.74059E-13
 -1      1891 1.16746E-02 1.19207E-03-1.77757E-13
 -1      1892 1.14832E-02 1.18958E-03-1.72171E-13
 -1      1893 1.18175E-02 1.21848E-03-1.81473E-13
 -1      1894 1.19603E-02 1.24488E-03-1.85204E-13
 -1      1895 1.17689E-02 1.24238E-03-1.79565E-13
 -1      1896 1.21031E-02 1.27129E-03-1.88954E-13
 -1      1897 1.22460E-02 1.29769E-03-1.92723E-13
 -1      1898 1.20546E-02 1.29519E-03-1.87025E-13
 -1      1899 1.23888E-02 1.32410E-03-1.96512E-13
 -1      1900 1.25317E-02 1.35050E-03-2.00318E-13
 -1      1901 1.23402E-02 1.34801E-03-1.94558E-13
 -1      1902 1.26745E-02 1.37691E-03-2.04139E-13
 -1      1903 1.28174E-02 1.40331E-03-2.07979E-13
 -1      1904 1.26259E-02 1.40082E-03-2.02164E-13
 -1      1905 1.29602E-02 1.42972E-03-2.11839E-13
 -1      1906 1.31031E-02 1.45612E-03-2.15711E-13
 -1      1907 1.29116E-02 1.45363E-03-2.09837E-13
 -1      1908 1.32459E-02 1.48252E-03-2.19596E-13
 -1      1909 1.33888E-02 1.50893E-03-2.23496E-13
 -1      1910 1.31973E-02 1.50644E-03-2.17573E-13
 -1      1911 1.35316E-02 1.53533E-03-2.27407E-13
 -1      1912 1.36745E-02 1.56173E-03-2.31327E-13
 -1      1913 1.34831E-02 1.55924E-03-2.25357E-13
 -1      1914 1.38173E-02 1.58813E-03-2.35258E-13
 -1      1915 1.39602E-02 1.61453E-03-2.39197E-13
 -1      1916 1.37688E-02 1.61204E-03-2.33191E-13
 -1      1917 1.40872E-02 1.63650E-03-2.42737E-13
 -1      1918 1.42300E-02 1.66290E-03-2.46687E-13
 -1      1919 1.42925E-02 1.70437E-03-2.47737E-13
 -1      1920 1.40386E-02 1.66042E-03-2.40653E-13
 -1      1921 1.57705E-03 9.00972E-04-1.58876E-15
 -1      1922 1.38695E-03 7.90082E-04-1.15961E-15
 -1      1923 1.31485E-03 7.30781E-04-1.13736E-15
 -1      1924 1.93596E-03 1.08239E-03-2.68024E-15
 -1      1925 1.75939E-03 1.00009E-03-2.09469E-15
 -1      1926 1.69716E-03 9.50323E-04-2.05181E-15
 -1      1927 2.27523E-03 1.17908E-03-4.09294E-15
 -1      1928 2.10641E-03 1.14240E-03-3.34606E-15
 -1      1929 2.05458E-03 1.10535E-03-3.28101E-15
 -1      1930 2.61078E-03 1.18292E-03-5.82504E-15
 -1      1931 2.44188E-03 1.19120E-03-4.91911E-15
 -1      1932 2.39853E-03 1.16368E-03-4.83368E-15
 -1      1933 2.95455E-03 1.12320E-03-7.87010E-15
 -1      1934 2.78114E-03 1.15825E-03-6.80958E-15
 -1      1935 2.74493E-03 1.13411E-03-6.70519E-15
 -1      1936 3.30744E-03 1.04423E-03-1.02057E-14
 -1      1937 3.13025E-03 1.08376E-03-9.00244E-15
 -1      1938 3.10027E-03 1.05869E-03-8.88054E-15
 -1      1939 3.66372E-03 9.80458E-04-1.28128E-14
 -1      1940 3.48583E-03 1.00938E-03-1.14764E-14
 -1      1941 3.45970E-03 9.81757E-04-1.13384E-14
 -1      1942 4.01710E-03 9.46756E-04-1.56700E-14
 -1      1943 3.84133E-03 9.59757E-04-1.42114E-14
 -1      1944 3.81586E-03 9.29816E-04-1.40567E-14
 -1      1945 4.36350E-03 9.43739E-04-1.87641E-14
 -1      1946 4.19150E-03 9.41777E-04-1.71879E-14
 -1      1947 4.16403E-03 9.10150E-04-1.70174E-14
 -1      1948 4.70111E-03 9.65425E-04-2.20879E-14
 -1      1949 4.53354E-03 9.51953E-04-2.03978E-14
 -1      1950 4.50263E-03 9.19239E-04-2.02088E-14
 -1      1951 5.02964E-03 1.00451E-03-2.56347E-14
 -1      1952 4.86652E-03 9.83187E-04-2.38333E-14
 -1      1953 4.83189E-03 9.49868E-04-2.36261E-14
 -1      1954 5.34968E-03 1.05474E-03-2.93998E-14
 -1      1955 5.19067E-03 1.02852E-03-2.74901E-14
 -1      1956 5.15271E-03 9.94965E-04-2.72629E-14
 -1      1957 5.66225E-03 1.11145E-03-3.33740E-14
 -1      1958 5.50681E-03 1.08248E-03-3.13624E-14
 -1      1959 5.46621E-03 1.04894E-03-3.11135E-14
 -1      1960 5.96854E-03 1.17152E-03-3.75498E-14
 -1      1961 5.81609E-03 1.14119E-03-3.54374E-14
 -1      1962 5.77353E-03 1.10783E-03-3.51700E-14
 -1      1963 6.26970E-03 1.23294E-03-4.19212E-14
 -1      1964 6.11967E-03 1.20214E-03-3.97105E-14
 -1      1965 6.07577E-03 1.16903E-03-3.94237E-14
 -1      1966 6.56680E-03 1.29450E-03-4.64879E-14
 -1      1967 6.41868E-03 1.26374E-03-4.41803E-14
 -1      1968 6.37390E-03 1.23093E-03-4.38739E-14
 -1      1969 6.86073E-03 1.35551E-03-5.12433E-14
 -1      1970 6.71409E-03 1.32509E-03-4.88424E-14
 -1      1971 6.66879E-03 1.29257E-03-4.85158E-14
 -1      1972 7.15225E-03 1.41566E-03-5.61816E-14
 -1      1973 7.00674E-03 1.38570E-03-5.36896E-14
 -1      1974 6.96114E-03 1.35344E-03-5.33438E-14
 -1      1975 7.44196E-03 1.47479E-03-6.12926E-14
 -1      1976 7.29729E-03 1.44535E-03-5.87161E-14
 -1      1977 7.25156E-03 1.41332E-03-5.83520E-14
 -1      1978 7.73033E-03 1.53290E-03-6.65764E-14
 -1      1979 7.58628E-03 1.50397E-03-6.39140E-14
 -1      1980 7.54052E-03 1.47214E-03-6.35332E-14
 -1      1981 8.01774E-03 1.59007E-03-7.20225E-14
 -1      1982 7.87413E-03 1.56160E-03-6.92790E-14
 -1      1983 7.82841E-03 1.52994E-03-6.88807E-14
 -1      1984 8.30446E-03 1.64639E-03-7.76268E-14
 -1      1985 8.16117E-03 1.61833E-03-7.48041E-14
 -1      1986 8.11551E-03 1.58680E-03-7.43903E-14
 -1      1987 8.59071E-03 1.70198E-03-8.33929E-14
 -1      1988 8.44763E-03 1.67427E-03-8.04920E-14
 -1      1989 8.40206E-03 1.64285E-03-8.00605E-14
 -1      1990 8.87664E-03 1.75695E-03-8.93075E-14
 -1      1991 8.73371E-03 1.72953E-03-8.63296E-14
 -1      1992 8.68822E-03 1.69820E-03-8.58855E-14
 -1      1993 9.16237E-03 1.81140E-03-9.53778E-14
 -1      1994 9.01952E-03 1.78423E-03-9.23239E-14
 -1      1995 8.97411E-03 1.75296E-03-9.18620E-14
 -1      1996 9.44797E-03 1.86545E-03-1.01604E-13
 -1      1997 9.30518E-03 1.83847E-03-9.84720E-14
 -1      1998 9.25985E-03 1.80725E-03-9.79944E-14
 -1      1999 9.73351E-03 1.91917E-03-1.07981E-13
 -1      2000 9.59075E-03 1.89234E-03-1.04773E-13
 -1      2001 9.54548E-03 1.86116E-03-1.04278E-13
 -1      2002 1.00190E-02 1.97263E-03-1.14504E-13
 -1      2003 9.87627E-03 1.94592E-03-1.11225E-13
 -1      2004 9.83105E-03 1.91477E-03-1.10712E-13
 -1      2005 1.03045E-02 2.02589E-03-1.21155E-13
 -1      2006 1.01618E-02 1.99928E-03-1.17815E-13
 -1      2007 1.01166E-02 1.96814E-03-1.17284E-13
 -1      2008 1.05900E-02 2.07900E-03-1.27924E-13
 -1      2009 1.04473E-02 2.05246E-03-1.24525E-13
 -1      2010 1.04021E-02 2.02134E-03-1.23981E-13
 -1      2011 1.08756E-02 2.13201E-03-1.34800E-13
 -1      2012 1.07328E-02 2.10552E-03-1.31348E-13
 -1      2013 1.06877E-02 2.07440E-03-1.30790E-13
 -1      2014 1.11611E-02 2.18493E-03-1.41773E-13
 -1      2015 1.10184E-02 2.15848E-03-1.38277E-13
 -1      2016 1.09733E-02 2.12737E-03-1.37705E-13
 -1      2017 1.14467E-02 2.23780E-03-1.48845E-13
 -1      2018 1.13039E-02 2.21137E-03-1.45297E-13
 -1      2019 1.12589E-02 2.18027E-03-1.44716E-13
 -1      2020 1.17323E-02 2.29062E-03-1.56004E-13
 -1      2021 1.15895E-02 2.26421E-03-1.52411E-13
 -1      2022 1.15445E-02 2.23311E-03-1.51819E-13
 -1      2023 1.20179E-02 2.34343E-03-1.63253E-13
 -1      2024 1.18751E-02 2.31703E-03-1.59619E-13
 -1      2025 1.18301E-02 2.28593E-03-1.59015E-13
 -1      2026 1.23036E-02 2.39621E-03-1.70585E-13
 -1      2027 1.21608E-02 2.36982E-03-1.66908E-13
 -1      2028 1.21157E-02 2.33872E-03-1.66297E-13
 -1      2029 1.25893E-02 2.44899E-03-1.77994E-13
 -1      2030 1.24464E-02 2.42260E-03-1.74280E-13
 -1      2031 1.24014E-02 2.39150E-03-1.73656E-13
 -1      2032 1.28749E-02 2.50176E-03-1.85469E-13
 -1      2033 1.27321E-02 2.47537E-03-1.81723E-13
 -1      2034 1.26871E-02 2.44427E-03-1.81091E-13
 -1      2035 1.31606E-02 2.55453E-03-1.92998E-13
 -1      2036 1.30178E-02 2.52814E-03-1.89229E-13
 -1      2037 1.29727E-02 2.49704E-03-1.88585E-13
 -1      2038 1.34463E-02 2.60730E-03-2.00570E-13
 -1      2039 1.33035E-02 2.58091E-03-1.96779E-13
 -1      2040 1.32584E-02 2.54981E-03-1.96130E-13
 -1      2041 1.37320E-02 2.66007E-03-2.08170E-13
 -1      2042 1.35892E-02 2.63368E-03-2.04368E-13
 -1      2043 1.35441E-02 2.60258E-03-2.03711E-13
 -1      2044 1.40177E-02 2.71284E-03-2.15793E-13
 -1      2045 1.38749E-02 2.68645E-03-2.11979E-13
 -1      2046 1.38298E-02 2.65535E-03-2.11317E-13
 -1      2047 1.43034E-02 2.76562E-03-2.23436E-13
 -1      2048 1.41606E-02 2.73923E-03-2.19612E-13
 -1      2049 1.41155E-02 2.70813E-03-2.18946E-13
 -1      2050 1.45891E-02 2.81840E-03-2.31104E-13
 -1      2051 1.44463E-02 2.79201E-03-2.27267E-13
 -1      2052 1.44012E-02 2.76090E-03-2.26597E-13
 -1      2053 1.48748E-02 2.87118E-03-2.38794E-13
 -1      2054 1.47320E-02 2.84479E-03-2.34946E-13
 -1      2055 1.46870E-02 2.81369E-03-2.34274E-13
 -1      2056 1.51146E-02 2.91311E-03-2.45320E-13
 -1      2057 1.49718E-02 2.88672E-03-2.41464E-13
 -1      2058 1.49268E-02 2.85561E-03-2.40790E-13
 -1      2059 1.51206E-02 2.88669E-03-2.46135E-13
 -1      2060 1.49511E-02 2.64757E-03-2.46458E-13
 -1      2061 1.49771E-02 2.68972E-03-2.46278E-13
 -1      2062 1.50030E-02 2.73186E-03-2.46097E-13
 -1      2063 1.50290E-02 2.77401E-03-2.45920E-13
 -1      2064 1.48663E-02 2.68794E-03-2.42856E-13
 -1      2065 1.50618E-02 2.80928E-03-2.46119E-13
 -1      2066 1.50878E-02 2.85142E-03-2.45937E-13
 -1      2067 1.49908E-02 2.83588E-03-2.43265E-13
 -1      2068 1.49251E-02 2.76535E-03-2.42872E-13
 -1      2069 1.49001E-02 2.56471E-03-2.46815E-13
 -1      2070 1.49256E-02 2.60614E-03-2.46636E-13
 -1      2071 1.48149E-02 2.60436E-03-2.43216E-13
 -1      2072 1.48482E-02 2.48042E-03-2.47180E-13
 -1      2073 1.48741E-02 2.52257E-03-2.46996E-13
 -1      2074 1.47634E-02 2.52078E-03-2.43574E-13
 -1      2075 1.47962E-02 2.39613E-03-2.47549E-13
 -1      2076 1.48222E-02 2.43827E-03-2.47365E-13
 -1      2077 1.47115E-02 2.43649E-03-2.43934E-13
 -1      2078 1.47443E-02 2.31183E-03-2.47918E-13
 -1      2079 1.47703E-02 2.35398E-03-2.47733E-13
 -1      2080 1.46596E-02 2.35220E-03-2.44297E-13
 -1      2081 1.46924E-02 2.22754E-03-2.48277E-13
 -1      2082 1.47184E-02 2.26968E-03-2.48099E-13
 -1      2083 1.46076E-02 2.26790E-03-2.44655E-13
 -1      2084 1.46405E-02 2.14324E-03-2.48626E-13
 -1      2085 1.46665E-02 2.18539E-03-2.48455E-13
 -1      2086 1.45557E-02 2.18361E-03-2.45005E-13
 -1      2087 1.45895E-02 2.06038E-03-2.48958E-13
 -1      2088 1.46150E-02 2.10181E-03-2.48792E-13
 -1      2089 1.45043E-02 2.10003E-03-2.45338E-13
 -1      2090 1.45376E-02 1.97609E-03-2.49279E-13
 -1      2091 1.45635E-02 2.01823E-03-2.49119E-13
 -1      2092 1.44528E-02 2.01645E-03-2.45654E-13
 -1      2093 1.44857E-02 1.89180E-03-2.49589E-13
 -1      2094 1.45116E-02 1.93394E-03-2.49435E-13
 -1      2095 1.44009E-02 1.93216E-03-2.45958E-13
 -1      2096 1.44338E-02 1.80751E-03-2.49885E-13
 -1      2097 1.44597E-02 1.84965E-03-2.49741E-13
 -1      2098 1.43490E-02 1.84787E-03-2.46253E-13
 -1      2099 3.76084E-03 4.62104E-04-9.24013E-15
 -1      2100 3.89712E-03 4.21794E-04-9.65521E-15
 -1      2101 4.11998E-03 3.64847E-04-1.02911E-14
 -1      2102 4.10892E-03 3.60219E-04-1.03586E-14
 -1      2103 4.03194E-03 3.85983E-04-1.01701E-14
 -1      2104 4.09473E-03 3.75608E-04-1.02270E-14
 -1      2105 4.12042E-03 3.73530E-04-1.10556E-14
 -1      2106 3.41897E-03 5.86968E-04-8.34986E-15
 -1      2107 3.58060E-03 5.21710E-04-8.83770E-15
 -1      2108 3.05648E-03 7.40410E-04-7.40716E-15
 -1      2109 3.23914E-03 6.60669E-04-7.86907E-15
 -1      2110 3.32243E-03 6.18459E-04-8.59088E-15
 -1      2111 3.96655E-04-1.02920E-04-3.88375E-16
 -1      2112 3.98134E-04-1.30976E-04-3.86572E-16
 -1      2113 5.40067E-04-1.97426E-04-5.71605E-16
 -1      2114 5.38825E-04-1.29766E-04-5.75101E-16
 -1      2115 2.33080E-03 9.96232E-04-4.89902E-15
 -1      2116 2.47418E-03 9.67663E-04-5.40025E-15
 -1      2117 2.03559E-03 9.83607E-04-3.90942E-15
 -1      2118 2.17708E-03 1.00208E-03-4.38904E-15
 -1      2119 2.26047E-03 1.01455E-03-4.70530E-15
 -1      2120 1.66928E-03 8.28992E-04-2.89574E-15
 -1      2121 1.82934E-03 9.11323E-04-3.30381E-15
 -1      2122 1.34266E-03 6.25283E-04-2.16843E-15
 -1      2123 1.50602E-03 7.34289E-04-2.51326E-15
 -1      2124 9.56268E-04 3.81882E-04-1.53961E-15
 -1      2125 1.12909E-03 4.87430E-04-1.78883E-15
 -1      2126 6.07414E-04 2.06318E-04-1.13088E-15
 -1      2127 7.62145E-04 2.80218E-04-1.30812E-15
 -1      2128 3.37526E-04 1.06649E-04-8.50807E-16
 -1      2129 4.53093E-04 1.42851E-04-9.66268E-16
 -1      2130 1.73461E-04 6.73777E-05-6.65356E-16
 -1      2131 2.43962E-04 8.09871E-05-7.51061E-16
 -1      2132 2.99056E-04 6.87450E-05-7.18250E-16
 -1      2133 8.97374E-05 7.77914E-05-5.93640E-16
 -1      2134 1.11716E-04 6.66680E-05-6.02672E-16
 -1      2135 1.15034E-04 9.94166E-05-5.92813E-16
 -1      2136 9.08471E-05 8.69148E-05-5.86804E-16
 -1      2137 8.90898E-05 7.50914E-05-5.09822E-16
 -1      2138 2.44151E-04 1.09147E-04-7.31813E-16
 -1      2139 1.70195E-04 1.07975E-04-6.51558E-16
 -1      2140 4.68166E-04 6.74690E-05-1.02774E-15
 -1      2141 3.61629E-04 9.38468E-05-8.70750E-16
 -1      2142 7.07243E-04-9.49933E-06-1.37967E-15
 -1      2143 5.80174E-04 3.36138E-05-1.19254E-15
 -1      2144 5.31904E-04 6.37119E-05-1.01268E-15
 -1      2145 1.01928E-03-1.35210E-04-1.90742E-15
 -1      2146 8.75216E-04-7.25152E-05-1.64469E-15
 -1      2147 1.33913E-03-2.77017E-04-2.61932E-15
 -1      2148 1.18949E-03-2.10521E-04-2.27062E-15
 -1      2149 1.64640E-03-3.86236E-04-3.46107E-15
 -1      2150 1.50194E-03-3.38950E-04-3.04043E-15
 -1      2151 1.97227E-03-4.25525E-04-4.56154E-15
 -1      2152 1.83255E-03-4.22018E-04-4.06809E-15
 -1      2153 2.27885E-03-3.63024E-04-5.67959E-15
 -1      2154 2.12645E-03-4.06543E-04-5.10524E-15
 -1      2155 2.03583E-03-4.26331E-04-4.92447E-15
 -1      2156 2.67660E-03-1.95192E-04-7.01643E-15
 -1      2157 2.49875E-03-2.78276E-04-6.47152E-15
 -1      2158 3.06829E-03-1.12184E-05-8.06938E-15
 -1      2159 2.88454E-03-1.01077E-04-7.56970E-15
 -1      2160 3.46018E-03 1.59780E-04-9.02825E-15
 -1      2161 3.28206E-03 8.53233E-05-8.61908E-15
 -1      2162 3.79912E-03 2.79028E-04-9.76198E-15
 -1      2163 3.64627E-03 2.27016E-04-9.39779E-15
 -1      2164 4.04837E-03 3.43759E-04-1.02540E-14
 -1      2165 3.95471E-03 3.26303E-04-1.01447E-14
 -1      2166 2.64161E-03 9.18280E-04-5.96750E-15
 -1      2167 2.81097E-03 8.47782E-04-6.56224E-15
 -1      2168 2.54467E-03 9.56485E-04-5.79124E-15
 -1      2169 7.42933E-05 5.25425E-05-2.40578E-16
 -1      2170 9.79444E-05 8.25544E-05-3.54961E-16
 -1      2171 7.60857E-05 2.78165E-05-2.39155E-16
 -1      2172 2.92723E-03 7.99949E-04-7.21156E-15
 -1      2173 7.02774E-04-4.07079E-04-6.61702E-16
 -1      2174 7.72330E-04-4.08100E-04-8.68636E-16
 -1      2175 5.31763E-04-3.20146E-04-4.12146E-16
 -1      2176 3.18185E-04-2.01399E-04-2.01702E-16
 -1      2177 3.98046E-03 3.95182E-04-1.04494E-14
 -1      2178 4.04863E-03 3.87672E-04-1.12652E-14
 -1      2179 3.92399E-03 4.09364E-04-1.07262E-14
 -1      2180 3.66362E-03 4.86087E-04-9.51020E-15
 -1      2181 1.43713E-02 1.76604E-03-2.48842E-13
 -1      2182 4.09015E-03 3.65650E-04-1.10176E-14
 -1      2183 3.87948E-03 3.22173E-04-1.05153E-14
 -1      2184 3.53835E-03 2.15714E-04-9.74116E-15
 -1      2185 3.15466E-03 5.55550E-05-8.78740E-15
 -1      2186 2.37077E-03-3.25001E-04-6.26230E-15
 -1      2187 1.74006E-03-4.15353E-04-3.76611E-15
 -1      2188 1.42149E-03-3.11736E-04-2.76127E-15
 -1      2189 7.96595E-04-2.99668E-05-1.40816E-15
 -1      2190 1.39489E-04 1.06557E-04-5.53340E-16
 -1      2191 1.40891E-04 5.16512E-05-5.70087E-16
 -1      2192 5.36710E-04 1.48374E-04-9.55799E-16
 -1      2193 8.68915E-04 3.10846E-04-1.31778E-15
 -1      2194 1.25096E-03 5.50966E-04-1.88287E-15
 -1      2195 1.86529E-03 9.31217E-04-3.27342E-15
 -1      2196 1.94542E-03 9.63500E-04-3.58435E-15
 -1      2197 2.04076E-03 9.99105E-04-3.86748E-15
 -1      2198 1.60266E-03 7.84929E-04-2.62244E-15
 -1      2199 3.04377E-04 1.10495E-04-7.29953E-16
 -1      2200 1.11222E-03-1.70608E-04-2.00012E-15
 -1      2201 2.75796E-03-1.37955E-04-7.65120E-15
 -1      2202 4.55654E-04-2.71027E-04-3.45169E-16
 -1      2203 5.32943E-04 3.50022E-05-6.75702E-16
 -1      2204 5.88111E-04-1.12980E-05-7.07103E-16
 -1      2205 6.32472E-04-6.19435E-05-7.48452E-16
 -1      2206 6.53369E-04-1.07386E-04-7.67940E-16
 -1      2207 9.76087E-05 2.64099E-05-3.25423E-16
 -1      2208 4.88871E-04 8.51914E-05-5.04791E-16
 -1      2209 4.00866E-04 4.50718E-05-4.94112E-16
 -1      2210 7.24501E-04 3.22665E-04-4.80369E-16
 -1      2211 6.86211E-04 2.64932E-04-5.10266E-16
 -1      2212 8.46564E-04 4.34797E-04-5.12042E-16
 -1      2213 7.79594E-04 3.74654E-04-4.96050E-16
 -1      2214 9.35473E-04 4.45062E-04-7.39643E-16
 -1      2215 1.05249E-03 5.55557E-04-7.79975E-16
 -1      2216 1.06913E-03-4.99517E-04-1.63544E-15
 -1      2217 1.23304E-03-5.48888E-04-2.14864E-15
 -1      2218 1.45346E-03 7.96066E-04-1.52882E-15
 -1      2219 1.25543E-03 6.77608E-04-1.11784E-15
 -1      2220 1.19730E-03 6.23077E-04-1.09244E-15
 -1      2221 1.83079E-03 1.00069E-03-2.58147E-15
 -1      2222 1.64474E-03 9.06050E-04-2.01597E-15
 -1      2223 1.59338E-03 8.59862E-04-1.97296E-15
 -1      2224 1.39368E-03-5.87524E-04-2.73795E-15
 -1      2225 1.55221E-03-6.14060E-04-3.40481E-15
 -1      2226 1.31319E-03-5.34653E-04-2.48334E-15
 -1      2227 1.70808E-03-6.28526E-04-4.14871E-15
 -1      2228 1.86310E-03-6.30339E-04-4.96951E-15
 -1      2229 1.63415E-03-5.89613E-04-3.82521E-15
 -1      2230 2.01704E-03-6.20280E-04-5.86629E-15
 -1      2231 2.17150E-03-5.99342E-04-6.83823E-15
 -1      2232 1.94853E-03-5.93146E-04-5.47437E-15
 -1      2233 2.32628E-03-5.69089E-04-7.88352E-15
 -1      2234 2.48223E-03-5.31491E-04-9.00128E-15
 -1      2235 2.26251E-03-5.48764E-04-7.42567E-15
 -1      2236 2.63914E-03-4.88438E-04-1.01887E-14
 -1      2237 2.79689E-03-4.42023E-04-1.14454E-14
 -1      2238 2.58032E-03-4.70127E-04-9.66745E-15
 -1      2239 2.95539E-03-3.93913E-04-1.27685E-14
 -1      2240 3.11397E-03-3.45590E-04-1.41568E-14
 -1      2241 2.90187E-03-3.74703E-04-1.21861E-14
 -1      2242 3.27269E-03-2.98192E-04-1.56079E-14
 -1      2243 3.43078E-03-2.52445E-04-1.71202E-14
 -1      2244 3.22407E-03-2.77126E-04-1.49660E-14
 -1      2245 3.58847E-03-2.08938E-04-1.86921E-14
 -1      2246 3.74512E-03-1.67836E-04-2.03223E-14
 -1      2247 3.54357E-03-1.86137E-04-1.79922E-14
 -1      2248 3.90103E-03-1.29305E-04-2.20094E-14
 -1      2249 4.05577E-03-9.32042E-05-2.37524E-14
 -1      2250 3.85834E-03-1.05214E-04-2.12524E-14
 -1      2251 4.20964E-03-5.94376E-05-2.55491E-14
 -1      2252 4.36240E-03-2.77472E-05-2.73977E-14
 -1      2253 4.16777E-03-3.44816E-05-2.47361E-14
 -1      2254 4.51429E-03 2.08934E-06-2.92981E-14
 -1      2255 4.66521E-03 3.03404E-05-3.12506E-14
 -1      2256 4.47222E-03 2.75876E-05-2.84311E-14
 -1      2257 4.81533E-03 5.72613E-05-3.32535E-14
 -1      2258 4.96463E-03 8.30842E-05-3.53054E-14
 -1      2259 4.77244E-03 8.30663E-05-3.23314E-14
 -1      2260 5.11323E-03 1.08044E-04-3.74061E-14
 -1      2261 5.26118E-03 1.32323E-04-3.95551E-14
 -1      2262 5.06926E-03 1.33980E-04-3.64321E-14
 -1      2263 5.40851E-03 1.56111E-04-4.17520E-14
 -1      2264 5.55532E-03 1.79542E-04-4.39947E-14
 -1      2265 5.36341E-03 1.82047E-04-4.07252E-14
 -1      2266 5.70163E-03 2.02757E-04-4.62852E-14
 -1      2267 5.84751E-03 2.25848E-04-4.86242E-14
 -1      2268 5.65550E-03 2.28598E-04-4.52083E-14
 -1      2269 5.99298E-03 2.48911E-04-5.10077E-14
 -1      2270 6.13811E-03 2.72006E-04-5.34374E-14
 -1      2271 5.94599E-03 2.74593E-04-4.98783E-14
 -1      2272 6.28291E-03 2.95191E-04-5.59147E-14
 -1      2273 6.42746E-03 3.18503E-04-5.84375E-14
 -1      2274 6.23526E-03 3.20677E-04-5.47345E-14
 -1      2275 6.57173E-03 3.41972E-04-6.10049E-14
 -1      2276 6.71581E-03 3.65618E-04-6.36187E-14
 -1      2277 6.52358E-03 3.67246E-04-5.97744E-14
 -1      2278 6.85968E-03 3.89451E-04-6.62780E-14
 -1      2279 7.00340E-03 4.13480E-04-6.89786E-14
 -1      2280 6.81118E-03 4.14514E-04-6.49964E-14
 -1      2281 7.14697E-03 4.37701E-04-7.17240E-14
 -1      2282 7.29041E-03 4.62118E-04-7.45115E-14
 -1      2283 7.09824E-03 4.62565E-04-7.03947E-14
 -1      2284 7.43374E-03 4.86717E-04-7.73403E-14
 -1      2285 7.57699E-03 5.11496E-04-8.02101E-14
 -1      2286 7.38488E-03 5.11400E-04-7.59626E-14
 -1      2287 7.72015E-03 5.36441E-04-8.31190E-14
 -1      2288 7.86324E-03 5.61546E-04-8.60664E-14
 -1      2289 7.67122E-03 5.60968E-04-8.16951E-14
 -1      2290 8.00628E-03 5.86795E-04-8.90537E-14
 -1      2291 8.14927E-03 6.12181E-04-9.20790E-14
 -1      2292 7.95734E-03 6.11187E-04-8.75857E-14
 -1      2293 8.29222E-03 6.37687E-04-9.51398E-14
 -1      2294 8.43515E-03 6.63308E-04-9.82382E-14
 -1      2295 8.24329E-03 6.61968E-04-9.36261E-14
 -1      2296 8.57804E-03 6.89029E-04-1.01373E-13
 -1      2297 8.72091E-03 7.14842E-04-1.04543E-13
 -1      2298 8.52914E-03 7.13218E-04-9.98140E-14
 -1      2299 8.86377E-03 7.40735E-04-1.07750E-13
 -1      2300 9.00661E-03 7.66702E-04-1.10991E-13
 -1      2301 8.81490E-03 7.64852E-04-1.06148E-13
 -1      2302 9.14945E-03 7.92731E-04-1.14264E-13
 -1      2303 9.29227E-03 8.18819E-04-1.17571E-13
 -1      2304 9.10062E-03 8.16792E-04-1.12621E-13
 -1      2305 9.43509E-03 8.44955E-04-1.20908E-13
 -1      2306 9.57791E-03 8.71135E-04-1.24279E-13
 -1      2307 9.38631E-03 8.68972E-04-1.19225E-13
 -1      2308 9.72073E-03 8.97351E-04-1.27676E-13
 -1      2309 9.86354E-03 9.23601E-04-1.31099E-13
 -1      2310 9.67199E-03 9.21336E-04-1.25954E-13
 -1      2311 1.00064E-02 9.49878E-04-1.34550E-13
 -1      2312 1.01492E-02 9.76179E-04-1.38025E-13
 -1      2313 9.95765E-03 9.73839E-04-1.32795E-13
 -1      2314 1.02920E-02 1.00250E-03-1.41525E-13
 -1      2315 1.04348E-02 1.02884E-03-1.45049E-13
 -1      2316 1.02433E-02 1.02644E-03-1.39739E-13
 -1      2317 1.05776E-02 1.05519E-03-1.48593E-13
 -1      2318 1.07205E-02 1.08156E-03-1.52160E-13
 -1      2319 1.05290E-02 1.07912E-03-1.46779E-13
 -1      2320 1.08633E-02 1.10793E-03-1.55747E-13
 -1      2321 1.10061E-02 1.13431E-03-1.59353E-13
 -1      2322 1.08147E-02 1.13185E-03-1.53906E-13
 -1      2323 1.11489E-02 1.16070E-03-1.62979E-13
 -1      2324 1.12918E-02 1.18709E-03-1.66623E-13
 -1      2325 1.11003E-02 1.18462E-03-1.61116E-13
 -1      2326 1.14346E-02 1.21349E-03-1.70283E-13
 -1      2327 1.15775E-02 1.23989E-03-1.73961E-13
 -1      2328 1.13860E-02 1.23740E-03-1.68400E-13
 -1      2329 1.17203E-02 1.26629E-03-1.77658E-13
 -1      2330 1.18631E-02 1.29270E-03-1.81371E-13
 -1      2331 1.16717E-02 1.29021E-03-1.75753E-13
 -1      2332 1.20060E-02 1.31910E-03-1.85099E-13
 -1      2333 1.21488E-02 1.34551E-03-1.88843E-13
 -1      2334 1.19574E-02 1.34302E-03-1.83174E-13
 -1      2335 1.22917E-02 1.37192E-03-1.92607E-13
 -1      2336 1.24345E-02 1.39832E-03-1.96391E-13
 -1      2337 1.22431E-02 1.39583E-03-1.90662E-13
 -1      2338 1.25774E-02 1.42473E-03-2.00192E-13
 -1      2339 1.27202E-02 1.45114E-03-2.04008E-13
 -1      2340 1.25288E-02 1.44864E-03-1.98221E-13
 -1      2341 1.28631E-02 1.47754E-03-2.07839E-13
 -1      2342 1.30059E-02 1.50395E-03-2.11690E-13
 -1      2343 1.28145E-02 1.50145E-03-2.05849E-13
 -1      2344 1.31488E-02 1.53035E-03-2.15553E-13
 -1      2345 1.32916E-02 1.55675E-03-2.19427E-13
 -1      2346 1.31002E-02 1.55426E-03-2.13537E-13
 -1      2347 1.34345E-02 1.58315E-03-2.23317E-13
 -1      2348 1.35773E-02 1.60956E-03-2.27216E-13
 -1      2349 1.33859E-02 1.60707E-03-2.21281E-13
 -1      2350 1.37202E-02 1.63596E-03-2.31127E-13
 -1      2351 1.38630E-02 1.66236E-03-2.35048E-13
 -1      2352 1.36716E-02 1.65987E-03-2.29070E-13
 -1      2353 2.47401E-03 1.12639E-03-5.39164E-15
 -1      2354 2.29660E-03 1.12425E-03-4.52566E-15
 -1      2355 2.83399E-03 1.07174E-03-7.36103E-15
 -1      2356 2.65225E-03 1.10611E-03-6.33670E-15
 -1      2357 2.55855E-03 1.07988E-03-5.96069E-15
 -1      2358 3.20194E-03 9.86364E-04-9.62708E-15
 -1      2359 3.01818E-03 1.02960E-03-8.45783E-15
 -1      2360 2.93403E-03 1.00116E-03-8.02754E-15
 -1      2361 3.56679E-03 9.13494E-04-1.21692E-14
 -1      2362 3.38577E-03 9.46628E-04-1.08651E-14
 -1      2363 3.31213E-03 9.10887E-04-1.03862E-14
 -1      2364 3.92106E-03 8.72302E-04-1.49631E-14
 -1      2365 3.74593E-03 8.88732E-04-1.35358E-14
 -1      2366 3.67877E-03 8.46557E-04-1.30102E-14
 -1      2367 4.26242E-03 8.63901E-04-1.79927E-14
 -1      2368 4.09358E-03 8.64414E-04-1.64495E-14
 -1      2369 4.02791E-03 8.18247E-04-1.58783E-14
 -1      2370 4.59214E-03 8.81955E-04-2.12502E-14
 -1      2371 4.42872E-03 8.70139E-04-1.95935E-14
 -1      2372 4.36053E-03 8.21433E-04-1.89763E-14
 -1      2373 4.91243E-03 9.18825E-04-2.47286E-14
 -1      2374 4.75336E-03 8.98484E-04-2.29619E-14
 -1      2375 4.68061E-03 8.47984E-04-2.22963E-14
 -1      2376 5.22527E-03 9.67920E-04-2.84221E-14
 -1      2377 5.06967E-03 9.42180E-04-2.65489E-14
 -1      2378 4.99188E-03 8.90424E-04-2.58347E-14
 -1      2379 5.53218E-03 1.02430E-03-3.23266E-14
 -1      2380 5.37936E-03 9.95435E-04-3.03484E-14
 -1      2381 5.29698E-03 9.42888E-04-2.95853E-14
 -1      2382 5.83432E-03 1.08454E-03-3.64332E-14
 -1      2383 5.68375E-03 1.05410E-03-3.43549E-14
 -1      2384 5.59760E-03 1.00115E-03-3.35417E-14
 -1      2385 6.13264E-03 1.14644E-03-4.07378E-14
 -1      2386 5.98388E-03 1.11539E-03-3.85616E-14
 -1      2387 5.89485E-03 1.06234E-03-3.76998E-14
 -1      2388 6.42790E-03 1.20862E-03-4.52349E-14
 -1      2389 6.28059E-03 1.17756E-03-4.29619E-14
 -1      2390 6.18946E-03 1.12462E-03-4.20527E-14
 -1      2391 6.72072E-03 1.27030E-03-4.99249E-14
 -1      2392 6.57456E-03 1.23956E-03-4.75573E-14
 -1      2393 6.48197E-03 1.18686E-03-4.65988E-14
 -1      2394 7.01164E-03 1.33109E-03-5.47981E-14
 -1      2395 6.86637E-03 1.30083E-03-5.23381E-14
 -1      2396 6.77282E-03 1.24842E-03-5.13351E-14
 -1      2397 7.30108E-03 1.39081E-03-5.98490E-14
 -1      2398 7.15651E-03 1.36110E-03-5.73025E-14
 -1      2399 7.06233E-03 1.30900E-03-5.62529E-14
 -1      2400 7.58941E-03 1.44945E-03-6.50727E-14
 -1      2401 7.44536E-03 1.42027E-03-6.24401E-14
 -1      2402 7.35081E-03 1.36847E-03-6.13481E-14
 -1      2403 7.87690E-03 1.50706E-03-7.04619E-14
 -1      2404 7.73324E-03 1.47838E-03-6.77465E-14
 -1      2405 7.63850E-03 1.42686E-03-6.66136E-14
 -1      2406 8.16377E-03 1.56375E-03-7.60120E-14
 -1      2407 8.02040E-03 1.53551E-03-7.32179E-14
 -1      2408 7.92557E-03 1.48424E-03-7.20442E-14
 -1      2409 8.45020E-03 1.61963E-03-8.17226E-14
 -1      2410 8.30703E-03 1.59178E-03-7.88462E-14
 -1      2411 8.21219E-03 1.54072E-03-7.76370E-14
 -1      2412 8.73632E-03 1.67484E-03-8.75835E-14
 -1      2413 8.59329E-03 1.64731E-03-8.46344E-14
 -1      2414 8.49848E-03 1.59642E-03-8.33824E-14
 -1      2415 9.02223E-03 1.72948E-03-9.36009E-14
 -1      2416 8.87929E-03 1.70222E-03-9.05734E-14
 -1      2417 8.78453E-03 1.65147E-03-8.92848E-14
 -1      2418 9.30799E-03 1.78367E-03-9.97687E-14
 -1      2419 9.16512E-03 1.75663E-03-9.66648E-14
 -1      2420 9.07042E-03 1.70599E-03-9.53390E-14
 -1      2421 9.59367E-03 1.83750E-03-1.06088E-13
 -1      2422 9.45084E-03 1.81063E-03-1.02910E-13
 -1      2423 9.35620E-03 1.76008E-03-1.01544E-13
 -1      2424 9.87930E-03 1.89104E-03-1.12552E-13
 -1      2425 9.73649E-03 1.86430E-03-1.09303E-13
 -1      2426 9.64191E-03 1.81382E-03-1.07897E-13
 -1      2427 1.01649E-02 1.94436E-03-1.19152E-13
 -1      2428 1.00221E-02 1.91773E-03-1.15836E-13
 -1      2429 9.92758E-03 1.86730E-03-1.14392E-13
 -1      2430 1.04505E-02 1.99752E-03-1.25875E-13
 -1      2431 1.03077E-02 1.97096E-03-1.22500E-13
 -1      2432 1.02132E-02 1.92057E-03-1.21020E-13
 -1      2433 1.07361E-02 2.05055E-03-1.32708E-13
 -1      2434 1.05933E-02 2.02405E-03-1.29278E-13
 -1      2435 1.04989E-02 1.97369E-03-1.27769E-13
 -1      2436 1.10217E-02 2.10350E-03-1.39644E-13
 -1      2437 1.08789E-02 2.07704E-03-1.36165E-13
 -1      2438 1.07845E-02 2.02670E-03-1.34626E-13
 -1      2439 1.13073E-02 2.15638E-03-1.46679E-13
 -1      2440 1.11645E-02 2.12994E-03-1.43149E-13
 -1      2441 1.10701E-02 2.07962E-03-1.41586E-13
 -1      2442 1.15930E-02 2.20921E-03-1.53803E-13
 -1      2443 1.14501E-02 2.18280E-03-1.50231E-13
 -1      2444 1.13558E-02 2.13248E-03-1.48641E-13
 -1      2445 1.18786E-02 2.26202E-03-1.61019E-13
 -1      2446 1.17358E-02 2.23562E-03-1.57399E-13
 -1      2447 1.16414E-02 2.18531E-03-1.55787E-13
 -1      2448 1.21643E-02 2.31481E-03-1.68318E-13
 -1      2449 1.20214E-02 2.28841E-03-1.64659E-13
 -1      2450 1.19271E-02 2.23811E-03-1.63021E-13
 -1      2451 1.24499E-02 2.36758E-03-1.75696E-13
 -1      2452 1.23071E-02 2.34119E-03-1.71998E-13
 -1      2453 1.22128E-02 2.29089E-03-1.70338E-13
 -1      2454 1.27356E-02 2.42035E-03-1.83139E-13
 -1      2455 1.25928E-02 2.39397E-03-1.79408E-13
 -1      2456 1.24985E-02 2.34366E-03-1.77730E-13
 -1      2457 1.30213E-02 2.47312E-03-1.90645E-13
 -1      2458 1.28785E-02 2.44674E-03-1.86887E-13
 -1      2459 1.27842E-02 2.39643E-03-1.85188E-13
 -1      2460 1.33070E-02 2.52589E-03-1.98196E-13
 -1      2461 1.31641E-02 2.49950E-03-1.94417E-13
 -1      2462 1.30699E-02 2.44920E-03-1.92704E-13
 -1      2463 1.35927E-02 2.57866E-03-2.05780E-13
 -1      2464 1.34498E-02 2.55227E-03-2.01984E-13
 -1      2465 1.33556E-02 2.50197E-03-2.00260E-13
 -1      2466 1.38784E-02 2.63143E-03-2.13387E-13
 -1      2467 1.37355E-02 2.60504E-03-2.09580E-13
 -1      2468 1.36413E-02 2.55474E-03-2.07846E-13
 -1      2469 1.41641E-02 2.68421E-03-2.21020E-13
 -1      2470 1.40213E-02 2.65782E-03-2.17202E-13
 -1      2471 1.39270E-02 2.60751E-03-2.15458E-13
 -1      2472 1.44498E-02 2.73698E-03-2.28679E-13
 -1      2473 1.43070E-02 2.71059E-03-2.24847E-13
 -1      2474 1.42127E-02 2.66029E-03-2.23099E-13
 -1      2475 1.47355E-02 2.78977E-03-2.36359E-13
 -1      2476 1.45927E-02 2.76338E-03-2.32514E-13
 -1      2477 1.44984E-02 2.71307E-03-2.30759E-13
 -1      2478 1.48939E-02 2.82035E-03-2.40594E-13
 -1      2479 1.46267E-02 2.47685E-03-2.40328E-13
 -1      2480 1.46526E-02 2.51900E-03-2.40150E-13
 -1      2481 1.45748E-02 2.39256E-03-2.40686E-13
 -1      2482 1.46007E-02 2.43471E-03-2.40506E-13
 -1      2483 1.44900E-02 2.43292E-03-2.37085E-13
 -1      2484 1.47296E-02 2.64401E-03-2.39614E-13
 -1      2485 1.47556E-02 2.68615E-03-2.39432E-13
 -1      2486 1.46784E-02 2.56079E-03-2.39973E-13
 -1      2487 1.47039E-02 2.60222E-03-2.39794E-13
 -1      2488 1.45932E-02 2.60044E-03-2.36373E-13
 -1      2489 1.45417E-02 2.51686E-03-2.36729E-13
 -1      2490 1.45229E-02 2.30826E-03-2.41040E-13
 -1      2491 1.45488E-02 2.35041E-03-2.40864E-13
 -1      2492 1.44381E-02 2.34863E-03-2.37437E-13
 -1      2493 1.44709E-02 2.22397E-03-2.41389E-13
 -1      2494 1.44969E-02 2.26612E-03-2.41216E-13
 -1      2495 1.43862E-02 2.26433E-03-2.37784E-13
 -1      2496 1.44190E-02 2.13967E-03-2.41727E-13
 -1      2497 1.44450E-02 2.18182E-03-2.41559E-13
 -1      2498 1.43343E-02 2.18004E-03-2.38121E-13
 -1      2499 1.43680E-02 2.05681E-03-2.42042E-13
 -1      2500 1.43935E-02 2.09824E-03-2.41886E-13
 -1      2501 1.42828E-02 2.09645E-03-2.38440E-13
 -1      2502 1.43161E-02 1.97251E-03-2.42345E-13
 -1      2503 1.43421E-02 2.01466E-03-2.42198E-13
 -1      2504 1.42313E-02 2.01287E-03-2.38747E-13
 -1      2505 1.42642E-02 1.88822E-03-2.42639E-13
 -1      2506 1.42902E-02 1.93037E-03-2.42494E-13
 -1      2507 1.41794E-02 1.92858E-03-2.39038E-13
 -1      2508 1.42123E-02 1.80393E-03-2.42917E-13
 -1      2509 1.42382E-02 1.84608E-03-2.42776E-13
 -1      2510 1.41275E-02 1.84429E-03-2.39315E-13
 -1      2511 3.60571E-03 5.09709E-04-9.88764E-15
 -1      2512 3.76493E-03 4.55140E-04-1.03212E-14
 -1      2513 1.42443E-02 1.74406E-03-2.45299E-13
 -1      2514 4.12568E-03 3.77411E-04-1.18751E-14
 -1      2515 4.06819E-03 3.74112E-04-1.17660E-14
 -1      2516 2.15424E-03 1.10865E-03-3.84764E-15
 -1      2517 1.97612E-03 1.05686E-03-3.13177E-15
 -1      2518 1.93226E-03 1.02341E-03-3.06997E-15
 -1      2519 2.22674E-03 1.09237E-03-4.32678E-15
 -1      2520 4.12444E-03 3.80430E-04-1.18209E-14
 -1      2521 4.14353E-03 3.80792E-04-1.18947E-14
 -1      2522 3.27231E-03 6.53916E-04-8.89768E-15
 -1      2523 3.42429E-03 5.85379E-04-9.41472E-15
 -1      2524 2.48501E-03 9.89423E-04-5.65498E-15
 -1      2525 2.62303E-03 9.40878E-04-6.23573E-15
 -1      2526 3.94669E-03 3.50260E-04-1.13433E-14
 -1      2527 3.79750E-03 3.15425E-04-1.09418E-14
 -1      2528 1.78764E-03-4.35615E-04-4.00447E-15
 -1      2529 1.63755E-03-4.00951E-04-3.41329E-15
 -1      2530 1.65960E-04 1.14520E-04-4.91140E-16
 -1      2531 1.16358E-04 9.79418E-05-4.44943E-16
 -1      2532 4.93090E-04 9.81273E-05-7.48994E-16
 -1      2533 6.28654E-04 1.56959E-04-8.78393E-16
 -1      2534 2.48731E-04 1.20289E-04-5.27613E-16
 -1      2535 6.41910E-04 2.04929E-04-5.28657E-16
 -1      2536 5.82908E-04 1.47674E-04-5.36097E-16
 -1      2537 8.33411E-04 3.24457E-04-7.40293E-16
 -1      2538 3.78819E-04 1.03415E-04-6.03209E-16
 -1      2539 4.61182E-04 7.60145E-05-6.40154E-16
 -1      2540 8.97955E-05 7.58980E-05-4.13962E-16
 -1      2541 1.55166E-03 7.48417E-04-2.37557E-15
 -1      2542 1.68998E-03 8.39475E-04-2.73731E-15
 -1      2543 2.21771E-03 1.02799E-03-4.53866E-15
 -1      2544 2.33994E-03 1.01983E-03-5.05553E-15
 -1      2545 1.16954E-03 4.83771E-04-1.59909E-15
 -1      2546 1.35686E-03 6.15833E-04-1.94206E-15
 -1      2547 8.06507E-04 2.56410E-04-1.11059E-15
 -1      2548 9.73088E-04 3.55286E-04-1.30648E-15
 -1      2549 1.07359E-03 4.23413E-04-1.35371E-15
 -1      2550 7.12892E-04 1.97924E-04-8.67091E-16
 -1      2551 2.60052E-04 3.84237E-05-5.85605E-16
 -1      2552 3.46619E-04 5.68770E-05-6.65761E-16
 -1      2553 8.84273E-05 5.69157E-05-4.19932E-16
 -1      2554 1.19207E-03-2.11658E-04-2.09805E-15
 -1      2555 1.04330E-03-1.38046E-04-1.76057E-15
 -1      2556 5.75093E-04 5.69164E-05-9.78330E-16
 -1      2557 4.73589E-04 8.58377E-05-8.38068E-16
 -1      2558 2.85335E-03-7.59583E-05-8.48456E-15
 -1      2559 2.68127E-03-1.68521E-04-7.89433E-15
 -1      2560 8.59887E-04-5.37938E-05-1.41038E-15
 -1      2561 7.14884E-04 7.24692E-06-1.17933E-15
 -1      2562 1.48260E-03-3.46808E-04-2.89471E-15
 -1      2563 1.34857E-03-2.85693E-04-2.49478E-15
 -1      2564 2.08913E-03-4.20490E-04-5.30958E-15
 -1      2565 1.96604E-03-4.40550E-04-4.75930E-15
 -1      2566 2.44588E-03-2.85861E-04-6.87081E-15
 -1      2567 2.26049E-03-3.68995E-04-6.05817E-15
 -1      2568 3.22425E-03 1.05943E-04-9.63308E-15
 -1      2569 3.03528E-03 1.49410E-05-9.05028E-15
 -1      2570 2.95314E-03-2.82479E-05-9.29759E-15
 -1      2571 3.62514E-03 2.63813E-04-1.06175E-14
 -1      2572 3.45682E-03 2.03345E-04-1.02201E-14
 -1      2573 6.93663E-04-3.35552E-04-7.84474E-16
 -1      2574 9.16802E-04-4.36568E-04-1.24640E-15
 -1      2575 9.97627E-04-4.31485E-04-1.49764E-15
 -1      2576 6.91553E-04-2.98731E-04-8.14290E-16
 -1      2577 2.81773E-03 8.62450E-04-7.05222E-15
 -1      2578 3.03321E-03 7.61276E-04-7.92812E-15
 -1      2579 1.19986E-04 2.99969E-05-4.18394E-16
 -1      2580 1.78091E-04 2.00425E-05-4.65296E-16
 -1      2581 7.34656E-04-6.99852E-05-9.50656E-16
 -1      2582 7.88413E-04-1.69988E-04-1.01962E-15
 -1      2583 6.62468E-04-1.50046E-04-7.80246E-16
 -1      2584 6.65636E-04-1.89624E-04-7.86507E-16
 -1      2585 6.71983E-04 1.80512E-04-7.17362E-16
 -1      2586 6.01964E-04 3.36906E-05-8.52766E-16
 -1      2587 2.92350E-04 1.28401E-05-4.38445E-16
 -1      2588 2.05963E-04 7.91867E-06-4.20508E-16
 -1      2589 4.10614E-03 3.88587E-04-1.20978E-14
 -1      2590 4.15402E-03 3.96325E-04-1.29487E-14
 -1      2591 4.08060E-03 3.99738E-04-1.23746E-14
 -1      2592 2.43125E-03 1.01665E-03-5.46221E-15
 -1      2593 3.87610E-03 4.34065E-04-1.11183E-14
 -1      2594 4.02016E-03 3.69940E-04-1.21991E-14
 -1      2595 1.47996E-02 2.77004E-03-2.38830E-13
 -1      2596 1.47668E-02 2.73477E-03-2.38635E-13
 -1      2597 3.55267E-03 5.50750E-04-1.02072E-14
 -1      2598 1.40861E-02 1.70135E-03-2.41237E-13
 -1      2599 1.41648E-02 1.76301E-03-2.42340E-13
 -1      2600 1.40541E-02 1.76122E-03-2.38868E-13
 -1      2601 1.39591E-02 1.67937E-03-2.37706E-13
 -1      2602 4.15573E-03 3.87443E-04-1.26519E-14
 -1      2603 3.16219E-03 7.25133E-04-8.70776E-15
 -1      2604 6.79300E-04-2.26559E-04-8.12013E-16
 -1      2605 6.77948E-04-2.62579E-04-8.03136E-16
 -1      2606 8.31165E-04-3.28726E-04-1.11493E-15
 -1      2607 8.06953E-04-2.52432E-04-1.06649E-15
 -1      2608 2.75095E-03 9.09071E-04-6.89172E-15
 -1      2609 3.72687E-03 2.99187E-04-1.14333E-14
 -1      2610 1.54518E-03-3.80902E-04-3.10190E-15
 -1      2611 3.34234E-03 1.56942E-04-1.04861E-14
 -1      2612 2.56239E-03-2.31740E-04-7.64887E-15
 -1      2613 2.17890E-03-3.97449E-04-5.86215E-15
 -1      2614 1.79429E-03 9.02410E-04-2.98164E-15
 -1      2615 9.36735E-04-9.59286E-05-1.48914E-15
 -1      2616 4.20420E-04 6.14540E-05-6.03359E-16
 -1      2617 2.13164E-03 1.02657E-03-4.18155E-15
 -1      2618 2.21586E-03 1.04373E-03-4.50025E-15
 -1      2619 2.05324E-03 1.01414E-03-3.83886E-15
 -1      2620 3.50675E-04 1.11951E-04-6.34468E-16
 -1      2621 1.85377E-03-4.45586E-04-4.34705E-15
 -1      2622 1.44427E-03 6.81673E-04-2.03608E-15
 -1      2623 6.32205E-04 3.39717E-05-9.78547E-16
 -1      2624 1.25707E-03-2.53604E-04-2.21208E-15
 -1      2625 1.46301E-02 2.69084E-03-2.35397E-13
 -1      2626 1.39105E-02 1.70328E-03-2.35631E-13
 -1      2627 7.24654E-04-1.54054E-05-1.03331E-15
 -1      2628 1.14054E-03 5.67770E-04-1.06215E-15
 -1      2629 1.08190E-03 5.10970E-04-1.02693E-15
 -1      2630 1.34383E-03 6.92304E-04-1.45568E-15
 -1      2631 8.83055E-04-8.52334E-05-1.31804E-15
 -1      2632 8.23742E-04-7.96954E-05-1.15728E-15
 -1      2633 1.04447E-03-1.64888E-04-1.64816E-15
 -1      2634 3.43102E-03 8.30983E-04-1.11578E-14
 -1      2635 3.24079E-03 8.71744E-04-9.89963E-15
 -1      2636 1.56048E-03-5.49896E-04-3.50223E-15
 -1      2637 1.72086E-03-5.65152E-04-4.25393E-15
 -1      2638 1.87937E-03-5.66483E-04-5.08228E-15
 -1      2639 2.03825E-03-5.54146E-04-5.98714E-15
 -1      2640 1.81085E-03-5.39403E-04-4.69011E-15
 -1      2641 2.19719E-03-5.29429E-04-6.96702E-15
 -1      2642 2.35785E-03-4.94767E-04-8.02059E-15
 -1      2643 2.13214E-03-5.11411E-04-6.50746E-15
 -1      2644 2.51975E-03-4.52099E-04-9.14548E-15
 -1      2645 2.68298E-03-4.04846E-04-1.03407E-14
 -1      2646 2.45876E-03-4.35637E-04-8.62305E-15
 -1      2647 2.84714E-03-3.54817E-04-1.16034E-14
 -1      2648 3.01121E-03-3.04373E-04-1.29323E-14
 -1      2649 2.79179E-03-3.35313E-04-1.10211E-14
 -1      2650 3.17511E-03-2.54793E-04-1.43250E-14
 -1      2651 3.33770E-03-2.07112E-04-1.57797E-14
 -1      2652 3.12603E-03-2.31719E-04-1.36849E-14
 -1      2653 3.49918E-03-1.61990E-04-1.72946E-14
 -1      2654 3.65876E-03-1.19561E-04-1.88677E-14
 -1      2655 3.45538E-03-1.36616E-04-1.65989E-14
 -1      2656 3.81681E-03-8.00517E-05-2.04983E-14
 -1      2657 3.97291E-03-4.31579E-05-2.21852E-14
 -1      2658 3.77647E-03-5.37227E-05-1.97476E-14
 -1      2659 4.12747E-03-8.85988E-06-2.39258E-14
 -1      2660 4.28034E-03 2.32688E-05-2.57206E-14
 -1      2661 4.08872E-03 1.75830E-05-2.31200E-14
 -1      2662 4.43189E-03 5.33726E-05-2.75677E-14
 -1      2663 4.58212E-03 8.18440E-05-2.94651E-14
 -1      2664 4.39329E-03 7.95792E-05-2.67066E-14
 -1      2665 4.73130E-03 1.08875E-04-3.14132E-14
 -1      2666 4.87950E-03 1.34778E-04-3.34127E-14
 -1      2667 4.69189E-03 1.34777E-04-3.05000E-14
 -1      2668 5.02692E-03 1.59745E-04-3.54611E-14
 -1      2669 5.17363E-03 1.84004E-04-3.75574E-14
 -1      2670 4.98621E-03 1.85379E-04-3.44934E-14
 -1      2671 5.31976E-03 2.07725E-04-3.97025E-14
 -1      2672 5.46541E-03 2.31064E-04-4.18941E-14
 -1      2673 5.27758E-03 2.33149E-04-3.86827E-14
 -1      2674 5.61062E-03 2.54156E-04-4.41335E-14
 -1      2675 5.75549E-03 2.77104E-04-4.64200E-14
 -1      2676 5.56701E-03 2.79411E-04-4.30622E-14
 -1      2677 5.90004E-03 3.00006E-04-4.87529E-14
 -1      2678 6.04435E-03 3.22926E-04-5.11322E-14
 -1      2679 5.85516E-03 3.25116E-04-4.76312E-14
 -1      2680 6.18844E-03 3.45927E-04-5.35586E-14
 -1      2681 6.33235E-03 3.69049E-04-5.60315E-14
 -1      2682 6.14248E-03 3.70904E-04-5.23871E-14
 -1      2683 6.47608E-03 3.92327E-04-5.85491E-14
 -1      2684 6.61970E-03 4.15780E-04-6.11109E-14
 -1      2685 6.42927E-03 4.17174E-04-5.73268E-14
 -1      2686 6.76318E-03 4.39425E-04-6.37200E-14
 -1      2687 6.90658E-03 4.63270E-04-6.63740E-14
 -1      2688 6.71572E-03 4.64149E-04-6.24490E-14
 -1      2689 7.04989E-03 4.87316E-04-6.90697E-14
 -1      2690 7.19313E-03 5.11563E-04-7.18082E-14
 -1      2691 7.00194E-03 5.11920E-04-6.77493E-14
 -1      2692 7.33630E-03 5.36003E-04-7.45906E-14
 -1      2693 7.47942E-03 5.60632E-04-7.74134E-14
 -1      2694 7.28801E-03 5.60496E-04-7.32217E-14
 -1      2695 7.62249E-03 5.85438E-04-8.02767E-14
 -1      2696 7.76552E-03 6.10414E-04-8.31786E-14
 -1      2697 7.57397E-03 6.09830E-04-7.88616E-14
 -1      2698 7.90852E-03 6.35544E-04-8.61194E-14
 -1      2699 8.05150E-03 6.60820E-04-8.90991E-14
 -1      2700 7.85986E-03 6.59845E-04-8.46597E-14
 -1      2701 8.19444E-03 6.86228E-04-9.21176E-14
 -1      2702 8.33737E-03 7.11759E-04-9.51710E-14
 -1      2703 8.14569E-03 7.10451E-04-9.06113E-14
 -1      2704 8.48028E-03 7.37398E-04-9.82608E-14
 -1      2705 8.62318E-03 7.63138E-04-1.01388E-13
 -1      2706 8.43149E-03 7.61555E-04-9.67130E-14
 -1      2707 8.76607E-03 7.88966E-04-1.04552E-13
 -1      2708 8.90894E-03 8.14876E-04-1.07751E-13
 -1      2709 8.71726E-03 8.13069E-04-1.02961E-13
 -1      2710 9.05181E-03 8.40854E-04-1.10983E-13
 -1      2711 9.19467E-03 8.66897E-04-1.14249E-13
 -1      2712 9.00302E-03 8.64912E-04-1.09350E-13
 -1      2713 9.33753E-03 8.92994E-04-1.17548E-13
 -1      2714 9.48039E-03 9.19139E-04-1.20878E-13
 -1      2715 9.28876E-03 9.17015E-04-1.15875E-13
 -1      2716 9.62324E-03 9.45326E-04-1.24237E-13
 -1      2717 9.76609E-03 9.71550E-04-1.27627E-13
 -1      2718 9.57449E-03 9.69319E-04-1.22526E-13
 -1      2719 9.90893E-03 9.97805E-04-1.31045E-13
 -1      2720 1.00518E-02 1.02409E-03-1.34488E-13
 -1      2721 9.86021E-03 1.02178E-03-1.29298E-13
 -1      2722 1.01946E-02 1.05039E-03-1.37957E-13
 -1      2723 1.03375E-02 1.07672E-03-1.41451E-13
 -1      2724 1.01459E-02 1.07435E-03-1.36179E-13
 -1      2725 1.04803E-02 1.10306E-03-1.44969E-13
 -1      2726 1.06232E-02 1.12941E-03-1.48509E-13
 -1      2727 1.04316E-02 1.12700E-03-1.43161E-13
 -1      2728 1.07660E-02 1.15578E-03-1.52069E-13
 -1      2729 1.09089E-02 1.18216E-03-1.55653E-13
 -1      2730 1.07174E-02 1.17971E-03-1.50236E-13
 -1      2731 1.10517E-02 1.20854E-03-1.59257E-13
 -1      2732 1.11945E-02 1.23493E-03-1.62878E-13
 -1      2733 1.10031E-02 1.23246E-03-1.57398E-13
 -1      2734 1.13374E-02 1.26132E-03-1.66518E-13
 -1      2735 1.14802E-02 1.28772E-03-1.70174E-13
 -1      2736 1.12888E-02 1.28524E-03-1.64639E-13
 -1      2737 1.16231E-02 1.31412E-03-1.73849E-13
 -1      2738 1.17659E-02 1.34052E-03-1.77545E-13
 -1      2739 1.15745E-02 1.33804E-03-1.71950E-13
 -1      2740 1.19088E-02 1.36693E-03-1.81252E-13
 -1      2741 1.20517E-02 1.39333E-03-1.84977E-13
 -1      2742 1.18602E-02 1.39085E-03-1.79332E-13
 -1      2743 1.21945E-02 1.41974E-03-1.88720E-13
 -1      2744 1.23374E-02 1.44615E-03-1.92479E-13
 -1      2745 1.21459E-02 1.44366E-03-1.86779E-13
 -1      2746 1.24802E-02 1.47255E-03-1.96256E-13
 -1      2747 1.26231E-02 1.49896E-03-2.00052E-13
 -1      2748 1.24316E-02 1.49647E-03-1.94296E-13
 -1      2749 1.27659E-02 1.52537E-03-2.03860E-13
 -1      2750 1.29088E-02 1.55177E-03-2.07687E-13
 -1      2751 1.27173E-02 1.54928E-03-2.01877E-13
 -1      2752 1.30516E-02 1.57818E-03-2.11528E-13
 -1      2753 1.31945E-02 1.60458E-03-2.15383E-13
 -1      2754 1.30030E-02 1.60209E-03-2.09524E-13
 -1      2755 1.33373E-02 1.63098E-03-2.19251E-13
 -1      2756 1.34802E-02 1.65739E-03-2.23130E-13
 -1      2757 1.32888E-02 1.65490E-03-2.17225E-13
 -1      2758 1.36230E-02 1.68379E-03-2.27018E-13
 -1      2759 1.37659E-02 1.71019E-03-2.30918E-13
 -1      2760 1.35745E-02 1.70770E-03-2.24974E-13
 -1      2761 3.01246E-03 8.88396E-04-8.47998E-15
 -1      2762 2.81100E-03 9.46479E-04-7.36863E-15
 -1      2763 4.19108E-03 3.97551E-04-1.35672E-14
 -1      2764 4.16963E-03 3.96195E-04-1.35488E-14
 -1      2765 3.79578E-03 7.80860E-04-1.38620E-14
 -1      2766 3.61763E-03 8.01421E-04-1.24796E-14
 -1      2767 3.56194E-03 7.53261E-04-1.19437E-14
 -1      2768 4.13583E-03 7.67722E-04-1.68012E-14
 -1      2769 3.96881E-03 7.70454E-04-1.53030E-14
 -1      2770 3.91632E-03 7.20719E-04-1.47247E-14
 -1      2771 4.45759E-03 7.82820E-04-1.99655E-14
 -1      2772 4.29870E-03 7.72530E-04-1.83558E-14
 -1      2773 4.24314E-03 7.22955E-04-1.77336E-14
 -1      2774 4.76729E-03 8.17395E-04-2.33483E-14
 -1      2775 4.61363E-03 7.98224E-04-2.16297E-14
 -1      2776 4.55234E-03 7.48924E-04-2.09617E-14
 -1      2777 5.06957E-03 8.64716E-04-2.69437E-14
 -1      2778 4.91912E-03 8.39825E-04-2.51194E-14
 -1      2779 4.85132E-03 7.90300E-04-2.44043E-14
 -1      2780 5.36729E-03 9.19904E-04-3.07498E-14
 -1      2781 5.21885E-03 8.91569E-04-2.88211E-14
 -1      2782 5.14490E-03 8.41508E-04-2.80577E-14
 -1      2783 5.66207E-03 9.79519E-04-3.47593E-14
 -1      2784 5.51494E-03 9.49316E-04-3.27296E-14
 -1      2785 5.43574E-03 8.98682E-04-3.19182E-14
 -1      2786 5.95479E-03 1.04124E-03-3.89674E-14
 -1      2787 5.80861E-03 1.01022E-03-3.68388E-14
 -1      2788 5.72516E-03 9.59124E-04-3.59795E-14
 -1      2789 6.24597E-03 1.10358E-03-4.33694E-14
 -1      2790 6.10052E-03 1.07240E-03-4.11453E-14
 -1      2791 6.01378E-03 1.02101E-03-4.02374E-14
 -1      2792 6.53593E-03 1.16564E-03-4.79656E-14
 -1      2793 6.39106E-03 1.13469E-03-4.56431E-14
 -1      2794 6.30186E-03 1.08316E-03-4.46899E-14
 -1      2795 6.82492E-03 1.22691E-03-5.27458E-14
 -1      2796 6.68052E-03 1.19639E-03-5.03322E-14
 -1      2797 6.58952E-03 1.14485E-03-4.93319E-14
 -1      2798 7.11311E-03 1.28715E-03-5.77094E-14
 -1      2799 6.96909E-03 1.25717E-03-5.52053E-14
 -1      2800 6.87682E-03 1.20569E-03-5.41588E-14
 -1      2801 7.40066E-03 1.34629E-03-6.28475E-14
 -1      2802 7.25694E-03 1.31686E-03-6.02572E-14
 -1      2803 7.16380E-03 1.26550E-03-5.91661E-14
 -1      2804 7.68771E-03 1.40437E-03-6.81549E-14
 -1      2805 7.54423E-03 1.37546E-03-6.54796E-14
 -1      2806 7.45049E-03 1.32424E-03-6.43478E-14
 -1      2807 7.97436E-03 1.46147E-03-7.36275E-14
 -1      2808 7.83107E-03 1.43304E-03-7.08702E-14
 -1      2809 7.73695E-03 1.38196E-03-6.96972E-14
 -1      2810 8.26072E-03 1.51771E-03-7.92591E-14
 -1      2811 8.11757E-03 1.48970E-03-7.64244E-14
 -1      2812 8.02321E-03 1.43875E-03-7.52126E-14
 -1      2813 8.54686E-03 1.57322E-03-8.50455E-14
 -1      2814 8.40381E-03 1.54555E-03-8.21332E-14
 -1      2815 8.30931E-03 1.49473E-03-8.08836E-14
 -1      2816 8.83283E-03 1.62810E-03-9.09867E-14
 -1      2817 8.68986E-03 1.60073E-03-8.79970E-14
 -1      2818 8.59530E-03 1.55002E-03-8.67100E-14
 -1      2819 9.11869E-03 1.68249E-03-9.70773E-14
 -1      2820 8.97577E-03 1.65535E-03-9.40140E-14
 -1      2821 8.88119E-03 1.60473E-03-9.26889E-14
 -1      2822 9.40447E-03 1.73647E-03-1.03320E-13
 -1      2823 9.26159E-03 1.70952E-03-1.00180E-13
 -1      2824 9.16701E-03 1.65898E-03-9.88180E-14
 -1      2825 9.69020E-03 1.79013E-03-1.09706E-13
 -1      2826 9.54734E-03 1.76333E-03-1.06496E-13
 -1      2827 9.45279E-03 1.71285E-03-1.05095E-13
 -1      2828 9.97590E-03 1.84354E-03-1.16231E-13
 -1      2829 9.83306E-03 1.81686E-03-1.12951E-13
 -1      2830 9.73853E-03 1.76642E-03-1.11514E-13
 -1      2831 1.02616E-02 1.89676E-03-1.22887E-13
 -1      2832 1.01187E-02 1.87017E-03-1.19543E-13
 -1      2833 1.00243E-02 1.81977E-03-1.18069E-13
 -1      2834 1.05473E-02 1.94985E-03-1.29661E-13
 -1      2835 1.04044E-02 1.92332E-03-1.26261E-13
 -1      2836 1.03100E-02 1.87295E-03-1.24753E-13
 -1      2837 1.08329E-02 2.00283E-03-1.36543E-13
 -1      2838 1.06901E-02 1.97635E-03-1.33089E-13
 -1      2839 1.05957E-02 1.92599E-03-1.31553E-13
 -1      2840 1.11186E-02 2.05573E-03-1.43526E-13
 -1      2841 1.09758E-02 2.02929E-03-1.40022E-13
 -1      2842 1.08814E-02 1.97895E-03-1.38460E-13
 -1      2843 1.14043E-02 2.10858E-03-1.50603E-13
 -1      2844 1.12614E-02 2.08216E-03-1.47052E-13
 -1      2845 1.11671E-02 2.03183E-03-1.45465E-13
 -1      2846 1.16899E-02 2.16140E-03-1.57770E-13
 -1      2847 1.15471E-02 2.13499E-03-1.54177E-13
 -1      2848 1.14528E-02 2.08467E-03-1.52565E-13
 -1      2849 1.19756E-02 2.21419E-03-1.65023E-13
 -1      2850 1.18328E-02 2.18780E-03-1.61386E-13
 -1      2851 1.17384E-02 2.13748E-03-1.59753E-13
 -1      2852 1.22613E-02 2.26697E-03-1.72360E-13
 -1      2853 1.21185E-02 2.24058E-03-1.68683E-13
 -1      2854 1.20241E-02 2.19027E-03-1.67026E-13
 -1      2855 1.25470E-02 2.31974E-03-1.79765E-13
 -1      2856 1.24042E-02 2.29335E-03-1.76055E-13
 -1      2857 1.23098E-02 2.24304E-03-1.74379E-13
 -1      2858 1.28327E-02 2.37251E-03-1.87237E-13
 -1      2859 1.26899E-02 2.34612E-03-1.83492E-13
 -1      2860 1.25956E-02 2.29581E-03-1.81800E-13
 -1      2861 1.31184E-02 2.42527E-03-1.94761E-13
 -1      2862 1.29756E-02 2.39889E-03-1.90994E-13
 -1      2863 1.28813E-02 2.34858E-03-1.89286E-13
 -1      2864 1.34041E-02 2.47804E-03-2.02323E-13
 -1      2865 1.32613E-02 2.45166E-03-1.98538E-13
 -1      2866 1.31670E-02 2.40135E-03-1.96817E-13
 -1      2867 1.36898E-02 2.53081E-03-2.09911E-13
 -1      2868 1.35470E-02 2.50443E-03-2.06113E-13
 -1      2869 1.34527E-02 2.45412E-03-2.04383E-13
 -1      2870 1.39755E-02 2.58359E-03-2.17529E-13
 -1      2871 1.38327E-02 2.55720E-03-2.13717E-13
 -1      2872 1.37384E-02 2.50689E-03-2.11978E-13
 -1      2873 1.42612E-02 2.63637E-03-2.25174E-13
 -1      2874 1.41184E-02 2.60998E-03-2.21347E-13
 -1      2875 1.40241E-02 2.55967E-03-2.19599E-13
 -1      2876 1.45171E-02 2.67680E-03-2.32198E-13
 -1      2877 1.43742E-02 2.65041E-03-2.28365E-13
 -1      2878 1.42799E-02 2.60010E-03-2.26608E-13
 -1      2879 1.45059E-02 2.62818E-03-2.32995E-13
 -1      2880 1.42495E-02 2.22040E-03-2.34525E-13
 -1      2881 1.42754E-02 2.26255E-03-2.34359E-13
 -1      2882 1.38620E-02 1.72720E-03-2.33566E-13
 -1      2883 1.39580E-02 1.74421E-03-2.36215E-13
 -1      2884 1.38134E-02 1.75111E-03-2.31504E-13
 -1      2885 1.43533E-02 2.38899E-03-2.33844E-13
 -1      2886 1.43793E-02 2.43114E-03-2.33666E-13
 -1      2887 1.41976E-02 2.13610E-03-2.34851E-13
 -1      2888 1.42235E-02 2.17825E-03-2.34691E-13
 -1      2889 1.41128E-02 2.17647E-03-2.31269E-13
 -1      2890 1.43014E-02 2.30470E-03-2.34189E-13
 -1      2891 1.43273E-02 2.34684E-03-2.34017E-13
 -1      2892 1.42166E-02 2.34506E-03-2.30601E-13
 -1      2893 1.41647E-02 2.26077E-03-2.30940E-13
 -1      2894 1.41465E-02 2.05324E-03-2.35155E-13
 -1      2895 1.41720E-02 2.09467E-03-2.35006E-13
 -1      2896 1.40613E-02 2.09288E-03-2.31579E-13
 -1      2897 1.40946E-02 1.96894E-03-2.35448E-13
 -1      2898 1.41206E-02 2.01109E-03-2.35302E-13
 -1      2899 1.40098E-02 2.00930E-03-2.31872E-13
 -1      2900 1.40427E-02 1.88465E-03-2.35725E-13
 -1      2901 1.40687E-02 1.92679E-03-2.35587E-13
 -1      2902 1.39579E-02 1.92501E-03-2.32148E-13
 -1      2903 4.08732E-03 3.83238E-04-1.32640E-14
 -1      2904 3.96850E-03 3.63249E-04-1.28230E-14
 -1      2905 1.40055E-02 1.78513E-03-2.36795E-13
 -1      2906 3.48377E-03 2.07717E-04-1.17041E-14
 -1      2907 3.28322E-03 1.20157E-04-1.10731E-14
 -1      2908 2.65778E-03-1.92687E-04-8.48963E-15
 -1      2909 2.44741E-03-2.96761E-04-7.43614E-15
 -1      2910 1.03427E-03 4.43193E-04-1.05660E-15
 -1      2911 8.37978E-04 2.78633E-04-9.17276E-16
 -1      2912 3.84326E-03 4.62505E-04-1.16297E-14
 -1      2913 3.97794E-03 4.24198E-04-1.20638E-14
 -1      2914 3.53287E-03 5.88941E-04-1.06110E-14
 -1      2915 3.68608E-03 5.20605E-04-1.11195E-14
 -1      2916 2.39477E-03 1.04151E-03-5.29306E-15
 -1      2917 2.52332E-03 1.01178E-03-5.90686E-15
 -1      2918 8.75615E-04-1.36587E-04-1.21924E-15
 -1      2919 1.73623E-03 9.21135E-04-2.47148E-15
 -1      2920 1.54235E-03 8.12864E-04-1.92446E-15
 -1      2921 1.48999E-03 7.63512E-04-1.86953E-15
 -1      2922 1.91493E-03-4.52765E-04-4.74319E-15
 -1      2923 1.75650E-03-4.46124E-04-3.99903E-15
 -1      2924 2.25220E-03-3.76437E-04-6.41891E-15
 -1      2925 2.10026E-03-4.25543E-04-5.65261E-15
 -1      2926 3.84081E-03 3.31779E-04-1.24680E-14
 -1      2927 3.69107E-03 2.86907E-04-1.21190E-14
 -1      2928 3.94208E-03 3.52014E-04-1.35324E-14
 -1      2929 1.31892E-03-3.00779E-04-2.36364E-15
 -1      2930 1.18395E-03-2.32977E-04-1.98685E-15
 -1      2931 1.10737E-03-2.17109E-04-1.77358E-15
 -1      2932 1.74076E-03 8.81519E-04-2.71973E-15
 -1      2933 1.89885E-03 9.62602E-04-3.25060E-15
 -1      2934 1.23409E-03-4.80176E-04-2.23049E-15
 -1      2935 1.39893E-03-5.20760E-04-2.82779E-15
 -1      2936 1.48752E-03-5.07588E-04-3.18101E-15
 -1      2937 3.06623E-03 1.82187E-05-1.02227E-14
 -1      2938 2.90928E-03-6.43165E-05-9.62015E-15
 -1      2939 1.59608E-03-4.10228E-04-3.32217E-15
 -1      2940 1.46144E-03-3.60749E-04-2.81962E-15
 -1      2941 1.37586E-03-3.41522E-04-2.55117E-15
 -1      2942 9.57480E-04-3.78908E-04-1.41677E-15
 -1      2943 1.11009E-03-4.38644E-04-1.83718E-15
 -1      2944 1.19876E-03-4.32002E-04-2.11779E-15
 -1      2945 9.46357E-04-3.40570E-04-1.39435E-15
 -1      2946 3.15688E-03 7.96922E-04-9.15906E-15
 -1      2947 3.35889E-03 7.08062E-04-1.01955E-14
 -1      2948 9.14676E-04-1.92801E-04-1.29252E-15
 -1      2949 9.22011E-04-2.37481E-04-1.31331E-15
 -1      2950 4.06159E-03 4.23144E-04-1.29066E-14
 -1      2951 1.66709E-03-4.37766E-04-3.66378E-15
 -1      2952 4.20087E-03 4.04166E-04-1.38503E-14
 -1      2953 4.23905E-03 4.13099E-04-1.47695E-14
 -1      2954 4.20226E-03 4.12060E-04-1.41335E-14
 -1      2955 1.98900E-03 1.00489E-03-3.52536E-15
 -1      2956 1.44050E-02 2.47293E-03-2.33493E-13
 -1      2957 1.44307E-02 2.51472E-03-2.33316E-13
 -1      2958 1.42683E-02 2.42900E-03-2.30257E-13
 -1      2959 2.64870E-03 1.00822E-03-6.53583E-15
 -1      2960 4.15543E-03 3.95677E-04-1.41925E-14
 -1      2961 3.23139E-03 7.64861E-05-1.14092E-14
 -1      2962 1.44555E-02 2.55056E-03-2.33246E-13
 -1      2963 1.44812E-02 2.59234E-03-2.33068E-13
 -1      2964 1.43682E-02 2.57830E-03-2.29874E-13
 -1      2965 1.43188E-02 2.50663E-03-2.30015E-13
 -1      2966 2.78329E-03-1.45293E-04-9.36409E-15
 -1      2967 2.25897E-03 1.07172E-03-4.58803E-15
 -1      2968 2.10649E-03 1.05397E-03-3.91003E-15
 -1      2969 1.40315E-02 1.82728E-03-2.36667E-13
 -1      2970 3.62681E-03 2.49323E-04-1.27344E-14
 -1      2971 2.36090E-03-3.44141E-04-7.18266E-15
 -1      2972 1.02297E-03-2.10033E-04-1.54851E-15
 -1      2973 3.81795E-03 4.99891E-04-1.20554E-14
 -1      2974 1.00997E-03 3.93779E-04-1.14752E-15
 -1      2975 1.99584E-03-4.49172E-04-5.23699E-15
 -1      2976 1.66332E-03 8.42429E-04-2.45118E-15
 -1      2977 1.76417E-03 9.14166E-04-2.67854E-15
 -1      2978 1.35635E-03 6.33080E-04-1.74283E-15
 -1      2979 1.53404E-03 7.55977E-04-2.14318E-15
 -1      2980 1.38671E-02 1.78830E-03-2.32363E-13
 -1      2981 1.39891E-02 1.84746E-03-2.34875E-13
 -1      2982 1.38783E-02 1.84567E-03-2.31432E-13
 -1      2983 1.37710E-02 1.77129E-03-2.29723E-13
 -1      2984 1.28344E-03 5.94944E-04-1.53809E-15
 -1      2985 4.06932E-03 4.50787E-04-1.36869E-14
 -1      2986 4.15306E-03 4.28759E-04-1.40206E-14
 -1      2987 4.34844E-03 6.84154E-04-1.86737E-14
 -1      2988 4.19582E-03 6.72953E-04-1.71085E-14
 -1      2989 1.96391E-03 1.01326E-03-3.31226E-15
 -1      2990 4.03832E-03 6.66756E-04-1.55975E-14
 -1      2991 3.87426E-03 6.68880E-04-1.41419E-14
 -1      2992 4.15725E-03 6.21924E-04-1.64821E-14
 -1      2993 2.61646E-03 1.04354E-03-6.33076E-15
 -1      2994 2.06669E-03-4.96084E-04-6.04783E-15
 -1      2995 2.23106E-03-4.64686E-04-7.03693E-15
 -1      2996 2.39729E-03-4.21101E-04-8.09980E-15
 -1      2997 2.56605E-03-3.70772E-04-9.23483E-15
 -1      2998 2.33723E-03-4.10455E-04-7.57563E-15
 -1      2999 2.73654E-03-3.15869E-04-1.04389E-14
 -1      3000 2.90733E-03-2.60985E-04-1.17101E-14
 -1      3001 2.68263E-03-2.98692E-04-9.85628E-15
 -1      3002 3.07802E-03-2.07399E-04-1.30463E-14
 -1      3003 3.24663E-03-1.56684E-04-1.44455E-14
 -1      3004 3.03153E-03-1.82842E-04-1.24083E-14
 -1      3005 3.41340E-03-1.09529E-04-1.59044E-14
 -1      3006 3.57711E-03-6.58514E-05-1.74231E-14
 -1      3007 3.37347E-03-8.10164E-05-1.52127E-14
 -1      3008 3.73829E-03-2.58475E-05-1.89991E-14
 -1      3009 3.89647E-03 1.11269E-05-2.06307E-14
 -1      3010 3.70251E-03 3.61169E-06-1.82529E-14
 -1      3011 4.05221E-03 4.50948E-05-2.23174E-14
 -1      3012 4.20548E-03 7.68059E-05-2.40569E-14
 -1      3013 4.01811E-03 7.38481E-05-2.15181E-14
 -1      3014 4.35679E-03 1.06350E-04-2.58493E-14
 -1      3015 4.50630E-03 1.34319E-04-2.76942E-14
 -1      3016 4.32254E-03 1.33839E-04-2.49966E-14
 -1      3017 4.65439E-03 1.60835E-04-2.95896E-14
 -1      3018 4.80126E-03 1.86314E-04-3.15347E-14
 -1      3019 4.61888E-03 1.87153E-04-2.86827E-14
 -1      3020 4.94718E-03 2.10890E-04-3.35304E-14
 -1      3021 5.09232E-03 2.34839E-04-3.55745E-14
 -1      3022 4.90988E-03 2.36331E-04-3.25705E-14
 -1      3023 5.23685E-03 2.58285E-04-3.76666E-14
 -1      3024 5.38093E-03 2.81405E-04-3.98068E-14
 -1      3025 5.19760E-03 2.83151E-04-3.66551E-14
 -1      3026 5.52463E-03 3.04305E-04-4.19957E-14
 -1      3027 5.66807E-03 3.27094E-04-4.42314E-14
 -1      3028 5.48348E-03 3.28830E-04-4.09317E-14
 -1      3029 5.81129E-03 3.49853E-04-4.65130E-14
 -1      3030 5.95439E-03 3.72646E-04-4.88426E-14
 -1      3031 5.76845E-03 3.74191E-04-4.53996E-14
 -1      3032 6.09736E-03 3.95531E-04-5.12183E-14
 -1      3033 6.24028E-03 4.18542E-04-5.36408E-14
 -1      3034 6.05308E-03 4.19775E-04-5.00541E-14
 -1      3035 6.38313E-03 4.41716E-04-5.61093E-14
 -1      3036 6.52597E-03 4.65068E-04-5.86227E-14
 -1      3037 6.33767E-03 4.65916E-04-5.48946E-14
 -1      3038 6.66878E-03 4.88617E-04-6.11813E-14
 -1      3039 6.81159E-03 5.12365E-04-6.37853E-14
 -1      3040 6.62237E-03 5.12795E-04-5.99184E-14
 -1      3041 6.95440E-03 5.36320E-04-6.64338E-14
 -1      3042 7.09721E-03 5.60476E-04-6.91244E-14
 -1      3043 6.90727E-03 5.60482E-04-6.51213E-14
 -1      3044 7.24002E-03 5.84831E-04-7.18575E-14
 -1      3045 7.38285E-03 6.09376E-04-7.46344E-14
 -1      3046 7.19235E-03 6.08978E-04-7.04994E-14
 -1      3047 7.52567E-03 6.34103E-04-7.74504E-14
 -1      3048 7.66851E-03 6.59002E-04-8.03067E-14
 -1      3049 7.47761E-03 6.58232E-04-7.60438E-14
 -1      3050 7.81135E-03 6.84061E-04-8.32046E-14
 -1      3051 7.95420E-03 7.09269E-04-8.61382E-14
 -1      3052 7.76302E-03 7.08169E-04-8.17514E-14
 -1      3053 8.09705E-03 7.34615E-04-8.91111E-14
 -1      3054 8.23991E-03 7.60087E-04-9.21229E-14
 -1      3055 8.04854E-03 7.58701E-04-8.76170E-14
 -1      3056 8.38278E-03 7.85672E-04-9.51709E-14
 -1      3057 8.52564E-03 8.11362E-04-9.82544E-14
 -1      3058 8.33415E-03 8.09735E-04-9.36317E-14
 -1      3059 8.66851E-03 8.37145E-04-1.01374E-13
 -1      3060 8.81138E-03 8.63013E-04-1.04530E-13
 -1      3061 8.61981E-03 8.61185E-04-9.97929E-14
 -1      3062 8.95425E-03 8.88954E-04-1.07722E-13
 -1      3063 9.09713E-03 9.14962E-04-1.10947E-13
 -1      3064 8.90552E-03 9.12973E-04-1.06098E-13
 -1      3065 9.24000E-03 9.41028E-04-1.14205E-13
 -1      3066 9.38287E-03 9.67146E-04-1.17497E-13
 -1      3067 9.19126E-03 9.65028E-04-1.12541E-13
 -1      3068 9.52574E-03 9.93309E-04-1.20820E-13
 -1      3069 9.66861E-03 1.01951E-03-1.24173E-13
 -1      3070 9.47701E-03 1.01729E-03-1.19117E-13
 -1      3071 9.81149E-03 1.04575E-03-1.27556E-13
 -1      3072 9.95436E-03 1.07201E-03-1.30967E-13
 -1      3073 9.76276E-03 1.06972E-03-1.25819E-13
 -1      3074 1.00972E-02 1.09830E-03-1.34405E-13
 -1      3075 1.02401E-02 1.12461E-03-1.37869E-13
 -1      3076 1.00485E-02 1.12226E-03-1.32636E-13
 -1      3077 1.03830E-02 1.15094E-03-1.41355E-13
 -1      3078 1.05258E-02 1.17729E-03-1.44869E-13
 -1      3079 1.03343E-02 1.17489E-03-1.39556E-13
 -1      3080 1.06687E-02 1.20365E-03-1.48405E-13
 -1      3081 1.08116E-02 1.23002E-03-1.51962E-13
 -1      3082 1.06200E-02 1.22759E-03-1.46575E-13
 -1      3083 1.09544E-02 1.25639E-03-1.55543E-13
 -1      3084 1.10973E-02 1.28278E-03-1.59144E-13
 -1      3085 1.09058E-02 1.28033E-03-1.53689E-13
 -1      3086 1.12402E-02 1.30917E-03-1.62761E-13
 -1      3087 1.13830E-02 1.33556E-03-1.66397E-13
 -1      3088 1.11915E-02 1.33310E-03-1.60886E-13
 -1      3089 1.15259E-02 1.36196E-03-1.70053E-13
 -1      3090 1.16687E-02 1.38836E-03-1.73725E-13
 -1      3091 1.14773E-02 1.38589E-03-1.68157E-13
 -1      3092 1.18116E-02 1.41476E-03-1.77413E-13
 -1      3093 1.19545E-02 1.44117E-03-1.81118E-13
 -1      3094 1.17630E-02 1.43869E-03-1.75496E-13
 -1      3095 1.20973E-02 1.46757E-03-1.84840E-13
 -1      3096 1.22402E-02 1.49398E-03-1.88579E-13
 -1      3097 1.20487E-02 1.49149E-03-1.82903E-13
 -1      3098 1.23830E-02 1.52039E-03-1.92336E-13
 -1      3099 1.25259E-02 1.54679E-03-1.96109E-13
 -1      3100 1.23344E-02 1.54430E-03-1.90378E-13
 -1      3101 1.26688E-02 1.57320E-03-1.99899E-13
 -1      3102 1.28116E-02 1.59960E-03-2.03702E-13
 -1      3103 1.26202E-02 1.59711E-03-1.97921E-13
 -1      3104 1.29545E-02 1.62601E-03-2.07521E-13
 -1      3105 1.30973E-02 1.65241E-03-2.11356E-13
 -1      3106 1.29059E-02 1.64992E-03-2.05524E-13
 -1      3107 1.32402E-02 1.67881E-03-2.15203E-13
 -1      3108 1.33830E-02 1.70522E-03-2.19063E-13
 -1      3109 1.31916E-02 1.70273E-03-2.13185E-13
 -1      3110 1.35056E-02 1.72505E-03-2.22444E-13
 -1      3111 1.36484E-02 1.75146E-03-2.26322E-13
 -1      3112 1.37021E-02 1.78864E-03-2.27181E-13
 -1      3113 1.34570E-02 1.74897E-03-2.20409E-13
 -1      3114 2.42768E-03 1.07073E-03-5.38146E-15
 -1      3115 4.64374E-03 7.19738E-04-2.19648E-14
 -1      3116 4.49726E-03 7.00381E-04-2.02924E-14
 -1      3117 4.44862E-03 6.52224E-04-1.96223E-14
 -1      3118 4.93199E-03 7.66616E-04-2.54661E-14
 -1      3119 4.78835E-03 7.42107E-04-2.36892E-14
 -1      3120 4.73020E-03 6.95135E-04-2.29731E-14
 -1      3121 5.21738E-03 8.20706E-04-2.91756E-14
 -1      3122 5.07482E-03 7.92967E-04-2.72952E-14
 -1      3123 5.00849E-03 7.45950E-04-2.65332E-14
 -1      3124 5.50197E-03 8.79143E-04-3.30896E-14
 -1      3125 5.35965E-03 8.49514E-04-3.11080E-14
 -1      3126 5.28656E-03 8.01870E-04-3.02978E-14
 -1      3127 5.78663E-03 9.39902E-04-3.72019E-14
 -1      3128 5.64423E-03 9.09317E-04-3.51209E-14
 -1      3129 5.56571E-03 8.60883E-04-3.42637E-14
 -1      3130 6.07165E-03 1.00159E-03-4.15090E-14
 -1      3131 5.92906E-03 9.70686E-04-3.93311E-14
 -1      3132 5.84629E-03 9.21522E-04-3.84268E-14
 -1      3133 6.35701E-03 1.06330E-03-4.60117E-14
 -1      3134 6.21426E-03 1.03248E-03-4.37375E-14
 -1      3135 6.12822E-03 9.82735E-04-4.27852E-14
 -1      3136 6.64264E-03 1.12444E-03-5.06991E-14
 -1      3137 6.49978E-03 1.09396E-03-4.83322E-14
 -1      3138 6.41127E-03 1.04381E-03-4.73338E-14
 -1      3139 6.92844E-03 1.18473E-03-5.55730E-14
 -1      3140 6.78551E-03 1.15470E-03-5.31141E-14
 -1      3141 6.69516E-03 1.10429E-03-5.20707E-14
 -1      3142 7.21434E-03 1.24402E-03-6.06253E-14
 -1      3143 7.07137E-03 1.21450E-03-5.80770E-14
 -1      3144 6.97968E-03 1.16393E-03-5.69888E-14
 -1      3145 7.50026E-03 1.30229E-03-6.58495E-14
 -1      3146 7.35729E-03 1.27328E-03-6.32159E-14
 -1      3147 7.26464E-03 1.22264E-03-6.20849E-14
 -1      3148 7.78618E-03 1.35961E-03-7.12438E-14
 -1      3149 7.64321E-03 1.33107E-03-6.85263E-14
 -1      3150 7.54989E-03 1.28040E-03-6.73540E-14
 -1      3151 8.07208E-03 1.41606E-03-7.67987E-14
 -1      3152 7.92913E-03 1.38794E-03-7.40013E-14
 -1      3153 7.83535E-03 1.33729E-03-7.27912E-14
 -1      3154 8.35795E-03 1.47176E-03-8.25112E-14
 -1      3155 8.21501E-03 1.44400E-03-7.96359E-14
 -1      3156 8.12093E-03 1.39338E-03-7.83879E-14
 -1      3157 8.64379E-03 1.52682E-03-8.83766E-14
 -1      3158 8.50087E-03 1.49936E-03-8.54246E-14
 -1      3159 8.40659E-03 1.44879E-03-8.41399E-14
 -1      3160 8.92960E-03 1.58135E-03-9.43938E-14
 -1      3161 8.78669E-03 1.55415E-03-9.13663E-14
 -1      3162 8.69230E-03 1.50361E-03-9.00448E-14
 -1      3163 9.21538E-03 1.63545E-03-1.00559E-13
 -1      3164 9.07249E-03 1.60845E-03-9.74572E-14
 -1      3165 8.97803E-03 1.55796E-03-9.60987E-14
 -1      3166 9.50115E-03 1.68921E-03-1.06870E-13
 -1      3167 9.35827E-03 1.66237E-03-1.03696E-13
 -1      3168 9.26378E-03 1.61191E-03-1.02300E-13
 -1      3169 9.78690E-03 1.74270E-03-1.13322E-13
 -1      3170 9.64403E-03 1.71599E-03-1.10079E-13
 -1      3171 9.54954E-03 1.66556E-03-1.08645E-13
 -1      3172 1.00726E-02 1.79599E-03-1.19907E-13
 -1      3173 9.92977E-03 1.76937E-03-1.16597E-13
 -1      3174 9.83530E-03 1.71897E-03-1.15130E-13
 -1      3175 1.03584E-02 1.84912E-03-1.26620E-13
 -1      3176 1.02155E-02 1.82257E-03-1.23250E-13
 -1      3177 1.01210E-02 1.77219E-03-1.21747E-13
 -1      3178 1.06441E-02 1.90213E-03-1.33445E-13
 -1      3179 1.05012E-02 1.87563E-03-1.30019E-13
 -1      3180 1.04068E-02 1.82527E-03-1.28487E-13
 -1      3181 1.09298E-02 1.95506E-03-1.40378E-13
 -1      3182 1.07870E-02 1.92860E-03-1.36899E-13
 -1      3183 1.06925E-02 1.87826E-03-1.35339E-13
 -1      3184 1.12155E-02 2.00793E-03-1.47405E-13
 -1      3185 1.10727E-02 1.98150E-03-1.43880E-13
 -1      3186 1.09783E-02 1.93116E-03-1.42294E-13
 -1      3187 1.15012E-02 2.06076E-03-1.54527E-13
 -1      3188 1.13584E-02 2.03435E-03-1.50955E-13
 -1      3189 1.12640E-02 1.98402E-03-1.49346E-13
 -1      3190 1.17870E-02 2.11356E-03-1.61734E-13
 -1      3191 1.16441E-02 2.08716E-03-1.58121E-13
 -1      3192 1.15497E-02 2.03684E-03-1.56489E-13
 -1      3193 1.20727E-02 2.16634E-03-1.69029E-13
 -1      3194 1.19298E-02 2.13995E-03-1.65369E-13
 -1      3195 1.18355E-02 2.08963E-03-1.63716E-13
 -1      3196 1.23584E-02 2.21912E-03-1.76396E-13
 -1      3197 1.22155E-02 2.19273E-03-1.72703E-13
 -1      3198 1.21212E-02 2.14242E-03-1.71027E-13
 -1      3199 1.26441E-02 2.27189E-03-1.83836E-13
 -1      3200 1.25012E-02 2.24550E-03-1.80109E-13
 -1      3201 1.24069E-02 2.19519E-03-1.78416E-13
 -1      3202 1.29298E-02 2.32466E-03-1.91331E-13
 -1      3203 1.27870E-02 2.29827E-03-1.87576E-13
 -1      3204 1.26926E-02 2.24796E-03-1.85871E-13
 -1      3205 1.32155E-02 2.37743E-03-1.98870E-13
 -1      3206 1.30727E-02 2.35104E-03-1.95095E-13
 -1      3207 1.29784E-02 2.30073E-03-1.93375E-13
 -1      3208 1.35012E-02 2.43020E-03-2.06441E-13
 -1      3209 1.33584E-02 2.40381E-03-2.02652E-13
 -1      3210 1.32641E-02 2.35350E-03-2.00921E-13
 -1      3211 1.37869E-02 2.48297E-03-2.14044E-13
 -1      3212 1.36441E-02 2.45658E-03-2.10239E-13
 -1      3213 1.35498E-02 2.40627E-03-2.08500E-13
 -1      3214 1.40727E-02 2.53574E-03-2.21669E-13
 -1      3215 1.39298E-02 2.50936E-03-2.17852E-13
 -1      3216 1.38355E-02 2.45905E-03-2.16107E-13
 -1      3217 1.42769E-02 2.56404E-03-2.27362E-13
 -1      3218 1.41639E-02 2.55000E-03-2.24173E-13
 -1      3219 1.40696E-02 2.49969E-03-2.22421E-13
 -1      3220 1.42522E-02 2.52821E-03-2.27433E-13
 -1      3221 1.74298E-03-5.13110E-04-4.30009E-15
 -1      3222 1.90548E-03-5.12970E-04-5.13545E-15
 -1      3223 2.00330E-03-4.83036E-04-5.58857E-15
 -1      3224 1.38212E-02 1.88107E-03-2.28854E-13
 -1      3225 1.38472E-02 1.92322E-03-2.28721E-13
 -1      3226 1.39761E-02 2.13253E-03-2.28011E-13
 -1      3227 1.40020E-02 2.17468E-03-2.27853E-13
 -1      3228 2.31366E-03 1.05533E-03-4.89753E-15
 -1      3229 1.14661E-03-2.70905E-04-1.87086E-15
 -1      3230 3.36824E-03 1.09550E-04-1.26824E-14
 -1      3231 3.17641E-03 2.05918E-05-1.17760E-14
 -1      3232 3.77920E-03 2.90913E-04-1.38835E-14
 -1      3233 3.60319E-03 2.19747E-04-1.34338E-14
 -1      3234 1.81067E-03 9.52047E-04-2.75153E-15
 -1      3235 9.29839E-04-2.70367E-04-1.34056E-15
 -1      3236 9.42031E-04-3.09642E-04-1.37921E-15
 -1      3237 1.07017E-03-3.57806E-04-1.71858E-15
 -1      3238 1.06132E-03-2.95914E-04-1.66506E-15
 -1      3239 1.70572E-03-4.57923E-04-3.91325E-15
 -1      3240 1.55683E-03-4.23563E-04-3.25373E-15
 -1      3241 2.93155E-03-9.79876E-05-1.05443E-14
 -1      3242 2.70565E-03-2.11827E-04-9.36355E-15
 -1      3243 3.50419E-03 6.72160E-04-1.10942E-14
 -1      3244 1.39250E-02 2.04966E-03-2.28304E-13
 -1      3245 1.39506E-02 2.09110E-03-2.28158E-13
 -1      3246 1.38398E-02 2.08932E-03-2.24749E-13
 -1      3247 4.03059E-03 3.66801E-04-1.45848E-14
 -1      3248 3.91684E-03 3.37341E-04-1.42084E-14
 -1      3249 1.28057E-03-3.28085E-04-2.26678E-15
 -1      3250 1.18261E-03-3.18796E-04-1.99463E-15
 -1      3251 1.41018E-03-3.81130E-04-2.70656E-15
 -1      3252 1.99869E-03-4.62326E-04-5.42819E-15
 -1      3253 1.82854E-03-4.75527E-04-4.54889E-15
 -1      3254 3.80545E-03 5.38692E-04-1.24996E-14
 -1      3255 3.93788E-03 4.87991E-04-1.30424E-14
 -1      3256 3.68484E-03 6.47322E-04-1.24259E-14
 -1      3257 2.34425E-03-3.72200E-04-7.37786E-15
 -1      3258 2.16868E-03-4.30277E-04-6.37713E-15
 -1      3259 1.38731E-02 1.96537E-03-2.28587E-13
 -1      3260 1.38991E-02 2.00751E-03-2.28450E-13
 -1      3261 1.37884E-02 2.00573E-03-2.25035E-13
 -1      3262 1.37365E-02 1.92143E-03-2.25307E-13
 -1      3263 1.45720E-03-4.58077E-04-3.00693E-15
 -1      3264 1.62359E-03-4.88669E-04-3.70373E-15
 -1      3265 4.23640E-03 4.09430E-04-1.55018E-14
 -1      3266 4.15402E-03 3.94019E-04-1.52015E-14
 -1      3267 4.22497E-03 4.33849E-04-1.49444E-14
 -1      3268 1.41317E-02 2.38525E-03-2.27021E-13
 -1      3269 1.41575E-02 2.42704E-03-2.26850E-13
 -1      3270 1.71992E-03-4.77861E-04-4.07510E-15
 -1      3271 3.89081E-03 3.12227E-04-1.49399E-14
 -1      3272 1.40798E-02 2.30095E-03-2.27364E-13
 -1      3273 1.41058E-02 2.34310E-03-2.27194E-13
 -1      3274 1.39949E-02 2.34114E-03-2.23793E-13
 -1      3275 1.36443E-03 6.73560E-04-1.61468E-15
 -1      3276 1.45462E-03-4.15041E-04-2.91444E-15
 -1      3277 1.40279E-02 2.21674E-03-2.27692E-13
 -1      3278 1.40539E-02 2.25889E-03-2.27528E-13
 -1      3279 1.39430E-02 2.25693E-03-2.24126E-13
 -1      3280 1.38912E-02 2.17281E-03-2.24446E-13
 -1      3281 3.53651E-03 1.65975E-04-1.38219E-14
 -1      3282 3.48729E-03 1.10781E-04-1.42025E-14
 -1      3283 3.69733E-03 2.12230E-04-1.50007E-14
 -1      3284 1.18795E-03-3.48852E-04-2.03365E-15
 -1      3285 3.08544E-03-5.54284E-05-1.17605E-14
 -1      3286 1.31814E-03-4.20006E-04-2.48713E-15
 -1      3287 4.14538E-03 3.85371E-04-1.59062E-14
 -1      3288 4.06074E-03 4.83432E-04-1.41560E-14
 -1      3289 4.29813E-03 4.25980E-04-1.60964E-14
 -1      3290 4.27161E-03 4.18150E-04-1.57991E-14
 -1      3291 4.29596E-03 4.19367E-04-1.68457E-14
 -1      3292 2.52246E-03-3.09718E-04-8.47891E-15
 -1      3293 1.56670E-03 7.98319E-04-2.10831E-15
 -1      3294 3.83517E-03 5.82508E-04-1.32255E-14
 -1      3295 2.67569E-03-2.67857E-04-9.58467E-15
 -1      3296 1.37348E-02 1.81626E-03-2.27594E-13
 -1      3297 1.37885E-02 1.85345E-03-2.28445E-13
 -1      3298 1.36778E-02 1.85166E-03-2.25027E-13
 -1      3299 1.36123E-02 1.79643E-03-2.24204E-13
 -1      3300 4.54238E-03 6.26826E-04-2.05786E-14
 -1      3301 4.40689E-03 6.05798E-04-1.89508E-14
 -1      3302 4.27051E-03 5.86613E-04-1.73746E-14
 -1      3303 4.13028E-03 5.71755E-04-1.58514E-14
 -1      3304 4.37237E-03 5.60856E-04-1.82776E-14
 -1      3305 2.85421E-03-2.04425E-04-1.08183E-14
 -1      3306 3.33757E-03-5.05437E-05-1.45215E-14
 -1      3307 3.50612E-03-5.14503E-06-1.59865E-14
 -1      3308 3.67085E-03 3.48867E-05-1.75092E-14
 -1      3309 3.83100E-03 7.12432E-05-1.90880E-14
 -1      3310 3.64353E-03 6.81286E-05-1.67682E-14
 -1      3311 3.98756E-03 1.03888E-04-2.07216E-14
 -1      3312 4.14074E-03 1.34101E-04-2.24082E-14
 -1      3313 3.96099E-03 1.35399E-04-1.99284E-14
 -1      3314 4.29120E-03 1.61998E-04-2.41476E-14
 -1      3315 4.43936E-03 1.88511E-04-2.59383E-14
 -1      3316 4.26305E-03 1.91012E-04-2.33020E-14
 -1      3317 4.58570E-03 2.13664E-04-2.77799E-14
 -1      3318 4.73062E-03 2.38017E-04-2.96720E-14
 -1      3319 4.55502E-03 2.40471E-04-2.68822E-14
 -1      3320 4.87442E-03 2.61632E-04-3.16154E-14
 -1      3321 5.01743E-03 2.84830E-04-3.36070E-14
 -1      3322 4.84091E-03 2.86835E-04-3.06639E-14
 -1      3323 5.15982E-03 3.07674E-04-3.56464E-14
 -1      3324 5.30182E-03 3.30347E-04-3.77349E-14
 -1      3325 5.12354E-03 3.31862E-04-3.46431E-14
 -1      3326 5.44352E-03 3.52910E-04-3.98715E-14
 -1      3327 5.58510E-03 3.75461E-04-4.20566E-14
 -1      3328 5.40476E-03 3.76533E-04-3.88161E-14
 -1      3329 5.72658E-03 3.98056E-04-4.42893E-14
 -1      3330 5.86807E-03 4.20743E-04-4.65678E-14
 -1      3331 5.68564E-03 4.21423E-04-4.31814E-14
 -1      3332 6.00957E-03 4.43565E-04-4.88934E-14
 -1      3333 6.15116E-03 4.66542E-04-5.12663E-14
 -1      3334 5.96682E-03 4.66867E-04-4.77364E-14
 -1      3335 6.29282E-03 4.89706E-04-5.36847E-14
 -1      3336 6.43459E-03 5.13059E-04-5.61499E-14
 -1      3337 6.24858E-03 5.13051E-04-5.24789E-14
 -1      3338 6.57646E-03 5.36619E-04-5.86593E-14
 -1      3339 6.71845E-03 5.60381E-04-6.12140E-14
 -1      3340 6.53103E-03 5.60056E-04-5.74035E-14
 -1      3341 6.86052E-03 5.84352E-04-6.38148E-14
 -1      3342 7.00271E-03 6.08521E-04-6.64581E-14
 -1      3343 6.81416E-03 6.07896E-04-6.25110E-14
 -1      3344 7.14498E-03 6.32890E-04-6.91440E-14
 -1      3345 7.28734E-03 6.57443E-04-7.18734E-14
 -1      3346 7.09791E-03 6.56537E-04-6.77931E-14
 -1      3347 7.42978E-03 6.82178E-04-7.46432E-14
 -1      3348 7.57229E-03 7.07079E-04-7.74532E-14
 -1      3349 7.38217E-03 7.05914E-04-7.32466E-14
 -1      3350 7.71486E-03 7.32138E-04-8.03043E-14
 -1      3351 7.85748E-03 7.57343E-04-8.31945E-14
 -1      3352 7.66686E-03 7.55945E-04-7.88623E-14
 -1      3353 8.00015E-03 7.82683E-04-8.61257E-14
 -1      3354 8.14286E-03 8.08147E-04-8.90933E-14
 -1      3355 7.95189E-03 8.06544E-04-8.46371E-14
 -1      3356 8.28560E-03 8.33724E-04-9.20971E-14
 -1      3357 8.42838E-03 8.59403E-04-9.51395E-14
 -1      3358 8.23716E-03 8.57623E-04-9.05673E-14
 -1      3359 8.57118E-03 8.85174E-04-9.82167E-14
 -1      3360 8.71400E-03 9.11029E-04-1.01330E-13
 -1      3361 8.52261E-03 9.09099E-04-9.66444E-14
 -1      3362 8.85683E-03 9.36958E-04-1.04480E-13
 -1      3363 8.99968E-03 9.62953E-04-1.07666E-13
 -1      3364 8.80819E-03 9.60899E-04-1.02867E-13
 -1      3365 9.14255E-03 9.89007E-04-1.10882E-13
 -1      3366 9.28541E-03 1.01511E-03-1.14134E-13
 -1      3367 9.09386E-03 1.01296E-03-1.09229E-13
 -1      3368 9.42829E-03 1.04126E-03-1.17419E-13
 -1      3369 9.57117E-03 1.06745E-03-1.20737E-13
 -1      3370 9.37959E-03 1.06522E-03-1.15726E-13
 -1      3371 9.71405E-03 1.09368E-03-1.24084E-13
 -1      3372 9.85693E-03 1.11993E-03-1.27461E-13
 -1      3373 9.66535E-03 1.11763E-03-1.22354E-13
 -1      3374 9.99982E-03 1.14622E-03-1.30866E-13
 -1      3375 1.01427E-02 1.17252E-03-1.34300E-13
 -1      3376 9.95113E-03 1.17017E-03-1.29102E-13
 -1      3377 1.02856E-02 1.19884E-03-1.37759E-13
 -1      3378 1.04285E-02 1.22518E-03-1.41242E-13
 -1      3379 1.02369E-02 1.22279E-03-1.35963E-13
 -1      3380 1.05714E-02 1.25153E-03-1.44750E-13
 -1      3381 1.07142E-02 1.27789E-03-1.48282E-13
 -1      3382 1.05227E-02 1.27547E-03-1.42928E-13
 -1      3383 1.08571E-02 1.30426E-03-1.51837E-13
 -1      3384 1.10000E-02 1.33064E-03-1.55414E-13
 -1      3385 1.08085E-02 1.32820E-03-1.49988E-13
 -1      3386 1.11429E-02 1.35703E-03-1.59010E-13
 -1      3387 1.12858E-02 1.38342E-03-1.62625E-13
 -1      3388 1.10942E-02 1.38096E-03-1.57137E-13
 -1      3389 1.14286E-02 1.40981E-03-1.66259E-13
 -1      3390 1.15715E-02 1.43621E-03-1.69912E-13
 -1      3391 1.13800E-02 1.43374E-03-1.64363E-13
 -1      3392 1.17144E-02 1.46261E-03-1.73582E-13
 -1      3393 1.18572E-02 1.48901E-03-1.77267E-13
 -1      3394 1.16658E-02 1.48654E-03-1.71665E-13
 -1      3395 1.20001E-02 1.51542E-03-1.80968E-13
 -1      3396 1.21430E-02 1.54182E-03-1.84688E-13
 -1      3397 1.19515E-02 1.53934E-03-1.79036E-13
 -1      3398 1.22858E-02 1.56822E-03-1.88425E-13
 -1      3399 1.24287E-02 1.59463E-03-1.92178E-13
 -1      3400 1.22373E-02 1.59215E-03-1.86474E-13
 -1      3401 1.25716E-02 1.62103E-03-1.95949E-13
 -1      3402 1.27144E-02 1.64744E-03-1.99733E-13
 -1      3403 1.25230E-02 1.64496E-03-1.93979E-13
 -1      3404 1.28573E-02 1.67384E-03-2.03531E-13
 -1      3405 1.30002E-02 1.70025E-03-2.07346E-13
 -1      3406 1.28087E-02 1.69776E-03-2.01543E-13
 -1      3407 1.31430E-02 1.72665E-03-2.11173E-13
 -1      3408 1.32859E-02 1.75305E-03-2.15015E-13
 -1      3409 1.30944E-02 1.75057E-03-2.09166E-13
 -1      3410 5.08044E-03 7.28010E-04-2.76045E-14
 -1      3411 4.94540E-03 7.00851E-04-2.57713E-14
 -1      3412 5.35223E-03 7.84782E-04-3.14228E-14
 -1      3413 5.21593E-03 7.56025E-04-2.94881E-14
 -1      3414 5.14748E-03 7.12041E-04-2.86797E-14
 -1      3415 5.62684E-03 8.43750E-04-3.54408E-14
 -1      3416 5.48915E-03 8.14037E-04-3.34077E-14
 -1      3417 5.41430E-03 7.68849E-04-3.25510E-14
 -1      3418 5.90405E-03 9.03877E-04-3.96539E-14
 -1      3419 5.76511E-03 8.73704E-04-3.75229E-14
 -1      3420 5.68533E-03 8.27301E-04-3.66205E-14
 -1      3421 6.18345E-03 9.64359E-04-4.40636E-14
 -1      3422 6.04348E-03 9.34098E-04-4.18349E-14
 -1      3423 5.95989E-03 8.86634E-04-4.08855E-14
 -1      3424 6.46458E-03 1.02463E-03-4.86590E-14
 -1      3425 6.32381E-03 9.94536E-04-4.63383E-14
 -1      3426 6.23730E-03 9.46216E-04-4.53422E-14
 -1      3427 6.74705E-03 1.08433E-03-5.34421E-14
 -1      3428 6.60566E-03 1.05456E-03-5.10273E-14
 -1      3429 6.51694E-03 1.00558E-03-4.99872E-14
 -1      3430 7.03051E-03 1.14325E-03-5.84064E-14
 -1      3431 6.88866E-03 1.11389E-03-5.59019E-14
 -1      3432 6.79827E-03 1.06444E-03-5.48159E-14
 -1      3433 7.31468E-03 1.20133E-03-6.35469E-14
 -1      3434 7.17251E-03 1.17239E-03-6.09555E-14
 -1      3435 7.08088E-03 1.12260E-03-5.98261E-14
 -1      3436 7.59937E-03 1.25855E-03-6.88608E-14
 -1      3437 7.45697E-03 1.23004E-03-6.61825E-14
 -1      3438 7.36443E-03 1.18002E-03-6.50118E-14
 -1      3439 7.88443E-03 1.31498E-03-7.43400E-14
 -1      3440 7.74186E-03 1.28686E-03-7.15805E-14
 -1      3441 7.64867E-03 1.23668E-03-7.03686E-14
 -1      3442 8.16974E-03 1.37070E-03-7.99773E-14
 -1      3443 8.02706E-03 1.34292E-03-7.71376E-14
 -1      3444 7.93341E-03 1.29265E-03-7.58899E-14
 -1      3445 8.45522E-03 1.42580E-03-8.57693E-14
 -1      3446 8.31246E-03 1.39832E-03-8.28550E-14
 -1      3447 8.21850E-03 1.34799E-03-8.15685E-14
 -1      3448 8.74082E-03 1.48039E-03-9.17139E-14
 -1      3449 8.59801E-03 1.45315E-03-8.87233E-14
 -1      3450 8.50384E-03 1.40279E-03-8.74016E-14
 -1      3451 9.02649E-03 1.53454E-03-9.78055E-14
 -1      3452 8.88365E-03 1.50751E-03-9.47411E-14
 -1      3453 8.78935E-03 1.45714E-03-9.33847E-14
 -1      3454 9.31221E-03 1.58835E-03-1.04043E-13
 -1      3455 9.16935E-03 1.56149E-03-1.00907E-13
 -1      3456 9.07497E-03 1.51111E-03-9.95147E-14
 -1      3457 9.59796E-03 1.64189E-03-1.10423E-13
 -1      3458 9.45508E-03 1.61515E-03-1.07214E-13
 -1      3459 9.36066E-03 1.56478E-03-1.05787E-13
 -1      3460 9.88372E-03 1.69522E-03-1.16937E-13
 -1      3461 9.74084E-03 1.66858E-03-1.13664E-13
 -1      3462 9.64640E-03 1.61821E-03-1.12200E-13
 -1      3463 1.01695E-02 1.74838E-03-1.23586E-13
 -1      3464 1.00266E-02 1.72182E-03-1.20245E-13
 -1      3465 9.93217E-03 1.67145E-03-1.18747E-13
 -1      3466 1.04552E-02 1.80142E-03-1.30352E-13
 -1      3467 1.03124E-02 1.77491E-03-1.26954E-13
 -1      3468 1.02179E-02 1.72456E-03-1.25424E-13
 -1      3469 1.07410E-02 1.85437E-03-1.37233E-13
 -1      3470 1.05981E-02 1.82791E-03-1.33780E-13
 -1      3471 1.05037E-02 1.77756E-03-1.32221E-13
 -1      3472 1.10268E-02 1.90726E-03-1.44211E-13
 -1      3473 1.08839E-02 1.88082E-03-1.40709E-13
 -1      3474 1.07895E-02 1.83048E-03-1.39126E-13
 -1      3475 1.13125E-02 1.96010E-03-1.51285E-13
 -1      3476 1.11696E-02 1.93369E-03-1.47736E-13
 -1      3477 1.10753E-02 1.88335E-03-1.46129E-13
 -1      3478 1.15983E-02 2.01291E-03-1.58450E-13
 -1      3479 1.14554E-02 1.98651E-03-1.54858E-13
 -1      3480 1.13610E-02 1.93618E-03-1.53226E-13
 -1      3481 1.18840E-02 2.06571E-03-1.65699E-13
 -1      3482 1.17411E-02 2.03931E-03-1.62064E-13
 -1      3483 1.16468E-02 1.98899E-03-1.60412E-13
 -1      3484 1.21697E-02 2.11849E-03-1.73028E-13
 -1      3485 1.20269E-02 2.09210E-03-1.69353E-13
 -1      3486 1.19325E-02 2.04178E-03-1.67680E-13
 -1      3487 1.24555E-02 2.17126E-03-1.80435E-13
 -1      3488 1.23126E-02 2.14487E-03-1.76723E-13
 -1      3489 1.22183E-02 2.09455E-03-1.75030E-13
 -1      3490 1.27412E-02 2.22403E-03-1.87901E-13
 -1      3491 1.25983E-02 2.19765E-03-1.84162E-13
 -1      3492 1.25040E-02 2.14733E-03-1.82453E-13
 -1      3493 1.30269E-02 2.27680E-03-1.95417E-13
 -1      3494 1.28841E-02 2.25042E-03-1.91654E-13
 -1      3495 1.27897E-02 2.20010E-03-1.89933E-13
 -1      3496 1.33126E-02 2.32957E-03-2.02971E-13
 -1      3497 1.31698E-02 2.30319E-03-1.99189E-13
 -1      3498 1.30755E-02 2.25287E-03-1.97457E-13
 -1      3499 1.35984E-02 2.38235E-03-2.10556E-13
 -1      3500 1.34555E-02 2.35596E-03-2.06759E-13
 -1      3501 1.33612E-02 2.30564E-03-2.05018E-13
 -1      3502 1.38841E-02 2.43512E-03-2.18170E-13
 -1      3503 1.37412E-02 2.40873E-03-2.14359E-13
 -1      3504 1.36469E-02 2.35842E-03-2.12610E-13
 -1      3505 1.41925E-02 2.45971E-03-2.27178E-13
 -1      3506 1.42172E-02 2.49554E-03-2.27109E-13
 -1      3507 1.41259E-02 2.48129E-03-2.24602E-13
 -1      3508 1.40559E-02 2.41596E-03-2.23950E-13
 -1      3509 4.81104E-03 6.74781E-04-2.39883E-14
 -1      3510 4.67661E-03 6.50073E-04-2.22574E-14
 -1      3511 4.88531E-03 6.57734E-04-2.50088E-14
 -1      3512 1.37033E-02 2.04574E-03-2.21490E-13
 -1      3513 1.37289E-02 2.08717E-03-2.21349E-13
 -1      3514 4.23848E-03 3.97977E-04-1.71822E-14
 -1      3515 4.12027E-03 3.68557E-04-1.65341E-14
 -1      3516 4.01203E-03 3.33394E-04-1.61891E-14
 -1      3517 3.89267E-03 2.88953E-04-1.58396E-14
 -1      3518 4.12651E-03 3.50737E-04-1.74727E-14
 -1      3519 1.19734E-03-4.02880E-04-2.10018E-15
 -1      3520 4.09275E-03 5.28340E-04-1.50781E-14
 -1      3521 4.20198E-03 4.96266E-04-1.57669E-14
 -1      3522 4.25896E-03 4.57463E-04-1.58202E-14
 -1      3523 4.29296E-03 4.39928E-04-1.59436E-14
 -1      3524 4.62747E-03 6.06920E-04-2.15408E-14
 -1      3525 2.98820E-03-1.57167E-04-1.17692E-14
 -1      3526 3.16420E-03-1.00967E-04-1.31154E-14
 -1      3527 1.36183E-02 2.08566E-03-2.17954E-13
 -1      3528 1.37548E-02 2.12924E-03-2.21201E-13
 -1      3529 1.37807E-02 2.17130E-03-2.21046E-13
 -1      3530 1.33878E-02 1.76482E-03-2.17913E-13
 -1      3531 1.35104E-02 1.78466E-03-2.21286E-13
 -1      3532 1.35431E-02 1.81228E-03-2.21700E-13
 -1      3533 1.33392E-02 1.78874E-03-2.15890E-13
 -1      3534 1.39053E-02 2.38405E-03-2.20017E-13
 -1      3535 1.39403E-02 2.41671E-03-2.20345E-13
 -1      3536 1.40346E-02 2.46703E-03-2.22099E-13
 -1      3537 3.83811E-03 2.42793E-04-1.62486E-14
 -1      3538 4.32651E-03 4.19410E-04-1.78659E-14
 -1      3539 4.32119E-03 4.07889E-04-1.85254E-14
 -1      3540 3.55766E-03 9.43798E-05-1.53370E-14
 -1      3541 3.39665E-03 4.12548E-05-1.41505E-14
 -1      3542 1.38534E-02 2.29975E-03-2.20357E-13
 -1      3543 1.38794E-02 2.34190E-03-2.20189E-13
 -1      3544 1.37638E-02 2.34266E-03-2.16591E-13
 -1      3545 1.36774E-02 2.00359E-03-2.21630E-13
 -1      3546 1.35664E-02 2.00145E-03-2.18237E-13
 -1      3547 1.36514E-02 1.96144E-03-2.21768E-13
 -1      3548 3.30606E-03-1.86517E-05-1.38316E-14
 -1      3549 1.35758E-02 1.83990E-03-2.22111E-13
 -1      3550 3.96153E-03 5.69785E-04-1.42420E-14
 -1      3551 4.29762E-03 4.95103E-04-1.67908E-14
 -1      3552 3.22115E-03-9.65733E-06-1.27523E-14
 -1      3553 2.99457E-03-1.18101E-04-1.14722E-14
 -1      3554 4.35123E-03 4.44207E-04-1.70043E-14
 -1      3555 4.36977E-03 4.30734E-04-1.81809E-14
 -1      3556 1.34705E-02 1.83539E-03-2.18937E-13
 -1      3557 1.36052E-02 1.87478E-03-2.22254E-13
 -1      3558 1.36311E-02 1.91693E-03-2.22127E-13
 -1      3559 1.33686E-02 1.82362E-03-2.16040E-13
 -1      3560 4.25367E-03 3.70624E-04-1.89555E-14
 -1      3561 4.15779E-03 3.35167E-04-1.85864E-14
 -1      3562 5.74124E-03 8.11370E-04-3.78033E-14
 -1      3563 5.60641E-03 7.82428E-04-3.57193E-14
 -1      3564 3.72031E-03 1.31111E-04-1.68390E-14
 -1      3565 4.52436E-03 5.41848E-04-1.99615E-14
 -1      3566 4.40905E-03 5.17675E-04-1.83518E-14
 -1      3567 4.43330E-03 4.84771E-04-1.84044E-14
 -1      3568 3.94002E-03 1.68087E-04-1.91380E-14
 -1      3569 4.09124E-03 1.95479E-04-2.07730E-14
 -1      3570 4.23901E-03 2.20487E-04-2.24601E-14
 -1      3571 4.38418E-03 2.44442E-04-2.41983E-14
 -1      3572 4.21948E-03 2.50728E-04-2.16217E-14
 -1      3573 4.52726E-03 2.67262E-04-2.59880E-14
 -1      3574 4.66892E-03 2.89695E-04-2.78267E-14
 -1      3575 4.50268E-03 2.94131E-04-2.50972E-14
 -1      3576 4.80946E-03 3.11722E-04-2.97160E-14
 -1      3577 4.94937E-03 3.33679E-04-3.16558E-14
 -1      3578 4.78019E-03 3.36298E-04-2.87735E-14
 -1      3579 5.08877E-03 3.55560E-04-3.36440E-14
 -1      3580 5.22800E-03 3.77525E-04-3.56797E-14
 -1      3581 5.05552E-03 3.78749E-04-3.26479E-14
 -1      3582 5.36710E-03 3.99585E-04-3.77641E-14
 -1      3583 5.50628E-03 4.21804E-04-3.98974E-14
 -1      3584 5.33052E-03 4.22034E-04-3.67171E-14
 -1      3585 5.64555E-03 4.44202E-04-4.20790E-14
 -1      3586 5.78503E-03 4.66797E-04-4.43078E-14
 -1      3587 5.60626E-03 4.66359E-04-4.09797E-14
 -1      3588 5.92471E-03 4.89609E-04-4.65835E-14
 -1      3589 6.06466E-03 5.12633E-04-4.89062E-14
 -1      3590 5.88322E-03 5.11753E-04-4.54342E-14
 -1      3591 6.20484E-03 5.35887E-04-5.12758E-14
 -1      3592 6.34530E-03 5.59355E-04-5.36918E-14
 -1      3593 6.16158E-03 5.58179E-04-5.00766E-14
 -1      3594 6.48600E-03 5.83050E-04-5.61524E-14
 -1      3595 6.62695E-03 6.06952E-04-5.86579E-14
 -1      3596 6.44134E-03 6.05568E-04-5.49045E-14
 -1      3597 6.76812E-03 6.31067E-04-6.12103E-14
 -1      3598 6.90951E-03 6.55375E-04-6.38072E-14
 -1      3599 6.72237E-03 6.53833E-04-5.99130E-14
 -1      3600 7.05109E-03 6.79878E-04-6.64457E-14
 -1      3601 7.19285E-03 7.04555E-04-6.91273E-14
 -1      3602 7.00450E-03 7.02884E-04-6.51009E-14
 -1      3603 7.33477E-03 7.29405E-04-7.18520E-14
 -1      3604 7.47684E-03 7.54408E-04-7.46180E-14
 -1      3605 7.28755E-03 7.52626E-04-7.04613E-14
 -1      3606 7.61903E-03 7.79561E-04-7.74241E-14
 -1      3607 7.76134E-03 8.04847E-04-8.02692E-14
 -1      3608 7.57134E-03 8.02964E-04-7.59887E-14
 -1      3609 7.90374E-03 8.30259E-04-8.31547E-14
 -1      3610 8.04623E-03 8.55784E-04-8.60796E-14
 -1      3611 7.85571E-03 8.53810E-04-8.16769E-14
 -1      3612 8.18880E-03 8.81413E-04-8.90416E-14
 -1      3613 8.33143E-03 9.07137E-04-9.20409E-14
 -1      3614 8.14053E-03 9.05080E-04-8.75195E-14
 -1      3615 8.47411E-03 9.32945E-04-9.50760E-14
 -1      3616 8.61684E-03 9.58830E-04-9.81481E-14
 -1      3617 8.42567E-03 9.56700E-04-9.35126E-14
 -1      3618 8.75960E-03 9.84784E-04-1.01256E-13
 -1      3619 8.90240E-03 1.01080E-03-1.04401E-13
 -1      3620 8.71105E-03 1.00860E-03-9.96523E-14
 -1      3621 9.04522E-03 1.03687E-03-1.07579E-13
 -1      3622 9.18806E-03 1.06298E-03-1.10790E-13
 -1      3623 8.99660E-03 1.06073E-03-1.05933E-13
 -1      3624 9.33091E-03 1.08914E-03-1.14037E-13
 -1      3625 9.47378E-03 1.11534E-03-1.17316E-13
 -1      3626 9.28226E-03 1.11304E-03-1.12351E-13
 -1      3627 9.61666E-03 1.14157E-03-1.20628E-13
 -1      3628 9.75955E-03 1.16783E-03-1.23970E-13
 -1      3629 9.56800E-03 1.16549E-03-1.18905E-13
 -1      3630 9.90244E-03 1.19411E-03-1.27341E-13
 -1      3631 1.00453E-02 1.22041E-03-1.30742E-13
 -1      3632 9.85377E-03 1.21804E-03-1.25585E-13
 -1      3633 1.01882E-02 1.24673E-03-1.34171E-13
 -1      3634 1.03311E-02 1.27307E-03-1.37628E-13
 -1      3635 1.01396E-02 1.27067E-03-1.32383E-13
 -1      3636 1.04740E-02 1.29941E-03-1.41109E-13
 -1      3637 1.06169E-02 1.32577E-03-1.44614E-13
 -1      3638 1.04254E-02 1.32335E-03-1.39292E-13
 -1      3639 1.07598E-02 1.35214E-03-1.48141E-13
 -1      3640 1.09027E-02 1.37852E-03-1.51693E-13
 -1      3641 1.07112E-02 1.37608E-03-1.46299E-13
 -1      3642 1.10456E-02 1.40490E-03-1.55266E-13
 -1      3643 1.11885E-02 1.43129E-03-1.58858E-13
 -1      3644 1.09970E-02 1.42884E-03-1.53395E-13
 -1      3645 1.13314E-02 1.45768E-03-1.62471E-13
 -1      3646 1.14743E-02 1.48407E-03-1.66101E-13
 -1      3647 1.12828E-02 1.48162E-03-1.60579E-13
 -1      3648 1.16171E-02 1.51047E-03-1.69751E-13
 -1      3649 1.17600E-02 1.53687E-03-1.73419E-13
 -1      3650 1.15685E-02 1.53440E-03-1.67838E-13
 -1      3651 1.19029E-02 1.56327E-03-1.77104E-13
 -1      3652 1.20458E-02 1.58967E-03-1.80806E-13
 -1      3653 1.18543E-02 1.58720E-03-1.75172E-13
 -1      3654 1.21887E-02 1.61607E-03-1.84524E-13
 -1      3655 1.23315E-02 1.64248E-03-1.88258E-13
 -1      3656 1.21401E-02 1.64000E-03-1.82576E-13
 -1      3657 1.24744E-02 1.66888E-03-1.92009E-13
 -1      3658 1.26173E-02 1.69528E-03-1.95777E-13
 -1      3659 1.24258E-02 1.69281E-03-1.90042E-13
 -1      3660 1.27601E-02 1.72168E-03-1.99556E-13
 -1      3661 1.29030E-02 1.74809E-03-2.03350E-13
 -1      3662 1.27115E-02 1.74561E-03-1.97571E-13
 -1      3663 1.30459E-02 1.77449E-03-2.07158E-13
 -1      3664 1.31887E-02 1.80089E-03-2.10981E-13
 -1      3665 1.29973E-02 1.79841E-03-2.05155E-13
 -1      3666 5.47282E-03 7.53820E-04-3.36828E-14
 -1      3667 5.34047E-03 7.25477E-04-3.16954E-14
 -1      3668 5.52804E-03 7.39127E-04-3.48171E-14
 -1      3669 5.20967E-03 6.97649E-04-2.97580E-14
 -1      3670 5.08034E-03 6.70206E-04-2.78710E-14
 -1      3671 5.26724E-03 6.83976E-04-3.08405E-14
 -1      3672 6.01388E-03 8.69682E-04-4.21188E-14
 -1      3673 5.87707E-03 8.40441E-04-3.99359E-14
 -1      3674 5.79477E-03 7.95558E-04-3.89889E-14
 -1      3675 6.28983E-03 9.28229E-04-4.66238E-14
 -1      3676 6.15147E-03 8.98936E-04-4.43477E-14
 -1      3677 6.06613E-03 8.52735E-04-4.33536E-14
 -1      3678 6.56835E-03 9.86613E-04-5.13158E-14
 -1      3679 6.42879E-03 9.57449E-04-4.89476E-14
 -1      3680 6.34110E-03 9.10189E-04-4.79077E-14
 -1      3681 6.84883E-03 1.04457E-03-5.61925E-14
 -1      3682 6.70837E-03 1.01565E-03-5.37313E-14
 -1      3683 6.61887E-03 9.67563E-04-5.26485E-14
 -1      3684 7.13080E-03 1.10195E-03-6.12478E-14
 -1      3685 6.98965E-03 1.07333E-03-5.86977E-14
 -1      3686 6.89877E-03 1.02462E-03-5.75714E-14
 -1      3687 7.41388E-03 1.15869E-03-6.64779E-14
 -1      3688 7.27222E-03 1.13040E-03-6.38419E-14
 -1      3689 7.18030E-03 1.08121E-03-6.26727E-14
 -1      3690 7.69778E-03 1.21479E-03-7.18802E-14
 -1      3691 7.55574E-03 1.18681E-03-6.91582E-14
 -1      3692 7.46305E-03 1.13727E-03-6.79481E-14
 -1      3693 7.98228E-03 1.27029E-03-7.74421E-14
 -1      3694 7.83996E-03 1.24261E-03-7.46415E-14
 -1      3695 7.74670E-03 1.19281E-03-7.33931E-14
 -1      3696 8.26720E-03 1.32525E-03-8.31636E-14
 -1      3697 8.12469E-03 1.29783E-03-8.02833E-14
 -1      3698 8.03103E-03 1.24786E-03-7.89993E-14
 -1      3699 8.55243E-03 1.37975E-03-8.90364E-14
 -1      3700 8.40978E-03 1.35255E-03-8.60801E-14
 -1      3701 8.31584E-03 1.30245E-03-8.47610E-14
 -1      3702 8.83787E-03 1.43386E-03-9.50568E-14
 -1      3703 8.69513E-03 1.40685E-03-9.20276E-14
 -1      3704 8.60099E-03 1.35666E-03-9.06710E-14
 -1      3705 9.12345E-03 1.48764E-03-1.01223E-13
 -1      3706 8.98065E-03 1.46079E-03-9.81220E-14
 -1      3707 8.88639E-03 1.41054E-03-9.67307E-14
 -1      3708 9.40913E-03 1.54117E-03-1.07531E-13
 -1      3709 9.26628E-03 1.51444E-03-1.04360E-13
 -1      3710 9.17195E-03 1.46415E-03-1.02933E-13
 -1      3711 9.69487E-03 1.59450E-03-1.13977E-13
 -1      3712 9.55199E-03 1.56786E-03-1.10737E-13
 -1      3713 9.45762E-03 1.51755E-03-1.09276E-13
 -1      3714 9.98063E-03 1.64767E-03-1.20559E-13
 -1      3715 9.83775E-03 1.62110E-03-1.17252E-13
 -1      3716 9.74335E-03 1.57077E-03-1.15757E-13
 -1      3717 1.02664E-02 1.70072E-03-1.27263E-13
 -1      3718 1.01235E-02 1.67421E-03-1.23896E-13
 -1      3719 1.00291E-02 1.62387E-03-1.22370E-13
 -1      3720 1.05522E-02 1.75368E-03-1.34089E-13
 -1      3721 1.04093E-02 1.72721E-03-1.30661E-13
 -1      3722 1.03149E-02 1.67687E-03-1.29105E-13
 -1      3723 1.08380E-02 1.80658E-03-1.41020E-13
 -1      3724 1.06951E-02 1.78014E-03-1.37542E-13
 -1      3725 1.06007E-02 1.72980E-03-1.35958E-13
 -1      3726 1.11238E-02 1.85943E-03-1.48047E-13
 -1      3727 1.09809E-02 1.83301E-03-1.44522E-13
 -1      3728 1.08865E-02 1.78268E-03-1.42916E-13
 -1      3729 1.14096E-02 1.91226E-03-1.55166E-13
 -1      3730 1.12667E-02 1.88585E-03-1.51594E-13
 -1      3731 1.11723E-02 1.83551E-03-1.49967E-13
 -1      3732 1.16953E-02 1.96506E-03-1.62374E-13
 -1      3733 1.15524E-02 1.93866E-03-1.58761E-13
 -1      3734 1.14581E-02 1.88833E-03-1.57109E-13
 -1      3735 1.19811E-02 2.01784E-03-1.69664E-13
 -1      3736 1.18382E-02 1.99145E-03-1.66009E-13
 -1      3737 1.17439E-02 1.94112E-03-1.64337E-13
 -1      3738 1.22668E-02 2.07062E-03-1.77033E-13
 -1      3739 1.21240E-02 2.04423E-03-1.73338E-13
 -1      3740 1.20296E-02 1.99391E-03-1.71648E-13
 -1      3741 1.25526E-02 2.12339E-03-1.84471E-13
 -1      3742 1.24097E-02 2.09701E-03-1.80745E-13
 -1      3743 1.23154E-02 2.04669E-03-1.79035E-13
 -1      3744 1.28383E-02 2.17617E-03-1.91960E-13
 -1      3745 1.26954E-02 2.14978E-03-1.88208E-13
 -1      3746 1.26011E-02 2.09946E-03-1.86486E-13
 -1      3747 1.31240E-02 2.22894E-03-1.99493E-13
 -1      3748 1.29812E-02 2.20256E-03-1.95722E-13
 -1      3749 1.28869E-02 2.15224E-03-1.93986E-13
 -1      3750 1.34098E-02 2.28172E-03-2.07064E-13
 -1      3751 1.32669E-02 2.25533E-03-2.03275E-13
 -1      3752 1.31726E-02 2.20501E-03-2.01529E-13
 -1      3753 1.36582E-02 2.32538E-03-2.13724E-13
 -1      3754 1.35154E-02 2.29899E-03-2.09922E-13
 -1      3755 1.34211E-02 2.24868E-03-2.08169E-13
 -1      3756 1.36323E-02 2.28323E-03-2.13891E-13
 -1      3757 4.03770E-03 2.69592E-04-1.85263E-14
 -1      3758 3.86480E-03 1.97217E-04-1.76192E-14
 -1      3759 4.95296E-03 6.43455E-04-2.60334E-14
 -1      3760 4.82728E-03 6.17152E-04-2.42466E-14
 -1      3761 5.01399E-03 6.30578E-04-2.70621E-14
 -1      3762 1.38066E-02 2.21336E-03-2.20889E-13
 -1      3763 1.38325E-02 2.25542E-03-2.20729E-13
 -1      3764 1.36701E-02 2.16979E-03-2.17653E-13
 -1      3765 4.42311E-03 4.64707E-04-1.82250E-14
 -1      3766 4.41267E-03 4.47414E-04-1.83820E-14
 -1      3767 4.45695E-03 4.49371E-04-1.94378E-14
 -1      3768 4.52048E-03 4.87003E-04-1.98334E-14
 -1      3769 4.44647E-03 4.24801E-04-2.03983E-14
 -1      3770 4.35486E-03 3.99524E-04-1.96754E-14
 -1      3771 4.39369E-03 3.88624E-04-2.08448E-14
 -1      3772 4.73311E-03 5.91499E-04-2.29189E-14
 -1      3773 4.61219E-03 5.66276E-04-2.12212E-14
 -1      3774 4.61935E-03 5.31305E-04-2.12818E-14
 -1      3775 4.79719E-03 5.79541E-04-2.38971E-14
 -1      3776 1.37169E-02 2.25618E-03-2.17130E-13
 -1      3777 1.35202E-02 1.91478E-03-2.18729E-13
 -1      3778 1.33200E-02 1.84754E-03-2.14014E-13
 -1      3779 4.54902E-03 4.67880E-04-2.08345E-14
 -1      3780 4.50312E-03 4.47601E-04-2.06208E-14
 -1      3781 4.54940E-03 4.42989E-04-2.18238E-14
 -1      3782 4.18278E-03 2.96885E-04-2.00439E-14
 -1      3783 1.34816E-02 2.04177E-03-2.14714E-13
 -1      3784 1.35075E-02 2.08383E-03-2.14570E-13
 -1      3785 1.34297E-02 1.95746E-03-2.14986E-13
 -1      3786 1.34557E-02 1.99962E-03-2.14853E-13
 -1      3787 1.33449E-02 1.99779E-03-2.11477E-13
 -1      3788 1.35904E-02 2.19457E-03-2.14624E-13
 -1      3789 1.36113E-02 2.23890E-03-2.14260E-13
 -1      3790 1.35057E-02 2.22162E-03-2.11396E-13
 -1      3791 5.84609E-03 7.79736E-04-4.01775E-14
 -1      3792 5.71246E-03 7.51984E-04-3.80420E-14
 -1      3793 4.48154E-03 3.20336E-04-2.42106E-14
 -1      3794 4.61772E-03 3.40161E-04-2.59976E-14
 -1      3795 4.75312E-03 3.60137E-04-2.78340E-14
 -1      3796 4.88845E-03 3.80492E-04-2.97202E-14
 -1      3797 4.72823E-03 3.83245E-04-2.68993E-14
 -1      3798 5.02367E-03 4.01157E-04-3.16563E-14
 -1      3799 5.15915E-03 4.22244E-04-3.36409E-14
 -1      3800 4.99316E-03 4.22753E-04-3.06687E-14
 -1      3801 5.29487E-03 4.43709E-04-3.56740E-14
 -1      3802 5.43103E-03 4.65561E-04-3.77546E-14
 -1      3803 5.26004E-03 4.64571E-04-3.46342E-14
 -1      3804 5.56759E-03 4.87779E-04-3.98838E-14
 -1      3805 5.70465E-03 5.10335E-04-4.20621E-14
 -1      3806 5.52944E-03 5.08427E-04-3.87930E-14
 -1      3807 5.84216E-03 5.33222E-04-4.42877E-14
 -1      3808 5.98018E-03 5.56400E-04-4.65603E-14
 -1      3809 5.80146E-03 5.53981E-04-4.31447E-14
 -1      3810 6.11865E-03 5.79869E-04-4.88805E-14
 -1      3811 6.25759E-03 6.03589E-04-5.12467E-14
 -1      3812 6.07597E-03 6.00925E-04-4.76872E-14
 -1      3813 6.39694E-03 6.27561E-04-5.36590E-14
 -1      3814 6.53670E-03 6.51750E-04-5.61165E-14
 -1      3815 6.35272E-03 6.49004E-04-5.24168E-14
 -1      3816 6.67682E-03 6.76155E-04-5.86191E-14
 -1      3817 6.81730E-03 7.00746E-04-6.11676E-14
 -1      3818 6.63143E-03 6.98009E-04-5.73291E-14
 -1      3819 6.95808E-03 7.25522E-04-6.37604E-14
 -1      3820 7.09915E-03 7.50457E-04-6.63962E-14
 -1      3821 6.91178E-03 7.47771E-04-6.24219E-14
 -1      3822 7.24046E-03 7.75548E-04-6.90745E-14
 -1      3823 7.38201E-03 8.00774E-04-7.17947E-14
 -1      3824 7.19348E-03 7.98153E-04-6.76900E-14
 -1      3825 7.52376E-03 8.26129E-04-7.45567E-14
 -1      3826 7.66569E-03 8.51599E-04-7.73592E-14
 -1      3827 7.47627E-03 8.49041E-04-7.31278E-14
 -1      3828 7.80777E-03 8.77175E-04-8.02003E-14
 -1      3829 7.94999E-03 9.02846E-04-8.30817E-14
 -1      3830 7.75991E-03 9.00342E-04-7.87279E-14
 -1      3831 8.09233E-03 9.28605E-04-8.60007E-14
 -1      3832 8.23477E-03 9.54442E-04-8.89579E-14
 -1      3833 8.04419E-03 9.51978E-04-8.44844E-14
 -1      3834 8.37729E-03 9.80349E-04-9.19518E-14
 -1      3835 8.51990E-03 1.00632E-03-9.49817E-14
 -1      3836 8.32897E-03 1.00388E-03-9.03934E-14
 -1      3837 8.66256E-03 1.03235E-03-9.80506E-14
 -1      3838 8.80527E-03 1.05842E-03-1.01154E-13
 -1      3839 8.61410E-03 1.05600E-03-9.64523E-14
 -1      3840 8.94803E-03 1.08454E-03-1.04292E-13
 -1      3841 9.09082E-03 1.11070E-03-1.07464E-13
 -1      3842 8.89948E-03 1.10829E-03-1.02654E-13
 -1      3843 9.23364E-03 1.13690E-03-1.10670E-13
 -1      3844 9.37648E-03 1.16313E-03-1.13911E-13
 -1      3845 9.18504E-03 1.16072E-03-1.08992E-13
 -1      3846 9.51935E-03 1.18938E-03-1.17185E-13
 -1      3847 9.66222E-03 1.21566E-03-1.20492E-13
 -1      3848 9.47072E-03 1.21324E-03-1.15469E-13
 -1      3849 9.80511E-03 1.24195E-03-1.23829E-13
 -1      3850 9.94801E-03 1.26827E-03-1.27196E-13
 -1      3851 9.75647E-03 1.26585E-03-1.22076E-13
 -1      3852 1.00909E-02 1.29459E-03-1.30595E-13
 -1      3853 1.02338E-02 1.32094E-03-1.34022E-13
 -1      3854 1.00423E-02 1.31851E-03-1.28809E-13
 -1      3855 1.03767E-02 1.34729E-03-1.37473E-13
 -1      3856 1.05196E-02 1.37365E-03-1.40952E-13
 -1      3857 1.03281E-02 1.37122E-03-1.35658E-13
 -1      3858 1.06625E-02 1.40002E-03-1.44455E-13
 -1      3859 1.08054E-02 1.42640E-03-1.47981E-13
 -1      3860 1.06139E-02 1.42396E-03-1.42611E-13
 -1      3861 1.09483E-02 1.45278E-03-1.51528E-13
 -1      3862 1.10912E-02 1.47916E-03-1.55096E-13
 -1      3863 1.08997E-02 1.47672E-03-1.49660E-13
 -1      3864 1.12341E-02 1.50555E-03-1.58687E-13
 -1      3865 1.13770E-02 1.53195E-03-1.62298E-13
 -1      3866 1.11855E-02 1.52949E-03-1.56796E-13
 -1      3867 1.15199E-02 1.55834E-03-1.65925E-13
 -1      3868 1.16628E-02 1.58474E-03-1.69573E-13
 -1      3869 1.14713E-02 1.58228E-03-1.64014E-13
 -1      3870 1.18057E-02 1.61113E-03-1.73240E-13
 -1      3871 1.19486E-02 1.63753E-03-1.76923E-13
 -1      3872 1.17571E-02 1.63507E-03-1.71307E-13
 -1      3873 1.20915E-02 1.66393E-03-1.80626E-13
 -1      3874 1.22343E-02 1.69033E-03-1.84344E-13
 -1      3875 1.20429E-02 1.68787E-03-1.78675E-13
 -1      3876 1.23772E-02 1.71673E-03-1.88075E-13
 -1      3877 1.25201E-02 1.74313E-03-1.91825E-13
 -1      3878 1.23286E-02 1.74066E-03-1.86110E-13
 -1      3879 1.26630E-02 1.76954E-03-1.95588E-13
 -1      3880 1.28058E-02 1.79594E-03-1.99365E-13
 -1      3881 1.26144E-02 1.79346E-03-1.93606E-13
 -1      3882 1.29487E-02 1.82234E-03-2.03155E-13
 -1      3883 1.30916E-02 1.84874E-03-2.06958E-13
 -1      3884 1.29001E-02 1.84626E-03-2.01156E-13
 -1      3885 5.58021E-03 7.24566E-04-3.59537E-14
 -1      3886 5.44948E-03 6.97389E-04-3.39154E-14
 -1      3887 5.62978E-03 7.09709E-04-3.70943E-14
 -1      3888 5.32056E-03 6.70713E-04-3.19254E-14
 -1      3889 5.19359E-03 6.44362E-04-2.99852E-14
 -1      3890 5.37026E-03 6.57206E-04-3.30137E-14
 -1      3891 1.33403E-02 1.89205E-03-2.13668E-13
 -1      3892 6.39123E-03 8.92035E-04-4.91943E-14
 -1      3893 6.25359E-03 8.63832E-04-4.68700E-14
 -1      3894 6.66856E-03 9.48389E-04-5.39830E-14
 -1      3895 6.52957E-03 9.20214E-04-5.15662E-14
 -1      3896 6.44034E-03 8.73614E-04-5.04840E-14
 -1      3897 6.94813E-03 1.00454E-03-5.89531E-14
 -1      3898 6.80810E-03 9.76492E-04-5.64459E-14
 -1      3899 6.71753E-03 9.28978E-04-5.53206E-14
 -1      3900 7.22939E-03 1.06035E-03-6.41002E-14
 -1      3901 7.08857E-03 1.03249E-03-6.15042E-14
 -1      3902 6.99697E-03 9.84258E-04-6.03376E-14
 -1      3903 7.51194E-03 1.11576E-03-6.94215E-14
 -1      3904 7.37053E-03 1.08810E-03-6.67395E-14
 -1      3905 7.27813E-03 1.03932E-03-6.55312E-14
 -1      3906 7.79546E-03 1.17075E-03-7.49075E-14
 -1      3907 7.65359E-03 1.14331E-03-7.21440E-14
 -1      3908 7.56060E-03 1.09410E-03-7.08953E-14
 -1      3909 8.07968E-03 1.22535E-03-8.05564E-14
 -1      3910 7.93749E-03 1.19810E-03-7.77120E-14
 -1      3911 7.84405E-03 1.14857E-03-7.64263E-14
 -1      3912 8.36442E-03 1.27958E-03-8.63592E-14
 -1      3913 8.22200E-03 1.25251E-03-8.34392E-14
 -1      3914 8.12824E-03 1.20274E-03-8.21169E-14
 -1      3915 8.64953E-03 1.33351E-03-9.23088E-14
 -1      3916 8.50694E-03 1.30658E-03-8.93161E-14
 -1      3917 8.41295E-03 1.25664E-03-8.79593E-14
 -1      3918 8.93490E-03 1.38717E-03-9.84060E-14
 -1      3919 8.79219E-03 1.36037E-03-9.53391E-14
 -1      3920 8.69805E-03 1.31030E-03-9.39491E-14
 -1      3921 9.22045E-03 1.44062E-03-1.04644E-13
 -1      3922 9.07766E-03 1.41392E-03-1.01507E-13
 -1      3923 8.98341E-03 1.36375E-03-1.00083E-13
 -1      3924 9.50611E-03 1.49389E-03-1.11021E-13
 -1      3925 9.36327E-03 1.46727E-03-1.07816E-13
 -1      3926 9.26896E-03 1.41704E-03-1.06356E-13
 -1      3927 9.79185E-03 1.54703E-03-1.17538E-13
 -1      3928 9.64898E-03 1.52047E-03-1.14263E-13
 -1      3929 9.55463E-03 1.47020E-03-1.12771E-13
 -1      3930 1.00776E-02 1.60006E-03-1.24181E-13
 -1      3931 9.93474E-03 1.57355E-03-1.20844E-13
 -1      3932 9.84037E-03 1.52325E-03-1.19319E-13
 -1      3933 1.03634E-02 1.65301E-03-1.30948E-13
 -1      3934 1.02205E-02 1.62654E-03-1.27550E-13
 -1      3935 1.01262E-02 1.57623E-03-1.25996E-13
 -1      3936 1.06492E-02 1.70591E-03-1.37830E-13
 -1      3937 1.05063E-02 1.67947E-03-1.34375E-13
 -1      3938 1.04120E-02 1.62914E-03-1.32793E-13
 -1      3939 1.09350E-02 1.75876E-03-1.44814E-13
 -1      3940 1.07921E-02 1.73234E-03-1.41310E-13
 -1      3941 1.06978E-02 1.68201E-03-1.39704E-13
 -1      3942 1.12208E-02 1.81159E-03-1.51886E-13
 -1      3943 1.10779E-02 1.78518E-03-1.48338E-13
 -1      3944 1.09836E-02 1.73484E-03-1.46712E-13
 -1      3945 1.15066E-02 1.86439E-03-1.59053E-13
 -1      3946 1.13637E-02 1.83799E-03-1.55458E-13
 -1      3947 1.12694E-02 1.78766E-03-1.53810E-13
 -1      3948 1.17924E-02 1.91719E-03-1.66303E-13
 -1      3949 1.16495E-02 1.89079E-03-1.62667E-13
 -1      3950 1.15552E-02 1.84046E-03-1.60996E-13
 -1      3951 1.20782E-02 1.96997E-03-1.73631E-13
 -1      3952 1.19353E-02 1.94358E-03-1.69958E-13
 -1      3953 1.18410E-02 1.89325E-03-1.68266E-13
 -1      3954 1.23639E-02 2.02275E-03-1.81036E-13
 -1      3955 1.22211E-02 1.99636E-03-1.77325E-13
 -1      3956 1.21267E-02 1.94603E-03-1.75615E-13
 -1      3957 1.26497E-02 2.07553E-03-1.88497E-13
 -1      3958 1.25068E-02 2.04914E-03-1.84761E-13
 -1      3959 1.24125E-02 1.99881E-03-1.83035E-13
 -1      3960 1.29354E-02 2.12830E-03-1.96010E-13
 -1      3961 1.27926E-02 2.10192E-03-1.92249E-13
 -1      3962 1.26983E-02 2.05159E-03-1.90510E-13
 -1      3963 1.32212E-02 2.18108E-03-2.03563E-13
 -1      3964 1.30783E-02 2.15469E-03-1.99782E-13
 -1      3965 1.29840E-02 2.10437E-03-1.98034E-13
 -1      3966 5.06898E-03 6.18678E-04-2.80943E-14
 -1      3967 4.94696E-03 5.93284E-04-2.62533E-14
 -1      3968 5.11887E-03 6.06634E-04-2.91304E-14
 -1      3969 4.31864E-03 3.16104E-04-2.17080E-14
 -1      3970 4.53874E-03 3.92796E-04-2.33237E-14
 -1      3971 4.43885E-03 3.59747E-04-2.25453E-14
 -1      3972 1.35360E-02 2.11817E-03-2.14677E-13
 -1      3973 1.35619E-02 2.16023E-03-2.14524E-13
 -1      3974 1.34563E-02 2.14295E-03-2.11657E-13
 -1      3975 1.33993E-02 2.07428E-03-2.11448E-13
 -1      3976 6.11679E-03 8.35706E-04-4.45911E-14
 -1      3977 5.98090E-03 8.07626E-04-4.23595E-14
 -1      3978 5.89552E-03 7.63606E-04-4.13681E-14
 -1      3979 6.16606E-03 8.18383E-04-4.58319E-14
 -1      3980 4.61052E-03 5.09704E-04-2.12346E-14
 -1      3981 4.58465E-03 4.88533E-04-2.10387E-14
 -1      3982 4.64434E-03 4.88595E-04-2.22655E-14
 -1      3983 4.69604E-03 5.32138E-04-2.25286E-14
 -1      3984 1.31810E-02 1.91415E-03-2.08277E-13
 -1      3985 1.32295E-02 1.89022E-03-2.10295E-13
 -1      3986 1.34162E-02 2.20999E-03-2.08903E-13
 -1      3987 1.33106E-02 2.19271E-03-2.06047E-13
 -1      3988 1.32163E-02 2.14239E-03-2.04291E-13
 -1      3989 1.33953E-02 2.16566E-03-2.09265E-13
 -1      3990 1.32634E-02 2.03713E-03-2.08095E-13
 -1      3991 1.32919E-02 2.07146E-03-2.08204E-13
 -1      3992 4.62157E-03 4.33114E-04-2.36124E-14
 -1      3993 4.68090E-03 4.09522E-04-2.54046E-14
 -1      3994 1.32092E-02 1.95456E-03-2.08257E-13
 -1      3995 1.32352E-02 1.99671E-03-2.08124E-13
 -1      3996 1.31278E-02 1.99390E-03-2.04889E-13
 -1      3997 1.30712E-02 1.91307E-03-2.04935E-13
 -1      3998 4.86512E-03 5.74048E-04-2.50414E-14
 -1      3999 4.77342E-03 5.50152E-04-2.36929E-14
 -1      4000 4.75533E-03 5.27698E-04-2.36362E-14
 -1      4001 4.91462E-03 5.63505E-04-2.60317E-14
 -1      4002 4.67868E-03 4.59843E-04-2.38557E-14
 -1      4003 4.80816E-03 4.27900E-04-2.72225E-14
 -1      4004 4.93630E-03 4.47150E-04-2.90905E-14
 -1      4005 5.06582E-03 4.67236E-04-3.10067E-14
 -1      4006 4.88162E-03 4.69118E-04-2.75300E-14
 -1      4007 5.19628E-03 4.88094E-04-3.29722E-14
 -1      4008 5.32794E-03 5.09606E-04-3.49866E-14
 -1      4009 5.13358E-03 5.09527E-04-3.13278E-14
 -1      4010 5.46054E-03 5.31743E-04-3.70488E-14
 -1      4011 5.59417E-03 5.54387E-04-3.91596E-14
 -1      4012 5.39212E-03 5.53234E-04-3.53214E-14
 -1      4013 5.72867E-03 5.77523E-04-4.13182E-14
 -1      4014 5.86406E-03 6.01045E-04-4.35253E-14
 -1      4015 5.65607E-03 5.99459E-04-3.95086E-14
 -1      4016 6.00020E-03 6.24949E-04-4.57807E-14
 -1      4017 6.13712E-03 6.49146E-04-4.80818E-14
 -1      4018 5.92452E-03 6.47564E-04-4.38898E-14
 -1      4019 6.27468E-03 6.73637E-04-5.04299E-14
 -1      4020 6.41289E-03 6.98350E-04-5.28240E-14
 -1      4021 6.19667E-03 6.97046E-04-4.84591E-14
 -1      4022 6.55164E-03 7.23288E-04-5.52651E-14
 -1      4023 6.69092E-03 7.48395E-04-5.77508E-14
 -1      4024 6.47188E-03 7.47519E-04-5.32151E-14
 -1      4025 6.83066E-03 7.73675E-04-6.02804E-14
 -1      4026 6.97082E-03 7.99084E-04-6.28561E-14
 -1      4027 6.74957E-03 7.98696E-04-5.81546E-14
 -1      4028 7.11135E-03 8.24625E-04-6.54746E-14
 -1      4029 7.25222E-03 8.50266E-04-6.81352E-14
 -1      4030 7.02926E-03 8.50366E-04-6.32717E-14
 -1      4031 7.39338E-03 8.76008E-04-7.08400E-14
 -1      4032 7.53480E-03 9.01828E-04-7.35852E-14
 -1      4033 7.31054E-03 9.02379E-04-6.85638E-14
 -1      4034 7.67645E-03 9.27725E-04-7.63695E-14
 -1      4035 7.81830E-03 9.53683E-04-7.91949E-14
 -1      4036 7.59305E-03 9.54631E-04-7.40246E-14
 -1      4037 7.96032E-03 9.79699E-04-8.20595E-14
 -1      4038 8.10250E-03 1.00576E-03-8.49628E-14
 -1      4039 7.87652E-03 1.00705E-03-7.96461E-14
 -1      4040 8.24480E-03 1.03187E-03-8.79035E-14
 -1      4041 8.38722E-03 1.05802E-03-9.08807E-14
 -1      4042 8.16070E-03 1.05958E-03-8.54244E-14
 -1      4043 8.52973E-03 1.08420E-03-9.38960E-14
 -1      4044 8.67232E-03 1.11041E-03-9.69485E-14
 -1      4045 8.44542E-03 1.11218E-03-9.13533E-14
 -1      4046 8.81497E-03 1.13665E-03-1.00035E-13
 -1      4047 8.95768E-03 1.16291E-03-1.03155E-13
 -1      4048 8.73052E-03 1.16485E-03-9.74275E-14
 -1      4049 9.10044E-03 1.18919E-03-1.06311E-13
 -1      4050 9.24324E-03 1.21549E-03-1.09501E-13
 -1      4051 9.01589E-03 1.21755E-03-1.03644E-13
 -1      4052 9.38606E-03 1.24180E-03-1.12726E-13
 -1      4053 9.52891E-03 1.26813E-03-1.15985E-13
 -1      4054 9.30145E-03 1.27028E-03-1.09998E-13
 -1      4055 9.67178E-03 1.29446E-03-1.19277E-13
 -1      4056 9.81466E-03 1.32081E-03-1.22600E-13
 -1      4057 9.58712E-03 1.32302E-03-1.16489E-13
 -1      4058 9.95756E-03 1.34717E-03-1.25956E-13
 -1      4059 1.01005E-02 1.37353E-03-1.29342E-13
 -1      4060 9.87288E-03 1.37578E-03-1.23114E-13
 -1      4061 1.02434E-02 1.39990E-03-1.32755E-13
 -1      4062 1.03863E-02 1.42627E-03-1.36195E-13
 -1      4063 1.01587E-02 1.42856E-03-1.29860E-13
 -1      4064 1.05292E-02 1.45265E-03-1.39661E-13
 -1      4065 1.06721E-02 1.47904E-03-1.43154E-13
 -1      4066 1.04445E-02 1.48133E-03-1.36721E-13
 -1      4067 1.08150E-02 1.50542E-03-1.46670E-13
 -1      4068 1.09579E-02 1.53181E-03-1.50209E-13
 -1      4069 1.07303E-02 1.53412E-03-1.43686E-13
 -1      4070 1.11008E-02 1.55820E-03-1.53769E-13
 -1      4071 1.12437E-02 1.58459E-03-1.57352E-13
 -1      4072 1.10161E-02 1.58690E-03-1.50748E-13
 -1      4073 1.13866E-02 1.61099E-03-1.60955E-13
 -1      4074 1.15295E-02 1.63738E-03-1.64576E-13
 -1      4075 1.13020E-02 1.63969E-03-1.57897E-13
 -1      4076 1.16724E-02 1.66378E-03-1.68214E-13
 -1      4077 1.18153E-02 1.69017E-03-1.71874E-13
 -1      4078 1.15878E-02 1.69248E-03-1.65127E-13
 -1      4079 1.19582E-02 1.71657E-03-1.75551E-13
 -1      4080 1.21011E-02 1.74297E-03-1.79248E-13
 -1      4081 1.18735E-02 1.74527E-03-1.72432E-13
 -1      4082 1.22440E-02 1.76936E-03-1.82960E-13
 -1      4083 1.23868E-02 1.79576E-03-1.86687E-13
 -1      4084 1.21593E-02 1.79807E-03-1.79811E-13
 -1      4085 1.25297E-02 1.82216E-03-1.90431E-13
 -1      4086 1.26726E-02 1.84856E-03-1.94188E-13
 -1      4087 1.24451E-02 1.85086E-03-1.87258E-13
 -1      4088 1.29284E-02 1.88667E-03-2.01142E-13
 -1      4089 5.67708E-03 6.94441E-04-3.82378E-14
 -1      4090 5.54612E-03 6.68587E-04-3.61468E-14
 -1      4091 5.41683E-03 6.43276E-04-3.41065E-14
 -1      4092 5.28948E-03 6.18362E-04-3.21141E-14
 -1      4093 5.46101E-03 6.28524E-04-3.52016E-14
 -1      4094 7.04536E-03 9.63752E-04-6.17243E-14
 -1      4095 6.90537E-03 9.36524E-04-5.91706E-14
 -1      4096 6.76587E-03 9.09304E-04-5.66617E-14
 -1      4097 6.62691E-03 8.82069E-04-5.41962E-14
 -1      4098 6.81368E-03 8.89285E-04-5.80051E-14
 -1      4099 6.48857E-03 8.54889E-04-5.17770E-14
 -1      4100 6.35094E-03 8.27739E-04-4.94032E-14
 -1      4101 6.53609E-03 8.35753E-04-5.30727E-14
 -1      4102 7.32656E-03 1.01810E-03-6.69644E-14
 -1      4103 7.18577E-03 9.90938E-04-6.43220E-14
 -1      4104 7.09339E-03 9.42959E-04-6.31154E-14
 -1      4105 7.60905E-03 1.07228E-03-7.23744E-14
 -1      4106 7.46766E-03 1.04521E-03-6.96489E-14
 -1      4107 7.37473E-03 9.96645E-04-6.84012E-14
 -1      4108 7.89252E-03 1.12626E-03-7.79469E-14
 -1      4109 7.75068E-03 1.09929E-03-7.51399E-14
 -1      4110 7.65733E-03 1.05027E-03-7.38560E-14
 -1      4111 8.17671E-03 1.18003E-03-8.36783E-14
 -1      4112 8.03453E-03 1.15316E-03-8.07937E-14
 -1      4113 7.94087E-03 1.10379E-03-7.94711E-14
 -1      4114 8.46144E-03 1.23361E-03-8.95616E-14
 -1      4115 8.31902E-03 1.20684E-03-8.66011E-14
 -1      4116 8.22512E-03 1.15719E-03-8.52425E-14
 -1      4117 8.74654E-03 1.28702E-03-9.55904E-14
 -1      4118 8.60395E-03 1.26033E-03-9.25576E-14
 -1      4119 8.50989E-03 1.21048E-03-9.11648E-14
 -1      4120 9.03192E-03 1.34028E-03-1.01762E-13
 -1      4121 8.88920E-03 1.31367E-03-9.86596E-14
 -1      4122 8.79503E-03 1.26367E-03-9.72341E-14
 -1      4123 9.31748E-03 1.39343E-03-1.08073E-13
 -1      4124 9.17468E-03 1.36687E-03-1.04901E-13
 -1      4125 9.08043E-03 1.31676E-03-1.03444E-13
 -1      4126 9.60315E-03 1.44648E-03-1.14522E-13
 -1      4127 9.46030E-03 1.41997E-03-1.11280E-13
 -1      4128 9.36601E-03 1.36978E-03-1.09792E-13
 -1      4129 9.88891E-03 1.49946E-03-1.21105E-13
 -1      4130 9.74602E-03 1.47298E-03-1.17797E-13
 -1      4131 9.65170E-03 1.42273E-03-1.16276E-13
 -1      4132 1.01747E-02 1.55238E-03-1.27815E-13
 -1      4133 1.00318E-02 1.52592E-03-1.24445E-13
 -1      4134 9.93746E-03 1.47564E-03-1.22893E-13
 -1      4135 1.04605E-02 1.60525E-03-1.34642E-13
 -1      4136 1.03176E-02 1.57882E-03-1.31213E-13
 -1      4137 1.02233E-02 1.52851E-03-1.29635E-13
 -1      4138 1.07463E-02 1.65810E-03-1.41578E-13
 -1      4139 1.06034E-02 1.63168E-03-1.38097E-13
 -1      4140 1.05091E-02 1.58136E-03-1.36493E-13
 -1      4141 1.10321E-02 1.71092E-03-1.48612E-13
 -1      4142 1.08892E-02 1.68451E-03-1.45085E-13
 -1      4143 1.07949E-02 1.63418E-03-1.43455E-13
 -1      4144 1.13180E-02 1.76372E-03-1.55733E-13
 -1      4145 1.11751E-02 1.73732E-03-1.52160E-13
 -1      4146 1.10807E-02 1.68699E-03-1.50514E-13
 -1      4147 1.16038E-02 1.81652E-03-1.62942E-13
 -1      4148 1.14609E-02 1.79012E-03-1.59326E-13
 -1      4149 1.13665E-02 1.73979E-03-1.57657E-13
 -1      4150 1.18895E-02 1.86931E-03-1.70231E-13
 -1      4151 1.17466E-02 1.84292E-03-1.66577E-13
 -1      4152 1.16523E-02 1.79258E-03-1.64886E-13
 -1      4153 1.21753E-02 1.92209E-03-1.77599E-13
 -1      4154 1.20324E-02 1.89570E-03-1.73907E-13
 -1      4155 1.19381E-02 1.84537E-03-1.72197E-13
 -1      4156 1.24611E-02 1.97488E-03-1.85030E-13
 -1      4157 1.23182E-02 1.94849E-03-1.81307E-13
 -1      4158 1.22239E-02 1.89816E-03-1.79579E-13
 -1      4159 1.27468E-02 2.02766E-03-1.92519E-13
 -1      4160 1.26039E-02 2.00127E-03-1.88769E-13
 -1      4161 1.25096E-02 1.95094E-03-1.87027E-13
 -1      4162 1.30326E-02 2.08044E-03-2.00054E-13
 -1      4163 1.28897E-02 2.05405E-03-1.96282E-13
 -1      4164 1.27954E-02 2.00373E-03-1.94527E-13
 -1      4165 4.72845E-03 4.90016E-04-2.39455E-14
 -1      4166 4.81325E-03 4.84087E-04-2.58110E-14
 -1      4167 1.33294E-02 2.10139E-03-2.08684E-13
 -1      4168 1.33579E-02 2.13573E-03-2.08788E-13
 -1      4169 1.32684E-02 2.12410E-03-2.06299E-13
 -1      4170 1.31935E-02 2.06424E-03-2.05341E-13
 -1      4171 4.76968E-03 5.13861E-04-2.41668E-14
 -1      4172 4.93362E-03 5.03649E-04-2.76393E-14
 -1      4173 1.30472E-02 2.03221E-03-2.01573E-13
 -1      4174 1.30846E-02 2.06214E-03-2.02053E-13
 -1      4175 1.31789E-02 2.11247E-03-2.03815E-13
 -1      4176 6.26120E-03 7.82564E-04-4.83233E-14
 -1      4177 6.21411E-03 8.00717E-04-4.70762E-14
 -1      4178 6.07819E-03 7.73790E-04-4.47952E-14
 -1      4179 5.16433E-03 5.94198E-04-3.01706E-14
 -1      4180 5.04176E-03 5.70502E-04-2.82776E-14
 -1      4181 1.28437E-02 1.91537E-03-1.97937E-13
 -1      4182 5.94328E-03 7.47095E-04-4.25606E-14
 -1      4183 5.80953E-03 7.20583E-04-4.03758E-14
 -1      4184 5.72261E-03 6.78491E-04-3.93835E-14
 -1      4185 5.98973E-03 7.30010E-04-4.37589E-14
 -1      4186 5.20653E-03 5.80736E-04-3.12150E-14
 -1      4187 4.96985E-03 5.36263E-04-2.75780E-14
 -1      4188 4.93072E-03 5.48366E-04-2.65846E-14
 -1      4189 1.30213E-02 1.98970E-03-2.01725E-13
 -1      4190 1.29124E-02 1.98761E-03-1.98448E-13
 -1      4191 5.04784E-03 5.24196E-04-2.93590E-14
 -1      4192 4.84927E-03 5.30726E-04-2.53646E-14
 -1      4193 5.17285E-03 5.45708E-04-3.12802E-14
 -1      4194 5.29976E-03 5.68192E-04-3.32510E-14
 -1      4195 5.42861E-03 5.91239E-04-3.52706E-14
 -1      4196 5.55897E-03 6.15005E-04-3.73386E-14
 -1      4197 5.69084E-03 6.39194E-04-3.94550E-14
 -1      4198 5.82393E-03 6.63903E-04-4.16197E-14
 -1      4199 5.95822E-03 6.88914E-04-4.38334E-14
 -1      4200 6.09350E-03 7.14291E-04-4.60935E-14
 -1      4201 6.22974E-03 7.39871E-04-4.83991E-14
 -1      4202 6.36677E-03 7.65703E-04-5.07527E-14
 -1      4203 6.50456E-03 7.91665E-04-5.31525E-14
 -1      4204 6.64300E-03 8.17793E-04-5.55982E-14
 -1      4205 6.78204E-03 8.43997E-04-5.80882E-14
 -1      4206 6.92159E-03 8.70307E-04-6.06231E-14
 -1      4207 7.06161E-03 8.96657E-04-6.32022E-14
 -1      4208 7.20204E-03 9.23071E-04-6.58251E-14
 -1      4209 7.34283E-03 9.49502E-04-6.84905E-14
 -1      4210 7.48393E-03 9.75968E-04-7.12001E-14
 -1      4211 7.62532E-03 1.00244E-03-7.39493E-14
 -1      4212 7.76694E-03 1.02892E-03-7.67368E-14
 -1      4213 7.90878E-03 1.05541E-03-7.95677E-14
 -1      4214 8.05079E-03 1.08189E-03-8.24357E-14
 -1      4215 8.19296E-03 1.10837E-03-8.53417E-14
 -1      4216 8.33526E-03 1.13485E-03-8.82858E-14
 -1      4217 8.47768E-03 1.16132E-03-9.12672E-14
 -1      4218 8.62019E-03 1.18779E-03-9.42851E-14
 -1      4219 8.76278E-03 1.21425E-03-9.73380E-14
 -1      4220 8.90544E-03 1.24070E-03-1.00427E-13
 -1      4221 9.04816E-03 1.26715E-03-1.03551E-13
 -1      4222 9.19092E-03 1.29359E-03-1.06710E-13
 -1      4223 9.33372E-03 1.32002E-03-1.09902E-13
 -1      4224 9.47655E-03 1.34645E-03-1.13128E-13
 -1      4225 9.61940E-03 1.37288E-03-1.16389E-13
 -1      4226 9.76227E-03 1.39930E-03-1.19682E-13
 -1      4227 9.90516E-03 1.42571E-03-1.23008E-13
 -1      4228 1.00481E-02 1.45212E-03-1.26367E-13
 -1      4229 1.01910E-02 1.47853E-03-1.29753E-13
 -1      4230 1.03339E-02 1.50494E-03-1.33169E-13
 -1      4231 1.04768E-02 1.53135E-03-1.36612E-13
 -1      4232 1.06197E-02 1.55775E-03-1.40082E-13
 -1      4233 1.07626E-02 1.58415E-03-1.43576E-13
 -1      4234 1.09055E-02 1.61055E-03-1.47096E-13
 -1      4235 1.10484E-02 1.63695E-03-1.50637E-13
 -1      4236 1.11913E-02 1.66334E-03-1.54197E-13
 -1      4237 1.13342E-02 1.68974E-03-1.57782E-13
 -1      4238 1.14771E-02 1.71614E-03-1.61387E-13
 -1      4239 1.16200E-02 1.74253E-03-1.65010E-13
 -1      4240 1.17629E-02 1.76893E-03-1.68655E-13
 -1      4241 1.19058E-02 1.79532E-03-1.72319E-13
 -1      4242 1.20487E-02 1.82172E-03-1.76002E-13
 -1      4243 1.21916E-02 1.84811E-03-1.79701E-13
 -1      4244 1.23345E-02 1.87451E-03-1.83416E-13
 -1      4245 1.24774E-02 1.90090E-03-1.87147E-13
 -1      4246 1.26202E-02 1.92729E-03-1.90891E-13
 -1      4247 1.27696E-02 1.96121E-03-1.94678E-13
 -1      4248 1.29931E-02 1.94929E-03-2.01750E-13
 -1      4249 1.27373E-02 1.91117E-03-1.94793E-13
 -3
    1PSTEP                         2           1           1          
  100CL  101 1.000000000        4249                     0    1           1
 -4  STRESS      6    1
 -5  SXX         1    4    1    1
 -5  SYY         1    4    2    2
 -5  SZZ         1    4    3    3
 -5  SXY         1    4    1    2
 -5  SYZ         1    4    2    3
 -5  SZX         1    4    3    1
 -1         1 6.04041E+01 7.37482E-01 3.09685E+00 5.56574E-04-8.28886E-14-1.27703E-12
 -1         2-6.61574E-01-1.96122E+01-3.21973E+00 6.01415E-02 9.98750E-13-2.55698E-14
 -1         3 1.99998E+01 2.00567E-06-1.65102E-05 2.14838E-06-3.94599E-13-7.15782E-13
 -1         4 1.99998E+01 2.08971E-06-1.65430E-05-2.26208E-06 1.49822E-13 1.86771E-13
 -1         5 4.73881E+01 8.97187E+00 3.93402E+00 8.39992E+00-4.54220E-14 5.32985E-12
 -1         6 4.32756E+01 1.49043E+01 6.40508E+00-1.06721E+01-4.23439E-13 5.34817E-12
 -1         7 2.43872E+01 7.00434E+00-1.91380E-01-6.04263E+00-5.09870E-14 5.62217E-13
 -1         8 2.29029E+01 6.91512E+00 3.53454E-02-4.42949E+00-5.46715E-14-8.35284E-13
 -1         9 2.25081E+01 6.77096E+00 1.12743E-01-3.36366E+00-3.19605E-14-1.42176E-12
 -1        10 2.22167E+01 6.65924E+00 1.97338E-01-2.15903E+00-2.10942E-15-1.59299E-12
 -1        11 2.13878E+01 6.39152E+00 2.83223E-01-6.32669E-01 2.43694E-14-1.55770E-12
 -1        12 1.94341E+01 5.80511E+00 3.21528E-01 1.08419E+00 5.74540E-14-1.44250E-12
 -1        13 1.59237E+01 4.78614E+00 2.23800E-01 2.57990E+00 8.33500E-14-1.32624E-12
 -1        14 1.13247E+01 3.49339E+00-4.05378E-02 3.09237E+00 8.82072E-14-1.23159E-12
 -1        15 7.76298E+00 2.48701E+00-3.24736E-01 2.31594E+00 6.56697E-14-1.18777E-12
 -1        16 6.71011E+00 2.19003E+00-4.24196E-01 5.45811E-01-1.98799E-15-1.19855E-12
 -1        17 8.71979E+00 2.75276E+00-2.82643E-01-8.85875E-01-4.35624E-14-1.22326E-12
 -1        18 1.29594E+01 3.97255E+00 2.74272E-03-1.41208E+00-5.24858E-14-1.21396E-12
 -1        19 1.80752E+01 5.45446E+00 2.38507E-01-5.94586E-01-2.67286E-14-1.06333E-12
 -1        20 2.23220E+01 6.71195E+00 2.84098E-01 1.10753E+00 1.01308E-14-7.11951E-13
 -1        21 2.57163E+01 7.75088E+00 2.05928E-01 3.07102E+00 4.93217E-14 2.37969E-14
 -1        22 2.96973E+01 8.90389E+00 2.45601E-01 5.35274E+00 2.35922E-15 1.57098E-12
 -1        23 2.67549E+01-1.64218E+00-1.12816E+00-5.89308E-01-2.56149E-13 4.03674E-12
 -1        24 2.16435E+01-1.31414E-01-3.67358E-01 6.72825E-02-7.10447E-14 2.83678E-12
 -1        25 1.98406E+01-6.84745E-02-8.59742E-02 2.54720E-02-1.76660E-14 1.77373E-12
 -1        26 1.86583E+01-4.17583E-02-3.65212E-02 1.61355E-04-6.23872E-15 1.09202E-12
 -1        27 1.80379E+01-3.80217E-02-4.56349E-02 1.06989E-02-8.17770E-15 6.28121E-13
 -1        28 1.80394E+01-3.19721E-02-4.68519E-02 3.39496E-02-2.59643E-14 2.36618E-13
 -1        29 1.86090E+01-2.04186E-02-2.99017E-02 5.38949E-02-2.76894E-15-5.03556E-14
 -1        30 1.95358E+01-6.07040E-03-4.13086E-03 5.99448E-02-1.33292E-15-2.51736E-13
 -1        31 2.05358E+01 6.32048E-03 1.78396E-02 5.15096E-02 1.29682E-14-4.24997E-13
 -1        32 2.13696E+01 1.35638E-02 2.88586E-02 3.49759E-02-3.86254E-14-6.46993E-13
 -1        33 2.19109E+01 1.53284E-02 2.91623E-02 1.77615E-02 4.50947E-14-7.92448E-13
 -1        34 2.21454E+01 1.32290E-02 2.29807E-02 4.43305E-03-1.77874E-15-8.21430E-13
 -1        35 2.21300E+01 9.35977E-03 1.47787E-02-3.75123E-03-1.43402E-15-1.04782E-12
 -1        36 2.19471E+01 5.33197E-03 7.42141E-03-7.55486E-03 3.90366E-14-9.87225E-13
 -1        37 2.16750E+01 2.01487E-03 2.05931E-03-8.41416E-03-2.09018E-14-8.36376E-13
 -1        38 2.13733E+01-3.15659E-04-1.26157E-03-7.65198E-03-2.39216E-14-8.99492E-13
 -1        39 2.10812E+01-1.72477E-03-2.97289E-03-6.20572E-03-2.13589E-14-1.02084E-12
 -1        40 2.08206E+01-2.41630E-03-3.59527E-03-4.63399E-03 6.05488E-14-9.72965E-13
 -1        41 2.06009E+01-2.61368E-03-3.56667E-03-3.21790E-03 3.11477E-14-8.06115E-13
 -1        42 2.04237E+01-2.50643E-03-3.19939E-03-2.06596E-03-6.68026E-14-1.06001E-12
 -1        43 2.02858E+01-2.23529E-03-2.69348E-03-1.19252E-03-5.97208E-14-1.33720E-12
 -1        44 2.01820E+01-1.89553E-03-2.16606E-03-5.67579E-04 4.17741E-14-1.15097E-12
 -1        45 2.01064E+01-1.54658E-03-1.67892E-03-1.45239E-04-1.75230E-14-9.97740E-13
 -1        46 2.00532E+01-1.22208E-03-1.25952E-03 1.21657E-04-6.17191E-14-1.31645E-12
 -1        47 2.00173E+01-9.38437E-04-9.15363E-04 2.74917E-04-3.71333E-14-1.36770E-12
 -1        48 1.99943E+01-7.01167E-04-6.43134E-04 3.48748E-04 4.28978E-14-1.07417E-12
 -1        49 1.99806E+01-5.09390E-04-4.34394E-04 3.69683E-04 2.69103E-14-8.40824E-13
 -1        50 1.99736E+01-3.58819E-04-2.78867E-04 3.57462E-04-3.92243E-14-9.85945E-13
 -1        51 1.99710E+01-2.43677E-04-1.66280E-04 3.26239E-04 5.19904E-14-1.18472E-12
 -1        52 1.99713E+01-1.57850E-04-8.72905E-05 2.85781E-04-2.34898E-14-9.76797E-13
 -1        53 1.99733E+01-9.55455E-05-3.38865E-05 2.42544E-04 3.59439E-14-9.62503E-13
 -1        54 1.99762E+01-5.16229E-05 5.33480E-07 2.00561E-04-3.31702E-14-1.10403E-12
 -1        55 1.99795E+01-2.17169E-05 2.12375E-05 1.62144E-04-9.84400E-14-1.35536E-12
 -1        56 1.99828E+01-2.24518E-06 3.23187E-05 1.28426E-04-3.94706E-14-1.33816E-12
 -1        57 1.99858E+01 9.65162E-06 3.68802E-05 9.97660E-05 4.59897E-14-1.23712E-12
 -1        58 1.99886E+01 1.62006E-05 3.72191E-05 7.60366E-05 1.00396E-13-1.42969E-12
 -1        59 1.99910E+01 1.90973E-05 3.49941E-05 5.68343E-05 2.33877E-15-1.40750E-12
 -1        60 1.99930E+01 1.96045E-05 3.13705E-05 4.16179E-05 6.38225E-14-1.05744E-12
 -1        61 1.99946E+01 1.86409E-05 2.71414E-05 2.98017E-05 1.81095E-14-7.27416E-13
 -1        62 1.99960E+01 1.68591E-05 2.28259E-05 2.08127E-05-4.30276E-14-9.21085E-13
 -1        63 1.99970E+01 1.47109E-05 1.87486E-05 1.41227E-05 4.37893E-14-7.11724E-13
 -1        64 1.99979E+01 1.25001E-05 1.51016E-05 9.26308E-06-5.99574E-14-5.08557E-13
 -1        65 1.99985E+01 1.04252E-05 1.19971E-05 5.82429E-06-1.17120E-13-6.16014E-13
 -1        66 1.99990E+01 8.61093E-06 9.51521E-06 3.44395E-06 1.17565E-13-7.22675E-13
 -1        67 1.99993E+01 7.12837E-06 7.74540E-06 1.77762E-06 3.45342E-15-8.05566E-13
 -1        68 1.99996E+01 5.99052E-06 6.78317E-06 4.35943E-07 7.87172E-14-4.96885E-13
 -1        69 1.99997E+01 5.08266E-06 6.49839E-06-1.11718E-06-3.55339E-14 7.90986E-14
 -1        70 1.99998E+01 3.67790E-06 5.46322E-06-3.91740E-06 8.84144E-14 3.17628E-13
 -1        71 1.99998E+01-6.47321E-07-2.09303E-06-7.16115E-06 2.15341E-14 5.66743E-13
 -1        72 3.22218E+01-5.61036E-01-1.19753E+00-5.68231E-01 9.70543E-14 4.89118E-12
 -1        73 2.92453E+01-5.97797E-02-2.30234E-01-5.47681E-02 3.71144E-14 3.91442E-12
 -1        74 2.60576E+01-3.35885E-02-9.66351E-03 1.11827E-01 1.22841E-14 3.19826E-12
 -1        75 2.26331E+01-5.80096E-02-8.64006E-02 1.86281E-01 1.42534E-14 2.70294E-12
 -1        76 2.00911E+01-6.17969E-02-1.98648E-01 1.40357E-01-7.20951E-15 2.16005E-12
 -1        77 1.95379E+01-3.65205E-02-2.01303E-01-4.24661E-03 2.14269E-14 1.54102E-12
 -1        78 2.09681E+01-2.33425E-03-8.44967E-02-1.33655E-01 1.08247E-14 9.33725E-13
 -1        79 2.32414E+01 2.10470E-02 4.59809E-02-1.65752E-01 2.95903E-14 5.50573E-13
 -1        80 2.51024E+01 2.75784E-02 1.04992E-01-1.19697E-01 1.32719E-14 3.70176E-13
 -1        81 2.59625E+01 2.24731E-02 9.62407E-02-5.39038E-02-4.47212E-15 2.67019E-13
 -1        82 2.58899E+01 1.28825E-02 5.85553E-02-5.58005E-03-2.53411E-15 3.18560E-13
 -1        83 2.52359E+01 4.23776E-03 2.28411E-02 1.86799E-02 2.50979E-14-2.63877E-14
 -1        84 2.43416E+01-1.50013E-03 2.55154E-04 2.59741E-02 3.97026E-14-1.51358E-13
 -1        85 2.34317E+01-4.43871E-03-1.02810E-02 2.47218E-02 6.09225E-14-3.38216E-13
 -1        86 2.26195E+01-5.44186E-03-1.33370E-02 2.03360E-02-5.87575E-15-2.77603E-13
 -1        87 2.19456E+01-5.34694E-03-1.27355E-02 1.55035E-02-7.82344E-14-1.13979E-13
 -1        88 2.14112E+01-4.73888E-03-1.07657E-02 1.12882E-02 5.72879E-14 4.14352E-14
 -1        89 2.10004E+01-3.96135E-03-8.55483E-03 7.96256E-03 4.71224E-14-4.79083E-13
 -1        90 2.06917E+01-3.19109E-03-6.56218E-03 5.47371E-03-1.63554E-14-6.66031E-13
 -1        91 2.04643E+01-2.50573E-03-4.92226E-03 3.66796E-03 1.04186E-14-5.32913E-13
 -1        92 2.02998E+01-1.92984E-03-3.63252E-03 2.38465E-03-5.00121E-14-3.48226E-13
 -1        93 2.01830E+01-1.46235E-03-2.64327E-03 1.48760E-03 2.45707E-14-5.14633E-13
 -1        94 2.01020E+01-1.09150E-03-1.89606E-03 8.70760E-04-6.62489E-14-4.80243E-13
 -1        95 2.00472E+01-8.02251E-04-1.33788E-03 4.54841E-04 2.99779E-14-5.32590E-13
 -1        96 2.00116E+01-5.79793E-04-9.25008E-04 1.81646E-04 2.58727E-14-3.93974E-13
 -1        97 1.99895E+01-4.10899E-04-6.22786E-04 8.85120E-06-3.99714E-14-4.92196E-13
 -1        98 1.99770E+01-2.84340E-04-4.04282E-04-9.41855E-05 6.66405E-14-4.13179E-13
 -1        99 1.99710E+01-1.90839E-04-2.48717E-04-1.49580E-04 3.71967E-14-5.32748E-13
 -1       100 1.99692E+01-1.22863E-04-1.40117E-04-1.73219E-04 3.90799E-14-1.20717E-12
 -1       101 1.99701E+01-7.43736E-05-6.62313E-05-1.76434E-04 6.60138E-14-1.19915E-12
 -1       102 1.99726E+01-4.05788E-05-1.76964E-05-1.67215E-04-1.44434E-13-5.65111E-13
 -1       103 1.99758E+01-1.77125E-05 1.26085E-05-1.51100E-04 1.65797E-13-8.77485E-13
 -1       104 1.99792E+01-2.84554E-06 3.00589E-05-1.31841E-04 7.95389E-14-1.24772E-12
 -1       105 1.99826E+01 6.27518E-06 3.86718E-05-1.11891E-04-9.62412E-14-1.16837E-12
 -1       106 1.99858E+01 1.13613E-05 4.14113E-05-9.27765E-05 8.73425E-14-5.83441E-13
 -1       107 1.99886E+01 1.36953E-05 4.04295E-05-7.53687E-05-4.87104E-14-1.26921E-12
 -1       108 1.99910E+01 1.42226E-05 3.72583E-05-6.00920E-05-8.52907E-15-1.35895E-12
 -1       109 1.99930E+01 1.36284E-05 3.29619E-05-4.70730E-05 6.89034E-14-1.76244E-12
 -1       110 1.99947E+01 1.23984E-05 2.82564E-05-3.62510E-05 5.11741E-14-1.89188E-12
 -1       111 1.99960E+01 1.08692E-05 2.36045E-05-2.74560E-05-4.16266E-14-1.26173E-12
 -1       112 1.99971E+01 9.26798E-06 1.92902E-05-2.04632E-05 9.33757E-14-1.36965E-12
 -1       113 1.99979E+01 7.74381E-06 1.54771E-05-1.50291E-05-7.91061E-15-1.89091E-12
 -1       114 1.99985E+01 6.39214E-06 1.22584E-05-1.09121E-05-3.75175E-14-1.38201E-12
 -1       115 1.99990E+01 5.27119E-06 9.70208E-06-7.87757E-06-1.05179E-15-5.42999E-13
 -1       116 1.99993E+01 4.40079E-06 7.89072E-06-5.67631E-06 2.93608E-15-3.39625E-13
 -1       117 1.99996E+01 3.76444E-06 6.92496E-06-3.99992E-06-3.88619E-14-4.23239E-14
 -1       118 1.99997E+01 3.23535E-06 6.66887E-06-2.36406E-06 1.29712E-13-1.60353E-13
 -1       119 1.99998E+01 2.05544E-06 5.45139E-06 6.11985E-07-5.39449E-14-4.58790E-13
 -1       120 1.99998E+01-2.44255E-06-2.46526E-06 6.15661E-06 1.33995E-13-1.01383E-12
 -1       121 1.99998E+01 2.04922E-05-1.40460E-06 8.09690E-06-6.08197E-13 2.43241E-13
 -1       122 1.99998E+01 1.41270E-05 6.11927E-06 1.96894E-06 1.05346E-12-1.65963E-14
 -1       123 1.99998E+01-6.77722E-05 5.55689E-06-2.39137E-06 1.10224E-12 9.20807E-14
 -1       124 1.99998E+01-2.04183E-04 2.70639E-06-4.72948E-06 7.91191E-13 1.78059E-13
 -1       125 1.99998E+01-3.64954E-04-3.77643E-07-5.34456E-06 3.97721E-13-2.57710E-13
 -1       126 1.99998E+01-5.16359E-04-2.94475E-06-4.75763E-06-1.15370E-12 5.60425E-14
 -1       127 1.99998E+01-6.35990E-04-4.78027E-06-3.22279E-06-1.35761E-12 3.19135E-13
 -1       128 1.99998E+01-7.00898E-04-5.73726E-06-1.12564E-06-1.22484E-12 7.56508E-14
 -1       129 1.99998E+01-7.00394E-04-5.73001E-06 1.15724E-06-9.53723E-13 5.97503E-14
 -1       130 1.99998E+01-6.34558E-04-4.76020E-06 3.24504E-06-9.10858E-13-2.15294E-13
 -1       131 1.99998E+01-5.14264E-04-2.88833E-06 4.80680E-06-1.88063E-12-8.97321E-14
 -1       132 1.99998E+01-3.62581E-04-3.37524E-07 5.34926E-06-2.00138E-12 2.07422E-13
 -1       133 1.99998E+01-2.01963E-04 2.72051E-06 4.68060E-06-2.22048E-12 4.61536E-14
 -1       134 1.99998E+01-6.55962E-05 5.84537E-06 2.74283E-06-1.35446E-12 1.16856E-13
 -1       135 1.99998E+01 1.37437E-05 5.46112E-06-2.71358E-06-8.87200E-13-4.67060E-14
 -1       136 1.99998E+01 1.98190E-05-1.55182E-06-1.25957E-05-6.90685E-13-4.51494E-14
 -1       137-1.27599E+00-1.53582E+01-2.96454E+00-2.98454E+00 3.73804E-12 9.86732E-13
 -1       138-5.54547E-01-4.36508E+00-2.11899E+00-9.06141E-01 5.68973E-12 2.78066E-12
 -1       139 5.11222E+00 6.49330E+00-8.99911E-01 6.01778E+00 6.05949E-12 4.70640E-12
 -1       140 1.87468E+01 1.17733E+01 6.39149E-01 1.46541E+01 4.68120E-12 5.44526E-12
 -1       141 3.95753E+01 1.00913E+01 2.23951E+00 1.91863E+01 2.44424E-12 4.53543E-12
 -1       142 5.71762E+01 4.63198E+00 3.32814E+00 1.48066E+01 6.87006E-13 2.06232E-12
 -1       143 6.45603E+01 1.16566E+00 3.66610E+00 3.39822E+00 8.63892E-14-1.22315E-12
 -1       144 5.75792E+01 2.24973E+00 3.05477E+00-8.76928E+00 9.20763E-13-4.66760E-12
 -1       145 3.99956E+01 6.05422E+00 1.67889E+00-1.48647E+01 2.86859E-12-6.90298E-12
 -1       146 1.97726E+01 7.85054E+00-3.89627E-02-1.24306E+01 5.06595E-12-7.37743E-12
 -1       147 5.84130E+00 5.03142E+00-1.39675E+00-5.72331E+00 6.46699E-12-6.16274E-12
 -1       148-3.38610E-01-1.14665E+00-2.07611E+00 1.48829E-01 6.43596E-12-3.96194E-12
 -1       149-1.07512E+00-6.58348E+00-2.08861E+00 1.99923E+00 4.85742E-12-1.81858E-12
 -1       150-5.58168E-01-9.05441E+00-1.83192E+00 1.23532E+00 2.04269E-12-3.62576E-13
 -1       151-4.12182E-01-7.93181E+00-1.64977E+00-6.07428E-01-1.08441E-12-2.00312E-13
 -1       152-5.12379E-01-3.28736E+00-1.58574E+00-6.35306E-01-4.11787E-12-1.45660E-12
 -1       153 1.29819E+00 2.62487E+00-1.41775E+00 2.23506E+00-5.88429E-12-3.47330E-12
 -1       154 7.05728E+00 7.71786E+00-8.72442E-01 7.54272E+00-6.08696E-12-5.45242E-12
 -1       155 1.86407E+01 9.53820E+00 6.91903E-02 1.33249E+01-4.97480E-12-6.60560E-12
 -1       156 3.58857E+01 7.19624E+00 1.32162E+00 1.56711E+01-2.96185E-12-6.33454E-12
 -1       157 5.22817E+01 2.85493E+00 2.46435E+00 1.07212E+01-1.03761E-12-4.27747E-12
 -1       158 5.57404E+01 3.44424E+00 3.03620E+00-1.21989E+01-5.72178E-13 2.00914E-12
 -1       159 3.91111E+01 9.13369E+00 2.20065E+00-1.82074E+01-2.15841E-12 4.36912E-12
 -1       160 1.97661E+01 1.18925E+01 8.62941E-01-1.51504E+01-4.05304E-12 4.97152E-12
 -1       161 5.84815E+00 7.55975E+00-5.68742E-01-6.78367E+00-5.17003E-12 4.07746E-12
 -1       162-3.28029E-01-2.94623E+00-1.87601E+00 5.42460E-01-4.75298E-12 2.45817E-12
 -1       163-1.22728E+00-1.44331E+01-2.83999E+00 2.84260E+00-2.08700E-12 5.82596E-13
 -1       164 2.42991E+01 4.23727E+00-1.25267E-01-4.67491E+00-7.03007E-13-7.16649E-14
 -1       165 2.35208E+01 4.67173E+00-6.32618E-02-4.00015E+00-5.68178E-13-8.64343E-13
 -1       166 2.33747E+01 4.49024E+00-3.99559E-02-3.05500E+00-2.94561E-13-1.15922E-12
 -1       167 2.31250E+01 3.94816E+00-2.33185E-02-1.87471E+00 3.05634E-14-1.18689E-12
 -1       168 2.20289E+01 3.22362E+00-9.10992E-03-3.72644E-01 3.94429E-13-1.09301E-12
 -1       169 1.92222E+01 2.70882E+00 6.67717E-03 1.38991E+00 7.59153E-13-1.02014E-12
 -1       170 1.42591E+01 2.93564E+00 2.47035E-02 2.82336E+00 9.75404E-13-1.05414E-12
 -1       171 8.97640E+00 3.81195E+00 4.57771E-02 2.97243E+00 8.89733E-13-1.20266E-12
 -1       172 5.30070E+00 4.59218E+00 4.65509E-02 1.59734E+00 4.43966E-13-1.34922E-12
 -1       173 5.75717E+00 4.49797E+00 3.85204E-02-1.62565E-01-5.10043E-14-1.35969E-12
 -1       174 1.00276E+01 3.67450E+00 3.08133E-02-1.27265E+00-3.96547E-13-1.19620E-12
 -1       175 1.64288E+01 2.86508E+00 1.36639E-02-7.87739E-01-4.09773E-13-9.03930E-13
 -1       176 2.19081E+01 2.91094E+00-1.89796E-02 9.51978E-01-1.16591E-13-5.50428E-13
 -1       177 2.57410E+01 3.59350E+00-6.06074E-02 2.92697E+00 2.37029E-13-5.61738E-14
 -1       178 2.91412E+01 3.84459E+00-8.60944E-02 4.51088E+00 4.64368E-13 8.58300E-13
 -1       179 3.23005E+01 1.26964E+00-4.40972E-01 4.03619E+00 4.70374E-13 2.13876E-12
 -1       180 2.52144E+01 1.06838E+00 6.08271E-03-3.03927E+00-7.37639E-13 1.07585E-12
 -1       181 2.29232E+01 2.11351E-01-1.32831E-02-1.64997E+00-6.06954E-13 7.43512E-13
 -1       182 2.13839E+01 1.73011E-01 1.73065E-02-1.02962E+00-4.30076E-13 4.57250E-13
 -1       183 2.04677E+01 1.82708E-01 1.41467E-02-5.51966E-01-3.22497E-13 1.79257E-13
 -1       184 2.00343E+01 1.88592E-01 8.52526E-03-6.83757E-02-2.71828E-13-3.18842E-14
 -1       185 2.00365E+01 1.45974E-01 5.23565E-03 3.59901E-01-2.02275E-13-2.13290E-13
 -1       186 2.03594E+01 6.46930E-02 3.22274E-03 6.28184E-01-1.50447E-13-3.70504E-13
 -1       187 2.08337E+01-1.90048E-02 1.54370E-03 6.88741E-01-8.09785E-14-4.24731E-13
 -1       188 2.12938E+01-7.46208E-02-1.10744E-04 5.75568E-01-1.14793E-13-4.48588E-13
 -1       189 2.16284E+01-9.33813E-02-1.41191E-03 3.69929E-01-8.62411E-14-5.06329E-13
 -1       190 2.17943E+01-8.41984E-02-2.09059E-03 1.51810E-01-8.92147E-14-6.31281E-13
 -1       191 2.18012E+01-6.14774E-02-2.13531E-03-2.77201E-02-5.61998E-14-7.01844E-13
 -1       192 2.16870E+01-3.67194E-02-1.73296E-03-1.49222E-01 4.85826E-14-6.46063E-13
 -1       193 2.14969E+01-1.61354E-02-1.13208E-03-2.14894E-01 6.47533E-14-6.12739E-13
 -1       194 2.12713E+01-1.68176E-03-5.34735E-04-2.37055E-01-3.91998E-14-5.74351E-13
 -1       195 2.10405E+01 7.06173E-03-5.38643E-05-2.30108E-01-3.75139E-14-5.09209E-13
 -1       196 2.08242E+01 1.14251E-02 2.74515E-04-2.06489E-01 5.13844E-14-4.34300E-13
 -1       197 2.06334E+01 1.28293E-02 4.61517E-04-1.75363E-01-1.68975E-14-5.91527E-13
 -1       198 2.04724E+01 1.24445E-02 5.38685E-04-1.42745E-01-1.79772E-13-7.42718E-13
 -1       199 2.03416E+01 1.11146E-02 5.40990E-04-1.12157E-01-1.06147E-13-6.67667E-13
 -1       200 2.02385E+01 9.39408E-03 4.98432E-04-8.53686E-02 4.22881E-14-5.95132E-13
 -1       201 2.01596E+01 7.61886E-03 4.33394E-04-6.30090E-02-5.77292E-14-6.06419E-13
 -1       202 2.01009E+01 5.97342E-03 3.60964E-04-4.50318E-02-4.36804E-14-6.63602E-13
 -1       203 2.00585E+01 4.54427E-03 2.90395E-04-3.10282E-02-4.59519E-15-5.20790E-13
 -1       204 2.00288E+01 3.35814E-03 2.26725E-04-2.04304E-02 1.66369E-13-4.68646E-13
 -1       205 2.00089E+01 2.40781E-03 1.72179E-04-1.26347E-02 1.43253E-13-4.67492E-13
 -1       206 1.99962E+01 1.66878E-03 1.27226E-04-7.07010E-03-5.62209E-14-5.36423E-13
 -1       207 1.99887E+01 1.10951E-03 9.13293E-05-3.23204E-03-5.65421E-14-5.33926E-13
 -1       208 1.99849E+01 6.97467E-04 6.34442E-05-6.95259E-04 2.32097E-14-5.00334E-13
 -1       209 1.99835E+01 4.02347E-04 4.23346E-05 8.86366E-04-4.50388E-15-6.63003E-13
 -1       210 1.99837E+01 1.97639E-04 2.67605E-05 1.78647E-03-8.36700E-14-6.21812E-13
 -1       211 1.99849E+01 6.11175E-05 1.55812E-05 2.21585E-03-8.58171E-14-4.62162E-13
 -1       212 1.99866E+01-2.52479E-05 7.80301E-06 2.33295E-03-6.44993E-14-4.44777E-13
 -1       213 1.99884E+01-7.56892E-05 2.59426E-06 2.25399E-03 7.64401E-14-5.26365E-13
 -1       214 1.99903E+01-1.01170E-04-7.20192E-07 2.06189E-03-1.07859E-13-6.98575E-13
 -1       215 1.99920E+01-1.09941E-04-2.67421E-06 1.81408E-03 5.52560E-14-7.91711E-13
 -1       216 1.99935E+01-1.08073E-04-3.68017E-06 1.54881E-03 1.73825E-13-6.67071E-13
 -1       217 1.99949E+01-9.99178E-05-4.04968E-06 1.29026E-03 1.76149E-13-5.79658E-13
 -1       218 1.99960E+01-8.85182E-05-4.01320E-06 1.05253E-03-6.70202E-14-5.30460E-13
 -1       219 1.99969E+01-7.59337E-05-3.73748E-06 8.42724E-04 1.99071E-14-5.78410E-13
 -1       220 1.99977E+01-6.35134E-05-3.34041E-06 6.63184E-04-8.84580E-14-7.55657E-13
 -1       221 1.99983E+01-5.21105E-05-2.90287E-06 5.13133E-04 1.19960E-13-6.17127E-13
 -1       222 1.99987E+01-4.22550E-05-2.47587E-06 3.89815E-04 5.15363E-14-1.28237E-13
 -1       223 1.99991E+01-3.42847E-05-2.08057E-06 2.89229E-04 1.68631E-13 1.22566E-13
 -1       224 1.99994E+01-2.84388E-05-1.70301E-06 2.06614E-04 9.84974E-14 4.12190E-13
 -1       225 1.99996E+01-2.48263E-05-1.30334E-06 1.36816E-04 2.06739E-13 1.60387E-13
 -1       226 1.99997E+01-2.30285E-05-1.00048E-06 7.53494E-05 1.54937E-13 2.19639E-13
 -1       227 1.99998E+01-2.06072E-05-7.62334E-07 2.11869E-05 1.06200E-13 3.73553E-13
 -1       228 2.99829E+01 2.58744E-02-5.08642E-02 2.40094E+00 4.17427E-13 2.08989E-12
 -1       229 2.73903E+01-6.95081E-02 1.32427E-02 2.24910E+00 3.51681E-13 1.86017E-12
 -1       230 2.51072E+01 1.45693E-01 6.46954E-05 2.09833E+00 3.51357E-13 1.53421E-12
 -1       231 2.33924E+01 4.33479E-01-2.22370E-02 1.27253E+00 3.91220E-13 1.06371E-12
 -1       232 2.27347E+01 4.82867E-01-2.80070E-02-3.27790E-02 4.42020E-13 5.48742E-13
 -1       233 2.31444E+01 2.39155E-01-1.03261E-02-1.04933E+00 3.37220E-13 8.24965E-14
 -1       234 2.40371E+01-6.41332E-02 8.39664E-03-1.27014E+00 2.01103E-13-1.75754E-13
 -1       235 2.47586E+01-2.20033E-01 1.13423E-02-8.54358E-01 4.73536E-14-3.06975E-13
 -1       236 2.49993E+01-2.16554E-01 5.97056E-03-2.40553E-01 6.07413E-15-2.95391E-13
 -1       237 2.47737E+01-1.40338E-01 4.83345E-05 2.51944E-01 3.96666E-14-3.64354E-13
 -1       238 2.42421E+01-6.16977E-02-2.74605E-03 5.26264E-01 1.42478E-13-3.94224E-13
 -1       239 2.35745E+01-8.28152E-03-2.78721E-03 6.17335E-01 5.37508E-14-4.13987E-13
 -1       240 2.28938E+01 1.97338E-02-1.66137E-03 5.95758E-01 2.14666E-14-3.59297E-13
 -1       241 2.22710E+01 3.05154E-02-4.87773E-04 5.20342E-01-7.81600E-14-2.10692E-13
 -1       242 2.17376E+01 3.17619E-02 3.20783E-04 4.28221E-01-1.30580E-13-1.47439E-13
 -1       243 2.13007E+01 2.86083E-02 7.42020E-04 3.38957E-01 1.07507E-13-2.93549E-13
 -1       244 2.09540E+01 2.39464E-02 8.85313E-04 2.60993E-01 2.09063E-13-2.05812E-13
 -1       245 2.06853E+01 1.92029E-02 8.67377E-04 1.96691E-01 9.28587E-14-2.33018E-13
 -1       246 2.04811E+01 1.49781E-02 7.72313E-04 1.45509E-01-4.83907E-14-4.12869E-13
 -1       247 2.03288E+01 1.14532E-02 6.50640E-04 1.05742E-01-8.04488E-14-4.24192E-13
 -1       248 2.02171E+01 8.61913E-03 5.28969E-04 7.54016E-02 4.70659E-14-4.52274E-13
 -1       249 2.01367E+01 6.39262E-03 4.19422E-04 5.26088E-02 1.95887E-14-5.36645E-13
 -1       250 2.00800E+01 4.67153E-03 3.26208E-04 3.57348E-02 4.37226E-15-5.34757E-13
 -1       251 2.00411E+01 3.35822E-03 2.49593E-04 2.34325E-02-4.51982E-14-5.78709E-13
 -1       252 2.00152E+01 2.36782E-03 1.88083E-04 1.46165E-02 4.53083E-15-5.27338E-13
 -1       253 1.99987E+01 1.62993E-03 1.39566E-04 8.42717E-03 4.31469E-14-4.93525E-13
 -1       254 1.99889E+01 1.08748E-03 1.01860E-04 4.19169E-03 5.32209E-14-5.25521E-13
 -1       255 1.99838E+01 6.94864E-04 7.29524E-05 1.38923E-03 3.09896E-13-4.22805E-13
 -1       256 1.99817E+01 4.15986E-04 5.10884E-05-3.79459E-04-1.60230E-13-5.35853E-13
 -1       257 1.99816E+01 2.22469E-04 3.47884E-05-1.41710E-03-1.71501E-13-6.30165E-13
 -1       258 1.99827E+01 9.21849E-05 2.28288E-05-1.95050E-03 1.69444E-13-7.00985E-13
 -1       259 1.99845E+01 8.02258E-06 1.42137E-05-2.14721E-03 1.32042E-13-7.34959E-13
 -1       260 1.99865E+01-4.31202E-05 8.14252E-06-2.12902E-03-1.21647E-13-8.18546E-13
 -1       261 1.99886E+01-7.11611E-05 3.97896E-06-1.98269E-03-5.72926E-14-1.10276E-12
 -1       262 1.99906E+01-8.35068E-05 1.22338E-06-1.76856E-03 1.19464E-13-8.77402E-13
 -1       263 1.99924E+01-8.56026E-05-5.12012E-07-1.52729E-03 1.19444E-13-1.15509E-12
 -1       264 1.99939E+01-8.13787E-05-1.52438E-06-1.28514E-03 1.24750E-13-1.28771E-12
 -1       265 1.99952E+01-7.36106E-05-2.03840E-06-1.05797E-03-7.39114E-14-1.15712E-12
 -1       266 1.99963E+01-6.42081E-05-2.22147E-06-8.54395E-04-1.79100E-13-1.11187E-12
 -1       267 1.99972E+01-5.44458E-05-2.19635E-06-6.78051E-04 4.15452E-14-1.01476E-12
 -1       268 1.99979E+01-4.51457E-05-2.05096E-06-5.29259E-04 2.02579E-13-9.29497E-13
 -1       269 1.99985E+01-3.68228E-05-1.84505E-06-4.06219E-04-5.24493E-13-8.17646E-13
 -1       270 1.99989E+01-2.98051E-05-1.61234E-06-3.05793E-04-3.03183E-13-5.32430E-13
 -1       271 1.99992E+01-2.43235E-05-1.35577E-06-2.23995E-04-8.45917E-14-5.66892E-13
 -1       272 1.99995E+01-2.05052E-05-1.03165E-06-1.56320E-04-1.00089E-13-4.42936E-13
 -1       273 1.99996E+01-1.83808E-05-6.03337E-07-9.82676E-05-8.17026E-14-2.06582E-13
 -1       274 1.99997E+01-1.77688E-05-5.80529E-07-4.60756E-05 1.85742E-13-2.21832E-14
 -1       275 1.99998E+01-1.16600E-05-1.40860E-06-2.78006E-06 1.80391E-13 2.51220E-13
 -1       276 1.99998E+01-3.86850E-05-6.78128E-07-2.48730E-05 3.69823E-13 6.06972E-13
 -1       277 1.99998E+01-1.06974E-04-1.82361E-07-7.29403E-05 2.81429E-13-4.00026E-13
 -1       278 1.99998E+01-2.06705E-04-6.80872E-08-1.11021E-04 2.33947E-14 4.67859E-14
 -1       279 1.99998E+01-3.24819E-04 4.64507E-08-1.27511E-04 9.48625E-14-7.68722E-14
 -1       280 1.99998E+01-4.41754E-04 2.91031E-07-1.20989E-04-5.47290E-14-1.02592E-12
 -1       281 1.99998E+01-5.43119E-04 5.26827E-07-9.36110E-05-2.99474E-13-2.36604E-13
 -1       282 1.99998E+01-6.10774E-04 7.01422E-07-5.07000E-05-2.03772E-13 6.48937E-14
 -1       283 1.99998E+01-6.34287E-04 7.63105E-07 3.98858E-07-3.41632E-13 1.32676E-13
 -1       284 1.99998E+01-6.10033E-04 7.00986E-07 5.14293E-05-6.37103E-13-8.63930E-14
 -1       285 1.99998E+01-5.41736E-04 5.27952E-07 9.41627E-05-4.72680E-13-4.59947E-13
 -1       286 1.99998E+01-4.41971E-04 2.78239E-07 1.20990E-04-4.97721E-13-2.80779E-13
 -1       287 1.99998E+01-3.22907E-04 5.15178E-08 1.27451E-04-5.37795E-13 3.53225E-14
 -1       288 1.99998E+01-2.04782E-04-6.03263E-08 1.10412E-04-4.08189E-13 5.34602E-13
 -1       289 1.99998E+01-1.07452E-04-5.66997E-07 7.26603E-05-4.15211E-13 2.35324E-13
 -1       290 1.99998E+01-6.10916E-05-5.65220E-07 5.08238E-05-1.36125E-13 2.20637E-13
 -1       291-3.46188E-01-7.25242E+00-9.30627E-01 1.24249E+00 1.08859E-12 1.53437E-12
 -1       292 4.54240E+00-4.62945E+00-5.08855E-01 4.99031E+00 1.27878E-12 1.68827E-12
 -1       293 1.15458E+01-2.56019E+00-3.95811E-01 6.82035E+00 1.88721E-12 1.84967E-12
 -1       294 2.03382E+01 9.96821E-01-5.24555E-02 8.24313E+00 2.31309E-12 1.87461E-12
 -1       295 3.13017E+01 2.75700E+00 2.98999E-01 6.91941E+00 1.83295E-12 8.44852E-13
 -1       296 3.98324E+01 5.76338E+00 7.66698E-01 6.30208E+00 1.82110E-12 5.69322E-13
 -1       297 4.50342E+01 6.66577E+00 1.04883E+00 4.10153E+00 1.59738E-12-2.54505E-13
 -1       298 4.22922E+01 6.65195E+00 6.81498E-01 1.35207E+00 1.90914E-12-1.07729E-12
 -1       299 3.99309E+01 4.26258E+00 6.35373E-01-2.20163E+00 2.02138E-12-2.20637E-12
 -1       300 3.14829E+01 1.62028E+00 1.54623E-01-3.82603E+00 2.20005E-12-2.43508E-12
 -1       301 2.12432E+01 1.01221E-01-2.18286E-01-5.54046E+00 2.40843E-12-2.86038E-12
 -1       302 1.09346E+01-4.66926E-01-5.30881E-01-4.99402E+00 2.55818E-12-2.80460E-12
 -1       303 3.80712E+00-1.09704E+00-6.36580E-01-2.85662E+00 2.28850E-12-2.38953E-12
 -1       304 6.69187E-01-8.31415E-01-4.32464E-01-1.14402E+00 1.21780E-12-1.93431E-12
 -1       305-4.18111E-01-1.58764E+00-4.82401E-01 6.71499E-01 4.30576E-13-1.58934E-12
 -1       306 1.31175E+00 2.40335E-01-2.84194E-01 2.64130E+00-3.74395E-13-1.77239E-12
 -1       307 5.66372E+00 9.80801E-01-2.96980E-01 4.70778E+00-1.04820E-12-1.90081E-12
 -1       308 1.10837E+01 1.99696E+00-3.64653E-01 6.18130E+00-2.23047E-12-2.46980E-12
 -1       309 1.94413E+01 2.88602E+00-1.55149E-01 7.28485E+00-2.42226E-12-2.76620E-12
 -1       310 2.89156E+01 3.77892E+00 1.86238E-01 6.81418E+00-2.31375E-12-2.79557E-12
 -1       311 3.74923E+01 4.77829E+00 5.66607E-01 4.52539E+00-1.97509E-12-2.35373E-12
 -1       312 4.13701E+01 6.07246E+00 6.99973E-01 4.73978E-01-1.71692E-12-1.36288E-12
 -1       313 4.33484E+01 6.32835E+00 9.35414E-01-3.04248E+00-1.46802E-12-4.43728E-13
 -1       314 3.81503E+01 5.92659E+00 6.91714E-01-5.68646E+00-1.46565E-12 3.61960E-13
 -1       315 3.04117E+01 4.40548E+00 4.80228E-01-8.33263E+00-1.64788E-12 1.31375E-12
 -1       316 2.03450E+01 1.71566E+00 4.46085E-02-8.20791E+00-1.80614E-12 1.62767E-12
 -1       317 1.10071E+01-1.70506E+00-3.81159E-01-6.62216E+00-1.60377E-12 1.71869E-12
 -1       318 4.27958E+00-4.80735E+00-6.11370E-01-4.68909E+00-6.76709E-13 1.71826E-12
 -1       319-1.40722E-01-6.85258E+00-8.62021E-01-1.65628E+00 6.09512E-14 1.47808E-12
 -1       320 2.52312E+01 2.86016E+00-6.19710E-02-4.63134E+00-7.58926E-13 6.05654E-13
 -1       321 2.40390E+01 2.92464E+00-3.44302E-02-3.59624E+00-5.67380E-13-6.28079E-13
 -1       322 2.41546E+01 2.42078E+00-2.99349E-02-3.84783E+00-7.85641E-13-2.66892E-13
 -1       323 2.40234E+01 1.99587E+00-3.18460E-02-1.87786E+00 1.28196E-13-6.10316E-13
 -1       324 2.26789E+01 1.15533E+00-2.13618E-02-1.60235E-02 5.72315E-13-4.92035E-13
 -1       325 1.87263E+01 1.01845E+00 2.00649E-02 2.55559E+00 9.86773E-13-6.20181E-13
 -1       326 1.23709E+01 2.12229E+00 9.35375E-02 4.29044E+00 1.12249E-12-1.02634E-12
 -1       327 5.21922E+00 3.72476E+00 1.15140E-01 3.44563E+00 7.81632E-13-1.56725E-12
 -1       328 6.47026E+00 3.69587E+00 1.31879E-01-1.84999E+00-2.50286E-13-1.49219E-12
 -1       329 1.41180E+01 1.83085E+00 8.01366E-02-2.11519E+00-5.10279E-13-9.19577E-13
 -1       330 2.12221E+01 8.08477E-01 1.23865E-02 5.09675E-02-3.38212E-13-3.27596E-13
 -1       331 2.56099E+01 1.08796E+00-3.23829E-02 2.50633E+00 6.77080E-14 1.13356E-13
 -1       332 2.82810E+01 1.40158E+00-6.51735E-02 3.85872E+00 3.93867E-13 6.67941E-13
 -1       333 2.95801E+01 7.07667E-01-4.85730E-02 3.59743E+00 4.76836E-13 1.28216E-12
 -1       334 2.82579E+01-1.20244E-01-3.64922E-03 3.41157E+00 4.24343E-13 1.26310E-12
 -1       335 2.32539E+01 8.40228E-01 1.47164E-02-2.40001E+00-6.28105E-13-3.36064E-14
 -1       336 2.23003E+01 7.32774E-01 1.08984E-02-1.54767E+00-5.18648E-13-1.13030E-13
 -1       337 2.16472E+01 7.67200E-01 8.37295E-03-7.09827E-01-4.48344E-13-2.34509E-13
 -1       338 2.13483E+01 6.79855E-01 6.24010E-03 9.96503E-02-3.70691E-13-3.77657E-13
 -1       339 2.13603E+01 4.19725E-01 4.05776E-03 7.05098E-01-2.93054E-13-4.60651E-13
 -1       340 2.15412E+01 8.76487E-02 1.94775E-03 9.73580E-01-1.34078E-13-5.32202E-13
 -1       341 2.17324E+01-1.82620E-01-3.55171E-04 9.12911E-01-9.52681E-14-5.78713E-13
 -1       342 2.18342E+01-3.20029E-01-2.05598E-03 6.42009E-01-1.27388E-13-5.43354E-13
 -1       343 2.18205E+01-3.32987E-01-2.80162E-03 3.02642E-01-1.30429E-13-5.57069E-13
 -1       344 2.17109E+01-2.70000E-01-2.72047E-03-2.89783E-03-1.03240E-13-6.09028E-13
 -1       345 2.15393E+01-1.80095E-01-2.13193E-03-2.26096E-01 2.18936E-14-5.63601E-13
 -1       346 2.13374E+01-9.53128E-02-1.36712E-03-3.59217E-01 1.07570E-13-5.15430E-13
 -1       347 2.11285E+01-2.99575E-02-6.62820E-04-4.16362E-01 3.06960E-14-4.94908E-13
 -1       348 2.09281E+01 1.34621E-02-1.26671E-04-4.18910E-01 3.93739E-14-4.97014E-13
 -1       349 2.07456E+01 3.81765E-02 2.24233E-04-3.87372E-01 4.53568E-14-4.53074E-13
 -1       350 2.05857E+01 4.91710E-02 4.17569E-04-3.38037E-01-4.99623E-14-5.08609E-13
 -1       351 2.04499E+01 5.11681E-02 4.94998E-04-2.82366E-01-9.83697E-14-4.90114E-13
 -1       352 2.03378E+01 4.78858E-02 4.96726E-04-2.27628E-01-1.39207E-13-3.63465E-13
 -1       353 2.02475E+01 4.19497E-02 4.54856E-04-1.77921E-01-3.85691E-14-3.36772E-13
 -1       354 2.01763E+01 3.50666E-02 3.92197E-04-1.35139E-01 4.64635E-14-4.96162E-13
 -1       355 2.01216E+01 2.82589E-02 3.23518E-04-9.97694E-02 1.79897E-14-3.36125E-13
 -1       356 2.00804E+01 2.20772E-02 2.57529E-04-7.14707E-02-4.05278E-14-3.65197E-13
 -1       357 2.00502E+01 1.67666E-02 1.98748E-04-4.94681E-02 1.70539E-13-2.28659E-13
 -1       358 2.00285E+01 1.23854E-02 1.49000E-04-3.28127E-02 1.56733E-13-2.59163E-13
 -1       359 2.00136E+01 8.88615E-03 1.08486E-04-2.05374E-02 7.88844E-14-3.77692E-13
 -1       360 2.00036E+01 6.16875E-03 7.65190E-05-1.17443E-02-6.44047E-14-3.07907E-13
 -1       361 1.99973E+01 4.11279E-03 5.19937E-05-5.64747E-03-1.96410E-14-3.47594E-13
 -1       362 1.99936E+01 2.59706E-03 3.36740E-05-1.58643E-03-6.38877E-14-3.78502E-13
 -1       363 1.99918E+01 1.50992E-03 2.03586E-05 9.75741E-04-1.63785E-13-5.96161E-13
 -1       364 1.99912E+01 7.54216E-04 1.09659E-05 2.46385E-03 6.22258E-14-3.95624E-13
 -1       365 1.99914E+01 2.48649E-04 4.57041E-06 3.20582E-03 2.92095E-14-1.81914E-13
 -1       366 1.99921E+01-7.26714E-05 4.08753E-07 3.44887E-03-1.13592E-13-2.14827E-13
 -1       367 1.99930E+01-2.61775E-04-2.13031E-06 3.37499E-03-1.19986E-13-3.35198E-13
 -1       368 1.99939E+01-3.58784E-04-3.52377E-06 3.11469E-03-7.00397E-14-1.45841E-13
 -1       369 1.99949E+01-3.93944E-04-4.13521E-06 2.75887E-03 1.64462E-13-1.21476E-13
 -1       370 1.99958E+01-3.89545E-04-4.23552E-06 2.36855E-03 2.42552E-13-2.37557E-13
 -1       371 1.99966E+01-3.61627E-04-4.02193E-06 1.98272E-03 4.17165E-14-3.78628E-13
 -1       372 1.99973E+01-3.21437E-04-3.63464E-06 1.62455E-03-7.96982E-14-2.63926E-13
 -1       373 1.99979E+01-2.76640E-04-3.17075E-06 1.30603E-03-1.12231E-13-3.25364E-13
 -1       374 1.99984E+01-2.32301E-04-2.69557E-06 1.03159E-03 4.84078E-14-6.32220E-14
 -1       375 1.99987E+01-1.91661E-04-2.25218E-06 8.00580E-04 4.25412E-13-3.32567E-14
 -1       376 1.99991E+01-1.56744E-04-1.86546E-06 6.09169E-04 4.09187E-13 2.78780E-13
 -1       377 1.99993E+01-1.28750E-04-1.54021E-06 4.51571E-04 2.16108E-13 4.06407E-13
 -1       378 1.99995E+01-1.08183E-04-1.28154E-06 3.21193E-04-1.21807E-13 5.56903E-13
 -1       379 1.99996E+01-9.45080E-05-1.24868E-06 2.11378E-04 5.31429E-15 4.57889E-13
 -1       380 1.99997E+01-7.92915E-05-7.36662E-07 1.23697E-04 1.78964E-13 3.96874E-13
 -1       381 2.67086E+01 3.28792E-01 5.67194E-05 3.28827E+00 5.28969E-13 1.13601E-12
 -1       382 2.52765E+01 1.17207E+00-1.11930E-02 2.28792E+00 6.54019E-13 7.62076E-13
 -1       383 2.44560E+01 1.48639E+00-2.66212E-02 4.24536E-01 7.58215E-13 2.29849E-13
 -1       384 2.44776E+01 8.76560E-01-1.85560E-02-1.19257E+00 5.86956E-13-2.10671E-13
 -1       385 2.48603E+01-7.61900E-02-4.70403E-03-1.65834E+00 2.72539E-13-4.53524E-13
 -1       386 2.49971E+01-6.23315E-01-5.59146E-03-1.14128E+00 1.52716E-13-5.00815E-13
 -1       387 2.47587E+01-6.71937E-01-7.29091E-03-2.76748E-01-4.09299E-14-4.87225E-13
 -1       388 2.42612E+01-4.62733E-01-7.61923E-03 4.39771E-01 4.11437E-14-4.05571E-13
 -1       389 2.36542E+01-2.19003E-01-5.72421E-03 8.51160E-01 9.15448E-14-3.38092E-13
 -1       390 2.30390E+01-4.31476E-02-2.97444E-03 9.96204E-01 3.73392E-14-2.09112E-13
 -1       391 2.24659E+01 5.45741E-02-6.45979E-04 9.71128E-01-2.52719E-14-1.69267E-13
 -1       392 2.19585E+01 9.57895E-02 8.05565E-04 8.59791E-01-1.16972E-13-2.38823E-13
 -1       393 2.15257E+01 1.04035E-01 1.49516E-03 7.17843E-01-5.78563E-14-2.52045E-13
 -1       394 2.11671E+01 9.60817E-02 1.67809E-03 5.76388E-01 5.91867E-14-2.75574E-13
 -1       395 2.08770E+01 8.18703E-02 1.58252E-03 4.50039E-01 1.37735E-13 4.02598E-16
 -1       396 2.06472E+01 6.65720E-02 1.36633E-03 3.43827E-01 1.32882E-13 1.34019E-14
 -1       397 2.04685E+01 5.25271E-02 1.11985E-03 2.57862E-01 1.31353E-13-4.76344E-14
 -1       398 2.03318E+01 4.05710E-02 8.87402E-04 1.90062E-01-8.63557E-14-2.73425E-13
 -1       399 2.02290E+01 3.08139E-02 6.86647E-04 1.37615E-01 5.02366E-14-3.70044E-13
 -1       400 2.01529E+01 2.30576E-02 5.21529E-04 9.76939E-02 9.50675E-14-4.03543E-13
 -1       401 2.00977E+01 1.70025E-02 3.89762E-04 6.77530E-02-2.78875E-14-3.77177E-13
 -1       402 2.00584E+01 1.23414E-02 2.86758E-04 4.56298E-02-6.67022E-14-4.57929E-13
 -1       403 2.00312E+01 8.79754E-03 2.07496E-04 2.95452E-02 8.11628E-14-4.06466E-13
 -1       404 2.00129E+01 6.13589E-03 1.47324E-04 1.80658E-02-3.17992E-14-4.44920E-13
 -1       405 2.00011E+01 4.16284E-03 1.02239E-04 1.00539E-02 1.96454E-13-5.04305E-13
 -1       406 1.99939E+01 2.72180E-03 6.89198E-05 4.61735E-03 1.06579E-13-4.56019E-13
 -1       407 1.99900E+01 1.68755E-03 4.46741E-05 1.06415E-03 1.23470E-13-1.53219E-13
 -1       408 1.99882E+01 9.60888E-04 2.73482E-05-1.13628E-03-5.00113E-14-5.58933E-13
 -1       409 1.99880E+01 4.63860E-04 1.52383E-05-2.38597E-03 3.08803E-14-5.62186E-13
 -1       410 1.99885E+01 1.35777E-04 7.00858E-06-2.98553E-03 1.05936E-13-4.42918E-13
 -1       411 1.99896E+01-7.01551E-05 1.62221E-06-3.15628E-03-3.76693E-14-3.84674E-13
 -1       412 1.99909E+01-1.89605E-04-1.71765E-06-3.05827E-03 1.30021E-13-5.44942E-13
 -1       413 1.99923E+01-2.49414E-04-3.61626E-06-2.80482E-03 1.29918E-15-8.01327E-13
 -1       414 1.99936E+01-2.69478E-04-4.52745E-06-2.47402E-03 1.81691E-13-7.89564E-13
 -1       415 1.99948E+01-2.64297E-04-4.78642E-06-2.11783E-03 1.27620E-13-6.05996E-13
 -1       416 1.99958E+01-2.44222E-04-4.63660E-06-1.76919E-03-1.33209E-13-6.54000E-13
 -1       417 1.99967E+01-2.16477E-04-4.25141E-06-1.44746E-03-1.95760E-14-7.36469E-13
 -1       418 1.99974E+01-1.85958E-04-3.75177E-06-1.16248E-03-4.21839E-14-7.38721E-13
 -1       419 1.99980E+01-1.55886E-04-3.21986E-06-9.17669E-04 1.07396E-13-5.86270E-13
 -1       420 1.99985E+01-1.28311E-04-2.70896E-06-7.12197E-04-3.89752E-13-5.49095E-13
 -1       421 1.99989E+01-1.04512E-04-2.25073E-06-5.42512E-04-4.00166E-13-8.04545E-13
 -1       422 1.99992E+01-8.53034E-05-1.85733E-06-4.03383E-04-2.73328E-13-6.47151E-13
 -1       423 1.99994E+01-7.10964E-05-1.51820E-06-2.88612E-04-2.53264E-13-2.73446E-13
 -1       424 1.99996E+01-6.15941E-05-1.16103E-06-1.92078E-04-2.73113E-13-2.30398E-13
 -1       425 1.99997E+01-5.50721E-05-8.55748E-07-1.09439E-04-1.97135E-13 3.19777E-13
 -1       426 1.99997E+01-5.15244E-05-5.26592E-07-6.39926E-05-3.99740E-15 7.61020E-13
 -1       427 1.99998E+01-3.06820E-04-2.40937E-07-2.23314E-04-8.37631E-14 1.14347E-14
 -1       428 1.99997E+01-1.96002E-04-5.81388E-07-1.84230E-04-1.96626E-13-1.10370E-13
 -1       429 1.99997E+01-1.15710E-04-7.14990E-07-1.26154E-04-3.43152E-13-2.77782E-13
 -1       430 1.99998E+01-4.17086E-04 9.77433E-08-2.26173E-04-2.32443E-13-1.01251E-12
 -1       431 1.99998E+01-5.16850E-04 3.91489E-07-1.92638E-04-3.72256E-14-6.88600E-13
 -1       432 1.99999E+01-5.91410E-04 6.21851E-07-1.28621E-04-9.80424E-14-1.36014E-14
 -1       433 1.99999E+01-6.31111E-04 7.47227E-07-4.46879E-05-3.70099E-13 1.57078E-14
 -1       434 1.99999E+01-6.30764E-04 7.47297E-07 4.60798E-05-3.29795E-13-2.11037E-14
 -1       435 1.99999E+01-5.90402E-04 6.20712E-07 1.29794E-04-1.82559E-13-1.17465E-13
 -1       436 1.99998E+01-5.16883E-04 3.89341E-07 1.92574E-04 4.79117E-15-4.00880E-13
 -1       437 1.99998E+01-4.17123E-04 1.11684E-07 2.26215E-04 1.16552E-13 1.42218E-13
 -1       438 1.99998E+01-3.05035E-04-2.01090E-07 2.23105E-04 1.29619E-13 2.11327E-13
 -1       439 1.99997E+01-1.93056E-04-5.43493E-07 1.83625E-04-2.27057E-14 1.95748E-13
 -1       440 1.20788E+01-3.23565E+00-3.90355E-02 7.19947E+00 1.88738E-13 9.22165E-13
 -1       441 2.59429E+00-1.13285E+00 2.97922E-02-7.58255E-02 2.47847E-13 1.68908E-12
 -1       442 4.98462E+00-1.39896E+00 6.76579E-02 4.08116E+00 1.31839E-15 1.53874E-12
 -1       443 2.14708E+01-3.62181E+00 1.09072E-02 6.76158E+00 1.48784E-13 2.22537E-13
 -1       444 2.77526E+01-2.35182E+00-4.65637E-02 4.20380E+00 6.02331E-13-4.16917E-13
 -1       445 2.41752E+01 2.70469E+00-3.59184E-02-2.97649E+00-2.59813E-13-7.00627E-13
 -1       446 3.45363E+01 5.96695E+00 2.65578E-02 9.82264E-01 1.75374E-12-6.36005E-13
 -1       447 3.42109E+01 7.31503E+00-3.81825E-02 1.59070E+00 1.94936E-12-5.05814E-13
 -1       448 3.51053E+01 5.40911E+00 4.20676E-02 2.41417E+00 1.93148E-12-5.39235E-13
 -1       449 3.30844E+01 2.07046E+00 1.90029E-02 1.72914E+00 1.62185E-12-4.78229E-13
 -1       450 2.79481E+01-1.38621E+00-4.46365E-02-9.54602E-01 1.02449E-12-6.59486E-13
 -1       451 1.99483E+01-1.78498E+00-6.90245E-02-3.90294E+00 7.45903E-13-1.29778E-12
 -1       452 1.12141E+01-4.27488E-01-8.14841E-02-4.49595E+00 5.46396E-13-1.69944E-12
 -1       453 5.34957E+00 1.06812E+00-2.88590E-02-3.21152E+00 4.21531E-13-1.90213E-12
 -1       454 1.23727E+00 2.36658E+00 1.28575E-02-3.11975E-01 3.62505E-13-1.97203E-12
 -1       455 1.68036E+00 2.70964E+00 4.50621E-02 2.10885E+00 4.09214E-13-1.90206E-12
 -1       456 5.44853E+00 2.06257E+00 1.13981E-02 4.50292E+00 3.85178E-13-1.69410E-12
 -1       457 1.28694E+01 7.97987E-01-1.09226E-02 5.65603E+00 9.05248E-14-1.34666E-12
 -1       458 1.86446E+01 2.75808E-01-6.12161E-02 5.25652E+00-3.94657E-13-1.15321E-12
 -1       459 2.58528E+01 7.44442E-01-4.06564E-02 3.06287E+00-8.73968E-13-8.29697E-13
 -1       460 3.09450E+01 3.05098E+00 9.74072E-03 9.05285E-01-1.46232E-12-8.65100E-13
 -1       461 3.36670E+01 5.78953E+00 5.55927E-02-7.74413E-01-1.80150E-12-7.90160E-13
 -1       462 3.31962E+01 7.71264E+00 9.05895E-03-1.39117E+00-1.81472E-12-7.73652E-13
 -1       463 3.31110E+01 6.73881E+00 1.78722E-02-1.11165E+00-1.60547E-12-8.97858E-13
 -1       464 3.09267E+01 2.58039E+00-1.48184E-02-1.87666E+00-8.98406E-13-7.66553E-13
 -1       465 2.72090E+01-9.19053E-01 1.07632E-02-4.55096E+00-3.92943E-13-3.34066E-13
 -1       466 2.02733E+01-3.08892E+00-7.41239E-03-6.87405E+00 6.52256E-14 1.63120E-13
 -1       467 1.21645E+01-3.28850E+00-3.43246E-02-7.35729E+00 3.06907E-13 9.64683E-13
 -1       468 4.98242E+00-2.06705E+00-1.70522E-02-4.81847E+00 3.36203E-13 1.69763E-12
 -1       469 3.31595E+01 2.63568E+00 4.00277E-02 1.64174E+00 1.40081E-12-6.56045E-13
 -1       470 3.10298E+00 4.43197E+00 1.42894E-01 9.70878E-01 3.72213E-13-1.71943E-12
 -1       471 1.01719E+01-1.56349E+00 1.03513E-01 6.06628E+00-4.51014E-13 9.00363E-13
 -1       472 3.14488E+01 6.29750E+00-1.19092E-01 2.68034E+00 1.85918E-12-1.92343E-13
 -1       473 2.32315E+01 7.52373E-02-1.42035E-02 9.36849E-01 5.08356E-13-2.64393E-13
 -1       474 2.49622E+01 1.04044E+00-3.23394E-02-1.79503E+00 1.02840E-13-2.40619E-13
 -1       475 2.02002E+01-8.89398E-01 5.23741E-02-1.94185E+00-3.41040E-13-4.88288E-13
 -1       476 2.79883E+01-1.53907E-01-2.10884E-02 3.79084E+00 3.22230E-13 6.09439E-13
 -1       477 2.84026E+01-1.87091E-01-2.49552E-02 3.88250E+00 4.10155E-13 8.50782E-13
 -1       478 2.35542E+01 1.47843E+00 2.56987E-03-2.62478E+00-6.14003E-13-3.36850E-13
 -1       479 2.77375E+01 3.44672E-01-1.50309E-02 4.04641E+00 5.80189E-13 8.42683E-13
 -1       480 2.66772E+01 1.81568E+00-4.02669E-02 3.19183E+00 8.68413E-13 5.98920E-13
 -1       481 2.29181E+01 1.58822E+00 7.57232E-04-1.66819E+00-5.66318E-13-4.10220E-13
 -1       482 2.24718E+01 1.58394E+00 1.38608E-03-5.53140E-01-5.27871E-13-5.27680E-13
 -1       483 2.23328E+01 1.18555E+00 5.88843E-04 4.36368E-01-4.24684E-13-6.50572E-13
 -1       484 2.23965E+01 5.05416E-01 7.58204E-04 9.99251E-01-2.87300E-13-7.20033E-13
 -1       485 2.24548E+01-1.51329E-01-1.19229E-04 1.05993E+00-1.15145E-13-7.44743E-13
 -1       486 2.23736E+01-5.56119E-01-8.68422E-04 7.69595E-01-8.19531E-14-7.72705E-13
 -1       487 2.21484E+01-6.74424E-01-1.30050E-03 3.47967E-01-6.96825E-14-6.79930E-13
 -1       488 2.18435E+01-5.94769E-01-1.41928E-03-4.48005E-02-8.59441E-14-5.08493E-13
 -1       489 2.15244E+01-4.26479E-01-1.22376E-03-3.34696E-01 2.36491E-14-4.21261E-13
 -1       490 2.12317E+01-2.48791E-01-8.41170E-04-5.08866E-01 7.16626E-14-3.59839E-13
 -1       491 2.09816E+01-1.02103E-01-4.55065E-04-5.85042E-01 6.65627E-14-4.51592E-13
 -1       492 2.07753E+01 1.50184E-03-1.56472E-04-5.90227E-01 5.28385E-14-4.83771E-13
 -1       493 2.06079E+01 6.50444E-02 4.19867E-05-5.50208E-01 5.67113E-14-3.96415E-13
 -1       494 2.04729E+01 9.73902E-02 1.57166E-04-4.85602E-01-4.44388E-14-4.36591E-13
 -1       495 2.03644E+01 1.08121E-01 2.10276E-04-4.11189E-01-5.40640E-14-4.24326E-13
 -1       496 2.02776E+01 1.05334E-01 2.22002E-04-3.36652E-01-6.22500E-14-3.19164E-13
 -1       497 2.02086E+01 9.50683E-02 2.09074E-04-2.67730E-01-4.93267E-14-2.61022E-13
 -1       498 2.01541E+01 8.14493E-02 1.83547E-04-2.07335E-01-6.62496E-14-3.54859E-13
 -1       499 2.01117E+01 6.70914E-02 1.53358E-04-1.56493E-01 4.95698E-14-4.74994E-13
 -1       500 2.00791E+01 5.35139E-02 1.23297E-04-1.15054E-01 2.12908E-14-4.44083E-13
 -1       501 2.00544E+01 4.14924E-02 9.59527E-05-8.22079E-02 1.46847E-13-2.54256E-13
 -1       502 2.00360E+01 3.13258E-02 7.24828E-05-5.68257E-02 1.38912E-13-2.73052E-13
 -1       503 2.00225E+01 2.30260E-02 5.31701E-05-3.76881E-02 3.48489E-14-4.46378E-13
 -1       504 2.00130E+01 1.64462E-02 3.78043E-05-2.36175E-02-3.81045E-14-4.61837E-13
 -1       505 2.00063E+01 1.13650E-02 2.59303E-05-1.35513E-02-6.26620E-15-4.82689E-13
 -1       506 2.00019E+01 7.53778E-03 1.70009E-05-6.57368E-03-1.17351E-13-4.03995E-13
 -1       507 1.99991E+01 4.72709E-03 1.04665E-05-1.92306E-03-1.94270E-13-3.30286E-13
 -1       508 1.99974E+01 2.71854E-03 5.82300E-06 1.01627E-03 3.07990E-14-1.66818E-13
 -1       509 1.99966E+01 1.32768E-03 2.63341E-06 2.72971E-03 5.68467E-14-3.15273E-13
 -1       510 1.99963E+01 4.01426E-04 5.33986E-07 3.59115E-03-1.46626E-13-2.92266E-13
 -1       511 1.99963E+01-1.83666E-04-7.68616E-07 3.88224E-03-6.40747E-14-1.20746E-13
 -1       512 1.99966E+01-5.24677E-04-1.50475E-06 3.81021E-03 3.20284E-14-1.37698E-14
 -1       513 1.99969E+01-6.96242E-04-1.85096E-06 3.52378E-03 9.89695E-14 1.47852E-13
 -1       514 1.99973E+01-7.54484E-04-1.93946E-06 3.12661E-03 4.04202E-14-3.58770E-14
 -1       515 1.99977E+01-7.40673E-04-1.86696E-06 2.68837E-03-1.17237E-13-3.91841E-13
 -1       516 1.99981E+01-6.84454E-04-1.70259E-06 2.25368E-03 1.50130E-13-3.00500E-13
 -1       517 1.99984E+01-6.06583E-04-1.49456E-06 1.84910E-03 8.66190E-14-1.07841E-14
 -1       518 1.99987E+01-5.21192E-04-1.27511E-06 1.48847E-03 3.94024E-14 1.28688E-13
 -1       519 1.99990E+01-4.37609E-04-1.06483E-06 1.17695E-03 7.67093E-14 8.23860E-14
 -1       520 1.99992E+01-3.61765E-04-8.80361E-07 9.13943E-04 5.08235E-13 7.04668E-14
 -1       521 1.99994E+01-2.97303E-04-7.32483E-07 6.95290E-04 2.90435E-13 1.00078E-13
 -1       522 1.99995E+01-2.45856E-04-6.07747E-07 5.14799E-04 2.00260E-13 8.75105E-14
 -1       523 1.99996E+01-2.07620E-04-5.75833E-07 3.65590E-04 2.35246E-14 3.18454E-13
 -1       524 2.64485E+01 2.85168E+00-8.31725E-02-5.03219E-01 1.07486E-12-4.44518E-13
 -1       525 2.63494E+01 6.75617E-01-9.28056E-02-1.83971E+00 5.92070E-13-8.03008E-13
 -1       526 2.61451E+01-1.11729E+00-1.75239E-02-1.31896E+00 1.99940E-13-8.71442E-13
 -1       527 2.51414E+01-1.56104E+00-8.94070E-03-1.47610E-01-5.23425E-14-6.33921E-13
 -1       528 2.40102E+01-1.22286E+00-6.48776E-03 7.87017E-01-1.25560E-13-5.64215E-13
 -1       529 2.30445E+01-6.62746E-01-4.87932E-03 1.30772E+00-4.73688E-14-3.47912E-13
 -1       530 2.23252E+01-2.09157E-01-2.67331E-03 1.48235E+00-5.82268E-14-2.69760E-13
 -1       531 2.18024E+01 7.02053E-02-7.94667E-04 1.44200E+00 3.22413E-14-1.49393E-13
 -1       532 2.14141E+01 2.06602E-01 3.50352E-04 1.29006E+00-7.06219E-14-9.51349E-14
 -1       533 2.11143E+01 2.51314E-01 9.12074E-04 1.09473E+00-7.87379E-14-8.69249E-14
 -1       534 2.08753E+01 2.46029E-01 1.09462E-03 8.95748E-01-8.59667E-14-5.67416E-14
 -1       535 2.06816E+01 2.17906E-01 1.05915E-03 7.13480E-01 5.30516E-15 6.42594E-14
 -1       536 2.05241E+01 1.82402E-01 9.25697E-04 5.56320E-01 1.40574E-13 1.33215E-14
 -1       537 2.03970E+01 1.47335E-01 7.63550E-04 4.25972E-01 1.40580E-13 5.59247E-14
 -1       538 2.02956E+01 1.16111E-01 6.07152E-04 3.20763E-01 6.67572E-14 2.21860E-13
 -1       539 2.02159E+01 8.98064E-02 4.70710E-04 2.37581E-01 1.50840E-13 5.87498E-14
 -1       540 2.01542E+01 6.83758E-02 3.57947E-04 1.72922E-01 1.98964E-13-1.47724E-13
 -1       541 2.01073E+01 5.13030E-02 2.67757E-04 1.23418E-01-4.19435E-14-1.04205E-13
 -1       542 2.00722E+01 3.79256E-02 1.97182E-04 8.60693E-02-6.71766E-14-2.43426E-14
 -1       543 2.00464E+01 2.75870E-02 1.42849E-04 5.83138E-02-4.43822E-14-3.65597E-14
 -1       544 2.00280E+01 1.96974E-02 1.01589E-04 3.80245E-02 8.69271E-14-1.32880E-13
 -1       545 2.00151E+01 1.37533E-02 7.06597E-05 2.34690E-02 2.00551E-13-1.82216E-13
 -1       546 2.00064E+01 9.33614E-03 4.77865E-05 1.32579E-02 1.74520E-13-1.17180E-13
 -1       547 2.00007E+01 6.10411E-03 3.11238E-05 6.29121E-03-1.44631E-13-2.06927E-13
 -1       548 1.99972E+01 3.78165E-03 1.91975E-05 1.70904E-03 8.30599E-14-6.61735E-14
 -1       549 1.99953E+01 2.14882E-03 1.08425E-05-1.15257E-03 4.48075E-14-8.81241E-14
 -1       550 1.99945E+01 1.03188E-03 5.14611E-06-2.79960E-03 9.97854E-14-2.39065E-13
 -1       551 1.99943E+01 2.94934E-04 1.40031E-06-3.61216E-03 2.74762E-14-4.17420E-13
 -1       552 1.99945E+01-1.67077E-04-9.39129E-07-3.87130E-03 7.27707E-14-4.01135E-13
 -1       553 1.99950E+01-4.34418E-04-2.28575E-06-3.78102E-03 6.98765E-14-2.03660E-13
 -1       554 1.99956E+01-5.67561E-04-2.94986E-06-3.48630E-03 8.14439E-14-1.14999E-13
 -1       555 1.99963E+01-6.11367E-04-3.16091E-06-3.08741E-03 4.27142E-14-1.42320E-13
 -1       556 1.99969E+01-5.98538E-04-3.08574E-06-2.65140E-03 1.27153E-13-7.32356E-14
 -1       557 1.99974E+01-5.52433E-04-2.84328E-06-2.22100E-03-6.70371E-14-5.29728E-14
 -1       558 1.99979E+01-4.89353E-04-2.51649E-06-1.82152E-03-5.54381E-14-2.01127E-13
 -1       559 1.99983E+01-4.20371E-04-2.16197E-06-1.46609E-03-5.42049E-14-3.69830E-13
 -1       560 1.99987E+01-3.52781E-04-1.81671E-06-1.15947E-03-1.72417E-13-3.30285E-13
 -1       561 1.99990E+01-2.91235E-04-1.50125E-06-9.00962E-04-2.82286E-13-2.53614E-13
 -1       562 1.99992E+01-2.38602E-04-1.22648E-06-6.86367E-04-4.77036E-13-1.28190E-13
 -1       563 1.99994E+01-1.96499E-04-1.05046E-06-5.09586E-04-4.25090E-13-2.31236E-14
 -1       564 1.99995E+01-1.65482E-04-1.03206E-06-3.63908E-04-3.83703E-13-9.34250E-14
 -1       565 1.99996E+01-1.42907E-04-8.84121E-07-2.41841E-04-2.85086E-13-1.56647E-13
 -1       566 1.99999E+01-5.21963E-04 1.32502E-07-3.03053E-04 4.09293E-14-9.62375E-13
 -1       567 1.99999E+01-6.13353E-04 2.33693E-07-2.29913E-04-1.82149E-13-3.40842E-13
 -1       568 1.99997E+01-2.86226E-04-3.81734E-08-3.11663E-04-2.57834E-13 2.48224E-13
 -1       569 1.99998E+01-4.09047E-04 3.42521E-08-3.31518E-04-1.72519E-13-4.49729E-13
 -1       570 2.00000E+01-6.72298E-04 3.16268E-07-1.23316E-04-8.54189E-14-9.72478E-14
 -1       571 2.00000E+01-6.92426E-04 3.45430E-07 1.02273E-06-6.31613E-14 3.94461E-14
 -1       572 2.00000E+01-6.71519E-04 3.11185E-07 1.25209E-04-2.21895E-15 3.59074E-13
 -1       573 1.99999E+01-6.13265E-04 2.26811E-07 2.29814E-04 5.19838E-14-1.57013E-13
 -1       574 1.99999E+01-5.21791E-04 1.57105E-07 3.02953E-04 4.68903E-13-2.88242E-13
 -1       575 1.99998E+01-4.08060E-04 1.10576E-07 3.31511E-04 3.82491E-13 2.02937E-13
 -1       576 1.99997E+01-2.85318E-04-2.62426E-07 3.10610E-04 5.62550E-14 5.32822E-14
 -1       577 1.84897E+01-3.54778E+00 6.42717E-02 6.71837E+00-5.13416E-13 1.28954E-13
 -1       578 6.59884E+00 4.23359E-01 1.54134E-01-2.72977E+00 3.51535E-13 1.55026E-12
 -1       579 2.62759E+01 3.02571E+00-7.73459E-02 1.52045E+00 1.12606E-12 7.90658E-14
 -1       580 6.78015E+00 6.76891E-01 1.80847E-01 1.86399E+00-1.43743E-13 1.31092E-12
 -1       581 2.53361E+01-3.93642E+00-1.67539E-02 3.97424E+00-3.11931E-13-6.84799E-13
 -1       582 3.08209E+01 3.05809E+00-1.04525E-01-6.34669E-01 1.24526E-12-9.27258E-13
 -1       583 1.12302E+01-1.86487E+00 1.10823E-01-6.55570E+00 7.27855E-13 8.86027E-13
 -1       584 2.90921E+01 6.49593E+00-1.44701E-01-2.21819E+00-1.61807E-12-4.39652E-13
 -1       585 2.61740E+01-1.13435E+00-1.17510E-02 1.83213E+00-7.49227E-15 2.49783E-13
 -1       586 1.74980E+01 2.92444E-01 2.75820E-02 4.30106E+00 6.71629E-13-7.44847E-13
 -1       587 3.08751E+01 3.15808E+00-1.23913E-01 3.94908E+00 1.47744E-12 2.08313E-13
 -1       588 3.02522E+01 5.52816E+00-1.61285E-01 2.35983E-01 1.56058E-12-6.20295E-13
 -1       589 2.97606E+01-3.18020E-01-5.13832E-02 3.09011E+00 7.87401E-13 3.65208E-13
 -1       590 2.61269E+01-2.04381E+00-3.36419E-02 1.78624E-01 1.67838E-13-4.41036E-14
 -1       591 1.09047E+01 1.26176E+00 9.19143E-02-3.37462E+00-2.67258E-13-1.33123E-12
 -1       592 2.78036E+01 1.31602E+00-5.91682E-02-5.22321E-01-6.65504E-13-1.67061E-13
 -1       593 2.77145E+01-1.01220E+00-9.29101E-02-1.12396E+00-7.30561E-14-1.16424E-12
 -1       594 2.33068E+01-2.32651E-01-1.23924E-02 2.38338E+00 1.41647E-13-3.92048E-13
 -1       595 2.91722E+01 3.98684E+00-1.11754E-01-2.23380E+00-1.26098E-12-1.32491E-13
 -1       596 2.88468E+01 6.75835E+00-1.44713E-01-5.60474E-01-1.49086E-12-8.83967E-13
 -1       597 2.91044E+01 4.00284E+00-1.19525E-01 2.99103E-01-1.01012E-12-1.18324E-12
 -1       598 2.52026E+01-3.21346E+00 4.11826E-03-3.90316E+00 3.88939E-13-7.50251E-13
 -1       599 1.84674E+01-3.49214E+00 5.52756E-02-6.71014E+00 7.97598E-13 3.75568E-16
 -1       600 2.40963E+01 1.85278E+00-9.31477E-03-3.32086E+00-6.29499E-13-4.35925E-13
 -1       601 2.95581E+01-1.09152E+00-7.18825E-02 4.41472E-01 5.65506E-13-1.10752E-12
 -1       602 2.48411E+01 1.90296E+00-2.38011E-02-3.00012E+00-2.52008E-13-4.32835E-13
 -1       603 9.92940E+00 2.93035E-01 1.33140E-01 3.90694E+00-4.14783E-13 9.60815E-13
 -1       604 1.99997E+01-1.85666E-04-5.87296E-07 2.76599E-04-1.27263E-13 4.46380E-13
 -1       605 2.44825E+01 2.12708E+00-1.52124E-02-3.36181E+00-4.86724E-13-4.95618E-13
 -1       606 2.87898E+01 5.35188E+00-1.43953E-01 1.21408E+00 1.60439E-12-3.76820E-13
 -1       607 2.85617E+01-3.07925E-02-6.27241E-02 4.40986E+00 5.73404E-13 7.07386E-13
 -1       608 2.62524E+01 8.46296E-01-4.86565E-02-1.40594E+00-1.74910E-13-6.52603E-15
 -1       609 2.60536E+01-2.56540E+00 1.66263E-03 6.47075E-01-1.50476E-13-9.19539E-13
 -1       610 2.34625E+01 2.70368E+00-1.12339E-02-1.49818E+00-6.82223E-13-5.63475E-13
 -1       611 2.32429E+01 2.42404E+00-1.06598E-02-1.09733E-01-6.29851E-13-7.76795E-13
 -1       612 2.33053E+01 1.37542E+00-6.04902E-03 8.52474E-01-4.17909E-13-8.90469E-13
 -1       613 2.33530E+01 1.40449E-01-5.25490E-03 1.09179E+00-1.98847E-13-9.07010E-13
 -1       614 2.31514E+01-7.27084E-01-2.73413E-03 7.66313E-01-8.96095E-14-8.76550E-13
 -1       615 2.26993E+01-1.06190E+00-8.03766E-04 2.38939E-01 8.32173E-14-7.26320E-13
 -1       616 2.21402E+01-1.00261E+00-5.25034E-04-2.34178E-01 9.31919E-14-5.51393E-13
 -1       617 2.16055E+01-7.52340E-01-6.03544E-04-5.58433E-01 5.49098E-14-3.68083E-13
 -1       618 2.11631E+01-4.61919E-01-4.47225E-04-7.32252E-01 4.92965E-14-3.45934E-13
 -1       619 2.08284E+01-2.11750E-01-2.31994E-04-7.90665E-01 4.95204E-14-3.06066E-13
 -1       620 2.05880E+01-2.85454E-02-8.31988E-05-7.72123E-01 1.03750E-13-2.94795E-13
 -1       621 2.04200E+01 8.87369E-02-1.37900E-06-7.07835E-01 6.02863E-14-3.06653E-13
 -1       622 2.03037E+01 1.52776E-01 4.48144E-05-6.20468E-01-5.81684E-14-3.61906E-13
 -1       623 2.02227E+01 1.78618E-01 6.67459E-05-5.25315E-01-8.75107E-14-3.67850E-13
 -1       624 2.01654E+01 1.79574E-01 7.29734E-05-4.32092E-01 1.10976E-15-3.55544E-13
 -1       625 2.01240E+01 1.65940E-01 6.98887E-05-3.46493E-01-1.64937E-14-3.84040E-13
 -1       626 2.00934E+01 1.45014E-01 6.19771E-05-2.71399E-01-5.25451E-14-2.69856E-13
 -1       627 2.00704E+01 1.21607E-01 5.21556E-05-2.07800E-01-1.36520E-13-2.52676E-13
 -1       628 2.00529E+01 9.86638E-02 4.21779E-05-1.55480E-01 4.99329E-14-3.25820E-13
 -1       629 2.00394E+01 7.78088E-02 3.29989E-05-1.13520E-01 1.54543E-13-3.65284E-13
 -1       630 2.00290E+01 5.97888E-02 2.50589E-05-8.06447E-02 2.28451E-14-3.64020E-13
 -1       631 2.00210E+01 4.47964E-02 1.84847E-05-5.54577E-02 1.24860E-14-4.75421E-13
 -1       632 2.00149E+01 3.26996E-02 1.32254E-05-3.65921E-02 1.00504E-15-4.15069E-13
 -1       633 2.00103E+01 2.31950E-02 9.14029E-06-2.27941E-02 5.81580E-14-4.38795E-13
 -1       634 2.00068E+01 1.59082E-02 6.05231E-06-1.29664E-02-5.40351E-14-3.33422E-13
 -1       635 2.00043E+01 1.04541E-02 3.78018E-06-6.18166E-03-9.22498E-14-2.80104E-13
 -1       636 2.00025E+01 6.47229E-03 2.15563E-06-1.67832E-03-7.71645E-14-2.37967E-13
 -1       637 2.00012E+01 3.64393E-03 1.03152E-06 1.15386E-03 5.47060E-14-2.84227E-13
 -1       638 2.00004E+01 1.69858E-03 2.84571E-07 2.79290E-03 6.49780E-14-9.99187E-14
 -1       639 1.99998E+01 4.13886E-04-1.85244E-07 3.60535E-03-7.52391E-14-5.10038E-14
 -1       640 1.99995E+01-3.88148E-04-4.56863E-07 3.86630E-03 1.04524E-14 6.30805E-14
 -1       641 1.99993E+01-8.46720E-04-5.91082E-07 3.77759E-03-1.06593E-13-1.63802E-13
 -1       642 1.99992E+01-1.06832E-03-6.33634E-07 3.48371E-03-3.60390E-14-4.29410E-13
 -1       643 1.99992E+01-1.13268E-03-6.18101E-07 3.08509E-03 8.45799E-14-3.19788E-13
 -1       644 1.99992E+01-1.09821E-03-5.68540E-07 2.64904E-03 5.60913E-16 1.45716E-14
 -1       645 1.99993E+01-1.00666E-03-5.02242E-07 2.21851E-03 1.64486E-13-1.37026E-14
 -1       646 1.99994E+01-8.87178E-04-4.31222E-07 1.81889E-03 1.43237E-13-2.25264E-14
 -1       647 1.99994E+01-7.59511E-04-3.61080E-07 1.46329E-03 3.44754E-14-2.21574E-14
 -1       648 1.99995E+01-6.36586E-04-2.94844E-07 1.15637E-03 1.73669E-13 4.67817E-14
 -1       649 1.99996E+01-5.26442E-04-2.35494E-07 8.97393E-04 3.52422E-13-4.03864E-13
 -1       650 1.99996E+01-4.33751E-04-2.53635E-07 6.82145E-04 1.58195E-13-3.70991E-13
 -1       651 1.99997E+01-3.60025E-04-1.91969E-07 5.04878E-04 2.51517E-13-2.37861E-13
 -1       652 9.25409E+00 1.47174E+00 1.34866E-01-5.28032E-01 1.05221E-13 1.16793E-12
 -1       653 2.39623E+01-2.18936E+00-1.08617E-02 1.62944E+00-2.43971E-13-6.29782E-13
 -1       654 2.23989E+01-1.24158E+00-6.38328E-04 2.05723E+00-2.36443E-13-4.19572E-13
 -1       655 2.14593E+01-4.47555E-01-9.85389E-04 2.06082E+00-1.29013E-13-2.71006E-13
 -1       656 2.09315E+01 6.43182E-02-2.62588E-04 1.88151E+00-1.42851E-13-1.50340E-13
 -1       657 2.06473E+01 3.30662E-01 1.26952E-04 1.63588E+00-1.45255E-13 9.62064E-15
 -1       658 2.04899E+01 4.33412E-01 3.08049E-04 1.37737E+00-2.81739E-14 4.95679E-14
 -1       659 2.03934E+01 4.41610E-01 3.96287E-04 1.13196E+00-1.87581E-14-7.01903E-14
 -1       660 2.03245E+01 4.02651E-01 3.93041E-04 9.11981E-01-6.50005E-14-2.00113E-13
 -1       661 2.02684E+01 3.45113E-01 3.47048E-04 7.22079E-01 1.22253E-13-1.60835E-13
 -1       662 2.02197E+01 2.84498E-01 2.88037E-04 5.62651E-01 3.25573E-14-7.95385E-14
 -1       663 2.01768E+01 2.28315E-01 2.30258E-04 4.31742E-01 2.97730E-14 1.14392E-13
 -1       664 2.01395E+01 1.79568E-01 1.79476E-04 3.26236E-01 2.29998E-13-1.58865E-14
 -1       665 2.01078E+01 1.38908E-01 1.37266E-04 2.42584E-01 2.27164E-13 4.16967E-14
 -1       666 2.00815E+01 1.05867E-01 1.03323E-04 1.77255E-01 1.00787E-13 8.52340E-14
 -1       667 2.00602E+01 7.95237E-02 7.66178E-05 1.26976E-01-2.97480E-14-7.64676E-14
 -1       668 2.00433E+01 5.88368E-02 5.59437E-05 8.88490E-02-7.99459E-14-1.17647E-13
 -1       669 2.00303E+01 4.28098E-02 4.01525E-05 6.03829E-02-5.66740E-14-1.37487E-14
 -1       670 2.00204E+01 3.05530E-02 2.82414E-05 3.94893E-02 8.16658E-14 6.76552E-14
 -1       671 2.00131E+01 2.13041E-02 1.93723E-05 2.44478E-02 8.20694E-14 1.36978E-13
 -1       672 2.00079E+01 1.44253E-02 1.28614E-05 1.38640E-02-5.25942E-14 1.40548E-13
 -1       673 2.00042E+01 9.39175E-03 8.15925E-06 6.62390E-03 1.00451E-13 9.81091E-14
 -1       674 2.00017E+01 5.77751E-03 4.82927E-06 1.85022E-03 9.00051E-14 9.00569E-14
 -1       675 2.00000E+01 3.24076E-03 2.52769E-06-1.13866E-03 1.07028E-13-1.04864E-14
 -1       676 1.99991E+01 1.51037E-03 9.86314E-07-2.86462E-03 1.47554E-13 2.02680E-13
 -1       677 1.99985E+01 3.73707E-04-2.11313E-09-3.72117E-03 8.31245E-14 1.31305E-13
 -1       678 1.99983E+01-3.33931E-04-5.96046E-07-4.00006E-03 4.92933E-14-1.37693E-13
 -1       679 1.99982E+01-7.38428E-04-9.15170E-07-3.91357E-03 3.42309E-15-1.41130E-13
 -1       680 1.99983E+01-9.34619E-04-1.04863E-06-3.61275E-03-1.50911E-13 1.41837E-13
 -1       681 1.99984E+01-9.92802E-04-1.06178E-06-3.20222E-03 4.43280E-14 2.54354E-13
 -1       682 1.99986E+01-9.64145E-04-1.00162E-06-2.75201E-03 4.72880E-14 2.67828E-13
 -1       683 1.99988E+01-8.85139E-04-9.01148E-07-2.30678E-03 1.76744E-13 3.12282E-13
 -1       684 1.99990E+01-7.81189E-04-7.83192E-07-1.89300E-03-1.09422E-13 9.06655E-14
 -1       685 1.99991E+01-6.69515E-04-6.64201E-07-1.52439E-03-8.45884E-14-6.06909E-15
 -1       686 1.99993E+01-5.61420E-04-5.53075E-07-1.20598E-03-2.60136E-13-1.01384E-13
 -1       687 1.99994E+01-4.64018E-04-4.46393E-07-9.37104E-04-5.76743E-13-2.15453E-13
 -1       688 1.99995E+01-3.81605E-04-3.78696E-07-7.13705E-04-4.82815E-13-2.41806E-13
 -1       689 1.99996E+01-3.16662E-04-4.93269E-07-5.29781E-04-2.08587E-13-1.33586E-13
 -1       690 1.99997E+01-2.99834E-04-3.59921E-07-4.14068E-04-3.92145E-13 1.95629E-13
 -1       691 2.00001E+01-7.86269E-04 1.28191E-07-8.10168E-05 2.10893E-13 2.15455E-13
 -1       692 1.99997E+01-3.18896E-04-1.41661E-07 4.02353E-04 2.41304E-13-3.36921E-13
 -1       693 2.00000E+01-6.55420E-04 7.12547E-08-3.57153E-04-9.66285E-14-8.92484E-13
 -1       694 2.00001E+01-7.85772E-04 1.14719E-07 8.37648E-05 2.49775E-13-5.09140E-14
 -1       695 2.00001E+01-7.41348E-04 1.03334E-07-2.34919E-04-1.51124E-14 6.56346E-14
 -1       696 2.00001E+01-7.41125E-04 7.40893E-08 2.34849E-04 9.11854E-14-6.10827E-14
 -1       697 2.00000E+01-6.55047E-04 1.05352E-07 3.56951E-04 3.60578E-13 7.86308E-14
 -1       698 1.99999E+01-5.36136E-04 1.36109E-07 4.29585E-04 6.48634E-13 4.16466E-14
 -1       699 1.14781E+01-2.65930E-03 1.23234E-01-4.66071E+00 6.59348E-13 8.09401E-13
 -1       700 2.23034E+01-3.38261E+00 2.45594E-02-4.34096E+00 7.52573E-13-5.36570E-13
 -1       701 2.67166E+01 9.94192E-01-6.90218E-02 7.99499E-01-3.38923E-13-1.32040E-12
 -1       702 1.56673E+01-1.81689E+00 1.04588E-01 5.93777E+00-5.70891E-13 2.64545E-13
 -1       703 2.21841E+01-3.51106E+00 3.93841E-02 4.71732E+00-6.06938E-13-3.94585E-13
 -1       704 2.81039E+01 3.20963E+00-1.63642E-01-9.44025E-01 1.14072E-12-7.90965E-13
 -1       705 2.80388E+01 2.30349E+00-7.59756E-02 3.99000E+00 1.06085E-12 5.09851E-13
 -1       706 2.63342E+01 5.90251E+00-1.26980E-01-1.47682E+00-1.27250E-12-6.62627E-13
 -1       707 2.65132E+01 4.54362E+00-1.10163E-01 4.99776E-01-9.78120E-13-1.14079E-12
 -1       708 1.60222E+01-1.99358E+00 7.99409E-02-5.99222E+00 8.54289E-13 1.40204E-13
 -1       709 2.71610E+01 2.63028E+00-8.55049E-02-2.76848E+00-7.45553E-13 2.57017E-14
 -1       710 2.84343E+01 3.87357E+00-1.47836E-01 3.31952E+00 1.40356E-12 1.54453E-13
 -1       711 2.39577E+01 2.34056E+00-8.26122E-03-2.69175E+00-6.39624E-13-4.42102E-13
 -1       712 2.56979E+01-2.60222E+00-3.52615E-02-1.64797E+00 3.31334E-13-1.03187E-12
 -1       713 2.71158E+01 4.79879E+00-1.12133E-01-2.87652E+00-1.19688E-12-1.88852E-13
 -1       714 2.43822E+01 2.10711E+00-3.39358E-03-3.22100E+00-5.63724E-13-4.12585E-13
 -1       715 2.56830E+01 1.98636E+00-4.08162E-02-3.09958E+00-4.11739E-13-1.59947E-13
 -1       716 1.05800E+01 1.40605E+00 9.15312E-02 1.48104E+00-2.00268E-13 8.47780E-13
 -1       717 1.99999E+01-5.37353E-04 1.93467E-07-4.30086E-04-2.86369E-13-7.47140E-13
 -1       718 1.99998E+01-4.20948E-04 3.49792E-08-4.43663E-04-2.07925E-13-1.54384E-13
 -1       719 2.87907E+01 9.30567E-01-1.33818E-01 4.16729E+00 8.56901E-13 5.97398E-13
 -1       720 1.99998E+01-4.55125E-04 4.18327E-08 4.82270E-04 3.16266E-13-5.16795E-13
 -1       721 1.42267E+01-1.05779E-02 7.14203E-02 4.27293E+00-5.29483E-13 4.15834E-13
 -1       722 2.01404E+01-5.85981E-01 2.00915E-03 2.83089E+00-3.26631E-13-1.74133E-13
 -1       723 2.12080E+01-1.71475E+00 2.32839E-02 3.31859E+00-3.88274E-13-3.26853E-13
 -1       724 2.43154E+01 2.87847E+00-5.33161E-02 5.91664E-01-6.60381E-13-9.21972E-13
 -1       725 2.44941E+01 8.28957E-01-1.88417E-02 1.10979E+00-3.59772E-13-1.01898E-12
 -1       726 2.41671E+01-7.83687E-01-1.06118E-02 6.73163E-01-6.76677E-14-9.64138E-13
 -1       727 2.34172E+01-1.48895E+00-2.75597E-03-5.76250E-02 1.40991E-13-7.68095E-13
 -1       728 2.25204E+01-1.47882E+00 7.01633E-04-6.40213E-01 1.93740E-13-6.96423E-13
 -1       729 2.17002E+01-1.13036E+00-1.78679E-04-9.69859E-01 2.21699E-13-5.22147E-13
 -1       730 2.10651E+01-7.02301E-01-2.69164E-04-1.08971E+00 1.27413E-13-3.47873E-13
 -1       731 2.06253E+01-3.32236E-01-1.07448E-04-1.07565E+00 1.38486E-13-2.21463E-13
 -1       732 2.03422E+01-5.86293E-02 2.39541E-06-9.90925E-01 1.02296E-13-2.26575E-13
 -1       733 2.01719E+01 1.19176E-01 1.33670E-05-8.73749E-01 3.23929E-16-3.03392E-13
 -1       734 2.00763E+01 2.19288E-01 1.75753E-05-7.46978E-01-6.76896E-14-2.96420E-13
 -1       735 2.00269E+01 2.62973E-01 1.89392E-05-6.23106E-01-8.43992E-14-3.14893E-13
 -1       736 2.00046E+01 2.69092E-01 1.82847E-05-5.08821E-01-2.92685E-14-3.10996E-13
 -1       737 1.99970E+01 2.52426E-01 1.63648E-05-4.07408E-01 2.23370E-14-3.85039E-13
 -1       738 1.99967E+01 2.23680E-01 1.38810E-05-3.20080E-01 3.32134E-14-3.49632E-13
 -1       739 1.99992E+01 1.90109E-01 1.13129E-05-2.46751E-01-9.93591E-17-3.46156E-13
 -1       740 2.00024E+01 1.56311E-01 8.93063E-06-1.86538E-01-9.34478E-14-2.73386E-13
 -1       741 2.00051E+01 1.24959E-01 6.85900E-06-1.38109E-01 2.34018E-13-2.09712E-13
 -1       742 2.00070E+01 9.73985E-02 5.13446E-06-9.99184E-02 1.41610E-13-1.12522E-13
 -1       743 2.00080E+01 7.41090E-02 3.74503E-06-7.03830E-02-1.05908E-13-9.06998E-14
 -1       744 2.00083E+01 5.50386E-02 2.65533E-06-4.79885E-02-3.76874E-14-2.75712E-13
 -1       745 2.00081E+01 3.98361E-02 1.82113E-06-3.13585E-02 4.80404E-14-3.58966E-13
 -1       746 2.00074E+01 2.80071E-02 1.19735E-06-1.92871E-02 1.93999E-14-4.00270E-13
 -1       747 2.00066E+01 1.90135E-02 7.42162E-07-1.07502E-02-6.81017E-14-1.82490E-13
 -1       748 2.00057E+01 1.23331E-02 4.18843E-07-4.89968E-03-8.32361E-14-1.80244E-14
 -1       749 2.00047E+01 7.49246E-03 1.96385E-07-1.04911E-03-6.30308E-14 7.23455E-14
 -1       750 2.00039E+01 4.08158E-03 4.93666E-08 1.34553E-03 3.17627E-14-1.23910E-13
 -1       751 2.00031E+01 1.75741E-03-4.25347E-08 2.70690E-03 8.23053E-15-4.55233E-13
 -1       752 2.00024E+01 2.40878E-04-9.51966E-08 3.35694E-03 8.54930E-14-2.78498E-13
 -1       753 2.00018E+01-6.89564E-04-1.20766E-07 3.53591E-03-1.57749E-13-2.77681E-13
 -1       754 2.00013E+01-1.20599E-03-1.28325E-07 3.41919E-03-1.32873E-13 1.91940E-14
 -1       755 2.00009E+01-1.43925E-03-1.24473E-07 3.13167E-03-8.13633E-14 8.62469E-14
 -1       756 2.00006E+01-1.48676E-03-1.13807E-07 2.75971E-03 1.77186E-13-3.26540E-13
 -1       757 2.00004E+01-1.41946E-03-9.96466E-08 2.36076E-03 1.88626E-13-3.19001E-14
 -1       758 2.00002E+01-1.28779E-03-8.68257E-08 1.97118E-03 1.82491E-13-1.72282E-13
 -1       759 2.00001E+01-1.12668E-03-7.87705E-08 1.61218E-03 2.19580E-14-1.17668E-13
 -1       760 2.00000E+01-9.59756E-04-6.56776E-08 1.29437E-03-6.00272E-14-3.36000E-13
 -1       761 1.99999E+01-8.02019E-04-4.92233E-08 1.02094E-03 6.78891E-14-5.39833E-13
 -1       762 1.99998E+01-6.62291E-04-3.13814E-08 7.91801E-04 2.78323E-13-5.10898E-13
 -1       763 1.99998E+01-5.46821E-04-9.52818E-08 6.24607E-04 1.29331E-13-5.00548E-13
 -1       764 1.97333E+01 1.28717E-01 1.50374E-03 2.32369E+00-2.71231E-13-7.26408E-14
 -1       765 1.96347E+01 5.00174E-01 5.69897E-04 1.89797E+00-2.32300E-13-3.11536E-14
 -1       766 1.96703E+01 6.50539E-01 1.31671E-04 1.54701E+00-1.18730E-13-7.50861E-14
 -1       767 1.97512E+01 6.69229E-01 1.41858E-04 1.25668E+00-2.30511E-14-1.20425E-14
 -1       768 1.98341E+01 6.19114E-01 1.38939E-04 1.01446E+00 1.21305E-13-2.29298E-15
 -1       769 1.99021E+01 5.39292E-01 1.17286E-04 8.11346E-01-8.35682E-14-1.36725E-13
 -1       770 1.99516E+01 4.51910E-01 9.30692E-05 6.41520E-01 8.56651E-14-5.36526E-14
 -1       771 1.99847E+01 3.68506E-01 7.18841E-05 5.00760E-01-6.69653E-14-1.40019E-13
 -1       772 2.00048E+01 2.94326E-01 5.47871E-05 3.85473E-01 1.07188E-13-1.60026E-13
 -1       773 2.00157E+01 2.31103E-01 4.13649E-05 2.92314E-01 1.80665E-13 9.09688E-14
 -1       774 2.00205E+01 1.78732E-01 3.09384E-05 2.18091E-01 2.03344E-13 1.71687E-13
 -1       775 2.00214E+01 1.36246E-01 2.28894E-05 1.59807E-01 1.25900E-13-3.18586E-14
 -1       776 2.00202E+01 1.02346E-01 1.67146E-05 1.14716E-01 7.28673E-14-2.18636E-13
 -1       777 2.00179E+01 7.56865E-02 1.20133E-05 8.03658E-02-2.86589E-13-2.07020E-13
 -1       778 2.00152E+01 5.50014E-02 8.46727E-06 5.46261E-02-1.04935E-13-1.27757E-13
 -1       779 2.00125E+01 3.91666E-02 5.82266E-06 3.56823E-02 5.68625E-14 2.89682E-15
 -1       780 2.00100E+01 2.72143E-02 3.87681E-06 2.20204E-02-4.35896E-14 1.84400E-13
 -1       781 2.00078E+01 1.83296E-02 2.46805E-06 1.23997E-02 7.25398E-14 9.06783E-14
 -1       782 2.00059E+01 1.18378E-02 1.46792E-06 5.82020E-03 2.06198E-14 1.38175E-13
 -1       783 2.00044E+01 7.18810E-03 7.74966E-07 1.48852E-03 4.13503E-14 1.64944E-13
 -1       784 2.00032E+01 3.93693E-03 3.09694E-07-1.21470E-03 8.68844E-14 2.41832E-15
 -1       785 2.00023E+01 1.73129E-03 1.04292E-08-2.76546E-03 5.79177E-14 8.86674E-14
 -1       786 2.00015E+01 2.94031E-04-1.70149E-07-3.52350E-03 9.20884E-14 1.88804E-13
 -1       787 2.00010E+01-5.89626E-04-2.67888E-07-3.75590E-03 3.49093E-14 3.82722E-13
 -1       788 2.00006E+01-1.08373E-03-3.09550E-07-3.65702E-03-4.24161E-14 1.98821E-13
 -1       789 2.00003E+01-1.31168E-03-3.14779E-07-3.36508E-03 1.37672E-13 1.01233E-14
 -1       790 2.00001E+01-1.36474E-03-2.97671E-07-2.97569E-03-1.76676E-15-1.54596E-13
 -1       791 1.99999E+01-1.30916E-03-2.68001E-07-2.55265E-03 3.07525E-14 1.37797E-13
 -1       792 1.99998E+01-1.19200E-03-2.31933E-07-2.13648E-03-8.32125E-14 4.18077E-13
 -1       793 1.99998E+01-1.04587E-03-1.94338E-07-1.75104E-03 1.17609E-14 5.30458E-13
 -1       794 1.99997E+01-8.92759E-04-1.65054E-07-1.40853E-03-7.60599E-14 4.45152E-13
 -1       795 1.99997E+01-7.47013E-04-1.30227E-07-1.11324E-03-2.64798E-13 3.68503E-13
 -1       796 1.99997E+01-6.16879E-04-6.82462E-08-8.64318E-04-3.86216E-13 8.76521E-14
 -1       797 1.99997E+01-5.08710E-04-6.78658E-08-6.58209E-04-6.34054E-13-1.97420E-13
 -1       798 1.99997E+01-4.61440E-04 1.46648E-07-5.43713E-04-5.56470E-13-5.49446E-14
 -1       799 2.42403E+01 4.05361E+00-5.84624E-02-9.19080E-01-8.95825E-13-6.96994E-13
 -1       800 2.00000E+01-7.01051E-04 9.63679E-08 5.12672E-04 7.14549E-14 2.15868E-13
 -1       801 2.00003E+01-9.27688E-04 5.55316E-08 1.82210E-06 1.52289E-13 1.27714E-13
 -1       802 2.36881E+01-2.72315E+00 1.37137E-03-2.08527E+00 4.70570E-13-8.35340E-13
 -1       803 1.93081E+01-2.13518E+00 3.06265E-02-4.55033E+00 7.48942E-13-2.48595E-13
 -1       804 2.49637E+01 2.25096E+00-1.78850E-02-3.31099E+00-5.30147E-13-3.27375E-13
 -1       805 2.52462E+01 4.50111E+00-6.50980E-02-2.42682E+00-1.01495E-12-4.65834E-13
 -1       806 2.52151E+01-1.16279E+00-2.32185E-02 2.49010E-01 2.85215E-14-1.07399E-12
 -1       807 2.00002E+01-9.01239E-04-1.09002E-08 2.03778E-04 2.83947E-13 5.09705E-14
 -1       808 1.52548E+01-6.04057E-01 5.70597E-02-4.65937E+00 7.25938E-13 2.02513E-13
 -1       809 2.55309E+01 3.18187E+00-5.72223E-02-3.25320E+00-7.76457E-13-2.15807E-13
 -1       810 1.92799E+01-2.05242E+00 6.96344E-02 4.72239E+00-5.77476E-13-2.44081E-13
 -1       811 2.00001E+01-8.23540E-04 5.81060E-08 3.83388E-04 2.17520E-13 5.27958E-14
 -1       812 1.26214E+01 1.17760E+00 6.50264E-02-2.42465E+00 3.52733E-13 7.00100E-13
 -1       813 2.00000E+01-7.02647E-04-1.52098E-07-5.12516E-04-1.54947E-13-7.18069E-13
 -1       814 2.00001E+01-8.24431E-04 3.79588E-08-3.82465E-04-4.48846E-14-4.55094E-13
 -1       815 2.00002E+01-9.01484E-04 9.99561E-08-2.03211E-04 5.97986E-15 4.12227E-13
 -1       816 2.17073E+01-2.28914E+00 1.86343E-02-2.94689E+00 4.99867E-13-5.35997E-13
 -1       817 1.24685E+01 1.61895E+00 5.67594E-02-8.98835E-01 1.43006E-13 7.43872E-13
 -1       818 1.99999E+01-6.30654E-04-6.86998E-07 5.79096E-04-3.98094E-14-8.55931E-14
 -1       819 1.79519E+01 3.89859E-01 3.91968E-03 2.68091E+00-3.51543E-13-1.29454E-15
 -1       820 1.78003E+01-3.45306E-01 2.67412E-02 3.66872E+00-4.27131E-13-5.23149E-14
 -1       821 2.28575E+01-2.03545E+00 1.42195E-03-1.35216E+00 3.15704E-13-6.13061E-13
 -1       822 2.16662E+01-1.53469E+00-1.27657E-03-1.63416E+00 2.93554E-13-4.90565E-13
 -1       823 2.08127E+01-9.21730E-01-4.06309E-04-1.62991E+00 2.88549E-13-4.51263E-13
 -1       824 2.02853E+01-4.19112E-01 6.32132E-05-1.46547E+00 2.29130E-13-3.19522E-13
 -1       825 1.99826E+01-5.42318E-02 1.14996E-04-1.25938E+00 1.58882E-13-3.00202E-13
 -1       826 1.98339E+01 1.78660E-01 4.88679E-05-1.05216E+00 1.11968E-13-2.87329E-13
 -1       827 1.97775E+01 3.09342E-01 1.26890E-05-8.64327E-01-7.96406E-15-1.67438E-13
 -1       828 1.97737E+01 3.66759E-01-6.83189E-07-7.00668E-01-1.06823E-13-2.00822E-13
 -1       829 1.97968E+01 3.75227E-01-5.13265E-06-5.61141E-01-9.50161E-14-3.26971E-13
 -1       830 1.98312E+01 3.53565E-01-6.25405E-06-4.43912E-01-2.42622E-14-2.84668E-13
 -1       831 1.98677E+01 3.15468E-01-6.02637E-06-3.46629E-01 1.13166E-13-2.87546E-13
 -1       832 1.99014E+01 2.70370E-01-5.26379E-06-2.66885E-01-8.33520E-14-2.83431E-13
 -1       833 1.99302E+01 2.24398E-01-4.33285E-06-2.02355E-01-1.75129E-14-3.77546E-13
 -1       834 1.99534E+01 1.81238E-01-3.40614E-06-1.50844E-01 1.14255E-13-2.30209E-13
 -1       835 1.99711E+01 1.42851E-01-2.56659E-06-1.10314E-01 2.38784E-13-3.23793E-13
 -1       836 1.99842E+01 1.10036E-01-1.85090E-06-7.89072E-02 5.79200E-14-3.88012E-13
 -1       837 1.99934E+01 8.28554E-02-1.26917E-06-5.49617E-02-1.29681E-13-2.37865E-13
 -1       838 1.99996E+01 6.09320E-02-8.15647E-07-3.70225E-02-3.19591E-14-8.47731E-14
 -1       839 2.00034E+01 4.36651E-02-4.75847E-07-2.38408E-02 1.24471E-13 6.81000E-15
 -1       840 2.00055E+01 3.03663E-02-2.31498E-07-1.43661E-02-6.74001E-15 6.56730E-14
 -1       841 2.00065E+01 2.03476E-02-6.37651E-08-7.73100E-03-3.56046E-14 6.95004E-14
 -1       842 2.00067E+01 1.29709E-02 4.48224E-08-3.23242E-03-7.69104E-14-5.36686E-14
 -1       843 2.00063E+01 7.67385E-03 1.09408E-07-3.10194E-04 8.97426E-15-1.13276E-14
 -1       844 2.00057E+01 3.97861E-03 1.42477E-07 1.47412E-03-2.25216E-13-9.02301E-14
 -1       845 2.00049E+01 1.49099E-03 1.53917E-07 2.45776E-03 1.16090E-13-2.43740E-13
 -1       846 2.00042E+01-1.06193E-04 1.51286E-07 2.89544E-03 7.39052E-14-3.40367E-13
 -1       847 2.00034E+01-1.06254E-03 1.40179E-07 2.97579E-03 2.89557E-14-2.00401E-13
 -1       848 2.00027E+01-1.57039E-03 1.24654E-07 2.83553E-03-5.71432E-14-7.10805E-14
 -1       849 2.00021E+01-1.77499E-03 1.07736E-07 2.57128E-03-1.29241E-13 3.41811E-14
 -1       850 2.00016E+01-1.78371E-03 9.19039E-08 2.24927E-03 1.37401E-13 2.31740E-14
 -1       851 2.00012E+01-1.67419E-03 7.77555E-08 1.91310E-03 1.82369E-13-8.80637E-14
 -1       852 2.00008E+01-1.50116E-03 4.94813E-08 1.58993E-03-7.73200E-14-4.03878E-13
 -1       853 2.00005E+01-1.30209E-03 2.50008E-08 1.29546E-03 1.81020E-13-4.90942E-13
 -1       854 2.00003E+01-1.10280E-03-7.60996E-08 1.03708E-03 1.43131E-13 8.74763E-14
 -1       855 2.00002E+01-9.17057E-04 1.79455E-07 8.15098E-04 3.84609E-13 5.68559E-13
 -1       856 1.86525E+01 9.18197E-01-4.64160E-04 1.55163E+00-1.03713E-13-6.02561E-14
 -1       857 1.89765E+01 9.20388E-01-6.60210E-05 1.23088E+00-7.23296E-14-9.27143E-14
 -1       858 1.92441E+01 8.49745E-01 3.12987E-06 9.89526E-01-1.33052E-16-1.28830E-13
 -1       859 1.94555E+01 7.45998E-01 2.46858E-05 7.97509E-01 5.52522E-14-1.87481E-13
 -1       860 1.96168E+01 6.32720E-01 2.34400E-05 6.39746E-01-7.12782E-14-1.18710E-13
 -1       861 1.97366E+01 5.23115E-01 1.75828E-05 5.08401E-01 3.14033E-14 1.26966E-13
 -1       862 1.98236E+01 4.23838E-01 1.24147E-05 3.99071E-01 1.54952E-13-7.83410E-14
 -1       863 1.98856E+01 3.37591E-01 8.68771E-06 3.08813E-01 7.48294E-14-1.46860E-13
 -1       864 1.99288E+01 2.64809E-01 6.10083E-06 2.35221E-01 4.42200E-14-9.01556E-14
 -1       865 1.99584E+01 2.04721E-01 4.28746E-06 1.76088E-01 2.56212E-13-1.54811E-14
 -1       866 1.99782E+01 1.55988E-01 2.99115E-06 1.29309E-01 1.63830E-13 2.64294E-13
 -1       867 1.99911E+01 1.17069E-01 2.05120E-06 9.29014E-02-5.59692E-14 2.73148E-13
 -1       868 1.99991E+01 8.64301E-02 1.36668E-06 6.50416E-02-2.40102E-13 7.51639E-14
 -1       869 2.00038E+01 6.26418E-02 8.70915E-07 4.41012E-02-1.14821E-13 1.57761E-13
 -1       870 2.00062E+01 4.44322E-02 5.16973E-07 2.86640E-02-9.43896E-14 8.34964E-14
 -1       871 2.00073E+01 3.06995E-02 2.69943E-07 1.75281E-02-4.25645E-14 2.71117E-13
 -1       872 2.00074E+01 2.05101E-02 1.02968E-07 9.69548E-03-2.02955E-14 3.83489E-13
 -1       873 2.00069E+01 1.30866E-02-4.91838E-09 4.35431E-03 9.78179E-14 2.51709E-13
 -1       874 2.00062E+01 7.79202E-03-7.00690E-08 8.56125E-04 1.43648E-13 9.40375E-14
 -1       875 2.00053E+01 4.11137E-03-1.05106E-07-1.30763E-03 3.92856E-14 2.30733E-13
 -1       876 2.00045E+01 1.63459E-03-1.19624E-07-2.52880E-03 4.99487E-14 1.35243E-14
 -1       877 2.00037E+01 3.95848E-05-1.20768E-07-3.10388E-03 5.56314E-14 1.30893E-13
 -1       878 2.00029E+01-9.23004E-04-1.13753E-07-3.25293E-03 3.94919E-14 1.07703E-13
 -1       879 2.00023E+01-1.44329E-03-1.02287E-07-3.13585E-03 4.30139E-14 1.48560E-13
 -1       880 2.00017E+01-1.66388E-03-8.88967E-08-2.86607E-03 2.06914E-13 3.87518E-13
 -1       881 2.00013E+01-1.68988E-03-7.50186E-08-2.52174E-03-5.76500E-15 1.06190E-13
 -1       882 2.00009E+01-1.59722E-03-6.08991E-08-2.15467E-03-3.58985E-14 5.47571E-14
 -1       883 2.00006E+01-1.43956E-03-4.43304E-08-1.79749E-03-2.61427E-13 6.64042E-14
 -1       884 2.00004E+01-1.25381E-03-2.78338E-08-1.46909E-03-6.75977E-14 2.49335E-13
 -1       885 2.00002E+01-1.06459E-03-5.78061E-09-1.17893E-03-8.28212E-14 3.19482E-13
 -1       886 2.00001E+01-8.87668E-04-2.50113E-08-9.30896E-04-1.35532E-13 1.21131E-13
 -1       887 2.00000E+01-7.32685E-04-1.38111E-07-7.21320E-04-2.71623E-13-2.96072E-14
 -1       888 1.99999E+01-5.84078E-04-1.67907E-07-5.47373E-04-3.68362E-13-3.58507E-13
 -1       889 1.82918E+01 7.70697E-01-6.40032E-04 2.01320E+00-3.06991E-13-3.73017E-14
 -1       890 2.00005E+01-1.08724E-03 3.33028E-08 1.30432E-04 8.74184E-14 8.26180E-14
 -1       891 1.54076E+01 3.64535E-01 2.54603E-02-3.22988E+00 4.89439E-13 1.74069E-13
 -1       892 1.80817E+01-9.90674E-01 1.29248E-02-3.81625E+00 6.00692E-13-6.01095E-14
 -1       893 1.35255E+01 1.17291E+00 4.20566E-02 2.41294E+00-3.39570E-13 5.76221E-13
 -1       894 2.42138E+01-1.94660E+00-1.29414E-02-6.23860E-01 2.01639E-13-8.57682E-13
 -1       895 2.00005E+01-1.08729E-03 1.00513E-07-1.29812E-04 7.97022E-14 3.62480E-13
 -1       896 2.00000E+01-7.61484E-04-1.52866E-07 6.92771E-04 3.67757E-13 2.97588E-13
 -1       897 1.45316E+01 1.28832E+00 1.85304E-02-1.67333E+00 2.56296E-13 4.38717E-13
 -1       898 2.00002E+01-9.03312E-04 5.04960E-09-5.97549E-04-1.27720E-13-6.28220E-13
 -1       899 2.00004E+01-1.02581E-03-9.41370E-08 3.74002E-04-5.92532E-14-3.95456E-14
 -1       900 2.00002E+01-8.80930E-04 1.30077E-07 5.79710E-04 2.50065E-14 1.61506E-13
 -1       901 1.75648E+01-1.72051E-02 6.74054E-03-2.81306E+00 3.47373E-13-9.12835E-14
 -1       902 1.89734E+01 9.41103E-01-6.13749E-05 6.56631E-01 1.64847E-13-4.12549E-14
 -1       903 1.53138E+01 1.38848E+00 1.38864E-02 1.61333E+00-2.36281E-13 3.95872E-13
 -1       904 2.02363E+01-1.04942E+00 4.60984E-03-2.38188E+00 4.03082E-13-3.32690E-13
 -1       905 1.96768E+01-4.14141E-01-4.80596E-03-1.95497E+00 3.40080E-13-2.42435E-13
 -1       906 1.94219E+01 3.46249E-02-2.25771E-05-1.56053E+00 2.04791E-13-2.64253E-13
 -1       907 1.93608E+01 2.97506E-01 6.92802E-05-1.22595E+00 1.46561E-13-2.49881E-13
 -1       908 1.93861E+01 4.40481E-01-3.80524E-05-9.58377E-01 8.18212E-14-2.36090E-13
 -1       909 1.94557E+01 4.98707E-01-5.35044E-05-7.46471E-01-5.30951E-14-3.13800E-13
 -1       910 1.95424E+01 5.01048E-01-5.29826E-05-5.79480E-01-1.07716E-13-1.77545E-13
 -1       911 1.96306E+01 4.69088E-01-4.77096E-05-4.47815E-01-4.69052E-15-1.00773E-13
 -1       912 1.97119E+01 4.18365E-01-4.10989E-05-3.43892E-01 7.52150E-14-1.85772E-14
 -1       913 1.97825E+01 3.59660E-01-3.44997E-05-2.61909E-01 1.69734E-14-7.15676E-14
 -1       914 1.98410E+01 3.00093E-01-2.84219E-05-1.97423E-01-4.40901E-14 3.16679E-15
 -1       915 1.98879E+01 2.44052E-01-2.30240E-05-1.46969E-01 1.00820E-13 4.52608E-14
 -1       916 1.99242E+01 1.93943E-01-1.83370E-05-1.07793E-01 1.44238E-13-2.97782E-14
 -1       917 1.99516E+01 1.50810E-01-1.43461E-05-7.76661E-02 6.35804E-14-9.44525E-14
 -1       918 1.99716E+01 1.14794E-01-1.10137E-05-5.47632E-02 7.75932E-14-8.79443E-14
 -1       919 1.99856E+01 8.54879E-02-8.28582E-06-3.75843E-02 2.83600E-14-3.18232E-14
 -1       920 1.99952E+01 6.21848E-02-6.09705E-06-2.48976E-02 1.26319E-13 8.11112E-14
 -1       921 2.00013E+01 4.40500E-02-4.37569E-06-1.56969E-02 4.21709E-14-4.48700E-14
 -1       922 2.00049E+01 3.02307E-02-3.04912E-06-9.16692E-03-1.14293E-14 1.57605E-14
 -1       923 2.00068E+01 1.99234E-02-2.04798E-06-4.65379E-03-1.07021E-13 5.79352E-15
 -1       924 2.00075E+01 1.24098E-02-1.30910E-06-1.63936E-03-1.15404E-13-3.94171E-14
 -1       925 2.00074E+01 7.07190E-03-7.77065E-07 2.81771E-04-1.11956E-13-2.58514E-13
 -1       926 2.00069E+01 3.39387E-03-4.04798E-07 1.42239E-03-1.21199E-13-5.80644E-14
 -1       927 2.00061E+01 9.55911E-04-1.53353E-07 2.02017E-03 1.75200E-14-9.75415E-14
 -1       928 2.00053E+01-5.76050E-04 8.72748E-09 2.25273E-03 1.15385E-13-2.35122E-13
 -1       929 2.00044E+01-1.46244E-03 1.06367E-07 2.25035E-03 3.70276E-14-1.82383E-13
 -1       930 2.00036E+01-1.90225E-03 1.59196E-07 2.10652E-03-3.00539E-14-3.28878E-13
 -1       931 2.00028E+01-2.04451E-03 1.83209E-07 1.88667E-03 4.10637E-14-2.17510E-13
 -1       932 2.00022E+01-1.99851E-03 1.90924E-07 1.63510E-03 1.41248E-13-1.20314E-13
 -1       933 2.00016E+01-1.84266E-03 2.01018E-07 1.38049E-03-7.33456E-14-2.46183E-13
 -1       934 2.00012E+01-1.63127E-03 7.83060E-08 1.13970E-03 1.51724E-13 1.79039E-13
 -1       935 2.00008E+01-1.40251E-03-8.12237E-08 9.25141E-04 5.17259E-13 2.18888E-13
 -1       936 2.00005E+01-1.18025E-03-6.97578E-08 7.35243E-04 4.64206E-13 2.51334E-13
 -1       937 1.86066E+01 1.06986E+00-2.02567E-04 8.01579E-01 2.77180E-14-7.52726E-14
 -1       938 1.81227E+01 1.17347E+00-8.21237E-04 9.95211E-01-8.63329E-14 6.50915E-14
 -1       939 1.92510E+01 8.05614E-01-1.47590E-05 5.39159E-01-2.43493E-14-1.09920E-13
 -1       940 1.94599E+01 6.74504E-01-1.94442E-06 4.39784E-01-1.27531E-13-2.32642E-13
 -1       941 1.96160E+01 5.54168E-01 7.63863E-07 3.54451E-01 3.77811E-14-9.87244E-14
 -1       942 1.97316E+01 4.47747E-01 9.04687E-07 2.81410E-01 1.10830E-13 1.83011E-14
 -1       943 1.98163E+01 3.56228E-01 5.65486E-07 2.19683E-01 5.98280E-14 1.03482E-13
 -1       944 1.98777E+01 2.79266E-01 2.43038E-07 1.68406E-01 2.48666E-14 7.62751E-14
 -1       945 1.99215E+01 2.15751E-01 1.84937E-08 1.26600E-01 7.52539E-14 2.62220E-13
 -1       946 1.99523E+01 1.64198E-01-1.19760E-07 9.31663E-02 6.49684E-14 2.77333E-13
 -1       947 1.99735E+01 1.22990E-01-1.96041E-07 6.69394E-02-7.05178E-14 3.52449E-13
 -1       948 1.99877E+01 9.05336E-02-2.30642E-07 4.67639E-02-1.95460E-13 2.24229E-13
 -1       949 1.99969E+01 6.53408E-02-2.38159E-07 3.15532E-02 1.95477E-14 1.72020E-13
 -1       950 2.00025E+01 4.60784E-02-2.28730E-07 2.03284E-02-1.60536E-13 1.85921E-13
 -1       951 2.00057E+01 3.15828E-02-2.09368E-07 1.22386E-02 8.13179E-14 5.56249E-14
 -1       952 2.00072E+01 2.08622E-02-1.84924E-07 6.56545E-03 1.51642E-13-9.83080E-14
 -1       953 2.00076E+01 1.30867E-02-1.58712E-07 2.71783E-03 1.94943E-13-8.58876E-15
 -1       954 2.00074E+01 7.57432E-03-1.32933E-07 2.20305E-04 4.16853E-14-1.76011E-13
 -1       955 2.00067E+01 3.77326E-03-1.08959E-07-1.30164E-03 1.60645E-13-7.58923E-14
 -1       956 2.00059E+01 1.24395E-03-8.75610E-08-2.13712E-03 8.83951E-15-1.38012E-13
 -1       957 2.00050E+01-3.58423E-04-6.90952E-08-2.50493E-03 1.00868E-13-3.21694E-14
 -1       958 2.00041E+01-1.30018E-03-5.36551E-08-2.56720E-03 2.55935E-14-3.32555E-13
 -1       959 2.00033E+01-1.78374E-03-4.11956E-08-2.44141E-03-4.68713E-14-2.37687E-13
 -1       960 2.00026E+01-1.96030E-03-3.14448E-08-2.21048E-03 9.68551E-14 2.04047E-13
 -1       961 2.00020E+01-1.94076E-03-2.33584E-08-1.93114E-03-1.62213E-14 2.82051E-13
 -1       962 2.00015E+01-1.80473E-03-1.51224E-08-1.64068E-03-1.67758E-14 2.36024E-13
 -1       963 2.00011E+01-1.60809E-03 4.20669E-09-1.36220E-03-9.48830E-14-5.28935E-14
 -1       964 2.00007E+01-1.38871E-03 3.79398E-08-1.10874E-03 1.49410E-14-3.60012E-13
 -1       965 2.00005E+01-1.17236E-03 6.72304E-08-8.88487E-04 3.49957E-14-4.56721E-13
 -1       966 2.00003E+01-1.03181E-03-4.24420E-08-7.34023E-04-4.99126E-14-3.68144E-13
 -1       967 1.74842E+01 1.22187E+00-3.71483E-04 1.27310E+00-1.08452E-13 7.05575E-14
 -1       968 2.00004E+01-1.02525E-03 9.73285E-08-3.75504E-04 1.50191E-13 1.12690E-13
 -1       969 1.42770E+01 1.64816E+00 1.94159E-02 7.06481E-02-4.84851E-14 4.04876E-13
 -1       970 1.64576E+01 8.44586E-01 6.74820E-03-1.97730E+00 1.83323E-13 7.40455E-14
 -1       971 1.65881E+01 1.30173E+00 4.72196E-03 1.41412E+00-1.48900E-13 2.38155E-13
 -1       972 1.56744E+01 1.40995E+00 5.89352E-03-8.79349E-01 1.88209E-15 2.60740E-13
 -1       973 2.00007E+01-1.28981E-03-2.41255E-07 8.26358E-07 1.32636E-13 5.80731E-14
 -1       974 2.00007E+01-1.25445E-03-2.29981E-07 3.16981E-04 9.27927E-14-8.40861E-15
 -1       975 2.00006E+01-1.17586E-03 2.23008E-07-4.69384E-04 1.97248E-13-8.15267E-16
 -1       976 1.89037E+01 9.42998E-01-1.34789E-04 3.29124E-01 6.13507E-14 3.98083E-14
 -1       977 1.86209E+01 2.48577E-01 1.96918E-03-1.83869E+00 2.67951E-13-2.97955E-13
 -1       978 1.87094E+01 5.04502E-01-1.40123E-04-1.35424E+00 2.53266E-13-2.85759E-13
 -1       979 1.88839E+01 6.29487E-01 2.42017E-04-9.99670E-01 4.64019E-14-3.34477E-13
 -1       980 1.90692E+01 6.66872E-01 2.14100E-04-7.40823E-01 1.31799E-14-2.95311E-13
 -1       981 1.92449E+01 6.49256E-01 1.58693E-04-5.50742E-01 1.74507E-14-1.92997E-13
 -1       982 1.94019E+01 5.98562E-01 1.11965E-04-4.10152E-01-1.27105E-14-1.09314E-13
 -1       983 1.95369E+01 5.30247E-01 7.96613E-05-3.05408E-01 1.27039E-13-4.20934E-14
 -1       984 1.96497E+01 4.55091E-01 5.76114E-05-2.26893E-01-1.21091E-14-1.21757E-13
 -1       985 1.97413E+01 3.80327E-01 4.20447E-05-1.67792E-01 2.68507E-15-2.25287E-13
 -1       986 1.98141E+01 3.10487E-01 3.06778E-05-1.23217E-01 3.99884E-14-2.46122E-13
 -1       987 1.98706E+01 2.48102E-01 2.22134E-05-8.96143E-02 1.77903E-13-1.43867E-13
 -1       988 1.99134E+01 1.94267E-01 1.58701E-05-6.43543E-02 3.87685E-14-1.19595E-13
 -1       989 1.99450E+01 1.49109E-01 1.11284E-05-4.54662E-02 8.25638E-14-3.77397E-14
 -1       990 1.99678E+01 1.12144E-01 7.61305E-06-3.14517E-02 5.21911E-14 2.27308E-14
 -1       991 1.99838E+01 8.25417E-02 5.03875E-06-2.11601E-02 5.02987E-14 9.58996E-15
 -1       992 1.99945E+01 5.93182E-02 3.18326E-06-1.37016E-02 3.29542E-14-7.99601E-14
 -1       993 2.00013E+01 4.14585E-02 1.87206E-06-8.38547E-03-8.03636E-14-7.10577E-14
 -1       994 2.00054E+01 2.79982E-02 9.68278E-07-4.67535E-03-4.74193E-14-2.83269E-13
 -1       995 2.00075E+01 1.80667E-02 3.65156E-07-2.15579E-03-1.21039E-13-2.94743E-13
 -1       996 2.00083E+01 1.09084E-02-1.97731E-08-5.06636E-04-1.98209E-13-6.52436E-14
 -1       997 2.00082E+01 5.88650E-03-2.49519E-07 5.16923E-04 1.94499E-14-6.42973E-14
 -1       998 2.00076E+01 2.47807E-03-3.71599E-07 1.10028E-03-7.88772E-14 5.37622E-14
 -1       999 2.00068E+01 2.63044E-04-4.21307E-07 1.38211E-03-1.63015E-13 4.80829E-14
 -1      1000 2.00058E+01-1.08924E-03-4.24364E-07 1.46466E-03-6.98654E-14 2.74885E-14
 -1      1001 2.00048E+01-1.83400E-03-3.98831E-07 1.42199E-03-1.10091E-14-6.29325E-14
 -1      1002 2.00039E+01-2.16448E-03-3.55830E-07 1.30662E-03 4.33053E-14-1.07765E-13
 -1      1003 2.00031E+01-2.22410E-03-2.97369E-07 1.15480E-03 8.58336E-14-2.40159E-13
 -1      1004 2.00024E+01-2.11697E-03-2.04317E-07 9.90700E-04 1.41627E-13-9.56297E-14
 -1      1005 2.00018E+01-1.91787E-03-4.77669E-07 8.30828E-04 2.66624E-13 3.22864E-13
 -1      1006 2.00013E+01-1.67527E-03-3.64570E-07 6.77586E-04 2.66755E-13 3.17794E-13
 -1      1007 2.00009E+01-1.42357E-03-1.48558E-07 5.43778E-04 4.94744E-13 3.46396E-14
 -1      1008 1.85217E+01 1.08970E+00-2.48803E-04 3.71415E-01 9.55298E-14-6.40262E-14
 -1      1009 1.80105E+01 1.23388E+00-3.96229E-04 4.18148E-01 1.09745E-13 4.21320E-14
 -1      1010 1.94097E+01 6.68084E-01-5.12600E-05 2.44728E-01-1.25693E-13-9.82839E-14
 -1      1011 1.95742E+01 5.48186E-01-3.71217E-05 2.03816E-01 3.19568E-14-1.14647E-14
 -1      1012 1.96977E+01 4.42747E-01-2.86753E-05 1.65724E-01 2.77970E-14 1.08520E-13
 -1      1013 1.97896E+01 3.52158E-01-2.28918E-05 1.31602E-01 4.19923E-14 1.70685E-13
 -1      1014 1.98573E+01 2.75899E-01-1.85177E-05 1.02082E-01 4.15210E-14 9.97923E-14
 -1      1015 1.99065E+01 2.12872E-01-1.50085E-05 7.73244E-02 9.39646E-15 2.35278E-13
 -1      1016 1.99417E+01 1.61654E-01-1.21106E-05 5.71308E-02-2.87209E-14 3.33338E-13
 -1      1017 1.99664E+01 1.20695E-01-9.69313E-06 4.10769E-02 2.28861E-14 1.87504E-13
 -1      1018 1.99832E+01 8.84475E-02-7.67803E-06 2.86203E-02-8.72986E-14 1.07298E-13
 -1      1019 1.99943E+01 6.34530E-02-6.00955E-06 1.91831E-02-1.65923E-13 1.81006E-13
 -1      1020 2.00013E+01 4.43892E-02-4.64173E-06 1.22068E-02 2.25082E-14 8.47949E-14
 -1      1021 2.00054E+01 3.00945E-02-3.53348E-06 7.18460E-03 7.09156E-14 2.20704E-13
 -1      1022 2.00075E+01 1.95733E-02-2.64701E-06 3.67691E-03 1.17501E-13 1.30179E-13
 -1      1023 2.00083E+01 1.19903E-02-1.94758E-06 1.31591E-03 2.34026E-13 2.81127E-13
 -1      1024 2.00082E+01 6.65831E-03-1.40365E-06-1.97381E-04 7.23096E-14 1.61714E-13
 -1      1025 2.00076E+01 3.02146E-03-9.87130E-07-1.09985E-03-4.78487E-16 1.95294E-13
 -1      1026 2.00067E+01 6.37714E-04-6.73459E-07-1.57485E-03 3.43524E-14 3.32743E-13
 -1      1027 2.00058E+01-8.38742E-04-4.41604E-07-1.76109E-03 2.83031E-13 3.52196E-13
 -1      1028 2.00048E+01-1.67401E-03-2.73933E-07-1.76116E-03 2.22099E-14 1.90419E-13
 -1      1029 2.00039E+01-2.06941E-03-1.55906E-07-1.64902E-03-1.48521E-13 1.33165E-13
 -1      1030 2.00031E+01-2.17449E-03-7.52223E-08-1.47659E-03-1.04367E-13 1.98033E-13
 -1      1031 2.00024E+01-2.09819E-03-1.78387E-08-1.27900E-03 1.15323E-13 2.64775E-13
 -1      1032 2.00018E+01-1.91804E-03 9.60596E-09-1.07910E-03 1.40264E-13 1.72005E-13
 -1      1033 2.00013E+01-1.68796E-03 4.70177E-08-8.90765E-04 1.95868E-13 8.39284E-14
 -1      1034 2.00009E+01-1.44495E-03-1.01939E-07-7.21864E-04 6.88564E-14 1.35883E-14
 -1      1035 1.73091E+01 1.37301E+00 1.45961E-03 4.82072E-01-8.02833E-14 1.12804E-13
 -1      1036 2.00007E+01-1.25331E-03-3.91598E-08-2.44889E-04 5.88910E-14 2.88035E-13
 -1      1037 1.91918E+01 8.00777E-01-7.84233E-05 2.86943E-01 5.70585E-14 4.32112E-14
 -1      1038 1.57860E+01 1.55148E+00 5.56443E-03 3.68387E-01-8.55590E-14 2.35219E-13
 -1      1039 2.00007E+01-1.30798E-03-1.80456E-07-5.86128E-04-2.33446E-14 1.97010E-13
 -1      1040 2.00010E+01-1.48966E-03-8.50419E-09-1.74349E-04 1.84088E-13 3.66844E-13
 -1      1041 1.74293E+01 9.44143E-01-1.10440E-03-1.31698E+00 2.22709E-13-1.56682E-13
 -1      1042 2.00010E+01-1.49413E-03-4.55303E-07 1.89982E-04 3.58525E-13 7.32534E-14
 -1      1043 1.66532E+01 1.45769E+00 4.36134E-03 4.41061E-01-5.17329E-14 1.62242E-13
 -1      1044 1.79723E+01 9.79869E-01-6.17328E-05-8.97909E-01 1.80762E-13-1.91869E-13
 -1      1045 1.84098E+01 9.52770E-01 8.08555E-05-6.09690E-01 6.20735E-14-1.79127E-13
 -1      1046 1.87606E+01 8.86679E-01 1.64186E-04-4.13015E-01 1.09026E-13-1.53742E-13
 -1      1047 1.90425E+01 7.97965E-01 1.48600E-04-2.78878E-01 7.62817E-14-1.57455E-13
 -1      1048 1.92687E+01 6.98437E-01 1.12811E-04-1.87536E-01 4.92820E-14-1.52146E-13
 -1      1049 1.94491E+01 5.96684E-01 8.20307E-05-1.25556E-01-6.02181E-14-2.28963E-13
 -1      1050 1.95918E+01 4.98771E-01 5.91477E-05-8.36955E-02-1.04001E-13-2.86613E-13
 -1      1051 1.97034E+01 4.08646E-01 4.25142E-05-5.55570E-02-8.05835E-14-2.67318E-13
 -1      1052 1.97894E+01 3.28542E-01 3.03388E-05-3.67219E-02 7.22286E-14-2.31122E-13
 -1      1053 1.98547E+01 2.59375E-01 2.13557E-05-2.41550E-02 3.61230E-14-4.24947E-13
 -1      1054 1.99033E+01 2.01116E-01 1.47190E-05-1.57887E-02 6.02998E-14-5.02389E-13
 -1      1055 1.99389E+01 1.53113E-01 9.84325E-06-1.02262E-02 3.40212E-14-4.92826E-13
 -1      1056 1.99642E+01 1.14349E-01 6.30196E-06-6.53135E-03 2.73712E-14-4.66196E-13
 -1      1057 1.99818E+01 8.36341E-02 3.77275E-06-4.08059E-03 2.46716E-14-4.46028E-13
 -1      1058 1.99936E+01 5.97416E-02 2.00678E-06-2.45997E-03 4.11353E-14-2.92325E-13
 -1      1059 2.00011E+01 4.14964E-02 8.10411E-07-1.39492E-03-1.19375E-13-2.77187E-13
 -1      1060 2.00056E+01 2.78285E-02 3.30312E-08-7.02950E-04-1.20125E-13-2.66136E-13
 -1      1061 2.00079E+01 1.77990E-02-4.41780E-07-2.62139E-04-2.91993E-14-1.81331E-13
 -1      1062 2.00088E+01 1.06081E-02-7.03122E-07 9.55652E-06-2.48238E-14 1.56178E-14
 -1      1063 2.00087E+01 5.59089E-03-8.18286E-07 1.67804E-04 1.18397E-13 5.85725E-14
 -1      1064 2.00081E+01 2.20697E-03-8.37277E-07 2.50675E-04-6.48863E-14 1.20573E-13
 -1      1065 2.00072E+01 2.54250E-05-7.96533E-07 2.84363E-04 7.89203E-14 2.25520E-13
 -1      1066 2.00062E+01-1.29085E-03-7.21904E-07 2.86937E-04-1.45689E-14 3.06849E-13
 -1      1067 2.00052E+01-2.00079E-03-6.30714E-07 2.70829E-04-8.99173E-14 4.52515E-13
 -1      1068 2.00042E+01-2.29958E-03-5.32316E-07 2.44520E-04-1.60685E-13 4.50336E-13
 -1      1069 2.00033E+01-2.33154E-03-4.27311E-07 2.13719E-04 6.92800E-14 4.12968E-13
 -1      1070 2.00026E+01-2.20135E-03-3.06956E-07 1.82218E-04 2.81732E-13 3.05384E-13
 -1      1071 2.00019E+01-1.98151E-03-8.04411E-07 1.49801E-04 1.92573E-13 2.08226E-13
 -1      1072 1.86379E+01 1.01166E+00-2.54718E-04 8.46689E-03 8.47579E-14-3.18168E-14
 -1      1073 1.81915E+01 1.14477E+00-3.21630E-04-6.31474E-02 8.69736E-14-5.74018E-14
 -1      1074 1.97071E+01 4.14956E-01-2.63197E-05 6.27272E-02-5.99767E-14 4.01833E-14
 -1      1075 1.95904E+01 5.13336E-01-4.38757E-05 7.06889E-02-1.83439E-14-1.14715E-14
 -1      1076 1.94372E+01 6.24575E-01-6.87858E-05 7.39690E-02-4.86343E-14-1.07146E-13
 -1      1077 1.97950E+01 3.30031E-01-1.39237E-05 5.27783E-02-1.23305E-14 1.25451E-13
 -1      1078 1.98605E+01 2.58287E-01-5.37427E-06 4.25646E-02-7.22140E-14 3.38689E-13
 -1      1079 1.99085E+01 1.98857E-01 2.75535E-07 3.30897E-02-1.67954E-14 2.58256E-13
 -1      1080 1.99430E+01 1.50517E-01 3.76983E-06 2.48550E-02-1.44271E-14 2.10973E-13
 -1      1081 1.99673E+01 1.11871E-01 5.70354E-06 1.80326E-02 7.21608E-14 2.21438E-13
 -1      1082 1.99840E+01 8.14900E-02 6.54646E-06 1.25945E-02-5.76063E-14 2.87304E-14
 -1      1083 1.99950E+01 5.80035E-02 6.66082E-06 8.40408E-03-3.70701E-14-1.86387E-13
 -1      1084 2.00020E+01 4.01574E-02 6.31812E-06 5.27635E-03-4.21380E-14-3.23826E-14
 -1      1085 2.00060E+01 2.68424E-02 5.71552E-06 3.01625E-03 7.91603E-14 1.28960E-13
 -1      1086 2.00080E+01 1.71046E-02 4.99113E-06 1.44028E-03 9.40387E-14 2.09634E-13
 -1      1087 2.00087E+01 1.01431E-02 4.23760E-06 3.87296E-04 1.19993E-13 3.25074E-13
 -1      1088 2.00086E+01 5.29910E-03 3.51356E-06-2.77507E-04-4.02047E-14 3.14062E-13
 -1      1089 2.00079E+01 2.04089E-03 2.85301E-06-6.62789E-04-1.22856E-13 1.84834E-13
 -1      1090 2.00070E+01-5.29964E-05 2.27266E-06-8.53440E-04 1.77358E-13 3.49643E-13
 -1      1091 2.00060E+01-1.31092E-03 1.77751E-06-9.13929E-04 1.39140E-13 4.68437E-13
 -1      1092 2.00050E+01-1.98429E-03 1.36518E-06-8.91907E-04-1.29505E-13 3.14641E-13
 -1      1093 2.00040E+01-2.26217E-03 1.03023E-06-8.21611E-04-8.24765E-14 5.04764E-13
 -1      1094 2.00032E+01-2.28401E-03 7.71484E-07-7.26915E-04 3.37527E-14 4.83209E-13
 -1      1095 2.00025E+01-2.15041E-03 5.66985E-07-6.24106E-04 1.04527E-13 4.58379E-13
 -1      1096 2.00018E+01-1.93208E-03-1.26699E-07-5.23056E-04 2.80729E-13 4.55362E-13
 -1      1097 2.00013E+01-1.67616E-03-2.76035E-07-4.31026E-04 2.14344E-13 4.71047E-13
 -1      1098 1.68451E+01 1.37018E+00-2.76969E-03-3.77279E-01 8.51282E-14 6.02668E-14
 -1      1099 2.00009E+01-1.40984E-03 1.81211E-07-3.93456E-04 4.87174E-14 1.28316E-13
 -1      1100 1.92372E+01 7.46945E-01-1.05557E-04 6.86297E-02 2.85234E-14-7.22614E-14
 -1      1101 1.75910E+01 1.27260E+00-1.37351E-04-1.77847E-01 8.09662E-14-1.46072E-13
 -1      1102 1.89771E+01 8.77407E-01-1.63729E-04 4.92168E-02 8.03556E-14-1.00093E-13
 -1      1103 2.00014E+01-1.72028E-03 2.41966E-06 4.23604E-05 3.05661E-13 3.82969E-13
 -1      1104 3.27399E+01 1.06067E+01 2.61553E+00-8.32743E+00-1.16795E-13 2.78100E-12
 -1      1105 2.38925E+01 7.22532E+00 1.91882E-01-5.08881E+00-5.00433E-14-3.51039E-14
 -1      1106 2.27563E+01 6.86158E+00 1.15635E-01-3.90706E+00-3.09197E-14-1.08636E-12
 -1      1107 2.24082E+01 6.78126E+00 1.95954E-01-2.78220E+00-1.13520E-14-1.46625E-12
 -1      1108 2.18506E+01 6.64182E+00 2.88783E-01-1.41715E+00 1.55431E-15-1.53794E-12
 -1      1109 2.04380E+01 6.23525E+00 3.46112E-01 2.21203E-01 1.43219E-14-1.46435E-12
 -1      1110 1.76559E+01 5.38306E+00 2.87544E-01 1.87051E+00 2.37033E-14-1.35766E-12
 -1      1111 1.35637E+01 4.08886E+00 6.58560E-02 2.92832E+00 2.59237E-14-1.25755E-12
 -1      1112 9.46903E+00 2.76469E+00-2.53380E-01 2.79934E+00 1.95954E-14-1.19125E-12
 -1      1113 7.16864E+00 2.01409E+00-4.54952E-01 1.46587E+00 1.03251E-14-1.18196E-12
 -1      1114 7.70733E+00 2.18663E+00-4.18494E-01-1.93245E-01-4.02456E-15-1.19924E-12
 -1      1115 1.08137E+01 3.18975E+00-1.81148E-01-1.22686E+00-7.54952E-15-1.20244E-12
 -1      1116 1.54501E+01 4.66377E+00 9.58175E-02-1.08135E+00-5.55112E-15-1.11610E-12
 -1      1117 2.01765E+01 6.13555E+00 2.75273E-01 2.28532E-01 2.66454E-15-8.57602E-13
 -1      1118 2.40719E+01 7.31207E+00 3.01597E-01 2.09355E+00 2.06501E-14-3.00319E-13
 -1      1119 2.78048E+01 8.44849E+00 3.56736E-01 4.17779E+00 3.93019E-14 8.10116E-13
 -1      1120 3.61464E+01 1.14789E+01 2.11629E+00 7.44680E+00 1.14242E-13 3.28687E-12
 -1      1121 3.48367E+01 4.71196E+00 1.85606E+00-5.24932E+00-4.66294E-13 4.71079E-12
 -1      1122 2.29220E+01-2.86850E-01-8.05874E-01-3.19222E-02-1.50102E-13 3.65974E-12
 -1      1123 2.05217E+01-1.12881E-01-2.79204E-01 4.00360E-02-5.38354E-14 2.27041E-12
 -1      1124 1.91238E+01-7.39727E-02-9.75357E-02 5.86441E-03-1.94445E-14 1.43330E-12
 -1      1125 1.82285E+01-6.93582E-02-7.95400E-02 4.24680E-03-2.21741E-14 8.58029E-13
 -1      1126 1.79222E+01-6.64448E-02-8.37599E-02 2.18969E-02-1.37069E-14 4.41799E-13
 -1      1127 1.82347E+01-5.02917E-02-6.68900E-02 4.38459E-02-2.00903E-14 6.75709E-14
 -1      1128 1.90308E+01-2.32780E-02-3.00575E-02 5.70201E-02-9.87405E-15-1.33928E-13
 -1      1129 2.00439E+01 4.07057E-03 9.53638E-03 5.59763E-02-3.88060E-15-3.36363E-13
 -1      1130 2.09952E+01 2.25280E-02 3.66043E-02 4.36555E-02-8.78833E-15-5.51358E-13
 -1      1131 2.16958E+01 2.93761E-02 4.60947E-02 2.69115E-02-1.27177E-14-7.69284E-13
 -1      1132 2.20797E+01 2.71919E-02 4.17733E-02 1.16781E-02 1.89787E-14-7.94389E-13
 -1      1133 2.21764E+01 2.03468E-02 3.05555E-02 8.53737E-04-1.30623E-14-9.43837E-13
 -1      1134 2.20623E+01 1.24813E-02 1.82195E-02-5.27751E-03 3.84523E-15-1.04704E-12
 -1      1135 2.18220E+01 5.68983E-03 7.96704E-03-7.76401E-03 1.27910E-14-9.28214E-13
 -1      1136 2.15258E+01 7.45325E-04 8.18920E-04-7.94714E-03-2.32741E-14-8.69183E-13
 -1      1137 2.12232E+01-2.36910E-03-3.44690E-03-6.93998E-03-1.31982E-14-9.78002E-13
 -1      1138 2.09438E+01-4.01364E-03-5.52538E-03-5.48969E-03 1.55453E-14-1.02279E-12
 -1      1139 2.07027E+01-4.62174E-03-6.14964E-03-4.02349E-03 3.48273E-14-9.02611E-13
 -1      1140 2.05043E+01-4.57399E-03-5.91369E-03-2.74573E-03-2.57524E-14-8.69886E-13
 -1      1141 2.03476E+01-4.15865E-03-5.23728E-03-1.72640E-03-6.23541E-14-1.28524E-12
 -1      1142 2.02278E+01-3.57402E-03-4.39016E-03-9.64056E-04-1.34451E-14-1.27430E-12
 -1      1143 2.01392E+01-2.94593E-03-3.53148E-03-4.25031E-04 3.62640E-14-1.03680E-12
 -1      1144 2.00758E+01-2.34754E-03-2.74581E-03-6.53406E-05-6.94834E-14-1.09505E-12
 -1      1145 2.00322E+01-1.81634E-03-2.07065E-03 1.58166E-04-3.20601E-14-1.42934E-12
 -1      1146 2.00035E+01-1.36702E-03-1.51556E-03 2.82953E-04-1.68139E-14-1.24343E-12
 -1      1147 1.99858E+01-1.00067E-03-1.07473E-03 3.39318E-04 2.79571E-14-9.16367E-13
 -1      1148 1.99760E+01-7.10893E-04-7.34861E-04 3.50581E-04 8.68774E-15-9.37960E-13
 -1      1149 1.99715E+01-4.87784E-04-4.79936E-04 3.33981E-04-1.61294E-15-1.10426E-12
 -1      1150 1.99706E+01-3.20360E-04-2.93904E-04 3.01806E-04 3.11307E-14-1.16094E-12
 -1      1151 1.99720E+01-1.97961E-04-1.62102E-04 2.62479E-04 7.22787E-15-9.20035E-13
 -1      1152 1.99746E+01-1.10980E-04-7.18735E-05 2.21519E-04-2.65543E-14-1.00482E-12
 -1      1153 1.99778E+01-5.11762E-05-1.27240E-05 1.82327E-04-2.65622E-14-1.35710E-12
 -1      1154 1.99811E+01-1.17297E-05 2.37782E-05 1.46810E-04-7.17235E-14-1.34912E-12
 -1      1155 1.99843E+01 1.28393E-05 4.42306E-05 1.15858E-04 1.39954E-14-1.17407E-12
 -1      1156 1.99873E+01 2.68246E-05 5.36724E-05 8.96944E-05 7.14418E-14-1.38234E-12
 -1      1157 1.99899E+01 3.35143E-05 5.58639E-05 6.81327E-05 5.06964E-14-1.41637E-12
 -1      1158 1.99921E+01 3.53702E-05 5.35450E-05 5.07571E-05 4.38312E-14-1.34216E-12
 -1      1159 1.99939E+01 3.41939E-05 4.86614E-05 3.70426E-05 2.82958E-14-8.63452E-13
 -1      1160 1.99954E+01 3.12724E-05 4.25554E-05 2.64351E-05-4.83491E-14-8.13629E-13
 -1      1161 1.99966E+01 2.75014E-05 3.61230E-05 1.83996E-05-1.82280E-14-8.47597E-13
 -1      1162 1.99975E+01 2.34866E-05 2.99403E-05 1.24460E-05 3.32435E-14-4.79968E-13
 -1      1163 1.99982E+01 1.96252E-05 2.43661E-05 8.13850E-06-6.58787E-14-6.44642E-13
 -1      1164 1.99988E+01 1.61696E-05 1.96267E-05 5.09129E-06-1.20616E-14-5.90435E-13
 -1      1165 1.99992E+01 1.32740E-05 1.58861E-05 2.94937E-06 1.94741E-14-8.18195E-13
 -1      1166 1.99995E+01 1.10172E-05 1.32821E-05 1.34647E-06 6.01986E-15-7.29471E-13
 -1      1167 1.99997E+01 9.38509E-06 1.17959E-05-1.69418E-07 5.69908E-14-2.68319E-13
 -1      1168 1.99998E+01 8.01001E-06 1.06046E-05-2.23585E-06 2.99551E-14 3.24424E-13
 -1      1169 1.99998E+01 7.20578E-06 5.79148E-06-6.03383E-06 1.74141E-14 2.62517E-13
 -1      1170 1.99998E+01-4.35684E-06-1.01085E-05-4.03191E-06 1.18003E-13 4.30986E-13
 -1      1171 4.09929E+01 8.64890E-01 6.52155E-01 2.63204E+00-4.04884E-14 5.44881E-12
 -1      1172 3.08464E+01 1.51899E-02-5.51218E-01 1.06551E-01 3.92603E-14 4.45441E-12
 -1      1173 2.77631E+01 7.51890E-03-7.51892E-02 5.67161E-02 2.27938E-14 3.57947E-12
 -1      1174 2.43846E+01-6.08396E-02-4.61270E-02 1.34570E-01-1.43505E-15 2.96516E-12
 -1      1175 2.12121E+01-1.32561E-01-1.98088E-01 1.68259E-01 1.73472E-17 2.45612E-12
 -1      1176 1.95219E+01-1.28223E-01-2.86739E-01 1.05880E-01-1.46411E-15 1.88639E-12
 -1      1177 1.99876E+01-5.65295E-02-2.09991E-01-1.59043E-02 2.60764E-14 1.26595E-12
 -1      1178 2.19880E+01 1.39573E-02-4.07691E-02-1.09835E-01 2.23101E-14 7.29333E-13
 -1      1179 2.41935E+01 4.49286E-02 8.77471E-02-1.29446E-01 3.51533E-14 4.95409E-13
 -1      1180 2.56169E+01 4.32742E-02 1.24213E-01-9.39933E-02 2.68527E-14 3.40047E-13
 -1      1181 2.60102E+01 2.84387E-02 9.79145E-02-4.48491E-02-7.58464E-15 2.71616E-13
 -1      1182 2.56203E+01 1.33341E-02 5.36127E-02-7.28915E-03 3.52066E-14 2.39727E-13
 -1      1183 2.48184E+01 2.68760E-03 1.76439E-02 1.31697E-02 1.38726E-14-1.12993E-13
 -1      1184 2.38966E+01-3.40280E-03-3.50075E-03 2.07203E-02 5.85573E-14-2.24414E-13
 -1      1185 2.30240E+01-6.18636E-03-1.28908E-02 2.10618E-02 3.64650E-15-2.90660E-13
 -1      1186 2.22754E+01-6.95175E-03-1.53401E-02 1.82734E-02-1.35871E-14-2.39347E-13
 -1      1187 2.16692E+01-6.64620E-03-1.44491E-02 1.46210E-02-3.79817E-14 3.90590E-14
 -1      1188 2.11966E+01-5.86189E-03-1.23068E-02 1.11507E-02 7.26225E-14-1.79863E-13
 -1      1189 2.08377E+01-4.93056E-03-9.94197E-03 8.23889E-03 3.14372E-14-6.20924E-13
 -1      1190 2.05709E+01-4.02047E-03-7.78524E-03 5.94529E-03 1.21805E-15-6.64364E-13
 -1      1191 2.03762E+01-3.20618E-03-5.97317E-03 4.20317E-03-1.68201E-14-3.67012E-13
 -1      1192 2.02366E+01-2.51238E-03-4.51334E-03 2.91033E-03-1.15408E-15-4.16799E-13
 -1      1193 2.01387E+01-1.93909E-03-3.36524E-03 1.96696E-03-2.70911E-14-5.08717E-13
 -1      1194 2.00716E+01-1.47538E-03-2.47614E-03 1.28850E-03 7.47140E-15-5.31502E-13
 -1      1195 2.00271E+01-1.10641E-03-1.79553E-03 8.07715E-04-4.06520E-14-4.00327E-13
 -1      1196 1.99988E+01-8.16915E-04-1.27988E-03 4.72813E-04 2.62719E-14-5.19476E-13
 -1      1197 1.99820E+01-5.92728E-04-8.93315E-04 2.44536E-04 7.88162E-15-4.11371E-13
 -1      1198 1.99731E+01-4.21379E-04-6.06936E-04 9.34037E-05 1.99326E-14-4.23540E-13
 -1      1199 1.99694E+01-2.92217E-04-3.97708E-04-2.59729E-06 2.08402E-14-8.41944E-13
 -1      1200 1.99692E+01-1.96324E-04-2.47389E-04-5.98118E-05 1.11273E-13-1.37466E-12
 -1      1201 1.99710E+01-1.26347E-04-1.41607E-04-9.02977E-05-5.61336E-14-8.00369E-13
 -1      1202 1.99739E+01-7.62980E-05-6.91004E-05-1.02873E-04-7.11768E-16-6.25596E-13
 -1      1203 1.99774E+01-4.13652E-05-2.11099E-05-1.03909E-04 9.36364E-14-1.13152E-12
 -1      1204 1.99809E+01-1.77240E-05 9.12177E-06-9.79419E-05 1.99384E-14-1.22495E-12
 -1      1205 1.99842E+01-2.37359E-06 2.67517E-05-8.81316E-05-4.89316E-14-8.00141E-13
 -1      1206 1.99872E+01 7.00952E-06 3.56675E-05-7.66229E-05 2.60811E-14-9.82517E-13
 -1      1207 1.99898E+01 1.21995E-05 3.87567E-05-6.48170E-05-4.56763E-15-1.29482E-12
 -1      1208 1.99920E+01 1.45309E-05 3.81283E-05-5.35814E-05 4.05753E-14-1.61384E-12
 -1      1209 1.99939E+01 1.49913E-05 3.52919E-05-4.34076E-05 4.70469E-14-1.86609E-12
 -1      1210 1.99954E+01 1.42996E-05 3.13041E-05-3.45308E-05 3.21945E-14-1.57991E-12
 -1      1211 1.99966E+01 1.29708E-05 2.68853E-05-2.70174E-05-4.79886E-15-1.26745E-12
 -1      1212 1.99975E+01 1.13692E-05 2.25156E-05-2.08295E-05 9.45569E-14-1.61474E-12
 -1      1213 1.99982E+01 9.75348E-06 1.85133E-05-1.58697E-05 2.05805E-14-1.74679E-12
 -1      1214 1.99988E+01 8.31278E-06 1.51042E-05-1.20097E-05-3.92644E-14-1.02450E-12
 -1      1215 1.99992E+01 7.18785E-06 1.24808E-05-9.09526E-06 2.46356E-14-4.04458E-13
 -1      1216 1.99995E+01 6.45682E-06 1.08221E-05-6.92521E-06-3.88244E-14-2.56358E-13
 -1      1217 1.99997E+01 6.12369E-06 1.01814E-05-5.18176E-06-1.06383E-14 4.72330E-14
 -1      1218 1.99998E+01 5.65489E-06 9.62567E-06-3.06763E-06 8.17438E-14-3.92571E-13
 -1      1219 1.99998E+01 2.60196E-06 4.71641E-06 1.08195E-06 9.28765E-14-7.34592E-13
 -1      1220 1.99998E+01-3.64041E-06-1.02304E-05 3.77516E-06-7.94366E-15-8.96357E-13
 -1      1221 1.99998E+01 1.10835E-05-9.38244E-06 3.83705E-06-7.00888E-13-2.08220E-13
 -1      1222 1.99998E+01 2.99055E-05 6.10644E-06 5.05863E-06 2.89135E-14 1.66952E-13
 -1      1223 1.99998E+01-1.53637E-05 9.35325E-06-2.78165E-07 1.35272E-12-1.10477E-15
 -1      1224 1.99998E+01-1.28762E-04 6.29938E-06-3.52516E-06 9.90401E-13 4.72780E-14
 -1      1225 1.99998E+01-2.83261E-04 1.48228E-06-4.96582E-06 7.70077E-13-3.11155E-14
 -1      1226 1.99998E+01-4.45015E-04-3.12978E-06-4.95056E-06-5.37741E-13-1.66521E-13
 -1      1227 1.99998E+01-5.85178E-04-6.77644E-06-3.94766E-06-1.36979E-12 1.98778E-13
 -1      1228 1.99998E+01-6.80521E-04-9.14745E-06-2.14979E-06-1.34275E-12 4.46061E-15
 -1      1229 1.99998E+01-7.13768E-04-9.95229E-06 1.54235E-08-1.06922E-12 1.35353E-13
 -1      1230 1.99998E+01-6.79521E-04-9.12162E-06 2.17922E-06-9.27898E-13 3.61090E-14
 -1      1231 1.99998E+01-5.83357E-04-6.72013E-06 3.96332E-06-1.42960E-12-2.48708E-13
 -1      1232 1.99998E+01-4.42630E-04-3.05290E-06 5.01650E-06-1.92624E-12 1.16667E-13
 -1      1233 1.99998E+01-2.80855E-04 1.54318E-06 4.95593E-06-2.24576E-12 3.71581E-14
 -1      1234 1.99998E+01-1.26717E-04 6.37711E-06 3.55038E-06-1.89124E-12 5.87497E-14
 -1      1235 1.99998E+01-1.23879E-05 9.69099E-06 3.93471E-07-1.04045E-12 8.65586E-14
 -1      1236 1.99998E+01 2.63667E-05 4.88695E-06-8.37947E-06-7.27884E-13-1.19950E-13
 -1      1237 1.99998E+01 1.27874E-05-9.16719E-06-4.67007E-06-3.48886E-13 1.21926E-13
 -1      1238-9.02270E-01-1.92999E+01-3.56498E+00-1.78863E+00 2.40130E-12 4.92523E-13
 -1      1239-1.30335E+00-1.08886E+01-2.90542E+00-2.60025E+00 4.90397E-12 1.98791E-12
 -1      1240 1.63393E+00 8.39335E-01-1.75335E+00 1.97324E+00 6.09024E-12 3.90832E-12
 -1      1241 1.15333E+01 9.81945E+00-3.20932E-02 1.04076E+01 5.64215E-12 5.34239E-12
 -1      1242 2.95727E+01 1.18715E+01 1.81210E+00 1.75931E+01 3.64042E-12 5.24070E-12
 -1      1243 5.00472E+01 7.91647E+00 3.39569E+00 1.79372E+01 1.54776E-12 3.49121E-12
 -1      1244 6.36022E+01 3.03538E+00 4.30587E+00 9.64043E+00 3.00412E-13 4.88887E-13
 -1      1245 6.34680E+01 2.04330E+00 4.10041E+00-2.95795E+00 4.17007E-13-3.04290E-12
 -1      1246 5.06848E+01 4.58084E+00 3.02718E+00-1.27137E+01 1.85912E-12-6.04850E-12
 -1      1247 3.01437E+01 7.63901E+00 1.08787E+00-1.42225E+01 4.07085E-12-7.46825E-12
 -1      1248 1.22937E+01 6.86902E+00-7.22958E-01-9.03958E+00 5.94735E-12-7.05125E-12
 -1      1249 2.13368E+00 1.73850E+00-1.94426E+00-2.27518E+00 6.65890E-12-5.25424E-12
 -1      1250-1.02716E+00-4.67725E+00-2.39351E+00 1.63299E+00 5.82934E-12-2.98744E-12
 -1      1251-9.37010E-01-8.61169E+00-2.19874E+00 1.85874E+00 3.53390E-12-1.14283E-12
 -1      1252-3.92214E-01-9.46443E+00-1.98436E+00 3.08548E-01 4.85278E-13-2.72393E-13
 -1      1253-5.39584E-01-6.35239E+00-1.82557E+00-9.21809E-01-2.72404E-12-8.75328E-13
 -1      1254 3.81088E-02-8.24741E-01-1.73538E+00 3.89480E-01-5.17875E-12-2.59703E-12
 -1      1255 3.68592E+00 5.04856E+00-1.31608E+00 4.51963E+00-6.19460E-12-4.65383E-12
 -1      1256 1.25242E+01 8.98297E+00-3.82167E-01 1.04144E+01-5.67169E-12-6.25811E-12
 -1      1257 2.74267E+01 8.90334E+00 8.96560E-01 1.49529E+01-4.04932E-12-6.72018E-12
 -1      1258 4.53548E+01 5.38482E+00 2.35209E+00 1.39123E+01-1.99274E-12-5.51825E-12
 -1      1259 5.82279E+01 2.09914E+00 3.38802E+00 5.69493E+00-4.88953E-13-2.85805E-12
 -1      1260 6.05279E+01 2.03868E+00 3.72950E+00-6.39531E+00-2.31641E-13 4.06231E-13
 -1      1261 4.89926E+01 6.75997E+00 3.16829E+00-1.60013E+01-1.35270E-12 3.39451E-12
 -1      1262 2.99681E+01 1.12941E+01 1.90204E+00-1.74586E+01-3.19000E-12 4.88631E-12
 -1      1263 1.25163E+01 1.03718E+01 2.52014E-01-1.10998E+01-4.73555E-12 4.77196E-12
 -1      1264 2.24140E+00 2.30661E+00-1.36176E+00-2.65363E+00-5.25069E-12 3.42792E-12
 -1      1265-1.11694E+00-9.59505E+00-2.68439E+00 2.34408E+00-3.58380E-12 1.59267E-12
 -1      1266-9.25941E-01-1.86893E+01-3.46130E+00 1.76764E+00-4.59743E-13 2.67963E-13
 -1      1267 2.58620E+01 2.11457E+00-9.41476E-01-3.55188E+00-2.23210E-13 2.18991E-12
 -1      1268 2.35954E+01 5.55750E+00-8.24984E-02-4.57030E+00-3.76935E-13-5.58331E-13
 -1      1269 2.46889E+01 5.63710E+00 1.30126E-02-5.16847E+00-3.24352E-13 2.64844E-13
 -1      1270 2.30062E+01 5.72075E+00 7.47881E-03-3.67312E+00-2.95500E-13-1.26688E-12
 -1      1271 2.31889E+01 5.80857E+00-2.40561E-02-4.21118E+00-3.74395E-13-9.80757E-13
 -1      1272 2.39464E+01 4.53859E+00-4.56021E-02-4.37374E+00-6.31221E-13-4.30822E-13
 -1      1273 2.28022E+01 5.54992E+00 6.33109E-02-2.61544E+00-1.32262E-13-1.50326E-12
 -1      1274 2.29000E+01 5.60843E+00 1.04272E-02-3.18796E+00-2.03726E-13-1.41782E-12
 -1      1275 2.34729E+01 4.65350E+00-1.78590E-02-3.52822E+00-4.18587E-13-9.84490E-13
 -1      1276 2.22603E+01 5.11701E+00 1.07357E-01-1.26884E+00 5.51642E-14-1.49688E-12
 -1      1277 2.26094E+01 5.24567E+00 4.58024E-02-1.97763E+00-7.49401E-15-1.52595E-12
 -1      1278 2.32897E+01 4.31098E+00 3.53593E-03-2.47720E+00-1.33069E-13-1.15592E-12
 -1      1279 2.06998E+01 4.43782E+00 1.17239E-01 3.43061E-01 2.69118E-13-1.38375E-12
 -1      1280 2.16506E+01 4.72896E+00 9.24632E-02-4.56089E-01 2.04989E-13-1.45506E-12
 -1      1281 2.26270E+01 3.68149E+00 1.64516E-02-1.14245E+00 1.90060E-13-1.11675E-12
 -1      1282 1.74670E+01 3.67253E+00 5.71802E-02 1.97979E+00 4.69347E-13-1.28119E-12
 -1      1283 1.93296E+01 4.19929E+00 1.43416E-01 1.25971E+00 4.21607E-13-1.35614E-12
 -1      1284 2.06616E+01 3.01512E+00 9.65007E-03 4.99118E-01 5.41997E-13-1.03629E-12
 -1      1285 1.26314E+01 3.20723E+00-6.03101E-02 2.95688E+00 5.68379E-13-1.23720E-12
 -1      1286 1.52065E+01 3.88095E+00 1.56162E-01 2.67110E+00 5.57387E-13-1.29874E-12
 -1      1287 1.67448E+01 2.77891E+00-3.71619E-03 2.14356E+00 8.16403E-13-1.01993E-12
 -1      1288 8.25931E+00 3.24044E+00-1.49857E-01 2.65437E+00 4.89025E-13-1.27233E-12
 -1      1289 1.03534E+01 3.79191E+00 8.91627E-02 2.94631E+00 5.25358E-13-1.30196E-12
 -1      1290 1.15489E+01 3.25954E+00-7.84304E-03 2.97473E+00 8.70096E-13-1.11881E-12
 -1      1291 6.01135E+00 3.53814E+00-1.53296E-01 1.10718E+00 2.08595E-13-1.33479E-12
 -1      1292 6.69160E+00 3.73800E+00-4.69522E-02 1.87940E+00 3.00898E-13-1.33745E-12
 -1      1293 7.03781E+00 4.06496E+00 1.14665E-02 2.36399E+00 6.31953E-13-1.28965E-12
 -1      1294 7.39367E+00 3.79639E+00-4.24447E-02-4.74288E-01-7.00828E-14-1.35452E-12
 -1      1295 6.30317E+00 3.52834E+00-1.40198E-01 1.47505E-01-7.54952E-15-1.34262E-12
 -1      1296 5.45904E+00 4.39709E+00 7.62507E-03 7.48942E-01 1.83253E-13-1.36965E-12
 -1      1297 1.16814E+01 3.93099E+00 8.81923E-02-1.26538E+00-2.39753E-13-1.28091E-12
 -1      1298 9.27231E+00 3.29344E+00-1.44132E-01-1.07646E+00-2.28373E-13-1.28473E-12
 -1      1299 7.85336E+00 3.98152E+00 2.06443E-02-7.83013E-01-2.02907E-13-1.28508E-12
 -1      1300 1.73528E+01 4.17247E+00 1.50516E-01-6.51117E-01-2.12719E-13-1.08306E-12
 -1      1301 1.45313E+01 3.40581E+00-4.89073E-02-1.10481E+00-2.59348E-13-1.15578E-12
 -1      1302 1.31659E+01 3.16372E+00-1.29713E-02-1.11888E+00-3.83360E-13-1.03841E-12
 -1      1303 2.21114E+01 4.77064E+00 1.13976E-01 1.01425E+00-2.37588E-14-7.43842E-13
 -1      1304 1.98984E+01 4.12536E+00 5.62601E-02 1.69199E-01-9.94760E-14-9.13096E-13
 -1      1305 1.91655E+01 2.82875E+00-2.54491E-02 5.89233E-02-2.52520E-13-7.03396E-13
 -1      1306 2.56885E+01 5.64328E+00 4.53734E-02 2.96669E+00 1.98230E-13-1.28710E-13
 -1      1307 2.39998E+01 5.10437E+00 7.11414E-02 2.00461E+00 1.05582E-13-4.85556E-13
 -1      1308 2.38646E+01 3.28562E+00-2.28476E-02 1.95042E+00 5.73569E-14-2.77681E-13
 -1      1309 2.93011E+01 6.28928E+00 1.44783E-02 4.92356E+00 2.78944E-13 1.08198E-12
 -1      1310 2.73772E+01 5.78980E+00 3.90429E-03 3.77537E+00 2.42584E-13 3.46917E-13
 -1      1311 2.74461E+01 3.88264E+00-2.09277E-02 3.72059E+00 3.42476E-13 4.27436E-13
 -1      1312 3.93174E+01 4.46934E+00 1.35095E+00 6.15412E+00 1.88544E-13 3.54439E-12
 -1      1313 3.12849E+01 4.69673E+00-2.29158E-01 4.86161E+00 1.50435E-13 1.81760E-12
 -1      1314 3.11691E+01 2.95666E+00-2.00206E-02 4.52128E+00 5.05885E-13 1.55259E-12
 -1      1315 3.18142E+01 3.63157E-01-9.63240E-01 1.51846E+00 3.55625E-13 3.45546E-12
 -1      1316 2.54792E+01 2.55717E-01-4.22886E-01-1.76644E+00-4.77313E-13 2.52437E-12
 -1      1317 2.35687E+01 3.48675E-01-1.75973E-01-1.34679E+00-4.08604E-13 1.93502E-12
 -1      1318 2.25028E+01 1.69972E-01-7.76208E-02-8.42660E-01-3.24518E-13 1.73062E-12
 -1      1319 2.14551E+01 1.07816E-01-1.72459E-02-7.81033E-01-2.99819E-13 1.25744E-12
 -1      1320 2.38315E+01 4.47004E-01-1.18726E-01-2.25965E+00-7.11042E-13 9.21957E-13
 -1      1321 2.07036E+01 9.11561E-02 3.34065E-03-5.27277E-01-2.31825E-13 1.09652E-12
 -1      1322 2.00851E+01 8.38940E-02 1.26258E-02-4.94094E-01-2.16237E-13 7.68476E-13
 -1      1323 2.19831E+01 1.78469E-01-4.15790E-02-1.32450E+00-5.21642E-13 6.33566E-13
 -1      1324 1.96243E+01 8.72111E-02 1.06885E-02-2.95469E-01-1.65305E-13 6.19903E-13
 -1      1325 1.93094E+01 8.84554E-02 6.27969E-03-2.50401E-01-1.58377E-13 3.94761E-13
 -1      1326 2.08230E+01 1.39897E-01-2.16630E-02-7.92787E-01-3.83017E-13 3.25261E-13
 -1      1327 1.90977E+01 9.16364E-02 2.27589E-03-5.00019E-02-1.40278E-13 2.86606E-13
 -1      1328 1.90821E+01 8.43668E-02-5.63869E-04-6.22968E-04-1.39559E-13 1.05870E-13
 -1      1329 2.01576E+01 1.46018E-01-2.41597E-02-3.11098E-01-2.98945E-13 7.64493E-14
 -1      1330 1.90962E+01 7.76296E-02-1.88133E-03 1.77096E-01-1.17017E-13 1.22090E-14
 -1      1331 1.93458E+01 5.79385E-02-1.21614E-03 2.15564E-01-7.96863E-14-1.32595E-13
 -1      1332 1.99582E+01 1.32618E-01-2.30511E-02 1.51456E-01-2.45600E-13-1.14105E-13
 -1      1333 1.95269E+01 4.36110E-02-7.32797E-04 3.27308E-01-7.66947E-14-2.11657E-13
 -1      1334 1.99448E+01 1.78344E-02 2.02040E-03 3.43613E-01-6.52495E-14-3.05391E-13
 -1      1335 2.01496E+01 8.44141E-02-1.42202E-02 5.04784E-01-1.66662E-13-3.09451E-13
 -1      1336 2.02038E+01 3.86954E-03 2.17964E-03 3.69195E-01-5.13221E-14-3.40415E-13
 -1      1337 2.06621E+01-1.88130E-02 5.44948E-03 3.62896E-01-2.79893E-14-4.19571E-13
 -1      1338 2.05827E+01 1.89176E-02-2.14934E-03 6.69531E-01-1.26714E-13-3.85894E-13
 -1      1339 2.09113E+01-2.62959E-02 4.00947E-03 3.15948E-01-5.11605E-14-4.40443E-13
 -1      1340 2.13000E+01-4.01834E-02 6.76737E-03 2.95168E-01-6.50001E-14-5.28411E-13
 -1      1341 2.10785E+01-3.76245E-02 7.38945E-03 6.39658E-01-9.30150E-14-4.54122E-13
 -1      1342 2.14809E+01-4.01078E-02 3.96237E-03 2.09244E-01-8.39988E-14-5.69971E-13
 -1      1343 2.17387E+01-4.47179E-02 5.89102E-03 1.84188E-01-1.55405E-14-6.57880E-13
 -1      1344 2.14918E+01-6.86175E-02 1.17689E-02 4.75605E-01-1.17737E-13-4.78569E-13
 -1      1345 2.18294E+01-3.96846E-02 2.71933E-03 9.27092E-02-2.36478E-14-6.88049E-13
 -1      1346 2.19457E+01-3.77889E-02 3.89878E-03 7.07407E-02-3.69305E-14-7.30649E-13
 -1      1347 2.17453E+01-7.31994E-02 1.16262E-02 2.60194E-01-7.37015E-14-5.83457E-13
 -1      1348 2.19520E+01-3.11214E-02 1.25086E-03-4.75955E-03-5.11024E-14-7.70234E-13
 -1      1349 2.19501E+01-2.61104E-02 1.88425E-03-2.03572E-02-3.88366E-14-8.58681E-13
 -1      1350 2.18266E+01-6.04629E-02 8.96140E-03 5.95981E-02-8.76625E-14-7.20907E-13
 -1      1351 2.18926E+01-2.01128E-02 1.64692E-04-7.15843E-02 3.07441E-14-8.40559E-13
 -1      1352 2.18094E+01-1.45134E-02 4.32492E-04-8.05793E-02 5.40379E-14-7.97827E-13
 -1      1353 2.17643E+01-4.10375E-02 5.60312E-03-9.12916E-02 9.17669E-16-6.79102E-13
 -1      1354 2.17122E+01-1.01771E-02-3.81055E-04-1.08373E-01 6.19019E-14-7.79785E-13
 -1      1355 2.15842E+01-5.35027E-03-3.55950E-04-1.12060E-01 2.50071E-14-7.20343E-13
 -1      1356 2.16033E+01-2.23478E-02 2.63788E-03-1.84485E-01 5.19556E-14-6.25914E-13
 -1      1357 2.14686E+01-2.75303E-03-4.98932E-04-1.21565E-01-2.16448E-14-7.07127E-13
 -1      1358 2.13243E+01 8.27002E-04-6.35069E-04-1.21630E-01-4.23049E-14-7.21466E-13
 -1      1359 2.13881E+01-7.87260E-03 4.72258E-04-2.27743E-01 2.85356E-14-6.13834E-13
 -1      1360 2.12061E+01 2.03449E-03-3.77669E-04-1.18892E-01-2.40439E-14-7.04138E-13
 -1      1361 2.10648E+01 4.39261E-03-6.14046E-04-1.16835E-01-2.01382E-14-7.34565E-13
 -1      1362 2.11548E+01 1.70919E-03-8.90069E-04-2.34710E-01-5.81831E-14-5.50314E-13
 -1      1363 2.09543E+01 4.65831E-03-1.73305E-04-1.07083E-01 8.11813E-15-7.04779E-13
 -1      1364 2.08271E+01 6.02753E-03-4.60565E-04-1.04016E-01 5.11320E-14-6.97472E-13
 -1      1365 2.09281E+01 7.11731E-03-1.61218E-03-2.18920E-01 5.24624E-15-4.36794E-13
 -1      1366 2.07298E+01 5.74091E-03 2.07797E-05-9.11014E-02 3.52451E-14-7.63728E-13
 -1      1367 2.06219E+01 6.39626E-03-2.78482E-04-8.77554E-02 1.39572E-14-6.93730E-13
 -1      1368 2.07230E+01 9.49808E-03-1.88829E-03-1.91193E-01 1.60696E-14-5.40744E-13
 -1      1369 2.05400E+01 5.84074E-03 1.64381E-04-7.42054E-02-4.30009E-14-7.96588E-13
 -1      1370 2.04523E+01 6.02437E-03-1.19173E-04-7.10115E-02-1.24126E-13-8.98467E-13
 -1      1371 2.05466E+01 9.93043E-03-1.88495E-03-1.59095E-01-8.88559E-14-7.11230E-13
 -1      1372 2.03860E+01 5.38283E-03 2.50350E-04-5.83039E-02-7.74094E-14-8.98902E-13
 -1      1373 2.03173E+01 5.28110E-03-5.58430E-07-5.54815E-02-7.37783E-14-9.94040E-13
 -1      1374 2.04010E+01 9.24915E-03-1.72536E-03-1.27363E-01-1.72437E-13-7.16010E-13
 -1      1375 2.02652E+01 4.65927E-03 2.87385E-04-4.43565E-02-2.30691E-14-9.03226E-13
 -1      1376 2.02132E+01 4.40410E-03 7.70180E-05-4.19897E-02 5.19609E-14-8.44954E-13
 -1      1377 2.02847E+01 8.02984E-03-1.49275E-03-9.86110E-02-4.79086E-14-6.49459E-13
 -1      1378 2.01735E+01 3.85504E-03 2.89122E-04-3.27101E-02 2.64672E-14-8.34146E-13
 -1      1379 2.01353E+01 3.53393E-03 1.20589E-04-3.08026E-02-2.90090E-14-8.14951E-13
 -1      1380 2.01945E+01 6.63586E-03-1.23941E-03-7.40152E-02 3.56094E-14-5.81828E-13
 -1      1381 2.01059E+01 3.07774E-03 2.68621E-04-2.33480E-02-5.02214E-14-8.62934E-13
 -1      1382 2.00788E+01 2.74513E-03 1.39024E-04-2.18604E-02-8.50274E-14-9.74849E-13
 -1      1383 2.01265E+01 5.27720E-03-9.95756E-04-5.38497E-02-6.90480E-14-6.49216E-13
 -1      1384 2.00576E+01 2.38295E-03 2.36260E-04-1.60593E-02-2.38568E-14-9.48275E-13
 -1      1385 2.00392E+01 2.07016E-03 1.40483E-04-1.49331E-02-5.12036E-15-9.14662E-13
 -1      1386 2.00767E+01 4.06155E-03-7.77613E-04-3.78753E-02-3.55425E-14-6.11649E-13
 -1      1387 2.00244E+01 1.79329E-03 1.99389E-04-1.05479E-02 4.86770E-14-9.13022E-13
 -1      1388 2.00125E+01 1.51620E-03 1.31509E-04-9.71959E-03 9.07982E-14-8.00443E-13
 -1      1389 2.00413E+01 3.03253E-03-5.91530E-04-2.55963E-02 7.59101E-14-4.85919E-13
 -1      1390 2.00026E+01 1.31181E-03 1.62747E-04-6.49832E-03 1.06946E-13-7.67191E-13
 -1      1391 1.99954E+01 1.07645E-03 1.16921E-04-5.90732E-03 9.73092E-14-6.74467E-13
 -1      1392 2.00171E+01 2.19624E-03-4.38467E-04-1.64226E-02 1.56235E-13-4.49303E-13
 -1      1393 1.99892E+01 9.30818E-04 1.29077E-04-3.61172E-03 6.53019E-15-6.95510E-13
 -1      1394 1.99853E+01 7.37299E-04 1.00043E-04-3.20442E-03-4.89080E-14-7.40180E-13
 -1      1395 2.00013E+01 1.53857E-03-3.16258E-04-9.76427E-03 6.68770E-14-5.28889E-13
 -1      1396 1.99817E+01 6.37569E-04 9.97246E-05-1.62439E-03-5.67559E-14-7.41394E-13
 -1      1397 1.99801E+01 4.82692E-04 8.30190E-05-1.35550E-03 1.02312E-14-8.45885E-13
 -1      1398 1.99915E+01 1.03614E-03-2.21205E-04-5.08226E-03-8.85627E-14-5.61655E-13
 -1      1399 1.99783E+01 4.17680E-04 7.51209E-05-3.14106E-04 2.53176E-14-8.29455E-13
 -1      1400 1.99782E+01 2.96664E-04 6.71248E-05-1.46745E-04 9.70889E-16-7.68719E-13
 -1      1401 1.99862E+01 6.62731E-04-1.49070E-04-1.91124E-03-1.43629E-14-5.29890E-13
 -1      1402 1.99776E+01 2.57110E-04 5.51386E-05 4.99833E-04-3.06824E-15-7.99540E-13
 -1      1403 1.99785E+01 1.64657E-04 5.30271E-05 5.94809E-04 3.49137E-14-7.90758E-13
 -1      1404 1.99838E+01 3.92927E-04-9.56524E-05 1.34512E-04 2.52217E-14-6.27023E-13
 -1      1405 1.99787E+01 1.43178E-04 3.93454E-05 9.60149E-04-1.23914E-16-7.63753E-13
 -1      1406 1.99800E+01 7.41073E-05 4.09864E-05 1.00518E-03-3.65581E-14-7.65016E-13
 -1      1407 1.99834E+01 2.03965E-04-5.71104E-05 1.36466E-03-5.20003E-14-6.57154E-13
 -1      1408 1.99806E+01 6.49987E-05 2.71700E-05 1.17667E-03-7.88486E-14-8.32431E-13
 -1      1409 1.99822E+01 1.45916E-05 3.10069E-05 1.18861E-03-5.90730E-14-9.49762E-13
 -1      1410 1.99842E+01 7.64596E-05-3.01057E-05 2.02106E-03-1.18450E-13-5.32978E-13
 -1      1411 1.99831E+01 1.35692E-05 1.80076E-05 1.23185E-03-8.14800E-14-8.82538E-13
 -1      1412 1.99846E+01-2.22748E-05 2.29433E-05 1.22306E-03-6.12484E-14-9.69648E-13
 -1      1413 1.99857E+01-5.49911E-06-1.18444E-05 2.28796E-03-1.83985E-14-4.58432E-13
 -1      1414 1.99856E+01-1.83388E-05 1.12812E-05 1.18609E-03 2.21495E-14-9.18801E-13
 -1      1415 1.99871E+01-4.30612E-05 1.65740E-05 1.16537E-03 6.38107E-14-8.88237E-13
 -1      1416 1.99875E+01-5.45795E-05-5.63007E-08 2.30232E-03-2.50706E-14-4.79851E-13
 -1      1417 1.99880E+01-3.63832E-05 6.47413E-06 1.08243E-03-6.70091E-14-9.88316E-13
 -1      1418 1.99894E+01-5.27932E-05 1.16487E-05 1.05586E-03-9.37123E-15-1.07831E-12
 -1      1419 1.99893E+01-8.06144E-05 7.05677E-06 2.16337E-03-2.65278E-14-6.41816E-13
 -1      1420 1.99903E+01-4.48900E-05 3.14371E-06 9.50602E-04 7.93904E-14-1.07327E-12
 -1      1421 1.99914E+01-5.52271E-05 7.91851E-06 9.22249E-04 2.26102E-14-1.02790E-12
 -1      1422 1.99911E+01-9.10549E-05 1.08869E-05 1.94101E-03 4.90510E-16-8.19877E-13
 -1      1423 1.99922E+01-4.70934E-05 9.23001E-07 8.10380E-04 1.07362E-13-1.04446E-12
 -1      1424 1.99932E+01-5.31053E-05 5.15273E-06 7.82794E-04 1.41369E-13-8.80514E-13
 -1      1425 1.99928E+01-9.14164E-05 1.24887E-05 1.68282E-03 1.14560E-13-7.76328E-13
 -1      1426 1.99939E+01-4.53557E-05-4.83922E-07 6.74215E-04 1.04399E-13-7.62422E-13
 -1      1427 1.99947E+01-4.83798E-05 3.14755E-06 6.48886E-04 1.24007E-13-6.89400E-13
 -1      1428 1.99942E+01-8.56828E-05 1.26433E-05 1.41982E-03 1.58366E-13-6.53826E-13
 -1      1429 1.99953E+01-4.13606E-05-1.31004E-06 5.49339E-04-3.72693E-14-6.64306E-13
 -1      1430 1.99960E+01-4.24010E-05 1.72911E-06 5.27015E-04-1.28856E-13-7.46534E-13
 -1      1431 1.99955E+01-7.66558E-05 1.19167E-05 1.17101E-03 9.40951E-14-6.14345E-13
 -1      1432 1.99964E+01-3.62765E-05-1.73459E-06 4.39349E-04 2.71986E-14-7.30864E-13
 -1      1433 1.99970E+01-3.60739E-05 7.53268E-07 4.20279E-04 3.84405E-14-7.33421E-13
 -1      1434 1.99965E+01-6.62479E-05 1.07086E-05 9.46876E-04-5.72941E-14-5.26956E-13
 -1      1435 1.99973E+01-3.08911E-05-1.89192E-06 3.45388E-04-6.68485E-15-7.31290E-13
 -1      1436 1.99978E+01-2.99824E-05 1.04129E-07 3.29498E-04-4.90603E-14-6.52790E-13
 -1      1437 1.99973E+01-5.57205E-05 9.29366E-06 7.52036E-04-2.42511E-14-6.51041E-13
 -1      1438 1.99981E+01-2.57203E-05-1.87864E-06 2.66999E-04 9.26231E-15-5.56861E-13
 -1      1439 1.99984E+01-2.44896E-05-3.06699E-07 2.54010E-04-2.19657E-16-6.34763E-13
 -1      1440 1.99980E+01-4.58756E-05 7.85516E-06 5.87214E-04-9.83100E-15-7.12600E-13
 -1      1441 1.99986E+01-2.10961E-05-1.75670E-06 2.02709E-04-2.64490E-14-2.91049E-13
 -1      1442 1.99989E+01-1.98141E-05-5.36439E-07 1.92216E-04 9.37069E-14-3.51628E-13
 -1      1443 1.99985E+01-3.72098E-05 6.51259E-06 4.50597E-04 1.25439E-13-3.80623E-13
 -1      1444 1.99990E+01-1.72344E-05-1.54917E-06 1.50411E-04 1.25173E-13-3.74461E-13
 -1      1445 1.99992E+01-1.60873E-05-6.01537E-07 1.41930E-04 8.85750E-14-2.89120E-13
 -1      1446 1.99989E+01-3.00335E-05 5.34593E-06 3.38778E-04 6.61094E-14-7.53457E-14
 -1      1447 1.99993E+01-1.42847E-05-1.22929E-06 1.07601E-04 6.24087E-14-2.35655E-13
 -1      1448 1.99995E+01-1.33867E-05-4.75999E-07 1.00582E-04 1.00581E-13-7.66398E-14
 -1      1449 1.99993E+01-2.45638E-05 4.41350E-06 2.47354E-04 1.42062E-13 2.91375E-13
 -1      1450 1.99996E+01-1.23345E-05-7.28090E-07 7.15447E-05 1.72441E-13-1.46068E-13
 -1      1451 1.99996E+01-1.16636E-05-1.57084E-07 6.53854E-05 9.70771E-14-6.48213E-16
 -1      1452 1.99995E+01-2.09764E-05 3.74342E-06 1.71356E-04 1.55328E-13 3.25199E-13
 -1      1453 1.99997E+01-1.11846E-05-6.98856E-08 3.97988E-05 1.60381E-14 1.98819E-13
 -1      1454 1.99997E+01-1.03843E-05 2.49471E-08 3.39301E-05 1.17804E-13 3.59827E-13
 -1      1455 1.99996E+01-1.91589E-05 3.20963E-06 1.05896E-04 1.55885E-13 6.78793E-14
 -1      1456 1.99998E+01-1.12296E-05-1.40654E-07 1.12371E-05 7.49920E-14 4.06108E-13
 -1      1457 1.99998E+01-7.61243E-06-1.57425E-06 5.48222E-06 3.10216E-14 5.03771E-13
 -1      1458 1.99997E+01-1.79172E-05 2.45660E-06 4.84998E-05 1.52918E-13 3.50693E-13
 -1      1459 1.99998E+01 2.71003E-06-4.03488E-06-7.05081E-06-3.22250E-13 3.64561E-13
 -1      1460 1.99998E+01-4.00158E-06-1.82044E-07 1.61299E-06-2.39678E-13 1.51547E-13
 -1      1461 2.96877E+01-1.77806E-02-1.30304E-01 1.13193E+00 2.54623E-13 2.96463E-12
 -1      1462 3.17663E+01 1.03756E-01-2.61498E-01 1.29267E+00 2.10137E-13 3.37366E-12
 -1      1463 3.12470E+01 9.29140E-01-7.04358E-02 3.16860E+00 4.40911E-13 2.28459E-12
 -1      1464 2.67439E+01-1.94242E-02 2.60762E-03 1.18457E+00 2.04274E-13 2.50319E-12
 -1      1465 2.83672E+01-1.60855E-02-5.57286E-02 1.11134E+00 1.96222E-13 2.80383E-12
 -1      1466 2.86515E+01-6.82164E-03-2.53960E-02 2.29960E+00 3.74700E-13 2.01193E-12
 -1      1467 2.39231E+01 7.38896E-02-3.17554E-02 1.11878E+00 1.95207E-13 2.09724E-12
 -1      1468 2.55216E+01 3.02066E-02-6.89100E-03 1.11137E+00 1.71575E-13 2.32500E-12
 -1      1469 2.62540E+01 1.79393E-02-1.69653E-03 2.19783E+00 3.29136E-13 1.73050E-12
 -1      1470 2.18431E+01 1.66973E-01-9.19081E-02 6.51779E-01 1.91534E-13 1.57400E-12
 -1      1471 2.30089E+01 1.74664E-01-3.39903E-02 7.73179E-01 1.96655E-13 1.84727E-12
 -1      1472 2.41947E+01 2.47075E-01-3.85145E-02 1.71991E+00 3.68552E-13 1.32714E-12
 -1      1473 2.12424E+01 1.60150E-01-9.81977E-02-7.45083E-02 2.17659E-13 1.02077E-12
 -1      1474 2.15161E+01 2.54800E-01-5.63567E-02 1.21035E-01 2.09256E-13 1.32279E-12
 -1      1475 2.29435E+01 4.19217E-01-6.81614E-02 6.34374E-01 4.13128E-13 8.11777E-13
 -1      1476 2.21159E+01 5.94017E-02-3.81356E-02-6.23728E-01 1.62171E-13 4.89664E-13
 -1      1477 2.15063E+01 1.86960E-01-3.92234E-02-4.76454E-01 2.00093E-13 7.85039E-13
 -1      1478 2.28148E+01 3.39108E-01-5.83872E-02-5.54035E-01 4.09610E-13 3.48336E-13
 -1      1479 2.36408E+01-4.24234E-02 3.06270E-02-7.24067E-01 1.11837E-13 1.53211E-13
 -1      1480 2.26461E+01 4.06867E-02 3.49977E-03-6.91964E-01 1.14745E-13 3.42920E-13
 -1      1481 2.35128E+01 7.81268E-02-2.26954E-02-1.17891E+00 2.58262E-13-4.21191E-14
 -1      1482 2.48973E+01-8.42036E-02 5.85032E-02-4.76642E-01 1.75094E-14 1.54390E-14
 -1      1483 2.40707E+01-6.88858E-02 3.32989E-02-5.30029E-01 4.22249E-14 1.14631E-13
 -1      1484 2.43717E+01-1.46795E-01 3.41510E-03-1.07042E+00 1.34713E-13-2.40058E-13
 -1      1485 2.54410E+01-7.32201E-02 4.97235E-02-1.32028E-01-6.42455E-15-2.59792E-14
 -1      1486 2.50536E+01-1.01818E-01 3.59478E-02-2.08701E-01 2.07299E-14 1.24900E-14
 -1      1487 2.48886E+01-2.19157E-01 1.25621E-02-5.45047E-01 5.05134E-14-2.92369E-13
 -1      1488 2.53015E+01-4.30998E-02 2.72649E-02 1.35961E-01 1.17718E-14-6.57070E-14
 -1      1489 2.53356E+01-8.21283E-02 2.32736E-02 7.59387E-02 2.63158E-15-5.75963E-14
 -1      1490 2.49111E+01-1.75273E-01 1.15276E-02 1.11659E-02 1.15723E-14-2.95446E-13
 -1      1491 2.47224E+01-1.61069E-02 8.11797E-03 2.80398E-01 9.57099E-14-2.00374E-13
 -1      1492 2.50275E+01-4.68421E-02 8.90978E-03 2.47216E-01 8.97130E-14-4.47116E-14
 -1      1493 2.45325E+01-9.62832E-02 7.03669E-03 3.93446E-01 1.13973E-13-3.91298E-13
 -1      1494 2.39526E+01 7.84903E-04-2.67892E-03 3.25103E-01 4.21922E-14-3.07761E-13
 -1      1495 2.43750E+01-1.70823E-02-3.53898E-04 3.13342E-01 2.37286E-14-2.50609E-13
 -1      1496 2.39259E+01-3.09345E-02 3.09942E-03 5.74103E-01 9.57129E-14-3.85187E-13
 -1      1497 2.31644E+01 8.92998E-03-6.78076E-03 3.10576E-01 4.92014E-14-3.59254E-13
 -1      1498 2.35989E+01 1.52130E-03-4.18142E-03 3.11554E-01 4.43352E-14-2.79294E-13
 -1      1499 2.32434E+01 8.00655E-03 6.61347E-04 6.07487E-01 5.37984E-14-3.97133E-13
 -1      1500 2.24505E+01 1.15670E-02-7.21800E-03 2.68903E-01-5.39837E-14-2.28990E-13
 -1      1501 2.28420E+01 1.07521E-02-4.65468E-03 2.75886E-01-2.68030E-14-2.72145E-13
 -1      1502 2.25849E+01 2.56963E-02-5.50458E-04 5.58360E-01-5.25031E-14-2.77669E-13
 -1      1503 2.18481E+01 1.13447E-02-6.16527E-03 2.19628E-01-1.20077E-13-1.48642E-13
 -1      1504 2.21755E+01 1.39672E-02-3.73569E-03 2.28547E-01-3.23528E-14-2.15864E-13
 -1      1505 2.20025E+01 3.05127E-02-1.03821E-03 4.74398E-01-5.94468E-14-1.50316E-13
 -1      1506 2.13624E+01 9.90944E-03-4.76466E-03 1.72688E-01 5.79515E-14-1.26421E-13
 -1      1507 2.16238E+01 1.39279E-02-2.54160E-03 1.81457E-01-3.27783E-14-1.89695E-13
 -1      1508 2.15150E+01 2.88904E-02-1.16312E-03 3.83699E-01-6.82761E-14-2.23633E-13
 -1      1509 2.09829E+01 8.13962E-03-3.48847E-03 1.32163E-01 9.85759E-14-3.08877E-13
 -1      1510 2.11850E+01 1.24103E-02-1.52958E-03 1.39889E-01 1.59882E-13-1.29467E-13
 -1      1511 2.11223E+01 2.47103E-02-1.12516E-03 3.00130E-01 2.12223E-13-2.86954E-13
 -1      1512 2.06934E+01 6.44388E-03-2.47165E-03 9.90344E-02-1.46172E-14-4.43562E-13
 -1      1513 2.08459E+01 1.04069E-02-8.05885E-04 1.05457E-01 5.43289E-14-3.82241E-13
 -1      1514 2.08145E+01 1.99861E-02-1.02013E-03 2.29037E-01 1.53377E-13-1.83566E-13
 -1      1515 2.04767E+01 4.97839E-03-1.71105E-03 7.28540E-02-1.33608E-14-4.84397E-13
 -1      1516 2.05897E+01 8.40970E-03-3.37186E-04 7.80087E-02-8.05454E-16-5.02861E-13
 -1      1517 2.05784E+01 1.56186E-02-8.91508E-04 1.71314E-01 2.69932E-14-3.26044E-13
 -1      1518 2.03175E+01 3.77743E-03-1.16058E-03 5.26369E-02-8.77971E-14-4.20523E-13
 -1      1519 2.03996E+01 6.62879E-03-5.58782E-05 5.66787E-02-5.55278E-14-4.62950E-13
 -1      1520 2.04008E+01 1.19236E-02-7.59587E-04 1.25838E-01-8.13327E-14-4.39837E-13
 -1      1521 2.02025E+01 2.82319E-03-7.69652E-04 3.72971E-02 4.90990E-14-4.64375E-13
 -1      1522 2.02611E+01 5.12930E-03 9.99451E-05 4.04118E-02 2.01657E-14-3.72562E-13
 -1      1523 2.02695E+01 8.94227E-03-6.34285E-04 9.07699E-02-1.45261E-15-3.99420E-13
 -1      1524 2.01212E+01 2.07990E-03-4.95576E-04 2.58326E-02-3.10187E-14-5.27136E-13
 -1      1525 2.01621E+01 3.90860E-03 1.76452E-04 2.81983E-02 2.94211E-14-5.14031E-13
 -1      1526 2.01740E+01 6.60385E-03-5.20493E-04 6.41810E-02 4.93230E-14-5.07782E-13
 -1      1527 2.00651E+01 1.50921E-03-3.05638E-04 1.73885E-02 4.27963E-14-5.59971E-13
 -1      1528 2.00929E+01 2.93645E-03 2.05013E-04 1.91611E-02 3.50024E-15-5.27303E-13
 -1      1529 2.01061E+01 4.80357E-03-4.20350E-04 4.43221E-02 1.12912E-14-5.57012E-13
 -1      1530 2.00274E+01 1.07631E-03-1.75785E-04 1.12652E-02-4.79952E-15-4.83280E-13
 -1      1531 2.00457E+01 2.17453E-03 2.05903E-04 1.25747E-02-4.51556E-14-4.95807E-13
 -1      1532 2.00587E+01 3.43679E-03-3.34354E-04 2.97086E-02-6.28932E-14-5.03084E-13
 -1      1533 2.00032E+01 7.51700E-04-8.86333E-05 6.90300E-03-3.17222E-14-5.19141E-13
 -1      1534 2.00146E+01 1.58519E-03 1.91827E-04 7.85546E-03 4.91325E-14-5.03822E-13
 -1      1535 2.00267E+01 2.41156E-03-2.62010E-04 1.91259E-02 3.36303E-14-5.83133E-13
 -1      1536 1.99884E+01 5.11276E-04-3.16763E-05 3.86154E-03 6.73780E-14-4.80939E-13
 -1      1537 1.99951E+01 1.13485E-03 1.70571E-04 4.54180E-03-1.89160E-14-5.15051E-13
 -1      1538 2.00059E+01 1.65170E-03-2.02242E-04 1.16026E-02-1.67574E-15-5.20447E-13
 -1      1539 1.99804E+01 3.35681E-04 4.08389E-06 1.79795E-03 3.73186E-14-5.34166E-13
 -1      1540 1.99837E+01 7.94952E-04 1.46797E-04 2.27317E-03 5.15736E-14-5.29805E-13
 -1      1541 1.99930E+01 1.09585E-03-1.53675E-04 6.37249E-03 4.34426E-14-5.17335E-13
 -1      1542 1.99768E+01 2.09548E-04 2.51327E-05 4.47984E-04 1.67314E-13-8.29043E-13
 -1      1543 1.99779E+01 5.41830E-04 1.23210E-04 7.70780E-04 1.58331E-13-5.72898E-13
 -1      1544 1.99857E+01 6.95418E-04-1.14826E-04 2.83886E-03 1.49081E-13-4.40945E-13
 -1      1545 1.99761E+01 1.20767E-04 3.61460E-05-3.90040E-04-5.05610E-14-9.15054E-13
 -1      1546 1.99759E+01 3.56161E-04 1.01293E-04-1.78843E-04-6.26800E-15-9.10658E-13
 -1      1547 1.99823E+01 4.12264E-04-8.42235E-05 5.41387E-04 1.47561E-13-4.59466E-13
 -1      1548 1.99772E+01 5.98663E-05 4.04864E-05-8.68395E-04-1.54145E-13-6.02423E-13
 -1      1549 1.99762E+01 2.22360E-04 8.17731E-05-7.37458E-04-9.67678E-14-7.45970E-13
 -1      1550 1.99813E+01 2.16676E-04-6.04873E-05-8.71255E-04-2.02982E-13-5.13907E-13
 -1      1551 1.99793E+01 1.94879E-05 4.05559E-05-1.10067E-03 2.12601E-13-7.84548E-13
 -1      1552 1.99779E+01 1.27976E-04 6.49136E-05-1.02621E-03 5.94039E-14-5.99410E-13
 -1      1553 1.99819E+01 8.56549E-05-4.23684E-05-1.66419E-03 2.81946E-14-6.47474E-13
 -1      1554 1.99819E+01-6.03125E-06 3.80504E-05-1.17037E-03 1.36253E-13-1.01595E-12
 -1      1555 1.99803E+01 6.31495E-05 5.07010E-05-1.13459E-03 1.46716E-13-8.44610E-13
 -1      1556 1.99834E+01 1.53152E-06-2.87704E-05-2.03495E-03 1.42747E-13-7.60949E-13
 -1      1557 1.99846E+01-2.10064E-05 3.41462E-05-1.13790E-03-9.87138E-14-1.04891E-12
 -1      1558 1.99830E+01 2.01564E-05 3.89623E-05-1.12766E-03 3.51083E-14-1.05354E-12
 -1      1559 1.99854E+01-4.91499E-05-1.87536E-05-2.12852E-03 5.24623E-14-7.47603E-13
 -1      1560 1.99872E+01-2.86862E-05 2.96386E-05-1.04601E-03-3.07296E-15-7.84686E-13
 -1      1561 1.99857E+01-6.99190E-06 2.94422E-05-1.05179E-03-1.51151E-13-1.06361E-12
 -1      1562 1.99875E+01-7.65271E-05-1.15288E-05-2.04946E-03-1.56328E-13-9.80479E-13
 -1      1563 1.99896E+01-3.14815E-05 2.50460E-05-9.24201E-04 4.41999E-14-1.04960E-12
 -1      1564 1.99882E+01-2.28818E-05 2.18514E-05-9.39254E-04 1.68286E-13-8.34779E-13
 -1      1565 1.99896E+01-8.81411E-05-6.44609E-06-1.87156E-03 8.83917E-14-1.03207E-12
 -1      1566 1.99917E+01-3.11521E-05 2.06876E-05-7.92158E-04 3.39437E-14-1.25127E-12
 -1      1567 1.99905E+01-3.09781E-05 1.58973E-05-8.11830E-04-7.11347E-15-1.18096E-12
 -1      1568 1.99915E+01-8.95159E-05-2.97896E-06-1.64552E-03 1.03608E-13-9.40778E-13
 -1      1569 1.99935E+01-2.89572E-05 1.67430E-05-6.62405E-04 9.99880E-14-1.55995E-12
 -1      1570 1.99925E+01-3.38589E-05 1.13028E-05-6.83590E-04 1.01852E-13-1.33552E-12
 -1      1571 1.99931E+01-8.46242E-05-7.08069E-07-1.40496E-03 1.60085E-13-1.21203E-12
 -1      1572 1.99949E+01-2.57771E-05 1.32956E-05-5.42351E-04 3.44288E-14-1.58110E-12
 -1      1573 1.99941E+01-3.34099E-05 7.81646E-06-5.63079E-04 3.61738E-14-1.46776E-12
 -1      1574 1.99946E+01-7.62603E-05 6.95430E-07-1.17106E-03 1.29217E-15-1.25511E-12
 -1      1575 1.99962E+01-2.22098E-05 1.03658E-05-4.35843E-04-9.99706E-14-1.18155E-12
 -1      1576 1.99955E+01-3.09840E-05 5.21715E-06-4.54953E-04-9.12940E-14-1.43863E-12
 -1      1577 1.99958E+01-6.63366E-05 1.48563E-06-9.56180E-04-1.64649E-13-1.15800E-12
 -1      1578 1.99971E+01-1.86484E-05 7.93493E-06-3.44305E-04 3.11254E-14-1.20182E-12
 -1      1579 1.99966E+01-2.75323E-05 3.31544E-06-3.61206E-04 9.70521E-15-1.16278E-12
 -1      1580 1.99968E+01-5.61182E-05 1.85632E-06-7.66518E-04-2.99036E-14-1.13025E-12
 -1      1581 1.99979E+01-1.53413E-05 5.96348E-06-2.67576E-04 7.14590E-14-1.35679E-12
 -1      1582 1.99975E+01-2.37096E-05 1.95275E-06-2.82068E-04 1.58200E-13-1.14325E-12
 -1      1583 1.99976E+01-4.64072E-05 1.95431E-06-6.04113E-04 1.06977E-13-9.34177E-13
 -1      1584 1.99985E+01-1.24410E-05 4.40673E-06-2.04485E-04-2.65209E-13-9.86662E-13
 -1      1585 1.99982E+01-1.99616E-05 1.00024E-06-2.16635E-04-2.45729E-13-1.28748E-12
 -1      1586 1.99982E+01-3.76872E-05 1.89217E-06-4.68280E-04-1.72659E-13-9.35881E-13
 -1      1587 1.99989E+01-1.00431E-05 3.23075E-06-1.53231E-04-1.35999E-13-5.43283E-13
 -1      1588 1.99987E+01-1.65964E-05 3.59467E-07-1.63294E-04-1.46594E-13-8.24081E-13
 -1      1589 1.99987E+01-3.02391E-05 1.76142E-06-3.56593E-04-3.73832E-13-5.84563E-13
 -1      1590 1.99993E+01-8.21312E-06 2.43265E-06-1.11605E-04-5.65147E-14-4.59367E-13
 -1      1591 1.99991E+01-1.38429E-05-3.17371E-08-1.19984E-04-5.33939E-14-5.30300E-13
 -1      1592 1.99991E+01-2.42305E-05 1.64816E-06-2.65525E-04-1.97287E-13-6.10469E-13
 -1      1593 1.99995E+01-6.97117E-06 2.04556E-06-7.71447E-05-7.91861E-14-2.55634E-13
 -1      1594 1.99994E+01-1.18670E-05-1.86398E-07-8.43656E-05-4.77818E-14-3.90650E-13
 -1      1595 1.99994E+01-1.97615E-05 1.64578E-06-1.90857E-04-1.06654E-13-5.22517E-13
 -1      1596 1.99997E+01-6.29648E-06 1.99707E-06-4.73649E-05-1.01833E-14-1.30115E-13
 -1      1597 1.99996E+01-1.07512E-05-9.29839E-08-5.40473E-05-1.11845E-13-1.61242E-13
 -1      1598 1.99996E+01-1.68492E-05 1.82608E-06-1.28094E-04-1.92620E-13-3.67117E-13
 -1      1599 1.99998E+01-5.97316E-06 1.52628E-06-2.00305E-05 8.44879E-15-3.16397E-13
 -1      1600 1.99997E+01-1.03525E-05 5.91043E-08-2.70141E-05 1.92515E-13-2.29854E-13
 -1      1601 1.99997E+01-1.55252E-05 1.97005E-06-7.32471E-05 1.66677E-13-6.29487E-14
 -1      1602 1.99998E+01-4.18756E-06-2.01570E-06 2.26415E-06 7.84370E-14-3.81007E-13
 -1      1603 1.99998E+01-8.30592E-06-5.91706E-07-3.82483E-06 1.28426E-13-2.13047E-13
 -1      1604 1.99998E+01-1.27873E-05 1.42623E-06-2.47040E-05 1.76135E-13 7.09008E-14
 -1      1605 1.99998E+01 2.97692E-06-4.02645E-06 5.98887E-06-3.13595E-13-3.81467E-13
 -1      1606 1.99998E+01-1.78172E-05 1.25787E-06-1.33367E-05 6.19098E-13 2.58753E-13
 -1      1607 1.99998E+01-8.81782E-06-1.29326E-06-7.74591E-06 2.05584E-14 4.17230E-13
 -1      1608 1.99998E+01-9.18936E-05 1.32524E-06-3.91134E-05 6.84082E-13-1.91454E-13
 -1      1609 1.99998E+01-5.18574E-05 9.03813E-07-3.39936E-05 7.81380E-13-1.95245E-13
 -1      1610 1.99998E+01-6.67607E-05 1.79721E-06-4.86440E-05 3.18818E-13 1.17217E-13
 -1      1611 1.99998E+01-2.06852E-04 7.77508E-07-5.82504E-05 3.92383E-13-5.25444E-14
 -1      1612 1.99998E+01-1.42334E-04 8.83652E-07-5.51269E-05 5.28110E-13 1.13612E-13
 -1      1613 1.99998E+01-1.51585E-04 2.05436E-06-9.29209E-05 1.89723E-13-1.36111E-13
 -1      1614 1.99998E+01-3.43246E-04 2.88786E-07-6.58618E-05 2.79621E-13-1.50687E-13
 -1      1615 1.99998E+01-2.67459E-04 4.74949E-07-6.53064E-05 3.65765E-13 1.45680E-13
 -1      1616 1.99998E+01-2.63581E-04 8.54854E-07-1.20440E-04 9.26654E-14-5.43473E-14
 -1      1617 1.99998E+01-4.74847E-04 2.78781E-08-6.14794E-05-4.59667E-13-4.91717E-13
 -1      1618 1.99998E+01-4.03468E-04 1.61140E-07-6.32400E-05 1.25145E-13-6.11022E-13
 -1      1619 1.99998E+01-3.85111E-04-5.26467E-07-1.25348E-04 8.85454E-15-6.39688E-13
 -1      1620 1.99998E+01-5.83687E-04-1.10776E-07-4.64462E-05-8.23035E-13 7.54830E-14
 -1      1621 1.99998E+01-5.27226E-04-2.87669E-08-5.01600E-05-6.99523E-13-8.53851E-14
 -1      1622 1.99998E+01-4.98002E-04-1.73603E-06-1.08252E-04-1.55825E-13-6.36056E-13
 -1      1623 1.99998E+01-6.49303E-04-1.60998E-07-2.36974E-05-7.00137E-13-3.29218E-14
 -1      1624 1.99998E+01-6.18652E-04-1.19396E-07-2.86413E-05-7.73131E-13 2.13287E-13
 -1      1625 1.99998E+01-5.85346E-04-2.63079E-06-7.27665E-05-3.24020E-13 5.19934E-14
 -1      1626 1.99998E+01-6.61222E-04-1.60383E-07 2.88703E-06-6.17447E-13 7.65014E-14
 -1      1627 1.99998E+01-6.61460E-04-1.60344E-07-2.47685E-06-7.44691E-13 2.24216E-13
 -1      1628 1.99998E+01-6.32453E-04-3.09861E-06-2.53594E-05-2.60788E-13 8.75630E-14
 -1      1629 1.99998E+01-6.17590E-04-1.14115E-07 2.90081E-05-8.37272E-13-1.30947E-13
 -1      1630 1.99998E+01-6.48687E-04-1.61013E-07 2.40801E-05-7.56776E-13-3.01397E-14
 -1      1631 1.99998E+01-6.32071E-04-3.09391E-06 2.61315E-05-4.64728E-13-5.15838E-14
 -1      1632 1.99998E+01-5.25515E-04-8.91372E-09 5.04163E-05-1.13992E-12-3.90918E-13
 -1      1633 1.99998E+01-5.82316E-04-1.20791E-07 4.67438E-05-6.67755E-13-4.17351E-13
 -1      1634 1.99998E+01-5.84268E-04-2.61206E-06 7.34154E-05-6.08887E-13-2.35381E-13
 -1      1635 1.99998E+01-4.02518E-04 1.57442E-07 6.32561E-05-1.15388E-12 3.27601E-14
 -1      1636 1.99998E+01-4.74000E-04 2.31076E-08 6.15239E-05-1.08645E-12-1.25987E-13
 -1      1637 1.99998E+01-4.97308E-04-1.74194E-06 1.08494E-04-5.25770E-13-4.06258E-13
 -1      1638 1.99998E+01-2.65424E-04 4.65179E-07 6.52355E-05-1.33170E-12-1.34932E-14
 -1      1639 1.99998E+01-3.41144E-04 2.99027E-07 6.58368E-05-1.25038E-12 1.15764E-13
 -1      1640 1.99998E+01-3.84233E-04-5.10935E-07 1.25373E-04-5.74601E-13-3.56839E-14
 -1      1641 1.99998E+01-1.40428E-04 9.96948E-07 5.48871E-05-9.39616E-13 2.91303E-13
 -1      1642 1.99998E+01-2.04908E-04 7.67009E-07 5.79853E-05-1.24723E-12 3.08059E-13
 -1      1643 1.99998E+01-2.61661E-04 8.67770E-07 1.20165E-04-5.11113E-13 2.26244E-13
 -1      1644 1.99998E+01-5.17364E-05 3.54375E-07 3.41712E-05-6.72477E-13 1.39703E-13
 -1      1645 1.99998E+01-9.09331E-05 1.38738E-06 3.94900E-05-8.48428E-13 1.79316E-13
 -1      1646 1.99998E+01-1.50664E-04 2.04563E-06 9.22393E-05-4.90815E-13 3.23466E-13
 -1      1647 1.99998E+01-2.00085E-05-1.46889E-06 1.62472E-05-4.00690E-13-2.43119E-14
 -1      1648 1.99998E+01-3.09191E-05 1.22295E-06 2.40445E-05-4.65353E-13 9.62954E-14
 -1      1649 1.99998E+01-8.22613E-05 4.05077E-07 6.19412E-05-2.45791E-13 3.07131E-13
 -1      1650 1.99998E+01-4.22208E-05-1.34751E-06 3.67033E-05 3.19742E-15 1.43965E-13
 -1      1651-3.51517E-01-1.08240E+01-1.64742E+00-6.23959E-01 2.34918E-12 1.16712E-12
 -1      1652-3.79153E-01-1.27680E+01-1.83600E+00 3.28103E-01 1.04643E-12 7.42351E-13
 -1      1653 2.66951E+00-4.38294E+00-1.01697E+00 2.17389E+00 3.37175E-12 2.08189E-12
 -1      1654 1.49334E+00-9.03049E+00-1.51061E+00 1.09685E+00 2.49245E-12 1.40835E-12
 -1      1655 8.83801E+00 2.00864E+00-4.28673E-01 6.23104E+00 3.93063E-12 3.10751E-12
 -1      1656 5.39799E+00-2.83969E+00-1.14550E+00 3.32531E+00 3.67251E-12 2.33180E-12
 -1      1657 1.91477E+01 6.53887E+00 2.71984E-01 1.10316E+01 3.58213E-12 3.54927E-12
 -1      1658 1.23572E+01 3.81754E+00-6.02617E-01 7.45372E+00 4.08307E-12 3.29581E-12
 -1      1659 3.45621E+01 6.36152E+00 1.04790E+00 1.25189E+01 2.21456E-12 2.60425E-12
 -1      1660 2.51900E+01 6.43776E+00 2.02277E-01 1.09435E+01 3.04357E-12 3.05578E-12
 -1      1661 4.73466E+01 5.31519E+00 1.75626E+00 1.05858E+01 1.32106E-12 1.33871E-12
 -1      1662 3.93544E+01 7.07871E+00 1.10325E+00 1.25723E+01 2.00329E-12 2.44493E-12
 -1      1663 5.35730E+01 3.57155E+00 1.88675E+00 4.09263E+00 8.24285E-13-6.32827E-13
 -1      1664 5.04140E+01 4.99081E+00 1.76401E+00 9.02071E+00 1.08541E-12 8.03746E-13
 -1      1665 4.91715E+01 3.82181E+00 1.40132E+00-3.15925E+00 1.37584E-12-2.68208E-12
 -1      1666 5.21952E+01 3.66833E+00 1.72394E+00 1.90618E+00 1.06526E-12-1.22591E-12
 -1      1667 3.95828E+01 4.46294E+00 7.93419E-01-8.34280E+00 2.30216E-12-4.44245E-12
 -1      1668 4.74216E+01 3.26202E+00 1.47595E+00-5.58356E+00 1.54044E-12-3.44336E-12
 -1      1669 2.57908E+01 4.15149E+00-1.26720E-01-8.27899E+00 3.43814E-12-4.79095E-12
 -1      1670 3.49629E+01 3.92322E+00 7.63396E-01-8.97542E+00 2.64078E-12-4.55114E-12
 -1      1671 1.35671E+01 2.51503E+00-8.56837E-01-6.03925E+00 4.26104E-12-4.48430E-12
 -1      1672 2.03666E+01 4.01816E+00-1.03347E-01-8.62775E+00 3.78653E-12-4.93305E-12
 -1      1673 5.17861E+00-4.55473E-01-1.25877E+00-2.73277E+00 4.37972E-12-3.41066E-12
 -1      1674 8.76874E+00 2.35557E+00-7.85062E-01-5.20228E+00 4.51061E-12-4.30278E-12
 -1      1675 1.25210E+00-3.32505E+00-1.25482E+00-4.99887E-01 3.54028E-12-2.11479E-12
 -1      1676 2.24921E+00-8.90074E-01-1.11121E+00-1.43064E+00 4.34308E-12-3.02980E-12
 -1      1677 7.99230E-02-4.44835E+00-9.81932E-01 8.74159E-02 1.64686E-12-1.20520E-12
 -1      1678 2.36971E-01-3.35098E+00-1.01017E+00 2.07003E-01 2.91700E-12-1.79767E-12
 -1      1679-2.10315E-01-4.42076E+00-8.99160E-01 1.67796E-01-2.82108E-13-8.25312E-13
 -1      1680-3.03174E-01-4.94559E+00-9.90481E-01 7.91733E-01 1.19835E-12-9.03777E-13
 -1      1681 8.17388E-01-1.27666E+00-7.13585E-01 1.17600E+00-2.11925E-12-1.51179E-12
 -1      1682 3.97888E-01-3.35190E+00-8.45210E-01 1.00454E+00-7.37216E-13-1.03517E-12
 -1      1683 4.03676E+00 1.90931E+00-6.28050E-01 3.53281E+00-3.35254E-12-2.53267E-12
 -1      1684 2.52883E+00-6.54965E-01-8.33476E-01 2.23985E+00-2.50472E-12-1.71946E-12
 -1      1685 9.33762E+00 5.00706E+00-4.63983E-01 6.71762E+00-4.18765E-12-3.82500E-12
 -1      1686 6.02901E+00 2.62439E+00-8.70938E-01 4.44863E+00-3.97737E-12-2.97168E-12
 -1      1687 1.89703E+01 6.32609E+00 8.27563E-03 1.00312E+01-3.75311E-12-4.56768E-12
 -1      1688 1.31733E+01 5.21140E+00-5.96330E-01 7.71037E+00-4.11027E-12-4.09806E-12
 -1      1689 3.18393E+01 5.65059E+00 6.70569E-01 1.10361E+01-2.73348E-12-4.51117E-12
 -1      1690 2.37264E+01 6.22304E+00-5.57270E-02 1.02314E+01-3.49776E-12-4.64295E-12
 -1      1691 4.38699E+01 3.84279E+00 1.24365E+00 7.68088E+00-1.58894E-12-3.32667E-12
 -1      1692 3.64865E+01 5.35338E+00 6.61232E-01 9.96559E+00-2.34876E-12-4.24250E-12
 -1      1693 4.97922E+01 3.23749E+00 1.53379E+00 6.16570E-01-9.45244E-13-1.40005E-12
 -1      1694 4.62657E+01 3.87403E+00 1.21522E+00 5.16882E+00-1.32483E-12-2.66709E-12
 -1      1695 4.88827E+01 4.28312E+00 1.59093E+00-7.17099E+00-9.63785E-13 6.74794E-13
 -1      1696 5.09621E+01 3.22739E+00 1.64450E+00-1.89965E+00-7.66942E-13-7.58074E-13
 -1      1697 3.84306E+01 6.60216E+00 1.06601E+00-1.16458E+01-1.68650E-12 2.25364E-12
 -1      1698 4.58144E+01 4.71955E+00 1.55722E+00-9.03910E+00-1.08774E-12 1.22757E-12
 -1      1699 2.49012E+01 7.55165E+00 3.94354E-01-1.19147E+01-2.72249E-12 3.09308E-12
 -1      1700 3.38411E+01 6.96546E+00 1.16171E+00-1.30807E+01-1.97953E-12 2.80020E-12
 -1      1701 1.29195E+01 4.49927E+00-4.02731E-01-7.84482E+00-3.34510E-12 2.88525E-12
 -1      1702 1.98332E+01 6.93493E+00 4.73309E-01-1.12899E+01-2.98184E-12 3.22098E-12
 -1      1703 5.10799E+00-1.85199E+00-1.09538E+00-3.30757E+00-3.11939E-12 2.10926E-12
 -1      1704 8.73816E+00 3.01527E+00-3.11957E-01-6.44825E+00-3.41560E-12 2.73770E-12
 -1      1705 1.41582E+00-8.76557E+00-1.53519E+00-9.81704E-01-1.39233E-12 1.18761E-12
 -1      1706 2.63054E+00-3.79414E+00-9.81065E-01-2.16391E+00-2.59803E-12 1.94469E-12
 -1      1707-2.67866E-01-1.25097E+01-1.78552E+00-5.01464E-01 4.85528E-13 6.64802E-13
 -1      1708-1.78926E-01-1.02190E+01-1.54900E+00 2.98489E-01-9.34031E-13 9.59510E-13
 -1      1709 2.65590E+01 2.23901E+00 4.02697E-01 7.94864E+00 2.13901E-12 1.48159E-12
 -1      1710 1.57847E+01-9.56290E-01-2.88207E-01 7.41618E+00 2.19746E-12 1.96482E-12
 -1      1711 1.99998E+01 1.62699E-06-9.98349E-07 3.82622E-06-1.44844E-13 3.27370E-13
 -1      1712 1.99998E+01-2.51630E-05-4.77271E-07-1.31424E-05 2.27923E-13 5.67979E-13
 -1      1713 1.57386E+00-6.44319E+00-9.90487E-01 3.10883E+00 1.34337E-12 1.74380E-12
 -1      1714 7.63860E+00-4.26467E+00-7.17937E-01 5.74653E+00 1.66256E-12 1.83557E-12
 -1      1715-7.51140E-01-7.98920E+00-1.27637E+00-2.16888E-01 5.56687E-13 1.49536E-12
 -1      1716 3.62082E+01 4.81011E+00 8.81564E-01 6.65726E+00 1.87686E-12 8.42548E-13
 -1      1717 4.37531E+01 6.95069E+00 1.48087E+00 5.38613E+00 1.74294E-12 2.12053E-13
 -1      1718 4.50706E+01 7.35003E+00 1.43250E+00 2.67325E+00 1.74150E-12-7.40623E-13
 -1      1719 4.25890E+01 6.00148E+00 1.18735E+00-4.94773E-01 1.96160E-12-1.68998E-12
 -1      1720 3.63306E+01 3.39411E+00 7.10939E-01-3.06305E+00 2.16062E-12-2.47691E-12
 -1      1721 2.67794E+01 9.83622E-01 1.19199E-01-4.80099E+00 2.35856E-12-2.79043E-12
 -1      1722 1.60043E+01-2.60046E-01-4.09950E-01-5.33796E+00 2.57572E-12-2.99094E-12
 -1      1723 7.02362E+00-1.07608E+00-7.54026E-01-3.87701E+00 2.53031E-12-2.71085E-12
 -1      1724 1.89295E+00-1.46311E+00-7.53279E-01-1.85403E+00 1.74288E-12-2.21606E-12
 -1      1725-1.16534E-01-1.69554E+00-6.51644E-01-1.73774E-01 9.30984E-13-1.83320E-12
 -1      1726 1.85365E-01-1.05953E+00-5.56390E-01 1.61306E+00-7.96030E-14-1.75751E-12
 -1      1727 3.24470E+00 2.60262E-01-4.44980E-01 3.60521E+00-7.74658E-13-1.93467E-12
 -1      1728 8.06593E+00 1.12137E+00-4.98968E-01 5.28424E+00-1.66672E-12-2.24062E-12
 -1      1729 1.51884E+01 2.41731E+00-2.80899E-01 6.77269E+00-2.42967E-12-2.75385E-12
 -1      1730 2.44219E+01 3.50532E+00 1.38084E-01 7.13672E+00-2.43167E-12-2.91134E-12
 -1      1731 3.38730E+01 4.64535E+00 6.67103E-01 5.82121E+00-2.17965E-12-2.69929E-12
 -1      1732 4.05813E+01 5.89551E+00 1.07696E+00 2.57493E+00-1.85146E-12-1.89126E-12
 -1      1733 4.35374E+01 6.88572E+00 1.33646E+00-1.27494E+00-1.58584E-12-9.49976E-13
 -1      1734 4.19172E+01 6.80660E+00 1.32220E+00-4.50864E+00-1.48714E-12 5.57332E-14
 -1      1735 3.53393E+01 5.71378E+00 1.01813E+00-7.21406E+00-1.55483E-12 9.24594E-13
 -1      1736 2.58122E+01 3.40941E+00 4.87337E-01-8.42537E+00-1.80150E-12 1.60183E-12
 -1      1737 1.56759E+01 2.94466E-03-1.62133E-01-7.44000E+00-1.79412E-12 1.77336E-12
 -1      1738 7.36376E+00-3.79340E+00-6.97848E-01-5.52004E+00-1.18439E-12 1.81018E-12
 -1      1739 1.63492E+00-6.50250E+00-1.02965E+00-3.14841E+00-3.39562E-13 1.72873E-12
 -1      1740 2.50873E+01 4.94634E+00-8.49437E-02-5.45290E+00-4.89608E-13 5.54903E-13
 -1      1741 2.67947E+01 1.29042E+00-1.49008E-01-3.08664E+00-5.18099E-13 2.20118E-12
 -1      1742 2.37311E+01 3.67235E+00-4.03232E-02-3.34560E+00-4.10423E-13-7.76906E-13
 -1      1743 2.37345E+01 3.72060E+00-7.43948E-02-3.77355E+00-5.79470E-13-6.45581E-13
 -1      1744 2.38706E+01 3.53323E+00-5.03288E-02-3.94350E+00-6.35636E-13-4.19331E-13
 -1      1745 2.41545E+01 3.28965E+00-7.42947E-02-4.21978E+00-7.68250E-13-4.02733E-14
 -1      1746 2.41043E+01 2.81551E+00 3.22720E-03-3.72164E+00-6.69069E-13-4.21455E-13
 -1      1747 2.30806E+01 2.59050E+00-1.11128E-03-1.14844E+00 2.78562E-13-7.30555E-13
 -1      1748 2.34990E+01 2.89680E+00-5.40641E-02-1.83733E+00 7.58629E-14-7.86773E-13
 -1      1749 2.09620E+01 1.92427E+00 6.80818E-03 6.86917E-01 6.90115E-13-6.45636E-13
 -1      1750 2.22881E+01 2.15141E+00-2.37409E-02-1.72317E-01 4.80047E-13-6.94139E-13
 -1      1751 2.33847E+01 1.64478E+00-1.42965E-02-9.93782E-01 3.27907E-13-5.38292E-13
 -1      1752 1.63739E+01 1.96912E+00 2.71989E-03 2.69364E+00 1.00665E-12-7.36883E-13
 -1      1753 1.90125E+01 1.90338E+00 4.84882E-02 1.93215E+00 8.74842E-13-7.28119E-13
 -1      1754 2.07161E+01 1.04521E+00-3.45552E-02 1.24993E+00 7.50861E-13-5.37161E-13
 -1      1755 1.04293E+01 2.97383E+00 9.20307E-03 3.58931E+00 1.00837E-12-1.01874E-12
 -1      1756 1.34887E+01 2.64401E+00 1.30228E-01 3.44893E+00 1.05306E-12-9.49518E-13
 -1      1757 1.55360E+01 1.47845E+00 1.11608E-02 3.47425E+00 9.93691E-13-8.01630E-13
 -1      1758 5.11437E+00 4.20266E+00 4.06247E-02 2.50047E+00 6.13960E-13-1.36738E-12
 -1      1759 7.34196E+00 3.89053E+00 1.49663E-01 3.17444E+00 8.81559E-13-1.30371E-12
 -1      1760 8.78679E+00 2.87268E+00 9.24958E-02 4.01472E+00 9.02223E-13-1.34832E-12
 -1      1761 8.49840E+00 3.78287E+00 1.56583E-01-1.49094E+00-3.28571E-13-1.25117E-12
 -1      1762 5.97274E+00 4.09094E+00 3.81702E-02-9.88589E-01-1.29619E-13-1.32802E-12
 -1      1763 1.54759E+01 2.47029E+00 1.33965E-01-1.37577E+00-4.49071E-13-8.24139E-13
 -1      1764 1.18312E+01 2.70283E+00-1.96710E-02-1.71247E+00-4.51889E-13-9.78925E-13
 -1      1765 1.02500E+01 2.65189E+00 7.64483E-02-2.09044E+00-3.51358E-13-1.20376E-12
 -1      1766 2.15628E+01 1.90737E+00 2.08262E-02 5.23740E-01-2.06446E-13-3.54036E-13
 -1      1767 1.87414E+01 1.82855E+00-8.75495E-03-4.02057E-01-3.84248E-13-5.31450E-13
 -1      1768 1.76575E+01 1.20028E+00-8.29399E-03-1.08525E+00-4.11109E-13-6.00811E-13
 -1      1769 2.55647E+01 2.28428E+00-7.84899E-02 2.68786E+00 1.62835E-13 1.03917E-13
 -1      1770 2.38094E+01 2.02783E+00-4.21362E-03 1.73113E+00-4.27020E-14-1.24199E-13
 -1      1771 2.34163E+01 9.68343E-01-2.03472E-02 1.32088E+00-1.17698E-13-8.18581E-14
 -1      1772 2.85915E+01 2.46913E+00-1.28114E-01 4.08771E+00 4.28300E-13 8.21065E-13
 -1      1773 2.71159E+01 2.52197E+00-3.81098E-02 3.46341E+00 2.88915E-13 4.00825E-13
 -1      1774 2.70141E+01 1.40423E+00-5.53807E-03 3.26592E+00 2.41210E-13 4.09686E-13
 -1      1775 3.08494E+01 1.07234E+00-1.80934E-01 3.61326E+00 4.74593E-13 1.80585E-12
 -1      1776 2.96225E+01 2.27680E+00 2.25831E-02 4.10278E+00 4.49297E-13 1.17999E-12
 -1      1777 2.89733E+01 1.14459E+00-3.36930E-02 3.78774E+00 4.70233E-13 9.80188E-13
 -1      1778 2.96790E+01 4.22605E-01-8.77752E-02 2.99943E+00 4.81615E-13 1.70333E-12
 -1      1779 2.53818E+01 2.04160E+00 4.57820E-02-3.96696E+00-7.12326E-13 9.39665E-13
 -1      1780 2.78183E+01-4.87791E-02-5.44175E-03 2.82953E+00 4.12132E-13 1.57731E-12
 -1      1781 2.90550E+01-1.78575E-02-3.30840E-02 2.87084E+00 3.92651E-13 1.67135E-12
 -1      1782 2.89894E+01 3.10307E-01 1.00415E-02 3.49011E+00 4.33535E-13 1.28857E-12
 -1      1783 2.31411E+01 5.76845E-01 2.50775E-02-2.05431E+00-5.88186E-13 3.40873E-13
 -1      1784 2.23507E+01 4.96992E-01 1.59530E-02-1.67051E+00-5.13860E-13 1.94126E-13
 -1      1785 2.18901E+01 4.71098E-01 2.98316E-02-1.31300E+00-4.66297E-13 1.70203E-13
 -1      1786 2.14298E+01 4.72342E-01 2.54933E-02-1.02517E+00-4.21281E-13 3.02952E-14
 -1      1787 2.27136E+01 7.58152E-01-6.70927E-03-1.96128E+00-5.78076E-13-5.77281E-14
 -1      1788 2.11002E+01 4.88303E-01 2.42441E-02-6.54038E-01-3.86587E-13-2.06402E-14
 -1      1789 2.08775E+01 4.85098E-01 2.00453E-02-3.67489E-01-3.53545E-13-1.41454E-13
 -1      1790 2.19061E+01 7.21633E-01-1.52046E-02-1.13201E+00-4.89807E-13-1.67365E-13
 -1      1791 2.07307E+01 4.60360E-01 2.13927E-02-6.79825E-03-3.25038E-13-1.98976E-13
 -1      1792 2.07146E+01 4.00361E-01 1.07695E-02 2.43762E-01-2.78711E-13-2.98297E-13
 -1      1793 2.14358E+01 6.95490E-01-1.71581E-02-3.00638E-01-4.17275E-13-3.07161E-13
 -1      1794 2.07308E+01 3.20453E-01 1.82129E-02 5.15012E-01-2.72752E-13-3.49553E-13
 -1      1795 2.08664E+01 2.15019E-01 2.50810E-03 6.70624E-01-2.09930E-13-4.16524E-13
 -1      1796 2.13108E+01 5.30325E-01-1.21411E-02 4.16840E-01-3.40540E-13-4.31501E-13
 -1      1797 2.09695E+01 1.12083E-01 1.13522E-02 7.92143E-01-1.49507E-13-4.41784E-13
 -1      1798 2.11825E+01 5.81057E-03-1.99496E-03 8.27375E-01-8.16785E-14-4.52327E-13
 -1      1799 2.14327E+01 2.47426E-01-3.29176E-03 8.57256E-01-2.15038E-13-5.08372E-13
 -1      1800 2.12873E+01-7.84055E-02 2.13392E-03 8.00883E-01-9.87079E-14-4.90542E-13
 -1      1801 2.15026E+01-1.48117E-01-3.22783E-03 7.37004E-01-9.14269E-14-5.06415E-13
 -1      1802 2.16402E+01-4.35056E-02 3.56528E-03 9.57007E-01-1.18716E-13-5.51544E-13
 -1      1803 2.15566E+01-1.91461E-01-5.76921E-03 6.14542E-01-1.37751E-13-4.97232E-13
 -1      1804 2.17202E+01-2.14456E-01-2.70190E-03 4.98724E-01-9.42579E-14-5.10406E-13
 -1      1805 2.17980E+01-2.42989E-01 5.88656E-03 7.83798E-01-1.09934E-13-5.78312E-13
 -1      1806 2.17113E+01-2.19494E-01-9.94451E-03 3.44147E-01-9.82747E-14-5.17966E-13
 -1      1807 2.17983E+01-2.07358E-01-1.75653E-03 2.21616E-01-9.11333E-14-5.50932E-13
 -1      1808 2.18443E+01-3.18193E-01 5.00957E-03 4.72425E-01-1.34098E-13-5.53161E-13
 -1      1809 2.17389E+01-1.88991E-01-1.04144E-02 8.18523E-02-1.14912E-13-6.00903E-13
 -1      1810 2.17499E+01-1.59833E-01-9.64176E-04-1.89002E-02-4.49779E-14-6.41533E-13
 -1      1811 2.17798E+01-2.95127E-01 3.03325E-03 1.46534E-01-1.39642E-13-5.98364E-13
 -1      1812 2.16591E+01-1.33060E-01-8.50926E-03-1.21295E-01 1.17874E-15-5.96403E-13
 -1      1813 2.16099E+01-1.01284E-01-3.89975E-04-1.89457E-01 2.35619E-14-5.94529E-13
 -1      1814 2.16346E+01-2.21069E-01 1.20480E-03-1.18867E-01-2.00996E-14-6.09122E-13
 -1      1815 2.15048E+01-7.58747E-02-5.67892E-03-2.50731E-01 5.28700E-14-5.91049E-13
 -1      1816 2.14162E+01-4.93276E-02 3.70207E-05-2.87486E-01 8.29152E-14-5.97259E-13
 -1      1817 2.14433E+01-1.35853E-01-6.44693E-05-2.96635E-01 4.95912E-14-5.26742E-13
 -1      1818 2.13089E+01-2.96430E-02-2.93441E-03-3.14037E-01 2.78270E-14-5.48783E-13
 -1      1819 2.12006E+01-1.08835E-02 3.62554E-04-3.26202E-01 4.21684E-15-5.57565E-13
 -1      1820 2.12341E+01-6.24320E-02-8.20271E-04-3.90806E-01 7.54684E-14-5.13670E-13
 -1      1821 2.10988E+01 2.28905E-03-7.68171E-04-3.27829E-01-1.06095E-14-5.34092E-13
 -1      1822 2.09861E+01 1.37010E-02 5.99782E-04-3.23435E-01-6.11513E-15-5.06389E-13
 -1      1823 2.10267E+01-9.19375E-03-1.22250E-03-4.19629E-01 3.37042E-14-5.37029E-13
 -1      1824 2.08942E+01 2.13044E-02 6.99732E-04-3.09535E-01 8.22617E-15-4.54168E-13
 -1      1825 2.07872E+01 2.70036E-02 7.51207E-04-2.95575E-01 5.84795E-14-3.96838E-13
 -1      1826 2.08334E+01 2.41688E-02-1.39917E-03-4.04278E-01 4.59188E-14-4.84840E-13
 -1      1827 2.07072E+01 3.05099E-02 1.54652E-03-2.73590E-01-9.50130E-15-4.78449E-13
 -1      1828 2.06121E+01 3.22951E-02 8.22979E-04-2.55267E-01-4.37371E-14-5.43185E-13
 -1      1829 2.06612E+01 4.16738E-02-1.43352E-03-3.63216E-01-1.87714E-14-4.68015E-13
 -1      1830 2.05445E+01 3.31007E-02 1.92226E-03-2.30411E-01-7.45397E-14-5.56849E-13
 -1      1831 2.04637E+01 3.24858E-02 8.28081E-04-2.11176E-01-1.25832E-13-6.03738E-13
 -1      1832 2.05130E+01 4.80803E-02-1.37775E-03-3.10301E-01-8.57684E-14-5.45560E-13
 -1      1833 2.04081E+01 3.16912E-02 1.98044E-03-1.86744E-01-1.69639E-13-4.67741E-13
 -1      1834 2.03420E+01 2.97889E-02 7.83917E-04-1.68646E-01-1.49171E-13-4.54359E-13
 -1      1835 2.03892E+01 4.75224E-02-1.26634E-03-2.54852E-01-9.22500E-14-4.34437E-13
 -1      1836 2.02973E+01 2.81731E-02 1.84804E-03-1.46482E-01-7.57812E-14-4.75148E-13
 -1      1837 2.02450E+01 2.57286E-02 7.08243E-04-1.30567E-01 2.21167E-14-5.03747E-13
 -1      1838 2.02883E+01 4.31019E-02-1.12377E-03-2.02504E-01-1.25241E-13-3.43571E-13
 -1      1839 2.02099E+01 2.37998E-02 1.61811E-03-1.11518E-01 4.04304E-14-5.45994E-13
 -1      1840 2.01697E+01 2.12729E-02 6.16360E-04-9.81743E-02-1.91179E-14-5.48428E-13
 -1      1841 2.02081E+01 3.69319E-02-9.68147E-04-1.56212E-01 9.63758E-15-4.19125E-13
 -1      1842 2.01427E+01 1.93382E-02 1.35286E-03-8.24516E-02-7.96135E-14-4.70621E-13
 -1      1843 2.01126E+01 1.69866E-02 5.19928E-04-7.16721E-02-1.78001E-14-4.46516E-13
 -1      1844 2.01457E+01 3.03403E-02-8.12618E-04-1.17136E-01 3.31947E-14-4.34010E-13
 -1      1845 2.00924E+01 1.52137E-02 1.09046E-03-5.91147E-02-1.55977E-14-5.00685E-13
 -1      1846 2.00705E+01 1.31617E-02 4.26927E-04-5.06747E-02 1.30876E-14-4.58858E-13
 -1      1847 2.00983E+01 2.40899E-02-6.66134E-04-8.53287E-02-4.02607E-14-3.51420E-13
 -1      1848 2.00557E+01 1.16279E-02 8.51871E-04-4.09300E-02 8.25674E-14-3.72512E-13
 -1      1849 2.00403E+01 9.91645E-03 3.42202E-04-3.45068E-02 1.76517E-13-2.98629E-13
 -1      1850 2.00631E+01 1.85650E-02-5.34157E-04-6.02168E-02 1.06185E-13-3.09856E-13
 -1      1851 2.00298E+01 8.64336E-03 6.46617E-04-2.71461E-02 1.61235E-13-3.30525E-13
 -1      1852 2.00194E+01 7.26528E-03 2.68196E-04-2.23912E-02 1.19094E-13-3.26939E-13
 -1      1853 2.00377E+01 1.39108E-02-4.19386E-04-4.09301E-02 1.50267E-13-2.46426E-13
 -1      1854 2.00121E+01 6.24266E-03 4.77108E-04-1.69794E-02 9.12715E-14-4.55339E-13
 -1      1855 2.00054E+01 5.16550E-03 2.05671E-04-1.35601E-02 3.67451E-14-4.67179E-13
 -1      1856 2.00198E+01 1.01312E-02-3.22492E-04-2.65055E-02 1.12703E-13-3.21086E-13
 -1      1857 2.00005E+01 4.36680E-03 3.41650E-04-9.69456E-03-7.08874E-14-4.35586E-13
 -1      1858 1.99965E+01 3.54731E-03 1.54293E-04-7.31445E-03-4.91848E-14-3.78255E-13
 -1      1859 2.00076E+01 7.15366E-03-2.42770E-04-1.60079E-02 1.09388E-14-3.85231E-13
 -1      1860 1.99934E+01 2.93935E-03 2.36451E-04-4.64370E-03-3.52478E-14-4.16030E-13
 -1      1861 1.99913E+01 2.33213E-03 1.13092E-04-3.05140E-03 1.26482E-14-3.56210E-13
 -1      1862 1.99997E+01 4.87080E-03-1.78681E-04-8.59428E-03-4.32807E-14-3.57835E-13
 -1      1863 1.99896E+01 1.88090E-03 1.56899E-04-1.28079E-03-3.89570E-14-4.23041E-13
 -1      1864 1.99887E+01 1.44320E-03 8.07841E-05-2.70470E-04-3.18668E-14-5.06161E-13
 -1      1865 1.99950E+01 3.16551E-03-1.28264E-04-3.54115E-03-5.59169E-14-3.54678E-13
 -1      1866 1.99879E+01 1.11702E-03 9.83168E-05 8.39050E-04-9.38273E-14-6.29301E-13
 -1      1867 1.99879E+01 8.11114E-04 5.59887E-05 1.43104E-03-1.38571E-13-6.25887E-13
 -1      1868 1.99924E+01 1.92519E-03-8.94279E-05-2.50241E-04-6.90547E-14-5.20679E-13
 -1      1869 1.99876E+01 5.82191E-04 5.63786E-05 2.06818E-03-5.22195E-14-5.49898E-13
 -1      1870 1.99881E+01 3.76231E-04 3.73659E-05 2.36862E-03-3.45475E-15-3.91535E-13
 -1      1871 1.99913E+01 1.04909E-03-6.01381E-05 1.75873E-03-9.07080E-14-4.88689E-13
 -1      1872 1.99882E+01 2.21157E-04 2.73094E-05 2.67874E-03-2.30662E-14-2.94689E-13
 -1      1873 1.99890E+01 8.91382E-05 2.36939E-05 2.78350E-03 5.60477E-15-2.96093E-13
 -1      1874 1.99912E+01 4.51233E-04-3.85337E-05 2.86144E-03 6.58043E-14-2.55651E-13
 -1      1875 1.99894E+01-1.11771E-05 7.94658E-06 2.87595E-03-1.15447E-13-2.52359E-13
 -1      1876 1.99903E+01-8.98993E-05 1.39061E-05 2.85578E-03-1.93711E-14-2.23140E-13
 -1      1877 1.99917E+01 6.08538E-05-2.29826E-05 3.34476E-03-6.00400E-14-2.47963E-13
 -1      1878 1.99907E+01-1.50617E-04-4.27633E-06 2.81084E-03-2.59849E-14-4.35899E-13
 -1      1879 1.99916E+01-1.92033E-04 7.10220E-06 2.71662E-03-5.78069E-14-4.54364E-13
 -1      1880 1.99925E+01-1.78671E-04-1.21009E-05 3.42266E-03-1.25137E-13-3.07458E-13
 -1      1881 1.99921E+01-2.24912E-04-1.13862E-05 2.59171E-03-6.49639E-14-3.75971E-13
 -1      1882 1.99930E+01-2.41123E-04 2.54236E-06 2.45895E-03 2.23459E-14-4.12608E-13
 -1      1883 1.99934E+01-3.11516E-04-4.74632E-06 3.25083E-03-6.76694E-14-2.30731E-13
 -1      1884 1.99934E+01-2.55081E-04-1.49457E-05 2.29394E-03 9.94675E-14-4.32645E-13
 -1      1885 1.99942E+01-2.55039E-04-3.67381E-07 2.14658E-03 1.54097E-13-3.50192E-13
 -1      1886 1.99944E+01-3.71359E-04 1.60414E-09 2.93953E-03 3.90917E-14-1.53453E-13
 -1      1887 1.99947E+01-2.56691E-04-1.61317E-05 1.96810E-03 1.84018E-13-4.23204E-13
 -1      1888 1.99953E+01-2.46858E-04-2.09427E-06 1.82151E-03 2.18017E-13-3.86648E-13
 -1      1889 1.99954E+01-3.83296E-04 2.86873E-06 2.56433E-03 2.05500E-13-1.93241E-13
 -1      1890 1.99957E+01-2.41001E-04-1.58100E-05 1.64648E-03 1.04320E-13-3.85726E-13
 -1      1891 1.99963E+01-2.25924E-04-2.99930E-06 1.50987E-03 3.97117E-14-3.76926E-13
 -1      1892 1.99962E+01-3.65605E-04 4.41597E-06 2.17493E-03 1.34312E-13-2.67079E-13
 -1      1893 1.99966E+01-2.15952E-04-1.46021E-05 1.34823E-03 1.69757E-14-2.64199E-13
 -1      1894 1.99971E+01-1.98733E-04-3.35708E-06 1.22645E-03-4.03082E-14-3.38327E-13
 -1      1895 1.99970E+01-3.31266E-04 5.06798E-06 1.80218E-03 1.53111E-14-3.54907E-13
 -1      1896 1.99974E+01-1.86984E-04-1.29408E-05 1.08327E-03-8.21186E-14-4.18871E-13
 -1      1897 1.99978E+01-1.69675E-04-3.37380E-06 9.78211E-04-9.39845E-14-5.06779E-13
 -1      1898 1.99976E+01-2.89255E-04 5.13949E-06 1.46349E-03-1.40508E-13-3.03055E-13
 -1      1899 1.99980E+01-1.57718E-04-1.11172E-05 8.55233E-04-6.21027E-14-4.30408E-13
 -1      1900 1.99983E+01-1.41623E-04-3.20253E-06 7.66826E-04 7.77530E-14-3.39279E-13
 -1      1901 1.99981E+01-2.45592E-04 4.85855E-06 1.16693E-03 3.62165E-15-1.92945E-13
 -1      1902 1.99985E+01-1.30482E-04-9.31704E-06 6.63585E-04 3.40939E-13-3.15589E-13
 -1      1903 1.99987E+01-1.16405E-04-2.95501E-06 5.90498E-04 3.29907E-13-1.29691E-13
 -1      1904 1.99986E+01-2.04193E-04 4.38507E-06 9.14305E-04 1.92980E-13-7.59631E-14
 -1      1905 1.99989E+01-1.06739E-04-7.64632E-06 5.05137E-04 1.83161E-13 8.27108E-14
 -1      1906 1.99991E+01-9.51592E-05-2.70377E-06 4.45242E-04 2.96068E-13 3.15224E-13
 -1      1907 1.99989E+01-1.67537E-04 3.82512E-06 7.03308E-04 4.19065E-13 1.18944E-13
 -1      1908 1.99992E+01-8.73791E-05-6.14503E-06 3.75064E-04 1.99958E-13 3.78018E-13
 -1      1909 1.99993E+01-7.85514E-05-2.47337E-06 3.25767E-04 1.46166E-13 4.48219E-13
 -1      1910 1.99992E+01-1.37137E-04 3.24898E-06 5.29081E-04 2.85131E-13 4.20353E-13
 -1      1911 1.99994E+01-7.28716E-05-4.79481E-06 2.67692E-04 1.53848E-14 4.88213E-13
 -1      1912 1.99995E+01-6.68723E-05-2.27106E-06 2.26251E-04 4.68833E-14 4.67139E-13
 -1      1913 1.99994E+01-1.13828E-04 2.68000E-06 3.85367E-04 1.23910E-13 3.77310E-13
 -1      1914 1.99996E+01-6.28979E-05-3.47852E-06 1.77111E-04 1.08126E-13 2.77562E-13
 -1      1915 1.99996E+01-5.89565E-05-2.00772E-06 1.41223E-04 1.55725E-13 3.33936E-13
 -1      1916 1.99995E+01-9.78280E-05 2.03206E-06 2.65587E-04-1.26268E-13 4.52449E-13
 -1      1917 1.99997E+01-5.47342E-05-2.56726E-06 1.01314E-04 1.86971E-13 2.36912E-13
 -1      1918 1.99997E+01-5.00756E-05-1.87713E-06 7.13896E-05 1.60024E-13 3.38907E-13
 -1      1919 1.99997E+01-6.55806E-05 1.49739E-06 8.65080E-05-1.68911E-14 3.95039E-13
 -1      1920 1.99997E+01-8.31724E-05 2.33127E-06 1.66454E-04 1.50403E-13 3.62934E-13
 -1      1921 2.59456E+01 3.23358E-01 1.68641E-02 2.68013E+00 4.64219E-13 1.32709E-12
 -1      1922 2.70424E+01 6.87516E-02-1.68846E-03 2.76170E+00 4.15390E-13 1.50059E-12
 -1      1923 2.74988E+01 6.49930E-02-6.85293E-03 3.37325E+00 4.59414E-13 1.22883E-12
 -1      1924 2.43617E+01 8.47236E-01-9.57599E-03 1.74211E+00 5.40092E-13 9.35686E-13
 -1      1925 2.52172E+01 6.04202E-01-7.75792E-04 2.20349E+00 4.94257E-13 1.14828E-12
 -1      1926 2.59629E+01 6.93993E-01-3.23610E-02 2.82625E+00 5.83228E-13 9.55143E-13
 -1      1927 2.35902E+01 9.41354E-01-4.46073E-02 1.51519E-01 5.88477E-13 3.95056E-13
 -1      1928 2.39793E+01 9.98805E-01 3.62193E-03 8.79180E-01 5.70946E-13 6.48547E-13
 -1      1929 2.48072E+01 1.31974E+00-4.35559E-02 1.37361E+00 7.09870E-13 4.89718E-13
 -1      1930 2.37813E+01 4.77804E-01-4.16788E-02-1.14221E+00 4.47219E-13-4.69035E-14
 -1      1931 2.36660E+01 7.88054E-01 8.80443E-03-5.80730E-01 5.40581E-13 1.78791E-13
 -1      1932 2.44274E+01 1.15757E+00-4.09772E-02-4.21920E-01 6.78659E-13 7.17460E-15
 -1      1933 2.44289E+01-1.17007E-01-9.06447E-03-1.46595E+00 2.06542E-13-2.94455E-13
 -1      1934 2.40342E+01 1.77105E-01 7.07655E-03-1.34074E+00 3.04054E-13-1.91298E-13
 -1      1935 2.46619E+01 4.08040E-01-9.61209E-03-1.48656E+00 4.28530E-13-3.46450E-13
 -1      1936 2.48874E+01-4.26739E-01 1.35817E-02-9.89047E-01 8.24089E-14-3.94062E-13
 -1      1937 2.45169E+01-3.10019E-01-5.30479E-03-1.19523E+00 1.83074E-13-3.01717E-13
 -1      1938 2.49248E+01-3.30183E-01 1.23201E-03-1.42548E+00 2.24297E-13-4.67220E-13
 -1      1939 2.49036E+01-4.25829E-01 1.87648E-02-2.48375E-01-3.68195E-14-3.84892E-13
 -1      1940 2.47426E+01-4.61363E-01-1.46952E-02-5.56225E-01 3.75915E-15-4.08658E-13
 -1      1941 2.48754E+01-6.37495E-01-3.34814E-03-7.04643E-01 5.71019E-14-5.29242E-13
 -1      1942 2.45392E+01-2.79024E-01 1.25007E-02 3.54635E-01 3.93071E-14-3.69750E-13
 -1      1943 2.46127E+01-3.69156E-01-1.53124E-02 1.05480E-01 1.60393E-14-3.35847E-13
 -1      1944 2.45053E+01-5.68665E-01-9.12353E-03 9.50875E-02-2.42341E-15-4.11755E-13
 -1      1945 2.39606E+01-1.23717E-01 4.81293E-03 6.94169E-01 9.50524E-14-3.68185E-13
 -1      1946 2.42016E+01-2.04821E-01-1.11115E-02 5.52999E-01 7.69107E-14-3.78832E-13
 -1      1947 2.39534E+01-3.45968E-01-9.78498E-03 6.58178E-01 9.44765E-14-3.86766E-13
 -1      1948 2.33108E+01-1.60331E-02 2.20559E-05 8.08806E-01 5.58210E-14-2.96224E-13
 -1      1949 2.36341E+01-6.75917E-02-5.57334E-03 7.59601E-01 8.00883E-14-3.02078E-13
 -1      1950 2.33437E+01-1.36322E-01-7.13981E-03 9.31703E-01 4.47446E-14-2.59281E-13
 -1      1951 2.26787E+01 4.18599E-02-1.86669E-03 7.82856E-01 5.66485E-15-2.89295E-13
 -1      1952 2.30181E+01 1.65650E-02-9.49170E-04 7.91663E-01 2.26871E-14-3.00116E-13
 -1      1953 2.27492E+01 1.11321E-03-4.27402E-03 9.87734E-01 2.08729E-14-1.66494E-13
 -1      1954 2.21113E+01 6.49702E-02-2.11820E-03 6.87902E-01-1.15765E-13-2.47362E-13
 -1      1955 2.24267E+01 5.68535E-02 2.08231E-03 7.25569E-01-8.63734E-14-2.60204E-13
 -1      1956 2.22077E+01 7.12138E-02-2.33789E-03 9.16970E-01-6.13545E-14-1.93584E-13
 -1      1957 2.16278E+01 6.82780E-02-1.71279E-03 5.70161E-01-9.97570E-14-2.07905E-13
 -1      1958 2.19002E+01 6.94760E-02 3.62736E-03 6.17706E-01-4.96356E-14-2.26924E-13
 -1      1959 2.17363E+01 9.64293E-02-1.31980E-03 7.88934E-01-7.20062E-14-2.69482E-13
 -1      1960 2.12304E+01 6.21197E-02-1.17294E-03 4.54677E-01 7.31236E-14-2.72944E-13
 -1      1961 2.14548E+01 6.74778E-02 4.10785E-03 5.01715E-01-7.10629E-14-2.49883E-13
 -1      1962 2.13398E+01 9.69717E-02-8.78349E-04 6.46594E-01-5.85231E-15-2.88023E-13
 -1      1963 2.09126E+01 5.24981E-02-7.07712E-04 3.52721E-01 1.79877E-13-1.44437E-13
 -1      1964 2.10914E+01 5.91141E-02 3.95343E-03 3.94505E-01 1.82841E-13-1.69151E-13
 -1      1965 2.10154E+01 8.62530E-02-7.22440E-04 5.12479E-01 1.14833E-13-1.01722E-13
 -1      1966 2.06640E+01 4.24767E-02-3.67616E-04 2.67816E-01 1.42127E-13-1.00561E-13
 -1      1967 2.08029E+01 4.89148E-02 3.48913E-03 3.02795E-01 1.63303E-13-6.92351E-14
 -1      1968 2.07558E+01 7.18544E-02-6.73488E-04 3.96195E-01 1.29594E-13 1.55061E-14
 -1      1969 2.04732E+01 3.34068E-02-1.41845E-04 1.99637E-01-4.38972E-15-2.53420E-13
 -1      1970 2.05789E+01 3.90675E-02 2.92054E-03 2.27862E-01 1.19279E-13-1.47740E-13
 -1      1971 2.05522E+01 5.75312E-02-6.44575E-04 3.00192E-01 1.43022E-13-3.00523E-14
 -1      1972 2.03292E+01 2.57433E-02-3.14711E-06 1.46232E-01-8.74713E-14-3.68476E-13
 -1      1973 2.04081E+01 3.04583E-02 2.35988E-03 1.68446E-01-1.08476E-13-3.75481E-13
 -1      1974 2.03953E+01 4.48613E-02-6.04355E-04 2.23421E-01 8.27712E-15-1.66304E-13
 -1      1975 2.02223E+01 1.95161E-02 7.49418E-05 1.05178E-01 1.62763E-14-4.22838E-13
 -1      1976 2.02803E+01 2.33173E-02 1.85921E-03 1.22336E-01-7.86155E-15-3.63222E-13
 -1      1977 2.02763E+01 3.43075E-02-5.48110E-04 1.63406E-01-1.64374E-14-3.44710E-13
 -1      1978 2.01443E+01 1.45792E-02 1.13208E-04 7.41095E-02 2.61127E-14-4.88495E-13
 -1      1979 2.01861E+01 1.75776E-02 1.43623E-03 8.71564E-02 5.22288E-14-4.83219E-13
 -1      1980 2.01877E+01 2.58191E-02-4.80956E-04 1.17317E-01 1.06417E-13-3.87834E-13
 -1      1981 2.00886E+01 1.07322E-02 1.26538E-04 5.09409E-02-2.33508E-14-4.44826E-13
 -1      1982 2.01181E+01 1.30593E-02 1.09105E-03 6.07191E-02 3.09139E-15-4.69799E-13
 -1      1983 2.01227E+01 1.91447E-02-4.09845E-04 8.24640E-02 1.05104E-14-3.67778E-13
 -1      1984 2.00496E+01 7.77503E-03 1.25059E-04 3.39215E-02-5.32116E-14-5.20873E-13
 -1      1985 2.00699E+01 9.55695E-03 8.15998E-04 4.11426E-02-7.82301E-14-4.09171E-13
 -1      1986 2.00760E+01 1.39811E-02-3.40495E-04 5.64948E-02-8.18089E-14-3.63035E-13
 -1      1987 2.00231E+01 5.52964E-03 1.15430E-04 2.16250E-02 5.19291E-14-4.55589E-13
 -1      1988 2.00367E+01 6.87683E-03 6.00697E-04 2.68725E-02 4.59733E-14-5.59060E-13
 -1      1989 2.00432E+01 1.00389E-02-2.76665E-04 3.74402E-02 6.09493E-14-4.93792E-13
 -1      1990 2.00057E+01 3.84549E-03 1.01902E-04 1.29112E-02 1.12389E-14-4.14201E-13
 -1      1991 2.00144E+01 4.85080E-03 4.34655E-04 1.66543E-02-6.03051E-14-4.94142E-13
 -1      1992 2.00208E+01 7.06582E-03-2.20362E-04 2.36966E-02-2.18367E-14-4.40090E-13
 -1      1993 1.99950E+01 2.59897E-03 8.71058E-05 6.88075E-03 1.11380E-13-5.20006E-13
 -1      1994 2.00002E+01 3.33847E-03 3.08339E-04 9.49134E-03 1.31033E-13-4.65943E-13
 -1      1995 2.00060E+01 4.85166E-03-1.72293E-04 1.39803E-02 1.25539E-13-4.72087E-13
 -1      1996 1.99888E+01 1.69021E-03 7.25973E-05 2.83227E-03 2.04094E-13-3.83968E-13
 -1      1997 1.99916E+01 2.22529E-03 2.13548E-04 4.60198E-03 9.45657E-14-3.92719E-13
 -1      1998 1.99968E+01 3.22542E-03-1.32320E-04 7.27849E-03 1.41360E-13-4.08017E-13
 -1      1999 1.99858E+01 1.03945E-03 5.92359E-05 2.24692E-04-5.17992E-14-3.50105E-13
 -1      2000 1.99870E+01 1.41907E-03 1.43445E-04 1.37961E-03 1.98197E-13-2.19410E-13
 -1      2001 1.99914E+01 2.05005E-03-9.98089E-05 2.80047E-03 1.15774E-13-2.92942E-13
 -1      2002 1.99850E+01 5.83518E-04 4.74344E-05-1.35489E-03-9.79325E-14-7.42028E-13
 -1      2003 1.99851E+01 8.46369E-04 9.24440E-05-6.41381E-04-1.15261E-13-5.66352E-13
 -1      2004 1.99888E+01 1.21683E-03-7.38793E-05-6.37676E-05 5.89640E-14-3.21830E-13
 -1      2005 1.99854E+01 2.72824E-04 3.73274E-05-2.21780E-03 2.20041E-14-6.15948E-13
 -1      2006 1.99848E+01 4.49194E-04 5.60442E-05-1.81433E-03-3.37280E-14-6.24815E-13
 -1      2007 1.99879E+01 6.40204E-04-5.35706E-05-1.77958E-03-1.96505E-15-5.70015E-13
 -1      2008 1.99865E+01 6.87870E-05 2.88823E-05-2.59559E-03 1.00473E-13-6.11996E-13
 -1      2009 1.99857E+01 1.82144E-04 3.06635E-05-2.40395E-03 1.09250E-13-5.77657E-13
 -1      2010 1.99881E+01 2.53415E-04-3.79401E-05-2.69750E-03 5.85100E-14-5.28338E-13
 -1      2011 1.99881E+01-5.83054E-05 2.19719E-05-2.65778E-03-8.15522E-14-5.71714E-13
 -1      2012 1.99871E+01 1.00249E-05 1.34816E-05-2.60565E-03 2.77214E-14-5.43336E-13
 -1      2013 1.99890E+01 4.85869E-06-2.61203E-05-3.07789E-03 9.29657E-15-4.31581E-13
 -1      2014 1.99898E+01-1.31074E-04 1.64225E-05-2.52617E-03 5.74158E-14-8.46810E-13
 -1      2015 1.99887E+01-9.41598E-05 2.30231E-06-2.56129E-03-3.43743E-14-6.48619E-13
 -1      2016 1.99902E+01-1.44951E-04-1.73461E-05-3.11096E-03 3.73508E-14-4.54752E-13
 -1      2017 1.99914E+01-1.66515E-04 1.20436E-05-2.28635E-03 2.80259E-14-8.50630E-13
 -1      2018 1.99904E+01-1.50861E-04-4.56467E-06-2.37173E-03 4.53646E-14-9.85075E-13
 -1      2019 1.99916E+01-2.25871E-04-1.09630E-05-2.93300E-03 1.09783E-13-6.42356E-13
 -1      2020 1.99930E+01-1.77204E-04 8.64664E-06-1.99671E-03 1.72601E-13-9.95258E-13
 -1      2021 1.99921E+01-1.75356E-04-8.40389E-06-2.10687E-03 1.11022E-13-8.24321E-13
 -1      2022 1.99929E+01-2.60163E-04-6.42549E-06-2.63944E-03 5.46678E-14-8.01011E-13
 -1      2023 1.99944E+01-1.72283E-04 6.05583E-06-1.69562E-03 8.98416E-14-9.05000E-13
 -1      2024 1.99936E+01-1.78875E-04-1.01778E-05-1.81364E-03 1.66268E-13-8.85890E-13
 -1      2025 1.99942E+01-2.64165E-04-3.28779E-06-2.29508E-03 1.85812E-13-7.27126E-13
 -1      2026 1.99955E+01-1.58266E-04 4.11340E-06-1.40694E-03-1.64362E-13-8.85895E-13
 -1      2027 1.99949E+01-1.69520E-04-1.05962E-05-1.52211E-03-4.65908E-14-8.82276E-13
 -1      2028 1.99953E+01-2.49646E-04-1.19255E-06-1.94219E-03-1.10232E-14-5.13662E-13
 -1      2029 1.99965E+01-1.39682E-04 2.68144E-06-1.14425E-03-1.09086E-13-9.60537E-13
 -1      2030 1.99960E+01-1.53010E-04-1.01729E-05-1.25030E-03-9.96389E-14-8.47633E-13
 -1      2031 1.99963E+01-2.24895E-04 1.41876E-07-1.60681E-03-8.20563E-14-7.37475E-13
 -1      2032 1.99973E+01-1.19594E-04 1.64141E-06-9.13991E-04 7.98810E-15-9.66879E-13
 -1      2033 1.99969E+01-1.33280E-04-9.27259E-06-1.00776E-03-5.91608E-14-9.55536E-13
 -1      2034 1.99971E+01-1.95607E-04 9.33766E-07-1.30343E-03-1.81720E-14-7.76732E-13
 -1      2035 1.99980E+01-1.00008E-04 8.92510E-07-7.17825E-04 2.02595E-13-7.85356E-13
 -1      2036 1.99976E+01-1.12962E-04-8.14707E-06-7.98264E-04 9.87569E-14-7.53825E-13
 -1      2037 1.99977E+01-1.65571E-04 1.34950E-06-1.03863E-03 3.64189E-15-6.71685E-13
 -1      2038 1.99985E+01-8.22025E-05 3.50315E-07-5.54289E-04-5.31414E-13-7.55491E-13
 -1      2039 1.99982E+01-9.37613E-05-6.96425E-06-6.21762E-04-1.22511E-13-7.28696E-13
 -1      2040 1.99983E+01-1.37233E-04 1.51415E-06-8.13656E-04-1.20867E-13-5.85489E-13
 -1      2041 1.99989E+01-6.69810E-05-5.31568E-08-4.19936E-04-3.53912E-13-7.22936E-13
 -1      2042 1.99987E+01-7.67600E-05-5.82890E-06-4.75730E-04-4.24415E-13-8.74762E-13
 -1      2043 1.99987E+01-1.12121E-04 1.52053E-06-6.26291E-04-3.69468E-13-6.79494E-13
 -1      2044 1.99992E+01-5.48585E-05-3.61734E-07-3.10092E-04-1.31659E-13-6.41860E-13
 -1      2045 1.99990E+01-6.26499E-05-4.79603E-06-3.56109E-04-3.45692E-13-6.66638E-13
 -1      2046 1.99991E+01-9.11904E-05 1.43708E-06-4.72130E-04-3.92280E-13-6.69718E-13
 -1      2047 1.99994E+01-4.60636E-05-5.62103E-07-2.19353E-04-1.42864E-13-4.18645E-13
 -1      2048 1.99993E+01-5.18656E-05-3.87605E-06-2.57907E-04-1.67779E-13-4.38020E-13
 -1      2049 1.99993E+01-7.50174E-05 1.31765E-06-3.45452E-04-2.44503E-13-4.35297E-13
 -1      2050 1.99996E+01-4.03452E-05-5.86903E-07-1.42472E-04-1.85168E-13-2.46548E-13
 -1      2051 1.99995E+01-4.43914E-05-3.01528E-06-1.75869E-04-2.31118E-13-3.37080E-13
 -1      2052 1.99995E+01-6.35227E-05 1.24769E-06-2.40046E-04-2.76216E-13-2.73103E-13
 -1      2053 1.99997E+01-3.68205E-05-9.73137E-07-7.60615E-05 3.56379E-14 2.52839E-13
 -1      2054 1.99997E+01-3.93128E-05-2.09102E-06-1.05459E-04-5.63437E-14 5.42669E-14
 -1      2055 1.99996E+01-5.61058E-05 1.10554E-06-1.50437E-04-2.40356E-13-1.04374E-13
 -1      2056 1.99998E+01-3.13507E-05-1.44798E-06-3.20983E-05 5.98021E-14 5.65684E-13
 -1      2057 1.99997E+01-3.67941E-05-1.32621E-06-5.57172E-05 8.37156E-14 5.00864E-13
 -1      2058 1.99997E+01-5.29107E-05 5.86356E-07-8.65235E-05-4.08328E-14 6.52397E-13
 -1      2059 1.99998E+01-4.41711E-05-1.87992E-07-4.38013E-05 1.14456E-13 6.71579E-13
 -1      2060 1.99998E+01-3.14754E-04 8.46253E-07-1.75022E-04 6.75182E-14-1.18047E-13
 -1      2061 1.99998E+01-2.58716E-04-1.39130E-06-1.66128E-04 1.05671E-14 1.66683E-13
 -1      2062 1.99998E+01-2.01463E-04 1.78469E-07-1.48231E-04-1.21812E-13 4.73167E-15
 -1      2063 1.99998E+01-1.53365E-04-1.58217E-06-1.26648E-04-1.86111E-14-2.40203E-13
 -1      2064 1.99998E+01-2.49977E-04 2.50041E-07-2.05724E-04-1.13280E-13 1.40528E-13
 -1      2065 1.99998E+01-1.12234E-04-3.28796E-07-9.98990E-05-6.44225E-14-3.50824E-13
 -1      2066 1.99998E+01-7.64023E-05-1.22805E-06-7.31978E-05-2.88208E-14 1.86994E-13
 -1      2067 1.99997E+01-8.23706E-05-6.44694E-07-9.46924E-05-2.05801E-13 1.84362E-13
 -1      2068 1.99997E+01-1.53987E-04 8.71401E-07-1.54690E-04-2.38609E-13-2.76797E-13
 -1      2069 1.99998E+01-4.26912E-04 1.51702E-06-1.72298E-04-2.44205E-13-1.04459E-12
 -1      2070 1.99998E+01-3.71424E-04-5.99573E-07-1.76619E-04-5.74381E-14-4.50178E-13
 -1      2071 1.99998E+01-3.63119E-04-4.50250E-07-2.26521E-04-1.41121E-13-5.30789E-13
 -1      2072 1.99998E+01-5.26256E-04 2.06325E-06-1.41136E-04-1.58463E-13-5.09127E-13
 -1      2073 1.99998E+01-4.78171E-04 3.40539E-07-1.57578E-04-1.27777E-13-8.14633E-13
 -1      2074 1.99998E+01-4.70757E-04-1.19863E-06-2.11042E-04-1.60764E-13-9.90699E-13
 -1      2075 1.99998E+01-5.96686E-04 2.34373E-06-8.72541E-05-1.46789E-13 8.87649E-14
 -1      2076 1.99998E+01-5.64543E-04 1.24107E-06-1.12715E-04-1.38890E-13-3.55483E-14
 -1      2077 1.99999E+01-5.60223E-04-1.85967E-06-1.61838E-04-4.76487E-14-2.98211E-13
 -1      2078 1.99999E+01-6.28242E-04 2.30139E-06-1.96644E-05-3.26460E-13-1.16467E-14
 -1      2079 1.99999E+01-6.17064E-04 1.92789E-06-4.98971E-05-2.13451E-13-1.43367E-14
 -1      2080 1.99999E+01-6.18908E-04-2.29133E-06-8.72934E-05-1.95101E-13-2.50760E-14
 -1      2081 1.99999E+01-6.16532E-04 1.92274E-06 5.09501E-05-4.62540E-13-3.70655E-14
 -1      2082 1.99999E+01-6.28067E-04 2.30498E-06 2.07585E-05-3.52054E-13-2.63669E-14
 -1      2083 1.99999E+01-6.39125E-04-2.43894E-06 7.03712E-07-3.77502E-13-9.26483E-14
 -1      2084 1.99998E+01-5.63350E-04 1.25663E-06 1.13548E-04-3.35593E-13-1.57844E-13
 -1      2085 1.99998E+01-5.95847E-04 2.32732E-06 8.82180E-05-4.72652E-13 1.98867E-14
 -1      2086 1.99999E+01-6.18235E-04-2.27746E-06 8.85913E-05-3.04237E-13-3.48784E-14
 -1      2087 1.99998E+01-4.78242E-04 3.55421E-07 1.57508E-04-2.63423E-13-4.38505E-13
 -1      2088 1.99998E+01-5.25599E-04 2.05197E-06 1.41408E-04-2.61774E-13-2.98442E-13
 -1      2089 1.99999E+01-5.59663E-04-1.87776E-06 1.62365E-04-6.37418E-14-1.85186E-13
 -1      2090 1.99998E+01-3.70520E-04-6.04112E-07 1.76610E-04-1.98408E-13 1.53120E-13
 -1      2091 1.99998E+01-4.27014E-04 1.52624E-06 1.72301E-04-2.45716E-13-6.42205E-14
 -1      2092 1.99998E+01-4.70800E-04-1.18516E-06 2.11023E-04 8.11477E-14-2.44799E-13
 -1      2093 1.99998E+01-2.56735E-04-1.36965E-06 1.65777E-04-8.22964E-14 3.99287E-13
 -1      2094 1.99998E+01-3.12907E-04 8.62132E-07 1.74868E-04-1.78949E-13 1.30701E-13
 -1      2095 1.99998E+01-3.62160E-04-3.72423E-07 2.26414E-04 1.07494E-13 1.81571E-13
 -1      2096 1.99998E+01-1.48335E-04-3.07120E-07 1.25950E-04-2.09015E-13 2.09760E-13
 -1      2097 1.99998E+01-1.99518E-04 1.35352E-07 1.47547E-04-2.48991E-13 3.72220E-13
 -1      2098 1.99998E+01-2.48689E-04 1.04479E-07 2.04859E-04 1.27655E-14 2.24759E-13
 -1      2099 1.18817E+01-2.88014E+00-1.61769E-01 7.12416E+00 1.09068E-12 1.37965E-12
 -1      2100 8.26418E+00-3.69005E+00-2.62448E-01 6.08347E+00 7.78044E-13 1.27826E-12
 -1      2101 1.24854E+00-3.85795E+00-3.37384E-01 8.17422E-01 6.36546E-13 1.54710E-12
 -1      2102 1.30201E+00-3.60678E+00-2.90758E-01-1.07188E+00 1.60982E-13 1.55376E-12
 -1      2103 4.72783E+00-2.95850E+00-1.83970E-01 4.58612E+00 5.75928E-13 1.54482E-12
 -1      2104 2.31434E+00-4.08783E+00-3.95368E-01 2.56403E+00 4.88692E-13 1.58362E-12
 -1      2105 3.58420E+00-1.57249E+00-7.06085E-02 2.04673E+00 1.57013E-13 1.68732E-12
 -1      2106 2.10167E+01-1.55609E+00 5.71932E-04 7.45520E+00 1.20992E-12 9.52460E-13
 -1      2107 1.65739E+01-3.07093E+00-2.42516E-01 6.83697E+00 9.36307E-13 9.93816E-13
 -1      2108 2.91161E+01 1.05601E-01 4.59459E-02 5.58645E+00 1.24870E-12 1.62037E-13
 -1      2109 2.43788E+01-1.04757E+00-1.24564E-01 6.16576E+00 1.31062E-12 6.56863E-13
 -1      2110 2.49109E+01-2.93681E+00 8.52559E-02 5.50842E+00 4.15640E-13-1.63203E-14
 -1      2111 2.36912E+01 3.29648E+00-2.12732E-02-2.45096E+00-9.61106E-14-8.17173E-13
 -1      2112 2.37234E+01 3.52512E+00-6.20679E-02-2.98314E+00-2.89766E-13-8.24868E-13
 -1      2113 2.41388E+01 2.92703E+00 6.40786E-04-3.29184E+00-4.20338E-13-6.66217E-13
 -1      2114 2.41457E+01 2.45906E+00-3.20944E-04-2.45273E+00-7.50225E-14-6.42392E-13
 -1      2115 3.91045E+01 6.24798E+00 3.59844E-01 2.70856E+00 1.72395E-12-4.18832E-13
 -1      2116 3.68510E+01 5.52559E+00 1.78119E-01 3.29504E+00 1.75793E-12-1.06914E-13
 -1      2117 3.77411E+01 6.85829E+00 1.33684E-01 1.67516E+00 1.88771E-12-7.32747E-13
 -1      2118 3.93896E+01 6.92680E+00 4.25478E-01 2.44562E+00 1.78690E-12-4.47059E-13
 -1      2119 3.50361E+01 7.08996E+00 2.82324E-01 1.30680E+00 1.86512E-12-5.76206E-13
 -1      2120 3.75526E+01 4.70521E+00 2.86983E-01 4.51477E-01 1.94944E-12-1.30046E-12
 -1      2121 3.83547E+01 5.96894E+00 2.76350E-01 1.67628E+00 1.91491E-12-8.75827E-13
 -1      2122 3.21357E+01 1.71656E+00-4.28285E-02-8.73939E-01 1.83081E-12-1.41387E-12
 -1      2123 3.62063E+01 3.08069E+00 2.73932E-01-3.61432E-01 1.87114E-12-1.31362E-12
 -1      2124 2.46245E+01-8.01816E-01-2.17746E-01-3.10812E+00 1.60782E-12-1.72390E-12
 -1      2125 2.94377E+01 5.37653E-02 1.87419E-02-2.48482E+00 1.66095E-12-1.49514E-12
 -1      2126 1.52928E+01-1.18384E+00-3.96182E-01-4.39155E+00 1.56736E-12-2.05194E-12
 -1      2127 2.04754E+01-8.30222E-01-1.28109E-01-4.72848E+00 1.63658E-12-2.01206E-12
 -1      2128 7.37933E+00-6.84158E-01-4.02841E-01-3.69942E+00 1.37740E-12-2.04126E-12
 -1      2129 1.12060E+01-3.69382E-01-2.14668E-01-4.77329E+00 1.60477E-12-2.15558E-12
 -1      2130 2.86212E+00 2.29882E-01-2.52186E-01-2.10994E+00 7.99916E-13-1.87353E-12
 -1      2131 4.92378E+00 4.24171E-02-2.18368E-01-3.11880E+00 1.35614E-12-2.09269E-12
 -1      2132 8.17012E+00 1.92359E-01-1.04527E-01-3.82674E+00 5.24802E-13-1.87522E-12
 -1      2133 4.73547E-01 4.94288E-01-2.05145E-01 3.09376E-01 3.92530E-13-1.77655E-12
 -1      2134 1.11857E+00 9.02380E-01-1.24687E-01-8.10721E-01 8.32154E-13-1.86118E-12
 -1      2135 1.61698E+00 1.61404E+00-4.63572E-02 2.42487E+00 1.02696E-15-1.75818E-12
 -1      2136 6.67407E-01 6.84069E-01-1.97773E-01 1.28138E+00 4.24397E-13-1.75124E-12
 -1      2137 1.41870E+00 2.31138E+00-3.94780E-02 9.19684E-01 3.81133E-13-2.00495E-12
 -1      2138 5.67339E+00 1.62287E+00-7.12282E-02 4.63896E+00-4.19331E-13-1.74577E-12
 -1      2139 3.30562E+00 1.17329E+00-1.73835E-01 3.46911E+00 2.21212E-14-1.68870E-12
 -1      2140 1.22802E+01 1.37338E+00-9.37030E-02 5.93050E+00-1.06665E-12-1.85252E-12
 -1      2141 9.14675E+00 9.47777E-01-2.07584E-01 5.17563E+00-4.69735E-13-1.59051E-12
 -1      2142 1.90345E+01 1.56473E+00-7.51952E-02 6.23064E+00-1.43863E-12-1.86959E-12
 -1      2143 1.48458E+01 1.03646E+00-2.86545E-01 5.75134E+00-1.22669E-12-1.78163E-12
 -1      2144 1.57533E+01 4.94861E-01-4.33264E-02 5.44284E+00-1.75970E-13-1.32271E-12
 -1      2145 2.72051E+01 2.21021E+00 5.66591E-02 4.87373E+00-1.62659E-12-1.72479E-12
 -1      2146 2.26944E+01 1.56963E+00-2.00702E-01 5.10261E+00-1.53461E-12-1.73517E-12
 -1      2147 3.38119E+01 3.88440E+00 2.05787E-01 2.79891E+00-1.77006E-12-1.59522E-12
 -1      2148 2.98276E+01 3.14794E+00-4.43557E-02 3.68406E+00-1.79520E-12-1.76553E-12
 -1      2149 3.70204E+01 5.79006E+00 2.15956E-01 5.39317E-02-1.77491E-12-1.10667E-12
 -1      2150 3.54317E+01 5.07264E+00 1.97924E-01 1.57268E+00-1.82829E-12-1.52783E-12
 -1      2151 3.77391E+01 6.82146E+00 2.93390E-01-1.86386E+00-1.65923E-12-6.82267E-13
 -1      2152 3.68316E+01 6.79850E+00 1.94655E-01-7.76924E-01-1.73761E-12-1.03614E-12
 -1      2153 3.52311E+01 6.07514E+00 1.45481E-01-3.04850E+00-1.51407E-12-3.32512E-13
 -1      2154 3.76099E+01 6.50238E+00 3.24313E-01-2.28349E+00-1.56936E-12-6.65995E-13
 -1      2155 3.36450E+01 7.63233E+00 2.72446E-01-1.25810E+00-1.70991E-12-8.37844E-13
 -1      2156 3.06921E+01 3.01694E+00 6.94859E-02-4.74734E+00-1.18513E-12 1.84686E-13
 -1      2157 3.38816E+01 4.19753E+00 1.85934E-01-3.80619E+00-1.20526E-12-2.49079E-13
 -1      2158 2.37581E+01 1.02476E-01-1.17876E-01-6.28671E+00-9.98479E-13 5.94802E-13
 -1      2159 2.84415E+01 1.65360E+00 1.72212E-01-6.33116E+00-1.05727E-12 4.32765E-13
 -1      2160 1.56916E+01-2.46088E+00-2.60174E-01-6.80599E+00-6.81732E-13 9.03333E-13
 -1      2161 2.02938E+01-7.60920E-01 5.08614E-02-7.49974E+00-8.83849E-13 7.76268E-13
 -1      2162 8.16686E+00-3.82933E+00-3.20487E-01-5.97392E+00-1.86517E-13 1.30161E-12
 -1      2163 1.17761E+01-2.51099E+00-1.30141E-01-7.09332E+00-6.55809E-13 1.26998E-12
 -1      2164 2.45862E+00-4.11288E+00-3.76452E-01-3.12670E+00 2.42584E-13 1.60338E-12
 -1      2165 4.76299E+00-3.26438E+00-2.11995E-01-4.94516E+00-1.90015E-13 1.64543E-12
 -1      2166 3.61359E+01 4.18600E+00 3.44674E-01 4.03189E+00 1.63644E-12-5.24580E-14
 -1      2167 3.20375E+01 2.56809E+00 2.59137E-02 4.10064E+00 1.57476E-12 6.70575E-14
 -1      2168 3.43524E+01 4.61321E+00 2.45492E-01 1.32426E+00 1.57274E-12-6.05072E-13
 -1      2169 4.32687E+00 4.56909E+00 1.10093E-01 1.22607E+00 4.32756E-13-1.44261E-12
 -1      2170 4.03776E+00 3.98044E+00 9.99871E-02 2.23818E+00 5.71321E-13-1.69098E-12
 -1      2171 4.41326E+00 4.51411E+00 8.66058E-02 4.13261E-01 1.34594E-13-1.45430E-12
 -1      2172 3.08956E+01 1.80598E-01 1.17878E-01 2.90692E+00 1.05766E-12-4.77451E-13
 -1      2173 2.37039E+01 1.23346E+00-3.72569E-02-2.83602E+00-7.09509E-13 2.19595E-13
 -1      2174 2.37906E+01 1.50130E+00-1.54985E-02-3.13485E+00-7.21194E-13-9.57047E-14
 -1      2175 2.46663E+01 1.97850E+00 3.50862E-02-3.60179E+00-7.56568E-13 3.71564E-13
 -1      2176 2.46624E+01 3.55636E+00-1.21624E-01-4.49695E+00-6.78450E-13 3.16663E-13
 -1      2177 7.71837E+00-2.88492E+00-1.00222E-01 5.61939E+00 2.92488E-13 1.27670E-12
 -1      2178 7.71903E+00-1.36136E+00 1.38189E-01 5.16765E+00-1.43330E-13 1.20950E-12
 -1      2179 1.07588E+01-2.65036E+00-1.18688E-01 6.63990E+00-1.89043E-13 8.82794E-13
 -1      2180 1.68391E+01-3.52549E+00-1.54639E-02 7.15909E+00 2.04781E-13 6.65575E-13
 -1      2181 1.99997E+01-1.23808E-04-7.71051E-07 1.17289E-04-8.20323E-14 3.05880E-13
 -1      2182 3.54727E+00-1.88530E+00-1.03904E-01-2.45933E+00 3.02980E-13 1.77369E-12
 -1      2183 8.37762E+00-2.95026E+00-9.96323E-02-6.14777E+00 3.18523E-13 1.38128E-12
 -1      2184 1.63071E+01-3.28425E+00-2.04140E-02-7.20752E+00 1.57152E-13 6.31342E-13
 -1      2185 2.40535E+01-1.95346E+00 1.10179E-01-5.74513E+00-1.91930E-13-5.99520E-15
 -1      2186 3.26367E+01 4.95802E+00 2.13197E-01-1.49310E+00-1.26693E-12-7.74714E-13
 -1      2187 3.41116E+01 7.04375E+00 2.48483E-01-1.11761E+00-1.81000E-12-7.93171E-13
 -1      2188 3.28185E+01 4.69721E+00 2.51710E-01 6.59372E-02-1.65148E-12-8.82017E-13
 -1      2189 2.24824E+01 5.39052E-01 2.27337E-02 4.26647E+00-6.74072E-13-1.08197E-12
 -1      2190 3.44124E+00 2.23405E+00-1.12749E-02 3.28802E+00 3.74367E-13-1.85113E-12
 -1      2191 3.03091E+00 1.53606E+00-8.33728E-02-1.71639E+00 4.01679E-13-1.99901E-12
 -1      2192 1.55909E+01-1.14894E+00-6.25388E-02-4.21821E+00 6.77958E-13-1.59888E-12
 -1      2193 2.42795E+01-1.53975E+00 4.68457E-02-2.53702E+00 9.13686E-13-1.08030E-12
 -1      2194 3.09178E+01 3.60754E-01 1.02155E-01 4.04453E-01 1.33965E-12-6.33438E-13
 -1      2195 3.32936E+01 5.98610E+00-1.03053E-02 2.57920E+00 1.88305E-12-3.48999E-13
 -1      2196 3.62186E+01 6.49991E+00 1.85974E-01 2.11041E+00 1.87628E-12-6.00020E-13
 -1      2197 3.28914E+01 6.84373E+00-3.46475E-02 2.15697E+00 1.89693E-12-3.55653E-13
 -1      2198 3.45295E+01 4.04566E+00 2.27942E-01 2.11919E+00 1.79401E-12-5.56777E-13
 -1      2199 9.06519E+00 1.32510E+00-3.22293E-02 5.11912E+00 2.21323E-13-1.59013E-12
 -1      2200 2.87206E+01 2.01665E+00 1.15289E-01 1.98363E+00-1.18362E-12-9.20042E-13
 -1      2201 2.96187E+01 1.05096E+00 2.03678E-01-3.28196E+00-6.83800E-13-4.75675E-13
 -1      2202 2.43989E+01 2.56099E+00-1.13242E-01-4.05985E+00-7.47031E-13 1.86962E-13
 -1      2203 2.10168E+01 5.32457E-01 2.48759E-02 1.77077E+00 7.68448E-13-4.59900E-13
 -1      2204 2.28686E+01 5.82426E-01-3.24041E-02 4.73253E-01 5.33067E-13-4.13438E-13
 -1      2205 2.39499E+01 1.12022E+00 1.84853E-02-9.20009E-01 3.52209E-13-3.82105E-13
 -1      2206 2.43555E+01 1.44011E+00-7.45146E-02-1.78039E+00 1.09121E-13-4.65263E-13
 -1      2207 4.52501E+00 4.03321E+00 1.13418E-01-4.69285E-01 7.45654E-14-1.66506E-12
 -1      2208 2.07796E+01 5.41148E-03 7.21171E-02-8.72079E-01-3.22395E-13-4.43208E-13
 -1      2209 1.68743E+01 4.32330E-01 5.88968E-03-2.03162E+00-4.35652E-13-7.25420E-13
 -1      2210 2.79844E+01 4.74467E-01-9.62606E-02 3.72472E+00 3.46792E-13 6.02494E-13
 -1      2211 2.70133E+01 4.22299E-01 1.72556E-02 3.20637E+00 1.53468E-13 3.52657E-13
 -1      2212 2.89039E+01 1.76344E-01-7.02075E-02 3.69346E+00 4.12045E-13 1.04452E-12
 -1      2213 2.84236E+01 5.78164E-01-1.35618E-02 3.85213E+00 3.77911E-13 7.76844E-13
 -1      2214 2.81353E+01-5.43762E-02-7.98147E-03 3.80564E+00 4.11195E-13 7.23510E-13
 -1      2215 2.83364E+01-4.59834E-02-1.25124E-04 3.67389E+00 4.56427E-13 1.06208E-12
 -1      2216 2.33793E+01 1.14285E+00-3.04202E-03-2.51759E+00-6.03086E-13-2.00838E-13
 -1      2217 2.29399E+01 1.12213E+00 9.13990E-03-2.06849E+00-5.69107E-13-2.31949E-13
 -1      2218 2.72623E+01 4.76638E-01 2.83137E-02 3.66646E+00 5.77850E-13 1.00619E-12
 -1      2219 2.79443E+01 4.90261E-03-3.69680E-02 3.70328E+00 4.78614E-13 1.04061E-12
 -1      2220 2.81239E+01 2.70310E-02-1.27607E-02 3.99235E+00 4.71958E-13 8.54918E-13
 -1      2221 2.60185E+01 1.58275E+00 3.42640E-03 2.73025E+00 7.65700E-13 6.86107E-13
 -1      2222 2.66685E+01 9.77808E-01-3.78932E-02 3.23812E+00 6.84890E-13 8.67609E-13
 -1      2223 2.72059E+01 1.01801E+00-5.27172E-02 3.66274E+00 7.23685E-13 7.35766E-13
 -1      2224 2.26255E+01 1.15471E+00 9.66967E-03-1.61978E+00-5.38305E-13-2.60542E-13
 -1      2225 2.23088E+01 1.19039E+00 1.34937E-02-1.17149E+00-5.02798E-13-3.19186E-13
 -1      2226 2.32177E+01 1.52075E+00-4.71450E-03-2.15751E+00-6.07693E-13-3.55016E-13
 -1      2227 2.20860E+01 1.19034E+00 1.55858E-02-6.48473E-01-4.83161E-13-3.62026E-13
 -1      2228 2.19246E+01 1.11663E+00 5.12309E-03-2.15406E-01-4.41066E-13-4.33985E-13
 -1      2229 2.26602E+01 1.56855E+00-1.43118E-02-1.11367E+00-5.42041E-13-4.62946E-13
 -1      2230 2.18718E+01 9.76166E-01 2.10430E-02 2.49951E-01-3.99862E-13-5.00017E-13
 -1      2231 2.18441E+01 7.60139E-01-6.19517E-03 5.70370E-01-3.41316E-13-5.31684E-13
 -1      2232 2.23706E+01 1.36802E+00-1.43476E-02-4.31869E-02-4.75871E-13-5.94753E-13
 -1      2233 2.19036E+01 5.17126E-01 1.93580E-02 8.39926E-01-2.86090E-13-5.87668E-13
 -1      2234 2.19560E+01 2.48300E-01-1.07769E-02 9.78110E-01-1.94128E-13-6.35908E-13
 -1      2235 2.23536E+01 8.42577E-01-3.89547E-03 7.43463E-01-3.66496E-13-6.95092E-13
 -1      2236 2.20105E+01 1.06841E-02 1.02724E-02 1.01255E+00-1.47701E-13-6.39581E-13
 -1      2237 2.20803E+01-2.00476E-01-8.63521E-03 9.77304E-01-9.18115E-14-6.65159E-13
 -1      2238 2.24331E+01 1.83236E-01 4.89391E-03 1.05178E+00-2.00504E-13-7.23329E-13
 -1      2239 2.20536E+01-3.50042E-01-3.92210E-04 8.42173E-01-8.52660E-14-6.81768E-13
 -1      2240 2.20964E+01-4.50794E-01-3.38639E-03 7.00352E-01-6.94579E-14-6.64012E-13
 -1      2241 2.24263E+01-3.46690E-01 6.56465E-03 9.25587E-01-1.03382E-13-7.74635E-13
 -1      2242 2.19854E+01-4.97564E-01-7.26726E-03 4.97742E-01-1.08066E-13-6.17335E-13
 -1      2243 2.19833E+01-5.00655E-01 1.05947E-03 3.23820E-01-9.34162E-14-6.14789E-13
 -1      2244 2.22678E+01-6.12115E-01 3.40274E-03 5.59771E-01-7.81593E-14-7.44280E-13
 -1      2245 2.18246E+01-4.74755E-01-9.43837E-03 1.31763E-01-1.33254E-13-5.58629E-13
 -1      2246 2.17801E+01-4.21453E-01 3.30663E-03-2.28723E-02-9.68006E-14-5.80602E-13
 -1      2247 2.19956E+01-6.35092E-01-4.15678E-04 1.47487E-01-9.45045E-14-5.82495E-13
 -1      2248 2.16115E+01-3.61973E-01-8.44171E-03-1.66558E-01-3.70400E-14-5.09359E-13
 -1      2249 2.15364E+01-2.90621E-01 3.76790E-03-2.78397E-01 3.95471E-14-4.96405E-13
 -1      2250 2.16790E+01-5.13020E-01-2.78204E-03-1.95287E-01-2.25545E-14-4.93337E-13
 -1      2251 2.13815E+01-2.26601E-01-6.04607E-03-3.66032E-01 5.06390E-14-4.60081E-13
 -1      2252 2.12891E+01-1.60978E-01 3.29262E-03-4.31882E-01 9.28876E-14-3.98050E-13
 -1      2253 2.13714E+01-3.40550E-01-3.53682E-03-4.26799E-01 5.77215E-14-3.87888E-13
 -1      2254 2.11575E+01-1.07589E-01-3.48920E-03-4.71438E-01 8.52779E-14-4.62569E-13
 -1      2255 2.10590E+01-5.77168E-02 2.51290E-03-4.98729E-01 7.56966E-14-4.50310E-13
 -1      2256 2.11001E+01-1.78193E-01-3.30919E-03-5.50754E-01 4.94566E-14-3.93745E-13
 -1      2257 2.09516E+01-1.97206E-02-1.37197E-03-5.03260E-01 2.81502E-14-4.86563E-13
 -1      2258 2.08550E+01 1.30568E-02 1.76587E-03-5.02865E-01 5.42915E-14-4.75722E-13
 -1      2259 2.08726E+01-5.27232E-02-2.75086E-03-5.90177E-01 5.39590E-14-4.97451E-13
 -1      2260 2.07689E+01 3.65617E-02 1.38259E-04-4.85031E-01 6.22833E-14-4.69121E-13
 -1      2261 2.06794E+01 5.49577E-02 1.17998E-03-4.67341E-01 5.51171E-14-4.53105E-13
 -1      2262 2.06865E+01 3.11617E-02-2.18732E-03-5.71709E-01 6.92254E-14-4.51816E-13
 -1      2263 2.06110E+01 6.71164E-02 1.08143E-03-4.37306E-01-1.30112E-15-4.80063E-13
 -1      2264 2.05314E+01 7.50139E-02 7.68696E-04-4.10588E-01-2.53218E-14-4.53812E-13
 -1      2265 2.05359E+01 7.93577E-02-1.73202E-03-5.18620E-01-1.43174E-15-4.23582E-13
 -1      2266 2.04772E+01 7.92864E-02 1.57544E-03-3.75628E-01-4.64875E-14-5.09411E-13
 -1      2267 2.04089E+01 8.03055E-02 4.98436E-04-3.45731E-01-7.28455E-14-4.51945E-13
 -1      2268 2.04147E+01 1.01103E-01-1.39317E-03-4.48584E-01-5.32817E-14-4.44857E-13
 -1      2269 2.03661E+01 7.96316E-02 1.74968E-03-3.10597E-01-7.70100E-14-4.10558E-13
 -1      2270 2.03092E+01 7.66160E-02 3.27913E-04-2.81256E-01-7.72266E-14-3.85193E-13
 -1      2271 2.03175E+01 1.05259E-01-1.14365E-03-3.73783E-01-5.36637E-14-3.72546E-13
 -1      2272 2.02755E+01 7.31896E-02 1.71698E-03-2.48748E-01-8.48280E-14-3.79336E-13
 -1      2273 2.02292E+01 6.81545E-02 2.22554E-04-2.22085E-01-4.85126E-14-3.35790E-13
 -1      2274 2.02400E+01 9.89087E-02-9.53283E-04-3.01874E-01-7.22314E-14-2.94611E-13
 -1      2275 2.02029E+01 6.34746E-02 1.56458E-03-1.93618E-01-7.57766E-14-3.47787E-13
 -1      2276 2.01662E+01 5.77377E-02 1.57569E-04-1.70625E-01-1.61437E-14-4.43330E-13
 -1      2277 2.01786E+01 8.71378E-02-7.99861E-04-2.37136E-01-5.86507E-14-3.00850E-13
 -1      2278 2.01459E+01 5.27539E-02 1.35456E-03-1.46692E-01 5.23821E-14-4.87191E-13
 -1      2279 2.01175E+01 4.71100E-02 1.16696E-04-1.27634E-01 8.27741E-14-4.09628E-13
 -1      2280 2.01306E+01 7.33154E-02-6.70048E-04-1.81503E-01-2.65524E-14-4.44778E-13
 -1      2281 2.01019E+01 4.23746E-02 1.12793E-03-1.08161E-01 1.44225E-14-4.19845E-13
 -1      2282 2.00804E+01 3.72549E-02 8.98923E-05-9.28650E-02-5.80694E-14-3.49130E-13
 -1      2283 2.00934E+01 5.95044E-02-5.56990E-04-1.35387E-01 4.87440E-14-4.76571E-13
 -1      2284 2.00687E+01 3.30512E-02 9.09673E-04-7.74609E-02 6.28931E-14-3.16583E-13
 -1      2285 2.00528E+01 2.86487E-02 7.12459E-05-6.55256E-02 1.86960E-13-2.48627E-13
 -1      2286 2.00651E+01 4.68485E-02-4.57638E-04-9.82879E-02 7.98685E-14-3.30329E-13
 -1      2287 2.00441E+01 2.50880E-02 7.13400E-04-5.36494E-02 1.47089E-13-2.66025E-13
 -1      2288 2.00327E+01 2.14486E-02 5.74086E-05-4.45781E-02 1.69825E-13-2.62168E-13
 -1      2289 2.00438E+01 3.58825E-02-3.70763E-04-6.92250E-02 1.53890E-13-2.61965E-13
 -1      2290 2.00264E+01 1.85385E-02 5.45091E-04-3.56471E-02 1.37647E-13-3.39954E-13
 -1      2291 2.00184E+01 1.56241E-02 4.65486E-05-2.89303E-02 7.46245E-14-3.73689E-13
 -1      2292 2.00282E+01 2.67601E-02-2.95769E-04-4.70169E-02 7.88952E-14-3.37490E-13
 -1      2293 2.00139E+01 1.33152E-02 4.05911E-04-2.23836E-02 2.00283E-14-3.86655E-13
 -1      2294 2.00085E+01 1.10449E-02 3.76881E-05-1.75457E-02-4.14824E-14-3.69262E-13
 -1      2295 2.00169E+01 1.94140E-02-2.32098E-04-3.04609E-02 3.42322E-15-4.70645E-13
 -1      2296 2.00054E+01 9.26060E-03 2.94216E-04-1.28789E-02-2.53426E-14-4.38447E-13
 -1      2297 2.00020E+01 7.53674E-03 3.03082E-05-9.50139E-03 1.80867E-14-4.52983E-13
 -1      2298 2.00090E+01 1.36609E-02-1.79009E-04-1.84348E-02-4.68664E-14-4.94846E-13
 -1      2299 2.00000E+01 6.19187E-03 2.06914E-04-6.28101E-03-7.14892E-14-4.00576E-13
 -1      2300 1.99979E+01 4.91573E-03 2.41229E-05-4.01094E-03-6.70751E-14-3.95998E-13
 -1      2301 2.00036E+01 9.26927E-03-1.35550E-04-9.94849E-03-6.50329E-14-4.19084E-13
 -1      2302 1.99966E+01 3.92736E-03 1.40343E-04-1.87728E-03-1.46835E-13-3.88125E-13
 -1      2303 1.99956E+01 3.00762E-03 1.89568E-05-4.26479E-04-1.64049E-13-4.86996E-13
 -1      2304 2.00001E+01 5.99992E-03-1.00622E-04-4.16357E-03-1.41937E-13-3.83289E-13
 -1      2305 1.99948E+01 2.30072E-03 9.08097E-05 9.10453E-04-6.44475E-14-4.41710E-13
 -1      2306 1.99944E+01 1.65758E-03 1.46821E-05 1.77094E-03 5.96447E-14-3.14416E-13
 -1      2307 1.99980E+01 3.62886E-03-7.30575E-05-3.91871E-04-4.84540E-14-2.65433E-13
 -1      2308 1.99940E+01 1.16755E-03 5.48913E-05 2.53917E-03 8.81113E-14-3.90283E-13
 -1      2309 1.99940E+01 7.33989E-04 1.11903E-05 2.98678E-03 8.18919E-14-2.35992E-13
 -1      2310 1.99968E+01 1.95852E-03-5.17022E-05 1.91640E-03 1.25892E-14-2.29120E-13
 -1      2311 1.99939E+01 4.07177E-04 2.95860E-05 3.36151E-03-7.24189E-14-2.61770E-13
 -1      2312 1.99942E+01 1.28640E-04 8.38005E-06 3.53064E-03-1.16990E-13-2.59243E-13
 -1      2313 1.99963E+01 8.21889E-04-3.54684E-05 3.19005E-03-4.84846E-14-3.82069E-13
 -1      2314 1.99942E+01-7.82437E-05 1.23620E-05 3.64345E-03-9.81490E-14-2.87963E-13
 -1      2315 1.99946E+01-2.44984E-04 6.15438E-06 3.63348E-03-1.04824E-13-2.19252E-13
 -1      2316 1.99962E+01 8.22160E-05-2.33736E-05 3.75605E-03-9.43437E-14-2.18887E-13
 -1      2317 1.99948E+01-3.66000E-04 1.14880E-06 3.58090E-03-7.33682E-14-1.80837E-13
 -1      2318 1.99953E+01-4.54410E-04 4.42137E-06 3.46353E-03-6.43361E-15-1.39622E-13
 -1      2319 1.99964E+01-3.69449E-04-1.45588E-05 3.85813E-03-4.37360E-14-2.60073E-14
 -1      2320 1.99954E+01-5.15756E-04-5.70245E-06 3.31459E-03-4.10942E-14-3.93578E-14
 -1      2321 1.99959E+01-5.51167E-04 3.09562E-06 3.14004E-03 1.00520E-13 6.73821E-15
 -1      2322 1.99967E+01-6.17873E-04-8.29371E-06 3.67363E-03 1.06814E-13 4.73163E-14
 -1      2323 1.99961E+01-5.72552E-04-9.47461E-06 2.94265E-03 1.23890E-13-7.23489E-14
 -1      2324 1.99966E+01-5.73714E-04 2.09961E-06 2.74495E-03 1.49212E-13-1.54623E-13
 -1      2325 1.99971E+01-7.27548E-04-3.97269E-06 3.32823E-03 4.66372E-14 6.23831E-14
 -1      2326 1.99968E+01-5.69643E-04-1.11435E-05 2.53112E-03 1.00251E-13-3.46093E-13
 -1      2327 1.99972E+01-5.50111E-04 1.36443E-06 2.33227E-03-1.52928E-14-4.66490E-13
 -1      2328 1.99975E+01-7.46463E-04-1.10398E-06 2.90815E-03-8.71907E-15-1.99874E-13
 -1      2329 1.99973E+01-5.31010E-04-1.14349E-05 2.12236E-03 6.05889E-14-4.92603E-13
 -1      2330 1.99977E+01-5.00342E-04 8.29657E-07 1.93565E-03 6.77850E-15-3.78374E-13
 -1      2331 1.99979E+01-7.09522E-04 7.03299E-07 2.47022E-03-2.66044E-14-4.17143E-13
 -1      2332 1.99979E+01-4.73518E-04-1.08754E-05 1.74161E-03-6.35592E-14-2.51424E-13
 -1      2333 1.99982E+01-4.38266E-04 4.42684E-07 1.57420E-03 9.22255E-15-1.86886E-13
 -1      2334 1.99983E+01-6.41504E-04 1.75332E-06 2.04976E-03 7.90934E-14-1.24128E-13
 -1      2335 1.99983E+01-4.08706E-04-9.83633E-06 1.40212E-03 4.10151E-15-1.21061E-13
 -1      2336 1.99985E+01-3.73226E-04 1.58536E-07 1.25692E-03 9.26373E-14-1.72475E-14
 -1      2337 1.99986E+01-5.59537E-04 2.27765E-06 1.66677E-03 1.11867E-13 1.37198E-13
 -1      2338 1.99987E+01-3.44231E-04-8.57054E-06 1.10887E-03 6.50100E-14 3.31829E-14
 -1      2339 1.99989E+01-3.11315E-04-5.99232E-08 9.85990E-04 1.94986E-13-1.25432E-14
 -1      2340 1.99989E+01-4.75117E-04 2.44942E-06 1.33061E-03 6.83203E-14 1.03362E-13
 -1      2341 1.99990E+01-2.85006E-04-7.24360E-06 8.61403E-04 4.18135E-13 3.48538E-14
 -1      2342 1.99991E+01-2.56383E-04-2.44428E-07 7.59143E-04 5.20693E-13 1.09122E-13
 -1      2343 1.99991E+01-3.95706E-04 2.39112E-06 1.04346E-03 2.39658E-13 2.56551E-14
 -1      2344 1.99992E+01-2.34083E-04-5.95571E-06 6.55810E-04 3.66278E-13 5.40827E-14
 -1      2345 1.99993E+01-2.10730E-04-4.04013E-07 5.71365E-04 2.36015E-13 2.21726E-13
 -1      2346 1.99993E+01-3.25995E-04 2.17632E-06 8.02870E-04 4.41944E-13 7.40545E-14
 -1      2347 1.99994E+01-1.93086E-04-4.74807E-06 4.86145E-04 2.67663E-13 2.47112E-13
 -1      2348 1.99995E+01-1.75423E-04-5.77524E-07 4.16304E-04 8.31083E-14 3.05740E-13
 -1      2349 1.99994E+01-2.68560E-04 1.87583E-06 6.03535E-04 2.16095E-13 1.80020E-13
 -1      2350 1.99995E+01-1.62089E-04-3.52493E-06 3.45625E-04-2.04099E-13 4.62316E-13
 -1      2351 1.99996E+01-1.50387E-04-1.15126E-06 2.87426E-04-1.24440E-13 4.47524E-13
 -1      2352 1.99995E+01-2.24585E-04 1.46079E-06 4.38895E-04 1.10406E-13 8.53732E-14
 -1      2353 2.54374E+01 1.70554E+00-7.96982E-02-8.48484E-01 7.95364E-13-3.17254E-13
 -1      2354 2.54837E+01 2.24801E+00-2.67285E-02-2.09987E-02 9.33031E-13-9.98826E-14
 -1      2355 2.56190E+01 1.39684E-01-6.51316E-02-1.64921E+00 4.11329E-13-6.15437E-13
 -1      2356 2.55360E+01 9.39049E-01 4.78059E-03-1.44265E+00 6.16812E-13-4.83326E-13
 -1      2357 2.65529E+01 1.76633E+00-5.20411E-02-1.22829E+00 8.25361E-13-6.13690E-13
 -1      2358 2.54976E+01-8.69558E-01-1.99576E-02-1.18163E+00 1.60949E-13-6.88102E-13
 -1      2359 2.54884E+01-4.51543E-01 3.78386E-03-1.44089E+00 2.72767E-13-6.44887E-13
 -1      2360 2.63280E+01-2.12979E-01-3.67072E-02-1.67103E+00 3.89765E-13-8.89337E-13
 -1      2361 2.49376E+01-1.07930E+00 7.81422E-03-2.22217E-01-5.50289E-14-5.89443E-13
 -1      2362 2.50401E+01-1.07641E+00-2.22910E-02-6.45974E-01 7.14047E-14-5.94486E-13
 -1      2363 2.55677E+01-1.34852E+00-3.72520E-02-7.34531E-01 8.86691E-14-7.45459E-13
 -1      2364 2.41424E+01-7.88513E-01 1.29300E-02 5.96346E-01-6.29835E-14-4.86586E-13
 -1      2365 2.43607E+01-9.71729E-01-2.42248E-02 2.55055E-01-5.58147E-14-4.95209E-13
 -1      2366 2.45244E+01-1.42136E+00-2.41181E-02 3.41170E-01-8.70116E-14-6.01580E-13
 -1      2367 2.33627E+01-3.98726E-01 9.60392E-03 1.06590E+00 4.08861E-14-3.21743E-13
 -1      2368 2.36431E+01-5.93529E-01-1.69201E-02 8.74496E-01 2.13701E-14-3.61407E-13
 -1      2369 2.34767E+01-9.63289E-01-2.31209E-02 1.06833E+00-7.83974E-14-4.72820E-13
 -1      2370 2.26948E+01-1.00147E-01 5.52734E-03 1.23146E+00-5.25652E-14-2.24526E-13
 -1      2371 2.29888E+01-2.36166E-01-8.18925E-03 1.16777E+00-4.87501E-15-2.60297E-13
 -1      2372 2.26494E+01-4.49413E-01-1.71122E-02 1.40739E+00-3.61026E-14-3.05989E-13
 -1      2373 2.21453E+01 7.55100E-02 2.89149E-03 1.20252E+00-6.42075E-15-1.49296E-13
 -1      2374 2.24251E+01 9.23429E-04-1.53045E-03 1.22079E+00 3.73784E-14-1.80883E-13
 -1      2375 2.20411E+01-7.75894E-02-1.06738E-02 1.46899E+00-2.32097E-14-2.05129E-13
 -1      2376 2.16960E+01 1.56132E-01 1.52009E-03 1.07276E+00-1.04426E-13-1.58017E-13
 -1      2377 2.19475E+01 1.25278E-01 2.62609E-03 1.13295E+00-5.96491E-14-1.68683E-13
 -1      2378 2.15937E+01 1.33076E-01-6.13962E-03 1.36912E+00 4.40213E-16-1.57479E-13
 -1      2379 2.13284E+01 1.78139E-01 9.26888E-04 9.04892E-01-7.27179E-14-1.87411E-13
 -1      2380 2.15453E+01 1.72911E-01 4.71081E-03 9.80037E-01-6.97513E-14-1.82967E-13
 -1      2381 2.12539E+01 2.24924E-01-3.57718E-03 1.19326E+00-6.52677E-14-6.82627E-14
 -1      2382 2.10284E+01 1.69436E-01 7.09043E-04 7.34933E-01-4.27392E-15-1.63827E-13
 -1      2383 2.12096E+01 1.76970E-01 5.39630E-03 8.09687E-01-6.84396E-14-1.46458E-13
 -1      2384 2.09864E+01 2.45255E-01-2.29482E-03 9.94897E-01-8.88938E-14-9.28193E-14
 -1      2385 2.07854E+01 1.47537E-01 6.31724E-04 5.80702E-01 5.40290E-14 5.67926E-14
 -1      2386 2.09329E+01 1.60093E-01 5.24977E-03 6.47694E-01 4.79794E-14-8.36579E-14
 -1      2387 2.07711E+01 2.28913E-01-1.70531E-03 8.03716E-01-4.70934E-14 6.71667E-15
 -1      2388 2.05908E+01 1.22087E-01 5.90649E-04 4.49064E-01 1.16153E-13 2.06131E-14
 -1      2389 2.07082E+01 1.35544E-01 4.68558E-03 5.05659E-01 1.29257E-13 3.02177E-14
 -1      2390 2.05962E+01 1.97408E-01-1.42960E-03 6.33818E-01 9.37524E-14 6.32086E-14
 -1      2391 2.04369E+01 9.77805E-02 5.47498E-04 3.40975E-01 1.54986E-13 3.00930E-14
 -1      2392 2.05287E+01 1.10212E-01 3.96746E-03 3.87033E-01 1.45334E-13 1.96822E-14
 -1      2393 2.04546E+01 1.62441E-01-1.26680E-03 4.90076E-01 1.40236E-13-1.52550E-14
 -1      2394 2.03170E+01 7.65360E-02 4.93737E-04 2.54563E-01 2.24798E-15 5.37840E-14
 -1      2395 2.03875E+01 8.72154E-02 3.24292E-03 2.91090E-01 1.17326E-13 9.42191E-14
 -1      2396 2.03411E+01 1.29625E-01-1.13075E-03 3.72402E-01 9.63970E-14 9.76200E-14
 -1      2397 2.02251E+01 5.88514E-02 4.31924E-04 1.86857E-01 7.38086E-14-1.39523E-13
 -1      2398 2.02783E+01 6.76511E-02 2.58408E-03 2.15265E-01 3.37727E-14-8.21831E-14
 -1      2399 2.02513E+01 1.01188E-01-9.94068E-04 2.78345E-01 1.19753E-13 1.52603E-13
 -1      2400 2.01556E+01 4.45660E-02 3.67295E-04 1.34679E-01 1.64585E-13-2.96908E-13
 -1      2401 2.01951E+01 5.16267E-02 2.01874E-03 1.56418E-01 1.60378E-13-2.75446E-13
 -1      2402 2.01814E+01 7.76289E-02-8.54389E-04 2.04565E-01 1.81167E-13-6.79074E-14
 -1      2403 2.01040E+01 3.32601E-02 3.04526E-04 9.50662E-02-2.44433E-14-2.95261E-13
 -1      2404 2.01328E+01 3.88206E-02 1.55099E-03 1.11455E-01 5.56374E-14-2.76930E-13
 -1      2405 2.01277E+01 5.86555E-02-7.17274E-04 1.47613E-01 6.70308E-14-1.07660E-13
 -1      2406 2.00665E+01 2.44502E-02 2.46825E-04 6.54296E-02-6.92254E-14-2.79551E-13
 -1      2407 2.00871E+01 2.87653E-02 1.17354E-03 7.76031E-02-4.71047E-14-2.11500E-13
 -1      2408 2.00873E+01 4.36730E-02-5.88907E-04 1.04300E-01-7.08751E-14-6.95813E-14
 -1      2409 2.00397E+01 1.76753E-02 1.95957E-04 4.35966E-02 1.68982E-14-2.11143E-13
 -1      2410 2.00540E+01 2.09809E-02 8.74617E-04 5.24963E-02-3.63569E-14-3.01287E-13
 -1      2411 2.00574E+01 3.20208E-02-4.73642E-04 7.18429E-02-1.98531E-14-2.46616E-14
 -1      2412 2.00211E+01 1.25301E-02 1.52569E-04 2.77861E-02 7.19541E-14-2.74050E-13
 -1      2413 2.00308E+01 1.50306E-02 6.41481E-04 3.41761E-02 9.68599E-14-1.39141E-13
 -1      2414 2.00358E+01 2.30770E-02-3.73660E-04 4.78988E-02 5.00035E-15-5.83974E-14
 -1      2415 2.00085E+01 8.67267E-03 1.16548E-04 1.65635E-02 1.68403E-13-3.90304E-13
 -1      2416 2.00149E+01 1.05394E-02 4.62143E-04 2.10543E-02 1.12526E-13-3.38840E-13
 -1      2417 2.00204E+01 1.62985E-02-2.89385E-04 3.05399E-02 1.33711E-13-2.51218E-13
 -1      2418 2.00004E+01 5.82130E-03 8.73285E-05 8.78901E-03 1.18719E-13-3.50608E-13
 -1      2419 2.00044E+01 7.19454E-03 3.26028E-04 1.18623E-02 1.84972E-13-3.30743E-13
 -1      2420 2.00099E+01 1.12281E-02-2.20051E-04 1.82074E-02 1.79967E-13-9.88670E-14
 -1      2421 1.99955E+01 3.74734E-03 6.41110E-05 3.56827E-03-7.46991E-15-2.81139E-13
 -1      2422 1.99977E+01 4.74059E-03 2.24149E-04 5.59938E-03-5.87210E-14-4.56882E-13
 -1      2423 2.00029E+01 7.48981E-03-1.64209E-04 9.65854E-03 4.60664E-15-1.31981E-13
 -1      2424 1.99929E+01 2.26733E-03 4.60141E-05 2.07531E-04 6.66296E-16-2.90379E-13
 -1      2425 1.99939E+01 2.97136E-03 1.49047E-04 1.48581E-03 1.50694E-13-1.88795E-13
 -1      2426 1.99985E+01 4.77910E-03-1.20091E-04 3.91532E-03 1.87511E-14-1.46010E-13
 -1      2427 1.99917E+01 1.23555E-03 3.21697E-05-1.82472E-03 5.40685E-14-3.08500E-13
 -1      2428 1.99920E+01 1.72224E-03 9.46369E-05-1.07902E-03 4.34756E-15-2.94506E-13
 -1      2429 1.99960E+01 2.85187E-03-8.58666E-05 2.17448E-04 4.35571E-14-1.15809E-13
 -1      2430 1.99915E+01 5.37346E-04 2.17776E-05-2.93041E-03 7.83172E-14-3.07241E-13
 -1      2431 1.99913E+01 8.63064E-04 5.60147E-05-2.55183E-03 6.03091E-14-3.91336E-13
 -1      2432 1.99947E+01 1.51451E-03-5.97887E-05-2.01865E-03 7.38590E-14-1.64129E-13
 -1      2433 1.99920E+01 8.34279E-05 1.41320E-05-3.40906E-03-3.85235E-14-3.98356E-13
 -1      2434 1.99915E+01 2.91922E-04 2.92777E-05-3.27517E-03 6.18464E-14-4.04053E-13
 -1      2435 1.99942E+01 6.14966E-04-4.02809E-05-3.23481E-03 1.06077E-13-3.56185E-13
 -1      2436 1.99927E+01-1.94940E-04 8.63092E-06-3.48022E-03 9.67951E-14-4.83879E-13
 -1      2437 1.99921E+01-7.01238E-05 1.13547E-05-3.50200E-03 5.43964E-14-3.71788E-13
 -1      2438 1.99943E+01 3.50566E-05-2.59725E-05-3.76063E-03-3.99931E-15-4.50449E-13
 -1      2439 1.99936E+01-3.50019E-04 4.77374E-06-3.30172E-03 9.25968E-14-4.46226E-13
 -1      2440 1.99930E+01-2.83487E-04-1.43386E-07-3.41577E-03 1.41639E-13-3.70406E-13
 -1      2441 1.99947E+01-3.16006E-04-1.57060E-05-3.83783E-03 4.96719E-14-3.06947E-13
 -1      2442 1.99946E+01-4.20988E-04 2.15328E-06-2.98441E-03 1.23954E-13-4.11429E-13
 -1      2443 1.99939E+01-3.93796E-04-7.05165E-06-3.14668E-03 2.19305E-14-3.93532E-13
 -1      2444 1.99953E+01-5.07084E-04-8.52673E-06-3.64023E-03 9.94560E-14-1.03453E-13
 -1      2445 1.99955E+01-4.36745E-04 4.44422E-07-2.60386E-03 9.44687E-14-4.90176E-13
 -1      2446 1.99949E+01-4.34997E-04-1.07606E-05-2.78477E-03 1.61705E-13-5.15746E-13
 -1      2447 1.99959E+01-5.89656E-04-3.66303E-06-3.28994E-03 8.54551E-14-1.60449E-13
 -1      2448 1.99963E+01-4.18221E-04-6.08258E-07-2.20966E-03 4.48889E-14-3.94363E-13
 -1      2449 1.99958E+01-4.31918E-04-1.23082E-05-2.39018E-03 1.31862E-13-3.71916E-13
 -1      2450 1.99966E+01-6.01581E-04-5.02754E-07-2.87019E-03 4.69935E-14-1.41486E-13
 -1      2451 1.99970E+01-3.80258E-04-1.20263E-06-1.83250E-03-3.33624E-14-3.89333E-13
 -1      2452 1.99966E+01-4.02360E-04-1.24556E-05-2.00122E-03-7.80364E-14-4.36696E-13
 -1      2453 1.99972E+01-5.70184E-04 1.43144E-06-2.43555E-03 8.15004E-15-7.53818E-14
 -1      2454 1.99977E+01-3.33124E-04-1.49039E-06-1.48972E-03-7.60574E-14-4.24956E-13
 -1      2455 1.99973E+01-3.58805E-04-1.17505E-05-1.64056E-03-2.01840E-15-3.94769E-13
 -1      2456 1.99977E+01-5.14767E-04 2.50524E-06-2.01980E-03-1.80166E-14-8.95691E-14
 -1      2457 1.99982E+01-2.83727E-04-1.58702E-06-1.18940E-03 2.50104E-14-4.43968E-13
 -1      2458 1.99979E+01-3.09772E-04-1.05769E-05-1.31994E-03-1.40495E-14-4.34659E-13
 -1      2459 1.99981E+01-4.48624E-04 2.99336E-06-1.64195E-03-9.12491E-14-3.54252E-13
 -1      2460 1.99986E+01-2.36572E-04-1.57859E-06-9.33373E-04-2.46936E-13-4.14111E-13
 -1      2461 1.99983E+01-2.60910E-04-9.19593E-06-1.04362E-03-6.33760E-14-3.70202E-13
 -1      2462 1.99985E+01-3.80660E-04 3.09758E-06-1.31083E-03-1.02509E-13-3.51920E-13
 -1      2463 1.99989E+01-1.94513E-04-1.52679E-06-7.19401E-04-3.37638E-13-5.52345E-13
 -1      2464 1.99987E+01-2.15845E-04-7.77539E-06-8.10938E-04-2.45739E-13-4.36398E-13
 -1      2465 1.99988E+01-3.16650E-04 2.96332E-06-1.02836E-03-1.94375E-13-3.49116E-13
 -1      2466 1.99992E+01-1.59300E-04-1.46644E-06-5.42712E-04-3.82985E-13-4.14882E-13
 -1      2467 1.99990E+01-1.76846E-04-6.41497E-06-6.18100E-04-4.70630E-13-4.49732E-13
 -1      2468 1.99991E+01-2.60226E-04 2.68859E-06-7.92014E-04-4.17312E-13-1.76501E-13
 -1      2469 1.99994E+01-1.31968E-04-1.46388E-06-3.97104E-04-3.77269E-13-1.48591E-13
 -1      2470 1.99993E+01-1.45307E-04-5.17685E-06-4.59440E-04-3.74135E-13-3.54060E-13
 -1      2471 1.99993E+01-2.13542E-04 2.32785E-06-5.96562E-04-4.62041E-13-3.07404E-14
 -1      2472 1.99995E+01-1.12133E-04-1.31490E-06-2.75592E-04-2.87021E-13-1.71230E-14
 -1      2473 1.99995E+01-1.21794E-04-4.05613E-06-3.28125E-04-3.33280E-13-7.86107E-14
 -1      2474 1.99995E+01-1.77573E-04 2.03291E-06-4.35657E-04-3.86260E-13-6.67653E-14
 -1      2475 1.99997E+01-9.79598E-05-1.07309E-06-1.73554E-04-3.08579E-13-1.84564E-14
 -1      2476 1.99996E+01-1.04939E-04-3.13281E-06-2.18269E-04-2.32308E-13-5.36634E-14
 -1      2477 1.99996E+01-1.49953E-04 2.17178E-06-3.01396E-04-2.80279E-13-7.10982E-14
 -1      2478 1.99997E+01-8.73037E-05-1.92989E-06-1.19017E-04-2.91490E-13 6.69285E-14
 -1      2479 1.99999E+01-5.15641E-04 2.50155E-06-2.45938E-04 3.34155E-14-8.26357E-13
 -1      2480 1.99998E+01-4.69666E-04-8.54467E-07-2.64632E-04-9.37417E-14-1.06526E-12
 -1      2481 1.99999E+01-5.98255E-04 2.55499E-06-1.77119E-04-1.89294E-13-1.96010E-13
 -1      2482 1.99999E+01-5.63958E-04 4.22538E-08-2.12001E-04-2.81619E-14-4.49687E-13
 -1      2483 1.99999E+01-5.72569E-04-1.75751E-06-2.68328E-04 9.17105E-15-6.27919E-13
 -1      2484 1.99998E+01-2.94923E-04 1.57643E-06-2.66226E-04-2.34374E-13 1.22467E-13
 -1      2485 1.99997E+01-2.43388E-04-2.07034E-06-2.47977E-04-1.45429E-13 1.02251E-13
 -1      2486 1.99998E+01-4.10221E-04 2.12774E-06-2.77384E-04-2.25661E-13-7.40230E-13
 -1      2487 1.99998E+01-3.59138E-04-1.61225E-06-2.77013E-04-1.98504E-13-2.57185E-13
 -1      2488 1.99998E+01-3.49848E-04-9.87308E-07-3.23406E-04-2.21976E-13-8.32294E-14
 -1      2489 1.99998E+01-4.68779E-04-1.09416E-06-3.19360E-04-8.26519E-14-7.69527E-13
 -1      2490 1.99999E+01-6.47718E-04 2.29467E-06-8.18702E-05-2.73635E-13 3.88866E-15
 -1      2491 1.99999E+01-6.29452E-04 9.71043E-07-1.27346E-04-1.59201E-13-9.07174E-14
 -1      2492 1.99999E+01-6.49117E-04-2.25392E-06-1.77808E-04-2.12418E-13-1.81850E-13
 -1      2493 1.99999E+01-6.58209E-04 1.74702E-06 2.54127E-05-2.18241E-13 2.35099E-14
 -1      2494 1.99999E+01-6.58374E-04 1.75503E-06-2.36996E-05-3.70666E-13 9.39243E-14
 -1      2495 2.00000E+01-6.89410E-04-2.50998E-06-6.15536E-05-8.70949E-14-6.51890E-14
 -1      2496 1.99999E+01-6.28546E-04 9.87853E-07 1.28851E-04-9.85151E-14-5.22776E-15
 -1      2497 1.99999E+01-6.47182E-04 2.28334E-06 8.35180E-05-1.58411E-13 1.86768E-13
 -1      2498 2.00000E+01-6.89037E-04-2.50075E-06 6.35464E-05 2.63633E-14 1.79851E-13
 -1      2499 1.99999E+01-5.63914E-04 5.83186E-08 2.11905E-04-2.80068E-15-2.11289E-13
 -1      2500 1.99999E+01-5.97701E-04 2.54051E-06 1.77681E-04 1.98026E-15-1.94575E-13
 -1      2501 1.99999E+01-6.48609E-04-2.28030E-06 1.78675E-04 1.20417E-14 7.99367E-14
 -1      2502 1.99998E+01-4.69634E-04-8.28652E-07 2.64572E-04 2.97330E-13-8.53732E-14
 -1      2503 1.99999E+01-5.15643E-04 2.49078E-06 2.45865E-04 2.42723E-13-3.86557E-13
 -1      2504 1.99999E+01-5.72471E-04-1.74407E-06 2.68264E-04 2.12295E-13-2.39786E-13
 -1      2505 1.99998E+01-3.57174E-04-1.40184E-06 2.76495E-04 2.05973E-13 2.70592E-13
 -1      2506 1.99998E+01-4.09846E-04 1.99436E-06 2.77518E-04 2.01729E-13 2.56611E-13
 -1      2507 1.99998E+01-4.68200E-04-9.79040E-07 3.19367E-04 3.96344E-13-5.31217E-14
 -1      2508 1.99997E+01-2.40252E-04-1.70346E-06 2.45823E-04 1.82269E-16 1.41547E-13
 -1      2509 1.99998E+01-2.93509E-04 1.19098E-06 2.66335E-04 1.09039E-13 1.07341E-13
 -1      2510 1.99998E+01-3.47008E-04 3.20831E-07 3.22915E-04 2.59955E-13 1.02672E-13
 -1      2511 1.95854E+01-3.73683E+00-8.79349E-02 6.75692E+00-1.71529E-13 1.78253E-13
 -1      2512 1.55535E+01-3.33938E+00 7.46753E-02 6.86376E+00-2.13690E-13 5.19529E-13
 -1      2513 1.99997E+01-1.37624E-04-1.71795E-06 1.56288E-04 7.90500E-14 3.83870E-13
 -1      2514 4.60206E+00-3.35325E-01 7.24638E-02-1.37115E+00 2.98282E-13 1.56691E-12
 -1      2515 5.77726E+00-7.75638E-01 6.64440E-02-3.83352E+00 3.20827E-13 1.60466E-12
 -1      2516 2.53974E+01 2.23324E+00-4.82505E-02 9.69836E-01 9.31061E-13 1.71032E-13
 -1      2517 2.57958E+01 2.08061E+00-3.34935E-02 1.91486E+00 8.86430E-13 4.11734E-13
 -1      2518 2.64517E+01 2.44648E+00-7.14898E-02 2.39676E+00 1.00907E-12 3.41484E-13
 -1      2519 2.63648E+01 2.96095E+00-8.84735E-02 5.24127E-01 1.11285E-12-1.70427E-13
 -1      2520 5.82709E+00-3.87663E-01 9.97935E-02 3.00262E+00-8.99697E-14 1.40954E-12
 -1      2521 4.76696E+00-2.00810E-01 1.13724E-01 8.59479E-01 1.43722E-14 1.49508E-12
 -1      2522 2.61438E+01-3.28931E+00-1.38477E-01 4.24907E+00 1.64951E-13-5.46702E-13
 -1      2523 2.35930E+01-3.64565E+00 5.59483E-02 5.21785E+00-1.00558E-13-2.44277E-13
 -1      2524 3.24706E+01 4.40059E+00-1.07008E-01 2.88768E-01 1.49353E-12-7.60891E-13
 -1      2525 3.18945E+01 2.96427E+00-4.09097E-02 3.10878E-01 1.28919E-12-8.12184E-13
 -1      2526 8.13467E+00-1.88811E+00 5.19327E-02-5.63759E+00 5.35738E-13 1.25425E-12
 -1      2527 1.15723E+01-2.67688E+00-7.98152E-03-7.02216E+00 5.02320E-13 9.13686E-13
 -1      2528 3.09220E+01 6.98870E+00-1.53427E-01-1.70205E+00-1.72934E-12-6.10949E-13
 -1      2529 3.12905E+01 6.16227E+00-6.09679E-02-1.67964E+00-1.68526E-12-5.56388E-13
 -1      2530 5.34859E+00 2.85163E+00 5.12626E-02 4.02758E+00 5.69683E-13-1.59878E-12
 -1      2531 3.43864E+00 3.26330E+00 8.26610E-02 2.73987E+00 6.09943E-13-1.70566E-12
 -1      2532 1.59850E+01-6.26092E-01 8.88859E-03-3.27200E+00 6.66134E-15-1.04906E-12
 -1      2533 2.01019E+01-1.41066E+00 2.60307E-03-2.93891E+00 1.86406E-13-8.19201E-13
 -1      2534 9.07641E+00 2.21265E+00 8.45188E-02 4.47260E+00 8.19747E-13-1.34104E-12
 -1      2535 2.56510E+01-1.07762E-01-8.37982E-02 2.06824E+00 4.12136E-14 1.26385E-13
 -1      2536 2.36867E+01-1.45973E-01 1.63694E-02 8.94246E-01-2.08642E-13-6.45144E-14
 -1      2537 2.72871E+01-4.84379E-01 3.37337E-02 2.96301E+00 1.62151E-13 4.49044E-13
 -1      2538 1.48086E+01 1.11159E+00 3.87856E-02 4.25866E+00 9.32560E-13-9.18723E-13
 -1      2539 1.82324E+01 6.80043E-01 6.38227E-02 3.41600E+00 8.41771E-13-7.14194E-13
 -1      2540 2.44102E+00 3.60548E+00 9.81253E-02 1.63611E+00 3.54744E-13-1.78954E-12
 -1      2541 3.18955E+01 2.71496E+00-7.06364E-02 2.97491E+00 1.54154E-12-9.60620E-14
 -1      2542 3.28538E+01 4.12067E+00-9.62665E-02 3.00305E+00 1.70805E-12-1.69947E-13
 -1      2543 3.20488E+01 6.35318E+00-1.54757E-01 1.03068E+00 1.75349E-12-5.29049E-13
 -1      2544 3.23523E+01 5.71228E+00-8.01862E-02 4.88653E-01 1.63475E-12-6.49786E-13
 -1      2545 2.88688E+01-6.84798E-01-4.94152E-02 1.18312E+00 8.84830E-13-1.01252E-13
 -1      2546 3.11272E+01 6.54802E-01-1.13547E-01 2.29677E+00 1.21755E-12-7.03326E-14
 -1      2547 2.31304E+01-1.88139E+00-7.76847E-02-1.78566E+00 4.08285E-13-5.85088E-13
 -1      2548 2.68131E+01-1.81066E+00-1.07023E-01-4.73733E-01 6.36644E-13-3.21521E-13
 -1      2549 2.80539E+01-1.27625E+00-3.64875E-02 1.47283E+00 5.38868E-13 1.35544E-13
 -1      2550 2.32093E+01-1.46129E+00 4.08326E-02-8.24131E-01-1.04611E-13-2.95444E-13
 -1      2551 8.02686E+00 1.24423E+00-5.06525E-05-3.26462E+00 4.95437E-14-1.56922E-12
 -1      2552 1.11034E+01 3.63102E-01 3.88060E-04-3.96262E+00 1.54515E-13-1.46975E-12
 -1      2553 2.21877E+00 3.48067E+00 9.12571E-02 2.68142E-01 3.89225E-13-1.81666E-12
 -1      2554 2.91062E+01 2.02744E+00-1.03501E-01 2.80243E-01-1.08947E-12-5.14061E-13
 -1      2555 2.68334E+01 1.06550E+00-6.36322E-02 1.15608E+00-7.46042E-13-4.84612E-13
 -1      2556 1.79735E+01 2.89839E-01-1.77540E-02 4.82398E+00 9.82270E-14-9.34201E-13
 -1      2557 1.50619E+01 6.03488E-01-2.48262E-02 4.92062E+00 3.92963E-13-9.97123E-13
 -1      2558 2.75516E+01-9.71034E-01-4.06648E-02-2.68530E+00-2.04350E-13-8.00499E-13
 -1      2559 2.89564E+01 5.46276E-01-1.66603E-01-1.59833E+00-4.76119E-13-9.56513E-13
 -1      2560 2.43178E+01 1.65680E-01-8.51877E-02 2.82286E+00-4.00513E-13-6.02601E-13
 -1      2561 2.10064E+01 2.94403E-02-4.84607E-02 3.75454E+00-8.94285E-14-7.48610E-13
 -1      2562 3.10458E+01 4.71421E+00-1.36740E-01-1.41070E+00-1.55739E-12-4.51750E-13
 -1      2563 3.00143E+01 3.52071E+00-8.14067E-02-8.35290E-01-1.33750E-12-4.56746E-13
 -1      2564 3.08443E+01 6.66521E+00-1.00495E-01-6.93764E-01-1.53921E-12-8.95561E-13
 -1      2565 3.08229E+01 7.18873E+00-1.12500E-01-1.10192E+00-1.63547E-12-7.92786E-13
 -1      2566 3.00455E+01 3.40116E+00-5.34829E-02-6.59611E-01-9.68725E-13-1.00145E-12
 -1      2567 3.08840E+01 5.22991E+00-1.29566E-01-5.39728E-01-1.32097E-12-9.95648E-13
 -1      2568 2.29541E+01-3.08749E+00 1.69570E-02-5.26286E+00 2.51632E-13-2.97401E-13
 -1      2569 2.59158E+01-2.22434E+00-7.72869E-02-4.26485E+00-8.00748E-15-5.72264E-13
 -1      2570 2.66901E+01-2.07163E+00 2.86836E-02-2.54570E+00 1.52114E-13-9.28188E-13
 -1      2571 1.55141E+01-3.26862E+00 5.00518E-02-6.94011E+00 5.85865E-13 4.72105E-13
 -1      2572 1.90988E+01-3.42586E+00-5.90618E-02-6.85083E+00 4.11615E-13 7.87564E-14
 -1      2573 2.40789E+01 2.04339E+00-4.04809E-02-3.51236E+00-6.81059E-13-3.67689E-13
 -1      2574 2.36762E+01 1.40666E+00 5.66486E-03-2.88970E+00-6.58418E-13-2.43139E-13
 -1      2575 2.38508E+01 1.68620E+00 6.80012E-03-2.99609E+00-6.22171E-13-3.58534E-13
 -1      2576 2.41167E+01 2.34921E+00-1.34498E-02-3.48772E+00-5.74425E-13-5.15303E-13
 -1      2577 3.10107E+01 5.38475E-01-1.40782E-01 1.23446E+00 1.01550E-12-8.59451E-13
 -1      2578 2.88207E+01-1.51416E+00-1.48384E-02 2.29993E+00 6.09901E-13-8.00748E-13
 -1      2579 3.80991E+00 3.21207E+00 9.09823E-02-1.12780E+00 2.79082E-14-1.73661E-12
 -1      2580 6.13058E+00 2.50900E+00 1.21674E-01-2.58384E+00 7.23727E-14-1.67541E-12
 -1      2581 2.41207E+01 6.04955E-01-3.00600E-02-5.08416E-01 2.91832E-13-2.23146E-13
 -1      2582 2.49418E+01 1.58396E+00 2.27680E-03-2.44659E+00-8.62262E-14-3.23756E-13
 -1      2583 2.45251E+01 1.95296E+00-4.64879E-03-2.46829E+00-5.06867E-14-5.34054E-13
 -1      2584 2.44227E+01 2.22500E+00-6.72708E-02-2.94392E+00-2.61453E-13-5.93546E-13
 -1      2585 2.32468E+01-9.74910E-01 1.01434E-03-1.98607E-02-1.26878E-13-9.15639E-14
 -1      2586 2.04979E+01 1.18261E-01-2.33811E-02 2.66113E+00 5.66047E-13-4.78405E-13
 -1      2587 1.27788E+01 1.65974E+00 1.89805E-01-2.74873E+00-3.97446E-13-1.17187E-12
 -1      2588 8.43203E+00 2.37252E+00 2.86312E-02-2.55700E+00-2.92155E-13-1.43072E-12
 -1      2589 7.76331E+00-4.88935E-01 1.47025E-01 3.96930E+00-2.19075E-13 1.22297E-12
 -1      2590 8.39375E+00 4.93340E-01 1.57859E-01 2.95679E+00-2.37643E-13 1.15213E-12
 -1      2591 9.75531E+00-7.20008E-01 8.11848E-03 4.88480E+00-4.35457E-13 9.10383E-13
 -1      2592 3.07736E+01 4.40876E+00-6.89410E-02-1.83547E-01 1.42913E-12-7.61918E-13
 -1      2593 1.43488E+01-2.53890E+00 1.34351E-01 6.55780E+00-4.43118E-13 5.47326E-13
 -1      2594 8.76721E+00-7.28011E-01 1.48282E-01-4.69126E+00 5.80813E-13 1.27948E-12
 -1      2595 1.99997E+01-1.30008E-04-3.30736E-07-1.82765E-04-3.44907E-13-3.12731E-13
 -1      2596 1.99997E+01-1.69983E-04-5.09870E-08-2.13616E-04-2.71202E-13-2.33973E-13
 -1      2597 2.20685E+01-3.73264E+00 5.43413E-02 5.49623E+00-3.81362E-13-2.35569E-13
 -1      2598 1.99997E+01-1.32840E-04-1.84353E-06 1.99329E-04 7.60867E-14 4.19035E-13
 -1      2599 1.99997E+01-1.88126E-04 1.30066E-06 2.29147E-04-2.46163E-14 2.30587E-13
 -1      2600 1.99997E+01-2.36832E-04-1.15987E-06 2.95030E-04-6.57756E-14 2.56481E-13
 -1      2601 1.99996E+01-1.43181E-04-3.15456E-06 2.45310E-04-9.03522E-14 4.91115E-13
 -1      2602 6.61245E+00 5.20051E-01 1.75182E-01-3.85444E-01 1.01030E-13 1.47107E-12
 -1      2603 2.78837E+01-2.66704E+00 4.21524E-02 2.23163E+00 1.34150E-13-8.92619E-13
 -1      2604 2.43701E+01 2.38576E+00-2.26832E-02-3.19595E+00-3.58941E-13-5.99618E-13
 -1      2605 2.42023E+01 2.44353E+00-5.40890E-02-3.44064E+00-5.30773E-13-5.89612E-13
 -1      2606 2.43057E+01 2.07753E+00 1.13669E-02-3.34383E+00-5.72715E-13-4.66849E-13
 -1      2607 2.46938E+01 2.12120E+00 1.33667E-02-3.18625E+00-3.79707E-13-4.50520E-13
 -1      2608 3.04418E+01 1.11091E+00-1.76004E-02-2.43345E-01 9.25773E-13-9.97313E-13
 -1      2609 1.49180E+01-2.71531E+00 1.03609E-01-6.77062E+00 7.30777E-13 4.70318E-13
 -1      2610 2.94224E+01 5.36961E+00-2.39652E-02-2.27145E+00-1.43693E-12-3.12861E-13
 -1      2611 2.21088E+01-3.45221E+00 7.31496E-02-5.39820E+00 5.89279E-13-3.10051E-13
 -1      2612 2.87176E+01 1.53472E+00-2.49595E-02-3.02906E-01-5.40512E-13-1.17750E-12
 -1      2613 2.91760E+01 5.51204E+00-6.35601E-02-1.27382E-01-1.25422E-12-1.00636E-12
 -1      2614 3.13599E+01 4.78643E+00-8.93181E-02 3.38632E+00 1.66361E-12-2.75335E-14
 -1      2615 2.58233E+01 5.31232E-01 3.90206E-02 9.66511E-01-2.58044E-13-3.17468E-13
 -1      2616 1.56245E+01 1.16221E-01 6.26929E-02-2.84366E+00-2.67369E-13-9.50448E-13
 -1      2617 3.14031E+01 6.17131E+00-1.07704E-01 1.45244E+00 1.76756E-12-4.25531E-13
 -1      2618 2.96248E+01 5.56542E+00-8.64146E-02 7.12157E-01 1.59150E-12-4.98348E-13
 -1      2619 3.00208E+01 5.81661E+00-1.58619E-01 1.89369E+00 1.73436E-12-2.62242E-13
 -1      2620 1.26491E+01 1.44390E+00 6.42337E-02 5.00105E+00 6.42875E-13-1.15440E-12
 -1      2621 2.92088E+01 6.81812E+00-6.83336E-02-1.38424E+00-1.56178E-12-6.69478E-13
 -1      2622 3.05946E+01 1.38819E+00-3.09624E-02 3.58987E+00 1.13104E-12 2.58599E-13
 -1      2623 2.05141E+01 5.34870E-02 5.44175E-02 3.39470E+00 4.04676E-13-6.03954E-13
 -1      2624 2.87730E+01 2.75218E+00 1.30254E-02-1.40169E+00-9.66956E-13-1.70891E-13
 -1      2625 1.99997E+01-2.15977E-04-1.34385E-06-2.80175E-04-2.13305E-13 9.78368E-15
 -1      2626 1.99996E+01-1.92889E-04 2.03746E-06 3.19911E-04-5.83821E-14 3.58083E-13
 -1      2627 2.32043E+01-1.14149E-01-4.07277E-02 1.68248E+00 3.07497E-13-3.45501E-13
 -1      2628 2.84185E+01-2.29372E-01-4.93439E-02 4.05082E+00 4.60329E-13 7.48335E-13
 -1      2629 2.82011E+01-3.00946E-01-1.08608E-01 4.03026E+00 4.68160E-13 6.57830E-13
 -1      2630 2.81543E+01 4.24024E-01 4.20669E-02 4.20826E+00 5.94011E-13 7.81014E-13
 -1      2631 2.49187E+01 3.10676E-01-4.58411E-02 4.42917E-01-2.88207E-14-1.72209E-13
 -1      2632 2.49426E+01 4.75097E-01 3.06885E-02-2.47160E-01 1.93262E-13-1.44586E-13
 -1      2633 2.68432E+01 9.43283E-01-1.27125E-01-9.00238E-01-4.21831E-13-9.92262E-14
 -1      2634 2.56650E+01-2.02063E+00 3.32049E-02 2.32109E-01-1.42799E-13-7.46772E-13
 -1      2635 2.61503E+01-1.87157E+00 7.06637E-04-3.07183E-01 2.59653E-14-8.42897E-13
 -1      2636 2.31998E+01 2.12340E+00-8.77834E-03-1.57721E+00-6.08108E-13-4.96752E-13
 -1      2637 2.29885E+01 2.14409E+00-1.40875E-03-1.00887E+00-6.07535E-13-5.60718E-13
 -1      2638 2.28816E+01 2.03255E+00 1.07211E-02-3.46776E-01-5.82681E-13-6.66358E-13
 -1      2639 2.27778E+01 1.74700E+00-1.88008E-02 1.62138E-01-5.10457E-13-7.32297E-13
 -1      2640 2.33640E+01 2.56795E+00-1.47945E-02-7.98285E-01-6.70388E-13-6.63227E-13
 -1      2641 2.28461E+01 1.35145E+00 2.04493E-02 6.31753E-01-4.37811E-13-7.86348E-13
 -1      2642 2.28239E+01 8.66307E-01-2.48072E-02 9.11270E-01-3.45332E-13-7.98119E-13
 -1      2643 2.32817E+01 1.90648E+00-8.34820E-03 4.09332E-01-5.28819E-13-8.45768E-13
 -1      2644 2.28908E+01 3.89918E-01 1.44104E-02 1.04176E+00-2.57663E-13-8.00403E-13
 -1      2645 2.28805E+01-5.90646E-02-1.88500E-02 1.05968E+00-1.37940E-13-8.18934E-13
 -1      2646 2.33518E+01 7.74588E-01 4.82440E-03 1.00811E+00-3.04169E-13-9.05111E-13
 -1      2647 2.28056E+01-4.04988E-01 2.09083E-03 9.13890E-01-1.11227E-13-8.12400E-13
 -1      2648 2.27522E+01-6.60164E-01-6.20125E-03 7.60790E-01-8.17828E-14-8.17929E-13
 -1      2649 2.32740E+01-2.84197E-01 7.05960E-03 9.45827E-01-1.55707E-13-8.80873E-13
 -1      2650 2.25330E+01-8.05040E-01-5.99636E-03 5.04993E-01-2.75236E-14-7.42045E-13
 -1      2651 2.24272E+01-8.61377E-01 3.87928E-03 2.95187E-01 1.58636E-14-7.07962E-13
 -1      2652 2.29286E+01-8.94807E-01 2.57520E-03 5.02993E-01-3.96471E-15-8.15665E-13
 -1      2653 2.21413E+01-8.49635E-01-8.22646E-03 5.62530E-02 1.13592E-14-6.07193E-13
 -1      2654 2.20029E+01-7.80964E-01 8.17682E-03-1.33505E-01 2.16056E-14-5.13331E-13
 -1      2655 2.24059E+01-1.03959E+00-3.77131E-03-4.29694E-03 8.81100E-14-6.31266E-13
 -1      2656 2.17238E+01-6.88232E-01-6.99827E-03-3.03131E-01-8.89067E-15-4.24091E-13
 -1      2657 2.15778E+01-5.70437E-01 8.39796E-03-4.39862E-01 3.47315E-14-4.05983E-13
 -1      2658 2.18513E+01-8.87573E-01-7.72631E-03-4.03919E-01 7.61280E-14-4.51468E-13
 -1      2659 2.13449E+01-4.56876E-01-4.57243E-03-5.35206E-01 3.66267E-14-3.71645E-13
 -1      2660 2.12087E+01-3.39780E-01 6.81224E-03-6.14925E-01 8.29601E-14-3.61463E-13
 -1      2661 2.13627E+01-6.16440E-01-8.37768E-03-6.51486E-01 3.61989E-14-3.52366E-13
 -1      2662 2.10321E+01-2.39266E-01-2.28420E-03-6.51253E-01 3.35996E-14-3.53548E-13
 -1      2663 2.09136E+01-1.45802E-01 4.81025E-03-6.83702E-01 5.26488E-14-3.66887E-13
 -1      2664 2.09783E+01-3.43902E-01-7.00623E-03-7.65628E-01 4.93487E-14-3.49314E-13
 -1      2665 2.07871E+01-7.08448E-02-6.18127E-04-6.79803E-01 7.52811E-14-4.00162E-13
 -1      2666 2.06875E+01-6.39567E-03 3.02415E-03-6.78327E-01 7.16454E-14-4.30687E-13
 -1      2667 2.06954E+01-1.25154E-01-5.20334E-03-7.83991E-01 7.93232E-14-2.69531E-13
 -1      2668 2.06000E+01 4.23630E-02 4.64271E-04-6.50054E-01 8.05991E-14-3.89530E-13
 -1      2669 2.05178E+01 8.09392E-02 1.67190E-03-6.27139E-01 7.98250E-14-3.31743E-13
 -1      2670 2.04952E+01 2.67220E-02-3.60812E-03-7.41403E-01 7.76769E-14-3.38059E-13
 -1      2671 2.04580E+01 1.08130E-01 1.09920E-03-5.86253E-01-6.46007E-15-3.28950E-13
 -1      2672 2.03907E+01 1.26976E-01 7.57744E-04-5.51802E-01-5.57146E-14-3.54345E-13
 -1      2673 2.03559E+01 1.18502E-01-2.41737E-03-6.64774E-01 1.98225E-15-3.50653E-13
 -1      2674 2.03499E+01 1.38526E-01 1.41979E-03-5.06320E-01-8.29138E-14-3.55940E-13
 -1      2675 2.02950E+01 1.43861E-01 1.92799E-04-4.67435E-01-7.28912E-14-3.72151E-13
 -1      2676 2.02592E+01 1.64159E-01-1.60509E-03-5.72992E-01-7.81504E-14-3.74745E-13
 -1      2677 2.02669E+01 1.45145E-01 1.52602E-03-4.22467E-01-4.16355E-14-3.64976E-13
 -1      2678 2.02224E+01 1.42107E-01-1.23237E-04-3.83815E-01-3.71793E-14-3.46334E-13
 -1      2679 2.01912E+01 1.78001E-01-1.08138E-03-4.78484E-01-4.87991E-14-3.57866E-13
 -1      2680 2.02027E+01 1.37326E-01 1.49234E-03-3.42359E-01-3.67782E-14-3.38196E-13
 -1      2681 2.01668E+01 1.29710E-01-2.75062E-04-3.06716E-01-3.29011E-14-2.56504E-13
 -1      2682 2.01426E+01 1.71935E-01-7.54099E-04-3.88897E-01 5.74554E-15-3.91481E-13
 -1      2683 2.01527E+01 1.21853E-01 1.37381E-03-2.70298E-01-6.47482E-14-2.06833E-13
 -1      2684 2.01241E+01 1.12250E-01-3.25805E-04-2.39074E-01-5.14919E-14-2.95349E-13
 -1      2685 2.01071E+01 1.54828E-01-5.50870E-04-3.08472E-01-4.62633E-14-2.98738E-13
 -1      2686 2.01138E+01 1.03290E-01 1.21046E-03-2.08233E-01-8.30023E-14-2.96624E-13
 -1      2687 2.00913E+01 9.33423E-02-3.19106E-04-1.81922E-01-5.79657E-14-3.75507E-13
 -1      2688 2.00806E+01 1.32779E-01-4.21868E-04-2.39113E-01-7.64369E-14-2.94493E-13
 -1      2689 2.00836E+01 8.44881E-02 1.03035E-03-1.56575E-01 5.12134E-14-3.79528E-13
 -1      2690 2.00662E+01 7.51486E-02-2.83429E-04-1.35091E-01 7.79081E-14-4.33365E-13
 -1      2691 2.00606E+01 1.09692E-01-3.35687E-04-1.81180E-01-6.64002E-14-2.72610E-13
 -1      2692 2.00604E+01 6.70692E-02 8.52058E-04-1.14794E-01 1.31320E-13-4.34552E-13
 -1      2693 2.00470E+01 5.88235E-02-2.36340E-04-9.77241E-02 1.40102E-13-2.88478E-13
 -1      2694 2.00452E+01 8.78635E-02-2.73824E-04-1.34089E-01 1.27017E-13-4.04041E-13
 -1      2695 2.00426E+01 5.18294E-02 6.86949E-04-8.18527E-02 7.63273E-14-3.31738E-13
 -1      2696 2.00326E+01 4.48601E-02-1.87997E-04-6.86232E-02 1.09802E-13-3.65382E-13
 -1      2697 2.00334E+01 6.84865E-02-2.26007E-04-9.67284E-02 6.01255E-14-3.31737E-13
 -1      2698 2.00292E+01 3.90366E-02 5.41065E-04-5.64925E-02 3.47266E-14-4.22868E-13
 -1      2699 2.00219E+01 3.33429E-02-1.43747E-04-4.64837E-02-3.94879E-14-5.03573E-13
 -1      2700 2.00243E+01 5.20333E-02-1.86847E-04-6.77563E-02 3.27311E-14-4.08633E-13
 -1      2701 2.00193E+01 2.86435E-02 4.16739E-04-3.74227E-02-7.89244E-15-5.07113E-13
 -1      2702 2.00140E+01 2.41225E-02-1.05948E-04-3.00342E-02-2.01579E-14-4.86406E-13
 -1      2703 2.00174E+01 3.85354E-02-1.53657E-04-4.57858E-02-4.02266E-15-4.73051E-13
 -1      2704 2.00121E+01 2.04312E-02 3.13879E-04-2.34289E-02-3.03911E-14-4.97759E-13
 -1      2705 2.00084E+01 1.69321E-02-7.51995E-05-1.81174E-02-1.23687E-14-4.51065E-13
 -1      2706 2.00121E+01 2.77755E-02-1.25144E-04-2.95037E-02 3.26485E-14-4.22080E-13
 -1      2707 2.00070E+01 1.41037E-02 2.30934E-04-1.34315E-02-1.24378E-14-3.70454E-13
 -1      2708 2.00044E+01 1.14607E-02-5.11392E-05-9.72734E-03-8.01923E-14-3.39737E-13
 -1      2709 2.00082E+01 1.94148E-02-1.00666E-04-1.77336E-02 1.78233E-14-4.02793E-13
 -1      2710 2.00034E+01 9.34541E-03 1.65584E-04-6.50871E-03-1.00313E-13-3.51113E-13
 -1      2711 2.00018E+01 7.39780E-03-3.29429E-05-4.01992E-03-1.06047E-13-2.75202E-13
 -1      2712 2.00053E+01 1.30741E-02-7.98388E-05-9.46298E-03-7.83834E-14-3.08380E-13
 -1      2713 2.00010E+01 5.85506E-03 1.15222E-04-1.89804E-03-1.12523E-13-2.45091E-13
 -1      2714 2.00000E+01 4.45742E-03-1.96245E-05-3.06803E-04 7.82170E-15-1.48879E-13
 -1      2715 2.00032E+01 8.38077E-03-6.23521E-05-3.84775E-03-8.14546E-14-2.96923E-13
 -1      2716 1.99995E+01 3.36302E-03 7.72530E-05 1.01438E-03-5.86988E-15-2.07087E-13
 -1      2717 1.99989E+01 2.39006E-03-1.02055E-05 1.95950E-03 2.47080E-14-2.55810E-13
 -1      2718 2.00017E+01 4.99580E-03-4.78954E-05-2.02786E-04-1.88985E-14-2.92132E-13
 -1      2719 1.99986E+01 1.63860E-03 4.92730E-05 2.71132E-03-1.20841E-14-1.95258E-13
 -1      2720 1.99984E+01 9.86065E-04-3.80207E-06 3.20468E-03-8.10349E-14-2.20758E-13
 -1      2721 2.00007E+01 2.62508E-03-3.61378E-05 2.01518E-03 6.21453E-14-2.14819E-13
 -1      2722 1.99981E+01 4.90939E-04 2.91628E-05 3.56401E-03-1.00009E-13-8.88376E-14
 -1      2723 1.99981E+01 7.45651E-05 3.38617E-07 3.75258E-03-1.87569E-14-1.18579E-13
 -1      2724 2.00000E+01 1.02276E-03-2.67354E-05 3.22754E-03-1.45836E-14-2.54756E-14
 -1      2725 1.99979E+01-2.33504E-04 1.51198E-05 3.85175E-03-5.67438E-14 3.42118E-14
 -1      2726 1.99980E+01-4.80194E-04 2.83108E-06 3.84413E-03-2.13432E-14 1.02248E-13
 -1      2727 1.99996E+01-1.07751E-05-1.93445E-05 3.75432E-03 5.21572E-15-1.15669E-13
 -1      2728 1.99980E+01-6.55336E-04 5.65514E-06 3.77992E-03 1.47992E-15 4.94278E-14
 -1      2729 1.99981E+01-7.83601E-04 4.16026E-06 3.65442E-03 7.18351E-14 1.69938E-14
 -1      2730 1.99993E+01-6.33619E-04-1.36365E-05 3.83325E-03-4.27450E-14 1.84303E-14
 -1      2731 1.99981E+01-8.67186E-04-4.30251E-07 3.49582E-03 4.07246E-14-1.40174E-13
 -1      2732 1.99983E+01-9.15703E-04 4.69766E-06 3.30736E-03-2.81121E-15-2.07831E-13
 -1      2733 1.99992E+01-9.68154E-04-9.30888E-06 3.63689E-03-9.73196E-14-3.58918E-13
 -1      2734 1.99983E+01-9.38676E-04-4.08085E-06 3.10210E-03 6.50522E-15-1.92689E-13
 -1      2735 1.99985E+01-9.35992E-04 4.72002E-06 2.88785E-03-9.57008E-14-2.62654E-13
 -1      2736 1.99992E+01-1.10709E-03-6.09197E-06 3.28718E-03 4.66884E-14-3.72669E-13
 -1      2737 1.99985E+01-9.20990E-04-6.02458E-06 2.66772E-03-1.11037E-13-2.48785E-13
 -1      2738 1.99987E+01-8.87694E-04 4.42762E-06 2.45175E-03 1.14235E-13-1.57526E-13
 -1      2739 1.99992E+01-1.11917E-03-3.75231E-06 2.86758E-03 5.02587E-14-1.38215E-13
 -1      2740 1.99987E+01-8.50891E-04-6.81070E-06 2.23684E-03 2.03727E-13-1.41179E-13
 -1      2741 1.99989E+01-8.01466E-04 3.96059E-06 2.03372E-03 1.21305E-13-4.69012E-14
 -1      2742 1.99993E+01-1.05417E-03-2.09336E-06 2.43289E-03 8.36844E-14 1.27166E-16
 -1      2743 1.99989E+01-7.54127E-04-6.84365E-06 1.83574E-03 1.67654E-13 1.67372E-15
 -1      2744 1.99990E+01-6.98485E-04 3.41245E-06 1.65331E-03 1.34378E-13 9.35531E-14
 -1      2745 1.99993E+01-9.47346E-04-9.54849E-07 2.01704E-03 1.29334E-13 7.74817E-15
 -1      2746 1.99991E+01-6.48242E-04-6.41233E-06 1.47811E-03 1.31042E-14 1.05448E-13
 -1      2747 1.99992E+01-5.92954E-04 2.84518E-06 1.31958E-03 6.50110E-14 8.37793E-14
 -1      2748 1.99994E+01-8.22951E-04-2.09664E-07 1.63909E-03 1.19569E-13-4.53777E-14
 -1      2749 1.99992E+01-5.44807E-04-5.71891E-06 1.16903E-03 1.19664E-13 6.43169E-14
 -1      2750 1.99993E+01-4.94052E-04 2.29889E-06 1.03454E-03 3.47840E-13 4.14823E-14
 -1      2751 1.99995E+01-6.97184E-04 2.49211E-07 1.30777E-03 9.12550E-14 3.03063E-14
 -1      2752 1.99994E+01-4.51125E-04-4.90388E-06 9.07949E-04 4.83601E-13-1.03391E-13
 -1      2753 1.99995E+01-4.07458E-04 1.78738E-06 7.95740E-04 3.79715E-13-1.09446E-13
 -1      2754 1.99995E+01-5.80428E-04 4.91472E-07 1.02493E-03 2.67757E-13-1.38479E-13
 -1      2755 1.99995E+01-3.71781E-04-4.11360E-06 6.90787E-04 1.82183E-13-5.87852E-14
 -1      2756 1.99995E+01-3.36302E-04 1.25194E-06 5.97774E-04 1.52686E-13-9.45578E-14
 -1      2757 1.99996E+01-4.79112E-04 5.35742E-07 7.88078E-04 2.11954E-13-4.80986E-13
 -1      2758 1.99996E+01-3.07907E-04-3.11435E-06 5.11761E-04 1.73429E-13-1.11139E-13
 -1      2759 1.99996E+01-2.82374E-04 2.68083E-07 4.35039E-04 2.35647E-13-7.54684E-15
 -1      2760 1.99996E+01-3.95145E-04 9.80805E-07 5.91699E-04 2.06321E-13-2.47557E-13
 -1      2761 2.76588E+01-1.19771E+00-6.90909E-02-5.78206E-01 3.05277E-13-1.01334E-12
 -1      2762 2.80339E+01 1.20965E-01-6.57857E-02-9.04235E-01 6.05585E-13-9.88751E-13
 -1      2763 7.95079E+00 1.04791E+00 1.26052E-01 6.60668E-01-1.65978E-14 1.20118E-12
 -1      2764 7.93732E+00 9.75660E-01 1.44736E-01-1.58721E+00 1.94990E-13 1.38164E-12
 -1      2765 2.40222E+01-1.60658E+00 3.63395E-02 1.19722E+00-2.00097E-13-5.94717E-13
 -1      2766 2.45799E+01-1.89536E+00-6.77891E-03 8.04498E-01-1.39701E-13-5.98015E-13
 -1      2767 2.48378E+01-2.48824E+00-8.15416E-02 1.16437E+00-2.07844E-13-7.76382E-13
 -1      2768 2.27729E+01-8.96114E-01 2.49481E-02 1.65542E+00-1.68262E-13-4.08329E-13
 -1      2769 2.32339E+01-1.27328E+00-8.12764E-03 1.44369E+00-1.69757E-13-4.71537E-13
 -1      2770 2.29933E+01-1.77272E+00-6.01577E-02 1.87490E+00-2.20410E-13-4.98779E-13
 -1      2771 2.19236E+01-2.96155E-01 1.34008E-02 1.75598E+00-5.69499E-14-3.03847E-13
 -1      2772 2.22741E+01-5.78708E-01-1.45126E-03 1.69566E+00-8.50856E-14-3.19471E-13
 -1      2773 2.18448E+01-8.78402E-01-3.20572E-02 2.07033E+00-1.81225E-13-3.78661E-13
 -1      2774 2.13837E+01 8.26828E-02 5.90898E-03 1.65408E+00-7.86321E-14-1.57051E-13
 -1      2775 2.16438E+01-8.30761E-02 2.84450E-03 1.68782E+00-8.77983E-14-2.17707E-13
 -1      2776 2.11487E+01-2.05846E-01-1.78175E-02 1.97556E+00-1.27529E-13-2.03735E-13
 -1      2777 2.10385E+01 2.74341E-01 1.63253E-03 1.45942E+00-9.34119E-14-2.54703E-14
 -1      2778 2.12347E+01 1.97306E-01 4.54577E-03 1.54193E+00-3.06193E-14-4.93413E-14
 -1      2779 2.07672E+01 1.91152E-01-8.74611E-03 1.76002E+00-1.34834E-13-8.13817E-14
 -1      2780 2.08053E+01 3.42826E-01-4.43780E-04 1.23442E+00-6.36082E-14-1.11431E-14
 -1      2781 2.09586E+01 3.21118E-01 5.05583E-03 1.33559E+00-2.34196E-14 1.08765E-14
 -1      2782 2.05590E+01 3.79447E-01-3.83537E-03 1.50652E+00-8.75342E-14 4.13962E-14
 -1      2783 2.06355E+01 3.41754E-01-1.23317E-03 1.01302E+00-6.23345E-14-7.21522E-14
 -1      2784 2.07589E+01 3.49859E-01 5.03177E-03 1.11491E+00-5.42504E-14-5.49519E-14
 -1      2785 2.04377E+01 4.36496E-01-1.44945E-03 1.25381E+00-2.25586E-14-2.60787E-14
 -1      2786 2.05035E+01 3.07241E-01-1.38246E-03 8.12166E-01-2.97362E-14-7.75203E-14
 -1      2787 2.06043E+01 3.28764E-01 4.69213E-03 9.05417E-01-4.58191E-14-1.15629E-13
 -1      2788 2.03570E+01 4.21552E-01-4.93043E-04 1.02078E+00-4.13242E-14-1.50734E-13
 -1      2789 2.03966E+01 2.60570E-01-1.24912E-03 6.38711E-01 1.56972E-13-3.78763E-14
 -1      2790 2.04790E+01 2.86177E-01 4.17999E-03 7.19350E-01 8.32833E-14-3.08663E-14
 -1      2791 2.02950E+01 3.73317E-01-2.29796E-04 8.15745E-01 7.06816E-15-1.82773E-13
 -1      2792 2.03087E+01 2.12972E-01-1.02102E-03 4.93845E-01 6.06218E-14-1.35753E-14
 -1      2793 2.03755E+01 2.37907E-01 3.59857E-03 5.61017E-01 1.06028E-13-4.41485E-14
 -1      2794 2.02425E+01 3.14148E-01-2.37411E-04 6.41117E-01 1.11480E-13-1.06938E-13
 -1      2795 2.02366E+01 1.69666E-01-7.87376E-04 3.75809E-01 3.53211E-14 1.23843E-13
 -1      2796 2.02902E+01 1.91834E-01 3.01501E-03 4.30285E-01 8.21591E-14 1.24082E-13
 -1      2797 2.01966E+01 2.55676E-01-3.13574E-04 4.96059E-01 4.19662E-15 2.39797E-14
 -1      2798 2.01781E+01 1.32569E-01-5.84385E-04 2.81499E-01 2.27244E-13 3.40107E-14
 -1      2799 2.02204E+01 1.51304E-01 2.47040E-03 3.24778E-01 1.46766E-13 1.01187E-13
 -1      2800 2.01564E+01 2.03191E-01-3.77084E-04 3.77994E-01 1.09606E-13 2.97994E-14
 -1      2801 2.01314E+01 1.01926E-01-4.21844E-04 2.07390E-01 2.05411E-13-8.37126E-15
 -1      2802 2.01643E+01 1.17265E-01 1.98626E-03 2.41189E-01 2.67671E-13 6.89536E-14
 -1      2803 2.01219E+01 1.58516E-01-4.05288E-04 2.83566E-01 2.65995E-13-7.55653E-15
 -1      2804 2.00948E+01 7.72208E-02-2.97793E-04 1.50026E-01 4.29241E-14 6.67462E-14
 -1      2805 2.01199E+01 8.95085E-02 1.57064E-03 1.76020E-01 1.63162E-13 4.41796E-14
 -1      2806 2.00930E+01 1.21729E-01-4.00026E-04 2.09220E-01 1.32619E-13 6.98318E-14
 -1      2807 2.00665E+01 5.76554E-02-2.06015E-04 1.06264E-01-5.75104E-14-2.33663E-14
 -1      2808 2.00854E+01 6.73364E-02 1.22310E-03 1.25963E-01-3.31613E-14-3.04139E-14
 -1      2809 2.00694E+01 9.21189E-02-3.70945E-04 1.51546E-01 3.34646E-14-2.87752E-15
 -1      2810 2.00452E+01 4.23845E-02-1.39578E-04 7.33722E-02-4.65523E-14-5.53380E-14
 -1      2811 2.00591E+01 4.99059E-02 9.38479E-04 8.80765E-02-5.35213E-14-5.05505E-14
 -1      2812 2.00505E+01 6.86915E-02-3.28230E-04 1.07457E-01-4.20821E-14-1.27306E-13
 -1      2813 2.00294E+01 3.06210E-02-9.22854E-05 4.90383E-02 1.69540E-14-7.63754E-14
 -1      2814 2.00394E+01 3.63892E-02 7.09415E-04 5.98370E-02-2.54226E-14-2.53811E-14
 -1      2815 2.00358E+01 5.04201E-02-2.80015E-04 7.42561E-02-8.01752E-14-7.30073E-14
 -1      2816 2.00180E+01 2.16755E-02-5.91064E-05 3.13512E-02 1.64575E-13-8.02447E-14
 -1      2817 2.00250E+01 2.60419E-02 5.27881E-04 3.91370E-02 6.74022E-14-7.87636E-14
 -1      2818 2.00245E+01 3.63565E-02-2.31901E-04 4.96561E-02 1.44873E-14 3.51467E-14
 -1      2819 2.00099E+01 1.49643E-02-3.61663E-05 1.87559E-02 1.40761E-13 2.51919E-14
 -1      2820 2.00147E+01 1.82239E-02 3.86071E-04 2.42492E-02 1.77874E-13 4.55462E-14
 -1      2821 2.00161E+01 2.56722E-02-1.87288E-04 3.17537E-02 7.93144E-14 1.14015E-13
 -1      2822 2.00044E+01 1.00036E-02-2.05684E-05 1.00057E-02-9.78609E-14 6.24089E-14
 -1      2823 2.00076E+01 1.23997E-02 2.76844E-04 1.37796E-02 8.30310E-14 8.22469E-14
 -1      2824 2.00100E+01 1.76663E-02-1.47932E-04 1.89935E-02 3.03086E-14 1.32478E-13
 -1      2825 2.00008E+01 6.39847E-03-1.01853E-05 4.11433E-03 8.72652E-14 1.41046E-13
 -1      2826 2.00028E+01 8.12870E-03 1.93923E-04 6.61898E-03-9.38551E-15 9.63711E-14
 -1      2827 2.00056E+01 1.17579E-02-1.14465E-04 1.01231E-02-7.40403E-15 5.89106E-14
 -1      2828 1.99986E+01 3.83031E-03-3.47138E-06 3.11955E-04 4.44387E-14 2.93605E-15
 -1      2829 1.99997E+01 5.05345E-03 1.31934E-04 1.89643E-03 8.33834E-14 6.38735E-14
 -1      2830 2.00026E+01 7.47252E-03-8.68200E-05 4.14876E-03 1.25474E-13 1.27888E-13
 -1      2831 1.99973E+01 2.04500E-03 6.89092E-07-1.99443E-03 1.31779E-13-1.34782E-13
 -1      2832 1.99979E+01 2.88720E-03 8.63744E-05-1.06307E-03 1.02713E-13-3.66915E-14
 -1      2833 2.00006E+01 4.42742E-03-6.45301E-05 2.92573E-04 9.30632E-14 1.54263E-14
 -1      2834 1.99967E+01 8.42014E-04 3.09759E-06-3.25511E-03 1.25866E-13-5.99847E-14
 -1      2835 1.99969E+01 1.40242E-03 5.35309E-05-2.77540E-03 1.76735E-13-5.62746E-14
 -1      2836 1.99994E+01 2.31739E-03-4.69373E-05-2.04578E-03 1.34567E-13 6.12567E-14
 -1      2837 1.99965E+01 6.49462E-05 4.32697E-06-3.80671E-03 8.61142E-15-1.66680E-13
 -1      2838 1.99965E+01 4.20549E-04 3.03902E-05-3.62910E-03 3.00930E-14-1.10064E-13
 -1      2839 1.99987E+01 9.01760E-04-3.33234E-05-3.32277E-03 8.60453E-14 2.40419E-13
 -1      2840 1.99967E+01-4.06713E-04 4.78404E-06-3.89660E-03 6.83577E-15-2.08744E-13
 -1      2841 1.99964E+01-1.96862E-04 1.45401E-05-3.91202E-03 6.87799E-14-2.00188E-13
 -1      2842 1.99983E+01-7.04343E-06-2.29886E-05-3.88001E-03 5.68932E-14-1.48727E-14
 -1      2843 1.99969E+01-6.64569E-04 4.75495E-06-3.70294E-03 6.50706E-14-1.79547E-13
 -1      2844 1.99966E+01-5.55808E-04 4.07618E-06-3.83351E-03 3.30195E-14-2.07499E-13
 -1      2845 1.99982E+01-5.53355E-04-1.52949E-05-3.96867E-03 2.83477E-15-2.03436E-13
 -1      2846 1.99973E+01-7.77226E-04 4.43811E-06-3.35106E-03-5.44010E-14 8.39870E-14
 -1      2847 1.99970E+01-7.36291E-04-2.48392E-06-3.54256E-03-6.64756E-15-1.48134E-13
 -1      2848 1.99982E+01-8.46731E-04-9.68526E-06-3.76971E-03-3.83086E-14-6.51929E-14
 -1      2849 1.99977E+01-7.95209E-04 3.96823E-06-2.92651E-03 7.35477E-14 1.61336E-13
 -1      2850 1.99973E+01-7.97754E-04-6.27735E-06-3.14240E-03-4.18473E-15 1.59137E-13
 -1      2851 1.99983E+01-9.69070E-04-5.68928E-06-3.41043E-03-1.07197E-13 2.54444E-13
 -1      2852 1.99980E+01-7.55038E-04 3.43386E-06-2.48546E-03-5.34528E-14 1.69489E-13
 -1      2853 1.99977E+01-7.83590E-04-8.16272E-06-2.70219E-03 9.53672E-14 1.11027E-13
 -1      2854 1.99985E+01-9.80571E-04-2.91968E-06-2.97770E-03 9.66440E-14 2.19739E-13
 -1      2855 1.99984E+01-6.82537E-04 2.89041E-06-2.06271E-03 8.28040E-14 4.12679E-14
 -1      2856 1.99981E+01-7.24844E-04-8.77703E-06-2.26608E-03 7.19068E-14 1.56067E-13
 -1      2857 1.99987E+01-9.24640E-04-1.06472E-06-2.52852E-03 5.98146E-14 3.21361E-13
 -1      2858 1.99986E+01-5.95527E-04 2.36933E-06-1.67795E-03-1.02612E-13-2.26379E-13
 -1      2859 1.99984E+01-6.43216E-04-8.58347E-06-1.86035E-03-5.25525E-14-1.37965E-13
 -1      2860 1.99989E+01-8.31894E-04 1.21216E-07-2.09820E-03 4.48266E-14 1.78633E-13
 -1      2861 1.99989E+01-5.05955E-04 1.88507E-06-1.34033E-03-1.71618E-13-2.13566E-13
 -1      2862 1.99987E+01-5.53479E-04-7.91107E-06-1.49866E-03-1.08264E-13-2.04214E-13
 -1      2863 1.99991E+01-7.23395E-04 8.26412E-07-1.70663E-03-6.87527E-14 6.07212E-14
 -1      2864 1.99991E+01-4.21574E-04 1.44744E-06-1.05196E-03-2.38171E-13-1.84146E-13
 -1      2865 1.99990E+01-4.65389E-04-6.98560E-06-1.18613E-03-1.68425E-13-2.82685E-13
 -1      2866 1.99992E+01-6.13222E-04 1.19159E-06-1.36305E-03-2.03299E-13-9.14432E-14
 -1      2867 1.99993E+01-3.47211E-04 1.06327E-06-8.10376E-04-5.42563E-13-1.83462E-13
 -1      2868 1.99992E+01-3.85153E-04-5.95109E-06-9.22196E-04-4.73765E-13-1.54302E-13
 -1      2869 1.99993E+01-5.10434E-04 1.32835E-06-1.06953E-03-4.06892E-13-1.64924E-13
 -1      2870 1.99994E+01-2.85843E-04 5.96707E-07-6.10444E-04-3.81337E-13-1.75037E-13
 -1      2871 1.99993E+01-3.16585E-04-4.90471E-06-7.02778E-04-4.41936E-13-1.67359E-13
 -1      2872 1.99994E+01-4.20688E-04 1.28442E-06-8.23578E-04-5.67355E-13-2.21684E-13
 -1      2873 1.99996E+01-2.39125E-04-6.19123E-07-4.45745E-04-3.12189E-13-2.61530E-13
 -1      2874 1.99995E+01-2.61476E-04-3.96914E-06-5.21283E-04-2.64143E-13-2.37232E-13
 -1      2875 1.99995E+01-3.47222E-04 1.25431E-06-6.20031E-04-3.41260E-13-2.73450E-13
 -1      2876 1.99996E+01-2.20141E-04-1.14775E-06-3.27541E-04-2.93333E-13-4.52669E-14
 -1      2877 1.99996E+01-2.36883E-04-3.24399E-06-3.92028E-04-3.59371E-13-9.68063E-14
 -1      2878 1.99996E+01-3.04288E-04 2.81966E-06-4.70264E-04-3.09783E-13 1.09008E-13
 -1      2879 1.99997E+01-2.88179E-04 2.81613E-06-3.61555E-04-3.61566E-13 1.99247E-13
 -1      2880 2.00000E+01-7.35752E-04 1.81230E-06-3.81093E-05 1.27341E-13 8.58425E-14
 -1      2881 2.00000E+01-7.26700E-04 9.31656E-07-1.03591E-04 1.25112E-13 4.93883E-14
 -1      2882 1.99996E+01-2.66988E-04-2.52658E-06 3.85639E-04 2.21646E-13 5.86122E-14
 -1      2883 1.99997E+01-2.51783E-04-3.52638E-07 3.40093E-04 4.30559E-14 1.81402E-13
 -1      2884 1.99997E+01-3.37240E-04 1.35372E-06 4.52350E-04 2.33439E-13-3.09535E-13
 -1      2885 2.00000E+01-6.29854E-04 2.90817E-06-2.91274E-04-1.37125E-13-6.76603E-13
 -1      2886 1.99999E+01-5.88571E-04-9.60112E-07-3.30225E-04-3.63924E-15-8.83185E-13
 -1      2887 2.00000E+01-7.26050E-04 9.37475E-07 1.05887E-04 1.53335E-13 2.08548E-13
 -1      2888 2.00000E+01-7.35524E-04 1.80128E-06 4.05000E-05 1.69759E-13 3.80550E-14
 -1      2889 2.00001E+01-7.92954E-04-2.80088E-06 1.38626E-06 2.03300E-13 9.58569E-14
 -1      2890 2.00000E+01-7.02544E-04 2.50426E-06-1.76942E-04-6.18793E-14-2.78339E-14
 -1      2891 2.00000E+01-6.76017E-04-6.40731E-08-2.33248E-04-1.16025E-13-1.88631E-13
 -1      2892 2.00000E+01-7.04084E-04-2.31370E-06-2.97907E-04-6.03312E-14-4.35712E-13
 -1      2893 2.00001E+01-7.70412E-04-2.67985E-06-1.58937E-04 5.86232E-14 1.42615E-13
 -1      2894 2.00000E+01-6.75853E-04-6.38806E-08 2.33146E-04 6.36386E-14-1.51326E-13
 -1      2895 2.00000E+01-7.02009E-04 2.48227E-06 1.77889E-04 2.81832E-14 2.28194E-13
 -1      2896 2.00001E+01-7.69949E-04-2.71938E-06 1.60261E-04 1.74846E-13-8.75278E-15
 -1      2897 1.99999E+01-5.88322E-04-9.08361E-07 3.30133E-04 4.15845E-13-7.43033E-14
 -1      2898 2.00000E+01-6.29725E-04 2.89615E-06 2.91171E-04 1.86838E-13-4.28452E-14
 -1      2899 2.00000E+01-7.03817E-04-2.29555E-06 2.97824E-04 1.89995E-13-4.26156E-14
 -1      2900 1.99998E+01-4.71408E-04-4.98007E-07 3.79413E-04 5.42126E-13 7.93021E-14
 -1      2901 1.99999E+01-5.25259E-04 2.68309E-06 3.65071E-04 5.94299E-13-1.07862E-13
 -1      2902 1.99999E+01-6.00683E-04-1.53943E-06 3.96381E-04 4.92338E-13 5.02480E-14
 -1      2903 8.99361E+00 1.93809E-01 1.05595E-01-3.73398E+00 5.32935E-13 1.15205E-12
 -1      2904 1.12564E+01-9.49940E-01 8.24278E-02-5.61435E+00 6.81830E-13 8.45796E-13
 -1      2905 1.99997E+01-3.02278E-04-9.40591E-08 3.56134E-04 1.51667E-13-1.79082E-13
 -1      2906 2.07156E+01-3.30032E+00 1.27588E-01-5.40683E+00 8.07909E-13-3.04801E-13
 -1      2907 2.33710E+01-3.46712E+00-9.51434E-02-4.21014E+00 5.57721E-13-6.44443E-13
 -1      2908 2.73736E+01 1.93826E-01-9.79499E-03-7.59872E-02-2.33896E-13-1.27556E-12
 -1      2909 2.76708E+01 2.21202E+00-1.93443E-01 4.33386E-01-6.51854E-13-1.22601E-12
 -1      2910 2.77688E+01-6.06140E-01-6.16602E-03 3.25556E+00 3.39045E-13 4.73063E-13
 -1      2911 2.62016E+01-1.54385E+00 4.01696E-02 1.03344E+00 5.72459E-14 8.92342E-14
 -1      2912 1.66654E+01-2.82455E+00-5.00965E-02 6.36773E+00-5.26024E-13 1.78357E-13
 -1      2913 1.31476E+01-1.53801E+00 1.87806E-01 5.92326E+00-5.11730E-13 5.59067E-13
 -1      2914 2.33928E+01-3.86772E+00-1.15105E-01 4.39614E+00-4.46559E-13-5.39770E-13
 -1      2915 2.06485E+01-3.37178E+00 1.69099E-01 5.62979E+00-5.60052E-13-1.71360E-13
 -1      2916 2.92032E+01 4.25851E+00-1.86336E-01-2.97773E-01 1.34839E-12-7.03049E-13
 -1      2917 2.94327E+01 3.13512E+00-1.30283E-01-7.13531E-01 1.19918E-12-8.89400E-13
 -1      2918 2.54091E+01 8.32397E-01-1.03563E-01-1.54983E+00-4.15932E-14-1.35671E-13
 -1      2919 2.73894E+01 2.16503E+00-1.77072E-02 3.52446E+00 9.70883E-13 5.57238E-13
 -1      2920 2.78176E+01 1.14777E+00-9.05991E-02 3.97044E+00 8.02358E-13 6.75106E-13
 -1      2921 2.82638E+01 1.10896E+00-8.21506E-02 4.21429E+00 7.92671E-13 6.23265E-13
 -1      2922 2.75346E+01 6.36225E+00-1.35296E-01-9.34837E-01-1.40382E-12-8.08409E-13
 -1      2923 2.76677E+01 6.23448E+00-1.35184E-01-1.89443E+00-1.44323E-12-5.35481E-13
 -1      2924 2.77867E+01 4.34347E+00-9.47347E-02 4.84156E-01-9.94038E-13-1.18003E-12
 -1      2925 2.75500E+01 5.54277E+00-1.73737E-01-9.35299E-02-1.22413E-12-9.95731E-13
 -1      2926 1.38363E+01-1.83879E+00 1.40591E-01-6.17915E+00 8.15598E-13 4.81920E-13
 -1      2927 1.68890E+01-2.85890E+00-4.03508E-02-6.40888E+00 8.08006E-13 5.85018E-14
 -1      2928 1.38488E+01-9.75476E-01 1.52429E-01-5.34585E+00 7.56714E-13 5.08232E-13
 -1      2929 2.79847E+01 3.13425E+00-1.76749E-01-2.41188E+00-1.00128E-12-5.97161E-14
 -1      2930 2.74876E+01 2.07711E+00-7.09300E-02-1.73771E+00-7.09259E-13-2.45776E-14
 -1      2931 2.69036E+01 1.81796E+00 1.23784E-02-2.13942E+00-4.50855E-13 1.83187E-15
 -1      2932 2.96872E+01 3.67395E+00-1.15359E-01 3.63526E+00 1.44684E-12 1.76192E-13
 -1      2933 2.99256E+01 4.95592E+00-1.55566E-01 2.90027E+00 1.62215E-12-3.75117E-14
 -1      2934 2.37414E+01 1.86108E+00-1.81350E-02-2.62894E+00-6.22918E-13-3.98617E-13
 -1      2935 2.34606E+01 2.00248E+00 4.83655E-03-2.16185E+00-6.15865E-13-4.36207E-13
 -1      2936 2.37308E+01 2.51035E+00-5.02911E-03-2.11411E+00-6.49566E-13-4.80458E-13
 -1      2937 2.55373E+01-2.73270E+00 5.09996E-02-2.64265E+00 3.69503E-13-9.24011E-13
 -1      2938 2.64212E+01-1.99527E+00-1.73634E-01-1.50910E+00 1.19686E-13-1.06114E-12
 -1      2939 2.79594E+01 5.50810E+00-1.88238E-01-2.47644E+00-1.41803E-12-3.41248E-13
 -1      2940 2.81574E+01 4.50360E+00-8.70888E-02-2.62665E+00-1.22603E-12-1.53169E-13
 -1      2941 2.73114E+01 3.76041E+00-4.17430E-02-2.87001E+00-9.64229E-13-8.85403E-14
 -1      2942 2.41883E+01 1.92172E+00-2.92204E-02-3.23686E+00-5.87683E-13-4.39202E-13
 -1      2943 2.39623E+01 1.85042E+00 8.24379E-03-2.92663E+00-6.05948E-13-3.93932E-13
 -1      2944 2.41870E+01 2.23444E+00-9.97470E-03-2.97181E+00-6.26206E-13-4.05183E-13
 -1      2945 2.44549E+01 2.08305E+00-8.53742E-03-3.30472E+00-5.06328E-13-4.38302E-13
 -1      2946 2.73770E+01-2.11464E+00-1.03287E-01 5.85098E-01 1.61775E-13-1.01689E-12
 -1      2947 2.59850E+01-3.11448E+00 7.93985E-02 2.05895E+00-2.34014E-13-8.72129E-13
 -1      2948 2.54868E+01 1.54190E+00 8.95497E-03-2.48589E+00-1.46168E-13-1.97299E-13
 -1      2949 2.51393E+01 1.84095E+00-7.89827E-02-2.99036E+00-3.33317E-13-3.14728E-13
 -1      2950 1.28278E+01-7.27462E-01 1.71268E-01 5.04586E+00-4.85403E-13 6.63844E-13
 -1      2951 2.68402E+01 5.45392E+00-9.12279E-02-2.21894E+00-1.24309E-12-4.24369E-13
 -1      2952 8.94792E+00 1.05262E+00 1.72223E-01 1.60448E+00-1.67331E-13 1.06265E-12
 -1      2953 9.90421E+00 1.41125E+00 9.11761E-02 5.51595E-01-2.27457E-14 9.67879E-13
 -1      2954 1.00441E+01 7.73562E-01 3.20189E-02 2.63537E+00-3.01946E-13 8.98268E-13
 -1      2955 2.87038E+01 4.69010E+00-1.20597E-01 2.37775E+00 1.50374E-12-1.14783E-13
 -1      2956 1.99999E+01-5.25823E-04 2.85439E-06-3.64694E-04-1.53566E-13-8.40494E-13
 -1      2957 1.99998E+01-4.73568E-04-1.23615E-06-3.80018E-04-2.23725E-13-6.20037E-13
 -1      2958 1.99999E+01-6.01029E-04-1.50837E-06-3.96328E-04-1.46316E-13-7.68874E-13
 -1      2959 2.83042E+01 1.67386E+00-1.67977E-01-1.20628E+00 8.99114E-13-8.82856E-13
 -1      2960 1.02045E+01 8.18176E-01 1.59136E-01-2.62236E+00 4.20559E-13 1.05871E-12
 -1      2961 2.41000E+01-3.06499E+00 1.88897E-02-3.05831E+00 5.39624E-13-7.67757E-13
 -1      2962 1.99998E+01-4.11375E-04 2.59535E-06-3.85815E-04-1.73152E-13-3.11746E-13
 -1      2963 1.99997E+01-3.53691E-04-1.28888E-06-3.76404E-04-2.28026E-13 2.28465E-13
 -1      2964 1.99997E+01-3.64790E-04-2.79273E-06-4.30722E-04-2.91980E-13 1.99610E-13
 -1      2965 1.99998E+01-4.83200E-04-1.75321E-06-4.38898E-04-3.16661E-13-6.20730E-13
 -1      2966 2.64771E+01-8.51136E-01-1.47747E-02-3.61769E-01 1.23686E-15-1.19726E-12
 -1      2967 2.75439E+01 4.05923E+00-1.34758E-01 3.61977E-01 1.34395E-12-3.98355E-13
 -1      2968 2.74896E+01 4.13126E+00-1.16172E-01 1.36459E+00 1.35615E-12-1.66262E-13
 -1      2969 1.99997E+01-3.65311E-04-5.31903E-07 3.68039E-04 3.59472E-13-1.76433E-13
 -1      2970 1.93382E+01-2.73076E+00 8.27409E-02-5.30678E+00 8.01581E-13-1.84483E-13
 -1      2971 2.67728E+01 2.84852E+00-2.99047E-02 7.68860E-01-6.54310E-13-1.23825E-12
 -1      2972 2.59483E+01 1.54142E+00-3.41235E-02-2.33979E+00-3.15567E-13-5.70724E-14
 -1      2973 1.90182E+01-2.68996E+00 1.11548E-01 5.46775E+00-5.70780E-13-7.60295E-14
 -1      2974 2.76726E+01-1.02958E+00-1.08499E-01 2.36094E+00 3.89438E-13 3.45904E-13
 -1      2975 2.65484E+01 5.38197E+00-6.80679E-02-4.37543E-01-1.14468E-12-9.00915E-13
 -1      2976 2.93578E+01 2.77095E+00-1.03528E-01 3.98484E+00 1.26735E-12 3.48027E-13
 -1      2977 2.81798E+01 3.05739E+00-1.33414E-01 3.65321E+00 1.23598E-12 3.41824E-13
 -1      2978 2.94511E+01 4.22192E-01-5.74571E-02 3.75740E+00 8.35498E-13 4.62130E-13
 -1      2979 2.97483E+01 1.92998E+00-1.37057E-01 3.99746E+00 1.16898E-12 3.86663E-13
 -1      2980 1.99997E+01-3.85852E-04 7.86170E-07 4.41573E-04 2.31871E-13-4.60251E-13
 -1      2981 1.99998E+01-4.30652E-04 8.33858E-07 4.05009E-04 4.02993E-13-1.28090E-13
 -1      2982 1.99998E+01-4.98827E-04-1.89566E-06 4.56705E-04 5.22338E-13-1.71591E-13
 -1      2983 1.99997E+01-4.12390E-04-2.58255E-06 4.94622E-04 2.38412E-13-4.31798E-13
 -1      2984 2.92700E+01-1.03094E-02 6.61294E-03 3.91632E+00 6.65357E-13 5.50796E-13
 -1      2985 1.46081E+01-1.02529E+00-3.23342E-02 5.09031E+00-5.24900E-13 3.67859E-13
 -1      2986 1.22746E+01 2.41250E-01 1.72178E-01 4.08888E+00-4.71744E-13 6.68660E-13
 -1      2987 2.08519E+01-4.93434E-01 1.65955E-02 2.42212E+00-2.55829E-13-2.39383E-13
 -1      2988 2.13326E+01-9.28188E-01 1.78430E-02 2.46953E+00-2.82457E-13-3.07098E-13
 -1      2989 2.73561E+01 3.56944E+00-9.11281E-02 2.41441E+00 1.27900E-12 1.18886E-13
 -1      2990 2.19205E+01-1.42295E+00 5.02586E-02 2.62787E+00-3.40188E-13-3.81823E-13
 -1      2991 2.27457E+01-1.99347E+00 3.23900E-02 2.48279E+00-3.20903E-13-4.88583E-13
 -1      2992 2.05519E+01-1.21854E+00-3.70848E-02 3.07887E+00-3.40884E-13-2.35718E-13
 -1      2993 2.71325E+01 1.81117E+00-1.33521E-01-1.41389E+00 8.40522E-13-7.69329E-13
 -1      2994 2.38120E+01 2.71564E+00 2.21716E-04 2.25412E-01-6.56544E-13-8.41299E-13
 -1      2995 2.37715E+01 1.98950E+00-5.94828E-02 6.74847E-01-5.18740E-13-8.89807E-13
 -1      2996 2.38885E+01 1.21258E+00 9.12582E-03 9.70380E-01-4.02836E-13-9.42930E-13
 -1      2997 2.38751E+01 4.04121E-01-3.56212E-02 1.06422E+00-2.59130E-13-9.62758E-13
 -1      2998 2.44493E+01 1.93822E+00-7.76839E-03 9.08399E-01-5.19147E-13-9.84128E-13
 -1      2999 2.37441E+01-2.73843E-01-7.42123E-03 8.79035E-01-1.37159E-13-9.25295E-13
 -1      3000 2.36422E+01-7.80690E-01-1.17809E-02 7.06965E-01-6.01576E-14-9.07734E-13
 -1      3001 2.43463E+01 7.07519E-03-1.06754E-02 9.03572E-01-2.12424E-13-9.98285E-13
 -1      3002 2.32793E+01-1.10646E+00-1.13457E-02 3.53043E-01 1.93714E-14-8.14123E-13
 -1      3003 2.30671E+01-1.25952E+00 6.78420E-03 9.66240E-02 1.33162E-13-7.55274E-13
 -1      3004 2.37900E+01-1.16069E+00-5.74570E-03 3.03095E-01 2.30367E-14-8.74190E-13
 -1      3005 2.26106E+01-1.28726E+00-9.19447E-03-2.04359E-01 1.45996E-13-6.86651E-13
 -1      3006 2.23517E+01-1.21095E+00 1.45587E-02-4.23885E-01 1.48316E-13-6.48921E-13
 -1      3007 2.29369E+01-1.49887E+00-8.76880E-03-3.60172E-01 1.63371E-13-7.12204E-13
 -1      3008 2.19260E+01-1.08471E+00-6.00880E-03-6.08098E-01 1.39236E-13-5.33837E-13
 -1      3009 2.16763E+01-9.13308E-01 1.36544E-02-7.51348E-01 1.46737E-13-4.53727E-13
 -1      3010 2.20652E+01-1.32507E+00-1.47968E-02-8.16472E-01 2.06640E-13-6.23641E-13
 -1      3011 2.13438E+01-7.40663E-01-2.41134E-03-8.30172E-01 7.40880E-14-3.66750E-13
 -1      3012 2.11334E+01-5.61914E-01 1.01693E-02-9.00973E-01 6.66629E-14-3.48355E-13
 -1      3013 2.13412E+01-9.34076E-01-1.51863E-02-1.03787E+00 1.63818E-13-4.18230E-13
 -1      3014 2.09025E+01-4.04479E-01 1.93839E-04-9.08596E-01 7.75588E-14-2.91276E-13
 -1      3015 2.07406E+01-2.59048E-01 6.66588E-03-9.26434E-01 1.16358E-13-2.70395E-13
 -1      3016 2.08139E+01-5.29470E-01-1.18032E-02-1.08666E+00 1.23379E-13-2.69288E-13
 -1      3017 2.05921E+01-1.38749E-01 1.40952E-03-8.94085E-01 6.95011E-14-2.49922E-13
 -1      3018 2.04739E+01-3.61616E-02 3.87278E-03-8.77333E-01 8.93549E-14-2.23505E-13
 -1      3019 2.04625E+01-2.03511E-01-8.22953E-03-1.03534E+00 1.33064E-13-2.14331E-13
 -1      3020 2.03850E+01 4.42523E-02 1.84937E-03-8.25107E-01 8.11146E-14-2.86157E-13
 -1      3021 2.03011E+01 1.07637E-01 1.88695E-03-7.88379E-01 3.77713E-14-2.90082E-13
 -1      3022 2.02438E+01 2.53951E-02-5.27932E-03-9.33092E-01 4.09480E-14-2.93895E-13
 -1      3023 2.02518E+01 1.54411E-01 1.89133E-03-7.28829E-01-3.53941E-14-3.19190E-13
 -1      3024 2.01927E+01 1.87332E-01 6.16204E-04-6.82438E-01-6.52268E-14-3.57548E-13
 -1      3025 2.01163E+01 1.66429E-01-3.19894E-03-8.10444E-01-3.61233E-14-3.12125E-13
 -1      3026 2.01680E+01 2.09111E-01 1.78422E-03-6.22752E-01-8.38962E-14-3.87013E-13
 -1      3027 2.01260E+01 2.20655E-01-1.34263E-04-5.73598E-01-7.33272E-14-3.81438E-13
 -1      3028 2.00473E+01 2.39614E-01-1.82771E-03-6.84754E-01-8.25654E-14-3.24472E-13
 -1      3029 2.01157E+01 2.25541E-01 1.62391E-03-5.17771E-01-4.27456E-14-3.41787E-13
 -1      3030 2.00853E+01 2.23383E-01-5.32041E-04-4.70222E-01-9.10156E-15-3.24052E-13
 -1      3031 2.00136E+01 2.65267E-01-9.77150E-04-5.65481E-01-3.83248E-14-3.08121E-13
 -1      3032 2.00828E+01 2.17881E-01 1.44688E-03-4.20308E-01 2.77006E-15-3.49052E-13
 -1      3033 2.00604E+01 2.07839E-01-7.02751E-04-3.76912E-01-1.76181E-14-4.11318E-13
 -1      3034 1.99998E+01 2.60404E-01-4.79875E-04-4.57544E-01-1.78359E-14-3.34641E-13
 -1      3035 2.00617E+01 1.96713E-01 1.26701E-03-3.33761E-01 5.56575E-16-3.82258E-13
 -1      3036 2.00447E+01 1.82874E-01-7.35054E-04-2.95791E-01-2.95096E-15-3.05473E-13
 -1      3037 1.99964E+01 2.37904E-01-2.07804E-04-3.63153E-01 2.73281E-14-3.72401E-13
 -1      3038 2.00474E+01 1.69373E-01 1.09089E-03-2.59495E-01-3.59717E-14-3.04182E-13
 -1      3039 2.00345E+01 1.54419E-01-6.89162E-04-2.27356E-01-7.19330E-14-3.05680E-13
 -1      3040 1.99977E+01 2.06836E-01-7.15261E-05-2.82845E-01-2.32632E-15-3.75965E-13
 -1      3041 2.00374E+01 1.40609E-01 9.23139E-04-1.97546E-01-1.18683E-13-2.52363E-13
 -1      3042 2.00273E+01 1.26175E-01-6.04536E-04-1.71090E-01-1.23446E-14-2.81670E-13
 -1      3043 2.00007E+01 1.73182E-01-1.24746E-05-2.16122E-01-4.82100E-14-3.04469E-13
 -1      3044 2.00298E+01 1.13262E-01 7.67522E-04-1.47130E-01 1.16139E-13-2.29806E-13
 -1      3045 2.00220E+01 1.00241E-01-5.05969E-04-1.25882E-01 1.60034E-13-2.81106E-13
 -1      3046 2.00037E+01 1.40609E-01 5.77649E-06-1.61862E-01 8.43440E-14-2.31037E-13
 -1      3047 2.00239E+01 8.88427E-02 6.26901E-04-1.07015E-01 1.20825E-13-2.21555E-13
 -1      3048 2.00178E+01 7.76328E-02-4.08166E-04-9.03317E-02 5.93804E-14-1.78232E-13
 -1      3049 2.00060E+01 1.11144E-01 4.77396E-06-1.18618E-01 1.80246E-13-1.80618E-13
 -1      3050 2.00191E+01 6.79808E-02 5.03017E-04-7.57689E-02-5.01208E-14-1.72265E-13
 -1      3051 2.00143E+01 5.86686E-02-3.19091E-04-6.29539E-02 1.13056E-15-1.85870E-13
 -1      3052 2.00074E+01 8.57091E-02-3.45783E-06-8.48203E-02 5.52361E-15-1.12183E-13
 -1      3053 2.00152E+01 5.07577E-02 3.96467E-04-5.19393E-02 2.33401E-14-3.51953E-13
 -1      3054 2.00115E+01 4.32453E-02-2.42365E-04-4.23098E-02-1.31431E-14-3.34320E-13
 -1      3055 2.00080E+01 6.45218E-02-1.27264E-05-5.89162E-02-7.14047E-14-1.59224E-13
 -1      3056 2.00119E+01 3.69377E-02 3.06865E-04-3.41550E-02 4.30648E-14-3.77632E-13
 -1      3057 2.00091E+01 3.10308E-02-1.78928E-04-2.70851E-02 7.62502E-14-3.59525E-13
 -1      3058 2.00080E+01 4.73819E-02-2.02495E-05-3.94583E-02 8.60379E-15-3.91346E-13
 -1      3059 2.00092E+01 2.61245E-02 2.33089E-04-2.11873E-02 6.97922E-14-3.58721E-13
 -1      3060 2.00071E+01 2.15893E-02-1.28183E-04-1.61279E-02-2.61389E-14-3.39624E-13
 -1      3061 2.00076E+01 3.38661E-02-2.51266E-05-2.51543E-02 4.44698E-14-3.77668E-13
 -1      3062 2.00070E+01 1.78618E-02 1.73545E-04-1.19758E-02-8.23395E-14-2.77498E-13
 -1      3063 2.00054E+01 1.44603E-02-8.87418E-05-8.46213E-03-6.15459E-14-1.82923E-13
 -1      3064 2.00069E+01 2.34575E-02-2.74119E-05-1.48894E-02-3.58794E-14-3.98499E-13
 -1      3065 2.00052E+01 1.16945E-02 1.26403E-04-5.63313E-03-1.42116E-13-1.40058E-13
 -1      3066 2.00041E+01 9.20458E-03-5.88961E-05-3.28226E-03-1.16861E-13-1.31705E-13
 -1      3067 2.00060E+01 1.56250E-02-2.75744E-05-7.72778E-03-5.50184E-14-7.69048E-14
 -1      3068 2.00038E+01 7.20334E-03 8.97803E-05-1.43513E-03-1.30059E-13-6.04094E-14
 -1      3069 2.00030E+01 5.42863E-03-3.69062E-05 6.05402E-05 1.61314E-15-8.82539E-14
 -1      3070 2.00051E+01 9.87012E-03-2.62011E-05-2.90289E-03-8.12304E-14 2.33614E-14
 -1      3071 2.00027E+01 4.02114E-03 6.18712E-05 1.19556E-03 6.07342E-14-1.48150E-13
 -1      3072 2.00021E+01 2.79499E-03-2.11577E-05 2.07775E-03 1.16630E-13-1.08707E-13
 -1      3073 2.00042E+01 5.75039E-03-2.38475E-05 1.99583E-04-4.26050E-15 2.82608E-14
 -1      3074 2.00018E+01 1.83834E-03 4.10241E-05 2.70968E-03 5.27917E-14-2.27225E-13
 -1      3075 2.00015E+01 1.02361E-03-1.02384E-05 3.16435E-03-6.53947E-14-1.98022E-13
 -1      3076 2.00034E+01 2.88879E-03-2.09735E-05 2.06211E-03 1.76745E-14-3.60109E-13
 -1      3077 2.00012E+01 4.01584E-04 2.57869E-05 3.45192E-03-2.19979E-14-1.77564E-13
 -1      3078 2.00009E+01-1.11693E-04-2.96317E-06 3.61912E-03 8.35011E-14-1.55596E-13
 -1      3079 2.00027E+01 9.73963E-04-1.79262E-05 3.05616E-03 4.27229E-14-3.72690E-13
 -1      3080 2.00007E+01-4.91266E-04 1.49199E-05 3.68040E-03-8.54987E-14-1.33157E-13
 -1      3081 2.00006E+01-7.89260E-04 1.63027E-06 3.66334E-03-1.62948E-13-2.90483E-13
 -1      3082 2.00020E+01-2.44572E-04-1.49471E-05 3.46206E-03-6.01821E-15-3.05615E-13
 -1      3083 2.00003E+01-9.97901E-04 7.39269E-06 3.58417E-03-2.21625E-13-2.22669E-13
 -1      3084 2.00003E+01-1.14669E-03 4.30233E-06 3.45705E-03-1.20184E-13-2.44515E-13
 -1      3085 2.00015E+01-9.63715E-04-1.21893E-05 3.48699E-03-1.63315E-13-2.01173E-13
 -1      3086 2.00001E+01-1.23872E-03 2.36741E-06 3.29831E-03 6.43123E-15-1.81599E-13
 -1      3087 2.00001E+01-1.28790E-03 5.63908E-06 3.11302E-03 9.46723E-14-1.83316E-13
 -1      3088 2.00011E+01-1.33494E-03-9.73694E-06 3.28052E-03-7.52424E-14 1.36230E-13
 -1      3089 1.99999E+01-1.30370E-03-8.22681E-07 2.91654E-03 1.65012E-13-3.49532E-13
 -1      3090 1.99999E+01-1.28972E-03 6.08180E-06 2.70812E-03 9.19694E-14-1.85948E-13
 -1      3091 2.00007E+01-1.47233E-03-7.62452E-06 2.94783E-03 2.46758E-14-7.84248E-14
 -1      3092 1.99998E+01-1.25865E-03-2.69787E-06 2.50155E-03 7.86469E-14-1.95858E-14
 -1      3093 1.99998E+01-1.20765E-03 5.95496E-06 2.29260E-03 1.62144E-13-2.96553E-14
 -1      3094 2.00005E+01-1.46003E-03-5.85268E-06 2.56046E-03 2.01242E-13-2.55315E-13
 -1      3095 1.99997E+01-1.15056E-03-3.65722E-06 2.09323E-03 1.57178E-13-2.47197E-14
 -1      3096 1.99998E+01-1.08085E-03 5.49123E-06 1.89733E-03 9.51714E-14-1.02708E-13
 -1      3097 2.00003E+01-1.35863E-03-4.40190E-06 2.16503E-03 1.88236E-13-6.95985E-14
 -1      3098 1.99997E+01-1.01215E-03-3.99725E-06 1.71507E-03 8.88138E-15-9.89427E-14
 -1      3099 1.99997E+01-9.36189E-04 4.84760E-06 1.53947E-03 6.89835E-14-1.28084E-13
 -1      3100 2.00001E+01-1.21075E-03-3.24519E-06 1.79010E-03 5.16777E-14-1.94174E-13
 -1      3101 1.99997E+01-8.65598E-04-3.92690E-06 1.37907E-03 3.27155E-14-2.03345E-13
 -1      3102 1.99997E+01-7.91593E-04 4.13820E-06 1.22665E-03 8.47791E-14-2.06837E-13
 -1      3103 2.00000E+01-1.04564E-03-2.35850E-06 1.45143E-03 2.59299E-14-1.74047E-13
 -1      3104 1.99997E+01-7.25294E-04-3.59768E-06 1.08935E-03 3.31502E-14-2.33374E-13
 -1      3105 1.99997E+01-6.58262E-04 3.45779E-06 9.60136E-04 1.44538E-13-4.75199E-13
 -1      3106 1.99999E+01-8.82556E-04-1.68392E-06 1.15581E-03 1.39138E-14-4.61914E-13
 -1      3107 1.99997E+01-6.00179E-04-3.12448E-06 8.45337E-04 1.96765E-13-4.66118E-13
 -1      3108 1.99997E+01-5.43448E-04 2.42330E-06 7.37549E-04 2.08248E-13-4.74821E-13
 -1      3109 1.99999E+01-7.33684E-04-1.30498E-06 9.04559E-04 1.35692E-13-5.36318E-13
 -1      3110 1.99997E+01-4.95437E-04-2.79844E-06 6.54457E-04 2.07565E-13-3.92289E-13
 -1      3111 1.99997E+01-4.50163E-04 1.40783E-06 5.64194E-04 1.97125E-13-3.50617E-13
 -1      3112 1.99998E+01-4.98100E-04 1.24617E-06 5.52019E-04 1.87907E-13-5.44701E-13
 -1      3113 1.99998E+01-6.03809E-04-5.65243E-08 7.07021E-04 2.73554E-13-5.52756E-13
 -1      3114 2.73001E+01 3.13202E+00-9.35142E-02-7.75100E-01 1.12094E-12-6.18582E-13
 -1      3115 2.03544E+01 1.01466E-01 4.76441E-03 2.09364E+00-1.93061E-13-1.11319E-13
 -1      3116 2.06319E+01-1.54316E-01 1.57640E-02 2.20442E+00-2.00725E-13-1.52142E-13
 -1      3117 1.98772E+01-2.38536E-01-1.78411E-02 2.57079E+00-3.02572E-13-1.39546E-13
 -1      3118 2.01481E+01 4.13897E-01-6.42463E-04 1.76441E+00-1.96394E-13-8.40799E-15
 -1      3119 2.03005E+01 2.89161E-01 1.07142E-02 1.89469E+00-1.78125E-13-5.16246E-14
 -1      3120 1.96624E+01 3.10350E-01-7.29178E-03 2.10652E+00-2.55468E-13-3.62082E-14
 -1      3121 2.00804E+01 5.37803E-01-2.84947E-03 1.46247E+00-9.15012E-14-1.22345E-14
 -1      3122 2.01669E+01 4.96704E-01 7.19592E-03 1.59314E+00-1.38659E-13-2.49717E-14
 -1      3123 1.96479E+01 5.75413E-01-2.08735E-03 1.71956E+00-1.55522E-13-5.20566E-14
 -1      3124 2.00700E+01 5.50435E-01-3.37710E-03 1.19548E+00-1.75901E-14-9.12608E-15
 -1      3125 2.01243E+01 5.56593E-01 5.12529E-03 1.31732E+00-7.76874E-15 4.85349E-14
 -1      3126 1.97137E+01 6.62073E-01 6.86227E-04 1.39962E+00-7.10693E-14-6.68316E-14
 -1      3127 2.00763E+01 5.05952E-01-3.22552E-03 9.64455E-01 1.76824E-14-1.39627E-13
 -1      3128 2.01156E+01 5.35045E-01 3.90164E-03 1.07316E+00 6.71893E-14-2.50729E-14
 -1      3129 1.97978E+01 6.46560E-01 1.66316E-03 1.13383E+00 3.97097E-14-1.58828E-14
 -1      3130 2.00826E+01 4.37678E-01-2.81085E-03 7.67734E-01-8.15912E-15-2.23987E-13
 -1      3131 2.01146E+01 4.75266E-01 3.14745E-03 8.61701E-01-7.99005E-14-2.05455E-13
 -1      3132 1.98729E+01 5.81219E-01 1.72099E-03 9.11449E-01 1.93733E-14-6.44485E-14
 -1      3133 2.00835E+01 3.64224E-01-2.32666E-03 6.02834E-01 6.76260E-14-6.35210E-14
 -1      3134 2.01113E+01 4.02472E-01 2.63182E-03 6.82030E-01 9.44114E-14-1.32733E-13
 -1      3135 1.99306E+01 4.97080E-01 1.41844E-03 7.25161E-01 3.79692E-15-1.03479E-13
 -1      3136 2.00792E+01 2.95011E-01-1.86271E-03 4.66757E-01-5.30181E-14-1.05349E-14
 -1      3137 2.01035E+01 3.30106E-01 2.22882E-03 5.32102E-01-3.11117E-14-9.34492E-14
 -1      3138 1.99707E+01 4.11182E-01 1.03365E-03 5.70014E-01 3.40928E-14-9.40805E-14
 -1      3139 2.00710E+01 2.34109E-01-1.45651E-03 3.56172E-01 1.66991E-13-6.36086E-14
 -1      3140 2.00922E+01 2.64529E-01 1.88250E-03 4.09106E-01 9.32218E-14-3.09252E-14
 -1      3141 1.99963E+01 3.31988E-01 6.85713E-04 4.42127E-01 2.18725E-14-1.83354E-13
 -1      3142 2.00610E+01 1.82679E-01-1.11870E-03 2.67633E-01 1.82010E-13 8.52845E-14
 -1      3143 2.00790E+01 2.08126E-01 1.57290E-03 3.09811E-01 2.10944E-13 4.10787E-14
 -1      3144 2.00111E+01 2.62998E-01 4.13292E-04 3.38037E-01 1.21950E-13-3.36297E-14
 -1      3145 2.00505E+01 1.40421E-01-8.46750E-04 1.97767E-01 1.37123E-13 9.72205E-14
 -1      3146 2.00654E+01 1.61193E-01 1.29544E-03 2.30864E-01 1.90114E-13 1.14915E-13
 -1      3147 2.00184E+01 2.05009E-01 2.18187E-04 2.54474E-01 1.97740E-13 1.69590E-13
 -1      3148 2.00405E+01 1.06389E-01-6.32599E-04 1.43429E-01-5.23804E-15-3.42509E-14
 -1      3149 2.00526E+01 1.23035E-01 1.05036E-03 1.69018E-01 7.91309E-14-1.94256E-14
 -1      3150 2.00209E+01 1.57462E-01 8.80063E-05 1.88341E-01 1.64434E-13 6.12763E-14
 -1      3151 2.00316E+01 7.94159E-02-4.66625E-04 1.01786E-01-2.33345E-14-1.80911E-13
 -1      3152 2.00412E+01 9.25534E-02 8.38208E-04 1.21276E-01 2.46046E-14-1.43650E-13
 -1      3153 2.00206E+01 1.19204E-01 7.04929E-06 1.36762E-01 1.15509E-13-1.47701E-13
 -1      3154 2.00240E+01 5.83356E-02-3.39583E-04 7.03593E-02-1.95064E-13-1.60338E-13
 -1      3155 2.00314E+01 6.85633E-02 6.58346E-04 8.49746E-02-1.76738E-13-1.90078E-13
 -1      3156 2.00188E+01 8.88946E-02-3.90507E-05 9.71370E-02-1.25607E-13-2.30085E-13
 -1      3157 2.00178E+01 4.20781E-02-2.43380E-04 4.70338E-02-5.05277E-14-4.26258E-14
 -1      3158 2.00234E+01 4.99356E-02 5.08858E-04 5.78097E-02-1.24720E-13-1.04705E-13
 -1      3159 2.00162E+01 6.52145E-02-6.17934E-05 6.71750E-02-2.08199E-13-1.74066E-13
 -1      3160 2.00128E+01 2.97071E-02-1.71279E-04 3.00383E-02 8.02372E-14 3.78565E-14
 -1      3161 2.00170E+01 3.56622E-02 3.86895E-04 3.78337E-02 6.97899E-14 2.32100E-14
 -1      3162 2.00135E+01 4.69601E-02-6.97015E-05 4.49029E-02-2.62521E-14-6.11522E-14
 -1      3163 2.00089E+01 2.04266E-02-1.17829E-04 1.79159E-02-5.10093E-14 1.11487E-13
 -1      3164 2.00120E+01 2.48743E-02 2.89103E-04 2.34314E-02 2.80071E-14 1.28191E-13
 -1      3165 2.00109E+01 3.30790E-02-6.87612E-05 2.86576E-02 8.06639E-16 1.61937E-13
 -1      3166 2.00060E+01 1.35729E-02-7.86883E-05 9.48785E-03 6.61585E-14 6.89111E-16
 -1      3167 2.00082E+01 1.68413E-02 2.11983E-04 1.32859E-02 1.92535E-14 6.88228E-14
 -1      3168 2.00086E+01 2.26758E-02-6.29977E-05 1.70631E-02 3.45936E-14 1.07435E-13
 -1      3169 2.00038E+01 8.60111E-03-5.04378E-05 3.81434E-03 5.69885E-14 1.03215E-13
 -1      3170 2.00053E+01 1.09584E-02 1.52152E-04 6.34017E-03 1.08996E-13 3.25664E-14
 -1      3171 2.00066E+01 1.50033E-02-5.50076E-05 9.00040E-03 6.22310E-14 1.10813E-13
 -1      3172 2.00023E+01 5.06967E-03-3.04029E-05 1.57354E-04 5.11133E-14 7.03458E-14
 -1      3173 2.00032E+01 6.73236E-03 1.06495E-04 1.75828E-03 7.10846E-14 1.29175E-13
 -1      3174 2.00050E+01 9.44745E-03-4.63903E-05 3.57420E-03 1.18493E-14 1.92462E-13
 -1      3175 2.00012E+01 2.62513E-03-1.65040E-05-2.05408E-03 6.83119E-14 9.90871E-14
 -1      3176 2.00018E+01 3.76601E-03 7.22504E-05-1.11104E-03 7.28749E-14-1.45674E-14
 -1      3177 2.00037E+01 5.51031E-03-3.80733E-05 7.95227E-05 8.77393E-14-6.33013E-17
 -1      3178 2.00004E+01 9.88016E-04-7.13383E-06-3.25490E-03 9.53147E-14 1.29996E-13
 -1      3179 2.00008E+01 1.74318E-03 4.70409E-05-2.76760E-03 6.64538E-14 1.71086E-13
 -1      3180 2.00026E+01 2.79331E-03-3.05445E-05-2.03012E-03 3.22692E-14 1.09177E-13
 -1      3181 1.99999E+01-5.98623E-05-1.05877E-06-3.77091E-03 4.86366E-14 7.13919E-14
 -1      3182 2.00001E+01 4.15443E-04 2.88673E-05-3.58888E-03 1.17363E-13 1.16094E-13
 -1      3183 2.00018E+01 9.81361E-04-2.40149E-05-3.17152E-03 9.30561E-14 3.07087E-14
 -1      3184 1.99996E+01-6.86607E-04 2.66000E-06-3.84180E-03-1.49088E-14 1.31616E-13
 -1      3185 1.99997E+01-4.09952E-04 1.60827E-05-3.85508E-03 9.16581E-14 1.39958E-13
 -1      3186 2.00012E+01-1.71363E-04-1.85277E-05-3.65720E-03 7.27533E-14 3.54659E-13
 -1      3187 1.99994E+01-1.01988E-03 4.72971E-06-3.64026E-03-1.51350E-13 1.76945E-13
 -1      3188 1.99994E+01-8.80473E-04 7.35537E-06-3.77021E-03-4.50308E-14 9.11478E-14
 -1      3189 2.00007E+01-8.54074E-04-1.40305E-05-3.71709E-03 2.55326E-14 2.44512E-13
 -1      3190 1.99994E+01-1.15510E-03 5.67658E-06-3.28767E-03 4.83403E-14 9.53446E-14
 -1      3191 1.99993E+01-1.10728E-03 1.62696E-06-3.47950E-03-8.31270E-14 1.86737E-13
 -1      3192 2.00004E+01-1.21027E-03-1.04221E-05-3.51686E-03-5.37361E-15 1.45148E-13
 -1      3193 1.99994E+01-1.16241E-03 5.88631E-06-2.86679E-03 4.03892E-14 8.36595E-14
 -1      3194 1.99993E+01-1.17279E-03-1.92952E-06-3.08356E-03 9.62758E-14 1.91853E-14
 -1      3195 2.00002E+01-1.34707E-03-7.58122E-06-3.17292E-03 1.08523E-13-1.78274E-13
 -1      3196 1.99994E+01-1.09230E-03 5.63664E-06-2.43181E-03 5.67597E-14 2.96657E-13
 -1      3197 1.99993E+01-1.13701E-03-3.94920E-06-2.64970E-03 4.66224E-14 2.03805E-13
 -1      3198 2.00000E+01-1.34300E-03-5.38447E-06-2.76457E-03 1.76072E-14 1.97578E-14
 -1      3199 1.99994E+01-9.80385E-04 5.12359E-06-2.01619E-03-1.69982E-13 3.68051E-13
 -1      3200 1.99993E+01-1.04271E-03-4.91093E-06-2.22083E-03 5.34577E-14 3.75780E-13
 -1      3201 1.99999E+01-1.25455E-03-3.71605E-06-2.34366E-03-5.34556E-14 1.94562E-13
 -1      3202 1.99995E+01-8.51091E-04 4.48078E-06-1.63867E-03 6.30304E-15 3.08092E-13
 -1      3203 1.99994E+01-9.19657E-04-5.16918E-06-1.82237E-03-6.55208E-14 3.05723E-13
 -1      3204 1.99998E+01-1.12140E-03-2.47324E-06-1.94214E-03-4.59299E-14 5.60158E-13
 -1      3205 1.99995E+01-7.20725E-04 3.79206E-06-1.30785E-03-2.64080E-13 2.12532E-13
 -1      3206 1.99994E+01-7.88029E-04-4.98265E-06-1.46747E-03-9.64913E-14 1.67471E-13
 -1      3207 1.99998E+01-9.70708E-04-1.57268E-06-1.57783E-03-9.48760E-15 4.21904E-13
 -1      3208 1.99996E+01-5.99734E-04 3.14578E-06-1.02548E-03-3.51897E-13 7.89069E-14
 -1      3209 1.99995E+01-6.61070E-04-4.53381E-06-1.16093E-03-2.65712E-13 1.84602E-13
 -1      3210 1.99997E+01-8.20531E-04-9.41176E-07-1.25889E-03-2.35988E-13 3.97399E-13
 -1      3211 1.99996E+01-4.94495E-04 2.46051E-06-7.89228E-04-5.50808E-13-7.24168E-14
 -1      3212 1.99996E+01-5.46888E-04-3.92203E-06-9.02077E-04-5.17163E-13-8.94860E-14
 -1      3213 1.99997E+01-6.82047E-04-4.30679E-07-9.86728E-04-2.88907E-13 2.54872E-13
 -1      3214 1.99997E+01-4.10256E-04 7.31159E-07-5.94827E-04-4.16398E-13-2.30237E-14
 -1      3215 1.99996E+01-4.50073E-04-3.10292E-06-6.86868E-04-5.89463E-13-1.25570E-13
 -1      3216 1.99997E+01-5.63044E-04-2.19169E-07-7.59352E-04-5.13652E-13-1.16118E-13
 -1      3217 1.99997E+01-3.79659E-04-5.25686E-07-4.78649E-04-4.55763E-13 1.69024E-13
 -1      3218 1.99997E+01-3.93351E-04-2.57228E-06-5.39404E-04-3.68676E-13 5.51320E-14
 -1      3219 1.99997E+01-4.85102E-04 4.45012E-07-6.00126E-04-6.30901E-13-1.69759E-13
 -1      3220 1.99998E+01-4.36710E-04 2.75827E-06-4.92406E-04-3.44013E-13-7.52093E-14
 -1      3221 2.38653E+01 3.36084E+00-2.51181E-02-1.22154E+00-7.93112E-13-6.42333E-13
 -1      3222 2.37213E+01 3.16667E+00-5.40770E-02-5.46910E-01-7.55819E-13-7.29685E-13
 -1      3223 2.43741E+01 3.57474E+00-7.75492E-03-1.07077E-01-7.84373E-13-8.14262E-13
 -1      3224 1.99999E+01-6.17471E-04-3.55136E-07 4.70826E-04 3.32310E-13 9.57818E-14
 -1      3225 2.00000E+01-6.73135E-04 3.18078E-06 4.33529E-04 2.73171E-13 1.55637E-13
 -1      3226 2.00002E+01-8.53601E-04 1.30623E-06 4.44402E-05 1.62718E-13-8.83543E-15
 -1      3227 2.00002E+01-8.53859E-04 1.29861E-06-4.12328E-05 1.41780E-13 2.37324E-13
 -1      3228 2.85633E+01 4.35540E+00-1.44516E-01 4.67182E-02 1.38828E-12-5.82173E-13
 -1      3229 2.62363E+01 2.18625E+00-1.25894E-01-2.87530E+00-5.75866E-13-9.24955E-14
 -1      3230 2.30383E+01-2.91594E+00 3.67801E-02-3.11262E+00 5.83601E-13-7.19593E-13
 -1      3231 2.44897E+01-2.80105E+00-8.83484E-02-1.97737E+00 4.05056E-13-9.20934E-13
 -1      3232 1.79121E+01-1.99406E+00 1.16153E-01-5.24284E+00 8.03586E-13-9.50351E-14
 -1      3233 2.05943E+01-2.80844E+00-2.36188E-02-4.45769E+00 7.66085E-13-3.61771E-13
 -1      3234 2.75413E+01 2.75242E+00-1.00681E-01 3.24070E+00 1.13151E-12 3.72084E-13
 -1      3235 2.49474E+01 2.04229E+00-1.31899E-02-3.17387E+00-3.71311E-13-3.63585E-13
 -1      3236 2.46675E+01 2.10790E+00-4.22521E-02-3.29752E+00-4.96451E-13-4.13579E-13
 -1      3237 2.46908E+01 2.21854E+00 2.73139E-04-3.26026E+00-5.43450E-13-3.66789E-13
 -1      3238 2.53333E+01 2.20775E+00 1.58470E-03-3.21482E+00-4.78078E-13-2.27018E-13
 -1      3239 2.57113E+01 5.19757E+00-1.17330E-01-1.97604E+00-1.15380E-12-5.61211E-13
 -1      3240 2.61707E+01 4.72177E+00-7.88156E-02-2.67647E+00-1.11036E-12-3.00239E-13
 -1      3241 2.55896E+01-1.70383E+00 3.50477E-02-5.85506E-01 1.59411E-13-1.12004E-12
 -1      3242 2.58394E+01-2.31955E-01-8.25433E-02 4.63127E-01-1.46789E-13-1.18919E-12
 -1      3243 2.45247E+01-3.06637E+00 3.94414E-02 2.64991E+00-3.52905E-13-6.70499E-13
 -1      3244 2.00001E+01-8.19434E-04 9.83139E-08 2.20371E-04 1.48676E-13 1.67021E-14
 -1      3245 2.00002E+01-8.39195E-04 2.28039E-06 1.41726E-04 2.76238E-13-3.83445E-14
 -1      3246 2.00003E+01-9.21310E-04-3.11879E-06 1.03368E-04 2.92693E-13 5.34475E-15
 -1      3247 1.34235E+01-3.14134E-01 8.06016E-02-4.61611E+00 6.89390E-13 4.52541E-13
 -1      3248 1.54141E+01-1.37466E+00-1.32835E-02-5.32433E+00 7.68836E-13 1.54078E-13
 -1      3249 2.63081E+01 3.00938E+00-6.22490E-02-3.03299E+00-7.72028E-13-8.81448E-14
 -1      3250 2.57243E+01 2.59430E+00-1.69354E-02-3.19313E+00-5.80726E-13-1.77157E-13
 -1      3251 2.61863E+01 3.85548E+00-1.30840E-01-3.00380E+00-9.72888E-13-2.11314E-13
 -1      3252 2.52645E+01 4.42860E+00-8.92963E-02-2.67963E-01-9.71973E-13-8.97037E-13
 -1      3253 2.51721E+01 4.86818E+00-1.27450E-01-1.23229E+00-1.05384E-12-6.69473E-13
 -1      3254 2.04985E+01-2.86723E+00-1.80634E-03 4.74643E+00-5.80480E-13-2.91357E-13
 -1      3255 1.77333E+01-1.87803E+00 1.52907E-01 5.28176E+00-5.84713E-13-2.07195E-14
 -1      3256 2.33806E+01-2.75481E+00 6.44686E-02 3.00460E+00-4.47916E-13-5.41647E-13
 -1      3257 2.54648E+01 2.16491E+00-6.18026E-02 7.48343E-01-5.40901E-13-1.12102E-12
 -1      3258 2.52739E+01 3.54559E+00-1.41997E-01 4.94433E-01-7.91575E-13-1.03438E-12
 -1      3259 2.00001E+01-7.39009E-04-9.72352E-07 3.70411E-04 2.98257E-13 1.26330E-13
 -1      3260 2.00001E+01-7.77200E-04 3.07768E-06 3.06638E-04 1.86567E-13-8.37665E-15
 -1      3261 2.00002E+01-8.68563E-04-2.88248E-06 2.95425E-04 1.98426E-13 1.60785E-14
 -1      3262 2.00001E+01-7.67543E-04-1.61077E-06 4.51728E-04 1.95443E-13 1.91850E-13
 -1      3263 2.45026E+01 3.30483E+00-5.19233E-02-2.53868E+00-7.99326E-13-4.70660E-13
 -1      3264 2.43033E+01 3.59370E+00-3.64514E-02-1.95513E+00-8.40879E-13-5.33003E-13
 -1      3265 1.09335E+01 1.29705E+00 8.06324E-02-1.55423E+00 2.35492E-13 9.46673E-13
 -1      3266 1.19711E+01 6.35353E-01 8.33373E-02-3.50425E+00 4.97463E-13 7.67872E-13
 -1      3267 1.23851E+01 7.67217E-01 1.24873E-01 2.98428E+00-3.82024E-13 6.59223E-13
 -1      3268 2.00000E+01-6.73906E-04 3.21252E-06-4.33062E-04-1.13461E-13-7.90044E-13
 -1      3269 1.99999E+01-6.19993E-04-1.11419E-06-4.70767E-04-2.02406E-13-6.39729E-13
 -1      3270 2.48186E+01 4.30564E+00-4.29503E-02-1.63227E+00-9.54278E-13-6.07193E-13
 -1      3271 1.74383E+01-1.40115E+00 8.28100E-02-4.69380E+00 7.35821E-13-4.09464E-14
 -1      3272 2.00001E+01-7.77866E-04 3.07521E-06-3.06398E-04-3.18099E-14-8.84662E-14
 -1      3273 2.00001E+01-7.39706E-04-9.93336E-07-3.70299E-04-8.54910E-14-6.42278E-13
 -1      3274 2.00001E+01-7.68227E-04-1.89760E-06-4.51065E-04-4.38481E-14-6.98906E-13
 -1      3275 2.84817E+01 3.74251E-01-1.75684E-01 4.30498E+00 6.98538E-13 6.76549E-13
 -1      3276 2.54879E+01 3.84018E+00-3.72346E-02-2.89093E+00-8.87325E-13-3.27460E-13
 -1      3277 2.00002E+01-8.39686E-04 2.30661E-06-1.40008E-04 6.38605E-14 3.64227E-13
 -1      3278 2.00001E+01-8.19619E-04 1.93345E-07-2.20127E-04-3.45044E-14 2.51366E-13
 -1      3279 2.00002E+01-8.69207E-04-2.74433E-06-2.94539E-04-3.62873E-14 5.61974E-14
 -1      3280 2.00003E+01-9.21535E-04-3.00556E-06-1.01239E-04 7.40446E-14 2.85103E-13
 -1      3281 2.19832E+01-2.82618E+00 1.62074E-02-3.59591E+00 6.32841E-13-5.40200E-13
 -1      3282 2.26295E+01-2.48554E+00 6.38713E-03-2.48257E+00 4.95858E-13-7.00142E-13
 -1      3283 2.05828E+01-2.18420E+00 4.18273E-02-3.75039E+00 6.29964E-13-3.72990E-13
 -1      3284 2.51848E+01 2.66642E+00-5.91681E-02-3.24732E+00-6.69548E-13-2.82442E-13
 -1      3285 2.46061E+01-2.02936E+00 1.92751E-03-9.14186E-01 2.69762E-13-9.73579E-13
 -1      3286 2.47067E+01 2.83905E+00-1.61611E-02-2.98781E+00-7.03125E-13-3.51205E-13
 -1      3287 1.38829E+01 3.63242E-01 1.00582E-01-3.56880E+00 5.60843E-13 4.58945E-13
 -1      3288 1.68575E+01-1.07273E+00 1.06914E-01 4.60488E+00-5.67133E-13 1.09343E-13
 -1      3289 1.13564E+01 1.47077E+00 1.52233E-02 2.13832E-01-1.05818E-14 7.71036E-13
 -1      3290 1.11330E+01 1.52122E+00 1.28957E-01-7.79175E-01 1.07483E-13 9.14845E-13
 -1      3291 1.25882E+01 1.38068E+00 6.05069E-02-1.60191E+00 2.53513E-13 7.45765E-13
 -1      3292 2.54903E+01 9.21129E-01-5.66877E-02 9.69251E-01-3.37237E-13-1.17293E-12
 -1      3293 2.85506E+01 1.72598E+00-4.67169E-02 4.13848E+00 9.61037E-13 5.47794E-13
 -1      3294 2.14723E+01-2.61710E+00-1.84006E-02 3.96992E+00-4.90566E-13-3.49436E-13
 -1      3295 2.48559E+01-1.63688E-01-3.25186E-02 6.58033E-01-1.83325E-13-1.01389E-12
 -1      3296 1.99998E+01-5.39081E-04 1.23215E-06 5.30462E-04 1.66796E-13-2.88393E-13
 -1      3297 1.99999E+01-5.79494E-04 1.62011E-06 5.02678E-04 3.37094E-13 4.79856E-14
 -1      3298 1.99999E+01-6.68422E-04-1.61144E-06 5.46514E-04-2.48692E-15 8.30365E-14
 -1      3299 1.99998E+01-5.92394E-04-2.10843E-06 6.02485E-04-1.47779E-14-3.43860E-13
 -1      3300 1.88725E+01 2.30650E-01-6.72612E-03 2.48579E+00-3.19744E-13-6.86480E-14
 -1      3301 1.91216E+01-5.69671E-02 3.78744E-02 2.73878E+00-3.30902E-13-7.82907E-14
 -1      3302 1.90168E+01-4.92269E-01 2.41121E-03 3.22072E+00-3.63989E-13-9.97535E-14
 -1      3303 1.95428E+01-1.07623E+00 3.18275E-02 3.53134E+00-3.99149E-13-1.44009E-13
 -1      3304 1.79091E+01 9.23261E-02 4.10842E-02 3.12827E+00-3.66378E-13-1.29931E-15
 -1      3305 2.47016E+01-9.16792E-01 1.83886E-03 4.70511E-01-2.12556E-14-1.00734E-12
 -1      3306 2.31590E+01-1.79475E+00-1.03460E-02-7.05985E-01 2.22384E-13-6.93529E-13
 -1      3307 2.27313E+01-1.71380E+00 2.27070E-02-9.73663E-01 2.53678E-13-6.56255E-13
 -1      3308 2.21109E+01-1.52666E+00-2.57411E-03-1.15456E+00 2.36508E-13-5.93241E-13
 -1      3309 2.17216E+01-1.28731E+00 2.14636E-02-1.28434E+00 2.78578E-13-5.30951E-13
 -1      3310 2.21929E+01-1.78946E+00-1.77600E-02-1.50030E+00 2.92963E-13-5.44048E-13
 -1      3311 2.12763E+01-1.04148E+00 8.91103E-04-1.31263E+00 2.57173E-13-4.89827E-13
 -1      3312 2.09690E+01-7.86852E-01 1.35930E-02-1.34470E+00 2.27773E-13-4.07918E-13
 -1      3313 2.11654E+01-1.26232E+00-2.77861E-02-1.64648E+00 2.88057E-13-4.71383E-13
 -1      3314 2.06918E+01-5.63513E-01 4.43943E-03-1.28640E+00 1.86519E-13-3.20412E-13
 -1      3315 2.04736E+01-3.62070E-01 7.66677E-03-1.26163E+00 1.80928E-13-2.61266E-13
 -1      3316 2.05008E+01-6.88438E-01-1.79762E-02-1.54949E+00 2.58633E-13-3.73169E-13
 -1      3317 2.03167E+01-1.92735E-01 4.74362E-03-1.17339E+00 1.42188E-13-2.73353E-13
 -1      3318 2.01735E+01-5.08142E-02 3.75622E-03-1.11991E+00 1.52118E-13-2.77222E-13
 -1      3319 2.01036E+01-2.47184E-01-1.11973E-02-1.36357E+00 1.86064E-13-2.87172E-13
 -1      3320 2.00967E+01 6.26163E-02 4.24868E-03-1.02508E+00 1.10900E-13-2.99325E-13
 -1      3321 2.00086E+01 1.50443E-01 1.31152E-03-9.60345E-01 3.33947E-14-3.02311E-13
 -1      3322 1.98915E+01 5.65051E-02-6.49164E-03-1.15499E+00 1.36907E-13-3.01441E-13
 -1      3323 1.99803E+01 2.17273E-01 3.36705E-03-8.71112E-01-2.51211E-14-2.30044E-13
 -1      3324 1.99293E+01 2.63737E-01-5.83928E-05-8.04559E-01-4.27070E-14-1.93902E-13
 -1      3325 1.97971E+01 2.41100E-01-3.56944E-03-9.57228E-01 7.44676E-14-2.35120E-13
 -1      3326 1.99284E+01 2.95935E-01 2.59937E-03-7.24985E-01-8.08704E-14-2.20121E-13
 -1      3327 1.99008E+01 3.13248E-01-7.72718E-04-6.61642E-01-7.86775E-14-2.30051E-13
 -1      3328 1.97718E+01 3.36857E-01-1.74102E-03-7.81453E-01-7.99898E-14-1.94601E-13
 -1      3329 1.99140E+01 3.21761E-01 2.00368E-03-5.92756E-01-8.50603E-14-2.66947E-13
 -1      3330 1.99003E+01 3.20095E-01-1.09452E-03-5.35174E-01-7.16449E-14-2.84662E-13
 -1      3331 1.97841E+01 3.70750E-01-6.53276E-04-6.29930E-01-7.69720E-14-2.94913E-13
 -1      3332 1.99193E+01 3.13716E-01 1.56268E-03-4.76713E-01-4.68185E-14-3.16161E-13
 -1      3333 1.99132E+01 3.00820E-01-1.18517E-03-4.26047E-01 1.70261E-14-3.15884E-13
 -1      3334 1.98143E+01 3.64634E-01-4.93957E-05-5.01649E-01-6.75686E-14-3.13456E-13
 -1      3335 1.99333E+01 2.86073E-01 1.23821E-03-3.77226E-01 7.66157E-14-3.64397E-13
 -1      3336 1.99311E+01 2.67477E-01-1.14399E-03-3.33796E-01 8.09684E-14-3.18169E-13
 -1      3337 1.98504E+01 3.34957E-01 2.51624E-04-3.94494E-01 2.22249E-14-2.78947E-13
 -1      3338 1.99497E+01 2.48902E-01 9.94615E-04-2.93629E-01-3.56786E-14-3.09493E-13
 -1      3339 1.99493E+01 2.28325E-01-1.03294E-03-2.57240E-01-2.90538E-14-3.37930E-13
 -1      3340 1.98857E+01 2.93404E-01 3.71262E-04-3.06078E-01 4.02320E-14-2.85149E-13
 -1      3341 1.99652E+01 2.08892E-01 8.05660E-04-2.24678E-01 1.14057E-14-3.56249E-13
 -1      3342 1.99654E+01 1.88673E-01-8.90850E-04-1.94815E-01-7.66639E-14-3.35168E-13
 -1      3343 1.99169E+01 2.47832E-01 3.88411E-04-2.34034E-01-3.98610E-14-3.35059E-13
 -1      3344 1.99783E+01 1.70186E-01 6.54213E-04-1.68811E-01-1.67976E-14-2.60315E-13
 -1      3345 1.99785E+01 1.51666E-01-7.41717E-04-1.44778E-01 2.09190E-13-2.68513E-13
 -1      3346 1.99427E+01 2.03193E-01 3.52816E-04-1.76101E-01 3.25188E-14-2.85464E-13
 -1      3347 1.99885E+01 1.35101E-01 5.29810E-04-1.24331E-01 2.67946E-13-2.88870E-13
 -1      3348 1.99885E+01 1.18935E-01-5.99705E-04-1.05352E-01 2.04060E-13-2.25568E-13
 -1      3349 1.99630E+01 1.62338E-01 2.94714E-04-1.30161E-01 1.97715E-13-2.74901E-13
 -1      3350 1.99960E+01 1.04715E-01 4.26212E-04-8.95300E-02 8.16869E-14-2.62185E-13
 -1      3351 1.99957E+01 9.11076E-02-4.72427E-04-7.48222E-02-3.57598E-14-2.73921E-13
 -1      3352 1.99782E+01 1.26660E-01 2.31566E-04-9.42655E-02 1.20179E-13-3.48753E-13
 -1      3353 2.00010E+01 7.93004E-02 3.39605E-04-6.27845E-02-1.31762E-13-2.39342E-13
 -1      3354 2.00005E+01 6.81803E-02-3.63182E-04-5.16030E-02-9.46652E-14-2.23561E-13
 -1      3355 1.99892E+01 9.65955E-02 1.72670E-04-6.66542E-02-2.71889E-14-3.49842E-13
 -1      3356 2.00042E+01 5.86452E-02 2.67454E-04-4.26096E-02-3.84276E-14-2.25381E-13
 -1      3357 2.00036E+01 4.97872E-02-2.72536E-04-3.42790E-02 1.36284E-14-2.13627E-13
 -1      3358 1.99967E+01 7.19899E-02 1.22278E-04-4.57682E-02-1.02337E-13-1.27132E-13
 -1      3359 2.00060E+01 4.22738E-02 2.07843E-04-2.76934E-02 5.32575E-14-1.53764E-13
 -1      3360 2.00053E+01 3.53807E-02-1.99427E-04-2.16221E-02 3.79722E-14-1.96415E-13
 -1      3361 2.00016E+01 5.23542E-02 8.16674E-05-3.02557E-02 6.84865E-14-4.47661E-14
 -1      3362 2.00067E+01 2.95946E-02 1.59146E-04-1.69089E-02 8.68602E-16-1.68779E-13
 -1      3363 2.00060E+01 2.43496E-02-1.41931E-04-1.25938E-02-3.29997E-14-6.10712E-14
 -1      3364 2.00045E+01 3.70419E-02 5.04793E-05-1.89675E-02 5.09852E-14-2.34552E-14
 -1      3365 2.00067E+01 1.99929E-02 1.19883E-04-9.31110E-03-8.67772E-14 1.22494E-14
 -1      3366 2.00060E+01 1.60916E-02-9.77713E-05-6.33481E-03-1.31464E-14 1.09656E-14
 -1      3367 2.00060E+01 2.53630E-02 2.75577E-05-1.09454E-02-3.54044E-14 8.23437E-14
 -1      3368 2.00063E+01 1.28869E-02 8.86748E-05-4.12508E-03-6.57493E-14-1.06673E-13
 -1      3369 2.00057E+01 1.00544E-02-6.46386E-05-2.14908E-03-2.88298E-14-4.98180E-14
 -1      3370 2.00065E+01 1.66523E-02 1.14557E-05-5.40489E-03-6.57709E-14-4.40342E-14
 -1      3371 2.00056E+01 7.75631E-03 6.42424E-05-7.28087E-04-2.30120E-14-2.42581E-14
 -1      3372 2.00051E+01 5.75502E-03-4.03764E-05 5.16693E-04-5.68185E-17-6.36300E-14
 -1      3373 2.00064E+01 1.03077E-02 7.21672E-07-1.71526E-03-2.37804E-14-2.73571E-14
 -1      3374 2.00049E+01 4.15490E-03 4.54186E-05 1.37085E-03-1.31535E-13-1.54467E-13
 -1      3375 2.00044E+01 2.78620E-03-2.30785E-05 2.09406E-03-9.03597E-14-2.93621E-13
 -1      3376 2.00059E+01 5.80780E-03-5.95388E-06 6.21896E-04-1.21585E-13-2.42044E-14
 -1      3377 2.00041E+01 1.71181E-03 3.11614E-05 2.55154E-03 6.83420E-14-3.11195E-13
 -1      3378 2.00037E+01 8.14083E-04-1.11250E-05 2.91341E-03 9.42999E-14-2.03269E-13
 -1      3379 2.00053E+01 2.71520E-03-9.67645E-06 1.99360E-03-2.53197E-14-1.82758E-13
 -1      3380 2.00033E+01 1.26893E-04 2.05618E-05 3.10232E-03 5.47608E-14-2.89735E-13
 -1      3381 2.00030E+01-4.28310E-04-3.18157E-06 3.22286E-03-2.45180E-14-2.58012E-13
 -1      3382 2.00045E+01 6.73327E-04-1.13359E-05 2.69508E-03 7.96282E-14-3.04305E-13
 -1      3383 2.00026E+01-8.37264E-04 1.28431E-05 3.23769E-03-8.40624E-14-2.01956E-13
 -1      3384 2.00024E+01-1.14981E-03 1.82265E-06 3.20489E-03 1.42964E-14-7.86674E-14
 -1      3385 2.00037E+01-6.01898E-04-1.16211E-05 2.94737E-03 3.74941E-14-3.09993E-13
 -1      3386 2.00020E+01-1.36443E-03 7.35573E-06 3.11382E-03-6.47863E-14 3.96922E-14
 -1      3387 2.00018E+01-1.51039E-03 4.72702E-06 2.99065E-03-1.42434E-13 3.69648E-14
 -1      3388 2.00030E+01-1.33194E-03-1.10471E-05 2.91260E-03 2.69776E-14-1.50109E-13
 -1      3389 2.00015E+01-1.59395E-03 3.56675E-06 2.84160E-03-1.83930E-13 3.83498E-14
 -1      3390 2.00014E+01-1.63008E-03 6.17534E-06 2.67186E-03 1.45668E-14-8.43253E-14
 -1      3391 2.00024E+01-1.68592E-03-9.98607E-06 2.70700E-03-1.15661E-13-8.01172E-15
 -1      3392 2.00011E+01-1.62930E-03 1.04716E-06 2.49746E-03 1.97892E-13-7.80716E-14
 -1      3393 2.00010E+01-1.59701E-03 6.65058E-06 2.31056E-03 2.15589E-13 3.92957E-14
 -1      3394 2.00018E+01-1.79036E-03-8.69684E-06 2.41162E-03 1.26681E-14 5.59535E-14
 -1      3395 2.00008E+01-1.54563E-03-5.43500E-07 2.13209E-03 1.51773E-13 7.54873E-15
 -1      3396 2.00007E+01-1.47443E-03 6.50671E-06 1.94682E-03 1.79406E-13-8.40165E-14
 -1      3397 2.00014E+01-1.73791E-03-7.35251E-06 2.08110E-03 1.61138E-13-9.68632E-14
 -1      3398 2.00005E+01-1.39622E-03-1.47834E-06 1.77734E-03 7.88925E-14-2.26097E-13
 -1      3399 2.00004E+01-1.30659E-03 6.00083E-06 1.60489E-03 2.85502E-14-2.61045E-13
 -1      3400 2.00010E+01-1.59480E-03-6.06414E-06 1.75057E-03 4.63726E-14-2.00071E-13
 -1      3401 2.00003E+01-1.21779E-03-1.94770E-06 1.45177E-03 8.79212E-14-2.53592E-13
 -1      3402 2.00003E+01-1.12368E-03 5.30239E-06 1.29803E-03 1.38373E-14-3.44290E-13
 -1      3403 2.00007E+01-1.40719E-03-4.90880E-06 1.44125E-03 6.41099E-14-4.93780E-13
 -1      3404 2.00001E+01-1.03534E-03-2.07460E-06 1.16448E-03-7.25550E-14-1.38235E-13
 -1      3405 2.00001E+01-9.45997E-04 4.39612E-06 1.03155E-03 9.42966E-14-2.06929E-13
 -1      3406 2.00004E+01-1.20667E-03-3.93379E-06 1.16461E-03 1.76551E-13-1.91508E-13
 -1      3407 2.00000E+01-8.63280E-04-1.54249E-06 9.17309E-04 2.43376E-13-6.47159E-14
 -1      3408 2.00000E+01-7.84704E-04 2.78433E-06 8.06123E-04 3.44234E-13 8.10729E-14
 -1      3409 2.00002E+01-1.01494E-03-3.40995E-06 9.24648E-04 2.52978E-13 3.12508E-13
 -1      3410 1.91553E+01 7.70121E-01-7.80586E-03 1.55342E+00-1.20391E-13-5.10788E-14
 -1      3411 1.91507E+01 7.23343E-01 9.87570E-03 1.72468E+00-1.67352E-13-7.09180E-14
 -1      3412 1.93559E+01 7.84604E-01-6.45631E-03 1.24779E+00-5.90103E-14-7.21595E-14
 -1      3413 1.93239E+01 7.94096E-01 5.37263E-03 1.38729E+00-9.49901E-14-7.40508E-14
 -1      3414 1.88323E+01 9.26758E-01 5.30569E-03 1.38693E+00-9.57329E-14-6.56049E-14
 -1      3415 1.95319E+01 7.26744E-01-5.19426E-03 1.00536E+00 3.86927E-14-7.08712E-14
 -1      3416 1.94960E+01 7.64667E-01 3.07918E-03 1.12116E+00-1.62716E-14-9.69772E-14
 -1      3417 1.91257E+01 8.91283E-01 5.03812E-03 1.10779E+00-2.42438E-14-1.36580E-13
 -1      3418 1.96729E+01 6.36630E-01-4.15587E-03 8.07083E-01-7.65819E-15-1.11634E-13
 -1      3419 1.96428E+01 6.86137E-01 2.00559E-03 9.04314E-01 1.12687E-13-4.52884E-14
 -1      3420 1.93624E+01 8.02848E-01 4.29859E-03 8.91927E-01 4.02787E-14-1.49137E-13
 -1      3421 1.97796E+01 5.37460E-01-3.31611E-03 6.42649E-01 1.41481E-14-8.61224E-14
 -1      3422 1.97578E+01 5.88878E-01 1.50089E-03 7.24324E-01-6.00290E-14-1.01312E-13
 -1      3423 1.95459E+01 6.93158E-01 3.43218E-03 7.17450E-01-2.73910E-14-1.86694E-13
 -1      3424 1.98571E+01 4.41823E-01-2.63281E-03 5.06070E-01-1.23006E-14 1.14645E-14
 -1      3425 1.98431E+01 4.90053E-01 1.25285E-03 5.74176E-01 6.44105E-14 5.30411E-14
 -1      3426 1.96839E+01 5.80716E-01 2.61993E-03 5.73108E-01-1.25749E-14 1.52710E-14
 -1      3427 1.99115E+01 3.55791E-01-2.07541E-03 3.93352E-01 1.09042E-13-1.34296E-13
 -1      3428 1.99037E+01 3.98501E-01 1.10418E-03 4.49486E-01 5.86525E-14-1.24670E-13
 -1      3429 1.97853E+01 4.75477E-01 1.93441E-03 4.52899E-01 9.21562E-14 1.88659E-14
 -1      3430 1.99487E+01 2.81638E-01-1.62214E-03 3.01332E-01 1.09273E-13-8.52851E-14
 -1      3431 1.99451E+01 3.18089E-01 9.84506E-04 3.46970E-01 5.92868E-14-1.31488E-13
 -1      3432 1.98582E+01 3.82106E-01 1.39016E-03 3.53204E-01 1.06522E-13-8.65377E-14
 -1      3433 1.99732E+01 2.19558E-01-1.25598E-03 2.27196E-01 1.20251E-13 3.95936E-14
 -1      3434 1.99725E+01 2.49869E-01 8.68399E-04 2.63765E-01 1.27866E-13-3.94682E-15
 -1      3435 1.99097E+01 3.02141E-01 9.75333E-04 2.71369E-01 6.90238E-14-1.62779E-13
 -1      3436 1.99889E+01 1.68696E-01-9.62655E-04 1.68321E-01 1.91413E-13-2.58174E-14
 -1      3437 1.99898E+01 1.93404E-01 7.51030E-04 1.97189E-01 2.31304E-13 6.32534E-14
 -1      3438 1.99452E+01 2.35383E-01 6.68515E-04 2.05095E-01 1.49029E-13-4.58405E-14
 -1      3439 1.99985E+01 1.27740E-01-7.29765E-04 1.22266E-01 1.62577E-13 5.57705E-15
 -1      3440 2.00003E+01 1.47554E-01 6.35312E-04 1.44710E-01 2.14628E-13 6.06927E-14
 -1      3441 1.99693E+01 1.80745E-01 4.46917E-04 1.52224E-01 1.87077E-13 1.15859E-13
 -1      3442 2.00040E+01 9.52531E-02-5.46569E-04 8.68022E-02-1.87007E-13 2.50259E-14
 -1      3443 2.00061E+01 1.10911E-01 5.25783E-04 1.03980E-01-1.00291E-14 7.95720E-14
 -1      3444 1.99853E+01 1.36763E-01 2.90077E-04 1.10710E-01 3.97956E-14 2.83801E-13
 -1      3445 2.00068E+01 6.98411E-02-4.03843E-04 5.99428E-02-1.55010E-13-1.53229E-14
 -1      3446 2.00089E+01 8.20456E-02 4.26145E-04 7.28744E-02-2.48976E-13-1.69951E-14
 -1      3447 1.99954E+01 1.01880E-01 1.81130E-04 7.86488E-02-1.21488E-13 1.23629E-13
 -1      3448 2.00079E+01 5.02339E-02-2.93767E-04 3.99593E-02-6.93712E-14 8.26239E-14
 -1      3449 2.00099E+01 5.96162E-02 3.38597E-04 4.95216E-02-9.61676E-14 5.70044E-14
 -1      3450 2.00016E+01 7.45979E-02 1.06881E-04 5.43126E-02-1.79312E-13 9.45120E-14
 -1      3451 2.00080E+01 3.53173E-02-2.09795E-04 2.53814E-02-9.77842E-14 1.52341E-13
 -1      3452 2.00097E+01 4.24273E-02 2.63922E-04 3.23124E-02-4.83098E-14 1.63875E-13
 -1      3453 2.00050E+01 5.35558E-02 5.73568E-05 3.61787E-02-1.24088E-13 1.76756E-13
 -1      3454 2.00074E+01 2.41390E-02-1.46503E-04 1.49840E-02-2.34671E-14 2.32623E-13
 -1      3455 2.00089E+01 2.94444E-02 2.01839E-04 1.98928E-02-5.38706E-14 2.33502E-13
 -1      3456 2.00067E+01 3.75587E-02 2.51968E-05 2.29382E-02-4.63432E-14 7.69293E-14
 -1      3457 2.00066E+01 1.59005E-02-9.94396E-05 7.76556E-03 2.20898E-14 2.84401E-13
 -1      3458 2.00078E+01 1.97916E-02 1.51380E-04 1.11457E-02 7.03279E-14 2.66207E-13
 -1      3459 2.00072E+01 2.55833E-02 5.06063E-06 1.34917E-02-3.45797E-14 4.02771E-13
 -1      3460 2.00056E+01 9.94257E-03-6.49839E-05 2.92133E-03 1.82150E-14 2.25914E-13
 -1      3461 2.00066E+01 1.27405E-02 1.11206E-04 5.16665E-03 2.38374E-14 2.54221E-13
 -1      3462 2.00071E+01 1.67701E-02-6.87620E-06 6.93526E-03 4.69430E-14 3.38774E-13
 -1      3463 2.00047E+01 5.72932E-03-4.02147E-05-1.83971E-04 1.52601E-13 4.78439E-14
 -1      3464 2.00054E+01 7.69431E-03 7.98341E-05 1.23525E-03 1.12364E-13 1.28522E-13
 -1      3465 2.00065E+01 1.04090E-02-1.33243E-05 2.53965E-03 1.13149E-13 1.53016E-13
 -1      3466 2.00038E+01 2.83066E-03-2.27971E-05-2.04366E-03 2.38126E-14 1.39029E-13
 -1      3467 2.00044E+01 4.17071E-03 5.57951E-05-1.21223E-03 4.13351E-14 1.58292E-13
 -1      3468 2.00057E+01 5.92226E-03-1.61862E-05-2.72615E-04 4.58354E-14 2.23228E-13
 -1      3469 2.00030E+01 9.06200E-04-1.08830E-05-3.03426E-03 1.02299E-13 1.21724E-13
 -1      3470 2.00034E+01 1.78538E-03 3.77251E-05-2.60978E-03 8.79039E-14 4.49074E-14
 -1      3471 2.00048E+01 2.84602E-03-1.67839E-05-1.95081E-03 6.59277E-14 1.03541E-13
 -1      3472 2.00023E+01-3.09819E-04-3.02468E-06-3.43807E-03-1.48740E-14 2.46598E-13
 -1      3473 2.00027E+01 2.36106E-04 2.44145E-05-3.28572E-03 7.04471E-14 2.23787E-13
 -1      3474 2.00040E+01 8.13373E-04-1.60242E-05-2.83825E-03 4.30974E-14 7.65995E-14
 -1      3475 2.00018E+01-1.02190E-03 1.89850E-06-3.46267E-03 7.28011E-14 1.91685E-13
 -1      3476 2.00020E+01-7.11417E-04 1.48265E-05-3.48388E-03 7.30150E-14 2.34337E-13
 -1      3477 2.00032E+01-4.61939E-04-1.45197E-05-3.19247E-03 6.22298E-14 8.66993E-14
 -1      3478 2.00013E+01-1.38503E-03 4.74322E-06-3.25738E-03 9.33330E-14 1.63698E-13
 -1      3479 2.00015E+01-1.23619E-03 8.09661E-06-3.38169E-03-4.99291E-14 1.66737E-13
 -1      3480 2.00025E+01-1.19998E-03-1.26747E-05-3.20283E-03 1.60129E-14 6.03948E-14
 -1      3481 2.00009E+01-1.51476E-03 6.15502E-06-2.92688E-03 9.71515E-15 7.83665E-14
 -1      3482 2.00010E+01-1.47280E-03 3.52046E-06-3.10527E-03 2.08971E-13 8.62951E-14
 -1      3483 2.00020E+01-1.56729E-03-1.07480E-05-3.00547E-03 2.08924E-13 2.84051E-13
 -1      3484 2.00006E+01-1.49567E-03 6.61283E-06-2.54226E-03 9.11812E-15 8.20590E-14
 -1      3485 2.00007E+01-1.52072E-03 5.36039E-07-2.74174E-03-3.89959E-14 5.53246E-14
 -1      3486 2.00015E+01-1.68782E-03-8.89707E-06-2.69576E-03 7.75855E-14 3.82771E-13
 -1      3487 2.00004E+01-1.38843E-03 6.46590E-06-2.14975E-03-9.83957E-14 1.26661E-13
 -1      3488 2.00004E+01-1.45207E-03-1.29604E-06-2.34914E-03 7.53987E-15 8.31521E-14
 -1      3489 2.00011E+01-1.65212E-03-7.21045E-06-2.33834E-03-2.29116E-14 1.01674E-14
 -1      3490 2.00002E+01-1.23554E-03 5.96523E-06-1.77762E-03-8.48328E-14 3.25213E-13
 -1      3491 2.00002E+01-1.31802E-03-2.31220E-06-1.96423E-03-1.15599E-13 2.52205E-13
 -1      3492 2.00007E+01-1.52498E-03-5.73024E-06-1.97517E-03-2.21252E-13 8.27738E-14
 -1      3493 2.00001E+01-1.06599E-03 5.27908E-06-1.44146E-03-1.74453E-14 3.95986E-13
 -1      3494 2.00001E+01-1.15394E-03-2.76878E-06-1.60855E-03-1.86995E-14 3.87230E-13
 -1      3495 2.00005E+01-1.35165E-03-4.46714E-06-1.63182E-03-8.42033E-14 1.39876E-13
 -1      3496 2.00000E+01-8.98836E-04 4.58086E-06-1.14809E-03-2.37533E-13 2.65412E-13
 -1      3497 2.00000E+01-9.83637E-04-2.87273E-06-1.29305E-03-3.52193E-14 4.14768E-13
 -1      3498 2.00003E+01-1.16285E-03-3.41082E-06-1.32233E-03-7.24167E-14 2.92913E-13
 -1      3499 1.99999E+01-7.46448E-04 3.85240E-06-8.98127E-04-1.55360E-13 1.69840E-13
 -1      3500 1.99999E+01-8.23254E-04-2.98193E-06-1.02163E-03-1.88795E-13 2.45365E-13
 -1      3501 2.00001E+01-9.78227E-04-2.34958E-06-1.05300E-03-1.30264E-13 2.03858E-13
 -1      3502 1.99998E+01-6.17041E-04 2.03198E-06-6.90842E-04-4.54572E-13-1.54215E-13
 -1      3503 1.99998E+01-6.79386E-04-2.42912E-06-7.93202E-04-2.46685E-13 4.75944E-14
 -1      3504 2.00000E+01-8.09661E-04-4.60768E-07-8.24627E-04-1.75303E-13 4.11922E-14
 -1      3505 1.99999E+01-5.55859E-04 2.80102E-06-4.87332E-04-2.97396E-13-5.58524E-13
 -1      3506 1.99998E+01-5.01073E-04-1.52386E-07-4.94906E-04-3.36574E-13-4.09285E-13
 -1      3507 1.99998E+01-5.24544E-04-5.57741E-07-5.45969E-04-5.02915E-13-2.54634E-13
 -1      3508 1.99999E+01-6.46183E-04-9.66608E-07-5.32021E-04-2.15533E-13-5.03623E-13
 -1      3509 1.89686E+01 6.16133E-01-7.95555E-03 1.95217E+00-2.75848E-13-7.28073E-14
 -1      3510 1.90403E+01 4.74473E-01 1.93357E-02 2.16244E+00-3.00172E-13-3.45247E-14
 -1      3511 1.84965E+01 8.55502E-01 6.59877E-03 1.77486E+00-1.94182E-13-6.45492E-14
 -1      3512 2.00004E+01-9.91968E-04 5.57681E-07 1.68421E-04 2.09602E-13 1.63501E-15
 -1      3513 2.00004E+01-1.00353E-03 2.02177E-06 6.42301E-05 1.78822E-13-2.38779E-15
 -1      3514 1.39726E+01 7.21676E-01 1.99660E-02-2.86285E+00 4.16970E-13 3.89550E-13
 -1      3515 1.52541E+01-1.23383E-01 2.08135E-02-3.92573E+00 5.91954E-13 2.23134E-13
 -1      3516 1.67894E+01-7.38645E-01 6.68170E-02-4.20564E+00 6.62978E-13 4.94743E-14
 -1      3517 1.84943E+01-1.67481E+00-5.84152E-02-4.20568E+00 6.59866E-13-1.50879E-13
 -1      3518 1.68054E+01-2.55190E-01 6.39216E-02-3.56787E+00 5.65829E-13 8.97338E-14
 -1      3519 2.45252E+01 2.35878E+00-2.86882E-03-3.04096E+00-5.98133E-13-3.93757E-13
 -1      3520 1.83647E+01-1.27327E+00-1.74138E-02 4.20027E+00-4.95154E-13-1.38486E-13
 -1      3521 1.63062E+01-1.10840E-01 1.24893E-01 3.90869E+00-5.03203E-13 1.35027E-13
 -1      3522 1.36484E+01 4.58143E-01-4.45695E-02 3.38420E+00-4.35742E-13 4.82593E-13
 -1      3523 1.22245E+01 1.36555E+00 1.34501E-01 1.98350E+00-2.87240E-13 6.98858E-13
 -1      3524 1.81668E+01 6.10284E-01 1.86833E-02 2.32967E+00-3.41255E-13-1.53874E-14
 -1      3525 2.42154E+01-1.41194E+00-3.13162E-02 1.67911E-02 6.75467E-14-9.03114E-13
 -1      3526 2.38501E+01-1.69700E+00 9.51949E-03-3.27183E-01 1.92004E-13-8.21016E-13
 -1      3527 2.00005E+01-1.09466E-03-3.21100E-06 2.66851E-07 1.48059E-13 1.69817E-13
 -1      3528 2.00004E+01-1.00396E-03 1.82705E-06-6.18980E-05 1.44294E-13 2.87310E-13
 -1      3529 2.00004E+01-9.91524E-04 9.00699E-07-1.67271E-04 7.59682E-14 3.88188E-13
 -1      3530 1.99999E+01-7.14973E-04-1.16569E-06 7.42691E-04 4.07457E-13-7.09966E-14
 -1      3531 1.99999E+01-6.50926E-04 1.45477E-06 6.59988E-04 3.06077E-13-1.30251E-13
 -1      3532 2.00000E+01-6.93717E-04 5.66315E-08 6.34240E-04 1.69235E-13 3.89853E-14
 -1      3533 2.00001E+01-8.41109E-04-2.04969E-06 7.53659E-04 3.78694E-13 5.64668E-13
 -1      3534 2.00000E+01-7.15313E-04 1.96457E-06-6.12202E-04-2.62236E-13-4.01704E-13
 -1      3535 1.99999E+01-6.57869E-04-1.09539E-06-6.31524E-04-3.67680E-13-2.05858E-13
 -1      3536 1.99998E+01-5.48546E-04-7.14546E-07-6.02589E-04-5.50867E-13-3.31545E-13
 -1      3537 1.99716E+01-1.69412E+00 3.21517E-02-3.48004E+00 5.57299E-13-2.56263E-13
 -1      3538 1.36920E+01 1.22599E+00 5.68693E-02-2.04057E+00 2.88747E-13 5.77260E-13
 -1      3539 1.49479E+01 8.70113E-01 3.88930E-02-2.42652E+00 3.57915E-13 2.73576E-13
 -1      3540 2.22978E+01-2.16261E+00 2.14386E-03-2.13336E+00 3.81963E-13-5.67003E-13
 -1      3541 2.32697E+01-2.37397E+00 6.06971E-03-1.73233E+00 3.98393E-13-6.95568E-13
 -1      3542 2.00002E+01-8.60473E-04 3.07919E-06-4.85958E-04-4.46287E-14-6.50621E-13
 -1      3543 2.00001E+01-8.02805E-04-1.67383E-06-5.54129E-04-1.39315E-13-6.46190E-13
 -1      3544 2.00001E+01-8.22398E-04-2.33568E-06-6.62429E-04-2.38292E-13-2.86883E-13
 -1      3545 2.00003E+01-9.57887E-04 3.16678E-06 2.86633E-04 1.25365E-13 2.85021E-14
 -1      3546 2.00004E+01-1.06299E-03-3.56414E-06 2.53634E-04-5.81685E-15 4.42944E-14
 -1      3547 2.00003E+01-9.25558E-04-1.67952E-06 3.80125E-04 8.06234E-14-2.28528E-14
 -1      3548 2.35095E+01-1.99560E+00 1.68576E-04-9.79147E-01 2.61961E-13-7.51239E-13
 -1      3549 2.00000E+01-7.28380E-04 2.14070E-06 5.99828E-04 1.21625E-13 1.86160E-13
 -1      3550 2.02223E+01-1.81404E+00 4.91631E-02 3.94550E+00-4.62669E-13-2.78520E-13
 -1      3551 1.55965E+01 3.34374E-01-3.99760E-03 3.19261E+00-4.08326E-13 2.54616E-13
 -1      3552 2.40605E+01-2.29441E+00 2.69318E-02-1.33947E+00 2.98185E-13-8.53272E-13
 -1      3553 2.46599E+01-1.63982E+00-5.02118E-02-2.21796E-01 1.23680E-13-9.43595E-13
 -1      3554 1.28475E+01 1.47346E+00 6.47906E-02 7.66595E-01-7.99309E-14 6.55490E-13
 -1      3555 1.34409E+01 1.39124E+00-8.21257E-03-1.29257E+00 2.07469E-13 6.19605E-13
 -1      3556 2.00001E+01-8.25102E-04-7.25217E-07 6.38256E-04 1.54203E-13 1.91338E-13
 -1      3557 2.00001E+01-7.92637E-04-1.84600E-06 5.45902E-04 7.07798E-14 2.04553E-13
 -1      3558 2.00002E+01-8.46083E-04 4.21169E-06 4.80362E-04 1.25051E-13 8.05620E-14
 -1      3559 2.00002E+01-8.96726E-04 2.47696E-06 6.93520E-04 1.99069E-13 3.41376E-13
 -1      3560 1.65015E+01 1.67001E-01 1.30904E-02-2.99260E+00 4.13936E-13 5.74922E-14
 -1      3561 1.76634E+01-5.50076E-01-4.18158E-02-3.31625E+00 4.69591E-13-5.86007E-14
 -1      3562 1.92048E+01 8.36387E-01-5.34409E-03 7.31494E-01 7.30303E-14-1.10506E-13
 -1      3563 1.91020E+01 8.97392E-01 1.55553E-04 8.19268E-01 6.10926E-14-8.47346E-14
 -1      3564 2.16947E+01-1.84314E+00 2.15503E-02-2.20893E+00 3.83938E-13-5.24953E-13
 -1      3565 1.64903E+01 8.20879E-01-3.81775E-02 2.21897E+00-2.98607E-13 2.39787E-13
 -1      3566 1.63426E+01 5.53677E-01 3.58162E-03 2.67990E+00-3.38258E-13 2.08082E-13
 -1      3567 1.46186E+01 1.38669E+00 9.84917E-02 1.96090E+00-2.96025E-13 4.91900E-13
 -1      3568 2.09595E+01-1.31019E+00 5.77040E-03-2.03233E+00 3.46881E-13-3.99123E-13
 -1      3569 2.05536E+01-9.50061E-01 2.03502E-02-1.97477E+00 3.42845E-13-3.82823E-13
 -1      3570 2.02776E+01-6.54371E-01 1.54339E-02-1.81367E+00 3.13142E-13-3.10757E-13
 -1      3571 1.99952E+01-3.97863E-01 7.47766E-03-1.70251E+00 2.95928E-13-2.93272E-13
 -1      3572 1.98724E+01-7.93245E-01-4.02481E-02-2.16574E+00 3.63155E-13-2.79223E-13
 -1      3573 1.98755E+01-1.85041E-01 1.01707E-02-1.52170E+00 2.19512E-13-3.09187E-13
 -1      3574 1.97144E+01-1.00496E-02 1.79095E-03-1.40473E+00 1.87768E-13-2.73361E-13
 -1      3575 1.94982E+01-1.95560E-01-1.54845E-02-1.75477E+00 2.65080E-13-2.56966E-13
 -1      3576 1.96837E+01 1.30454E-01 7.58015E-03-1.24704E+00 1.61909E-13-2.83095E-13
 -1      3577 1.96014E+01 2.35143E-01-6.52023E-04-1.13729E+00 1.35287E-13-2.70316E-13
 -1      3578 1.93764E+01 1.60532E-01-6.37500E-03-1.38910E+00 1.73779E-13-2.48753E-13
 -1      3579 1.96170E+01 3.16703E-01 5.27320E-03-1.00768E+00 1.17955E-13-2.29932E-13
 -1      3580 1.95824E+01 3.70917E-01-1.66697E-03-9.11150E-01 5.25968E-14-1.80471E-13
 -1      3581 1.93667E+01 3.67128E-01-2.97712E-03-1.08951E+00 1.23509E-13-2.62337E-13
 -1      3582 1.96205E+01 4.09563E-01 3.64706E-03-8.06549E-01-4.14785E-14-2.20485E-13
 -1      3583 1.96136E+01 4.28653E-01-1.99810E-03-7.24145E-01-1.00859E-13-2.30260E-13
 -1      3584 1.94194E+01 4.69487E-01-1.00544E-03-8.50257E-01 8.75713E-15-2.86495E-13
 -1      3585 1.96601E+01 4.38122E-01 2.50428E-03-6.40500E-01-1.16544E-13-1.77171E-13
 -1      3586 1.96677E+01 4.34369E-01-2.00118E-03-5.71211E-01-9.13452E-14-2.65580E-13
 -1      3587 1.95003E+01 5.00620E-01 7.82134E-05-6.61282E-01-8.80231E-14-2.61163E-13
 -1      3588 1.97146E+01 4.25389E-01 1.73283E-03-5.04525E-01-5.53656E-14-2.42396E-13
 -1      3589 1.97288E+01 4.07998E-01-1.85289E-03-4.46844E-01 3.77062E-15-2.07004E-13
 -1      3590 1.95889E+01 4.86170E-01 6.20836E-04-5.12326E-01-6.56790E-14-1.49323E-13
 -1      3591 1.97719E+01 3.88486E-01 1.22122E-03-3.93777E-01 2.33587E-14-1.71399E-13
 -1      3592 1.97877E+01 3.64046E-01-1.64007E-03-3.46194E-01 7.51934E-14-1.16169E-13
 -1      3593 1.96740E+01 4.44912E-01 8.44663E-04-3.94812E-01 5.20835E-14-9.30670E-14
 -1      3594 1.98252E+01 3.39571E-01 8.82292E-04-3.04089E-01 8.64025E-14-1.55503E-13
 -1      3595 1.98401E+01 3.12581E-01-1.40684E-03-2.65223E-01-1.21333E-14-2.16715E-13
 -1      3596 1.97499E+01 3.90132E-01 8.85238E-04-3.02071E-01 3.68635E-14-3.35266E-15
 -1      3597 1.98712E+01 2.86857E-01 6.54799E-04-2.31981E-01-8.12699E-14-1.73007E-13
 -1      3598 1.98840E+01 2.60213E-01-1.17675E-03-2.00584E-01-3.70572E-14-2.00434E-13
 -1      3599 1.98141E+01 3.30857E-01 8.26057E-04-2.28999E-01-1.00314E-14-8.63131E-14
 -1      3600 1.99090E+01 2.35555E-01 4.98200E-04-1.74522E-01 3.51714E-14-1.41219E-13
 -1      3601 1.99193E+01 2.10972E-01-9.62751E-04-1.49469E-01 1.18830E-13-1.05753E-13
 -1      3602 1.98664E+01 2.72887E-01 7.18860E-04-1.71658E-01 2.11910E-14 5.26449E-14
 -1      3603 1.99388E+01 1.88684E-01 3.86682E-04-1.29221E-01 1.45003E-13-1.05882E-13
 -1      3604 1.99467E+01 1.67041E-01-7.71650E-04-1.09496E-01 1.88877E-13-1.57864E-13
 -1      3605 1.99076E+01 2.19646E-01 5.95219E-04-1.26948E-01 1.36140E-13-3.57123E-14
 -1      3606 1.99614E+01 1.47727E-01 3.04237E-04-9.39317E-02 1.31029E-13-2.18759E-13
 -1      3607 1.99671E+01 1.29341E-01-6.06353E-04-7.86238E-02 8.41384E-14-2.08033E-13
 -1      3608 1.99391E+01 1.72876E-01 4.73562E-04-9.23821E-02 1.07036E-13-5.41383E-14
 -1      3609 1.99779E+01 1.13146E-01 2.41114E-04-6.68096E-02 1.29148E-13-2.76402E-13
 -1      3610 1.99819E+01 9.79738E-02-4.67174E-04-5.51123E-02 1.14825E-14-1.79519E-13
 -1      3611 1.99625E+01 1.33172E-01 3.63736E-04-6.59378E-02 6.28501E-14-1.17253E-13
 -1      3612 1.99896E+01 8.47624E-02 1.91411E-04-4.62721E-02-3.29596E-14-1.59504E-13
 -1      3613 1.99922E+01 7.25517E-02-3.52745E-04-3.74832E-02 5.22278E-15-2.55686E-14
 -1      3614 1.99792E+01 1.00406E-01 2.70098E-04-4.59552E-02 4.55056E-14-8.96335E-14
 -1      3615 1.99974E+01 6.20307E-02 1.51525E-04-3.09761E-02 3.26152E-14 7.38701E-14
 -1      3616 1.99990E+01 5.24244E-02-2.60696E-04-2.44943E-02 1.59298E-13 1.10015E-13
 -1      3617 1.99908E+01 7.40178E-02 1.93630E-04-3.10704E-02 7.75312E-14 1.09865E-13
 -1      3618 2.00024E+01 4.42304E-02 1.19189E-04-1.97953E-02 9.63336E-14 1.38924E-14
 -1      3619 2.00032E+01 3.68344E-02-1.88163E-04-1.51150E-02-7.91319E-15 1.26284E-14
 -1      3620 1.99985E+01 5.32355E-02 1.33381E-04-2.01658E-02 6.59747E-14-4.44173E-14
 -1      3621 2.00053E+01 3.05890E-02 9.29028E-05-1.17983E-02-4.27535E-14 3.72239E-14
 -1      3622 2.00056E+01 2.50156E-02-1.32148E-04-8.50169E-03-1.43594E-15 5.64796E-14
 -1      3623 2.00033E+01 3.72117E-02 8.74173E-05-1.23320E-02 1.34847E-14-3.20054E-14
 -1      3624 2.00067E+01 2.03584E-02 7.15935E-05-6.22577E-03-8.96549E-14-1.62699E-14
 -1      3625 2.00066E+01 1.62514E-02-8.97581E-05-3.97372E-03-1.01861E-13 8.32075E-16
 -1      3626 2.00059E+01 2.51149E-02 5.34364E-05-6.83557E-03-7.15534E-14-8.03525E-15
 -1      3627 2.00071E+01 1.28587E-02 5.44361E-05-2.46831E-03-7.66433E-14 9.96591E-15
 -1      3628 2.00069E+01 9.90554E-03-5.83547E-05-9.90008E-04-7.34455E-15 3.83960E-14
 -1      3629 2.00072E+01 1.61816E-02 2.91287E-05-3.09160E-03-1.00883E-13-2.45058E-14
 -1      3630 2.00069E+01 7.49779E-03 4.07540E-05-4.41008E-05-5.93750E-14-6.80461E-14
 -1      3631 2.00065E+01 5.43353E-03-3.56243E-05 8.73017E-04-1.80497E-13-1.25695E-13
 -1      3632 2.00075E+01 9.74085E-03 1.23801E-05-6.39203E-04-9.36106E-14-1.57994E-13
 -1      3633 2.00064E+01 3.77707E-03 2.99698E-05 1.42175E-03-1.44427E-13-1.17366E-13
 -1      3634 2.00059E+01 2.38343E-03-1.96035E-05 1.94170E-03 2.54600E-14-1.78772E-13
 -1      3635 2.00071E+01 5.22375E-03 1.36540E-06 8.79905E-04-1.08970E-13-1.80774E-13
 -1      3636 2.00056E+01 1.28797E-03 2.15819E-05 2.21618E-03 8.10972E-14-2.60734E-13
 -1      3637 2.00051E+01 3.89379E-04-8.66952E-06 2.46327E-03 9.77994E-14-2.23004E-13
 -1      3638 2.00065E+01 2.16079E-03-5.42527E-06 1.74025E-03-6.18189E-14-1.04633E-13
 -1      3639 2.00047E+01-2.96587E-04 1.51535E-05 2.55499E-03 1.26665E-13-3.16676E-13
 -1      3640 2.00043E+01-8.38322E-04-1.51217E-06 2.62170E-03 7.98282E-14-2.31350E-13
 -1      3641 2.00057E+01 1.73720E-04-9.19890E-06 2.14888E-03 8.02876E-14-1.52805E-13
 -1      3642 2.00039E+01-1.23285E-03 1.03069E-05 2.59743E-03 4.83740E-14-1.46153E-13
 -1      3643 2.00036E+01-1.52431E-03 2.90411E-06 2.55107E-03 4.62728E-14-1.22015E-13
 -1      3644 2.00048E+01-1.03569E-03-1.08922E-05 2.25923E-03 9.04829E-14-2.18466E-13
 -1      3645 2.00032E+01-1.71758E-03 6.71938E-06 2.45848E-03-4.26743E-14-1.94872E-13
 -1      3646 2.00028E+01-1.83929E-03 5.38187E-06 2.34693E-03-6.96446E-14-1.14660E-13
 -1      3647 2.00039E+01-1.69787E-03-1.12122E-05 2.18278E-03-2.42644E-14-2.66163E-13
 -1      3648 2.00025E+01-1.89878E-03 4.12025E-06 2.21911E-03-4.82157E-14-8.79218E-14
 -1      3649 2.00022E+01-1.91039E-03 6.53165E-06 2.07541E-03 5.79207E-14-1.00378E-13
 -1      3650 2.00031E+01-1.98734E-03-1.06779E-05 1.99864E-03-3.15467E-14-2.94387E-13
 -1      3651 2.00019E+01-1.88553E-03 2.28630E-06 1.93457E-03 1.29305E-13-9.91136E-14
 -1      3652 2.00017E+01-1.83024E-03 6.80337E-06 1.78070E-03 2.13978E-13-1.46243E-13
 -1      3653 2.00025E+01-2.03362E-03-9.65864E-06 1.76141E-03 1.43429E-13-1.54799E-13
 -1      3654 2.00014E+01-1.75643E-03 1.03345E-06 1.64103E-03 9.83063E-14-2.04225E-13
 -1      3655 2.00012E+01-1.66478E-03 6.51417E-06 1.49086E-03-7.60459E-14-3.28580E-13
 -1      3656 2.00019E+01-1.93079E-03-8.41358E-06 1.50738E-03 1.80772E-14-1.70204E-13
 -1      3657 2.00010E+01-1.56659E-03 1.73749E-07 1.36071E-03-2.77897E-14-1.99190E-13
 -1      3658 2.00009E+01-1.45922E-03 5.90861E-06 1.22239E-03 1.83384E-13-1.66315E-13
 -1      3659 2.00014E+01-1.74549E-03-7.14236E-06 1.25918E-03 2.29244E-14-9.79605E-14
 -1      3660 2.00007E+01-1.35378E-03-3.67219E-07 1.10706E-03 3.55607E-13-1.33638E-13
 -1      3661 2.00006E+01-1.24580E-03 5.02888E-06 9.84564E-04 4.20347E-13 1.37850E-13
 -1      3662 2.00010E+01-1.52385E-03-6.22103E-06 1.03128E-03 3.31250E-13 2.75463E-13
 -1      3663 2.00004E+01-1.14223E-03-3.68083E-07 8.84634E-04 3.58502E-13 2.27245E-13
 -1      3664 2.00003E+01-1.04468E-03 2.32028E-06 7.79933E-04 4.09190E-13 4.31839E-13
 -1      3665 2.00007E+01-1.29562E-03-4.57041E-06 8.29506E-04 5.00271E-13 2.60526E-13
 -1      3666 1.89125E+01 9.49407E-01-7.38457E-03 9.01541E-01 1.25945E-14-6.52754E-14
 -1      3667 1.87833E+01 9.99483E-01 9.16648E-04 1.01148E+00-1.57498E-14-5.98291E-14
 -1      3668 1.88123E+01 1.01384E+00 7.48708E-03 7.27753E-01 9.86834E-14-7.73590E-14
 -1      3669 1.85325E+01 1.03108E+00-1.06935E-02 1.12076E+00-1.03903E-13-5.52499E-15
 -1      3670 1.83762E+01 1.05403E+00 1.48470E-03 1.26793E+00-9.48314E-14-8.67172E-15
 -1      3671 1.83951E+01 1.13319E+00 9.80106E-03 8.95398E-01-4.81846E-14-2.21943E-14
 -1      3672 1.94267E+01 7.13894E-01-4.01724E-03 5.92736E-01-8.10638E-14-1.28434E-13
 -1      3673 1.93480E+01 7.76885E-01-5.06408E-05 6.65442E-01-7.44923E-15-1.74626E-13
 -1      3674 1.91286E+01 8.79587E-01 5.67715E-03 5.97070E-01 9.20446E-14-6.74231E-14
 -1      3675 1.95928E+01 5.94702E-01-3.10006E-03 4.76529E-01-3.89813E-14-6.87121E-14
 -1      3676 1.95346E+01 6.54488E-01-1.56000E-05 5.37663E-01-1.10803E-13-1.60611E-13
 -1      3677 1.93675E+01 7.44678E-01 4.27997E-03 4.88870E-01-9.66459E-14-1.60305E-13
 -1      3678 1.97157E+01 4.85682E-01-2.42665E-03 3.78565E-01 1.23945E-13-5.21335E-14
 -1      3679 1.96737E+01 5.39567E-01 9.64461E-05 4.29960E-01 6.79766E-14-1.45077E-14
 -1      3680 1.95468E+01 6.17740E-01 3.20496E-03 3.96601E-01-2.73120E-14-1.82620E-13
 -1      3681 1.98055E+01 3.89935E-01-1.90885E-03 2.96441E-01 8.73986E-14-1.27890E-14
 -1      3682 1.97759E+01 4.36811E-01 2.05048E-04 3.39260E-01 1.33341E-13-2.93140E-14
 -1      3683 1.96803E+01 5.03444E-01 2.38129E-03 3.17451E-01 6.77350E-14-6.92297E-14
 -1      3684 1.98703E+01 3.08260E-01-1.49907E-03 2.28427E-01 2.37474E-14-7.91972E-15
 -1      3685 1.98499E+01 3.47979E-01 2.79677E-04 2.63624E-01 5.85983E-14-3.78864E-14
 -1      3686 1.97786E+01 4.03786E-01 1.75375E-03 2.50096E-01 9.87349E-14 7.64667E-14
 -1      3687 1.99164E+01 2.40138E-01-1.17019E-03 1.72956E-01 1.38598E-13-2.54331E-15
 -1      3688 1.99026E+01 2.73097E-01 3.15681E-04 2.01442E-01 3.56431E-14-3.28307E-14
 -1      3689 1.98503E+01 3.19032E-01 1.27896E-03 1.93629E-01 3.50598E-14 7.93094E-14
 -1      3690 1.99486E+01 1.84361E-01-9.05293E-04 1.28465E-01 6.70839E-14 3.14751E-13
 -1      3691 1.99397E+01 2.11234E-01 3.19573E-04 1.51144E-01 1.44661E-13 1.18573E-13
 -1      3692 1.99019E+01 2.48414E-01 9.22471E-04 1.47129E-01 2.14745E-14 1.42440E-13
 -1      3693 1.99708E+01 1.39423E-01-6.92598E-04 9.33970E-02-9.87867E-15 3.06628E-13
 -1      3694 1.99652E+01 1.60993E-01 3.01065E-04 1.11150E-01 7.76251E-14 2.99881E-13
 -1      3695 1.99385E+01 1.90602E-01 6.56956E-04 1.09557E-01 9.95483E-14 3.01966E-13
 -1      3696 1.99856E+01 1.03753E-01-5.23033E-04 6.62445E-02-1.73280E-13 2.29189E-13
 -1      3697 1.99823E+01 1.20814E-01 2.69315E-04 7.99031E-02-2.91921E-14 3.05843E-13
 -1      3698 1.99640E+01 1.44020E-01 4.60845E-04 7.97755E-02 5.65820E-15 3.08640E-13
 -1      3699 1.99953E+01 7.58418E-02-3.89155E-04 4.56066E-02-1.57648E-13 1.79478E-13
 -1      3700 1.99935E+01 8.91444E-02 2.31538E-04 5.59267E-02-2.66113E-13 1.30082E-13
 -1      3701 1.99813E+01 1.07043E-01 3.17289E-04 5.66216E-02-1.45393E-13 2.74659E-13
 -1      3702 2.00013E+01 5.43151E-02-2.84649E-04 3.02245E-02-5.59592E-14 7.01176E-14
 -1      3703 2.00005E+01 6.45373E-02 1.92780E-04 3.78729E-02-3.72276E-14 1.57087E-13
 -1      3704 1.99927E+01 7.81163E-02 2.13250E-04 3.89720E-02-1.06993E-13 2.17368E-13
 -1      3705 2.00047E+01 3.79588E-02-2.04100E-04 1.90024E-02-1.00598E-13 1.35046E-13
 -1      3706 2.00045E+01 4.56950E-02 1.56215E-04 2.45511E-02-1.07636E-13 4.30531E-14
 -1      3707 2.00000E+01 5.58173E-02 1.38728E-04 2.57928E-02-3.89526E-14 1.50641E-13
 -1      3708 2.00064E+01 2.57288E-02-1.42878E-04 1.10117E-02-2.35991E-14 1.90136E-13
 -1      3709 2.00066E+01 3.14879E-02 1.23582E-04 1.49396E-02 3.43555E-14 1.25019E-13
 -1      3710 2.00043E+01 3.88895E-02 8.61018E-05 1.61684E-02-4.21328E-14 1.24069E-13
 -1      3711 2.00070E+01 1.67448E-02-9.70596E-05 5.48419E-03 1.45473E-13 3.38691E-14
 -1      3712 2.00074E+01 2.09542E-02 9.56144E-05 8.18353E-03 5.18186E-14 8.63293E-14
 -1      3713 2.00065E+01 2.62488E-02 4.95962E-05 9.31428E-03 1.40969E-13-1.68009E-14
 -1      3714 2.00069E+01 1.02774E-02-6.33584E-05 1.79758E-03 1.19977E-13 2.22137E-14
 -1      3715 2.00074E+01 1.32899E-02 7.23956E-05 3.58360E-03 1.32019E-13 3.55737E-14
 -1      3716 2.00074E+01 1.69798E-02 2.48539E-05 4.57612E-03 1.45775E-13-7.53708E-14
 -1      3717 2.00063E+01 5.73208E-03-3.90585E-05-5.41938E-04 6.24889E-14 4.26741E-14
 -1      3718 2.00069E+01 7.83403E-03 5.36221E-05 5.79242E-04 1.09971E-13-6.75283E-15
 -1      3719 2.00075E+01 1.03232E-02 8.60251E-06 1.42122E-03 1.56266E-13 3.52065E-15
 -1      3720 2.00056E+01 2.63110E-03-2.19464E-05-1.91893E-03 9.59268E-14-4.29480E-14
 -1      3721 2.00061E+01 4.05186E-03 3.87907E-05-1.27022E-03 1.66855E-13 2.24138E-14
 -1      3722 2.00070E+01 5.65940E-03-1.60237E-06-5.74757E-04 6.01049E-14-2.03238E-13
 -1      3723 2.00048E+01 5.96476E-04-1.02431E-05-2.62724E-03 8.52147E-15 2.13151E-14
 -1      3724 2.00052E+01 1.51683E-03 2.73218E-05-2.30477E-03 1.53840E-16-9.22955E-14
 -1      3725 2.00063E+01 2.49092E-03-7.57527E-06-1.74296E-03 9.71576E-14-4.68489E-14
 -1      3726 2.00040E+01-6.66501E-04-2.53923E-06-2.88705E-03-6.16777E-15 3.75086E-14
 -1      3727 2.00044E+01-1.06140E-04 1.86348E-05-2.78179E-03 1.09502E-13 2.76696E-15
 -1      3728 2.00054E+01 4.24260E-04-1.06520E-05-2.33675E-03 7.72141E-14-1.08233E-13
 -1      3729 2.00032E+01-1.38411E-03 2.26522E-06-2.85997E-03 6.48384E-14-1.20473E-13
 -1      3730 2.00036E+01-1.07638E-03 1.21925E-05-2.89225E-03 1.68138E-14-1.64496E-13
 -1      3731 2.00045E+01-8.47102E-04-1.18059E-05-2.54604E-03 6.97373E-14-2.02573E-13
 -1      3732 2.00025E+01-1.72731E-03 5.01590E-06-2.66183E-03 1.35602E-13 1.08070E-13
 -1      3733 2.00028E+01-1.59145E-03 7.52151E-06-2.77486E-03 4.50723E-14-7.37814E-14
 -1      3734 2.00037E+01-1.55819E-03-1.17367E-05-2.51017E-03-4.69618E-14-3.27029E-13
 -1      3735 2.00020E+01-1.82302E-03 6.35267E-06-2.37347E-03 1.02225E-13 1.79383E-13
 -1      3736 2.00022E+01-1.79938E-03 4.22038E-06-2.52783E-03 1.82866E-13 3.08125E-13
 -1      3737 2.00029E+01-1.88626E-03-1.09389E-05-2.32895E-03 4.96925E-15 6.59396E-14
 -1      3738 2.00015E+01-1.76370E-03 6.75203E-06-2.04935E-03-9.99371E-14 1.48093E-13
 -1      3739 2.00017E+01-1.80905E-03 1.95845E-06-2.21867E-03-6.60327E-14 1.09183E-13
 -1      3740 2.00023E+01-1.96265E-03-9.75419E-06-2.07191E-03 8.45064E-14 2.71417E-13
 -1      3741 2.00011E+01-1.61527E-03 6.56211E-06-1.72456E-03-2.37980E-13 1.30851E-13
 -1      3742 2.00012E+01-1.69899E-03 4.70537E-07-1.89201E-03-1.73533E-14 1.25515E-13
 -1      3743 2.00017E+01-1.88281E-03-8.41044E-06-1.78578E-03-5.71939E-14 2.60412E-13
 -1      3744 2.00007E+01-1.42355E-03 6.03595E-06-1.42018E-03-9.06810E-14 7.75082E-14
 -1      3745 2.00008E+01-1.52453E-03-4.48811E-07-1.57582E-03-1.93253E-13-1.01429E-14
 -1      3746 2.00013E+01-1.71458E-03-7.05500E-06-1.50060E-03-6.63290E-14 1.75815E-13
 -1      3747 2.00005E+01-1.21933E-03 5.37840E-06-1.14749E-03-2.61360E-14 1.11484E-13
 -1      3748 2.00006E+01-1.32360E-03-9.77934E-07-1.28616E-03-4.43502E-14-8.23834E-17
 -1      3749 2.00009E+01-1.50494E-03-5.76434E-06-1.23427E-03-2.83103E-14-2.30259E-13
 -1      3750 2.00003E+01-1.02365E-03 4.34485E-06-9.11399E-04-1.03190E-13-1.30170E-13
 -1      3751 2.00003E+01-1.12236E-03-1.60167E-06-1.03104E-03-4.67040E-14-4.24615E-14
 -1      3752 2.00006E+01-1.28464E-03-4.28959E-06-9.96885E-04 2.05837E-14-3.74618E-13
 -1      3753 2.00001E+01-8.78651E-04 2.03969E-06-7.30720E-04-1.07565E-13-2.13793E-13
 -1      3754 2.00002E+01-9.64525E-04-2.63507E-06-8.32375E-04-9.07032E-14-1.62616E-13
 -1      3755 2.00004E+01-1.10312E-03-1.43487E-06-8.09256E-04-7.05840E-15-3.82633E-13
 -1      3756 2.00003E+01-9.62987E-04 1.26434E-06-6.64701E-04-1.29840E-13-4.80028E-13
 -1      3757 1.93183E+01-9.81042E-01 4.32438E-02-3.06080E+00 5.00483E-13-2.12049E-13
 -1      3758 2.07590E+01-1.68478E+00-3.85380E-02-2.67865E+00 4.43348E-13-4.34132E-13
 -1      3759 1.80415E+01 1.05023E+00-1.57545E-02 1.41925E+00-1.12151E-13 5.56971E-15
 -1      3760 1.78448E+01 1.00727E+00-5.03911E-03 1.64475E+00-2.17055E-13-5.71125E-15
 -1      3761 1.78507E+01 1.21158E+00 1.34147E-02 1.12822E+00-8.93627E-14 8.56260E-14
 -1      3762 2.00003E+01-9.59286E-04 2.74804E-06-2.86492E-04 7.61986E-14 2.89178E-13
 -1      3763 2.00003E+01-9.22923E-04-2.77154E-07-3.78599E-04 7.75628E-14-2.23343E-13
 -1      3764 2.00004E+01-1.06353E-03-2.71887E-06-2.53740E-04 5.28084E-14 3.44788E-13
 -1      3765 1.37672E+01 1.43626E+00 7.56608E-03 1.12951E+00-1.72497E-13 4.65530E-13
 -1      3766 1.34218E+01 1.69025E+00 6.64183E-02-3.75749E-01 3.75182E-14 5.92321E-13
 -1      3767 1.44179E+01 1.48787E+00 3.76039E-02-7.85413E-01 1.25351E-13 4.84378E-13
 -1      3768 1.47164E+01 1.47835E+00-1.80877E-02 8.80802E-01-1.39074E-13 3.09585E-13
 -1      3769 1.54509E+01 1.02950E+00-1.40630E-02-1.82315E+00 1.99003E-13 2.16207E-13
 -1      3770 1.59347E+01 6.23613E-01 1.42163E-02-2.57910E+00 3.08809E-13 1.18947E-13
 -1      3771 1.70037E+01 4.67116E-01 2.94664E-02-2.36787E+00 2.56267E-13 7.26762E-15
 -1      3772 1.73703E+01 1.00468E+00-2.44425E-02 1.74147E+00-2.46105E-13 9.50546E-14
 -1      3773 1.71440E+01 8.56476E-01-1.45254E-02 2.07461E+00-2.79274E-13 1.38323E-13
 -1      3774 1.61110E+01 1.40346E+00 6.28769E-02 1.48397E+00-1.97603E-13 3.59089E-13
 -1      3775 1.71255E+01 1.29192E+00 3.17392E-02 1.33121E+00-1.31546E-13 1.05081E-13
 -1      3776 2.00003E+01-9.70889E-04-2.08257E-06-4.88664E-04 1.12949E-13-3.98224E-13
 -1      3777 2.00003E+01-9.58177E-04-1.41108E-06 4.82139E-04-2.50391E-14 8.08038E-14
 -1      3778 2.00003E+01-1.02885E-03-2.34163E-06 6.54761E-04 2.14015E-13 1.75158E-13
 -1      3779 1.49349E+01 1.47599E+00-1.77579E-02-4.22876E-01-1.59816E-14 3.87053E-13
 -1      3780 1.51229E+01 1.35595E+00 1.83472E-02-1.26372E+00 1.33282E-13 3.61181E-13
 -1      3781 1.60793E+01 1.16538E+00 2.97651E-02-1.42585E+00 1.06684E-13 1.64908E-13
 -1      3782 1.90091E+01-5.37974E-01 3.26243E-02-2.66991E+00 3.91751E-13-1.94260E-13
 -1      3783 2.00006E+01-1.18549E-03 1.15579E-06 6.73706E-05 9.77929E-14 1.34542E-13
 -1      3784 2.00006E+01-1.18511E-03 1.65906E-06-6.61023E-05 8.34340E-14 1.80163E-13
 -1      3785 2.00005E+01-1.13665E-03 3.98234E-07 3.45448E-04 1.39746E-14-1.01706E-13
 -1      3786 2.00006E+01-1.16497E-03 3.12776E-06 2.22060E-04 9.24728E-14 7.55025E-14
 -1      3787 2.00007E+01-1.27939E-03-3.76857E-06 1.60097E-04 1.53223E-13 4.27412E-14
 -1      3788 2.00005E+01-1.09639E-03 1.21716E-06-4.21791E-04 1.65052E-13-1.98473E-14
 -1      3789 2.00004E+01-1.03791E-03 1.92759E-06-5.38025E-04 5.82634E-14-3.16645E-13
 -1      3790 2.00004E+01-1.11082E-03-2.19933E-06-6.04313E-04 4.86302E-14-1.09737E-13
 -1      3791 1.90679E+01 8.69691E-01-4.24622E-03 4.38568E-01 3.46482E-14-1.44342E-14
 -1      3792 1.89289E+01 9.40163E-01-2.33399E-03 4.88104E-01 1.61962E-13-8.85224E-16
 -1      3793 1.91729E+01-5.66294E-02 1.54427E-02-1.88319E+00 2.94753E-13-2.59120E-13
 -1      3794 1.90050E+01 1.34023E-01-3.89511E-03-1.68117E+00 2.31843E-13-2.59245E-13
 -1      3795 1.90778E+01 2.87474E-01 1.11597E-02-1.45744E+00 2.20069E-13-2.66584E-13
 -1      3796 1.90301E+01 3.91942E-01-4.95798E-03-1.28498E+00 1.95862E-13-2.55564E-13
 -1      3797 1.86425E+01 3.68864E-01-4.64235E-03-1.58830E+00 2.58149E-13-2.77365E-13
 -1      3798 1.91301E+01 4.77105E-01 8.09815E-03-1.11311E+00 1.02282E-13-2.62609E-13
 -1      3799 1.91293E+01 5.26463E-01-4.64756E-03-9.77216E-01 5.63539E-14-2.94444E-13
 -1      3800 1.87915E+01 5.63868E-01-2.93419E-03-1.17062E+00 1.56556E-13-3.06883E-13
 -1      3801 1.92319E+01 5.63112E-01 5.24149E-03-8.48868E-01 3.55522E-14-2.74270E-13
 -1      3802 1.92570E+01 5.75464E-01-4.07747E-03-7.43134E-01-8.34131E-15-3.11673E-13
 -1      3803 1.89783E+01 6.47321E-01-2.35603E-04-8.66068E-01 3.51650E-14-3.24500E-13
 -1      3804 1.93524E+01 5.80426E-01 3.36283E-03-6.47431E-01-2.00801E-14-2.79345E-13
 -1      3805 1.93887E+01 5.69099E-01-3.44423E-03-5.65205E-01-4.09465E-14-1.99040E-13
 -1      3806 1.91617E+01 6.58678E-01 1.08932E-03-6.42936E-01 4.13866E-15-2.53812E-13
 -1      3807 1.94731E+01 5.54223E-01 2.16279E-03-4.93518E-01-6.17935E-14-1.40588E-13
 -1      3808 1.95120E+01 5.28898E-01-2.85997E-03-4.29333E-01-2.21961E-14-9.78255E-14
 -1      3809 1.93290E+01 6.25178E-01 1.62818E-03-4.78458E-01 1.28717E-14-1.48568E-13
 -1      3810 1.95841E+01 5.02743E-01 1.40544E-03-3.75361E-01 5.70963E-14-6.62927E-14
 -1      3811 1.96209E+01 4.70319E-01-2.35161E-03-3.25070E-01 1.09918E-13-3.84950E-14
 -1      3812 1.94750E+01 5.65879E-01 1.76289E-03-3.56341E-01 4.97511E-14-6.51650E-14
 -1      3813 1.96808E+01 4.38919E-01 9.29855E-04-2.84277E-01 2.78616E-14-3.73810E-14
 -1      3814 1.97131E+01 4.04162E-01-1.91748E-03-2.44799E-01-1.24128E-14-4.33182E-14
 -1      3815 1.95984E+01 4.94108E-01 1.68648E-03-2.65069E-01 6.93099E-14-7.13180E-14
 -1      3816 1.97618E+01 3.71597E-01 6.31281E-04-2.13907E-01 2.19057E-14-8.56937E-14
 -1      3817 1.97888E+01 3.37634E-01-1.54915E-03-1.82944E-01 1.75673E-14-6.78392E-14
 -1      3818 1.96999E+01 4.18991E-01 1.50391E-03-1.96501E-01-2.01192E-14-1.50492E-13
 -1      3819 1.98274E+01 3.06499E-01 4.42781E-04-1.59555E-01-1.61215E-14-7.47855E-14
 -1      3820 1.98491E+01 2.75220E-01-1.23824E-03-1.35356E-01 5.70778E-14-8.61936E-14
 -1      3821 1.97814E+01 3.46482E-01 1.27678E-03-1.44832E-01 1.55257E-14-2.38552E-13
 -1      3822 1.98791E+01 2.47011E-01 3.22094E-04-1.17695E-01 1.37090E-13-6.32115E-14
 -1      3823 1.98959E+01 2.19407E-01-9.77710E-04-9.88965E-02 1.92161E-13-7.49143E-14
 -1      3824 1.98452E+01 2.80154E-01 1.04227E-03-1.05867E-01 9.69780E-14-2.53836E-13
 -1      3825 1.99187E+01 1.94842E-01 2.42851E-04-8.56243E-02 7.51810E-14-1.02335E-13
 -1      3826 1.99313E+01 1.71279E-01-7.61566E-04-7.11424E-02 4.88618E-14-1.07615E-13
 -1      3827 1.98942E+01 2.21842E-01 8.22114E-04-7.65327E-02 1.39153E-13-6.08490E-14
 -1      3828 1.99483E+01 1.50549E-01 1.88831E-04-6.12402E-02 6.91753E-14-3.84233E-14
 -1      3829 1.99574E+01 1.30982E-01-5.84424E-04-5.01982E-02 5.33090E-14-2.54291E-15
 -1      3830 1.99309E+01 1.72171E-01 6.27820E-04-5.45374E-02 3.87481E-14-7.94680E-14
 -1      3831 1.99697E+01 1.13944E-01 1.50228E-04-4.28809E-02 1.12176E-14 2.38623E-14
 -1      3832 1.99760E+01 9.80806E-02-4.41225E-04-3.45646E-02 2.05793E-14-1.78369E-14
 -1      3833 1.99576E+01 1.30965E-01 4.64055E-04-3.81518E-02 6.72952E-14 8.35066E-15
 -1      3834 1.99847E+01 8.43990E-02 1.21225E-04-2.92228E-02-5.64642E-16 7.06507E-15
 -1      3835 1.99890E+01 7.18144E-02-3.27161E-04-2.30490E-02 9.48133E-14 2.05827E-14
 -1      3836 1.99766E+01 9.75674E-02 3.31122E-04-2.60545E-02 6.18934E-14 5.84242E-15
 -1      3837 1.99949E+01 6.10611E-02 9.84361E-05-1.92082E-02 9.96372E-14-1.01094E-13
 -1      3838 1.99975E+01 5.12816E-02-2.37700E-04-1.47013E-02 6.70839E-14-5.79192E-14
 -1      3839 1.99897E+01 7.10677E-02 2.26735E-04-1.72269E-02 5.54801E-14-8.78490E-14
 -1      3840 2.00014E+01 4.30023E-02 7.99225E-05-1.19917E-02-2.68924E-15-3.16712E-14
 -1      3841 2.00029E+01 3.55556E-02-1.68665E-04-8.76686E-03-2.99337E-14-3.61289E-14
 -1      3842 1.99982E+01 5.04625E-02 1.47283E-04-1.08799E-02-1.62702E-14-1.95178E-15
 -1      3843 2.00052E+01 2.93115E-02 6.45739E-05-6.90081E-03-4.74999E-14-1.43802E-13
 -1      3844 2.00059E+01 2.37583E-02-1.16298E-04-4.64874E-03-5.69523E-14-1.21328E-13
 -1      3845 2.00035E+01 3.47579E-02 8.86709E-05-6.40064E-03-8.50539E-14-2.23022E-13
 -1      3846 2.00072E+01 1.91499E-02 5.17386E-05-3.40381E-03-1.09145E-13-1.20884E-13
 -1      3847 2.00074E+01 1.51008E-02-7.73013E-05-1.87873E-03-1.65617E-13-1.68474E-13
 -1      3848 2.00065E+01 2.30324E-02 4.68621E-05-3.31404E-03-7.30105E-14-3.35362E-13
 -1      3849 2.00079E+01 1.17793E-02 4.10061E-05-1.08401E-03-2.32046E-13-5.33700E-14
 -1      3850 2.00078E+01 8.90056E-03-4.88474E-05-9.29461E-05-1.61941E-13-1.49707E-13
 -1      3851 2.00079E+01 1.44690E-02 1.81780E-05-1.25292E-03-1.49697E-13-1.64199E-13
 -1      3852 2.00079E+01 6.57117E-03 3.20863E-05 3.81667E-04-2.56684E-14-1.85236E-13
 -1      3853 2.00075E+01 4.58514E-03-2.85660E-05 9.88296E-04-4.38313E-14-2.18849E-14
 -1      3854 2.00082E+01 8.36869E-03-5.55140E-07 6.45866E-05-7.67350E-14-8.42685E-14
 -1      3855 2.00073E+01 3.00527E-03 2.47459E-05 1.24068E-03-1.27385E-13 4.41378E-14
 -1      3856 2.00069E+01 1.68627E-03-1.45085E-05 1.57716E-03-7.75509E-14 1.76989E-14
 -1      3857 2.00079E+01 4.14903E-03-1.19645E-05 8.52962E-04-2.12159E-14 3.33041E-14
 -1      3858 2.00065E+01 6.60775E-04 1.87789E-05 1.67999E-03-1.03231E-13 2.01292E-15
 -1      3859 2.00060E+01-1.70609E-04-5.10333E-06 1.83223E-03-3.36789E-14-8.94108E-14
 -1      3860 2.00071E+01 1.33665E-03-1.81526E-05 1.27367E-03-1.20018E-13-8.16253E-15
 -1      3861 2.00056E+01-7.95437E-04 1.39947E-05 1.83858E-03 5.73714E-15-1.70364E-13
 -1      3862 2.00051E+01-1.27903E-03 8.94156E-07 1.87006E-03 1.57829E-14-1.75344E-13
 -1      3863 2.00062E+01-4.45261E-04-2.07525E-05 1.44663E-03-1.15654E-13-6.24642E-15
 -1      3864 2.00046E+01-1.62188E-03 1.02157E-05 1.81797E-03-4.70935E-14-2.46193E-13
 -1      3865 2.00042E+01-1.86454E-03 4.45288E-06 1.77464E-03-2.42197E-14-2.71660E-13
 -1      3866 2.00053E+01-1.49067E-03-2.09974E-05 1.45953E-03-3.18650E-14-3.10027E-14
 -1      3867 2.00038E+01-2.01526E-03 7.27865E-06 1.69069E-03-5.14041E-15-2.07773E-13
 -1      3868 2.00034E+01-2.09706E-03 6.31451E-06 1.60504E-03 6.94836E-15-2.19639E-13
 -1      3869 2.00043E+01-2.02454E-03-1.97917E-05 1.37522E-03 2.51504E-14-7.57236E-14
 -1      3870 2.00030E+01-2.12233E-03 5.03793E-06 1.50729E-03 1.20227E-13-1.71069E-13
 -1      3871 2.00026E+01-2.10203E-03 7.03953E-06 1.40159E-03 1.08288E-13-1.86642E-13
 -1      3872 2.00035E+01-2.21569E-03-1.77773E-05 1.23773E-03 7.38301E-14-2.00248E-13
 -1      3873 2.00023E+01-2.05027E-03 3.37149E-06 1.30181E-03 4.49575E-14-1.44658E-13
 -1      3874 2.00020E+01-1.96998E-03 7.09166E-06 1.19074E-03-1.02778E-14-1.30273E-13
 -1      3875 2.00027E+01-2.18821E-03-1.53888E-05 1.07698E-03 1.05736E-13-3.10583E-13
 -1      3876 2.00017E+01-1.87592E-03 2.11227E-06 1.09642E-03 5.90607E-14 5.38725E-14
 -1      3877 2.00015E+01-1.76603E-03 6.19345E-06 9.89144E-04 2.47350E-13 2.08536E-13
 -1      3878 2.00021E+01-2.03122E-03-1.29318E-05 9.12677E-04 1.71540E-13 1.89798E-13
 -1      3879 2.00012E+01-1.64867E-03 2.19700E-06 9.01491E-04 2.65557E-13 3.43417E-13
 -1      3880 2.00011E+01-1.52871E-03 5.61019E-06 8.06335E-04 3.95865E-13 2.54376E-13
 -1      3881 2.00015E+01-1.80986E-03-1.09149E-05 7.55502E-04 2.83445E-13 3.47932E-13
 -1      3882 2.00009E+01-1.41536E-03 3.58744E-07 7.30175E-04 5.22063E-13 1.83582E-13
 -1      3883 2.00007E+01-1.29855E-03 3.71185E-06 6.43746E-04 5.14154E-13 1.54384E-13
 -1      3884 2.00011E+01-1.55396E-03-5.63263E-06 6.07909E-04 3.67830E-13 1.80710E-13
 -1      3885 1.87343E+01 1.00864E+00-5.96847E-03 5.20185E-01 1.41881E-13-5.67208E-14
 -1      3886 1.85509E+01 1.07804E+00-3.03964E-03 5.79987E-01 6.70303E-14-6.87624E-14
 -1      3887 1.87353E+01 1.02465E+00 7.59167E-03 3.50373E-01 9.47150E-14-7.03454E-14
 -1      3888 1.82895E+01 1.14126E+00-8.82828E-03 6.18560E-01 5.11392E-14-6.52184E-14
 -1      3889 1.80480E+01 1.20306E+00-3.99164E-03 6.97292E-01 3.41723E-14 4.09757E-14
 -1      3890 1.82981E+01 1.17333E+00 1.05381E-02 3.94578E-01 8.41677E-14-2.14778E-14
 -1      3891 2.00005E+01-1.10112E-03 2.60515E-06 5.46864E-04 1.73061E-13 3.66159E-14
 -1      3892 1.95077E+01 6.08388E-01-2.45766E-03 3.02001E-01-6.59179E-14-9.55266E-14
 -1      3893 1.94298E+01 6.70312E-01-1.18458E-03 3.39722E-01-1.25200E-13-1.71273E-13
 -1      3894 1.96490E+01 4.95691E-01-1.94137E-03 2.44416E-01 6.45048E-14-1.22233E-14
 -1      3895 1.95915E+01 5.50696E-01-7.74089E-04 2.77321E-01 2.57383E-14-5.62886E-14
 -1      3896 1.95007E+01 6.11509E-01 3.14209E-03 2.24226E-01-3.02460E-14-8.91952E-14
 -1      3897 1.97540E+01 3.97566E-01-1.54484E-03 1.94053E-01 7.87506E-14 1.21224E-13
 -1      3898 1.97121E+01 4.45160E-01-4.68348E-04 2.22292E-01 9.50885E-14 6.46849E-14
 -1      3899 1.96424E+01 4.97973E-01 2.36064E-03 1.84654E-01 2.83314E-14 2.86273E-14
 -1      3900 1.98314E+01 3.14091E-01-1.22752E-03 1.51011E-01 3.00821E-14 1.78217E-13
 -1      3901 1.98013E+01 3.54376E-01-2.52433E-04 1.74764E-01 4.85910E-14 1.68362E-13
 -1      3902 1.97484E+01 3.99303E-01 1.76685E-03 1.48501E-01 2.04796E-14 1.38896E-13
 -1      3903 1.98877E+01 2.44473E-01-9.68392E-04 1.15087E-01 1.80391E-14 1.82744E-13
 -1      3904 1.98664E+01 2.77927E-01-1.08178E-04 1.34653E-01 2.82093E-14 1.43571E-13
 -1      3905 1.98269E+01 3.15383E-01 1.31338E-03 1.16660E-01 9.19531E-14 9.54085E-14
 -1      3906 1.99282E+01 1.87424E-01-7.55701E-04 8.57924E-02 6.88159E-14 2.45400E-13
 -1      3907 1.99133E+01 2.14732E-01-1.77290E-05 1.01576E-01 1.14966E-13 2.35047E-13
 -1      3908 1.98844E+01 2.45365E-01 9.67077E-04 8.95203E-02-1.24632E-14 1.34746E-13
 -1      3909 1.99567E+01 1.41425E-01-5.81882E-04 6.24310E-02-5.36257E-14 2.91101E-13
 -1      3910 1.99465E+01 1.63363E-01 3.44123E-05 7.49064E-02 5.43636E-14 2.70015E-13
 -1      3911 1.99259E+01 1.87961E-01 7.03549E-04 6.70563E-02 1.14238E-14 3.25850E-13
 -1      3912 1.99764E+01 1.04903E-01-4.41212E-04 4.42021E-02-5.27603E-14 2.06956E-13
 -1      3913 1.99697E+01 1.22259E-01 6.06276E-05 5.38651E-02-3.34458E-14 2.58533E-13
 -1      3914 1.99553E+01 1.41662E-01 5.04256E-04 4.89517E-02-1.16271E-14 2.57408E-13
 -1      3915 1.99896E+01 7.63412E-02-3.28817E-04 3.02829E-02-5.31901E-14 1.89226E-13
 -1      3916 1.99853E+01 8.98643E-02 7.02123E-05 3.76159E-02-9.95802E-14 2.32011E-13
 -1      3917 1.99756E+01 1.04904E-01 3.54800E-04 3.47189E-02-2.67445E-14 1.08852E-13
 -1      3918 1.99981E+01 5.43442E-02-2.40310E-04 1.98886E-02-1.52816E-13 2.56403E-13
 -1      3919 1.99955E+01 6.47188E-02 6.98001E-05 2.53356E-02-2.51532E-14 2.49684E-13
 -1      3920 1.99893E+01 7.61702E-02 2.43879E-04 2.37947E-02-1.41131E-13 8.37538E-14
 -1      3921 2.00033E+01 3.76713E-02-1.71697E-04 1.23093E-02 9.28514E-14 1.11979E-13
 -1      3922 2.00019E+01 4.55019E-02 6.39143E-05 1.62625E-02-3.72414E-14 2.46506E-13
 -1      3923 1.99982E+01 5.40601E-02 1.62587E-04 1.56092E-02-6.56097E-14 1.85815E-13
 -1      3924 2.00062E+01 2.52486E-02-1.19389E-04 6.92843E-03 1.21627E-13 6.57618E-14
 -1      3925 2.00056E+01 3.10560E-02 5.55015E-05 9.72281E-03 1.11438E-13 1.50697E-13
 -1      3926 2.00036E+01 3.73238E-02 1.03905E-04 9.62873E-03 3.05098E-14 1.08972E-13
 -1      3927 2.00075E+01 1.61665E-02-8.02241E-05 3.22748E-03 1.96643E-13 8.55081E-14
 -1      3928 2.00074E+01 2.03896E-02 4.63842E-05 5.14112E-03 1.23784E-13 7.97038E-14
 -1      3929 2.00066E+01 2.48765E-02 6.23194E-05 5.37968E-03 1.03658E-13 1.97155E-13
 -1      3930 2.00078E+01 9.66944E-03-5.14755E-05 7.82317E-04 1.39647E-13 6.40224E-14
 -1      3931 2.00080E+01 1.26715E-02 3.76152E-05 2.04059E-03 2.71271E-13 1.37777E-13
 -1      3932 2.00079E+01 1.57983E-02 3.35201E-05 2.45840E-03 1.66082E-13 1.69536E-13
 -1      3933 2.00074E+01 5.14081E-03-3.08422E-05-7.45768E-04 6.60337E-14-6.25073E-14
 -1      3934 2.00078E+01 7.21706E-03 2.97401E-05 3.58167E-05 2.93144E-14-7.72489E-14
 -1      3935 2.00082E+01 9.32410E-03 1.41612E-05 5.31693E-04 1.79706E-13 3.00974E-13
 -1      3936 2.00067E+01 2.08546E-03-1.64221E-05-1.62129E-03 6.08654E-14-6.41622E-15
 -1      3937 2.00072E+01 3.47201E-03 2.29848E-05-1.17763E-03 1.18952E-13 5.18229E-14
 -1      3938 2.00078E+01 4.82970E-03 1.66638E-06-6.68054E-04-3.61028E-14 1.13954E-13
 -1      3939 2.00059E+01 1.12198E-04-6.67221E-06-2.04645E-03 8.91354E-14 1.77148E-13
 -1      3940 2.00064E+01 9.94853E-04 1.73830E-05-1.83513E-03 8.89357E-14 8.42199E-14
 -1      3941 2.00071E+01 1.81407E-03-5.92848E-06-1.35060E-03 7.11127E-14 2.82199E-13
 -1      3942 2.00050E+01-1.08319E-03-3.63891E-07-2.17255E-03 1.28981E-13 2.32063E-14
 -1      3943 2.00054E+01-5.60514E-04 1.28619E-05-2.11487E-03 2.10849E-13 2.15935E-13
 -1      3944 2.00062E+01-1.18237E-04-1.01040E-05-1.67661E-03 1.66460E-13 2.93201E-13
 -1      3945 2.00041E+01-1.73344E-03 3.46376E-06-2.11026E-03 5.76033E-15-8.62213E-14
 -1      3946 2.00045E+01-1.46112E-03 9.29630E-06-2.14885E-03 1.35404E-14-4.90324E-14
 -1      3947 2.00052E+01-1.27428E-03-1.19615E-05-1.76642E-03 1.14283E-13 2.35235E-13
 -1      3948 2.00033E+01-2.01360E-03 5.54903E-06-1.93850E-03-5.52500E-14 9.22095E-14
 -1      3949 2.00036E+01-1.90956E-03 6.54267E-06-2.03257E-03-1.33140E-13-3.99497E-14
 -1      3950 2.00043E+01-1.88857E-03-1.23077E-05-1.70803E-03-1.06825E-13 1.78690E-13
 -1      3951 2.00026E+01-2.05295E-03 6.44900E-06-1.71190E-03 3.17676E-14 2.65848E-13
 -1      3952 2.00029E+01-2.05688E-03 4.45866E-06-1.83331E-03 1.31856E-14 1.87779E-13
 -1      3953 2.00035E+01-2.13709E-03-1.17225E-05-1.56413E-03-4.36928E-14 1.76788E-13
 -1      3954 2.00020E+01-1.94503E-03 6.57984E-06-1.46693E-03 3.96399E-14 2.29382E-13
 -1      3955 2.00022E+01-2.01356E-03 2.91394E-06-1.59697E-03 1.00913E-13 3.61252E-13
 -1      3956 2.00027E+01-2.14947E-03-1.06104E-05-1.37806E-03-2.77008E-14 3.12264E-13
 -1      3957 2.00014E+01-1.75606E-03 6.24345E-06-1.22668E-03 4.42458E-14 7.41096E-14
 -1      3958 2.00017E+01-1.85867E-03 1.78899E-06-1.35357E-03 1.20049E-13 2.53182E-13
 -1      3959 2.00021E+01-2.01918E-03-9.23567E-06-1.17862E-03 1.20580E-13 2.22552E-13
 -1      3960 2.00010E+01-1.53157E-03 5.57612E-06-1.00483E-03 9.52754E-14-2.66490E-13
 -1      3961 2.00012E+01-1.64745E-03 1.00295E-06-1.12159E-03 9.14976E-14-5.02307E-14
 -1      3962 2.00015E+01-1.81203E-03-7.75652E-06-9.84129E-04 2.00397E-13 9.68915E-14
 -1      3963 2.00007E+01-1.30276E-03 4.25941E-06-8.08957E-04 6.87725E-14-3.03094E-13
 -1      3964 2.00008E+01-1.41768E-03 3.45313E-07-9.10870E-04-1.26033E-14-3.05694E-13
 -1      3965 2.00011E+01-1.57325E-03-6.01264E-06-8.05365E-04 5.55250E-14 5.42748E-14
 -1      3966 1.76897E+01 1.25732E+00-1.24900E-02 7.51385E-01-7.12993E-14 9.93936E-14
 -1      3967 1.73600E+01 1.28911E+00-9.34919E-03 8.69533E-01-9.50431E-14 1.08364E-13
 -1      3968 1.77100E+01 1.31682E+00 1.54301E-02 4.48293E-01 3.66202E-14 9.49145E-14
 -1      3969 1.87339E+01-2.25536E-01 1.11610E-02-2.39677E+00 3.59521E-13-2.09650E-13
 -1      3970 1.75512E+01 5.04605E-01-1.42401E-02-1.94043E+00 2.47923E-13-1.37981E-13
 -1      3971 1.81159E+01 1.09187E-01-3.20489E-03-2.30419E+00 2.98205E-13-2.09674E-13
 -1      3972 2.00006E+01-1.16604E-03 1.73352E-06-1.86624E-04 2.91015E-14 3.36060E-13
 -1      3973 2.00005E+01-1.13741E-03 1.43505E-06-3.12715E-04 6.90119E-14 3.00632E-13
 -1      3974 2.00006E+01-1.21978E-03-2.65446E-06-3.57068E-04 1.12080E-13 1.97086E-13
 -1      3975 2.00007E+01-1.27681E-03-3.51291E-06-1.22876E-04 7.35671E-14 1.52051E-13
 -1      3976 1.93189E+01 7.34207E-01-3.17376E-03 3.66609E-01-5.04255E-14-1.14498E-13
 -1      3977 1.92144E+01 8.01681E-01-1.70681E-03 4.09557E-01 1.82622E-14-9.06656E-15
 -1      3978 1.90641E+01 8.77990E-01 5.59896E-03 3.08148E-01 6.03715E-14 9.35099E-14
 -1      3979 1.93127E+01 7.38962E-01 4.18288E-03 2.65876E-01-3.86728E-14-6.59784E-14
 -1      3980 1.54978E+01 1.42691E+00-2.22411E-02 9.64758E-01-1.42444E-13 2.83002E-13
 -1      3981 1.51394E+01 1.62518E+00 4.28080E-02 2.09574E-01-9.72252E-14 2.79953E-13
 -1      3982 1.57329E+01 1.49755E+00 1.67554E-02-2.31878E-01-7.25175E-14 2.51794E-13
 -1      3983 1.61426E+01 1.40135E+00-1.23170E-02 9.21750E-01-7.45567E-14 2.42354E-13
 -1      3984 2.00008E+01-1.33631E-03 9.07440E-07 4.29796E-04 2.80543E-13 6.29798E-14
 -1      3985 2.00006E+01-1.22601E-03-1.67250E-06 5.27843E-04 2.54520E-13 7.42650E-14
 -1      3986 2.00005E+01-1.16643E-03 2.72662E-06-6.63174E-04-7.25025E-14-5.01089E-14
 -1      3987 2.00006E+01-1.24449E-03-1.26934E-06-7.38067E-04 2.99816E-14-1.54304E-13
 -1      3988 2.00008E+01-1.37993E-03-3.10233E-06-6.52036E-04 6.63745E-14 1.33561E-13
 -1      3989 2.00006E+01-1.23948E-03 7.75504E-07-5.26570E-04 9.16298E-14 1.02236E-13
 -1      3990 2.00009E+01-1.38607E-03 1.47228E-06-8.43009E-05 1.56879E-13 2.24047E-13
 -1      3991 2.00008E+01-1.36867E-03 4.82142E-07-2.09539E-04 8.55924E-14 2.15053E-13
 -1      3992 1.69643E+01 8.78593E-01-7.85483E-04-1.63856E+00 2.15243E-13-2.29348E-14
 -1      3993 1.80288E+01 6.25219E-01 1.63685E-02-1.59782E+00 2.59643E-13-2.44250E-13
 -1      3994 2.00009E+01-1.37369E-03 4.90504E-07 2.54239E-04 2.54827E-13 8.37604E-14
 -1      3995 2.00009E+01-1.38714E-03 2.25908E-06 9.27183E-05 2.97429E-13-1.85387E-14
 -1      3996 2.00010E+01-1.49627E-03-3.36504E-06 8.35579E-06 3.24923E-13 2.16728E-13
 -1      3997 2.00010E+01-1.46180E-03-2.78661E-07 3.69207E-04 3.75598E-13 2.36904E-15
 -1      3998 1.70222E+01 1.32942E+00-1.15541E-02 8.82878E-01-6.57478E-14 1.12259E-13
 -1      3999 1.65690E+01 1.35702E+00-1.60261E-02 9.18495E-01-6.67352E-14 1.78250E-13
 -1      4000 1.62734E+01 1.51317E+00 2.02156E-02 3.89616E-01-4.46980E-14 2.27674E-13
 -1      4001 1.70286E+01 1.44426E+00 2.38675E-02 4.63112E-01-8.90582E-14 1.08252E-13
 -1      4002 1.65361E+01 1.14585E+00-1.74714E-02-1.12011E+00 1.12215E-13 3.66701E-14
 -1      4003 1.80660E+01 7.05721E-01-9.24694E-03-1.34648E+00 2.46961E-13-2.26635E-13
 -1      4004 1.83506E+01 7.59740E-01 1.03248E-02-1.13122E+00 2.15810E-13-2.94527E-13
 -1      4005 1.84263E+01 7.89923E-01-6.54560E-03-9.55436E-01 1.10410E-13-2.86742E-13
 -1      4006 1.77156E+01 9.61450E-01 2.82288E-03-1.10133E+00 1.91231E-13-2.21542E-13
 -1      4007 1.86510E+01 8.02266E-01 6.50228E-03-8.06159E-01 5.15142E-14-2.70246E-13
 -1      4008 1.87352E+01 7.98489E-01-5.32545E-03-6.80346E-01 3.99573E-14-2.33708E-13
 -1      4009 1.82079E+01 9.67460E-01 3.67360E-03-7.49607E-01 1.18900E-13-1.52520E-13
 -1      4010 1.89153E+01 7.84086E-01 3.80872E-03-5.77108E-01 4.61574E-14-2.22269E-13
 -1      4011 1.89975E+01 7.59217E-01-4.41258E-03-4.86074E-01 6.66461E-14-1.77766E-13
 -1      4012 1.86015E+01 9.22398E-01 4.42247E-03-5.08828E-01 7.11492E-14-1.94358E-13
 -1      4013 1.91422E+01 7.28645E-01 2.21478E-03-4.14461E-01 4.36839E-14-1.45994E-13
 -1      4014 1.92170E+01 6.91476E-01-3.65001E-03-3.48004E-01 3.38100E-14-1.48234E-13
 -1      4015 1.89158E+01 8.45187E-01 4.16387E-03-3.44420E-01 1.06395E-13-1.64330E-13
 -1      4016 1.93331E+01 6.52120E-01 1.27688E-03-2.98288E-01 2.37979E-14-1.25721E-13
 -1      4017 1.93980E+01 6.09006E-01-3.01333E-03-2.49363E-01 8.77034E-14-8.31538E-14
 -1      4018 1.91676E+01 7.50884E-01 3.67401E-03-2.32233E-01 6.07790E-14-1.74632E-13
 -1      4019 1.94908E+01 5.66184E-01 7.35355E-04-2.14887E-01 8.90793E-15-1.80594E-13
 -1      4020 1.95452E+01 5.21649E-01-2.47551E-03-1.78600E-01-4.31654E-14-2.22231E-13
 -1      4021 1.93689E+01 6.49919E-01 3.14928E-03-1.55879E-01-5.71152E-15-1.67341E-13
 -1      4022 1.96187E+01 4.79053E-01 4.30387E-04-1.54747E-01-3.69590E-14-2.90588E-13
 -1      4023 1.96631E+01 4.36164E-01-2.01715E-03-1.27674E-01-4.64764E-14-2.91928E-13
 -1      4024 1.95287E+01 5.49709E-01 2.63985E-03-1.04130E-01-6.66146E-14-2.68106E-13
 -1      4025 1.97206E+01 3.96196E-01 2.64567E-04-1.11215E-01-3.80701E-14-3.48410E-13
 -1      4026 1.97559E+01 3.56863E-01-1.62578E-03-9.09358E-02-1.02269E-14-2.96171E-13
 -1      4027 1.96542E+01 4.55309E-01 2.16447E-03-6.92267E-02-8.46501E-14-2.58265E-13
 -1      4028 1.98004E+01 3.20922E-01 1.78544E-04-7.96112E-02 9.18436E-14-3.02901E-13
 -1      4029 1.98278E+01 2.86172E-01-1.29333E-03-6.43927E-02 1.20139E-13-2.23656E-13
 -1      4030 1.97516E+01 3.69839E-01 1.73411E-03-4.57974E-02-2.50521E-14-2.55360E-13
 -1      4031 1.98616E+01 2.54911E-01 1.36364E-04-5.66229E-02 1.02829E-13-2.91902E-13
 -1      4032 1.98823E+01 2.25123E-01-1.01381E-03-4.52082E-02 9.44853E-14-2.51302E-13
 -1      4033 1.98261E+01 2.94889E-01 1.35584E-03-3.01346E-02 4.22397E-14-2.86244E-13
 -1      4034 1.99076E+01 1.98673E-01 1.16627E-04-3.98941E-02 5.66662E-14-2.91951E-13
 -1      4035 1.99229E+01 1.73785E-01-7.81998E-04-3.13577E-02 3.38690E-14-2.44478E-13
 -1      4036 1.98820E+01 2.30909E-01 1.03293E-03-1.96978E-02 7.23883E-14-4.68838E-13
 -1      4037 1.99414E+01 1.51932E-01 1.07030E-04-2.77377E-02 6.48830E-14-2.96240E-13
 -1      4038 1.99524E+01 1.31602E-01-5.92721E-04-2.13883E-02 5.40279E-14-2.42170E-13
 -1      4039 1.99233E+01 1.77563E-01 7.65082E-04-1.27601E-02 2.16565E-14-4.82778E-13
 -1      4040 1.99657E+01 1.13929E-01 1.00920E-04-1.89359E-02 7.51135E-14-2.34893E-13
 -1      4041 1.99733E+01 9.76623E-02-4.40728E-04-1.42510E-02 7.83324E-14-1.48294E-13
 -1      4042 1.99531E+01 1.34012E-01 5.49016E-04-8.15740E-03 2.24713E-14-4.44479E-13
 -1      4043 1.99826E+01 8.36507E-02 9.50645E-05-1.26032E-02 6.74069E-14-2.12592E-13
 -1      4044 1.99877E+01 7.08877E-02-3.20763E-04-9.18357E-03 1.05038E-15-2.57756E-13
 -1      4045 1.99741E+01 9.91471E-02 3.79435E-04-5.11047E-03 5.92361E-14-4.42860E-13
 -1      4046 1.99940E+01 5.99891E-02 8.82118E-05-8.08981E-03-3.85947E-14-1.62919E-13
 -1      4047 1.99972E+01 5.01652E-02-2.27747E-04-5.62844E-03-4.27387E-14-1.58730E-13
 -1      4048 1.99884E+01 7.17534E-02 2.49954E-04-3.10026E-03 1.80086E-14-3.63295E-13
 -1      4049 2.00012E+01 4.18478E-02 8.01763E-05-4.91566E-03-1.02911E-13-1.19519E-13
 -1      4050 2.00031E+01 3.44321E-02-1.56949E-04-3.17536E-03-7.59237E-14-2.09886E-13
 -1      4051 1.99978E+01 5.06232E-02 1.53886E-04-1.78199E-03-4.30151E-14-1.98061E-13
 -1      4052 2.00055E+01 2.82083E-02 7.12725E-05-2.72365E-03-8.38825E-14-2.19256E-13
 -1      4053 2.00064E+01 2.27243E-02-1.04111E-04-1.52111E-03-1.19848E-13-2.84358E-13
 -1      4054 2.00036E+01 3.46275E-02 8.48023E-05-9.26544E-04-9.60044E-14-2.77995E-13
 -1      4055 2.00077E+01 1.81645E-02 6.19848E-05-1.24714E-03-7.09982E-14-1.82454E-13
 -1      4056 2.00080E+01 1.41999E-02-6.55176E-05-4.41012E-04-9.02488E-14-1.34986E-13
 -1      4057 2.00068E+01 2.27564E-02 3.68934E-05-3.81241E-04-6.63009E-14-2.06200E-13
 -1      4058 2.00086E+01 1.09375E-02 5.27896E-05-2.86748E-04-6.85411E-14-3.25304E-14
 -1      4059 2.00085E+01 8.14500E-03-3.80082E-05 2.31418E-04 1.09073E-14-3.23755E-14
 -1      4060 2.00083E+01 1.41356E-02 5.14091E-06-4.37947E-05-3.39186E-14-1.46687E-13
 -1      4061 2.00085E+01 5.87529E-03 4.40726E-05 3.06447E-04 5.83834E-14-1.50597E-15
 -1      4062 2.00082E+01 3.96977E-03-1.89620E-05 6.19211E-04 3.80578E-14 1.30181E-13
 -1      4063 2.00087E+01 8.02906E-03-1.46279E-05 1.54782E-04 4.85623E-14 1.84962E-14
 -1      4064 2.00079E+01 2.44484E-03 3.61026E-05 6.43173E-04-4.71921E-14 1.29565E-13
 -1      4065 2.00075E+01 1.19706E-03-6.25110E-06 8.12755E-04-1.08626E-13 1.70691E-13
 -1      4066 2.00084E+01 3.83134E-03-2.57737E-05 2.61349E-04 4.70665E-14 1.24879E-13
 -1      4067 2.00071E+01 2.19423E-04 2.90349E-05 8.05154E-04-6.92146E-14 2.95218E-13
 -1      4068 2.00065E+01-5.51305E-04 1.81765E-06 8.77851E-04 4.66670E-15 2.57218E-13
 -1      4069 2.00076E+01 1.05454E-03-3.09259E-05 3.07921E-04-3.79560E-14 2.05195E-13
 -1      4070 2.00061E+01-1.13599E-03 2.29310E-05 8.52055E-04-9.96628E-14 3.55198E-13
 -1      4071 2.00056E+01-1.56940E-03 6.56561E-06 8.61792E-04-2.42998E-14 3.24859E-13
 -1      4072 2.00066E+01-6.86887E-04-3.20858E-05 3.16434E-04 7.85136E-14 2.09580E-13
 -1      4073 2.00051E+01-1.87954E-03 1.77811E-05 8.26811E-04-5.98327E-14 3.61313E-13
 -1      4074 2.00046E+01-2.08168E-03 9.00571E-06 7.97983E-04-1.52645E-14 3.35115E-13
 -1      4075 2.00056E+01-1.69202E-03-3.07354E-05 3.01905E-04-4.04988E-14 3.51493E-13
 -1      4076 2.00041E+01-2.20638E-03 1.35289E-05 7.59742E-04-1.51839E-14 2.22258E-13
 -1      4077 2.00037E+01-2.25616E-03 9.90347E-06 7.09489E-04-4.74723E-14 1.93676E-13
 -1      4078 2.00046E+01-2.18859E-03-2.79391E-05 2.74537E-04-1.36687E-13 4.19024E-13
 -1      4079 2.00033E+01-2.26121E-03 1.00930E-05 6.71735E-04 5.96970E-14 7.66478E-14
 -1      4080 2.00029E+01-2.21611E-03 9.82603E-06 6.11738E-04 1.84653E-13 1.42297E-13
 -1      4081 2.00037E+01-2.34677E-03-2.44301E-05 2.41174E-04-7.15432E-14 4.47041E-13
 -1      4082 2.00025E+01-2.14912E-03 7.35864E-06 5.76574E-04 2.42306E-13 1.39959E-13
 -1      4083 2.00022E+01-2.05030E-03 8.88609E-06 5.14783E-04 2.97461E-13 3.11089E-13
 -1      4084 2.00029E+01-2.29114E-03-2.06427E-05 2.06322E-04 1.92351E-13 3.14952E-13
 -1      4085 2.00019E+01-1.94301E-03 5.52105E-06 4.84043E-04 2.57093E-13 2.13748E-13
 -1      4086 2.00016E+01-1.82475E-03 4.62412E-06 4.25081E-04 1.96130E-13 1.91187E-13
 -1      4087 2.00022E+01-2.11016E-03-1.60876E-05 1.72470E-04 2.89027E-13 2.32122E-13
 -1      4088 2.00012E+01-1.58505E-03 3.08424E-06 4.23713E-04 2.71029E-13 2.01874E-13
 -1      4089 1.87612E+01 9.75778E-01-3.22750E-03 1.75765E-01 4.40585E-14-9.14554E-15
 -1      4090 1.85654E+01 1.04410E+00-5.57377E-03 1.86530E-01 1.09538E-13-5.67324E-14
 -1      4091 1.83423E+01 1.11494E+00-4.58181E-03 1.64043E-01 8.90640E-14-3.89344E-14
 -1      4092 1.80798E+01 1.18075E+00-7.84472E-03 1.72867E-01 1.06841E-13-3.41936E-15
 -1      4093 1.84407E+01 1.08458E+00 7.42582E-03-2.65696E-02 9.41252E-14-2.89651E-14
 -1      4094 1.97464E+01 3.82522E-01-9.89428E-04 9.88078E-02 3.99269E-15 8.03808E-14
 -1      4095 1.96997E+01 4.27787E-01-9.84372E-04 1.13629E-01-1.48604E-14 7.14767E-14
 -1      4096 1.96414E+01 4.76934E-01-1.22258E-03 1.20379E-01-2.58701E-14 3.88106E-14
 -1      4097 1.95786E+01 5.29102E-01-1.40955E-03 1.36355E-01 3.89296E-15-2.85079E-14
 -1      4098 1.96552E+01 4.65895E-01 2.08744E-03 6.67676E-02-4.55834E-14 2.63390E-14
 -1      4099 1.95021E+01 5.85232E-01-1.50682E-03 1.41758E-01-4.40881E-15-5.46867E-14
 -1      4100 1.94183E+01 6.43864E-01-1.99682E-03 1.58050E-01-6.74089E-14-8.11941E-14
 -1      4101 1.95223E+01 5.71299E-01 2.68468E-03 7.24422E-02-3.47126E-14-1.05384E-13
 -1      4102 1.98247E+01 3.02033E-01-7.92373E-04 7.86650E-02 6.20276E-14 1.06484E-13
 -1      4103 1.97904E+01 3.40451E-01-6.78421E-04 9.18139E-02 6.44967E-14 1.15301E-13
 -1      4104 1.97559E+01 3.73765E-01 1.60559E-03 5.77819E-02-2.49925E-14 4.59876E-14
 -1      4105 1.98824E+01 2.34771E-01-6.24965E-04 6.08621E-02-7.42886E-14 3.18109E-13
 -1      4106 1.98575E+01 2.66739E-01-4.60409E-04 7.21048E-02 2.60888E-15 2.66432E-13
 -1      4107 1.98314E+01 2.95053E-01 1.21723E-03 4.76862E-02-5.94354E-14 2.58724E-13
 -1      4108 1.99243E+01 1.79578E-01-4.84043E-04 4.57824E-02-3.93461E-14 3.36129E-13
 -1      4109 1.99065E+01 2.05701E-01-3.06826E-04 5.50972E-02-2.60951E-14 3.04795E-13
 -1      4110 1.98872E+01 2.29175E-01 9.06696E-04 3.78375E-02-6.86784E-14 3.14696E-13
 -1      4111 1.99541E+01 1.35056E-01-3.67341E-04 3.34495E-02 1.63586E-14 2.87052E-13
 -1      4112 1.99417E+01 1.56041E-01-1.99951E-04 4.09555E-02-7.65560E-16 3.25122E-13
 -1      4113 1.99277E+01 1.75071E-01 6.61456E-04 2.89835E-02 2.42486E-15 2.35442E-13
 -1      4114 1.99749E+01 9.97253E-02-2.72566E-04 2.36665E-02 1.86212E-14 1.82285E-13
 -1      4115 1.99664E+01 1.16308E-01-1.26543E-04 2.95631E-02 6.67093E-14 2.31167E-13
 -1      4116 1.99566E+01 1.31418E-01 4.70747E-04 2.14580E-02-3.32599E-15 2.51218E-13
 -1      4117 1.99889E+01 7.21388E-02-1.97185E-04 1.61213E-02-1.36466E-13 8.35561E-14
 -1      4118 1.99833E+01 8.50299E-02-7.68428E-05 2.06426E-02-6.27270E-14 7.36523E-14
 -1      4119 1.99766E+01 9.67900E-02 3.25027E-04 1.53310E-02 1.84282E-14 1.13024E-13
 -1      4120 1.99980E+01 5.09487E-02-1.38504E-04 1.04585E-02-7.63677E-14-7.13804E-16
 -1      4121 1.99945E+01 6.08048E-02-4.37551E-05 1.38425E-02-1.42362E-13 9.64197E-15
 -1      4122 1.99902E+01 6.97786E-02 2.15838E-04 1.05193E-02-2.37808E-14-1.09101E-13
 -1      4123 2.00036E+01 3.49473E-02-9.38221E-05 6.32598E-03-1.23705E-14 1.16773E-13
 -1      4124 2.00015E+01 4.23524E-02-2.21853E-05 8.79545E-03-1.69334E-14 3.52045E-14
 -1      4125 1.99989E+01 4.90623E-02 1.35790E-04 6.86151E-03-4.08756E-14-1.61334E-14
 -1      4126 2.00067E+01 2.30833E-02-6.05826E-05 3.40133E-03 7.64307E-14 1.21645E-13
 -1      4127 2.00056E+01 2.85428E-02-8.51469E-06 5.15372E-03 4.77397E-14 1.87603E-13
 -1      4128 2.00042E+01 3.34520E-02 7.85543E-05 4.16775E-03-6.97687E-15 2.70163E-14
 -1      4129 2.00081E+01 1.44644E-02-3.64740E-05 1.40478E-03 1.46364E-13 2.19532E-13
 -1      4130 2.00077E+01 1.84049E-02-1.96406E-07 2.60806E-03 1.04317E-13 1.68428E-13
 -1      4131 2.00071E+01 2.19102E-02 3.88320E-05 2.24890E-03 9.30201E-14 2.14919E-13
 -1      4132 2.00084E+01 8.34842E-03-1.94864E-05 1.03019E-04 1.04987E-13 3.46221E-13
 -1      4133 2.00085E+01 1.11228E-02 4.54806E-06 8.95540E-04 1.55984E-13 2.77584E-13
 -1      4134 2.00084E+01 1.35551E-02 1.22815E-05 9.32884E-04 1.04752E-13 1.41914E-13
 -1      4135 2.00081E+01 4.13018E-03-7.92755E-06-6.92369E-04-1.13086E-13 2.18291E-13
 -1      4136 2.00084E+01 6.02504E-03 6.95133E-06-1.99682E-04 1.38551E-14 2.72042E-13
 -1      4137 2.00086E+01 7.65326E-03-4.57993E-06 7.20053E-05 2.35849E-14 4.47666E-13
 -1      4138 2.00073E+01 1.32467E-03-4.12431E-07-1.12936E-03-6.98997E-14 3.28302E-13
 -1      4139 2.00077E+01 2.56846E-03 7.86093E-06-8.49721E-04-5.79204E-14 2.59486E-13
 -1      4140 2.00082E+01 3.60695E-03-1.44882E-05-4.55238E-04-6.03283E-14 2.22700E-13
 -1      4141 2.00064E+01-4.50149E-04 4.16448E-06-1.32127E-03 2.55626E-13 3.66669E-13
 -1      4142 2.00069E+01 3.21693E-04 7.85414E-06-1.18830E-03 1.10503E-13 3.49611E-13
 -1      4143 2.00074E+01 9.37797E-04-1.95494E-05-7.45438E-04-1.94046E-14 2.79812E-13
 -1      4144 2.00054E+01-1.49019E-03 6.66530E-06-1.35273E-03 6.50490E-14 3.78349E-13
 -1      4145 2.00059E+01-1.05222E-03 7.31931E-06-1.31680E-03 1.92998E-13 4.50907E-13
 -1      4146 2.00064E+01-7.30366E-04-2.13507E-05-8.73144E-04 1.73608E-13 4.14460E-13
 -1      4147 2.00044E+01-2.02075E-03 7.74764E-06-1.28539E-03-1.12689E-13 2.78976E-13
 -1      4148 2.00049E+01-1.81208E-03 6.51322E-06-1.31024E-03-4.30769E-14 3.60717E-13
 -1      4149 2.00054E+01-1.68824E-03-2.10626E-05-8.94335E-04-1.45939E-14 4.01702E-13
 -1      4150 2.00036E+01-2.21031E-03 7.90352E-06-1.16289E-03-7.64929E-14 3.34079E-13
 -1      4151 2.00040E+01-2.15317E-03 5.60151E-06-1.22274E-03-5.87002E-14 3.79029E-13
 -1      4152 2.00044E+01-2.15656E-03-1.95247E-05-8.49907E-04-9.65807E-14 4.19582E-13
 -1      4153 2.00028E+01-2.18247E-03 7.50042E-06-1.01513E-03 6.44615E-14 3.14293E-13
 -1      4154 2.00031E+01-2.22018E-03 4.68560E-06-1.09220E-03-9.06277E-14 2.79507E-13
 -1      4155 2.00035E+01-2.29984E-03-1.73071E-05-7.68904E-04-1.06122E-14 4.89614E-13
 -1      4156 2.00021E+01-2.02607E-03 6.69854E-06-8.61712E-04 2.60985E-14 3.45277E-13
 -1      4157 2.00024E+01-2.11820E-03 3.80178E-06-9.44257E-04 1.14234E-13 2.73950E-13
 -1      4158 2.00028E+01-2.23809E-03-1.46851E-05-6.71405E-04 9.10760E-14 4.50857E-13
 -1      4159 2.00016E+01-1.80331E-03 5.39777E-06-7.13960E-04 2.52007E-13 2.67483E-13
 -1      4160 2.00018E+01-1.92192E-03 2.92859E-06-7.95058E-04 1.88731E-13 2.28478E-13
 -1      4161 2.00021E+01-2.05630E-03-1.12296E-05-5.71377E-04 1.73043E-13 3.96951E-13
 -1      4162 2.00011E+01-1.55767E-03 3.13850E-06-5.81798E-04 1.58690E-13 2.40211E-13
 -1      4163 2.00013E+01-1.68167E-03 2.09465E-06-6.55853E-04 2.03665E-13 2.51645E-13
 -1      4164 2.00016E+01-1.81116E-03-6.76224E-06-4.74974E-04 2.66148E-13 4.88334E-13
 -1      4165 1.63100E+01 1.39211E+00 9.97681E-03-6.25345E-01 3.49205E-14 1.34600E-13
 -1      4166 1.71372E+01 1.18325E+00 1.15462E-02-8.49931E-01 1.65437E-13-6.15637E-14
 -1      4167 2.00008E+01-1.32712E-03 2.28472E-06-3.18005E-04 7.02977E-14 2.34413E-13
 -1      4168 2.00007E+01-1.29049E-03 9.85197E-07-4.30489E-04 1.50930E-13 6.94017E-14
 -1      4169 2.00008E+01-1.35947E-03 2.87094E-07-4.89210E-04 1.19205E-14 1.22664E-13
 -1      4170 2.00010E+01-1.45212E-03-1.95658E-06-2.88110E-04 6.04823E-14 1.98488E-13
 -1      4171 1.62999E+01 1.44182E+00-1.24522E-02-2.39330E-02-2.04641E-14 1.72667E-13
 -1      4172 1.73873E+01 1.15556E+00-1.39106E-02-6.61215E-01 1.54786E-13-4.96182E-14
 -1      4173 2.00012E+01-1.57792E-03 3.02504E-06-3.01683E-04 1.79975E-13 4.20841E-13
 -1      4174 2.00011E+01-1.54487E-03-2.74176E-06-4.11640E-04 1.26293E-13 2.45429E-13
 -1      4175 2.00009E+01-1.42654E-03 1.47407E-06-5.54748E-04 8.47158E-14 1.09256E-13
 -1      4176 1.93482E+01 6.88834E-01 3.43154E-03 7.14973E-02-8.05539E-15-1.13996E-13
 -1      4177 1.93186E+01 7.06337E-01-1.87610E-03 1.60473E-01-5.98324E-14-3.65769E-14
 -1      4178 1.92073E+01 7.70335E-01-2.80889E-03 1.75962E-01 4.83760E-14 7.58154E-15
 -1      4179 1.77795E+01 1.24968E+00-6.53479E-03 1.35546E-01 7.22238E-14 1.38650E-15
 -1      4180 1.74200E+01 1.30915E+00-1.07322E-02 1.45386E-01-4.83348E-15-3.38531E-15
 -1      4181 2.00014E+01-1.73612E-03-3.70468E-06 1.69621E-04 2.47469E-13 1.94215E-13
 -1      4182 1.90777E+01 8.37827E-01-2.40261E-03 1.73166E-01 8.10434E-14 9.25536E-15
 -1      4183 1.89304E+01 9.05319E-01-3.94607E-03 1.86662E-01 6.74735E-14 9.20915E-15
 -1      4184 1.88267E+01 9.49605E-01 5.65145E-03 2.93427E-02 7.16098E-14-8.86167E-14
 -1      4185 1.91216E+01 8.16146E-01 4.38591E-03 5.92458E-02 5.07691E-14-9.90556E-14
 -1      4186 1.79276E+01 1.21626E+00 9.90461E-03-1.19345E-01 8.91465E-14-1.09183E-13
 -1      4187 1.72655E+01 1.33047E+00 1.28661E-02-2.75730E-01 8.63463E-14-9.15493E-14
 -1      4188 1.70549E+01 1.37178E+00-3.22671E-03 7.65835E-02-1.51474E-14 9.42623E-14
 -1      4189 2.00012E+01-1.60727E-03-1.65470E-07-6.98002E-05 3.15697E-13 3.86901E-13
 -1      4190 2.00014E+01-1.70064E-03 1.39430E-06-1.98746E-04 2.63487E-13 4.99034E-13
 -1      4191 1.77679E+01 1.13890E+00 3.43806E-03-5.37741E-01 1.50243E-13-1.28397E-13
 -1      4192 1.67255E+01 1.40356E+00-6.83861E-03 3.16073E-02-2.13002E-14 1.36790E-13
 -1      4193 1.79829E+01 1.09892E+00-9.80100E-03-4.10326E-01 9.55431E-14-1.15070E-13
 -1      4194 1.82882E+01 1.05649E+00 1.08058E-03-3.34828E-01 6.81751E-14-1.17930E-13
 -1      4195 1.84608E+01 1.00552E+00-7.49685E-03-2.48901E-01 8.25098E-14-7.75988E-14
 -1      4196 1.86891E+01 9.54160E-01 2.59242E-04-2.00628E-01 1.07720E-13-7.40679E-14
 -1      4197 1.88280E+01 8.97177E-01-5.63167E-03-1.43013E-01 9.52298E-14-1.00642E-13
 -1      4198 1.90017E+01 8.41148E-01-8.11019E-05-1.13333E-01 7.60585E-14-1.33303E-13
 -1      4199 1.91131E+01 7.82076E-01-4.29731E-03-7.50321E-02 5.01810E-14-1.33726E-13
 -1      4200 1.92464E+01 7.25249E-01-2.40588E-04-5.81560E-02 2.96486E-14-1.17483E-13
 -1      4201 1.93354E+01 6.67270E-01-3.33416E-03-3.30000E-02 1.17983E-14-1.56976E-13
 -1      4202 1.94379E+01 6.12624E-01-2.98271E-04-2.47156E-02-4.53223E-14-1.63628E-13
 -1      4203 1.95083E+01 5.58111E-01-2.61037E-03-8.42500E-03-9.65381E-14-1.80514E-13
 -1      4204 1.95869E+01 5.07676E-01-2.94787E-04-5.64102E-03-7.93842E-14-1.06390E-13
 -1      4205 1.96420E+01 4.58192E-01-2.04695E-03 4.74849E-03-2.60394E-14-6.62287E-14
 -1      4206 1.97019E+01 4.13158E-01-2.57140E-04 4.24866E-03-8.31375E-14-3.91031E-14
 -1      4207 1.97444E+01 3.69553E-01-1.59840E-03 1.07718E-02-1.24753E-14-5.34713E-14
 -1      4208 1.97897E+01 3.30440E-01-2.03879E-04 8.51814E-03-2.77224E-15-2.80281E-14
 -1      4209 1.98219E+01 2.92986E-01-1.23758E-03 1.25517E-02-3.49966E-14-1.23401E-13
 -1      4210 1.98556E+01 2.59817E-01-1.47292E-04 9.54965E-03-3.88830E-14-1.11744E-13
 -1      4211 1.98797E+01 2.28369E-01-9.47064E-04 1.20091E-02 1.36119E-14-1.29021E-13
 -1      4212 1.99045E+01 2.00828E-01-9.48871E-05 8.87900E-03 3.59428E-14-1.70535E-13
 -1      4213 1.99220E+01 1.74959E-01-7.14432E-04 1.03614E-02 3.42324E-14-1.77374E-13
 -1      4214 1.99399E+01 1.52530E-01-5.06237E-05 7.45319E-03 9.48503E-15-2.03464E-13
 -1      4215 1.99525E+01 1.31651E-01-5.29960E-04 8.34016E-03-4.48277E-14-2.15752E-13
 -1      4216 1.99651E+01 1.13712E-01-1.59687E-05 5.82299E-03-4.40055E-15-1.98177E-13
 -1      4217 1.99738E+01 9.71630E-02-3.85503E-04 6.35326E-03 3.38981E-14-1.69494E-13
 -1      4218 1.99825E+01 8.30635E-02 9.22406E-06 4.28238E-03-4.01305E-14-2.44638E-13
 -1      4219 1.99883E+01 7.01770E-02-2.74013E-04 4.60214E-03 2.92047E-14-2.00031E-13
 -1      4220 1.99940E+01 5.92853E-02 2.60236E-05 2.96603E-03 7.59997E-14-3.13943E-13
 -1      4221 1.99977E+01 4.94284E-02-1.89350E-04 3.16287E-03-7.87336E-14-3.01308E-13
 -1      4222 2.00014E+01 4.11623E-02 3.59215E-05 1.91516E-03-1.00399E-13-2.79895E-13
 -1      4223 2.00036E+01 3.37615E-02-1.26201E-04 2.04047E-03-9.38367E-14-2.27444E-13
 -1      4224 2.00057E+01 2.76043E-02 4.04983E-05 1.12038E-03-7.40859E-15-1.23973E-13
 -1      4225 2.00068E+01 2.21577E-02-8.00373E-05 1.20367E-03 4.89448E-14-4.69106E-14
 -1      4226 2.00079E+01 1.76643E-02 4.12231E-05 5.48316E-04 2.97772E-14-2.80490E-15
 -1      4227 2.00084E+01 1.37445E-02-4.70632E-05 6.06270E-04 1.99728E-15 1.00154E-13
 -1      4228 2.00088E+01 1.05411E-02 3.93521E-05 1.57383E-04 4.34501E-14 1.71409E-13
 -1      4229 2.00087E+01 7.79291E-03-2.41546E-05 1.99339E-04 1.01764E-13 2.03814E-13
 -1      4230 2.00087E+01 5.57188E-03 3.58930E-05-9.35459E-05 3.41198E-14 2.02218E-13
 -1      4231 2.00084E+01 3.70629E-03-8.78612E-06-6.23286E-05-2.16890E-14 1.64865E-13
 -1      4232 2.00081E+01 2.21959E-03 3.16102E-05-2.40909E-04-9.48088E-14 8.73893E-14
 -1      4233 2.00076E+01 1.00580E-03 1.04721E-06-2.17378E-04-3.41866E-14 8.48607E-14
 -1      4234 2.00072E+01 5.70050E-05 2.70527E-05-3.14862E-04 9.66251E-14 1.58610E-13
 -1      4235 2.00067E+01-6.85887E-04 6.90929E-06-2.97128E-04 1.20321E-13 1.64350E-13
 -1      4236 2.00061E+01-1.24959E-03 2.25906E-05-3.39150E-04 9.26047E-14 2.39675E-13
 -1      4237 2.00056E+01-1.66087E-03 9.99798E-06-3.25938E-04 6.05936E-14 3.17915E-13
 -1      4238 2.00051E+01-1.95627E-03 1.84538E-05-3.31728E-04-1.22502E-13 2.28623E-13
 -1      4239 2.00046E+01-2.14126E-03 1.12127E-05-3.22088E-04-1.73377E-13 3.12603E-13
 -1      4240 2.00042E+01-2.25601E-03 1.47650E-05-3.05674E-04-1.66884E-13 4.28144E-13
 -1      4241 2.00037E+01-2.29280E-03 1.12059E-05-2.98827E-04-6.46006E-14 4.32956E-13
 -1      4242 2.00033E+01-2.29142E-03 1.15519E-05-2.70162E-04 4.93331E-14 4.75016E-13
 -1      4243 2.00029E+01-2.23690E-03 1.03634E-05-2.65304E-04 1.52516E-13 4.30503E-13
 -1      4244 2.00026E+01-2.16579E-03 8.62672E-06-2.31256E-04 1.94301E-13 4.41208E-13
 -1      4245 2.00022E+01-2.06121E-03 8.38860E-06-2.27068E-04 2.15691E-13 3.81884E-13
 -1      4246 2.00019E+01-1.95479E-03 3.63383E-06-1.92339E-04 1.75201E-13 4.19269E-13
 -1      4247 2.00016E+01-1.82320E-03 5.87084E-06-2.32649E-04 2.93082E-13 5.10462E-13
 -1      4248 2.00012E+01-1.60151E-03 2.69263E-07 1.21219E-04 3.23592E-13 2.35942E-13
 -1      4249 2.00017E+01-1.85535E-03-4.81747E-06 9.21067E-05 1.84444E-13 3.11646E-13
 -3
    1PSTEP                         3           1           1          
  100CL  101 1.000000000        4249                     0    1           1
 -4  TOSTRAIN    6    1
 -5  EXX         1    4    1    1
 -5  EYY         1    4    2    2
 -5  EZZ         1    4    3    3
 -5  EXY         1    4    1    2
 -5  EYZ         1    4    2    3
 -5  EZX         1    4    3    1
 -1         1 2.82161E-04-8.72039E-05-7.25983E-05 3.44546E-09-5.12958E-19-7.90504E-18
 -1         2 2.94667E-05-8.78467E-05 1.36305E-05 3.72305E-07 6.18256E-18-1.58342E-19
 -1         3 9.52372E-05-2.85711E-05-2.85712E-05 1.32995E-11-2.44275E-18-4.43103E-18
 -1         4 9.52372E-05-2.85711E-05-2.85712E-05-1.40034E-11 9.27472E-19 1.15620E-18
 -1         5 2.07221E-04-3.05941E-05-6.17809E-05 5.19995E-05-2.80897E-19 3.29942E-17
 -1         6 1.75632E-04 2.99804E-10-5.26138E-05-6.60651E-05-2.62157E-18 3.31076E-17
 -1         7 1.06397E-04-1.21139E-06-4.57564E-05-3.74067E-05-3.14990E-19 3.48043E-18
 -1         8 9.91320E-05 1.60255E-07-4.24288E-05-2.74207E-05-3.38496E-19-5.17083E-18
 -1         9 9.73474E-05-7.27784E-08-4.12903E-05-2.08226E-05-1.97782E-19-8.80137E-18
 -1        10 9.59989E-05-3.09480E-07-4.03117E-05-1.33654E-05-1.31820E-20-9.86140E-18
 -1        11 9.23115E-05-5.22869E-07-3.83361E-05-3.91652E-06 1.50825E-19-9.64291E-18
 -1        12 8.37911E-05-5.78962E-07-3.45250E-05 6.71165E-06 3.55224E-19-8.92977E-18
 -1        13 6.86699E-05-2.76695E-07-2.85197E-05 1.59708E-05 5.15631E-19-8.21005E-18
 -1        14 4.89943E-05 5.15015E-07-2.13617E-05 1.91433E-05 5.46972E-19-7.62410E-18
 -1        15 3.38776E-05 1.21686E-06-1.61892E-05 1.43368E-05 4.06046E-19-7.35285E-18
 -1        16 2.94303E-05 1.44882E-06-1.47345E-05 3.37883E-06-1.22820E-20-7.41961E-18
 -1        17 3.79941E-05 1.05529E-06-1.77353E-05-5.48399E-06-2.69356E-19-7.57258E-18
 -1        18 5.60324E-05 3.99587E-07-2.41754E-05-8.74147E-06-3.23990E-19-7.51498E-18
 -1        19 7.79395E-05-1.88809E-07-3.24780E-05-3.68077E-06-1.64960E-19-6.58250E-18
 -1        20 9.63006E-05-3.32685E-07-4.01242E-05 6.85614E-06 6.37392E-20-4.40729E-18
 -1        21 1.11092E-04-1.22821E-07-4.68297E-05 1.90111E-05 3.05355E-19 1.47311E-19
 -1        22 1.28345E-04-3.76114E-07-5.39751E-05 3.31360E-05 1.37643E-20 9.72521E-18
 -1        23 1.31362E-04-4.44295E-05-4.12475E-05-3.64810E-06-1.58570E-18 2.49892E-17
 -1        24 1.03777E-04-3.10202E-05-3.24808E-05 4.16511E-07-4.39789E-19 1.75610E-17
 -1        25 9.46996E-05-2.85469E-05-2.86553E-05 1.57684E-07-1.09355E-19 1.09802E-17
 -1        26 8.89607E-05-2.68013E-05-2.67689E-05 9.98865E-10-3.86260E-20 6.76014E-18
 -1        27 8.60144E-05-2.58843E-05-2.59314E-05 6.62314E-08-5.06268E-20 3.88834E-18
 -1        28 8.60145E-05-2.58559E-05-2.59480E-05 2.10164E-07-1.60738E-19 1.46474E-18
 -1        29 8.86860E-05-2.66388E-05-2.66975E-05 3.33635E-07-1.71408E-20-3.11668E-19
 -1        30 9.30420E-05-2.79312E-05-2.79192E-05 3.71087E-07-8.25092E-21-1.55829E-18
 -1        31 9.77550E-05-2.93322E-05-2.92609E-05 3.18869E-07 8.02795E-20-2.63090E-18
 -1        32 1.01699E-04-3.05047E-05-3.04100E-05 2.16517E-07-2.39104E-19-4.00522E-18
 -1        33 1.04274E-04-3.12699E-05-3.11843E-05 1.09952E-07 2.79154E-19-4.90562E-18
 -1        34 1.05403E-04-3.16061E-05-3.15458E-05 2.74427E-08-1.10106E-20-5.08504E-18
 -1        35 1.05346E-04-3.15908E-05-3.15572E-05-2.32219E-08-8.87689E-21-6.48650E-18
 -1        36 1.04492E-04-3.13382E-05-3.13253E-05-4.67682E-08 2.41655E-19-6.11139E-18
 -1        37 1.03208E-04-3.09576E-05-3.09573E-05-5.20876E-08-1.29392E-19-5.17756E-18
 -1        38 1.01780E-04-3.05329E-05-3.05388E-05-4.73694E-08-1.48086E-19-5.56829E-18
 -1        39 1.00393E-04-3.01199E-05-3.01276E-05-3.84164E-08-1.32221E-19-6.31946E-18
 -1        40 9.91542E-05-2.97500E-05-2.97573E-05-2.86866E-08 3.74826E-19-6.02312E-18
 -1        41 9.81085E-05-2.94373E-05-2.94432E-05-1.99203E-08 1.92818E-19-4.99024E-18
 -1        42 9.72639E-05-2.91841E-05-2.91884E-05-1.27893E-08-4.13540E-19-6.56197E-18
 -1        43 9.66062E-05-2.89865E-05-2.89894E-05-7.38225E-09-3.69700E-19-8.27789E-18
 -1        44 9.61107E-05-2.88374E-05-2.88391E-05-3.51358E-09 2.58602E-19-7.12505E-18
 -1        45 9.57495E-05-2.87284E-05-2.87292E-05-8.99099E-10-1.08476E-19-6.17648E-18
 -1        46 9.54950E-05-2.86515E-05-2.86517E-05 7.53117E-10-3.82071E-19-8.14943E-18
 -1        47 9.53230E-05-2.85993E-05-2.85991E-05 1.70187E-09-2.29873E-19-8.46674E-18
 -1        48 9.52127E-05-2.85657E-05-2.85653E-05 2.15892E-09 2.65558E-19-6.64965E-18
 -1        49 9.51472E-05-2.85456E-05-2.85451E-05 2.28851E-09 1.66587E-19-5.20510E-18
 -1        50 9.51132E-05-2.85350E-05-2.85345E-05 2.21286E-09-2.42817E-19-6.10347E-18
 -1        51 9.51006E-05-2.85309E-05-2.85304E-05 2.01957E-09 3.21845E-19-7.33397E-18
 -1        52 9.51017E-05-2.85310E-05-2.85306E-05 1.76912E-09-1.45413E-19-6.04684E-18
 -1        53 9.51111E-05-2.85337E-05-2.85333E-05 1.50147E-09 2.22510E-19-5.95835E-18
 -1        54 9.51248E-05-2.85377E-05-2.85373E-05 1.24157E-09-2.05339E-19-6.83449E-18
 -1        55 9.51404E-05-2.85422E-05-2.85420E-05 1.00375E-09-6.09391E-19-8.39035E-18
 -1        56 9.51560E-05-2.85469E-05-2.85466E-05 7.95020E-10-2.44342E-19-8.28383E-18
 -1        57 9.51706E-05-2.85512E-05-2.85510E-05 6.17599E-10 2.84698E-19-7.65837E-18
 -1        58 9.51837E-05-2.85551E-05-2.85550E-05 4.70703E-10 6.21498E-19-8.85044E-18
 -1        59 9.51951E-05-2.85585E-05-2.85584E-05 3.51831E-10 1.44781E-20-8.71312E-18
 -1        60 9.52047E-05-2.85614E-05-2.85613E-05 2.57635E-10 3.95091E-19-6.54603E-18
 -1        61 9.52125E-05-2.85637E-05-2.85637E-05 1.84487E-10 1.12107E-19-4.50305E-18
 -1        62 9.52189E-05-2.85656E-05-2.85656E-05 1.28840E-10-2.66361E-19-5.70195E-18
 -1        63 9.52240E-05-2.85672E-05-2.85671E-05 8.74265E-11 2.71077E-19-4.40591E-18
 -1        64 9.52279E-05-2.85683E-05-2.85683E-05 5.73429E-11-3.71165E-19-3.14821E-18
 -1        65 9.52309E-05-2.85693E-05-2.85692E-05 3.60551E-11-7.25029E-19-3.81342E-18
 -1        66 9.52332E-05-2.85699E-05-2.85699E-05 2.13197E-11 7.27780E-19-4.47370E-18
 -1        67 9.52349E-05-2.85705E-05-2.85705E-05 1.10043E-11 2.13783E-20-4.98684E-18
 -1        68 9.52361E-05-2.85708E-05-2.85708E-05 2.69870E-12 4.87297E-19-3.07595E-18
 -1        69 9.52368E-05-2.85710E-05-2.85710E-05-6.91585E-12-2.19972E-19 4.89658E-19
 -1        70 9.52372E-05-2.85712E-05-2.85712E-05-2.42506E-11 5.47327E-19 1.96627E-18
 -1        71 9.52373E-05-2.85712E-05-2.85712E-05-4.43309E-11 1.33306E-19 3.50841E-18
 -1        72 1.55950E-04-4.69920E-05-5.09322E-05-3.51762E-06 6.00652E-19 3.02786E-17
 -1        73 1.39677E-04-4.17347E-05-4.27899E-05-3.39040E-07 2.29756E-19 2.42320E-17
 -1        74 1.24146E-04-3.73714E-05-3.72232E-05 6.92265E-07 7.60458E-20 1.97988E-17
 -1        75 1.07983E-04-3.24859E-05-3.26616E-05 1.15317E-06 8.82254E-20 1.67324E-17
 -1        76 9.60441E-05-2.87121E-05-2.95593E-05 8.68879E-07-4.46380E-20 1.33717E-17
 -1        77 9.33771E-05-2.77975E-05-2.88176E-05-2.62885E-08 1.32640E-19 9.53956E-18
 -1        78 9.99719E-05-2.98448E-05-3.03534E-05-8.27386E-07 6.70132E-20 5.78026E-18
 -1        79 1.10577E-04-3.31674E-05-3.30130E-05-1.02608E-06 1.83185E-19 3.40841E-18
 -1        80 1.19346E-04-3.58792E-05-3.54000E-05-7.40979E-07 8.21605E-20 2.29173E-18
 -1        81 1.23461E-04-3.71198E-05-3.66631E-05-3.33690E-07-2.76866E-20 1.65298E-18
 -1        82 1.23183E-04-3.70079E-05-3.67252E-05-3.45432E-08-1.56867E-20 1.97204E-18
 -1        83 1.20132E-04-3.60637E-05-3.59485E-05 1.15637E-07 1.55367E-19-1.63391E-19
 -1        84 1.15914E-04-3.47812E-05-3.47704E-05 1.60792E-07 2.45778E-19-9.36990E-19
 -1        85 1.11601E-04-3.34803E-05-3.35165E-05 1.53040E-07 3.77141E-19-2.09371E-18
 -1        86 1.07739E-04-3.23205E-05-3.23694E-05 1.25889E-07-3.63728E-20-1.71848E-18
 -1        87 1.04529E-04-3.13581E-05-3.14039E-05 9.59738E-08-4.84308E-19-7.05608E-19
 -1        88 1.01980E-04-3.05946E-05-3.06319E-05 6.98791E-08 3.54639E-19 2.56492E-19
 -1        89 1.00020E-04-3.00072E-05-3.00356E-05 4.92921E-08 2.91710E-19-2.96575E-18
 -1        90 9.85460E-05-2.95654E-05-2.95863E-05 3.38849E-08-1.01246E-19-4.12305E-18
 -1        91 9.74598E-05-2.92397E-05-2.92546E-05 2.27064E-08 6.44960E-20-3.29898E-18
 -1        92 9.66737E-05-2.90037E-05-2.90143E-05 1.47621E-08-3.09598E-19-2.15568E-18
 -1        93 9.61156E-05-2.88361E-05-2.88434E-05 9.20893E-09 1.52104E-19-3.18583E-18
 -1        94 9.57280E-05-2.87196E-05-2.87246E-05 5.39042E-09-4.10112E-19-2.97293E-18
 -1        95 9.54661E-05-2.86408E-05-2.86441E-05 2.81569E-09 1.85578E-19-3.29698E-18
 -1        96 9.52954E-05-2.85894E-05-2.85915E-05 1.12447E-09 1.60165E-19-2.43889E-18
 -1        97 9.51898E-05-2.85576E-05-2.85589E-05 5.47932E-11-2.47442E-19-3.04693E-18
 -1        98 9.51297E-05-2.85394E-05-2.85401E-05-5.83053E-10 4.12536E-19-2.55777E-18
 -1        99 9.51006E-05-2.85306E-05-2.85309E-05-9.25969E-10 2.30265E-19-3.29796E-18
 -1       100 9.50919E-05-2.85279E-05-2.85280E-05-1.07231E-09 2.41923E-19-7.47296E-18
 -1       101 9.50960E-05-2.85290E-05-2.85290E-05-1.09221E-09 4.08657E-19-7.42330E-18
 -1       102 9.51075E-05-2.85324E-05-2.85323E-05-1.03514E-09-8.94114E-19-3.49830E-18
 -1       103 9.51227E-05-2.85369E-05-2.85367E-05-9.35381E-10 1.02636E-18-5.43205E-18
 -1       104 9.51392E-05-2.85418E-05-2.85416E-05-8.16158E-10 4.92384E-19-7.72396E-18
 -1       105 9.51554E-05-2.85467E-05-2.85465E-05-6.92660E-10-5.95779E-19-7.23277E-18
 -1       106 9.51704E-05-2.85511E-05-2.85510E-05-5.74330E-10 5.40692E-19-3.61178E-18
 -1       107 9.51837E-05-2.85551E-05-2.85550E-05-4.66568E-10-3.01540E-19-7.85703E-18
 -1       108 9.51952E-05-2.85586E-05-2.85584E-05-3.71998E-10-5.27990E-20-8.41254E-18
 -1       109 9.52048E-05-2.85614E-05-2.85613E-05-2.91404E-10 4.26545E-19-1.09104E-17
 -1       110 9.52127E-05-2.85638E-05-2.85637E-05-2.24411E-10 3.16792E-19-1.17117E-17
 -1       111 9.52190E-05-2.85657E-05-2.85656E-05-1.69966E-10-2.57689E-19-7.81073E-18
 -1       112 9.52241E-05-2.85672E-05-2.85672E-05-1.26677E-10 5.78040E-19-8.47879E-18
 -1       113 9.52280E-05-2.85684E-05-2.85683E-05-9.30374E-11-4.89704E-20-1.17056E-17
 -1       114 9.52310E-05-2.85693E-05-2.85693E-05-6.75509E-11-2.32251E-19-8.55532E-18
 -1       115 9.52333E-05-2.85700E-05-2.85699E-05-4.87659E-11-6.51109E-21-3.36142E-18
 -1       116 9.52349E-05-2.85705E-05-2.85705E-05-3.51391E-11 1.81757E-20-2.10244E-18
 -1       117 9.52361E-05-2.85708E-05-2.85708E-05-2.47614E-11-2.40574E-19-2.62005E-19
 -1       118 9.52369E-05-2.85711E-05-2.85710E-05-1.46347E-11 8.02981E-19-9.92660E-19
 -1       119 9.52372E-05-2.85712E-05-2.85711E-05 3.78848E-12-3.33944E-19-2.84013E-18
 -1       120 9.52373E-05-2.85712E-05-2.85712E-05 3.81123E-11 8.29494E-19-6.27610E-18
 -1       121 9.52371E-05-2.85710E-05-2.85712E-05 5.01236E-11-3.76503E-18 1.50578E-18
 -1       122 9.52371E-05-2.85711E-05-2.85711E-05 1.21887E-11 6.52141E-18-1.02739E-19
 -1       123 9.52372E-05-2.85715E-05-2.85710E-05-1.48037E-11 6.82340E-18 5.70023E-19
 -1       124 9.52374E-05-2.85721E-05-2.85708E-05-2.92777E-11 4.89785E-18 1.10227E-18
 -1       125 9.52377E-05-2.85729E-05-2.85706E-05-3.30854E-11 2.46208E-18-1.59535E-18
 -1       126 9.52379E-05-2.85736E-05-2.85704E-05-2.94520E-11-7.14197E-18 3.46930E-19
 -1       127 9.52380E-05-2.85742E-05-2.85703E-05-1.99506E-11-8.40426E-18 1.97560E-18
 -1       128 9.52381E-05-2.85745E-05-2.85702E-05-6.96825E-12-7.58236E-18 4.68314E-19
 -1       129 9.52381E-05-2.85745E-05-2.85702E-05 7.16386E-12-5.90400E-18 3.69883E-19
 -1       130 9.52380E-05-2.85742E-05-2.85703E-05 2.00883E-11-5.63864E-18-1.33278E-18
 -1       131 9.52379E-05-2.85736E-05-2.85704E-05 2.97564E-11-1.16420E-17-5.55484E-19
 -1       132 9.52377E-05-2.85729E-05-2.85706E-05 3.31144E-11-1.23895E-17 1.28404E-18
 -1       133 9.52374E-05-2.85721E-05-2.85708E-05 2.89751E-11-1.37458E-17 2.85713E-19
 -1       134 9.52372E-05-2.85715E-05-2.85710E-05 1.69794E-11-8.38473E-18 7.23397E-19
 -1       135 9.52371E-05-2.85711E-05-2.85711E-05-1.67983E-11-5.49219E-18-2.89132E-19
 -1       136 9.52371E-05-2.85710E-05-2.85712E-05-7.79731E-11-4.27567E-18-2.79496E-19
 -1       137 2.00993E-05-6.70766E-05 9.64633E-06-1.84757E-05 2.31403E-17 6.10835E-18
 -1       138 6.62226E-06-1.69667E-05-3.06241E-06-5.60945E-06 3.52222E-17 1.72134E-17
 -1       139 1.63534E-05 2.49029E-05-2.08646E-05 3.72530E-05 3.75125E-17 2.91362E-17
 -1       140 7.15381E-05 2.83693E-05-4.05566E-05 9.07158E-05 2.89791E-17 3.37081E-17
 -1       141 1.70838E-04-1.16815E-05-6.02880E-05 1.18773E-04 1.51310E-17 2.80758E-17
 -1       142 2.60896E-04-6.43777E-05-7.24492E-05 9.16600E-05 4.25279E-18 1.27669E-17
 -1       143 3.00527E-04-9.19155E-05-7.64366E-05 2.10366E-05 5.34716E-19-7.57192E-18
 -1       144 2.66609E-04-7.59070E-05-7.09234E-05-5.42860E-05 5.70003E-18-2.88940E-17
 -1       145 1.79408E-04-3.07054E-05-5.77908E-05-9.20194E-05 1.77580E-17-4.27328E-17
 -1       146 8.29960E-05 9.19258E-06-3.96472E-05-7.69512E-05 3.13605E-17-4.56695E-17
 -1       147 2.26233E-05 1.76098E-05-2.21837E-05-3.54300E-05 4.00316E-17-3.81499E-17
 -1       148 2.99152E-06-2.01066E-06-7.76443E-06 9.21322E-07 3.98410E-17-2.45263E-17
 -1       149 7.26906E-06-2.68303E-05 9.95114E-07 1.23762E-05 3.00702E-17-1.12578E-17
 -1       150 1.28939E-05-3.97018E-05 5.00884E-06 7.64725E-06 1.26454E-17-2.24447E-18
 -1       151 1.17252E-05-3.48249E-05 4.06394E-06-3.76027E-06-6.71337E-18-1.24004E-18
 -1       152 4.52167E-06-1.26568E-05-2.12294E-06-3.93285E-06-2.54912E-17-9.01709E-18
 -1       153 4.45740E-06 1.26702E-05-1.23556E-05 1.38361E-05-3.64275E-17-2.15011E-17
 -1       154 2.38269E-05 2.79162E-05-2.52618E-05 4.66930E-05-3.76809E-17-3.37530E-17
 -1       155 7.50405E-05 1.86916E-05-3.99261E-05 8.24876E-05-3.07979E-17-4.08914E-17
 -1       156 1.58716E-04-1.88855E-05-5.52522E-05 9.70118E-05-1.83351E-17-3.92117E-17
 -1       157 2.41362E-04-6.46137E-05-6.70316E-05 6.63695E-05-6.42332E-18-2.64797E-17
 -1       158 2.56173E-04-6.75654E-05-7.00914E-05-7.55170E-05-3.54213E-18 1.24372E-17
 -1       159 1.70052E-04-1.55231E-05-5.84419E-05-1.12713E-04-1.33615E-17 2.70462E-17
 -1       160 7.59022E-05 2.71610E-05-4.11173E-05-9.37880E-05-2.50917E-17 3.07757E-17
 -1       161 1.78612E-05 2.84568E-05-2.18624E-05-4.19941E-05-3.20047E-17 2.52433E-17
 -1       162 5.32687E-06-1.08811E-05-4.25584E-06 3.35809E-06-2.94225E-17 1.52186E-17
 -1       163 1.88316E-05-6.29186E-05 8.84819E-06 1.75970E-05-1.29200E-17 3.60661E-18
 -1       164 1.09836E-04-1.43565E-05-4.13627E-05-2.89399E-05-4.35192E-18-4.43686E-19
 -1       165 1.05420E-04-1.12644E-05-4.05763E-05-2.47629E-05-3.51730E-18-5.35065E-18
 -1       166 1.04950E-04-1.19532E-05-3.99973E-05-1.89119E-05-1.82348E-18-7.17613E-18
 -1       167 1.04512E-04-1.42016E-05-3.87870E-05-1.16053E-05 1.89224E-19-7.34743E-18
 -1       168 1.00308E-04-1.61063E-05-3.61184E-05-2.30685E-06 2.44174E-18-6.76619E-18
 -1       169 8.76551E-05-1.45707E-05-3.12983E-05 8.60420E-06 4.69944E-18-6.31519E-18
 -1       170 6.36712E-05-6.42615E-06-2.44462E-05 1.74779E-05 6.03829E-18-6.52565E-18
 -1       171 3.72337E-05 5.26334E-06-1.80511E-05 1.84008E-05 5.50783E-18-7.44508E-18
 -1       172 1.86147E-05 1.42286E-05-1.39110E-05 9.88830E-06 2.74835E-18-8.35233E-18
 -1       173 2.09344E-05 1.31393E-05-1.44668E-05-1.00636E-06-3.15692E-19-8.41713E-18
 -1       174 4.24571E-05 3.12848E-06-1.94277E-05-7.87833E-06-2.45494E-18-7.40499E-18
 -1       175 7.41201E-05-9.84606E-06-2.74977E-05-4.87648E-06-2.53655E-18-5.59578E-18
 -1       176 1.00193E-04-1.74086E-05-3.55462E-05 5.89319E-06-7.21672E-19-3.40736E-18
 -1       177 1.17529E-04-1.95744E-05-4.21950E-05 1.81193E-05 1.46725E-18-3.47786E-19
 -1       178 1.33398E-04-2.31998E-05-4.75326E-05 2.79245E-05 2.87459E-18 5.31344E-18
 -1       179 1.52628E-04-3.94676E-05-5.00572E-05 2.49859E-05 2.91182E-18 1.32397E-17
 -1       180 1.18534E-04-3.09418E-05-3.75179E-05-1.88145E-05-4.56620E-18 6.66006E-18
 -1       181 1.08875E-04-3.17220E-05-3.31126E-05-1.02141E-05-3.75727E-18 4.60270E-18
 -1       182 1.01556E-04-2.97493E-05-3.07132E-05-6.37382E-06-2.66237E-18 2.83059E-18
 -1       183 9.71840E-05-2.83897E-05-2.94332E-05-3.41693E-06-1.99640E-18 1.10969E-18
 -1       184 9.51198E-05-2.77346E-05-2.88493E-05-4.23278E-07-1.68273E-18-1.97382E-19
 -1       185 9.51959E-05-2.79359E-05-2.88072E-05 2.22796E-06-1.25218E-18-1.32037E-18
 -1       186 9.68523E-05-2.87813E-05-2.91619E-05 3.88876E-06-9.31346E-19-2.29359E-18
 -1       187 9.92329E-05-2.98551E-05-2.97279E-05 4.26363E-06-5.01294E-19-2.62931E-18
 -1       188 1.01506E-04-3.07749E-05-3.03137E-05 3.56304E-06-7.10623E-19-2.77698E-18
 -1       189 1.03128E-04-3.13404E-05-3.07710E-05 2.29004E-06-5.33874E-19-3.13441E-18
 -1       190 1.03906E-04-3.15326E-05-3.10243E-05 9.39778E-07-5.52280E-19-3.90793E-18
 -1       191 1.03906E-04-3.14342E-05-3.10669E-05-1.71600E-07-3.47902E-19-4.34475E-18
 -1       192 1.03326E-04-3.11538E-05-3.09372E-05-9.23756E-07 3.00750E-19-3.99944E-18
 -1       193 1.02391E-04-3.07851E-05-3.06922E-05-1.33030E-06 4.00853E-19-3.79315E-18
 -1       194 1.01295E-04-3.03949E-05-3.03878E-05-1.46748E-06-2.42666E-19-3.55551E-18
 -1       195 1.00183E-04-3.00242E-05-3.00682E-05-1.42448E-06-2.32229E-19-3.15225E-18
 -1       196 9.91462E-05-2.96949E-05-2.97639E-05-1.27827E-06 3.18094E-19-2.68853E-18
 -1       197 9.82352E-05-2.94158E-05-2.94924E-05-1.08558E-06-1.04604E-19-3.66184E-18
 -1       198 9.74693E-05-2.91879E-05-2.92616E-05-8.83658E-07-1.11287E-18-4.59778E-18
 -1       199 9.68481E-05-2.90073E-05-2.90727E-05-6.94307E-07-6.57101E-19-4.13317E-18
 -1       200 9.63598E-05-2.88682E-05-2.89232E-05-5.28472E-07 2.61784E-19-3.68415E-18
 -1       201 9.59868E-05-2.87638E-05-2.88083E-05-3.90056E-07-3.57371E-19-3.75402E-18
 -1       202 9.57096E-05-2.86877E-05-2.87224E-05-2.78768E-07-2.70403E-19-4.10801E-18
 -1       203 9.55098E-05-2.86338E-05-2.86601E-05-1.92079E-07-2.84463E-20-3.22394E-18
 -1       204 9.53703E-05-2.85970E-05-2.86163E-05-1.26474E-07 1.02990E-18-2.90114E-18
 -1       205 9.52768E-05-2.85729E-05-2.85868E-05-7.82151E-08 8.86804E-19-2.89400E-18
 -1       206 9.52174E-05-2.85582E-05-2.85678E-05-4.37673E-08-3.48034E-19-3.32072E-18
 -1       207 9.51826E-05-2.85502E-05-2.85565E-05-2.00078E-08-3.50023E-19-3.30526E-18
 -1       208 9.51650E-05-2.85466E-05-2.85505E-05-4.30399E-09 1.43679E-19-3.09730E-18
 -1       209 9.51590E-05-2.85460E-05-2.85483E-05 5.48703E-09-2.78812E-20-4.10430E-18
 -1       210 9.51603E-05-2.85473E-05-2.85483E-05 1.10591E-08-5.17957E-19-3.84932E-18
 -1       211 9.51661E-05-2.85496E-05-2.85499E-05 1.37171E-08-5.31249E-19-2.86100E-18
 -1       212 9.51741E-05-2.85523E-05-2.85521E-05 1.44421E-08-3.99281E-19-2.75338E-18
 -1       213 9.51830E-05-2.85552E-05-2.85547E-05 1.39532E-08 4.73200E-19-3.25845E-18
 -1       214 9.51918E-05-2.85580E-05-2.85574E-05 1.27641E-08-6.67699E-19-4.32451E-18
 -1       215 9.52001E-05-2.85605E-05-2.85598E-05 1.12300E-08 3.42061E-19-4.90107E-18
 -1       216 9.52075E-05-2.85627E-05-2.85621E-05 9.58788E-09 1.07606E-18-4.12948E-18
 -1       217 9.52138E-05-2.85646E-05-2.85640E-05 7.98730E-09 1.09045E-18-3.58836E-18
 -1       218 9.52192E-05-2.85661E-05-2.85656E-05 6.51565E-09-4.14887E-19-3.28380E-18
 -1       219 9.52236E-05-2.85674E-05-2.85670E-05 5.21686E-09 1.23234E-19-3.58063E-18
 -1       220 9.52272E-05-2.85684E-05-2.85681E-05 4.10542E-09-5.47597E-19-4.67788E-18
 -1       221 9.52300E-05-2.85692E-05-2.85689E-05 3.17654E-09 7.42612E-19-3.82031E-18
 -1       222 9.52322E-05-2.85698E-05-2.85696E-05 2.41314E-09 3.19034E-19-7.93850E-19
 -1       223 9.52339E-05-2.85703E-05-2.85701E-05 1.79047E-09 1.04391E-18 7.58740E-19
 -1       224 9.52351E-05-2.85707E-05-2.85705E-05 1.27904E-09 6.09746E-19 2.55165E-18
 -1       225 9.52360E-05-2.85709E-05-2.85708E-05 8.46958E-10 1.27981E-18 9.92874E-19
 -1       226 9.52366E-05-2.85711E-05-2.85710E-05 4.66448E-10 9.59135E-19 1.35967E-18
 -1       227 9.52370E-05-2.85712E-05-2.85711E-05 1.31157E-10 6.57428E-19 2.31247E-18
 -1       228 1.42811E-04-4.26368E-05-4.31119E-05 1.48630E-05 2.58410E-18 1.29374E-17
 -1       229 1.30511E-04-3.94790E-05-3.89667E-05 1.39230E-05 2.17707E-18 1.15153E-17
 -1       230 1.19350E-04-3.51737E-05-3.60752E-05 1.29897E-05 2.17506E-18 9.49752E-18
 -1       231 1.10805E-04-3.13218E-05-3.41429E-05 7.87759E-06 2.42181E-18 6.58489E-18
 -1       232 1.07611E-04-3.01388E-05-3.33013E-05-2.02918E-07 2.73629E-18 3.39700E-18
 -1       233 1.09884E-04-3.19098E-05-3.34542E-05-6.49584E-06 2.08754E-18 5.10681E-19
 -1       234 1.14542E-04-3.46561E-05-3.42071E-05-7.86280E-06 1.24492E-18-1.08800E-18
 -1       235 1.18196E-04-3.64334E-05-3.50010E-05-5.28888E-06 2.93140E-19-1.90029E-18
 -1       236 1.19345E-04-3.67531E-05-3.53756E-05-1.48914E-06 3.76136E-20-1.82861E-18
 -1       237 1.18170E-04-3.60593E-05-3.51903E-05 1.55965E-06 2.45547E-19-2.25553E-18
 -1       238 1.15531E-04-3.49215E-05-3.45565E-05 3.25782E-06 8.82009E-19-2.44044E-18
 -1       239 1.12275E-04-3.37133E-05-3.36793E-05 3.82160E-06 3.32743E-19-2.56279E-18
 -1       240 1.08992E-04-3.26091E-05-3.27415E-05 3.68803E-06 1.32889E-19-2.22422E-18
 -1       241 1.06009E-04-3.16696E-05-3.18616E-05 3.22116E-06-4.83846E-19-1.30429E-18
 -1       242 1.03467E-04-3.09030E-05-3.10976E-05 2.65089E-06-8.08348E-19-9.12719E-19
 -1       243 1.01390E-04-3.02945E-05-3.04670E-05 2.09831E-06 6.65521E-19-1.81721E-18
 -1       244 9.97453E-05-2.98215E-05-2.99642E-05 1.61567E-06 1.29420E-18-1.27408E-18
 -1       245 9.84725E-05-2.94602E-05-2.95737E-05 1.21761E-06 5.74840E-19-1.44249E-18
 -1       246 9.75067E-05-2.91885E-05-2.92765E-05 9.00770E-07-2.99559E-19-2.55586E-18
 -1       247 9.67866E-05-2.89875E-05-2.90544E-05 6.54591E-07-4.98016E-19-2.62595E-18
 -1       248 9.62589E-05-2.88413E-05-2.88914E-05 4.66772E-07 2.91361E-19-2.79979E-18
 -1       249 9.58794E-05-2.87369E-05-2.87739E-05 3.25674E-07 1.21263E-19-3.32209E-18
 -1       250 9.56121E-05-2.86640E-05-2.86909E-05 2.21215E-07 2.70667E-20-3.31040E-18
 -1       251 9.54286E-05-2.86145E-05-2.86337E-05 1.45058E-07-2.79798E-19-3.58249E-18
 -1       252 9.53068E-05-2.85821E-05-2.85956E-05 9.04833E-08 2.80478E-20-3.26448E-18
 -1       253 9.52295E-05-2.85620E-05-2.85713E-05 5.21682E-08 2.67100E-19-3.05515E-18
 -1       254 9.51836E-05-2.85506E-05-2.85567E-05 2.59486E-08 3.29463E-19-3.25323E-18
 -1       255 9.51596E-05-2.85450E-05-2.85489E-05 8.59999E-09 1.91841E-18-2.61736E-18
 -1       256 9.51502E-05-2.85433E-05-2.85456E-05-2.34903E-09-9.91901E-19-3.31719E-18
 -1       257 9.51501E-05-2.85441E-05-2.85453E-05-8.77255E-09-1.06167E-18-3.90102E-18
 -1       258 9.51556E-05-2.85463E-05-2.85468E-05-1.20745E-08 1.04894E-18-4.33943E-18
 -1       259 9.51642E-05-2.85492E-05-2.85492E-05-1.32923E-08 8.17405E-19-4.54975E-18
 -1       260 9.51740E-05-2.85524E-05-2.85521E-05-1.31796E-08-7.53055E-19-5.06719E-18
 -1       261 9.51840E-05-2.85555E-05-2.85550E-05-1.22738E-08-3.54668E-19-6.82659E-18
 -1       262 9.51934E-05-2.85584E-05-2.85579E-05-1.09482E-08 7.39541E-19-5.43154E-18
 -1       263 9.52019E-05-2.85609E-05-2.85604E-05-9.45468E-09 7.39415E-19-7.15057E-18
 -1       264 9.52093E-05-2.85631E-05-2.85626E-05-7.95560E-09 7.72265E-19-7.97156E-18
 -1       265 9.52155E-05-2.85650E-05-2.85645E-05-6.54931E-09-4.57547E-19-7.16313E-18
 -1       266 9.52207E-05-2.85665E-05-2.85661E-05-5.28911E-09-1.10871E-18-6.88298E-18
 -1       267 9.52249E-05-2.85677E-05-2.85674E-05-4.19746E-09 2.57185E-19-6.28183E-18
 -1       268 9.52283E-05-2.85687E-05-2.85684E-05-3.27636E-09 1.25406E-18-5.75403E-18
 -1       269 9.52309E-05-2.85694E-05-2.85692E-05-2.51469E-09-3.24686E-18-5.06162E-18
 -1       270 9.52330E-05-2.85700E-05-2.85698E-05-1.89301E-09-1.87684E-18-3.29599E-18
 -1       271 9.52345E-05-2.85704E-05-2.85703E-05-1.38664E-09-5.23663E-19-3.50933E-18
 -1       272 9.52356E-05-2.85708E-05-2.85706E-05-9.67696E-10-6.19600E-19-2.74198E-18
 -1       273 9.52364E-05-2.85710E-05-2.85709E-05-6.08323E-10-5.05778E-19-1.27884E-18
 -1       274 9.52368E-05-2.85711E-05-2.85710E-05-2.85230E-10 1.14983E-18-1.37325E-19
 -1       275 9.52371E-05-2.85712E-05-2.85711E-05-1.72099E-11 1.11670E-18 1.55517E-18
 -1       276 9.52371E-05-2.85713E-05-2.85711E-05-1.53976E-10 2.28938E-18 3.75745E-18
 -1       277 9.52372E-05-2.85716E-05-2.85710E-05-4.51536E-10 1.74218E-18-2.47635E-18
 -1       278 9.52374E-05-2.85721E-05-2.85708E-05-6.87273E-10 1.44824E-19 2.89627E-19
 -1       279 9.52376E-05-2.85727E-05-2.85707E-05-7.89352E-10 5.87244E-19-4.75876E-19
 -1       280 9.52378E-05-2.85733E-05-2.85705E-05-7.48982E-10-3.38799E-19-6.35095E-18
 -1       281 9.52380E-05-2.85737E-05-2.85704E-05-5.79496E-10-1.85389E-18-1.46469E-18
 -1       282 9.52381E-05-2.85741E-05-2.85703E-05-3.13857E-10-1.26145E-18 4.01723E-19
 -1       283 9.52381E-05-2.85742E-05-2.85703E-05 2.46912E-12-2.11486E-18 8.21329E-19
 -1       284 9.52381E-05-2.85741E-05-2.85703E-05 3.18372E-10-3.94397E-18-5.34814E-19
 -1       285 9.52380E-05-2.85737E-05-2.85704E-05 5.82912E-10-2.92611E-18-2.84729E-18
 -1       286 9.52378E-05-2.85733E-05-2.85705E-05 7.48985E-10-3.08113E-18-1.73816E-18
 -1       287 9.52376E-05-2.85727E-05-2.85707E-05 7.88980E-10-3.32921E-18 2.18663E-19
 -1       288 9.52374E-05-2.85721E-05-2.85708E-05 6.83501E-10-2.52689E-18 3.30944E-18
 -1       289 9.52372E-05-2.85716E-05-2.85710E-05 4.49802E-10-2.57035E-18 1.45676E-18
 -1       290 9.52371E-05-2.85714E-05-2.85710E-05 3.14623E-10-8.42680E-19 1.36585E-18
 -1       291 1.00416E-05-3.27113E-05 6.42360E-06 7.69159E-06 6.73894E-18 9.49852E-18
 -1       292 2.89709E-05-2.78072E-05-2.29876E-06 3.08924E-05 7.91595E-18 1.04510E-17
 -1       293 5.92028E-05-2.81200E-05-1.47214E-05 4.22212E-05 1.16814E-17 1.14503E-17
 -1       294 9.54994E-05-2.42328E-05-3.07284E-05 5.10289E-05 1.43185E-17 1.16054E-17
 -1       295 1.44690E-04-3.20153E-05-4.72315E-05 4.28345E-05 1.13466E-17 5.23043E-18
 -1       296 1.80349E-04-3.05540E-05-6.14858E-05 3.90129E-05 1.12733E-17 3.52429E-18
 -1       297 2.03428E-04-3.40911E-05-6.88626E-05 2.53904E-05 9.88805E-18-1.57538E-18
 -1       298 1.90915E-04-2.97150E-05-6.66749E-05 8.36995E-06 1.18182E-17-6.66890E-18
 -1       299 1.83150E-04-3.76538E-05-6.01080E-05-1.36291E-05 1.25132E-17-1.36584E-17
 -1       300 1.47383E-04-3.74808E-05-4.65539E-05-2.36850E-05 1.36196E-17-1.50740E-17
 -1       301 1.01325E-04-2.95536E-05-3.15315E-05-3.42981E-05 1.49088E-17-1.77070E-17
 -1       302 5.34947E-05-1.70858E-05-1.74818E-05-3.09154E-05 1.58361E-17-1.73617E-17
 -1       303 2.06058E-05-9.75336E-06-6.90288E-06-1.76838E-05 1.41672E-17-1.47923E-17
 -1       304 4.99215E-06-4.29729E-06-1.82760E-06-7.08201E-06 7.53912E-18-1.19742E-17
 -1       305 9.66197E-07-6.27375E-06 5.68211E-07 4.15690E-06 2.66543E-18-9.83871E-18
 -1       306 6.30906E-06-3.23480E-07-3.57056E-06 1.63509E-05-2.31759E-18-1.09719E-17
 -1       307 2.59932E-05-2.99628E-06-1.09064E-05 2.91434E-05-6.48912E-18-1.17669E-17
 -1       308 5.04477E-05-5.80361E-06-2.04231E-05 3.82652E-05-1.38075E-17-1.52893E-17
 -1       309 8.86764E-05-1.38087E-05-3.26350E-05 4.50967E-05-1.49953E-17-1.71237E-17
 -1       310 1.32029E-04-2.35793E-05-4.58197E-05 4.21830E-05-1.43233E-17-1.73057E-17
 -1       311 1.70899E-04-3.16161E-05-5.76884E-05 2.80143E-05-1.22267E-17-1.45704E-17
 -1       312 1.87325E-04-3.11836E-05-6.44418E-05 2.93415E-06-1.06284E-17-8.43698E-18
 -1       313 1.96044E-04-3.31276E-05-6.65124E-05-1.88344E-05-9.08782E-18-2.74711E-18
 -1       314 1.72213E-04-2.72667E-05-5.96730E-05-3.52019E-05-9.07336E-18 2.24104E-18
 -1       315 1.37838E-04-2.31529E-05-4.74521E-05-5.15829E-05-1.02013E-17 8.13258E-18
 -1       316 9.43662E-05-2.09582E-05-3.13028E-05-5.08109E-05-1.11808E-17 1.00765E-17
 -1       317 5.53950E-05-2.32992E-05-1.51036E-05-4.09943E-05-9.92828E-18 1.06393E-17
 -1       318 2.81200E-05-2.81325E-05-2.15732E-06-2.90277E-05-4.18942E-18 1.06367E-17
 -1       319 1.03508E-05-3.11989E-05 5.88558E-06-1.02532E-05 3.77459E-19 9.14912E-18
 -1       320 1.16151E-04-2.23362E-05-4.04256E-05-2.86702E-05-4.69812E-18 3.74929E-18
 -1       321 1.10342E-04-2.03654E-05-3.86834E-05-2.22624E-05-3.51235E-18-3.88808E-18
 -1       322 1.11606E-04-2.29363E-05-3.81074E-05-2.38199E-05-4.86348E-18-1.65220E-18
 -1       323 1.11591E-04-2.47695E-05-3.73220E-05-1.16248E-05 7.93599E-19-3.77816E-18
 -1       324 1.06375E-04-2.68663E-05-3.41506E-05-9.91928E-08 3.54290E-18-3.04592E-18
 -1       325 8.76892E-05-2.19307E-05-2.81112E-05 1.58203E-05 6.10859E-18-3.83923E-18
 -1       326 5.57438E-05-7.70026E-06-2.02592E-05 2.65599E-05 6.94871E-18-6.35351E-18
 -1       327 1.93678E-05 1.01164E-05-1.22288E-05 2.13301E-05 4.83865E-18-9.70197E-18
 -1       328 2.53425E-05 8.16778E-06-1.38951E-05-1.14523E-05-1.54941E-18-9.23737E-18
 -1       329 6.44987E-05-1.15648E-05-2.24025E-05-1.30940E-05-3.15882E-18-5.69259E-18
 -1       330 9.98850E-05-2.64851E-05-3.14133E-05 3.15513E-07-2.09375E-18-2.02797E-18
 -1       331 1.20444E-04-3.13585E-05-3.82939E-05 1.55154E-05 4.19162E-19 7.01754E-19
 -1       332 1.32762E-04-3.36341E-05-4.27141E-05 2.38873E-05 2.43824E-18 4.13488E-18
 -1       333 1.39916E-04-3.88181E-05-4.34996E-05 2.22698E-05 2.95184E-18 7.93711E-18
 -1       334 1.34738E-04-4.09358E-05-4.02140E-05 2.11192E-05 2.62690E-18 7.81920E-18
 -1       335 1.09511E-04-2.92398E-05-3.43501E-05-1.48572E-05-3.88827E-18-2.08039E-19
 -1       336 1.05130E-04-2.83838E-05-3.28525E-05-9.58081E-06-3.21068E-18-6.99710E-19
 -1       337 1.01974E-04-2.72833E-05-3.19808E-05-4.39417E-06-2.77547E-18-1.45172E-18
 -1       338 1.00678E-04-2.72690E-05-3.14390E-05 6.16883E-07-2.29475E-18-2.33788E-18
 -1       339 1.01110E-04-2.85218E-05-3.10950E-05 4.36489E-06-1.81415E-18-2.85165E-18
 -1       340 1.02449E-04-3.03586E-05-3.08891E-05 6.02692E-06-8.30003E-19-3.29459E-18
 -1       341 1.03749E-04-3.19154E-05-3.07871E-05 5.65135E-06-5.89757E-19-3.58251E-18
 -1       342 1.04432E-04-3.27127E-05-3.07443E-05 3.97434E-06-7.88593E-19-3.36362E-18
 -1       343 1.04387E-04-3.27538E-05-3.07098E-05 1.87350E-06-8.07417E-19-3.44853E-18
 -1       344 1.03775E-04-3.22974E-05-3.06428E-05-1.79390E-08-6.39105E-19-3.77017E-18
 -1       345 1.02829E-04-3.16250E-05-3.05234E-05-1.39964E-06 1.35534E-19-3.48896E-18
 -1       346 1.01745E-04-3.09339E-05-3.03523E-05-2.22373E-06 6.65911E-19-3.19076E-18
 -1       347 1.00655E-04-3.03252E-05-3.01439E-05-2.57748E-06 1.90023E-19-3.06372E-18
 -1       348 9.96386E-05-2.98330E-05-2.99171E-05-2.59325E-06 2.43743E-19-3.07675E-18
 -1       349 9.87338E-05-2.94551E-05-2.96901E-05-2.39802E-06 2.80780E-19-2.80474E-18
 -1       350 9.79563E-05-2.91746E-05-2.94764E-05-2.09261E-06-3.09290E-19-3.14853E-18
 -1       351 9.73069E-05-2.89713E-05-2.92849E-05-1.74798E-06-6.08955E-19-3.03404E-18
 -1       352 9.67776E-05-2.88267E-05-2.91201E-05-1.40913E-06-8.61759E-19-2.25002E-18
 -1       353 9.63560E-05-2.87258E-05-2.89827E-05-1.10141E-06-2.38761E-19-2.08478E-18
 -1       354 9.60272E-05-2.86569E-05-2.88716E-05-8.36572E-07 2.87632E-19-3.07148E-18
 -1       355 9.57763E-05-2.86110E-05-2.87840E-05-6.17620E-07 1.11365E-19-2.08077E-18
 -1       356 9.55891E-05-2.85815E-05-2.87166E-05-4.42438E-07-2.50886E-19-2.26074E-18
 -1       357 9.54527E-05-2.85635E-05-2.86661E-05-3.06231E-07 1.05572E-18-1.41551E-18
 -1       358 9.53561E-05-2.85534E-05-2.86292E-05-2.03126E-07 9.70250E-19-1.60434E-18
 -1       359 9.52899E-05-2.85487E-05-2.86030E-05-1.27136E-07 4.88332E-19-2.33809E-18
 -1       360 9.52463E-05-2.85473E-05-2.85850E-05-7.27030E-08-3.98696E-19-1.90609E-18
 -1       361 9.52193E-05-2.85481E-05-2.85732E-05-3.49605E-08-1.21587E-19-2.15178E-18
 -1       362 9.52041E-05-2.85500E-05-2.85659E-05-9.82074E-09-3.95495E-19-2.34311E-18
 -1       363 9.51970E-05-2.85526E-05-2.85618E-05 6.04030E-09-1.01391E-18-3.69052E-18
 -1       364 9.51953E-05-2.85553E-05-2.85599E-05 1.52524E-08 3.85207E-19-2.44910E-18
 -1       365 9.51969E-05-2.85580E-05-2.85595E-05 1.98455E-08 1.80821E-19-1.12613E-18
 -1       366 9.52005E-05-2.85605E-05-2.85600E-05 2.13502E-08-7.03191E-19-1.32988E-18
 -1       367 9.52050E-05-2.85626E-05-2.85610E-05 2.08928E-08-7.42769E-19-2.07504E-18
 -1       368 9.52098E-05-2.85645E-05-2.85623E-05 1.92814E-08-4.33579E-19-9.02828E-19
 -1       369 9.52144E-05-2.85660E-05-2.85636E-05 1.70787E-08 1.01810E-18-7.51994E-19
 -1       370 9.52187E-05-2.85673E-05-2.85649E-05 1.46624E-08 1.50151E-18-1.47059E-18
 -1       371 9.52225E-05-2.85683E-05-2.85661E-05 1.22740E-08 2.58245E-19-2.34388E-18
 -1       372 9.52257E-05-2.85691E-05-2.85671E-05 1.00567E-08-4.93370E-19-1.63383E-18
 -1       373 9.52284E-05-2.85697E-05-2.85680E-05 8.08497E-09-6.94762E-19-2.01416E-18
 -1       374 9.52306E-05-2.85702E-05-2.85688E-05 6.38601E-09 2.99667E-19-3.91374E-19
 -1       375 9.52324E-05-2.85705E-05-2.85694E-05 4.95597E-09 2.63351E-18-2.05875E-19
 -1       376 9.52338E-05-2.85708E-05-2.85699E-05 3.77105E-09 2.53306E-18 1.72578E-18
 -1       377 9.52349E-05-2.85710E-05-2.85702E-05 2.79544E-09 1.33781E-18 2.51585E-18
 -1       378 9.52357E-05-2.85712E-05-2.85705E-05 1.98834E-09-7.54046E-19 3.44750E-18
 -1       379 9.52363E-05-2.85713E-05-2.85707E-05 1.30853E-09 3.28980E-20 2.83455E-18
 -1       380 9.52368E-05-2.85714E-05-2.85709E-05 7.65746E-10 1.10787E-18 2.45684E-18
 -1       381 1.26714E-04-3.65896E-05-3.86246E-05 2.03560E-05 3.27459E-18 7.03245E-18
 -1       382 1.18706E-04-3.05120E-05-3.78370E-05 1.41633E-05 4.04875E-18 4.71762E-18
 -1       383 1.14372E-04-2.78211E-05-3.71874E-05 2.62808E-06 4.69371E-18 1.42287E-18
 -1       384 1.15334E-04-3.07674E-05-3.63086E-05-7.38260E-06 3.63355E-18-1.30414E-18
 -1       385 1.18498E-04-3.58708E-05-3.54282E-05-1.02659E-05 1.68715E-18-2.80753E-18
 -1       386 1.19932E-04-3.86703E-05-3.48463E-05-7.06504E-06 9.45390E-19-3.10029E-18
 -1       387 1.18869E-04-3.85588E-05-3.44444E-05-1.71320E-06-2.53369E-19-3.01616E-18
 -1       388 1.16201E-04-3.68515E-05-3.40341E-05 2.72239E-06 2.54696E-19-2.51068E-18
 -1       389 1.12960E-04-3.48264E-05-3.35061E-05 5.26909E-06 5.66705E-19-2.09295E-18
 -1       390 1.09775E-04-3.31141E-05-3.28654E-05 6.16698E-06 2.31147E-19-1.29450E-18
 -1       391 1.06903E-04-3.18333E-05-3.21752E-05 6.01174E-06-1.56446E-19-1.04785E-18
 -1       392 1.04427E-04-3.09144E-05-3.15024E-05 5.32251E-06-7.24115E-19-1.47843E-18
 -1       393 1.02353E-04-3.02577E-05-3.08925E-05 4.44379E-06-3.58158E-19-1.56028E-18
 -1       394 1.00656E-04-2.97835E-05-3.03679E-05 3.56812E-06 3.66393E-19-1.70594E-18
 -1       395 9.92950E-05-2.94367E-05-2.99337E-05 2.78595E-06 8.52645E-19 2.49230E-21
 -1       396 9.82230E-05-2.91810E-05-2.95846E-05 2.12845E-06 8.22602E-19 8.29642E-20
 -1       397 9.73923E-05-2.89921E-05-2.93104E-05 1.59629E-06 8.13133E-19-2.94880E-19
 -1       398 9.67588E-05-2.88535E-05-2.90991E-05 1.17657E-06-5.34583E-19-1.69263E-18
 -1       399 9.62834E-05-2.87528E-05-2.89393E-05 8.51904E-07 3.10988E-19-2.29075E-18
 -1       400 9.59326E-05-2.86808E-05-2.88203E-05 6.04772E-07 5.88512E-19-2.49812E-18
 -1       401 9.56785E-05-2.86306E-05-2.87334E-05 4.19423E-07-1.72637E-19-2.33490E-18
 -1       402 9.54983E-05-2.85965E-05-2.86712E-05 2.82470E-07-4.12919E-19-2.83480E-18
 -1       403 9.53737E-05-2.85744E-05-2.86276E-05 1.82899E-07 5.02436E-19-2.51622E-18
 -1       404 9.52904E-05-2.85608E-05-2.85979E-05 1.11836E-07-1.96852E-19-2.75427E-18
 -1       405 9.52370E-05-2.85533E-05-2.85784E-05 6.22387E-08 1.21614E-18-3.12189E-18
 -1       406 9.52050E-05-2.85498E-05-2.85663E-05 2.85836E-08 6.59778E-19-2.82298E-18
 -1       407 9.51878E-05-2.85491E-05-2.85593E-05 6.58759E-09 7.64336E-19-9.48496E-19
 -1       408 9.51807E-05-2.85501E-05-2.85559E-05-7.03409E-09-3.09594E-19-3.46006E-18
 -1       409 9.51800E-05-2.85520E-05-2.85548E-05-1.47703E-08 1.91164E-19-3.48020E-18
 -1       410 9.51833E-05-2.85544E-05-2.85552E-05-1.84819E-08 6.55795E-19-2.74188E-18
 -1       411 9.51887E-05-2.85569E-05-2.85565E-05-1.95388E-08-2.33191E-19-2.38132E-18
 -1       412 9.51951E-05-2.85593E-05-2.85582E-05-1.89321E-08 8.04890E-19-3.37345E-18
 -1       413 9.52016E-05-2.85616E-05-2.85600E-05-1.73632E-08 8.04252E-21-4.96059E-18
 -1       414 9.52079E-05-2.85635E-05-2.85619E-05-1.53153E-08 1.12475E-18-4.88778E-18
 -1       415 9.52135E-05-2.85652E-05-2.85636E-05-1.31104E-08 7.90028E-19-3.75140E-18
 -1       416 9.52184E-05-2.85666E-05-2.85651E-05-1.09521E-08-8.24630E-19-4.04857E-18
 -1       417 9.52226E-05-2.85677E-05-2.85664E-05-8.96044E-09-1.21185E-19-4.55909E-18
 -1       418 9.52261E-05-2.85686E-05-2.85675E-05-7.19628E-09-2.61138E-19-4.57304E-18
 -1       419 9.52289E-05-2.85694E-05-2.85684E-05-5.68081E-09 6.64832E-19-3.62929E-18
 -1       420 9.52312E-05-2.85699E-05-2.85691E-05-4.40884E-09-2.41275E-18-3.39916E-18
 -1       421 9.52330E-05-2.85703E-05-2.85697E-05-3.35841E-09-2.47722E-18-4.98052E-18
 -1       422 9.52344E-05-2.85707E-05-2.85702E-05-2.49713E-09-1.69203E-18-4.00617E-18
 -1       423 9.52354E-05-2.85709E-05-2.85705E-05-1.78664E-09-1.56782E-18-1.69276E-18
 -1       424 9.52361E-05-2.85711E-05-2.85707E-05-1.18905E-09-1.69070E-18-1.42628E-18
 -1       425 9.52367E-05-2.85712E-05-2.85709E-05-6.77481E-10-1.22036E-18 1.97957E-18
 -1       426 9.52369E-05-2.85713E-05-2.85710E-05-3.96145E-10-2.47458E-20 4.71107E-18
 -1       427 9.52375E-05-2.85726E-05-2.85707E-05-1.38242E-09-5.18534E-19 7.07862E-20
 -1       428 9.52371E-05-2.85720E-05-2.85708E-05-1.14047E-09-1.21721E-18-6.83246E-19
 -1       429 9.52370E-05-2.85716E-05-2.85709E-05-7.80956E-10-2.12428E-18-1.71960E-18
 -1       430 9.52378E-05-2.85731E-05-2.85706E-05-1.40012E-09-1.43893E-18-6.26793E-18
 -1       431 9.52381E-05-2.85737E-05-2.85705E-05-1.19252E-09-2.30444E-19-4.26276E-18
 -1       432 9.52383E-05-2.85741E-05-2.85704E-05-7.96227E-10-6.06929E-19-8.41992E-20
 -1       433 9.52384E-05-2.85743E-05-2.85704E-05-2.76640E-10-2.29109E-18 9.72388E-20
 -1       434 9.52384E-05-2.85743E-05-2.85704E-05 2.85256E-10-2.04159E-18-1.30642E-19
 -1       435 9.52383E-05-2.85741E-05-2.85704E-05 8.03484E-10-1.13013E-18-7.27164E-19
 -1       436 9.52381E-05-2.85737E-05-2.85705E-05 1.19212E-09 2.96597E-20-2.48164E-18
 -1       437 9.52378E-05-2.85731E-05-2.85706E-05 1.40038E-09 7.21512E-19 8.80394E-19
 -1       438 9.52375E-05-2.85726E-05-2.85707E-05 1.38113E-09 8.02401E-19 1.30822E-18
 -1       439 9.52371E-05-2.85720E-05-2.85708E-05 1.13673E-09-1.40559E-19 1.21177E-18
 -1       440 6.21962E-05-3.26075E-05-1.28190E-05 4.45682E-05 1.16838E-18 5.70868E-18
 -1       441 1.39296E-05-9.14321E-06-1.94590E-06-4.69396E-07 1.53427E-18 1.04565E-17
 -1       442 2.56381E-05-1.38793E-05-4.80018E-06 2.52643E-05 8.20563E-21 9.52552E-18
 -1       443 1.07400E-04-4.79349E-05-2.54467E-05 4.18574E-05 9.21148E-19 1.37775E-18
 -1       444 1.35582E-04-5.07792E-05-3.65086E-05 2.60235E-05 3.72859E-18-2.58080E-18
 -1       445 1.11307E-04-2.16052E-05-3.85709E-05-1.84259E-05-1.60836E-18-4.33722E-18
 -1       446 1.55897E-04-2.09615E-05-5.77354E-05 6.08068E-06 1.08566E-17-3.93733E-18
 -1       447 1.52513E-04-1.39847E-05-5.95045E-05 9.84719E-06 1.20677E-17-3.13126E-18
 -1       448 1.59380E-04-2.44528E-05-5.76773E-05 1.49449E-05 1.19568E-17-3.33795E-18
 -1       449 1.54560E-04-3.74312E-05-5.01307E-05 1.07042E-05 1.00401E-17-2.96027E-18
 -1       450 1.35130E-04-4.64632E-05-3.81582E-05-5.90944E-06 6.34205E-18-4.08249E-18
 -1       451 9.76403E-05-3.68988E-05-2.62762E-05-2.41611E-05 4.61771E-18-8.03398E-18
 -1       452 5.41277E-05-1.79394E-05-1.57975E-05-2.78321E-05 3.38252E-18-1.05204E-17
 -1       453 2.39895E-05-2.51473E-06-9.30556E-06-1.98808E-05 2.60939E-18-1.17749E-17
 -1       454 2.49259E-06 9.48352E-06-5.08714E-06-1.93127E-06 2.24405E-18-1.22074E-17
 -1       455 4.06644E-06 1.04382E-05-6.05686E-06 1.30548E-05 2.53318E-18-1.17746E-17
 -1       456 2.29826E-05 2.02188E-06-1.06759E-05 2.78752E-05 2.38434E-18-1.04872E-17
 -1       457 6.01585E-05-1.45693E-05-1.95768E-05 3.50135E-05 5.60206E-19-8.33654E-18
 -1       458 8.84775E-05-2.52344E-05-2.73207E-05 3.25404E-05-2.44337E-18-7.13893E-18
 -1       459 1.22103E-04-3.33296E-05-3.81897E-05 1.89606E-05-5.41016E-18-5.13641E-18
 -1       460 1.42985E-04-2.96926E-05-4.85193E-05 5.60415E-06-9.05247E-18-5.35547E-18
 -1       461 1.51969E-04-2.06060E-05-5.61018E-05-4.79399E-06-1.11521E-17-4.89109E-18
 -1       462 1.47046E-04-1.07092E-05-5.83981E-05-8.61201E-06-1.12338E-17-4.78928E-18
 -1       463 1.48019E-04-1.52374E-05-5.68431E-05-6.88164E-06-9.93845E-18-5.55823E-18
 -1       464 1.43605E-04-3.18723E-05-4.79379E-05-1.16174E-05-5.56154E-18-4.74550E-18
 -1       465 1.30864E-04-4.32618E-05-3.75058E-05-2.81726E-05-2.43252E-18-2.06824E-18
 -1       466 1.00963E-04-4.36604E-05-2.45844E-05-4.25537E-05 4.03717E-19 1.00972E-18
 -1       467 6.26729E-05-3.29883E-05-1.28434E-05-4.55451E-05 1.89989E-18 5.97187E-18
 -1       468 2.67031E-05-1.69365E-05-4.24601E-06-2.98286E-05 2.08127E-18 1.05090E-17
 -1       469 1.54080E-04-3.48770E-05-5.09454E-05 1.01631E-05 8.67166E-18-4.06131E-18
 -1       470 8.24059E-06 1.64677E-05-1.00838E-05 6.01020E-06 2.30419E-18-1.06441E-17
 -1       471 5.05234E-05-2.21244E-05-1.18048E-05 3.75531E-05-2.79182E-18 5.57342E-18
 -1       472 1.40930E-04-1.47686E-05-5.44904E-05 1.65926E-05 1.15091E-17-1.19074E-18
 -1       473 1.10539E-04-3.28093E-05-3.33630E-05 5.79954E-06 3.14692E-18-1.63673E-18
 -1       474 1.17427E-04-3.06596E-05-3.73006E-05-1.11121E-05 6.36637E-19-1.48955E-18
 -1       475 9.73873E-05-3.31675E-05-2.73375E-05-1.20210E-05-2.11118E-18-3.02278E-18
 -1       476 1.33528E-04-4.06861E-05-3.98639E-05 2.34671E-05 1.99474E-18 3.77272E-18
 -1       477 1.35553E-04-4.14304E-05-4.04267E-05 2.40345E-05 2.53907E-18 5.26674E-18
 -1       478 1.10047E-04-2.66124E-05-3.57487E-05-1.62486E-05-3.80097E-18-2.08526E-18
 -1       479 1.31612E-04-3.79622E-05-4.01889E-05 2.50492E-05 3.59165E-18 5.21660E-18
 -1       480 1.24498E-04-2.94066E-05-4.08958E-05 1.97589E-05 5.37591E-18 3.70760E-18
 -1       481 1.06864E-04-2.51783E-05-3.50055E-05-1.03269E-05-3.50578E-18-2.53946E-18
 -1       482 1.04744E-04-2.45620E-05-3.43588E-05-3.42420E-06-3.26777E-18-3.26659E-18
 -1       483 1.04652E-04-2.62594E-05-3.35949E-05 2.70132E-06-2.62900E-18-4.02735E-18
 -1       484 1.05927E-04-2.95893E-05-3.27134E-05 6.18584E-06-1.77853E-18-4.45735E-18
 -1       485 1.07144E-04-3.27987E-05-3.18626E-05 6.56148E-06-7.12802E-19-4.61031E-18
 -1       486 1.07337E-04-3.46092E-05-3.11720E-05 4.76416E-06-5.07328E-19-4.78341E-18
 -1       487 1.06434E-04-3.48503E-05-3.06833E-05 2.15408E-06-4.31368E-19-4.20909E-18
 -1       488 1.04868E-04-3.40352E-05-3.03621E-05-2.77336E-07-5.32035E-19-3.14782E-18
 -1       489 1.03108E-04-3.27782E-05-3.01457E-05-2.07193E-06 1.46398E-19-2.60781E-18
 -1       490 1.01460E-04-3.15145E-05-2.99796E-05-3.15012E-06 4.43625E-19-2.22758E-18
 -1       491 1.00059E-04-3.04593E-05-2.98301E-05-3.62169E-06 4.12055E-19-2.79557E-18
 -1       492 9.89282E-05-2.96717E-05-2.96819E-05-3.65378E-06 3.27095E-19-2.99477E-18
 -1       493 9.80399E-05-2.91302E-05-2.95326E-05-3.40605E-06 3.51070E-19-2.45400E-18
 -1       494 9.73506E-05-2.87835E-05-2.93854E-05-3.00611E-06-2.75097E-19-2.70271E-18
 -1       495 9.68187E-05-2.85775E-05-2.92455E-05-2.54545E-06-3.34682E-19-2.62678E-18
 -1       496 9.64092E-05-2.84667E-05-2.91174E-05-2.08404E-06-3.85357E-19-1.97578E-18
 -1       497 9.60951E-05-2.84170E-05-2.90042E-05-1.65738E-06-3.05356E-19-1.61585E-18
 -1       498 9.58555E-05-2.84040E-05-2.89071E-05-1.28350E-06-4.10117E-19-2.19675E-18
 -1       499 9.56740E-05-2.84118E-05-2.88261E-05-9.68764E-07 3.06861E-19-2.94044E-18
 -1       500 9.55381E-05-2.84298E-05-2.87603E-05-7.12241E-07 1.31800E-19-2.74908E-18
 -1       501 9.54376E-05-2.84516E-05-2.87079E-05-5.08906E-07 9.09050E-19-1.57396E-18
 -1       502 9.53645E-05-2.84737E-05-2.86672E-05-3.51778E-07 8.59929E-19-1.69032E-18
 -1       503 9.53124E-05-2.84940E-05-2.86363E-05-2.33307E-07 2.15731E-19-2.76329E-18
 -1       504 9.52763E-05-2.85117E-05-2.86133E-05-1.46204E-07-2.35885E-19-2.85899E-18
 -1       505 9.52520E-05-2.85264E-05-2.85966E-05-8.38888E-08-3.87908E-20-2.98807E-18
 -1       506 9.52364E-05-2.85383E-05-2.85848E-05-4.06942E-08-7.26460E-19-2.50092E-18
 -1       507 9.52270E-05-2.85476E-05-2.85768E-05-1.19046E-08-1.20262E-18-2.04463E-18
 -1       508 9.52220E-05-2.85548E-05-2.85716E-05 6.29122E-09 1.90661E-19-1.03268E-18
 -1       509 9.52199E-05-2.85602E-05-2.85684E-05 1.68982E-08 3.51908E-19-1.95169E-18
 -1       510 9.52198E-05-2.85642E-05-2.85667E-05 2.22309E-08-9.07685E-19-1.80927E-18
 -1       511 9.52208E-05-2.85670E-05-2.85659E-05 2.40329E-08-3.96653E-19-7.47473E-19
 -1       512 9.52224E-05-2.85690E-05-2.85658E-05 2.35870E-08 1.98271E-19-8.52414E-20
 -1       513 9.52244E-05-2.85703E-05-2.85660E-05 2.18139E-08 6.12668E-19 9.15272E-19
 -1       514 9.52264E-05-2.85712E-05-2.85665E-05 1.93552E-08 2.50220E-19-2.22096E-19
 -1       515 9.52283E-05-2.85717E-05-2.85671E-05 1.66423E-08-7.25753E-19-2.42568E-18
 -1       516 9.52300E-05-2.85720E-05-2.85677E-05 1.39514E-08 9.29376E-19-1.86024E-18
 -1       517 9.52315E-05-2.85721E-05-2.85683E-05 1.14468E-08 5.36213E-19-6.67584E-20
 -1       518 9.52328E-05-2.85721E-05-2.85689E-05 9.21435E-09 2.43919E-19 7.96638E-19
 -1       519 9.52338E-05-2.85720E-05-2.85693E-05 7.28585E-09 4.74867E-19 5.10009E-19
 -1       520 9.52347E-05-2.85720E-05-2.85697E-05 5.65774E-09 3.14622E-18 4.36223E-19
 -1       521 9.52354E-05-2.85719E-05-2.85701E-05 4.30418E-09 1.79793E-18 6.19530E-19
 -1       522 9.52360E-05-2.85719E-05-2.85703E-05 3.18685E-09 1.23971E-18 5.41732E-19
 -1       523 9.52365E-05-2.85718E-05-2.85706E-05 2.26318E-09 1.45629E-19 1.97138E-18
 -1       524 1.21990E-04-2.40853E-05-4.22535E-05-3.11517E-06 6.65381E-18-2.75177E-18
 -1       525 1.24641E-04-3.42921E-05-3.90490E-05-1.13887E-05 3.66524E-18-4.97100E-18
 -1       526 1.26121E-04-4.26455E-05-3.58374E-05-8.16498E-06 1.23773E-18-5.39462E-18
 -1       527 1.21964E-04-4.33371E-05-3.37289E-05-9.13775E-07-3.24022E-19-3.92427E-18
 -1       528 1.16090E-04-4.01141E-05-3.25842E-05 4.87201E-06-7.77267E-19-3.49276E-18
 -1       529 1.10690E-04-3.60697E-05-3.19972E-05 8.09540E-06-2.93236E-19-2.15374E-18
 -1       530 1.06613E-04-3.28853E-05-3.16070E-05 9.17643E-06-3.60451E-19-1.66994E-18
 -1       531 1.03722E-04-3.08108E-05-3.12503E-05 8.92669E-06 1.99589E-19-9.24813E-19
 -1       532 1.01676E-04-2.96083E-05-3.08851E-05 7.98608E-06-4.37183E-19-5.88931E-19
 -1       533 1.00184E-04-2.89679E-05-3.05180E-05 6.77687E-06-4.87425E-19-5.38106E-19
 -1       534 9.90534E-05-2.86519E-05-3.01682E-05 5.54510E-06-5.32175E-19-3.51257E-19
 -1       535 9.81710E-05-2.85090E-05-2.98514E-05 4.41678E-06 3.28407E-20 3.97796E-19
 -1       536 9.74721E-05-2.84529E-05-2.95764E-05 3.44388E-06 8.70223E-19 8.24665E-20
 -1       537 9.69171E-05-2.84381E-05-2.93455E-05 2.63697E-06 8.70257E-19 3.46201E-19
 -1       538 9.64791E-05-2.84417E-05-2.91567E-05 1.98568E-06 4.13259E-19 1.37342E-18
 -1       539 9.61372E-05-2.84529E-05-2.90059E-05 1.47074E-06 9.33771E-19 3.63689E-19
 -1       540 9.58742E-05-2.84666E-05-2.88877E-05 1.07047E-06 1.23168E-18-9.14485E-19
 -1       541 9.56752E-05-2.84807E-05-2.87967E-05 7.64017E-07-2.59650E-19-6.45078E-19
 -1       542 9.55273E-05-2.84942E-05-2.87278E-05 5.32810E-07-4.15855E-19-1.50692E-19
 -1       543 9.54197E-05-2.85066E-05-2.86765E-05 3.60990E-07-2.74747E-19-2.26322E-19
 -1       544 9.53432E-05-2.85178E-05-2.86391E-05 2.35389E-07 5.38120E-19-8.22593E-19
 -1       545 9.52903E-05-2.85276E-05-2.86123E-05 1.45284E-07 1.24150E-18-1.12800E-18
 -1       546 9.52551E-05-2.85362E-05-2.85937E-05 8.20726E-08 1.08036E-18-7.25402E-19
 -1       547 9.52327E-05-2.85434E-05-2.85810E-05 3.89456E-08-8.95333E-19-1.28097E-18
 -1       548 9.52195E-05-2.85495E-05-2.85728E-05 1.05798E-08 5.14180E-19-4.09645E-19
 -1       549 9.52128E-05-2.85545E-05-2.85678E-05-7.13495E-09 2.77380E-19-5.45530E-19
 -1       550 9.52102E-05-2.85586E-05-2.85650E-05-1.73309E-08 6.17719E-19-1.47993E-18
 -1       551 9.52104E-05-2.85619E-05-2.85637E-05-2.23610E-08 1.70091E-19-2.58403E-18
 -1       552 9.52123E-05-2.85644E-05-2.85634E-05-2.39652E-08 4.50485E-19-2.48322E-18
 -1       553 9.52150E-05-2.85664E-05-2.85637E-05-2.34063E-08 4.32569E-19-1.26075E-18
 -1       554 9.52181E-05-2.85679E-05-2.85644E-05-2.15819E-08 5.04176E-19-7.11902E-19
 -1       555 9.52211E-05-2.85690E-05-2.85652E-05-1.91125E-08 2.64421E-19-8.81028E-19
 -1       556 9.52240E-05-2.85698E-05-2.85661E-05-1.64134E-08 7.87140E-19-4.53363E-19
 -1       557 9.52266E-05-2.85704E-05-2.85670E-05-1.37490E-08-4.14992E-19-3.27927E-19
 -1       558 9.52289E-05-2.85708E-05-2.85678E-05-1.12761E-08-3.43188E-19-1.24507E-18
 -1       559 9.52308E-05-2.85711E-05-2.85685E-05-9.07579E-09-3.35554E-19-2.28942E-18
 -1       560 9.52324E-05-2.85712E-05-2.85691E-05-7.17769E-09-1.06734E-18-2.04462E-18
 -1       561 9.52336E-05-2.85714E-05-2.85696E-05-5.57739E-09-1.74748E-18-1.56999E-18
 -1       562 9.52347E-05-2.85714E-05-2.85700E-05-4.24894E-09-2.95308E-18-7.93560E-19
 -1       563 9.52355E-05-2.85715E-05-2.85703E-05-3.15458E-09-2.63151E-18-1.43146E-19
 -1       564 9.52361E-05-2.85715E-05-2.85705E-05-2.25276E-09-2.37531E-18-5.78345E-19
 -1       565 9.52366E-05-2.85716E-05-2.85707E-05-1.49711E-09-1.76482E-18-9.69717E-19
 -1       566 9.52382E-05-2.85737E-05-2.85705E-05-1.87604E-09 2.53372E-19-5.95756E-18
 -1       567 9.52386E-05-2.85742E-05-2.85704E-05-1.42327E-09-1.12759E-18-2.10997E-18
 -1       568 9.52372E-05-2.85724E-05-2.85706E-05-1.92934E-09-1.59611E-18 1.53663E-18
 -1       569 9.52377E-05-2.85731E-05-2.85706E-05-2.05225E-09-1.06797E-18-2.78403E-18
 -1       570 9.52389E-05-2.85746E-05-2.85704E-05-7.63386E-10-5.28783E-19-6.02010E-19
 -1       571 9.52390E-05-2.85747E-05-2.85704E-05 6.33121E-12-3.90999E-19 2.44190E-19
 -1       572 9.52389E-05-2.85746E-05-2.85704E-05 7.75103E-10-1.37364E-20 2.22284E-18
 -1       573 9.52386E-05-2.85742E-05-2.85704E-05 1.42266E-09 3.21805E-19-9.71984E-19
 -1       574 9.52382E-05-2.85737E-05-2.85705E-05 1.87542E-09 2.90273E-18-1.78436E-18
 -1       575 9.52377E-05-2.85731E-05-2.85706E-05 2.05221E-09 2.36780E-18 1.25628E-18
 -1       576 9.52372E-05-2.85724E-05-2.85706E-05 1.92282E-09 3.48245E-19 3.29842E-19
 -1       577 9.30227E-05-4.33999E-05-2.10396E-05 4.15899E-05-3.17812E-18 7.98434E-19
 -1       578 3.05981E-05-7.63112E-06-9.29775E-06-1.68986E-05 2.17613E-18 9.59662E-18
 -1       579 1.20911E-04-2.30184E-05-4.22277E-05 9.41231E-06 6.97076E-18 4.89456E-19
 -1       580 3.10611E-05-6.72099E-06-9.79174E-06 1.15390E-05-8.89835E-19 8.11542E-18
 -1       581 1.26295E-04-5.49153E-05-3.06507E-05 2.46025E-05-1.93102E-18-4.23940E-18
 -1       582 1.42547E-04-2.93183E-05-4.88963E-05-3.92890E-06 7.70885E-18-5.74008E-18
 -1       583 5.59830E-05-2.50818E-05-1.28513E-05-4.05829E-05 4.50574E-18 5.48486E-18
 -1       584 1.29460E-04-1.04204E-05-5.15290E-05-1.37316E-05-1.00165E-17-2.72157E-18
 -1       585 1.26275E-04-4.27763E-05-3.58269E-05 1.13418E-05-4.63883E-20 1.54626E-18
 -1       586 8.28666E-05-2.36440E-05-2.52836E-05 2.66256E-05 4.15774E-18-4.61096E-18
 -1       587 1.42690E-04-2.88918E-05-4.92089E-05 2.44467E-05 9.14600E-18 1.28971E-18
 -1       588 1.36391E-04-1.66624E-05-5.18828E-05 1.46085E-06 9.66073E-18-3.83989E-18
 -1       589 1.42245E-04-4.39561E-05-4.23055E-05 1.91292E-05 4.87438E-18 2.26084E-18
 -1       590 1.27382E-04-4.70085E-05-3.45646E-05 1.10576E-06 1.03897E-18-2.73142E-19
 -1       591 4.99931E-05-9.70103E-06-1.69429E-05-2.08905E-05-1.65468E-18-8.24105E-18
 -1       592 1.30603E-04-3.33682E-05-4.18812E-05-3.23342E-06-4.11979E-18-1.03428E-18
 -1       593 1.33553E-04-4.42794E-05-3.85886E-05-6.95783E-06-4.52249E-19-7.20724E-18
 -1       594 1.11335E-04-3.43855E-05-3.30220E-05 1.47543E-05 8.76891E-19-2.42696E-18
 -1       595 1.33379E-04-2.25300E-05-4.79022E-05-1.38283E-05-7.80618E-18-8.20087E-19
 -1       596 1.27918E-04-8.82036E-06-5.15536E-05-3.46960E-06-9.22890E-18-5.47218E-18
 -1       597 1.33045E-04-2.23458E-05-4.78653E-05 1.85159E-06-6.25301E-18-7.32482E-18
 -1       598 1.24597E-04-5.13118E-05-3.13935E-05-2.41624E-05 2.40782E-18-4.64428E-18
 -1       599 9.28500E-05-4.30903E-05-2.11301E-05-4.15390E-05 4.93762E-18 2.31280E-21
 -1       600 1.12111E-04-2.55872E-05-3.71144E-05-2.05577E-05-3.89690E-18-2.69858E-18
 -1       601 1.42415E-04-4.73209E-05-4.10089E-05 2.73292E-06 3.50073E-18-6.85604E-18
 -1       602 1.15607E-04-2.63916E-05-3.83192E-05-1.85722E-05-1.56004E-18-2.67946E-18
 -1       603 4.66741E-05-1.29797E-05-1.39695E-05 2.41858E-05-2.56778E-18 5.94797E-18
 -1       604 9.52367E-05-2.85718E-05-2.85707E-05 1.71228E-09-7.87817E-19 2.76330E-18
 -1       605 1.13566E-04-2.48243E-05-3.80861E-05-2.08112E-05-3.01305E-18-3.06812E-18
 -1       606 1.29654E-04-1.54375E-05-4.94593E-05 7.51574E-06 9.93188E-18-2.33269E-18
 -1       607 1.36142E-04-4.08595E-05-4.10571E-05 2.72991E-05 3.54963E-18 4.37904E-18
 -1       608 1.23872E-04-3.34039E-05-3.89441E-05-8.70342E-06-1.08277E-18-4.04326E-20
 -1       609 1.27727E-04-4.94379E-05-3.35466E-05 4.00570E-06-9.31501E-19-5.69237E-18
 -1       610 1.07880E-04-2.06271E-05-3.74338E-05-9.27444E-06-4.22328E-18-3.48817E-18
 -1       611 1.07233E-04-2.16459E-05-3.67179E-05-6.79300E-07-3.89907E-18-4.80873E-18
 -1       612 1.09021E-04-2.67350E-05-3.52869E-05 5.27722E-06-2.58706E-18-5.51243E-18
 -1       613 1.11011E-04-3.26851E-05-3.35871E-05 6.75871E-06-1.23096E-18-5.61482E-18
 -1       614 1.11287E-04-3.65318E-05-3.20477E-05 4.74384E-06-5.54726E-19-5.42626E-18
 -1       615 1.09610E-04-3.74832E-05-3.09144E-05 1.47915E-06 5.15155E-19-4.49627E-18
 -1       616 1.06862E-04-3.64024E-05-3.01990E-05-1.44967E-06 5.76903E-19-3.41338E-18
 -1       617 1.03959E-04-3.44466E-05-2.97930E-05-3.45696E-06 3.39918E-19-2.27861E-18
 -1       618 1.01437E-04-3.24320E-05-2.95752E-05-4.53299E-06 3.05169E-19-2.14150E-18
 -1       619 9.94859E-05-3.07629E-05-2.94535E-05-4.89459E-06 3.06555E-19-1.89469E-18
 -1       620 9.80790E-05-2.95472E-05-2.93710E-05-4.77981E-06 6.42264E-19-1.82492E-18
 -1       621 9.71113E-05-2.87489E-05-2.92982E-05-4.38183E-06 3.73201E-19-1.89833E-18
 -1       622 9.64658E-05-2.82778E-05-2.92233E-05-3.84100E-06-3.60090E-19-2.24037E-18
 -1       623 9.60432E-05-2.80391E-05-2.91444E-05-3.25195E-06-5.41733E-19-2.27717E-18
 -1       624 9.57690E-05-2.79527E-05-2.90639E-05-2.67485E-06 6.86992E-21-2.20099E-18
 -1       625 9.55914E-05-2.79585E-05-2.89853E-05-2.14495E-06-1.02104E-19-2.37739E-18
 -1       626 9.54758E-05-2.80145E-05-2.89118E-05-1.68009E-06-3.25279E-19-1.67054E-18
 -1       627 9.53997E-05-2.80930E-05-2.88455E-05-1.28638E-06-8.45121E-19-1.56418E-18
 -1       628 9.53489E-05-2.81772E-05-2.87877E-05-9.62497E-07 3.09109E-19-2.01698E-18
 -1       629 9.53144E-05-2.82572E-05-2.87387E-05-7.02745E-07 9.56694E-19-2.26128E-18
 -1       630 9.52906E-05-2.83282E-05-2.86981E-05-4.99229E-07 1.41422E-19-2.25346E-18
 -1       631 9.52740E-05-2.83881E-05-2.86653E-05-3.43310E-07 7.72946E-20-2.94308E-18
 -1       632 9.52622E-05-2.84370E-05-2.86393E-05-2.26522E-07 6.22167E-21-2.56947E-18
 -1       633 9.52538E-05-2.84757E-05-2.86192E-05-1.41106E-07 3.60026E-19-2.71635E-18
 -1       634 9.52479E-05-2.85054E-05-2.86039E-05-8.02680E-08-3.34503E-19-2.06404E-18
 -1       635 9.52437E-05-2.85278E-05-2.85925E-05-3.82674E-08-5.71070E-19-1.73398E-18
 -1       636 9.52408E-05-2.85442E-05-2.85842E-05-1.03896E-08-4.77685E-19-1.47313E-18
 -1       637 9.52388E-05-2.85558E-05-2.85784E-05 7.14294E-09 3.38656E-19-1.75950E-18
 -1       638 9.52375E-05-2.85639E-05-2.85744E-05 1.72894E-08 4.02245E-19-6.18545E-19
 -1       639 9.52367E-05-2.85692E-05-2.85718E-05 2.23188E-08-4.65766E-19-3.15738E-19
 -1       640 9.52362E-05-2.85725E-05-2.85701E-05 2.39342E-08 6.47054E-20 3.90498E-19
 -1       641 9.52360E-05-2.85745E-05-2.85692E-05 2.33851E-08-6.59858E-19-1.01401E-18
 -1       642 9.52359E-05-2.85754E-05-2.85688E-05 2.15658E-08-2.23099E-19-2.65825E-18
 -1       643 9.52359E-05-2.85757E-05-2.85687E-05 1.90982E-08 5.23590E-19-1.97964E-18
 -1       644 9.52360E-05-2.85756E-05-2.85688E-05 1.63988E-08 3.47232E-21 9.02051E-20
 -1       645 9.52362E-05-2.85752E-05-2.85690E-05 1.37336E-08 1.01824E-18-8.48255E-20
 -1       646 9.52363E-05-2.85747E-05-2.85692E-05 1.12598E-08 8.86706E-19-1.39449E-19
 -1       647 9.52364E-05-2.85742E-05-2.85695E-05 9.05847E-09 2.13419E-19-1.37165E-19
 -1       648 9.52366E-05-2.85737E-05-2.85698E-05 7.15846E-09 1.07510E-18 2.89601E-19
 -1       649 9.52367E-05-2.85733E-05-2.85700E-05 5.55529E-09 2.18166E-18-2.50011E-18
 -1       650 9.52369E-05-2.85729E-05-2.85703E-05 4.22280E-09 9.79302E-19-2.29661E-18
 -1       651 9.52370E-05-2.85727E-05-2.85704E-05 3.12544E-09 1.55701E-18-1.47247E-18
 -1       652 4.17720E-05-6.40451E-06-1.46804E-05-3.26877E-06 6.51365E-19 7.23019E-18
 -1       653 1.17249E-04-4.46418E-05-3.11559E-05 1.00870E-05-1.51030E-18-3.89865E-18
 -1       654 1.08436E-04-3.79098E-05-3.02278E-05 1.27352E-05-1.46369E-18-2.59735E-18
 -1       655 1.02828E-04-3.27859E-05-3.00214E-05 1.27575E-05-7.98650E-19-1.67766E-18
 -1       656 9.95822E-05-2.95954E-05-2.99952E-05 1.16474E-05-8.84317E-19-9.30675E-19
 -1       657 9.78480E-05-2.79218E-05-2.99679E-05 1.01269E-05-8.99196E-19 5.95570E-20
 -1       658 9.69513E-05-2.72078E-05-2.98890E-05 8.52656E-06-1.74410E-19 3.06849E-19
 -1       659 9.64799E-05-2.70311E-05-2.97624E-05 7.00738E-06-1.16122E-19-4.34511E-19
 -1       660 9.62074E-05-2.71181E-05-2.96083E-05 5.64559E-06-4.02384E-19-1.23880E-18
 -1       661 9.60228E-05-2.73120E-05-2.94463E-05 4.47002E-06 7.56807E-19-9.95648E-19
 -1       662 9.58776E-05-2.75310E-05-2.92904E-05 3.48308E-06 2.01545E-19-4.92381E-19
 -1       663 9.57537E-05-2.77372E-05-2.91491E-05 2.67269E-06 1.84309E-19 7.08138E-19
 -1       664 9.56458E-05-2.79159E-05-2.90264E-05 2.01956E-06 1.42379E-18-9.83451E-20
 -1       665 9.55529E-05-2.80642E-05-2.89232E-05 1.50171E-06 1.40625E-18 2.58122E-19
 -1       666 9.54747E-05-2.81839E-05-2.88386E-05 1.09729E-06 6.23918E-19 5.27639E-19
 -1       667 9.54109E-05-2.82788E-05-2.87706E-05 7.86045E-07-1.84154E-19-4.73371E-19
 -1       668 9.53602E-05-2.83532E-05-2.87171E-05 5.50017E-07-4.94904E-19-7.28294E-19
 -1       669 9.53211E-05-2.84109E-05-2.86757E-05 3.73799E-07-3.50839E-19-8.51110E-20
 -1       670 9.52917E-05-2.84552E-05-2.86441E-05 2.44458E-07 5.05550E-19 4.18818E-19
 -1       671 9.52702E-05-2.84888E-05-2.86205E-05 1.51344E-07 5.08049E-19 8.47957E-19
 -1       672 9.52550E-05-2.85140E-05-2.86032E-05 8.58246E-08-3.25583E-19 8.70060E-19
 -1       673 9.52446E-05-2.85327E-05-2.85908E-05 4.10051E-08 6.21840E-19 6.07342E-19
 -1       674 9.52378E-05-2.85463E-05-2.85821E-05 1.14537E-08 5.57174E-19 5.57495E-19
 -1       675 9.52337E-05-2.85561E-05-2.85761E-05-7.04887E-09 6.62553E-19-6.49159E-20
 -1       676 9.52314E-05-2.85629E-05-2.85722E-05-1.77334E-08 9.13431E-19 1.25468E-18
 -1       677 9.52304E-05-2.85675E-05-2.85698E-05-2.30358E-08 5.14581E-19 8.12839E-19
 -1       678 9.52303E-05-2.85705E-05-2.85685E-05-2.47623E-08 3.05149E-19-8.52387E-19
 -1       679 9.52306E-05-2.85724E-05-2.85678E-05-2.42269E-08 2.11906E-20-8.73662E-19
 -1       680 9.52313E-05-2.85734E-05-2.85676E-05-2.23646E-08-9.34212E-19 8.78041E-19
 -1       681 9.52320E-05-2.85739E-05-2.85678E-05-1.98233E-08 2.74411E-19 1.57458E-18
 -1       682 9.52328E-05-2.85740E-05-2.85681E-05-1.70363E-08 2.92735E-19 1.65798E-18
 -1       683 9.52336E-05-2.85739E-05-2.85684E-05-1.42801E-08 1.09413E-18 1.93318E-18
 -1       684 9.52343E-05-2.85737E-05-2.85688E-05-1.17185E-08-6.77374E-19 5.61263E-19
 -1       685 9.52349E-05-2.85734E-05-2.85692E-05-9.43669E-09-5.23642E-19-3.75706E-20
 -1       686 9.52354E-05-2.85731E-05-2.85696E-05-7.46560E-09-1.61037E-18-6.27612E-19
 -1       687 9.52359E-05-2.85728E-05-2.85699E-05-5.80112E-09-3.57031E-18-1.33376E-18
 -1       688 9.52362E-05-2.85725E-05-2.85702E-05-4.41817E-09-2.98886E-18-1.49690E-18
 -1       689 9.52366E-05-2.85723E-05-2.85704E-05-3.27960E-09-1.29126E-18-8.26958E-19
 -1       690 9.52369E-05-2.85724E-05-2.85705E-05-2.56328E-09-2.42756E-18 1.21103E-18
 -1       691 9.52397E-05-2.85753E-05-2.85705E-05-5.01532E-10 1.30553E-18 1.33377E-18
 -1       692 9.52371E-05-2.85725E-05-2.85705E-05 2.49076E-09 1.49379E-18-2.08570E-18
 -1       693 9.52389E-05-2.85745E-05-2.85705E-05-2.21095E-09-5.98176E-19-5.52490E-18
 -1       694 9.52397E-05-2.85753E-05-2.85705E-05 5.18544E-10 1.54623E-18-3.15182E-19
 -1       695 9.52394E-05-2.85750E-05-2.85705E-05-1.45426E-09-9.35527E-20 4.06309E-19
 -1       696 9.52394E-05-2.85750E-05-2.85705E-05 1.45383E-09 5.64481E-19-3.78131E-19
 -1       697 9.52389E-05-2.85745E-05-2.85705E-05 2.20969E-09 2.23215E-18 4.86762E-19
 -1       698 9.52382E-05-2.85738E-05-2.85705E-05 2.65934E-09 4.01535E-18 2.57812E-19
 -1       699 5.44852E-05-1.65859E-05-1.58066E-05-2.88520E-05 4.08164E-18 5.01060E-18
 -1       700 1.11004E-04-4.80048E-05-2.69128E-05-2.68726E-05 4.65885E-18-3.32162E-18
 -1       701 1.25900E-04-3.33337E-05-3.99156E-05 4.94928E-06-2.09806E-18-8.17387E-18
 -1       702 7.70522E-05-3.11831E-05-1.92882E-05 3.67577E-05-3.53414E-18 1.63769E-18
 -1       703 1.10598E-04-4.84672E-05-2.64882E-05 2.92025E-05-3.75721E-18-2.44265E-18
 -1       704 1.29477E-04-2.46307E-05-4.55128E-05-5.84397E-06 7.06166E-18-4.89647E-18
 -1       705 1.30336E-04-2.89779E-05-4.37080E-05 2.47000E-05 6.56707E-18 3.15619E-18
 -1       706 1.17150E-04-9.33165E-06-4.66570E-05-9.14223E-06-7.87727E-18-4.10199E-18
 -1       707 1.19920E-04-1.60824E-05-4.48915E-05 3.09385E-06-6.05496E-18-7.06199E-18
 -1       708 7.90301E-05-3.24963E-05-1.96603E-05-3.70947E-05 5.28840E-18 8.67944E-19
 -1       709 1.25703E-04-2.61542E-05-4.29662E-05-1.71382E-05-4.61524E-18 1.59110E-19
 -1       710 1.30079E-04-2.19636E-05-4.68580E-05 2.05494E-05 8.68871E-18 9.56128E-19
 -1       711 1.10752E-04-2.30679E-05-3.76083E-05-1.66632E-05-3.95957E-18-2.73682E-18
 -1       712 1.26139E-04-4.90525E-05-3.31618E-05-1.02017E-05 2.05111E-18-6.38777E-18
 -1       713 1.22427E-04-1.57252E-05-4.61262E-05-1.78070E-05-7.40921E-18-1.16905E-18
 -1       714 1.13100E-04-2.47929E-05-3.78580E-05-1.99395E-05-3.48972E-18-2.55410E-18
 -1       715 1.19521E-04-2.71729E-05-3.97221E-05-1.91879E-05-2.54885E-18-9.90139E-19
 -1       716 4.82415E-05-8.54955E-06-1.66871E-05 9.16835E-06-1.23972E-18 5.24819E-18
 -1       717 9.52382E-05-2.85738E-05-2.85705E-05-2.66244E-09-1.77276E-18-4.62515E-18
 -1       718 9.52375E-05-2.85731E-05-2.85705E-05-2.74648E-09-1.28716E-18-9.55708E-19
 -1       719 1.35960E-04-3.65071E-05-4.30962E-05 2.57975E-05 5.30465E-18 3.69815E-18
 -1       720 9.52377E-05-2.85733E-05-2.85705E-05 2.98548E-09 1.95784E-18-3.19921E-18
 -1       721 6.76594E-05-2.04763E-05-1.99687E-05 2.64515E-05-3.27772E-18 2.57424E-18
 -1       722 9.67408E-05-3.15652E-05-2.79253E-05 1.75245E-05-2.02200E-18-1.07796E-18
 -1       723 1.03407E-04-3.84958E-05-2.77366E-05 2.05437E-05-2.40359E-18-2.02339E-18
 -1       724 1.11752E-04-2.09531E-05-3.91023E-05 3.66268E-06-4.08810E-18-5.70745E-18
 -1       725 1.15481E-04-3.10173E-05-3.62656E-05 6.87016E-06-2.22716E-18-6.30798E-18
 -1       726 1.16216E-04-3.82411E-05-3.34554E-05 4.16720E-06-4.18888E-19-5.96847E-18
 -1       727 1.13641E-04-4.05394E-05-3.13392E-05-3.56726E-07 8.72801E-19-4.75488E-18
 -1       728 1.09352E-04-3.92150E-05-3.00561E-05-3.96322E-06 1.19934E-18-4.31119E-18
 -1       729 1.04949E-04-3.63827E-05-2.93863E-05-6.00389E-06 1.37243E-18-3.23234E-18
 -1       730 1.01314E-04-3.34369E-05-2.90910E-05-6.74580E-06 7.88751E-19-2.15350E-18
 -1       731 9.86907E-05-3.10467E-05-2.89907E-05-6.65881E-06 8.57295E-19-1.37096E-18
 -1       732 9.69514E-05-2.93395E-05-2.89765E-05-6.13430E-06 6.33260E-19-1.40260E-18
 -1       733 9.58866E-05-2.82496E-05-2.89872E-05-5.40893E-06 2.00505E-21-1.87814E-18
 -1       734 9.52881E-05-2.76362E-05-2.89936E-05-4.62415E-06-4.19031E-19-1.83498E-18
 -1       735 9.49907E-05-2.73577E-05-2.89855E-05-3.85732E-06-5.22472E-19-1.94934E-18
 -1       736 9.48757E-05-2.72967E-05-2.89624E-05-3.14984E-06-1.81186E-19-1.92521E-18
 -1       737 9.48634E-05-2.73652E-05-2.89277E-05-2.52205E-06 1.38277E-19-2.38357E-18
 -1       738 9.49026E-05-2.75015E-05-2.88861E-05-1.98145E-06 2.05607E-19-2.16439E-18
 -1       739 9.49627E-05-2.76650E-05-2.88418E-05-1.52751E-06-6.15073E-22-2.14287E-18
 -1       740 9.50261E-05-2.78305E-05-2.87981E-05-1.15476E-06-5.78486E-19-1.69239E-18
 -1       741 9.50839E-05-2.79837E-05-2.87572E-05-8.54959E-07 1.44868E-18-1.29822E-18
 -1       742 9.51323E-05-2.81176E-05-2.87206E-05-6.18543E-07 8.76634E-19-6.96562E-19
 -1       743 9.51705E-05-2.82300E-05-2.86888E-05-4.35704E-07-6.55620E-19-5.61475E-19
 -1       744 9.51991E-05-2.83212E-05-2.86619E-05-2.97072E-07-2.33303E-19-1.70679E-18
 -1       745 9.52196E-05-2.83933E-05-2.86399E-05-1.94124E-07 2.97393E-19-2.22217E-18
 -1       746 9.52335E-05-2.84487E-05-2.86221E-05-1.19396E-07 1.20094E-19-2.47786E-18
 -1       747 9.52424E-05-2.84903E-05-2.86080E-05-6.65489E-08-4.21582E-19-1.12970E-18
 -1       748 9.52475E-05-2.85208E-05-2.85972E-05-3.03313E-08-5.15271E-19-1.11579E-19
 -1       749 9.52500E-05-2.85425E-05-2.85889E-05-6.49446E-09-3.90191E-19 4.47853E-19
 -1       750 9.52507E-05-2.85575E-05-2.85828E-05 8.32948E-09 1.96626E-19-7.67060E-19
 -1       751 9.52502E-05-2.85675E-05-2.85783E-05 1.67570E-08 5.09509E-20-2.81811E-18
 -1       752 9.52491E-05-2.85737E-05-2.85752E-05 2.07811E-08 5.29242E-19-1.72404E-18
 -1       753 9.52477E-05-2.85773E-05-2.85730E-05 2.18890E-08-9.76540E-19-1.71898E-18
 -1       754 9.52461E-05-2.85791E-05-2.85716E-05 2.11664E-08-8.22548E-19 1.18820E-19
 -1       755 9.52446E-05-2.85796E-05-2.85707E-05 1.93866E-08-5.03678E-19 5.33909E-19
 -1       756 9.52432E-05-2.85794E-05-2.85702E-05 1.70839E-08 1.09687E-18-2.02144E-18
 -1       757 9.52419E-05-2.85787E-05-2.85699E-05 1.46143E-08 1.16769E-18-1.97477E-19
 -1       758 9.52409E-05-2.85778E-05-2.85699E-05 1.22025E-08 1.12971E-18-1.06651E-18
 -1       759 9.52400E-05-2.85769E-05-2.85699E-05 9.98014E-09 1.35930E-19-7.28419E-19
 -1       760 9.52393E-05-2.85759E-05-2.85700E-05 8.01280E-09-3.71597E-19-2.08000E-18
 -1       761 9.52387E-05-2.85751E-05-2.85701E-05 6.32012E-09 4.20266E-19-3.34183E-18
 -1       762 9.52383E-05-2.85743E-05-2.85702E-05 4.90162E-09 1.72295E-18-3.16270E-18
 -1       763 9.52379E-05-2.85737E-05-2.85703E-05 3.86661E-09 8.00623E-19-3.09863E-18
 -1       764 9.37823E-05-2.75797E-05-2.83672E-05 1.43848E-05-1.67905E-18-4.49684E-19
 -1       765 9.27833E-05-2.56686E-05-2.87614E-05 1.17493E-05-1.43805E-18-1.92855E-19
 -1       766 9.27384E-05-2.50028E-05-2.90291E-05 9.57674E-06-7.34995E-19-4.64818E-19
 -1       767 9.30972E-05-2.50294E-05-2.91714E-05 7.77947E-06-1.42697E-19-7.45486E-20
 -1       768 9.35632E-05-2.53864E-05-2.92182E-05 6.27999E-06 7.50936E-19-1.41946E-20
 -1       769 9.40011E-05-2.58636E-05-2.92014E-05 5.02262E-06-5.17327E-19-8.46391E-19
 -1       770 9.43621E-05-2.63505E-05-2.91475E-05 3.97132E-06 5.30308E-19-3.32135E-19
 -1       771 9.46385E-05-2.67948E-05-2.90756E-05 3.09994E-06-4.14547E-19-8.66784E-19
 -1       772 9.48404E-05-2.71768E-05-2.89985E-05 2.38626E-06 6.63548E-19-9.90640E-19
 -1       773 9.49827E-05-2.74934E-05-2.89238E-05 1.80956E-06 1.11840E-18 5.63140E-19
 -1       774 9.50802E-05-2.77496E-05-2.88559E-05 1.35009E-06 1.25880E-18 1.06282E-18
 -1       775 9.51456E-05-2.79533E-05-2.87966E-05 9.89283E-07 7.79380E-19-1.97220E-19
 -1       776 9.51882E-05-2.81130E-05-2.87465E-05 7.10144E-07 4.51083E-19-1.35346E-18
 -1       777 9.52153E-05-2.82366E-05-2.87051E-05 4.97502E-07-1.77412E-18-1.28155E-18
 -1       778 9.52319E-05-2.83312E-05-2.86717E-05 3.38162E-07-6.49597E-19-7.90879E-19
 -1       779 9.52416E-05-2.84028E-05-2.86452E-05 2.20890E-07 3.52006E-19 1.79327E-20
 -1       780 9.52467E-05-2.84561E-05-2.86245E-05 1.36317E-07-2.69840E-19 1.14152E-18
 -1       781 9.52489E-05-2.84953E-05-2.86087E-05 7.67603E-08 4.49056E-19 5.61342E-19
 -1       782 9.52494E-05-2.85235E-05-2.85968E-05 3.60298E-08 1.27646E-19 8.55367E-19
 -1       783 9.52489E-05-2.85435E-05-2.85880E-05 9.21464E-09 2.55978E-19 1.02108E-18
 -1       784 9.52478E-05-2.85573E-05-2.85816E-05-7.51959E-09 5.37856E-19 1.49705E-20
 -1       785 9.52464E-05-2.85664E-05-2.85771E-05-1.71195E-08 3.58538E-19 5.48893E-19
 -1       786 9.52450E-05-2.85722E-05-2.85740E-05-2.18122E-08 5.70071E-19 1.16879E-18
 -1       787 9.52437E-05-2.85757E-05-2.85720E-05-2.32508E-08 2.16105E-19 2.36923E-18
 -1       788 9.52424E-05-2.85774E-05-2.85707E-05-2.26387E-08-2.62576E-19 1.23080E-18
 -1       789 9.52414E-05-2.85781E-05-2.85700E-05-2.08315E-08 8.52257E-19 6.26678E-20
 -1       790 9.52404E-05-2.85780E-05-2.85696E-05-1.84209E-08-1.09371E-20-9.57025E-19
 -1       791 9.52397E-05-2.85776E-05-2.85695E-05-1.58021E-08 1.90373E-19 8.53028E-19
 -1       792 9.52391E-05-2.85769E-05-2.85695E-05-1.32258E-08-5.15125E-19 2.58810E-18
 -1       793 9.52386E-05-2.85761E-05-2.85696E-05-1.08397E-08 7.28056E-20 3.28379E-18
 -1       794 9.52382E-05-2.85753E-05-2.85698E-05-8.71944E-09-4.70847E-19 2.75570E-18
 -1       795 9.52379E-05-2.85746E-05-2.85700E-05-6.89151E-09-1.63923E-18 2.28121E-18
 -1       796 9.52377E-05-2.85740E-05-2.85702E-05-5.35054E-09-2.39086E-18 5.42608E-19
 -1       797 9.52375E-05-2.85735E-05-2.85703E-05-4.07462E-09-3.92510E-18-1.22212E-18
 -1       798 9.52375E-05-2.85733E-05-2.85704E-05-3.36584E-09-3.44481E-18-3.40133E-19
 -1       799 1.09723E-04-1.52426E-05-4.06982E-05-5.68954E-06-5.54563E-18-4.31473E-18
 -1       800 9.52391E-05-2.85748E-05-2.85704E-05 3.17368E-09 4.42340E-19 1.33633E-18
 -1       801 9.52407E-05-2.85762E-05-2.85705E-05 1.12797E-11 9.42741E-19 7.90612E-19
 -1       802 1.16689E-04-4.68095E-05-2.99434E-05-1.29088E-05 2.91306E-18-5.17115E-18
 -1       803 9.49497E-05-3.77942E-05-2.43869E-05-2.81687E-05 4.63634E-18-1.53891E-18
 -1       804 1.15685E-04-2.49180E-05-3.89632E-05-2.04966E-05-3.28186E-18-2.02662E-18
 -1       805 1.13883E-04-1.45392E-05-4.28062E-05-1.50232E-05-6.28303E-18-2.88373E-18
 -1       806 1.21766E-04-4.15256E-05-3.44711E-05 1.54149E-06 1.76573E-19-6.64851E-18
 -1       807 9.52405E-05-2.85761E-05-2.85705E-05 1.26149E-09 1.75777E-18 3.15531E-19
 -1       808 7.34234E-05-2.47506E-05-2.06579E-05-2.88437E-05 4.49388E-18 1.25365E-18
 -1       809 1.17112E-04-2.12392E-05-4.12907E-05-2.01389E-05-4.80662E-18-1.33593E-18
 -1       810 9.46414E-05-3.74156E-05-2.42790E-05 2.92338E-05-3.57486E-18-1.51099E-18
 -1       811 9.52400E-05-2.85756E-05-2.85705E-05 2.37336E-09 1.34655E-18 3.26831E-19
 -1       812 5.83269E-05-1.25159E-05-1.94033E-05-1.50097E-05 2.18357E-18 4.33394E-18
 -1       813 9.52391E-05-2.85748E-05-2.85704E-05-3.17272E-09-9.59196E-19-4.44519E-18
 -1       814 9.52400E-05-2.85756E-05-2.85705E-05-2.36764E-09-2.77857E-19-2.81725E-18
 -1       815 9.52405E-05-2.85761E-05-2.85705E-05-1.25798E-09 3.70182E-20 2.55188E-18
 -1       816 1.06612E-04-4.19377E-05-2.76515E-05-1.82426E-05 3.09441E-18-3.31808E-18
 -1       817 5.69802E-05-1.01840E-05-1.98547E-05-5.56422E-06 8.85269E-19 4.60494E-18
 -1       818 9.52385E-05-2.85743E-05-2.85704E-05 3.58488E-09-2.46439E-19-5.29862E-19
 -1       819 8.49226E-05-2.37947E-05-2.61838E-05 1.65961E-05-2.17621E-18-8.01455E-21
 -1       820 8.52186E-05-2.71116E-05-2.48084E-05 2.27112E-05-2.64414E-18-3.23845E-19
 -1       821 1.11751E-04-4.23482E-05-2.97390E-05-8.37053E-06 1.95436E-18-3.79514E-18
 -1       822 1.05367E-04-3.82579E-05-2.87654E-05-1.01162E-05 1.81724E-18-3.03683E-18
 -1       823 1.00425E-04-3.41211E-05-2.84176E-05-1.00899E-05 1.78625E-18-2.79353E-18
 -1       824 9.71955E-05-3.09749E-05-2.83800E-05-9.07195E-06 1.41843E-18-1.97799E-18
 -1       825 9.52323E-05-2.88049E-05-2.84685E-05-7.79616E-06 9.83556E-19-1.85839E-18
 -1       826 9.41917E-05-2.74834E-05-2.85891E-05-6.51337E-06 6.93133E-19-1.77870E-18
 -1       827 9.37366E-05-2.67805E-05-2.86954E-05-5.35060E-06-4.93013E-20-1.03652E-18
 -1       828 9.36364E-05-2.65016E-05-2.87720E-05-4.33747E-06-6.61287E-19-1.24318E-18
 -1       829 9.37344E-05-2.64943E-05-2.88172E-05-3.47373E-06-5.88195E-19-2.02411E-18
 -1       830 9.39291E-05-2.66466E-05-2.88354E-05-2.74802E-06-1.50194E-19-1.76223E-18
 -1       831 9.41573E-05-2.68802E-05-2.88331E-05-2.14580E-06 7.00551E-19-1.78005E-18
 -1       832 9.43824E-05-2.71431E-05-2.88169E-05-1.65215E-06-5.15989E-19-1.75457E-18
 -1       833 9.45851E-05-2.74031E-05-2.87923E-05-1.25268E-06-1.08413E-19-2.33719E-18
 -1       834 9.47571E-05-2.76417E-05-2.87637E-05-9.33797E-07 7.07291E-19-1.42510E-18
 -1       835 9.48966E-05-2.78500E-05-2.87343E-05-6.82897E-07 1.47819E-18-2.00443E-18
 -1       836 9.50059E-05-2.80249E-05-2.87061E-05-4.88473E-07 3.58552E-19-2.40198E-18
 -1       837 9.50885E-05-2.81675E-05-2.86804E-05-3.40239E-07-8.02785E-19-1.47250E-18
 -1       838 9.51491E-05-2.82807E-05-2.86579E-05-2.29187E-07-1.97842E-19-5.24786E-19
 -1       839 9.51920E-05-2.83684E-05-2.86387E-05-1.47586E-07 7.70535E-19 4.21572E-20
 -1       840 9.52211E-05-2.84348E-05-2.86227E-05-8.89328E-08-4.17239E-20 4.06547E-19
 -1       841 9.52400E-05-2.84838E-05-2.86098E-05-4.78586E-08-2.20409E-19 4.30241E-19
 -1       842 9.52512E-05-2.85192E-05-2.85995E-05-2.00102E-08-4.76112E-19-3.32234E-19
 -1       843 9.52572E-05-2.85439E-05-2.85914E-05-1.92025E-09 5.55549E-20-7.01231E-20
 -1       844 9.52595E-05-2.85606E-05-2.85852E-05 9.12549E-09-1.39419E-18-5.58567E-19
 -1       845 9.52595E-05-2.85714E-05-2.85806E-05 1.52147E-08 7.18655E-19-1.50887E-18
 -1       846 9.52580E-05-2.85779E-05-2.85772E-05 1.79241E-08 4.57509E-19-2.10703E-18
 -1       847 9.52558E-05-2.85813E-05-2.85748E-05 1.84216E-08 1.79250E-19-1.24058E-18
 -1       848 9.52532E-05-2.85828E-05-2.85731E-05 1.75533E-08-3.53744E-19-4.40022E-19
 -1       849 9.52507E-05-2.85829E-05-2.85719E-05 1.59174E-08-8.00063E-19 2.11597E-19
 -1       850 9.52482E-05-2.85822E-05-2.85712E-05 1.39241E-08 8.50577E-19 1.43458E-19
 -1       851 9.52460E-05-2.85811E-05-2.85707E-05 1.18430E-08 1.12895E-18-5.45156E-19
 -1       852 9.52441E-05-2.85797E-05-2.85705E-05 9.84240E-09-4.78648E-19-2.50020E-18
 -1       853 9.52425E-05-2.85784E-05-2.85703E-05 8.01952E-09 1.12060E-18-3.03916E-18
 -1       854 9.52412E-05-2.85771E-05-2.85703E-05 6.42002E-09 8.86048E-19 5.41520E-19
 -1       855 9.52401E-05-2.85760E-05-2.85703E-05 5.04584E-09 2.38091E-18 3.51965E-18
 -1       856 8.75106E-05-2.22735E-05-2.79604E-05 9.60531E-06-6.42036E-19-3.73015E-19
 -1       857 8.90495E-05-2.27264E-05-2.84244E-05 7.61973E-06-4.47755E-19-5.73946E-19
 -1       858 9.04245E-05-2.34451E-05-2.87054E-05 6.12564E-06-8.23639E-22-7.97517E-19
 -1       859 9.15794E-05-2.42412E-05-2.88591E-05 4.93696E-06 3.42037E-19-1.16060E-18
 -1       860 9.25093E-05-2.50110E-05-2.89277E-05 3.96033E-06-4.41246E-19-7.34869E-19
 -1       861 9.32364E-05-2.57041E-05-2.89423E-05 3.14724E-06 1.94401E-19 7.85982E-19
 -1       862 9.37926E-05-2.63012E-05-2.89249E-05 2.47044E-06 9.59227E-19-4.84968E-19
 -1       863 9.42108E-05-2.68004E-05-2.88902E-05 1.91170E-06 4.63230E-19-9.09134E-19
 -1       864 9.45209E-05-2.72088E-05-2.88480E-05 1.45613E-06 2.73743E-19-5.58106E-19
 -1       865 9.47477E-05-2.75372E-05-2.88045E-05 1.09007E-06 1.58607E-18-9.58356E-20
 -1       866 9.49116E-05-2.77975E-05-2.87632E-05 8.00485E-07 1.01419E-18 1.63610E-18
 -1       867 9.50284E-05-2.80012E-05-2.87259E-05 5.75104E-07-3.46476E-19 1.69091E-18
 -1       868 9.51103E-05-2.81585E-05-2.86936E-05 4.02638E-07-1.48635E-18 4.65300E-19
 -1       869 9.51666E-05-2.82785E-05-2.86663E-05 2.73007E-07-7.10797E-19 9.76615E-19
 -1       870 9.52043E-05-2.83688E-05-2.86438E-05 1.77444E-07-5.84317E-19 5.16882E-19
 -1       871 9.52288E-05-2.84356E-05-2.86256E-05 1.08507E-07-2.63494E-19 1.67834E-18
 -1       872 9.52438E-05-2.84843E-05-2.86112E-05 6.00196E-08-1.25639E-19 2.37398E-18
 -1       873 9.52523E-05-2.85190E-05-2.86000E-05 2.69552E-08 6.05539E-19 1.55820E-18
 -1       874 9.52564E-05-2.85432E-05-2.85914E-05 5.29982E-09 8.89252E-19 5.82137E-19
 -1       875 9.52577E-05-2.85595E-05-2.85849E-05-8.09484E-09 2.43196E-19 1.42835E-18
 -1       876 9.52571E-05-2.85700E-05-2.85802E-05-1.56545E-08 3.09206E-19 8.37221E-20
 -1       877 9.52554E-05-2.85765E-05-2.85767E-05-1.92145E-08 3.44385E-19 8.10290E-19
 -1       878 9.52533E-05-2.85800E-05-2.85743E-05-2.01372E-08 2.44474E-19 6.66733E-19
 -1       879 9.52509E-05-2.85815E-05-2.85726E-05-1.94124E-08 2.66276E-19 9.19654E-19
 -1       880 9.52487E-05-2.85818E-05-2.85715E-05-1.77424E-08 1.28090E-18 2.39892E-18
 -1       881 9.52465E-05-2.85813E-05-2.85708E-05-1.56108E-08-3.56881E-20 6.57367E-19
 -1       882 9.52446E-05-2.85803E-05-2.85704E-05-1.33385E-08-2.22229E-19 3.38973E-19
 -1       883 9.52430E-05-2.85791E-05-2.85702E-05-1.11273E-08-1.61836E-18 4.11073E-19
 -1       884 9.52417E-05-2.85779E-05-2.85702E-05-9.09440E-09-4.18462E-19 1.54350E-18
 -1       885 9.52405E-05-2.85768E-05-2.85702E-05-7.29813E-09-5.12703E-19 1.97774E-18
 -1       886 9.52396E-05-2.85757E-05-2.85702E-05-5.76269E-09-8.39011E-19 7.49859E-19
 -1       887 9.52389E-05-2.85749E-05-2.85703E-05-4.46531E-09-1.68147E-18-1.83282E-19
 -1       888 9.52383E-05-2.85740E-05-2.85704E-05-3.38850E-09-2.28034E-18-2.21933E-18
 -1       889 8.60039E-05-2.24603E-05-2.72352E-05 1.24627E-05-1.90042E-18-2.30916E-19
 -1       890 9.52419E-05-2.85773E-05-2.85705E-05 8.07436E-10 5.41162E-19 5.11445E-19
 -1       891 7.28124E-05-2.03114E-05-2.24104E-05-1.99945E-05 3.02985E-18 1.07760E-18
 -1       892 8.75001E-05-3.05670E-05-2.43542E-05-2.36244E-05 3.71856E-18-3.72125E-19
 -1       893 6.26715E-05-1.37969E-05-2.07975E-05 1.49373E-05-2.10211E-18 3.56707E-18
 -1       894 1.18103E-04-4.38422E-05-3.18719E-05-3.86199E-06 1.24825E-18-5.30946E-18
 -1       895 9.52419E-05-2.85773E-05-2.85705E-05-8.03596E-10 4.93395E-19 2.24393E-18
 -1       896 9.52392E-05-2.85751E-05-2.85703E-05 4.28858E-09 2.27659E-18 1.84221E-18
 -1       897 6.73312E-05-1.46511E-05-2.25117E-05-1.03587E-05 1.58659E-18 2.71586E-18
 -1       898 9.52403E-05-2.85760E-05-2.85704E-05-3.69911E-09-7.90646E-19-3.88898E-18
 -1       899 9.52414E-05-2.85769E-05-2.85705E-05 2.31525E-09-3.66806E-19-2.44806E-19
 -1       900 9.52402E-05-2.85759E-05-2.85704E-05 3.58868E-09 1.54802E-19 9.99796E-19
 -1       901 8.36566E-05-2.51841E-05-2.50358E-05-1.74142E-05 2.15041E-18-5.65082E-19
 -1       902 8.90051E-05-2.26233E-05-2.84495E-05 4.06486E-06 1.02048E-18-2.55387E-19
 -1       903 7.09193E-05-1.52848E-05-2.37942E-05 9.98727E-06-1.46269E-18 2.45063E-18
 -1       904 9.78560E-05-3.39128E-05-2.73879E-05-1.47450E-05 2.49527E-18-2.05951E-18
 -1       905 9.42975E-05-3.00749E-05-2.75409E-05-1.21022E-05 2.10525E-18-1.50079E-18
 -1       906 9.24356E-05-2.75806E-05-2.77951E-05-9.66044E-06 1.26775E-18-1.63585E-18
 -1       907 9.17691E-05-2.62417E-05-2.80829E-05-7.58920E-06 9.07282E-19-1.54688E-18
 -1       908 9.16854E-05-2.55968E-05-2.83238E-05-5.93281E-06 5.06512E-19-1.46151E-18
 -1       909 9.19339E-05-2.54190E-05-2.85066E-05-4.62101E-06-3.28684E-19-1.94257E-18
 -1       910 9.23434E-05-2.55317E-05-2.86338E-05-3.58726E-06-6.66816E-19-1.09909E-18
 -1       911 9.28090E-05-2.58099E-05-2.87141E-05-2.77219E-06-2.90365E-20-6.23836E-19
 -1       912 9.32686E-05-2.61676E-05-2.87577E-05-2.12886E-06 4.65616E-19-1.15002E-19
 -1       913 9.36884E-05-2.65479E-05-2.87746E-05-1.62134E-06 1.05074E-19-4.43037E-19
 -1       914 9.40524E-05-2.69152E-05-2.87731E-05-1.22214E-06-2.72939E-19 1.96039E-20
 -1       915 9.43556E-05-2.72491E-05-2.87600E-05-9.09807E-07 6.24123E-19 2.80186E-19
 -1       916 9.46003E-05-2.75396E-05-2.87404E-05-6.67291E-07 8.92901E-19-1.84341E-19
 -1       917 9.47922E-05-2.77841E-05-2.87178E-05-4.80790E-07 3.93593E-19-5.84706E-19
 -1       918 9.49387E-05-2.79841E-05-2.86948E-05-3.39010E-07 4.80339E-19-5.44417E-19
 -1       919 9.50475E-05-2.81438E-05-2.86731E-05-2.32665E-07 1.75562E-19-1.97001E-19
 -1       920 9.51262E-05-2.82684E-05-2.86534E-05-1.54128E-07 7.81973E-19 5.02117E-19
 -1       921 9.51812E-05-2.83635E-05-2.86362E-05-9.71716E-08 2.61058E-19-2.77766E-19
 -1       922 9.52183E-05-2.84345E-05-2.86217E-05-5.67476E-08-7.07529E-20 9.75650E-20
 -1       923 9.52420E-05-2.84863E-05-2.86096E-05-2.88092E-08-6.62510E-19 3.58646E-20
 -1       924 9.52561E-05-2.85231E-05-2.85999E-05-1.01484E-08-7.14406E-19-2.44011E-19
 -1       925 9.52634E-05-2.85484E-05-2.85922E-05 1.74430E-09-6.93062E-19-1.60032E-18
 -1       926 9.52662E-05-2.85651E-05-2.85862E-05 8.80527E-09-7.50280E-19-3.59446E-19
 -1       927 9.52659E-05-2.85756E-05-2.85816E-05 1.25058E-08 1.08457E-19-6.03828E-19
 -1       928 9.52640E-05-2.85817E-05-2.85781E-05 1.39455E-08 7.14291E-19-1.45552E-18
 -1       929 9.52610E-05-2.85846E-05-2.85756E-05 1.39307E-08 2.29219E-19-1.12904E-18
 -1       930 9.52577E-05-2.85856E-05-2.85738E-05 1.30404E-08-1.86048E-19-2.03591E-18
 -1       931 9.52544E-05-2.85852E-05-2.85725E-05 1.16794E-08 2.54204E-19-1.34649E-18
 -1       932 9.52513E-05-2.85840E-05-2.85717E-05 1.01220E-08 8.74394E-19-7.44798E-19
 -1       933 9.52484E-05-2.85825E-05-2.85711E-05 8.54586E-09-4.54044E-19-1.52399E-18
 -1       934 9.52460E-05-2.85809E-05-2.85708E-05 7.05527E-09 9.39241E-19 1.10834E-18
 -1       935 9.52440E-05-2.85793E-05-2.85706E-05 5.72707E-09 3.20208E-18 1.35502E-18
 -1       936 9.52423E-05-2.85778E-05-2.85705E-05 4.55151E-09 2.87366E-18 1.55588E-18
 -1       937 8.70748E-05-2.14860E-05-2.81102E-05 4.96216E-06 1.71588E-19-4.65974E-19
 -1       938 8.46234E-05-2.03005E-05-2.75699E-05 6.16083E-06-5.34441E-19 4.02947E-19
 -1       939 9.05204E-05-2.36651E-05-2.86523E-05 3.33765E-06-1.50734E-19-6.80455E-19
 -1       940 9.17027E-05-2.45879E-05-2.87635E-05 2.72247E-06-7.89478E-19-1.44016E-18
 -1       941 9.26180E-05-2.53840E-05-2.88146E-05 2.19422E-06 2.33883E-19-6.11151E-19
 -1       942 9.33205E-05-2.60559E-05-2.88277E-05 1.74206E-06 6.86092E-19 1.13293E-19
 -1       943 9.38546E-05-2.66127E-05-2.88179E-05 1.35995E-06 3.70364E-19 6.40602E-19
 -1       944 9.42567E-05-2.70668E-05-2.87956E-05 1.04251E-06 1.53936E-19 4.72179E-19
 -1       945 9.45561E-05-2.74319E-05-2.87675E-05 7.83716E-07 4.65857E-19 1.62327E-18
 -1       946 9.47764E-05-2.77214E-05-2.87378E-05 5.76744E-07 4.02185E-19 1.71682E-18
 -1       947 9.49362E-05-2.79479E-05-2.87093E-05 4.14386E-07-4.36539E-19 2.18183E-18
 -1       948 9.50502E-05-2.81227E-05-2.86832E-05 2.89491E-07-1.20999E-18 1.38808E-18
 -1       949 9.51300E-05-2.82558E-05-2.86603E-05 1.95329E-07 1.21009E-19 1.06489E-18
 -1       950 9.51843E-05-2.83556E-05-2.86409E-05 1.25843E-07-9.93797E-19 1.15094E-18
 -1       951 9.52201E-05-2.84292E-05-2.86247E-05 7.57628E-08 5.03396E-19 3.44345E-19
 -1       952 9.52427E-05-2.84824E-05-2.86115E-05 4.06432E-08 9.38737E-19-6.08573E-19
 -1       953 9.52558E-05-2.85200E-05-2.86010E-05 1.68247E-08 1.20679E-18-5.31685E-20
 -1       954 9.52624E-05-2.85459E-05-2.85928E-05 1.36379E-09 2.58052E-19-1.08959E-18
 -1       955 9.52648E-05-2.85631E-05-2.85865E-05-8.05775E-09 9.94469E-19-4.69810E-19
 -1       956 9.52645E-05-2.85740E-05-2.85817E-05-1.32298E-08 5.47208E-20-8.54357E-19
 -1       957 9.52625E-05-2.85803E-05-2.85781E-05-1.55067E-08 6.24423E-19-1.99144E-19
 -1       958 9.52597E-05-2.85835E-05-2.85755E-05-1.58922E-08 1.58436E-19-2.05867E-18
 -1       959 9.52566E-05-2.85847E-05-2.85737E-05-1.51135E-08-2.90156E-19-1.47139E-18
 -1       960 9.52534E-05-2.85845E-05-2.85724E-05-1.36839E-08 5.99579E-19 1.26315E-18
 -1       961 9.52505E-05-2.85835E-05-2.85715E-05-1.19547E-08-1.00417E-19 1.74603E-18
 -1       962 9.52478E-05-2.85822E-05-2.85710E-05-1.01566E-08-1.03850E-19 1.46110E-18
 -1       963 9.52455E-05-2.85806E-05-2.85707E-05-8.43265E-09-5.87371E-19-3.27436E-19
 -1       964 9.52436E-05-2.85791E-05-2.85705E-05-6.86364E-09 9.24917E-20-2.22865E-18
 -1       965 9.52420E-05-2.85777E-05-2.85704E-05-5.50016E-09 2.16640E-19-2.82732E-18
 -1       966 9.52411E-05-2.85768E-05-2.85704E-05-4.54395E-09-3.08983E-19-2.27899E-18
 -1       967 8.15133E-05-1.91585E-05-2.67248E-05 7.88111E-06-6.71369E-19 4.36784E-19
 -1       968 9.52414E-05-2.85769E-05-2.85705E-05-2.32455E-09 9.29757E-19 6.97606E-19
 -1       969 6.56033E-05-1.25750E-05-2.26577E-05 4.37346E-07-3.00152E-19 2.50637E-18
 -1       970 7.71531E-05-1.94986E-05-2.46852E-05-1.22404E-05 1.13486E-18 4.58376E-19
 -1       971 7.71245E-05-1.75053E-05-2.55344E-05 8.75408E-06-9.21763E-19 1.47430E-18
 -1       972 7.26171E-05-1.56863E-05-2.43781E-05-5.44359E-06 1.16487E-20 1.61410E-18
 -1       973 9.52434E-05-2.85786E-05-2.85706E-05 5.11555E-12 8.21083E-19 3.59500E-19
 -1       974 9.52431E-05-2.85784E-05-2.85706E-05 1.96226E-09 5.74431E-19-5.20533E-20
 -1       975 9.52424E-05-2.85778E-05-2.85705E-05-2.90571E-09 1.22106E-18-5.04689E-21
 -1       976 8.86707E-05-2.25146E-05-2.83531E-05 2.03744E-06 3.79790E-19 2.46432E-19
 -1       977 8.83132E-05-2.54205E-05-2.69471E-05-1.13824E-05 1.65874E-18-1.84448E-18
 -1       978 8.83720E-05-2.43252E-05-2.74491E-05-8.38337E-06 1.56784E-18-1.76898E-18
 -1       979 8.90238E-05-2.39798E-05-2.78751E-05-6.18844E-06 2.87250E-19-2.07057E-18
 -1       980 8.98529E-05-2.40665E-05-2.81934E-05-4.58605E-06 8.15899E-20-1.82812E-18
 -1       981 9.07145E-05-2.44012E-05-2.84194E-05-3.40935E-06 1.08028E-19-1.19474E-18
 -1       982 9.15347E-05-2.48668E-05-2.85715E-05-2.53904E-06-7.86840E-20-6.76704E-19
 -1       983 9.22755E-05-2.53851E-05-2.86670E-05-1.89062E-06 7.86433E-19-2.60578E-19
 -1       984 9.29197E-05-2.59039E-05-2.87208E-05-1.40457E-06-7.49611E-20-7.53736E-19
 -1       985 9.34630E-05-2.63909E-05-2.87450E-05-1.03871E-06 1.66217E-20-1.39463E-18
 -1       986 9.39094E-05-2.68274E-05-2.87493E-05-7.62775E-07 2.47547E-19-1.52361E-18
 -1       987 9.42674E-05-2.72051E-05-2.87409E-05-5.54755E-07 1.10130E-18-8.90604E-19
 -1       988 9.45481E-05-2.75226E-05-2.87251E-05-3.98384E-07 2.39995E-19-7.40351E-19
 -1       989 9.47634E-05-2.77829E-05-2.87059E-05-2.81457E-07 5.11109E-19-2.33627E-19
 -1       990 9.49248E-05-2.79915E-05-2.86857E-05-1.94701E-07 3.23088E-19 1.40715E-19
 -1       991 9.50429E-05-2.81552E-05-2.86661E-05-1.30991E-07 3.11373E-19 5.93664E-20
 -1       992 9.51271E-05-2.82811E-05-2.86483E-05-8.48194E-08 2.04002E-19-4.94991E-19
 -1       993 9.51852E-05-2.83759E-05-2.86325E-05-5.19100E-08-4.97489E-19-4.39881E-19
 -1       994 9.52237E-05-2.84458E-05-2.86191E-05-2.89426E-08-2.93548E-19-1.75357E-18
 -1       995 9.52479E-05-2.84961E-05-2.86079E-05-1.33453E-08-7.49286E-19-1.82460E-18
 -1       996 9.52619E-05-2.85313E-05-2.85988E-05-3.13632E-09-1.22701E-18-4.03889E-19
 -1       997 9.52687E-05-2.85551E-05-2.85915E-05 3.20000E-09 1.20404E-19-3.98031E-19
 -1       998 9.52708E-05-2.85705E-05-2.85858E-05 6.81125E-09-4.88287E-19 3.32814E-19
 -1       999 9.52699E-05-2.85798E-05-2.85815E-05 8.55593E-09-1.00914E-18 2.97656E-19
 -1      1000 9.52673E-05-2.85849E-05-2.85782E-05 9.06695E-09-4.32500E-19 1.70167E-19
 -1      1001 9.52637E-05-2.85871E-05-2.85757E-05 8.80281E-09-6.81517E-20-3.89582E-19
 -1      1002 9.52599E-05-2.85873E-05-2.85739E-05 8.08860E-09 2.68080E-19-6.67118E-19
 -1      1003 9.52561E-05-2.85865E-05-2.85727E-05 7.14879E-09 5.31351E-19-1.48670E-18
 -1      1004 9.52525E-05-2.85849E-05-2.85718E-05 6.13290E-09 8.76737E-19-5.91994E-19
 -1      1005 9.52494E-05-2.85831E-05-2.85713E-05 5.14322E-09 1.65053E-18 1.99868E-18
 -1      1006 9.52467E-05-2.85813E-05-2.85709E-05 4.19458E-09 1.65134E-18 1.96729E-18
 -1      1007 9.52444E-05-2.85795E-05-2.85707E-05 3.36624E-09 3.06270E-18 2.14436E-19
 -1      1008 8.66420E-05-2.12701E-05-2.80174E-05 2.29923E-06 5.91375E-19-3.96352E-19
 -1      1009 8.40023E-05-1.98532E-05-2.74939E-05 2.58854E-06 6.79373E-19 2.60817E-19
 -1      1010 9.14726E-05-2.45467E-05-2.86827E-05 1.51498E-06-7.78102E-19-6.08424E-19
 -1      1011 9.24272E-05-2.53526E-05-2.87464E-05 1.26172E-06 1.97827E-19-7.09717E-20
 -1      1012 9.31659E-05-2.60311E-05-2.87721E-05 1.02591E-06 1.72077E-19 6.71791E-19
 -1      1013 9.37331E-05-2.65939E-05-2.87741E-05 8.14679E-07 2.59952E-19 1.05662E-18
 -1      1014 9.41646E-05-2.70538E-05-2.87618E-05 6.31939E-07 2.57035E-19 6.17762E-19
 -1      1015 9.44890E-05-2.74242E-05-2.87421E-05 4.78675E-07 5.81685E-20 1.45648E-18
 -1      1016 9.47297E-05-2.77184E-05-2.87192E-05 3.53667E-07-1.77796E-19 2.06352E-18
 -1      1017 9.49056E-05-2.79486E-05-2.86959E-05 2.54286E-07 1.41676E-19 1.16074E-18
 -1      1018 9.50318E-05-2.81262E-05-2.86738E-05 1.77173E-07-5.40420E-19 6.64225E-19
 -1      1019 9.51204E-05-2.82611E-05-2.86540E-05 1.18753E-07-1.02714E-18 1.12052E-18
 -1      1020 9.51809E-05-2.83619E-05-2.86367E-05 7.55661E-08 1.39337E-19 5.24921E-19
 -1      1021 9.52208E-05-2.84358E-05-2.86222E-05 4.44761E-08 4.39001E-19 1.36626E-18
 -1      1022 9.52458E-05-2.84889E-05-2.86101E-05 2.27618E-08 7.27388E-19 8.05867E-19
 -1      1023 9.52603E-05-2.85261E-05-2.86004E-05 8.14611E-09 1.44873E-18 1.74031E-18
 -1      1024 9.52675E-05-2.85514E-05-2.85926E-05-1.22188E-09 4.47631E-19 1.00109E-18
 -1      1025 9.52699E-05-2.85679E-05-2.85866E-05-6.80862E-09-2.96206E-21 1.20897E-18
 -1      1026 9.52692E-05-2.85780E-05-2.85819E-05-9.74908E-09 2.12658E-19 2.05984E-18
 -1      1027 9.52667E-05-2.85837E-05-2.85785E-05-1.09020E-08 1.75209E-18 2.18026E-18
 -1      1028 9.52634E-05-2.85863E-05-2.85759E-05-1.09024E-08 1.37490E-19 1.17878E-18
 -1      1029 9.52596E-05-2.85869E-05-2.85740E-05-1.02082E-08-9.19417E-19 8.24352E-19
 -1      1030 9.52559E-05-2.85862E-05-2.85727E-05-9.14077E-09-6.46080E-19 1.22592E-18
 -1      1031 9.52525E-05-2.85848E-05-2.85718E-05-7.91763E-09 7.13903E-19 1.63908E-18
 -1      1032 9.52494E-05-2.85831E-05-2.85713E-05-6.68013E-09 8.68298E-19 1.06479E-18
 -1      1033 9.52467E-05-2.85813E-05-2.85709E-05-5.51426E-09 1.21252E-18 5.19557E-19
 -1      1034 9.52445E-05-2.85796E-05-2.85707E-05-4.46868E-09 4.26254E-19 8.41183E-20
 -1      1035 8.04607E-05-1.81912E-05-2.66818E-05 2.98426E-06-4.96992E-19 6.98312E-19
 -1      1036 9.52431E-05-2.85784E-05-2.85706E-05-1.51598E-09 3.64563E-19 1.78307E-18
 -1      1037 9.02455E-05-2.36035E-05-2.85612E-05 1.77631E-06 3.53219E-19 2.67498E-19
 -1      1038 7.29473E-05-1.51715E-05-2.47414E-05 2.28049E-06-5.29653E-19 1.45612E-18
 -1      1039 9.52434E-05-2.85787E-05-2.85706E-05-3.62841E-09-1.44514E-19 1.21959E-18
 -1      1040 9.52451E-05-2.85800E-05-2.85708E-05-1.07930E-09 1.13959E-18 2.27094E-18
 -1      1041 8.16496E-05-2.04015E-05-2.62531E-05-8.15273E-06 1.37867E-18-9.69936E-19
 -1      1042 9.52451E-05-2.85800E-05-2.85708E-05 1.17608E-09 2.21944E-18 4.53474E-19
 -1      1043 7.72125E-05-1.68552E-05-2.58520E-05 2.73038E-06-3.20253E-19 1.00435E-18
 -1      1044 8.41827E-05-2.10086E-05-2.70748E-05-5.55848E-06 1.11900E-18-1.18776E-18
 -1      1045 8.63047E-05-2.17629E-05-2.76605E-05-3.77427E-06 3.84264E-19-1.10888E-18
 -1      1046 8.80695E-05-2.25789E-05-2.80668E-05-2.55676E-06 6.74924E-19-9.51738E-19
 -1      1047 8.95386E-05-2.34040E-05-2.83429E-05-1.72639E-06 4.72220E-19-9.74721E-19
 -1      1048 9.07576E-05-2.42009E-05-2.85239E-05-1.16093E-06 3.05079E-19-9.41855E-19
 -1      1049 9.17623E-05-2.49432E-05-2.86365E-05-7.77253E-07-3.72779E-19-1.41739E-18
 -1      1050 9.25818E-05-2.56133E-05-2.87006E-05-5.18115E-07-6.43817E-19-1.77427E-18
 -1      1051 9.32419E-05-2.62018E-05-2.87313E-05-3.43924E-07-4.98850E-19-1.65483E-18
 -1      1052 9.37659E-05-2.67061E-05-2.87398E-05-2.27326E-07 4.47129E-19-1.43075E-18
 -1      1053 9.41755E-05-2.71287E-05-2.87343E-05-1.49531E-07 2.23618E-19-2.63062E-18
 -1      1054 9.44905E-05-2.74757E-05-2.87206E-05-9.77396E-08 3.73284E-19-3.11003E-18
 -1      1055 9.47283E-05-2.77550E-05-2.87028E-05-6.33049E-08 2.10607E-19-3.05082E-18
 -1      1056 9.49044E-05-2.79758E-05-2.86837E-05-4.04322E-08 1.69441E-19-2.88597E-18
 -1      1057 9.50321E-05-2.81472E-05-2.86649E-05-2.52608E-08 1.52729E-19-2.76113E-18
 -1      1058 9.51223E-05-2.82778E-05-2.86476E-05-1.52284E-08 2.54647E-19-1.80963E-18
 -1      1059 9.51841E-05-2.83754E-05-2.86323E-05-8.63520E-09-7.38990E-19-1.71592E-18
 -1      1060 9.52248E-05-2.84469E-05-2.86191E-05-4.35159E-09-7.43633E-19-1.64751E-18
 -1      1061 9.52502E-05-2.84979E-05-2.86081E-05-1.62277E-09-1.80758E-19-1.12252E-18
 -1      1062 9.52647E-05-2.85334E-05-2.85991E-05 5.91594E-11-1.53671E-19 9.66818E-20
 -1      1063 9.52716E-05-2.85573E-05-2.85919E-05 1.03879E-09 7.32933E-19 3.62592E-19
 -1      1064 9.52736E-05-2.85725E-05-2.85862E-05 1.55179E-09-4.01677E-19 7.46405E-19
 -1      1065 9.52725E-05-2.85816E-05-2.85818E-05 1.76034E-09 4.88554E-19 1.39607E-18
 -1      1066 9.52695E-05-2.85864E-05-2.85785E-05 1.77628E-09-9.01882E-20 1.89954E-18
 -1      1067 9.52656E-05-2.85884E-05-2.85760E-05 1.67656E-09-5.56631E-19 2.80128E-18
 -1      1068 9.52615E-05-2.85884E-05-2.85742E-05 1.51370E-09-9.94717E-19 2.78780E-18
 -1      1069 9.52574E-05-2.85873E-05-2.85729E-05 1.32302E-09 4.28876E-19 2.55647E-18
 -1      1070 9.52536E-05-2.85856E-05-2.85720E-05 1.12802E-09 1.74406E-18 1.89047E-18
 -1      1071 9.52502E-05-2.85836E-05-2.85714E-05 9.27338E-10 1.19212E-18 1.28902E-18
 -1      1072 8.73070E-05-2.18078E-05-2.80720E-05 5.24141E-08 5.24692E-19-1.96961E-19
 -1      1073 8.49911E-05-2.05361E-05-2.76247E-05-3.90913E-07 5.38409E-19-3.55345E-19
 -1      1074 9.32504E-05-2.61769E-05-2.87459E-05 3.88311E-07-3.71284E-19 2.48754E-19
 -1      1075 9.25544E-05-2.55418E-05-2.87198E-05 4.37598E-07-1.13557E-19-7.10138E-20
 -1      1076 9.16657E-05-2.47931E-05-2.86599E-05 4.57903E-07-3.01070E-19-6.63287E-19
 -1      1077 9.37905E-05-2.67070E-05-2.87501E-05 3.26723E-07-7.63319E-20 7.76599E-19
 -1      1078 9.42046E-05-2.71421E-05-2.87411E-05 2.63495E-07-4.47039E-19 2.09664E-18
 -1      1079 9.45181E-05-2.74937E-05-2.87247E-05 2.04841E-07-1.03972E-19 1.59873E-18
 -1      1080 9.47517E-05-2.77733E-05-2.87050E-05 1.53864E-07-8.93105E-20 1.30602E-18
 -1      1081 9.49228E-05-2.79921E-05-2.86846E-05 1.11630E-07 4.46710E-19 1.37081E-18
 -1      1082 9.50456E-05-2.81606E-05-2.86650E-05 7.79661E-08-3.56610E-19 1.77855E-19
 -1      1083 9.51316E-05-2.82882E-05-2.86472E-05 5.20253E-08-2.29482E-19-1.15382E-18
 -1      1084 9.51901E-05-2.83830E-05-2.86316E-05 3.26631E-08-2.60854E-19-2.00464E-19
 -1      1085 9.52283E-05-2.84522E-05-2.86183E-05 1.86720E-08 4.90040E-19 7.98323E-19
 -1      1086 9.52519E-05-2.85014E-05-2.86073E-05 8.91601E-09 5.82144E-19 1.29774E-18
 -1      1087 9.52651E-05-2.85356E-05-2.85983E-05 2.39754E-09 7.42812E-19 2.01236E-18
 -1      1088 9.52713E-05-2.85584E-05-2.85912E-05-1.71790E-09-2.48886E-19 1.94420E-18
 -1      1089 9.52728E-05-2.85730E-05-2.85856E-05-4.10298E-09-7.60535E-19 1.14421E-18
 -1      1090 9.52714E-05-2.85817E-05-2.85813E-05-5.28320E-09 1.09793E-18 2.16446E-18
 -1      1091 9.52684E-05-2.85862E-05-2.85781E-05-5.65766E-09 8.61341E-19 2.89985E-18
 -1      1092 9.52646E-05-2.85880E-05-2.85757E-05-5.52133E-09-8.01696E-19 1.94778E-18
 -1      1093 9.52605E-05-2.85879E-05-2.85739E-05-5.08616E-09-5.10569E-19 3.12473E-18
 -1      1094 9.52565E-05-2.85868E-05-2.85727E-05-4.49995E-09 2.08945E-19 2.99129E-18
 -1      1095 9.52528E-05-2.85852E-05-2.85719E-05-3.86351E-09 6.47071E-19 2.83758E-18
 -1      1096 9.52496E-05-2.85832E-05-2.85713E-05-3.23797E-09 1.73785E-18 2.81891E-18
 -1      1097 9.52468E-05-2.85813E-05-2.85709E-05-2.66826E-09 1.32689E-18 2.91600E-18
 -1      1098 7.82613E-05-1.75358E-05-2.60350E-05-2.33554E-06 5.26983E-19 3.73081E-19
 -1      1099 9.52444E-05-2.85794E-05-2.85707E-05-2.43568E-09 3.01584E-19 7.94336E-19
 -1      1100 9.05388E-05-2.39247E-05-2.85493E-05 4.24850E-07 1.76573E-19-4.47332E-19
 -1      1101 8.19487E-05-1.90697E-05-2.69486E-05-1.10096E-06 5.01219E-19-9.04256E-19
 -1      1102 8.91139E-05-2.29318E-05-2.83643E-05 3.04675E-07 4.97439E-19-6.19621E-19
 -1      1103 9.52473E-05-2.85816E-05-2.85710E-05 2.62231E-10 1.89219E-18 2.37076E-18
 -1      1104 1.37015E-04 2.99804E-10-4.94688E-05-5.15507E-05-7.22519E-19 1.72157E-17
 -1      1105 1.03178E-04 7.45346E-11-4.35402E-05-3.15021E-05-3.09591E-19-2.17343E-19
 -1      1106 9.83956E-05 5.61219E-11-4.17605E-05-2.41866E-05-1.91377E-19-6.72506E-18
 -1      1107 9.67382E-05 6.13651E-11-4.07661E-05-1.72231E-05-7.03037E-20-9.07681E-18
 -1      1108 9.41494E-05 7.43144E-11-3.93282E-05-8.77286E-06 9.63500E-21-9.52061E-18
 -1      1109 8.79219E-05 8.44226E-11-3.64565E-05 1.36935E-06 8.87267E-20-9.06507E-18
 -1      1110 7.59750E-05 7.50441E-11-3.15436E-05 1.15793E-05 1.45690E-19-8.40457E-18
 -1      1111 5.86536E-05 3.00717E-11-2.49043E-05 1.81277E-05 1.60936E-19-7.78484E-18
 -1      1112 4.15030E-05-3.33279E-11-1.86833E-05 1.73293E-05 1.21126E-19-7.37439E-18
 -1      1113 3.19090E-05-8.03680E-11-1.52846E-05 9.07443E-06 6.37392E-20-7.31691E-18
 -1      1114 3.41756E-05-7.44167E-11-1.61271E-05-1.19628E-06-2.47757E-20-7.42387E-18
 -1      1115 4.71956E-05-2.11954E-11-2.08675E-05-7.59486E-06-4.57398E-20-7.44369E-18
 -1      1116 6.67723E-05 4.72523E-11-2.82778E-05-6.69408E-06-3.43048E-20-6.90913E-18
 -1      1117 8.69202E-05 8.83142E-11-3.62778E-05 1.41472E-06 1.77877E-20-5.30899E-18
 -1      1118 1.03751E-04 9.98390E-11-4.33981E-05 1.29601E-05 1.27902E-19-1.85916E-18
 -1      1119 1.19825E-04 1.18279E-10-5.00917E-05 2.58625E-05 2.42675E-19 5.01510E-18
 -1      1120 1.52704E-04 2.47825E-10-5.79586E-05 4.60992E-05 7.05578E-19 2.03476E-17
 -1      1121 1.56506E-04-2.99803E-05-4.76597E-05-3.24958E-05-2.88669E-18 2.91617E-17
 -1      1122 1.10713E-04-3.29604E-05-3.61734E-05-1.97614E-07-9.29142E-19 2.26558E-17
 -1      1123 9.82823E-05-2.94553E-05-3.04849E-05 2.47842E-07-3.33255E-19 1.40548E-17
 -1      1124 9.13109E-05-2.75327E-05-2.76786E-05 3.63035E-08-1.20378E-19 8.87281E-18
 -1      1125 8.70151E-05-2.62574E-05-2.63204E-05 2.62897E-08-1.37266E-19 5.31160E-18
 -1      1126 8.55583E-05-2.57999E-05-2.59070E-05 1.35552E-07-8.48555E-20 2.73488E-18
 -1      1127 8.69993E-05-2.61935E-05-2.62963E-05 2.71427E-07-1.24368E-19 4.18223E-19
 -1      1128 9.06989E-05-2.72547E-05-2.72967E-05 3.52982E-07-6.11237E-20-8.29033E-19
 -1      1129 9.54278E-05-2.86284E-05-2.85946E-05 3.46520E-07-2.40226E-20-2.08222E-18
 -1      1130 9.98926E-05-2.99381E-05-2.98510E-05 2.70248E-07-5.44020E-20-3.41317E-18
 -1      1131 1.03206E-04-3.09200E-05-3.08165E-05 1.66595E-07-7.87294E-20-4.76218E-18
 -1      1132 1.05043E-04-3.14727E-05-3.13824E-05 7.22931E-08 1.17486E-19-4.91765E-18
 -1      1133 1.05529E-04-3.16273E-05-3.15641E-05 5.28504E-09-8.08602E-20-5.84280E-18
 -1      1134 1.05015E-04-3.14842E-05-3.14487E-05-3.26703E-08 2.38038E-20-6.48168E-18
 -1      1135 1.03895E-04-3.11586E-05-3.11445E-05-4.80629E-08 7.91831E-20-5.74609E-18
 -1      1136 1.02502E-04-3.07488E-05-3.07484E-05-4.91966E-08-1.44078E-19-5.38066E-18
 -1      1137 1.01071E-04-3.03252E-05-3.03318E-05-4.29618E-08-8.17035E-20-6.05429E-18
 -1      1138 9.97462E-05-2.99310E-05-2.99403E-05-3.39838E-08 9.62340E-20-6.33158E-18
 -1      1139 9.85995E-05-2.95884E-05-2.95979E-05-2.49073E-08 2.15598E-19-5.58760E-18
 -1      1140 9.76547E-05-2.93053E-05-2.93135E-05-1.69974E-08-1.59420E-19-5.38501E-18
 -1      1141 9.69066E-05-2.90803E-05-2.90869E-05-1.06872E-08-3.86002E-19-7.95623E-18
 -1      1142 9.63342E-05-2.89076E-05-2.89126E-05-5.96797E-09-8.32319E-20-7.88853E-18
 -1      1143 9.59102E-05-2.87793E-05-2.87829E-05-2.63115E-09 2.24492E-19-6.41831E-18
 -1      1144 9.56065E-05-2.86870E-05-2.86895E-05-4.04489E-10-4.30135E-19-6.77886E-18
 -1      1145 9.53970E-05-2.86231E-05-2.86247E-05 9.79122E-10-1.98467E-19-8.84828E-18
 -1      1146 9.52589E-05-2.85808E-05-2.85817E-05 1.75161E-09-1.04086E-19-7.69740E-18
 -1      1147 9.51735E-05-2.85544E-05-2.85548E-05 2.10054E-09 1.73068E-19-5.67275E-18
 -1      1148 9.51257E-05-2.85394E-05-2.85396E-05 2.17026E-09 5.37812E-20-5.80642E-18
 -1      1149 9.51038E-05-2.85324E-05-2.85323E-05 2.06750E-09-9.98490E-21-6.83590E-18
 -1      1150 9.50992E-05-2.85306E-05-2.85304E-05 1.86832E-09 1.92714E-19-7.18680E-18
 -1      1151 9.51052E-05-2.85321E-05-2.85319E-05 1.62487E-09 4.47439E-20-5.69545E-18
 -1      1152 9.51173E-05-2.85356E-05-2.85353E-05 1.37131E-09-1.64384E-19-6.22029E-18
 -1      1153 9.51324E-05-2.85399E-05-2.85397E-05 1.12869E-09-1.64433E-19-8.40111E-18
 -1      1154 9.51482E-05-2.85445E-05-2.85443E-05 9.08826E-10-4.44003E-19-8.35170E-18
 -1      1155 9.51634E-05-2.85491E-05-2.85489E-05 7.17218E-10 8.66381E-20-7.26807E-18
 -1      1156 9.51774E-05-2.85532E-05-2.85530E-05 5.55251E-10 4.42259E-19-8.55737E-18
 -1      1157 9.51897E-05-2.85569E-05-2.85567E-05 4.21774E-10 3.13835E-19-8.76802E-18
 -1      1158 9.52001E-05-2.85600E-05-2.85599E-05 3.14210E-10 2.71336E-19-8.30859E-18
 -1      1159 9.52088E-05-2.85626E-05-2.85625E-05 2.29311E-10 1.75165E-19-5.34518E-18
 -1      1160 9.52160E-05-2.85647E-05-2.85647E-05 1.63646E-10-2.99304E-19-5.03675E-18
 -1      1161 9.52216E-05-2.85664E-05-2.85664E-05 1.13902E-10-1.12840E-19-5.24703E-18
 -1      1162 9.52261E-05-2.85678E-05-2.85677E-05 7.70467E-11 2.05793E-19-2.97123E-18
 -1      1163 9.52296E-05-2.85688E-05-2.85688E-05 5.03812E-11-4.07821E-19-3.99064E-18
 -1      1164 9.52322E-05-2.85696E-05-2.85696E-05 3.15175E-11-7.46668E-20-3.65508E-18
 -1      1165 9.52342E-05-2.85702E-05-2.85702E-05 1.82580E-11 1.20554E-19-5.06502E-18
 -1      1166 9.52356E-05-2.85706E-05-2.85706E-05 8.33530E-12 3.72658E-20-4.51577E-18
 -1      1167 9.52365E-05-2.85709E-05-2.85709E-05-1.04878E-12 3.52800E-19-1.66102E-18
 -1      1168 9.52371E-05-2.85711E-05-2.85711E-05-1.38410E-11 1.85436E-19 2.00834E-18
 -1      1169 9.52373E-05-2.85712E-05-2.85712E-05-3.73523E-11 1.07802E-19 1.62511E-18
 -1      1170 9.52372E-05-2.85712E-05-2.85712E-05-2.49594E-11 7.30494E-19 2.66801E-18
 -1      1171 1.93037E-04-5.53744E-05-5.66913E-05 1.62936E-05-2.50510E-19 3.37301E-17
 -1      1172 1.47653E-04-4.32064E-05-4.67128E-05 6.59602E-07 2.42993E-19 2.75745E-17
 -1      1173 1.32302E-04-3.95183E-05-4.00303E-05 3.51100E-07 1.41117E-19 2.21585E-17
 -1      1174 1.16270E-04-3.50590E-05-3.49679E-05 8.33051E-07-8.87730E-21 1.83557E-17
 -1      1175 1.01482E-04-3.06512E-05-3.10569E-05 1.04160E-06 1.05879E-22 1.52046E-17
 -1      1176 9.35542E-05-2.80894E-05-2.90707E-05 6.55448E-07-9.06590E-21 1.16777E-17
 -1      1177 9.55596E-05-2.85228E-05-2.94728E-05-9.84554E-08 1.61439E-19 7.83664E-18
 -1      1178 1.04743E-04-3.12867E-05-3.16254E-05-6.79932E-07 1.38109E-19 4.51522E-18
 -1      1179 1.15018E-04-3.44736E-05-3.42085E-05-8.01333E-07 2.17618E-19 3.06689E-18
 -1      1180 1.21746E-04-3.65669E-05-3.60659E-05-5.81863E-07 1.66217E-19 2.10514E-18
 -1      1181 1.23678E-04-3.71619E-05-3.67318E-05-2.77637E-07-4.69475E-20 1.68144E-18
 -1      1182 1.21906E-04-3.66136E-05-3.63642E-05-4.51233E-08 2.17949E-19 1.48403E-18
 -1      1183 1.18154E-04-3.54673E-05-3.53747E-05 8.15268E-08 8.58779E-20-6.99490E-19
 -1      1184 1.13803E-04-3.41492E-05-3.41498E-05 1.28268E-07 3.62497E-19-1.38927E-18
 -1      1185 1.09665E-04-3.29025E-05-3.29440E-05 1.30383E-07 2.25746E-20-1.79931E-18
 -1      1186 1.06105E-04-3.18332E-05-3.18851E-05 1.13121E-07-8.41086E-20-1.48165E-18
 -1      1187 1.03217E-04-3.09671E-05-3.10154E-05 9.05111E-08-2.35125E-19 2.41788E-19
 -1      1188 1.00962E-04-3.02912E-05-3.03311E-05 6.90280E-08 4.49568E-19-1.11345E-18
 -1      1189 9.92484E-05-2.97774E-05-2.98085E-05 5.10027E-08 1.94610E-19-3.84382E-18
 -1      1190 9.79734E-05-2.93950E-05-2.94183E-05 3.68042E-08 7.54141E-21-4.11273E-18
 -1      1191 9.70424E-05-2.91155E-05-2.91326E-05 2.60197E-08-1.04125E-19-2.27198E-18
 -1      1192 9.63750E-05-2.89150E-05-2.89274E-05 1.80163E-08-7.14477E-21-2.58018E-18
 -1      1193 9.59062E-05-2.87740E-05-2.87828E-05 1.21764E-08-1.67707E-19-3.14920E-18
 -1      1194 9.55849E-05-2.86773E-05-2.86835E-05 7.97642E-09 4.62516E-20-3.29025E-18
 -1      1195 9.53714E-05-2.86129E-05-2.86171E-05 5.00014E-09-2.51655E-19-2.47822E-18
 -1      1196 9.52355E-05-2.85718E-05-2.85747E-05 2.92694E-09 1.62635E-19-3.21580E-18
 -1      1197 9.51544E-05-2.85472E-05-2.85491E-05 1.51380E-09 4.87910E-20-2.54658E-18
 -1      1198 9.51113E-05-2.85341E-05-2.85352E-05 5.78213E-10 1.23392E-19-2.62192E-18
 -1      1199 9.50934E-05-2.85286E-05-2.85292E-05-1.60785E-11 1.29011E-19-5.21204E-18
 -1      1200 9.50920E-05-2.85280E-05-2.85283E-05-3.70263E-10 6.88836E-19-8.50979E-18
 -1      1201 9.51004E-05-2.85304E-05-2.85305E-05-5.58986E-10-3.47494E-19-4.95467E-18
 -1      1202 9.51142E-05-2.85345E-05-2.85344E-05-6.36831E-10-4.40617E-21-3.87274E-18
 -1      1203 9.51304E-05-2.85393E-05-2.85391E-05-6.43248E-10 5.79654E-19-7.00467E-18
 -1      1204 9.51469E-05-2.85442E-05-2.85440E-05-6.06307E-10 1.23428E-19-7.58303E-18
 -1      1205 9.51627E-05-2.85489E-05-2.85487E-05-5.45577E-10-3.02910E-19-4.95326E-18
 -1      1206 9.51770E-05-2.85531E-05-2.85529E-05-4.74332E-10 1.61455E-19-6.08225E-18
 -1      1207 9.51894E-05-2.85568E-05-2.85567E-05-4.01248E-10-2.82758E-20-8.01553E-18
 -1      1208 9.52000E-05-2.85600E-05-2.85599E-05-3.31694E-10 2.51180E-19-9.99047E-18
 -1      1209 9.52088E-05-2.85626E-05-2.85625E-05-2.68714E-10 2.91242E-19-1.15520E-17
 -1      1210 9.52159E-05-2.85648E-05-2.85647E-05-2.13762E-10 1.99299E-19-9.78037E-18
 -1      1211 9.52216E-05-2.85665E-05-2.85664E-05-1.67250E-10-2.97072E-20-7.84610E-18
 -1      1212 9.52261E-05-2.85678E-05-2.85678E-05-1.28944E-10 5.85352E-19-9.99601E-18
 -1      1213 9.52296E-05-2.85689E-05-2.85688E-05-9.82412E-11 1.27403E-19-1.08135E-17
 -1      1214 9.52322E-05-2.85697E-05-2.85696E-05-7.43455E-11-2.43066E-19-6.34212E-18
 -1      1215 9.52342E-05-2.85702E-05-2.85702E-05-5.63040E-11 1.52506E-19-2.50379E-18
 -1      1216 9.52356E-05-2.85707E-05-2.85706E-05-4.28703E-11-2.40341E-19-1.58698E-18
 -1      1217 9.52365E-05-2.85710E-05-2.85709E-05-3.20775E-11-6.58563E-20 2.92395E-19
 -1      1218 9.52371E-05-2.85711E-05-2.85711E-05-1.89901E-11 5.06033E-19-2.43020E-18
 -1      1219 9.52373E-05-2.85712E-05-2.85712E-05 6.69776E-12 5.74950E-19-4.54747E-18
 -1      1220 9.52372E-05-2.85712E-05-2.85712E-05 2.33701E-11-4.91751E-20-5.54888E-18
 -1      1221 9.52371E-05-2.85711E-05-2.85712E-05 2.37532E-11-4.33883E-18-1.28898E-18
 -1      1222 9.52371E-05-2.85710E-05-2.85712E-05 3.13153E-11 1.78989E-19 1.03351E-18
 -1      1223 9.52372E-05-2.85712E-05-2.85711E-05-1.72198E-12 8.37398E-18-6.83907E-21
 -1      1224 9.52373E-05-2.85718E-05-2.85709E-05-2.18224E-11 6.13105E-18 2.92674E-19
 -1      1225 9.52375E-05-2.85725E-05-2.85707E-05-3.07408E-11 4.76714E-18-1.92620E-19
 -1      1226 9.52378E-05-2.85733E-05-2.85705E-05-3.06463E-11-3.32887E-18-1.03084E-18
 -1      1227 9.52380E-05-2.85739E-05-2.85703E-05-2.44379E-11-8.47968E-18 1.23053E-18
 -1      1228 9.52381E-05-2.85744E-05-2.85702E-05-1.33082E-11-8.31224E-18 2.76133E-20
 -1      1229 9.52381E-05-2.85745E-05-2.85702E-05 9.54789E-14-6.61901E-18 8.37902E-19
 -1      1230 9.52381E-05-2.85744E-05-2.85702E-05 1.34904E-11-5.74413E-18 2.23532E-19
 -1      1231 9.52380E-05-2.85739E-05-2.85703E-05 2.45348E-11-8.84991E-18-1.53962E-18
 -1      1232 9.52378E-05-2.85732E-05-2.85705E-05 3.10545E-11-1.19244E-17 7.22225E-19
 -1      1233 9.52375E-05-2.85725E-05-2.85707E-05 3.06796E-11-1.39023E-17 2.30026E-19
 -1      1234 9.52373E-05-2.85718E-05-2.85709E-05 2.19785E-11-1.17076E-17 3.63688E-19
 -1      1235 9.52372E-05-2.85712E-05-2.85711E-05 2.43577E-12-6.44089E-18 5.35839E-19
 -1      1236 9.52371E-05-2.85710E-05-2.85712E-05-5.18729E-11-4.50595E-18-7.42547E-19
 -1      1237 9.52371E-05-2.85711E-05-2.85712E-05-2.89100E-11-2.15977E-18 7.54783E-19
 -1      1238 2.83676E-05-8.55225E-05 1.18842E-05-1.10725E-05 1.48650E-17 3.04884E-18
 -1      1239 1.34994E-05-4.58381E-05 3.58178E-06-1.60968E-05 3.03594E-17 1.23061E-17
 -1      1240 9.08638E-06 4.16743E-06-1.18825E-05 1.22153E-05 3.77031E-17 2.41946E-17
 -1      1241 4.09387E-05 3.03290E-05-3.06568E-05 6.44278E-05 3.49266E-17 3.30732E-17
 -1      1242 1.21274E-04 1.16954E-05-5.05769E-05 1.08910E-04 2.25362E-17 3.24414E-17
 -1      1243 2.22160E-04-3.86495E-05-6.66352E-05 1.11040E-04 9.58206E-18 2.16120E-17
 -1      1244 2.92380E-04-8.25573E-05-7.46923E-05 5.96788E-05 1.85955E-18 3.02687E-18
 -1      1245 2.93452E-04-8.67963E-05-7.40618E-05-1.83111E-05 2.58125E-18-1.88367E-17
 -1      1246 2.30488E-04-5.49179E-05-6.45358E-05-7.87036E-05 1.15088E-17-3.74380E-17
 -1      1247 1.31074E-04-8.24025E-06-4.87949E-05-8.80439E-05 2.52001E-17-4.62328E-17
 -1      1248 4.97612E-05 1.61800E-05-3.08179E-05-5.59593E-05 3.68154E-17-4.36493E-17
 -1      1249 1.04543E-05 8.00800E-06-1.47901E-05-1.40845E-05 4.12200E-17-3.25261E-17
 -1      1250 5.20985E-06-1.73860E-05-3.24851E-06 1.01090E-05 3.60870E-17-1.84935E-17
 -1      1251 1.09815E-05-3.65284E-05 3.17079E-06 1.15065E-05 2.18763E-17-7.07458E-18
 -1      1252 1.44877E-05-4.16736E-05 4.63158E-06 1.91006E-06 3.00368E-18-1.68636E-18
 -1      1253 9.11336E-06-2.68707E-05 1.15249E-06-5.70643E-06-1.68627E-17-5.41873E-18
 -1      1254 3.83879E-06-1.50266E-06-7.13997E-06 2.41106E-06-3.20577E-17-1.60767E-17
 -1      1255 1.22199E-05 2.06553E-05-1.87449E-05 2.79786E-05-3.83486E-17-2.88101E-17
 -1      1256 4.73522E-05 2.54303E-05-3.25444E-05 6.44702E-05-3.51104E-17-3.87391E-17
 -1      1257 1.16603E-04 1.93508E-06-4.76307E-05 9.25657E-05-2.50679E-17-4.16020E-17
 -1      1258 2.04922E-04-4.25107E-05-6.12847E-05 8.61239E-05-1.23362E-17-3.41591E-17
 -1      1259 2.69437E-04-7.80268E-05-7.00480E-05 3.52543E-05-3.02669E-18-1.76916E-17
 -1      1260 2.79988E-04-8.20883E-05-7.16213E-05-3.95900E-05-1.43395E-18 2.51463E-18
 -1      1261 2.19115E-04-4.23252E-05-6.45594E-05-9.90559E-05-8.37419E-18 2.10140E-17
 -1      1262 1.23854E-04 8.25277E-06-4.98887E-05-1.08077E-04-1.97469E-17 3.02475E-17
 -1      1263 4.44245E-05 3.11492E-05-3.14972E-05-6.87132E-05-2.93158E-17 2.95420E-17
 -1      1264 9.32354E-06 9.72722E-06-1.29817E-05-1.64272E-05-3.25040E-17 2.12216E-17
 -1      1265 1.22233E-05-4.02602E-05 2.52003E-06 1.45110E-05-2.21855E-17 9.85989E-18
 -1      1266 2.72345E-05-8.27293E-05 1.15394E-05 1.09425E-05-2.84688E-18 1.65883E-18
 -1      1267 1.21477E-04-2.55314E-05-4.44498E-05-2.19878E-05-1.38130E-18 1.35563E-17
 -1      1268 1.04538E-04-7.12559E-06-4.20399E-05-2.82924E-05-2.33347E-18-3.45642E-18
 -1      1269 1.09495E-04-8.44515E-06-4.32609E-05-3.19953E-05-2.00789E-18 1.63954E-18
 -1      1270 1.01370E-04-5.63497E-06-4.10028E-05-2.27383E-05-1.82927E-18-7.84252E-18
 -1      1271 1.02160E-04-5.43272E-06-4.15395E-05-2.60692E-05-2.31769E-18-6.07132E-18
 -1      1272 1.07612E-04-1.25316E-05-4.09099E-05-2.70755E-05-3.90752E-18-2.66709E-18
 -1      1273 1.00563E-04-6.23687E-06-4.02016E-05-1.61908E-05-8.18763E-19-9.30593E-18
 -1      1274 1.01021E-04-6.02244E-06-4.06767E-05-1.97350E-05-1.26113E-18-8.77701E-18
 -1      1275 1.05153E-04-1.13477E-05-4.02656E-05-2.18413E-05-2.59126E-18-6.09440E-18
 -1      1276 9.85380E-05-7.58707E-06-3.85992E-05-7.85474E-06 3.41354E-19-9.26643E-18
 -1      1277 1.00105E-04-7.38516E-06-3.95748E-05-1.22425E-05-4.64280E-20-9.44638E-18
 -1      1278 1.04740E-04-1.27475E-05-3.94127E-05-1.53351E-05-8.23774E-19-7.15573E-18
 -1      1279 9.20633E-05-8.60617E-06-3.53526E-05 2.12371E-06 1.66611E-18-8.56610E-18
 -1      1280 9.62101E-05-8.54257E-06-3.72447E-05-2.82341E-06 1.26896E-18-9.00753E-18
 -1      1281 1.02465E-04-1.48168E-05-3.75051E-05-7.07232E-06 1.17659E-18-6.91317E-18
 -1      1282 7.78482E-05-7.54634E-06-2.99271E-05 1.22559E-05 2.90511E-18-7.93114E-18
 -1      1283 8.58419E-05-7.82199E-06-3.29298E-05 7.79823E-06 2.60971E-18-8.39518E-18
 -1      1284 9.40674E-05-1.51726E-05-3.37779E-05 3.08978E-06 3.35520E-18-6.41506E-18
 -1      1285 5.56541E-05-2.68624E-06-2.29139E-05 1.83045E-05 3.51900E-18-7.65890E-18
 -1      1286 6.66447E-05-3.46600E-06-2.65242E-05 1.65354E-05 3.45060E-18-8.03985E-18
 -1      1287 7.57726E-05-1.06829E-05-2.79087E-05 1.32696E-05 5.05388E-18-6.31378E-18
 -1      1288 3.49149E-05 3.84574E-06-1.71418E-05 1.64318E-05 3.02687E-18-7.87637E-18
 -1      1289 4.37576E-05 3.13874E-06-1.97830E-05 1.82390E-05 3.25197E-18-8.05977E-18
 -1      1290 5.03497E-05-9.65650E-07-2.11923E-05 1.84150E-05 5.38649E-18-6.92603E-18
 -1      1291 2.37900E-05 8.47964E-06-1.43721E-05 6.85396E-06 1.29128E-18-8.26304E-18
 -1      1292 2.65918E-05 8.30766E-06-1.51230E-05 1.16344E-05 1.86252E-18-8.27948E-18
 -1      1293 2.76899E-05 9.28656E-06-1.58065E-05 1.46342E-05 3.91207E-18-7.98366E-18
 -1      1294 2.98452E-05 7.57629E-06-1.61879E-05-2.93607E-06-4.33681E-19-8.38507E-18
 -1      1295 2.51749E-05 7.99736E-06-1.47126E-05 9.13126E-07-4.66927E-20-8.31146E-18
 -1      1296 1.97030E-05 1.31290E-05-1.40439E-05 4.63631E-06 1.13443E-18-8.47880E-18
 -1      1297 4.98842E-05 1.90524E-06-2.18835E-05-7.83332E-06-1.48358E-18-7.92942E-18
 -1      1298 3.96549E-05 2.64279E-06-1.86374E-05-6.66382E-06-1.41349E-18-7.95306E-18
 -1      1299 3.16796E-05 7.71102E-06-1.68087E-05-4.84723E-06-1.25604E-18-7.95512E-18
 -1      1300 7.64569E-05-5.13589E-06-3.00337E-05-4.03072E-06-1.31587E-18-6.70461E-18
 -1      1301 6.44011E-05-4.47100E-06-2.58573E-05-6.83929E-06-1.60513E-18-7.15478E-18
 -1      1302 5.81937E-05-3.72455E-06-2.33898E-05-6.92640E-06-2.37328E-18-6.42824E-18
 -1      1303 9.83145E-05-9.03323E-06-3.78602E-05 6.27868E-06-1.46113E-19-4.60468E-18
 -1      1304 8.87806E-05-8.86211E-06-3.40518E-05 1.04742E-06-6.15581E-19-5.65252E-18
 -1      1305 8.72598E-05-1.38728E-05-3.15416E-05 3.64763E-07-1.56331E-18-4.35438E-18
 -1      1306 1.14199E-04-9.88987E-06-4.45436E-05 1.83652E-05 1.22735E-18-7.96793E-19
 -1      1307 1.06891E-04-1.00805E-05-4.12386E-05 1.24095E-05 6.53909E-19-3.00586E-18
 -1      1308 1.08980E-04-1.84139E-05-3.88949E-05 1.20741E-05 3.54960E-19-1.71900E-18
 -1      1309 1.30524E-04-1.19305E-05-5.07745E-05 3.04792E-05 1.72710E-18 6.69812E-18
 -1      1310 1.22091E-04-1.15454E-05-4.73629E-05 2.33713E-05 1.50137E-18 2.14760E-18
 -1      1311 1.25179E-04-2.06901E-05-4.48550E-05 2.30322E-05 2.12012E-18 2.64613E-18
 -1      1312 1.78911E-04-3.68151E-05-5.61194E-05 3.80969E-05 1.16742E-18 2.19411E-17
 -1      1313 1.42593E-04-2.19999E-05-5.24936E-05 3.00957E-05 9.30889E-19 1.12520E-17
 -1      1314 1.44229E-04-3.04193E-05-4.88464E-05 2.79889E-05 3.13161E-18 9.61128E-18
 -1      1315 1.52354E-04-4.23435E-05-5.05545E-05 9.40000E-06 2.20144E-18 2.13905E-17
 -1      1316 1.21569E-04-3.45771E-05-3.87780E-05-1.09351E-05-2.95456E-18 1.56271E-17
 -1      1317 1.11985E-04-3.17578E-05-3.50057E-05-8.33729E-06-2.52940E-18 1.19788E-17
 -1      1318 1.07024E-04-3.12266E-05-3.27593E-05-5.21647E-06-2.00887E-18 1.07133E-17
 -1      1319 1.02038E-04-3.01121E-05-3.08863E-05-4.83497E-06-1.85598E-18 7.78418E-18
 -1      1320 1.13015E-04-3.17469E-05-3.52490E-05-1.39883E-05-4.40166E-18 5.70731E-18
 -1      1321 9.84536E-05-2.91473E-05-2.96909E-05-3.26410E-06-1.43511E-18 6.78795E-18
 -1      1322 9.55055E-05-2.83116E-05-2.87527E-05-3.05867E-06-1.33863E-18 4.75722E-18
 -1      1323 1.04486E-04-3.04952E-05-3.18574E-05-8.19927E-06-3.22921E-18 3.92208E-18
 -1      1324 9.33090E-05-2.76346E-05-2.81084E-05-1.82909E-06-1.02332E-18 3.83750E-18
 -1      1325 9.18141E-05-2.71726E-05-2.76813E-05-1.55010E-06-9.80434E-19 2.44373E-18
 -1      1326 9.89883E-05-2.90500E-05-3.00502E-05-4.90773E-06-2.37106E-18 2.01352E-18
 -1      1327 9.08071E-05-2.68493E-05-2.74024E-05-3.09535E-07-8.68407E-19 1.77420E-18
 -1      1328 9.07475E-05-2.68576E-05-2.73834E-05-3.85647E-09-8.63934E-19 6.55365E-19
 -1      1329 9.58146E-05-2.80668E-05-2.91202E-05-1.92585E-06-1.85061E-18 4.73253E-19
 -1      1330 9.08261E-05-2.69079E-05-2.74002E-05 1.09631E-06-7.24385E-19 7.55448E-20
 -1      1331 9.20418E-05-2.73592E-05-2.77254E-05 1.33444E-06-4.93304E-19-8.20828E-19
 -1      1332 9.48824E-05-2.78472E-05-2.88109E-05 9.37586E-07-1.52038E-18-7.06373E-19
 -1      1333 9.29239E-05-2.76868E-05-2.79613E-05 2.02619E-06-4.74779E-19-1.31020E-18
 -1      1334 9.49471E-05-2.84106E-05-2.85085E-05 2.12713E-06-4.03929E-19-1.89050E-18
 -1      1335 9.58504E-05-2.83629E-05-2.89735E-05 3.12485E-06-1.03171E-18-1.91563E-18
 -1      1336 9.61999E-05-2.88472E-05-2.88577E-05 2.28549E-06-3.17707E-19-2.10734E-18
 -1      1337 9.84102E-05-2.96147E-05-2.94645E-05 2.24650E-06-1.73266E-19-2.59735E-18
 -1      1338 9.79890E-05-2.93107E-05-2.94411E-05 4.14472E-06-7.84422E-19-2.38887E-18
 -1      1339 9.96097E-05-3.00043E-05-2.98167E-05 1.95587E-06-3.16708E-19-2.72655E-18
 -1      1340 1.01476E-04-3.06296E-05-3.03389E-05 1.82723E-06-4.02377E-19-3.27115E-18
 -1      1341 1.00417E-04-3.03019E-05-3.00232E-05 3.95979E-06-5.75807E-19-2.81124E-18
 -1      1342 1.02342E-04-3.08837E-05-3.06109E-05 1.29532E-06-5.19992E-19-3.52841E-18
 -1      1343 1.03573E-04-3.12767E-05-3.09634E-05 1.14021E-06-9.62011E-20-4.07259E-18
 -1      1344 1.02423E-04-3.10461E-05-3.05484E-05 2.94422E-06-7.28849E-19-2.96256E-18
 -1      1345 1.04002E-04-3.13777E-05-3.11152E-05 5.73914E-07-1.46394E-19-4.25936E-18
 -1      1346 1.04552E-04-3.15365E-05-3.12784E-05 4.37919E-07-2.28616E-19-4.52306E-18
 -1      1347 1.03637E-04-3.14299E-05-3.09048E-05 1.61073E-06-4.56243E-19-3.61188E-18
 -1      1348 1.04576E-04-3.15100E-05-3.13096E-05-2.94639E-08-3.16347E-19-4.76811E-18
 -1      1349 1.04559E-04-3.14843E-05-3.13110E-05-1.26021E-07-2.40415E-19-5.31564E-18
 -1      1350 1.04010E-04-3.14816E-05-3.10519E-05 3.68941E-07-5.42667E-19-4.46276E-18
 -1      1351 1.04279E-04-3.13711E-05-3.12456E-05-4.43141E-07 1.90321E-19-5.20346E-18
 -1      1352 1.03875E-04-3.12261E-05-3.11336E-05-4.98824E-07 3.34522E-19-4.93893E-18
 -1      1353 1.03690E-04-3.12953E-05-3.10066E-05-5.65139E-07 5.68108E-21-4.20397E-18
 -1      1354 1.03407E-04-3.10654E-05-3.10047E-05-6.70883E-07 3.83202E-19-4.82724E-18
 -1      1355 1.02790E-04-3.08596E-05-3.08286E-05-6.93703E-07 1.54805E-19-4.45927E-18
 -1      1356 1.02901E-04-3.09720E-05-3.08173E-05-1.14205E-06 3.21631E-19-3.87470E-18
 -1      1357 1.02236E-04-3.06818E-05-3.06678E-05-7.52542E-07-1.33992E-19-4.37746E-18
 -1      1358 1.01544E-04-3.04584E-05-3.04675E-05-7.52948E-07-2.61887E-19-4.46622E-18
 -1      1359 1.01859E-04-3.05926E-05-3.05410E-05-1.40984E-06 1.76648E-19-3.79992E-18
 -1      1360 1.00979E-04-3.02842E-05-3.02991E-05-7.36000E-07-1.48843E-19-4.35894E-18
 -1      1361 1.00303E-04-3.00708E-05-3.01018E-05-7.23265E-07-1.24665E-19-4.54730E-18
 -1      1362 1.00736E-04-3.02117E-05-3.02278E-05-1.45297E-06-3.60181E-19-3.40670E-18
 -1      1363 9.97758E-05-2.99122E-05-2.99421E-05-6.62895E-07 5.02554E-20-4.36292E-18
 -1      1364 9.91688E-05-2.97237E-05-2.97638E-05-6.43906E-07 3.16532E-19-4.31768E-18
 -1      1365 9.96497E-05-2.98611E-05-2.99151E-05-1.35522E-06 3.24759E-20-2.70396E-18
 -1      1366 9.87052E-05-2.95867E-05-2.96221E-05-5.63961E-07 2.18184E-19-4.72784E-18
 -1      1367 9.81906E-05-2.94289E-05-2.94703E-05-5.43248E-07 8.64003E-20-4.29452E-18
 -1      1368 9.86699E-05-2.95563E-05-2.96268E-05-1.18357E-06 9.94800E-20-3.34747E-18
 -1      1369 9.78011E-05-2.93153E-05-2.93505E-05-4.59367E-07-2.66195E-19-4.93126E-18
 -1      1370 9.73836E-05-2.91888E-05-2.92268E-05-4.39595E-07-7.68400E-19-5.56194E-18
 -1      1371 9.78296E-05-2.93024E-05-2.93755E-05-9.84873E-07-5.50060E-19-4.40285E-18
 -1      1372 9.70681E-05-2.90976E-05-2.91293E-05-3.60929E-07-4.79201E-19-5.56463E-18
 -1      1373 9.67417E-05-2.89996E-05-2.90323E-05-3.43457E-07-4.56723E-19-6.15358E-18
 -1      1374 9.71369E-05-2.90978E-05-2.91657E-05-7.88435E-07-1.06747E-18-4.43244E-18
 -1      1375 9.64940E-05-2.89286E-05-2.89556E-05-2.74588E-07-1.42809E-19-5.59140E-18
 -1      1376 9.62470E-05-2.88552E-05-2.88820E-05-2.59936E-07 3.21663E-19-5.23067E-18
 -1      1377 9.65844E-05-2.89377E-05-2.89967E-05-6.10449E-07-2.96577E-19-4.02046E-18
 -1      1378 9.60582E-05-2.88013E-05-2.88234E-05-2.02491E-07 1.63845E-19-5.16376E-18
 -1      1379 9.58773E-05-2.87481E-05-2.87692E-05-1.90683E-07-1.79580E-19-5.04493E-18
 -1      1380 9.61565E-05-2.88159E-05-2.88647E-05-4.58189E-07 2.20440E-19-3.60179E-18
 -1      1381 9.57374E-05-2.87084E-05-2.87258E-05-1.44535E-07-3.10894E-19-5.34197E-18
 -1      1382 9.56093E-05-2.86711E-05-2.86873E-05-1.35326E-07-5.26360E-19-6.03478E-18
 -1      1383 9.58344E-05-2.87256E-05-2.87644E-05-3.33356E-07-4.27440E-19-4.01896E-18
 -1      1384 9.55087E-05-2.86427E-05-2.86560E-05-9.94147E-08-1.47685E-19-5.87028E-18
 -1      1385 9.54215E-05-2.86177E-05-2.86297E-05-9.24427E-08-3.16974E-20-5.66219E-18
 -1      1386 9.55987E-05-2.86606E-05-2.86905E-05-2.34466E-07-2.20025E-19-3.78640E-18
 -1      1387 9.53515E-05-2.85981E-05-2.86079E-05-6.52968E-08 3.01334E-19-5.65204E-18
 -1      1388 9.52951E-05-2.85822E-05-2.85908E-05-6.01689E-08 5.62084E-19-4.95512E-18
 -1      1389 9.54315E-05-2.86152E-05-2.86376E-05-1.58453E-07 4.69919E-19-3.00807E-18
 -1      1390 9.52484E-05-2.85691E-05-2.85763E-05-4.02277E-08 6.62047E-19-4.74927E-18
 -1      1391 9.52144E-05-2.85599E-05-2.85658E-05-3.65691E-08 6.02390E-19-4.17527E-18
 -1      1392 9.53171E-05-2.85848E-05-2.86011E-05-1.01664E-07 9.67168E-19-2.78140E-18
 -1      1393 9.51850E-05-2.85517E-05-2.85567E-05-2.23583E-08 4.04251E-20-4.30554E-18
 -1      1394 9.51669E-05-2.85471E-05-2.85510E-05-1.98369E-08-3.02764E-19-4.58207E-18
 -1      1395 9.52424E-05-2.85655E-05-2.85769E-05-6.04455E-08 4.14000E-19-3.27408E-18
 -1      1396 9.51499E-05-2.85424E-05-2.85457E-05-1.00557E-08-3.51346E-19-4.58958E-18
 -1      1397 9.51425E-05-2.85408E-05-2.85433E-05-8.39116E-09 6.33360E-20-5.23643E-18
 -1      1398 9.51967E-05-2.85541E-05-2.85619E-05-3.14616E-08-5.48245E-19-3.47691E-18
 -1      1399 9.51341E-05-2.85386E-05-2.85407E-05-1.94447E-09 1.56728E-19-5.13472E-18
 -1      1400 9.51339E-05-2.85390E-05-2.85404E-05-9.08424E-10 6.01019E-21-4.75873E-18
 -1      1401 9.51715E-05-2.85483E-05-2.85533E-05-1.18315E-08-8.89131E-20-3.28027E-18
 -1      1402 9.51312E-05-2.85384E-05-2.85396E-05 3.09421E-09-1.89939E-20-4.94953E-18
 -1      1403 9.51352E-05-2.85400E-05-2.85406E-05 3.68215E-09 2.16132E-19-4.89517E-18
 -1      1404 9.51605E-05-2.85463E-05-2.85493E-05 8.32696E-10 1.56134E-19-3.88157E-18
 -1      1405 9.51363E-05-2.85403E-05-2.85410E-05 5.94378E-09-7.67107E-22-4.72800E-18
 -1      1406 9.51426E-05-2.85425E-05-2.85427E-05 6.22255E-09-2.26312E-19-4.73581E-18
 -1      1407 9.51587E-05-2.85466E-05-2.85482E-05 8.44787E-09-3.21907E-19-4.06809E-18
 -1      1408 9.51458E-05-2.85435E-05-2.85437E-05 7.28413E-09-4.88110E-19-5.15314E-18
 -1      1409 9.51531E-05-2.85459E-05-2.85458E-05 7.35808E-09-3.65690E-19-5.87948E-18
 -1      1410 9.51626E-05-2.85484E-05-2.85491E-05 1.25113E-08-7.33262E-19-3.29939E-18
 -1      1411 9.51574E-05-2.85472E-05-2.85472E-05 7.62575E-09-5.04400E-19-5.46333E-18
 -1      1412 9.51648E-05-2.85496E-05-2.85493E-05 7.57132E-09-3.79156E-19-6.00258E-18
 -1      1413 9.51698E-05-2.85509E-05-2.85510E-05 1.41635E-08-1.13895E-19-2.83792E-18
 -1      1414 9.51695E-05-2.85510E-05-2.85508E-05 7.34246E-09 1.37116E-19-5.68782E-18
 -1      1415 9.51766E-05-2.85532E-05-2.85528E-05 7.21418E-09 3.95019E-19-5.49861E-18
 -1      1416 9.51785E-05-2.85538E-05-2.85534E-05 1.42524E-08-1.55199E-19-2.97050E-18
 -1      1417 9.51812E-05-2.85545E-05-2.85543E-05 6.70073E-09-4.14818E-19-6.11815E-18
 -1      1418 9.51876E-05-2.85565E-05-2.85561E-05 6.53630E-09-5.80124E-20-6.67526E-18
 -1      1419 9.51874E-05-2.85566E-05-2.85561E-05 1.33923E-08-1.64220E-19-3.97315E-18
 -1      1420 9.51918E-05-2.85578E-05-2.85575E-05 5.88468E-09 4.91464E-19-6.64407E-18
 -1      1421 9.51974E-05-2.85595E-05-2.85591E-05 5.70916E-09 1.39968E-19-6.36316E-18
 -1      1422 9.51961E-05-2.85592E-05-2.85586E-05 1.20157E-08 3.03649E-21-5.07543E-18
 -1      1423 9.52012E-05-2.85606E-05-2.85603E-05 5.01664E-09 6.64623E-19-6.46570E-18
 -1      1424 9.52059E-05-2.85620E-05-2.85616E-05 4.84587E-09 8.75142E-19-5.45080E-18
 -1      1425 9.52039E-05-2.85616E-05-2.85610E-05 1.04174E-08 7.09184E-19-4.80584E-18
 -1      1426 9.52092E-05-2.85629E-05-2.85627E-05 4.17371E-09 6.46278E-19-4.71975E-18
 -1      1427 9.52130E-05-2.85641E-05-2.85638E-05 4.01691E-09 7.67660E-19-4.26772E-18
 -1      1428 9.52108E-05-2.85636E-05-2.85630E-05 8.78938E-09 9.80364E-19-4.04749E-18
 -1      1429 9.52158E-05-2.85649E-05-2.85647E-05 3.40067E-09-2.30715E-19-4.11237E-18
 -1      1430 9.52189E-05-2.85659E-05-2.85656E-05 3.26248E-09-7.97682E-19-4.62140E-18
 -1      1431 9.52167E-05-2.85654E-05-2.85648E-05 7.24914E-09 5.82493E-19-3.80309E-18
 -1      1432 9.52212E-05-2.85665E-05-2.85663E-05 2.71978E-09 1.68373E-19-4.52440E-18
 -1      1433 9.52237E-05-2.85673E-05-2.85670E-05 2.60173E-09 2.37965E-19-4.54022E-18
 -1      1434 9.52215E-05-2.85668E-05-2.85663E-05 5.86161E-09-3.54678E-19-3.26211E-18
 -1      1435 9.52255E-05-2.85678E-05-2.85676E-05 2.13812E-09-4.13824E-20-4.52703E-18
 -1      1436 9.52275E-05-2.85684E-05-2.85682E-05 2.03975E-09-3.03706E-19-4.04108E-18
 -1      1437 9.52255E-05-2.85679E-05-2.85675E-05 4.65546E-09-1.50126E-19-4.03025E-18
 -1      1438 9.52289E-05-2.85688E-05-2.85686E-05 1.65285E-09 5.73381E-20-3.44724E-18
 -1      1439 9.52304E-05-2.85692E-05-2.85691E-05 1.57244E-09-1.35978E-21-3.92948E-18
 -1      1440 9.52287E-05-2.85688E-05-2.85685E-05 3.63513E-09-6.08585E-20-4.41133E-18
 -1      1441 9.52315E-05-2.85695E-05-2.85694E-05 1.25487E-09-1.63732E-19-1.80173E-18
 -1      1442 9.52327E-05-2.85699E-05-2.85698E-05 1.18991E-09 5.80090E-19-2.17675E-18
 -1      1443 9.52312E-05-2.85695E-05-2.85693E-05 2.78941E-09 7.76529E-19-2.35624E-18
 -1      1444 9.52335E-05-2.85701E-05-2.85700E-05 9.31116E-10 7.74879E-19-2.31809E-18
 -1      1445 9.52343E-05-2.85704E-05-2.85703E-05 8.78613E-10 5.48321E-19-1.78979E-18
 -1      1446 9.52331E-05-2.85701E-05-2.85699E-05 2.09719E-09 4.09249E-19-4.66426E-19
 -1      1447 9.52350E-05-2.85706E-05-2.85705E-05 6.66100E-10 3.86340E-19-1.45882E-18
 -1      1448 9.52356E-05-2.85707E-05-2.85706E-05 6.22650E-10 6.22644E-19-4.74437E-19
 -1      1449 9.52346E-05-2.85705E-05-2.85703E-05 1.53124E-09 8.79431E-19 1.80375E-18
 -1      1450 9.52360E-05-2.85709E-05-2.85708E-05 4.42895E-10 1.06749E-18-9.04231E-19
 -1      1451 9.52364E-05-2.85710E-05-2.85709E-05 4.04767E-10 6.00953E-19-4.01275E-21
 -1      1452 9.52356E-05-2.85708E-05-2.85706E-05 1.06078E-09 9.61552E-19 2.01314E-18
 -1      1453 9.52367E-05-2.85711E-05-2.85710E-05 2.46374E-10 9.92838E-20 1.23078E-18
 -1      1454 9.52369E-05-2.85711E-05-2.85711E-05 2.10044E-10 7.29262E-19 2.22750E-18
 -1      1455 9.52364E-05-2.85710E-05-2.85709E-05 6.55546E-10 9.65002E-19 4.20205E-19
 -1      1456 9.52371E-05-2.85712E-05-2.85711E-05 6.95628E-11 4.64236E-19 2.51400E-18
 -1      1457 9.52371E-05-2.85712E-05-2.85711E-05 3.39375E-11 1.92038E-19 3.11858E-18
 -1      1458 9.52368E-05-2.85711E-05-2.85710E-05 3.00237E-10 9.46633E-19 2.17096E-18
 -1      1459 9.52372E-05-2.85711E-05-2.85712E-05-4.36479E-11-1.99488E-18 2.25681E-18
 -1      1460 9.52371E-05-2.85711E-05-2.85711E-05 9.98519E-12-1.48372E-18 9.38149E-19
 -1      1461 1.41581E-04-4.23095E-05-4.30060E-05 7.00722E-06 1.57625E-18 1.83525E-17
 -1      1462 1.51493E-04-4.45127E-05-4.67738E-05 8.00224E-06 1.30083E-18 2.08842E-17
 -1      1463 1.47569E-04-4.01135E-05-4.63014E-05 1.96151E-05 2.72946E-18 1.41427E-17
 -1      1464 1.27376E-04-3.83018E-05-3.81654E-05 7.33303E-06 1.26455E-18 1.54959E-17
 -1      1465 1.35185E-04-4.05216E-05-4.07670E-05 6.87973E-06 1.21472E-18 1.73570E-17
 -1      1466 1.36482E-04-4.09269E-05-4.10419E-05 1.42356E-05 2.31957E-18 1.24547E-17
 -1      1467 1.13859E-04-3.37787E-05-3.44327E-05 6.92575E-06 1.20842E-18 1.29830E-17
 -1      1468 1.21498E-04-3.63057E-05-3.65353E-05 6.87992E-06 1.06211E-18 1.43929E-17
 -1      1469 1.24996E-04-3.74178E-05-3.75394E-05 1.36056E-05 2.03751E-18 1.07127E-17
 -1      1470 1.03908E-04-3.02781E-05-3.18807E-05 4.03482E-06 1.18566E-18 9.74379E-18
 -1      1471 1.09365E-04-3.19896E-05-3.32813E-05 4.78635E-06 1.21735E-18 1.14355E-17
 -1      1472 1.14915E-04-3.33323E-05-3.51002E-05 1.06471E-05 2.28151E-18 8.21565E-18
 -1      1473 1.01066E-04-2.94434E-05-3.10427E-05-4.61242E-07 1.34743E-18 6.31902E-18
 -1      1474 1.02174E-04-2.94434E-05-3.13696E-05 7.49267E-07 1.29540E-18 8.18871E-18
 -1      1475 1.08753E-04-3.06828E-05-3.36999E-05 3.92708E-06 2.55746E-18 5.02529E-18
 -1      1476 1.05283E-04-3.12567E-05-3.18605E-05-3.86117E-06 1.00391E-18 3.03111E-18
 -1      1477 1.02200E-04-2.97770E-05-3.11772E-05-2.94948E-06 1.23868E-18 4.85975E-18
 -1      1478 1.08241E-04-3.08943E-05-3.33550E-05-3.42974E-06 2.53570E-18 2.15641E-18
 -1      1479 1.12592E-04-3.40183E-05-3.35661E-05-4.48232E-06 6.92324E-19 9.48359E-19
 -1      1480 1.07776E-04-3.21628E-05-3.23930E-05-4.28359E-06 7.10330E-19 2.12288E-18
 -1      1481 1.11887E-04-3.31853E-05-3.38094E-05-7.29801E-06 1.59877E-18-2.60727E-19
 -1      1482 1.18595E-04-3.60521E-05-3.51687E-05-2.95064E-06 1.08394E-19 9.56618E-20
 -1      1483 1.14673E-04-3.47623E-05-3.41297E-05-3.28113E-06 2.61402E-19 7.09814E-19
 -1      1484 1.16260E-04-3.55206E-05-3.45907E-05-6.62641E-06 8.33930E-19-1.48604E-18
 -1      1485 1.21181E-04-3.67640E-05-3.60029E-05-8.17316E-07-3.97708E-20-1.60804E-19
 -1      1486 1.19397E-04-3.63270E-05-3.54742E-05-1.29196E-06 1.28339E-19 7.74506E-20
 -1      1487 1.18812E-04-3.66166E-05-3.51822E-05-3.37410E-06 3.12714E-19-1.80990E-18
 -1      1488 1.20506E-04-3.63892E-05-3.59536E-05 8.41664E-07 7.28713E-20-4.06758E-19
 -1      1489 1.20730E-04-3.66181E-05-3.59656E-05 4.70097E-07 1.62789E-20-3.56535E-19
 -1      1490 1.18858E-04-3.64384E-05-3.52820E-05 6.91224E-08 7.16272E-20-1.82894E-18
 -1      1491 1.17737E-04-3.54060E-05-3.52560E-05 1.73579E-06 5.92490E-19-1.24043E-18
 -1      1492 1.19233E-04-3.59894E-05-3.56442E-05 1.53039E-06 5.55376E-19-2.76781E-19
 -1      1493 1.16949E-04-3.55150E-05-3.48754E-05 2.43562E-06 7.05545E-19-2.42233E-18
 -1      1494 1.14063E-04-3.42105E-05-3.42319E-05 2.01254E-06 2.61191E-19-1.90518E-18
 -1      1495 1.16096E-04-3.49022E-05-3.47987E-05 1.93974E-06 1.46891E-19-1.55141E-18
 -1      1496 1.13973E-04-3.43316E-05-3.41209E-05 3.55397E-06 5.92506E-19-2.38450E-18
 -1      1497 1.10304E-04-3.30398E-05-3.31370E-05 1.92261E-06 3.04580E-19-2.22395E-18
 -1      1498 1.12380E-04-3.36995E-05-3.37348E-05 1.92867E-06 2.74455E-19-1.72897E-18
 -1      1499 1.10671E-04-3.31677E-05-3.32132E-05 3.76064E-06 3.33038E-19-2.45844E-18
 -1      1500 1.06901E-04-3.20067E-05-3.21230E-05 1.66464E-06-3.34184E-19-1.41756E-18
 -1      1501 1.08763E-04-3.25735E-05-3.26689E-05 1.70787E-06-1.65918E-19-1.68471E-18
 -1      1502 1.07511E-04-3.21410E-05-3.23035E-05 3.45651E-06-3.25019E-19-1.71890E-18
 -1      1503 1.04031E-04-3.11487E-05-3.12571E-05 1.35960E-06-7.43334E-19-9.20176E-19
 -1      1504 1.05583E-04-3.16075E-05-3.17171E-05 1.41482E-06-2.00275E-19-1.33630E-18
 -1      1505 1.04732E-04-3.12853E-05-3.14806E-05 2.93675E-06-3.68003E-19-9.30537E-19
 -1      1506 1.01718E-04-3.04637E-05-3.05545E-05 1.06902E-06 3.58750E-19-7.82612E-19
 -1      1507 1.02954E-04-3.08211E-05-3.09231E-05 1.12331E-06-2.02914E-19-1.17431E-18
 -1      1508 1.02413E-04-3.05965E-05-3.07825E-05 2.37528E-06-4.22663E-19-1.38439E-18
 -1      1509 9.99120E-05-2.99318E-05-3.00038E-05 8.18149E-07 6.10229E-19-1.91210E-18
 -1      1510 1.00865E-04-3.02030E-05-3.02893E-05 8.65981E-07 9.89743E-19-8.01465E-19
 -1      1511 1.00548E-04-3.00554E-05-3.02153E-05 1.85795E-06 1.31376E-18-1.77638E-18
 -1      1512 9.85341E-05-2.95277E-05-2.95829E-05 6.13070E-07-9.04869E-20-2.74586E-18
 -1      1513 9.92527E-05-2.97292E-05-2.97986E-05 6.52829E-07 3.36323E-19-2.36625E-18
 -1      1514 9.90893E-05-2.96383E-05-2.97683E-05 1.41785E-06 9.49474E-19-1.13636E-18
 -1      1515 9.75034E-05-2.92263E-05-2.92677E-05 4.51001E-07-8.27090E-20-2.99865E-18
 -1      1516 9.80345E-05-2.93733E-05-2.94274E-05 4.82911E-07-4.98624E-21-3.11295E-18
 -1      1517 9.79715E-05-2.93221E-05-2.94243E-05 1.06052E-06 1.67099E-19-2.01837E-18
 -1      1518 9.67461E-05-2.90053E-05-2.90359E-05 3.25848E-07-5.43504E-19-2.60324E-18
 -1      1519 9.71315E-05-2.91106E-05-2.91520E-05 3.50868E-07-3.43743E-19-2.86588E-18
 -1      1520 9.71308E-05-2.90861E-05-2.91647E-05 7.78999E-07-5.03487E-19-2.72280E-18
 -1      1521 9.61997E-05-2.88462E-05-2.88685E-05 2.30887E-07 3.03947E-19-2.87470E-18
 -1      1522 9.64741E-05-2.89202E-05-2.89513E-05 2.50169E-07 1.24836E-19-2.30633E-18
 -1      1523 9.65093E-05-2.89129E-05-2.89722E-05 5.61909E-07-8.99145E-21-2.47260E-18
 -1      1524 9.58132E-05-2.87340E-05-2.87500E-05 1.59916E-07-1.92021E-19-3.26322E-18
 -1      1525 9.60044E-05-2.87847E-05-2.88078E-05 1.74561E-07 1.82131E-19-3.18210E-18
 -1      1526 9.60581E-05-2.87879E-05-2.88320E-05 3.97311E-07 3.05332E-19-3.14341E-18
 -1      1527 9.55462E-05-2.86568E-05-2.86680E-05 1.07643E-07 2.64930E-19-3.46649E-18
 -1      1528 9.56759E-05-2.86904E-05-2.87073E-05 1.18616E-07 2.16680E-20-3.26426E-18
 -1      1529 9.57368E-05-2.86995E-05-2.87318E-05 2.74375E-07 6.98980E-20-3.44817E-18
 -1      1530 9.53673E-05-2.86052E-05-2.86130E-05 6.97368E-08-2.97111E-20-2.99174E-18
 -1      1531 9.54523E-05-2.86266E-05-2.86388E-05 7.78434E-08-2.79535E-19-3.06928E-18
 -1      1532 9.55133E-05-2.86385E-05-2.86618E-05 1.83910E-07-3.89339E-19-3.11433E-18
 -1      1533 9.52522E-05-2.85722E-05-2.85774E-05 4.27328E-08-1.96376E-19-3.21373E-18
 -1      1534 9.53051E-05-2.85850E-05-2.85936E-05 4.86290E-08 3.04154E-19-3.11890E-18
 -1      1535 9.53622E-05-2.85977E-05-2.86143E-05 1.18399E-07 2.08188E-19-3.60987E-18
 -1      1536 9.51824E-05-2.85524E-05-2.85558E-05 2.39048E-08 4.17102E-19-2.97724E-18
 -1      1537 9.52129E-05-2.85593E-05-2.85652E-05 2.81159E-08-1.17099E-19-3.18841E-18
 -1      1538 9.52639E-05-2.85716E-05-2.85831E-05 7.18254E-08-1.03737E-20-3.22182E-18
 -1      1539 9.51441E-05-2.85418E-05-2.85438E-05 1.11302E-08 2.31020E-19-3.30674E-18
 -1      1540 9.51592E-05-2.85446E-05-2.85486E-05 1.40720E-08 3.19265E-19-3.27975E-18
 -1      1541 9.52034E-05-2.85560E-05-2.85637E-05 3.94487E-08 2.68930E-19-3.20255E-18
 -1      1542 9.51271E-05-2.85373E-05-2.85384E-05 2.77323E-09 1.03575E-18-5.13217E-18
 -1      1543 9.51321E-05-2.85375E-05-2.85401E-05 4.77150E-09 9.80144E-19-3.54651E-18
 -1      1544 9.51693E-05-2.85476E-05-2.85526E-05 1.75739E-08 9.22880E-19-2.72966E-18
 -1      1545 9.51240E-05-2.85367E-05-2.85373E-05-2.41453E-09-3.12996E-19-5.66462E-18
 -1      1546 9.51226E-05-2.85354E-05-2.85370E-05-1.10712E-09-3.88019E-20-5.63741E-18
 -1      1547 9.51532E-05-2.85440E-05-2.85471E-05 3.35144E-09 9.13470E-19-2.84431E-18
 -1      1548 9.51294E-05-2.85386E-05-2.85387E-05-5.37578E-09-9.54229E-19-3.72928E-18
 -1      1549 9.51242E-05-2.85364E-05-2.85373E-05-4.56522E-09-5.99039E-19-4.61791E-18
 -1      1550 9.51489E-05-2.85436E-05-2.85453E-05-5.39349E-09-1.25655E-18-3.18133E-18
 -1      1551 9.51395E-05-2.85418E-05-2.85417E-05-6.81364E-09 1.31610E-18-4.85673E-18
 -1      1552 9.51324E-05-2.85393E-05-2.85397E-05-6.35272E-09 3.67738E-19-3.71063E-18
 -1      1553 9.51520E-05-2.85451E-05-2.85459E-05-1.03021E-08 1.74538E-19-4.00817E-18
 -1      1554 9.51518E-05-2.85456E-05-2.85454E-05-7.24517E-09 8.43470E-19-6.28920E-18
 -1      1555 9.51441E-05-2.85430E-05-2.85431E-05-7.02365E-09 9.08241E-19-5.22854E-18
 -1      1556 9.51593E-05-2.85477E-05-2.85479E-05-1.25973E-08 8.83670E-19-4.71064E-18
 -1      1557 9.51647E-05-2.85496E-05-2.85492E-05-7.04416E-09-6.11085E-19-6.49325E-18
 -1      1558 9.51570E-05-2.85471E-05-2.85470E-05-6.98073E-09 2.17337E-19-6.52191E-18
 -1      1559 9.51687E-05-2.85508E-05-2.85506E-05-1.31766E-08 3.24767E-19-4.62802E-18
 -1      1560 9.51772E-05-2.85533E-05-2.85530E-05-6.47530E-09-1.90231E-20-4.85758E-18
 -1      1561 9.51700E-05-2.85511E-05-2.85509E-05-6.51106E-09-9.35695E-19-6.58424E-18
 -1      1562 9.51787E-05-2.85539E-05-2.85535E-05-1.26871E-08-9.67745E-19-6.06963E-18
 -1      1563 9.51885E-05-2.85567E-05-2.85564E-05-5.72125E-09 2.73618E-19-6.49751E-18
 -1      1564 9.51821E-05-2.85548E-05-2.85545E-05-5.81443E-09 1.04177E-18-5.16768E-18
 -1      1565 9.51885E-05-2.85569E-05-2.85564E-05-1.15859E-08 5.47187E-19-6.38903E-18
 -1      1566 9.51984E-05-2.85597E-05-2.85594E-05-4.90384E-09 2.10128E-19-7.74594E-18
 -1      1567 9.51929E-05-2.85580E-05-2.85577E-05-5.02561E-09-4.40358E-20-7.31070E-18
 -1      1568 9.51976E-05-2.85597E-05-2.85591E-05-1.01866E-08 6.41383E-19-5.82386E-18
 -1      1569 9.52069E-05-2.85622E-05-2.85620E-05-4.10060E-09 6.18973E-19-9.65683E-18
 -1      1570 9.52023E-05-2.85609E-05-2.85606E-05-4.23175E-09 6.30515E-19-8.26749E-18
 -1      1571 9.52056E-05-2.85620E-05-2.85615E-05-8.69736E-09 9.91005E-19-7.50303E-18
 -1      1572 9.52140E-05-2.85643E-05-2.85641E-05-3.35741E-09 2.13131E-19-9.78776E-18
 -1      1573 9.52102E-05-2.85632E-05-2.85630E-05-3.48573E-09 2.23933E-19-9.08615E-18
 -1      1574 9.52124E-05-2.85641E-05-2.85636E-05-7.24942E-09 7.99912E-21-7.76971E-18
 -1      1575 9.52198E-05-2.85661E-05-2.85659E-05-2.69808E-09-6.18866E-19-7.31434E-18
 -1      1576 9.52167E-05-2.85652E-05-2.85649E-05-2.81637E-09-5.65153E-19-8.90579E-18
 -1      1577 9.52182E-05-2.85657E-05-2.85653E-05-5.91921E-09-1.01926E-18-7.16857E-18
 -1      1578 9.52244E-05-2.85674E-05-2.85673E-05-2.13141E-09 1.92681E-19-7.43984E-18
 -1      1579 9.52220E-05-2.85667E-05-2.85665E-05-2.23604E-09 6.00799E-20-7.19814E-18
 -1      1580 9.52229E-05-2.85671E-05-2.85667E-05-4.74511E-09-1.85117E-19-6.99677E-18
 -1      1581 9.52281E-05-2.85685E-05-2.85684E-05-1.65642E-09 4.42365E-19-8.39915E-18
 -1      1582 9.52262E-05-2.85680E-05-2.85678E-05-1.74614E-09 9.79333E-19-7.07727E-18
 -1      1583 9.52267E-05-2.85682E-05-2.85679E-05-3.73975E-09 6.62238E-19-5.78300E-18
 -1      1584 9.52309E-05-2.85693E-05-2.85692E-05-1.26586E-09-1.64177E-18-6.10791E-18
 -1      1585 9.52295E-05-2.85689E-05-2.85688E-05-1.34107E-09-1.52118E-18-7.97014E-18
 -1      1586 9.52296E-05-2.85691E-05-2.85688E-05-2.89888E-09-1.06884E-18-5.79355E-18
 -1      1587 9.52331E-05-2.85700E-05-2.85699E-05-9.48571E-10-8.41900E-19-3.36318E-18
 -1      1588 9.52320E-05-2.85697E-05-2.85696E-05-1.01087E-09-9.07489E-19-5.10146E-18
 -1      1589 9.52320E-05-2.85697E-05-2.85695E-05-2.20748E-09-2.31420E-18-3.61872E-18
 -1      1590 9.52347E-05-2.85704E-05-2.85704E-05-6.90886E-10-3.49853E-19-2.84370E-18
 -1      1591 9.52339E-05-2.85702E-05-2.85701E-05-7.42758E-10-3.30533E-19-3.28281E-18
 -1      1592 9.52338E-05-2.85702E-05-2.85701E-05-1.64373E-09-1.22130E-18-3.77910E-18
 -1      1593 9.52358E-05-2.85708E-05-2.85707E-05-4.77562E-10-4.90200E-19-1.58249E-18
 -1      1594 9.52352E-05-2.85706E-05-2.85706E-05-5.22263E-10-2.95792E-19-2.41831E-18
 -1      1595 9.52351E-05-2.85706E-05-2.85705E-05-1.18150E-09-6.60237E-19-3.23463E-18
 -1      1596 9.52366E-05-2.85710E-05-2.85710E-05-2.93211E-10-6.30393E-20-8.05477E-19
 -1      1597 9.52362E-05-2.85709E-05-2.85708E-05-3.34578E-10-6.92373E-19-9.98163E-19
 -1      1598 9.52360E-05-2.85709E-05-2.85708E-05-7.92965E-10-1.19241E-18-2.27263E-18
 -1      1599 9.52370E-05-2.85711E-05-2.85711E-05-1.23999E-10 5.23021E-20-1.95865E-18
 -1      1600 9.52368E-05-2.85711E-05-2.85710E-05-1.67230E-10 1.19176E-18-1.42290E-18
 -1      1601 9.52366E-05-2.85711E-05-2.85710E-05-4.53435E-10 1.03181E-18-3.89682E-19
 -1      1602 9.52371E-05-2.85712E-05-2.85711E-05 1.40162E-11 4.85562E-19-2.35861E-18
 -1      1603 9.52371E-05-2.85712E-05-2.85711E-05-2.36775E-11 7.95021E-19-1.31886E-18
 -1      1604 9.52370E-05-2.85712E-05-2.85711E-05-1.52930E-10 1.09036E-18 4.38910E-19
 -1      1605 9.52372E-05-2.85711E-05-2.85712E-05 3.70740E-11-1.94130E-18-2.36146E-18
 -1      1606 9.52371E-05-2.85712E-05-2.85711E-05-8.25603E-11 3.83251E-18 1.60181E-18
 -1      1607 9.52371E-05-2.85712E-05-2.85711E-05-4.79508E-11 1.27267E-19 2.58285E-18
 -1      1608 9.52372E-05-2.85716E-05-2.85710E-05-2.42131E-10 4.23479E-18-1.18519E-18
 -1      1609 9.52372E-05-2.85714E-05-2.85711E-05-2.10437E-10 4.83712E-18-1.20866E-18
 -1      1610 9.52371E-05-2.85714E-05-2.85710E-05-3.01130E-10 1.97364E-18 7.25632E-19
 -1      1611 9.52374E-05-2.85721E-05-2.85708E-05-3.60598E-10 2.42904E-18-3.25275E-19
 -1      1612 9.52373E-05-2.85718E-05-2.85709E-05-3.41262E-10 3.26925E-18 7.03314E-19
 -1      1613 9.52373E-05-2.85718E-05-2.85709E-05-5.75225E-10 1.17447E-18-8.42592E-19
 -1      1614 9.52376E-05-2.85728E-05-2.85707E-05-4.07716E-10 1.73099E-18-9.32827E-19
 -1      1615 9.52375E-05-2.85724E-05-2.85708E-05-4.04277E-10 2.26426E-18 9.01831E-19
 -1      1616 9.52375E-05-2.85724E-05-2.85708E-05-7.45584E-10 5.73643E-19-3.36436E-19
 -1      1617 9.52378E-05-2.85734E-05-2.85705E-05-3.80587E-10-2.84556E-18-3.04396E-18
 -1      1618 9.52377E-05-2.85731E-05-2.85706E-05-3.91486E-10 7.74705E-19-3.78251E-18
 -1      1619 9.52377E-05-2.85730E-05-2.85706E-05-7.75965E-10 5.48138E-20-3.95997E-18
 -1      1620 9.52380E-05-2.85739E-05-2.85703E-05-2.87524E-10-5.09498E-18 4.67276E-19
 -1      1621 9.52379E-05-2.85737E-05-2.85704E-05-3.10514E-10-4.33038E-18-5.28574E-19
 -1      1622 9.52379E-05-2.85735E-05-2.85705E-05-6.70132E-10-9.64632E-19-3.93749E-18
 -1      1623 9.52381E-05-2.85742E-05-2.85702E-05-1.46698E-10-4.33418E-18-2.03802E-19
 -1      1624 9.52381E-05-2.85741E-05-2.85703E-05-1.77303E-10-4.78605E-18 1.32034E-18
 -1      1625 9.52380E-05-2.85739E-05-2.85703E-05-4.50460E-10-2.00584E-18 3.21864E-19
 -1      1626 9.52381E-05-2.85743E-05-2.85702E-05 1.78721E-11-3.82229E-18 4.73580E-19
 -1      1627 9.52381E-05-2.85743E-05-2.85702E-05-1.53329E-11-4.60999E-18 1.38801E-18
 -1      1628 9.52381E-05-2.85742E-05-2.85703E-05-1.56987E-10-1.61440E-18 5.42057E-19
 -1      1629 9.52381E-05-2.85741E-05-2.85703E-05 1.79574E-10-5.18311E-18-8.10626E-19
 -1      1630 9.52381E-05-2.85742E-05-2.85702E-05 1.49067E-10-4.68480E-18-1.86579E-19
 -1      1631 9.52381E-05-2.85742E-05-2.85703E-05 1.61767E-10-2.87689E-18-3.19328E-19
 -1      1632 9.52379E-05-2.85737E-05-2.85704E-05 3.12101E-10-7.05668E-18-2.41997E-18
 -1      1633 9.52380E-05-2.85739E-05-2.85703E-05 2.89366E-10-4.13372E-18-2.58360E-18
 -1      1634 9.52380E-05-2.85739E-05-2.85703E-05 4.54476E-10-3.76930E-18-1.45712E-18
 -1      1635 9.52377E-05-2.85731E-05-2.85706E-05 3.91585E-10-7.14304E-18 2.02801E-19
 -1      1636 9.52378E-05-2.85734E-05-2.85705E-05 3.80862E-10-6.72566E-18-7.79920E-19
 -1      1637 9.52379E-05-2.85735E-05-2.85705E-05 6.71630E-10-3.25477E-18-2.51493E-18
 -1      1638 9.52375E-05-2.85724E-05-2.85708E-05 4.03839E-10-8.24387E-18-8.35296E-20
 -1      1639 9.52376E-05-2.85728E-05-2.85707E-05 4.07561E-10-7.74043E-18 7.16631E-19
 -1      1640 9.52377E-05-2.85730E-05-2.85706E-05 7.76116E-10-3.55705E-18-2.20900E-19
 -1      1641 9.52373E-05-2.85718E-05-2.85709E-05 3.39778E-10-5.81667E-18 1.80330E-18
 -1      1642 9.52374E-05-2.85721E-05-2.85708E-05 3.58957E-10-7.72097E-18 1.90703E-18
 -1      1643 9.52375E-05-2.85724E-05-2.85708E-05 7.43880E-10-3.16403E-18 1.40056E-18
 -1      1644 9.52372E-05-2.85714E-05-2.85711E-05 2.11536E-10-4.16295E-18 8.64826E-19
 -1      1645 9.52372E-05-2.85716E-05-2.85710E-05 2.44462E-10-5.25217E-18 1.11005E-18
 -1      1646 9.52373E-05-2.85718E-05-2.85709E-05 5.71005E-10-3.03838E-18 2.00241E-18
 -1      1647 9.52371E-05-2.85712E-05-2.85711E-05 1.00578E-10-2.48046E-18-1.50502E-19
 -1      1648 9.52371E-05-2.85713E-05-2.85711E-05 1.48847E-10-2.88076E-18 5.96115E-19
 -1      1649 9.52371E-05-2.85715E-05-2.85710E-05 3.83445E-10-1.52156E-18 1.90129E-18
 -1      1650 9.52370E-05-2.85713E-05-2.85710E-05 2.27211E-10 1.97935E-20 8.91211E-19
 -1      1651 1.61424E-05-4.86873E-05 8.12021E-06-3.86260E-06 1.45419E-17 7.22519E-18
 -1      1652 1.90573E-05-5.76353E-05 1.00387E-05 2.03111E-06 6.47790E-18 4.59537E-18
 -1      1653 2.04261E-05-2.32319E-05-2.39495E-06 1.34574E-05 2.08726E-17 1.28878E-17
 -1      1654 2.21699E-05-4.29777E-05 3.57398E-06 6.79004E-06 1.54296E-17 8.71830E-18
 -1      1655 3.98287E-05-2.44837E-06-1.75365E-05 3.85731E-05 2.43336E-17 1.92370E-17
 -1      1656 3.13978E-05-1.95973E-05-9.10947E-06 2.05853E-05 2.27344E-17 1.44351E-17
 -1      1657 8.14500E-05 3.39501E-06-3.54000E-05 6.82911E-05 2.21762E-17 2.19720E-17
 -1      1658 5.42509E-05 1.38656E-06-2.59763E-05 4.61421E-05 2.52763E-17 2.04042E-17
 -1      1659 1.53997E-04-2.05785E-05-5.34723E-05 7.74981E-05 1.37092E-17 1.61224E-17
 -1      1660 1.10467E-04-5.61875E-06-4.42193E-05 6.77457E-05 1.88410E-17 1.89142E-17
 -1      1661 2.15358E-04-4.48365E-05-6.68680E-05 6.55314E-05 8.17797E-18 8.28737E-18
 -1      1662 1.75714E-04-2.40886E-05-6.10795E-05 7.78283E-05 1.24012E-17 1.51356E-17
 -1      1663 2.47312E-04-6.22209E-05-7.26506E-05 2.53353E-05 5.10253E-18-3.91753E-18
 -1      1664 2.30417E-04-5.07743E-05-7.07497E-05 5.58425E-05 6.71930E-18 4.97547E-18
 -1      1665 2.26688E-04-5.40477E-05-6.90318E-05-1.95573E-05 8.51734E-18-1.66027E-17
 -1      1666 2.40845E-04-5.95591E-05-7.15958E-05 1.18002E-05 6.59521E-18-7.58857E-18
 -1      1667 1.80981E-04-3.64283E-05-5.91443E-05-5.16459E-05 1.42513E-17-2.75006E-17
 -1      1668 2.19049E-04-5.43203E-05-6.53769E-05-3.45649E-05 9.53608E-18-2.13156E-17
 -1      1669 1.17064E-04-1.68940E-05-4.33782E-05-5.12509E-05 2.12842E-17-2.96572E-17
 -1      1670 1.59795E-04-3.23556E-05-5.19164E-05-5.55621E-05 1.63482E-17-2.81749E-17
 -1      1671 6.22366E-05-6.18123E-06-2.70547E-05-3.73859E-05 2.63766E-17-2.77598E-17
 -1      1672 9.13914E-05-9.81347E-06-3.53276E-05-5.34099E-05 2.34399E-17-3.05381E-17
 -1      1673 2.71090E-05-7.76869E-06-1.27415E-05-1.69172E-05 2.71118E-17-2.11140E-17
 -1      1674 3.95123E-05-1.88235E-07-1.96303E-05-3.22046E-05 2.79233E-17-2.66362E-17
 -1      1675 1.25051E-05-1.58297E-05-3.01399E-06-3.09454E-06 2.19161E-17-1.30915E-17
 -1      1676 1.35695E-05-5.86416E-06-7.23311E-06-8.85636E-06 2.68861E-17-1.87563E-17
 -1      1677 8.13813E-06-1.98940E-05 1.56474E-06 5.41146E-07 1.01949E-17-7.46045E-18
 -1      1678 7.35866E-06-1.48525E-05-3.61758E-07 1.28145E-06 1.80577E-17-1.11283E-17
 -1      1679 6.59838E-06-1.94663E-05 2.33411E-06 1.03874E-06-1.74658E-18-5.10909E-18
 -1      1680 7.03641E-06-2.17023E-05 2.78166E-06 4.90121E-06 7.41837E-18-5.59455E-18
 -1      1681 6.73552E-06-6.22760E-06-2.74193E-06 7.27998E-06-1.31188E-17-9.35887E-18
 -1      1682 7.89058E-06-1.53224E-05 1.95212E-07 6.21859E-06-4.56360E-18-6.40823E-18
 -1      1683 1.73923E-05 4.22236E-06-1.14851E-05 2.18697E-05-2.07536E-17-1.56786E-17
 -1      1684 1.41684E-05-5.54081E-06-6.64589E-06 1.38657E-05-1.55062E-17-1.06442E-17
 -1      1685 3.79747E-05 1.11665E-05-2.27018E-05 4.15853E-05-2.59243E-17-2.36784E-17
 -1      1686 2.62047E-05 5.12840E-06-1.65093E-05 2.75391E-05-2.46224E-17-1.83967E-17
 -1      1687 8.12857E-05 3.01197E-06-3.60983E-05 6.20980E-05-2.32341E-17-2.82765E-17
 -1      1688 5.61373E-05 6.84902E-06-2.91036E-05 4.77309E-05-2.54440E-17-2.53686E-17
 -1      1689 1.42585E-04-1.95350E-05-5.03637E-05 6.83189E-05-1.69216E-17-2.79250E-17
 -1      1690 1.04172E-04-4.18169E-06-4.30503E-05 6.33373E-05-2.16540E-17-2.87424E-17
 -1      1691 2.01638E-04-4.61490E-05-6.22389E-05 4.75483E-05-9.83649E-18-2.05939E-17
 -1      1692 1.65153E-04-2.75759E-05-5.66225E-05 6.16917E-05-1.45397E-17-2.62614E-17
 -1      1693 2.30290E-04-5.79062E-05-6.84529E-05 3.81686E-06-5.85130E-18-8.66663E-18
 -1      1694 2.13042E-04-4.93821E-05-6.58414E-05 3.19975E-05-8.20108E-18-1.65104E-17
 -1      1695 2.24383E-04-5.17094E-05-6.83754E-05-4.43919E-05-5.96650E-18 4.17630E-18
 -1      1696 2.35717E-04-5.97838E-05-6.95827E-05-1.17597E-05-4.74783E-18-4.69280E-18
 -1      1697 1.72048E-04-2.49848E-05-5.92562E-05-7.20929E-05-1.04403E-17 1.39515E-17
 -1      1698 2.09197E-04-4.51997E-05-6.47759E-05-5.59564E-05-6.73375E-18 7.59831E-18
 -1      1699 1.07226E-04-1.76297E-07-4.44833E-05-7.37579E-05-1.68530E-17 1.91463E-17
 -1      1700 1.49538E-04-1.68351E-05-5.27631E-05-8.09759E-05-1.22540E-17 1.73328E-17
 -1      1701 5.56692E-05 3.54403E-06-2.68017E-05-4.85632E-05-2.07083E-17 1.78622E-17
 -1      1702 8.38608E-05 4.01414E-06-3.59864E-05-6.98901E-05-1.84602E-17 1.99400E-17
 -1      1703 2.85343E-05-1.45513E-05-9.86752E-06-2.04754E-05-1.93098E-17 1.30579E-17
 -1      1704 3.77484E-05 2.32101E-06-1.82761E-05-3.99178E-05-2.11436E-17 1.69474E-17
 -1      1705 2.14574E-05-4.15703E-05 3.18923E-06-6.07721E-06-8.62025E-18 7.35192E-18
 -1      1706 1.93481E-05-2.04237E-05-3.00945E-06-1.33957E-05-1.60818E-17 1.20389E-17
 -1      1707 1.91462E-05-5.66365E-05 9.75116E-06-3.10430E-06 3.00570E-18 4.11489E-18
 -1      1708 1.59594E-05-4.61935E-05 7.47801E-06 1.84779E-06-5.78227E-18 5.93992E-18
 -1      1709 1.22698E-04-2.78548E-05-3.92224E-05 4.92059E-05 1.32417E-17 9.17167E-18
 -1      1710 7.69430E-05-2.66916E-05-2.25558E-05 4.59097E-05 1.36033E-17 1.21630E-17
 -1      1711 9.52371E-05-2.85711E-05-2.85711E-05 2.36861E-11-8.96654E-19 2.02657E-18
 -1      1712 9.52371E-05-2.85712E-05-2.85711E-05-8.13580E-11 1.41095E-18 3.51606E-18
 -1      1713 1.81141E-05-3.15153E-05 2.23959E-06 1.92451E-05 8.31575E-18 1.07948E-17
 -1      1714 4.34923E-05-3.01946E-05-8.23865E-06 3.55738E-05 1.02919E-17 1.13629E-17
 -1      1715 9.65967E-06-3.51474E-05 6.40823E-06-1.34264E-06 3.44615E-18 9.25638E-18
 -1      1716 1.64289E-04-3.00801E-05-5.43997E-05 4.12116E-05 1.16186E-17 5.21518E-18
 -1      1717 1.96303E-04-3.15214E-05-6.53822E-05 3.33427E-05 1.07893E-17 1.31248E-18
 -1      1718 2.02076E-04-3.14329E-05-6.80652E-05 1.65487E-05 1.07806E-17-4.58488E-18
 -1      1719 1.92535E-04-3.39591E-05-6.37609E-05-3.06288E-06 1.21433E-17-1.04621E-17
 -1      1720 1.67139E-04-3.67541E-05-5.33642E-05-1.89618E-05 1.33752E-17-1.53321E-17
 -1      1721 1.25945E-04-3.37427E-05-3.90938E-05-2.97204E-05 1.46012E-17-1.72740E-17
 -1      1722 7.71682E-05-2.35160E-05-2.44440E-05-3.30445E-05 1.59450E-17-1.85153E-17
 -1      1723 3.60602E-05-1.40807E-05-1.20871E-05-2.40005E-05 1.56633E-17-1.67814E-17
 -1      1724 1.21803E-05-8.59527E-06-4.20110E-06-1.14773E-05 1.07899E-17-1.37181E-17
 -1      1725 2.79820E-06-6.97661E-06-5.14388E-07-1.07574E-06 5.76332E-18-1.13481E-17
 -1      1726 3.19115E-06-4.51536E-06-1.40067E-06 9.98559E-06-4.92761E-19-1.08799E-17
 -1      1727 1.57148E-05-2.76026E-06-7.12604E-06 2.23180E-05-4.79505E-18-1.19768E-17
 -1      1728 3.75201E-05-5.47011E-06-1.55008E-05 3.27120E-05-1.03181E-17-1.38706E-17
 -1      1729 6.92735E-05-9.78536E-06-2.64886E-05 4.19262E-05-1.50412E-17-1.70478E-17
 -1      1730 1.11090E-04-1.83938E-05-3.92386E-05 4.41797E-05-1.50539E-17-1.80223E-17
 -1      1731 1.53711E-04-2.72223E-05-5.18495E-05 3.60360E-05-1.34930E-17-1.67103E-17
 -1      1732 1.83284E-04-3.14380E-05-6.12671E-05 1.59400E-05-1.14612E-17-1.17068E-17
 -1      1733 1.95575E-04-3.13164E-05-6.56689E-05-7.89247E-06-9.81711E-18-5.88074E-18
 -1      1734 1.87993E-04-2.93583E-05-6.33093E-05-2.79106E-05-9.20640E-18 3.45166E-19
 -1      1735 1.58665E-04-2.47307E-05-5.37990E-05-4.46584E-05-9.62515E-18 5.72383E-18
 -1      1736 1.17348E-04-2.13354E-05-3.94245E-05-5.21571E-05-1.11529E-17 9.91621E-18
 -1      1737 7.48746E-05-2.21485E-05-2.31704E-05-4.60571E-05-1.11080E-17 1.09780E-17
 -1      1738 4.14816E-05-2.75866E-05-8.42359E-06-3.41717E-05-7.33361E-18 1.12059E-17
 -1      1739 1.85455E-05-3.18290E-05 2.05062E-06-1.94901E-05-2.10191E-18 1.07014E-17
 -1      1740 1.12518E-04-1.21636E-05-4.33097E-05-3.37561E-05-3.03047E-18 3.43514E-18
 -1      1741 1.25963E-04-3.19204E-05-4.08312E-05-1.91078E-05-3.20729E-18 1.36262E-17
 -1      1742 1.07817E-04-1.63566E-05-3.93398E-05-2.07108E-05-2.54072E-18-4.80943E-18
 -1      1743 1.07813E-04-1.60830E-05-3.95759E-05-2.33601E-05-3.58721E-18-3.99641E-18
 -1      1744 1.08694E-04-1.72040E-05-3.93879E-05-2.44121E-05-3.93487E-18-2.59589E-18
 -1      1745 1.10428E-04-1.87353E-05-3.95597E-05-2.61224E-05-4.75587E-18-2.49345E-19
 -1      1746 1.10756E-04-2.10322E-05-3.84415E-05-2.30387E-05-4.14186E-18-2.60899E-18
 -1      1747 1.06209E-04-2.06350E-05-3.66784E-05-7.10941E-06 1.72441E-18-4.52247E-18
 -1      1748 1.07839E-04-1.96985E-05-3.79658E-05-1.13739E-05 4.69624E-19-4.87049E-18
 -1      1749 9.70605E-05-2.07923E-05-3.26623E-05 4.25234E-06 4.27212E-18-3.99683E-18
 -1      1750 1.03094E-04-2.15615E-05-3.50267E-05-1.06673E-06 2.97172E-18-4.29702E-18
 -1      1751 1.09027E-04-2.55540E-05-3.58245E-05-6.15198E-06 2.02990E-18-3.33228E-18
 -1      1752 7.51541E-05-1.40184E-05-2.61914E-05 1.66749E-05 6.23162E-18-4.56164E-18
 -1      1753 8.77472E-05-1.81662E-05-2.96489E-05 1.19609E-05 5.41572E-18-4.50741E-18
 -1      1754 9.72044E-05-2.45679E-05-3.12522E-05 7.73766E-06 4.64817E-18-3.32524E-18
 -1      1755 4.54021E-05-7.51101E-07-1.91036E-05 2.22195E-05 6.24242E-18-6.30637E-18
 -1      1756 6.02686E-05-6.86507E-06-2.24266E-05 2.13505E-05 6.51914E-18-5.87804E-18
 -1      1757 7.18529E-05-1.51700E-05-2.42532E-05 2.15073E-05 6.15131E-18-4.96250E-18
 -1      1758 1.82923E-05 1.26484E-05-1.31166E-05 1.54791E-05 3.80072E-18-8.46482E-18
 -1      1759 2.91900E-05 7.82402E-06-1.53337E-05 1.96513E-05 5.45722E-18-8.07032E-18
 -1      1760 3.76059E-05 9.94730E-07-1.62159E-05 2.48530E-05 5.58523E-18-8.34666E-18
 -1      1761 3.48408E-05 5.64939E-06-1.67990E-05-9.22964E-06-2.03399E-18-7.74538E-18
 -1      1762 2.25429E-05 1.08937E-05-1.41949E-05-6.11984E-06-8.02352E-19-8.22109E-18
 -1      1763 6.99743E-05-1.05365E-05-2.49995E-05-8.51668E-06-2.77991E-18-5.10179E-18
 -1      1764 5.25057E-05-4.00292E-06-2.08565E-05-1.06010E-05-2.79733E-18-6.05999E-18
 -1      1765 4.49120E-05-2.12407E-06-1.80673E-05-1.29408E-05-2.17507E-18-7.45188E-18
 -1      1766 9.99255E-05-2.17511E-05-3.34297E-05 3.24220E-06-1.27801E-18-2.19164E-18
 -1      1767 8.66452E-05-1.80536E-05-2.94274E-05-2.48892E-06-2.37857E-18-3.28988E-18
 -1      1768 8.23804E-05-1.94975E-05-2.69792E-05-6.71820E-06-2.54496E-18-3.71932E-18
 -1      1769 1.18586E-04-2.55314E-05-4.01580E-05 1.66391E-05 1.00802E-18 6.43322E-19
 -1      1770 1.10487E-04-2.43511E-05-3.69305E-05 1.07165E-05-2.64380E-19-7.68788E-19
 -1      1771 1.10152E-04-2.88117E-05-3.49322E-05 8.17687E-06-7.28607E-19-5.06790E-19
 -1      1772 1.32806E-04-2.89042E-05-4.49824E-05 2.53049E-05 2.65140E-18 5.08283E-18
 -1      1773 1.25575E-04-2.66731E-05-4.25212E-05 2.14402E-05 1.78854E-18 2.48128E-18
 -1      1774 1.26640E-04-3.18968E-05-4.06239E-05 2.02176E-05 1.49320E-18 2.53612E-18
 -1      1775 1.45628E-04-3.87057E-05-4.64641E-05 2.23678E-05 2.93799E-18 1.11791E-17
 -1      1776 1.37775E-04-3.15083E-05-4.54629E-05 2.53981E-05 2.78134E-18 7.30481E-18
 -1      1777 1.36381E-04-3.58919E-05-4.31860E-05 2.34479E-05 2.91098E-18 6.06783E-18
 -1      1778 1.40850E-04-4.02608E-05-4.34203E-05 1.85679E-05 2.98145E-18 1.05444E-17
 -1      1779 1.17884E-04-2.66033E-05-3.89583E-05-2.45574E-05-4.40955E-18 5.81668E-18
 -1      1780 1.32546E-04-3.99649E-05-3.96967E-05 1.75161E-05 2.55129E-18 9.76432E-18
 -1      1781 1.38430E-04-4.15449E-05-4.16391E-05 1.77719E-05 2.43069E-18 1.03465E-17
 -1      1782 1.37587E-04-3.99501E-05-4.18088E-05 2.16054E-05 2.68380E-18 7.97680E-18
 -1      1783 1.09336E-04-3.03476E-05-3.37633E-05-1.27172E-05-3.64118E-18 2.11016E-18
 -1      1784 1.05699E-04-2.95857E-05-3.25636E-05-1.03413E-05-3.18102E-18 1.20173E-18
 -1      1785 1.03523E-04-2.90709E-05-3.18025E-05-8.12809E-06-2.88658E-18 1.05363E-18
 -1      1786 1.01335E-04-2.84011E-05-3.11673E-05-6.34627E-06-2.60792E-18 1.87538E-19
 -1      1787 1.07086E-04-2.88282E-05-3.35630E-05-1.21412E-05-3.57857E-18-3.57362E-19
 -1      1788 9.97450E-05-2.78525E-05-3.07253E-05-4.04880E-06-2.39314E-18-1.27775E-19
 -1      1789 9.86952E-05-2.75437E-05-3.04226E-05-2.27493E-06-2.18859E-18-8.75673E-19
 -1      1790 1.03306E-04-2.78364E-05-3.23978E-05-7.00771E-06-3.03214E-18-1.03607E-18
 -1      1791 9.80294E-05-2.74536E-05-3.01711E-05-4.20844E-08-2.01213E-18-1.23175E-18
 -1      1792 9.80538E-05-2.77012E-05-3.01130E-05 1.50900E-06-1.72535E-18-1.84660E-18
 -1      1793 1.01106E-04-2.72862E-05-3.16978E-05-1.86109E-06-2.58313E-18-1.90147E-18
 -1      1794 9.82343E-05-2.81155E-05-2.99865E-05 3.18817E-06-1.68847E-18-2.16390E-18
 -1      1795 9.90532E-05-2.87889E-05-3.01044E-05 4.15148E-06-1.29957E-18-2.57847E-18
 -1      1796 1.00740E-04-2.79013E-05-3.12594E-05 2.58044E-06-2.10810E-18-2.67120E-18
 -1      1797 9.96786E-05-2.94390E-05-3.00625E-05 4.90374E-06-9.25521E-19-2.73485E-18
 -1      1798 1.00863E-04-3.02301E-05-3.02785E-05 5.12184E-06-5.05627E-19-2.80012E-18
 -1      1799 1.01711E-04-2.94352E-05-3.09872E-05 5.30682E-06-1.33119E-18-3.14706E-18
 -1      1800 1.01477E-04-3.07868E-05-3.02882E-05 4.95785E-06-6.11052E-19-3.03669E-18
 -1      1801 1.02610E-04-3.14187E-05-3.05218E-05 4.56241E-06-5.65977E-19-3.13495E-18
 -1      1802 1.03106E-04-3.11268E-05-3.08354E-05 5.92433E-06-7.34910E-19-3.41433E-18
 -1      1803 1.02932E-04-3.16987E-05-3.05491E-05 3.80431E-06-8.52737E-19-3.07811E-18
 -1      1804 1.03740E-04-3.20462E-05-3.07353E-05 3.08734E-06-5.83503E-19-3.15966E-18
 -1      1805 1.04139E-04-3.23055E-05-3.07648E-05 4.85208E-06-6.80545E-19-3.58002E-18
 -1      1806 1.03715E-04-3.20472E-05-3.07500E-05 2.13044E-06-6.08375E-19-3.20645E-18
 -1      1807 1.04100E-04-3.21254E-05-3.08526E-05 1.37191E-06-5.64157E-19-3.41053E-18
 -1      1808 1.04468E-04-3.27284E-05-3.07277E-05 2.92454E-06-8.30132E-19-3.42433E-18
 -1      1809 1.03803E-04-3.19407E-05-3.08352E-05 5.06705E-07-7.11352E-19-3.71988E-18
 -1      1810 1.03801E-04-3.18310E-05-3.08475E-05-1.17001E-07-2.78439E-19-3.97139E-18
 -1      1811 1.04130E-04-3.25237E-05-3.06779E-05 9.07112E-07-8.64450E-19-3.70415E-18
 -1      1812 1.03341E-04-3.15631E-05-3.07921E-05-7.50876E-07 7.29573E-21-3.69202E-18
 -1      1813 1.03049E-04-3.13530E-05-3.07284E-05-1.17283E-06 1.45858E-19-3.68042E-18
 -1      1814 1.03336E-04-3.19610E-05-3.05850E-05-7.35844E-07-1.24428E-19-3.77076E-18
 -1      1815 1.02520E-04-3.10743E-05-3.06398E-05-1.55214E-06 3.27289E-19-3.65888E-18
 -1      1816 1.02052E-04-3.08295E-05-3.05239E-05-1.77967E-06 5.13284E-19-3.69732E-18
 -1      1817 1.02305E-04-3.12801E-05-3.04395E-05-1.83631E-06 3.06992E-19-3.26078E-18
 -1      1818 1.01518E-04-3.05783E-05-3.04129E-05-1.94404E-06 1.72262E-19-3.39723E-18
 -1      1819 1.00970E-04-3.03389E-05-3.02693E-05-2.01935E-06 2.61033E-20-3.45159E-18
 -1      1820 1.01205E-04-3.06305E-05-3.02491E-05-2.41928E-06 4.67186E-19-3.17987E-18
 -1      1821 1.00468E-04-3.01292E-05-3.01481E-05-2.02942E-06-6.56776E-20-3.30628E-18
 -1      1822 9.99132E-05-2.99157E-05-2.99968E-05-2.00222E-06-3.78553E-20-3.13479E-18
 -1      1823 1.00142E-04-3.00801E-05-3.00308E-05-2.59770E-06 2.08645E-19-3.32446E-18
 -1      1824 9.94645E-05-2.97483E-05-2.98759E-05-1.91617E-06 5.09237E-20-2.81152E-18
 -1      1825 9.89472E-05-2.95685E-05-2.97311E-05-1.82975E-06 3.62016E-19-2.45662E-18
 -1      1826 9.91743E-05-2.96450E-05-2.98032E-05-2.50267E-06 2.84259E-19-3.00139E-18
 -1      1827 9.85600E-05-2.94387E-05-2.96180E-05-1.69365E-06-5.88175E-20-2.96183E-18
 -1      1828 9.81054E-05-2.92932E-05-2.94880E-05-1.58022E-06-2.70754E-19-3.36257E-18
 -1      1829 9.83294E-05-2.93156E-05-2.95824E-05-2.24848E-06-1.16204E-19-2.89724E-18
 -1      1830 9.77809E-05-2.91944E-05-2.93874E-05-1.42635E-06-4.61437E-19-3.44716E-18
 -1      1831 9.73985E-05-2.90803E-05-2.92763E-05-1.30728E-06-7.78961E-19-3.73742E-18
 -1      1832 9.76145E-05-2.90734E-05-2.93796E-05-1.92091E-06-5.30947E-19-3.37728E-18
 -1      1833 9.71332E-05-2.90063E-05-2.91902E-05-1.15604E-06-1.05015E-18-2.89554E-18
 -1      1834 9.68229E-05-2.89192E-05-2.90988E-05-1.04400E-06-9.23440E-19-2.81270E-18
 -1      1835 9.70253E-05-2.88993E-05-2.92013E-05-1.57766E-06-5.71071E-19-2.68937E-18
 -1      1836 9.66111E-05-2.88647E-05-2.90276E-05-9.06793E-07-4.69121E-19-2.94140E-18
 -1      1837 9.63669E-05-2.87999E-05-2.89548E-05-8.08269E-07 1.36913E-19-3.11844E-18
 -1      1838 9.65511E-05-2.87765E-05-2.90502E-05-1.25360E-06-7.75301E-19-2.12687E-18
 -1      1839 9.62014E-05-2.87603E-05-2.88976E-05-6.90348E-07 2.50283E-19-3.37996E-18
 -1      1840 9.60147E-05-2.87134E-05-2.88413E-05-6.07746E-07-1.18349E-19-3.39503E-18
 -1      1841 9.61776E-05-2.86915E-05-2.89261E-05-9.67025E-07 5.96614E-20-2.59459E-18
 -1      1842 9.58882E-05-2.86852E-05-2.87965E-05-5.10415E-07-4.92845E-19-2.91336E-18
 -1      1843 9.57494E-05-2.86522E-05-2.87541E-05-4.43684E-07-1.10191E-19-2.76415E-18
 -1      1844 9.58899E-05-2.86340E-05-2.88268E-05-7.25129E-07 2.05491E-19-2.68673E-18
 -1      1845 9.56548E-05-2.86325E-05-2.87200E-05-3.65948E-07-9.65568E-20-3.09948E-18
 -1      1846 9.55546E-05-2.86101E-05-2.86890E-05-3.13700E-07 8.10178E-20-2.84055E-18
 -1      1847 9.56729E-05-2.85962E-05-2.87495E-05-5.28225E-07-2.49233E-19-2.17546E-18
 -1      1848 9.54856E-05-2.85969E-05-2.86636E-05-2.53376E-07 5.11132E-19-2.30603E-18
 -1      1849 9.54155E-05-2.85823E-05-2.86416E-05-2.13614E-07 1.09272E-18-1.84866E-18
 -1      1850 9.55130E-05-2.85725E-05-2.86907E-05-3.72771E-07 6.57333E-19-1.91815E-18
 -1      1851 9.53666E-05-2.85737E-05-2.86232E-05-1.68047E-07 9.98119E-19-2.04610E-18
 -1      1852 9.53195E-05-2.85649E-05-2.86082E-05-1.38612E-07 7.37249E-19-2.02391E-18
 -1      1853 9.53982E-05-2.85584E-05-2.86471E-05-2.53377E-07 9.30225E-19-1.52549E-18
 -1      1854 9.52859E-05-2.85596E-05-2.85953E-05-1.05111E-07 5.65014E-19-2.81877E-18
 -1      1855 9.52559E-05-2.85548E-05-2.85855E-05-8.39432E-08 2.27469E-19-2.89206E-18
 -1      1856 9.53182E-05-2.85510E-05-2.86157E-05-1.64082E-07 6.97688E-19-1.98768E-18
 -1      1857 9.52337E-05-2.85518E-05-2.85768E-05-6.00140E-08-4.38827E-19-2.69649E-18
 -1      1858 9.52161E-05-2.85497E-05-2.85708E-05-4.52799E-08-3.04478E-19-2.34158E-18
 -1      1859 9.52645E-05-2.85479E-05-2.85937E-05-9.90967E-08 6.77164E-20-2.38476E-18
 -1      1860 9.52023E-05-2.85484E-05-2.85651E-05-2.87467E-08-2.18200E-19-2.57542E-18
 -1      1861 9.51933E-05-2.85481E-05-2.85618E-05-1.88896E-08 7.82986E-20-2.20511E-18
 -1      1862 9.52302E-05-2.85476E-05-2.85789E-05-5.32027E-08-2.67928E-19-2.21517E-18
 -1      1863 9.51855E-05-2.85478E-05-2.85585E-05-7.92869E-09-2.41162E-19-2.61883E-18
 -1      1864 9.51823E-05-2.85486E-05-2.85570E-05-1.67434E-09-1.97271E-19-3.13338E-18
 -1      1865 9.52098E-05-2.85490E-05-2.85694E-05-2.19214E-08-3.46152E-19-2.19562E-18
 -1      1866 9.51786E-05-2.85489E-05-2.85552E-05 5.19412E-09-5.80836E-19-3.89567E-18
 -1      1867 9.51792E-05-2.85503E-05-2.85550E-05 8.85880E-09-8.57820E-19-3.87454E-18
 -1      1868 9.51993E-05-2.85513E-05-2.85637E-05-1.54911E-09-4.27481E-19-3.22325E-18
 -1      1869 9.51782E-05-2.85510E-05-2.85543E-05 1.28030E-08-3.23263E-19-3.40413E-18
 -1      1870 9.51810E-05-2.85527E-05-2.85548E-05 1.46629E-08-2.13866E-20-2.42379E-18
 -1      1871 9.51953E-05-2.85539E-05-2.85608E-05 1.08874E-08-5.61526E-19-3.02522E-18
 -1      1872 9.51817E-05-2.85536E-05-2.85548E-05 1.65827E-08-1.42791E-19-1.82426E-18
 -1      1873 9.51856E-05-2.85554E-05-2.85558E-05 1.72312E-08 3.46962E-20-1.83295E-18
 -1      1874 9.51956E-05-2.85566E-05-2.85597E-05 1.77137E-08 4.07360E-19-1.58260E-18
 -1      1875 9.51874E-05-2.85563E-05-2.85562E-05 1.78035E-08-7.14674E-19-1.56222E-18
 -1      1876 9.51918E-05-2.85579E-05-2.85573E-05 1.76787E-08-1.19916E-19-1.38134E-18
 -1      1877 9.51984E-05-2.85592E-05-2.85597E-05 2.07056E-08-3.71676E-19-1.53501E-18
 -1      1878 9.51940E-05-2.85588E-05-2.85579E-05 1.74005E-08-1.60859E-19-2.69842E-18
 -1      1879 9.51984E-05-2.85604E-05-2.85591E-05 1.68171E-08-3.57852E-19-2.81273E-18
 -1      1880 9.52026E-05-2.85615E-05-2.85605E-05 2.11879E-08-7.74660E-19-1.90331E-18
 -1      1881 9.52008E-05-2.85612E-05-2.85599E-05 1.60439E-08-4.02158E-19-2.32744E-18
 -1      1882 9.52049E-05-2.85625E-05-2.85610E-05 1.52221E-08 1.38332E-19-2.55424E-18
 -1      1883 9.52073E-05-2.85635E-05-2.85616E-05 2.01242E-08-4.18906E-19-1.42834E-18
 -1      1884 9.52072E-05-2.85632E-05-2.85618E-05 1.42006E-08 6.15751E-19-2.67828E-18
 -1      1885 9.52109E-05-2.85644E-05-2.85628E-05 1.32884E-08 9.53933E-19-2.16786E-18
 -1      1886 9.52121E-05-2.85652E-05-2.85629E-05 1.81971E-08 2.41996E-19-9.49947E-19
 -1      1887 9.52130E-05-2.85650E-05-2.85635E-05 1.21835E-08 1.13916E-18-2.61984E-18
 -1      1888 9.52162E-05-2.85659E-05-2.85644E-05 1.12760E-08 1.34963E-18-2.39354E-18
 -1      1889 9.52166E-05-2.85666E-05-2.85643E-05 1.58744E-08 1.27214E-18-1.19626E-18
 -1      1890 9.52181E-05-2.85664E-05-2.85650E-05 1.01925E-08 6.45791E-19-2.38783E-18
 -1      1891 9.52208E-05-2.85672E-05-2.85658E-05 9.34679E-09 2.45834E-19-2.33335E-18
 -1      1892 9.52206E-05-2.85678E-05-2.85655E-05 1.34639E-08 8.31455E-19-1.65334E-18
 -1      1893 9.52224E-05-2.85676E-05-2.85664E-05 8.34621E-09 1.05087E-19-1.63552E-18
 -1      1894 9.52246E-05-2.85682E-05-2.85670E-05 7.59228E-09-2.49527E-19-2.09441E-18
 -1      1895 9.52242E-05-2.85687E-05-2.85666E-05 1.11564E-08 9.47830E-20-2.19704E-18
 -1      1896 9.52260E-05-2.85686E-05-2.85675E-05 6.70598E-09-5.08353E-19-2.59301E-18
 -1      1897 9.52277E-05-2.85690E-05-2.85680E-05 6.05559E-09-5.81809E-19-3.13720E-18
 -1      1898 9.52271E-05-2.85694E-05-2.85676E-05 9.05971E-09-8.69812E-19-1.87606E-18
 -1      1899 9.52288E-05-2.85693E-05-2.85684E-05 5.29430E-09-3.84446E-19-2.66443E-18
 -1      1900 9.52303E-05-2.85697E-05-2.85688E-05 4.74702E-09 4.81328E-19-2.10030E-18
 -1      1901 9.52296E-05-2.85699E-05-2.85684E-05 7.22387E-09 2.24198E-20-1.19442E-18
 -1      1902 9.52312E-05-2.85699E-05-2.85691E-05 4.10791E-09 2.11058E-18-1.95364E-18
 -1      1903 9.52323E-05-2.85702E-05-2.85695E-05 3.65546E-09 2.04228E-18-8.02849E-19
 -1      1904 9.52316E-05-2.85704E-05-2.85691E-05 5.65998E-09 1.19464E-18-4.70248E-19
 -1      1905 9.52330E-05-2.85703E-05-2.85697E-05 3.12704E-09 1.13385E-18 5.12019E-19
 -1      1906 9.52338E-05-2.85706E-05-2.85700E-05 2.75626E-09 1.83280E-18 1.95139E-18
 -1      1907 9.52332E-05-2.85707E-05-2.85696E-05 4.35381E-09 2.59421E-18 7.36323E-19
 -1      1908 9.52344E-05-2.85707E-05-2.85702E-05 2.32183E-09 1.23784E-18 2.34011E-18
 -1      1909 9.52350E-05-2.85708E-05-2.85704E-05 2.01665E-09 9.04837E-19 2.77469E-18
 -1      1910 9.52344E-05-2.85709E-05-2.85701E-05 3.27526E-09 1.76509E-18 2.60219E-18
 -1      1911 9.52354E-05-2.85709E-05-2.85705E-05 1.65714E-09 9.52393E-20 3.02227E-18
 -1      1912 9.52359E-05-2.85710E-05-2.85706E-05 1.40060E-09 2.90230E-19 2.89181E-18
 -1      1913 9.52354E-05-2.85711E-05-2.85704E-05 2.38561E-09 7.67060E-19 2.33573E-18
 -1      1914 9.52362E-05-2.85711E-05-2.85708E-05 1.09640E-09 6.69353E-19 1.71824E-18
 -1      1915 9.52365E-05-2.85712E-05-2.85708E-05 8.74241E-10 9.64015E-19 2.06722E-18
 -1      1916 9.52361E-05-2.85713E-05-2.85706E-05 1.64411E-09-7.81661E-19 2.80087E-18
 -1      1917 9.52367E-05-2.85712E-05-2.85709E-05 6.27183E-10 1.15744E-18 1.46660E-18
 -1      1918 9.52369E-05-2.85713E-05-2.85710E-05 4.41936E-10 9.90624E-19 2.09800E-18
 -1      1919 9.52369E-05-2.85714E-05-2.85709E-05 5.35526E-10-1.04564E-19 2.44548E-18
 -1      1920 9.52366E-05-2.85713E-05-2.85708E-05 1.03043E-09 9.31068E-19 2.24673E-18
 -1      1921 1.23065E-04-3.55495E-05-3.74468E-05 1.65913E-05 2.87374E-18 8.21533E-18
 -1      1922 1.28677E-04-3.83021E-05-3.87382E-05 1.70962E-05 2.57146E-18 9.28938E-18
 -1      1923 1.30864E-04-3.89648E-05-3.94095E-05 2.08820E-05 2.84401E-18 7.60702E-18
 -1      1924 1.14812E-04-3.07543E-05-3.60584E-05 1.07845E-05 3.34342E-18 5.79234E-18
 -1      1925 1.19220E-04-3.31463E-05-3.68914E-05 1.36406E-05 3.05972E-18 7.10843E-18
 -1      1926 1.22688E-04-3.37389E-05-3.82353E-05 1.74958E-05 3.61048E-18 5.91279E-18
 -1      1927 1.11053E-04-2.91540E-05-3.52575E-05 9.37973E-07 3.64293E-18 2.44556E-18
 -1      1928 1.12755E-04-2.95052E-05-3.56658E-05 5.44254E-06 3.53440E-18 4.01480E-18
 -1      1929 1.16306E-04-2.90921E-05-3.75316E-05 8.50330E-06 4.39441E-18 3.03160E-18
 -1      1930 1.12621E-04-3.16385E-05-3.48543E-05-7.07083E-06 2.76850E-18-2.90373E-19
 -1      1931 1.11557E-04-3.00686E-05-3.48925E-05-3.59500E-06 3.34647E-18 1.10681E-18
 -1      1932 1.14726E-04-2.93256E-05-3.67451E-05-2.61189E-06 4.20126E-18 4.44113E-20
 -1      1933 1.16508E-04-3.54426E-05-3.47744E-05-9.07490E-06 1.27859E-18-1.82284E-18
 -1      1934 1.14185E-04-3.35013E-05-3.45539E-05-8.29983E-06 1.88224E-18-1.18424E-18
 -1      1935 1.16868E-04-3.32745E-05-3.58600E-05-9.20254E-06 2.65283E-18-2.14469E-18
 -1      1936 1.19102E-04-3.76049E-05-3.48791E-05-6.12267E-06 5.10145E-19-2.43943E-18
 -1      1937 1.17197E-04-3.64928E-05-3.46065E-05-7.39904E-06 1.13332E-18-1.86777E-18
 -1      1938 1.19160E-04-3.71810E-05-3.51294E-05-8.82438E-06 1.38850E-18-2.89231E-18
 -1      1939 1.19170E-04-3.76312E-05-3.48789E-05-1.53756E-06-2.27931E-19-2.38267E-18
 -1      1940 1.18502E-04-3.75225E-05-3.47574E-05-3.44330E-06 2.32669E-20-2.52980E-18
 -1      1941 1.19370E-04-3.85671E-05-3.46415E-05-4.36207E-06 3.53491E-19-3.27626E-18
 -1      1942 1.17234E-04-3.64025E-05-3.45979E-05 2.19536E-06 2.43323E-19-2.28893E-18
 -1      1943 1.17753E-04-3.68970E-05-3.47066E-05 6.52974E-07 9.92881E-20-2.07905E-18
 -1      1944 1.17517E-04-3.77024E-05-3.42386E-05 5.88637E-07-1.50017E-20-2.54896E-18
 -1      1945 1.14268E-04-3.48255E-05-3.40298E-05 4.29724E-06 5.88413E-19-2.27925E-18
 -1      1946 1.15554E-04-3.55332E-05-3.43341E-05 3.42333E-06 4.76112E-19-2.34515E-18
 -1      1947 1.14572E-04-3.58527E-05-3.37715E-05 4.07444E-06 5.84843E-19-2.39426E-18
 -1      1948 1.11026E-04-3.33775E-05-3.32781E-05 5.00689E-06 3.45558E-19-1.83377E-18
 -1      1949 1.12648E-04-3.40769E-05-3.36930E-05 4.70229E-06 4.95792E-19-1.87000E-18
 -1      1950 1.11365E-04-3.39871E-05-3.31874E-05 5.76769E-06 2.76993E-19-1.60507E-18
 -1      1951 1.07937E-04-3.21961E-05-3.24668E-05 4.84625E-06 3.50687E-20-1.79088E-18
 -1      1952 1.09587E-04-3.28027E-05-3.29111E-05 4.90077E-06 1.40444E-19-1.85787E-18
 -1      1953 1.08334E-04-3.24875E-05-3.25208E-05 6.11454E-06 1.29213E-19-1.03067E-18
 -1      1954 1.05202E-04-3.12752E-05-3.16905E-05 4.25844E-06-7.16643E-19-1.53129E-18
 -1      1955 1.06709E-04-3.17703E-05-3.21094E-05 4.49162E-06-5.34695E-19-1.61079E-18
 -1      1956 1.05652E-04-3.13828E-05-3.18381E-05 5.67648E-06-3.79816E-19-1.19837E-18
 -1      1957 1.02894E-04-3.05692E-05-3.10025E-05 3.52957E-06-6.17543E-19-1.28703E-18
 -1      1958 1.04182E-04-3.09603E-05-3.13680E-05 3.82390E-06-3.07265E-19-1.40477E-18
 -1      1959 1.03370E-04-3.05908E-05-3.11959E-05 4.88388E-06-4.45754E-19-1.66823E-18
 -1      1960 1.01010E-04-3.00316E-05-3.04234E-05 2.81467E-06 4.52668E-19-1.68965E-18
 -1      1961 1.02063E-04-3.03342E-05-3.07265E-05 3.10585E-06-4.39915E-19-1.54690E-18
 -1      1962 1.01481E-04-3.00224E-05-3.06282E-05 4.00273E-06-3.62289E-20-1.78300E-18
 -1      1963 9.95098E-05-2.96241E-05-2.99535E-05 2.18351E-06 1.11353E-18-8.94134E-19
 -1      1964 1.00345E-04-2.98547E-05-3.01961E-05 2.44217E-06 1.13187E-18-1.04712E-18
 -1      1965 9.99510E-05-2.96102E-05-3.01486E-05 3.17249E-06 7.10872E-19-6.29707E-19
 -1      1966 9.83400E-05-2.93173E-05-2.95825E-05 1.65791E-06 8.79832E-19-6.22518E-19
 -1      1967 9.89865E-05-2.94905E-05-2.97717E-05 1.87445E-06 1.01093E-18-4.28599E-19
 -1      1968 9.87356E-05-2.93081E-05-2.97570E-05 2.45264E-06 8.02244E-19 9.59900E-20
 -1      1969 9.74439E-05-2.90882E-05-2.92958E-05 1.23585E-06-2.71729E-20-1.56879E-18
 -1      1970 9.79346E-05-2.92165E-05-2.94403E-05 1.41058E-06 7.38393E-19-9.14580E-19
 -1      1971 9.77865E-05-2.90854E-05-2.94456E-05 1.85833E-06 8.85370E-19-1.86038E-19
 -1      1972 9.67688E-05-2.89191E-05-2.90785E-05 9.05247E-07-5.41489E-19-2.28104E-18
 -1      1973 9.71347E-05-2.90128E-05-2.91868E-05 1.04276E-06-6.71516E-19-2.32441E-18
 -1      1974 9.70572E-05-2.89217E-05-2.92031E-05 1.38308E-06 5.12397E-20-1.02950E-18
 -1      1975 9.62686E-05-2.87961E-05-2.89165E-05 6.51101E-07 1.00757E-19-2.61757E-18
 -1      1976 9.65367E-05-2.88634E-05-2.89963E-05 7.57315E-07-4.86655E-20-2.24851E-18
 -1      1977 9.65058E-05-2.88020E-05-2.90178E-05 1.01156E-06-1.01756E-19-2.13392E-18
 -1      1978 9.59043E-05-2.87083E-05-2.87979E-05 4.58773E-07 1.61651E-19-3.02402E-18
 -1      1979 9.60972E-05-2.87557E-05-2.88556E-05 5.39540E-07 3.23321E-19-2.99136E-18
 -1      1980 9.60955E-05-2.87159E-05-2.88787E-05 7.26247E-07 6.58773E-19-2.40088E-18
 -1      1981 9.56443E-05-2.86470E-05-2.87127E-05 3.15348E-07-1.44552E-19-2.75369E-18
 -1      1982 9.57801E-05-2.86795E-05-2.87536E-05 3.75880E-07 1.91377E-20-2.90828E-18
 -1      1983 9.57955E-05-2.86549E-05-2.87760E-05 5.10492E-07 6.50635E-20-2.27672E-18
 -1      1984 9.54629E-05-2.86054E-05-2.86528E-05 2.09990E-07-3.29405E-19-3.22445E-18
 -1      1985 9.55561E-05-2.86269E-05-2.86811E-05 2.54692E-07-4.84282E-19-2.53297E-18
 -1      1986 9.55805E-05-2.86129E-05-2.87016E-05 3.49730E-07-5.06436E-19-2.24736E-18
 -1      1987 9.53400E-05-2.85782E-05-2.86118E-05 1.33869E-07 3.21466E-19-2.82031E-18
 -1      1988 9.54019E-05-2.85919E-05-2.86308E-05 1.66354E-07 2.84596E-19-3.46085E-18
 -1      1989 9.54299E-05-2.85850E-05-2.86488E-05 2.31773E-07 3.77305E-19-3.05681E-18
 -1      1990 9.52598E-05-2.85615E-05-2.85846E-05 7.99267E-08 6.95743E-20-2.56410E-18
 -1      1991 9.52992E-05-2.85695E-05-2.85969E-05 1.03098E-07-3.73318E-19-3.05897E-18
 -1      1992 9.53274E-05-2.85672E-05-2.86123E-05 1.46693E-07-1.35180E-19-2.72436E-18
 -1      1993 9.52104E-05-2.85520E-05-2.85676E-05 4.25951E-08 6.89493E-19-3.21908E-18
 -1      1994 9.52337E-05-2.85562E-05-2.85750E-05 5.87559E-08 8.11158E-19-2.88441E-18
 -1      1995 9.52602E-05-2.85567E-05-2.85878E-05 8.65450E-08 7.77145E-19-2.92244E-18
 -1      1996 9.51824E-05-2.85475E-05-2.85575E-05 1.75331E-08 1.26344E-18-2.37695E-18
 -1      1997 9.51947E-05-2.85492E-05-2.85616E-05 2.84885E-08 5.85407E-19-2.43111E-18
 -1      1998 9.52184E-05-2.85513E-05-2.85721E-05 4.50573E-08 8.75087E-19-2.52582E-18
 -1      1999 9.51691E-05-2.85463E-05-2.85524E-05 1.39095E-09-3.20662E-19-2.16732E-18
 -1      2000 9.51740E-05-2.85463E-05-2.85542E-05 8.54047E-09 1.22693E-18-1.35825E-18
 -1      2001 9.51946E-05-2.85493E-05-2.85626E-05 1.73362E-08 7.16695E-19-1.81345E-18
 -1      2002 9.51655E-05-2.85472E-05-2.85505E-05-8.38743E-09-6.06249E-19-4.59351E-18
 -1      2003 9.51656E-05-2.85462E-05-2.85509E-05-3.97045E-09-7.13519E-19-3.50599E-18
 -1      2004 9.51830E-05-2.85495E-05-2.85575E-05-3.94752E-10 3.65015E-19-1.99228E-18
 -1      2005 9.51680E-05-2.85493E-05-2.85507E-05-1.37293E-08 1.36216E-19-3.81301E-18
 -1      2006 9.51652E-05-2.85477E-05-2.85502E-05-1.12316E-08-2.08792E-19-3.86790E-18
 -1      2007 9.51795E-05-2.85510E-05-2.85553E-05-1.10164E-08-1.21646E-20-3.52866E-18
 -1      2008 9.51739E-05-2.85519E-05-2.85522E-05-1.60679E-08 6.21976E-19-3.78855E-18
 -1      2009 9.51696E-05-2.85501E-05-2.85511E-05-1.48816E-08 6.76312E-19-3.57597E-18
 -1      2010 9.51811E-05-2.85532E-05-2.85550E-05-1.66988E-08 3.62205E-19-3.27066E-18
 -1      2011 9.51815E-05-2.85547E-05-2.85542E-05-1.64529E-08-5.04847E-19-3.53918E-18
 -1      2012 9.51765E-05-2.85529E-05-2.85529E-05-1.61302E-08 1.71608E-19-3.36351E-18
 -1      2013 9.51856E-05-2.85556E-05-2.85558E-05-1.90536E-08 5.75502E-20-2.67169E-18
 -1      2014 9.51896E-05-2.85575E-05-2.85566E-05-1.56382E-08 3.55431E-19-5.24216E-18
 -1      2015 9.51846E-05-2.85558E-05-2.85552E-05-1.58556E-08-2.12793E-19-4.01526E-18
 -1      2016 9.51917E-05-2.85581E-05-2.85573E-05-1.92583E-08 2.31219E-19-2.81513E-18
 -1      2017 9.51976E-05-2.85600E-05-2.85589E-05-1.41536E-08 1.73494E-19-5.26580E-18
 -1      2018 9.51928E-05-2.85585E-05-2.85576E-05-1.46821E-08 2.80828E-19-6.09808E-18
 -1      2019 9.51983E-05-2.85604E-05-2.85591E-05-1.81567E-08 6.79609E-19-3.97649E-18
 -1      2020 9.52049E-05-2.85623E-05-2.85611E-05-1.23606E-08 1.06848E-18-6.16112E-18
 -1      2021 9.52006E-05-2.85609E-05-2.85599E-05-1.30425E-08 6.87279E-19-5.10294E-18
 -1      2022 9.52047E-05-2.85625E-05-2.85610E-05-1.63394E-08 3.38420E-19-4.95864E-18
 -1      2023 9.52114E-05-2.85642E-05-2.85631E-05-1.04967E-08 5.56162E-19-5.60238E-18
 -1      2024 9.52077E-05-2.85631E-05-2.85620E-05-1.12273E-08 1.02928E-18-5.48408E-18
 -1      2025 9.52107E-05-2.85643E-05-2.85627E-05-1.42076E-08 1.15027E-18-4.50126E-18
 -1      2026 9.52170E-05-2.85658E-05-2.85648E-05-8.70965E-09-1.01748E-18-5.48411E-18
 -1      2027 9.52139E-05-2.85649E-05-2.85639E-05-9.42257E-09-2.88419E-19-5.46171E-18
 -1      2028 9.52160E-05-2.85659E-05-2.85643E-05-1.20231E-08-6.82391E-20-3.17981E-18
 -1      2029 9.52217E-05-2.85671E-05-2.85662E-05-7.08346E-09-6.75297E-19-5.94618E-18
 -1      2030 9.52191E-05-2.85664E-05-2.85655E-05-7.73993E-09-6.16812E-19-5.24725E-18
 -1      2031 9.52206E-05-2.85672E-05-2.85658E-05-9.94690E-09-5.07967E-19-4.56532E-18
 -1      2032 9.52256E-05-2.85682E-05-2.85674E-05-5.65804E-09 4.94501E-20-5.98544E-18
 -1      2033 9.52234E-05-2.85676E-05-2.85668E-05-6.23849E-09-3.66234E-19-5.91522E-18
 -1      2034 9.52244E-05-2.85682E-05-2.85670E-05-8.06884E-09-1.12493E-19-4.80834E-18
 -1      2035 9.52286E-05-2.85690E-05-2.85684E-05-4.44368E-09 1.25416E-18-4.86173E-18
 -1      2036 9.52269E-05-2.85686E-05-2.85679E-05-4.94163E-09 6.11352E-19-4.66653E-18
 -1      2037 9.52276E-05-2.85690E-05-2.85680E-05-6.42961E-09 2.25450E-20-4.15805E-18
 -1      2038 9.52311E-05-2.85697E-05-2.85692E-05-3.43131E-09-3.28971E-18-4.67685E-18
 -1      2039 9.52297E-05-2.85693E-05-2.85688E-05-3.84900E-09-7.58400E-19-4.51098E-18
 -1      2040 9.52301E-05-2.85696E-05-2.85688E-05-5.03692E-09-7.48223E-19-3.62446E-18
 -1      2041 9.52330E-05-2.85702E-05-2.85698E-05-2.59960E-09-2.19089E-18-4.47532E-18
 -1      2042 9.52320E-05-2.85699E-05-2.85695E-05-2.94500E-09-2.62733E-18-5.41519E-18
 -1      2043 9.52321E-05-2.85701E-05-2.85694E-05-3.87704E-09-2.28718E-18-4.20639E-18
 -1      2044 9.52344E-05-2.85706E-05-2.85702E-05-1.91962E-09-8.15030E-19-3.97342E-18
 -1      2045 9.52336E-05-2.85704E-05-2.85700E-05-2.20448E-09-2.14000E-18-4.12681E-18
 -1      2046 9.52337E-05-2.85705E-05-2.85699E-05-2.92271E-09-2.42840E-18-4.14587E-18
 -1      2047 9.52355E-05-2.85708E-05-2.85706E-05-1.35790E-09-8.84397E-19-2.59161E-18
 -1      2048 9.52349E-05-2.85707E-05-2.85704E-05-1.59657E-09-1.03863E-18-2.71155E-18
 -1      2049 9.52349E-05-2.85708E-05-2.85703E-05-2.13851E-09-1.51359E-18-2.69470E-18
 -1      2050 9.52363E-05-2.85710E-05-2.85708E-05-8.81971E-10-1.14628E-18-1.52625E-18
 -1      2051 9.52359E-05-2.85709E-05-2.85707E-05-1.08871E-09-1.43073E-18-2.08668E-18
 -1      2052 9.52358E-05-2.85710E-05-2.85706E-05-1.48600E-09-1.70991E-18-1.69064E-18
 -1      2053 9.52367E-05-2.85712E-05-2.85710E-05-4.70857E-10 2.20616E-19 1.56520E-18
 -1      2054 9.52365E-05-2.85711E-05-2.85709E-05-6.52842E-10-3.48794E-19 3.35938E-19
 -1      2055 9.52364E-05-2.85712E-05-2.85708E-05-9.31278E-10-1.48792E-18-6.46126E-19
 -1      2056 9.52370E-05-2.85712E-05-2.85710E-05-1.98704E-10 3.70204E-19 3.50185E-18
 -1      2057 9.52369E-05-2.85712E-05-2.85710E-05-3.44916E-10 5.18239E-19 3.10058E-18
 -1      2058 9.52368E-05-2.85713E-05-2.85709E-05-5.35621E-10-2.52775E-19 4.03865E-18
 -1      2059 9.52370E-05-2.85713E-05-2.85710E-05-2.71151E-10 7.08538E-19 4.15739E-18
 -1      2060 9.52375E-05-2.85726E-05-2.85707E-05-1.08347E-09 4.17970E-19-7.30770E-19
 -1      2061 9.52374E-05-2.85723E-05-2.85707E-05-1.02841E-09 6.54154E-20 1.03185E-18
 -1      2062 9.52373E-05-2.85721E-05-2.85708E-05-9.17623E-10-7.54074E-19 2.92913E-20
 -1      2063 9.52372E-05-2.85718E-05-2.85709E-05-7.84009E-10-1.15211E-19-1.48697E-18
 -1      2064 9.52373E-05-2.85723E-05-2.85707E-05-1.27353E-09-7.01256E-19 8.69932E-19
 -1      2065 9.52371E-05-2.85716E-05-2.85709E-05-6.18422E-10-3.98806E-19-2.17177E-18
 -1      2066 9.52370E-05-2.85714E-05-2.85710E-05-4.53129E-10-1.78414E-19 1.15758E-18
 -1      2067 9.52369E-05-2.85714E-05-2.85709E-05-5.86191E-10-1.27401E-18 1.14129E-18
 -1      2068 9.52371E-05-2.85718E-05-2.85708E-05-9.57603E-10-1.47710E-18-1.71351E-18
 -1      2069 9.52378E-05-2.85732E-05-2.85705E-05-1.06660E-09-1.51174E-18-6.46650E-18
 -1      2070 9.52377E-05-2.85729E-05-2.85706E-05-1.09336E-09-3.55569E-19-2.78681E-18
 -1      2071 9.52376E-05-2.85729E-05-2.85706E-05-1.40227E-09-8.73607E-19-3.28584E-18
 -1      2072 9.52381E-05-2.85737E-05-2.85704E-05-8.73696E-10-9.80964E-19-3.15174E-18
 -1      2073 9.52379E-05-2.85735E-05-2.85705E-05-9.75483E-10-7.90999E-19-5.04297E-18
 -1      2074 9.52379E-05-2.85734E-05-2.85705E-05-1.30645E-09-9.95207E-19-6.13290E-18
 -1      2075 9.52382E-05-2.85741E-05-2.85703E-05-5.40144E-10-9.08694E-19 5.49497E-19
 -1      2076 9.52381E-05-2.85739E-05-2.85704E-05-6.97757E-10-8.59793E-19-2.20061E-19
 -1      2077 9.52382E-05-2.85739E-05-2.85704E-05-1.00186E-09-2.94968E-19-1.84607E-18
 -1      2078 9.52383E-05-2.85742E-05-2.85703E-05-1.21732E-10-2.02094E-18-7.20983E-20
 -1      2079 9.52383E-05-2.85742E-05-2.85703E-05-3.08887E-10-1.32136E-18-8.87508E-20
 -1      2080 9.52384E-05-2.85742E-05-2.85704E-05-5.40388E-10-1.20777E-18-1.55232E-19
 -1      2081 9.52383E-05-2.85742E-05-2.85703E-05 3.15406E-10-2.86335E-18-2.29453E-19
 -1      2082 9.52383E-05-2.85742E-05-2.85703E-05 1.28505E-10-2.17938E-18-1.63224E-19
 -1      2083 9.52384E-05-2.85743E-05-2.85704E-05 4.35631E-12-2.33692E-18-5.73537E-19
 -1      2084 9.52381E-05-2.85739E-05-2.85704E-05 7.02917E-10-2.07748E-18-9.77130E-19
 -1      2085 9.52382E-05-2.85741E-05-2.85703E-05 5.46111E-10-2.92594E-18 1.23108E-19
 -1      2086 9.52384E-05-2.85742E-05-2.85704E-05 5.48422E-10-1.88337E-18-2.15914E-19
 -1      2087 9.52379E-05-2.85735E-05-2.85705E-05 9.75050E-10-1.63072E-18-2.71455E-18
 -1      2088 9.52381E-05-2.85737E-05-2.85704E-05 8.75385E-10-1.62051E-18-1.84750E-18
 -1      2089 9.52382E-05-2.85739E-05-2.85704E-05 1.00511E-09-3.94592E-19-1.14639E-18
 -1      2090 9.52377E-05-2.85729E-05-2.85706E-05 1.09330E-09-1.22824E-18 9.47886E-19
 -1      2091 9.52378E-05-2.85732E-05-2.85705E-05 1.06663E-09-1.52110E-18-3.97555E-19
 -1      2092 9.52379E-05-2.85734E-05-2.85705E-05 1.30633E-09 5.02343E-19-1.51542E-18
 -1      2093 9.52374E-05-2.85723E-05-2.85708E-05 1.02624E-09-5.09454E-19 2.47178E-18
 -1      2094 9.52375E-05-2.85726E-05-2.85707E-05 1.08252E-09-1.10778E-18 8.09100E-19
 -1      2095 9.52376E-05-2.85729E-05-2.85706E-05 1.40161E-09 6.65440E-19 1.12401E-18
 -1      2096 9.52372E-05-2.85718E-05-2.85709E-05 7.79690E-10-1.29390E-18 1.29852E-18
 -1      2097 9.52373E-05-2.85720E-05-2.85708E-05 9.13386E-10-1.54137E-18 2.30422E-18
 -1      2098 9.52373E-05-2.85723E-05-2.85707E-05 1.26818E-09 7.90246E-20 1.39136E-18
 -1      2099 6.09252E-05-3.04577E-05-1.36297E-05 4.41020E-05 6.75128E-18 8.54071E-18
 -1      2100 4.49997E-05-2.90027E-05-7.78422E-06 3.76596E-05 4.81623E-18 7.91319E-18
 -1      2101 1.19388E-05-1.96729E-05 2.12114E-06 5.06023E-06 3.94061E-18 9.57740E-18
 -1      2102 1.17679E-05-1.86198E-05 1.90796E-06-6.63544E-06 9.96534E-19 9.61721E-18
 -1      2103 2.70027E-05-2.05793E-05-3.40366E-06 2.83903E-05 3.56580E-18 9.56300E-18
 -1      2104 1.74252E-05-2.22073E-05 6.50860E-07 1.58726E-05 3.02539E-18 9.80356E-18
 -1      2105 1.94149E-05-1.25075E-05-3.21010E-06 1.26703E-05 9.72288E-19 1.04456E-17
 -1      2106 1.02302E-04-3.74347E-05-2.77982E-05 4.61512E-05 7.48904E-18 5.89620E-18
 -1      2107 8.36567E-05-3.79540E-05-2.04447E-05 4.23241E-05 5.79498E-18 6.15221E-18
 -1      2108 1.38432E-04-4.11572E-05-4.15265E-05 3.45828E-05 7.72981E-18 1.00331E-18
 -1      2109 1.17764E-04-3.96373E-05-3.39235E-05 3.81690E-05 8.11288E-18 4.06661E-18
 -1      2110 1.22697E-04-4.96936E-05-3.09855E-05 3.40997E-05 2.57307E-18-1.01009E-19
 -1      2111 1.08136E-04-1.81166E-05-3.86551E-05-1.51726E-05-5.94981E-19-5.05869E-18
 -1      2112 1.08021E-04-1.70156E-05-3.92220E-05-1.84671E-05-1.79379E-18-5.10629E-18
 -1      2113 1.10764E-04-2.05467E-05-3.86625E-05-2.03781E-05-2.60209E-18-4.12420E-18
 -1      2114 1.11467E-04-2.27836E-05-3.80083E-05-1.51835E-05-4.64426E-19-3.97671E-18
 -1      2115 1.76772E-04-2.66254E-05-6.30757E-05 1.67673E-05 1.06722E-17-2.59277E-18
 -1      2116 1.67333E-04-2.65864E-05-5.96899E-05 2.03979E-05 1.08825E-17-6.61956E-19
 -1      2117 1.69731E-04-2.14484E-05-6.30769E-05 1.03701E-05 1.16857E-17-4.53628E-18
 -1      2118 1.77066E-04-2.38940E-05-6.41403E-05 1.51395E-05 1.10614E-17-2.76736E-18
 -1      2119 1.56307E-04-1.66931E-05-5.88356E-05 8.08974E-06 1.15463E-17-3.56707E-18
 -1      2120 1.71690E-04-3.16508E-05-5.90018E-05 2.79486E-06 1.20677E-17-8.05062E-18
 -1      2121 1.73720E-04-2.67637E-05-6.20035E-05 1.03770E-05 1.18534E-17-5.42207E-18
 -1      2122 1.50636E-04-3.76729E-05-4.85643E-05-5.41010E-06 1.13336E-17-8.75239E-18
 -1      2123 1.67619E-04-3.74446E-05-5.48198E-05-2.23744E-06 1.15832E-17-8.13109E-18
 -1      2124 1.18716E-04-3.86850E-05-3.50693E-05-1.92407E-05 9.95348E-18-1.06718E-17
 -1      2125 1.40076E-04-4.18247E-05-4.20415E-05-1.53822E-05 1.02823E-17-9.25553E-18
 -1      2126 7.50800E-05-2.69182E-05-2.20422E-05-2.71858E-05 9.70276E-18-1.27023E-17
 -1      2127 9.88709E-05-3.30210E-05-2.86746E-05-2.92715E-05 1.01309E-17-1.24558E-17
 -1      2128 3.66925E-05-1.32243E-05-1.14828E-05-2.29011E-05 8.52750E-18-1.26363E-17
 -1      2129 5.41964E-05-1.74609E-05-1.65031E-05-2.95489E-05 9.93400E-18-1.33439E-17
 -1      2130 1.36610E-05-2.63380E-06-5.61803E-06-1.30615E-05 4.95197E-18-1.15980E-17
 -1      2131 2.36979E-05-6.52003E-06-8.13442E-06-1.93068E-05 8.39516E-18-1.29546E-17
 -1      2132 3.87799E-05-1.06063E-05-1.24441E-05-2.36894E-05 3.24879E-18-1.16083E-17
 -1      2133 1.84192E-06 1.97032E-06-2.35950E-06 1.91519E-06 2.42993E-18-1.09977E-17
 -1      2134 4.21553E-06 2.87722E-06-3.48082E-06-5.01875E-06 5.15155E-18-1.15211E-17
 -1      2135 5.46033E-06 5.44219E-06-4.83649E-06 1.50111E-05 6.35275E-21-1.08835E-17
 -1      2136 2.48342E-06 2.58657E-06-2.87246E-06 7.93234E-06 2.62728E-18-1.08412E-17
 -1      2137 3.51014E-06 9.03626E-06-5.51668E-06 5.69328E-06 2.35936E-18-1.24114E-17
 -1      2138 2.47995E-05-2.75141E-07-1.07624E-05 2.87174E-05-2.59531E-18-1.08072E-17
 -1      2139 1.43133E-05 1.11312E-06-7.22623E-06 2.14754E-05 1.37008E-19-1.04541E-17
 -1      2140 5.66491E-05-1.08694E-05-1.99513E-05 3.67126E-05-6.60389E-18-1.14681E-17
 -1      2141 4.24985E-05-8.25701E-06-1.54093E-05 3.20396E-05-2.90765E-18-9.84602E-18
 -1      2142 8.85126E-05-1.96336E-05-2.97855E-05 3.85706E-05-8.90486E-18-1.15734E-17
 -1      2143 6.96228E-05-1.58634E-05-2.40534E-05 3.56035E-05-7.59323E-18-1.10290E-17
 -1      2144 7.43705E-05-2.00863E-05-2.34179E-05 3.36937E-05-1.08950E-18-8.18827E-18
 -1      2145 1.26310E-04-2.84206E-05-4.17521E-05 3.01707E-05-1.00695E-17-1.06769E-17
 -1      2146 1.06113E-04-2.46594E-05-3.56186E-05 3.15876E-05-9.50011E-18-1.07412E-17
 -1      2147 1.55166E-04-3.00996E-05-5.28720E-05 1.73266E-05-1.09576E-17-9.87556E-18
 -1      2148 1.37602E-04-2.75572E-05-4.73191E-05 2.28061E-05-1.11132E-17-1.09293E-17
 -1      2149 1.67708E-04-2.56231E-05-6.01294E-05 3.33863E-07-1.09871E-17-6.85080E-18
 -1      2150 1.61193E-04-2.67440E-05-5.69208E-05 9.73564E-06-1.13178E-17-9.45797E-18
 -1      2151 1.69546E-04-2.18490E-05-6.22608E-05-1.15382E-05-1.02720E-17-4.22352E-18
 -1      2152 1.65398E-04-2.05208E-05-6.14018E-05-4.80953E-06-1.07569E-17-6.41416E-18
 -1      2153 1.58880E-04-2.16087E-05-5.83161E-05-1.88717E-05-9.37242E-18-2.05829E-18
 -1      2154 1.69342E-04-2.32280E-05-6.14732E-05-1.41359E-05-9.71462E-18-4.12272E-18
 -1      2155 1.48922E-04-1.21090E-05-5.76702E-05-7.78823E-06-1.05854E-17-5.18659E-18
 -1      2156 1.41744E-04-2.95787E-05-4.78248E-05-2.93883E-05-7.33650E-18 1.14180E-18
 -1      2157 1.55079E-04-2.86796E-05-5.35133E-05-2.35621E-05-7.46130E-18-1.54202E-18
 -1      2158 1.13156E-04-3.32838E-05-3.46478E-05-3.89178E-05-6.18059E-18 3.68205E-18
 -1      2159 1.32827E-04-3.30024E-05-4.21729E-05-3.91929E-05-6.54524E-18 2.67789E-18
 -1      2160 7.86093E-05-3.37634E-05-2.01400E-05-4.21323E-05-4.22034E-18 5.59169E-18
 -1      2161 9.76516E-05-3.26872E-05-2.76619E-05-4.64269E-05-5.47099E-18 4.80564E-18
 -1      2162 4.48181E-05-2.94440E-05-7.72261E-06-3.69814E-05-1.15408E-18 8.05761E-18
 -1      2163 5.98497E-05-2.85942E-05-1.38556E-05-4.39110E-05-4.05941E-18 7.86184E-18
 -1      2164 1.81210E-05-2.25597E-05 5.70608E-07-1.93558E-05 1.50242E-18 9.92553E-18
 -1      2165 2.76471E-05-2.20461E-05-3.15036E-06-3.06129E-05-1.17653E-18 1.01862E-17
 -1      2166 1.65603E-04-3.21818E-05-5.59615E-05 2.49593E-05 1.01303E-17-3.24837E-19
 -1      2167 1.48854E-04-3.35759E-05-4.93132E-05 2.53849E-05 9.74834E-18 4.15046E-19
 -1      2168 1.56642E-04-2.74579E-05-5.44961E-05 8.19783E-06 9.73622E-18-3.74600E-18
 -1      2169 1.39196E-05 1.54190E-05-1.21843E-05 7.58996E-06 2.67898E-18-8.93037E-18
 -1      2170 1.33982E-05 1.30434E-05-1.09784E-05 1.38554E-05 3.53679E-18-1.04681E-17
 -1      2171 1.44431E-05 1.50674E-05-1.23410E-05 2.55828E-06 8.33202E-19-9.00269E-18
 -1      2172 1.46695E-04-4.34449E-05-4.38332E-05 1.79952E-05 6.54749E-18-2.95614E-18
 -1      2173 1.11167E-04-2.79359E-05-3.58022E-05-1.75563E-05-4.39218E-18 1.35940E-18
 -1      2174 1.11166E-04-2.68154E-05-3.62051E-05-1.94062E-05-4.46454E-18-5.92447E-19
 -1      2175 1.14582E-04-2.58662E-05-3.78969E-05-2.22968E-05-4.68348E-18 2.30012E-18
 -1      2176 1.12533E-04-1.81232E-05-4.08916E-05-2.78383E-05-4.19991E-18 1.96035E-18
 -1      2177 4.10186E-05-2.46208E-05-7.38218E-06 3.47867E-05 1.81074E-18 7.90366E-18
 -1      2178 3.85047E-05-1.77073E-05-8.42433E-06 3.19902E-05-8.87055E-19 7.48756E-18
 -1      2179 5.51883E-05-2.78209E-05-1.21487E-05 4.11041E-05-1.17039E-18 5.46484E-18
 -1      2180 8.52447E-05-4.08218E-05-1.90931E-05 4.43182E-05 1.26801E-18 4.12029E-18
 -1      2181 9.52371E-05-2.85717E-05-2.85709E-05 7.26073E-10-5.07819E-19 1.89354E-18
 -1      2182 1.97335E-05-1.38967E-05-2.86903E-06-1.52244E-05 1.87565E-18 1.09792E-17
 -1      2183 4.42504E-05-2.58745E-05-8.22781E-06-3.80576E-05 1.97189E-18 8.55059E-18
 -1      2184 8.23738E-05-3.89060E-05-1.87013E-05-4.46180E-05 9.72817E-19 3.90832E-18
 -1      2185 1.17174E-04-4.38218E-05-3.10468E-05-3.55651E-05-1.18839E-18-3.68459E-20
 -1      2186 1.48026E-04-2.33189E-05-5.26916E-05-9.24301E-06-7.84268E-18-4.79569E-18
 -1      2187 1.52019E-04-1.55442E-05-5.76101E-05-6.91851E-06-1.12046E-17-4.91004E-18
 -1      2188 1.49209E-04-2.48755E-05-5.23953E-05 4.08182E-07-1.02237E-17-5.45997E-18
 -1      2189 1.06256E-04-2.95832E-05-3.27795E-05 2.64115E-05-4.17291E-18-6.69812E-18
 -1      2190 1.32115E-05 5.73837E-06-8.16124E-06 2.03544E-05 2.31748E-18-1.14595E-17
 -1      2191 1.23576E-05 3.10382E-06-6.92126E-06-1.06253E-05 2.48647E-18-1.23747E-17
 -1      2192 7.59731E-05-2.76545E-05-2.09292E-05-2.61127E-05 4.19684E-18-9.89774E-18
 -1      2193 1.17749E-04-4.20840E-05-3.22623E-05-1.57053E-05 5.65649E-18-6.68754E-18
 -1      2194 1.46566E-04-4.25963E-05-4.41972E-05 2.50375E-06 8.29314E-18-3.92134E-18
 -1      2195 1.50004E-04-1.90424E-05-5.61630E-05 1.59665E-05 1.16567E-17-2.16057E-18
 -1      2196 1.62918E-04-2.10546E-05-6.01408E-05 1.30645E-05 1.16149E-17-3.71466E-18
 -1      2197 1.46898E-04-1.43490E-05-5.69294E-05 1.33526E-05 1.17433E-17-2.20170E-18
 -1      2198 1.58321E-04-3.03885E-05-5.40219E-05 1.31188E-05 1.11061E-17-3.44658E-18
 -1      2199 4.13206E-05-6.59424E-06-1.49967E-05 3.16898E-05 1.37008E-18-9.84358E-18
 -1      2200 1.33719E-04-3.15911E-05-4.33614E-05 1.22796E-05-7.32721E-18-5.69630E-18
 -1      2201 1.39249E-04-3.75988E-05-4.28439E-05-2.03169E-05-4.23299E-18-2.94556E-18
 -1      2202 1.12689E-04-2.24986E-05-3.90534E-05-2.51324E-05-4.62451E-18 1.15736E-18
 -1      2203 9.92838E-05-2.75240E-05-3.06662E-05 1.09619E-05 4.75710E-18-2.84702E-18
 -1      2204 1.08112E-04-2.98497E-05-3.36558E-05 2.92966E-06 3.29991E-18-2.55938E-18
 -1      2205 1.12420E-04-2.89061E-05-3.57264E-05-5.69530E-06 2.18034E-18-2.36541E-18
 -1      2206 1.14028E-04-2.78295E-05-3.72058E-05-1.10214E-05 6.75515E-19-2.88020E-18
 -1      2207 1.56239E-05 1.25794E-05-1.16859E-05-2.90510E-06 4.61633E-19-1.03078E-17
 -1      2208 9.88397E-05-2.97624E-05-2.93495E-05-5.39859E-06-1.99582E-18-2.74370E-18
 -1      2209 7.97277E-05-2.20558E-05-2.46957E-05-1.25767E-05-2.69695E-18-4.49081E-18
 -1      2210 1.32719E-04-3.75809E-05-4.11139E-05 2.30578E-05 2.14681E-18 3.72975E-18
 -1      2211 1.28007E-04-3.66042E-05-3.91116E-05 1.98489E-05 9.50047E-19 2.18315E-18
 -1      2212 1.37486E-04-4.03513E-05-4.18775E-05 2.28643E-05 2.55076E-18 6.46604E-18
 -1      2213 1.34544E-04-3.78326E-05-4.14956E-05 2.38465E-05 2.33946E-18 4.80911E-18
 -1      2214 1.34067E-04-4.04409E-05-4.01537E-05 2.35587E-05 2.54549E-18 4.47885E-18
 -1      2215 1.35001E-04-4.06994E-05-4.04155E-05 2.27431E-05 2.82552E-18 6.57475E-18
 -1      2216 1.09702E-04-2.79526E-05-3.50462E-05-1.55851E-05-3.73338E-18-1.24328E-18
 -1      2217 1.07622E-04-2.74409E-05-3.43309E-05-1.28050E-05-3.52304E-18-1.43587E-18
 -1      2218 1.29099E-04-3.67169E-05-3.94922E-05 2.26971E-05 3.57718E-18 6.22878E-18
 -1      2219 1.33114E-04-3.98443E-05-4.01035E-05 2.29251E-05 2.96284E-18 6.44190E-18
 -1      2220 1.33903E-04-4.00301E-05-4.02764E-05 2.47145E-05 2.92165E-18 5.29235E-18
 -1      2221 1.21632E-04-2.96373E-05-3.94141E-05 1.69016E-05 4.74010E-18 4.24734E-18
 -1      2222 1.25650E-04-3.33874E-05-3.96751E-05 2.00455E-05 4.23980E-18 5.37092E-18
 -1      2223 1.28173E-04-3.39427E-05-4.05710E-05 2.26741E-05 4.47993E-18 4.55475E-18
 -1      2224 1.06077E-04-2.68373E-05-3.39256E-05-1.00272E-05-3.33236E-18-1.61288E-18
 -1      2225 1.04513E-04-2.62205E-05-3.35061E-05-7.25207E-06-3.11257E-18-1.97591E-18
 -1      2226 1.08395E-04-2.59197E-05-3.53631E-05-1.33560E-05-3.76191E-18-2.19772E-18
 -1      2227 1.03449E-04-2.59054E-05-3.31777E-05-4.01435E-06-2.99100E-18-2.24111E-18
 -1      2228 1.02800E-04-2.60109E-05-3.28916E-05-1.33347E-06-2.73041E-18-2.68657E-18
 -1      2229 1.05686E-04-2.48821E-05-3.46807E-05-6.89414E-06-3.35549E-18-2.86586E-18
 -1      2230 1.02727E-04-2.66271E-05-3.25397E-05 1.54732E-06-2.47532E-18-3.09535E-18
 -1      2231 1.02943E-04-2.75773E-05-3.23213E-05 3.53086E-06-2.11290E-18-3.29137E-18
 -1      2232 1.04593E-04-2.54231E-05-3.39806E-05-2.67348E-07-2.94587E-18-3.68180E-18
 -1      2233 1.03536E-04-2.88560E-05-3.19374E-05 5.19954E-06-1.77104E-18-3.63794E-18
 -1      2234 1.04213E-04-3.01680E-05-3.17718E-05 6.05497E-06-1.20174E-18-3.93657E-18
 -1      2235 1.05248E-04-2.79159E-05-3.31560E-05 4.60239E-06-2.26878E-18-4.30295E-18
 -1      2236 1.04782E-04-3.14074E-05-3.14100E-05 6.26818E-06-9.14341E-19-3.95931E-18
 -1      2237 1.05443E-04-3.24856E-05-3.12980E-05 6.04998E-06-5.68357E-19-4.11765E-18
 -1      2238 1.06556E-04-3.11817E-05-3.22858E-05 6.51105E-06-1.24121E-18-4.47775E-18
 -1      2239 1.05518E-04-3.31715E-05-3.10070E-05 5.21345E-06-5.27838E-19-4.22047E-18
 -1      2240 1.05870E-04-3.37080E-05-3.09384E-05 4.33551E-06-4.29975E-19-4.11055E-18
 -1      2241 1.07278E-04-3.36979E-05-3.15111E-05 5.72982E-06-6.39984E-19-4.79536E-18
 -1      2242 1.05414E-04-3.37667E-05-3.07316E-05 3.08126E-06-6.68977E-19-3.82160E-18
 -1      2243 1.05396E-04-3.37903E-05-3.06844E-05 2.00460E-06-5.78290E-19-3.80584E-18
 -1      2244 1.06907E-04-3.47308E-05-3.09205E-05 3.46525E-06-4.83843E-19-4.60745E-18
 -1      2245 1.04619E-04-3.34253E-05-3.05448E-05 8.15678E-07-8.24906E-19-3.45818E-18
 -1      2246 1.04312E-04-3.31260E-05-3.04965E-05-1.41590E-07-5.99243E-19-3.59420E-18
 -1      2247 1.05649E-04-3.44460E-05-3.05170E-05 9.13014E-07-5.85028E-19-3.60592E-18
 -1      2248 1.03441E-04-3.25852E-05-3.03966E-05-1.03107E-06-2.29298E-19-3.15318E-18
 -1      2249 1.02964E-04-3.21555E-05-3.03331E-05-1.72341E-06 2.44816E-19-3.07299E-18
 -1      2250 1.03970E-04-3.34090E-05-3.02504E-05-1.20892E-06-1.39625E-19-3.05399E-18
 -1      2251 1.02149E-04-3.16154E-05-3.02500E-05-2.26591E-06 3.13479E-19-2.84812E-18
 -1      2252 1.01602E-04-3.11843E-05-3.01674E-05-2.67356E-06 5.75020E-19-2.46412E-18
 -1      2253 1.02260E-04-3.21472E-05-3.00610E-05-2.64209E-06 3.57323E-19-2.40121E-18
 -1      2254 1.00909E-04-3.07324E-05-3.00879E-05-2.91843E-06 5.27912E-19-2.86353E-18
 -1      2255 1.00360E-04-3.03628E-05-2.99899E-05-3.08737E-06 4.68598E-19-2.78763E-18
 -1      2256 1.00736E-04-3.09868E-05-2.99042E-05-3.40943E-06 3.06160E-19-2.43747E-18
 -1      2257 9.97997E-05-3.00228E-05-2.99092E-05-3.11542E-06 1.74264E-19-3.01206E-18
 -1      2258 9.92883E-05-2.97332E-05-2.98031E-05-3.11298E-06 3.36090E-19-2.94495E-18
 -1      2259 9.94727E-05-3.00652E-05-2.97558E-05-3.65348E-06 3.34032E-19-3.07946E-18
 -1      2260 9.88473E-05-2.94960E-05-2.97215E-05-3.00257E-06 3.85563E-19-2.90408E-18
 -1      2261 9.83931E-05-2.92820E-05-2.96149E-05-2.89306E-06 3.41201E-19-2.80493E-18
 -1      2262 9.84659E-05-2.94007E-05-2.96071E-05-3.53915E-06 4.28538E-19-2.79696E-18
 -1      2263 9.80501E-05-2.91262E-05-2.95350E-05-2.70713E-06-8.05446E-21-2.97182E-18
 -1      2264 9.76604E-05-2.89745E-05-2.94341E-05-2.54174E-06-1.56754E-19-2.80931E-18
 -1      2265 9.76793E-05-2.89567E-05-2.94587E-05-3.21050E-06-8.86314E-21-2.62217E-18
 -1      2266 9.73951E-05-2.88779E-05-2.93589E-05-2.32532E-06-2.87780E-19-3.15349E-18
 -1      2267 9.70699E-05-2.87739E-05-2.92680E-05-2.14024E-06-4.50948E-19-2.79775E-18
 -1      2268 9.70704E-05-2.86804E-05-2.93149E-05-2.77695E-06-3.29839E-19-2.75388E-18
 -1      2269 9.68652E-05-2.87177E-05-2.91999E-05-1.92274E-06-4.76729E-19-2.54155E-18
 -1      2270 9.66004E-05-2.86487E-05-2.91210E-05-1.74111E-06-4.78069E-19-2.38453E-18
 -1      2271 9.66012E-05-2.85221E-05-2.91808E-05-2.31389E-06-3.32204E-19-2.30624E-18
 -1      2272 9.64429E-05-2.86189E-05-2.90613E-05-1.53987E-06-5.25125E-19-2.34827E-18
 -1      2273 9.62319E-05-2.85747E-05-2.89952E-05-1.37481E-06-3.00316E-19-2.07870E-18
 -1      2274 9.62409E-05-2.84419E-05-2.90601E-05-1.86874E-06-4.47147E-19-1.82378E-18
 -1      2275 9.61114E-05-2.85613E-05-2.89445E-05-1.19859E-06-4.69094E-19-2.15296E-18
 -1      2276 9.59470E-05-2.85342E-05-2.88906E-05-1.05625E-06-9.99369E-20-2.74442E-18
 -1      2277 9.59654E-05-2.84105E-05-2.89549E-05-1.46799E-06-3.63076E-19-1.86241E-18
 -1      2278 9.58555E-05-2.85306E-05-2.88488E-05-9.08095E-07 3.24271E-19-3.01594E-18
 -1      2279 9.57300E-05-2.85151E-05-2.88060E-05-7.90115E-07 5.12411E-19-2.53579E-18
 -1      2280 9.57562E-05-2.84079E-05-2.88659E-05-1.12359E-06-1.64372E-19-2.75339E-18
 -1      2281 9.56613E-05-2.85169E-05-2.87722E-05-6.69569E-07 8.92819E-20-2.59904E-18
 -1      2282 9.55676E-05-2.85090E-05-2.87391E-05-5.74878E-07-3.59477E-19-2.16128E-18
 -1      2283 9.55988E-05-2.84207E-05-2.87926E-05-8.38108E-07 3.01748E-19-2.95020E-18
 -1      2284 9.55167E-05-2.85135E-05-2.87125E-05-4.79520E-07 3.89338E-19-1.95980E-18
 -1      2285 9.54484E-05-2.85105E-05-2.86874E-05-4.05635E-07 1.15737E-18-1.53912E-18
 -1      2286 9.54818E-05-2.84407E-05-2.87335E-05-6.08449E-07 4.94424E-19-2.04489E-18
 -1      2287 9.54113E-05-2.85160E-05-2.86669E-05-3.32115E-07 9.10552E-19-1.64682E-18
 -1      2288 9.53629E-05-2.85160E-05-2.86485E-05-2.75960E-07 1.05130E-18-1.62295E-18
 -1      2289 9.53961E-05-2.84626E-05-2.86871E-05-4.28536E-07 9.52653E-19-1.62169E-18
 -1      2290 9.53364E-05-2.85216E-05-2.86330E-05-2.20672E-07 8.52101E-19-2.10448E-18
 -1      2291 9.53032E-05-2.85233E-05-2.86198E-05-1.79092E-07 4.61962E-19-2.31331E-18
 -1      2292 9.53345E-05-2.84838E-05-2.86513E-05-2.91057E-07 4.88399E-19-2.08922E-18
 -1      2293 9.52847E-05-2.85285E-05-2.86084E-05-1.38565E-07 1.23985E-19-2.39358E-18
 -1      2294 9.52628E-05-2.85311E-05-2.85992E-05-1.08616E-07-2.56796E-19-2.28591E-18
 -1      2295 9.52913E-05-2.85028E-05-2.86244E-05-1.88568E-07 2.11914E-20-2.91352E-18
 -1      2296 9.52504E-05-2.85355E-05-2.85910E-05-7.97266E-08-1.56883E-19-2.71420E-18
 -1      2297 9.52368E-05-2.85384E-05-2.85849E-05-5.88181E-08 1.11966E-19-2.80418E-18
 -1      2298 9.52618E-05-2.85190E-05-2.86047E-05-1.14120E-07-2.90125E-19-3.06333E-18
 -1      2299 9.52288E-05-2.85422E-05-2.85792E-05-3.88825E-08-4.42552E-19-2.47976E-18
 -1      2300 9.52211E-05-2.85451E-05-2.85753E-05-2.48296E-08-4.15227E-19-2.45142E-18
 -1      2301 9.52424E-05-2.85323E-05-2.85905E-05-6.15859E-08-4.02585E-19-2.59433E-18
 -1      2302 9.52162E-05-2.85481E-05-2.85715E-05-1.16213E-08-9.08980E-19-2.40268E-18
 -1      2303 9.52126E-05-2.85508E-05-2.85693E-05-2.64011E-09-1.01554E-18-3.01474E-18
 -1      2304 9.52304E-05-2.85429E-05-2.85807E-05-2.57745E-08-8.78660E-19-2.37274E-18
 -1      2305 9.52100E-05-2.85532E-05-2.85669E-05 5.63614E-09-3.98961E-19-2.73439E-18
 -1      2306 9.52090E-05-2.85556E-05-2.85657E-05 1.09629E-08 3.69229E-19-1.94639E-18
 -1      2307 9.52235E-05-2.85512E-05-2.85741E-05-2.42587E-09-2.99953E-19-1.64315E-18
 -1      2308 9.52079E-05-2.85574E-05-2.85643E-05 1.57186E-08 5.45451E-19-2.41604E-18
 -1      2309 9.52087E-05-2.85594E-05-2.85639E-05 1.84896E-08 5.06950E-19-1.46090E-18
 -1      2310 9.52203E-05-2.85575E-05-2.85699E-05 1.18634E-08 7.79332E-20-1.41836E-18
 -1      2311 9.52085E-05-2.85609E-05-2.85632E-05 2.08093E-08-4.48308E-19-1.62048E-18
 -1      2312 9.52103E-05-2.85625E-05-2.85633E-05 2.18564E-08-7.24222E-19-1.60484E-18
 -1      2313 9.52194E-05-2.85622E-05-2.85675E-05 1.97479E-08-3.00143E-19-2.36519E-18
 -1      2314 9.52107E-05-2.85636E-05-2.85630E-05 2.25547E-08-6.07589E-19-1.78263E-18
 -1      2315 9.52130E-05-2.85650E-05-2.85634E-05 2.24930E-08-6.48912E-19-1.35727E-18
 -1      2316 9.52200E-05-2.85656E-05-2.85662E-05 2.32518E-08-5.84032E-19-1.35501E-18
 -1      2317 9.52138E-05-2.85657E-05-2.85634E-05 2.21675E-08-4.54184E-19-1.11947E-18
 -1      2318 9.52161E-05-2.85668E-05-2.85640E-05 2.14409E-08-3.98271E-20-8.64326E-19
 -1      2319 9.52214E-05-2.85680E-05-2.85658E-05 2.38837E-08-2.70746E-19-1.60997E-19
 -1      2320 9.52171E-05-2.85674E-05-2.85642E-05 2.05189E-08-2.54393E-19-2.43644E-19
 -1      2321 9.52194E-05-2.85682E-05-2.85648E-05 1.94384E-08 6.22266E-19 4.17127E-20
 -1      2322 9.52233E-05-2.85697E-05-2.85659E-05 2.27415E-08 6.61228E-19 2.92911E-19
 -1      2323 9.52204E-05-2.85686E-05-2.85651E-05 1.82164E-08 7.66941E-19-4.47874E-19
 -1      2324 9.52225E-05-2.85692E-05-2.85657E-05 1.69925E-08 9.23692E-19-9.57190E-19
 -1      2325 9.52253E-05-2.85707E-05-2.85663E-05 2.06033E-08 2.88706E-19 3.86181E-19
 -1      2326 9.52235E-05-2.85695E-05-2.85660E-05 1.56689E-08 6.20603E-19-2.14248E-18
 -1      2327 9.52253E-05-2.85700E-05-2.85666E-05 1.44379E-08-9.46700E-20-2.88780E-18
 -1      2328 9.52273E-05-2.85714E-05-2.85668E-05 1.80028E-08-5.39752E-20-1.23731E-18
 -1      2329 9.52262E-05-2.85701E-05-2.85669E-05 1.31384E-08 3.75074E-19-3.04945E-18
 -1      2330 9.52278E-05-2.85705E-05-2.85674E-05 1.19826E-08 4.19622E-20-2.34232E-18
 -1      2331 9.52292E-05-2.85718E-05-2.85674E-05 1.52918E-08-1.64694E-19-2.58232E-18
 -1      2332 9.52286E-05-2.85706E-05-2.85677E-05 1.07814E-08-3.93462E-19-1.55643E-18
 -1      2333 9.52299E-05-2.85709E-05-2.85682E-05 9.74506E-09 5.70920E-20-1.15691E-18
 -1      2334 9.52308E-05-2.85720E-05-2.85680E-05 1.26890E-08 4.89626E-19-7.68414E-19
 -1      2335 9.52306E-05-2.85709E-05-2.85685E-05 8.67978E-09 2.53903E-20-7.49428E-19
 -1      2336 9.52317E-05-2.85711E-05-2.85688E-05 7.78095E-09 5.73469E-19-1.06770E-19
 -1      2337 9.52322E-05-2.85721E-05-2.85686E-05 1.03181E-08 6.92509E-19 8.49320E-19
 -1      2338 9.52322E-05-2.85711E-05-2.85691E-05 6.86441E-09 4.02443E-19 2.05418E-19
 -1      2339 9.52331E-05-2.85713E-05-2.85694E-05 6.10375E-09 1.20705E-18-7.76482E-20
 -1      2340 9.52334E-05-2.85721E-05-2.85691E-05 8.23713E-09 4.22935E-19 6.39860E-19
 -1      2341 9.52335E-05-2.85713E-05-2.85696E-05 5.33249E-09 2.58845E-18 2.15762E-19
 -1      2342 9.52342E-05-2.85714E-05-2.85698E-05 4.69945E-09 3.22334E-18 6.75516E-19
 -1      2343 9.52343E-05-2.85720E-05-2.85696E-05 6.45953E-09 1.48360E-18 1.58817E-19
 -1      2344 9.52346E-05-2.85714E-05-2.85700E-05 4.05978E-09 2.26744E-18 3.34798E-19
 -1      2345 9.52351E-05-2.85715E-05-2.85702E-05 3.53702E-09 1.46104E-18 1.37259E-18
 -1      2346 9.52351E-05-2.85719E-05-2.85699E-05 4.97015E-09 2.73584E-18 4.58432E-19
 -1      2347 9.52354E-05-2.85715E-05-2.85703E-05 3.00947E-09 1.65696E-18 1.52974E-18
 -1      2348 9.52358E-05-2.85715E-05-2.85704E-05 2.57712E-09 5.14480E-19 1.89268E-18
 -1      2349 9.52357E-05-2.85719E-05-2.85702E-05 3.73617E-09 1.33773E-18 1.11441E-18
 -1      2350 9.52361E-05-2.85715E-05-2.85705E-05 2.13958E-09-1.26347E-18 2.86195E-18
 -1      2351 9.52364E-05-2.85716E-05-2.85706E-05 1.77930E-09-7.70344E-19 2.77039E-18
 -1      2352 9.52363E-05-2.85719E-05-2.85705E-05 2.71697E-09 6.83463E-19 5.28501E-19
 -1      2353 1.18808E-04-2.81037E-05-3.91552E-05-5.25252E-06 4.92375E-18-1.96393E-18
 -1      2354 1.18178E-04-2.56623E-05-3.97440E-05-1.29992E-07 5.77597E-18-6.18320E-19
 -1      2355 1.21889E-04-3.58404E-05-3.71083E-05-1.02094E-05 2.54634E-18-3.80986E-18
 -1      2356 1.20252E-04-3.20152E-05-3.77987E-05-8.93067E-06 3.81842E-18-2.99199E-18
 -1      2357 1.23993E-04-2.94473E-05-4.07038E-05-7.60368E-06 5.10941E-18-3.79902E-18
 -1      2358 1.22688E-04-4.05374E-05-3.52780E-05-7.31484E-06 9.96349E-19-4.25968E-18
 -1      2359 1.22013E-04-3.85676E-05-3.57489E-05-8.91977E-06 1.68857E-18-3.99215E-18
 -1      2360 1.25728E-04-3.85732E-05-3.74820E-05-1.03444E-05 2.41291E-18-5.50545E-18
 -1      2361 1.20281E-04-4.07758E-05-3.40461E-05-1.37563E-06-3.40653E-19-3.64894E-18
 -1      2362 1.20808E-04-4.08655E-05-3.43400E-05-3.99889E-06 4.42019E-19-3.68015E-18
 -1      2363 1.23731E-04-4.28936E-05-3.47763E-05-4.54709E-06 5.48904E-19-4.61475E-18
 -1      2364 1.16072E-04-3.82624E-05-3.33011E-05 3.69167E-06-3.89893E-19-3.01219E-18
 -1      2365 1.17426E-04-3.93937E-05-3.35282E-05 1.57891E-06-3.45517E-19-3.06558E-18
 -1      2366 1.18848E-04-4.17687E-05-3.31191E-05 2.11200E-06-5.38634E-19-3.72407E-18
 -1      2367 1.11807E-04-3.52877E-05-3.27600E-05 6.59842E-06 2.53104E-19-1.99174E-18
 -1      2368 1.13458E-04-3.65780E-05-3.30086E-05 5.41355E-06 1.32283E-19-2.23728E-18
 -1      2369 1.13203E-04-3.80921E-05-3.22721E-05 6.61350E-06-4.85317E-19-2.92698E-18
 -1      2370 1.08206E-04-3.29060E-05-3.22518E-05 7.62335E-06-3.25406E-19-1.38993E-18
 -1      2371 1.09819E-04-3.39540E-05-3.25427E-05 7.22904E-06-3.01789E-20-1.61135E-18
 -1      2372 1.08521E-04-3.44719E-05-3.17958E-05 8.71240E-06-2.23493E-19-1.89422E-18
 -1      2373 1.05342E-04-3.12807E-05-3.17303E-05 7.44415E-06-3.97473E-20-9.24210E-19
 -1      2374 1.06787E-04-3.20293E-05-3.20445E-05 7.55729E-06 2.31389E-19-1.11975E-18
 -1      2375 1.05084E-04-3.18415E-05-3.14273E-05 9.09377E-06-1.43679E-19-1.26984E-18
 -1      2376 1.03089E-04-3.02530E-05-3.12101E-05 6.64091E-06-6.46448E-19-9.78196E-19
 -1      2377 1.04329E-04-3.07608E-05-3.15200E-05 7.01349E-06-3.69256E-19-1.04423E-18
 -1      2378 1.02646E-04-3.02057E-05-3.10675E-05 8.47553E-06 2.72556E-21-9.74873E-19
 -1      2379 1.01308E-04-2.96222E-05-3.07192E-05 5.60171E-06-4.50159E-19-1.16016E-18
 -1      2380 1.02343E-04-2.99623E-05-3.10036E-05 6.06690E-06-4.31795E-19-1.13266E-18
 -1      2381 1.00893E-04-2.92865E-05-3.07010E-05 7.38685E-06-4.04038E-19-4.22578E-19
 -1      2382 9.98922E-05-2.92348E-05-3.02793E-05 4.54958E-06-2.64574E-20-1.01417E-18
 -1      2383 1.00737E-04-2.94644E-05-3.05265E-05 5.01235E-06-4.23673E-19-9.06646E-19
 -1      2384 9.95883E-05-2.88095E-05-3.03419E-05 6.15889E-06-5.50295E-19-5.74596E-19
 -1      2385 9.87665E-05-2.89918E-05-2.99012E-05 3.59482E-06 3.34466E-19 3.51574E-19
 -1      2386 9.94442E-05-2.91493E-05-3.01078E-05 4.00954E-06 2.97015E-19-5.17883E-19
 -1      2387 9.85853E-05-2.85805E-05-3.00081E-05 4.97538E-06-2.91531E-19 4.15794E-20
 -1      2388 9.78760E-05-2.88349E-05-2.95870E-05 2.77992E-06 7.19044E-19 1.27605E-19
 -1      2389 9.84101E-05-2.89444E-05-2.97545E-05 3.13027E-06 8.00163E-19 1.87062E-19
 -1      2390 9.77972E-05-2.84811E-05-2.97120E-05 3.92363E-06 5.80372E-19 3.91292E-19
 -1      2391 9.71781E-05-2.87307E-05-2.93327E-05 2.11080E-06 9.59438E-19 1.86290E-19
 -1      2392 9.75924E-05-2.88075E-05-2.94652E-05 2.39592E-06 8.99685E-19 1.21842E-19
 -1      2393 9.71728E-05-2.84456E-05-2.94590E-05 3.03380E-06 8.68126E-19-9.44355E-20
 -1      2394 9.66378E-05-2.86606E-05-2.91313E-05 1.57586E-06 1.39173E-20 3.32948E-19
 -1      2395 9.69540E-05-2.87143E-05-2.92341E-05 1.80198E-06 7.26302E-19 5.83261E-19
 -1      2396 9.66790E-05-2.84399E-05-2.92493E-05 2.30535E-06 5.96743E-19 6.04314E-19
 -1      2397 9.62251E-05-2.86133E-05-2.89750E-05 1.15673E-06 4.56910E-19-8.63714E-19
 -1      2398 9.64628E-05-2.86505E-05-2.90533E-05 1.33259E-06 2.09069E-19-5.08752E-19
 -1      2399 9.62918E-05-2.84472E-05-2.90798E-05 1.72309E-06 7.41329E-19 9.44683E-19
 -1      2400 9.59149E-05-2.85820E-05-2.88556E-05 8.33730E-07 1.01886E-18-1.83800E-18
 -1      2401 9.60905E-05-2.86072E-05-2.89143E-05 9.68300E-07 9.92814E-19-1.70514E-18
 -1      2402 9.59920E-05-2.84596E-05-2.89455E-05 1.26636E-06 1.12151E-18-4.20379E-19
 -1      2403 9.56856E-05-2.85621E-05-2.87661E-05 5.88505E-07-1.51316E-19-1.82780E-18
 -1      2404 9.58130E-05-2.85786E-05-2.88093E-05 6.89959E-07 3.44421E-19-1.71433E-18
 -1      2405 9.57635E-05-2.84735E-05-2.88411E-05 9.13797E-07 4.14953E-19-6.66466E-19
 -1      2406 9.55194E-05-2.85503E-05-2.87001E-05 4.05040E-07-4.28539E-19-1.73056E-18
 -1      2407 9.56099E-05-2.85605E-05-2.87313E-05 4.80400E-07-2.91600E-19-1.30929E-18
 -1      2408 9.55922E-05-2.84873E-05-2.87613E-05 6.45666E-07-4.38751E-19-4.30741E-19
 -1      2409 9.54015E-05-2.85442E-05-2.86524E-05 2.69884E-07 1.04607E-19-1.30707E-18
 -1      2410 9.54642E-05-2.85500E-05-2.86744E-05 3.24977E-07-2.25067E-19-1.86511E-18
 -1      2411 9.54664E-05-2.85003E-05-2.87014E-05 4.44742E-07-1.22900E-19-1.52667E-19
 -1      2412 9.53203E-05-2.85421E-05-2.86187E-05 1.72009E-07 4.45430E-19-1.69650E-18
 -1      2413 9.53624E-05-2.85448E-05-2.86338E-05 2.11566E-07 5.99609E-19-8.61349E-19
 -1      2414 9.53759E-05-2.85121E-05-2.86573E-05 2.96517E-07 3.09546E-20-3.61508E-19
 -1      2415 9.52662E-05-2.85425E-05-2.85954E-05 1.02536E-07 1.04250E-18-2.41617E-18
 -1      2416 9.52932E-05-2.85431E-05-2.86055E-05 1.30336E-07 6.96587E-19-2.09758E-18
 -1      2417 9.53126E-05-2.85226E-05-2.86253E-05 1.89057E-07 8.27734E-19-1.55516E-18
 -1      2418 9.52318E-05-2.85445E-05-2.85800E-05 5.44081E-08 7.34930E-19-2.17043E-18
 -1      2419 9.52481E-05-2.85439E-05-2.85864E-05 7.34332E-08 1.14507E-18-2.04746E-18
 -1      2420 9.52696E-05-2.85318E-05-2.86027E-05 1.12712E-07 1.11408E-18-6.12034E-19
 -1      2421 9.52114E-05-2.85473E-05-2.85701E-05 2.20893E-08-4.62423E-20-1.74039E-18
 -1      2422 9.52203E-05-2.85460E-05-2.85739E-05 3.46629E-08-3.63511E-19-2.82832E-18
 -1      2423 9.52416E-05-2.85397E-05-2.85871E-05 5.97910E-08 2.85173E-20-8.17025E-19
 -1      2424 9.52009E-05-2.85505E-05-2.85643E-05 1.28472E-09 4.12474E-21-1.79758E-18
 -1      2425 9.52047E-05-2.85488E-05-2.85663E-05 9.19786E-09 9.32866E-19-1.16873E-18
 -1      2426 9.52245E-05-2.85464E-05-2.85767E-05 2.42377E-08 1.16078E-19-9.03870E-19
 -1      2427 9.51968E-05-2.85538E-05-2.85612E-05-1.12959E-08 3.34710E-19-1.90976E-18
 -1      2428 9.51973E-05-2.85519E-05-2.85620E-05-6.67965E-09 2.69135E-20-1.82314E-18
 -1      2429 9.52150E-05-2.85520E-05-2.85702E-05 1.34611E-09 2.69639E-19-7.16913E-19
 -1      2430 9.51970E-05-2.85568E-05-2.85600E-05-1.81406E-08 4.84821E-19-1.90197E-18
 -1      2431 9.51955E-05-2.85550E-05-2.85600E-05-1.57970E-08 3.73342E-19-2.42255E-18
 -1      2432 9.52107E-05-2.85565E-05-2.85663E-05-1.24964E-08 4.57222E-19-1.01604E-18
 -1      2433 9.51997E-05-2.85596E-05-2.85600E-05-2.11037E-08-2.38479E-19-2.46602E-18
 -1      2434 9.51971E-05-2.85579E-05-2.85595E-05-2.02749E-08 3.82859E-19-2.50128E-18
 -1      2435 9.52098E-05-2.85602E-05-2.85643E-05-2.00250E-08 6.56668E-19-2.20496E-18
 -1      2436 9.52037E-05-2.85620E-05-2.85607E-05-2.15442E-08 5.99208E-19-2.99544E-18
 -1      2437 9.52006E-05-2.85605E-05-2.85600E-05-2.16791E-08 3.36739E-19-2.30155E-18
 -1      2438 9.52110E-05-2.85631E-05-2.85635E-05-2.32801E-08-2.47576E-20-2.78849E-18
 -1      2439 9.52083E-05-2.85640E-05-2.85618E-05-2.04392E-08 5.73218E-19-2.76235E-18
 -1      2440 9.52051E-05-2.85628E-05-2.85610E-05-2.11452E-08 8.76812E-19-2.29299E-18
 -1      2441 9.52135E-05-2.85654E-05-2.85635E-05-2.37580E-08 3.07492E-19-1.90015E-18
 -1      2442 9.52129E-05-2.85657E-05-2.85631E-05-1.84749E-08 7.67336E-19-2.54694E-18
 -1      2443 9.52098E-05-2.85646E-05-2.85622E-05-1.94795E-08 1.35760E-19-2.43615E-18
 -1      2444 9.52165E-05-2.85671E-05-2.85640E-05-2.25348E-08 6.15680E-19-6.40424E-19
 -1      2445 9.52172E-05-2.85671E-05-2.85644E-05-1.61192E-08 5.84806E-19-3.03443E-18
 -1      2446 9.52145E-05-2.85662E-05-2.85636E-05-1.72391E-08 1.00103E-18-3.19271E-18
 -1      2447 9.52196E-05-2.85684E-05-2.85648E-05-2.03663E-08 5.29008E-19-9.93259E-19
 -1      2448 9.52212E-05-2.85682E-05-2.85656E-05-1.36788E-08 2.77884E-19-2.44130E-18
 -1      2449 9.52187E-05-2.85675E-05-2.85649E-05-1.47964E-08 8.16286E-19-2.30234E-18
 -1      2450 9.52226E-05-2.85694E-05-2.85657E-05-1.77678E-08 2.90912E-19-8.75865E-19
 -1      2451 9.52245E-05-2.85690E-05-2.85667E-05-1.13440E-08-2.06529E-19-2.41016E-18
 -1      2452 9.52225E-05-2.85685E-05-2.85660E-05-1.23885E-08-4.83082E-19-2.70335E-18
 -1      2453 9.52254E-05-2.85701E-05-2.85665E-05-1.50772E-08 5.04526E-20-4.66650E-19
 -1      2454 9.52274E-05-2.85697E-05-2.85676E-05-9.22208E-09-4.70832E-19-2.63068E-18
 -1      2455 9.52257E-05-2.85692E-05-2.85671E-05-1.01559E-08-1.24949E-20-2.44381E-18
 -1      2456 9.52278E-05-2.85706E-05-2.85674E-05-1.25035E-08-1.11531E-19-5.54475E-19
 -1      2457 9.52298E-05-2.85702E-05-2.85684E-05-7.36296E-09 1.54826E-19-2.74837E-18
 -1      2458 9.52284E-05-2.85698E-05-2.85680E-05-8.17104E-09-8.69730E-20-2.69074E-18
 -1      2459 9.52299E-05-2.85709E-05-2.85681E-05-1.01645E-08-5.64875E-19-2.19299E-18
 -1      2460 9.52317E-05-2.85705E-05-2.85691E-05-5.77802E-09-1.52865E-18-2.56355E-18
 -1      2461 9.52306E-05-2.85703E-05-2.85687E-05-6.46048E-09-3.92327E-19-2.29173E-18
 -1      2462 9.52316E-05-2.85711E-05-2.85688E-05-8.11465E-09-6.34581E-19-2.17855E-18
 -1      2463 9.52333E-05-2.85708E-05-2.85696E-05-4.45344E-09-2.09014E-18-3.41928E-18
 -1      2464 9.52324E-05-2.85706E-05-2.85693E-05-5.02009E-09-1.52124E-18-2.70151E-18
 -1      2465 9.52330E-05-2.85713E-05-2.85693E-05-6.36601E-09-1.20327E-18-2.16119E-18
 -1      2466 9.52345E-05-2.85710E-05-2.85701E-05-3.35964E-09-2.37086E-18-2.56832E-18
 -1      2467 9.52338E-05-2.85709E-05-2.85698E-05-3.82633E-09-2.91342E-18-2.78406E-18
 -1      2468 9.52342E-05-2.85714E-05-2.85698E-05-4.90294E-09-2.58336E-18-1.09263E-18
 -1      2469 9.52354E-05-2.85712E-05-2.85704E-05-2.45826E-09-2.33547E-18-9.19851E-19
 -1      2470 9.52349E-05-2.85711E-05-2.85702E-05-2.84415E-09-2.31608E-18-2.19180E-18
 -1      2471 9.52351E-05-2.85715E-05-2.85701E-05-3.69300E-09-2.86026E-18-1.90298E-19
 -1      2472 9.52361E-05-2.85713E-05-2.85706E-05-1.70605E-09-1.77680E-18-1.05999E-19
 -1      2473 9.52357E-05-2.85712E-05-2.85705E-05-2.03125E-09-2.06316E-18-4.86638E-19
 -1      2474 9.52358E-05-2.85715E-05-2.85704E-05-2.69692E-09-2.39113E-18-4.13309E-19
 -1      2475 9.52366E-05-2.85714E-05-2.85708E-05-1.07438E-09-1.91025E-18-1.14254E-19
 -1      2476 9.52363E-05-2.85714E-05-2.85707E-05-1.35119E-09-1.43810E-18-3.32202E-19
 -1      2477 9.52364E-05-2.85716E-05-2.85706E-05-1.86578E-09-1.73506E-18-4.40132E-19
 -1      2478 9.52368E-05-2.85714E-05-2.85709E-05-7.36774E-10-1.80446E-18 4.14320E-19
 -1      2479 9.52382E-05-2.85737E-05-2.85705E-05-1.52248E-09 2.06858E-19-5.11554E-18
 -1      2480 9.52380E-05-2.85734E-05-2.85705E-05-1.63820E-09-5.80306E-19-6.59448E-18
 -1      2481 9.52385E-05-2.85741E-05-2.85704E-05-1.09645E-09-1.17182E-18-1.21340E-18
 -1      2482 9.52383E-05-2.85739E-05-2.85705E-05-1.31239E-09-1.74335E-19-2.78378E-18
 -1      2483 9.52384E-05-2.85740E-05-2.85705E-05-1.66108E-09 5.67732E-20-3.88712E-18
 -1      2484 9.52373E-05-2.85725E-05-2.85706E-05-1.64807E-09-1.45089E-18 7.58132E-19
 -1      2485 9.52371E-05-2.85722E-05-2.85707E-05-1.53510E-09-9.00272E-19 6.32985E-19
 -1      2486 9.52378E-05-2.85731E-05-2.85706E-05-1.71714E-09-1.39695E-18-4.58238E-18
 -1      2487 9.52376E-05-2.85728E-05-2.85706E-05-1.71484E-09-1.22884E-18-1.59210E-18
 -1      2488 9.52374E-05-2.85727E-05-2.85706E-05-2.00204E-09-1.37414E-18-5.15230E-19
 -1      2489 9.52380E-05-2.85734E-05-2.85705E-05-1.97699E-09-5.11654E-19-4.76374E-18
 -1      2490 9.52387E-05-2.85744E-05-2.85704E-05-5.06816E-10-1.69393E-18 2.40727E-20
 -1      2491 9.52386E-05-2.85743E-05-2.85704E-05-7.88330E-10-9.85528E-19-5.61584E-19
 -1      2492 9.52388E-05-2.85744E-05-2.85704E-05-1.10072E-09-1.31497E-18-1.12574E-18
 -1      2493 9.52387E-05-2.85745E-05-2.85704E-05 1.57317E-10-1.35101E-18 1.45537E-19
 -1      2494 9.52387E-05-2.85745E-05-2.85704E-05-1.46712E-10-2.29460E-18 5.81436E-19
 -1      2495 9.52389E-05-2.85747E-05-2.85704E-05-3.81046E-10-5.39159E-19-4.03551E-19
 -1      2496 9.52386E-05-2.85743E-05-2.85704E-05 7.97648E-10-6.09855E-19-3.23624E-20
 -1      2497 9.52387E-05-2.85744E-05-2.85704E-05 5.17016E-10-9.80640E-19 1.15618E-18
 -1      2498 9.52389E-05-2.85747E-05-2.85704E-05 3.93382E-10 1.63201E-19 1.11336E-18
 -1      2499 9.52383E-05-2.85739E-05-2.85705E-05 1.31179E-09-1.73376E-20-1.30798E-18
 -1      2500 9.52385E-05-2.85741E-05-2.85704E-05 1.09993E-09 1.22588E-20-1.20451E-18
 -1      2501 9.52388E-05-2.85744E-05-2.85704E-05 1.10608E-09 7.45436E-20 4.94846E-19
 -1      2502 9.52380E-05-2.85734E-05-2.85705E-05 1.63783E-09 1.84061E-18-5.28501E-19
 -1      2503 9.52382E-05-2.85737E-05-2.85705E-05 1.52202E-09 1.50257E-18-2.39297E-18
 -1      2504 9.52384E-05-2.85740E-05-2.85705E-05 1.66068E-09 1.31421E-18-1.48439E-18
 -1      2505 9.52376E-05-2.85728E-05-2.85706E-05 1.71164E-09 1.27507E-18 1.67509E-18
 -1      2506 9.52378E-05-2.85731E-05-2.85706E-05 1.71797E-09 1.24880E-18 1.58855E-18
 -1      2507 9.52380E-05-2.85734E-05-2.85705E-05 1.97703E-09 2.45356E-18-3.28849E-19
 -1      2508 9.52371E-05-2.85722E-05-2.85707E-05 1.52176E-09 1.12833E-21 8.76244E-19
 -1      2509 9.52373E-05-2.85725E-05-2.85707E-05 1.64874E-09 6.75004E-19 6.64493E-19
 -1      2510 9.52374E-05-2.85727E-05-2.85706E-05 1.99900E-09 1.60924E-18 6.35587E-19
 -1      2511 9.87276E-05-4.56479E-05-2.30595E-05 4.18285E-05-1.06133E-18 1.10360E-18
 -1      2512 7.87280E-05-3.82277E-05-1.70931E-05 4.24900E-05-1.32307E-18 3.21608E-18
 -1      2513 9.52369E-05-2.85717E-05-2.85708E-05 9.67499E-10 4.89357E-19 2.37634E-18
 -1      2514 2.22901E-05-8.27468E-06-5.75027E-06-8.48810E-06 1.84653E-18 9.70001E-18
 -1      2515 2.85239E-05-1.20417E-05-6.82877E-06-2.37313E-05 1.98608E-18 9.93358E-18
 -1      2516 1.17819E-04-2.55786E-05-3.97021E-05 6.00375E-06 5.76374E-18 1.05876E-18
 -1      2517 1.19913E-04-2.68956E-05-3.99829E-05 1.18539E-05 5.48740E-18 2.54884E-18
 -1      2518 1.22567E-04-2.60361E-05-4.16235E-05 1.48371E-05 6.24650E-18 2.11394E-18
 -1      2519 1.21443E-04-2.34378E-05-4.23152E-05 3.24459E-06 6.88913E-18-1.05503E-18
 -1      2520 2.81593E-05-1.03130E-05-7.29540E-06 1.85877E-05-5.57030E-19 8.72571E-18
 -1      2521 2.28242E-05-7.92865E-06-5.98153E-06 5.32059E-06 8.89517E-20 9.25553E-18
 -1      2522 1.29391E-04-5.28138E-05-3.33086E-05 2.63037E-05 1.02110E-18-3.38474E-18
 -1      2523 1.17476E-04-5.11444E-05-2.82297E-05 3.23010E-05-6.22569E-19-1.51238E-18
 -1      2524 1.48488E-04-2.52785E-05-5.31826E-05 1.78761E-06 9.24558E-18-4.71035E-18
 -1      2525 1.47703E-04-3.13896E-05-4.99931E-05 1.92448E-06 7.98117E-18-5.02799E-18
 -1      2526 4.13596E-05-2.06862E-05-8.67636E-06-3.48994E-05 3.31656E-18 7.76433E-18
 -1      2527 5.89417E-05-2.92675E-05-1.27457E-05-4.34705E-05 3.10882E-18 5.65638E-18
 -1      2528 1.37483E-04-1.06756E-05-5.48888E-05-1.05365E-05-1.07052E-17-3.78211E-18
 -1      2529 1.40286E-04-1.52694E-05-5.37942E-05-1.03978E-05-1.04329E-17-3.44404E-18
 -1      2530 2.13225E-05 5.86511E-06-1.14705E-05 2.49326E-05 3.52641E-18-9.89694E-18
 -1      2531 1.15946E-05 1.05091E-05-9.18058E-06 1.69611E-05 3.77586E-18-1.05591E-17
 -1      2532 7.70008E-05-2.58298E-05-2.18990E-05-2.02552E-05 4.10811E-20-6.49420E-18
 -1      2533 9.77346E-05-3.54381E-05-2.66893E-05-1.81933E-05 1.15387E-18-5.07135E-18
 -1      2534 3.99393E-05-2.55060E-06-1.57248E-05 2.76875E-05 5.07447E-18-8.30166E-18
 -1      2535 1.22421E-04-3.70377E-05-3.68894E-05 1.28034E-05 2.55142E-19 7.82420E-19
 -1      2536 1.12979E-04-3.45567E-05-3.35517E-05 5.53581E-06-1.29162E-18-3.99376E-19
 -1      2537 1.30582E-04-4.13363E-05-3.81290E-05 1.83424E-05 1.00378E-18 2.77979E-18
 -1      2538 6.88737E-05-1.59172E-05-2.25584E-05 2.63632E-05 5.77295E-18-5.68724E-18
 -1      2539 8.57582E-05-2.28991E-05-2.67138E-05 2.11467E-05 5.21095E-18-4.42122E-18
 -1      2540 6.33304E-06 1.35416E-05-8.17059E-06 1.01283E-05 2.19604E-18-1.10781E-17
 -1      2541 1.48106E-04-3.25357E-05-4.97798E-05 1.84161E-05 9.54278E-18-5.94829E-19
 -1      2542 1.50698E-04-2.71743E-05-5.32791E-05 1.85903E-05 1.05735E-17-1.05180E-18
 -1      2543 1.43759E-04-1.53098E-05-5.55970E-05 6.38039E-06 1.08549E-17-3.27511E-18
 -1      2544 1.46013E-04-1.89016E-05-5.47598E-05 3.02500E-06 1.01199E-17-4.02224E-18
 -1      2545 1.38519E-04-4.44315E-05-4.04982E-05 7.32409E-06 5.47750E-18-6.26593E-19
 -1      2546 1.47451E-04-4.11871E-05-4.59435E-05 1.42181E-05 7.53716E-18-4.35375E-19
 -1      2547 1.12943E-04-4.18914E-05-3.07257E-05-1.10541E-05 2.52776E-18-3.62191E-18
 -1      2548 1.30421E-04-4.67738E-05-3.62275E-05-2.93263E-06 3.94103E-18-1.99063E-18
 -1      2549 1.35465E-04-4.61022E-05-3.84275E-05 9.11751E-06 3.33583E-18 8.38986E-19
 -1      2550 1.12550E-04-4.01730E-05-3.08742E-05-5.10176E-06-6.47663E-19-1.82896E-18
 -1      2551 3.64458E-05-5.54198E-06-1.32447E-05-2.02095E-05 3.06520E-19-9.71420E-18
 -1      2552 5.23543E-05-1.41336E-05-1.63789E-05-2.45305E-05 9.56300E-19-9.09872E-18
 -1      2553 5.46283E-06 1.32746E-05-7.70751E-06 1.65993E-06 2.40949E-18-1.12461E-17
 -1      2554 1.35853E-04-3.17780E-05-4.49695E-05 1.73484E-06-6.74433E-18-3.18251E-18
 -1      2555 1.26347E-04-3.31688E-05-4.01586E-05 7.15669E-06-4.61831E-18-2.99977E-18
 -1      2556 8.51994E-05-2.42709E-05-2.61750E-05 2.98627E-05 6.08170E-19-5.78317E-18
 -1      2557 7.08969E-05-1.86079E-05-2.24974E-05 3.04610E-05 2.43247E-18-6.17267E-18
 -1      2558 1.32644E-04-4.39254E-05-3.81659E-05-1.66233E-05-1.26507E-18-4.95578E-18
 -1      2559 1.37345E-04-3.85269E-05-4.29400E-05-9.89441E-06-2.94741E-18-5.92118E-18
 -1      2560 1.15684E-04-3.38290E-05-3.53820E-05 1.74748E-05-2.47927E-18-3.73044E-18
 -1      2561 1.00058E-04-2.97997E-05-3.02819E-05 2.32424E-05-5.53324E-19-4.63412E-18
 -1      2562 1.41298E-04-2.17071E-05-5.17369E-05-8.73289E-06-9.64093E-18-2.79648E-18
 -1      2563 1.38012E-04-2.59960E-05-4.82948E-05-5.17084E-06-8.27975E-18-2.82761E-18
 -1      2564 1.37499E-04-1.21806E-05-5.40635E-05-4.29473E-06-9.52849E-18-5.54404E-18
 -1      2565 1.36667E-04-9.64003E-06-5.48381E-05-6.82139E-06-1.01244E-17-4.90772E-18
 -1      2566 1.38292E-04-2.66498E-05-4.80357E-05-4.08331E-06-5.99678E-18-6.19922E-18
 -1      2567 1.39780E-04-1.90305E-05-5.22082E-05-3.34117E-06-8.17768E-18-6.16365E-18
 -1      2568 1.13692E-04-4.75181E-05-2.83001E-05-3.25796E-05 1.55769E-18-1.84103E-18
 -1      2569 1.26697E-04-4.75043E-05-3.42130E-05-2.64015E-05-4.96573E-20-3.54272E-18
 -1      2570 1.30014E-04-4.80346E-05-3.50326E-05-1.57591E-05 9.41636E-19-5.74595E-18
 -1      2571 7.84749E-05-3.77994E-05-1.72553E-05-4.29626E-05 3.62636E-18 2.92255E-18
 -1      2572 9.59250E-05-4.35132E-05-2.26711E-05-4.24099E-05 2.54851E-18 4.87520E-19
 -1      2573 1.11800E-04-2.46102E-05-3.75104E-05-2.17432E-05-4.21609E-18-2.27618E-18
 -1      2574 1.10726E-04-2.71329E-05-3.58057E-05-1.78886E-05-4.07592E-18-1.50514E-18
 -1      2575 1.11157E-04-2.60528E-05-3.64491E-05-1.85472E-05-3.85153E-18-2.21950E-18
 -1      2576 1.11505E-04-2.32466E-05-3.78725E-05-2.15907E-05-3.55598E-18-3.18998E-18
 -1      2577 1.47102E-04-4.15357E-05-4.57406E-05 7.64189E-06 6.28647E-18-5.32064E-18
 -1      2578 1.39426E-04-4.83616E-05-3.90801E-05 1.42376E-05 3.77560E-18-4.95705E-18
 -1      2579 1.34238E-05 9.72288E-06-9.59815E-06-6.98160E-06 1.72742E-19-1.07503E-17
 -1      2580 2.54351E-05 3.01582E-06-1.17629E-05-1.59952E-05 4.47975E-19-1.03713E-17
 -1      2581 1.14039E-04-3.15345E-05-3.54655E-05-3.14733E-06 1.80658E-18-1.38140E-18
 -1      2582 1.16505E-04-2.80918E-05-3.78832E-05-1.51455E-05-5.33790E-19-2.00423E-18
 -1      2583 1.14003E-04-2.57293E-05-3.78479E-05-1.52799E-05-3.13765E-19-3.30605E-18
 -1      2584 1.13216E-04-2.41983E-05-3.83885E-05-1.82243E-05-1.61851E-18-3.67431E-18
 -1      2585 1.12090E-04-3.78535E-05-3.18121E-05-1.22947E-07-7.85305E-19-5.66824E-19
 -1      2586 9.74733E-05-2.86861E-05-2.95629E-05 1.64737E-05 3.50412E-18-2.96157E-18
 -1      2587 5.82090E-05-1.06230E-05-1.97226E-05-1.70160E-05-2.46042E-18-7.25452E-18
 -1      2588 3.67223E-05-7.88947E-07-1.52987E-05-1.58290E-05-1.80863E-18-8.85700E-18
 -1      2589 3.74566E-05-1.36287E-05-9.69184E-06 2.45719E-05-1.35599E-18 7.57120E-18
 -1      2590 3.90400E-05-9.86735E-06-1.19441E-05 1.83039E-05-1.47114E-18 7.13244E-18
 -1      2591 4.74708E-05-1.73764E-05-1.28689E-05 3.02392E-05-2.69579E-18 5.63552E-18
 -1      2592 1.40341E-04-2.28697E-05-5.05889E-05-1.13624E-06 8.84684E-18-4.71649E-18
 -1      2593 7.17628E-05-3.27803E-05-1.62315E-05 4.05959E-05-2.74312E-18 3.38813E-18
 -1      2594 4.25768E-05-1.62031E-05-1.07785E-05-2.90411E-05 3.59544E-18 7.92061E-18
 -1      2595 9.52368E-05-2.85716E-05-2.85708E-05-1.13140E-09-2.13514E-18-1.93595E-18
 -1      2596 9.52369E-05-2.85718E-05-2.85708E-05-1.32239E-09-1.67887E-18-1.44840E-18
 -1      2597 1.10343E-04-4.93785E-05-2.59353E-05 3.40243E-05-2.36079E-18-1.45830E-18
 -1      2598 9.52367E-05-2.85716E-05-2.85708E-05 1.23394E-09 4.71013E-19 2.59403E-18
 -1      2599 9.52370E-05-2.85719E-05-2.85707E-05 1.41853E-09-1.52387E-19 1.42744E-18
 -1      2600 9.52369E-05-2.85721E-05-2.85706E-05 1.82638E-09-4.07183E-19 1.58774E-18
 -1      2601 9.52365E-05-2.85716E-05-2.85707E-05 1.51859E-09-5.59323E-19 3.04024E-18
 -1      2602 3.04947E-05-7.22018E-06-9.35508E-06-2.38608E-06 6.25454E-19 9.10687E-18
 -1      2603 1.36529E-04-5.25943E-05-3.58231E-05 1.38148E-05 8.30410E-19-5.52583E-18
 -1      2604 1.12672E-04-2.34213E-05-3.83307E-05-1.97844E-05-2.22201E-18-3.71192E-18
 -1      2605 1.11836E-04-2.28616E-05-3.83231E-05-2.12992E-05-3.28574E-18-3.64996E-18
 -1      2606 1.12757E-04-2.48457E-05-3.76362E-05-2.06999E-05-3.54538E-18-2.89001E-18
 -1      2607 1.14540E-04-2.51950E-05-3.82435E-05-1.97244E-05-2.35057E-18-2.78892E-18
 -1      2608 1.43399E-04-3.81732E-05-4.51592E-05-1.50642E-06 5.73102E-18-6.17381E-18
 -1      2609 7.47690E-05-3.43895E-05-1.69390E-05-4.19134E-05 4.52400E-18 2.91136E-18
 -1      2610 1.32470E-04-1.64282E-05-4.98170E-05-1.40614E-05-8.89522E-18-1.93674E-18
 -1      2611 1.10107E-04-4.81277E-05-2.63040E-05-3.34174E-05 3.64828E-18-1.91938E-18
 -1      2612 1.34594E-04-3.36812E-05-4.33364E-05-1.87514E-06-3.34599E-18-7.28914E-18
 -1      2613 1.31150E-04-1.53414E-05-4.98570E-05-7.88554E-07-7.76433E-18-6.22993E-18
 -1      2614 1.42623E-04-2.18797E-05-5.20629E-05 2.09630E-05 1.02987E-17-1.70465E-19
 -1      2615 1.22154E-04-3.44165E-05-3.74635E-05 5.98316E-06-1.59740E-18-1.96501E-18
 -1      2616 7.41468E-05-2.18568E-05-2.21882E-05-1.76036E-05-1.65521E-18-5.88381E-18
 -1      2617 1.40876E-04-1.53206E-05-5.41906E-05 8.99129E-06 1.09420E-17-2.63422E-18
 -1      2618 1.33243E-04-1.56957E-05-5.06832E-05 4.40859E-06 9.85184E-18-3.08495E-18
 -1      2619 1.34873E-04-1.49621E-05-5.19517E-05 1.17229E-05 1.07366E-17-1.62339E-18
 -1      2620 5.80793E-05-1.12862E-05-1.98270E-05 3.09589E-05 3.97957E-18-7.14626E-18
 -1      2621 1.29447E-04-9.16204E-06-5.17925E-05-8.56908E-06-9.66803E-18-4.14443E-18
 -1      2622 1.43750E-04-3.70519E-05-4.58371E-05 2.22230E-05 7.00147E-18 1.60089E-18
 -1      2623 9.75323E-05-2.91290E-05-2.91232E-05 2.10148E-05 2.50531E-18-3.73880E-18
 -1      2624 1.33064E-04-2.80173E-05-4.49740E-05-8.67711E-06-5.98588E-18-1.05794E-18
 -1      2625 9.52369E-05-2.85720E-05-2.85707E-05-1.73442E-09-1.32046E-18 6.05656E-20
 -1      2626 9.52366E-05-2.85718E-05-2.85706E-05 1.98040E-09-3.61413E-19 2.21671E-18
 -1      2627 1.10718E-04-3.36343E-05-3.31798E-05 1.04153E-05 1.90349E-18-2.13892E-18
 -1      2628 1.35724E-04-4.16196E-05-4.05051E-05 2.50765E-05 2.84966E-18 4.63254E-18
 -1      2629 1.34876E-04-4.15652E-05-4.03745E-05 2.49493E-05 2.89812E-18 4.07226E-18
 -1      2630 1.33402E-04-3.82613E-05-4.06258E-05 2.60511E-05 3.67721E-18 4.83484E-18
 -1      2631 1.18282E-04-3.40532E-05-3.62602E-05 2.74186E-06-1.78459E-19-1.06604E-18
 -1      2632 1.18052E-04-3.34138E-05-3.61649E-05-1.53004E-06 1.19635E-18-8.95049E-19
 -1      2633 1.26659E-04-3.36740E-05-4.03003E-05-5.57290E-06-2.61132E-18-6.14205E-19
 -1      2634 1.25054E-04-4.63338E-05-3.36196E-05 1.43686E-06-8.83983E-19-4.62289E-18
 -1      2635 1.27198E-04-4.62708E-05-3.46805E-05-1.90161E-06 1.60751E-19-5.21796E-18
 -1      2636 1.07454E-04-2.30186E-05-3.62178E-05-9.76371E-06-3.76448E-18-3.07513E-18
 -1      2637 1.06408E-04-2.26287E-05-3.59104E-05-6.24540E-06-3.76092E-18-3.47110E-18
 -1      2638 1.06041E-04-2.30245E-05-3.55406E-05-2.14671E-06-3.60707E-18-4.12508E-18
 -1      2639 1.05997E-04-2.41938E-05-3.51250E-05 1.00371E-06-3.15997E-18-4.53327E-18
 -1      2640 1.07610E-04-2.11277E-05-3.71161E-05-4.94176E-06-4.15002E-18-4.10569E-18
 -1      2641 1.06831E-04-2.62310E-05-3.44705E-05 3.91085E-06-2.71026E-18-4.86787E-18
 -1      2642 1.07483E-04-2.84448E-05-3.39613E-05 5.64119E-06-2.13777E-18-4.94074E-18
 -1      2643 1.08154E-04-2.41692E-05-3.60229E-05 2.53396E-06-3.27365E-18-5.23571E-18
 -1      2644 1.08426E-04-3.08650E-05-3.31896E-05 6.44900E-06-1.59506E-18-4.95487E-18
 -1      2645 1.09066E-04-3.29407E-05-3.26918E-05 6.55995E-06-8.53911E-19-5.06959E-18
 -1      2646 1.10086E-04-2.96782E-05-3.44434E-05 6.24067E-06-1.88295E-18-5.60307E-18
 -1      2647 1.09174E-04-3.45110E-05-3.19910E-05 5.65741E-06-6.88552E-19-5.02914E-18
 -1      2648 1.09296E-04-3.56379E-05-3.15896E-05 4.70965E-06-5.06275E-19-5.06337E-18
 -1      2649 1.11224E-04-3.46120E-05-3.28089E-05 5.85512E-06-9.63904E-19-5.45302E-18
 -1      2650 1.08459E-04-3.60150E-05-3.10685E-05 3.12615E-06-1.70383E-19-4.59361E-18
 -1      2651 1.08021E-04-3.61461E-05-3.07898E-05 1.82735E-06 9.82039E-20-4.38262E-18
 -1      2652 1.10458E-04-3.70198E-05-3.14646E-05 3.11376E-06-2.45437E-20-5.04936E-18
 -1      2653 1.06660E-04-3.56645E-05-3.04558E-05 3.48233E-07 7.03186E-20-3.75881E-18
 -1      2654 1.05880E-04-3.51633E-05-3.02781E-05-8.26458E-07 1.33750E-19-3.17776E-18
 -1      2655 1.08185E-04-3.69535E-05-3.05413E-05-2.66001E-08 5.45444E-19-3.90784E-18
 -1      2656 1.04440E-04-3.43013E-05-3.00841E-05-1.87652E-06-5.50389E-20-2.62532E-18
 -1      2657 1.03554E-04-3.35538E-05-2.99705E-05-2.72295E-06 2.15005E-19-2.51323E-18
 -1      2658 1.05333E-04-3.54316E-05-2.99850E-05-2.50045E-06 4.71270E-19-2.79480E-18
 -1      2659 1.02302E-04-3.26618E-05-2.98618E-05-3.31318E-06 2.26736E-19-2.30066E-18
 -1      2660 1.01469E-04-3.19259E-05-2.97803E-05-3.80668E-06 5.13562E-19-2.23763E-18
 -1      2661 1.02620E-04-3.34417E-05-2.96775E-05-4.03301E-06 2.24088E-19-2.18131E-18
 -1      2662 1.00498E-04-3.11820E-05-2.97150E-05-4.03157E-06 2.07997E-19-2.18863E-18
 -1      2663 9.97898E-05-3.05777E-05-2.96453E-05-4.23244E-06 3.25921E-19-2.27120E-18
 -1      2664 1.00398E-04-3.15966E-05-2.95110E-05-4.73960E-06 3.05492E-19-2.16242E-18
 -1      2665 9.90884E-05-3.00324E-05-2.95976E-05-4.20830E-06 4.66025E-19-2.47719E-18
 -1      2666 9.85169E-05-2.95884E-05-2.95301E-05-4.19916E-06 4.43519E-19-2.66616E-18
 -1      2667 9.87359E-05-3.01535E-05-2.94109E-05-4.85328E-06 4.91047E-19-1.66853E-18
 -1      2668 9.80339E-05-2.92275E-05-2.94868E-05-4.02414E-06 4.98947E-19-2.41138E-18
 -1      2669 9.75856E-05-2.89281E-05-2.94188E-05-3.88229E-06 4.94155E-19-2.05365E-18
 -1      2670 9.75632E-05-2.91465E-05-2.93342E-05-4.58964E-06 4.80857E-19-2.09274E-18
 -1      2671 9.72631E-05-2.87124E-05-2.93750E-05-3.62919E-06-3.99910E-20-2.03636E-18
 -1      2672 9.69159E-05-2.85260E-05-2.93073E-05-3.41592E-06-3.44900E-19-2.19357E-18
 -1      2673 9.67672E-05-2.85122E-05-2.92607E-05-4.11527E-06 1.22712E-20-2.17071E-18
 -1      2674 9.67044E-05-2.84137E-05-2.92624E-05-3.13436E-06-5.13276E-19-2.20344E-18
 -1      2675 9.64370E-05-2.83081E-05-2.91974E-05-2.89364E-06-4.51231E-19-2.30379E-18
 -1      2676 9.62401E-05-2.81577E-05-2.91838E-05-3.54709E-06-4.83788E-19-2.31985E-18
 -1      2677 9.62996E-05-2.82638E-05-2.91528E-05-2.61527E-06-2.57744E-19-2.25938E-18
 -1      2678 9.60942E-05-2.82122E-05-2.90927E-05-2.37599E-06-2.30158E-19-2.14397E-18
 -1      2679 9.58960E-05-2.79954E-05-2.91041E-05-2.96204E-06-3.02090E-19-2.21536E-18
 -1      2680 9.60049E-05-2.82092E-05-2.90500E-05-2.11937E-06-2.27675E-19-2.09359E-18
 -1      2681 9.58476E-05-2.81917E-05-2.89964E-05-1.89872E-06-2.03673E-19-1.58788E-18
 -1      2682 9.56727E-05-2.79554E-05-2.90244E-05-2.40745E-06 3.55676E-20-2.42345E-18
 -1      2683 9.57893E-05-2.82113E-05-2.89571E-05-1.67327E-06-4.00822E-19-1.28039E-18
 -1      2684 9.56694E-05-2.82138E-05-2.89107E-05-1.47998E-06-3.18759E-19-1.82835E-18
 -1      2685 9.55277E-05-2.79864E-05-2.89482E-05-1.90959E-06-2.86392E-19-1.84933E-18
 -1      2686 9.56308E-05-2.82439E-05-2.88758E-05-1.28906E-06-5.13824E-19-1.83624E-18
 -1      2687 9.55401E-05-2.82570E-05-2.88368E-05-1.12618E-06-3.58836E-19-2.32457E-18
 -1      2688 9.54329E-05-2.80537E-05-2.88783E-05-1.48022E-06-4.73181E-19-1.82305E-18
 -1      2689 9.55142E-05-2.82900E-05-2.88067E-05-9.69273E-07 3.17035E-19-2.34946E-18
 -1      2690 9.54462E-05-2.83077E-05-2.87747E-05-8.36280E-07 4.82288E-19-2.68274E-18
 -1      2691 9.53702E-05-2.81351E-05-2.88162E-05-1.12159E-06-4.11049E-19-1.68759E-18
 -1      2692 9.54285E-05-2.83395E-05-2.87494E-05-7.10631E-07 8.12934E-19-2.69008E-18
 -1      2693 9.53783E-05-2.83582E-05-2.87238E-05-6.04958E-07 8.67296E-19-1.78582E-18
 -1      2694 9.53282E-05-2.82172E-05-2.87628E-05-8.30072E-07 7.86293E-19-2.50121E-18
 -1      2695 9.53660E-05-2.83865E-05-2.87031E-05-5.06707E-07 4.72502E-19-2.05361E-18
 -1      2696 9.53295E-05-2.84041E-05-2.86830E-05-4.24810E-07 6.79724E-19-2.26189E-18
 -1      2697 9.52996E-05-2.82927E-05-2.87180E-05-5.98795E-07 3.72206E-19-2.05361E-18
 -1      2698 9.53208E-05-2.84281E-05-2.86664E-05-3.49715E-07 2.14974E-19-2.61776E-18
 -1      2699 9.52948E-05-2.84437E-05-2.86510E-05-2.87756E-07-2.44449E-19-3.11735E-18
 -1      2700 9.52798E-05-2.83581E-05-2.86814E-05-4.19444E-07 2.02621E-19-2.52963E-18
 -1      2701 9.52886E-05-2.84632E-05-2.86380E-05-2.31664E-07-4.88579E-20-3.13927E-18
 -1      2702 9.52705E-05-2.84764E-05-2.86264E-05-1.85926E-07-1.24787E-19-3.01108E-18
 -1      2703 9.52660E-05-2.84125E-05-2.86520E-05-2.83436E-07-2.49021E-20-2.92841E-18
 -1      2704 9.52660E-05-2.84919E-05-2.86164E-05-1.45036E-07-1.88135E-19-3.08137E-18
 -1      2705 9.52539E-05-2.85027E-05-2.86079E-05-1.12155E-07-7.65679E-20-2.79231E-18
 -1      2706 9.52563E-05-2.84563E-05-2.86290E-05-1.82642E-07 2.02110E-19-2.61288E-18
 -1      2707 9.52507E-05-2.85145E-05-2.86004E-05-8.31476E-08-7.69956E-20-2.29328E-18
 -1      2708 9.52429E-05-2.85231E-05-2.85944E-05-6.02169E-08-4.96428E-19-2.10313E-18
 -1      2709 9.52495E-05-2.84905E-05-2.86113E-05-1.09780E-07 1.10335E-19-2.49348E-18
 -1      2710 9.52406E-05-2.85320E-05-2.85888E-05-4.02920E-08-6.20983E-19-2.17356E-18
 -1      2711 9.52359E-05-2.85387E-05-2.85847E-05-2.48852E-08-6.56479E-19-1.70363E-18
 -1      2712 9.52447E-05-2.85166E-05-2.85980E-05-5.85803E-08-4.85231E-19-1.90902E-18
 -1      2713 9.52343E-05-2.85451E-05-2.85807E-05-1.17498E-08-6.96574E-19-1.51723E-18
 -1      2714 9.52318E-05-2.85502E-05-2.85779E-05-1.89926E-09 4.84200E-20-9.21631E-19
 -1      2715 9.52414E-05-2.85360E-05-2.85883E-05-2.38194E-08-5.04243E-19-1.83809E-18
 -1      2716 9.52307E-05-2.85548E-05-2.85751E-05 6.27951E-09-3.63374E-20-1.28197E-18
 -1      2717 9.52296E-05-2.85585E-05-2.85734E-05 1.21302E-08 1.52954E-19-1.58359E-18
 -1      2718 9.52391E-05-2.85500E-05-2.85812E-05-1.25534E-09-1.16991E-19-1.80843E-18
 -1      2719 9.52289E-05-2.85617E-05-2.85715E-05 1.67843E-08-7.48064E-20-1.20874E-18
 -1      2720 9.52288E-05-2.85644E-05-2.85705E-05 1.98385E-08-5.01644E-19-1.36660E-18
 -1      2721 9.52377E-05-2.85599E-05-2.85763E-05 1.24749E-08 3.84709E-19-1.32983E-18
 -1      2722 9.52284E-05-2.85664E-05-2.85693E-05 2.20629E-08-6.19106E-19-5.49947E-19
 -1      2723 9.52289E-05-2.85683E-05-2.85688E-05 2.32302E-08-1.16114E-19-7.34062E-19
 -1      2724 9.52367E-05-2.85665E-05-2.85730E-05 1.99800E-08-9.02794E-20-1.57706E-19
 -1      2725 9.52286E-05-2.85696E-05-2.85681E-05 2.38441E-08-3.51271E-19 2.11787E-19
 -1      2726 9.52294E-05-2.85709E-05-2.85679E-05 2.37970E-08-1.32124E-19 6.32964E-19
 -1      2727 9.52362E-05-2.85709E-05-2.85709E-05 2.32410E-08 3.22878E-20-7.16045E-19
 -1      2728 9.52293E-05-2.85716E-05-2.85675E-05 2.33995E-08 9.16138E-21 3.05982E-19
 -1      2729 9.52302E-05-2.85725E-05-2.85676E-05 2.26226E-08 4.44694E-19 1.05200E-19
 -1      2730 9.52359E-05-2.85735E-05-2.85697E-05 2.37296E-08-2.64612E-19 1.14092E-19
 -1      2731 9.52302E-05-2.85728E-05-2.85674E-05 2.16408E-08 2.52105E-19-8.67743E-19
 -1      2732 9.52312E-05-2.85733E-05-2.85676E-05 2.04741E-08-1.74027E-20-1.28657E-18
 -1      2733 9.52358E-05-2.85749E-05-2.85690E-05 2.25141E-08-6.02455E-19-2.22187E-18
 -1      2734 9.52312E-05-2.85734E-05-2.85676E-05 1.92035E-08 4.02704E-20-1.19284E-18
 -1      2735 9.52321E-05-2.85737E-05-2.85679E-05 1.78772E-08-5.92433E-19-1.62595E-18
 -1      2736 9.52358E-05-2.85755E-05-2.85687E-05 2.03492E-08 2.89023E-19-2.30700E-18
 -1      2737 9.52322E-05-2.85736E-05-2.85680E-05 1.65144E-08-6.87370E-19-1.54010E-18
 -1      2738 9.52330E-05-2.85738E-05-2.85682E-05 1.51775E-08 7.07170E-19-9.75164E-19
 -1      2739 9.52359E-05-2.85756E-05-2.85687E-05 1.77517E-08 3.11125E-19-8.55620E-19
 -1      2740 9.52331E-05-2.85736E-05-2.85684E-05 1.38471E-08 1.26117E-18-8.73963E-19
 -1      2741 9.52338E-05-2.85736E-05-2.85686E-05 1.25897E-08 7.50936E-19-2.90341E-19
 -1      2742 9.52361E-05-2.85754E-05-2.85689E-05 1.50608E-08 5.18046E-19 7.87219E-22
 -1      2743 9.52339E-05-2.85734E-05-2.85688E-05 1.13641E-08 1.03786E-18 1.03611E-20
 -1      2744 9.52345E-05-2.85734E-05-2.85690E-05 1.02348E-08 8.31866E-19 5.79138E-19
 -1      2745 9.52362E-05-2.85750E-05-2.85691E-05 1.24865E-08 8.00642E-19 4.79648E-20
 -1      2746 9.52346E-05-2.85732E-05-2.85692E-05 9.15021E-09 8.11215E-20 6.52776E-19
 -1      2747 9.52351E-05-2.85731E-05-2.85694E-05 8.16884E-09 4.02449E-19 5.18634E-19
 -1      2748 9.52364E-05-2.85745E-05-2.85694E-05 1.01467E-08 7.40189E-19-2.80909E-19
 -1      2749 9.52352E-05-2.85729E-05-2.85696E-05 7.23684E-09 7.40775E-19 3.98152E-19
 -1      2750 9.52356E-05-2.85728E-05-2.85698E-05 6.40432E-09 2.15329E-18 2.56795E-19
 -1      2751 9.52365E-05-2.85740E-05-2.85697E-05 8.09570E-09 5.64912E-19 1.87610E-19
 -1      2752 9.52357E-05-2.85727E-05-2.85699E-05 5.62064E-09 2.99372E-18-6.40042E-19
 -1      2753 9.52361E-05-2.85726E-05-2.85701E-05 4.92601E-09 2.35062E-18-6.77521E-19
 -1      2754 9.52367E-05-2.85735E-05-2.85699E-05 6.34479E-09 1.65754E-18-8.57252E-19
 -1      2755 9.52361E-05-2.85724E-05-2.85702E-05 4.27630E-09 1.12780E-18-3.63908E-19
 -1      2756 9.52364E-05-2.85724E-05-2.85703E-05 3.70050E-09 9.45202E-19-5.85358E-19
 -1      2757 9.52368E-05-2.85731E-05-2.85701E-05 4.87858E-09 1.31210E-18-2.97753E-18
 -1      2758 9.52365E-05-2.85723E-05-2.85704E-05 3.16804E-09 1.07361E-18-6.88005E-19
 -1      2759 9.52367E-05-2.85722E-05-2.85705E-05 2.69310E-09 1.45876E-18-4.67185E-20
 -1      2760 9.52369E-05-2.85728E-05-2.85703E-05 3.66290E-09 1.27723E-18-1.53249E-18
 -1      2761 1.33518E-04-4.51173E-05-3.81306E-05-3.57937E-06 1.88978E-18-6.27313E-18
 -1      2762 1.33416E-04-3.93784E-05-4.05345E-05-5.59765E-06 3.74886E-18-6.12087E-18
 -1      2763 3.61838E-05-6.54832E-06-1.22550E-05 4.08985E-06-1.02729E-19 7.43589E-18
 -1      2764 3.61962E-05-6.89979E-06-1.20436E-05-9.82558E-06 1.20707E-18 8.55313E-18
 -1      2765 1.16634E-04-4.20197E-05-3.18492E-05 7.41137E-06-1.23869E-18-3.68158E-18
 -1      2766 1.19765E-04-4.41300E-05-3.24388E-05 4.98022E-06-8.64821E-19-3.70201E-18
 -1      2767 1.21946E-04-4.72149E-05-3.23162E-05 7.20800E-06-1.28666E-18-4.80618E-18
 -1      2768 1.09687E-04-3.68356E-05-3.11338E-05 1.02479E-05-1.04162E-18-2.52775E-18
 -1      2769 1.12468E-04-3.92430E-05-3.14111E-05 8.93711E-06-1.05088E-18-2.91904E-18
 -1      2770 1.12110E-04-4.12031E-05-3.06015E-05 1.16065E-05-1.36444E-18-3.08767E-18
 -1      2771 1.04802E-04-3.27489E-05-3.08326E-05 1.08704E-05-3.52547E-19-1.88096E-18
 -1      2772 1.06896E-04-3.45738E-05-3.10003E-05 1.04970E-05-5.26717E-19-1.97768E-18
 -1      2773 1.05323E-04-3.53439E-05-3.01046E-05 1.28164E-05-1.12187E-18-2.34409E-18
 -1      2774 1.01701E-04-3.01629E-05-3.06381E-05 1.02395E-05-4.86770E-19-9.72222E-19
 -1      2775 1.03180E-04-3.13193E-05-3.07875E-05 1.04484E-05-5.43512E-19-1.34771E-18
 -1      2776 1.01027E-04-3.11671E-05-3.00031E-05 1.22296E-05-7.89465E-19-1.26122E-18
 -1      2777 9.97890E-05-2.87509E-05-3.04391E-05 9.03453E-06-5.78264E-19-1.57673E-19
 -1      2778 1.00829E-04-2.94022E-05-3.05954E-05 9.54531E-06-1.89548E-19-3.05446E-19
 -1      2779 9.86311E-05-2.87447E-05-2.99822E-05 1.08953E-05-8.34687E-19-5.03790E-19
 -1      2780 9.85836E-05-2.80887E-05-3.02137E-05 7.64166E-06-3.93765E-19-6.89813E-20
 -1      2781 9.93369E-05-2.84189E-05-3.03755E-05 8.26795E-06-1.44978E-19 6.73308E-20
 -1      2782 9.73636E-05-2.75577E-05-2.99304E-05 9.32607E-06-5.41878E-19 2.56262E-19
 -1      2783 9.77778E-05-2.78501E-05-2.99734E-05 6.27106E-06-3.85881E-19-4.46656E-19
 -1      2784 9.83450E-05-2.79968E-05-3.01314E-05 6.90185E-06-3.35836E-19-3.40179E-19
 -1      2785 9.67009E-05-2.71161E-05-2.98272E-05 7.76168E-06-1.39649E-19-1.61440E-19
 -1      2786 9.71986E-05-2.78256E-05-2.97361E-05 5.02769E-06-1.84082E-19-4.79887E-19
 -1      2787 9.76391E-05-2.78758E-05-2.98820E-05 5.60497E-06-2.83641E-19-7.15796E-19
 -1      2788 9.63368E-05-2.70734E-05-2.96861E-05 6.31913E-06-2.55816E-19-9.33118E-19
 -1      2789 9.67560E-05-2.78953E-05-2.95161E-05 3.95393E-06 9.71733E-19-2.34472E-19
 -1      2790 9.71041E-05-2.78989E-05-2.96446E-05 4.45312E-06 5.15563E-19-1.91077E-19
 -1      2791 9.61099E-05-2.72148E-05-2.95273E-05 5.04985E-06 4.37554E-20-1.13145E-18
 -1      2792 9.64053E-05-2.79968E-05-2.93215E-05 3.05714E-06 3.75278E-19-8.40374E-20
 -1      2793 9.66814E-05-2.79802E-05-2.94307E-05 3.47296E-06 6.56365E-19-2.73300E-19
 -1      2794 9.59446E-05-2.74216E-05-2.93678E-05 3.96882E-06 6.90115E-19-6.62000E-19
 -1      2795 9.61236E-05-2.81004E-05-2.91556E-05 2.32644E-06 2.18655E-19 7.66649E-19
 -1      2796 9.63415E-05-2.80768E-05-2.92457E-05 2.66367E-06 5.08604E-19 7.68126E-19
 -1      2797 9.58094E-05-2.76343E-05-2.92190E-05 3.07084E-06 2.59793E-20 1.48446E-19
 -1      2798 9.58979E-05-2.81938E-05-2.90181E-05 1.74262E-06 1.40675E-18 2.10542E-19
 -1      2799 9.60680E-05-2.81693E-05-2.90907E-05 2.01053E-06 9.08550E-19 6.26397E-19
 -1      2800 9.56932E-05-2.78268E-05-2.90869E-05 2.33997E-06 6.78514E-19 1.84472E-19
 -1      2801 9.57190E-05-2.82732E-05-2.89068E-05 1.28384E-06 1.27159E-18-5.18221E-20
 -1      2802 9.58500E-05-2.82505E-05-2.89642E-05 1.49307E-06 1.65701E-18 4.26855E-19
 -1      2803 9.55928E-05-2.79902E-05-2.89740E-05 1.75541E-06 1.64664E-18-4.67785E-20
 -1      2804 9.55795E-05-2.83387E-05-2.88186E-05 9.28731E-07 2.65721E-19 4.13191E-19
 -1      2805 9.56788E-05-2.83187E-05-2.88630E-05 1.08965E-06 1.01005E-18 2.73493E-19
 -1      2806 9.55077E-05-2.81241E-05-2.88801E-05 1.29517E-06 8.20975E-19 4.32292E-19
 -1      2807 9.54728E-05-2.83916E-05-2.87498E-05 6.57828E-07-3.56017E-19-1.44649E-19
 -1      2808 9.55466E-05-2.83745E-05-2.87837E-05 7.79773E-07-2.05284E-19-1.88277E-19
 -1      2809 9.54374E-05-2.82314E-05-2.88039E-05 9.38144E-07 2.07161E-19-1.78132E-20
 -1      2810 9.53929E-05-2.84340E-05-2.86972E-05 4.54209E-07-2.88181E-19-3.42568E-19
 -1      2811 9.54467E-05-2.84195E-05-2.87226E-05 5.45236E-07-3.31322E-19-3.12932E-19
 -1      2812 9.53809E-05-2.83160E-05-2.87433E-05 6.65208E-07-2.60508E-19-7.88084E-19
 -1      2813 9.53345E-05-2.84675E-05-2.86576E-05 3.03570E-07 1.04953E-19-4.72800E-19
 -1      2814 9.53727E-05-2.84555E-05-2.86763E-05 3.70419E-07-1.57378E-19-1.57121E-19
 -1      2815 9.53368E-05-2.83820E-05-2.86959E-05 4.59680E-07-4.96323E-19-4.51950E-19
 -1      2816 9.52928E-05-2.84938E-05-2.86283E-05 1.94079E-07 1.01880E-18-4.96753E-19
 -1      2817 9.53193E-05-2.84839E-05-2.86419E-05 2.42277E-07 4.17252E-19-4.87584E-19
 -1      2818 9.53032E-05-2.84330E-05-2.86595E-05 3.07395E-07 8.96834E-20 2.17575E-19
 -1      2819 9.52640E-05-2.85143E-05-2.86071E-05 1.16108E-07 8.71375E-19 1.55950E-19
 -1      2820 9.52817E-05-2.85063E-05-2.86167E-05 1.50114E-07 1.10112E-18 2.81953E-19
 -1      2821 9.52784E-05-2.84719E-05-2.86320E-05 1.96571E-07 4.90994E-19 7.05810E-19
 -1      2822 9.52449E-05-2.85301E-05-2.85921E-05 6.19399E-08-6.05805E-19 3.86341E-19
 -1      2823 9.52561E-05-2.85236E-05-2.85987E-05 8.53020E-08 5.14001E-19 5.09148E-19
 -1      2824 9.52606E-05-2.85014E-05-2.86116E-05 1.17579E-07 1.87625E-19 8.20102E-19
 -1      2825 9.52328E-05-2.85421E-05-2.85818E-05 2.54697E-08 5.40213E-19 8.73143E-19
 -1      2826 9.52395E-05-2.85370E-05-2.85861E-05 4.09746E-08-5.81008E-20 5.96583E-19
 -1      2827 9.52483E-05-2.85233E-05-2.85968E-05 6.26668E-08-4.58345E-20 3.64684E-19
 -1      2828 9.52258E-05-2.85511E-05-2.85749E-05 1.93115E-09 2.75097E-19 1.81756E-20
 -1      2829 9.52293E-05-2.85471E-05-2.85776E-05 1.17398E-08 5.16183E-19 3.95407E-19
 -1      2830 9.52401E-05-2.85395E-05-2.85863E-05 2.56828E-08 7.76741E-19 7.91690E-19
 -1      2831 9.52223E-05-2.85578E-05-2.85705E-05-1.23465E-08 8.15773E-19-8.34366E-19
 -1      2832 9.52237E-05-2.85547E-05-2.85721E-05-6.58089E-09 6.35843E-19-2.27138E-19
 -1      2833 9.52349E-05-2.85512E-05-2.85790E-05 1.81117E-09 5.76106E-19 9.54961E-20
 -1      2834 9.52212E-05-2.85627E-05-2.85679E-05-2.01507E-08 7.79172E-19-3.71334E-19
 -1      2835 9.52211E-05-2.85604E-05-2.85687E-05-1.71810E-08 1.09408E-18-3.48366E-19
 -1      2836 9.52320E-05-2.85595E-05-2.85741E-05-1.26643E-08 8.33033E-19 3.79208E-19
 -1      2837 9.52215E-05-2.85662E-05-2.85666E-05-2.35653E-08 5.33088E-20-1.03183E-18
 -1      2838 9.52206E-05-2.85644E-05-2.85668E-05-2.24658E-08 1.86290E-19-6.81351E-19
 -1      2839 9.52305E-05-2.85652E-05-2.85710E-05-2.05695E-08 5.32661E-19 1.48831E-18
 -1      2840 9.52227E-05-2.85686E-05-2.85660E-05-2.41218E-08 4.23167E-20-1.29222E-18
 -1      2841 9.52214E-05-2.85673E-05-2.85660E-05-2.42172E-08 4.25780E-19-1.23926E-18
 -1      2842 9.52301E-05-2.85690E-05-2.85691E-05-2.40191E-08 3.52196E-19-9.20689E-20
 -1      2843 9.52244E-05-2.85702E-05-2.85661E-05-2.29230E-08 4.02818E-19-1.11148E-18
 -1      2844 9.52229E-05-2.85693E-05-2.85658E-05-2.37313E-08 2.04407E-19-1.28452E-18
 -1      2845 9.52303E-05-2.85714E-05-2.85681E-05-2.45679E-08 1.75486E-20-1.25936E-18
 -1      2846 9.52262E-05-2.85712E-05-2.85664E-05-2.07447E-08-3.36768E-19 5.19920E-19
 -1      2847 9.52247E-05-2.85706E-05-2.85661E-05-2.19301E-08-4.11516E-20-9.17023E-19
 -1      2848 9.52308E-05-2.85729E-05-2.85677E-05-2.33363E-08-2.37148E-19-4.03575E-19
 -1      2849 9.52280E-05-2.85719E-05-2.85669E-05-1.81165E-08 4.55295E-19 9.98746E-19
 -1      2850 9.52266E-05-2.85714E-05-2.85665E-05-1.94530E-08-2.59055E-20 9.85136E-19
 -1      2851 9.52316E-05-2.85737E-05-2.85677E-05-2.11122E-08-6.63600E-19 1.57513E-18
 -1      2852 9.52297E-05-2.85722E-05-2.85675E-05-1.53862E-08-3.30898E-19 1.04922E-18
 -1      2853 9.52284E-05-2.85719E-05-2.85671E-05-1.67278E-08 5.90369E-19 6.87313E-19
 -1      2854 9.52324E-05-2.85740E-05-2.85679E-05-1.84334E-08 5.98273E-19 1.36029E-18
 -1      2855 9.52312E-05-2.85723E-05-2.85681E-05-1.27692E-08 5.12596E-19 2.55468E-19
 -1      2856 9.52301E-05-2.85722E-05-2.85677E-05-1.40281E-08 4.45137E-19 9.66128E-19
 -1      2857 9.52332E-05-2.85740E-05-2.85682E-05-1.56528E-08 3.70281E-19 1.98938E-18
 -1      2858 9.52325E-05-2.85723E-05-2.85686E-05-1.03873E-08-6.35217E-19-1.40140E-18
 -1      2859 9.52316E-05-2.85722E-05-2.85683E-05-1.15164E-08-3.25325E-19-8.54068E-19
 -1      2860 9.52339E-05-2.85738E-05-2.85686E-05-1.29889E-08 2.77498E-19 1.10583E-18
 -1      2861 9.52336E-05-2.85723E-05-2.85691E-05-8.29731E-09-1.06239E-18-1.32208E-18
 -1      2862 9.52328E-05-2.85722E-05-2.85689E-05-9.27742E-09-6.70206E-19-1.26418E-18
 -1      2863 9.52346E-05-2.85735E-05-2.85690E-05-1.05649E-08-4.25612E-19 3.75893E-19
 -1      2864 9.52345E-05-2.85722E-05-2.85696E-05-6.51214E-09-1.47439E-18-1.13995E-18
 -1      2865 9.52339E-05-2.85722E-05-2.85693E-05-7.34269E-09-1.04263E-18-1.74995E-18
 -1      2866 9.52352E-05-2.85732E-05-2.85694E-05-8.43795E-09-1.25852E-18-5.66077E-19
 -1      2867 9.52352E-05-2.85721E-05-2.85699E-05-5.01661E-09-3.35873E-18-1.13572E-18
 -1      2868 9.52347E-05-2.85721E-05-2.85697E-05-5.70883E-09-2.93283E-18-9.55206E-19
 -1      2869 9.52357E-05-2.85729E-05-2.85697E-05-6.62089E-09-2.51885E-18-1.02096E-18
 -1      2870 9.52358E-05-2.85720E-05-2.85702E-05-3.77894E-09-2.36066E-18-1.08356E-18
 -1      2871 9.52354E-05-2.85720E-05-2.85701E-05-4.35053E-09-2.73580E-18-1.03603E-18
 -1      2872 9.52361E-05-2.85726E-05-2.85700E-05-5.09834E-09-3.51220E-18-1.37233E-18
 -1      2873 9.52363E-05-2.85719E-05-2.85705E-05-2.75937E-09-1.93260E-18-1.61899E-18
 -1      2874 9.52360E-05-2.85719E-05-2.85703E-05-3.22699E-09-1.63517E-18-1.46858E-18
 -1      2875 9.52364E-05-2.85724E-05-2.85703E-05-3.83829E-09-2.11256E-18-1.69279E-18
 -1      2876 9.52367E-05-2.85720E-05-2.85706E-05-2.02764E-09-1.81587E-18-2.80224E-19
 -1      2877 9.52365E-05-2.85720E-05-2.85705E-05-2.42684E-09-2.22468E-18-5.99277E-19
 -1      2878 9.52368E-05-2.85724E-05-2.85705E-05-2.91116E-09-1.91771E-18 6.74809E-19
 -1      2879 9.52371E-05-2.85724E-05-2.85706E-05-2.23820E-09-2.23827E-18 1.23343E-18
 -1      2880 9.52394E-05-2.85750E-05-2.85704E-05-2.35915E-10 7.88303E-19 5.31406E-19
 -1      2881 9.52393E-05-2.85749E-05-2.85704E-05-6.41275E-10 7.74506E-19 3.05737E-19
 -1      2882 9.52368E-05-2.85722E-05-2.85705E-05 2.38729E-09 1.37210E-18 3.62838E-19
 -1      2883 9.52369E-05-2.85722E-05-2.85706E-05 2.10534E-09 2.66537E-19 1.12296E-18
 -1      2884 9.52370E-05-2.85726E-05-2.85705E-05 2.80026E-09 1.44510E-18-1.91617E-18
 -1      2885 9.52388E-05-2.85744E-05-2.85705E-05-1.80312E-09-8.48870E-19-4.18850E-18
 -1      2886 9.52385E-05-2.85741E-05-2.85705E-05-2.04425E-09-2.25286E-20-5.46734E-18
 -1      2887 9.52393E-05-2.85749E-05-2.85704E-05 6.55493E-10 9.49219E-19 1.29101E-18
 -1      2888 9.52394E-05-2.85750E-05-2.85704E-05 2.50714E-10 1.05089E-18 2.35578E-19
 -1      2889 9.52397E-05-2.85753E-05-2.85705E-05 8.58159E-12 1.25852E-18 5.93400E-19
 -1      2890 9.52392E-05-2.85748E-05-2.85704E-05-1.09535E-09-3.83062E-19-1.72305E-19
 -1      2891 9.52390E-05-2.85746E-05-2.85705E-05-1.44392E-09-7.18253E-19-1.16771E-18
 -1      2892 9.52392E-05-2.85748E-05-2.85705E-05-1.84419E-09-3.73479E-19-2.69727E-18
 -1      2893 9.52396E-05-2.85752E-05-2.85705E-05-9.83895E-10 3.62905E-19 8.82853E-19
 -1      2894 9.52390E-05-2.85746E-05-2.85705E-05 1.44329E-09 3.93953E-19-9.36782E-19
 -1      2895 9.52392E-05-2.85748E-05-2.85704E-05 1.10122E-09 1.74467E-19 1.41263E-18
 -1      2896 9.52396E-05-2.85752E-05-2.85705E-05 9.92091E-10 1.08238E-18-5.41839E-20
 -1      2897 9.52385E-05-2.85741E-05-2.85705E-05 2.04368E-09 2.57428E-18-4.59973E-19
 -1      2898 9.52388E-05-2.85744E-05-2.85705E-05 1.80249E-09 1.15662E-18-2.65232E-19
 -1      2899 9.52392E-05-2.85748E-05-2.85705E-05 1.84367E-09 1.17616E-18-2.63811E-19
 -1      2900 9.52379E-05-2.85734E-05-2.85705E-05 2.34875E-09 3.35602E-18 4.90918E-19
 -1      2901 9.52382E-05-2.85737E-05-2.85705E-05 2.25996E-09 3.67899E-18-6.67719E-19
 -1      2902 9.52386E-05-2.85742E-05-2.85705E-05 2.45379E-09 3.04781E-18 3.11059E-19
 -1      2903 4.23990E-05-1.20760E-05-1.26221E-05-2.31151E-05 3.29914E-18 7.13159E-18
 -1      2904 5.48413E-05-2.07219E-05-1.43310E-05-3.47555E-05 4.22087E-18 5.23572E-18
 -1      2905 9.52371E-05-2.85724E-05-2.85706E-05 2.20464E-09 9.38891E-19-1.10860E-18
 -1      2906 1.03178E-04-4.54918E-05-2.42715E-05-3.34709E-05 5.00146E-18-1.88685E-18
 -1      2907 1.16380E-04-4.97613E-05-2.88872E-05-2.60628E-05 3.45261E-18-3.98942E-18
 -1      2908 1.30087E-04-3.81681E-05-3.94286E-05-4.70397E-07-1.44784E-18-7.89625E-18
 -1      2909 1.28882E-04-2.87200E-05-4.36110E-05 2.68286E-06-4.03537E-18-7.58952E-18
 -1      2910 1.33107E-04-4.25472E-05-3.88331E-05 2.01535E-05 2.09885E-18 2.92847E-18
 -1      2911 1.26917E-04-4.48398E-05-3.50340E-05 6.39752E-06 3.54377E-19 5.52318E-19
 -1      2912 8.34655E-05-3.71863E-05-2.00111E-05 3.94193E-05-3.25631E-18 1.10421E-18
 -1      2913 6.45365E-05-2.63744E-05-1.56908E-05 3.66678E-05-3.16790E-18 3.46055E-18
 -1      2914 1.17084E-04-5.16716E-05-2.84411E-05 2.72142E-05-2.76440E-18-3.34149E-18
 -1      2915 1.02901E-04-4.57955E-05-2.38757E-05 3.48511E-05-3.46691E-18-1.06078E-18
 -1      2916 1.33245E-04-2.11740E-05-4.86897E-05-1.84335E-06 8.34730E-18-4.35216E-18
 -1      2917 1.35863E-04-2.69314E-05-4.71458E-05-4.41710E-06 7.42371E-18-5.50571E-18
 -1      2918 1.19955E-04-3.21870E-05-3.79811E-05-9.59418E-06-2.57468E-19-8.39873E-19
 -1      2919 1.27358E-04-2.87927E-05-4.23049E-05 2.18181E-05 6.01028E-18 3.44954E-18
 -1      2920 1.30954E-04-3.41444E-05-4.18105E-05 2.45789E-05 4.96700E-18 4.17923E-18
 -1      2921 1.33123E-04-3.49788E-05-4.23523E-05 2.60885E-05 4.90702E-18 3.85834E-18
 -1      2922 1.22221E-04-8.84537E-06-4.90683E-05-5.78708E-06-8.69035E-18-5.00442E-18
 -1      2923 1.23037E-04-9.64413E-06-4.90754E-05-1.17274E-05-8.93429E-18-3.31497E-18
 -1      2924 1.26248E-04-1.88768E-05-4.63514E-05 2.99715E-06-6.15369E-18-7.30502E-18
 -1      2925 1.23520E-04-1.27148E-05-4.81027E-05-5.78995E-07-7.57819E-18-6.16402E-18
 -1      2926 6.83134E-05-2.87232E-05-1.64699E-05-3.82519E-05 5.04895E-18 2.98325E-18
 -1      2927 8.45658E-05-3.76834E-05-2.02352E-05-3.96740E-05 5.00205E-18 3.62160E-19
 -1      2928 6.71226E-05-2.46469E-05-1.76647E-05-3.30933E-05 4.68425E-18 3.14620E-18
 -1      2929 1.29036E-04-2.48007E-05-4.52974E-05-1.49307E-05-6.19838E-18-3.69730E-19
 -1      2930 1.28027E-04-2.92757E-05-4.25731E-05-1.07573E-05-4.39060E-18-1.52254E-19
 -1      2931 1.25498E-04-2.97945E-05-4.09719E-05-1.32441E-05-2.79100E-18 1.14879E-20
 -1      2932 1.36284E-04-2.47505E-05-4.82081E-05 2.25040E-05 8.95653E-18 1.09066E-18
 -1      2933 1.35645E-04-1.89290E-05-5.05716E-05 1.79540E-05 1.00416E-17-2.32193E-19
 -1      2934 1.10422E-04-2.50281E-05-3.66613E-05-1.62744E-05-3.85616E-18-2.46763E-18
 -1      2935 1.08849E-04-2.39864E-05-3.63527E-05-1.33829E-05-3.81248E-18-2.70033E-18
 -1      2936 1.09425E-04-2.19399E-05-3.75113E-05-1.30873E-05-4.02111E-18-2.97425E-18
 -1      2937 1.25437E-04-4.95675E-05-3.23351E-05-1.63593E-05 2.28739E-18-5.72012E-18
 -1      2938 1.28914E-04-4.69978E-05-3.57210E-05-9.34203E-06 7.40902E-19-6.56895E-18
 -1      2939 1.25540E-04-1.34441E-05-4.87071E-05-1.53303E-05-8.77823E-18-2.11245E-18
 -1      2940 1.27774E-04-1.86547E-05-4.70733E-05-1.62602E-05-7.58952E-18-9.48253E-19
 -1      2941 1.24742E-04-2.10499E-05-4.45870E-05-1.77668E-05-5.96883E-18-5.48083E-19
 -1      2942 1.12479E-04-2.53619E-05-3.74392E-05-2.00377E-05-3.63805E-18-2.71887E-18
 -1      2943 1.11451E-04-2.54321E-05-3.68360E-05-1.81172E-05-3.75110E-18-2.43863E-18
 -1      2944 1.11999E-04-2.38985E-05-3.77925E-05-1.83969E-05-3.87651E-18-2.50828E-18
 -1      2945 1.13488E-04-2.50041E-05-3.79521E-05-2.04578E-05-3.13441E-18-2.71330E-18
 -1      2946 1.33535E-04-4.90322E-05-3.65809E-05 3.62204E-06 1.00147E-18-6.29512E-18
 -1      2947 1.28074E-04-5.20657E-05-3.22941E-05 1.27459E-05-1.44865E-18-5.39894E-18
 -1      2948 1.19150E-04-2.90802E-05-3.85699E-05-1.53889E-05-9.04830E-19-1.22136E-18
 -1      2949 1.17194E-04-2.70340E-05-3.89194E-05-1.85118E-05-2.06339E-18-1.94832E-18
 -1      2950 6.18794E-05-2.20342E-05-1.64706E-05 3.12363E-05-3.00496E-18 4.10949E-18
 -1      2951 1.20150E-04-1.22418E-05-4.65689E-05-1.37363E-05-7.69529E-18-2.62707E-18
 -1      2952 4.08594E-05-8.01628E-06-1.34664E-05 9.93251E-06-1.03587E-18 6.57827E-18
 -1      2953 4.50166E-05-7.55887E-06-1.57308E-05 3.41464E-06-1.40819E-19 5.99170E-18
 -1      2954 4.66782E-05-1.07108E-05-1.53013E-05 1.63142E-05-1.86919E-18 5.56077E-18
 -1      2955 1.30157E-04-1.84994E-05-4.82799E-05 1.47194E-05 9.30889E-18-7.10581E-19
 -1      2956 9.52382E-05-2.85738E-05-2.85705E-05-2.25763E-09-9.50645E-19-5.20306E-18
 -1      2957 9.52379E-05-2.85734E-05-2.85705E-05-2.35249E-09-1.38497E-18-3.83833E-18
 -1      2958 9.52386E-05-2.85742E-05-2.85705E-05-2.45346E-09-9.05764E-19-4.75969E-18
 -1      2959 1.32631E-04-3.22239E-05-4.36257E-05-7.46742E-06 5.56585E-18-5.46527E-18
 -1      2960 4.71969E-05-1.09092E-05-1.49889E-05-1.62337E-05 2.60346E-18 6.55413E-18
 -1      2961 1.19113E-04-4.90507E-05-2.99601E-05-1.89324E-05 3.34049E-18-4.75273E-18
 -1      2962 9.52376E-05-2.85731E-05-2.85705E-05-2.38838E-09-1.07190E-18-1.92986E-18
 -1      2963 9.52373E-05-2.85727E-05-2.85706E-05-2.33012E-09-1.41159E-18 1.41431E-18
 -1      2964 9.52372E-05-2.85727E-05-2.85705E-05-2.66638E-09-1.80749E-18 1.23568E-18
 -1      2965 9.52379E-05-2.85735E-05-2.85705E-05-2.71699E-09-1.96028E-18-3.84262E-18
 -1      2966 1.27319E-04-4.18564E-05-3.66789E-05-2.23952E-06 7.63653E-21-7.41149E-18
 -1      2967 1.25555E-04-1.98263E-05-4.57891E-05 2.24081E-06 8.31956E-18-2.46600E-18
 -1      2968 1.25167E-04-1.94322E-05-4.57258E-05 8.44746E-06 8.39505E-18-1.02922E-18
 -1      2969 9.52374E-05-2.85728E-05-2.85705E-05 2.27833E-09 2.22531E-18-1.09220E-18
 -1      2970 9.58696E-05-4.07478E-05-2.33309E-05-3.28515E-05 4.96234E-18-1.14203E-18
 -1      2971 1.23463E-04-2.46397E-05-4.24585E-05 4.75961E-06-4.05046E-18-7.66528E-18
 -1      2972 1.21410E-04-2.96801E-05-3.94335E-05-1.44844E-05-1.95350E-18-3.53319E-19
 -1      2973 9.42462E-05-4.01375E-05-2.27948E-05 3.38480E-05-3.53340E-18-4.70659E-19
 -1      2974 1.33400E-04-4.42801E-05-3.85781E-05 1.46154E-05 2.41077E-18 2.14119E-18
 -1      2975 1.18830E-04-1.22006E-05-4.59389E-05-2.70860E-06-7.08617E-18-5.57708E-18
 -1      2976 1.35989E-04-2.85969E-05-4.63913E-05 2.46681E-05 7.84522E-18 2.15459E-18
 -1      2977 1.30012E-04-2.55073E-05-4.52599E-05 2.26151E-05 7.65135E-18 2.11597E-18
 -1      2978 1.39722E-04-3.99805E-05-4.29497E-05 2.32601E-05 5.17214E-18 2.86080E-18
 -1      2979 1.39097E-04-3.31114E-05-4.59073E-05 2.47462E-05 7.23652E-18 2.39377E-18
 -1      2980 9.52374E-05-2.85729E-05-2.85705E-05 2.73355E-09 1.43539E-18-2.84917E-18
 -1      2981 9.52377E-05-2.85732E-05-2.85705E-05 2.50720E-09 2.49472E-18-7.92941E-19
 -1      2982 9.52379E-05-2.85735E-05-2.85705E-05 2.82722E-09 3.23352E-18-1.06223E-18
 -1      2983 9.52373E-05-2.85730E-05-2.85704E-05 3.06194E-09 1.47588E-18-2.67304E-18
 -1      2984 1.39386E-04-4.18728E-05-4.17680E-05 2.42439E-05 4.11894E-18 3.40973E-18
 -1      2985 7.10735E-05-2.57049E-05-1.95581E-05 3.15115E-05-3.24932E-18 2.27735E-18
 -1      2986 5.78601E-05-1.66324E-05-1.70599E-05 2.53121E-05-2.92038E-18 4.13945E-18
 -1      2987 9.99758E-05-3.21618E-05-2.90045E-05 1.49941E-05-1.58370E-18-1.48190E-18
 -1      2988 1.02884E-04-3.49206E-05-2.90642E-05 1.52876E-05-1.74853E-18-1.90109E-18
 -1      2989 1.25298E-04-2.19526E-05-4.46132E-05 1.49463E-05 7.91764E-18 7.35933E-19
 -1      2990 1.06344E-04-3.81627E-05-2.90428E-05 1.62678E-05-2.10592E-18-2.36367E-18
 -1      2991 1.11115E-04-4.20329E-05-2.94919E-05 1.53697E-05-1.98654E-18-3.02458E-18
 -1      2992 9.96597E-05-3.51094E-05-2.77956E-05 1.90597E-05-2.11023E-18-1.45921E-18
 -1      2993 1.26806E-04-2.99454E-05-4.19840E-05-8.75268E-06 5.20338E-18-4.76244E-18
 -1      2994 1.09510E-04-2.10858E-05-3.78955E-05 1.39540E-06-4.06430E-18-5.20804E-18
 -1      2995 1.10440E-04-2.44005E-05-3.70846E-05 4.17762E-06-3.21124E-18-5.50833E-18
 -1      2996 1.12010E-04-2.83653E-05-3.58152E-05 6.00712E-06-2.49373E-18-5.83719E-18
 -1      2997 1.13165E-04-3.21320E-05-3.48542E-05 6.58803E-06-1.60412E-18-5.95994E-18
 -1      2998 1.13667E-04-2.56868E-05-3.77334E-05 5.62342E-06-3.21375E-18-6.09222E-18
 -1      2999 1.13469E-04-3.52135E-05-3.35642E-05 5.44164E-06-8.49071E-19-5.72803E-18
 -1      3000 1.13714E-04-3.74753E-05-3.27154E-05 4.37645E-06-3.72397E-19-5.61930E-18
 -1      3001 1.15940E-04-3.47315E-05-3.48414E-05 5.59354E-06-1.31500E-18-6.17987E-18
 -1      3002 1.12451E-04-3.85089E-05-3.17296E-05 2.18551E-06 1.19919E-19-5.03980E-18
 -1      3003 1.11633E-04-3.89604E-05-3.11214E-05 5.98148E-07 8.24338E-19-4.67551E-18
 -1      3004 1.14952E-04-3.95045E-05-3.23549E-05 1.87630E-06 1.42613E-19-5.41165E-18
 -1      3005 1.09522E-04-3.84175E-05-3.05057E-05-1.26508E-06 9.03787E-19-4.25070E-18
 -1      3006 1.08146E-04-3.77182E-05-3.01317E-05-2.62405E-06 9.18146E-19-4.01713E-18
 -1      3007 1.11377E-04-3.98920E-05-3.06676E-05-2.22964E-06 1.01134E-18-4.40888E-18
 -1      3008 1.05968E-04-3.64795E-05-2.98019E-05-3.76441E-06 8.61939E-19-3.30470E-18
 -1      3009 1.04506E-04-3.53347E-05-2.95964E-05-4.65120E-06 9.08374E-19-2.80879E-18
 -1      3010 1.06986E-04-3.78103E-05-2.96992E-05-5.05435E-06 1.27920E-18-3.86063E-18
 -1      3011 1.02699E-04-3.40146E-05-2.94445E-05-5.13916E-06 4.58641E-19-2.27035E-18
 -1      3012 1.01424E-04-3.28809E-05-2.93394E-05-5.57745E-06 4.12675E-19-2.15648E-18
 -1      3013 1.02981E-04-3.49138E-05-2.92254E-05-6.42490E-06 1.01411E-18-2.58904E-18
 -1      3014 1.00113E-04-3.17871E-05-2.92820E-05-5.62464E-06 4.80125E-19-1.80314E-18
 -1      3015 9.91251E-05-3.08725E-05-2.92276E-05-5.73506E-06 7.20314E-19-1.67387E-18
 -1      3016 9.98871E-05-3.22386E-05-2.90340E-05-6.72693E-06 7.63776E-19-1.66702E-18
 -1      3017 9.82536E-05-3.00799E-05-2.92123E-05-5.53481E-06 4.30244E-19-1.54714E-18
 -1      3018 9.75407E-05-2.94261E-05-2.91783E-05-5.43111E-06 5.53148E-19-1.38360E-18
 -1      3019 9.77431E-05-3.01895E-05-2.89806E-05-6.40923E-06 8.23728E-19-1.32681E-18
 -1      3020 9.70056E-05-2.89134E-05-2.91758E-05-5.10780E-06 5.02138E-19-1.77145E-18
 -1      3021 9.65154E-05-2.84917E-05-2.91463E-05-4.88044E-06 2.33822E-19-1.79575E-18
 -1      3022 9.63702E-05-2.87912E-05-2.89811E-05-5.77628E-06 2.53487E-19-1.81935E-18
 -1      3023 9.62138E-05-2.81985E-05-2.91427E-05-4.51180E-06-2.19106E-19-1.97594E-18
 -1      3024 9.58871E-05-2.79555E-05-2.91114E-05-4.22461E-06-4.03785E-19-2.21339E-18
 -1      3025 9.55589E-05-2.79405E-05-2.89906E-05-5.01703E-06-2.23621E-19-1.93220E-18
 -1      3026 9.57366E-05-2.78181E-05-2.91016E-05-3.85513E-06-5.19358E-19-2.39579E-18
 -1      3027 9.55230E-05-2.77005E-05-2.90673E-05-3.55085E-06-4.53931E-19-2.36128E-18
 -1      3028 9.51238E-05-2.74954E-05-2.89900E-05-4.23895E-06-5.11119E-19-2.00863E-18
 -1      3029 9.54644E-05-2.76650E-05-2.90511E-05-3.20525E-06-2.64616E-19-2.11582E-18
 -1      3030 9.53261E-05-2.76289E-05-2.90150E-05-2.91090E-06-5.63429E-20-2.00604E-18
 -1      3031 9.49252E-05-2.73263E-05-2.89744E-05-3.50060E-06-2.37249E-19-1.90742E-18
 -1      3032 9.53191E-05-2.76543E-05-2.89941E-05-2.60191E-06 1.71480E-20-2.16080E-18
 -1      3033 9.52299E-05-2.76670E-05-2.89580E-05-2.33327E-06-1.09065E-19-2.54626E-18
 -1      3034 9.48658E-05-2.73304E-05-2.89454E-05-2.83242E-06-1.10412E-19-2.07159E-18
 -1      3035 9.52489E-05-2.77246E-05-2.89345E-05-2.06614E-06 3.44541E-21-2.36636E-18
 -1      3036 9.51910E-05-2.77635E-05-2.89001E-05-1.83108E-06-1.82678E-20-1.89102E-18
 -1      3037 9.48813E-05-2.74331E-05-2.89071E-05-2.24809E-06 1.69174E-19-2.30534E-18
 -1      3038 9.52205E-05-2.78342E-05-2.88760E-05-1.60640E-06-2.22682E-19-1.88303E-18
 -1      3039 9.51826E-05-2.78843E-05-2.88445E-05-1.40744E-06-4.45299E-19-1.89231E-18
 -1      3040 9.49319E-05-2.75832E-05-2.88640E-05-1.75095E-06-1.44011E-20-2.32740E-18
 -1      3041 9.52139E-05-2.79566E-05-2.88213E-05-1.22290E-06-7.34701E-19-1.56224E-18
 -1      3042 9.51887E-05-2.80087E-05-2.87935E-05-1.05913E-06-7.64189E-20-1.74367E-18
 -1      3043 9.49940E-05-2.77477E-05-2.88199E-05-1.33790E-06-2.98443E-19-1.88481E-18
 -1      3044 9.52172E-05-2.80758E-05-2.87722E-05-9.10807E-07 7.18956E-19-1.42261E-18
 -1      3045 9.52002E-05-2.81247E-05-2.87484E-05-7.79270E-07 9.90685E-19-1.74018E-18
 -1      3046 9.50546E-05-2.79071E-05-2.87775E-05-1.00200E-06 5.22129E-19-1.43023E-18
 -1      3047 9.52241E-05-2.81834E-05-2.87295E-05-6.62472E-07 7.47967E-19-1.37153E-18
 -1      3048 9.52124E-05-2.82265E-05-2.87097E-05-5.59196E-07 3.67593E-19-1.10334E-18
 -1      3049 9.51077E-05-2.80507E-05-2.87387E-05-7.34300E-07 1.11581E-18-1.11811E-18
 -1      3050 9.52312E-05-2.82757E-05-2.86934E-05-4.69046E-07-3.10272E-19-1.06640E-18
 -1      3051 9.52230E-05-2.83121E-05-2.86773E-05-3.89714E-07 6.99868E-21-1.15063E-18
 -1      3052 9.51509E-05-2.81739E-05-2.87045E-05-5.25078E-07 3.41938E-20-6.94465E-19
 -1      3053 9.52372E-05-2.83519E-05-2.86637E-05-3.21529E-07 1.44487E-19-2.17876E-18
 -1      3054 9.52314E-05-2.83816E-05-2.86508E-05-2.61918E-07-8.13623E-20-2.06960E-18
 -1      3055 9.51842E-05-2.82757E-05-2.86752E-05-3.64719E-07-4.42029E-19-9.85673E-19
 -1      3056 9.52414E-05-2.84129E-05-2.86397E-05-2.11436E-07 2.66592E-19-2.33772E-18
 -1      3057 9.52373E-05-2.84364E-05-2.86296E-05-1.67669E-07 4.72025E-19-2.22563E-18
 -1      3058 9.52088E-05-2.83573E-05-2.86507E-05-2.44265E-07 5.32615E-20-2.42262E-18
 -1      3059 9.52441E-05-2.84605E-05-2.86208E-05-1.31159E-07 4.32047E-19-2.22065E-18
 -1      3060 9.52412E-05-2.84786E-05-2.86130E-05-9.98396E-08-1.61812E-19-2.10243E-18
 -1      3061 9.52260E-05-2.84210E-05-2.86308E-05-1.55717E-07 2.75289E-19-2.33794E-18
 -1      3062 9.52455E-05-2.84966E-05-2.86061E-05-7.41360E-08-5.09721E-19-1.71785E-18
 -1      3063 9.52435E-05-2.85102E-05-2.86003E-05-5.23846E-08-3.80999E-19-1.13238E-18
 -1      3064 9.52374E-05-2.84695E-05-2.86149E-05-9.21726E-08-2.22111E-19-2.46690E-18
 -1      3065 9.52459E-05-2.85233E-05-2.85949E-05-3.48717E-08-8.79765E-19-8.67026E-19
 -1      3066 9.52445E-05-2.85333E-05-2.85907E-05-2.03187E-08-7.23423E-19-8.15315E-19
 -1      3067 9.52444E-05-2.85056E-05-2.86025E-05-4.78386E-08-3.40590E-19-4.76077E-19
 -1      3068 9.52456E-05-2.85426E-05-2.85867E-05-8.88417E-09-8.05125E-19-3.73963E-19
 -1      3069 9.52447E-05-2.85498E-05-2.85836E-05 3.74772E-10 9.98609E-21-5.46334E-19
 -1      3070 9.52483E-05-2.85317E-05-2.85929E-05-1.79703E-08-5.02855E-19 1.44618E-19
 -1      3071 9.52449E-05-2.85562E-05-2.85807E-05 7.40106E-09 3.75974E-19-9.17119E-19
 -1      3072 9.52443E-05-2.85611E-05-2.85786E-05 1.28623E-08 7.21998E-19-6.72946E-19
 -1      3073 9.52499E-05-2.85500E-05-2.85858E-05 1.23551E-09-2.63745E-20 1.74948E-19
 -1      3074 9.52440E-05-2.85653E-05-2.85764E-05 1.67742E-08 3.26806E-19-1.40663E-18
 -1      3075 9.52436E-05-2.85686E-05-2.85750E-05 1.95888E-08-4.04825E-19-1.22585E-18
 -1      3076 9.52501E-05-2.85625E-05-2.85805E-05 1.27655E-08 1.09413E-19-2.22925E-18
 -1      3077 9.52430E-05-2.85712E-05-2.85735E-05 2.13690E-08-1.36178E-19-1.09921E-18
 -1      3078 9.52428E-05-2.85733E-05-2.85726E-05 2.24041E-08 5.16912E-19-9.63216E-19
 -1      3079 9.52494E-05-2.85706E-05-2.85767E-05 1.89191E-08 2.64475E-19-2.30713E-18
 -1      3080 9.52420E-05-2.85748E-05-2.85716E-05 2.27834E-08-5.29278E-19-8.24308E-19
 -1      3081 9.52419E-05-2.85760E-05-2.85711E-05 2.26778E-08-1.00872E-18-1.79823E-18
 -1      3082 9.52482E-05-2.85755E-05-2.85741E-05 2.14318E-08-3.72556E-20-1.89190E-18
 -1      3083 9.52411E-05-2.85767E-05-2.85704E-05 2.21877E-08-1.37196E-18-1.37842E-18
 -1      3084 9.52411E-05-2.85773E-05-2.85702E-05 2.14008E-08-7.43996E-19-1.51367E-18
 -1      3085 9.52467E-05-2.85782E-05-2.85723E-05 2.15861E-08-1.01100E-18-1.24535E-18
 -1      3086 9.52403E-05-2.85775E-05-2.85698E-05 2.04181E-08 3.98124E-20-1.12418E-18
 -1      3087 9.52403E-05-2.85777E-05-2.85697E-05 1.92711E-08 5.86067E-19-1.13482E-18
 -1      3088 9.52452E-05-2.85793E-05-2.85711E-05 2.03080E-08-4.65786E-19 8.43329E-19
 -1      3089 9.52396E-05-2.85775E-05-2.85695E-05 1.80548E-08 1.02150E-18-2.16377E-18
 -1      3090 9.52396E-05-2.85775E-05-2.85695E-05 1.67646E-08 5.69334E-19-1.15111E-18
 -1      3091 9.52438E-05-2.85795E-05-2.85704E-05 1.82485E-08 1.52755E-19-4.85487E-19
 -1      3092 9.52390E-05-2.85772E-05-2.85694E-05 1.54858E-08 4.86862E-19-1.21245E-19
 -1      3093 9.52391E-05-2.85770E-05-2.85695E-05 1.41923E-08 1.00375E-18-1.83581E-19
 -1      3094 9.52425E-05-2.85791E-05-2.85701E-05 1.58505E-08 1.24578E-18-1.58052E-18
 -1      3095 9.52385E-05-2.85765E-05-2.85694E-05 1.29581E-08 9.73008E-19-1.53027E-19
 -1      3096 9.52386E-05-2.85763E-05-2.85695E-05 1.17454E-08 5.89156E-19-6.35810E-19
 -1      3097 9.52414E-05-2.85783E-05-2.85699E-05 1.34026E-08 1.16527E-18-4.30848E-19
 -1      3098 9.52382E-05-2.85758E-05-2.85696E-05 1.06171E-08 5.49800E-20-6.12502E-19
 -1      3099 9.52382E-05-2.85755E-05-2.85697E-05 9.53006E-09 4.27041E-19-7.92899E-19
 -1      3100 9.52404E-05-2.85774E-05-2.85699E-05 1.10815E-08 3.19909E-19-1.20203E-18
 -1      3101 9.52379E-05-2.85751E-05-2.85698E-05 8.53713E-09 2.02525E-19-1.25880E-18
 -1      3102 9.52379E-05-2.85748E-05-2.85699E-05 7.59355E-09 5.24823E-19-1.28042E-18
 -1      3103 9.52396E-05-2.85764E-05-2.85699E-05 8.98506E-09 1.60518E-19-1.07743E-18
 -1      3104 9.52377E-05-2.85744E-05-2.85700E-05 6.74360E-09 2.05215E-19-1.44470E-18
 -1      3105 9.52377E-05-2.85742E-05-2.85701E-05 5.94370E-09 8.94762E-19-2.94171E-18
 -1      3106 9.52390E-05-2.85755E-05-2.85701E-05 7.15500E-09 8.61328E-20-2.85947E-18
 -1      3107 9.52375E-05-2.85738E-05-2.85701E-05 5.23304E-09 1.21807E-18-2.88549E-18
 -1      3108 9.52376E-05-2.85736E-05-2.85702E-05 4.56578E-09 1.28915E-18-2.93937E-18
 -1      3109 9.52385E-05-2.85747E-05-2.85702E-05 5.59965E-09 8.39997E-19-3.32007E-18
 -1      3110 9.52374E-05-2.85734E-05-2.85703E-05 4.05140E-09 1.28493E-18-2.42846E-18
 -1      3111 9.52374E-05-2.85732E-05-2.85704E-05 3.49263E-09 1.22030E-18-2.17048E-18
 -1      3112 9.52378E-05-2.85735E-05-2.85704E-05 3.41726E-09 1.16323E-18-3.37196E-18
 -1      3113 9.52381E-05-2.85740E-05-2.85703E-05 4.37680E-09 1.69343E-18-3.42182E-18
 -1      3114 1.25660E-04-2.39521E-05-4.39197E-05-4.79823E-06 6.93900E-18-3.82928E-18
 -1      3115 9.67740E-05-2.86014E-05-2.92000E-05 1.29606E-05-1.19514E-18-6.89115E-19
 -1      3116 9.84450E-05-3.02315E-05-2.91786E-05 1.36464E-05-1.24258E-18-9.41837E-19
 -1      3117 9.50196E-05-2.95064E-05-2.81402E-05 1.59144E-05-1.87307E-18-8.63861E-19
 -1      3118 9.53529E-05-2.68111E-05-2.93773E-05 1.09225E-05-1.21577E-18-5.20487E-20
 -1      3119 9.62407E-05-2.76391E-05-2.93628E-05 1.17290E-05-1.10268E-18-3.19581E-19
 -1      3120 9.31976E-05-2.66009E-05-2.85672E-05 1.30403E-05-1.58147E-18-2.24145E-19
 -1      3121 9.48567E-05-2.61212E-05-2.94681E-05 9.05336E-06-5.66436E-19-7.57371E-20
 -1      3122 9.53132E-05-2.64549E-05-2.94852E-05 9.86227E-06-8.58367E-19-1.54587E-19
 -1      3123 9.27426E-05-2.53254E-05-2.89004E-05 1.06449E-05-9.62756E-19-3.22255E-19
 -1      3124 9.47898E-05-2.60455E-05-2.94738E-05 7.40062E-06-1.08891E-19-5.64948E-20
 -1      3125 9.50274E-05-2.61058E-05-2.95197E-05 8.15483E-06-4.80923E-20 3.00455E-19
 -1      3126 9.29280E-05-2.50107E-05-2.91050E-05 8.66434E-06-4.39953E-19-4.13720E-19
 -1      3127 9.48833E-05-2.62665E-05-2.94186E-05 5.97044E-06 1.09462E-19-8.64355E-19
 -1      3128 9.50186E-05-2.61943E-05-2.94823E-05 6.64339E-06 4.15934E-19-1.55214E-19
 -1      3129 9.33491E-05-2.52060E-05-2.91983E-05 7.01897E-06 2.45822E-19-9.83222E-20
 -1      3130 9.50099E-05-2.66012E-05-2.93280E-05 4.75264E-06-5.05086E-20-1.38659E-18
 -1      3131 9.51003E-05-2.64765E-05-2.93991E-05 5.33434E-06-4.94622E-19-1.27187E-18
 -1      3132 9.38001E-05-2.56246E-05-2.92120E-05 5.64231E-06 1.19930E-19-3.98967E-19
 -1      3133 9.51189E-05-2.69530E-05-2.92222E-05 3.73183E-06 4.18637E-19-3.93225E-19
 -1      3134 9.51894E-05-2.68177E-05-2.92929E-05 4.22209E-06 5.84452E-19-8.21680E-19
 -1      3135 9.41956E-05-2.61073E-05-2.91757E-05 4.48909E-06 2.35048E-20-6.40583E-19
 -1      3136 9.51963E-05-2.72770E-05-2.91148E-05 2.88945E-06-3.28208E-19-6.52159E-20
 -1      3137 9.52564E-05-2.71506E-05-2.91803E-05 3.29396E-06-1.92596E-19-5.78495E-19
 -1      3138 9.45098E-05-2.65731E-05-2.91121E-05 3.52866E-06 2.11050E-19-5.82403E-19
 -1      3139 9.52440E-05-2.75560E-05-2.90143E-05 2.20488E-06 1.03375E-18-3.93768E-19
 -1      3140 9.52966E-05-2.74462E-05-2.90721E-05 2.53256E-06 5.77088E-19-1.91442E-19
 -1      3141 9.47452E-05-2.69862E-05-2.90371E-05 2.73698E-06 1.35401E-19-1.13505E-18
 -1      3142 9.52692E-05-2.77871E-05-2.89249E-05 1.65677E-06 1.12673E-18 5.27952E-19
 -1      3143 9.53146E-05-2.76954E-05-2.89741E-05 1.91788E-06 1.30584E-18 2.54297E-19
 -1      3144 9.49144E-05-2.73354E-05-2.89610E-05 2.09261E-06 7.54927E-19-2.08184E-19
 -1      3145 9.52791E-05-2.79737E-05-2.88482E-05 1.22427E-06 8.48856E-19 6.01841E-19
 -1      3146 9.53174E-05-2.78991E-05-2.88890E-05 1.42916E-06 1.17690E-18 7.11380E-19
 -1      3147 9.50325E-05-2.76218E-05-2.88895E-05 1.57531E-06 1.22410E-18 1.04985E-18
 -1      3148 9.52799E-05-2.81218E-05-2.87843E-05 8.87895E-07-3.24259E-20-2.12030E-19
 -1      3149 9.53113E-05-2.80622E-05-2.88173E-05 1.04630E-06 4.89858E-19-1.20254E-19
 -1      3150 9.51127E-05-2.78516E-05-2.88259E-05 1.16592E-06 1.01792E-18 3.79329E-19
 -1      3151 9.52757E-05-2.82377E-05-2.87322E-05 6.30102E-07-1.44452E-19-1.11992E-18
 -1      3152 9.53008E-05-2.81907E-05-2.87585E-05 7.50755E-07 1.52314E-19-8.89264E-19
 -1      3153 9.51660E-05-2.80333E-05-2.87711E-05 8.46620E-07 7.15057E-19-9.14336E-19
 -1      3154 9.52695E-05-2.83274E-05-2.86907E-05 4.35557E-07-1.20754E-18-9.92571E-19
 -1      3155 9.52889E-05-2.82908E-05-2.87112E-05 5.26033E-07-1.09409E-18-1.17667E-18
 -1      3156 9.52005E-05-2.81749E-05-2.87254E-05 6.01325E-07-7.77569E-19-1.42434E-18
 -1      3157 9.52629E-05-2.83961E-05-2.86581E-05 2.91162E-07-3.12791E-19-2.63874E-19
 -1      3158 9.52775E-05-2.83678E-05-2.86738E-05 3.57870E-07-7.72078E-19-6.48172E-19
 -1      3159 9.52223E-05-2.82840E-05-2.86881E-05 4.15845E-07-1.28885E-18-1.07755E-18
 -1      3160 9.52568E-05-2.84480E-05-2.86330E-05 1.85951E-07 4.96707E-19 2.34350E-19
 -1      3161 9.52675E-05-2.84264E-05-2.86448E-05 2.34209E-07 4.32033E-19 1.43681E-19
 -1      3162 9.52355E-05-2.83670E-05-2.86582E-05 2.77970E-07-1.62513E-19-3.78561E-19
 -1      3163 9.52516E-05-2.84867E-05-2.86139E-05 1.10908E-07-3.15772E-19 6.90159E-19
 -1      3164 9.52592E-05-2.84705E-05-2.86227E-05 1.45052E-07 1.73377E-19 7.93565E-19
 -1      3165 9.52430E-05-2.84294E-05-2.86346E-05 1.77404E-07 4.99348E-21 1.00247E-18
 -1      3166 9.52474E-05-2.85153E-05-2.85998E-05 5.87343E-08 4.09553E-19 4.26594E-21
 -1      3167 9.52526E-05-2.85032E-05-2.86061E-05 8.22461E-08 1.19188E-19 4.26046E-19
 -1      3168 9.52468E-05-2.84757E-05-2.86164E-05 1.05629E-07 2.14151E-19 6.65071E-19
 -1      3169 9.52441E-05-2.85359E-05-2.85894E-05 2.36126E-08 3.52786E-19 6.38948E-19
 -1      3170 9.52475E-05-2.85270E-05-2.85939E-05 3.92487E-08 6.74739E-19 2.01602E-19
 -1      3171 9.52484E-05-2.85094E-05-2.86026E-05 5.57168E-08 3.85239E-19 6.85985E-19
 -1      3172 9.52416E-05-2.85505E-05-2.85820E-05 9.74093E-10 3.16415E-19 4.35474E-19
 -1      3173 9.52437E-05-2.85441E-05-2.85852E-05 1.08846E-08 4.40047E-19 7.99655E-19
 -1      3174 9.52485E-05-2.85335E-05-2.85923E-05 2.21260E-08 7.33527E-20 1.19143E-18
 -1      3175 9.52399E-05-2.85606E-05-2.85769E-05-1.27158E-08 4.22883E-19 6.13397E-19
 -1      3176 9.52410E-05-2.85561E-05-2.85790E-05-6.87785E-09 4.51130E-19-9.01791E-20
 -1      3177 9.52478E-05-2.85504E-05-2.85847E-05 4.92283E-10 5.43148E-19-3.91861E-22
 -1      3178 9.52386E-05-2.85673E-05-2.85735E-05-2.01494E-08 5.90043E-19 8.04739E-19
 -1      3179 9.52391E-05-2.85643E-05-2.85748E-05-1.71328E-08 4.11381E-19 1.05910E-18
 -1      3180 9.52467E-05-2.85618E-05-2.85793E-05-1.25674E-08 1.99762E-19 6.75859E-19
 -1      3181 9.52378E-05-2.85716E-05-2.85712E-05-2.33437E-08 3.01084E-19 4.41950E-19
 -1      3182 9.52379E-05-2.85696E-05-2.85720E-05-2.22169E-08 7.26535E-19 7.18678E-19
 -1      3183 9.52454E-05-2.85693E-05-2.85755E-05-1.96332E-08 5.76061E-19 1.90101E-19
 -1      3184 9.52372E-05-2.85742E-05-2.85699E-05-2.37826E-08-9.22929E-20 8.14768E-19
 -1      3185 9.52371E-05-2.85729E-05-2.85703E-05-2.38648E-08 5.67407E-19 8.66404E-19
 -1      3186 9.52441E-05-2.85739E-05-2.85730E-05-2.26398E-08 4.50378E-19 2.19551E-18
 -1      3187 9.52369E-05-2.85755E-05-2.85692E-05-2.25349E-08-9.36928E-19 1.09537E-18
 -1      3188 9.52366E-05-2.85748E-05-2.85693E-05-2.33394E-08-2.78762E-19 5.64248E-19
 -1      3189 9.52429E-05-2.85765E-05-2.85713E-05-2.30105E-08 1.58059E-19 1.51364E-18
 -1      3190 9.52367E-05-2.85760E-05-2.85689E-05-2.03522E-08 2.99249E-19 5.90229E-19
 -1      3191 9.52364E-05-2.85757E-05-2.85688E-05-2.15398E-08-5.14596E-19 1.15599E-18
 -1      3192 9.52418E-05-2.85778E-05-2.85703E-05-2.17710E-08-3.32652E-20 8.98535E-19
 -1      3193 9.52367E-05-2.85760E-05-2.85688E-05-1.77468E-08 2.50029E-19 5.17892E-19
 -1      3194 9.52363E-05-2.85760E-05-2.85687E-05-1.90887E-08 5.95993E-19 1.18766E-19
 -1      3195 9.52408E-05-2.85781E-05-2.85698E-05-1.96419E-08 6.71811E-19-1.10360E-18
 -1      3196 9.52366E-05-2.85757E-05-2.85689E-05-1.50541E-08 3.51369E-19 1.83645E-18
 -1      3197 9.52363E-05-2.85758E-05-2.85688E-05-1.64029E-08 2.88615E-19 1.26165E-18
 -1      3198 9.52400E-05-2.85778E-05-2.85695E-05-1.71140E-08 1.08997E-19 1.22310E-19
 -1      3199 9.52367E-05-2.85753E-05-2.85692E-05-1.24812E-08-1.05227E-18 2.27841E-18
 -1      3200 9.52363E-05-2.85754E-05-2.85690E-05-1.37480E-08 3.30929E-19 2.32626E-18
 -1      3201 9.52393E-05-2.85772E-05-2.85695E-05-1.45084E-08-3.30916E-19 1.20443E-18
 -1      3202 9.52367E-05-2.85747E-05-2.85694E-05-1.01442E-08 3.90188E-20 1.90723E-18
 -1      3203 9.52364E-05-2.85749E-05-2.85692E-05-1.12813E-08-4.05605E-19 1.89257E-18
 -1      3204 9.52388E-05-2.85765E-05-2.85696E-05-1.20227E-08-2.84328E-19 3.46765E-18
 -1      3205 9.52368E-05-2.85742E-05-2.85697E-05-8.09624E-09-1.63478E-18 1.31567E-18
 -1      3206 9.52365E-05-2.85744E-05-2.85695E-05-9.08437E-09-5.97327E-19 1.03672E-18
 -1      3207 9.52383E-05-2.85757E-05-2.85697E-05-9.76754E-09-5.87327E-20 2.61179E-18
 -1      3208 9.52369E-05-2.85737E-05-2.85699E-05-6.34820E-09-2.17841E-18 4.88472E-19
 -1      3209 9.52366E-05-2.85738E-05-2.85698E-05-7.18671E-09-1.64488E-18 1.14278E-18
 -1      3210 9.52380E-05-2.85750E-05-2.85699E-05-7.79312E-09-1.46088E-18 2.46009E-18
 -1      3211 9.52369E-05-2.85732E-05-2.85702E-05-4.88570E-09-3.40976E-18-4.48295E-19
 -1      3212 9.52368E-05-2.85734E-05-2.85700E-05-5.58429E-09-3.20148E-18-5.53961E-19
 -1      3213 9.52378E-05-2.85743E-05-2.85701E-05-6.10831E-09-1.78847E-18 1.57778E-18
 -1      3214 9.52370E-05-2.85729E-05-2.85703E-05-3.68226E-09-2.57770E-18-1.42527E-19
 -1      3215 9.52369E-05-2.85730E-05-2.85702E-05-4.25204E-09-3.64906E-18-7.77338E-19
 -1      3216 9.52376E-05-2.85737E-05-2.85702E-05-4.70075E-09-3.17975E-18-7.18826E-19
 -1      3217 9.52372E-05-2.85728E-05-2.85705E-05-2.96306E-09-2.82139E-18 1.04634E-18
 -1      3218 9.52370E-05-2.85728E-05-2.85704E-05-3.33917E-09-2.28228E-18 3.41293E-19
 -1      3219 9.52375E-05-2.85734E-05-2.85704E-05-3.71507E-09-3.90558E-18-1.05089E-18
 -1      3220 9.52376E-05-2.85732E-05-2.85704E-05-3.04823E-09-2.12960E-18-4.65581E-19
 -1      3221 1.08879E-04-1.80534E-05-3.90141E-05-7.56194E-06-4.90977E-18-3.97635E-18
 -1      3222 1.08512E-04-1.87310E-05-3.86689E-05-3.38563E-06-4.67893E-18-4.51709E-18
 -1      3223 1.10972E-04-1.77865E-05-3.99639E-05-6.62858E-07-4.85567E-18-5.04065E-18
 -1      3224 9.52386E-05-2.85743E-05-2.85704E-05 2.91464E-09 2.05716E-18 5.92935E-19
 -1      3225 9.52390E-05-2.85746E-05-2.85704E-05 2.68375E-09 1.69106E-18 9.63470E-19
 -1      3226 9.52402E-05-2.85758E-05-2.85705E-05 2.75106E-10 1.00730E-18-5.46955E-20
 -1      3227 9.52402E-05-2.85758E-05-2.85705E-05-2.55251E-10 8.77686E-19 1.46915E-18
 -1      3228 1.30000E-04-1.98583E-05-4.77149E-05 2.89208E-07 8.59421E-18-3.60397E-18
 -1      3229 1.21991E-04-2.68898E-05-4.12031E-05-1.77995E-05-3.56484E-18-5.72594E-19
 -1      3230 1.13819E-04-4.68498E-05-2.85710E-05-1.92686E-05 3.61279E-18-4.45462E-18
 -1      3231 1.20745E-04-4.81973E-05-3.14044E-05-1.22409E-05 2.50754E-18-5.70099E-18
 -1      3232 8.79785E-05-3.52502E-05-2.21869E-05-3.24557E-05 4.97465E-18-5.88317E-19
 -1      3233 1.02114E-04-4.27603E-05-2.55209E-05-2.75953E-05 4.74248E-18-2.23956E-18
 -1      3234 1.27361E-04-2.60941E-05-4.37562E-05 2.00615E-05 7.00470E-18 2.30336E-18
 -1      3235 1.15898E-04-2.58951E-05-3.86195E-05-1.96478E-05-2.29860E-18-2.25076E-18
 -1      3236 1.14513E-04-2.51412E-05-3.84517E-05-2.04132E-05-3.07328E-18-2.56026E-18
 -1      3237 1.14406E-04-2.47085E-05-3.84406E-05-2.01825E-05-3.36422E-18-2.27061E-18
 -1      3238 1.17479E-04-2.56797E-05-3.93369E-05-1.99012E-05-2.95955E-18-1.40535E-18
 -1      3239 1.15177E-04-1.18124E-05-4.47142E-05-1.22326E-05-7.14239E-18-3.47416E-18
 -1      3240 1.17990E-04-1.47896E-05-4.45075E-05-1.65686E-05-6.87367E-18-1.85860E-18
 -1      3241 1.24239E-04-4.47201E-05-3.39556E-05-3.62456E-06 9.86833E-19-6.93360E-18
 -1      3242 1.23494E-04-3.79001E-05-3.69752E-05 2.86698E-06-9.08681E-19-7.36170E-18
 -1      3243 1.21109E-04-4.96934E-05-3.04670E-05 1.64042E-05-2.18468E-18-4.15068E-18
 -1      3244 9.52400E-05-2.85755E-05-2.85705E-05 1.36420E-09 9.20373E-19 1.03394E-19
 -1      3245 9.52401E-05-2.85757E-05-2.85705E-05 8.77354E-10 1.71004E-18-2.37371E-19
 -1      3246 9.52406E-05-2.85762E-05-2.85705E-05 6.39899E-10 1.81191E-18 3.30866E-20
 -1      3247 6.42552E-05-2.07875E-05-1.83439E-05-2.85759E-05 4.26759E-18 2.80146E-18
 -1      3248 7.53832E-05-2.85471E-05-2.01196E-05-3.29602E-05 4.75943E-18 9.53812E-19
 -1      3249 1.21067E-04-2.31637E-05-4.21785E-05-1.87756E-05-4.77917E-18-5.45595E-19
 -1      3250 1.18815E-04-2.43710E-05-4.05358E-05-1.97670E-05-3.59495E-18-1.09670E-18
 -1      3251 1.19376E-04-1.88627E-05-4.35399E-05-1.85950E-05-6.02262E-18-1.30816E-18
 -1      3252 1.14108E-04-1.48760E-05-4.28439E-05-1.65882E-06-6.01690E-18-5.55308E-18
 -1      3253 1.13095E-04-1.25963E-05-4.35216E-05-7.62846E-06-6.52369E-18-4.14435E-18
 -1      3254 1.01711E-04-4.29345E-05-2.51962E-05 2.93826E-05-3.59346E-18-1.80368E-18
 -1      3255 8.69087E-05-3.44947E-05-2.19223E-05 3.26966E-05-3.61964E-18-1.28273E-19
 -1      3256 1.15180E-04-4.66111E-05-2.91584E-05 1.85999E-05-2.77283E-18-3.35304E-18
 -1      3257 1.18257E-04-2.59810E-05-3.97654E-05 4.63260E-06-3.34837E-18-6.93966E-18
 -1      3258 1.15490E-04-1.90189E-05-4.18469E-05 3.06078E-06-4.90030E-18-6.40330E-18
 -1      3259 9.52394E-05-2.85750E-05-2.85705E-05 2.29302E-09 1.84636E-18 7.82044E-19
 -1      3260 9.52397E-05-2.85753E-05-2.85705E-05 1.89823E-09 1.15494E-18-5.18554E-20
 -1      3261 9.52402E-05-2.85758E-05-2.85705E-05 1.82882E-09 1.22835E-18 9.95339E-20
 -1      3262 9.52395E-05-2.85752E-05-2.85704E-05 2.79641E-09 1.20989E-18 1.18764E-18
 -1      3263 1.12032E-04-1.91923E-05-3.99722E-05-1.57156E-05-4.94823E-18-2.91360E-18
 -1      3264 1.10648E-04-1.75542E-05-4.00265E-05-1.21032E-05-5.20541E-18-3.29954E-18
 -1      3265 5.00963E-05-9.55807E-06-1.70883E-05-9.62140E-06 1.45780E-18 5.86052E-18
 -1      3266 5.59788E-05-1.41952E-05-1.76124E-05-2.16930E-05 3.07955E-18 4.75355E-18
 -1      3267 5.77021E-05-1.42179E-05-1.81943E-05 1.84741E-05-2.36486E-18 4.08095E-18
 -1      3268 9.52390E-05-2.85746E-05-2.85704E-05-2.68086E-09-7.02378E-19-4.89075E-18
 -1      3269 9.52386E-05-2.85743E-05-2.85704E-05-2.91427E-09-1.25299E-18-3.96023E-18
 -1      3270 1.12094E-04-1.48907E-05-4.18105E-05-1.01045E-05-5.90742E-18-3.75882E-18
 -1      3271 8.49227E-05-3.17022E-05-2.25158E-05-2.90569E-05 4.55508E-18-2.53422E-19
 -1      3272 9.52397E-05-2.85753E-05-2.85705E-05-1.89675E-09-1.96918E-19-5.47648E-19
 -1      3273 9.52394E-05-2.85750E-05-2.85705E-05-2.29233E-09-5.29230E-19-3.97601E-18
 -1      3274 9.52395E-05-2.85752E-05-2.85704E-05-2.79231E-09-2.71440E-19-4.32656E-18
 -1      3275 1.35344E-04-3.86550E-05-4.20594E-05 2.66499E-05 4.32426E-18 4.18817E-18
 -1      3276 1.15938E-04-1.80715E-05-4.20745E-05-1.78962E-05-5.49301E-18-2.02711E-18
 -1      3277 9.52401E-05-2.85757E-05-2.85705E-05-8.66718E-10 3.95327E-19 2.25474E-18
 -1      3278 9.52400E-05-2.85755E-05-2.85705E-05-1.36269E-09-2.13599E-19 1.55608E-18
 -1      3279 9.52402E-05-2.85758E-05-2.85705E-05-1.82333E-09-2.24636E-19 3.47889E-19
 -1      3280 9.52406E-05-2.85762E-05-2.85705E-05-6.26719E-10 4.58372E-19 1.76492E-18
 -1      3281 1.08696E-04-4.48857E-05-2.72900E-05-2.22604E-05 3.91762E-18-3.34409E-18
 -1      3282 1.11301E-04-4.41729E-05-2.87467E-05-1.53683E-05 3.06960E-18-4.33422E-18
 -1      3283 1.01074E-04-3.98648E-05-2.60846E-05-2.32167E-05 3.89978E-18-2.30899E-18
 -1      3284 1.16203E-04-2.31965E-05-4.00691E-05-2.01025E-05-4.14482E-18-1.74845E-18
 -1      3285 1.20068E-04-4.48179E-05-3.22433E-05-5.65924E-06 1.66997E-18-6.02689E-18
 -1      3286 1.13618E-04-2.17529E-05-3.94280E-05-1.84960E-05-4.35265E-18-2.17412E-18
 -1      3287 6.54463E-05-1.82466E-05-1.98726E-05-2.20926E-05 3.47187E-18 2.84105E-18
 -1      3288 8.16535E-05-2.93431E-05-2.20405E-05 2.85064E-05-3.51079E-18 6.76885E-19
 -1      3289 5.19554E-05-9.24158E-06-1.82521E-05 1.32372E-06-6.55127E-20 4.77303E-18
 -1      3290 5.06567E-05-8.84454E-06-1.74633E-05-4.82346E-06 6.65351E-19 5.66342E-18
 -1      3291 5.78849E-05-1.14949E-05-1.96674E-05-9.91657E-06 1.56936E-18 4.61662E-18
 -1      3292 1.20147E-04-3.19473E-05-3.80005E-05 6.00013E-06-2.08765E-18-7.26103E-18
 -1      3293 1.33556E-04-3.25009E-05-4.34747E-05 2.56192E-05 5.94929E-18 3.39115E-18
 -1      3294 1.06014E-04-4.31108E-05-2.70236E-05 2.45757E-05-3.03682E-18-2.16316E-18
 -1      3295 1.18642E-04-3.62415E-05-3.54295E-05 4.07354E-06-1.13487E-18-6.27648E-18
 -1      3296 9.52381E-05-2.85738E-05-2.85704E-05 3.28381E-09 1.03254E-18-1.78529E-18
 -1      3297 9.52384E-05-2.85740E-05-2.85704E-05 3.11181E-09 2.08677E-18 2.97054E-19
 -1      3298 9.52388E-05-2.85745E-05-2.85704E-05 3.38318E-09-1.53952E-20 5.14035E-19
 -1      3299 9.52382E-05-2.85740E-05-2.85704E-05 3.72967E-09-9.14825E-20-2.12866E-18
 -1      3300 8.95490E-05-2.58527E-05-2.73222E-05 1.53882E-05-1.97937E-18-4.24967E-19
 -1      3301 9.10824E-05-2.76419E-05-2.70548E-05 1.69544E-05-2.04844E-18-4.84658E-19
 -1      3302 9.12559E-05-2.95144E-05-2.64521E-05 1.99378E-05-2.25326E-18-6.17520E-19
 -1      3303 9.45529E-05-3.30886E-05-2.62292E-05 2.18607E-05-2.47093E-18-8.91466E-19
 -1      3304 8.50908E-05-2.52035E-05-2.55207E-05 1.93655E-05-2.26805E-18-8.06005E-21
 -1      3305 1.18934E-04-3.96562E-05-3.39695E-05 2.91269E-06-1.31568E-19-6.23590E-18
 -1      3306 1.12860E-04-4.16159E-05-3.05697E-05-4.37038E-06 1.37666E-18-4.29328E-18
 -1      3307 1.10660E-04-4.06666E-05-2.99168E-05-6.02744E-06 1.57039E-18-4.06253E-18
 -1      3308 1.07474E-04-3.88531E-05-2.94183E-05-7.14726E-06 1.46409E-18-3.67245E-18
 -1      3309 1.05245E-04-3.71916E-05-2.90896E-05-7.95067E-06 1.72453E-18-3.28684E-18
 -1      3310 1.08262E-04-4.01999E-05-2.92323E-05-9.28756E-06 1.81358E-18-3.36791E-18
 -1      3311 1.02802E-04-3.53554E-05-2.89026E-05-8.12578E-06 1.59202E-18-3.03226E-18
 -1      3312 1.00957E-04-3.37220E-05-2.87669E-05-8.32436E-06 1.41003E-18-2.52521E-18
 -1      3313 1.02630E-04-3.62076E-05-2.85653E-05-1.01925E-05 1.78321E-18-2.91809E-18
 -1      3314 9.93312E-05-3.22495E-05-2.87336E-05-7.96344E-06 1.15464E-18-1.98350E-18
 -1      3315 9.79998E-05-3.09832E-05-2.86943E-05-7.81012E-06 1.12003E-18-1.61736E-18
 -1      3316 9.86320E-05-3.25394E-05-2.83890E-05-9.59207E-06 1.60106E-18-2.31010E-18
 -1      3317 9.70147E-05-2.99484E-05-2.87259E-05-7.26387E-06 8.80212E-19-1.69219E-18
 -1      3318 9.61315E-05-2.90666E-05-2.87288E-05-6.93277E-06 9.41681E-19-1.71613E-18
 -1      3319 9.61007E-05-2.98806E-05-2.84197E-05-8.44115E-06 1.15182E-18-1.77773E-18
 -1      3320 9.56031E-05-2.84175E-05-2.87788E-05-6.34576E-06 6.86522E-19-1.85296E-18
 -1      3321 9.50623E-05-2.78692E-05-2.87924E-05-5.94499E-06 2.06729E-19-1.87145E-18
 -1      3322 9.46501E-05-2.81381E-05-2.85281E-05-7.14995E-06 8.47519E-19-1.86607E-18
 -1      3323 9.48289E-05-2.75134E-05-2.88376E-05-5.39260E-06-1.55511E-19-1.42408E-18
 -1      3324 9.45248E-05-2.72145E-05-2.88475E-05-4.98060E-06-2.64377E-19-1.20034E-18
 -1      3325 9.39324E-05-2.71283E-05-2.86430E-05-5.92570E-06 4.60990E-19-1.45550E-18
 -1      3326 9.44708E-05-2.70637E-05-2.88796E-05-4.48800E-06-5.00626E-19-1.36265E-18
 -1      3327 9.43195E-05-2.69370E-05-2.88809E-05-4.09588E-06-4.87051E-19-1.42413E-18
 -1      3328 9.36726E-05-2.66388E-05-2.87349E-05-4.83757E-06-4.95175E-19-1.20467E-18
 -1      3329 9.43661E-05-2.69193E-05-2.88987E-05-3.66944E-06-5.26564E-19-1.65253E-18
 -1      3330 9.43074E-05-2.69031E-05-2.88914E-05-3.31298E-06-4.43516E-19-1.76219E-18
 -1      3331 9.36815E-05-2.64966E-05-2.87958E-05-3.89956E-06-4.76493E-19-1.82565E-18
 -1      3332 9.44033E-05-2.69644E-05-2.88968E-05-2.95108E-06-2.89829E-19-1.95719E-18
 -1      3333 9.43967E-05-2.70132E-05-2.88828E-05-2.63743E-06 1.05400E-19-1.95547E-18
 -1      3334 9.38330E-05-2.65697E-05-2.88273E-05-3.10545E-06-4.18282E-19-1.94044E-18
 -1      3335 9.45099E-05-2.71156E-05-2.88789E-05-2.33521E-06 4.74288E-19-2.25579E-18
 -1      3336 9.45295E-05-2.71977E-05-2.88606E-05-2.06636E-06 5.01233E-19-1.96962E-18
 -1      3337 9.40467E-05-2.67630E-05-2.88350E-05-2.44210E-06 1.37582E-19-1.72682E-18
 -1      3338 9.46416E-05-2.73158E-05-2.88504E-05-1.81770E-06-2.20868E-19-1.91591E-18
 -1      3339 9.46718E-05-2.74102E-05-2.88301E-05-1.59244E-06-1.79857E-19-2.09195E-18
 -1      3340 9.42740E-05-2.70115E-05-2.88255E-05-1.89477E-06 2.49055E-19-1.76521E-18
 -1      3341 9.47729E-05-2.75282E-05-2.88163E-05-1.39086E-06 7.06066E-20-2.20535E-18
 -1      3342 9.48049E-05-2.76222E-05-2.87957E-05-1.20599E-06-4.74586E-19-2.07485E-18
 -1      3343 9.44876E-05-2.72731E-05-2.88049E-05-1.44878E-06-2.46759E-19-2.07417E-18
 -1      3344 9.48907E-05-2.77310E-05-2.87804E-05-1.04502E-06-1.03985E-19-1.61147E-18
 -1      3345 9.49200E-05-2.78174E-05-2.87609E-05-8.96244E-07 1.29499E-18-1.66222E-18
 -1      3346 9.46743E-05-2.75224E-05-2.87781E-05-1.09015E-06 2.01307E-19-1.76716E-18
 -1      3347 9.49896E-05-2.79124E-05-2.87455E-05-7.69666E-07 1.65871E-18-1.78824E-18
 -1      3348 9.50141E-05-2.79877E-05-2.87277E-05-6.52179E-07 1.26323E-18-1.39638E-18
 -1      3349 9.48294E-05-2.77459E-05-2.87490E-05-8.05757E-07 1.22395E-18-1.70177E-18
 -1      3350 9.50687E-05-2.80676E-05-2.87132E-05-5.54233E-07 5.05681E-19-1.62305E-18
 -1      3351 9.50880E-05-2.81307E-05-2.86977E-05-4.63185E-07-2.21370E-19-1.69570E-18
 -1      3352 9.49531E-05-2.79375E-05-2.87201E-05-5.83548E-07 7.43968E-19-2.15895E-18
 -1      3353 9.51293E-05-2.81958E-05-2.86846E-05-3.88666E-07-8.15669E-19-1.48164E-18
 -1      3354 9.51438E-05-2.82470E-05-2.86713E-05-3.19447E-07-5.86022E-19-1.38395E-18
 -1      3355 9.50484E-05-2.80963E-05-2.86932E-05-4.12621E-07-1.68312E-19-2.16569E-18
 -1      3356 9.51740E-05-2.82986E-05-2.86600E-05-2.63774E-07-2.37885E-19-1.39521E-18
 -1      3357 9.51844E-05-2.83391E-05-2.86490E-05-2.12203E-07 8.43661E-20-1.32245E-18
 -1      3358 9.51196E-05-2.82241E-05-2.86690E-05-2.83327E-07-6.33516E-19-7.87008E-19
 -1      3359 9.52058E-05-2.83789E-05-2.86394E-05-1.71436E-07 3.29690E-19-9.51873E-19
 -1      3360 9.52129E-05-2.84102E-05-2.86304E-05-1.33851E-07 2.35066E-19-1.21590E-18
 -1      3361 9.51710E-05-2.83246E-05-2.86482E-05-1.87297E-07 4.23964E-19-2.77123E-19
 -1      3362 9.52274E-05-2.84403E-05-2.86225E-05-1.04674E-07 5.37706E-21-1.04482E-18
 -1      3363 9.52319E-05-2.84638E-05-2.86154E-05-7.79615E-08-2.04284E-19-3.78060E-19
 -1      3364 9.52067E-05-2.84016E-05-2.86306E-05-1.17418E-07 3.15623E-19-1.45199E-19
 -1      3365 9.52413E-05-2.84860E-05-2.86090E-05-5.76401E-08-5.37192E-19 7.58294E-20
 -1      3366 9.52439E-05-2.85033E-05-2.86035E-05-3.92155E-08-8.13822E-20 6.78821E-20
 -1      3367 9.52305E-05-2.84593E-05-2.86161E-05-6.77573E-08-2.19170E-19 5.09746E-19
 -1      3368 9.52495E-05-2.85192E-05-2.85984E-05-2.55362E-08-4.07020E-19-6.60356E-19
 -1      3369 9.52508E-05-2.85315E-05-2.85942E-05-1.33038E-08-1.78470E-19-3.08397E-19
 -1      3370 9.52455E-05-2.85015E-05-2.86045E-05-3.34588E-08-4.07153E-19-2.72593E-19
 -1      3371 9.52537E-05-2.85426E-05-2.85902E-05-4.50721E-09-1.42455E-19-1.50169E-19
 -1      3372 9.52541E-05-2.85512E-05-2.85871E-05 3.19858E-09-3.51734E-22-3.93900E-19
 -1      3373 9.52540E-05-2.85315E-05-2.85953E-05-1.06183E-08-1.47212E-19-1.69354E-19
 -1      3374 9.52552E-05-2.85586E-05-2.85841E-05 8.48618E-09-8.14266E-19-9.56224E-19
 -1      3375 9.52550E-05-2.85644E-05-2.85818E-05 1.29632E-08-5.59370E-19-1.81765E-18
 -1      3376 9.52581E-05-2.85523E-05-2.85883E-05 3.84983E-09-7.52670E-19-1.49837E-19
 -1      3377 9.52550E-05-2.85691E-05-2.85795E-05 1.57953E-08 4.23070E-19-1.92645E-18
 -1      3378 9.52544E-05-2.85728E-05-2.85779E-05 1.80354E-08 5.83761E-19-1.25833E-18
 -1      3379 9.52593E-05-2.85660E-05-2.85829E-05 1.23413E-08-1.56741E-19-1.13136E-18
 -1      3380 9.52537E-05-2.85756E-05-2.85762E-05 1.92049E-08 3.38995E-19-1.79360E-18
 -1      3381 9.52529E-05-2.85777E-05-2.85751E-05 1.99511E-08-1.51778E-19-1.59721E-18
 -1      3382 9.52585E-05-2.85746E-05-2.85789E-05 1.66838E-08 4.92937E-19-1.88379E-18
 -1      3383 9.52518E-05-2.85792E-05-2.85739E-05 2.00429E-08-5.20386E-19-1.25020E-18
 -1      3384 9.52510E-05-2.85803E-05-2.85732E-05 1.98398E-08 8.85018E-20-4.86989E-19
 -1      3385 9.52567E-05-2.85796E-05-2.85760E-05 1.82456E-08 2.32106E-19-1.91901E-18
 -1      3386 9.52498E-05-2.85809E-05-2.85724E-05 1.92760E-08-4.01058E-19 2.45714E-19
 -1      3387 9.52490E-05-2.85812E-05-2.85719E-05 1.85135E-08-8.81733E-19 2.28830E-19
 -1      3388 9.52544E-05-2.85821E-05-2.85739E-05 1.80304E-08 1.67004E-19-9.29247E-19
 -1      3389 9.52477E-05-2.85812E-05-2.85713E-05 1.75909E-08-1.13862E-18 2.37403E-19
 -1      3390 9.52470E-05-2.85812E-05-2.85710E-05 1.65401E-08 9.01751E-20-5.22014E-19
 -1      3391 9.52518E-05-2.85828E-05-2.85725E-05 1.67576E-08-7.15995E-19-4.95964E-20
 -1      3392 9.52457E-05-2.85808E-05-2.85707E-05 1.54605E-08 1.22504E-18-4.83300E-19
 -1      3393 9.52451E-05-2.85805E-05-2.85705E-05 1.43035E-08 1.33460E-18 2.43259E-19
 -1      3394 9.52493E-05-2.85825E-05-2.85715E-05 1.49291E-08 7.84213E-20 3.46379E-19
 -1      3395 9.52440E-05-2.85799E-05-2.85703E-05 1.31986E-08 9.39546E-19 4.67302E-20
 -1      3396 9.52435E-05-2.85794E-05-2.85703E-05 1.20517E-08 1.11061E-18-5.20102E-19
 -1      3397 9.52470E-05-2.85816E-05-2.85709E-05 1.28830E-08 9.97519E-19-5.99629E-19
 -1      3398 9.52425E-05-2.85788E-05-2.85702E-05 1.10026E-08 4.88382E-19-1.39965E-18
 -1      3399 9.52421E-05-2.85783E-05-2.85702E-05 9.93506E-09 1.76739E-19-1.61599E-18
 -1      3400 9.52450E-05-2.85804E-05-2.85706E-05 1.08368E-08 2.87068E-19-1.23854E-18
 -1      3401 9.52413E-05-2.85777E-05-2.85701E-05 8.98717E-09 5.44274E-19-1.56985E-18
 -1      3402 9.52409E-05-2.85772E-05-2.85702E-05 8.03541E-09 8.56594E-20-2.13132E-18
 -1      3403 9.52433E-05-2.85791E-05-2.85704E-05 8.92201E-09 3.96871E-19-3.05673E-18
 -1      3404 9.52402E-05-2.85766E-05-2.85702E-05 7.20871E-09-4.49150E-19-8.55742E-19
 -1      3405 9.52400E-05-2.85761E-05-2.85702E-05 6.38576E-09 5.83741E-19-1.28099E-18
 -1      3406 9.52418E-05-2.85778E-05-2.85703E-05 7.20951E-09 1.09294E-18-1.18552E-18
 -1      3407 9.52394E-05-2.85756E-05-2.85702E-05 5.67858E-09 1.50661E-18-4.00622E-19
 -1      3408 9.52392E-05-2.85752E-05-2.85703E-05 4.99029E-09 2.13097E-18 5.01880E-19
 -1      3409 9.52406E-05-2.85766E-05-2.85703E-05 5.72401E-09 1.56605E-18 1.93457E-18
 -1      3410 9.01265E-05-2.36863E-05-2.85020E-05 9.61644E-06-7.45276E-19-3.16201E-19
 -1      3411 9.01463E-05-2.39277E-05-2.83444E-05 1.06766E-05-1.03599E-18-4.39017E-19
 -1      3412 9.10595E-05-2.39059E-05-2.88029E-05 7.72444E-06-3.65302E-19-4.46701E-19
 -1      3413 9.08763E-05-2.38318E-05-2.87144E-05 8.58799E-06-5.88034E-19-4.58409E-19
 -1      3414 8.83461E-05-2.24977E-05-2.82020E-05 8.58574E-06-5.92633E-19-4.06126E-19
 -1      3415 9.19783E-05-2.44346E-05-2.89657E-05 6.22363E-06 2.39526E-19-4.38726E-19
 -1      3416 9.17411E-05-2.42145E-05-2.89291E-05 6.94049E-06-1.00728E-19-6.00334E-19
 -1      3417 8.97945E-05-2.30855E-05-2.85718E-05 6.85777E-06-1.50080E-19-8.45494E-19
 -1      3418 9.27768E-05-2.50666E-05-2.90334E-05 4.99623E-06-4.74076E-20-6.91067E-19
 -1      3419 9.25540E-05-2.47967E-05-2.90318E-05 5.59814E-06 6.97589E-19-2.80357E-19
 -1      3420 9.10489E-05-2.38436E-05-2.87870E-05 5.52145E-06 2.49344E-19-9.23228E-19
 -1      3421 9.34253E-05-2.56924E-05-2.90401E-05 3.97831E-06 8.75834E-20-5.33139E-19
 -1      3422 9.32416E-05-2.54235E-05-2.90596E-05 4.48391E-06-3.71609E-19-6.27167E-19
 -1      3423 9.20806E-05-2.46269E-05-2.88966E-05 4.44136E-06-1.69563E-19-1.15572E-18
 -1      3424 9.39301E-05-2.62596E-05-2.90110E-05 3.13282E-06-7.61467E-20 7.09709E-20
 -1      3425 9.37892E-05-2.60155E-05-2.90414E-05 3.55442E-06 3.98732E-19 3.28349E-19
 -1      3426 9.28997E-05-2.53583E-05-2.89370E-05 3.54781E-06-7.78449E-20 9.45344E-20
 -1      3427 9.43115E-05-2.67478E-05-2.89632E-05 2.43504E-06 6.75021E-19-8.31359E-19
 -1      3428 9.42085E-05-2.65378E-05-2.89978E-05 2.78253E-06 3.63087E-19-7.71767E-19
 -1      3429 9.35337E-05-2.60033E-05-2.89348E-05 2.80366E-06 5.70491E-19 1.16789E-19
 -1      3430 9.45936E-05-2.71547E-05-2.89082E-05 1.86539E-06 6.76449E-19-5.27955E-19
 -1      3431 9.45209E-05-2.69797E-05-2.89427E-05 2.14791E-06 3.67013E-19-8.13974E-19
 -1      3432 9.40151E-05-2.65513E-05-2.89081E-05 2.18650E-06 6.59420E-19-5.35709E-19
 -1      3433 9.47988E-05-2.74859E-05-2.88528E-05 1.40645E-06 7.44410E-19 2.45103E-19
 -1      3434 9.47488E-05-2.73435E-05-2.88849E-05 1.63283E-06 7.91553E-19-2.44326E-20
 -1      3435 9.43748E-05-2.70050E-05-2.88693E-05 1.67990E-06 4.27290E-19-1.00768E-18
 -1      3436 9.49457E-05-2.77509E-05-2.88012E-05 1.04199E-06 1.18493E-18-1.59822E-19
 -1      3437 9.49122E-05-2.76370E-05-2.88296E-05 1.22069E-06 1.43188E-18 3.91569E-19
 -1      3438 9.46401E-05-2.73733E-05-2.88263E-05 1.26963E-06 9.22562E-19-2.83775E-19
 -1      3439 9.50496E-05-2.79600E-05-2.87553E-05 7.56885E-07 1.00643E-18 3.45246E-20
 -1      3440 9.50276E-05-2.78701E-05-2.87796E-05 8.95825E-07 1.32865E-18 3.75716E-19
 -1      3441 9.48333E-05-2.76676E-05-2.87837E-05 9.42338E-07 1.15809E-18 7.17224E-19
 -1      3442 9.51219E-05-2.81228E-05-2.87158E-05 5.37347E-07-1.15766E-18 1.54922E-19
 -1      3443 9.51079E-05-2.80527E-05-2.87361E-05 6.43687E-07-6.20850E-20 4.92588E-19
 -1      3444 9.49721E-05-2.78995E-05-2.87444E-05 6.85349E-07 2.46354E-19 1.75687E-18
 -1      3445 9.51713E-05-2.82480E-05-2.86828E-05 3.71074E-07-9.59583E-19-9.48561E-20
 -1      3446 9.51627E-05-2.81941E-05-2.86993E-05 4.51128E-07-1.54128E-18-1.05208E-19
 -1      3447 9.50704E-05-2.80800E-05-2.87096E-05 4.86874E-07-7.52070E-19 7.65322E-19
 -1      3448 9.52044E-05-2.83431E-05-2.86559E-05 2.47367E-07-4.29441E-19 5.11481E-19
 -1      3449 9.51994E-05-2.83021E-05-2.86691E-05 3.06562E-07-5.95323E-19 3.52885E-19
 -1      3450 9.51389E-05-2.82186E-05-2.86797E-05 3.36221E-07-1.11003E-18 5.85074E-19
 -1      3451 9.52259E-05-2.84143E-05-2.86343E-05 1.57123E-07-6.05331E-19 9.43063E-19
 -1      3452 9.52232E-05-2.83836E-05-2.86446E-05 2.00029E-07-2.99061E-19 1.01446E-18
 -1      3453 9.51855E-05-2.83237E-05-2.86549E-05 2.23963E-07-7.68167E-19 1.09420E-18
 -1      3454 9.52392E-05-2.84669E-05-2.86172E-05 9.27584E-08-1.45273E-19 1.44005E-18
 -1      3455 9.52380E-05-2.84442E-05-2.86252E-05 1.23146E-07-3.33484E-19 1.44549E-18
 -1      3456 9.52164E-05-2.84022E-05-2.86346E-05 1.41998E-07-2.86887E-19 4.76229E-19
 -1      3457 9.52469E-05-2.85050E-05-2.86040E-05 4.80725E-08 1.36747E-19 1.76058E-18
 -1      3458 9.52466E-05-2.84885E-05-2.86101E-05 6.89975E-08 4.35363E-19 1.64795E-18
 -1      3459 9.52360E-05-2.84600E-05-2.86183E-05 8.35200E-08-2.14065E-19 2.49335E-18
 -1      3460 9.52509E-05-2.85321E-05-2.85940E-05 1.80844E-08 1.12759E-19 1.39851E-18
 -1      3461 9.52511E-05-2.85203E-05-2.85985E-05 3.19840E-08 1.47565E-19 1.57375E-18
 -1      3462 9.52477E-05-2.85016E-05-2.86055E-05 4.29325E-08 2.90599E-19 2.09717E-18
 -1      3463 9.52523E-05-2.85508E-05-2.85865E-05-1.13887E-09 9.44673E-19 2.96177E-19
 -1      3464 9.52529E-05-2.85427E-05-2.85898E-05 7.64677E-09 6.95584E-19 7.95610E-19
 -1      3465 9.52541E-05-2.85311E-05-2.85956E-05 1.57217E-08 7.00447E-19 9.47245E-19
 -1      3466 9.52522E-05-2.85634E-05-2.85810E-05-1.26512E-08 1.47411E-19 8.60656E-19
 -1      3467 9.52529E-05-2.85579E-05-2.85834E-05-7.50430E-09 2.55884E-19 9.79904E-19
 -1      3468 9.52567E-05-2.85513E-05-2.85881E-05-1.68762E-09 2.83743E-19 1.38189E-18
 -1      3469 9.52512E-05-2.85714E-05-2.85771E-05-1.87835E-08 6.33282E-19 7.53528E-19
 -1      3470 9.52519E-05-2.85679E-05-2.85787E-05-1.61558E-08 5.44167E-19 2.77998E-19
 -1      3471 9.52571E-05-2.85648E-05-2.85825E-05-1.20765E-08 4.08124E-19 6.40967E-19
 -1      3472 9.52497E-05-2.85762E-05-2.85743E-05-2.12833E-08-9.20773E-20 1.52656E-18
 -1      3473 9.52503E-05-2.85741E-05-2.85754E-05-2.03401E-08 4.36101E-19 1.38535E-18
 -1      3474 9.52560E-05-2.85732E-05-2.85784E-05-1.75701E-08 2.66793E-19 4.74187E-19
 -1      3475 9.52479E-05-2.85788E-05-2.85725E-05-2.14356E-08 4.50673E-19 1.18662E-18
 -1      3476 9.52486E-05-2.85777E-05-2.85732E-05-2.15669E-08 4.51997E-19 1.45066E-18
 -1      3477 9.52541E-05-2.85782E-05-2.85754E-05-1.97629E-08 3.85232E-19 5.36710E-19
 -1      3478 9.52462E-05-2.85799E-05-2.85713E-05-2.01647E-08 5.77776E-19 1.01337E-18
 -1      3479 9.52468E-05-2.85794E-05-2.85717E-05-2.09343E-08-3.09085E-19 1.03218E-18
 -1      3480 9.52519E-05-2.85808E-05-2.85734E-05-1.98270E-08 9.91275E-20 3.73872E-19
 -1      3481 9.52446E-05-2.85800E-05-2.85705E-05-1.81188E-08 6.01414E-20 4.85126E-19
 -1      3482 9.52451E-05-2.85799E-05-2.85708E-05-1.92231E-08 1.29363E-18 5.34208E-19
 -1      3483 9.52497E-05-2.85817E-05-2.85720E-05-1.86053E-08 1.29334E-18 1.75841E-18
 -1      3484 9.52431E-05-2.85794E-05-2.85701E-05-1.57378E-08 5.64455E-20 5.07984E-19
 -1      3485 9.52435E-05-2.85797E-05-2.85702E-05-1.69727E-08-2.41403E-19 3.42486E-19
 -1      3486 9.52475E-05-2.85815E-05-2.85711E-05-1.66880E-08 4.80291E-19 2.36954E-18
 -1      3487 9.52419E-05-2.85786E-05-2.85700E-05-1.33080E-08-6.09116E-19 7.84095E-19
 -1      3488 9.52422E-05-2.85789E-05-2.85700E-05-1.45423E-08 4.66754E-20 5.14751E-19
 -1      3489 9.52455E-05-2.85808E-05-2.85706E-05-1.44754E-08-1.41834E-19 6.29412E-20
 -1      3490 9.52408E-05-2.85776E-05-2.85699E-05-1.10043E-08-5.25155E-19 2.01322E-18
 -1      3491 9.52411E-05-2.85780E-05-2.85699E-05-1.21595E-08-7.15613E-19 1.56127E-18
 -1      3492 9.52438E-05-2.85797E-05-2.85703E-05-1.22273E-08-1.36965E-18 5.12409E-19
 -1      3493 9.52399E-05-2.85766E-05-2.85700E-05-8.92332E-09-1.07995E-19 2.45134E-18
 -1      3494 9.52401E-05-2.85770E-05-2.85699E-05-9.95771E-09-1.15759E-19 2.39714E-18
 -1      3495 9.52423E-05-2.85785E-05-2.85702E-05-1.01017E-08-5.21259E-19 8.65896E-19
 -1      3496 9.52392E-05-2.85757E-05-2.85701E-05-7.10723E-09-1.47044E-18 1.64303E-18
 -1      3497 9.52394E-05-2.85761E-05-2.85700E-05-8.00460E-09-2.18024E-19 2.56761E-18
 -1      3498 9.52411E-05-2.85773E-05-2.85702E-05-8.18583E-09-4.48294E-19 1.81327E-18
 -1      3499 9.52387E-05-2.85748E-05-2.85702E-05-5.55983E-09-9.61751E-19 1.05139E-18
 -1      3500 9.52388E-05-2.85752E-05-2.85701E-05-6.32439E-09-1.16873E-18 1.51892E-18
 -1      3501 9.52401E-05-2.85763E-05-2.85702E-05-6.51854E-09-8.06399E-19 1.26198E-18
 -1      3502 9.52382E-05-2.85741E-05-2.85703E-05-4.27664E-09-2.81401E-18-9.54665E-19
 -1      3503 9.52383E-05-2.85744E-05-2.85702E-05-4.91030E-09-1.52710E-18 2.94632E-19
 -1      3504 9.52393E-05-2.85753E-05-2.85703E-05-5.10484E-09-1.08521E-18 2.54999E-19
 -1      3505 9.52383E-05-2.85739E-05-2.85704E-05-3.01681E-09-1.84102E-18-3.45753E-18
 -1      3506 9.52379E-05-2.85735E-05-2.85704E-05-3.06370E-09-2.08355E-18-2.53367E-18
 -1      3507 9.52379E-05-2.85736E-05-2.85704E-05-3.37981E-09-3.11328E-18-1.57631E-18
 -1      3508 9.52387E-05-2.85744E-05-2.85704E-05-3.29346E-09-1.33425E-18-3.11767E-18
 -1      3509 8.94580E-05-2.41527E-05-2.80161E-05 1.20848E-05-1.70763E-18-4.50712E-19
 -1      3510 8.99627E-05-2.49687E-05-2.77862E-05 1.33866E-05-1.85821E-18-2.13724E-19
 -1      3511 8.68469E-05-2.23591E-05-2.76143E-05 1.09872E-05-1.20208E-18-3.99590E-19
 -1      3512 9.52412E-05-2.85767E-05-2.85705E-05 1.04261E-09 1.29754E-18 1.01215E-20
 -1      3513 9.52413E-05-2.85767E-05-2.85705E-05 3.97615E-10 1.10699E-18-1.47816E-20
 -1      3514 6.54765E-05-1.65528E-05-2.08967E-05-1.77224E-05 2.58123E-18 2.41150E-18
 -1      3515 7.27849E-05-2.24088E-05-2.15161E-05-2.43021E-05 3.66446E-18 1.38135E-18
 -1      3516 8.09092E-05-2.75976E-05-2.26115E-05-2.60349E-05 4.10415E-18 3.06255E-19
 -1      3517 9.05439E-05-3.43122E-05-2.43060E-05-2.60351E-05 4.08487E-18-9.34013E-19
 -1      3518 8.02988E-05-2.53142E-05-2.33387E-05-2.20868E-05 3.50275E-18 5.55495E-19
 -1      3519 1.13421E-04-2.37996E-05-3.84194E-05-1.88250E-05-3.70271E-18-2.43755E-18
 -1      3520 8.92946E-05-3.22735E-05-2.44992E-05 2.60016E-05-3.06525E-18-8.57303E-19
 -1      3521 7.76283E-05-2.40008E-05-2.25415E-05 2.41966E-05-3.11506E-18 8.35902E-19
 -1      3522 6.44013E-05-1.72523E-05-2.03644E-05 2.09498E-05-2.69746E-18 2.98749E-18
 -1      3523 5.60690E-05-1.11531E-05-1.87739E-05 1.22788E-05-1.77813E-18 4.32617E-18
 -1      3524 8.56100E-05-2.30731E-05-2.67354E-05 1.44218E-05-2.11253E-18-9.52548E-20
 -1      3525 1.17373E-04-4.12722E-05-3.27255E-05 1.03945E-07 4.18156E-19-5.59071E-18
 -1      3526 1.15982E-04-4.21661E-05-3.16019E-05-2.02542E-06 1.18860E-18-5.08249E-18
 -1      3527 9.52419E-05-2.85773E-05-2.85705E-05 1.65194E-12 9.16559E-19 1.05125E-18
 -1      3528 9.52413E-05-2.85767E-05-2.85705E-05-3.83178E-10 8.93249E-19 1.77859E-18
 -1      3529 9.52412E-05-2.85767E-05-2.85705E-05-1.03548E-09 4.70279E-19 2.40307E-18
 -1      3530 9.52387E-05-2.85747E-05-2.85703E-05 4.59761E-09 2.52235E-18-4.39503E-19
 -1      3531 9.52385E-05-2.85744E-05-2.85703E-05 4.08564E-09 1.89476E-18-8.06317E-19
 -1      3532 9.52389E-05-2.85747E-05-2.85704E-05 3.92625E-09 1.04765E-18 2.41338E-19
 -1      3533 9.52396E-05-2.85755E-05-2.85703E-05 4.66551E-09 2.34430E-18 3.49556E-18
 -1      3534 9.52391E-05-2.85748E-05-2.85704E-05-3.78982E-09-1.62337E-18-2.48674E-18
 -1      3535 9.52386E-05-2.85744E-05-2.85704E-05-3.90943E-09-2.27612E-18-1.27436E-18
 -1      3536 9.52379E-05-2.85738E-05-2.85704E-05-3.73032E-09-3.41013E-18-2.05242E-18
 -1      3537 9.74770E-05-3.66440E-05-2.59576E-05-2.15431E-05 3.44994E-18-1.58641E-18
 -1      3538 6.33675E-05-1.38033E-05-2.10407E-05-1.26321E-05 1.78748E-18 3.57350E-18
 -1      3539 6.98818E-05-1.72663E-05-2.24119E-05-1.50213E-05 2.21565E-18 1.69360E-18
 -1      3540 1.09266E-04-4.21552E-05-2.87543E-05-1.32065E-05 2.36453E-18-3.51002E-18
 -1      3541 1.14191E-04-4.45557E-05-2.98222E-05-1.07240E-05 2.46624E-18-4.30590E-18
 -1      3542 9.52402E-05-2.85758E-05-2.85704E-05-3.00831E-09-2.76273E-19-4.02765E-18
 -1      3543 9.52397E-05-2.85754E-05-2.85704E-05-3.43032E-09-8.62425E-19-4.00022E-18
 -1      3544 9.52396E-05-2.85755E-05-2.85704E-05-4.10075E-09-1.47514E-18-1.77594E-18
 -1      3545 9.52410E-05-2.85764E-05-2.85705E-05 1.77440E-09 7.76066E-19 1.76442E-19
 -1      3546 9.52416E-05-2.85771E-05-2.85705E-05 1.57011E-09-3.60091E-20 2.74204E-19
 -1      3547 9.52406E-05-2.85762E-05-2.85705E-05 2.35316E-09 4.99097E-19-1.41470E-19
 -1      3548 1.14801E-04-4.30881E-05-3.07334E-05-6.06139E-06 1.62166E-18-4.65054E-18
 -1      3549 9.52392E-05-2.85749E-05-2.85704E-05 3.71322E-09 7.52916E-19 1.15242E-18
 -1      3550 9.88179E-05-3.75975E-05-2.60634E-05 2.44245E-05-2.86413E-18-1.72419E-18
 -1      3551 7.37973E-05-2.06828E-05-2.27775E-05 1.97637E-05-2.52769E-18 1.57620E-18
 -1      3552 1.17813E-04-4.53364E-05-3.09662E-05-8.29196E-06 1.84591E-18-5.28215E-18
 -1      3553 1.19843E-04-4.29654E-05-3.31250E-05-1.37302E-06 7.65645E-19-5.84130E-18
 -1      3554 5.89808E-05-1.14296E-05-2.01499E-05 4.74559E-06-4.94826E-19 4.05776E-18
 -1      3555 6.20287E-05-1.25647E-05-2.12279E-05-8.00165E-06 1.28433E-18 3.83563E-18
 -1      3556 9.52397E-05-2.85755E-05-2.85704E-05 3.95111E-09 9.54592E-19 1.18447E-18
 -1      3557 9.52396E-05-2.85753E-05-2.85704E-05 3.37939E-09 4.38161E-19 1.26628E-18
 -1      3558 9.52401E-05-2.85757E-05-2.85704E-05 2.97367E-09 7.74125E-19 4.98717E-19
 -1      3559 9.52402E-05-2.85759E-05-2.85704E-05 4.29322E-09 1.23233E-18 2.11328E-18
 -1      3560 7.83213E-05-2.27970E-05-2.37498E-05-1.85256E-05 2.56245E-18 3.55899E-19
 -1      3561 8.49569E-05-2.77931E-05-2.46467E-05-2.05291E-05 2.90700E-18-3.62768E-19
 -1      3562 9.02644E-05-2.34451E-05-2.86558E-05 4.52830E-06 4.52092E-19-6.84086E-19
 -1      3563 8.96797E-05-2.30155E-05-2.85698E-05 5.07166E-06 3.78192E-19-5.24548E-19
 -1      3564 1.05910E-04-3.98001E-05-2.82567E-05-1.36743E-05 2.37676E-18-3.24970E-18
 -1      3565 7.74071E-05-1.95941E-05-2.49121E-05 1.37365E-05-1.84852E-18 1.48439E-18
 -1      3566 7.70259E-05-2.07151E-05-2.41205E-05 1.65899E-05-2.09397E-18 1.28813E-18
 -1      3567 6.74909E-05-1.44212E-05-2.23958E-05 1.21389E-05-1.83254E-18 3.04510E-18
 -1      3568 1.01671E-04-3.61895E-05-2.80430E-05-1.25811E-05 2.14736E-18-2.47076E-18
 -1      3569 9.92023E-05-3.39154E-05-2.79081E-05-1.22248E-05 2.12237E-18-2.36985E-18
 -1      3570 9.74729E-05-3.21062E-05-2.79597E-05-1.12275E-05 1.93850E-18-1.92373E-18
 -1      3571 9.57729E-05-3.04698E-05-2.79606E-05-1.05394E-05 1.83194E-18-1.81550E-18
 -1      3572 9.58214E-05-3.21091E-05-2.74476E-05-1.34070E-05 2.24810E-18-1.72853E-18
 -1      3573 9.48948E-05-2.92892E-05-2.80807E-05-9.42003E-06 1.35889E-18-1.91401E-18
 -1      3574 9.38899E-05-2.82138E-05-2.81405E-05-8.69594E-06 1.16237E-18-1.69223E-18
 -1      3575 9.31501E-05-2.87637E-05-2.76489E-05-1.08629E-05 1.64097E-18-1.59075E-18
 -1      3576 9.35347E-05-2.75092E-05-2.82698E-05-7.71976E-06 1.00230E-18-1.75249E-18
 -1      3577 9.30050E-05-2.68813E-05-2.83410E-05-7.04034E-06 8.37493E-19-1.67338E-18
 -1      3578 9.20482E-05-2.69070E-05-2.79402E-05-8.59920E-06 1.07577E-18-1.53990E-18
 -1      3579 9.29542E-05-2.65237E-05-2.84516E-05-6.23805E-06 7.30195E-19-1.42339E-18
 -1      3580 9.27221E-05-2.62062E-05-2.85127E-05-5.64045E-06 3.25599E-19-1.11720E-18
 -1      3581 9.17023E-05-2.59143E-05-2.82054E-05-6.74458E-06 7.64581E-19-1.62399E-18
 -1      3582 9.28408E-05-2.60842E-05-2.85970E-05-4.99292E-06-2.56772E-19-1.36491E-18
 -1      3583 9.27884E-05-2.59753E-05-2.86412E-05-4.48280E-06-6.24366E-19-1.42542E-18
 -1      3584 9.18042E-05-2.55049E-05-2.84175E-05-5.26350E-06 5.42108E-20-1.77354E-18
 -1      3585 9.29899E-05-2.60031E-05-2.86998E-05-3.96500E-06-7.21464E-19-1.09677E-18
 -1      3586 9.30381E-05-2.60254E-05-2.87268E-05-3.53607E-06-5.65470E-19-1.64407E-18
 -1      3587 9.21432E-05-2.54737E-05-2.85723E-05-4.09365E-06-5.44905E-19-1.61673E-18
 -1      3588 9.32691E-05-2.61406E-05-2.87632E-05-3.12325E-06-3.42740E-19-1.50055E-18
 -1      3589 9.33663E-05-2.62384E-05-2.87756E-05-2.76618E-06 2.33419E-20-1.28146E-18
 -1      3590 9.25851E-05-2.56699E-05-2.86757E-05-3.17154E-06-4.06584E-19-9.24381E-19
 -1      3591 9.35953E-05-2.63974E-05-2.87948E-05-2.43767E-06 1.44602E-19-1.06104E-18
 -1      3592 9.37096E-05-2.65323E-05-2.87961E-05-2.14311E-06 4.65483E-19-7.19143E-19
 -1      3593 9.30489E-05-2.59883E-05-2.87373E-05-2.44407E-06 3.22422E-19-5.76129E-19
 -1      3594 9.39192E-05-2.67059E-05-2.88026E-05-1.88246E-06 5.34873E-19-9.62641E-19
 -1      3595 9.40321E-05-2.68525E-05-2.87962E-05-1.64186E-06-7.51112E-20-1.34157E-18
 -1      3596 9.34883E-05-2.63576E-05-2.87672E-05-1.86996E-06 2.28203E-19-2.07545E-20
 -1      3597 9.42140E-05-2.70224E-05-2.87941E-05-1.43607E-06-5.03099E-19-1.07099E-18
 -1      3598 9.43158E-05-2.71650E-05-2.87831E-05-1.24171E-06-2.29402E-19-1.24078E-18
 -1      3599 9.38790E-05-2.67315E-05-2.87746E-05-1.41762E-06-6.20992E-20-5.34319E-19
 -1      3600 9.44675E-05-2.73204E-05-2.87756E-05-1.08038E-06 2.17728E-19-8.74212E-19
 -1      3601 9.45539E-05-2.74502E-05-2.87622E-05-9.25287E-07 7.35614E-19-6.54664E-19
 -1      3602 9.42112E-05-2.70822E-05-2.87670E-05-1.06265E-06 1.31182E-19 3.25897E-19
 -1      3603 9.46764E-05-2.75860E-05-2.87517E-05-7.99937E-07 8.97636E-19-6.55458E-19
 -1      3604 9.47466E-05-2.76987E-05-2.87375E-05-6.77830E-07 1.16924E-18-9.77253E-19
 -1      3605 9.44837E-05-2.73944E-05-2.87504E-05-7.85868E-07 8.42771E-19-2.21076E-19
 -1      3606 9.48427E-05-2.78132E-05-2.87258E-05-5.81482E-07 8.11130E-19-1.35422E-18
 -1      3607 9.48976E-05-2.79077E-05-2.87121E-05-4.86719E-07 5.20857E-19-1.28782E-18
 -1      3608 9.47006E-05-2.76619E-05-2.87292E-05-5.71889E-07 6.62602E-19-3.35142E-19
 -1      3609 9.49710E-05-2.80014E-05-2.87004E-05-4.13583E-07 7.99489E-19-1.71106E-18
 -1      3610 9.50126E-05-2.80784E-05-2.86878E-05-3.41172E-07 7.10821E-20-1.11131E-18
 -1      3611 9.48686E-05-2.78842E-05-2.87063E-05-4.08186E-07 3.89072E-19-7.25850E-19
 -1      3612 9.50672E-05-2.81532E-05-2.86767E-05-2.86446E-07-2.04036E-19-9.87403E-19
 -1      3613 9.50977E-05-2.82143E-05-2.86656E-05-2.32039E-07 3.23315E-20-1.58282E-19
 -1      3614 9.49953E-05-2.80640E-05-2.86839E-05-2.84485E-07 2.81701E-19-5.54874E-19
 -1      3615 9.51371E-05-2.82726E-05-2.86557E-05-1.91757E-07 2.01904E-19 4.57291E-19
 -1      3616 9.51587E-05-2.83199E-05-2.86461E-05-1.51631E-07 9.86130E-19 6.81046E-19
 -1      3617 9.50884E-05-2.82061E-05-2.86631E-05-1.92340E-07 4.79955E-19 6.80114E-19
 -1      3618 9.51863E-05-2.83644E-05-2.86375E-05-1.22543E-07 5.96351E-19 8.60008E-20
 -1      3619 9.52010E-05-2.84003E-05-2.86295E-05-9.35689E-08-4.89864E-20 7.81760E-20
 -1      3620 9.51547E-05-2.83160E-05-2.86447E-05-1.24836E-07 4.08415E-19-2.74964E-19
 -1      3621 9.52195E-05-2.84335E-05-2.86223E-05-7.30370E-08-2.64665E-19 2.30434E-19
 -1      3622 9.52290E-05-2.84601E-05-2.86157E-05-5.26295E-08-8.88913E-21 3.49636E-19
 -1      3623 9.52003E-05-2.83990E-05-2.86288E-05-7.63408E-08 8.34769E-20-1.98129E-19
 -1      3624 9.52409E-05-2.84842E-05-2.86098E-05-3.85405E-08-5.55007E-19-1.00719E-19
 -1      3625 9.52466E-05-2.85034E-05-2.86046E-05-2.45992E-08-6.30568E-19 5.15095E-21
 -1      3626 9.52304E-05-2.84604E-05-2.86155E-05-4.23154E-08-4.42949E-19-4.97421E-20
 -1      3627 9.52537E-05-2.85205E-05-2.85997E-05-1.52800E-08-4.74458E-19 6.16937E-20
 -1      3628 9.52567E-05-2.85340E-05-2.85957E-05-6.12862E-09-4.54663E-20 2.37689E-19
 -1      3629 9.52491E-05-2.85047E-05-2.86047E-05-1.91385E-08-6.24512E-19-1.51702E-19
 -1      3630 9.52604E-05-2.85457E-05-2.85919E-05-2.73005E-10-3.67559E-19-4.21238E-19
 -1      3631 9.52615E-05-2.85549E-05-2.85887E-05 5.40439E-09-1.11736E-18-7.78109E-19
 -1      3632 9.52597E-05-2.85357E-05-2.85960E-05-3.95697E-09-5.79494E-19-9.78055E-19
 -1      3633 9.52629E-05-2.85626E-05-2.85858E-05 8.80129E-09-8.94073E-19-7.26553E-19
 -1      3634 9.52629E-05-2.85685E-05-2.85834E-05 1.20200E-08 1.57610E-19-1.10668E-18
 -1      3635 9.52647E-05-2.85568E-05-2.85891E-05 5.44703E-09-6.74574E-19-1.11908E-18
 -1      3636 9.52628E-05-2.85733E-05-2.85811E-05 1.37192E-08 5.02030E-19-1.61407E-18
 -1      3637 9.52621E-05-2.85769E-05-2.85794E-05 1.52488E-08 6.05425E-19-1.38050E-18
 -1      3638 9.52659E-05-2.85704E-05-2.85838E-05 1.07730E-08-3.82688E-19-6.47726E-19
 -1      3639 9.52611E-05-2.85796E-05-2.85777E-05 1.58166E-08 7.84116E-19-1.96037E-18
 -1      3640 9.52600E-05-2.85816E-05-2.85764E-05 1.62296E-08 4.94174E-19-1.43217E-18
 -1      3641 9.52648E-05-2.85787E-05-2.85798E-05 1.33026E-08 4.97019E-19-9.45937E-19
 -1      3642 9.52585E-05-2.85829E-05-2.85752E-05 1.60793E-08 2.99458E-19-9.04755E-19
 -1      3643 9.52572E-05-2.85838E-05-2.85743E-05 1.57924E-08 2.86451E-19-7.55328E-19
 -1      3644 9.52623E-05-2.85832E-05-2.85768E-05 1.39857E-08 5.60132E-19-1.35241E-18
 -1      3645 9.52556E-05-2.85841E-05-2.85734E-05 1.52192E-08-2.64174E-19-1.20635E-18
 -1      3646 9.52543E-05-2.85843E-05-2.85728E-05 1.45286E-08-4.31133E-19-7.09801E-19
 -1      3647 9.52592E-05-2.85851E-05-2.85747E-05 1.35124E-08-1.50208E-19-1.64767E-18
 -1      3648 9.52526E-05-2.85840E-05-2.85722E-05 1.37373E-08-2.98478E-19-5.44278E-19
 -1      3649 9.52514E-05-2.85837E-05-2.85718E-05 1.28478E-08 3.58557E-19-6.21385E-19
 -1      3650 9.52559E-05-2.85854E-05-2.85731E-05 1.23725E-08-1.95289E-19-1.82239E-18
 -1      3651 9.52498E-05-2.85831E-05-2.85714E-05 1.19759E-08 8.00460E-19-6.13560E-19
 -1      3652 9.52487E-05-2.85826E-05-2.85712E-05 1.10234E-08 1.32463E-18-9.05312E-19
 -1      3653 9.52527E-05-2.85846E-05-2.85721E-05 1.09040E-08 8.87892E-19-9.58282E-19
 -1      3654 9.52473E-05-2.85818E-05-2.85709E-05 1.01587E-08 6.08563E-19-1.26425E-18
 -1      3655 9.52463E-05-2.85811E-05-2.85708E-05 9.22916E-09-4.70760E-19-2.03407E-18
 -1      3656 9.52498E-05-2.85833E-05-2.85714E-05 9.33141E-09 1.11906E-19-1.05364E-18
 -1      3657 9.52451E-05-2.85803E-05-2.85706E-05 8.42343E-09-1.72032E-19-1.23308E-18
 -1      3658 9.52443E-05-2.85796E-05-2.85706E-05 7.56716E-09 1.13524E-18-1.02957E-18
 -1      3659 9.52472E-05-2.85817E-05-2.85709E-05 7.79494E-09 1.41913E-19-6.06422E-19
 -1      3660 9.52433E-05-2.85788E-05-2.85705E-05 6.85325E-09 2.20138E-18-8.27286E-19
 -1      3661 9.52426E-05-2.85782E-05-2.85704E-05 6.09492E-09 2.60215E-18 8.53358E-19
 -1      3662 9.52449E-05-2.85801E-05-2.85707E-05 6.38414E-09 2.05060E-18 1.70525E-18
 -1      3663 9.52417E-05-2.85775E-05-2.85704E-05 5.47631E-09 2.21930E-18 1.40676E-18
 -1      3664 9.52412E-05-2.85769E-05-2.85704E-05 4.82816E-09 2.53308E-18 2.67329E-18
 -1      3665 9.52430E-05-2.85785E-05-2.85705E-05 5.13503E-09 3.09692E-18 1.61278E-18
 -1      3666 8.87139E-05-2.24863E-05-2.84093E-05 5.58097E-06 7.79657E-20-4.04086E-19
 -1      3667 8.80151E-05-2.20751E-05-2.82568E-05 6.26153E-06-9.74994E-20-3.70371E-19
 -1      3668 8.81233E-05-2.20576E-05-2.82874E-05 4.50514E-06 6.10898E-19-4.78890E-19
 -1      3669 8.67922E-05-2.15498E-05-2.79989E-05 6.93804E-06-6.43212E-19-3.42027E-20
 -1      3670 8.59976E-05-2.12346E-05-2.77504E-05 7.84911E-06-5.87053E-19-5.36832E-20
 -1      3671 8.59630E-05-2.08966E-05-2.78509E-05 5.54294E-06-2.98285E-19-1.37393E-19
 -1      3672 9.14939E-05-2.43472E-05-2.87914E-05 3.66932E-06-5.01823E-19-7.95068E-19
 -1      3673 9.10237E-05-2.39405E-05-2.87501E-05 4.11940E-06-4.61143E-20-1.08102E-18
 -1      3674 8.98239E-05-2.31462E-05-2.85561E-05 3.69615E-06 5.69799E-19-4.17381E-19
 -1      3675 9.24540E-05-2.51534E-05-2.88541E-05 2.94994E-06-2.41313E-19-4.25361E-19
 -1      3676 9.20867E-05-2.47899E-05-2.88416E-05 3.32839E-06-6.85922E-19-9.94258E-19
 -1      3677 9.11564E-05-2.41279E-05-2.87114E-05 3.02634E-06-5.98284E-19-9.92362E-19
 -1      3678 9.31941E-05-2.58491E-05-2.88707E-05 2.34350E-06 7.67277E-19-3.22731E-19
 -1      3679 9.29132E-05-2.55360E-05-2.88756E-05 2.66165E-06 4.20808E-19-8.98098E-20
 -1      3680 9.21931E-05-2.49870E-05-2.87913E-05 2.45515E-06-1.69074E-19-1.13051E-18
 -1      3681 9.37577E-05-2.64341E-05-2.88598E-05 1.83511E-06 5.41039E-19-7.91700E-20
 -1      3682 9.35465E-05-2.61715E-05-2.88743E-05 2.10018E-06 8.25441E-19-1.81468E-19
 -1      3683 9.29930E-05-2.57207E-05-2.88225E-05 1.96517E-06 4.19312E-19-4.28565E-19
 -1      3684 9.41822E-05-2.69161E-05-2.88337E-05 1.41407E-06 1.47008E-19-4.90268E-20
 -1      3685 9.40256E-05-2.67003E-05-2.88527E-05 1.63196E-06 3.62751E-19-2.34534E-19
 -1      3686 9.36046E-05-2.63349E-05-2.88237E-05 1.54821E-06 6.11216E-19 4.73365E-19
 -1      3687 9.44985E-05-2.73068E-05-2.88006E-05 1.07068E-06 8.57986E-19-1.57443E-20
 -1      3688 9.43839E-05-2.71323E-05-2.88210E-05 1.24702E-06 2.20648E-19-2.03238E-19
 -1      3689 9.40677E-05-2.68402E-05-2.88073E-05 1.19865E-06 2.17036E-19 4.90963E-19
 -1      3690 9.47314E-05-2.76188E-05-2.87657E-05 7.95262E-07 4.15281E-19 1.94846E-18
 -1      3691 9.46486E-05-2.74798E-05-2.87855E-05 9.35654E-07 8.95518E-19 7.34023E-19
 -1      3692 9.44148E-05-2.72497E-05-2.87818E-05 9.10801E-07 1.32937E-19 8.81770E-19
 -1      3693 9.49008E-05-2.78648E-05-2.87322E-05 5.78172E-07-6.11537E-20 1.89818E-18
 -1      3694 9.48418E-05-2.77554E-05-2.87502E-05 6.88072E-07 4.80536E-19 1.85641E-18
 -1      3695 9.46720E-05-2.75769E-05-2.87527E-05 6.78210E-07 6.16251E-19 1.86931E-18
 -1      3696 9.50223E-05-2.80561E-05-2.87016E-05 4.10085E-07-1.07268E-18 1.41879E-18
 -1      3697 9.49808E-05-2.79712E-05-2.87175E-05 4.94638E-07-1.80713E-19 1.89332E-18
 -1      3698 9.48601E-05-2.78348E-05-2.87235E-05 4.93848E-07 3.50270E-20 1.91063E-18
 -1      3699 9.51079E-05-2.82030E-05-2.86749E-05 2.82326E-07-9.75915E-19 1.11105E-18
 -1      3700 9.50794E-05-2.81379E-05-2.86884E-05 3.46213E-07-1.64737E-18 8.05272E-19
 -1      3701 9.49957E-05-2.80354E-05-2.86961E-05 3.50515E-07-9.00051E-19 1.70027E-18
 -1      3702 9.51669E-05-2.83142E-05-2.86522E-05 1.87104E-07-3.46414E-19 4.34062E-19
 -1      3703 9.51478E-05-2.82650E-05-2.86634E-05 2.34451E-07-2.30457E-19 9.72445E-19
 -1      3704 9.50916E-05-2.81894E-05-2.86716E-05 2.41255E-07-6.62338E-19 1.34561E-18
 -1      3705 9.52065E-05-2.83971E-05-2.86333E-05 1.17634E-07-6.22750E-19 8.36001E-19
 -1      3706 9.51941E-05-2.83605E-05-2.86424E-05 1.51983E-07-6.66320E-19 2.66519E-19
 -1      3707 9.51580E-05-2.83058E-05-2.86505E-05 1.59670E-07-2.41135E-19 9.32542E-19
 -1      3708 9.52320E-05-2.84578E-05-2.86180E-05 6.81679E-08-1.46089E-19 1.17703E-18
 -1      3709 9.52244E-05-2.84311E-05-2.86253E-05 9.24831E-08 2.12677E-19 7.73926E-19
 -1      3710 9.52027E-05-2.83924E-05-2.86327E-05 1.00090E-07-2.60822E-19 7.68045E-19
 -1      3711 9.52476E-05-2.85015E-05-2.86058E-05 3.39497E-08 9.00547E-19 2.09666E-19
 -1      3712 9.52433E-05-2.84824E-05-2.86115E-05 5.06600E-08 3.20782E-19 5.34419E-19
 -1      3713 9.52316E-05-2.84558E-05-2.86180E-05 5.76599E-08 8.72668E-19-1.04005E-19
 -1      3714 9.52562E-05-2.85322E-05-2.85962E-05 1.11279E-08 7.42717E-19 1.37513E-19
 -1      3715 9.52541E-05-2.85188E-05-2.86006E-05 2.21842E-08 8.17264E-19 2.20218E-19
 -1      3716 9.52492E-05-2.85012E-05-2.86062E-05 2.83284E-08 9.02414E-19-4.66581E-19
 -1      3717 9.52602E-05-2.85531E-05-2.85889E-05-3.35486E-09 3.86836E-19 2.64173E-19
 -1      3718 9.52596E-05-2.85440E-05-2.85922E-05 3.58578E-09 6.80772E-19-4.18032E-20
 -1      3719 9.52590E-05-2.85330E-05-2.85968E-05 8.79801E-09 9.67360E-19 2.17945E-20
 -1      3720 9.52611E-05-2.85669E-05-2.85833E-05-1.18791E-08 5.93832E-19-2.65869E-19
 -1      3721 9.52614E-05-2.85609E-05-2.85858E-05-7.86326E-09 1.03291E-18 1.38752E-19
 -1      3722 9.52635E-05-2.85545E-05-2.85896E-05-3.55802E-09 3.72078E-19-1.25814E-18
 -1      3723 9.52601E-05-2.85754E-05-2.85792E-05-1.62639E-08 5.27519E-20 1.31951E-19
 -1      3724 9.52609E-05-2.85717E-05-2.85810E-05-1.42676E-08 9.52337E-22-5.71353E-19
 -1      3725 9.52645E-05-2.85685E-05-2.85840E-05-1.07898E-08 6.01452E-19-2.90017E-19
 -1      3726 9.52580E-05-2.85803E-05-2.85762E-05-1.78722E-08-3.81814E-20 2.32196E-19
 -1      3727 9.52591E-05-2.85782E-05-2.85774E-05-1.72206E-08 6.77871E-19 1.71288E-20
 -1      3728 9.52633E-05-2.85771E-05-2.85798E-05-1.44656E-08 4.77992E-19-6.70016E-19
 -1      3729 9.52554E-05-2.85826E-05-2.85740E-05-1.77046E-08 4.01381E-19-7.45784E-19
 -1      3730 9.52566E-05-2.85817E-05-2.85749E-05-1.79044E-08 1.04086E-19-1.01831E-18
 -1      3731 9.52609E-05-2.85819E-05-2.85768E-05-1.57612E-08 4.31707E-19-1.25402E-18
 -1      3732 9.52527E-05-2.85833E-05-2.85726E-05-1.64780E-08 8.39439E-19 6.69004E-19
 -1      3733 9.52538E-05-2.85831E-05-2.85732E-05-1.71777E-08 2.79019E-19-4.56742E-19
 -1      3734 9.52580E-05-2.85841E-05-2.85745E-05-1.55392E-08-2.90716E-19-2.02446E-18
 -1      3735 9.52500E-05-2.85829E-05-2.85716E-05-1.46929E-08 6.32819E-19 1.11046E-18
 -1      3736 9.52511E-05-2.85831E-05-2.85720E-05-1.56485E-08 1.13202E-18 1.90744E-18
 -1      3737 9.52549E-05-2.85846E-05-2.85730E-05-1.44173E-08 3.07620E-20 4.08198E-19
 -1      3738 9.52476E-05-2.85819E-05-2.85710E-05-1.26864E-08-6.18658E-19 9.16768E-19
 -1      3739 9.52485E-05-2.85824E-05-2.85712E-05-1.37346E-08-4.08774E-19 6.75895E-19
 -1      3740 9.52518E-05-2.85840E-05-2.85719E-05-1.28261E-08 5.23135E-19 1.68020E-18
 -1      3741 9.52455E-05-2.85806E-05-2.85706E-05-1.06758E-08-1.47321E-18 8.10030E-19
 -1      3742 9.52463E-05-2.85812E-05-2.85707E-05-1.17125E-08-1.07425E-19 7.76997E-19
 -1      3743 9.52490E-05-2.85829E-05-2.85713E-05-1.10549E-08-3.54058E-19 1.61208E-18
 -1      3744 9.52436E-05-2.85793E-05-2.85704E-05-8.79158E-09-5.61359E-19 4.79813E-19
 -1      3745 9.52443E-05-2.85799E-05-2.85705E-05-9.75507E-09-1.19633E-18-6.27894E-20
 -1      3746 9.52466E-05-2.85814E-05-2.85708E-05-9.28942E-09-4.10608E-19 1.08838E-18
 -1      3747 9.52421E-05-2.85779E-05-2.85703E-05-7.10351E-09-1.61794E-19 6.90141E-19
 -1      3748 9.52426E-05-2.85785E-05-2.85703E-05-7.96193E-09-2.74549E-19-5.09993E-22
 -1      3749 9.52445E-05-2.85799E-05-2.85706E-05-7.64073E-09-1.75254E-19-1.42541E-18
 -1      3750 9.52408E-05-2.85767E-05-2.85703E-05-5.64199E-09-6.38793E-19-8.05817E-19
 -1      3751 9.52413E-05-2.85772E-05-2.85703E-05-6.38263E-09-2.89120E-19-2.62857E-19
 -1      3752 9.52427E-05-2.85784E-05-2.85705E-05-6.17119E-09 1.27423E-19-2.31906E-18
 -1      3753 9.52400E-05-2.85758E-05-2.85704E-05-4.52351E-09-6.65881E-19-1.32348E-18
 -1      3754 9.52404E-05-2.85763E-05-2.85703E-05-5.15280E-09-5.61496E-19-1.00667E-18
 -1      3755 9.52415E-05-2.85772E-05-2.85704E-05-5.00968E-09-4.36949E-20-2.36868E-18
 -1      3756 9.52407E-05-2.85764E-05-2.85704E-05-4.11482E-09-8.03771E-19-2.97160E-18
 -1      3757 9.33318E-05-3.23310E-05-2.59902E-05-1.89478E-05 3.09823E-18-1.31270E-18
 -1      3758 1.01314E-04-3.76234E-05-2.74324E-05-1.65821E-05 2.74454E-18-2.68750E-18
 -1      3759 8.44341E-05-2.07500E-05-2.73489E-05 8.78582E-06-6.94266E-19 3.44777E-20
 -1      3760 8.35435E-05-2.06888E-05-2.69555E-05 1.01818E-05-1.34367E-18-3.53570E-20
 -1      3761 8.32536E-05-1.97508E-05-2.71680E-05 6.98423E-06-5.53198E-19 5.30061E-19
 -1      3762 9.52410E-05-2.85765E-05-2.85705E-05-1.77352E-09 4.71706E-19 1.79015E-18
 -1      3763 9.52406E-05-2.85762E-05-2.85705E-05-2.34371E-09 4.80150E-19-1.38260E-18
 -1      3764 9.52416E-05-2.85771E-05-2.85705E-05-1.57077E-09 3.26909E-19 2.13440E-18
 -1      3765 6.34957E-05-1.28390E-05-2.16833E-05 6.99222E-06-1.06785E-18 2.88182E-18
 -1      3766 6.14038E-05-1.12201E-05-2.12724E-05-2.32607E-06 2.32246E-19 3.66675E-18
 -1      3767 6.64772E-05-1.35656E-05-2.25434E-05-4.86208E-06 7.75980E-19 2.99852E-18
 -1      3768 6.79920E-05-1.39578E-05-2.32215E-05 5.45258E-06-8.60930E-19 1.91646E-18
 -1      3769 7.21253E-05-1.71503E-05-2.36104E-05-1.12862E-05 1.23192E-18 1.33842E-18
 -1      3770 7.49683E-05-1.98146E-05-2.35870E-05-1.59659E-05 1.91167E-18 7.36376E-19
 -1      3771 8.02608E-05-2.21088E-05-2.48181E-05-1.46582E-05 1.58642E-18 4.49904E-20
 -1      3772 8.13152E-05-1.99956E-05-2.63663E-05 1.07805E-05-1.52351E-18 5.88433E-19
 -1      3773 8.04354E-05-2.03922E-05-2.57841E-05 1.28428E-05-1.72884E-18 8.56284E-19
 -1      3774 7.46245E-05-1.64224E-05-2.47213E-05 9.18648E-06-1.22325E-18 2.22294E-18
 -1      3775 7.96590E-05-1.83583E-05-2.61594E-05 8.24082E-06-8.14338E-19 6.50505E-19
 -1      3776 9.52409E-05-2.85765E-05-2.85705E-05-3.02506E-09 6.99209E-19-2.46519E-18
 -1      3777 9.52408E-05-2.85764E-05-2.85705E-05 2.98467E-09-1.55004E-19 5.00214E-19
 -1      3778 9.52412E-05-2.85768E-05-2.85704E-05 4.05328E-09 1.32486E-18 1.08431E-18
 -1      3779 6.90352E-05-1.42816E-05-2.35286E-05-2.61780E-06-9.89374E-20 2.39604E-18
 -1      3780 7.00507E-05-1.51735E-05-2.34539E-05-7.82304E-06 8.25074E-19 2.23588E-18
 -1      3781 7.48606E-05-1.74635E-05-2.44935E-05-8.82672E-06 6.60423E-19 1.02086E-18
 -1      3782 9.12417E-05-2.97643E-05-2.62320E-05-1.65280E-05 2.42513E-18-1.20255E-18
 -1      3783 9.52427E-05-2.85779E-05-2.85706E-05 4.17056E-10 6.05385E-19 8.32879E-19
 -1      3784 9.52427E-05-2.85779E-05-2.85706E-05-4.09205E-10 5.16496E-19 1.11530E-18
 -1      3785 9.52422E-05-2.85776E-05-2.85706E-05 2.13849E-09 8.65095E-20-6.29608E-19
 -1      3786 9.52425E-05-2.85778E-05-2.85706E-05 1.37465E-09 5.72451E-19 4.67397E-19
 -1      3787 9.52433E-05-2.85785E-05-2.85706E-05 9.91077E-10 9.48521E-19 2.64588E-19
 -1      3788 9.52419E-05-2.85773E-05-2.85705E-05-2.61109E-09 1.02175E-18-1.22864E-19
 -1      3789 9.52414E-05-2.85769E-05-2.85705E-05-3.33063E-09 3.60678E-19-1.96018E-18
 -1      3790 9.52418E-05-2.85773E-05-2.85705E-05-3.74099E-09 3.01044E-19-6.79327E-19
 -1      3791 8.95630E-05-2.30924E-05-2.85024E-05 2.71494E-06 2.14489E-19-8.93540E-20
 -1      3792 8.87979E-05-2.25610E-05-2.83955E-05 3.02159E-06 1.00262E-18-5.47966E-21
 -1      3793 9.13585E-05-2.76816E-05-2.72355E-05-1.16579E-05 1.82466E-18-1.60408E-18
 -1      3794 9.03141E-05-2.65062E-05-2.73600E-05-1.04072E-05 1.43522E-18-1.60485E-18
 -1      3795 9.04199E-05-2.59010E-05-2.76115E-05-9.02225E-06 1.36233E-18-1.65028E-18
 -1      3796 9.00669E-05-2.53125E-05-2.77695E-05-7.95466E-06 1.21248E-18-1.58206E-18
 -1      3797 8.82536E-05-2.48691E-05-2.71812E-05-9.83234E-06 1.59806E-18-1.71702E-18
 -1      3798 9.04027E-05-2.50684E-05-2.79718E-05-6.89066E-06 6.33175E-19-1.62568E-18
 -1      3799 9.03463E-05-2.48139E-05-2.81017E-05-6.04943E-06 3.48857E-19-1.82275E-18
 -1      3800 8.86820E-05-2.41557E-05-2.76645E-05-7.24671E-06 9.69157E-19-1.89975E-18
 -1      3801 9.07684E-05-2.48001E-05-2.82536E-05-5.25489E-06 2.20085E-19-1.69786E-18
 -1      3802 9.08836E-05-2.47638E-05-2.83515E-05-4.60035E-06-5.16367E-20-1.92941E-18
 -1      3803 8.94483E-05-2.40290E-05-2.80377E-05-5.36137E-06 2.17688E-19-2.00881E-18
 -1      3804 9.13205E-05-2.48872E-05-2.84595E-05-4.00791E-06-1.24306E-19-1.72928E-18
 -1      3805 9.15192E-05-2.49833E-05-2.85276E-05-3.49889E-06-2.53478E-19-1.23216E-18
 -1      3806 9.03037E-05-2.42389E-05-2.83097E-05-3.98008E-06 2.56200E-20-1.57122E-18
 -1      3807 9.19343E-05-2.51827E-05-2.86002E-05-3.05511E-06-3.82531E-19-8.70305E-19
 -1      3808 9.21628E-05-2.53516E-05-2.86435E-05-2.65777E-06-1.37404E-19-6.05587E-19
 -1      3809 9.11474E-05-2.46382E-05-2.84982E-05-2.96188E-06 7.96820E-20-9.19708E-19
 -1      3810 9.25375E-05-2.55853E-05-2.86888E-05-2.32366E-06 3.53454E-19-4.10383E-19
 -1      3811 9.27642E-05-2.57868E-05-2.87129E-05-2.01234E-06 6.80447E-19-2.38302E-19
 -1      3812 9.19273E-05-2.51293E-05-2.86215E-05-2.20592E-06 3.07983E-19-4.03402E-19
 -1      3813 9.30899E-05-2.60267E-05-2.87381E-05-1.75981E-06 1.72476E-19-2.31406E-19
 -1      3814 9.32973E-05-2.62343E-05-2.87481E-05-1.51542E-06-7.68411E-20-2.68160E-19
 -1      3815 9.26175E-05-2.56472E-05-2.86956E-05-1.64090E-06 4.29061E-19-4.41493E-19
 -1      3816 9.35721E-05-2.64625E-05-2.87590E-05-1.32419E-06 1.35606E-19-5.30485E-19
 -1      3817 9.37521E-05-2.66597E-05-2.87594E-05-1.13251E-06 1.08750E-19-4.19957E-19
 -1      3818 9.32083E-05-2.61497E-05-2.87341E-05-1.21643E-06-1.24547E-19-9.31620E-19
 -1      3819 9.39779E-05-2.68660E-05-2.87607E-05-9.87724E-07-9.97998E-20-4.62958E-19
 -1      3820 9.41280E-05-2.70435E-05-2.87549E-05-8.37921E-07 3.53338E-19-5.33579E-19
 -1      3821 9.37001E-05-2.66110E-05-2.87480E-05-8.96576E-07 9.61116E-20-1.47675E-18
 -1      3822 9.43092E-05-2.72230E-05-2.87501E-05-7.28586E-07 8.48653E-19-3.91310E-19
 -1      3823 9.44302E-05-2.73765E-05-2.87408E-05-6.12217E-07 1.18957E-18-4.63755E-19
 -1      3824 9.40994E-05-2.70178E-05-2.87456E-05-6.55369E-07 6.00340E-19-1.57136E-18
 -1      3825 9.45724E-05-2.75279E-05-2.87325E-05-5.30055E-07 4.65406E-19-6.33502E-19
 -1      3826 9.46673E-05-2.76566E-05-2.87216E-05-4.40405E-07 3.02478E-19-6.66186E-19
 -1      3827 9.44162E-05-2.73651E-05-2.87333E-05-4.73774E-07 8.61425E-19-3.76684E-19
 -1      3828 9.47765E-05-2.77809E-05-2.87117E-05-3.79106E-07 4.28228E-19-2.37859E-19
 -1      3829 9.48488E-05-2.78860E-05-2.87004E-05-3.10751E-07 3.30008E-19-1.57418E-20
 -1      3830 9.46620E-05-2.76537E-05-2.87156E-05-3.37612E-07 2.39869E-19-4.91945E-19
 -1      3831 9.49308E-05-2.79858E-05-2.86902E-05-2.65453E-07 6.94423E-20 1.47719E-19
 -1      3832 9.49845E-05-2.80695E-05-2.86794E-05-2.13971E-07 1.27395E-19-1.10419E-19
 -1      3833 9.48486E-05-2.78879E-05-2.86958E-05-2.36178E-07 4.16589E-19 5.16945E-20
 -1      3834 9.50446E-05-2.81479E-05-2.86696E-05-1.80903E-07-3.49540E-21 4.37362E-20
 -1      3835 9.50834E-05-2.82132E-05-2.86598E-05-1.42684E-07 5.86939E-19 1.27416E-19
 -1      3836 9.49870E-05-2.80739E-05-2.86759E-05-1.61290E-07 3.83150E-19 3.61674E-20
 -1      3837 9.51262E-05-2.82735E-05-2.86508E-05-1.18908E-07 6.16802E-19-6.25821E-19
 -1      3838 9.51533E-05-2.83233E-05-2.86423E-05-9.10083E-08 4.15281E-19-3.58547E-19
 -1      3839 9.50871E-05-2.82186E-05-2.86571E-05-1.06643E-07 3.43448E-19-5.43827E-19
 -1      3840 9.51830E-05-2.83687E-05-2.86344E-05-7.42343E-08-1.66477E-20-1.96060E-19
 -1      3841 9.52012E-05-2.84060E-05-2.86271E-05-5.42710E-08-1.85304E-19-2.23655E-19
 -1      3842 9.51574E-05-2.83288E-05-2.86403E-05-6.73516E-08-1.00721E-19-1.20825E-20
 -1      3843 9.52209E-05-2.84394E-05-2.86204E-05-4.27193E-08-2.94047E-19-8.90201E-19
 -1      3844 9.52325E-05-2.84666E-05-2.86144E-05-2.87779E-08-3.52562E-19-7.51078E-19
 -1      3845 9.52052E-05-2.84111E-05-2.86257E-05-3.96230E-08-5.26524E-19-1.38061E-18
 -1      3846 9.52449E-05-2.84906E-05-2.86088E-05-2.10712E-08-6.75657E-19-7.48332E-19
 -1      3847 9.52518E-05-2.85099E-05-2.86039E-05-1.16303E-08-1.02524E-18-1.04294E-18
 -1      3848 9.52362E-05-2.84711E-05-2.86134E-05-2.05155E-08-4.51970E-19-2.07605E-18
 -1      3849 9.52590E-05-2.85267E-05-2.85994E-05-6.71052E-09-1.43648E-18-3.30386E-19
 -1      3850 9.52625E-05-2.85401E-05-2.85955E-05-5.75381E-10-1.00249E-18-9.26758E-19
 -1      3851 9.52550E-05-2.85138E-05-2.86033E-05-7.75615E-09-9.26698E-19-1.01647E-18
 -1      3852 9.52661E-05-2.85514E-05-2.85919E-05 2.36270E-09-1.58900E-19-1.14670E-18
 -1      3853 9.52674E-05-2.85603E-05-2.85888E-05 6.11802E-09-2.71337E-19-1.35478E-19
 -1      3854 9.52652E-05-2.85433E-05-2.85951E-05 3.99822E-10-4.75026E-19-5.21662E-19
 -1      3855 9.52685E-05-2.85676E-05-2.85860E-05 7.68043E-09-7.88572E-19 2.73234E-19
 -1      3856 9.52683E-05-2.85732E-05-2.85837E-05 9.76335E-09-4.80077E-19 1.09565E-19
 -1      3857 9.52696E-05-2.85629E-05-2.85886E-05 5.28024E-09-1.31337E-19 2.06168E-19
 -1      3858 9.52680E-05-2.85776E-05-2.85815E-05 1.03999E-08-6.39047E-19 1.24609E-20
 -1      3859 9.52669E-05-2.85808E-05-2.85798E-05 1.13424E-08-2.08488E-19-5.53496E-19
 -1      3860 9.52701E-05-2.85752E-05-2.85836E-05 7.88461E-09-7.42970E-19-5.05300E-20
 -1      3861 9.52657E-05-2.85832E-05-2.85782E-05 1.13817E-08 3.55156E-20-1.05463E-18
 -1      3862 9.52642E-05-2.85848E-05-2.85769E-05 1.15766E-08 9.77034E-20-1.08546E-18
 -1      3863 9.52683E-05-2.85824E-05-2.85798E-05 8.95534E-09-7.15954E-19-3.86683E-20
 -1      3864 9.52624E-05-2.85858E-05-2.85757E-05 1.12541E-08-2.91531E-19-1.52405E-18
 -1      3865 9.52608E-05-2.85863E-05-2.85747E-05 1.09859E-08-1.49931E-19-1.68170E-18
 -1      3866 9.52653E-05-2.85860E-05-2.85769E-05 9.03516E-09-1.97259E-19-1.91921E-19
 -1      3867 9.52589E-05-2.85864E-05-2.85739E-05 1.04662E-08-3.18216E-20-1.28621E-18
 -1      3868 9.52572E-05-2.85862E-05-2.85732E-05 9.93597E-09 4.30136E-20-1.35967E-18
 -1      3869 9.52616E-05-2.85872E-05-2.85748E-05 8.51325E-09 1.55693E-19-4.68765E-19
 -1      3870 9.52553E-05-2.85858E-05-2.85726E-05 9.33085E-09 7.44260E-19-1.05900E-18
 -1      3871 9.52537E-05-2.85852E-05-2.85722E-05 8.67652E-09 6.70357E-19-1.15541E-18
 -1      3872 9.52578E-05-2.85869E-05-2.85733E-05 7.66216E-09 4.57044E-19-1.23963E-18
 -1      3873 9.52519E-05-2.85845E-05-2.85718E-05 8.05882E-09 2.78308E-19-8.95504E-19
 -1      3874 9.52505E-05-2.85837E-05-2.85715E-05 7.37124E-09-6.36243E-20-8.06452E-19
 -1      3875 9.52541E-05-2.85857E-05-2.85722E-05 6.66703E-09 6.54558E-19-1.92266E-18
 -1      3876 9.52490E-05-2.85828E-05-2.85712E-05 6.78734E-09 3.65614E-19 3.33497E-19
 -1      3877 9.52477E-05-2.85820E-05-2.85710E-05 6.12327E-09 1.53122E-18 1.29094E-18
 -1      3878 9.52508E-05-2.85840E-05-2.85715E-05 5.64991E-09 1.06192E-18 1.17494E-18
 -1      3879 9.52464E-05-2.85811E-05-2.85708E-05 5.58066E-09 1.64393E-18 2.12591E-18
 -1      3880 9.52453E-05-2.85802E-05-2.85707E-05 4.99160E-09 2.45059E-18 1.57471E-18
 -1      3881 9.52480E-05-2.85822E-05-2.85711E-05 4.67692E-09 1.75466E-18 2.15387E-18
 -1      3882 9.52442E-05-2.85794E-05-2.85706E-05 4.52013E-09 3.23182E-18 1.13646E-18
 -1      3883 9.52434E-05-2.85786E-05-2.85706E-05 3.98510E-09 3.18286E-18 9.55713E-19
 -1      3884 9.52455E-05-2.85804E-05-2.85708E-05 3.76325E-09 2.27704E-18 1.11868E-18
 -1      3885 8.77785E-05-2.19517E-05-2.82326E-05 3.22019E-06 8.78312E-19-3.51129E-19
 -1      3886 8.68018E-05-2.13634E-05-2.80558E-05 3.59040E-06 4.14949E-19-4.25671E-19
 -1      3887 8.77411E-05-2.18963E-05-2.81923E-05 2.16897E-06 5.86331E-19-4.35471E-19
 -1      3888 8.54750E-05-2.06807E-05-2.78002E-05 3.82918E-06 3.16577E-19-4.03734E-19
 -1      3889 8.42301E-05-2.00484E-05-2.75206E-05 4.31657E-06 2.11544E-19 2.53659E-19
 -1      3890 8.54424E-05-2.05679E-05-2.77661E-05 2.44262E-06 5.21038E-19-1.32958E-19
 -1      3891 9.52419E-05-2.85773E-05-2.85705E-05 3.38535E-09 1.07133E-18 2.26670E-19
 -1      3892 9.20280E-05-2.49675E-05-2.87489E-05 1.86953E-06-4.08063E-19-5.91355E-19
 -1      3893 9.15668E-05-2.45631E-05-2.87200E-05 2.10304E-06-7.75050E-19-1.06026E-18
 -1      3894 9.28612E-05-2.57068E-05-2.87873E-05 1.51305E-06 3.99315E-19-7.56678E-20
 -1      3895 9.25073E-05-2.53644E-05-2.87783E-05 1.71675E-06 1.59332E-19-3.48453E-19
 -1      3896 9.19825E-05-2.49507E-05-2.87168E-05 1.38807E-06-1.87237E-19-5.52161E-19
 -1      3897 9.35011E-05-2.63247E-05-2.87954E-05 1.20128E-06 4.87504E-19 7.50431E-19
 -1      3898 9.32320E-05-2.60397E-05-2.87984E-05 1.37609E-06 5.88643E-19 4.00430E-19
 -1      3899 9.28204E-05-2.56926E-05-2.87607E-05 1.14309E-06 1.75385E-19 1.77217E-19
 -1      3900 9.39884E-05-2.68332E-05-2.87851E-05 9.34827E-07 1.86222E-19 1.10325E-18
 -1      3901 9.37858E-05-2.65996E-05-2.87950E-05 1.08187E-06 3.00801E-19 1.04224E-18
 -1      3902 9.34670E-05-2.63131E-05-2.87740E-05 9.19295E-07 1.26779E-19 8.59835E-19
 -1      3903 9.43557E-05-2.72455E-05-2.87649E-05 7.12444E-07 1.11670E-19 1.13127E-18
 -1      3904 9.42048E-05-2.70569E-05-2.87781E-05 8.33563E-07 1.74629E-19 8.88770E-19
 -1      3905 9.39616E-05-2.68243E-05-2.87685E-05 7.22182E-07 5.69233E-19 5.90624E-19
 -1      3906 9.46294E-05-2.75753E-05-2.87402E-05 5.31096E-07 4.26003E-19 1.51914E-18
 -1      3907 9.45184E-05-2.74250E-05-2.87544E-05 6.28804E-07 7.11692E-19 1.45505E-18
 -1      3908 9.43359E-05-2.72393E-05-2.87523E-05 5.54173E-07-7.71534E-20 8.34142E-19
 -1      3909 9.48307E-05-2.78353E-05-2.87144E-05 3.86477E-07-3.31968E-19 1.80205E-18
 -1      3910 9.47501E-05-2.77172E-05-2.87283E-05 4.63706E-07 3.36537E-19 1.67152E-18
 -1      3911 9.46158E-05-2.75715E-05-2.87308E-05 4.15110E-07 7.07188E-20 2.01716E-18
 -1      3912 9.49764E-05-2.80375E-05-2.86897E-05 2.73632E-07-3.26612E-19 1.28116E-18
 -1      3913 9.49189E-05-2.79460E-05-2.87024E-05 3.33451E-07-2.07046E-19 1.60044E-18
 -1      3914 9.48221E-05-2.78337E-05-2.87075E-05 3.03035E-07-7.19775E-20 1.59348E-18
 -1      3915 9.50799E-05-2.81925E-05-2.86672E-05 1.87465E-07-3.29272E-19 1.17140E-18
 -1      3916 9.50396E-05-2.81226E-05-2.86785E-05 2.32860E-07-6.16449E-19 1.43626E-18
 -1      3917 9.49717E-05-2.80376E-05-2.86848E-05 2.14927E-07-1.65561E-19 6.73844E-19
 -1      3918 9.51518E-05-2.83096E-05-2.86475E-05 1.23120E-07-9.46001E-19 1.58726E-18
 -1      3919 9.51243E-05-2.82570E-05-2.86572E-05 1.56839E-07-1.55710E-19 1.54566E-18
 -1      3920 9.50781E-05-2.81938E-05-2.86638E-05 1.47301E-07-8.73669E-19 5.18476E-19
 -1      3921 9.52002E-05-2.83965E-05-2.86308E-05 7.62004E-08 5.74794E-19 6.93205E-19
 -1      3922 9.51821E-05-2.83576E-05-2.86389E-05 1.00673E-07-2.30542E-19 1.52599E-18
 -1      3923 9.51519E-05-2.83116E-05-2.86453E-05 9.66285E-08-4.06155E-19 1.15028E-18
 -1      3924 9.52316E-05-2.84598E-05-2.86169E-05 4.28903E-08 7.52929E-19 4.07097E-19
 -1      3925 9.52202E-05-2.84316E-05-2.86235E-05 6.01888E-08 6.89854E-19 9.32888E-19
 -1      3926 9.52016E-05-2.83989E-05-2.86293E-05 5.96064E-08 1.88870E-19 6.74587E-19
 -1      3927 9.52508E-05-2.85050E-05-2.86056E-05 1.99797E-08 1.21731E-18 5.29336E-19
 -1      3928 9.52441E-05-2.84850E-05-2.86109E-05 3.18260E-08 7.66284E-19 4.93404E-19
 -1      3929 9.52337E-05-2.84624E-05-2.86160E-05 3.33028E-08 6.41690E-19 1.22048E-18
 -1      3930 9.52614E-05-2.85364E-05-2.85966E-05 4.84291E-09 8.64479E-19 3.96329E-19
 -1      3931 9.52580E-05-2.85226E-05-2.86008E-05 1.26322E-08 1.67930E-18 8.52907E-19
 -1      3932 9.52532E-05-2.85076E-05-2.86051E-05 1.52187E-08 1.02812E-18 1.04951E-18
 -1      3933 9.52662E-05-2.85575E-05-2.85895E-05-4.61666E-09 4.08780E-19-3.86950E-19
 -1      3934 9.52650E-05-2.85483E-05-2.85928E-05 2.21723E-10 1.81470E-19-4.78207E-19
 -1      3935 9.52639E-05-2.85388E-05-2.85964E-05 3.29144E-09 1.11247E-18 1.86317E-18
 -1      3936 9.52673E-05-2.85711E-05-2.85841E-05-1.00365E-08 3.76786E-19-3.97195E-20
 -1      3937 9.52674E-05-2.85652E-05-2.85866E-05-7.29009E-09 7.36373E-19 3.20809E-19
 -1      3938 9.52686E-05-2.85596E-05-2.85895E-05-4.13557E-09-2.23493E-19 7.05427E-19
 -1      3939 9.52660E-05-2.85793E-05-2.85800E-05-1.26685E-08 5.51791E-19 1.09663E-18
 -1      3940 9.52669E-05-2.85758E-05-2.85818E-05-1.13603E-08 5.50554E-19 5.21361E-19
 -1      3941 9.52694E-05-2.85729E-05-2.85842E-05-8.36084E-09 4.40222E-19 1.74695E-18
 -1      3942 9.52633E-05-2.85837E-05-2.85770E-05-1.34491E-08 7.98452E-19 1.43658E-19
 -1      3943 9.52647E-05-2.85819E-05-2.85783E-05-1.30921E-08 1.30526E-18 1.33674E-18
 -1      3944 9.52678E-05-2.85808E-05-2.85802E-05-1.03790E-08 1.03047E-18 1.81505E-18
 -1      3945 9.52600E-05-2.85855E-05-2.85748E-05-1.30635E-08 3.56592E-20-5.33751E-19
 -1      3946 9.52616E-05-2.85848E-05-2.85757E-05-1.33024E-08 8.38218E-20-3.03534E-19
 -1      3947 9.52649E-05-2.85850E-05-2.85771E-05-1.09350E-08 7.07468E-19 1.45621E-18
 -1      3948 9.52566E-05-2.85857E-05-2.85732E-05-1.20002E-08-3.42024E-19 5.70821E-19
 -1      3949 9.52582E-05-2.85857E-05-2.85739E-05-1.25826E-08-8.24203E-19-2.47308E-19
 -1      3950 9.52613E-05-2.85866E-05-2.85749E-05-1.05735E-08-6.61295E-19 1.10618E-18
 -1      3951 9.52533E-05-2.85849E-05-2.85721E-05-1.05975E-08 1.96657E-19 1.64573E-18
 -1      3952 9.52547E-05-2.85853E-05-2.85726E-05-1.13491E-08 8.16249E-20 1.16244E-18
 -1      3953 9.52576E-05-2.85865E-05-2.85734E-05-9.68271E-09-2.70479E-19 1.09440E-18
 -1      3954 9.52502E-05-2.85835E-05-2.85714E-05-9.08099E-09 2.45390E-19 1.41999E-18
 -1      3955 9.52515E-05-2.85842E-05-2.85717E-05-9.88600E-09 6.24700E-19 2.23632E-18
 -1      3956 9.52541E-05-2.85855E-05-2.85723E-05-8.53086E-09-1.71481E-19 1.93307E-18
 -1      3957 9.52475E-05-2.85819E-05-2.85710E-05-7.59376E-09 2.73903E-19 4.58774E-19
 -1      3958 9.52487E-05-2.85827E-05-2.85711E-05-8.37925E-09 7.43159E-19 1.56732E-18
 -1      3959 9.52508E-05-2.85840E-05-2.85715E-05-7.29624E-09 7.46450E-19 1.37770E-18
 -1      3960 9.52452E-05-2.85802E-05-2.85707E-05-6.22038E-09 5.89800E-19-1.64970E-18
 -1      3961 9.52462E-05-2.85810E-05-2.85708E-05-6.94318E-09 5.66414E-19-3.10952E-19
 -1      3962 9.52480E-05-2.85822E-05-2.85711E-05-6.09222E-09 1.24055E-18 5.99804E-19
 -1      3963 9.52433E-05-2.85786E-05-2.85705E-05-5.00783E-09 4.25734E-19-1.87630E-18
 -1      3964 9.52441E-05-2.85794E-05-2.85706E-05-5.63872E-09-7.80201E-20-1.89239E-18
 -1      3965 9.52455E-05-2.85805E-05-2.85708E-05-4.98559E-09 3.43726E-19 3.35987E-19
 -1      3966 8.24585E-05-1.92660E-05-2.71267E-05 4.65143E-06-4.41375E-19 6.15292E-19
 -1      3967 8.08382E-05-1.86479E-05-2.66860E-05 5.38282E-06-5.88362E-19 6.70820E-19
 -1      3968 8.24303E-05-1.90515E-05-2.71078E-05 2.77515E-06 2.26697E-19 5.87565E-19
 -1      3969 8.95151E-05-2.78526E-05-2.63873E-05-1.48372E-05 2.22561E-18-1.29783E-18
 -1      3970 8.28765E-05-2.26499E-05-2.58618E-05-1.20122E-05 1.53476E-18-8.54167E-19
 -1      3971 8.61150E-05-2.53554E-05-2.60512E-05-1.42640E-05 1.84604E-18-1.29798E-18
 -1      3972 9.52425E-05-2.85778E-05-2.85706E-05-1.15529E-09 1.80152E-19 2.08037E-18
 -1      3973 9.52422E-05-2.85776E-05-2.85706E-05-1.93585E-09 4.27216E-19 1.86106E-18
 -1      3974 9.52428E-05-2.85781E-05-2.85706E-05-2.21042E-09 6.93829E-19 1.22005E-18
 -1      3975 9.52433E-05-2.85785E-05-2.85706E-05-7.60661E-10 4.55415E-19 9.41271E-19
 -1      3976 9.09504E-05-2.40977E-05-2.86624E-05 2.26948E-06-3.12158E-19-7.08797E-19
 -1      3977 9.03542E-05-2.36291E-05-2.86025E-05 2.53535E-06 1.13052E-19-5.61263E-20
 -1      3978 8.95190E-05-2.30615E-05-2.84620E-05 1.90758E-06 3.73728E-19 5.78872E-19
 -1      3979 9.09034E-05-2.40766E-05-2.86253E-05 1.64590E-06-2.39403E-19-4.08438E-19
 -1      3980 7.17922E-05-1.53131E-05-2.42840E-05 5.97231E-06-8.81781E-19 1.75192E-18
 -1      3981 6.97098E-05-1.39500E-05-2.37456E-05 1.29736E-06-6.01873E-19 1.73304E-18
 -1      3982 7.27555E-05-1.53684E-05-2.45352E-05-1.43544E-06-4.48916E-19 1.55873E-18
 -1      3983 7.48853E-05-1.63702E-05-2.51215E-05 5.70607E-06-4.61540E-19 1.50030E-18
 -1      3984 9.52438E-05-2.85789E-05-2.85706E-05 2.66064E-09 1.73670E-18 3.89875E-19
 -1      3985 9.52428E-05-2.85781E-05-2.85706E-05 3.26760E-09 1.57560E-18 4.59736E-19
 -1      3986 9.52423E-05-2.85777E-05-2.85705E-05-4.10536E-09-4.48825E-19-3.10198E-19
 -1      3987 9.52427E-05-2.85782E-05-2.85705E-05-4.56899E-09 1.85600E-19-9.55215E-19
 -1      3988 9.52439E-05-2.85792E-05-2.85706E-05-4.03641E-09 4.10890E-19 8.26809E-19
 -1      3989 9.52429E-05-2.85782E-05-2.85706E-05-3.25972E-09 5.67232E-19 6.32891E-19
 -1      3990 9.52443E-05-2.85793E-05-2.85707E-05-5.21862E-10 9.71158E-19 1.38696E-18
 -1      3991 9.52441E-05-2.85792E-05-2.85707E-05-1.29715E-09 5.29858E-19 1.33128E-18
 -1      3992 7.95283E-05-2.00498E-05-2.54936E-05-1.01435E-05 1.33246E-18-1.41976E-19
 -1      3993 8.49347E-05-2.28015E-05-2.65706E-05-9.89126E-06 1.60731E-18-1.51202E-18
 -1      3994 9.52441E-05-2.85792E-05-2.85707E-05 1.57386E-09 1.57750E-18 5.18517E-19
 -1      3995 9.52443E-05-2.85793E-05-2.85707E-05 5.73970E-10 1.84122E-18-1.14763E-19
 -1      3996 9.52451E-05-2.85800E-05-2.85708E-05 5.17263E-11 2.01143E-18 1.34165E-18
 -1      3997 9.52448E-05-2.85798E-05-2.85707E-05 2.28557E-09 2.32513E-18 1.46655E-20
 -1      3998 7.91756E-05-1.79704E-05-2.62717E-05 5.46543E-06-4.07010E-19 6.94932E-19
 -1      3999 7.69844E-05-1.71851E-05-2.56850E-05 5.68592E-06-4.13125E-19 1.10345E-18
 -1      4000 7.53020E-05-1.60711E-05-2.53132E-05 2.41191E-06-2.76703E-19 1.40941E-18
 -1      4001 7.89914E-05-1.74833E-05-2.62762E-05 2.86688E-06-5.51313E-19 6.70129E-19
 -1      4002 7.71313E-05-1.81416E-05-2.53431E-05-6.93404E-06 6.94665E-19 2.27004E-19
 -1      4003 8.50337E-05-2.24348E-05-2.68608E-05-8.33533E-06 1.52880E-18-1.40298E-18
 -1      4004 8.62836E-05-2.26120E-05-2.72513E-05-7.00279E-06 1.33597E-18-1.82326E-18
 -1      4005 8.66252E-05-2.25524E-05-2.74829E-05-5.91460E-06 6.83488E-19-1.77507E-18
 -1      4006 8.29826E-05-2.07337E-05-2.66681E-05-6.81778E-06 1.18381E-18-1.37145E-18
 -1      4007 8.76587E-05-2.28332E-05-2.77594E-05-4.99051E-06 3.18898E-19-1.67295E-18
 -1      4008 8.80824E-05-2.29547E-05-2.79307E-05-4.21167E-06 2.47355E-19-1.44676E-18
 -1      4009 8.53169E-05-2.14096E-05-2.73759E-05-4.64042E-06 7.36046E-19-9.44170E-19
 -1      4010 8.89471E-05-2.32935E-05-2.81238E-05-3.57257E-06 2.85737E-19-1.37595E-18
 -1      4011 8.93862E-05-2.35177E-05-2.82449E-05-3.00903E-06 4.12571E-19-1.10046E-18
 -1      4012 8.72544E-05-2.21875E-05-2.78702E-05-3.14989E-06 4.40448E-19-1.20317E-18
 -1      4013 9.01094E-05-2.38795E-05-2.83764E-05-2.56571E-06 2.70424E-19-9.03771E-19
 -1      4014 9.05268E-05-2.41549E-05-2.84580E-05-2.15431E-06 2.09300E-19-9.17639E-19
 -1      4015 8.88619E-05-2.30038E-05-2.82101E-05-2.13212E-06 6.58633E-19-1.01728E-18
 -1      4016 9.11291E-05-2.45152E-05-2.85443E-05-1.84654E-06 1.47320E-19-7.78275E-19
 -1      4017 9.15058E-05-2.48071E-05-2.85958E-05-1.54367E-06 5.42926E-19-5.14762E-19
 -1      4018 9.01965E-05-2.38119E-05-2.84375E-05-1.43763E-06 3.76251E-19-1.08106E-18
 -1      4019 9.20033E-05-2.51489E-05-2.86493E-05-1.33025E-06 5.51443E-20-1.11796E-18
 -1      4020 9.23309E-05-2.54342E-05-2.86788E-05-1.10562E-06-2.67214E-19-1.37572E-18
 -1      4021 9.12999E-05-2.45795E-05-2.85833E-05-9.64965E-07-3.53577E-20-1.03592E-18
 -1      4022 9.27373E-05-2.57461E-05-2.87090E-05-9.57956E-07-2.28794E-19-1.79888E-18
 -1      4023 9.30137E-05-2.60103E-05-2.87229E-05-7.90362E-07-2.87711E-19-1.80718E-18
 -1      4024 9.22046E-05-2.52842E-05-2.86708E-05-6.44614E-07-4.12376E-19-1.65971E-18
 -1      4025 9.33413E-05-2.62860E-05-2.87370E-05-6.88476E-07-2.35672E-19-2.15682E-18
 -1      4026 9.35684E-05-2.65211E-05-2.87403E-05-5.62936E-07-6.33093E-20-1.83344E-18
 -1      4027 9.29380E-05-2.59124E-05-2.87176E-05-4.28547E-07-5.24025E-19-1.59878E-18
 -1      4028 9.38287E-05-2.67583E-05-2.87438E-05-4.92831E-07 5.68556E-19-1.87510E-18
 -1      4029 9.40110E-05-2.69608E-05-2.87404E-05-3.98622E-07 7.43717E-19-1.38454E-18
 -1      4030 9.35245E-05-2.64579E-05-2.87367E-05-2.83507E-07-1.55084E-19-1.58080E-18
 -1      4031 9.42145E-05-2.71600E-05-2.87372E-05-3.50523E-07 6.36561E-19-1.80701E-18
 -1      4032 9.43575E-05-2.73298E-05-2.87297E-05-2.79860E-07 5.84909E-19-1.55568E-18
 -1      4033 9.39866E-05-2.69207E-05-2.87378E-05-1.86547E-07 2.61484E-19-1.77198E-18
 -1      4034 9.45140E-05-2.74935E-05-2.87227E-05-2.46964E-07 3.50791E-19-1.80732E-18
 -1      4035 9.46238E-05-2.76326E-05-2.87133E-05-1.94119E-07 2.09665E-19-1.51344E-18
 -1      4036 9.43450E-05-2.73048E-05-2.87279E-05-1.21939E-07 4.48118E-19-2.90233E-18
 -1      4037 9.47420E-05-2.77644E-05-2.87043E-05-1.71709E-07 4.01657E-19-1.83387E-18
 -1      4038 9.48244E-05-2.78759E-05-2.86943E-05-1.32404E-07 3.34458E-19-1.49915E-18
 -1      4039 9.46182E-05-2.76175E-05-2.87119E-05-7.89909E-08 1.34064E-19-2.98862E-18
 -1      4040 9.49119E-05-2.79801E-05-2.86847E-05-1.17222E-07 4.64988E-19-1.45410E-18
 -1      4041 9.49722E-05-2.80677E-05-2.86750E-05-8.82204E-08 4.84915E-19-9.18008E-19
 -1      4042 9.48227E-05-2.78671E-05-2.86933E-05-5.04982E-08 1.39108E-19-2.75153E-18
 -1      4043 9.50356E-05-2.81484E-05-2.86656E-05-7.80197E-08 4.17281E-19-1.31604E-18
 -1      4044 9.50787E-05-2.82158E-05-2.86567E-05-5.68507E-08 6.50237E-21-1.59563E-18
 -1      4045 9.49727E-05-2.80629E-05-2.86743E-05-3.16362E-08 3.66699E-19-2.74152E-18
 -1      4046 9.51235E-05-2.82773E-05-2.86481E-05-5.00798E-08-2.38920E-19-1.00855E-18
 -1      4047 9.51533E-05-2.83282E-05-2.86401E-05-3.48427E-08-2.64573E-19-9.82614E-19
 -1      4048 9.50802E-05-2.82136E-05-2.86562E-05-1.91921E-08 1.11482E-19-2.24897E-18
 -1      4049 9.51839E-05-2.83740E-05-2.86326E-05-3.04303E-08-6.37066E-19-7.39878E-19
 -1      4050 9.52037E-05-2.84116E-05-2.86257E-05-1.96570E-08-4.70004E-19-1.29929E-18
 -1      4051 9.51551E-05-2.83274E-05-2.86399E-05-1.10314E-08-2.66284E-19-1.22609E-18
 -1      4052 9.52239E-05-2.84451E-05-2.86192E-05-1.68607E-08-5.19272E-19-1.35730E-18
 -1      4053 9.52364E-05-2.84722E-05-2.86136E-05-9.41639E-09-7.41914E-19-1.76031E-18
 -1      4054 9.52056E-05-2.84118E-05-2.86256E-05-5.73575E-09-5.94313E-19-1.72092E-18
 -1      4055 9.52489E-05-2.84961E-05-2.86081E-05-7.72041E-09-4.39513E-19-1.12948E-18
 -1      4056 9.52561E-05-2.85152E-05-2.86035E-05-2.73008E-09-5.58683E-19-8.35630E-19
 -1      4057 9.52381E-05-2.84729E-05-2.86135E-05-2.36006E-09-4.10434E-19-1.27648E-18
 -1      4058 9.52633E-05-2.85317E-05-2.85991E-05-1.77511E-09-4.24302E-19-2.01379E-19
 -1      4059 9.52669E-05-2.85447E-05-2.85954E-05 1.43259E-09 6.75212E-20-2.00420E-19
 -1      4060 9.52576E-05-2.85160E-05-2.86035E-05-2.71110E-10-2.09972E-19-9.08060E-19
 -1      4061 9.52703E-05-2.85557E-05-2.85918E-05 1.89705E-09 3.61421E-19-9.32269E-21
 -1      4062 9.52714E-05-2.85642E-05-2.85889E-05 3.83321E-09 2.35596E-19 8.05883E-19
 -1      4063 9.52681E-05-2.85456E-05-2.85954E-05 9.58176E-10 3.00624E-19 1.14500E-19
 -1      4064 9.52724E-05-2.85712E-05-2.85861E-05 3.98155E-09-2.92142E-19 8.02069E-19
 -1      4065 9.52720E-05-2.85764E-05-2.85838E-05 5.03134E-09-6.72447E-19 1.05666E-18
 -1      4066 9.52724E-05-2.85651E-05-2.85890E-05 1.61788E-09 2.91364E-19 7.73062E-19
 -1      4067 9.52714E-05-2.85805E-05-2.85817E-05 4.98429E-09-4.28472E-19 1.82754E-18
 -1      4068 9.52701E-05-2.85834E-05-2.85800E-05 5.43432E-09 2.88891E-20 1.59230E-18
 -1      4069 9.52728E-05-2.85772E-05-2.85839E-05 1.90618E-09-2.34965E-19 1.27025E-18
 -1      4070 9.52686E-05-2.85855E-05-2.85784E-05 5.27462E-09-6.16960E-19 2.19884E-18
 -1      4071 9.52668E-05-2.85869E-05-2.85771E-05 5.33490E-09-1.50428E-19 2.01103E-18
 -1      4072 9.52707E-05-2.85841E-05-2.85801E-05 1.95888E-09 4.86036E-19 1.29740E-18
 -1      4073 9.52648E-05-2.85876E-05-2.85759E-05 5.11835E-09-3.70393E-19 2.23670E-18
 -1      4074 9.52629E-05-2.85879E-05-2.85750E-05 4.93990E-09-9.44946E-20 2.07452E-18
 -1      4075 9.52673E-05-2.85875E-05-2.85772E-05 1.86894E-09-2.50707E-19 2.17591E-18
 -1      4076 9.52608E-05-2.85878E-05-2.85741E-05 4.70317E-09-9.39957E-20 1.37589E-18
 -1      4077 9.52589E-05-2.85875E-05-2.85734E-05 4.39208E-09-2.93876E-19 1.19895E-18
 -1      4078 9.52633E-05-2.85884E-05-2.85750E-05 1.69952E-09-8.46160E-19 2.59396E-18
 -1      4079 9.52568E-05-2.85869E-05-2.85728E-05 4.15836E-09 3.69553E-19 4.74486E-19
 -1      4080 9.52551E-05-2.85861E-05-2.85724E-05 3.78695E-09 1.14309E-18 8.80884E-19
 -1      4081 9.52592E-05-2.85879E-05-2.85735E-05 1.49298E-09-4.42887E-19 2.76740E-18
 -1      4082 9.52532E-05-2.85853E-05-2.85719E-05 3.56927E-09 1.49999E-18 8.66411E-19
 -1      4083 9.52516E-05-2.85844E-05-2.85716E-05 3.18675E-09 1.84142E-18 1.92579E-18
 -1      4084 9.52553E-05-2.85865E-05-2.85724E-05 1.27723E-09 1.19075E-18 1.94970E-18
 -1      4085 9.52499E-05-2.85834E-05-2.85713E-05 2.99646E-09 1.59153E-18 1.32320E-18
 -1      4086 9.52485E-05-2.85825E-05-2.85711E-05 2.63145E-09 1.21414E-18 1.18354E-18
 -1      4087 9.52517E-05-2.85846E-05-2.85717E-05 1.06767E-09 1.78922E-18 1.43695E-18
 -1      4088 9.52460E-05-2.85807E-05-2.85708E-05 2.62298E-09 1.67780E-18 1.24970E-18
 -1      4089 8.79499E-05-2.21506E-05-2.82111E-05 1.08807E-06 2.72743E-19-5.66153E-20
 -1      4090 8.69230E-05-2.15421E-05-2.80401E-05 1.15471E-06 6.78092E-19-3.51201E-19
 -1      4091 8.57582E-05-2.08876E-05-2.78179E-05 1.01550E-06 5.51349E-19-2.41022E-19
 -1      4092 8.44188E-05-2.01945E-05-2.75525E-05 1.07013E-06 6.61394E-19-2.11671E-20
 -1      4093 8.62527E-05-2.11897E-05-2.78578E-05-1.64479E-07 5.82679E-19-1.79308E-19
 -1      4094 9.34852E-05-2.63861E-05-2.87602E-05 6.11668E-07 2.47166E-20 4.97595E-19
 -1      4095 9.31983E-05-2.61039E-05-2.87582E-05 7.03417E-07-9.19929E-20 4.42475E-19
 -1      4096 9.28508E-05-2.57862E-05-2.87463E-05 7.45200E-07-1.60148E-19 2.40256E-19
 -1      4097 9.24774E-05-2.54478E-05-2.87320E-05 8.44102E-07 2.40994E-20-1.76477E-19
 -1      4098 9.29277E-05-2.58633E-05-2.87345E-05 4.13324E-07-2.82183E-19 1.63051E-19
 -1      4099 9.20332E-05-2.50712E-05-2.87034E-05 8.77546E-07-2.72927E-20-3.38537E-19
 -1      4100 9.15510E-05-2.46715E-05-2.86697E-05 9.78404E-07-4.17293E-19-5.02630E-19
 -1      4101 9.21431E-05-2.51723E-05-2.86923E-05 4.48452E-07-2.14887E-19-6.52374E-19
 -1      4102 9.39729E-05-2.68816E-05-2.87562E-05 4.86974E-07 3.83980E-19 6.59188E-19
 -1      4103 9.37545E-05-2.66498E-05-2.87616E-05 5.68372E-07 3.99266E-19 7.13768E-19
 -1      4104 9.35397E-05-2.64452E-05-2.87491E-05 3.57698E-07-1.54716E-19 2.84685E-19
 -1      4105 9.43437E-05-2.72846E-05-2.87418E-05 3.76765E-07-4.59882E-19 1.96925E-18
 -1      4106 9.41792E-05-2.70970E-05-2.87511E-05 4.46363E-07 1.61503E-20 1.64934E-18
 -1      4107 9.40120E-05-2.69273E-05-2.87463E-05 2.95201E-07-3.67934E-19 1.60162E-18
 -1      4108 9.46217E-05-2.76075E-05-2.87221E-05 2.83415E-07-2.43571E-19 2.08080E-18
 -1      4109 9.44995E-05-2.74579E-05-2.87332E-05 3.41078E-07-1.61541E-19 1.88683E-18
 -1      4110 9.43721E-05-2.73202E-05-2.87333E-05 2.34232E-07-4.25152E-19 1.94812E-18
 -1      4111 9.48272E-05-2.78622E-05-2.87006E-05 2.07068E-07 1.01268E-19 1.77699E-18
 -1      4112 9.47378E-05-2.77448E-05-2.87120E-05 2.53534E-07-4.73916E-21 2.01266E-18
 -1      4113 9.46427E-05-2.76354E-05-2.87151E-05 1.79422E-07 1.50111E-20 1.45750E-18
 -1      4114 9.49764E-05-2.80603E-05-2.86793E-05 1.46507E-07 1.15274E-19 1.12843E-18
 -1      4115 9.49121E-05-2.79694E-05-2.86902E-05 1.83010E-07 4.12962E-19 1.43103E-18
 -1      4116 9.48428E-05-2.78842E-05-2.86949E-05 1.32835E-07-2.05895E-20 1.55516E-18
 -1      4117 9.50824E-05-2.82118E-05-2.86596E-05 9.97987E-08-8.44790E-19 5.17252E-19
 -1      4118 9.50372E-05-2.81425E-05-2.86694E-05 1.27788E-07-3.88310E-19 4.55943E-19
 -1      4119 9.49880E-05-2.80776E-05-2.86748E-05 9.49063E-08 1.14080E-19 6.99674E-19
 -1      4120 9.51560E-05-2.83258E-05-2.86420E-05 6.47432E-08-4.72753E-19-4.41879E-21
 -1      4121 9.51250E-05-2.82739E-05-2.86506E-05 8.56916E-08-8.81288E-19 5.96884E-20
 -1      4122 9.50912E-05-2.82254E-05-2.86560E-05 6.51193E-08-1.47215E-19-6.75389E-19
 -1      4123 9.52053E-05-2.84100E-05-2.86269E-05 3.91608E-08-7.65793E-20 7.22878E-19
 -1      4124 9.51848E-05-2.83719E-05-2.86342E-05 5.44480E-08-1.04826E-19 2.17933E-19
 -1      4125 9.51625E-05-2.83364E-05-2.86393E-05 4.24760E-08-2.53040E-19-9.98733E-20
 -1      4126 9.52370E-05-2.84710E-05-2.86142E-05 2.10558E-08 4.73143E-19 7.53039E-19
 -1      4127 9.52241E-05-2.84435E-05-2.86203E-05 3.19040E-08 2.95531E-19 1.16135E-18
 -1      4128 9.52102E-05-2.84183E-05-2.86248E-05 2.58004E-08-4.31902E-20 1.67243E-19
 -1      4129 9.52561E-05-2.85141E-05-2.86038E-05 8.69627E-09 9.06063E-19 1.35901E-18
 -1      4130 9.52485E-05-2.84948E-05-2.86087E-05 1.61451E-08 6.45774E-19 1.04265E-18
 -1      4131 9.52406E-05-2.84773E-05-2.86127E-05 1.39218E-08 5.75839E-19 1.33045E-18
 -1      4132 9.52663E-05-2.85437E-05-2.85955E-05 6.37735E-10 6.49920E-19 2.14328E-18
 -1      4133 9.52625E-05-2.85306E-05-2.85994E-05 5.54382E-09 9.65617E-19 1.71837E-18
 -1      4134 9.52587E-05-2.85189E-05-2.86027E-05 5.77500E-09 6.48463E-19 8.78513E-19
 -1      4135 9.52706E-05-2.85633E-05-2.85889E-05-4.28609E-09-7.00055E-19 1.35133E-18
 -1      4136 9.52693E-05-2.85547E-05-2.85919E-05-1.23613E-09 8.57694E-20 1.68407E-18
 -1      4137 9.52682E-05-2.85473E-05-2.85947E-05 4.45747E-10 1.46002E-19 2.77126E-18
 -1      4138 9.52711E-05-2.85756E-05-2.85838E-05-6.99128E-09-4.32712E-19 2.03235E-18
 -1      4139 9.52713E-05-2.85703E-05-2.85861E-05-5.26018E-09-3.58555E-19 1.60634E-18
 -1      4140 9.52719E-05-2.85659E-05-2.85883E-05-2.81814E-09-3.73461E-19 1.37862E-18
 -1      4141 9.52692E-05-2.85827E-05-2.85799E-05-8.17927E-09 1.58245E-18 2.26985E-18
 -1      4142 9.52703E-05-2.85797E-05-2.85817E-05-7.35612E-09 6.84067E-19 2.16426E-18
 -1      4143 9.52719E-05-2.85775E-05-2.85834E-05-4.61461E-09-1.20124E-19 1.73217E-18
 -1      4144 9.52660E-05-2.85863E-05-2.85770E-05-8.37403E-09 4.02685E-19 2.34216E-18
 -1      4145 9.52676E-05-2.85849E-05-2.85783E-05-8.15159E-09 1.19475E-18 2.79133E-18
 -1      4146 9.52697E-05-2.85840E-05-2.85797E-05-5.40518E-09 1.07472E-18 2.56571E-18
 -1      4147 9.52622E-05-2.85874E-05-2.85749E-05-7.95716E-09-6.97598E-19 1.72700E-18
 -1      4148 9.52640E-05-2.85871E-05-2.85758E-05-8.11103E-09-2.66666E-19 2.23301E-18
 -1      4149 9.52663E-05-2.85872E-05-2.85768E-05-5.53636E-09-9.03433E-20 2.48673E-18
 -1      4150 9.52583E-05-2.85871E-05-2.85733E-05-7.19886E-09-4.73527E-19 2.06811E-18
 -1      4151 9.52601E-05-2.85874E-05-2.85740E-05-7.56937E-09-3.63382E-19 2.34637E-18
 -1      4152 9.52623E-05-2.85880E-05-2.85748E-05-5.26133E-09-5.97880E-19 2.59741E-18
 -1      4153 9.52545E-05-2.85858E-05-2.85723E-05-6.28417E-09 3.99048E-19 1.94562E-18
 -1      4154 9.52562E-05-2.85865E-05-2.85727E-05-6.76125E-09-5.61029E-19 1.73028E-18
 -1      4155 9.52583E-05-2.85874E-05-2.85733E-05-4.75988E-09-6.56946E-20 3.03095E-18
 -1      4156 9.52511E-05-2.85841E-05-2.85716E-05-5.33440E-09 1.61562E-19 2.13743E-18
 -1      4157 9.52527E-05-2.85850E-05-2.85719E-05-5.84540E-09 7.07166E-19 1.69588E-18
 -1      4158 9.52545E-05-2.85860E-05-2.85723E-05-4.15632E-09 5.63804E-19 2.79102E-18
 -1      4159 9.52482E-05-2.85823E-05-2.85711E-05-4.41975E-09 1.56004E-18 1.65585E-18
 -1      4160 9.52495E-05-2.85832E-05-2.85713E-05-4.92179E-09 1.16834E-18 1.41439E-18
 -1      4161 9.52511E-05-2.85842E-05-2.85716E-05-3.53710E-09 1.07122E-18 2.45731E-18
 -1      4162 9.52457E-05-2.85805E-05-2.85708E-05-3.60160E-09 9.82365E-19 1.48702E-18
 -1      4163 9.52468E-05-2.85813E-05-2.85709E-05-4.06004E-09 1.26078E-18 1.55780E-18
 -1      4164 9.52481E-05-2.85823E-05-2.85711E-05-2.94031E-09 1.64758E-18 3.02302E-18
 -1      4165 7.56635E-05-1.66851E-05-2.52412E-05-3.87118E-06 2.16172E-19 8.33237E-19
 -1      4166 7.98988E-05-1.88637E-05-2.61171E-05-5.26148E-06 1.02413E-18-3.81110E-19
 -1      4167 9.52437E-05-2.85789E-05-2.85706E-05-1.96860E-09 4.35176E-19 1.45113E-18
 -1      4168 9.52434E-05-2.85786E-05-2.85706E-05-2.66493E-09 9.34326E-19 4.29630E-19
 -1      4169 9.52439E-05-2.85791E-05-2.85706E-05-3.02844E-09 7.37936E-20 7.59350E-19
 -1      4170 9.52447E-05-2.85797E-05-2.85707E-05-1.78354E-09 3.74414E-19 1.22873E-18
 -1      4171 7.55768E-05-1.64020E-05-2.54047E-05-1.48156E-07-1.26684E-19 1.06889E-18
 -1      4172 8.11660E-05-1.93166E-05-2.65561E-05-4.09323E-06 9.58199E-19-3.07159E-19
 -1      4173 9.52459E-05-2.85806E-05-2.85708E-05-1.86756E-09 1.11413E-18 2.60521E-18
 -1      4174 9.52455E-05-2.85803E-05-2.85708E-05-2.54825E-09 7.81812E-19 1.51932E-18
 -1      4175 9.52445E-05-2.85795E-05-2.85707E-05-3.43416E-09 5.24431E-19 6.76344E-19
 -1      4176 9.11455E-05-2.43651E-05-2.86081E-05 4.42602E-07-4.98671E-20-7.05691E-19
 -1      4177 9.09869E-05-2.42318E-05-2.86160E-05 9.93407E-07-3.70391E-19-2.26428E-19
 -1      4178 9.03671E-05-2.37668E-05-2.85529E-05 1.08929E-06 2.99470E-19 4.69339E-20
 -1      4179 8.28885E-05-1.94391E-05-2.72157E-05 8.39095E-07 4.47100E-19 8.58262E-21
 -1      4180 8.10976E-05-1.86364E-05-2.68071E-05 9.00007E-07-2.99199E-20-2.09566E-20
 -1      4181 9.52475E-05-2.85818E-05-2.85710E-05 1.05003E-09 1.53195E-18 1.20229E-18
 -1      4182 8.96529E-05-2.32608E-05-2.84622E-05 1.07198E-06 5.01697E-19 5.72955E-20
 -1      4183 8.88569E-05-2.27267E-05-2.83555E-05 1.15553E-06 4.17693E-19 5.70093E-20
 -1      4184 8.82862E-05-2.23814E-05-2.82249E-05 1.81645E-07 4.43299E-19-5.48579E-19
 -1      4185 8.98832E-05-2.34365E-05-2.84616E-05 3.66759E-07 3.14284E-19-6.13201E-19
 -1      4186 8.36178E-05-1.98333E-05-2.73012E-05-7.38805E-07 5.51860E-19-6.75899E-19
 -1      4187 8.02976E-05-1.83478E-05-2.65044E-05-1.70690E-06 5.34524E-19-5.66733E-19
 -1      4188 7.92585E-05-1.78272E-05-2.63391E-05 4.74088E-07-9.37700E-20 5.83530E-19
 -1      4189 9.52462E-05-2.85808E-05-2.85709E-05-4.32096E-10 1.95431E-18 2.39510E-18
 -1      4190 9.52471E-05-2.85815E-05-2.85710E-05-1.23033E-09 1.63111E-18 3.08926E-18
 -1      4191 8.29770E-05-1.99643E-05-2.69933E-05-3.32888E-06 9.30076E-19-7.94837E-19
 -1      4192 7.76499E-05-1.72002E-05-2.59312E-05 1.95664E-07-1.31858E-19 8.46796E-19
 -1      4193 8.40768E-05-2.04428E-05-2.73064E-05-2.54011E-06 5.91457E-19-7.12338E-19
 -1      4194 8.55758E-05-2.10966E-05-2.76301E-05-2.07275E-06 4.22036E-19-7.30044E-19
 -1      4195 8.64826E-05-2.15736E-05-2.78447E-05-1.54082E-06 5.10775E-19-4.80373E-19
 -1      4196 8.76322E-05-2.21554E-05-2.80605E-05-1.24198E-06 6.66840E-19-4.58515E-19
 -1      4197 8.83834E-05-2.26168E-05-2.82056E-05-8.85321E-07 5.89517E-19-6.23024E-19
 -1      4198 8.92827E-05-2.31397E-05-2.83473E-05-7.01585E-07 4.70838E-19-8.25207E-19
 -1      4199 8.99038E-05-2.35742E-05-2.84422E-05-4.64484E-07 3.10644E-19-8.27826E-19
 -1      4200 9.06139E-05-2.40410E-05-2.85321E-05-3.60013E-07 1.83539E-19-7.27275E-19
 -1      4201 9.11248E-05-2.44397E-05-2.85911E-05-2.04285E-07 7.30364E-20-9.71754E-19
 -1      4202 9.16867E-05-2.48507E-05-2.86450E-05-1.53001E-07-2.80567E-19-1.01293E-18
 -1      4203 9.21031E-05-2.52076E-05-2.86787E-05-5.21548E-08-5.97617E-19-1.11747E-18
 -1      4204 9.25463E-05-2.55634E-05-2.87080E-05-3.49206E-08-4.91426E-19-6.58606E-19
 -1      4205 9.28818E-05-2.58752E-05-2.87243E-05 2.93954E-08-1.61196E-19-4.09987E-19
 -1      4206 9.32289E-05-2.61779E-05-2.87371E-05 2.63013E-08-5.14661E-19-2.42067E-19
 -1      4207 9.34954E-05-2.64443E-05-2.87419E-05 6.66826E-08-7.72282E-20-3.31013E-19
 -1      4208 9.37647E-05-2.66971E-05-2.87440E-05 5.27314E-08-1.71616E-20-1.73507E-19
 -1      4209 9.39733E-05-2.69201E-05-2.87415E-05 7.77010E-08-2.16646E-19-7.63912E-19
 -1      4210 9.41798E-05-2.71278E-05-2.87371E-05 5.91169E-08-2.40704E-19-6.91747E-19
 -1      4211 9.43403E-05-2.73107E-05-2.87303E-05 7.43420E-08 8.42643E-20-7.98701E-19
 -1      4212 9.44965E-05-2.74785E-05-2.87223E-05 5.49652E-08 2.22503E-19-1.05569E-18
 -1      4213 9.46180E-05-2.76259E-05-2.87134E-05 6.41422E-08 2.11915E-19-1.09803E-18
 -1      4214 9.47342E-05-2.77592E-05-2.87038E-05 4.61388E-08 5.87168E-20-1.25954E-18
 -1      4215 9.48244E-05-2.78758E-05-2.86941E-05 5.16296E-08-2.77505E-19-1.33560E-18
 -1      4216 9.49094E-05-2.79801E-05-2.86841E-05 3.60471E-08-2.72415E-20-1.22681E-18
 -1      4217 9.49750E-05-2.80707E-05-2.86746E-05 3.93297E-08 2.09845E-19-1.04925E-18
 -1      4218 9.50359E-05-2.81509E-05-2.86650E-05 2.65100E-08-2.48427E-19-1.51443E-18
 -1      4219 9.50824E-05-2.82201E-05-2.86562E-05 2.84894E-08 1.80791E-19-1.23829E-18
 -1      4220 9.51250E-05-2.82806E-05-2.86475E-05 1.83611E-08 4.70474E-19-1.94345E-18
 -1      4221 9.51570E-05-2.83325E-05-2.86397E-05 1.95797E-08-4.87398E-19-1.86524E-18
 -1      4222 9.51859E-05-2.83775E-05-2.86320E-05 1.18558E-08-6.21516E-19-1.73268E-18
 -1      4223 9.52070E-05-2.84156E-05-2.86254E-05 1.26315E-08-5.80894E-19-1.40799E-18
 -1      4224 9.52258E-05-2.84482E-05-2.86188E-05 6.93569E-09-4.58627E-20-7.67451E-19
 -1      4225 9.52391E-05-2.84756E-05-2.86132E-05 7.45130E-09 3.02992E-19-2.90399E-19
 -1      4226 9.52506E-05-2.84987E-05-2.86078E-05 3.39434E-09 1.84335E-19-1.73637E-20
 -1      4227 9.52583E-05-2.85179E-05-2.86032E-05 3.75310E-09 1.23641E-20 6.20000E-19
 -1      4228 9.52647E-05-2.85338E-05-2.85988E-05 9.74276E-10 2.68977E-19 1.06111E-18
 -1      4229 9.52685E-05-2.85467E-05-2.85951E-05 1.23400E-09 6.29966E-19 1.26171E-18
 -1      4230 9.52715E-05-2.85574E-05-2.85916E-05-5.79093E-10 2.11218E-19 1.25183E-18
 -1      4231 9.52727E-05-2.85657E-05-2.85887E-05-3.85843E-10-1.34265E-19 1.02059E-18
 -1      4232 9.52733E-05-2.85724E-05-2.85860E-05-1.49134E-09-5.86911E-19 5.40981E-19
 -1      4233 9.52729E-05-2.85775E-05-2.85837E-05-1.34567E-09-2.11632E-19 5.25328E-19
 -1      4234 9.52721E-05-2.85814E-05-2.85816E-05-1.94914E-09 5.98155E-19 9.81869E-19
 -1      4235 9.52707E-05-2.85842E-05-2.85799E-05-1.83937E-09 7.44846E-19 1.01740E-18
 -1      4236 9.52691E-05-2.85862E-05-2.85783E-05-2.09950E-09 5.73267E-19 1.48371E-18
 -1      4237 9.52673E-05-2.85874E-05-2.85771E-05-2.01771E-09 3.75103E-19 1.96804E-18
 -1      4238 9.52653E-05-2.85881E-05-2.85759E-05-2.05355E-09-7.58346E-19 1.41528E-18
 -1      4239 9.52632E-05-2.85883E-05-2.85749E-05-1.99388E-09-1.07328E-18 1.93516E-18
 -1      4240 9.52611E-05-2.85881E-05-2.85741E-05-1.89226E-09-1.03309E-18 2.65041E-18
 -1      4241 9.52591E-05-2.85877E-05-2.85734E-05-1.84988E-09-3.99908E-19 2.68021E-18
 -1      4242 9.52571E-05-2.85871E-05-2.85728E-05-1.67243E-09 3.05396E-19 2.94057E-18
 -1      4243 9.52552E-05-2.85863E-05-2.85724E-05-1.64236E-09 9.44148E-19 2.66502E-18
 -1      4244 9.52533E-05-2.85854E-05-2.85719E-05-1.43159E-09 1.20281E-18 2.73129E-18
 -1      4245 9.52516E-05-2.85844E-05-2.85716E-05-1.40566E-09 1.33523E-18 2.36404E-18
 -1      4246 9.52500E-05-2.85835E-05-2.85713E-05-1.19067E-09 1.08458E-18 2.59547E-18
 -1      4247 9.52485E-05-2.85825E-05-2.85711E-05-1.44021E-09 1.81432E-18 3.16000E-18
 -1      4248 9.52461E-05-2.85808E-05-2.85709E-05 7.50405E-10 2.00319E-18 1.46059E-18
 -1      4249 9.52486E-05-2.85826E-05-2.85712E-05 5.70184E-10 1.14180E-18 1.92924E-18
 -3
    1PSTEP                         4           1           1          
  100CL  101 1.000000000        4249                     0    1           1
 -4  ERROR       1    1
 -5  STR(%)      1    1    0    0
 -1         1 1.19829E+01
 -1         2 2.76144E+01
 -1         3 3.14738E-05
 -1         4 3.62324E-05
 -1         5 1.29665E+01
 -1         6 1.44969E+01
 -1         7 1.44969E+01
 -1         8 3.57868E+00
 -1         9 1.81852E+00
 -1        10 2.07639E+00
 -1        11 2.70849E+00
 -1        12 4.33009E+00
 -1        13 7.34183E+00
 -1        14 8.43961E+00
 -1        15 1.05294E+01
 -1        16 1.07155E+01
 -1        17 1.07155E+01
 -1        18 9.78866E+00
 -1        19 7.56058E+00
 -1        20 5.28644E+00
 -1        21 5.09022E+00
 -1        22 9.48498E+00
 -1        23 1.44969E+01
 -1        24 5.41633E+00
 -1        25 4.61965E+00
 -1        26 3.97911E+00
 -1        27 3.59309E+00
 -1        28 3.04446E+00
 -1        29 2.83214E+00
 -1        30 2.24701E+00
 -1        31 1.42966E+00
 -1        32 9.01037E-01
 -1        33 6.16665E-01
 -1        34 5.95597E-01
 -1        35 5.87850E-01
 -1        36 5.87850E-01
 -1        37 5.33704E-01
 -1        38 4.40220E-01
 -1        39 3.47487E-01
 -1        40 2.91415E-01
 -1        41 2.54570E-01
 -1        42 2.11858E-01
 -1        43 1.69439E-01
 -1        44 1.30855E-01
 -1        45 9.77782E-02
 -1        46 7.81615E-02
 -1        47 6.57414E-02
 -1        48 5.37832E-02
 -1        49 4.29475E-02
 -1        50 3.35414E-02
 -1        51 2.56418E-02
 -1        52 1.91855E-02
 -1        53 1.59818E-02
 -1        54 1.30387E-02
 -1        55 1.04178E-02
 -1        56 8.16284E-03
 -1        57 6.32564E-03
 -1        58 4.92866E-03
 -1        59 3.76853E-03
 -1        60 2.82603E-03
 -1        61 2.07530E-03
 -1        62 1.61940E-03
 -1        63 1.30087E-03
 -1        64 1.02712E-03
 -1        65 7.97805E-04
 -1        66 6.09383E-04
 -1        67 4.56186E-04
 -1        68 3.55289E-04
 -1        69 3.05417E-04
 -1        70 2.36240E-04
 -1        71 1.24053E-04
 -1        72 1.29665E+01
 -1        73 2.95973E+00
 -1        74 3.30158E+00
 -1        75 4.15912E+00
 -1        76 4.59258E+00
 -1        77 4.68902E+00
 -1        78 4.68902E+00
 -1        79 3.38739E+00
 -1        80 1.61125E+00
 -1        81 1.42029E+00
 -1        82 1.72258E+00
 -1        83 1.72258E+00
 -1        84 1.64739E+00
 -1        85 1.39902E+00
 -1        86 1.16309E+00
 -1        87 9.18514E-01
 -1        88 6.94933E-01
 -1        89 5.07142E-01
 -1        90 3.73478E-01
 -1        91 2.83647E-01
 -1        92 2.10737E-01
 -1        93 1.53308E-01
 -1        94 1.09107E-01
 -1        95 7.57414E-02
 -1        96 5.20139E-02
 -1        97 4.31950E-02
 -1        98 3.51647E-02
 -1        99 2.81173E-02
 -1       100 2.21039E-02
 -1       101 1.76102E-02
 -1       102 1.53493E-02
 -1       103 1.30124E-02
 -1       104 1.07778E-02
 -1       105 8.74606E-03
 -1       106 6.99097E-03
 -1       107 5.62486E-03
 -1       108 4.44297E-03
 -1       109 3.44724E-03
 -1       110 2.62696E-03
 -1       111 1.96443E-03
 -1       112 1.43881E-03
 -1       113 1.02854E-03
 -1       114 7.95645E-04
 -1       115 6.07780E-04
 -1       116 4.55083E-04
 -1       117 3.30124E-04
 -1       118 2.23855E-04
 -1       119 1.78155E-04
 -1       120 1.01971E-04
 -1       121 3.99239E-05
 -1       122 4.25067E-05
 -1       123 4.25067E-05
 -1       124 2.75822E-05
 -1       125 1.64955E-05
 -1       126 3.16935E-05
 -1       127 4.17061E-05
 -1       128 4.47299E-05
 -1       129 4.47299E-05
 -1       130 4.15953E-05
 -1       131 3.12431E-05
 -1       132 1.66705E-05
 -1       133 2.81394E-05
 -1       134 4.20048E-05
 -1       135 5.32506E-05
 -1       136 5.73931E-05
 -1       137 2.70758E+01
 -1       138 4.21629E+01
 -1       139 4.21629E+01
 -1       140 1.66165E+01
 -1       141 1.22675E+01
 -1       142 1.22675E+01
 -1       143 1.31491E+01
 -1       144 1.31491E+01
 -1       145 1.22197E+01
 -1       146 1.62057E+01
 -1       147 3.88042E+01
 -1       148 3.88042E+01
 -1       149 3.84412E+01
 -1       150 3.84412E+01
 -1       151 3.64704E+01
 -1       152 4.71069E+01
 -1       153 4.71069E+01
 -1       154 2.37980E+01
 -1       155 1.20824E+01
 -1       156 1.11220E+01
 -1       157 1.19829E+01
 -1       158 1.22743E+01
 -1       159 1.22743E+01
 -1       160 1.48991E+01
 -1       161 3.92562E+01
 -1       162 3.92562E+01
 -1       163 2.76144E+01
 -1       164 3.57868E+00
 -1       165 2.21910E+00
 -1       166 2.07639E+00
 -1       167 2.69183E+00
 -1       168 3.95387E+00
 -1       169 6.63262E+00
 -1       170 9.52370E+00
 -1       171 1.12613E+01
 -1       172 1.35981E+01
 -1       173 1.43993E+01
 -1       174 1.29562E+01
 -1       175 1.09345E+01
 -1       176 6.71692E+00
 -1       177 4.77078E+00
 -1       178 5.18416E+00
 -1       179 1.29665E+01
 -1       180 5.41633E+00
 -1       181 4.61965E+00
 -1       182 3.97911E+00
 -1       183 3.59309E+00
 -1       184 3.04446E+00
 -1       185 2.83214E+00
 -1       186 2.24701E+00
 -1       187 1.52505E+00
 -1       188 9.47563E-01
 -1       189 6.16665E-01
 -1       190 5.95597E-01
 -1       191 5.57407E-01
 -1       192 5.87850E-01
 -1       193 5.33704E-01
 -1       194 4.40220E-01
 -1       195 3.66660E-01
 -1       196 3.16186E-01
 -1       197 2.58646E-01
 -1       198 2.11858E-01
 -1       199 1.69439E-01
 -1       200 1.33036E-01
 -1       201 1.03507E-01
 -1       202 7.81700E-02
 -1       203 6.57414E-02
 -1       204 5.37832E-02
 -1       205 4.29475E-02
 -1       206 3.35414E-02
 -1       207 2.56418E-02
 -1       208 2.00014E-02
 -1       209 1.59818E-02
 -1       210 1.30387E-02
 -1       211 1.04178E-02
 -1       212 8.33126E-03
 -1       213 6.66136E-03
 -1       214 5.34634E-03
 -1       215 4.30713E-03
 -1       216 3.40253E-03
 -1       217 2.63723E-03
 -1       218 2.00495E-03
 -1       219 1.49320E-03
 -1       220 1.08662E-03
 -1       221 7.97805E-04
 -1       222 6.12083E-04
 -1       223 4.71764E-04
 -1       224 3.55636E-04
 -1       225 3.05417E-04
 -1       226 2.36240E-04
 -1       227 1.33013E-04
 -1       228 2.95973E+00
 -1       229 2.85294E+00
 -1       230 3.30158E+00
 -1       231 4.15912E+00
 -1       232 4.59258E+00
 -1       233 4.68902E+00
 -1       234 3.38739E+00
 -1       235 1.61125E+00
 -1       236 1.14000E+00
 -1       237 1.47543E+00
 -1       238 1.72258E+00
 -1       239 1.64739E+00
 -1       240 1.39902E+00
 -1       241 1.16470E+00
 -1       242 9.52358E-01
 -1       243 7.43432E-01
 -1       244 5.59135E-01
 -1       245 4.07184E-01
 -1       246 2.87591E-01
 -1       247 2.10737E-01
 -1       248 1.53308E-01
 -1       249 1.11571E-01
 -1       250 7.96011E-02
 -1       251 5.54416E-02
 -1       252 4.31950E-02
 -1       253 3.51647E-02
 -1       254 2.81173E-02
 -1       255 2.21039E-02
 -1       256 1.76102E-02
 -1       257 1.53493E-02
 -1       258 1.30124E-02
 -1       259 1.07778E-02
 -1       260 8.74606E-03
 -1       261 6.99097E-03
 -1       262 5.62486E-03
 -1       263 4.44297E-03
 -1       264 3.51592E-03
 -1       265 2.73271E-03
 -1       266 2.08554E-03
 -1       267 1.56127E-03
 -1       268 1.14402E-03
 -1       269 8.17200E-04
 -1       270 6.07780E-04
 -1       271 4.55083E-04
 -1       272 3.30124E-04
 -1       273 2.33354E-04
 -1       274 1.78155E-04
 -1       275 1.01971E-04
 -1       276 6.58443E-05
 -1       277 7.10064E-05
 -1       278 7.10064E-05
 -1       279 3.85559E-05
 -1       280 6.00145E-05
 -1       281 8.03563E-05
 -1       282 8.87257E-05
 -1       283 8.87257E-05
 -1       284 8.86834E-05
 -1       285 7.98307E-05
 -1       286 6.02097E-05
 -1       287 3.88072E-05
 -1       288 7.21239E-05
 -1       289 7.21239E-05
 -1       290 8.31308E-05
 -1       291 4.04687E+01
 -1       292 3.51771E+01
 -1       293 4.21629E+01
 -1       294 1.66165E+01
 -1       295 1.14394E+01
 -1       296 1.22675E+01
 -1       297 1.20453E+01
 -1       298 1.31491E+01
 -1       299 1.22197E+01
 -1       300 1.07618E+01
 -1       301 1.62057E+01
 -1       302 3.88042E+01
 -1       303 3.73334E+01
 -1       304 4.84814E+01
 -1       305 4.84814E+01
 -1       306 4.57023E+01
 -1       307 4.71069E+01
 -1       308 2.37980E+01
 -1       309 1.23707E+01
 -1       310 9.57428E+00
 -1       311 1.11220E+01
 -1       312 1.19829E+01
 -1       313 1.12008E+01
 -1       314 1.22743E+01
 -1       315 1.10294E+01
 -1       316 1.48991E+01
 -1       317 3.92562E+01
 -1       318 3.48164E+01
 -1       319 4.04687E+01
 -1       320 4.03538E+00
 -1       321 1.01300E+00
 -1       322 3.02499E+00
 -1       323 2.52806E+00
 -1       324 5.49108E+00
 -1       325 9.22460E+00
 -1       326 1.48396E+01
 -1       327 2.09351E+01
 -1       328 2.88722E+01
 -1       329 1.64368E+01
 -1       330 9.86100E+00
 -1       331 5.25848E+00
 -1       332 3.15657E+00
 -1       333 2.34314E+00
 -1       334 2.47708E+00
 -1       335 2.89754E+00
 -1       336 2.68022E+00
 -1       337 2.32504E+00
 -1       338 1.89425E+00
 -1       339 1.75522E+00
 -1       340 1.40317E+00
 -1       341 1.06383E+00
 -1       342 6.74640E-01
 -1       343 4.24816E-01
 -1       344 3.94083E-01
 -1       345 3.89334E-01
 -1       346 4.34511E-01
 -1       347 4.16563E-01
 -1       348 3.75820E-01
 -1       349 3.36975E-01
 -1       350 2.93299E-01
 -1       351 2.42026E-01
 -1       352 1.90921E-01
 -1       353 1.44533E-01
 -1       354 1.05031E-01
 -1       355 7.81700E-02
 -1       356 5.72979E-02
 -1       357 4.15637E-02
 -1       358 3.34504E-02
 -1       359 2.79460E-02
 -1       360 2.27978E-02
 -1       361 1.82027E-02
 -1       362 1.42433E-02
 -1       363 1.12600E-02
 -1       364 9.59895E-03
 -1       365 7.99824E-03
 -1       366 6.51650E-03
 -1       367 5.35736E-03
 -1       368 4.34313E-03
 -1       369 3.48009E-03
 -1       370 2.81434E-03
 -1       371 2.23073E-03
 -1       372 1.73392E-03
 -1       373 1.32107E-03
 -1       374 9.85115E-04
 -1       375 7.16976E-04
 -1       376 5.07121E-04
 -1       377 3.55636E-04
 -1       378 2.59309E-04
 -1       379 1.83544E-04
 -1       380 1.24943E-04
 -1       381 2.37088E+00
 -1       382 2.50157E+00
 -1       383 2.57284E+00
 -1       384 2.35260E+00
 -1       385 1.91570E+00
 -1       386 1.29653E+00
 -1       387 1.33359E+00
 -1       388 1.30546E+00
 -1       389 1.35560E+00
 -1       390 1.26410E+00
 -1       391 1.17089E+00
 -1       392 1.04509E+00
 -1       393 8.75032E-01
 -1       394 6.95640E-01
 -1       395 5.31383E-01
 -1       396 3.92737E-01
 -1       397 2.81749E-01
 -1       398 2.06118E-01
 -1       399 1.53138E-01
 -1       400 1.11571E-01
 -1       401 7.96011E-02
 -1       402 5.54416E-02
 -1       403 3.76642E-02
 -1       404 2.69002E-02
 -1       405 2.30747E-02
 -1       406 1.92977E-02
 -1       407 1.57933E-02
 -1       408 1.26772E-02
 -1       409 9.99328E-03
 -1       410 8.38824E-03
 -1       411 7.11202E-03
 -1       412 5.88893E-03
 -1       413 4.84291E-03
 -1       414 3.94914E-03
 -1       415 3.15748E-03
 -1       416 2.47755E-03
 -1       417 1.90800E-03
 -1       418 1.44096E-03
 -1       419 1.06514E-03
 -1       420 7.68026E-04
 -1       421 5.79241E-04
 -1       422 4.41617E-04
 -1       423 3.28226E-04
 -1       424 2.33354E-04
 -1       425 1.55286E-04
 -1       426 8.34411E-05
 -1       427 7.88742E-05
 -1       428 1.36751E-04
 -1       429 1.36751E-04
 -1       430 8.29533E-05
 -1       431 1.13919E-04
 -1       432 1.28787E-04
 -1       433 1.28787E-04
 -1       434 1.28346E-04
 -1       435 1.28346E-04
 -1       436 1.14073E-04
 -1       437 8.29839E-05
 -1       438 8.18404E-05
 -1       439 1.15462E-04
 -1       440 2.34672E+01
 -1       441 4.04687E+01
 -1       442 3.04691E+01
 -1       443 1.41026E+01
 -1       444 7.26353E+00
 -1       445 1.52711E+00
 -1       446 1.06129E+01
 -1       447 1.09143E+01
 -1       448 7.85570E+00
 -1       449 6.73536E+00
 -1       450 9.05616E+00
 -1       451 1.52229E+01
 -1       452 2.41387E+01
 -1       453 3.73334E+01
 -1       454 4.84814E+01
 -1       455 4.57023E+01
 -1       456 2.71821E+01
 -1       457 1.80926E+01
 -1       458 1.23707E+01
 -1       459 7.71727E+00
 -1       460 7.17392E+00
 -1       461 8.43612E+00
 -1       462 1.06158E+01
 -1       463 1.05505E+01
 -1       464 8.49416E+00
 -1       465 7.56445E+00
 -1       466 1.40492E+01
 -1       467 2.40447E+01
 -1       468 2.83161E+01
 -1       469 7.60070E+00
 -1       470 3.03450E+01
 -1       471 1.93127E+01
 -1       472 8.27114E+00
 -1       473 6.79871E+00
 -1       474 3.32445E+00
 -1       475 1.34917E+01
 -1       476 3.19476E+00
 -1       477 1.38739E+00
 -1       478 1.79009E+00
 -1       479 1.59278E+00
 -1       480 2.33446E+00
 -1       481 1.75830E+00
 -1       482 1.50444E+00
 -1       483 1.24294E+00
 -1       484 1.18405E+00
 -1       485 1.05888E+00
 -1       486 9.55185E-01
 -1       487 7.35441E-01
 -1       488 6.68461E-01
 -1       489 5.35430E-01
 -1       490 4.95075E-01
 -1       491 4.67396E-01
 -1       492 4.15737E-01
 -1       493 3.65518E-01
 -1       494 3.23654E-01
 -1       495 2.73182E-01
 -1       496 2.21638E-01
 -1       497 1.73669E-01
 -1       498 1.31714E-01
 -1       499 9.66768E-02
 -1       500 6.84940E-02
 -1       501 4.65542E-02
 -1       502 3.01413E-02
 -1       503 2.12200E-02
 -1       504 1.65927E-02
 -1       505 1.46355E-02
 -1       506 1.25175E-02
 -1       507 1.04341E-02
 -1       508 8.50399E-03
 -1       509 6.98151E-03
 -1       510 6.06260E-03
 -1       511 5.11791E-03
 -1       512 4.22676E-03
 -1       513 3.50336E-03
 -1       514 2.84090E-03
 -1       515 2.25758E-03
 -1       516 1.78806E-03
 -1       517 1.41037E-03
 -1       518 1.09015E-03
 -1       519 8.25047E-04
 -1       520 6.10262E-04
 -1       521 4.39942E-04
 -1       522 3.08024E-04
 -1       523 2.08246E-04
 -1       524 3.55600E+00
 -1       525 4.26023E+00
 -1       526 3.04400E+00
 -1       527 2.56624E+00
 -1       528 2.04228E+00
 -1       529 1.80707E+00
 -1       530 1.52916E+00
 -1       531 1.28963E+00
 -1       532 1.15348E+00
 -1       533 9.74229E-01
 -1       534 7.88523E-01
 -1       535 6.17519E-01
 -1       536 4.70792E-01
 -1       537 3.50625E-01
 -1       538 2.55430E-01
 -1       539 1.81923E-01
 -1       540 1.26362E-01
 -1       541 8.51682E-02
 -1       542 5.52017E-02
 -1       543 3.76642E-02
 -1       544 2.69002E-02
 -1       545 2.30747E-02
 -1       546 1.92977E-02
 -1       547 1.57933E-02
 -1       548 1.26772E-02
 -1       549 9.99328E-03
 -1       550 8.38824E-03
 -1       551 7.11202E-03
 -1       552 5.88893E-03
 -1       553 4.85048E-03
 -1       554 3.97420E-03
 -1       555 3.19142E-03
 -1       556 2.54208E-03
 -1       557 2.03228E-03
 -1       558 1.59338E-03
 -1       559 1.22498E-03
 -1       560 9.22422E-04
 -1       561 6.78880E-04
 -1       562 4.86745E-04
 -1       563 3.38639E-04
 -1       564 2.25044E-04
 -1       565 1.55286E-04
 -1       566 1.45935E-04
 -1       567 1.70489E-04
 -1       568 1.33851E-04
 -1       569 1.18442E-04
 -1       570 1.72766E-04
 -1       571 1.72766E-04
 -1       572 1.72515E-04
 -1       573 1.70373E-04
 -1       574 1.46063E-04
 -1       575 1.38485E-04
 -1       576 1.38485E-04
 -1       577 1.39696E+01
 -1       578 2.46909E+01
 -1       579 3.57125E+00
 -1       580 2.22256E+01
 -1       581 8.47809E+00
 -1       582 5.29522E+00
 -1       583 1.84670E+01
 -1       584 6.80120E+00
 -1       585 7.18386E+00
 -1       586 9.25906E+00
 -1       587 4.65278E+00
 -1       588 6.75166E+00
 -1       589 4.70891E+00
 -1       590 7.97656E+00
 -1       591 1.77292E+01
 -1       592 5.29922E+00
 -1       593 3.58611E+00
 -1       594 7.02935E+00
 -1       595 5.29186E+00
 -1       596 6.93630E+00
 -1       597 5.70275E+00
 -1       598 8.10569E+00
 -1       599 1.14181E+01
 -1       600 1.46535E+00
 -1       601 5.09123E+00
 -1       602 1.71802E+00
 -1       603 1.34430E+01
 -1       604 1.24943E-04
 -1       605 8.40792E-01
 -1       606 6.55321E+00
 -1       607 4.26209E+00
 -1       608 4.34399E+00
 -1       609 5.52275E+00
 -1       610 2.57990E+00
 -1       611 1.85929E+00
 -1       612 1.39066E+00
 -1       613 1.30083E+00
 -1       614 1.27051E+00
 -1       615 1.15942E+00
 -1       616 1.01864E+00
 -1       617 7.75098E-01
 -1       618 6.88324E-01
 -1       619 5.99708E-01
 -1       620 5.00788E-01
 -1       621 4.23991E-01
 -1       622 3.64918E-01
 -1       623 3.03422E-01
 -1       624 2.45137E-01
 -1       625 1.93035E-01
 -1       626 1.48363E-01
 -1       627 1.11296E-01
 -1       628 8.13758E-02
 -1       629 5.78181E-02
 -1       630 3.97023E-02
 -1       631 2.60965E-02
 -1       632 1.61290E-02
 -1       633 1.01910E-02
 -1       634 8.77983E-03
 -1       635 8.30570E-03
 -1       636 7.49234E-03
 -1       637 6.52228E-03
 -1       638 5.51799E-03
 -1       639 4.70090E-03
 -1       640 4.05208E-03
 -1       641 3.39958E-03
 -1       642 2.78644E-03
 -1       643 2.24074E-03
 -1       644 1.79797E-03
 -1       645 1.41379E-03
 -1       646 1.09015E-03
 -1       647 8.37095E-04
 -1       648 6.38492E-04
 -1       649 4.75817E-04
 -1       650 3.45625E-04
 -1       651 2.22193E-04
 -1       652 1.12712E+01
 -1       653 3.58936E+00
 -1       654 2.65424E+00
 -1       655 1.98525E+00
 -1       656 1.66931E+00
 -1       657 1.36285E+00
 -1       658 1.08657E+00
 -1       659 8.52727E-01
 -1       660 6.60758E-01
 -1       661 5.05886E-01
 -1       662 3.82432E-01
 -1       663 2.85136E-01
 -1       664 2.09356E-01
 -1       665 1.51062E-01
 -1       666 1.06806E-01
 -1       667 7.36762E-02
 -1       668 4.92522E-02
 -1       669 3.15530E-02
 -1       670 1.89795E-02
 -1       671 1.30761E-02
 -1       672 1.21179E-02
 -1       673 1.07588E-02
 -1       674 9.24942E-03
 -1       675 7.74791E-03
 -1       676 6.34787E-03
 -1       677 5.42506E-03
 -1       678 4.57867E-03
 -1       679 3.81508E-03
 -1       680 3.14130E-03
 -1       681 2.56260E-03
 -1       682 2.04854E-03
 -1       683 1.60597E-03
 -1       684 1.25005E-03
 -1       685 9.71860E-04
 -1       686 7.39951E-04
 -1       687 5.50876E-04
 -1       688 3.99860E-04
 -1       689 2.79799E-04
 -1       690 1.94355E-04
 -1       691 2.33907E-04
 -1       692 1.38485E-04
 -1       693 2.22517E-04
 -1       694 2.33596E-04
 -1       695 2.33907E-04
 -1       696 2.33596E-04
 -1       697 2.21278E-04
 -1       698 1.70348E-04
 -1       699 1.43107E+01
 -1       700 8.26829E+00
 -1       701 3.21795E+00
 -1       702 1.19204E+01
 -1       703 8.74035E+00
 -1       704 4.26023E+00
 -1       705 3.06932E+00
 -1       706 4.89467E+00
 -1       707 4.36409E+00
 -1       708 9.16489E+00
 -1       709 2.16272E+00
 -1       710 3.83558E+00
 -1       711 2.23711E+00
 -1       712 4.50673E+00
 -1       713 3.52643E+00
 -1       714 1.15717E+00
 -1       715 1.87357E+00
 -1       716 9.22088E+00
 -1       717 1.71626E-04
 -1       718 1.44788E-04
 -1       719 1.83100E+00
 -1       720 1.71297E-04
 -1       721 9.22088E+00
 -1       722 3.38666E+00
 -1       723 4.29018E+00
 -1       724 3.21795E+00
 -1       725 2.13556E+00
 -1       726 1.46365E+00
 -1       727 1.72652E+00
 -1       728 1.51210E+00
 -1       729 1.18464E+00
 -1       730 1.00124E+00
 -1       731 8.03731E-01
 -1       732 6.32517E-01
 -1       733 5.27132E-01
 -1       734 4.26363E-01
 -1       735 3.39294E-01
 -1       736 2.65843E-01
 -1       737 2.04051E-01
 -1       738 1.54480E-01
 -1       739 1.15668E-01
 -1       740 8.51822E-02
 -1       741 6.15291E-02
 -1       742 4.34229E-02
 -1       743 2.97688E-02
 -1       744 1.96455E-02
 -1       745 1.22853E-02
 -1       746 7.05649E-03
 -1       747 4.83674E-03
 -1       748 5.34826E-03
 -1       749 5.32134E-03
 -1       750 4.96684E-03
 -1       751 4.43512E-03
 -1       752 3.82945E-03
 -1       753 3.37906E-03
 -1       754 2.91934E-03
 -1       755 2.45374E-03
 -1       756 2.01421E-03
 -1       757 1.61838E-03
 -1       758 1.27405E-03
 -1       759 9.82545E-04
 -1       760 7.41233E-04
 -1       761 5.45551E-04
 -1       762 3.88941E-04
 -1       763 2.67147E-04
 -1       764 2.41794E+00
 -1       765 1.70986E+00
 -1       766 1.23586E+00
 -1       767 9.39468E-01
 -1       768 7.33165E-01
 -1       769 5.58513E-01
 -1       770 4.17083E-01
 -1       771 3.05773E-01
 -1       772 2.20006E-01
 -1       773 1.56024E-01
 -1       774 1.11921E-01
 -1       775 8.01736E-02
 -1       776 5.61660E-02
 -1       777 3.82550E-02
 -1       778 2.51043E-02
 -1       779 1.56283E-02
 -1       780 8.95170E-03
 -1       781 6.95872E-03
 -1       782 7.00562E-03
 -1       783 6.58002E-03
 -1       784 5.90003E-03
 -1       785 5.11170E-03
 -1       786 4.33277E-03
 -1       787 3.79800E-03
 -1       788 3.23200E-03
 -1       789 2.68328E-03
 -1       790 2.17983E-03
 -1       791 1.73556E-03
 -1       792 1.35504E-03
 -1       793 1.03695E-03
 -1       794 7.76462E-04
 -1       795 5.67039E-04
 -1       796 4.05528E-04
 -1       797 2.93430E-04
 -1       798 2.14656E-04
 -1       799 3.69132E+00
 -1       800 2.29611E-04
 -1       801 2.93435E-04
 -1       802 2.86312E+00
 -1       803 6.03478E+00
 -1       804 1.49014E+00
 -1       805 3.12995E+00
 -1       806 2.37223E+00
 -1       807 3.05627E-04
 -1       808 7.17393E+00
 -1       809 2.23711E+00
 -1       810 7.81762E+00
 -1       811 3.05627E-04
 -1       812 8.28226E+00
 -1       813 2.59561E-04
 -1       814 3.01788E-04
 -1       815 3.01788E-04
 -1       816 4.59879E+00
 -1       817 7.41442E+00
 -1       818 2.42054E-04
 -1       819 4.69165E+00
 -1       820 7.34478E+00
 -1       821 2.41896E+00
 -1       822 1.96802E+00
 -1       823 1.39047E+00
 -1       824 1.10095E+00
 -1       825 8.90900E-01
 -1       826 6.79415E-01
 -1       827 5.07389E-01
 -1       828 3.92493E-01
 -1       829 3.10037E-01
 -1       830 2.50138E-01
 -1       831 1.97827E-01
 -1       832 1.52506E-01
 -1       833 1.14659E-01
 -1       834 8.39750E-02
 -1       835 5.97351E-02
 -1       836 4.14390E-02
 -1       837 2.81648E-02
 -1       838 1.82719E-02
 -1       839 1.10782E-02
 -1       840 6.03119E-03
 -1       841 3.29974E-03
 -1       842 3.41229E-03
 -1       843 3.79801E-03
 -1       844 3.79009E-03
 -1       845 3.54330E-03
 -1       846 3.16721E-03
 -1       847 2.77823E-03
 -1       848 2.44298E-03
 -1       849 2.08340E-03
 -1       850 1.73194E-03
 -1       851 1.40769E-03
 -1       852 1.12034E-03
 -1       853 8.73221E-04
 -1       854 6.65569E-04
 -1       855 4.94169E-04
 -1       856 1.65511E+00
 -1       857 1.23586E+00
 -1       858 9.25322E-01
 -1       859 6.93342E-01
 -1       860 5.17951E-01
 -1       861 3.84625E-01
 -1       862 2.83090E-01
 -1       863 2.05914E-01
 -1       864 1.47559E-01
 -1       865 1.03785E-01
 -1       866 7.17569E-02
 -1       867 4.91513E-02
 -1       868 3.25666E-02
 -1       869 2.06405E-02
 -1       870 1.23309E-02
 -1       871 6.57768E-03
 -1       872 3.81929E-03
 -1       873 4.42216E-03
 -1       874 4.63004E-03
 -1       875 4.45615E-03
 -1       876 4.06475E-03
 -1       877 3.56790E-03
 -1       878 3.11711E-03
 -1       879 2.71874E-03
 -1       880 2.30378E-03
 -1       881 1.90518E-03
 -1       882 1.54170E-03
 -1       883 1.22235E-03
 -1       884 9.49691E-04
 -1       885 7.22123E-04
 -1       886 5.36255E-04
 -1       887 4.49240E-04
 -1       888 2.56599E-04
 -1       889 2.65898E+00
 -1       890 3.94931E-04
 -1       891 5.50648E+00
 -1       892 4.59879E+00
 -1       893 7.34478E+00
 -1       894 1.72652E+00
 -1       895 3.71850E-04
 -1       896 3.46800E-04
 -1       897 4.35432E+00
 -1       898 4.49240E-04
 -1       899 4.24900E-04
 -1       900 4.24900E-04
 -1       901 3.74750E+00
 -1       902 7.73491E-01
 -1       903 5.28855E+00
 -1       904 3.74750E+00
 -1       905 2.43907E+00
 -1       906 1.24239E+00
 -1       907 8.64897E-01
 -1       908 6.47894E-01
 -1       909 4.90786E-01
 -1       910 3.92493E-01
 -1       911 3.10037E-01
 -1       912 2.41008E-01
 -1       913 1.84449E-01
 -1       914 1.38861E-01
 -1       915 1.02660E-01
 -1       916 7.43365E-02
 -1       917 5.25214E-02
 -1       918 3.59998E-02
 -1       919 2.43578E-02
 -1       920 1.59457E-02
 -1       921 9.84545E-03
 -1       922 6.12741E-03
 -1       923 3.66175E-03
 -1       924 2.23829E-03
 -1       925 2.76583E-03
 -1       926 2.90883E-03
 -1       927 2.80949E-03
 -1       928 2.56962E-03
 -1       929 2.25991E-03
 -1       930 1.97338E-03
 -1       931 1.69241E-03
 -1       932 1.41381E-03
 -1       933 1.15427E-03
 -1       934 9.22571E-04
 -1       935 7.21741E-04
 -1       936 5.52030E-04
 -1       937 1.06853E+00
 -1       938 1.49123E+00
 -1       939 5.70647E-01
 -1       940 4.24687E-01
 -1       941 3.16450E-01
 -1       942 2.34733E-01
 -1       943 1.72543E-01
 -1       944 1.25183E-01
 -1       945 8.92840E-02
 -1       946 6.23069E-02
 -1       947 4.26116E-02
 -1       948 2.88277E-02
 -1       949 1.87359E-02
 -1       950 1.14896E-02
 -1       951 6.48590E-03
 -1       952 3.37538E-03
 -1       953 2.77205E-03
 -1       954 3.27271E-03
 -1       955 3.36276E-03
 -1       956 3.20056E-03
 -1       957 2.89711E-03
 -1       958 2.52804E-03
 -1       959 2.21717E-03
 -1       960 1.89988E-03
 -1       961 1.58605E-03
 -1       962 1.29419E-03
 -1       963 1.03402E-03
 -1       964 8.09299E-04
 -1       965 6.19974E-04
 -1       966 4.84814E-04
 -1       967 2.06837E+00
 -1       968 4.29291E-04
 -1       969 4.35432E+00
 -1       970 3.21419E+00
 -1       971 3.10621E+00
 -1       972 3.21419E+00
 -1       973 4.53876E-04
 -1       974 4.53876E-04
 -1       975 4.76646E-04
 -1       976 5.36703E-01
 -1       977 2.84651E+00
 -1       978 1.74636E+00
 -1       979 1.21493E+00
 -1       980 8.50597E-01
 -1       981 6.29890E-01
 -1       982 4.73323E-01
 -1       983 3.55995E-01
 -1       984 2.67199E-01
 -1       985 1.99482E-01
 -1       986 1.47642E-01
 -1       987 1.07966E-01
 -1       988 7.77227E-02
 -1       989 5.48419E-02
 -1       990 3.82139E-02
 -1       991 2.61742E-02
 -1       992 1.72939E-02
 -1       993 1.08572E-02
 -1       994 6.34376E-03
 -1       995 3.75435E-03
 -1       996 1.95239E-03
 -1       997 2.07312E-03
 -1       998 2.23659E-03
 -1       999 2.21079E-03
 -1      1000 2.21079E-03
 -1      1001 2.07617E-03
 -1      1002 1.86243E-03
 -1      1003 1.61443E-03
 -1      1004 1.36151E-03
 -1      1005 1.12206E-03
 -1      1006 1.06361E-03
 -1      1007 5.44785E-04
 -1      1008 7.30572E-01
 -1      1009 1.02737E+00
 -1      1010 3.05104E-01
 -1      1011 2.31178E-01
 -1      1012 1.74112E-01
 -1      1013 1.29736E-01
 -1      1014 9.52703E-02
 -1      1015 6.86872E-02
 -1      1016 4.84069E-02
 -1      1017 3.31492E-02
 -1      1018 2.25886E-02
 -1      1019 1.49065E-02
 -1      1020 9.32453E-03
 -1      1021 5.77671E-03
 -1      1022 3.37538E-03
 -1      1023 1.78862E-03
 -1      1024 2.34744E-03
 -1      1025 2.53270E-03
 -1      1026 2.48139E-03
 -1      1027 2.29093E-03
 -1      1028 2.02881E-03
 -1      1029 1.74021E-03
 -1      1030 1.48680E-03
 -1      1031 1.24430E-03
 -1      1032 1.01763E-03
 -1      1033 8.14812E-04
 -1      1034 6.39654E-04
 -1      1035 1.39548E+00
 -1      1036 4.37759E-04
 -1      1037 4.02789E-01
 -1      1038 2.76270E+00
 -1      1039 5.11325E-04
 -1      1040 5.39529E-04
 -1      1041 2.84651E+00
 -1      1042 1.11645E-03
 -1      1043 1.79921E+00
 -1      1044 1.74636E+00
 -1      1045 1.21493E+00
 -1      1046 8.50597E-01
 -1      1047 6.05324E-01
 -1      1048 4.36179E-01
 -1      1049 3.16778E-01
 -1      1050 2.30853E-01
 -1      1051 1.68127E-01
 -1      1052 1.21900E-01
 -1      1053 8.76619E-02
 -1      1054 6.22797E-02
 -1      1055 4.37069E-02
 -1      1056 3.08371E-02
 -1      1057 2.15512E-02
 -1      1058 1.49160E-02
 -1      1059 9.96518E-03
 -1      1060 6.34376E-03
 -1      1061 3.75435E-03
 -1      1062 1.95239E-03
 -1      1063 1.95115E-03
 -1      1064 2.20040E-03
 -1      1065 2.21079E-03
 -1      1066 2.07617E-03
 -1      1067 1.86243E-03
 -1      1068 1.61443E-03
 -1      1069 1.36151E-03
 -1      1070 1.12206E-03
 -1      1071 1.11645E-03
 -1      1072 6.94461E-01
 -1      1073 1.04053E+00
 -1      1074 1.45165E-01
 -1      1075 1.94197E-01
 -1      1076 2.58338E-01
 -1      1077 1.07526E-01
 -1      1078 7.86686E-02
 -1      1079 5.66619E-02
 -1      1080 4.00208E-02
 -1      1081 2.75763E-02
 -1      1082 1.91880E-02
 -1      1083 1.29925E-02
 -1      1084 8.45268E-03
 -1      1085 5.19007E-03
 -1      1086 2.89939E-03
 -1      1087 1.41882E-03
 -1      1088 1.70719E-03
 -1      1089 1.88286E-03
 -1      1090 1.86772E-03
 -1      1091 1.73851E-03
 -1      1092 1.54879E-03
 -1      1093 1.33469E-03
 -1      1094 1.11954E-03
 -1      1095 9.47188E-04
 -1      1096 7.82209E-04
 -1      1097 6.31090E-04
 -1      1098 2.61216E+00
 -1      1099 5.39529E-04
 -1      1100 3.43229E-01
 -1      1101 1.52171E+00
 -1      1102 4.76285E-01
 -1      1103 1.11645E-03
 -1      1104 1.44969E+01
 -1      1105 9.03777E+00
 -1      1106 2.69860E+00
 -1      1107 1.94746E+00
 -1      1108 2.39244E+00
 -1      1109 3.51929E+00
 -1      1110 5.83596E+00
 -1      1111 7.89072E+00
 -1      1112 9.48449E+00
 -1      1113 1.06224E+01
 -1      1114 1.07155E+01
 -1      1115 1.02521E+01
 -1      1116 8.67462E+00
 -1      1117 6.42351E+00
 -1      1118 5.18833E+00
 -1      1119 7.28760E+00
 -1      1120 1.12257E+01
 -1      1121 1.44969E+01
 -1      1122 9.95659E+00
 -1      1123 5.01799E+00
 -1      1124 4.29938E+00
 -1      1125 3.78610E+00
 -1      1126 3.31877E+00
 -1      1127 2.93830E+00
 -1      1128 2.53958E+00
 -1      1129 1.83834E+00
 -1      1130 1.16535E+00
 -1      1131 7.58851E-01
 -1      1132 6.06131E-01
 -1      1133 5.91724E-01
 -1      1134 5.87850E-01
 -1      1135 5.60777E-01
 -1      1136 4.86962E-01
 -1      1137 3.93853E-01
 -1      1138 3.19451E-01
 -1      1139 2.72992E-01
 -1      1140 2.33214E-01
 -1      1141 1.90649E-01
 -1      1142 1.50147E-01
 -1      1143 1.14317E-01
 -1      1144 8.79698E-02
 -1      1145 7.19514E-02
 -1      1146 5.97623E-02
 -1      1147 4.83654E-02
 -1      1148 3.82445E-02
 -1      1149 2.95916E-02
 -1      1150 2.24137E-02
 -1      1151 1.75836E-02
 -1      1152 1.45103E-02
 -1      1153 1.17283E-02
 -1      1154 9.29034E-03
 -1      1155 7.24424E-03
 -1      1156 5.62715E-03
 -1      1157 4.34860E-03
 -1      1158 3.29728E-03
 -1      1159 2.45067E-03
 -1      1160 1.84735E-03
 -1      1161 1.46013E-03
 -1      1162 1.16400E-03
 -1      1163 9.12463E-04
 -1      1164 7.03594E-04
 -1      1165 5.32784E-04
 -1      1166 4.05737E-04
 -1      1167 3.30353E-04
 -1      1168 2.70828E-04
 -1      1169 1.80146E-04
 -1      1170 8.01426E-05
 -1      1171 1.29665E+01
 -1      1172 7.96310E+00
 -1      1173 3.13065E+00
 -1      1174 3.73035E+00
 -1      1175 4.37585E+00
 -1      1176 4.64080E+00
 -1      1177 4.68902E+00
 -1      1178 4.03820E+00
 -1      1179 2.49932E+00
 -1      1180 1.51577E+00
 -1      1181 1.57143E+00
 -1      1182 1.72258E+00
 -1      1183 1.68499E+00
 -1      1184 1.52321E+00
 -1      1185 1.28105E+00
 -1      1186 1.04080E+00
 -1      1187 8.06724E-01
 -1      1188 6.01037E-01
 -1      1189 4.40310E-01
 -1      1190 3.28563E-01
 -1      1191 2.47192E-01
 -1      1192 1.82023E-01
 -1      1193 1.31208E-01
 -1      1194 9.24242E-02
 -1      1195 6.38776E-02
 -1      1196 4.76045E-02
 -1      1197 3.91798E-02
 -1      1198 3.16410E-02
 -1      1199 2.51106E-02
 -1      1200 1.98570E-02
 -1      1201 1.64797E-02
 -1      1202 1.41808E-02
 -1      1203 1.18951E-02
 -1      1204 9.76190E-03
 -1      1205 7.86851E-03
 -1      1206 6.30792E-03
 -1      1207 5.03392E-03
 -1      1208 3.94511E-03
 -1      1209 3.03710E-03
 -1      1210 2.29570E-03
 -1      1211 1.70162E-03
 -1      1212 1.23368E-03
 -1      1213 9.12094E-04
 -1      1214 7.01712E-04
 -1      1215 5.31432E-04
 -1      1216 3.92604E-04
 -1      1217 2.76989E-04
 -1      1218 2.01005E-04
 -1      1219 1.40063E-04
 -1      1220 6.67222E-05
 -1      1221 3.56988E-05
 -1      1222 4.12153E-05
 -1      1223 4.25067E-05
 -1      1224 3.50444E-05
 -1      1225 2.20389E-05
 -1      1226 2.40945E-05
 -1      1227 3.66998E-05
 -1      1228 4.32180E-05
 -1      1229 4.47299E-05
 -1      1230 4.31626E-05
 -1      1231 3.64192E-05
 -1      1232 2.39568E-05
 -1      1233 2.24049E-05
 -1      1234 3.50721E-05
 -1      1235 4.76277E-05
 -1      1236 5.53219E-05
 -1      1237 4.68128E-05
 -1      1238 2.73451E+01
 -1      1239 3.46193E+01
 -1      1240 4.21629E+01
 -1      1241 2.93897E+01
 -1      1242 1.44420E+01
 -1      1243 1.22675E+01
 -1      1244 1.27083E+01
 -1      1245 1.31491E+01
 -1      1246 1.26844E+01
 -1      1247 1.42127E+01
 -1      1248 2.75050E+01
 -1      1249 3.88042E+01
 -1      1250 3.86227E+01
 -1      1251 3.84412E+01
 -1      1252 3.74558E+01
 -1      1253 4.17887E+01
 -1      1254 4.71069E+01
 -1      1255 3.54525E+01
 -1      1256 1.79402E+01
 -1      1257 1.16022E+01
 -1      1258 1.15524E+01
 -1      1259 1.19829E+01
 -1      1260 1.21286E+01
 -1      1261 1.22743E+01
 -1      1262 1.35867E+01
 -1      1263 2.70777E+01
 -1      1264 3.92562E+01
 -1      1265 3.34353E+01
 -1      1266 2.76144E+01
 -1      1267 1.44969E+01
 -1      1268 3.57868E+00
 -1      1269 9.03777E+00
 -1      1270 2.01881E+00
 -1      1271 2.89889E+00
 -1      1272 2.89889E+00
 -1      1273 2.07639E+00
 -1      1274 1.94746E+00
 -1      1275 2.14775E+00
 -1      1276 2.70016E+00
 -1      1277 2.38411E+00
 -1      1278 2.38411E+00
 -1      1279 4.14198E+00
 -1      1280 3.33118E+00
 -1      1281 3.32285E+00
 -1      1282 6.98722E+00
 -1      1283 5.48136E+00
 -1      1284 5.29324E+00
 -1      1285 8.98166E+00
 -1      1286 8.43277E+00
 -1      1287 8.07816E+00
 -1      1288 1.08953E+01
 -1      1289 9.85046E+00
 -1      1290 1.03925E+01
 -1      1291 1.21568E+01
 -1      1292 1.20637E+01
 -1      1293 1.24297E+01
 -1      1294 1.25574E+01
 -1      1295 1.25574E+01
 -1      1296 1.39987E+01
 -1      1297 1.13724E+01
 -1      1298 1.18358E+01
 -1      1299 1.36777E+01
 -1      1300 9.24755E+00
 -1      1301 1.03616E+01
 -1      1302 1.19453E+01
 -1      1303 6.00168E+00
 -1      1304 7.13875E+00
 -1      1305 8.82572E+00
 -1      1306 4.93050E+00
 -1      1307 5.02861E+00
 -1      1308 5.74385E+00
 -1      1309 7.33457E+00
 -1      1310 5.13719E+00
 -1      1311 4.97747E+00
 -1      1312 1.29665E+01
 -1      1313 1.12257E+01
 -1      1314 9.07531E+00
 -1      1315 1.29665E+01
 -1      1316 9.95659E+00
 -1      1317 5.41633E+00
 -1      1318 5.01799E+00
 -1      1319 4.61965E+00
 -1      1320 5.01799E+00
 -1      1321 4.29938E+00
 -1      1322 3.97911E+00
 -1      1323 4.29938E+00
 -1      1324 3.78610E+00
 -1      1325 3.59309E+00
 -1      1326 3.78610E+00
 -1      1327 3.31877E+00
 -1      1328 3.04446E+00
 -1      1329 3.31877E+00
 -1      1330 2.93830E+00
 -1      1331 2.83214E+00
 -1      1332 2.93830E+00
 -1      1333 2.53958E+00
 -1      1334 2.24701E+00
 -1      1335 2.53958E+00
 -1      1336 1.88603E+00
 -1      1337 1.47736E+00
 -1      1338 1.88603E+00
 -1      1339 1.18861E+00
 -1      1340 9.24300E-01
 -1      1341 1.23631E+00
 -1      1342 7.58851E-01
 -1      1343 6.16665E-01
 -1      1344 7.82114E-01
 -1      1345 6.06131E-01
 -1      1346 5.95597E-01
 -1      1347 6.06131E-01
 -1      1348 5.76502E-01
 -1      1349 5.72629E-01
 -1      1350 5.76502E-01
 -1      1351 5.87850E-01
 -1      1352 5.87850E-01
 -1      1353 5.72629E-01
 -1      1354 5.60777E-01
 -1      1355 5.33704E-01
 -1      1356 5.60777E-01
 -1      1357 4.86962E-01
 -1      1358 4.40220E-01
 -1      1359 4.86962E-01
 -1      1360 4.03440E-01
 -1      1361 3.57073E-01
 -1      1362 4.03440E-01
 -1      1363 3.31836E-01
 -1      1364 3.03800E-01
 -1      1365 3.41423E-01
 -1      1366 2.75030E-01
 -1      1367 2.56608E-01
 -1      1368 2.87416E-01
 -1      1369 2.33214E-01
 -1      1370 2.11858E-01
 -1      1371 2.35252E-01
 -1      1372 1.90649E-01
 -1      1373 1.69439E-01
 -1      1374 1.90649E-01
 -1      1375 1.51238E-01
 -1      1376 1.31945E-01
 -1      1377 1.51238E-01
 -1      1378 1.17181E-01
 -1      1379 1.00643E-01
 -1      1380 1.18271E-01
 -1      1381 8.79741E-02
 -1      1382 7.81657E-02
 -1      1383 9.08385E-02
 -1      1384 7.19514E-02
 -1      1385 6.57414E-02
 -1      1386 7.19557E-02
 -1      1387 5.97623E-02
 -1      1388 5.37832E-02
 -1      1389 5.97623E-02
 -1      1390 4.83654E-02
 -1      1391 4.29475E-02
 -1      1392 4.83654E-02
 -1      1393 3.82445E-02
 -1      1394 3.35414E-02
 -1      1395 3.82445E-02
 -1      1396 2.95916E-02
 -1      1397 2.56418E-02
 -1      1398 2.95916E-02
 -1      1399 2.28216E-02
 -1      1400 1.95934E-02
 -1      1401 2.28216E-02
 -1      1402 1.75836E-02
 -1      1403 1.59818E-02
 -1      1404 1.79916E-02
 -1      1405 1.45103E-02
 -1      1406 1.30387E-02
 -1      1407 1.45103E-02
 -1      1408 1.17283E-02
 -1      1409 1.04178E-02
 -1      1410 1.17283E-02
 -1      1411 9.37455E-03
 -1      1412 8.24705E-03
 -1      1413 9.37455E-03
 -1      1414 7.41210E-03
 -1      1415 6.49350E-03
 -1      1416 7.49631E-03
 -1      1417 5.83599E-03
 -1      1418 5.13750E-03
 -1      1419 6.00385E-03
 -1      1420 4.61790E-03
 -1      1421 4.03783E-03
 -1      1422 4.82674E-03
 -1      1423 3.58553E-03
 -1      1424 3.11428E-03
 -1      1425 3.85483E-03
 -1      1426 2.73163E-03
 -1      1427 2.35627E-03
 -1      1428 3.01988E-03
 -1      1429 2.04013E-03
 -1      1430 1.81217E-03
 -1      1431 2.32109E-03
 -1      1432 1.55630E-03
 -1      1433 1.39704E-03
 -1      1434 1.74908E-03
 -1      1435 1.19374E-03
 -1      1436 1.05687E-03
 -1      1437 1.28991E-03
 -1      1438 9.12463E-04
 -1      1439 7.97805E-04
 -1      1440 9.42210E-04
 -1      1441 7.04944E-04
 -1      1442 6.10733E-04
 -1      1443 7.04944E-04
 -1      1444 5.40573E-04
 -1      1445 4.63975E-04
 -1      1446 5.41924E-04
 -1      1447 4.05911E-04
 -1      1448 3.55462E-04
 -1      1449 4.13700E-04
 -1      1450 3.30353E-04
 -1      1451 3.05417E-04
 -1      1452 3.30526E-04
 -1      1453 2.70828E-04
 -1      1454 2.36240E-04
 -1      1455 2.70828E-04
 -1      1456 1.84626E-04
 -1      1457 1.28533E-04
 -1      1458 1.84626E-04
 -1      1459 9.07229E-05
 -1      1460 9.52030E-05
 -1      1461 2.95973E+00
 -1      1462 7.96310E+00
 -1      1463 7.96310E+00
 -1      1464 3.07726E+00
 -1      1465 2.90633E+00
 -1      1466 2.90633E+00
 -1      1467 3.73035E+00
 -1      1468 3.30158E+00
 -1      1469 3.07726E+00
 -1      1470 4.37585E+00
 -1      1471 4.15912E+00
 -1      1472 3.73035E+00
 -1      1473 4.64080E+00
 -1      1474 4.59258E+00
 -1      1475 4.37585E+00
 -1      1476 4.68902E+00
 -1      1477 4.68902E+00
 -1      1478 4.64080E+00
 -1      1479 3.38739E+00
 -1      1480 4.03820E+00
 -1      1481 4.03820E+00
 -1      1482 1.61125E+00
 -1      1483 2.49932E+00
 -1      1484 2.49932E+00
 -1      1485 1.28015E+00
 -1      1486 1.37562E+00
 -1      1487 1.37562E+00
 -1      1488 1.59900E+00
 -1      1489 1.44786E+00
 -1      1490 1.30772E+00
 -1      1491 1.72258E+00
 -1      1492 1.72258E+00
 -1      1493 1.59900E+00
 -1      1494 1.64739E+00
 -1      1495 1.68499E+00
 -1      1496 1.68499E+00
 -1      1497 1.39902E+00
 -1      1498 1.52321E+00
 -1      1499 1.52321E+00
 -1      1500 1.16390E+00
 -1      1501 1.28186E+00
 -1      1502 1.28186E+00
 -1      1503 9.35436E-01
 -1      1504 1.05772E+00
 -1      1505 1.05853E+00
 -1      1506 7.19182E-01
 -1      1507 8.30973E-01
 -1      1508 8.47895E-01
 -1      1509 5.33138E-01
 -1      1510 6.27034E-01
 -1      1511 6.51283E-01
 -1      1512 3.90331E-01
 -1      1513 4.57163E-01
 -1      1514 4.83159E-01
 -1      1515 2.85619E-01
 -1      1516 3.30535E-01
 -1      1517 3.47388E-01
 -1      1518 2.10737E-01
 -1      1519 2.47192E-01
 -1      1520 2.49164E-01
 -1      1521 1.53308E-01
 -1      1522 1.82023E-01
 -1      1523 1.82023E-01
 -1      1524 1.10339E-01
 -1      1525 1.32439E-01
 -1      1526 1.32439E-01
 -1      1527 7.76712E-02
 -1      1528 9.43540E-02
 -1      1529 9.55858E-02
 -1      1530 5.37277E-02
 -1      1531 6.55915E-02
 -1      1532 6.75213E-02
 -1      1533 4.31950E-02
 -1      1534 4.76045E-02
 -1      1535 4.93183E-02
 -1      1536 3.51647E-02
 -1      1537 3.91798E-02
 -1      1538 3.91798E-02
 -1      1539 2.81173E-02
 -1      1540 3.16410E-02
 -1      1541 3.16410E-02
 -1      1542 2.21039E-02
 -1      1543 2.51106E-02
 -1      1544 2.51106E-02
 -1      1545 1.76102E-02
 -1      1546 1.98570E-02
 -1      1547 1.98570E-02
 -1      1548 1.53493E-02
 -1      1549 1.64797E-02
 -1      1550 1.64797E-02
 -1      1551 1.30124E-02
 -1      1552 1.41808E-02
 -1      1553 1.41808E-02
 -1      1554 1.07778E-02
 -1      1555 1.18951E-02
 -1      1556 1.18951E-02
 -1      1557 8.74606E-03
 -1      1558 9.76190E-03
 -1      1559 9.76190E-03
 -1      1560 6.99097E-03
 -1      1561 7.86851E-03
 -1      1562 7.86851E-03
 -1      1563 5.62486E-03
 -1      1564 6.30792E-03
 -1      1565 6.30792E-03
 -1      1566 4.44297E-03
 -1      1567 5.03392E-03
 -1      1568 5.03392E-03
 -1      1569 3.48158E-03
 -1      1570 3.97945E-03
 -1      1571 3.97945E-03
 -1      1572 2.67983E-03
 -1      1573 3.08997E-03
 -1      1574 3.12431E-03
 -1      1575 2.02499E-03
 -1      1576 2.35625E-03
 -1      1577 2.40912E-03
 -1      1578 1.50004E-03
 -1      1579 1.76285E-03
 -1      1580 1.82341E-03
 -1      1581 1.08628E-03
 -1      1582 1.29141E-03
 -1      1583 1.35265E-03
 -1      1584 8.06422E-04
 -1      1585 9.22872E-04
 -1      1586 9.80608E-04
 -1      1587 6.07780E-04
 -1      1588 7.01712E-04
 -1      1589 7.12490E-04
 -1      1590 4.55083E-04
 -1      1591 5.31432E-04
 -1      1592 5.31432E-04
 -1      1593 3.30124E-04
 -1      1594 3.92604E-04
 -1      1595 3.92604E-04
 -1      1596 2.28605E-04
 -1      1597 2.81739E-04
 -1      1598 2.81739E-04
 -1      1599 1.78155E-04
 -1      1600 2.01005E-04
 -1      1601 2.05755E-04
 -1      1602 1.01971E-04
 -1      1603 1.40063E-04
 -1      1604 1.40063E-04
 -1      1605 7.09473E-05
 -1      1606 5.41755E-05
 -1      1607 5.28841E-05
 -1      1608 5.67565E-05
 -1      1609 5.67565E-05
 -1      1610 6.84253E-05
 -1      1611 4.92943E-05
 -1      1612 5.67565E-05
 -1      1613 7.10064E-05
 -1      1614 2.75257E-05
 -1      1615 3.30690E-05
 -1      1616 5.47811E-05
 -1      1617 4.58540E-05
 -1      1618 3.82550E-05
 -1      1619 4.92852E-05
 -1      1620 6.10312E-05
 -1      1621 5.60249E-05
 -1      1622 7.01854E-05
 -1      1623 6.67278E-05
 -1      1624 6.52159E-05
 -1      1625 8.45410E-05
 -1      1626 6.67278E-05
 -1      1627 6.67278E-05
 -1      1628 8.87257E-05
 -1      1629 6.51393E-05
 -1      1630 6.67066E-05
 -1      1631 8.87045E-05
 -1      1632 5.55369E-05
 -1      1633 6.07130E-05
 -1      1634 8.42570E-05
 -1      1635 3.84401E-05
 -1      1636 4.57264E-05
 -1      1637 7.00202E-05
 -1      1638 3.34733E-05
 -1      1639 2.77388E-05
 -1      1640 4.95084E-05
 -1      1641 5.70643E-05
 -1      1642 5.01317E-05
 -1      1643 5.54656E-05
 -1      1644 6.26873E-05
 -1      1645 5.70643E-05
 -1      1646 7.21239E-05
 -1      1647 7.02619E-05
 -1      1648 6.81907E-05
 -1      1649 7.76274E-05
 -1      1650 1.08072E-04
 -1      1651 3.37722E+01
 -1      1652 3.40415E+01
 -1      1653 3.86700E+01
 -1      1654 3.11264E+01
 -1      1655 4.21629E+01
 -1      1656 4.21629E+01
 -1      1657 1.66165E+01
 -1      1658 2.93897E+01
 -1      1659 1.18535E+01
 -1      1660 1.40280E+01
 -1      1661 1.22675E+01
 -1      1662 1.22675E+01
 -1      1663 1.25972E+01
 -1      1664 1.21564E+01
 -1      1665 1.31491E+01
 -1      1666 1.31491E+01
 -1      1667 1.22197E+01
 -1      1668 1.26844E+01
 -1      1669 1.34837E+01
 -1      1670 1.14907E+01
 -1      1671 2.75050E+01
 -1      1672 1.62057E+01
 -1      1673 3.88042E+01
 -1      1674 3.88042E+01
 -1      1675 3.78873E+01
 -1      1676 3.80688E+01
 -1      1677 4.34613E+01
 -1      1678 4.34613E+01
 -1      1679 4.24759E+01
 -1      1680 4.34613E+01
 -1      1681 4.64046E+01
 -1      1682 4.10864E+01
 -1      1683 4.71069E+01
 -1      1684 4.71069E+01
 -1      1685 2.37980E+01
 -1      1686 3.54525E+01
 -1      1687 1.22266E+01
 -1      1688 1.80843E+01
 -1      1689 1.03481E+01
 -1      1690 1.08284E+01
 -1      1691 1.15524E+01
 -1      1692 1.11220E+01
 -1      1693 1.19829E+01
 -1      1694 1.19829E+01
 -1      1695 1.17376E+01
 -1      1696 1.15918E+01
 -1      1697 1.22743E+01
 -1      1698 1.22743E+01
 -1      1699 1.29642E+01
 -1      1700 1.16519E+01
 -1      1701 2.70777E+01
 -1      1702 1.48991E+01
 -1      1703 3.92562E+01
 -1      1704 3.92562E+01
 -1      1705 3.12154E+01
 -1      1706 3.70363E+01
 -1      1707 3.40415E+01
 -1      1708 3.40415E+01
 -1      1709 1.40280E+01
 -1      1710 2.93897E+01
 -1      1711 7.09473E-05
 -1      1712 8.39075E-05
 -1      1713 3.78229E+01
 -1      1714 3.86700E+01
 -1      1715 4.04687E+01
 -1      1716 1.18535E+01
 -1      1717 1.21564E+01
 -1      1718 1.25972E+01
 -1      1719 1.26844E+01
 -1      1720 1.14907E+01
 -1      1721 1.34837E+01
 -1      1722 2.75050E+01
 -1      1723 3.80688E+01
 -1      1724 4.29074E+01
 -1      1725 4.84814E+01
 -1      1726 4.70918E+01
 -1      1727 4.64046E+01
 -1      1728 3.54525E+01
 -1      1729 1.80843E+01
 -1      1730 1.09725E+01
 -1      1731 1.03481E+01
 -1      1732 1.15524E+01
 -1      1733 1.15918E+01
 -1      1734 1.17376E+01
 -1      1735 1.16519E+01
 -1      1736 1.29642E+01
 -1      1737 2.70777E+01
 -1      1738 3.70363E+01
 -1      1739 3.76425E+01
 -1      1740 9.26612E+00
 -1      1741 9.26612E+00
 -1      1742 1.54470E+00
 -1      1743 1.61605E+00
 -1      1744 2.62204E+00
 -1      1745 3.30183E+00
 -1      1746 2.01899E+00
 -1      1747 3.24096E+00
 -1      1748 2.60994E+00
 -1      1749 6.06185E+00
 -1      1750 4.72247E+00
 -1      1751 4.00957E+00
 -1      1752 9.37415E+00
 -1      1753 7.92861E+00
 -1      1754 7.35784E+00
 -1      1755 1.30504E+01
 -1      1756 1.21816E+01
 -1      1757 1.20321E+01
 -1      1758 1.72666E+01
 -1      1759 1.60982E+01
 -1      1760 1.78873E+01
 -1      1761 2.09142E+01
 -1      1762 2.16358E+01
 -1      1763 1.36856E+01
 -1      1764 1.46965E+01
 -1      1765 2.26545E+01
 -1      1766 8.28896E+00
 -1      1767 1.03978E+01
 -1      1768 1.31489E+01
 -1      1769 5.01463E+00
 -1      1770 5.98770E+00
 -1      1771 7.55974E+00
 -1      1772 4.17037E+00
 -1      1773 3.96368E+00
 -1      1774 4.20753E+00
 -1      1775 7.65480E+00
 -1      1776 3.76365E+00
 -1      1777 2.74986E+00
 -1      1778 2.65143E+00
 -1      1779 4.72585E+00
 -1      1780 2.66501E+00
 -1      1781 2.71840E+00
 -1      1782 2.41011E+00
 -1      1783 3.75859E+00
 -1      1784 3.43833E+00
 -1      1785 3.32967E+00
 -1      1786 3.13665E+00
 -1      1787 2.78888E+00
 -1      1788 2.95906E+00
 -1      1789 2.68475E+00
 -1      1790 2.50263E+00
 -1      1791 2.46935E+00
 -1      1792 2.36320E+00
 -1      1793 2.10965E+00
 -1      1794 2.29368E+00
 -1      1795 2.00112E+00
 -1      1796 1.82474E+00
 -1      1797 1.82509E+00
 -1      1798 1.46411E+00
 -1      1799 1.57920E+00
 -1      1800 1.29444E+00
 -1      1801 1.00570E+00
 -1      1802 1.23350E+00
 -1      1803 8.11101E-01
 -1      1804 6.45652E-01
 -1      1805 8.69236E-01
 -1      1806 5.20740E-01
 -1      1807 5.10207E-01
 -1      1808 5.49728E-01
 -1      1809 4.94840E-01
 -1      1810 4.75745E-01
 -1      1811 4.09449E-01
 -1      1812 4.73371E-01
 -1      1813 4.88592E-01
 -1      1814 3.91708E-01
 -1      1815 5.11181E-01
 -1      1816 4.84108E-01
 -1      1817 4.11923E-01
 -1      1818 4.75134E-01
 -1      1819 4.28391E-01
 -1      1820 4.25537E-01
 -1      1821 4.08020E-01
 -1      1822 3.71240E-01
 -1      1823 3.96191E-01
 -1      1824 3.51818E-01
 -1      1825 3.26581E-01
 -1      1826 3.56398E-01
 -1      1827 3.04743E-01
 -1      1828 2.75973E-01
 -1      1829 3.15137E-01
 -1      1830 2.50336E-01
 -1      1831 2.26942E-01
 -1      1832 2.67663E-01
 -1      1833 2.01390E-01
 -1      1834 1.80180E-01
 -1      1835 2.16474E-01
 -1      1836 1.56986E-01
 -1      1837 1.38784E-01
 -1      1838 1.67727E-01
 -1      1839 1.19034E-01
 -1      1840 1.04269E-01
 -1      1841 1.24782E-01
 -1      1842 9.08385E-02
 -1      1843 7.81700E-02
 -1      1844 9.16007E-02
 -1      1845 6.77340E-02
 -1      1846 6.15196E-02
 -1      1847 6.77340E-02
 -1      1848 5.36526E-02
 -1      1849 4.76735E-02
 -1      1850 4.94308E-02
 -1      1851 4.36168E-02
 -1      1852 3.81990E-02
 -1      1853 3.75071E-02
 -1      1854 3.54468E-02
 -1      1855 3.07437E-02
 -1      1856 3.06982E-02
 -1      1857 2.81696E-02
 -1      1858 2.42198E-02
 -1      1859 2.53719E-02
 -1      1860 2.19223E-02
 -1      1861 1.91020E-02
 -1      1862 2.05002E-02
 -1      1863 1.71224E-02
 -1      1864 1.51126E-02
 -1      1865 1.62230E-02
 -1      1866 1.36209E-02
 -1      1867 1.21494E-02
 -1      1868 1.27517E-02
 -1      1869 1.13188E-02
 -1      1870 1.00084E-02
 -1      1871 1.04295E-02
 -1      1872 9.20804E-03
 -1      1873 8.16475E-03
 -1      1874 8.79859E-03
 -1      1875 7.42388E-03
 -1      1876 6.58893E-03
 -1      1877 7.25737E-03
 -1      1878 6.00936E-03
 -1      1879 5.35185E-03
 -1      1880 5.93693E-03
 -1      1881 4.84473E-03
 -1      1882 4.32513E-03
 -1      1883 4.85024E-03
 -1      1884 3.89361E-03
 -1      1885 3.44131E-03
 -1      1886 3.91161E-03
 -1      1887 3.10843E-03
 -1      1888 2.72578E-03
 -1      1889 3.14722E-03
 -1      1890 2.43398E-03
 -1      1891 2.11784E-03
 -1      1892 2.52253E-03
 -1      1893 1.86943E-03
 -1      1894 1.61356E-03
 -1      1895 1.98233E-03
 -1      1896 1.40714E-03
 -1      1897 1.20384E-03
 -1      1898 1.52749E-03
 -1      1899 1.03587E-03
 -1      1900 8.91460E-04
 -1      1901 1.15309E-03
 -1      1902 7.57391E-04
 -1      1903 6.64530E-04
 -1      1904 8.51045E-04
 -1      1905 5.59602E-04
 -1      1906 4.89442E-04
 -1      1907 6.12049E-04
 -1      1908 4.13700E-04
 -1      1909 3.55636E-04
 -1      1910 4.31378E-04
 -1      1911 3.07472E-04
 -1      1912 2.82363E-04
 -1      1913 3.07472E-04
 -1      1914 2.44480E-04
 -1      1915 2.09892E-04
 -1      1916 2.21426E-04
 -1      1917 1.80591E-04
 -1      1918 1.28978E-04
 -1      1919 1.04037E-04
 -1      1920 1.54243E-04
 -1      1921 2.83623E+00
 -1      1922 2.61191E+00
 -1      1923 2.42398E+00
 -1      1924 3.33034E+00
 -1      1925 2.90157E+00
 -1      1926 2.43622E+00
 -1      1927 3.58271E+00
 -1      1928 3.36598E+00
 -1      1929 2.53720E+00
 -1      1930 3.52081E+00
 -1      1931 3.47259E+00
 -1      1932 2.46272E+00
 -1      1933 2.65155E+00
 -1      1934 3.30236E+00
 -1      1935 2.13415E+00
 -1      1936 1.45389E+00
 -1      1937 2.34196E+00
 -1      1938 1.60612E+00
 -1      1939 1.23679E+00
 -1      1940 1.47242E+00
 -1      1941 1.31506E+00
 -1      1942 1.39045E+00
 -1      1943 1.22273E+00
 -1      1944 1.31952E+00
 -1      1945 1.53909E+00
 -1      1946 1.41552E+00
 -1      1947 1.33053E+00
 -1      1948 1.45575E+00
 -1      1949 1.49334E+00
 -1      1950 1.30985E+00
 -1      1951 1.28496E+00
 -1      1952 1.40914E+00
 -1      1953 1.21749E+00
 -1      1954 1.10489E+00
 -1      1955 1.22205E+00
 -1      1956 1.10799E+00
 -1      1957 9.13695E-01
 -1      1958 1.01987E+00
 -1      1959 9.60061E-01
 -1      1960 7.19536E-01
 -1      1961 8.23999E-01
 -1      1962 7.85336E-01
 -1      1963 5.45259E-01
 -1      1964 6.37407E-01
 -1      1965 6.13512E-01
 -1      1966 3.99961E-01
 -1      1967 4.75936E-01
 -1      1968 4.62060E-01
 -1      1969 2.84670E-01
 -1      1970 3.44467E-01
 -1      1971 3.37243E-01
 -1      1972 2.08428E-01
 -1      1973 2.46855E-01
 -1      1974 2.43934E-01
 -1      1975 1.53223E-01
 -1      1976 1.81938E-01
 -1      1977 1.79628E-01
 -1      1978 1.11571E-01
 -1      1979 1.32439E-01
 -1      1980 1.32354E-01
 -1      1981 7.96011E-02
 -1      1982 9.55858E-02
 -1      1983 9.55858E-02
 -1      1984 5.54416E-02
 -1      1985 6.75213E-02
 -1      1986 6.75213E-02
 -1      1987 4.04296E-02
 -1      1988 4.65529E-02
 -1      1989 4.65529E-02
 -1      1990 3.10325E-02
 -1      1991 3.50476E-02
 -1      1992 3.22822E-02
 -1      1993 2.55960E-02
 -1      1994 2.91197E-02
 -1      1995 2.49875E-02
 -1      1996 2.07008E-02
 -1      1997 2.37075E-02
 -1      1998 2.11862E-02
 -1      1999 1.67017E-02
 -1      2000 1.89486E-02
 -1      2001 1.75455E-02
 -1      2002 1.40132E-02
 -1      2003 1.51437E-02
 -1      2004 1.42352E-02
 -1      2005 1.15028E-02
 -1      2006 1.26713E-02
 -1      2007 1.13352E-02
 -1      2008 9.58299E-03
 -1      2009 1.07003E-02
 -1      2010 9.19076E-03
 -1      2011 7.92904E-03
 -1      2012 8.94489E-03
 -1      2013 7.75013E-03
 -1      2014 6.43995E-03
 -1      2015 7.31749E-03
 -1      2016 6.50048E-03
 -1      2017 5.23389E-03
 -1      2018 5.91694E-03
 -1      2019 5.36592E-03
 -1      2020 4.19606E-03
 -1      2021 4.78700E-03
 -1      2022 4.39603E-03
 -1      2023 3.33670E-03
 -1      2024 3.80023E-03
 -1      2025 3.55331E-03
 -1      2026 2.60513E-03
 -1      2027 2.99674E-03
 -1      2028 2.81751E-03
 -1      2029 1.99677E-03
 -1      2030 2.32035E-03
 -1      2031 2.19278E-03
 -1      2032 1.50112E-03
 -1      2033 1.76325E-03
 -1      2034 1.67448E-03
 -1      2035 1.10458E-03
 -1      2036 1.31321E-03
 -1      2037 1.25305E-03
 -1      2038 7.92613E-04
 -1      2039 9.56021E-04
 -1      2040 9.16583E-04
 -1      2041 5.93510E-04
 -1      2042 6.98220E-04
 -1      2043 6.73633E-04
 -1      2044 4.48350E-04
 -1      2045 5.24699E-04
 -1      2046 5.10429E-04
 -1      2047 3.29175E-04
 -1      2048 3.91655E-04
 -1      2049 3.84921E-04
 -1      2050 2.33354E-04
 -1      2051 2.81739E-04
 -1      2052 2.80790E-04
 -1      2053 1.66721E-04
 -1      2054 1.94320E-04
 -1      2055 1.94320E-04
 -1      2056 9.27059E-05
 -1      2057 1.30798E-04
 -1      2058 1.19364E-04
 -1      2059 7.46427E-05
 -1      2060 5.87151E-05
 -1      2061 7.49403E-05
 -1      2062 1.03879E-04
 -1      2063 1.03879E-04
 -1      2064 1.07812E-04
 -1      2065 1.03879E-04
 -1      2066 1.01298E-04
 -1      2067 1.10096E-04
 -1      2068 1.36751E-04
 -1      2069 7.14839E-05
 -1      2070 6.07546E-05
 -1      2071 8.09138E-05
 -1      2072 9.71378E-05
 -1      2073 8.69669E-05
 -1      2074 9.84363E-05
 -1      2075 1.08756E-04
 -1      2076 1.04571E-04
 -1      2077 1.21353E-04
 -1      2078 1.08756E-04
 -1      2079 1.08756E-04
 -1      2080 1.28787E-04
 -1      2081 1.08515E-04
 -1      2082 1.08536E-04
 -1      2083 1.28566E-04
 -1      2084 1.04088E-04
 -1      2085 1.08515E-04
 -1      2086 1.28346E-04
 -1      2087 8.71413E-05
 -1      2088 9.69518E-05
 -1      2089 1.21209E-04
 -1      2090 6.08955E-05
 -1      2091 7.15968E-05
 -1      2092 9.85284E-05
 -1      2093 7.69822E-05
 -1      2094 6.03238E-05
 -1      2095 8.24121E-05
 -1      2096 9.37932E-05
 -1      2097 9.37932E-05
 -1      2098 9.86514E-05
 -1      2099 3.28151E+01
 -1      2100 2.93222E+01
 -1      2101 4.04687E+01
 -1      2102 4.04687E+01
 -1      2103 3.28231E+01
 -1      2104 3.54689E+01
 -1      2105 3.54689E+01
 -1      2106 1.53595E+01
 -1      2107 2.81328E+01
 -1      2108 9.35148E+00
 -1      2109 1.19400E+01
 -1      2110 1.06831E+01
 -1      2111 2.10947E+00
 -1      2112 1.80175E+00
 -1      2113 1.27005E+00
 -1      2114 2.02758E+00
 -1      2115 1.13291E+01
 -1      2116 1.14402E+01
 -1      2117 1.20317E+01
 -1      2118 1.14798E+01
 -1      2119 1.07636E+01
 -1      2120 1.00377E+01
 -1      2121 1.05024E+01
 -1      2122 8.74857E+00
 -1      2123 9.47751E+00
 -1      2124 1.26309E+01
 -1      2125 9.90897E+00
 -1      2126 2.70136E+01
 -1      2127 1.57143E+01
 -1      2128 3.07361E+01
 -1      2129 3.14715E+01
 -1      2130 4.29074E+01
 -1      2131 3.73334E+01
 -1      2132 3.07361E+01
 -1      2133 4.84814E+01
 -1      2134 4.84814E+01
 -1      2135 4.57023E+01
 -1      2136 4.70918E+01
 -1      2137 4.70918E+01
 -1      2138 3.71445E+01
 -1      2139 3.64422E+01
 -1      2140 2.09453E+01
 -1      2141 3.25998E+01
 -1      2142 1.23707E+01
 -1      2143 1.80843E+01
 -1      2144 1.52316E+01
 -1      2145 8.64577E+00
 -1      2146 1.00440E+01
 -1      2147 9.14794E+00
 -1      2148 8.37410E+00
 -1      2149 1.02095E+01
 -1      2150 9.77903E+00
 -1      2151 1.09083E+01
 -1      2152 1.12993E+01
 -1      2153 1.14124E+01
 -1      2154 1.08757E+01
 -1      2155 1.05831E+01
 -1      2156 9.76180E+00
 -1      2157 1.03843E+01
 -1      2158 1.12318E+01
 -1      2159 9.29694E+00
 -1      2160 2.66527E+01
 -1      2161 1.44741E+01
 -1      2162 2.94306E+01
 -1      2163 3.16505E+01
 -1      2164 3.43924E+01
 -1      2165 3.15663E+01
 -1      2166 9.93412E+00
 -1      2167 9.52007E+00
 -1      2168 9.10681E+00
 -1      2169 2.19715E+01
 -1      2170 2.56401E+01
 -1      2171 2.23721E+01
 -1      2172 7.43212E+00
 -1      2173 3.82232E+00
 -1      2174 2.96126E+00
 -1      2175 4.22066E+00
 -1      2176 3.80703E+00
 -1      2177 2.72449E+01
 -1      2178 2.48909E+01
 -1      2179 2.13900E+01
 -1      2180 1.87849E+01
 -1      2181 9.92966E-05
 -1      2182 3.43924E+01
 -1      2183 2.61804E+01
 -1      2184 1.90470E+01
 -1      2185 1.08068E+01
 -1      2186 9.52233E+00
 -1      2187 9.52596E+00
 -1      2188 7.80502E+00
 -1      2189 1.00440E+01
 -1      2190 3.64422E+01
 -1      2191 4.29074E+01
 -1      2192 1.96808E+01
 -1      2193 1.21395E+01
 -1      2194 7.89576E+00
 -1      2195 8.06342E+00
 -1      2196 1.07101E+01
 -1      2197 9.59271E+00
 -1      2198 7.29553E+00
 -1      2199 2.26373E+01
 -1      2200 7.44559E+00
 -1      2201 8.02930E+00
 -1      2202 3.53018E+00
 -1      2203 8.01165E+00
 -1      2204 6.14489E+00
 -1      2205 4.40776E+00
 -1      2206 2.92626E+00
 -1      2207 2.96086E+01
 -1      2208 1.16764E+01
 -1      2209 1.49642E+01
 -1      2210 3.17567E+00
 -1      2211 4.22662E+00
 -1      2212 1.86527E+00
 -1      2213 2.27198E+00
 -1      2214 2.29107E+00
 -1      2215 1.93223E+00
 -1      2216 2.34381E+00
 -1      2217 2.23515E+00
 -1      2218 1.98183E+00
 -1      2219 2.03493E+00
 -1      2220 1.49008E+00
 -1      2221 2.41801E+00
 -1      2222 2.35267E+00
 -1      2223 1.96362E+00
 -1      2224 2.21926E+00
 -1      2225 2.04167E+00
 -1      2226 1.77419E+00
 -1      2227 1.91474E+00
 -1      2228 1.69934E+00
 -1      2229 1.63137E+00
 -1      2230 1.56860E+00
 -1      2231 1.49908E+00
 -1      2232 1.37369E+00
 -1      2233 1.46964E+00
 -1      2234 1.29361E+00
 -1      2235 1.21350E+00
 -1      2236 1.23103E+00
 -1      2237 1.06136E+00
 -1      2238 1.12147E+00
 -1      2239 1.00951E+00
 -1      2240 8.14912E-01
 -1      2241 1.00703E+00
 -1      2242 7.05041E-01
 -1      2243 5.80129E-01
 -1      2244 8.45313E-01
 -1      2245 5.46638E-01
 -1      2246 5.31272E-01
 -1      2247 7.01951E-01
 -1      2248 4.64757E-01
 -1      2249 4.62382E-01
 -1      2250 6.01946E-01
 -1      2251 4.42204E-01
 -1      2252 4.64793E-01
 -1      2253 5.15253E-01
 -1      2254 4.50954E-01
 -1      2255 4.41980E-01
 -1      2256 4.81236E-01
 -1      2257 4.16150E-01
 -1      2258 3.95778E-01
 -1      2259 4.41566E-01
 -1      2260 3.70669E-01
 -1      2261 3.51246E-01
 -1      2262 3.90627E-01
 -1      2263 3.30315E-01
 -1      2264 3.08477E-01
 -1      2265 3.44586E-01
 -1      2266 2.83240E-01
 -1      2267 2.57604E-01
 -1      2268 2.98418E-01
 -1      2269 2.31832E-01
 -1      2270 2.06279E-01
 -1      2271 2.47410E-01
 -1      2272 1.82295E-01
 -1      2273 1.59101E-01
 -1      2274 1.97654E-01
 -1      2275 1.38123E-01
 -1      2276 1.18373E-01
 -1      2277 1.52692E-01
 -1      2278 1.00854E-01
 -1      2279 8.74234E-02
 -1      2280 1.14195E-01
 -1      2281 7.33320E-02
 -1      2282 6.28959E-02
 -1      2283 8.25854E-02
 -1      2284 5.19261E-02
 -1      2285 4.40590E-02
 -1      2286 5.75241E-02
 -1      2287 3.58525E-02
 -1      2288 3.17959E-02
 -1      2289 3.83478E-02
 -1      2290 2.73352E-02
 -1      2291 2.45830E-02
 -1      2292 2.56807E-02
 -1      2293 2.22694E-02
 -1      2294 1.96953E-02
 -1      2295 1.89064E-02
 -1      2296 1.87167E-02
 -1      2297 1.64191E-02
 -1      2298 1.56141E-02
 -1      2299 1.53601E-02
 -1      2300 1.33804E-02
 -1      2301 1.35765E-02
 -1      2302 1.23387E-02
 -1      2303 1.08471E-02
 -1      2304 1.14758E-02
 -1      2305 9.88201E-03
 -1      2306 9.05147E-03
 -1      2307 9.46905E-03
 -1      2308 8.29023E-03
 -1      2309 7.48988E-03
 -1      2310 7.74275E-03
 -1      2311 7.03042E-03
 -1      2312 6.28955E-03
 -1      2313 6.52206E-03
 -1      2314 5.81721E-03
 -1      2315 5.23764E-03
 -1      2316 5.59025E-03
 -1      2317 4.79206E-03
 -1      2318 4.28495E-03
 -1      2319 4.67234E-03
 -1      2320 3.92324E-03
 -1      2321 3.49173E-03
 -1      2322 3.86506E-03
 -1      2323 3.16050E-03
 -1      2324 2.82762E-03
 -1      2325 3.17213E-03
 -1      2326 2.53596E-03
 -1      2327 2.24416E-03
 -1      2328 2.54924E-03
 -1      2329 2.00939E-03
 -1      2330 1.76099E-03
 -1      2331 2.02282E-03
 -1      2332 1.57214E-03
 -1      2333 1.36572E-03
 -1      2334 1.59921E-03
 -1      2335 1.20561E-03
 -1      2336 1.03763E-03
 -1      2337 1.25026E-03
 -1      2338 9.05081E-04
 -1      2339 7.71012E-04
 -1      2340 9.57599E-04
 -1      2341 6.63619E-04
 -1      2342 5.58692E-04
 -1      2343 7.17655E-04
 -1      2344 4.73531E-04
 -1      2345 3.97789E-04
 -1      2346 5.25102E-04
 -1      2347 3.31830E-04
 -1      2348 2.83667E-04
 -1      2349 3.73983E-04
 -1      2350 2.33777E-04
 -1      2351 1.95895E-04
 -1      2352 2.58135E-04
 -1      2353 2.95430E+00
 -1      2354 3.06442E+00
 -1      2355 3.08797E+00
 -1      2356 3.30642E+00
 -1      2357 3.90811E+00
 -1      2358 2.17027E+00
 -1      2359 2.47985E+00
 -1      2360 3.65212E+00
 -1      2361 1.94991E+00
 -1      2362 1.93138E+00
 -1      2363 2.80512E+00
 -1      2364 1.67387E+00
 -1      2365 1.68793E+00
 -1      2366 2.30426E+00
 -1      2367 1.58134E+00
 -1      2368 1.55627E+00
 -1      2369 1.92468E+00
 -1      2370 1.39663E+00
 -1      2371 1.44238E+00
 -1      2372 1.66811E+00
 -1      2373 1.23026E+00
 -1      2374 1.27686E+00
 -1      2375 1.40939E+00
 -1      2376 1.09929E+00
 -1      2377 1.16219E+00
 -1      2378 1.22155E+00
 -1      2379 9.24631E-01
 -1      2380 1.00966E+00
 -1      2381 1.06386E+00
 -1      2382 7.42082E-01
 -1      2383 8.31778E-01
 -1      2384 8.81376E-01
 -1      2385 5.74451E-01
 -1      2386 6.56580E-01
 -1      2387 7.03021E-01
 -1      2388 4.31765E-01
 -1      2389 5.01087E-01
 -1      2390 5.44156E-01
 -1      2391 3.16187E-01
 -1      2392 3.71681E-01
 -1      2393 4.10709E-01
 -1      2394 2.30774E-01
 -1      2395 2.68589E-01
 -1      2396 3.03028E-01
 -1      2397 1.67531E-01
 -1      2398 1.94021E-01
 -1      2399 2.18677E-01
 -1      2400 1.18966E-01
 -1      2401 1.39750E-01
 -1      2402 1.54143E-01
 -1      2403 8.23846E-02
 -1      2404 9.83694E-02
 -1      2405 1.05765E-01
 -1      2406 5.53216E-02
 -1      2407 6.74014E-02
 -1      2408 7.01849E-02
 -1      2409 3.76642E-02
 -1      2410 4.65529E-02
 -1      2411 4.64329E-02
 -1      2412 2.69002E-02
 -1      2413 3.22822E-02
 -1      2414 3.22822E-02
 -1      2415 2.30747E-02
 -1      2416 2.49875E-02
 -1      2417 2.49875E-02
 -1      2418 1.92977E-02
 -1      2419 2.11862E-02
 -1      2420 2.11862E-02
 -1      2421 1.57933E-02
 -1      2422 1.75455E-02
 -1      2423 1.75455E-02
 -1      2424 1.26772E-02
 -1      2425 1.42352E-02
 -1      2426 1.42352E-02
 -1      2427 9.99328E-03
 -1      2428 1.13352E-02
 -1      2429 1.13352E-02
 -1      2430 8.38824E-03
 -1      2431 9.19076E-03
 -1      2432 9.19076E-03
 -1      2433 7.11202E-03
 -1      2434 7.75013E-03
 -1      2435 7.75013E-03
 -1      2436 5.88893E-03
 -1      2437 6.50048E-03
 -1      2438 6.50048E-03
 -1      2439 4.84669E-03
 -1      2440 5.36970E-03
 -1      2441 5.36970E-03
 -1      2442 3.96167E-03
 -1      2443 4.40855E-03
 -1      2444 4.41234E-03
 -1      2445 3.17445E-03
 -1      2446 3.57028E-03
 -1      2447 3.58281E-03
 -1      2448 2.50982E-03
 -1      2449 2.84978E-03
 -1      2450 2.86675E-03
 -1      2451 1.97014E-03
 -1      2452 2.25492E-03
 -1      2453 2.28718E-03
 -1      2454 1.51717E-03
 -1      2455 1.75069E-03
 -1      2456 1.81283E-03
 -1      2457 1.14506E-03
 -1      2458 1.33297E-03
 -1      2459 1.40918E-03
 -1      2460 8.45224E-04
 -1      2461 9.93780E-04
 -1      2462 1.07370E-03
 -1      2463 6.29060E-04
 -1      2464 7.23453E-04
 -1      2465 8.00651E-04
 -1      2466 4.64181E-04
 -1      2467 5.32993E-04
 -1      2468 5.82813E-04
 -1      2469 3.33433E-04
 -1      2470 3.90128E-04
 -1      2471 4.12692E-04
 -1      2472 2.29199E-04
 -1      2473 2.76635E-04
 -1      2474 2.81842E-04
 -1      2475 1.55286E-04
 -1      2476 1.94320E-04
 -1      2477 1.90165E-04
 -1      2478 1.46019E-04
 -1      2479 1.29927E-04
 -1      2480 1.14444E-04
 -1      2481 1.49638E-04
 -1      2482 1.42204E-04
 -1      2483 1.58212E-04
 -1      2484 1.06362E-04
 -1      2485 1.35301E-04
 -1      2486 1.00697E-04
 -1      2487 9.86579E-05
 -1      2488 1.26146E-04
 -1      2489 1.32189E-04
 -1      2490 1.50776E-04
 -1      2491 1.50776E-04
 -1      2492 1.71627E-04
 -1      2493 1.50556E-04
 -1      2494 1.50776E-04
 -1      2495 1.72766E-04
 -1      2496 1.50430E-04
 -1      2497 1.50430E-04
 -1      2498 1.72640E-04
 -1      2499 1.42223E-04
 -1      2500 1.49359E-04
 -1      2501 1.71444E-04
 -1      2502 1.14523E-04
 -1      2503 1.30068E-04
 -1      2504 1.58218E-04
 -1      2505 1.10163E-04
 -1      2506 1.10734E-04
 -1      2507 1.42274E-04
 -1      2508 1.26974E-04
 -1      2509 1.10163E-04
 -1      2510 1.38485E-04
 -1      2511 1.40361E+01
 -1      2512 1.87184E+01
 -1      2513 1.20203E-04
 -1      2514 3.25798E+01
 -1      2515 2.65035E+01
 -1      2516 3.07205E+00
 -1      2517 3.03641E+00
 -1      2518 2.95286E+00
 -1      2519 3.56363E+00
 -1      2520 2.63474E+01
 -1      2521 3.13472E+01
 -1      2522 7.87081E+00
 -1      2523 1.12903E+01
 -1      2524 7.95406E+00
 -1      2525 6.44796E+00
 -1      2526 2.33916E+01
 -1      2527 2.12559E+01
 -1      2528 8.70850E+00
 -1      2529 7.61866E+00
 -1      2530 2.40586E+01
 -1      2531 3.33187E+01
 -1      2532 1.88152E+01
 -1      2533 1.43573E+01
 -1      2534 2.10108E+01
 -1      2535 6.22117E+00
 -1      2536 8.52243E+00
 -1      2537 5.18931E+00
 -1      2538 1.20493E+01
 -1      2539 9.24183E+00
 -1      2540 3.80236E+01
 -1      2541 5.69407E+00
 -1      2542 6.25424E+00
 -1      2543 8.83297E+00
 -1      2544 8.68228E+00
 -1      2545 6.88253E+00
 -1      2546 5.72213E+00
 -1      2547 1.15997E+01
 -1      2548 8.51636E+00
 -1      2549 6.34273E+00
 -1      2550 1.07341E+01
 -1      2551 2.75313E+01
 -1      2552 2.09340E+01
 -1      2553 3.94132E+01
 -1      2554 6.23657E+00
 -1      2555 6.50825E+00
 -1      2556 1.08149E+01
 -1      2557 1.36758E+01
 -1      2558 5.57528E+00
 -1      2559 6.04013E+00
 -1      2560 7.37331E+00
 -1      2561 9.70002E+00
 -1      2562 6.86399E+00
 -1      2563 6.23289E+00
 -1      2564 8.74340E+00
 -1      2565 8.77605E+00
 -1      2566 7.09845E+00
 -1      2567 8.12663E+00
 -1      2568 1.10774E+01
 -1      2569 7.83507E+00
 -1      2570 5.84590E+00
 -1      2571 1.77314E+01
 -1      2572 1.27337E+01
 -1      2573 2.24517E+00
 -1      2574 2.18144E+00
 -1      2575 1.62772E+00
 -1      2576 1.23918E+00
 -1      2577 6.34597E+00
 -1      2578 6.17738E+00
 -1      2579 3.86768E+01
 -1      2580 3.31028E+01
 -1      2581 5.06158E+00
 -1      2582 2.52124E+00
 -1      2583 2.12304E+00
 -1      2584 1.62256E+00
 -1      2585 1.03378E+01
 -1      2586 8.02888E+00
 -1      2587 1.70830E+01
 -1      2588 2.33007E+01
 -1      2589 2.19561E+01
 -1      2590 1.78343E+01
 -1      2591 1.63779E+01
 -1      2592 6.02344E+00
 -1      2593 1.66411E+01
 -1      2594 2.15790E+01
 -1      2595 1.46019E-04
 -1      2596 1.46019E-04
 -1      2597 1.12238E+01
 -1      2598 1.24943E-04
 -1      2599 1.20203E-04
 -1      2600 1.31714E-04
 -1      2601 1.54243E-04
 -1      2602 2.34583E+01
 -1      2603 6.78466E+00
 -1      2604 1.18395E+00
 -1      2605 9.26895E-01
 -1      2606 1.15307E+00
 -1      2607 1.27940E+00
 -1      2608 5.19322E+00
 -1      2609 1.49426E+01
 -1      2610 6.04653E+00
 -1      2611 9.76192E+00
 -1      2612 4.64443E+00
 -1      2613 6.31952E+00
 -1      2614 6.46196E+00
 -1      2615 6.16429E+00
 -1      2616 1.56104E+01
 -1      2617 8.73374E+00
 -1      2618 6.65243E+00
 -1      2619 7.41217E+00
 -1      2620 1.64661E+01
 -1      2621 6.86875E+00
 -1      2622 4.68084E+00
 -1      2623 8.14421E+00
 -1      2624 5.29554E+00
 -1      2625 1.44569E-04
 -1      2626 1.66594E-04
 -1      2627 6.91403E+00
 -1      2628 2.82474E+00
 -1      2629 3.72842E+00
 -1      2630 2.92743E+00
 -1      2631 5.68667E+00
 -1      2632 5.57135E+00
 -1      2633 4.82161E+00
 -1      2634 4.04450E+00
 -1      2635 4.28338E+00
 -1      2636 2.16910E+00
 -1      2637 2.04217E+00
 -1      2638 1.68187E+00
 -1      2639 1.55112E+00
 -1      2640 2.21960E+00
 -1      2641 1.31680E+00
 -1      2642 1.28736E+00
 -1      2643 1.62498E+00
 -1      2644 1.24244E+00
 -1      2645 1.17986E+00
 -1      2646 1.34574E+00
 -1      2647 1.16470E+00
 -1      2648 1.11285E+00
 -1      2649 1.28567E+00
 -1      2650 1.05730E+00
 -1      2651 9.47429E-01
 -1      2652 1.21497E+00
 -1      2653 8.77039E-01
 -1      2654 8.43549E-01
 -1      2655 1.08903E+00
 -1      2656 7.21780E-01
 -1      2657 6.55264E-01
 -1      2658 8.96867E-01
 -1      2659 6.11877E-01
 -1      2660 5.91699E-01
 -1      2661 7.31711E-01
 -1      2662 5.47392E-01
 -1      2663 5.33552E-01
 -1      2664 6.44016E-01
 -1      2665 4.84092E-01
 -1      2666 4.58262E-01
 -1      2667 5.50248E-01
 -1      2668 4.19864E-01
 -1      2669 3.94754E-01
 -1      2670 4.62389E-01
 -1      2671 3.65218E-01
 -1      2672 3.44286E-01
 -1      2673 3.94454E-01
 -1      2674 3.13538E-01
 -1      2675 2.88302E-01
 -1      2676 3.34170E-01
 -1      2677 2.59159E-01
 -1      2678 2.33387E-01
 -1      2679 2.74279E-01
 -1      2680 2.07336E-01
 -1      2681 1.83352E-01
 -1      2682 2.19086E-01
 -1      2683 1.61016E-01
 -1      2684 1.40039E-01
 -1      2685 1.70699E-01
 -1      2686 1.21505E-01
 -1      2687 1.03986E-01
 -1      2688 1.29830E-01
 -1      2689 8.90263E-02
 -1      2690 7.49349E-02
 -1      2691 9.63358E-02
 -1      2692 6.31560E-02
 -1      2693 5.21861E-02
 -1      2694 6.95969E-02
 -1      2695 4.31283E-02
 -1      2696 3.49218E-02
 -1      2697 4.87602E-02
 -1      2698 2.81189E-02
 -1      2699 2.36583E-02
 -1      2700 3.28994E-02
 -1      2701 1.86745E-02
 -1      2702 1.63608E-02
 -1      2703 2.11127E-02
 -1      2704 1.33919E-02
 -1      2705 1.24133E-02
 -1      2706 1.31600E-02
 -1      2707 1.17077E-02
 -1      2708 1.06487E-02
 -1      2709 9.48543E-03
 -1      2710 1.04116E-02
 -1      2711 9.36991E-03
 -1      2712 8.54276E-03
 -1      2713 8.96323E-03
 -1      2714 7.99816E-03
 -1      2715 7.89902E-03
 -1      2716 7.51313E-03
 -1      2717 6.75189E-03
 -1      2718 7.00731E-03
 -1      2719 6.24975E-03
 -1      2720 5.79029E-03
 -1      2721 6.02013E-03
 -1      2722 5.38175E-03
 -1      2723 4.90940E-03
 -1      2724 5.10944E-03
 -1      2725 4.58500E-03
 -1      2726 4.13942E-03
 -1      2727 4.37649E-03
 -1      2728 3.81317E-03
 -1      2729 3.45147E-03
 -1      2730 3.72583E-03
 -1      2731 3.14490E-03
 -1      2732 2.81367E-03
 -1      2733 3.09301E-03
 -1      2734 2.54082E-03
 -1      2735 2.24916E-03
 -1      2736 2.51359E-03
 -1      2737 2.02777E-03
 -1      2738 1.79301E-03
 -1      2739 2.01935E-03
 -1      2740 1.60092E-03
 -1      2741 1.41208E-03
 -1      2742 1.60588E-03
 -1      2743 1.25026E-03
 -1      2744 1.09015E-03
 -1      2745 1.25197E-03
 -1      2746 9.63623E-04
 -1      2747 8.31071E-04
 -1      2748 9.63623E-04
 -1      2749 7.31770E-04
 -1      2750 6.24377E-04
 -1      2751 7.37794E-04
 -1      2752 5.43040E-04
 -1      2753 4.57880E-04
 -1      2754 5.57155E-04
 -1      2755 3.92783E-04
 -1      2756 3.26825E-04
 -1      2757 4.10721E-04
 -1      2758 2.65109E-04
 -1      2759 2.15220E-04
 -1      2760 2.83909E-04
 -1      2761 4.06762E+00
 -1      2762 4.67573E+00
 -1      2763 1.67484E+01
 -1      2764 1.79811E+01
 -1      2765 2.81582E+00
 -1      2766 3.07780E+00
 -1      2767 4.55606E+00
 -1      2768 2.23066E+00
 -1      2769 2.34826E+00
 -1      2770 3.12180E+00
 -1      2771 1.75720E+00
 -1      2772 1.89616E+00
 -1      2773 2.31974E+00
 -1      2774 1.47947E+00
 -1      2775 1.59923E+00
 -1      2776 1.82728E+00
 -1      2777 1.25817E+00
 -1      2778 1.32624E+00
 -1      2779 1.51608E+00
 -1      2780 1.03040E+00
 -1      2781 1.12003E+00
 -1      2782 1.22471E+00
 -1      2783 8.20625E-01
 -1      2784 9.13478E-01
 -1      2785 9.69650E-01
 -1      2786 6.39139E-01
 -1      2787 7.24641E-01
 -1      2788 7.56743E-01
 -1      2789 4.88339E-01
 -1      2790 5.61702E-01
 -1      2791 5.83322E-01
 -1      2792 3.66529E-01
 -1      2793 4.26612E-01
 -1      2794 4.44159E-01
 -1      2795 2.70283E-01
 -1      2796 3.17881E-01
 -1      2797 3.33784E-01
 -1      2798 1.95640E-01
 -1      2799 2.32393E-01
 -1      2800 2.47246E-01
 -1      2801 1.38712E-01
 -1      2802 1.66493E-01
 -1      2803 1.80209E-01
 -1      2804 9.59871E-02
 -1      2805 1.16584E-01
 -1      2806 1.28934E-01
 -1      2807 6.44389E-02
 -1      2808 7.94222E-02
 -1      2809 9.02411E-02
 -1      2810 4.34582E-02
 -1      2811 5.22269E-02
 -1      2812 6.14642E-02
 -1      2813 2.92266E-02
 -1      2814 3.46086E-02
 -1      2815 4.04026E-02
 -1      2816 2.10271E-02
 -1      2817 2.29399E-02
 -1      2818 2.52662E-02
 -1      2819 1.61869E-02
 -1      2820 1.80754E-02
 -1      2821 1.60278E-02
 -1      2822 1.39556E-02
 -1      2823 1.57078E-02
 -1      2824 1.25970E-02
 -1      2825 1.17180E-02
 -1      2826 1.32761E-02
 -1      2827 1.14384E-02
 -1      2828 9.62135E-03
 -1      2829 1.09633E-02
 -1      2830 1.00041E-02
 -1      2831 8.06807E-03
 -1      2832 8.87059E-03
 -1      2833 8.49866E-03
 -1      2834 6.72995E-03
 -1      2835 7.36805E-03
 -1      2836 7.04789E-03
 -1      2837 5.65699E-03
 -1      2838 6.26854E-03
 -1      2839 5.88646E-03
 -1      2840 4.71457E-03
 -1      2841 5.23380E-03
 -1      2842 5.00187E-03
 -1      2843 3.89464E-03
 -1      2844 4.33278E-03
 -1      2845 4.19688E-03
 -1      2846 3.16636E-03
 -1      2847 3.55775E-03
 -1      2848 3.47819E-03
 -1      2849 2.55234E-03
 -1      2850 2.87701E-03
 -1      2851 2.85195E-03
 -1      2852 2.04041E-03
 -1      2853 2.29531E-03
 -1      2854 2.30557E-03
 -1      2855 1.59967E-03
 -1      2856 1.81912E-03
 -1      2857 1.82725E-03
 -1      2858 1.23752E-03
 -1      2859 1.42172E-03
 -1      2860 1.42801E-03
 -1      2861 9.47141E-04
 -1      2862 1.09842E-03
 -1      2863 1.11096E-03
 -1      2864 7.09415E-04
 -1      2865 8.31186E-04
 -1      2866 8.55905E-04
 -1      2867 5.18811E-04
 -1      2868 6.14878E-04
 -1      2869 6.45413E-04
 -1      2870 3.69250E-04
 -1      2871 4.43303E-04
 -1      2872 4.75368E-04
 -1      2873 2.52422E-04
 -1      2874 3.09219E-04
 -1      2875 3.39830E-04
 -1      2876 1.74821E-04
 -1      2877 2.09700E-04
 -1      2878 2.37077E-04
 -1      2879 1.64103E-04
 -1      2880 2.03337E-04
 -1      2881 2.03337E-04
 -1      2882 1.73366E-04
 -1      2883 1.31714E-04
 -1      2884 1.80339E-04
 -1      2885 1.96503E-04
 -1      2886 1.84226E-04
 -1      2887 2.03055E-04
 -1      2888 2.03181E-04
 -1      2889 2.33752E-04
 -1      2890 2.03337E-04
 -1      2891 2.02198E-04
 -1      2892 2.28212E-04
 -1      2893 2.33907E-04
 -1      2894 2.01984E-04
 -1      2895 2.03055E-04
 -1      2896 2.33596E-04
 -1      2897 1.83670E-04
 -1      2898 1.95825E-04
 -1      2899 2.27437E-04
 -1      2900 1.54417E-04
 -1      2901 1.58206E-04
 -1      2902 1.95813E-04
 -1      2903 1.95008E+01
 -1      2904 1.63889E+01
 -1      2905 1.38485E-04
 -1      2906 9.84322E+00
 -1      2907 8.18699E+00
 -1      2908 3.40203E+00
 -1      2909 4.46035E+00
 -1      2910 5.72297E+00
 -1      2911 7.58021E+00
 -1      2912 1.29450E+01
 -1      2913 1.56165E+01
 -1      2914 8.60922E+00
 -1      2915 1.13550E+01
 -1      2916 5.50594E+00
 -1      2917 4.77772E+00
 -1      2918 3.83422E+00
 -1      2919 2.70189E+00
 -1      2920 2.33105E+00
 -1      2921 3.66570E+00
 -1      2922 5.91548E+00
 -1      2923 5.84794E+00
 -1      2924 5.03342E+00
 -1      2925 5.65019E+00
 -1      2926 1.38160E+01
 -1      2927 1.02915E+01
 -1      2928 1.17378E+01
 -1      2929 3.72729E+00
 -1      2930 3.73097E+00
 -1      2931 3.25335E+00
 -1      2932 4.24418E+00
 -1      2933 6.05336E+00
 -1      2934 2.01360E+00
 -1      2935 1.99770E+00
 -1      2936 2.40850E+00
 -1      2937 6.30621E+00
 -1      2938 4.04642E+00
 -1      2939 5.16382E+00
 -1      2940 4.40914E+00
 -1      2941 2.84458E+00
 -1      2942 1.31126E+00
 -1      2943 1.47363E+00
 -1      2944 1.69714E+00
 -1      2945 9.98981E-01
 -1      2946 5.30699E+00
 -1      2947 7.00042E+00
 -1      2948 2.59901E+00
 -1      2949 1.79580E+00
 -1      2950 1.26817E+01
 -1      2951 4.21055E+00
 -1      2952 1.57233E+01
 -1      2953 1.02460E+01
 -1      2954 1.13320E+01
 -1      2955 5.19439E+00
 -1      2956 1.58781E-04
 -1      2957 1.45034E-04
 -1      2958 1.97071E-04
 -1      2959 4.77772E+00
 -1      2960 1.27910E+01
 -1      2961 6.38751E+00
 -1      2962 1.31615E-04
 -1      2963 1.39319E-04
 -1      2964 1.69571E-04
 -1      2965 1.58207E-04
 -1      2966 3.86234E+00
 -1      2967 5.05460E+00
 -1      2968 5.06223E+00
 -1      2969 1.38485E-04
 -1      2970 8.71659E+00
 -1      2971 3.79102E+00
 -1      2972 3.10878E+00
 -1      2973 1.03304E+01
 -1      2974 5.94638E+00
 -1      2975 4.62938E+00
 -1      2976 3.86105E+00
 -1      2977 3.45245E+00
 -1      2978 3.26995E+00
 -1      2979 3.24189E+00
 -1      2980 1.54891E-04
 -1      2981 1.54891E-04
 -1      2982 1.70823E-04
 -1      2983 1.96745E-04
 -1      2984 4.48550E+00
 -1      2985 1.05707E+01
 -1      2986 1.13320E+01
 -1      2987 2.68595E+00
 -1      2988 3.02045E+00
 -1      2989 3.70342E+00
 -1      2990 3.47221E+00
 -1      2991 3.93977E+00
 -1      2992 3.83842E+00
 -1      2993 4.26023E+00
 -1      2994 2.53862E+00
 -1      2995 2.30430E+00
 -1      2996 1.76311E+00
 -1      2997 1.71819E+00
 -1      2998 2.67675E+00
 -1      2999 1.38224E+00
 -1      3000 1.36708E+00
 -1      3001 1.79960E+00
 -1      3002 1.49852E+00
 -1      3003 1.44297E+00
 -1      3004 1.59509E+00
 -1      3005 1.33576E+00
 -1      3006 1.26537E+00
 -1      3007 1.61931E+00
 -1      3008 1.10164E+00
 -1      3009 9.79872E-01
 -1      3010 1.34837E+00
 -1      3011 8.88171E-01
 -1      3012 8.44784E-01
 -1      3013 1.09294E+00
 -1      3014 7.46028E-01
 -1      3015 7.01720E-01
 -1      3016 9.02487E-01
 -1      3017 6.16113E-01
 -1      3018 5.66652E-01
 -1      3019 7.18124E-01
 -1      3020 5.13960E-01
 -1      3021 4.75562E-01
 -1      3022 5.79825E-01
 -1      3023 4.25177E-01
 -1      3024 3.95641E-01
 -1      3025 4.76748E-01
 -1      3026 3.52106E-01
 -1      3027 3.21358E-01
 -1      3028 3.82829E-01
 -1      3029 2.84632E-01
 -1      3030 2.55490E-01
 -1      3031 3.02568E-01
 -1      3032 2.24594E-01
 -1      3033 1.98543E-01
 -1      3034 2.34947E-01
 -1      3035 1.73758E-01
 -1      3036 1.51422E-01
 -1      3037 1.79265E-01
 -1      3038 1.32016E-01
 -1      3039 1.13482E-01
 -1      3040 1.35074E-01
 -1      3041 9.82390E-02
 -1      3042 8.32790E-02
 -1      3043 1.00425E-01
 -1      3044 7.14525E-02
 -1      3045 5.96736E-02
 -1      3046 7.33557E-02
 -1      3047 5.06205E-02
 -1      3048 4.15626E-02
 -1      3049 5.24760E-02
 -1      3050 3.47355E-02
 -1      3051 2.79326E-02
 -1      3052 3.65958E-02
 -1      3053 2.28710E-02
 -1      3054 1.78872E-02
 -1      3055 2.47071E-02
 -1      3056 1.42071E-02
 -1      3057 1.12381E-02
 -1      3058 1.59654E-02
 -1      3059 8.62377E-03
 -1      3060 7.91816E-03
 -1      3061 9.67087E-03
 -1      3062 6.80828E-03
 -1      3063 6.57122E-03
 -1      3064 5.94662E-03
 -1      3065 6.82698E-03
 -1      3066 6.42030E-03
 -1      3067 5.09250E-03
 -1      3068 6.40684E-03
 -1      3069 5.92181E-03
 -1      3070 5.33480E-03
 -1      3071 5.74456E-03
 -1      3072 5.24241E-03
 -1      3073 5.14409E-03
 -1      3074 4.97656E-03
 -1      3075 4.56801E-03
 -1      3076 4.70098E-03
 -1      3077 4.26518E-03
 -1      3078 3.94077E-03
 -1      3079 4.13229E-03
 -1      3080 3.71557E-03
 -1      3081 3.38932E-03
 -1      3082 3.60426E-03
 -1      3083 3.15946E-03
 -1      3084 2.85289E-03
 -1      3085 3.14920E-03
 -1      3086 2.62009E-03
 -1      3087 2.34724E-03
 -1      3088 2.68654E-03
 -1      3089 2.12748E-03
 -1      3090 1.90609E-03
 -1      3091 2.23398E-03
 -1      3092 1.70818E-03
 -1      3093 1.51609E-03
 -1      3094 1.81630E-03
 -1      3095 1.34392E-03
 -1      3096 1.18210E-03
 -1      3097 1.44622E-03
 -1      3098 1.03635E-03
 -1      3099 9.09820E-04
 -1      3100 1.12830E-03
 -1      3101 7.89164E-04
 -1      3102 6.89863E-04
 -1      3103 8.61889E-04
 -1      3104 5.92022E-04
 -1      3105 5.10684E-04
 -1      3106 6.43392E-04
 -1      3107 4.32379E-04
 -1      3108 3.67283E-04
 -1      3109 4.67246E-04
 -1      3110 3.06386E-04
 -1      3111 2.44670E-04
 -1      3112 2.19222E-04
 -1      3113 3.28044E-04
 -1      3114 3.90811E+00
 -1      3115 2.04362E+00
 -1      3116 2.20159E+00
 -1      3117 2.90230E+00
 -1      3118 1.53636E+00
 -1      3119 1.68958E+00
 -1      3120 2.06390E+00
 -1      3121 1.16122E+00
 -1      3122 1.29936E+00
 -1      3123 1.47286E+00
 -1      3124 8.96098E-01
 -1      3125 1.01302E+00
 -1      3126 1.08766E+00
 -1      3127 6.96962E-01
 -1      3128 7.92946E-01
 -1      3129 8.36317E-01
 -1      3130 5.32199E-01
 -1      3131 6.09636E-01
 -1      3132 6.45839E-01
 -1      3133 3.99758E-01
 -1      3134 4.61484E-01
 -1      3135 4.87798E-01
 -1      3136 2.95455E-01
 -1      3137 3.44103E-01
 -1      3138 3.61428E-01
 -1      3139 2.14681E-01
 -1      3140 2.52571E-01
 -1      3141 2.62890E-01
 -1      3142 1.53543E-01
 -1      3143 1.82690E-01
 -1      3144 1.88015E-01
 -1      3145 1.09364E-01
 -1      3146 1.31492E-01
 -1      3147 1.33973E-01
 -1      3148 7.69249E-02
 -1      3149 9.34898E-02
 -1      3150 9.60475E-02
 -1      3151 5.27091E-02
 -1      3152 6.49211E-02
 -1      3153 6.81698E-02
 -1      3154 3.49040E-02
 -1      3155 4.37536E-02
 -1      3156 4.72105E-02
 -1      3157 2.20419E-02
 -1      3158 2.83286E-02
 -1      3159 3.16797E-02
 -1      3160 1.43522E-02
 -1      3161 1.73039E-02
 -1      3162 2.03663E-02
 -1      3163 1.05348E-02
 -1      3164 1.10139E-02
 -1      3165 1.22900E-02
 -1      3166 8.85878E-03
 -1      3167 9.53832E-03
 -1      3168 7.95521E-03
 -1      3169 8.12752E-03
 -1      3170 8.88223E-03
 -1      3171 6.98217E-03
 -1      3172 7.16397E-03
 -1      3173 7.91472E-03
 -1      3174 6.79282E-03
 -1      3175 6.12395E-03
 -1      3176 6.82397E-03
 -1      3177 6.24003E-03
 -1      3178 5.26838E-03
 -1      3179 5.72978E-03
 -1      3180 5.50586E-03
 -1      3181 4.45572E-03
 -1      3182 4.87891E-03
 -1      3183 4.72223E-03
 -1      3184 3.80654E-03
 -1      3185 4.18834E-03
 -1      3186 4.06539E-03
 -1      3187 3.18665E-03
 -1      3188 3.52354E-03
 -1      3189 3.51500E-03
 -1      3190 2.62294E-03
 -1      3191 2.91229E-03
 -1      3192 2.95764E-03
 -1      3193 2.11418E-03
 -1      3194 2.37121E-03
 -1      3195 2.43155E-03
 -1      3196 1.67076E-03
 -1      3197 1.89205E-03
 -1      3198 1.95769E-03
 -1      3199 1.30255E-03
 -1      3200 1.48050E-03
 -1      3201 1.54530E-03
 -1      3202 1.00441E-03
 -1      3203 1.14350E-03
 -1      3204 1.19600E-03
 -1      3205 7.58207E-04
 -1      3206 8.74161E-04
 -1      3207 9.06708E-04
 -1      3208 5.58958E-04
 -1      3209 6.53495E-04
 -1      3210 6.71751E-04
 -1      3211 4.02694E-04
 -1      3212 4.78202E-04
 -1      3213 4.86284E-04
 -1      3214 2.86614E-04
 -1      3215 3.46645E-04
 -1      3216 3.49479E-04
 -1      3217 2.04505E-04
 -1      3218 2.47228E-04
 -1      3219 2.54043E-04
 -1      3220 1.79722E-04
 -1      3221 3.13561E+00
 -1      3222 2.77531E+00
 -1      3223 3.45464E+00
 -1      3224 1.99980E-04
 -1      3225 2.25445E-04
 -1      3226 2.63515E-04
 -1      3227 2.63671E-04
 -1      3228 5.40672E+00
 -1      3229 2.01815E+00
 -1      3230 5.56571E+00
 -1      3231 3.68493E+00
 -1      3232 7.59984E+00
 -1      3233 7.15154E+00
 -1      3234 3.08502E+00
 -1      3235 1.60408E+00
 -1      3236 1.16546E+00
 -1      3237 1.32365E+00
 -1      3238 1.68185E+00
 -1      3239 4.01231E+00
 -1      3240 3.32819E+00
 -1      3241 3.43948E+00
 -1      3242 2.79509E+00
 -1      3243 7.13155E+00
 -1      3244 2.69612E-04
 -1      3245 2.69612E-04
 -1      3246 2.99531E-04
 -1      3247 1.07423E+01
 -1      3248 8.16941E+00
 -1      3249 2.19991E+00
 -1      3250 2.05534E+00
 -1      3251 2.88177E+00
 -1      3252 4.02771E+00
 -1      3253 4.29300E+00
 -1      3254 8.27899E+00
 -1      3255 9.86902E+00
 -1      3256 6.16486E+00
 -1      3257 3.21795E+00
 -1      3258 3.79102E+00
 -1      3259 2.63453E-04
 -1      3260 2.69612E-04
 -1      3261 3.05627E-04
 -1      3262 2.67619E-04
 -1      3263 2.68353E+00
 -1      3264 2.85492E+00
 -1      3265 9.77672E+00
 -1      3266 1.12965E+01
 -1      3267 9.22088E+00
 -1      3268 2.41039E-04
 -1      3269 2.15593E-04
 -1      3270 3.41063E+00
 -1      3271 6.60436E+00
 -1      3272 2.67848E-04
 -1      3273 2.62152E-04
 -1      3274 2.80674E-04
 -1      3275 3.04654E+00
 -1      3276 2.68353E+00
 -1      3277 2.67848E-04
 -1      3278 2.67848E-04
 -1      3279 3.01788E-04
 -1      3280 2.97611E-04
 -1      3281 6.43354E+00
 -1      3282 3.73096E+00
 -1      3283 5.31679E+00
 -1      3284 1.86362E+00
 -1      3285 2.61768E+00
 -1      3286 2.23711E+00
 -1      3287 7.72809E+00
 -1      3288 8.51925E+00
 -1      3289 8.31765E+00
 -1      3290 9.34281E+00
 -1      3291 7.84834E+00
 -1      3292 2.67675E+00
 -1      3293 2.45016E+00
 -1      3294 6.51526E+00
 -1      3295 2.25389E+00
 -1      3296 2.06676E-04
 -1      3297 2.06201E-04
 -1      3298 2.35833E-04
 -1      3299 2.54601E-04
 -1      3300 3.55480E+00
 -1      3301 4.03915E+00
 -1      3302 5.36572E+00
 -1      3303 5.81748E+00
 -1      3304 6.01821E+00
 -1      3305 1.91794E+00
 -1      3306 2.07274E+00
 -1      3307 1.96553E+00
 -1      3308 1.74006E+00
 -1      3309 1.57633E+00
 -1      3310 2.19349E+00
 -1      3311 1.28756E+00
 -1      3312 1.19586E+00
 -1      3313 1.67925E+00
 -1      3314 1.05110E+00
 -1      3315 9.52341E-01
 -1      3316 1.24571E+00
 -1      3317 8.47316E-01
 -1      3318 7.61709E-01
 -1      3319 9.95926E-01
 -1      3320 6.55966E-01
 -1      3321 6.03274E-01
 -1      3322 7.85157E-01
 -1      3323 5.17261E-01
 -1      3324 4.66876E-01
 -1      3325 5.93402E-01
 -1      3326 4.09428E-01
 -1      3327 3.65893E-01
 -1      3328 4.49941E-01
 -1      3329 3.24666E-01
 -1      3330 2.87940E-01
 -1      3331 3.51265E-01
 -1      3332 2.57990E-01
 -1      3333 2.27094E-01
 -1      3334 2.80088E-01
 -1      3335 2.00939E-01
 -1      3336 1.76153E-01
 -1      3337 2.23982E-01
 -1      3338 1.53493E-01
 -1      3339 1.34087E-01
 -1      3340 1.75167E-01
 -1      3341 1.15164E-01
 -1      3342 9.99208E-02
 -1      3343 1.33583E-01
 -1      3344 8.45786E-02
 -1      3345 7.27521E-02
 -1      3346 9.93172E-02
 -1      3347 6.06321E-02
 -1      3348 5.15790E-02
 -1      3349 7.18551E-02
 -1      3350 4.24309E-02
 -1      3351 3.56039E-02
 -1      3352 5.05871E-02
 -1      3353 2.89668E-02
 -1      3354 2.39051E-02
 -1      3355 3.48019E-02
 -1      3356 1.89587E-02
 -1      3357 1.52786E-02
 -1      3358 2.32184E-02
 -1      3359 1.16817E-02
 -1      3360 9.06733E-03
 -1      3361 1.46751E-02
 -1      3362 6.54384E-03
 -1      3363 5.43397E-03
 -1      3364 8.55468E-03
 -1      3365 4.06824E-03
 -1      3366 4.32400E-03
 -1      3367 4.66547E-03
 -1      3368 4.38027E-03
 -1      3369 4.36682E-03
 -1      3370 3.35602E-03
 -1      3371 4.55968E-03
 -1      3372 4.38243E-03
 -1      3373 3.60515E-03
 -1      3374 4.37846E-03
 -1      3375 4.11261E-03
 -1      3376 3.79405E-03
 -1      3377 3.98921E-03
 -1      3378 3.68638E-03
 -1      3379 3.66669E-03
 -1      3380 3.49833E-03
 -1      3381 3.27314E-03
 -1      3382 3.35526E-03
 -1      3383 3.07864E-03
 -1      3384 2.84879E-03
 -1      3385 2.97272E-03
 -1      3386 2.68116E-03
 -1      3387 2.44836E-03
 -1      3388 2.61061E-03
 -1      3389 2.26857E-03
 -1      3390 2.04881E-03
 -1      3391 2.26319E-03
 -1      3392 1.87308E-03
 -1      3393 1.67516E-03
 -1      3394 1.90767E-03
 -1      3395 1.51303E-03
 -1      3396 1.34087E-03
 -1      3397 1.56981E-03
 -1      3398 1.19719E-03
 -1      3399 1.05144E-03
 -1      3400 1.26401E-03
 -1      3401 9.27883E-04
 -1      3402 8.07227E-04
 -1      3403 9.96781E-04
 -1      3404 7.03401E-04
 -1      3405 6.05560E-04
 -1      3406 7.69395E-04
 -1      3407 5.19860E-04
 -1      3408 4.41555E-04
 -1      3409 5.79869E-04
 -1      3410 1.44548E+00
 -1      3411 1.68248E+00
 -1      3412 1.08766E+00
 -1      3413 1.23586E+00
 -1      3414 1.44548E+00
 -1      3415 8.29244E-01
 -1      3416 9.32395E-01
 -1      3417 1.08059E+00
 -1      3418 6.25927E-01
 -1      3419 7.13253E-01
 -1      3420 8.09332E-01
 -1      3421 4.67517E-01
 -1      3422 5.38232E-01
 -1      3423 6.05646E-01
 -1      3424 3.45199E-01
 -1      3425 4.00854E-01
 -1      3426 4.51288E-01
 -1      3427 2.51548E-01
 -1      3428 2.94431E-01
 -1      3429 3.33857E-01
 -1      3430 1.80969E-01
 -1      3431 2.12960E-01
 -1      3432 2.44502E-01
 -1      3433 1.29740E-01
 -1      3434 1.51792E-01
 -1      3435 1.76737E-01
 -1      3436 9.19793E-02
 -1      3437 1.07853E-01
 -1      3438 1.25672E-01
 -1      3439 6.39615E-02
 -1      3440 7.59653E-02
 -1      3441 8.77709E-02
 -1      3442 4.37031E-02
 -1      3443 5.26587E-02
 -1      3444 6.04541E-02
 -1      3445 2.88355E-02
 -1      3446 3.54108E-02
 -1      3447 4.08590E-02
 -1      3448 1.81344E-02
 -1      3449 2.28724E-02
 -1      3450 2.66036E-02
 -1      3451 1.06413E-02
 -1      3452 1.39796E-02
 -1      3453 1.64857E-02
 -1      3454 6.76820E-03
 -1      3455 7.76469E-03
 -1      3456 9.45428E-03
 -1      3457 5.41246E-03
 -1      3458 5.38900E-03
 -1      3459 5.19849E-03
 -1      3460 5.50109E-03
 -1      3461 5.71389E-03
 -1      3462 4.12072E-03
 -1      3463 5.26503E-03
 -1      3464 5.60503E-03
 -1      3465 4.52610E-03
 -1      3466 4.78392E-03
 -1      3467 5.17809E-03
 -1      3468 4.54310E-03
 -1      3469 4.19876E-03
 -1      3470 4.58822E-03
 -1      3471 4.26045E-03
 -1      3472 3.68295E-03
 -1      3473 3.95033E-03
 -1      3474 3.81632E-03
 -1      3475 3.17456E-03
 -1      3476 3.45756E-03
 -1      3477 3.34251E-03
 -1      3478 2.70101E-03
 -1      3479 2.97537E-03
 -1      3480 2.91792E-03
 -1      3481 2.24180E-03
 -1      3482 2.49353E-03
 -1      3483 2.51126E-03
 -1      3484 1.82037E-03
 -1      3485 2.04251E-03
 -1      3486 2.10448E-03
 -1      3487 1.44837E-03
 -1      3488 1.63863E-03
 -1      3489 1.72344E-03
 -1      3490 1.12965E-03
 -1      3491 1.28869E-03
 -1      3492 1.38202E-03
 -1      3493 8.63077E-04
 -1      3494 9.93322E-04
 -1      3495 1.08602E-03
 -1      3496 6.44581E-04
 -1      3497 7.49293E-04
 -1      3498 8.35907E-04
 -1      3499 4.70892E-04
 -1      3500 5.51647E-04
 -1      3501 6.29189E-04
 -1      3502 3.71335E-04
 -1      3503 4.27384E-04
 -1      3504 4.92747E-04
 -1      3505 2.14113E-04
 -1      3506 2.00694E-04
 -1      3507 2.35627E-04
 -1      3508 2.58080E-04
 -1      3509 2.18442E+00
 -1      3510 2.53846E+00
 -1      3511 2.15704E+00
 -1      3512 3.50279E-04
 -1      3513 3.44183E-04
 -1      3514 6.89437E+00
 -1      3515 6.34021E+00
 -1      3516 5.88636E+00
 -1      3517 5.31679E+00
 -1      3518 5.05264E+00
 -1      3519 1.86362E+00
 -1      3520 7.58120E+00
 -1      3521 8.28283E+00
 -1      3522 8.28283E+00
 -1      3523 8.28283E+00
 -1      3524 3.67531E+00
 -1      3525 1.59509E+00
 -1      3526 1.72652E+00
 -1      3527 3.83391E-04
 -1      3528 3.32643E-04
 -1      3529 3.36819E-04
 -1      3530 3.67871E-04
 -1      3531 3.06974E-04
 -1      3532 2.94427E-04
 -1      3533 4.20485E-04
 -1      3534 3.54400E-04
 -1      3535 3.52920E-04
 -1      3536 2.75014E-04
 -1      3537 4.59879E+00
 -1      3538 6.31829E+00
 -1      3539 4.93040E+00
 -1      3540 3.50887E+00
 -1      3541 2.64104E+00
 -1      3542 3.75514E-04
 -1      3543 3.54400E-04
 -1      3544 4.49240E-04
 -1      3545 3.65264E-04
 -1      3546 4.09915E-04
 -1      3547 3.65264E-04
 -1      3548 2.07274E+00
 -1      3549 2.88206E-04
 -1      3550 6.05390E+00
 -1      3551 7.34478E+00
 -1      3552 2.29482E+00
 -1      3553 2.04938E+00
 -1      3554 7.37960E+00
 -1      3555 5.88437E+00
 -1      3556 3.85850E-04
 -1      3557 3.27255E-04
 -1      3558 3.65264E-04
 -1      3559 4.59534E-04
 -1      3560 4.62699E+00
 -1      3561 4.17315E+00
 -1      3562 7.33416E-01
 -1      3563 8.49406E-01
 -1      3564 3.28341E+00
 -1      3565 4.99010E+00
 -1      3566 6.31667E+00
 -1      3567 6.31667E+00
 -1      3568 2.85776E+00
 -1      3569 2.56898E+00
 -1      3570 1.91477E+00
 -1      3571 1.77001E+00
 -1      3572 3.09328E+00
 -1      3573 1.17167E+00
 -1      3574 1.06665E+00
 -1      3575 1.84073E+00
 -1      3576 8.77898E-01
 -1      3577 7.72156E-01
 -1      3578 1.05364E+00
 -1      3579 6.63654E-01
 -1      3580 5.77642E-01
 -1      3581 7.56395E-01
 -1      3582 4.99088E-01
 -1      3583 4.41639E-01
 -1      3584 5.69340E-01
 -1      3585 3.92493E-01
 -1      3586 3.51265E-01
 -1      3587 4.41639E-01
 -1      3588 3.10037E-01
 -1      3589 2.80088E-01
 -1      3590 3.51265E-01
 -1      3591 2.45573E-01
 -1      3592 2.19417E-01
 -1      3593 2.75523E-01
 -1      3594 1.91138E-01
 -1      3595 1.68478E-01
 -1      3596 2.12728E-01
 -1      3597 1.45684E-01
 -1      3598 1.26760E-01
 -1      3599 1.61655E-01
 -1      3600 1.08659E-01
 -1      3601 9.33173E-02
 -1      3602 1.20760E-01
 -1      3603 7.91558E-02
 -1      3604 6.70358E-02
 -1      3605 8.84980E-02
 -1      3606 5.61282E-02
 -1      3607 4.69802E-02
 -1      3608 6.34289E-02
 -1      3609 3.87194E-02
 -1      3610 3.20823E-02
 -1      3611 4.42606E-02
 -1      3612 2.62613E-02
 -1      3613 2.13149E-02
 -1      3614 3.01788E-02
 -1      3615 1.71088E-02
 -1      3616 1.35119E-02
 -1      3617 2.01518E-02
 -1      3618 1.04618E-02
 -1      3619 7.93832E-03
 -1      3620 1.28956E-02
 -1      3621 6.07930E-03
 -1      3622 4.71358E-03
 -1      3623 7.98643E-03
 -1      3624 3.48074E-03
 -1      3625 3.53702E-03
 -1      3626 4.89458E-03
 -1      3627 2.82529E-03
 -1      3628 3.01815E-03
 -1      3629 2.95002E-03
 -1      3630 3.28192E-03
 -1      3631 3.27796E-03
 -1      3632 2.50206E-03
 -1      3633 3.34946E-03
 -1      3634 3.22606E-03
 -1      3635 2.83733E-03
 -1      3636 3.17640E-03
 -1      3637 2.98835E-03
 -1      3638 2.85916E-03
 -1      3639 2.86842E-03
 -1      3640 2.67393E-03
 -1      3641 2.68956E-03
 -1      3642 2.51907E-03
 -1      3643 2.35145E-03
 -1      3644 2.41477E-03
 -1      3645 2.20818E-03
 -1      3646 2.02839E-03
 -1      3647 2.11664E-03
 -1      3648 1.88791E-03
 -1      3649 1.71218E-03
 -1      3650 1.83289E-03
 -1      3651 1.57287E-03
 -1      3652 1.41075E-03
 -1      3653 1.55311E-03
 -1      3654 1.28098E-03
 -1      3655 1.13731E-03
 -1      3656 1.28404E-03
 -1      3657 1.02146E-03
 -1      3658 8.97896E-04
 -1      3659 1.03842E-03
 -1      3660 7.97481E-04
 -1      3661 6.93655E-04
 -1      3662 8.22156E-04
 -1      3663 6.08799E-04
 -1      3664 5.23099E-04
 -1      3665 6.36886E-04
 -1      3666 9.96926E-01
 -1      3667 1.15219E+00
 -1      3668 9.21010E-01
 -1      3669 1.36355E+00
 -1      3670 1.57317E+00
 -1      3671 1.27988E+00
 -1      3672 5.44299E-01
 -1      3673 6.31995E-01
 -1      3674 6.72069E-01
 -1      3675 4.04656E-01
 -1      3676 4.71319E-01
 -1      3677 4.97667E-01
 -1      3678 2.99770E-01
 -1      3679 3.50537E-01
 -1      3680 3.70568E-01
 -1      3681 2.20324E-01
 -1      3682 2.58911E-01
 -1      3683 2.75591E-01
 -1      3684 1.60051E-01
 -1      3685 1.89229E-01
 -1      3686 2.03638E-01
 -1      3687 1.14484E-01
 -1      3688 1.36371E-01
 -1      3689 1.48863E-01
 -1      3690 8.05204E-02
 -1      3691 9.65345E-02
 -1      3692 1.07233E-01
 -1      3693 5.57291E-02
 -1      3694 6.70319E-02
 -1      3695 7.57954E-02
 -1      3696 3.75891E-02
 -1      3697 4.58814E-02
 -1      3698 5.24592E-02
 -1      3699 2.47341E-02
 -1      3700 3.06972E-02
 -1      3701 3.57196E-02
 -1      3702 1.55334E-02
 -1      3703 1.96882E-02
 -1      3704 2.37818E-02
 -1      3705 9.03365E-03
 -1      3706 1.19102E-02
 -1      3707 1.51127E-02
 -1      3708 5.15260E-03
 -1      3709 6.53179E-03
 -1      3710 8.98776E-03
 -1      3711 3.89877E-03
 -1      3712 3.59734E-03
 -1      3713 4.93064E-03
 -1      3714 3.70105E-03
 -1      3715 3.59710E-03
 -1      3716 3.07372E-03
 -1      3717 3.86443E-03
 -1      3718 3.95137E-03
 -1      3719 3.02238E-03
 -1      3720 3.71375E-03
 -1      3721 3.90946E-03
 -1      3722 3.31773E-03
 -1      3723 3.38423E-03
 -1      3724 3.63265E-03
 -1      3725 3.28166E-03
 -1      3726 3.00711E-03
 -1      3727 3.23250E-03
 -1      3728 3.04883E-03
 -1      3729 2.62339E-03
 -1      3730 2.82258E-03
 -1      3731 2.71258E-03
 -1      3732 2.26048E-03
 -1      3733 2.46795E-03
 -1      3734 2.37261E-03
 -1      3735 1.90253E-03
 -1      3736 2.10183E-03
 -1      3737 2.05852E-03
 -1      3738 1.56387E-03
 -1      3739 1.74562E-03
 -1      3740 1.74296E-03
 -1      3741 1.25827E-03
 -1      3742 1.41794E-03
 -1      3743 1.44012E-03
 -1      3744 9.91854E-04
 -1      3745 1.12818E-03
 -1      3746 1.16410E-03
 -1      3747 7.65711E-04
 -1      3748 8.79495E-04
 -1      3749 9.21657E-04
 -1      3750 5.78115E-04
 -1      3751 6.71049E-04
 -1      3752 7.14636E-04
 -1      3753 4.67027E-04
 -1      3754 5.10535E-04
 -1      3755 5.52394E-04
 -1      3756 4.67027E-04
 -1      3757 4.17315E+00
 -1      3758 4.17315E+00
 -1      3759 1.86174E+00
 -1      3760 2.36367E+00
 -1      3761 1.77980E+00
 -1      3762 3.65540E-04
 -1      3763 3.65540E-04
 -1      3764 4.00571E-04
 -1      3765 5.84955E+00
 -1      3766 5.88437E+00
 -1      3767 4.35432E+00
 -1      3768 4.82143E+00
 -1      3769 3.78425E+00
 -1      3770 4.36034E+00
 -1      3771 3.48084E+00
 -1      3772 2.88260E+00
 -1      3773 3.89893E+00
 -1      3774 4.19738E+00
 -1      3775 2.58729E+00
 -1      3776 4.39265E-04
 -1      3777 4.24900E-04
 -1      3778 4.88465E-04
 -1      3779 3.78425E+00
 -1      3780 3.78425E+00
 -1      3781 3.21419E+00
 -1      3782 3.74750E+00
 -1      3783 4.24403E-04
 -1      3784 4.12863E-04
 -1      3785 4.39388E-04
 -1      3786 4.24403E-04
 -1      3787 4.53876E-04
 -1      3788 4.52969E-04
 -1      3789 4.62943E-04
 -1      3790 4.80730E-04
 -1      3791 5.53675E-01
 -1      3792 6.55097E-01
 -1      3793 2.64279E+00
 -1      3794 2.04445E+00
 -1      3795 1.49437E+00
 -1      3796 1.30563E+00
 -1      3797 2.29643E+00
 -1      3798 1.03991E+00
 -1      3799 9.31413E-01
 -1      3800 1.48064E+00
 -1      3801 7.49245E-01
 -1      3802 6.70691E-01
 -1      3803 1.03276E+00
 -1      3804 5.60338E-01
 -1      3805 5.11191E-01
 -1      3806 7.40243E-01
 -1      3807 4.32908E-01
 -1      3808 3.91680E-01
 -1      3809 5.51607E-01
 -1      3810 3.33016E-01
 -1      3811 2.98502E-01
 -1      3812 4.14659E-01
 -1      3813 2.54103E-01
 -1      3814 2.25824E-01
 -1      3815 3.11597E-01
 -1      3816 1.91965E-01
 -1      3817 1.69172E-01
 -1      3818 2.33340E-01
 -1      3819 1.43252E-01
 -1      3820 1.25151E-01
 -1      3821 1.73562E-01
 -1      3822 1.05313E-01
 -1      3823 9.11513E-02
 -1      3824 1.27804E-01
 -1      3825 7.60296E-02
 -1      3826 6.51220E-02
 -1      3827 9.28444E-02
 -1      3828 5.36816E-02
 -1      3829 4.54209E-02
 -1      3830 6.62823E-02
 -1      3831 3.71069E-02
 -1      3832 3.12859E-02
 -1      3833 4.65279E-02
 -1      3834 2.52660E-02
 -1      3835 2.10599E-02
 -1      3836 3.21941E-02
 -1      3837 1.66198E-02
 -1      3838 1.35697E-02
 -1      3839 2.17340E-02
 -1      3840 1.03513E-02
 -1      3841 8.49233E-03
 -1      3842 1.40756E-02
 -1      3843 6.23559E-03
 -1      3844 5.00276E-03
 -1      3845 8.60050E-03
 -1      3846 3.70805E-03
 -1      3847 2.99632E-03
 -1      3848 5.04906E-03
 -1      3849 2.09534E-03
 -1      3850 2.35911E-03
 -1      3851 2.85337E-03
 -1      3852 2.41948E-03
 -1      3853 2.49097E-03
 -1      3854 2.01275E-03
 -1      3855 2.57271E-03
 -1      3856 2.52304E-03
 -1      3857 2.15485E-03
 -1      3858 2.51014E-03
 -1      3859 2.39021E-03
 -1      3860 2.22369E-03
 -1      3861 2.39021E-03
 -1      3862 2.23535E-03
 -1      3863 2.21079E-03
 -1      3864 2.16804E-03
 -1      3865 2.02477E-03
 -1      3866 2.14348E-03
 -1      3867 1.91790E-03
 -1      3868 1.77742E-03
 -1      3869 1.96930E-03
 -1      3870 1.65342E-03
 -1      3871 1.51412E-03
 -1      3872 1.73843E-03
 -1      3873 1.38766E-03
 -1      3874 1.25789E-03
 -1      3875 1.48797E-03
 -1      3876 1.13816E-03
 -1      3877 1.02231E-03
 -1      3878 1.24178E-03
 -1      3879 9.93090E-04
 -1      3880 8.92675E-04
 -1      3881 1.09283E-03
 -1      3882 6.33263E-04
 -1      3883 5.48407E-04
 -1      3884 8.04197E-04
 -1      3885 7.52031E-01
 -1      3886 8.99551E-01
 -1      3887 6.33637E-01
 -1      3888 1.04795E+00
 -1      3889 1.25930E+00
 -1      3890 8.78971E-01
 -1      3891 4.88465E-04
 -1      3892 3.10777E-01
 -1      3893 3.64896E-01
 -1      3894 2.32955E-01
 -1      3895 2.73814E-01
 -1      3896 2.68141E-01
 -1      3897 1.73327E-01
 -1      3898 2.04422E-01
 -1      3899 2.02645E-01
 -1      3900 1.27459E-01
 -1      3901 1.51139E-01
 -1      3902 1.51924E-01
 -1      3903 9.22771E-02
 -1      3904 1.10226E-01
 -1      3905 1.12503E-01
 -1      3906 6.54971E-02
 -1      3907 7.89856E-02
 -1      3908 8.19788E-02
 -1      3909 4.55092E-02
 -1      3910 5.53569E-02
 -1      3911 5.85471E-02
 -1      3912 3.09884E-02
 -1      3913 3.78804E-02
 -1      3914 4.07780E-02
 -1      3915 2.06622E-02
 -1      3916 2.57082E-02
 -1      3917 2.78689E-02
 -1      3918 1.31981E-02
 -1      3919 1.68212E-02
 -1      3920 1.87476E-02
 -1      3921 7.90522E-03
 -1      3922 1.04071E-02
 -1      3923 1.21155E-02
 -1      3924 4.57605E-03
 -1      3925 6.13131E-03
 -1      3926 7.55062E-03
 -1      3927 3.07372E-03
 -1      3928 3.37538E-03
 -1      3929 4.57605E-03
 -1      3930 2.53067E-03
 -1      3931 2.28034E-03
 -1      3932 2.58200E-03
 -1      3933 2.85510E-03
 -1      3934 2.81007E-03
 -1      3935 2.06803E-03
 -1      3936 2.86663E-03
 -1      3937 2.94773E-03
 -1      3938 2.44007E-03
 -1      3939 2.68925E-03
 -1      3940 2.84097E-03
 -1      3941 2.50705E-03
 -1      3942 2.40949E-03
 -1      3943 2.59402E-03
 -1      3944 2.38616E-03
 -1      3945 2.12299E-03
 -1      3946 2.27843E-03
 -1      3947 2.15987E-03
 -1      3948 1.82004E-03
 -1      3949 1.97869E-03
 -1      3950 1.88451E-03
 -1      3951 1.53642E-03
 -1      3952 1.69334E-03
 -1      3953 1.61350E-03
 -1      3954 1.26925E-03
 -1      3955 1.41518E-03
 -1      3956 1.36555E-03
 -1      3957 1.02582E-03
 -1      3958 1.15591E-03
 -1      3959 1.13097E-03
 -1      3960 8.12056E-04
 -1      3961 9.24414E-04
 -1      3962 9.16221E-04
 -1      3963 6.29814E-04
 -1      3964 7.24476E-04
 -1      3965 7.27233E-04
 -1      3966 1.44336E+00
 -1      3967 1.73193E+00
 -1      3968 1.21143E+00
 -1      3969 3.09328E+00
 -1      3970 3.03035E+00
 -1      3971 3.29701E+00
 -1      3972 4.04805E-04
 -1      3973 4.33525E-04
 -1      3974 4.57203E-04
 -1      3975 4.45818E-04
 -1      3976 4.13738E-01
 -1      3977 4.86718E-01
 -1      3978 4.69746E-01
 -1      3979 3.53946E-01
 -1      3980 4.02563E+00
 -1      3981 3.55851E+00
 -1      3982 2.98845E+00
 -1      3983 2.93446E+00
 -1      3984 4.99330E-04
 -1      3985 5.02953E-04
 -1      3986 4.98070E-04
 -1      3987 5.65649E-04
 -1      3988 5.75489E-04
 -1      3989 4.93985E-04
 -1      3990 4.96703E-04
 -1      3991 4.88644E-04
 -1      3992 3.03035E+00
 -1      3993 2.84651E+00
 -1      3994 7.85163E-04
 -1      3995 7.85163E-04
 -1      3996 8.27990E-04
 -1      3997 8.30618E-04
 -1      3998 1.93379E+00
 -1      3999 2.45271E+00
 -1      4000 2.28096E+00
 -1      4001 1.59735E+00
 -1      4002 3.03035E+00
 -1      4003 2.29643E+00
 -1      4004 1.74636E+00
 -1      4005 1.48064E+00
 -1      4006 2.29643E+00
 -1      4007 1.21493E+00
 -1      4008 1.03276E+00
 -1      4009 1.48064E+00
 -1      4010 8.50597E-01
 -1      4011 7.40243E-01
 -1      4012 1.03276E+00
 -1      4013 6.17607E-01
 -1      4014 5.39323E-01
 -1      4015 7.27960E-01
 -1      4016 4.54751E-01
 -1      4017 3.96087E-01
 -1      4018 5.20751E-01
 -1      4019 3.36387E-01
 -1      4020 2.91988E-01
 -1      4021 3.76479E-01
 -1      4022 2.49026E-01
 -1      4023 2.15168E-01
 -1      4024 2.73816E-01
 -1      4025 1.83805E-01
 -1      4026 1.57885E-01
 -1      4027 1.99490E-01
 -1      4028 1.34771E-01
 -1      4029 1.14933E-01
 -1      4030 1.45014E-01
 -1      4031 9.78140E-02
 -1      4032 8.26923E-02
 -1      4033 1.04781E-01
 -1      4034 7.00012E-02
 -1      4035 5.85608E-02
 -1      4036 7.49708E-02
 -1      4037 4.92744E-02
 -1      4038 4.09604E-02
 -1      4039 5.29933E-02
 -1      4040 3.45255E-02
 -1      4041 2.85056E-02
 -1      4042 3.72720E-02
 -1      4043 2.38627E-02
 -1      4044 1.94225E-02
 -1      4045 2.61941E-02
 -1      4046 1.61049E-02
 -1      4047 1.28866E-02
 -1      4048 1.82336E-02
 -1      4049 1.04112E-02
 -1      4050 8.15447E-03
 -1      4051 1.24406E-02
 -1      4052 6.34376E-03
 -1      4053 5.04906E-03
 -1      4054 8.15447E-03
 -1      4055 3.75435E-03
 -1      4056 2.85337E-03
 -1      4057 5.04906E-03
 -1      4058 1.95239E-03
 -1      4059 2.01275E-03
 -1      4060 2.85337E-03
 -1      4061 2.01213E-03
 -1      4062 2.09387E-03
 -1      4063 1.95177E-03
 -1      4064 2.21849E-03
 -1      4065 2.20559E-03
 -1      4066 2.07577E-03
 -1      4067 2.21079E-03
 -1      4068 2.21079E-03
 -1      4069 2.20559E-03
 -1      4070 2.14348E-03
 -1      4071 2.07617E-03
 -1      4072 2.14348E-03
 -1      4073 1.96930E-03
 -1      4074 1.86243E-03
 -1      4075 1.96930E-03
 -1      4076 1.73843E-03
 -1      4077 1.61443E-03
 -1      4078 1.73843E-03
 -1      4079 1.48797E-03
 -1      4080 1.36151E-03
 -1      4081 1.48797E-03
 -1      4082 1.24178E-03
 -1      4083 1.12206E-03
 -1      4084 1.24178E-03
 -1      4085 1.11925E-03
 -1      4086 1.09003E-03
 -1      4087 1.11925E-03
 -1      4088 1.09003E-03
 -1      4089 6.15582E-01
 -1      4090 7.12516E-01
 -1      4091 8.85548E-01
 -1      4092 1.03395E+00
 -1      4093 8.67493E-01
 -1      4094 1.37451E-01
 -1      4095 1.59638E-01
 -1      4096 1.84154E-01
 -1      4097 2.12687E-01
 -1      4098 1.69681E-01
 -1      4099 2.44758E-01
 -1      4100 2.81721E-01
 -1      4101 2.26267E-01
 -1      4102 1.01398E-01
 -1      4103 1.18631E-01
 -1      4104 1.26345E-01
 -1      4105 7.36779E-02
 -1      4106 8.69694E-02
 -1      4107 9.30972E-02
 -1      4108 5.25344E-02
 -1      4109 6.26746E-02
 -1      4110 6.76652E-02
 -1      4111 3.65850E-02
 -1      4112 4.42139E-02
 -1      4113 4.83414E-02
 -1      4114 2.50825E-02
 -1      4115 3.03628E-02
 -1      4116 3.37986E-02
 -1      4117 1.70473E-02
 -1      4118 2.08883E-02
 -1      4119 2.33822E-02
 -1      4120 1.11585E-02
 -1      4121 1.39495E-02
 -1      4122 1.60903E-02
 -1      4123 7.11470E-03
 -1      4124 8.88860E-03
 -1      4125 1.07226E-02
 -1      4126 4.28273E-03
 -1      4127 5.48339E-03
 -1      4128 6.82138E-03
 -1      4129 2.34401E-03
 -1      4130 3.13739E-03
 -1      4131 4.04473E-03
 -1      4132 1.88313E-03
 -1      4133 1.60372E-03
 -1      4134 2.15910E-03
 -1      4135 2.11994E-03
 -1      4136 2.02731E-03
 -1      4137 1.56300E-03
 -1      4138 2.18213E-03
 -1      4139 2.20778E-03
 -1      4140 1.79502E-03
 -1      4141 2.07932E-03
 -1      4142 2.17455E-03
 -1      4143 1.87529E-03
 -1      4144 1.88366E-03
 -1      4145 2.01472E-03
 -1      4146 1.80311E-03
 -1      4147 1.64450E-03
 -1      4148 1.78880E-03
 -1      4149 1.64365E-03
 -1      4150 1.41075E-03
 -1      4151 1.53745E-03
 -1      4152 1.44174E-03
 -1      4153 1.18192E-03
 -1      4154 1.30317E-03
 -1      4155 1.22711E-03
 -1      4156 9.82409E-04
 -1      4157 1.09575E-03
 -1      4158 1.03336E-03
 -1      4159 7.98511E-04
 -1      4160 8.99920E-04
 -1      4161 8.64699E-04
 -1      4162 6.35372E-04
 -1      4163 7.22951E-04
 -1      4164 7.06650E-04
 -1      4165 2.91317E+00
 -1      4166 2.72933E+00
 -1      4167 4.88644E-04
 -1      4168 5.08088E-04
 -1      4169 5.25427E-04
 -1      4170 5.39529E-04
 -1      4171 2.68743E+00
 -1      4172 2.17926E+00
 -1      4173 5.85309E-04
 -1      4174 5.85309E-04
 -1      4175 5.89591E-04
 -1      4176 3.00784E-01
 -1      4177 3.24167E-01
 -1      4178 3.73009E-01
 -1      4179 1.27454E+00
 -1      4180 1.45860E+00
 -1      4181 1.11645E-03
 -1      4182 4.39537E-01
 -1      4183 5.06494E-01
 -1      4184 5.85373E-01
 -1      4185 4.09757E-01
 -1      4186 1.28112E+00
 -1      4187 2.06693E+00
 -1      4188 2.00382E+00
 -1      4189 8.27990E-04
 -1      4190 8.73770E-04
 -1      4191 1.63403E+00
 -1      4192 2.20569E+00
 -1      4193 1.36832E+00
 -1      4194 1.12773E+00
 -1      4195 9.45561E-01
 -1      4196 7.72529E-01
 -1      4197 6.49892E-01
 -1      4198 5.40805E-01
 -1      4199 4.56232E-01
 -1      4200 3.89704E-01
 -1      4201 3.30004E-01
 -1      4202 2.87558E-01
 -1      4203 2.44596E-01
 -1      4204 2.12525E-01
 -1      4205 1.81162E-01
 -1      4206 1.56646E-01
 -1      4207 1.33533E-01
 -1      4208 1.14713E-01
 -1      4209 9.75938E-02
 -1      4210 8.31652E-02
 -1      4211 7.04741E-02
 -1      4212 5.94708E-02
 -1      4213 5.01844E-02
 -1      4214 4.18639E-02
 -1      4215 3.54290E-02
 -1      4216 2.92067E-02
 -1      4217 2.45638E-02
 -1      4218 2.03696E-02
 -1      4219 1.70520E-02
 -1      4220 1.39542E-02
 -1      4221 1.14788E-02
 -1      4222 9.20893E-03
 -1      4223 7.39822E-03
 -1      4224 5.76692E-03
 -1      4225 4.47221E-03
 -1      4226 3.32687E-03
 -1      4227 2.42589E-03
 -1      4228 1.68560E-03
 -1      4229 1.68498E-03
 -1      4230 1.82917E-03
 -1      4231 1.95379E-03
 -1      4232 2.04163E-03
 -1      4233 2.04683E-03
 -1      4234 2.03926E-03
 -1      4235 1.97195E-03
 -1      4236 1.90734E-03
 -1      4237 1.80047E-03
 -1      4238 1.70561E-03
 -1      4239 1.58161E-03
 -1      4240 1.47456E-03
 -1      4241 1.34810E-03
 -1      4242 1.24052E-03
 -1      4243 1.12080E-03
 -1      4244 1.03462E-03
 -1      4245 1.03182E-03
 -1      4246 9.49330E-04
 -1      4247 9.49330E-04
 -1      4248 1.11645E-03
 -1      4249 1.11645E-03
 -3
 9999
