    1C
    1UUSER                                                              
    1UDATE              27.october.2022                                 
    1UTIME              00:31:35                                        
    1UHOST                                                              
    1UPGM               CalculiX                                        
    1UVERSION           Version 2.17                             
    1UCOMPILETIME       Thu Jul 23 21:43:50 CEST 2020                    
    1UDIR                                                               
    1UDBN                                                               
    1UMAT    1SOLIDMATERIAL                                             
    2C                          4324                                     1
 -1         1 1.11818E+02 3.55074E+01 0.00000E+00
 -1         2 1.17554E+02 2.86226E+01 0.00000E+00
 -1         3 1.50000E+02 0.00000E+00 0.00000E+00
 -1         4 1.50000E+02 5.00000E+01 0.00000E+00
 -1         5 0.00000E+00 0.00000E+00 0.00000E+00
 -1         6 0.00000E+00 5.00000E+01 0.00000E+00
 -1         7 0.00000E+00 4.70500E+01 0.00000E+00
 -1         8 0.00000E+00 4.41000E+01 0.00000E+00
 -1         9 0.00000E+00 4.11500E+01 0.00000E+00
 -1        10 0.00000E+00 3.82000E+01 0.00000E+00
 -1        11 0.00000E+00 3.52500E+01 0.00000E+00
 -1        12 0.00000E+00 3.23500E+01 0.00000E+00
 -1        13 0.00000E+00 2.94000E+01 0.00000E+00
 -1        14 0.00000E+00 2.64500E+01 0.00000E+00
 -1        15 0.00000E+00 2.35000E+01 0.00000E+00
 -1        16 0.00000E+00 2.05500E+01 0.00000E+00
 -1        17 0.00000E+00 1.76000E+01 0.00000E+00
 -1        18 0.00000E+00 1.47000E+01 0.00000E+00
 -1        19 0.00000E+00 1.17500E+01 0.00000E+00
 -1        20 0.00000E+00 8.80000E+00 0.00000E+00
 -1        21 0.00000E+00 5.85000E+00 0.00000E+00
 -1        22 0.00000E+00 2.90000E+00 0.00000E+00
 -1        23 3.15000E+00 5.00000E+01 0.00000E+00
 -1        24 6.15000E+00 5.00000E+01 0.00000E+00
 -1        25 9.15000E+00 5.00000E+01 0.00000E+00
 -1        26 1.21500E+01 5.00000E+01 0.00000E+00
 -1        27 1.51500E+01 5.00000E+01 0.00000E+00
 -1        28 1.81500E+01 5.00000E+01 0.00000E+00
 -1        29 2.11500E+01 5.00000E+01 0.00000E+00
 -1        30 2.41500E+01 5.00000E+01 0.00000E+00
 -1        31 2.71500E+01 5.00000E+01 0.00000E+00
 -1        32 3.01500E+01 5.00000E+01 0.00000E+00
 -1        33 3.31500E+01 5.00000E+01 0.00000E+00
 -1        34 3.61500E+01 5.00000E+01 0.00000E+00
 -1        35 3.91500E+01 5.00000E+01 0.00000E+00
 -1        36 4.21500E+01 5.00000E+01 0.00000E+00
 -1        37 4.51500E+01 5.00000E+01 0.00000E+00
 -1        38 4.81500E+01 5.00000E+01 0.00000E+00
 -1        39 5.11500E+01 5.00000E+01 0.00000E+00
 -1        40 5.41500E+01 5.00000E+01 0.00000E+00
 -1        41 5.71500E+01 5.00000E+01 0.00000E+00
 -1        42 6.01500E+01 5.00000E+01 0.00000E+00
 -1        43 6.31500E+01 5.00000E+01 0.00000E+00
 -1        44 6.61500E+01 5.00000E+01 0.00000E+00
 -1        45 6.91500E+01 5.00000E+01 0.00000E+00
 -1        46 7.21500E+01 5.00000E+01 0.00000E+00
 -1        47 7.51500E+01 5.00000E+01 0.00000E+00
 -1        48 7.81500E+01 5.00000E+01 0.00000E+00
 -1        49 8.11500E+01 5.00000E+01 0.00000E+00
 -1        50 8.41500E+01 5.00000E+01 0.00000E+00
 -1        51 8.71500E+01 5.00000E+01 0.00000E+00
 -1        52 9.01500E+01 5.00000E+01 0.00000E+00
 -1        53 9.31500E+01 5.00000E+01 0.00000E+00
 -1        54 9.61500E+01 5.00000E+01 0.00000E+00
 -1        55 9.91500E+01 5.00000E+01 0.00000E+00
 -1        56 1.02150E+02 5.00000E+01 0.00000E+00
 -1        57 1.05150E+02 5.00000E+01 0.00000E+00
 -1        58 1.08150E+02 5.00000E+01 0.00000E+00
 -1        59 1.11150E+02 5.00000E+01 0.00000E+00
 -1        60 1.14150E+02 5.00000E+01 0.00000E+00
 -1        61 1.17150E+02 5.00000E+01 0.00000E+00
 -1        62 1.20150E+02 5.00000E+01 0.00000E+00
 -1        63 1.23150E+02 5.00000E+01 0.00000E+00
 -1        64 1.26150E+02 5.00000E+01 0.00000E+00
 -1        65 1.29150E+02 5.00000E+01 0.00000E+00
 -1        66 1.32150E+02 5.00000E+01 0.00000E+00
 -1        67 1.35150E+02 5.00000E+01 0.00000E+00
 -1        68 1.38150E+02 5.00000E+01 0.00000E+00
 -1        69 1.41150E+02 5.00000E+01 0.00000E+00
 -1        70 1.44150E+02 5.00000E+01 0.00000E+00
 -1        71 1.47150E+02 5.00000E+01 0.00000E+00
 -1        72 3.15000E+00 0.00000E+00 0.00000E+00
 -1        73 6.15000E+00 0.00000E+00 0.00000E+00
 -1        74 9.15000E+00 0.00000E+00 0.00000E+00
 -1        75 1.21500E+01 0.00000E+00 0.00000E+00
 -1        76 1.51500E+01 0.00000E+00 0.00000E+00
 -1        77 1.81500E+01 0.00000E+00 0.00000E+00
 -1        78 2.11500E+01 0.00000E+00 0.00000E+00
 -1        79 2.41500E+01 0.00000E+00 0.00000E+00
 -1        80 2.71500E+01 0.00000E+00 0.00000E+00
 -1        81 3.01500E+01 0.00000E+00 0.00000E+00
 -1        82 3.31500E+01 0.00000E+00 0.00000E+00
 -1        83 3.61500E+01 0.00000E+00 0.00000E+00
 -1        84 3.91500E+01 0.00000E+00 0.00000E+00
 -1        85 4.21500E+01 0.00000E+00 0.00000E+00
 -1        86 4.51500E+01 0.00000E+00 0.00000E+00
 -1        87 4.81500E+01 0.00000E+00 0.00000E+00
 -1        88 5.11500E+01 0.00000E+00 0.00000E+00
 -1        89 5.41500E+01 0.00000E+00 0.00000E+00
 -1        90 5.71500E+01 0.00000E+00 0.00000E+00
 -1        91 6.01500E+01 0.00000E+00 0.00000E+00
 -1        92 6.31500E+01 0.00000E+00 0.00000E+00
 -1        93 6.61500E+01 0.00000E+00 0.00000E+00
 -1        94 6.91500E+01 0.00000E+00 0.00000E+00
 -1        95 7.21500E+01 0.00000E+00 0.00000E+00
 -1        96 7.51500E+01 0.00000E+00 0.00000E+00
 -1        97 7.81500E+01 0.00000E+00 0.00000E+00
 -1        98 8.11500E+01 0.00000E+00 0.00000E+00
 -1        99 8.41500E+01 0.00000E+00 0.00000E+00
 -1       100 8.71500E+01 0.00000E+00 0.00000E+00
 -1       101 9.01500E+01 0.00000E+00 0.00000E+00
 -1       102 9.31500E+01 0.00000E+00 0.00000E+00
 -1       103 9.61500E+01 0.00000E+00 0.00000E+00
 -1       104 9.91500E+01 0.00000E+00 0.00000E+00
 -1       105 1.02150E+02 0.00000E+00 0.00000E+00
 -1       106 1.05150E+02 0.00000E+00 0.00000E+00
 -1       107 1.08150E+02 0.00000E+00 0.00000E+00
 -1       108 1.11150E+02 0.00000E+00 0.00000E+00
 -1       109 1.14150E+02 0.00000E+00 0.00000E+00
 -1       110 1.17150E+02 0.00000E+00 0.00000E+00
 -1       111 1.20150E+02 0.00000E+00 0.00000E+00
 -1       112 1.23150E+02 0.00000E+00 0.00000E+00
 -1       113 1.26150E+02 0.00000E+00 0.00000E+00
 -1       114 1.29150E+02 0.00000E+00 0.00000E+00
 -1       115 1.32150E+02 0.00000E+00 0.00000E+00
 -1       116 1.35150E+02 0.00000E+00 0.00000E+00
 -1       117 1.38150E+02 0.00000E+00 0.00000E+00
 -1       118 1.41150E+02 0.00000E+00 0.00000E+00
 -1       119 1.44150E+02 0.00000E+00 0.00000E+00
 -1       120 1.47150E+02 0.00000E+00 0.00000E+00
 -1       121 1.50000E+02 2.95000E+00 0.00000E+00
 -1       122 1.50000E+02 5.90000E+00 0.00000E+00
 -1       123 1.50000E+02 8.85000E+00 0.00000E+00
 -1       124 1.50000E+02 1.18000E+01 0.00000E+00
 -1       125 1.50000E+02 1.47500E+01 0.00000E+00
 -1       126 1.50000E+02 1.76500E+01 0.00000E+00
 -1       127 1.50000E+02 2.06000E+01 0.00000E+00
 -1       128 1.50000E+02 2.35500E+01 0.00000E+00
 -1       129 1.50000E+02 2.65000E+01 0.00000E+00
 -1       130 1.50000E+02 2.94500E+01 0.00000E+00
 -1       131 1.50000E+02 3.24000E+01 0.00000E+00
 -1       132 1.50000E+02 3.53000E+01 0.00000E+00
 -1       133 1.50000E+02 3.82500E+01 0.00000E+00
 -1       134 1.50000E+02 4.12000E+01 0.00000E+00
 -1       135 1.50000E+02 4.41500E+01 0.00000E+00
 -1       136 1.50000E+02 4.71000E+01 0.00000E+00
 -1       137 1.17400E+02 2.71622E+01 0.00000E+00
 -1       138 1.16893E+02 2.56528E+01 0.00000E+00
 -1       139 1.16128E+02 2.43885E+01 0.00000E+00
 -1       140 1.15015E+02 2.32281E+01 0.00000E+00
 -1       141 1.13846E+02 2.24452E+01 0.00000E+00
 -1       142 1.12488E+02 2.18950E+01 0.00000E+00
 -1       143 1.11092E+02 2.16433E+01 0.00000E+00
 -1       144 1.09531E+02 2.16977E+01 0.00000E+00
 -1       145 1.08100E+02 2.20667E+01 0.00000E+00
 -1       146 1.06726E+02 2.27621E+01 0.00000E+00
 -1       147 1.05589E+02 2.36883E+01 0.00000E+00
 -1       148 1.04652E+02 2.48590E+01 0.00000E+00
 -1       149 1.04014E+02 2.61278E+01 0.00000E+00
 -1       150 1.03629E+02 2.75964E+01 0.00000E+00
 -1       151 1.03568E+02 2.90605E+01 0.00000E+00
 -1       152 1.03806E+02 3.04858E+01 0.00000E+00
 -1       153 1.04309E+02 3.17851E+01 0.00000E+00
 -1       154 1.05161E+02 3.30858E+01 0.00000E+00
 -1       155 1.06201E+02 3.41047E+01 0.00000E+00
 -1       156 1.07428E+02 3.48858E+01 0.00000E+00
 -1       157 1.08812E+02 3.54024E+01 0.00000E+00
 -1       158 1.10304E+02 3.56181E+01 0.00000E+00
 -1       159 1.13134E+02 3.51298E+01 0.00000E+00
 -1       160 1.14343E+02 3.45085E+01 0.00000E+00
 -1       161 1.15398E+02 3.36759E+01 0.00000E+00
 -1       162 1.16340E+02 3.25619E+01 0.00000E+00
 -1       163 1.16994E+02 3.13663E+01 0.00000E+00
 -1       164 1.17407E+02 3.00471E+01 0.00000E+00
 -1       165 2.59800E+00 4.55750E+01 0.00000E+00
 -1       166 2.59800E+00 4.26250E+01 0.00000E+00
 -1       167 2.59800E+00 3.96750E+01 0.00000E+00
 -1       168 2.59800E+00 3.67250E+01 0.00000E+00
 -1       169 2.59800E+00 3.38250E+01 0.00000E+00
 -1       170 2.59800E+00 3.08750E+01 0.00000E+00
 -1       171 2.59800E+00 2.79250E+01 0.00000E+00
 -1       172 2.59800E+00 2.49750E+01 0.00000E+00
 -1       173 2.59800E+00 2.20250E+01 0.00000E+00
 -1       174 2.59800E+00 1.90750E+01 0.00000E+00
 -1       175 2.59800E+00 1.61750E+01 0.00000E+00
 -1       176 2.59800E+00 1.32250E+01 0.00000E+00
 -1       177 2.59800E+00 1.02750E+01 0.00000E+00
 -1       178 2.59800E+00 7.32500E+00 0.00000E+00
 -1       179 2.59800E+00 4.37500E+00 0.00000E+00
 -1       180 2.87400E+00 2.18750E+00 0.00000E+00
 -1       181 4.65000E+00 4.74020E+01 0.00000E+00
 -1       182 7.65000E+00 4.74020E+01 0.00000E+00
 -1       183 1.06500E+01 4.74020E+01 0.00000E+00
 -1       184 1.36500E+01 4.74020E+01 0.00000E+00
 -1       185 1.66500E+01 4.74020E+01 0.00000E+00
 -1       186 1.96500E+01 4.74020E+01 0.00000E+00
 -1       187 2.26500E+01 4.74020E+01 0.00000E+00
 -1       188 2.56500E+01 4.74020E+01 0.00000E+00
 -1       189 2.86500E+01 4.74020E+01 0.00000E+00
 -1       190 3.16500E+01 4.74020E+01 0.00000E+00
 -1       191 3.46500E+01 4.74020E+01 0.00000E+00
 -1       192 3.76500E+01 4.74020E+01 0.00000E+00
 -1       193 4.06500E+01 4.74020E+01 0.00000E+00
 -1       194 4.36500E+01 4.74020E+01 0.00000E+00
 -1       195 4.66500E+01 4.74020E+01 0.00000E+00
 -1       196 4.96500E+01 4.74020E+01 0.00000E+00
 -1       197 5.26500E+01 4.74020E+01 0.00000E+00
 -1       198 5.56500E+01 4.74020E+01 0.00000E+00
 -1       199 5.86500E+01 4.74020E+01 0.00000E+00
 -1       200 6.16500E+01 4.74020E+01 0.00000E+00
 -1       201 6.46500E+01 4.74020E+01 0.00000E+00
 -1       202 6.76500E+01 4.74020E+01 0.00000E+00
 -1       203 7.06500E+01 4.74020E+01 0.00000E+00
 -1       204 7.36500E+01 4.74020E+01 0.00000E+00
 -1       205 7.66500E+01 4.74020E+01 0.00000E+00
 -1       206 7.96500E+01 4.74020E+01 0.00000E+00
 -1       207 8.26500E+01 4.74020E+01 0.00000E+00
 -1       208 8.56500E+01 4.74020E+01 0.00000E+00
 -1       209 8.86500E+01 4.74020E+01 0.00000E+00
 -1       210 9.16500E+01 4.74020E+01 0.00000E+00
 -1       211 9.46500E+01 4.74020E+01 0.00000E+00
 -1       212 9.76500E+01 4.74020E+01 0.00000E+00
 -1       213 1.00650E+02 4.74020E+01 0.00000E+00
 -1       214 1.03650E+02 4.74020E+01 0.00000E+00
 -1       215 1.06650E+02 4.74020E+01 0.00000E+00
 -1       216 1.09650E+02 4.74020E+01 0.00000E+00
 -1       217 1.12650E+02 4.74020E+01 0.00000E+00
 -1       218 1.15650E+02 4.74020E+01 0.00000E+00
 -1       219 1.18650E+02 4.74020E+01 0.00000E+00
 -1       220 1.21650E+02 4.74020E+01 0.00000E+00
 -1       221 1.24650E+02 4.74020E+01 0.00000E+00
 -1       222 1.27650E+02 4.74020E+01 0.00000E+00
 -1       223 1.30650E+02 4.74020E+01 0.00000E+00
 -1       224 1.33650E+02 4.74020E+01 0.00000E+00
 -1       225 1.36650E+02 4.74020E+01 0.00000E+00
 -1       226 1.39650E+02 4.74020E+01 0.00000E+00
 -1       227 1.42650E+02 4.74020E+01 0.00000E+00
 -1       228 1.45650E+02 4.74020E+01 0.00000E+00
 -1       229 5.87400E+00 2.18750E+00 0.00000E+00
 -1       230 8.87400E+00 2.18750E+00 0.00000E+00
 -1       231 1.18740E+01 2.18750E+00 0.00000E+00
 -1       232 1.48740E+01 2.18750E+00 0.00000E+00
 -1       233 1.78740E+01 2.18750E+00 0.00000E+00
 -1       234 2.08740E+01 2.18750E+00 0.00000E+00
 -1       235 2.38740E+01 2.18750E+00 0.00000E+00
 -1       236 2.68740E+01 2.18750E+00 0.00000E+00
 -1       237 2.98740E+01 2.18750E+00 0.00000E+00
 -1       238 3.28740E+01 2.18750E+00 0.00000E+00
 -1       239 3.58740E+01 2.18750E+00 0.00000E+00
 -1       240 3.88740E+01 2.18750E+00 0.00000E+00
 -1       241 4.18740E+01 2.18750E+00 0.00000E+00
 -1       242 4.48740E+01 2.18750E+00 0.00000E+00
 -1       243 4.78740E+01 2.18750E+00 0.00000E+00
 -1       244 5.08740E+01 2.18750E+00 0.00000E+00
 -1       245 5.38740E+01 2.18750E+00 0.00000E+00
 -1       246 5.68740E+01 2.18750E+00 0.00000E+00
 -1       247 5.98740E+01 2.18750E+00 0.00000E+00
 -1       248 6.28740E+01 2.18750E+00 0.00000E+00
 -1       249 6.58740E+01 2.18750E+00 0.00000E+00
 -1       250 6.88740E+01 2.18750E+00 0.00000E+00
 -1       251 7.18740E+01 2.18750E+00 0.00000E+00
 -1       252 7.48740E+01 2.18750E+00 0.00000E+00
 -1       253 7.78740E+01 2.18750E+00 0.00000E+00
 -1       254 8.08740E+01 2.18750E+00 0.00000E+00
 -1       255 8.38740E+01 2.18750E+00 0.00000E+00
 -1       256 8.68740E+01 2.18750E+00 0.00000E+00
 -1       257 8.98740E+01 2.18750E+00 0.00000E+00
 -1       258 9.28740E+01 2.18750E+00 0.00000E+00
 -1       259 9.58740E+01 2.18750E+00 0.00000E+00
 -1       260 9.88740E+01 2.18750E+00 0.00000E+00
 -1       261 1.01874E+02 2.18750E+00 0.00000E+00
 -1       262 1.04874E+02 2.18750E+00 0.00000E+00
 -1       263 1.07874E+02 2.18750E+00 0.00000E+00
 -1       264 1.10874E+02 2.18750E+00 0.00000E+00
 -1       265 1.13874E+02 2.18750E+00 0.00000E+00
 -1       266 1.16874E+02 2.18750E+00 0.00000E+00
 -1       267 1.19874E+02 2.18750E+00 0.00000E+00
 -1       268 1.22874E+02 2.18750E+00 0.00000E+00
 -1       269 1.25874E+02 2.18750E+00 0.00000E+00
 -1       270 1.28874E+02 2.18750E+00 0.00000E+00
 -1       271 1.31874E+02 2.18750E+00 0.00000E+00
 -1       272 1.34874E+02 2.18750E+00 0.00000E+00
 -1       273 1.37874E+02 2.18750E+00 0.00000E+00
 -1       274 1.40874E+02 2.18750E+00 0.00000E+00
 -1       275 1.43874E+02 2.18750E+00 0.00000E+00
 -1       276 1.46874E+02 2.18750E+00 0.00000E+00
 -1       277 1.47402E+02 4.42500E+00 0.00000E+00
 -1       278 1.47402E+02 7.37500E+00 0.00000E+00
 -1       279 1.47402E+02 1.03250E+01 0.00000E+00
 -1       280 1.47402E+02 1.32750E+01 0.00000E+00
 -1       281 1.47402E+02 1.61750E+01 0.00000E+00
 -1       282 1.47402E+02 1.91250E+01 0.00000E+00
 -1       283 1.47402E+02 2.20750E+01 0.00000E+00
 -1       284 1.47402E+02 2.50250E+01 0.00000E+00
 -1       285 1.47402E+02 2.79750E+01 0.00000E+00
 -1       286 1.47402E+02 3.09250E+01 0.00000E+00
 -1       287 1.47402E+02 3.38250E+01 0.00000E+00
 -1       288 1.47402E+02 3.67750E+01 0.00000E+00
 -1       289 1.47402E+02 3.97250E+01 0.00000E+00
 -1       290 1.47402E+02 4.26750E+01 0.00000E+00
 -1       291 1.46526E+02 4.50385E+01 0.00000E+00
 -1       292 1.18683E+02 2.77652E+01 0.00000E+00
 -1       293 1.18613E+02 2.59146E+01 0.00000E+00
 -1       294 1.17620E+02 2.43499E+01 0.00000E+00
 -1       295 1.16628E+02 2.27949E+01 0.00000E+00
 -1       296 1.15105E+02 2.18294E+01 0.00000E+00
 -1       297 1.13654E+02 2.09687E+01 0.00000E+00
 -1       298 1.12005E+02 2.05760E+01 0.00000E+00
 -1       299 1.10263E+02 2.02913E+01 0.00000E+00
 -1       300 1.08513E+02 2.07082E+01 0.00000E+00
 -1       301 1.06828E+02 2.12578E+01 0.00000E+00
 -1       302 1.05391E+02 2.22852E+01 0.00000E+00
 -1       303 1.04174E+02 2.35161E+01 0.00000E+00
 -1       304 1.03249E+02 2.49486E+01 0.00000E+00
 -1       305 1.02567E+02 2.65342E+01 0.00000E+00
 -1       306 1.02387E+02 2.82772E+01 0.00000E+00
 -1       307 1.02326E+02 3.00012E+01 0.00000E+00
 -1       308 1.02927E+02 3.15729E+01 0.00000E+00
 -1       309 1.03441E+02 3.32836E+01 0.00000E+00
 -1       310 1.04481E+02 3.43026E+01 0.00000E+00
 -1       311 1.06118E+02 3.55886E+01 0.00000E+00
 -1       312 1.07696E+02 3.62799E+01 0.00000E+00
 -1       313 1.09384E+02 3.67101E+01 0.00000E+00
 -1       314 1.11162E+02 3.69391E+01 0.00000E+00
 -1       315 1.12810E+02 3.64840E+01 0.00000E+00
 -1       316 1.14331E+02 3.59720E+01 0.00000E+00
 -1       317 1.15621E+02 3.50440E+01 0.00000E+00
 -1       318 1.16923E+02 3.40102E+01 0.00000E+00
 -1       319 1.17731E+02 3.25456E+01 0.00000E+00
 -1       320 1.18597E+02 3.11446E+01 0.00000E+00
 -1       321 1.18770E+02 2.94674E+01 0.00000E+00
 -1       322 5.19600E+00 4.11500E+01 0.00000E+00
 -1       323 5.19600E+00 4.41000E+01 0.00000E+00
 -1       324 5.19600E+00 3.52750E+01 0.00000E+00
 -1       325 5.19600E+00 3.23250E+01 0.00000E+00
 -1       326 5.19600E+00 2.93750E+01 0.00000E+00
 -1       327 5.19600E+00 2.64250E+01 0.00000E+00
 -1       328 5.19600E+00 2.34750E+01 0.00000E+00
 -1       329 5.19600E+00 2.05250E+01 0.00000E+00
 -1       330 5.19600E+00 1.76250E+01 0.00000E+00
 -1       331 5.19600E+00 1.46750E+01 0.00000E+00
 -1       332 5.19600E+00 1.17250E+01 0.00000E+00
 -1       333 5.19600E+00 8.77500E+00 0.00000E+00
 -1       334 5.19600E+00 5.82500E+00 0.00000E+00
 -1       335 5.53500E+00 4.00625E+00 0.00000E+00
 -1       336 8.53500E+00 4.00625E+00 0.00000E+00
 -1       337 1.04344E+02 3.61628E+01 0.00000E+00
 -1       338 9.15000E+00 4.48040E+01 0.00000E+00
 -1       339 1.21500E+01 4.48040E+01 0.00000E+00
 -1       340 1.51500E+01 4.48040E+01 0.00000E+00
 -1       341 1.81500E+01 4.48040E+01 0.00000E+00
 -1       342 2.11500E+01 4.48040E+01 0.00000E+00
 -1       343 2.41500E+01 4.48040E+01 0.00000E+00
 -1       344 2.71500E+01 4.48040E+01 0.00000E+00
 -1       345 3.01500E+01 4.48040E+01 0.00000E+00
 -1       346 3.31500E+01 4.48040E+01 0.00000E+00
 -1       347 3.61500E+01 4.48040E+01 0.00000E+00
 -1       348 3.91500E+01 4.48040E+01 0.00000E+00
 -1       349 4.21500E+01 4.48040E+01 0.00000E+00
 -1       350 4.51500E+01 4.48040E+01 0.00000E+00
 -1       351 4.81500E+01 4.48040E+01 0.00000E+00
 -1       352 5.11500E+01 4.48040E+01 0.00000E+00
 -1       353 5.41500E+01 4.48040E+01 0.00000E+00
 -1       354 5.71500E+01 4.48040E+01 0.00000E+00
 -1       355 6.01500E+01 4.48040E+01 0.00000E+00
 -1       356 6.31500E+01 4.48040E+01 0.00000E+00
 -1       357 6.61500E+01 4.48040E+01 0.00000E+00
 -1       358 6.91500E+01 4.48040E+01 0.00000E+00
 -1       359 7.21500E+01 4.48040E+01 0.00000E+00
 -1       360 7.51500E+01 4.48040E+01 0.00000E+00
 -1       361 7.81500E+01 4.48040E+01 0.00000E+00
 -1       362 8.11500E+01 4.48040E+01 0.00000E+00
 -1       363 8.41500E+01 4.48040E+01 0.00000E+00
 -1       364 8.71500E+01 4.48040E+01 0.00000E+00
 -1       365 9.01500E+01 4.48040E+01 0.00000E+00
 -1       366 9.31500E+01 4.48040E+01 0.00000E+00
 -1       367 9.61500E+01 4.48040E+01 0.00000E+00
 -1       368 9.91500E+01 4.48040E+01 0.00000E+00
 -1       369 1.02150E+02 4.48040E+01 0.00000E+00
 -1       370 1.05150E+02 4.48040E+01 0.00000E+00
 -1       371 1.08150E+02 4.48040E+01 0.00000E+00
 -1       372 1.11150E+02 4.48040E+01 0.00000E+00
 -1       373 1.14150E+02 4.48040E+01 0.00000E+00
 -1       374 1.17150E+02 4.48040E+01 0.00000E+00
 -1       375 1.20150E+02 4.48040E+01 0.00000E+00
 -1       376 1.23150E+02 4.48040E+01 0.00000E+00
 -1       377 1.26150E+02 4.48040E+01 0.00000E+00
 -1       378 1.29150E+02 4.48040E+01 0.00000E+00
 -1       379 1.32150E+02 4.48040E+01 0.00000E+00
 -1       380 1.35150E+02 4.48040E+01 0.00000E+00
 -1       381 1.38150E+02 4.48040E+01 0.00000E+00
 -1       382 1.41150E+02 4.48040E+01 0.00000E+00
 -1       383 1.43838E+02 4.49212E+01 0.00000E+00
 -1       384 1.15350E+01 4.00625E+00 0.00000E+00
 -1       385 1.45350E+01 4.00625E+00 0.00000E+00
 -1       386 1.75350E+01 4.00625E+00 0.00000E+00
 -1       387 2.05350E+01 4.00625E+00 0.00000E+00
 -1       388 2.35350E+01 4.00625E+00 0.00000E+00
 -1       389 2.65350E+01 4.00625E+00 0.00000E+00
 -1       390 2.95350E+01 4.00625E+00 0.00000E+00
 -1       391 3.25350E+01 4.00625E+00 0.00000E+00
 -1       392 3.55350E+01 4.00625E+00 0.00000E+00
 -1       393 3.85350E+01 4.00625E+00 0.00000E+00
 -1       394 4.15350E+01 4.00625E+00 0.00000E+00
 -1       395 4.45350E+01 4.00625E+00 0.00000E+00
 -1       396 4.75350E+01 4.00625E+00 0.00000E+00
 -1       397 5.05350E+01 4.00625E+00 0.00000E+00
 -1       398 5.35350E+01 4.00625E+00 0.00000E+00
 -1       399 5.65350E+01 4.00625E+00 0.00000E+00
 -1       400 5.95350E+01 4.00625E+00 0.00000E+00
 -1       401 6.25350E+01 4.00625E+00 0.00000E+00
 -1       402 6.55350E+01 4.00625E+00 0.00000E+00
 -1       403 6.85350E+01 4.00625E+00 0.00000E+00
 -1       404 7.15350E+01 4.00625E+00 0.00000E+00
 -1       405 7.45350E+01 4.00625E+00 0.00000E+00
 -1       406 7.75350E+01 4.00625E+00 0.00000E+00
 -1       407 8.05350E+01 4.00625E+00 0.00000E+00
 -1       408 8.35350E+01 4.00625E+00 0.00000E+00
 -1       409 8.65350E+01 4.00625E+00 0.00000E+00
 -1       410 8.95350E+01 4.00625E+00 0.00000E+00
 -1       411 9.25350E+01 4.00625E+00 0.00000E+00
 -1       412 9.55350E+01 4.00625E+00 0.00000E+00
 -1       413 9.85350E+01 4.00625E+00 0.00000E+00
 -1       414 1.01535E+02 4.00625E+00 0.00000E+00
 -1       415 1.04535E+02 4.00625E+00 0.00000E+00
 -1       416 1.07535E+02 4.00625E+00 0.00000E+00
 -1       417 1.10535E+02 4.00625E+00 0.00000E+00
 -1       418 1.13535E+02 4.00625E+00 0.00000E+00
 -1       419 1.16535E+02 4.00625E+00 0.00000E+00
 -1       420 1.19535E+02 4.00625E+00 0.00000E+00
 -1       421 1.22535E+02 4.00625E+00 0.00000E+00
 -1       422 1.25535E+02 4.00625E+00 0.00000E+00
 -1       423 1.28535E+02 4.00625E+00 0.00000E+00
 -1       424 1.31535E+02 4.00625E+00 0.00000E+00
 -1       425 1.34535E+02 4.00625E+00 0.00000E+00
 -1       426 1.37535E+02 4.00625E+00 0.00000E+00
 -1       427 1.40535E+02 4.00625E+00 0.00000E+00
 -1       428 1.43535E+02 4.00625E+00 0.00000E+00
 -1       429 1.45469E+02 4.21562E+00 0.00000E+00
 -1       430 1.44804E+02 1.18000E+01 0.00000E+00
 -1       431 1.44804E+02 8.85000E+00 0.00000E+00
 -1       432 1.45136E+02 6.53281E+00 0.00000E+00
 -1       433 1.44804E+02 1.47000E+01 0.00000E+00
 -1       434 1.44804E+02 1.76500E+01 0.00000E+00
 -1       435 1.44804E+02 2.06000E+01 0.00000E+00
 -1       436 1.44804E+02 2.35500E+01 0.00000E+00
 -1       437 1.44804E+02 2.65000E+01 0.00000E+00
 -1       438 1.44804E+02 2.94500E+01 0.00000E+00
 -1       439 1.44804E+02 3.23500E+01 0.00000E+00
 -1       440 1.44804E+02 3.53000E+01 0.00000E+00
 -1       441 1.44804E+02 3.82500E+01 0.00000E+00
 -1       442 1.44804E+02 4.12000E+01 0.00000E+00
 -1       443 1.19211E+02 2.44374E+01 0.00000E+00
 -1       444 1.20439E+02 2.85283E+01 0.00000E+00
 -1       445 1.20370E+02 2.66777E+01 0.00000E+00
 -1       446 1.18428E+02 2.27402E+01 0.00000E+00
 -1       447 1.02995E+02 3.47788E+01 0.00000E+00
 -1       448 1.08199E+02 3.78323E+01 0.00000E+00
 -1       449 1.16695E+02 2.10053E+01 0.00000E+00
 -1       450 5.19600E+00 3.82125E+01 0.00000E+00
 -1       451 1.13188E+02 1.92669E+01 0.00000E+00
 -1       452 1.11446E+02 1.89823E+01 0.00000E+00
 -1       453 1.09088E+02 1.92388E+01 0.00000E+00
 -1       454 1.07164E+02 1.94321E+01 0.00000E+00
 -1       455 1.05112E+02 2.03765E+01 0.00000E+00
 -1       456 1.03742E+02 2.18711E+01 0.00000E+00
 -1       457 1.02622E+02 2.35297E+01 0.00000E+00
 -1       458 1.01718E+02 2.52292E+01 0.00000E+00
 -1       459 1.00938E+02 2.72465E+01 0.00000E+00
 -1       460 1.00978E+02 2.90903E+01 0.00000E+00
 -1       461 1.01024E+02 3.13996E+01 0.00000E+00
 -1       462 1.01538E+02 3.31104E+01 0.00000E+00
 -1       463 1.06320E+02 3.72750E+01 0.00000E+00
 -1       464 1.10097E+02 3.81933E+01 0.00000E+00
 -1       465 1.12398E+02 3.82033E+01 0.00000E+00
 -1       466 1.13918E+02 3.76913E+01 0.00000E+00
 -1       467 1.15782E+02 3.66284E+01 0.00000E+00
 -1       468 1.17083E+02 3.55946E+01 0.00000E+00
 -1       469 1.18682E+02 3.40257E+01 0.00000E+00
 -1       470 1.19548E+02 3.26247E+01 0.00000E+00
 -1       471 1.19973E+02 3.04388E+01 0.00000E+00
 -1       472 1.15244E+02 2.01445E+01 0.00000E+00
 -1       473 1.20967E+02 2.52005E+01 0.00000E+00
 -1       474 1.10271E+02 1.79298E+01 0.00000E+00
 -1       475 1.00350E+01 6.60425E+00 0.00000E+00
 -1       476 7.79400E+00 3.08500E+01 0.00000E+00
 -1       477 7.79400E+00 3.38000E+01 0.00000E+00
 -1       478 7.79400E+00 2.49500E+01 0.00000E+00
 -1       479 7.79400E+00 2.20000E+01 0.00000E+00
 -1       480 7.79400E+00 1.91000E+01 0.00000E+00
 -1       481 7.79400E+00 1.61500E+01 0.00000E+00
 -1       482 7.79400E+00 1.32000E+01 0.00000E+00
 -1       483 7.79400E+00 1.02500E+01 0.00000E+00
 -1       484 1.06500E+01 4.22060E+01 0.00000E+00
 -1       485 1.04490E+02 3.82135E+01 0.00000E+00
 -1       486 1.30350E+01 6.60425E+00 0.00000E+00
 -1       487 7.92300E+00 4.16780E+01 0.00000E+00
 -1       488 1.36500E+01 4.22060E+01 0.00000E+00
 -1       489 1.66500E+01 4.22060E+01 0.00000E+00
 -1       490 1.96500E+01 4.22060E+01 0.00000E+00
 -1       491 2.26500E+01 4.22060E+01 0.00000E+00
 -1       492 2.56500E+01 4.22060E+01 0.00000E+00
 -1       493 2.86500E+01 4.22060E+01 0.00000E+00
 -1       494 3.16500E+01 4.22060E+01 0.00000E+00
 -1       495 3.46500E+01 4.22060E+01 0.00000E+00
 -1       496 3.76500E+01 4.22060E+01 0.00000E+00
 -1       497 4.06500E+01 4.22060E+01 0.00000E+00
 -1       498 4.36500E+01 4.22060E+01 0.00000E+00
 -1       499 4.66500E+01 4.22060E+01 0.00000E+00
 -1       500 4.96500E+01 4.22060E+01 0.00000E+00
 -1       501 5.26500E+01 4.22060E+01 0.00000E+00
 -1       502 5.56500E+01 4.22060E+01 0.00000E+00
 -1       503 5.86500E+01 4.22060E+01 0.00000E+00
 -1       504 6.16500E+01 4.22060E+01 0.00000E+00
 -1       505 6.46500E+01 4.22060E+01 0.00000E+00
 -1       506 6.76500E+01 4.22060E+01 0.00000E+00
 -1       507 7.06500E+01 4.22060E+01 0.00000E+00
 -1       508 7.36500E+01 4.22060E+01 0.00000E+00
 -1       509 7.66500E+01 4.22060E+01 0.00000E+00
 -1       510 7.96500E+01 4.22060E+01 0.00000E+00
 -1       511 8.26500E+01 4.22060E+01 0.00000E+00
 -1       512 8.56500E+01 4.22060E+01 0.00000E+00
 -1       513 8.86500E+01 4.22060E+01 0.00000E+00
 -1       514 9.16500E+01 4.22060E+01 0.00000E+00
 -1       515 9.46500E+01 4.22060E+01 0.00000E+00
 -1       516 9.76500E+01 4.22060E+01 0.00000E+00
 -1       517 1.00650E+02 4.22060E+01 0.00000E+00
 -1       518 1.03650E+02 4.22060E+01 0.00000E+00
 -1       519 1.06650E+02 4.22060E+01 0.00000E+00
 -1       520 1.09650E+02 4.22060E+01 0.00000E+00
 -1       521 1.12650E+02 4.22060E+01 0.00000E+00
 -1       522 1.15650E+02 4.22060E+01 0.00000E+00
 -1       523 1.18650E+02 4.22060E+01 0.00000E+00
 -1       524 1.21650E+02 4.22060E+01 0.00000E+00
 -1       525 1.24650E+02 4.22060E+01 0.00000E+00
 -1       526 1.27650E+02 4.22060E+01 0.00000E+00
 -1       527 1.30650E+02 4.22060E+01 0.00000E+00
 -1       528 1.33650E+02 4.22060E+01 0.00000E+00
 -1       529 1.36650E+02 4.22060E+01 0.00000E+00
 -1       530 1.39650E+02 4.22060E+01 0.00000E+00
 -1       531 1.90350E+01 6.60425E+00 0.00000E+00
 -1       532 2.20350E+01 6.60425E+00 0.00000E+00
 -1       533 2.50350E+01 6.60425E+00 0.00000E+00
 -1       534 2.80350E+01 6.60425E+00 0.00000E+00
 -1       535 3.10350E+01 6.60425E+00 0.00000E+00
 -1       536 3.40350E+01 6.60425E+00 0.00000E+00
 -1       537 3.70350E+01 6.60425E+00 0.00000E+00
 -1       538 4.00350E+01 6.60425E+00 0.00000E+00
 -1       539 4.30350E+01 6.60425E+00 0.00000E+00
 -1       540 4.60350E+01 6.60425E+00 0.00000E+00
 -1       541 4.90350E+01 6.60425E+00 0.00000E+00
 -1       542 5.20350E+01 6.60425E+00 0.00000E+00
 -1       543 5.50350E+01 6.60425E+00 0.00000E+00
 -1       544 5.80350E+01 6.60425E+00 0.00000E+00
 -1       545 6.10350E+01 6.60425E+00 0.00000E+00
 -1       546 6.40350E+01 6.60425E+00 0.00000E+00
 -1       547 6.70350E+01 6.60425E+00 0.00000E+00
 -1       548 7.00350E+01 6.60425E+00 0.00000E+00
 -1       549 7.30350E+01 6.60425E+00 0.00000E+00
 -1       550 7.60350E+01 6.60425E+00 0.00000E+00
 -1       551 7.90350E+01 6.60425E+00 0.00000E+00
 -1       552 8.20350E+01 6.60425E+00 0.00000E+00
 -1       553 8.50350E+01 6.60425E+00 0.00000E+00
 -1       554 8.80350E+01 6.60425E+00 0.00000E+00
 -1       555 9.10350E+01 6.60425E+00 0.00000E+00
 -1       556 9.40350E+01 6.60425E+00 0.00000E+00
 -1       557 9.70350E+01 6.60425E+00 0.00000E+00
 -1       558 1.00035E+02 6.60425E+00 0.00000E+00
 -1       559 1.03035E+02 6.60425E+00 0.00000E+00
 -1       560 1.06035E+02 6.60425E+00 0.00000E+00
 -1       561 1.09035E+02 6.60425E+00 0.00000E+00
 -1       562 1.12035E+02 6.60425E+00 0.00000E+00
 -1       563 1.15035E+02 6.60425E+00 0.00000E+00
 -1       564 1.18035E+02 6.60425E+00 0.00000E+00
 -1       565 1.21035E+02 6.60425E+00 0.00000E+00
 -1       566 1.24035E+02 6.60425E+00 0.00000E+00
 -1       567 1.27035E+02 6.60425E+00 0.00000E+00
 -1       568 1.30035E+02 6.60425E+00 0.00000E+00
 -1       569 1.33035E+02 6.60425E+00 0.00000E+00
 -1       570 1.36035E+02 6.60425E+00 0.00000E+00
 -1       571 1.39035E+02 6.60425E+00 0.00000E+00
 -1       572 1.42035E+02 6.60425E+00 0.00000E+00
 -1       573 1.42206E+02 1.61750E+01 0.00000E+00
 -1       574 1.42206E+02 1.91250E+01 0.00000E+00
 -1       575 1.42206E+02 1.03250E+01 0.00000E+00
 -1       576 1.42206E+02 1.32500E+01 0.00000E+00
 -1       577 1.42206E+02 2.20750E+01 0.00000E+00
 -1       578 1.42206E+02 2.50250E+01 0.00000E+00
 -1       579 1.42206E+02 2.79750E+01 0.00000E+00
 -1       580 1.42206E+02 3.08750E+01 0.00000E+00
 -1       581 1.42206E+02 3.38250E+01 0.00000E+00
 -1       582 1.42206E+02 3.67750E+01 0.00000E+00
 -1       583 1.42206E+02 3.97250E+01 0.00000E+00
 -1       584 1.20377E+02 2.28709E+01 0.00000E+00
 -1       585 1.21710E+02 2.98504E+01 0.00000E+00
 -1       586 1.60350E+01 6.60425E+00 0.00000E+00
 -1       587 1.22453E+02 2.75262E+01 0.00000E+00
 -1       588 1.11241E+02 3.97458E+01 0.00000E+00
 -1       589 1.14823E+02 1.82825E+01 0.00000E+00
 -1       590 1.01038E+02 3.50175E+01 0.00000E+00
 -1       591 1.02501E+02 3.66094E+01 0.00000E+00
 -1       592 7.79400E+00 2.79000E+01 0.00000E+00
 -1       593 1.12594E+02 1.74319E+01 0.00000E+00
 -1       594 1.08859E+02 3.95331E+01 0.00000E+00
 -1       595 1.05351E+02 1.81940E+01 0.00000E+00
 -1       596 1.03039E+02 1.98518E+01 0.00000E+00
 -1       597 1.01830E+02 2.17877E+01 0.00000E+00
 -1       598 1.00656E+02 2.35737E+01 0.00000E+00
 -1       599 9.98763E+01 2.55909E+01 0.00000E+00
 -1       600 1.06820E+02 3.90373E+01 0.00000E+00
 -1       601 9.97992E+01 3.27001E+01 0.00000E+00
 -1       602 9.95781E+01 2.81980E+01 0.00000E+00
 -1       603 1.07980E+02 1.78790E+01 0.00000E+00
 -1       604 1.21285E+02 3.20362E+01 0.00000E+00
 -1       605 9.94538E+01 3.02764E+01 0.00000E+00
 -1       606 1.13759E+02 3.97315E+01 0.00000E+00
 -1       607 1.15622E+02 3.86686E+01 0.00000E+00
 -1       608 1.17603E+02 3.75856E+01 0.00000E+00
 -1       609 1.19202E+02 3.60166E+01 0.00000E+00
 -1       610 1.20502E+02 3.41832E+01 0.00000E+00
 -1       611 1.19131E+02 2.03054E+01 0.00000E+00
 -1       612 1.16844E+02 1.90996E+01 0.00000E+00
 -1       613 7.61550E+00 6.21462E+00 0.00000E+00
 -1       614 7.79400E+00 3.67375E+01 0.00000E+00
 -1       615 1.41678E+02 4.22645E+01 0.00000E+00
 -1       616 1.23051E+02 2.60490E+01 0.00000E+00
 -1       617 9.85163E+01 2.65424E+01 0.00000E+00
 -1       618 1.03920E+01 2.05500E+01 0.00000E+00
 -1       619 1.03920E+01 2.35000E+01 0.00000E+00
 -1       620 1.03920E+01 1.46750E+01 0.00000E+00
 -1       621 1.03920E+01 1.17250E+01 0.00000E+00
 -1       622 1.45350E+01 9.20225E+00 0.00000E+00
 -1       623 1.21500E+01 3.96080E+01 0.00000E+00
 -1       624 1.22497E+02 2.35734E+01 0.00000E+00
 -1       625 2.65350E+01 9.20225E+00 0.00000E+00
 -1       626 1.51500E+01 3.96080E+01 0.00000E+00
 -1       627 1.81500E+01 3.96080E+01 0.00000E+00
 -1       628 2.11500E+01 3.96080E+01 0.00000E+00
 -1       629 2.41500E+01 3.96080E+01 0.00000E+00
 -1       630 2.71500E+01 3.96080E+01 0.00000E+00
 -1       631 3.01500E+01 3.96080E+01 0.00000E+00
 -1       632 3.31500E+01 3.96080E+01 0.00000E+00
 -1       633 3.61500E+01 3.96080E+01 0.00000E+00
 -1       634 3.91500E+01 3.96080E+01 0.00000E+00
 -1       635 4.21500E+01 3.96080E+01 0.00000E+00
 -1       636 4.51500E+01 3.96080E+01 0.00000E+00
 -1       637 4.81500E+01 3.96080E+01 0.00000E+00
 -1       638 5.11500E+01 3.96080E+01 0.00000E+00
 -1       639 5.41500E+01 3.96080E+01 0.00000E+00
 -1       640 5.71500E+01 3.96080E+01 0.00000E+00
 -1       641 6.01500E+01 3.96080E+01 0.00000E+00
 -1       642 6.31500E+01 3.96080E+01 0.00000E+00
 -1       643 6.61500E+01 3.96080E+01 0.00000E+00
 -1       644 6.91500E+01 3.96080E+01 0.00000E+00
 -1       645 7.21500E+01 3.96080E+01 0.00000E+00
 -1       646 7.51500E+01 3.96080E+01 0.00000E+00
 -1       647 7.81500E+01 3.96080E+01 0.00000E+00
 -1       648 8.11500E+01 3.96080E+01 0.00000E+00
 -1       649 8.41500E+01 3.96080E+01 0.00000E+00
 -1       650 8.71500E+01 3.96080E+01 0.00000E+00
 -1       651 9.01500E+01 3.96080E+01 0.00000E+00
 -1       652 9.31500E+01 3.96080E+01 0.00000E+00
 -1       653 9.61500E+01 3.96080E+01 0.00000E+00
 -1       654 9.91500E+01 3.96080E+01 0.00000E+00
 -1       655 1.17150E+02 3.98206E+01 0.00000E+00
 -1       656 1.20150E+02 3.98206E+01 0.00000E+00
 -1       657 1.23150E+02 3.98206E+01 0.00000E+00
 -1       658 1.26150E+02 3.98206E+01 0.00000E+00
 -1       659 1.29150E+02 3.98206E+01 0.00000E+00
 -1       660 1.32150E+02 3.98206E+01 0.00000E+00
 -1       661 1.35150E+02 3.98206E+01 0.00000E+00
 -1       662 1.38150E+02 3.98206E+01 0.00000E+00
 -1       663 2.35350E+01 9.20225E+00 0.00000E+00
 -1       664 1.23345E+02 3.13026E+01 0.00000E+00
 -1       665 2.05350E+01 9.20225E+00 0.00000E+00
 -1       666 2.95350E+01 9.20225E+00 0.00000E+00
 -1       667 3.25350E+01 9.20225E+00 0.00000E+00
 -1       668 3.55350E+01 9.20225E+00 0.00000E+00
 -1       669 3.85350E+01 9.20225E+00 0.00000E+00
 -1       670 4.15350E+01 9.20225E+00 0.00000E+00
 -1       671 4.45350E+01 9.20225E+00 0.00000E+00
 -1       672 4.75350E+01 9.20225E+00 0.00000E+00
 -1       673 5.05350E+01 9.20225E+00 0.00000E+00
 -1       674 5.35350E+01 9.20225E+00 0.00000E+00
 -1       675 5.65350E+01 9.20225E+00 0.00000E+00
 -1       676 5.95350E+01 9.20225E+00 0.00000E+00
 -1       677 6.25350E+01 9.20225E+00 0.00000E+00
 -1       678 6.55350E+01 9.20225E+00 0.00000E+00
 -1       679 6.85350E+01 9.20225E+00 0.00000E+00
 -1       680 7.15350E+01 9.20225E+00 0.00000E+00
 -1       681 7.45350E+01 9.20225E+00 0.00000E+00
 -1       682 7.75350E+01 9.20225E+00 0.00000E+00
 -1       683 8.05350E+01 9.20225E+00 0.00000E+00
 -1       684 8.35350E+01 9.20225E+00 0.00000E+00
 -1       685 8.65350E+01 9.20225E+00 0.00000E+00
 -1       686 8.95350E+01 9.20225E+00 0.00000E+00
 -1       687 9.25350E+01 9.20225E+00 0.00000E+00
 -1       688 9.55350E+01 9.20225E+00 0.00000E+00
 -1       689 9.85350E+01 9.20225E+00 0.00000E+00
 -1       690 1.01535E+02 9.20225E+00 0.00000E+00
 -1       691 1.04535E+02 9.20225E+00 0.00000E+00
 -1       692 1.07535E+02 9.20225E+00 0.00000E+00
 -1       693 1.10535E+02 9.20225E+00 0.00000E+00
 -1       694 1.13535E+02 9.20225E+00 0.00000E+00
 -1       695 1.16535E+02 9.20225E+00 0.00000E+00
 -1       696 1.19535E+02 9.20225E+00 0.00000E+00
 -1       697 1.22535E+02 9.20225E+00 0.00000E+00
 -1       698 1.25535E+02 9.20225E+00 0.00000E+00
 -1       699 1.28535E+02 9.20225E+00 0.00000E+00
 -1       700 1.31535E+02 9.20225E+00 0.00000E+00
 -1       701 1.34535E+02 9.20225E+00 0.00000E+00
 -1       702 1.37535E+02 9.20225E+00 0.00000E+00
 -1       703 1.39870E+02 9.76363E+00 0.00000E+00
 -1       704 1.39608E+02 2.35500E+01 0.00000E+00
 -1       705 1.39608E+02 1.76500E+01 0.00000E+00
 -1       706 1.39608E+02 2.65000E+01 0.00000E+00
 -1       707 1.39608E+02 2.06000E+01 0.00000E+00
 -1       708 1.75350E+01 9.20225E+00 0.00000E+00
 -1       709 1.39608E+02 2.94000E+01 0.00000E+00
 -1       710 1.39608E+02 3.23500E+01 0.00000E+00
 -1       711 1.39608E+02 3.53000E+01 0.00000E+00
 -1       712 9.78039E+01 2.91348E+01 0.00000E+00
 -1       713 1.11038E+02 1.58400E+01 0.00000E+00
 -1       714 1.06461E+02 1.63336E+01 0.00000E+00
 -1       715 9.98099E+01 2.17385E+01 0.00000E+00
 -1       716 1.21388E+02 3.61890E+01 0.00000E+00
 -1       717 9.89058E+01 3.46672E+01 0.00000E+00
 -1       718 1.16477E+02 1.71010E+01 0.00000E+00
 -1       719 1.03920E+01 1.76125E+01 0.00000E+00
 -1       720 1.03920E+01 3.23250E+01 0.00000E+00
 -1       721 1.24089E+02 2.89784E+01 0.00000E+00
 -1       722 1.14320E+02 1.62547E+01 0.00000E+00
 -1       723 1.21598E+02 2.06923E+01 0.00000E+00
 -1       724 1.00507E+02 3.69741E+01 0.00000E+00
 -1       725 1.03000E+02 1.73566E+01 0.00000E+00
 -1       726 1.01019E+02 1.98027E+01 0.00000E+00
 -1       727 9.85101E+01 2.39035E+01 0.00000E+00
 -1       728 9.80115E+01 3.17185E+01 0.00000E+00
 -1       729 1.40178E+02 3.97728E+01 0.00000E+00
 -1       730 1.22505E+02 3.36969E+01 0.00000E+00
 -1       731 1.08750E+02 1.60868E+01 0.00000E+00
 -1       732 1.19604E+02 3.80252E+01 0.00000E+00
 -1       733 1.18944E+02 1.78889E+01 0.00000E+00
 -1       734 1.02419E+02 3.87466E+01 0.00000E+00
 -1       735 1.17135E+01 9.16463E+00 0.00000E+00
 -1       736 1.03920E+01 3.52625E+01 0.00000E+00
 -1       737 1.03920E+01 2.64500E+01 0.00000E+00
 -1       738 1.39870E+02 1.26886E+01 0.00000E+00
 -1       739 1.04111E+02 1.54962E+01 0.00000E+00
 -1       740 1.39608E+02 3.82500E+01 0.00000E+00
 -1       741 1.12764E+02 1.46628E+01 0.00000E+00
 -1       742 1.05210E+01 3.87342E+01 0.00000E+00
 -1       743 9.71181E+01 3.36855E+01 0.00000E+00
 -1       744 1.21411E+02 1.82759E+01 0.00000E+00
 -1       745 1.39739E+02 1.51693E+01 0.00000E+00
 -1       746 1.24686E+02 2.75012E+01 0.00000E+00
 -1       747 1.03920E+01 2.93875E+01 0.00000E+00
 -1       748 1.29900E+01 1.32000E+01 0.00000E+00
 -1       749 1.37010E+02 3.38250E+01 0.00000E+00
 -1       750 9.75459E+01 2.18520E+01 0.00000E+00
 -1       751 1.16086E+02 1.49253E+01 0.00000E+00
 -1       752 1.66500E+01 3.70100E+01 0.00000E+00
 -1       753 1.96500E+01 3.70100E+01 0.00000E+00
 -1       754 2.26500E+01 3.70100E+01 0.00000E+00
 -1       755 2.56500E+01 3.70100E+01 0.00000E+00
 -1       756 2.86500E+01 3.70100E+01 0.00000E+00
 -1       757 3.16500E+01 3.70100E+01 0.00000E+00
 -1       758 3.46500E+01 3.70100E+01 0.00000E+00
 -1       759 3.76500E+01 3.70100E+01 0.00000E+00
 -1       760 4.06500E+01 3.70100E+01 0.00000E+00
 -1       761 4.36500E+01 3.70100E+01 0.00000E+00
 -1       762 4.66500E+01 3.70100E+01 0.00000E+00
 -1       763 4.96500E+01 3.70100E+01 0.00000E+00
 -1       764 5.26500E+01 3.70100E+01 0.00000E+00
 -1       765 5.56500E+01 3.70100E+01 0.00000E+00
 -1       766 5.86500E+01 3.70100E+01 0.00000E+00
 -1       767 6.16500E+01 3.70100E+01 0.00000E+00
 -1       768 6.46500E+01 3.70100E+01 0.00000E+00
 -1       769 6.76500E+01 3.70100E+01 0.00000E+00
 -1       770 7.06500E+01 3.70100E+01 0.00000E+00
 -1       771 7.36500E+01 3.70100E+01 0.00000E+00
 -1       772 7.66500E+01 3.70100E+01 0.00000E+00
 -1       773 7.96500E+01 3.70100E+01 0.00000E+00
 -1       774 8.26500E+01 3.70100E+01 0.00000E+00
 -1       775 8.56500E+01 3.70100E+01 0.00000E+00
 -1       776 8.86500E+01 3.70100E+01 0.00000E+00
 -1       777 9.16500E+01 3.70100E+01 0.00000E+00
 -1       778 9.46500E+01 3.70100E+01 0.00000E+00
 -1       779 9.75783E+01 3.69921E+01 0.00000E+00
 -1       780 1.08150E+02 4.03233E+01 0.00000E+00
 -1       781 2.80350E+01 1.18003E+01 0.00000E+00
 -1       782 1.24650E+02 3.72676E+01 0.00000E+00
 -1       783 1.27650E+02 3.72676E+01 0.00000E+00
 -1       784 1.30650E+02 3.72676E+01 0.00000E+00
 -1       785 1.33650E+02 3.72676E+01 0.00000E+00
 -1       786 2.50350E+01 1.18003E+01 0.00000E+00
 -1       787 2.20350E+01 1.18003E+01 0.00000E+00
 -1       788 1.37010E+02 2.79500E+01 0.00000E+00
 -1       789 3.40350E+01 1.18003E+01 0.00000E+00
 -1       790 3.70350E+01 1.18003E+01 0.00000E+00
 -1       791 4.00350E+01 1.18003E+01 0.00000E+00
 -1       792 4.30350E+01 1.18003E+01 0.00000E+00
 -1       793 4.60350E+01 1.18003E+01 0.00000E+00
 -1       794 4.90350E+01 1.18003E+01 0.00000E+00
 -1       795 5.20350E+01 1.18003E+01 0.00000E+00
 -1       796 5.50350E+01 1.18003E+01 0.00000E+00
 -1       797 5.80350E+01 1.18003E+01 0.00000E+00
 -1       798 6.10350E+01 1.18003E+01 0.00000E+00
 -1       799 6.40350E+01 1.18003E+01 0.00000E+00
 -1       800 6.70350E+01 1.18003E+01 0.00000E+00
 -1       801 7.00350E+01 1.18003E+01 0.00000E+00
 -1       802 7.30350E+01 1.18003E+01 0.00000E+00
 -1       803 7.60350E+01 1.18003E+01 0.00000E+00
 -1       804 7.90350E+01 1.18003E+01 0.00000E+00
 -1       805 8.20350E+01 1.18003E+01 0.00000E+00
 -1       806 8.50350E+01 1.18003E+01 0.00000E+00
 -1       807 8.80350E+01 1.18003E+01 0.00000E+00
 -1       808 9.10350E+01 1.18003E+01 0.00000E+00
 -1       809 9.40350E+01 1.18003E+01 0.00000E+00
 -1       810 9.70350E+01 1.18003E+01 0.00000E+00
 -1       811 1.00035E+02 1.18003E+01 0.00000E+00
 -1       812 1.03035E+02 1.18003E+01 0.00000E+00
 -1       813 1.06035E+02 1.18003E+01 0.00000E+00
 -1       814 1.09035E+02 1.18003E+01 0.00000E+00
 -1       815 1.12035E+02 1.18003E+01 0.00000E+00
 -1       816 1.15035E+02 1.18003E+01 0.00000E+00
 -1       817 1.18035E+02 1.18003E+01 0.00000E+00
 -1       818 1.21035E+02 1.18003E+01 0.00000E+00
 -1       819 1.24035E+02 1.18003E+01 0.00000E+00
 -1       820 1.27035E+02 1.18003E+01 0.00000E+00
 -1       821 1.30035E+02 1.18003E+01 0.00000E+00
 -1       822 1.33035E+02 1.18003E+01 0.00000E+00
 -1       823 1.36035E+02 1.18003E+01 0.00000E+00
 -1       824 1.37953E+02 1.22444E+01 0.00000E+00
 -1       825 9.67981E+01 2.52270E+01 0.00000E+00
 -1       826 1.37010E+02 2.50000E+01 0.00000E+00
 -1       827 9.87547E+01 1.99161E+01 0.00000E+00
 -1       828 9.58640E+01 3.05908E+01 0.00000E+00
 -1       829 1.37010E+02 3.08875E+01 0.00000E+00
 -1       830 1.23970E+02 3.58500E+01 0.00000E+00
 -1       831 9.60856E+01 2.78194E+01 0.00000E+00
 -1       832 1.25670E+02 3.07654E+01 0.00000E+00
 -1       833 1.00286E+02 1.71835E+01 0.00000E+00
 -1       834 1.36500E+01 3.70100E+01 0.00000E+00
 -1       835 3.10350E+01 1.18003E+01 0.00000E+00
 -1       836 1.37010E+02 3.67750E+01 0.00000E+00
 -1       837 1.20210E+01 3.61362E+01 0.00000E+00
 -1       838 1.18553E+02 1.57131E+01 0.00000E+00
 -1       839 1.24165E+02 2.14723E+01 0.00000E+00
 -1       840 1.24611E+02 2.44004E+01 0.00000E+00
 -1       841 1.24829E+02 3.31597E+01 0.00000E+00
 -1       842 1.22060E+02 3.78353E+01 0.00000E+00
 -1       843 1.29900E+01 2.20250E+01 0.00000E+00
 -1       844 1.37625E+01 1.12011E+01 0.00000E+00
 -1       845 1.29900E+01 2.49750E+01 0.00000E+00
 -1       846 1.29900E+01 1.90875E+01 0.00000E+00
 -1       847 9.58339E+01 2.31755E+01 0.00000E+00
 -1       848 1.90350E+01 1.18003E+01 0.00000E+00
 -1       849 1.37010E+02 1.91250E+01 0.00000E+00
 -1       850 1.01397E+02 1.53231E+01 0.00000E+00
 -1       851 1.26267E+02 2.92882E+01 0.00000E+00
 -1       852 1.37010E+02 2.20625E+01 0.00000E+00
 -1       853 1.06086E+02 1.36678E+01 0.00000E+00
 -1       854 1.10557E+02 1.32807E+01 0.00000E+00
 -1       855 1.29900E+01 1.61375E+01 0.00000E+00
 -1       856 1.21020E+02 1.61001E+01 0.00000E+00
 -1       857 9.49706E+01 3.25579E+01 0.00000E+00
 -1       858 1.37141E+02 1.66443E+01 0.00000E+00
 -1       859 1.29900E+01 3.08563E+01 0.00000E+00
 -1       860 1.23978E+02 1.90558E+01 0.00000E+00
 -1       861 1.25055E+01 3.34963E+01 0.00000E+00
 -1       862 1.63988E+01 1.15007E+01 0.00000E+00
 -1       863 2.11500E+01 3.44120E+01 0.00000E+00
 -1       864 2.41500E+01 3.44120E+01 0.00000E+00
 -1       865 2.71500E+01 3.44120E+01 0.00000E+00
 -1       866 3.01500E+01 3.44120E+01 0.00000E+00
 -1       867 3.31500E+01 3.44120E+01 0.00000E+00
 -1       868 3.61500E+01 3.44120E+01 0.00000E+00
 -1       869 3.91500E+01 3.44120E+01 0.00000E+00
 -1       870 4.21500E+01 3.44120E+01 0.00000E+00
 -1       871 4.51500E+01 3.44120E+01 0.00000E+00
 -1       872 4.81500E+01 3.44120E+01 0.00000E+00
 -1       873 5.11500E+01 3.44120E+01 0.00000E+00
 -1       874 5.41500E+01 3.44120E+01 0.00000E+00
 -1       875 5.71500E+01 3.44120E+01 0.00000E+00
 -1       876 6.01500E+01 3.44120E+01 0.00000E+00
 -1       877 6.31500E+01 3.44120E+01 0.00000E+00
 -1       878 6.61500E+01 3.44120E+01 0.00000E+00
 -1       879 6.91500E+01 3.44120E+01 0.00000E+00
 -1       880 7.21500E+01 3.44120E+01 0.00000E+00
 -1       881 7.51500E+01 3.44120E+01 0.00000E+00
 -1       882 7.81500E+01 3.44120E+01 0.00000E+00
 -1       883 8.11500E+01 3.44120E+01 0.00000E+00
 -1       884 8.41500E+01 3.44120E+01 0.00000E+00
 -1       885 8.71500E+01 3.44120E+01 0.00000E+00
 -1       886 9.01500E+01 3.44120E+01 0.00000E+00
 -1       887 1.33650E+02 3.43176E+01 0.00000E+00
 -1       888 1.29150E+02 3.46696E+01 0.00000E+00
 -1       889 1.31400E+02 3.44936E+01 0.00000E+00
 -1       890 2.65350E+01 1.43982E+01 0.00000E+00
 -1       891 2.35350E+01 1.43982E+01 0.00000E+00
 -1       892 3.55350E+01 1.43982E+01 0.00000E+00
 -1       893 4.45350E+01 1.43982E+01 0.00000E+00
 -1       894 4.75350E+01 1.43982E+01 0.00000E+00
 -1       895 5.05350E+01 1.43982E+01 0.00000E+00
 -1       896 5.35350E+01 1.43982E+01 0.00000E+00
 -1       897 5.65350E+01 1.43982E+01 0.00000E+00
 -1       898 5.95350E+01 1.43982E+01 0.00000E+00
 -1       899 6.25350E+01 1.43982E+01 0.00000E+00
 -1       900 6.55350E+01 1.43982E+01 0.00000E+00
 -1       901 6.85350E+01 1.43982E+01 0.00000E+00
 -1       902 7.15350E+01 1.43982E+01 0.00000E+00
 -1       903 7.45350E+01 1.43982E+01 0.00000E+00
 -1       904 7.75350E+01 1.43982E+01 0.00000E+00
 -1       905 8.05350E+01 1.43982E+01 0.00000E+00
 -1       906 8.35350E+01 1.43982E+01 0.00000E+00
 -1       907 8.65350E+01 1.43982E+01 0.00000E+00
 -1       908 8.95350E+01 1.43982E+01 0.00000E+00
 -1       909 9.25350E+01 1.43982E+01 0.00000E+00
 -1       910 9.55350E+01 1.43982E+01 0.00000E+00
 -1       911 9.85350E+01 1.43982E+01 0.00000E+00
 -1       912 1.28535E+02 1.43982E+01 0.00000E+00
 -1       913 1.31535E+02 1.43982E+01 0.00000E+00
 -1       914 1.34535E+02 1.43982E+01 0.00000E+00
 -1       915 3.25350E+01 1.43982E+01 0.00000E+00
 -1       916 1.34412E+02 2.64750E+01 0.00000E+00
 -1       917 1.26698E+02 2.59013E+01 0.00000E+00
 -1       918 2.95350E+01 1.43982E+01 0.00000E+00
 -1       919 9.61270E+01 1.96206E+01 0.00000E+00
 -1       920 1.26581E+02 2.26022E+01 0.00000E+00
 -1       921 4.15350E+01 1.43982E+01 0.00000E+00
 -1       922 3.85350E+01 1.43982E+01 0.00000E+00
 -1       923 9.46265E+01 2.60243E+01 0.00000E+00
 -1       924 1.29900E+01 2.79188E+01 0.00000E+00
 -1       925 1.37547E+02 1.44444E+01 0.00000E+00
 -1       926 1.81500E+01 3.44120E+01 0.00000E+00
 -1       927 9.39311E+01 2.90417E+01 0.00000E+00
 -1       928 1.41345E+01 3.43700E+01 0.00000E+00
 -1       929 1.27342E+02 3.26969E+01 0.00000E+00
 -1       930 1.26240E+02 3.52137E+01 0.00000E+00
 -1       931 1.56263E+01 1.34996E+01 0.00000E+00
 -1       932 1.55880E+01 2.05562E+01 0.00000E+00
 -1       933 2.05350E+01 1.43982E+01 0.00000E+00
 -1       934 9.31500E+01 3.44120E+01 0.00000E+00
 -1       935 1.34412E+02 2.35375E+01 0.00000E+00
 -1       936 9.44150E+01 2.09441E+01 0.00000E+00
 -1       937 1.03478E+02 1.28313E+01 0.00000E+00
 -1       938 1.26393E+02 2.01857E+01 0.00000E+00
 -1       939 1.25535E+02 1.43982E+01 0.00000E+00
 -1       940 1.34412E+02 2.94125E+01 0.00000E+00
 -1       941 1.34031E+02 3.18651E+01 0.00000E+00
 -1       942 1.55880E+01 2.35063E+01 0.00000E+00
 -1       943 1.34481E+02 1.77474E+01 0.00000E+00
 -1       944 1.55880E+01 2.93875E+01 0.00000E+00
 -1       945 1.34447E+02 2.06424E+01 0.00000E+00
 -1       946 9.72542E+01 1.72795E+01 0.00000E+00
 -1       947 1.27940E+02 3.12197E+01 0.00000E+00
 -1       948 9.30377E+01 3.10088E+01 0.00000E+00
 -1       949 1.48612E+01 3.18787E+01 0.00000E+00
 -1       950 1.55880E+01 1.76063E+01 0.00000E+00
 -1       951 2.56500E+01 3.18140E+01 0.00000E+00
 -1       952 2.86500E+01 3.18140E+01 0.00000E+00
 -1       953 3.16500E+01 3.18140E+01 0.00000E+00
 -1       954 3.46500E+01 3.18140E+01 0.00000E+00
 -1       955 3.76500E+01 3.18140E+01 0.00000E+00
 -1       956 4.06500E+01 3.18140E+01 0.00000E+00
 -1       957 4.36500E+01 3.18140E+01 0.00000E+00
 -1       958 4.66500E+01 3.18140E+01 0.00000E+00
 -1       959 4.96500E+01 3.18140E+01 0.00000E+00
 -1       960 5.26500E+01 3.18140E+01 0.00000E+00
 -1       961 5.56500E+01 3.18140E+01 0.00000E+00
 -1       962 5.86500E+01 3.18140E+01 0.00000E+00
 -1       963 6.16500E+01 3.18140E+01 0.00000E+00
 -1       964 6.46500E+01 3.18140E+01 0.00000E+00
 -1       965 6.76500E+01 3.18140E+01 0.00000E+00
 -1       966 7.06500E+01 3.18140E+01 0.00000E+00
 -1       967 7.36500E+01 3.18140E+01 0.00000E+00
 -1       968 7.66500E+01 3.18140E+01 0.00000E+00
 -1       969 7.96500E+01 3.18140E+01 0.00000E+00
 -1       970 8.26500E+01 3.18140E+01 0.00000E+00
 -1       971 8.56500E+01 3.18140E+01 0.00000E+00
 -1       972 8.86500E+01 3.18140E+01 0.00000E+00
 -1       973 2.80350E+01 1.69963E+01 0.00000E+00
 -1       974 2.50350E+01 1.69963E+01 0.00000E+00
 -1       975 3.70350E+01 1.69963E+01 0.00000E+00
 -1       976 4.60350E+01 1.69963E+01 0.00000E+00
 -1       977 5.50350E+01 1.69963E+01 0.00000E+00
 -1       978 5.80350E+01 1.69963E+01 0.00000E+00
 -1       979 6.10350E+01 1.69963E+01 0.00000E+00
 -1       980 6.40350E+01 1.69963E+01 0.00000E+00
 -1       981 6.70350E+01 1.69963E+01 0.00000E+00
 -1       982 7.00350E+01 1.69963E+01 0.00000E+00
 -1       983 7.30350E+01 1.69963E+01 0.00000E+00
 -1       984 7.60350E+01 1.69963E+01 0.00000E+00
 -1       985 7.90350E+01 1.69963E+01 0.00000E+00
 -1       986 8.20350E+01 1.69963E+01 0.00000E+00
 -1       987 8.50350E+01 1.69963E+01 0.00000E+00
 -1       988 8.80350E+01 1.69963E+01 0.00000E+00
 -1       989 9.10350E+01 1.69963E+01 0.00000E+00
 -1       990 9.40350E+01 1.69963E+01 0.00000E+00
 -1       991 1.27035E+02 1.69963E+01 0.00000E+00
 -1       992 1.30035E+02 1.69963E+01 0.00000E+00
 -1       993 3.40350E+01 1.69963E+01 0.00000E+00
 -1       994 9.31882E+01 2.37344E+01 0.00000E+00
 -1       995 3.10350E+01 1.69963E+01 0.00000E+00
 -1       996 4.30350E+01 1.69963E+01 0.00000E+00
 -1       997 5.20350E+01 1.69963E+01 0.00000E+00
 -1       998 1.55880E+01 2.64469E+01 0.00000E+00
 -1       999 9.22809E+01 2.70725E+01 0.00000E+00
 -1      1000 4.00350E+01 1.69963E+01 0.00000E+00
 -1      1001 1.23388E+02 1.63835E+01 0.00000E+00
 -1      1002 1.28856E+02 2.41726E+01 0.00000E+00
 -1      1003 1.80806E+01 1.39489E+01 0.00000E+00
 -1      1004 1.96500E+01 3.18140E+01 0.00000E+00
 -1      1005 1.28849E+02 2.78961E+01 0.00000E+00
 -1      1006 4.90350E+01 1.69963E+01 0.00000E+00
 -1      1007 1.29670E+02 3.28567E+01 0.00000E+00
 -1      1008 2.26500E+01 3.18140E+01 0.00000E+00
 -1      1009 2.20350E+01 1.69963E+01 0.00000E+00
 -1      1010 1.31814E+02 2.50063E+01 0.00000E+00
 -1      1011 1.31850E+02 3.23609E+01 0.00000E+00
 -1      1012 1.81860E+01 2.79172E+01 0.00000E+00
 -1      1013 1.81860E+01 1.90812E+01 0.00000E+00
 -1      1014 9.27250E+01 1.89702E+01 0.00000E+00
 -1      1015 1.81860E+01 2.20313E+01 0.00000E+00
 -1      1016 9.13875E+01 2.90396E+01 0.00000E+00
 -1      1017 1.31814E+02 2.79438E+01 0.00000E+00
 -1      1018 1.29194E+02 2.12492E+01 0.00000E+00
 -1      1019 2.71500E+01 2.92160E+01 0.00000E+00
 -1      1020 5.95350E+01 1.95942E+01 0.00000E+00
 -1      1021 2.11860E+01 2.79172E+01 0.00000E+00
 -1      1022 3.01500E+01 2.92160E+01 0.00000E+00
 -1      1023 3.31500E+01 2.92160E+01 0.00000E+00
 -1      1024 3.61500E+01 2.92160E+01 0.00000E+00
 -1      1025 3.91500E+01 2.92160E+01 0.00000E+00
 -1      1026 4.21500E+01 2.92160E+01 0.00000E+00
 -1      1027 4.51500E+01 2.92160E+01 0.00000E+00
 -1      1028 4.81500E+01 2.92160E+01 0.00000E+00
 -1      1029 5.11500E+01 2.92160E+01 0.00000E+00
 -1      1030 5.41500E+01 2.92160E+01 0.00000E+00
 -1      1031 5.71500E+01 2.92160E+01 0.00000E+00
 -1      1032 6.01500E+01 2.92160E+01 0.00000E+00
 -1      1033 6.31500E+01 2.92160E+01 0.00000E+00
 -1      1034 6.61500E+01 2.92160E+01 0.00000E+00
 -1      1035 6.91500E+01 2.92160E+01 0.00000E+00
 -1      1036 7.21500E+01 2.92160E+01 0.00000E+00
 -1      1037 7.51500E+01 2.92160E+01 0.00000E+00
 -1      1038 7.81500E+01 2.92160E+01 0.00000E+00
 -1      1039 8.11500E+01 2.92160E+01 0.00000E+00
 -1      1040 8.41500E+01 2.92160E+01 0.00000E+00
 -1      1041 8.71500E+01 2.92160E+01 0.00000E+00
 -1      1042 1.31606E+02 2.30093E+01 0.00000E+00
 -1      1043 2.41680E+01 2.85666E+01 0.00000E+00
 -1      1044 1.81860E+01 2.49766E+01 0.00000E+00
 -1      1045 5.65350E+01 1.95942E+01 0.00000E+00
 -1      1046 6.55350E+01 1.95942E+01 0.00000E+00
 -1      1047 6.85350E+01 1.95942E+01 0.00000E+00
 -1      1048 7.15350E+01 1.95942E+01 0.00000E+00
 -1      1049 7.45350E+01 1.95942E+01 0.00000E+00
 -1      1050 7.75350E+01 1.95942E+01 0.00000E+00
 -1      1051 8.05350E+01 1.95942E+01 0.00000E+00
 -1      1052 8.35350E+01 1.95942E+01 0.00000E+00
 -1      1053 8.65350E+01 1.95942E+01 0.00000E+00
 -1      1054 8.95350E+01 1.95942E+01 0.00000E+00
 -1      1055 2.95350E+01 1.95942E+01 0.00000E+00
 -1      1056 3.55350E+01 1.95942E+01 0.00000E+00
 -1      1057 2.65350E+01 1.95942E+01 0.00000E+00
 -1      1058 3.25350E+01 1.95942E+01 0.00000E+00
 -1      1059 1.31832E+02 3.01523E+01 0.00000E+00
 -1      1060 4.45350E+01 1.95942E+01 0.00000E+00
 -1      1061 5.35350E+01 1.95942E+01 0.00000E+00
 -1      1062 3.85350E+01 1.95942E+01 0.00000E+00
 -1      1063 4.15350E+01 1.95942E+01 0.00000E+00
 -1      1064 9.02710E+01 2.47339E+01 0.00000E+00
 -1      1065 1.31866E+02 1.91638E+01 0.00000E+00
 -1      1066 9.14982E+01 2.17605E+01 0.00000E+00
 -1      1067 6.25350E+01 1.95942E+01 0.00000E+00
 -1      1068 1.30695E+02 3.01874E+01 0.00000E+00
 -1      1069 4.75350E+01 1.95942E+01 0.00000E+00
 -1      1070 2.07308E+01 1.64617E+01 0.00000E+00
 -1      1071 2.35350E+01 1.95942E+01 0.00000E+00
 -1      1072 2.07840E+01 2.05562E+01 0.00000E+00
 -1      1073 5.05350E+01 1.95942E+01 0.00000E+00
 -1      1074 8.93775E+01 2.67010E+01 0.00000E+00
 -1      1075 2.86500E+01 2.66180E+01 0.00000E+00
 -1      1076 3.16500E+01 2.66180E+01 0.00000E+00
 -1      1077 3.46500E+01 2.66180E+01 0.00000E+00
 -1      1078 3.76500E+01 2.66180E+01 0.00000E+00
 -1      1079 4.06500E+01 2.66180E+01 0.00000E+00
 -1      1080 4.36500E+01 2.66180E+01 0.00000E+00
 -1      1081 4.66500E+01 2.66180E+01 0.00000E+00
 -1      1082 4.96500E+01 2.66180E+01 0.00000E+00
 -1      1083 5.26500E+01 2.66180E+01 0.00000E+00
 -1      1084 5.56500E+01 2.66180E+01 0.00000E+00
 -1      1085 5.86500E+01 2.66180E+01 0.00000E+00
 -1      1086 6.16500E+01 2.66180E+01 0.00000E+00
 -1      1087 6.46500E+01 2.66180E+01 0.00000E+00
 -1      1088 6.76500E+01 2.66180E+01 0.00000E+00
 -1      1089 7.06500E+01 2.66180E+01 0.00000E+00
 -1      1090 7.36500E+01 2.66180E+01 0.00000E+00
 -1      1091 7.66500E+01 2.66180E+01 0.00000E+00
 -1      1092 7.96500E+01 2.66180E+01 0.00000E+00
 -1      1093 8.26500E+01 2.66180E+01 0.00000E+00
 -1      1094 8.56500E+01 2.66180E+01 0.00000E+00
 -1      1095 6.40350E+01 2.21922E+01 0.00000E+00
 -1      1096 7.30350E+01 2.21922E+01 0.00000E+00
 -1      1097 5.80350E+01 2.21922E+01 0.00000E+00
 -1      1098 7.00350E+01 2.21922E+01 0.00000E+00
 -1      1099 6.70350E+01 2.21922E+01 0.00000E+00
 -1      1100 7.60350E+01 2.21922E+01 0.00000E+00
 -1      1101 7.90350E+01 2.21922E+01 0.00000E+00
 -1      1102 8.20350E+01 2.21922E+01 0.00000E+00
 -1      1103 8.50350E+01 2.21922E+01 0.00000E+00
 -1      1104 8.80350E+01 2.21922E+01 0.00000E+00
 -1      1105 3.10350E+01 2.21922E+01 0.00000E+00
 -1      1106 5.50350E+01 2.21922E+01 0.00000E+00
 -1      1107 2.80350E+01 2.21922E+01 0.00000E+00
 -1      1108 2.07840E+01 2.35016E+01 0.00000E+00
 -1      1109 6.10350E+01 2.21922E+01 0.00000E+00
 -1      1110 4.30350E+01 2.21922E+01 0.00000E+00
 -1      1111 3.70350E+01 2.21922E+01 0.00000E+00
 -1      1112 4.00350E+01 2.21922E+01 0.00000E+00
 -1      1113 3.40350E+01 2.21922E+01 0.00000E+00
 -1      1114 2.56680E+01 2.59686E+01 0.00000E+00
 -1      1115 2.50350E+01 2.21922E+01 0.00000E+00
 -1      1116 8.72063E+01 2.44466E+01 0.00000E+00
 -1      1117 4.60350E+01 2.21922E+01 0.00000E+00
 -1      1118 5.20350E+01 2.21922E+01 0.00000E+00
 -1      1119 2.32260E+01 2.47351E+01 0.00000E+00
 -1      1120 5.11500E+01 2.40200E+01 0.00000E+00
 -1      1121 2.33820E+01 2.20289E+01 0.00000E+00
 -1      1122 4.90350E+01 2.21922E+01 0.00000E+00
 -1      1123 0.00000E+00 4.85250E+01 0.00000E+00
 -1      1124 0.00000E+00 4.55750E+01 0.00000E+00
 -1      1125 0.00000E+00 4.26250E+01 0.00000E+00
 -1      1126 0.00000E+00 3.96750E+01 0.00000E+00
 -1      1127 0.00000E+00 3.67250E+01 0.00000E+00
 -1      1128 0.00000E+00 3.38000E+01 0.00000E+00
 -1      1129 0.00000E+00 3.08750E+01 0.00000E+00
 -1      1130 0.00000E+00 2.79250E+01 0.00000E+00
 -1      1131 0.00000E+00 2.49750E+01 0.00000E+00
 -1      1132 0.00000E+00 2.20250E+01 0.00000E+00
 -1      1133 0.00000E+00 1.90750E+01 0.00000E+00
 -1      1134 0.00000E+00 1.61500E+01 0.00000E+00
 -1      1135 0.00000E+00 1.32250E+01 0.00000E+00
 -1      1136 0.00000E+00 1.02750E+01 0.00000E+00
 -1      1137 0.00000E+00 7.32500E+00 0.00000E+00
 -1      1138 0.00000E+00 4.37500E+00 0.00000E+00
 -1      1139 0.00000E+00 1.45000E+00 0.00000E+00
 -1      1140 1.57500E+00 5.00000E+01 0.00000E+00
 -1      1141 4.65000E+00 5.00000E+01 0.00000E+00
 -1      1142 7.65000E+00 5.00000E+01 0.00000E+00
 -1      1143 1.06500E+01 5.00000E+01 0.00000E+00
 -1      1144 1.36500E+01 5.00000E+01 0.00000E+00
 -1      1145 1.66500E+01 5.00000E+01 0.00000E+00
 -1      1146 1.96500E+01 5.00000E+01 0.00000E+00
 -1      1147 2.26500E+01 5.00000E+01 0.00000E+00
 -1      1148 2.56500E+01 5.00000E+01 0.00000E+00
 -1      1149 2.86500E+01 5.00000E+01 0.00000E+00
 -1      1150 3.16500E+01 5.00000E+01 0.00000E+00
 -1      1151 3.46500E+01 5.00000E+01 0.00000E+00
 -1      1152 3.76500E+01 5.00000E+01 0.00000E+00
 -1      1153 4.06500E+01 5.00000E+01 0.00000E+00
 -1      1154 4.36500E+01 5.00000E+01 0.00000E+00
 -1      1155 4.66500E+01 5.00000E+01 0.00000E+00
 -1      1156 4.96500E+01 5.00000E+01 0.00000E+00
 -1      1157 5.26500E+01 5.00000E+01 0.00000E+00
 -1      1158 5.56500E+01 5.00000E+01 0.00000E+00
 -1      1159 5.86500E+01 5.00000E+01 0.00000E+00
 -1      1160 6.16500E+01 5.00000E+01 0.00000E+00
 -1      1161 6.46500E+01 5.00000E+01 0.00000E+00
 -1      1162 6.76500E+01 5.00000E+01 0.00000E+00
 -1      1163 7.06500E+01 5.00000E+01 0.00000E+00
 -1      1164 7.36500E+01 5.00000E+01 0.00000E+00
 -1      1165 7.66500E+01 5.00000E+01 0.00000E+00
 -1      1166 7.96500E+01 5.00000E+01 0.00000E+00
 -1      1167 8.26500E+01 5.00000E+01 0.00000E+00
 -1      1168 8.56500E+01 5.00000E+01 0.00000E+00
 -1      1169 8.86500E+01 5.00000E+01 0.00000E+00
 -1      1170 9.16500E+01 5.00000E+01 0.00000E+00
 -1      1171 9.46500E+01 5.00000E+01 0.00000E+00
 -1      1172 9.76500E+01 5.00000E+01 0.00000E+00
 -1      1173 1.00650E+02 5.00000E+01 0.00000E+00
 -1      1174 1.03650E+02 5.00000E+01 0.00000E+00
 -1      1175 1.06650E+02 5.00000E+01 0.00000E+00
 -1      1176 1.09650E+02 5.00000E+01 0.00000E+00
 -1      1177 1.12650E+02 5.00000E+01 0.00000E+00
 -1      1178 1.15650E+02 5.00000E+01 0.00000E+00
 -1      1179 1.18650E+02 5.00000E+01 0.00000E+00
 -1      1180 1.21650E+02 5.00000E+01 0.00000E+00
 -1      1181 1.24650E+02 5.00000E+01 0.00000E+00
 -1      1182 1.27650E+02 5.00000E+01 0.00000E+00
 -1      1183 1.30650E+02 5.00000E+01 0.00000E+00
 -1      1184 1.33650E+02 5.00000E+01 0.00000E+00
 -1      1185 1.36650E+02 5.00000E+01 0.00000E+00
 -1      1186 1.39650E+02 5.00000E+01 0.00000E+00
 -1      1187 1.42650E+02 5.00000E+01 0.00000E+00
 -1      1188 1.45650E+02 5.00000E+01 0.00000E+00
 -1      1189 1.48575E+02 5.00000E+01 0.00000E+00
 -1      1190 1.57500E+00 0.00000E+00 0.00000E+00
 -1      1191 4.65000E+00 0.00000E+00 0.00000E+00
 -1      1192 7.65000E+00 0.00000E+00 0.00000E+00
 -1      1193 1.06500E+01 0.00000E+00 0.00000E+00
 -1      1194 1.36500E+01 0.00000E+00 0.00000E+00
 -1      1195 1.66500E+01 0.00000E+00 0.00000E+00
 -1      1196 1.96500E+01 0.00000E+00 0.00000E+00
 -1      1197 2.26500E+01 0.00000E+00 0.00000E+00
 -1      1198 2.56500E+01 0.00000E+00 0.00000E+00
 -1      1199 2.86500E+01 0.00000E+00 0.00000E+00
 -1      1200 3.16500E+01 0.00000E+00 0.00000E+00
 -1      1201 3.46500E+01 0.00000E+00 0.00000E+00
 -1      1202 3.76500E+01 0.00000E+00 0.00000E+00
 -1      1203 4.06500E+01 0.00000E+00 0.00000E+00
 -1      1204 4.36500E+01 0.00000E+00 0.00000E+00
 -1      1205 4.66500E+01 0.00000E+00 0.00000E+00
 -1      1206 4.96500E+01 0.00000E+00 0.00000E+00
 -1      1207 5.26500E+01 0.00000E+00 0.00000E+00
 -1      1208 5.56500E+01 0.00000E+00 0.00000E+00
 -1      1209 5.86500E+01 0.00000E+00 0.00000E+00
 -1      1210 6.16500E+01 0.00000E+00 0.00000E+00
 -1      1211 6.46500E+01 0.00000E+00 0.00000E+00
 -1      1212 6.76500E+01 0.00000E+00 0.00000E+00
 -1      1213 7.06500E+01 0.00000E+00 0.00000E+00
 -1      1214 7.36500E+01 0.00000E+00 0.00000E+00
 -1      1215 7.66500E+01 0.00000E+00 0.00000E+00
 -1      1216 7.96500E+01 0.00000E+00 0.00000E+00
 -1      1217 8.26500E+01 0.00000E+00 0.00000E+00
 -1      1218 8.56500E+01 0.00000E+00 0.00000E+00
 -1      1219 8.86500E+01 0.00000E+00 0.00000E+00
 -1      1220 9.16500E+01 0.00000E+00 0.00000E+00
 -1      1221 9.46500E+01 0.00000E+00 0.00000E+00
 -1      1222 9.76500E+01 0.00000E+00 0.00000E+00
 -1      1223 1.00650E+02 0.00000E+00 0.00000E+00
 -1      1224 1.03650E+02 0.00000E+00 0.00000E+00
 -1      1225 1.06650E+02 0.00000E+00 0.00000E+00
 -1      1226 1.09650E+02 0.00000E+00 0.00000E+00
 -1      1227 1.12650E+02 0.00000E+00 0.00000E+00
 -1      1228 1.15650E+02 0.00000E+00 0.00000E+00
 -1      1229 1.18650E+02 0.00000E+00 0.00000E+00
 -1      1230 1.21650E+02 0.00000E+00 0.00000E+00
 -1      1231 1.24650E+02 0.00000E+00 0.00000E+00
 -1      1232 1.27650E+02 0.00000E+00 0.00000E+00
 -1      1233 1.30650E+02 0.00000E+00 0.00000E+00
 -1      1234 1.33650E+02 0.00000E+00 0.00000E+00
 -1      1235 1.36650E+02 0.00000E+00 0.00000E+00
 -1      1236 1.39650E+02 0.00000E+00 0.00000E+00
 -1      1237 1.42650E+02 0.00000E+00 0.00000E+00
 -1      1238 1.45650E+02 0.00000E+00 0.00000E+00
 -1      1239 1.48575E+02 0.00000E+00 0.00000E+00
 -1      1240 1.50000E+02 1.47500E+00 0.00000E+00
 -1      1241 1.50000E+02 4.42500E+00 0.00000E+00
 -1      1242 1.50000E+02 7.37500E+00 0.00000E+00
 -1      1243 1.50000E+02 1.03250E+01 0.00000E+00
 -1      1244 1.50000E+02 1.32750E+01 0.00000E+00
 -1      1245 1.50000E+02 1.62000E+01 0.00000E+00
 -1      1246 1.50000E+02 1.91250E+01 0.00000E+00
 -1      1247 1.50000E+02 2.20750E+01 0.00000E+00
 -1      1248 1.50000E+02 2.50250E+01 0.00000E+00
 -1      1249 1.50000E+02 2.79750E+01 0.00000E+00
 -1      1250 1.50000E+02 3.09250E+01 0.00000E+00
 -1      1251 1.50000E+02 3.38500E+01 0.00000E+00
 -1      1252 1.50000E+02 3.67750E+01 0.00000E+00
 -1      1253 1.50000E+02 3.97250E+01 0.00000E+00
 -1      1254 1.50000E+02 4.26750E+01 0.00000E+00
 -1      1255 1.50000E+02 4.56250E+01 0.00000E+00
 -1      1256 1.50000E+02 4.85500E+01 0.00000E+00
 -1      1257 1.17515E+02 2.78883E+01 0.00000E+00
 -1      1258 1.17189E+02 2.63930E+01 0.00000E+00
 -1      1259 1.16544E+02 2.50004E+01 0.00000E+00
 -1      1260 1.15605E+02 2.37762E+01 0.00000E+00
 -1      1261 1.14450E+02 2.28072E+01 0.00000E+00
 -1      1262 1.13181E+02 2.21344E+01 0.00000E+00
 -1      1263 1.11796E+02 2.17337E+01 0.00000E+00
 -1      1264 1.10310E+02 2.16268E+01 0.00000E+00
 -1      1265 1.08806E+02 2.18443E+01 0.00000E+00
 -1      1266 1.07394E+02 2.23765E+01 0.00000E+00
 -1      1267 1.06133E+02 2.31953E+01 0.00000E+00
 -1      1268 1.05089E+02 2.42485E+01 0.00000E+00
 -1      1269 1.04300E+02 2.54772E+01 0.00000E+00
 -1      1270 1.03782E+02 2.68517E+01 0.00000E+00
 -1      1271 1.03560E+02 2.83268E+01 0.00000E+00
 -1      1272 1.03650E+02 2.97793E+01 0.00000E+00
 -1      1273 1.04025E+02 3.11480E+01 0.00000E+00
 -1      1274 1.04699E+02 3.24592E+01 0.00000E+00
 -1      1275 1.05655E+02 3.36224E+01 0.00000E+00
 -1      1276 1.06794E+02 3.45272E+01 0.00000E+00
 -1      1277 1.08106E+02 3.51807E+01 0.00000E+00
 -1      1278 1.09552E+02 3.55505E+01 0.00000E+00
 -1      1279 1.11064E+02 3.56039E+01 0.00000E+00
 -1      1280 1.12485E+02 3.53508E+01 0.00000E+00
 -1      1281 1.13753E+02 3.48486E+01 0.00000E+00
 -1      1282 1.14890E+02 3.41176E+01 0.00000E+00
 -1      1283 1.15898E+02 3.31436E+01 0.00000E+00
 -1      1284 1.16696E+02 3.19800E+01 0.00000E+00
 -1      1285 1.17233E+02 3.07169E+01 0.00000E+00
 -1      1286 1.17517E+02 2.93386E+01 0.00000E+00
 -1      1287 1.57500E+00 4.85250E+01 0.00000E+00
 -1      1288 1.29900E+00 4.48375E+01 0.00000E+00
 -1      1289 1.29900E+00 4.63125E+01 0.00000E+00
 -1      1290 1.29900E+00 4.18875E+01 0.00000E+00
 -1      1291 1.29900E+00 4.33625E+01 0.00000E+00
 -1      1292 2.59800E+00 4.41000E+01 0.00000E+00
 -1      1293 1.29900E+00 3.89375E+01 0.00000E+00
 -1      1294 1.29900E+00 4.04125E+01 0.00000E+00
 -1      1295 2.59800E+00 4.11500E+01 0.00000E+00
 -1      1296 1.29900E+00 3.59875E+01 0.00000E+00
 -1      1297 1.29900E+00 3.74625E+01 0.00000E+00
 -1      1298 2.59800E+00 3.82000E+01 0.00000E+00
 -1      1299 1.29900E+00 3.30875E+01 0.00000E+00
 -1      1300 1.29900E+00 3.45375E+01 0.00000E+00
 -1      1301 2.59800E+00 3.52750E+01 0.00000E+00
 -1      1302 1.29900E+00 3.01375E+01 0.00000E+00
 -1      1303 1.29900E+00 3.16125E+01 0.00000E+00
 -1      1304 2.59800E+00 3.23500E+01 0.00000E+00
 -1      1305 1.29900E+00 2.71875E+01 0.00000E+00
 -1      1306 1.29900E+00 2.86625E+01 0.00000E+00
 -1      1307 2.59800E+00 2.94000E+01 0.00000E+00
 -1      1308 1.29900E+00 2.42375E+01 0.00000E+00
 -1      1309 1.29900E+00 2.57125E+01 0.00000E+00
 -1      1310 2.59800E+00 2.64500E+01 0.00000E+00
 -1      1311 1.29900E+00 2.12875E+01 0.00000E+00
 -1      1312 1.29900E+00 2.27625E+01 0.00000E+00
 -1      1313 2.59800E+00 2.35000E+01 0.00000E+00
 -1      1314 1.29900E+00 1.83375E+01 0.00000E+00
 -1      1315 1.29900E+00 1.98125E+01 0.00000E+00
 -1      1316 2.59800E+00 2.05500E+01 0.00000E+00
 -1      1317 1.29900E+00 1.54375E+01 0.00000E+00
 -1      1318 1.29900E+00 1.68875E+01 0.00000E+00
 -1      1319 2.59800E+00 1.76250E+01 0.00000E+00
 -1      1320 1.29900E+00 1.24875E+01 0.00000E+00
 -1      1321 1.29900E+00 1.39625E+01 0.00000E+00
 -1      1322 2.59800E+00 1.47000E+01 0.00000E+00
 -1      1323 1.29900E+00 9.53750E+00 0.00000E+00
 -1      1324 1.29900E+00 1.10125E+01 0.00000E+00
 -1      1325 2.59800E+00 1.17500E+01 0.00000E+00
 -1      1326 1.29900E+00 6.58750E+00 0.00000E+00
 -1      1327 1.29900E+00 8.06250E+00 0.00000E+00
 -1      1328 2.59800E+00 8.80000E+00 0.00000E+00
 -1      1329 1.29900E+00 3.63750E+00 0.00000E+00
 -1      1330 1.29900E+00 5.11250E+00 0.00000E+00
 -1      1331 2.59800E+00 5.85000E+00 0.00000E+00
 -1      1332 1.43700E+00 1.09375E+00 0.00000E+00
 -1      1333 1.43700E+00 2.54375E+00 0.00000E+00
 -1      1334 2.73600E+00 3.28125E+00 0.00000E+00
 -1      1335 3.01200E+00 1.09375E+00 0.00000E+00
 -1      1336 3.90000E+00 4.87010E+01 0.00000E+00
 -1      1337 5.40000E+00 4.87010E+01 0.00000E+00
 -1      1338 6.90000E+00 4.87010E+01 0.00000E+00
 -1      1339 8.40000E+00 4.87010E+01 0.00000E+00
 -1      1340 6.15000E+00 4.74020E+01 0.00000E+00
 -1      1341 9.90000E+00 4.87010E+01 0.00000E+00
 -1      1342 1.14000E+01 4.87010E+01 0.00000E+00
 -1      1343 9.15000E+00 4.74020E+01 0.00000E+00
 -1      1344 1.29000E+01 4.87010E+01 0.00000E+00
 -1      1345 1.44000E+01 4.87010E+01 0.00000E+00
 -1      1346 1.21500E+01 4.74020E+01 0.00000E+00
 -1      1347 1.59000E+01 4.87010E+01 0.00000E+00
 -1      1348 1.74000E+01 4.87010E+01 0.00000E+00
 -1      1349 1.51500E+01 4.74020E+01 0.00000E+00
 -1      1350 1.89000E+01 4.87010E+01 0.00000E+00
 -1      1351 2.04000E+01 4.87010E+01 0.00000E+00
 -1      1352 1.81500E+01 4.74020E+01 0.00000E+00
 -1      1353 2.19000E+01 4.87010E+01 0.00000E+00
 -1      1354 2.34000E+01 4.87010E+01 0.00000E+00
 -1      1355 2.11500E+01 4.74020E+01 0.00000E+00
 -1      1356 2.49000E+01 4.87010E+01 0.00000E+00
 -1      1357 2.64000E+01 4.87010E+01 0.00000E+00
 -1      1358 2.41500E+01 4.74020E+01 0.00000E+00
 -1      1359 2.79000E+01 4.87010E+01 0.00000E+00
 -1      1360 2.94000E+01 4.87010E+01 0.00000E+00
 -1      1361 2.71500E+01 4.74020E+01 0.00000E+00
 -1      1362 3.09000E+01 4.87010E+01 0.00000E+00
 -1      1363 3.24000E+01 4.87010E+01 0.00000E+00
 -1      1364 3.01500E+01 4.74020E+01 0.00000E+00
 -1      1365 3.39000E+01 4.87010E+01 0.00000E+00
 -1      1366 3.54000E+01 4.87010E+01 0.00000E+00
 -1      1367 3.31500E+01 4.74020E+01 0.00000E+00
 -1      1368 3.69000E+01 4.87010E+01 0.00000E+00
 -1      1369 3.84000E+01 4.87010E+01 0.00000E+00
 -1      1370 3.61500E+01 4.74020E+01 0.00000E+00
 -1      1371 3.99000E+01 4.87010E+01 0.00000E+00
 -1      1372 4.14000E+01 4.87010E+01 0.00000E+00
 -1      1373 3.91500E+01 4.74020E+01 0.00000E+00
 -1      1374 4.29000E+01 4.87010E+01 0.00000E+00
 -1      1375 4.44000E+01 4.87010E+01 0.00000E+00
 -1      1376 4.21500E+01 4.74020E+01 0.00000E+00
 -1      1377 4.59000E+01 4.87010E+01 0.00000E+00
 -1      1378 4.74000E+01 4.87010E+01 0.00000E+00
 -1      1379 4.51500E+01 4.74020E+01 0.00000E+00
 -1      1380 4.89000E+01 4.87010E+01 0.00000E+00
 -1      1381 5.04000E+01 4.87010E+01 0.00000E+00
 -1      1382 4.81500E+01 4.74020E+01 0.00000E+00
 -1      1383 5.19000E+01 4.87010E+01 0.00000E+00
 -1      1384 5.34000E+01 4.87010E+01 0.00000E+00
 -1      1385 5.11500E+01 4.74020E+01 0.00000E+00
 -1      1386 5.49000E+01 4.87010E+01 0.00000E+00
 -1      1387 5.64000E+01 4.87010E+01 0.00000E+00
 -1      1388 5.41500E+01 4.74020E+01 0.00000E+00
 -1      1389 5.79000E+01 4.87010E+01 0.00000E+00
 -1      1390 5.94000E+01 4.87010E+01 0.00000E+00
 -1      1391 5.71500E+01 4.74020E+01 0.00000E+00
 -1      1392 6.09000E+01 4.87010E+01 0.00000E+00
 -1      1393 6.24000E+01 4.87010E+01 0.00000E+00
 -1      1394 6.01500E+01 4.74020E+01 0.00000E+00
 -1      1395 6.39000E+01 4.87010E+01 0.00000E+00
 -1      1396 6.54000E+01 4.87010E+01 0.00000E+00
 -1      1397 6.31500E+01 4.74020E+01 0.00000E+00
 -1      1398 6.69000E+01 4.87010E+01 0.00000E+00
 -1      1399 6.84000E+01 4.87010E+01 0.00000E+00
 -1      1400 6.61500E+01 4.74020E+01 0.00000E+00
 -1      1401 6.99000E+01 4.87010E+01 0.00000E+00
 -1      1402 7.14000E+01 4.87010E+01 0.00000E+00
 -1      1403 6.91500E+01 4.74020E+01 0.00000E+00
 -1      1404 7.29000E+01 4.87010E+01 0.00000E+00
 -1      1405 7.44000E+01 4.87010E+01 0.00000E+00
 -1      1406 7.21500E+01 4.74020E+01 0.00000E+00
 -1      1407 7.59000E+01 4.87010E+01 0.00000E+00
 -1      1408 7.74000E+01 4.87010E+01 0.00000E+00
 -1      1409 7.51500E+01 4.74020E+01 0.00000E+00
 -1      1410 7.89000E+01 4.87010E+01 0.00000E+00
 -1      1411 8.04000E+01 4.87010E+01 0.00000E+00
 -1      1412 7.81500E+01 4.74020E+01 0.00000E+00
 -1      1413 8.19000E+01 4.87010E+01 0.00000E+00
 -1      1414 8.34000E+01 4.87010E+01 0.00000E+00
 -1      1415 8.11500E+01 4.74020E+01 0.00000E+00
 -1      1416 8.49000E+01 4.87010E+01 0.00000E+00
 -1      1417 8.64000E+01 4.87010E+01 0.00000E+00
 -1      1418 8.41500E+01 4.74020E+01 0.00000E+00
 -1      1419 8.79000E+01 4.87010E+01 0.00000E+00
 -1      1420 8.94000E+01 4.87010E+01 0.00000E+00
 -1      1421 8.71500E+01 4.74020E+01 0.00000E+00
 -1      1422 9.09000E+01 4.87010E+01 0.00000E+00
 -1      1423 9.24000E+01 4.87010E+01 0.00000E+00
 -1      1424 9.01500E+01 4.74020E+01 0.00000E+00
 -1      1425 9.39000E+01 4.87010E+01 0.00000E+00
 -1      1426 9.54000E+01 4.87010E+01 0.00000E+00
 -1      1427 9.31500E+01 4.74020E+01 0.00000E+00
 -1      1428 9.69000E+01 4.87010E+01 0.00000E+00
 -1      1429 9.84000E+01 4.87010E+01 0.00000E+00
 -1      1430 9.61500E+01 4.74020E+01 0.00000E+00
 -1      1431 9.99000E+01 4.87010E+01 0.00000E+00
 -1      1432 1.01400E+02 4.87010E+01 0.00000E+00
 -1      1433 9.91500E+01 4.74020E+01 0.00000E+00
 -1      1434 1.02900E+02 4.87010E+01 0.00000E+00
 -1      1435 1.04400E+02 4.87010E+01 0.00000E+00
 -1      1436 1.02150E+02 4.74020E+01 0.00000E+00
 -1      1437 1.05900E+02 4.87010E+01 0.00000E+00
 -1      1438 1.07400E+02 4.87010E+01 0.00000E+00
 -1      1439 1.05150E+02 4.74020E+01 0.00000E+00
 -1      1440 1.08900E+02 4.87010E+01 0.00000E+00
 -1      1441 1.10400E+02 4.87010E+01 0.00000E+00
 -1      1442 1.08150E+02 4.74020E+01 0.00000E+00
 -1      1443 1.11900E+02 4.87010E+01 0.00000E+00
 -1      1444 1.13400E+02 4.87010E+01 0.00000E+00
 -1      1445 1.11150E+02 4.74020E+01 0.00000E+00
 -1      1446 1.14900E+02 4.87010E+01 0.00000E+00
 -1      1447 1.16400E+02 4.87010E+01 0.00000E+00
 -1      1448 1.14150E+02 4.74020E+01 0.00000E+00
 -1      1449 1.17900E+02 4.87010E+01 0.00000E+00
 -1      1450 1.19400E+02 4.87010E+01 0.00000E+00
 -1      1451 1.17150E+02 4.74020E+01 0.00000E+00
 -1      1452 1.20900E+02 4.87010E+01 0.00000E+00
 -1      1453 1.22400E+02 4.87010E+01 0.00000E+00
 -1      1454 1.20150E+02 4.74020E+01 0.00000E+00
 -1      1455 1.23900E+02 4.87010E+01 0.00000E+00
 -1      1456 1.25400E+02 4.87010E+01 0.00000E+00
 -1      1457 1.23150E+02 4.74020E+01 0.00000E+00
 -1      1458 1.26900E+02 4.87010E+01 0.00000E+00
 -1      1459 1.28400E+02 4.87010E+01 0.00000E+00
 -1      1460 1.26150E+02 4.74020E+01 0.00000E+00
 -1      1461 1.29900E+02 4.87010E+01 0.00000E+00
 -1      1462 1.31400E+02 4.87010E+01 0.00000E+00
 -1      1463 1.29150E+02 4.74020E+01 0.00000E+00
 -1      1464 1.32900E+02 4.87010E+01 0.00000E+00
 -1      1465 1.34400E+02 4.87010E+01 0.00000E+00
 -1      1466 1.32150E+02 4.74020E+01 0.00000E+00
 -1      1467 1.35900E+02 4.87010E+01 0.00000E+00
 -1      1468 1.37400E+02 4.87010E+01 0.00000E+00
 -1      1469 1.35150E+02 4.74020E+01 0.00000E+00
 -1      1470 1.38900E+02 4.87010E+01 0.00000E+00
 -1      1471 1.40400E+02 4.87010E+01 0.00000E+00
 -1      1472 1.38150E+02 4.74020E+01 0.00000E+00
 -1      1473 1.41900E+02 4.87010E+01 0.00000E+00
 -1      1474 1.43400E+02 4.87010E+01 0.00000E+00
 -1      1475 1.41150E+02 4.74020E+01 0.00000E+00
 -1      1476 1.44900E+02 4.87010E+01 0.00000E+00
 -1      1477 1.46400E+02 4.87010E+01 0.00000E+00
 -1      1478 1.44150E+02 4.74020E+01 0.00000E+00
 -1      1479 1.48575E+02 4.85500E+01 0.00000E+00
 -1      1480 1.47825E+02 4.72510E+01 0.00000E+00
 -1      1481 6.01200E+00 1.09375E+00 0.00000E+00
 -1      1482 4.51200E+00 1.09375E+00 0.00000E+00
 -1      1483 4.37400E+00 2.18750E+00 0.00000E+00
 -1      1484 9.01200E+00 1.09375E+00 0.00000E+00
 -1      1485 7.51200E+00 1.09375E+00 0.00000E+00
 -1      1486 7.37400E+00 2.18750E+00 0.00000E+00
 -1      1487 1.20120E+01 1.09375E+00 0.00000E+00
 -1      1488 1.05120E+01 1.09375E+00 0.00000E+00
 -1      1489 1.03740E+01 2.18750E+00 0.00000E+00
 -1      1490 1.50120E+01 1.09375E+00 0.00000E+00
 -1      1491 1.35120E+01 1.09375E+00 0.00000E+00
 -1      1492 1.33740E+01 2.18750E+00 0.00000E+00
 -1      1493 1.80120E+01 1.09375E+00 0.00000E+00
 -1      1494 1.65120E+01 1.09375E+00 0.00000E+00
 -1      1495 1.63740E+01 2.18750E+00 0.00000E+00
 -1      1496 2.10120E+01 1.09375E+00 0.00000E+00
 -1      1497 1.95120E+01 1.09375E+00 0.00000E+00
 -1      1498 1.93740E+01 2.18750E+00 0.00000E+00
 -1      1499 2.40120E+01 1.09375E+00 0.00000E+00
 -1      1500 2.25120E+01 1.09375E+00 0.00000E+00
 -1      1501 2.23740E+01 2.18750E+00 0.00000E+00
 -1      1502 2.70120E+01 1.09375E+00 0.00000E+00
 -1      1503 2.55120E+01 1.09375E+00 0.00000E+00
 -1      1504 2.53740E+01 2.18750E+00 0.00000E+00
 -1      1505 3.00120E+01 1.09375E+00 0.00000E+00
 -1      1506 2.85120E+01 1.09375E+00 0.00000E+00
 -1      1507 2.83740E+01 2.18750E+00 0.00000E+00
 -1      1508 3.30120E+01 1.09375E+00 0.00000E+00
 -1      1509 3.15120E+01 1.09375E+00 0.00000E+00
 -1      1510 3.13740E+01 2.18750E+00 0.00000E+00
 -1      1511 3.60120E+01 1.09375E+00 0.00000E+00
 -1      1512 3.45120E+01 1.09375E+00 0.00000E+00
 -1      1513 3.43740E+01 2.18750E+00 0.00000E+00
 -1      1514 3.90120E+01 1.09375E+00 0.00000E+00
 -1      1515 3.75120E+01 1.09375E+00 0.00000E+00
 -1      1516 3.73740E+01 2.18750E+00 0.00000E+00
 -1      1517 4.20120E+01 1.09375E+00 0.00000E+00
 -1      1518 4.05120E+01 1.09375E+00 0.00000E+00
 -1      1519 4.03740E+01 2.18750E+00 0.00000E+00
 -1      1520 4.50120E+01 1.09375E+00 0.00000E+00
 -1      1521 4.35120E+01 1.09375E+00 0.00000E+00
 -1      1522 4.33740E+01 2.18750E+00 0.00000E+00
 -1      1523 4.80120E+01 1.09375E+00 0.00000E+00
 -1      1524 4.65120E+01 1.09375E+00 0.00000E+00
 -1      1525 4.63740E+01 2.18750E+00 0.00000E+00
 -1      1526 5.10120E+01 1.09375E+00 0.00000E+00
 -1      1527 4.95120E+01 1.09375E+00 0.00000E+00
 -1      1528 4.93740E+01 2.18750E+00 0.00000E+00
 -1      1529 5.40120E+01 1.09375E+00 0.00000E+00
 -1      1530 5.25120E+01 1.09375E+00 0.00000E+00
 -1      1531 5.23740E+01 2.18750E+00 0.00000E+00
 -1      1532 5.70120E+01 1.09375E+00 0.00000E+00
 -1      1533 5.55120E+01 1.09375E+00 0.00000E+00
 -1      1534 5.53740E+01 2.18750E+00 0.00000E+00
 -1      1535 6.00120E+01 1.09375E+00 0.00000E+00
 -1      1536 5.85120E+01 1.09375E+00 0.00000E+00
 -1      1537 5.83740E+01 2.18750E+00 0.00000E+00
 -1      1538 6.30120E+01 1.09375E+00 0.00000E+00
 -1      1539 6.15120E+01 1.09375E+00 0.00000E+00
 -1      1540 6.13740E+01 2.18750E+00 0.00000E+00
 -1      1541 6.60120E+01 1.09375E+00 0.00000E+00
 -1      1542 6.45120E+01 1.09375E+00 0.00000E+00
 -1      1543 6.43740E+01 2.18750E+00 0.00000E+00
 -1      1544 6.90120E+01 1.09375E+00 0.00000E+00
 -1      1545 6.75120E+01 1.09375E+00 0.00000E+00
 -1      1546 6.73740E+01 2.18750E+00 0.00000E+00
 -1      1547 7.20120E+01 1.09375E+00 0.00000E+00
 -1      1548 7.05120E+01 1.09375E+00 0.00000E+00
 -1      1549 7.03740E+01 2.18750E+00 0.00000E+00
 -1      1550 7.50120E+01 1.09375E+00 0.00000E+00
 -1      1551 7.35120E+01 1.09375E+00 0.00000E+00
 -1      1552 7.33740E+01 2.18750E+00 0.00000E+00
 -1      1553 7.80120E+01 1.09375E+00 0.00000E+00
 -1      1554 7.65120E+01 1.09375E+00 0.00000E+00
 -1      1555 7.63740E+01 2.18750E+00 0.00000E+00
 -1      1556 8.10120E+01 1.09375E+00 0.00000E+00
 -1      1557 7.95120E+01 1.09375E+00 0.00000E+00
 -1      1558 7.93740E+01 2.18750E+00 0.00000E+00
 -1      1559 8.40120E+01 1.09375E+00 0.00000E+00
 -1      1560 8.25120E+01 1.09375E+00 0.00000E+00
 -1      1561 8.23740E+01 2.18750E+00 0.00000E+00
 -1      1562 8.70120E+01 1.09375E+00 0.00000E+00
 -1      1563 8.55120E+01 1.09375E+00 0.00000E+00
 -1      1564 8.53740E+01 2.18750E+00 0.00000E+00
 -1      1565 9.00120E+01 1.09375E+00 0.00000E+00
 -1      1566 8.85120E+01 1.09375E+00 0.00000E+00
 -1      1567 8.83740E+01 2.18750E+00 0.00000E+00
 -1      1568 9.30120E+01 1.09375E+00 0.00000E+00
 -1      1569 9.15120E+01 1.09375E+00 0.00000E+00
 -1      1570 9.13740E+01 2.18750E+00 0.00000E+00
 -1      1571 9.60120E+01 1.09375E+00 0.00000E+00
 -1      1572 9.45120E+01 1.09375E+00 0.00000E+00
 -1      1573 9.43740E+01 2.18750E+00 0.00000E+00
 -1      1574 9.90120E+01 1.09375E+00 0.00000E+00
 -1      1575 9.75120E+01 1.09375E+00 0.00000E+00
 -1      1576 9.73740E+01 2.18750E+00 0.00000E+00
 -1      1577 1.02012E+02 1.09375E+00 0.00000E+00
 -1      1578 1.00512E+02 1.09375E+00 0.00000E+00
 -1      1579 1.00374E+02 2.18750E+00 0.00000E+00
 -1      1580 1.05012E+02 1.09375E+00 0.00000E+00
 -1      1581 1.03512E+02 1.09375E+00 0.00000E+00
 -1      1582 1.03374E+02 2.18750E+00 0.00000E+00
 -1      1583 1.08012E+02 1.09375E+00 0.00000E+00
 -1      1584 1.06512E+02 1.09375E+00 0.00000E+00
 -1      1585 1.06374E+02 2.18750E+00 0.00000E+00
 -1      1586 1.11012E+02 1.09375E+00 0.00000E+00
 -1      1587 1.09512E+02 1.09375E+00 0.00000E+00
 -1      1588 1.09374E+02 2.18750E+00 0.00000E+00
 -1      1589 1.14012E+02 1.09375E+00 0.00000E+00
 -1      1590 1.12512E+02 1.09375E+00 0.00000E+00
 -1      1591 1.12374E+02 2.18750E+00 0.00000E+00
 -1      1592 1.17012E+02 1.09375E+00 0.00000E+00
 -1      1593 1.15512E+02 1.09375E+00 0.00000E+00
 -1      1594 1.15374E+02 2.18750E+00 0.00000E+00
 -1      1595 1.20012E+02 1.09375E+00 0.00000E+00
 -1      1596 1.18512E+02 1.09375E+00 0.00000E+00
 -1      1597 1.18374E+02 2.18750E+00 0.00000E+00
 -1      1598 1.23012E+02 1.09375E+00 0.00000E+00
 -1      1599 1.21512E+02 1.09375E+00 0.00000E+00
 -1      1600 1.21374E+02 2.18750E+00 0.00000E+00
 -1      1601 1.26012E+02 1.09375E+00 0.00000E+00
 -1      1602 1.24512E+02 1.09375E+00 0.00000E+00
 -1      1603 1.24374E+02 2.18750E+00 0.00000E+00
 -1      1604 1.29012E+02 1.09375E+00 0.00000E+00
 -1      1605 1.27512E+02 1.09375E+00 0.00000E+00
 -1      1606 1.27374E+02 2.18750E+00 0.00000E+00
 -1      1607 1.32012E+02 1.09375E+00 0.00000E+00
 -1      1608 1.30512E+02 1.09375E+00 0.00000E+00
 -1      1609 1.30374E+02 2.18750E+00 0.00000E+00
 -1      1610 1.35012E+02 1.09375E+00 0.00000E+00
 -1      1611 1.33512E+02 1.09375E+00 0.00000E+00
 -1      1612 1.33374E+02 2.18750E+00 0.00000E+00
 -1      1613 1.38012E+02 1.09375E+00 0.00000E+00
 -1      1614 1.36512E+02 1.09375E+00 0.00000E+00
 -1      1615 1.36374E+02 2.18750E+00 0.00000E+00
 -1      1616 1.41012E+02 1.09375E+00 0.00000E+00
 -1      1617 1.39512E+02 1.09375E+00 0.00000E+00
 -1      1618 1.39374E+02 2.18750E+00 0.00000E+00
 -1      1619 1.44012E+02 1.09375E+00 0.00000E+00
 -1      1620 1.42512E+02 1.09375E+00 0.00000E+00
 -1      1621 1.42374E+02 2.18750E+00 0.00000E+00
 -1      1622 1.47012E+02 1.09375E+00 0.00000E+00
 -1      1623 1.45512E+02 1.09375E+00 0.00000E+00
 -1      1624 1.45374E+02 2.18750E+00 0.00000E+00
 -1      1625 1.48575E+02 1.47500E+00 0.00000E+00
 -1      1626 1.48701E+02 5.16250E+00 0.00000E+00
 -1      1627 1.48701E+02 3.68750E+00 0.00000E+00
 -1      1628 1.48701E+02 8.11250E+00 0.00000E+00
 -1      1629 1.48701E+02 6.63750E+00 0.00000E+00
 -1      1630 1.47402E+02 5.90000E+00 0.00000E+00
 -1      1631 1.48701E+02 1.10625E+01 0.00000E+00
 -1      1632 1.48701E+02 9.58750E+00 0.00000E+00
 -1      1633 1.47402E+02 8.85000E+00 0.00000E+00
 -1      1634 1.48701E+02 1.40125E+01 0.00000E+00
 -1      1635 1.48701E+02 1.25375E+01 0.00000E+00
 -1      1636 1.47402E+02 1.18000E+01 0.00000E+00
 -1      1637 1.48701E+02 1.69125E+01 0.00000E+00
 -1      1638 1.48701E+02 1.54625E+01 0.00000E+00
 -1      1639 1.47402E+02 1.47250E+01 0.00000E+00
 -1      1640 1.48701E+02 1.98625E+01 0.00000E+00
 -1      1641 1.48701E+02 1.83875E+01 0.00000E+00
 -1      1642 1.47402E+02 1.76500E+01 0.00000E+00
 -1      1643 1.48701E+02 2.28125E+01 0.00000E+00
 -1      1644 1.48701E+02 2.13375E+01 0.00000E+00
 -1      1645 1.47402E+02 2.06000E+01 0.00000E+00
 -1      1646 1.48701E+02 2.57625E+01 0.00000E+00
 -1      1647 1.48701E+02 2.42875E+01 0.00000E+00
 -1      1648 1.47402E+02 2.35500E+01 0.00000E+00
 -1      1649 1.48701E+02 2.87125E+01 0.00000E+00
 -1      1650 1.48701E+02 2.72375E+01 0.00000E+00
 -1      1651 1.47402E+02 2.65000E+01 0.00000E+00
 -1      1652 1.48701E+02 3.16625E+01 0.00000E+00
 -1      1653 1.48701E+02 3.01875E+01 0.00000E+00
 -1      1654 1.47402E+02 2.94500E+01 0.00000E+00
 -1      1655 1.48701E+02 3.45625E+01 0.00000E+00
 -1      1656 1.48701E+02 3.31125E+01 0.00000E+00
 -1      1657 1.47402E+02 3.23750E+01 0.00000E+00
 -1      1658 1.48701E+02 3.75125E+01 0.00000E+00
 -1      1659 1.48701E+02 3.60375E+01 0.00000E+00
 -1      1660 1.47402E+02 3.53000E+01 0.00000E+00
 -1      1661 1.48701E+02 4.04625E+01 0.00000E+00
 -1      1662 1.48701E+02 3.89875E+01 0.00000E+00
 -1      1663 1.47402E+02 3.82500E+01 0.00000E+00
 -1      1664 1.48701E+02 4.34125E+01 0.00000E+00
 -1      1665 1.48701E+02 4.19375E+01 0.00000E+00
 -1      1666 1.47402E+02 4.12000E+01 0.00000E+00
 -1      1667 1.48263E+02 4.60692E+01 0.00000E+00
 -1      1668 1.48263E+02 4.45942E+01 0.00000E+00
 -1      1669 1.46964E+02 4.38568E+01 0.00000E+00
 -1      1670 1.46088E+02 4.62202E+01 0.00000E+00
 -1      1671 1.18041E+02 2.74637E+01 0.00000E+00
 -1      1672 1.18118E+02 2.81939E+01 0.00000E+00
 -1      1673 1.17753E+02 2.57837E+01 0.00000E+00
 -1      1674 1.18007E+02 2.65384E+01 0.00000E+00
 -1      1675 1.16874E+02 2.43692E+01 0.00000E+00
 -1      1676 1.17256E+02 2.50013E+01 0.00000E+00
 -1      1677 1.15821E+02 2.30115E+01 0.00000E+00
 -1      1678 1.16378E+02 2.35917E+01 0.00000E+00
 -1      1679 1.14476E+02 2.21373E+01 0.00000E+00
 -1      1680 1.15060E+02 2.25288E+01 0.00000E+00
 -1      1681 1.13071E+02 2.14318E+01 0.00000E+00
 -1      1682 1.13750E+02 2.17069E+01 0.00000E+00
 -1      1683 1.11548E+02 2.11096E+01 0.00000E+00
 -1      1684 1.12246E+02 2.12355E+01 0.00000E+00
 -1      1685 1.09897E+02 2.09945E+01 0.00000E+00
 -1      1686 1.10678E+02 2.09673E+01 0.00000E+00
 -1      1687 1.08306E+02 2.13874E+01 0.00000E+00
 -1      1688 1.09022E+02 2.12029E+01 0.00000E+00
 -1      1689 1.06777E+02 2.20099E+01 0.00000E+00
 -1      1690 1.07464E+02 2.16622E+01 0.00000E+00
 -1      1691 1.05490E+02 2.29868E+01 0.00000E+00
 -1      1692 1.06059E+02 2.25236E+01 0.00000E+00
 -1      1693 1.04413E+02 2.41876E+01 0.00000E+00
 -1      1694 1.04881E+02 2.36022E+01 0.00000E+00
 -1      1695 1.03631E+02 2.55382E+01 0.00000E+00
 -1      1696 1.03951E+02 2.49038E+01 0.00000E+00
 -1      1697 1.03098E+02 2.70653E+01 0.00000E+00
 -1      1698 1.03290E+02 2.63310E+01 0.00000E+00
 -1      1699 1.02977E+02 2.86689E+01 0.00000E+00
 -1      1700 1.03008E+02 2.79368E+01 0.00000E+00
 -1      1701 1.03066E+02 3.02435E+01 0.00000E+00
 -1      1702 1.02947E+02 2.95308E+01 0.00000E+00
 -1      1703 1.03618E+02 3.16790E+01 0.00000E+00
 -1      1704 1.03367E+02 3.10294E+01 0.00000E+00
 -1      1705 1.04301E+02 3.31847E+01 0.00000E+00
 -1      1706 1.03875E+02 3.25344E+01 0.00000E+00
 -1      1707 1.05341E+02 3.42037E+01 0.00000E+00
 -1      1708 1.04821E+02 3.36942E+01 0.00000E+00
 -1      1709 1.03961E+02 3.37931E+01 0.00000E+00
 -1      1710 1.06773E+02 3.52372E+01 0.00000E+00
 -1      1711 1.06160E+02 3.48467E+01 0.00000E+00
 -1      1712 1.08254E+02 3.58411E+01 0.00000E+00
 -1      1713 1.07562E+02 3.55828E+01 0.00000E+00
 -1      1714 1.09844E+02 3.61641E+01 0.00000E+00
 -1      1715 1.09098E+02 3.60563E+01 0.00000E+00
 -1      1716 1.11490E+02 3.62232E+01 0.00000E+00
 -1      1717 1.10733E+02 3.62786E+01 0.00000E+00
 -1      1718 1.12972E+02 3.58069E+01 0.00000E+00
 -1      1719 1.12314E+02 3.59957E+01 0.00000E+00
 -1      1720 1.14337E+02 3.52403E+01 0.00000E+00
 -1      1721 1.13732E+02 3.55509E+01 0.00000E+00
 -1      1722 1.15510E+02 3.43600E+01 0.00000E+00
 -1      1723 1.14982E+02 3.47762E+01 0.00000E+00
 -1      1724 1.16631E+02 3.32861E+01 0.00000E+00
 -1      1725 1.16160E+02 3.38431E+01 0.00000E+00
 -1      1726 1.17362E+02 3.19559E+01 0.00000E+00
 -1      1727 1.17035E+02 3.25538E+01 0.00000E+00
 -1      1728 1.18002E+02 3.05959E+01 0.00000E+00
 -1      1729 1.17795E+02 3.12554E+01 0.00000E+00
 -1      1730 1.18162E+02 2.90450E+01 0.00000E+00
 -1      1731 1.18089E+02 2.97573E+01 0.00000E+00
 -1      1732 1.15867E+02 2.23121E+01 0.00000E+00
 -1      1733 1.17124E+02 2.35724E+01 0.00000E+00
 -1      1734 1.48437E+02 2.56875E+00 0.00000E+00
 -1      1735 1.47138E+02 3.30625E+00 0.00000E+00
 -1      1736 1.18648E+02 2.68399E+01 0.00000E+00
 -1      1737 1.18116E+02 2.51322E+01 0.00000E+00
 -1      1738 1.18726E+02 2.86163E+01 0.00000E+00
 -1      1739 1.14380E+02 2.13991E+01 0.00000E+00
 -1      1740 1.12829E+02 2.07723E+01 0.00000E+00
 -1      1741 1.11134E+02 2.04336E+01 0.00000E+00
 -1      1742 1.09388E+02 2.04998E+01 0.00000E+00
 -1      1743 1.07670E+02 2.09830E+01 0.00000E+00
 -1      1744 1.06110E+02 2.17715E+01 0.00000E+00
 -1      1745 1.04783E+02 2.29006E+01 0.00000E+00
 -1      1746 1.03712E+02 2.42324E+01 0.00000E+00
 -1      1747 1.02908E+02 2.57414E+01 0.00000E+00
 -1      1748 1.02477E+02 2.74057E+01 0.00000E+00
 -1      1749 1.02357E+02 2.91392E+01 0.00000E+00
 -1      1750 1.02626E+02 3.07871E+01 0.00000E+00
 -1      1751 1.03184E+02 3.24283E+01 0.00000E+00
 -1      1752 1.06907E+02 3.59343E+01 0.00000E+00
 -1      1753 1.08540E+02 3.64950E+01 0.00000E+00
 -1      1754 1.10273E+02 3.68246E+01 0.00000E+00
 -1      1755 1.11986E+02 3.67115E+01 0.00000E+00
 -1      1756 1.13571E+02 3.62280E+01 0.00000E+00
 -1      1757 1.14976E+02 3.55080E+01 0.00000E+00
 -1      1758 1.16272E+02 3.45271E+01 0.00000E+00
 -1      1759 1.17327E+02 3.32779E+01 0.00000E+00
 -1      1760 1.18164E+02 3.18451E+01 0.00000E+00
 -1      1761 1.18684E+02 3.03060E+01 0.00000E+00
 -1      1762 2.87400E+00 4.77875E+01 0.00000E+00
 -1      1763 1.05300E+02 3.49456E+01 0.00000E+00
 -1      1764 3.89700E+00 4.04125E+01 0.00000E+00
 -1      1765 3.89700E+00 4.18875E+01 0.00000E+00
 -1      1766 3.89700E+00 4.33625E+01 0.00000E+00
 -1      1767 3.89700E+00 4.48375E+01 0.00000E+00
 -1      1768 5.19600E+00 4.26250E+01 0.00000E+00
 -1      1769 3.89700E+00 3.45500E+01 0.00000E+00
 -1      1770 3.89700E+00 3.60000E+01 0.00000E+00
 -1      1771 3.89700E+00 3.16000E+01 0.00000E+00
 -1      1772 3.89700E+00 3.30750E+01 0.00000E+00
 -1      1773 5.19600E+00 3.38000E+01 0.00000E+00
 -1      1774 3.89700E+00 2.86500E+01 0.00000E+00
 -1      1775 3.89700E+00 3.01250E+01 0.00000E+00
 -1      1776 5.19600E+00 3.08500E+01 0.00000E+00
 -1      1777 3.89700E+00 2.57000E+01 0.00000E+00
 -1      1778 3.89700E+00 2.71750E+01 0.00000E+00
 -1      1779 5.19600E+00 2.79000E+01 0.00000E+00
 -1      1780 3.89700E+00 2.27500E+01 0.00000E+00
 -1      1781 3.89700E+00 2.42250E+01 0.00000E+00
 -1      1782 5.19600E+00 2.49500E+01 0.00000E+00
 -1      1783 3.89700E+00 1.98000E+01 0.00000E+00
 -1      1784 3.89700E+00 2.12750E+01 0.00000E+00
 -1      1785 5.19600E+00 2.20000E+01 0.00000E+00
 -1      1786 3.89700E+00 1.69000E+01 0.00000E+00
 -1      1787 3.89700E+00 1.83500E+01 0.00000E+00
 -1      1788 5.19600E+00 1.90750E+01 0.00000E+00
 -1      1789 3.89700E+00 1.39500E+01 0.00000E+00
 -1      1790 3.89700E+00 1.54250E+01 0.00000E+00
 -1      1791 5.19600E+00 1.61500E+01 0.00000E+00
 -1      1792 3.89700E+00 1.10000E+01 0.00000E+00
 -1      1793 3.89700E+00 1.24750E+01 0.00000E+00
 -1      1794 5.19600E+00 1.32000E+01 0.00000E+00
 -1      1795 3.89700E+00 8.05000E+00 0.00000E+00
 -1      1796 3.89700E+00 9.52500E+00 0.00000E+00
 -1      1797 5.19600E+00 1.02500E+01 0.00000E+00
 -1      1798 3.89700E+00 5.10000E+00 0.00000E+00
 -1      1799 3.89700E+00 6.57500E+00 0.00000E+00
 -1      1800 5.19600E+00 7.30000E+00 0.00000E+00
 -1      1801 4.20450E+00 3.09687E+00 0.00000E+00
 -1      1802 4.06650E+00 4.19063E+00 0.00000E+00
 -1      1803 5.36550E+00 4.91563E+00 0.00000E+00
 -1      1804 5.70450E+00 3.09687E+00 0.00000E+00
 -1      1805 3.62400E+00 4.64885E+01 0.00000E+00
 -1      1806 8.70450E+00 3.09687E+00 0.00000E+00
 -1      1807 7.20450E+00 3.09687E+00 0.00000E+00
 -1      1808 7.03500E+00 4.00625E+00 0.00000E+00
 -1      1809 1.05231E+02 3.58757E+01 0.00000E+00
 -1      1810 1.04412E+02 3.52327E+01 0.00000E+00
 -1      1811 4.92300E+00 4.57510E+01 0.00000E+00
 -1      1812 8.40000E+00 4.61030E+01 0.00000E+00
 -1      1813 9.90000E+00 4.61030E+01 0.00000E+00
 -1      1814 1.14000E+01 4.61030E+01 0.00000E+00
 -1      1815 1.29000E+01 4.61030E+01 0.00000E+00
 -1      1816 1.06500E+01 4.48040E+01 0.00000E+00
 -1      1817 1.44000E+01 4.61030E+01 0.00000E+00
 -1      1818 1.59000E+01 4.61030E+01 0.00000E+00
 -1      1819 1.36500E+01 4.48040E+01 0.00000E+00
 -1      1820 1.74000E+01 4.61030E+01 0.00000E+00
 -1      1821 1.89000E+01 4.61030E+01 0.00000E+00
 -1      1822 1.66500E+01 4.48040E+01 0.00000E+00
 -1      1823 2.04000E+01 4.61030E+01 0.00000E+00
 -1      1824 2.19000E+01 4.61030E+01 0.00000E+00
 -1      1825 1.96500E+01 4.48040E+01 0.00000E+00
 -1      1826 2.34000E+01 4.61030E+01 0.00000E+00
 -1      1827 2.49000E+01 4.61030E+01 0.00000E+00
 -1      1828 2.26500E+01 4.48040E+01 0.00000E+00
 -1      1829 2.64000E+01 4.61030E+01 0.00000E+00
 -1      1830 2.79000E+01 4.61030E+01 0.00000E+00
 -1      1831 2.56500E+01 4.48040E+01 0.00000E+00
 -1      1832 2.94000E+01 4.61030E+01 0.00000E+00
 -1      1833 3.09000E+01 4.61030E+01 0.00000E+00
 -1      1834 2.86500E+01 4.48040E+01 0.00000E+00
 -1      1835 3.24000E+01 4.61030E+01 0.00000E+00
 -1      1836 3.39000E+01 4.61030E+01 0.00000E+00
 -1      1837 3.16500E+01 4.48040E+01 0.00000E+00
 -1      1838 3.54000E+01 4.61030E+01 0.00000E+00
 -1      1839 3.69000E+01 4.61030E+01 0.00000E+00
 -1      1840 3.46500E+01 4.48040E+01 0.00000E+00
 -1      1841 3.84000E+01 4.61030E+01 0.00000E+00
 -1      1842 3.99000E+01 4.61030E+01 0.00000E+00
 -1      1843 3.76500E+01 4.48040E+01 0.00000E+00
 -1      1844 4.14000E+01 4.61030E+01 0.00000E+00
 -1      1845 4.29000E+01 4.61030E+01 0.00000E+00
 -1      1846 4.06500E+01 4.48040E+01 0.00000E+00
 -1      1847 4.44000E+01 4.61030E+01 0.00000E+00
 -1      1848 4.59000E+01 4.61030E+01 0.00000E+00
 -1      1849 4.36500E+01 4.48040E+01 0.00000E+00
 -1      1850 4.74000E+01 4.61030E+01 0.00000E+00
 -1      1851 4.89000E+01 4.61030E+01 0.00000E+00
 -1      1852 4.66500E+01 4.48040E+01 0.00000E+00
 -1      1853 5.04000E+01 4.61030E+01 0.00000E+00
 -1      1854 5.19000E+01 4.61030E+01 0.00000E+00
 -1      1855 4.96500E+01 4.48040E+01 0.00000E+00
 -1      1856 5.34000E+01 4.61030E+01 0.00000E+00
 -1      1857 5.49000E+01 4.61030E+01 0.00000E+00
 -1      1858 5.26500E+01 4.48040E+01 0.00000E+00
 -1      1859 5.64000E+01 4.61030E+01 0.00000E+00
 -1      1860 5.79000E+01 4.61030E+01 0.00000E+00
 -1      1861 5.56500E+01 4.48040E+01 0.00000E+00
 -1      1862 5.94000E+01 4.61030E+01 0.00000E+00
 -1      1863 6.09000E+01 4.61030E+01 0.00000E+00
 -1      1864 5.86500E+01 4.48040E+01 0.00000E+00
 -1      1865 6.24000E+01 4.61030E+01 0.00000E+00
 -1      1866 6.39000E+01 4.61030E+01 0.00000E+00
 -1      1867 6.16500E+01 4.48040E+01 0.00000E+00
 -1      1868 6.54000E+01 4.61030E+01 0.00000E+00
 -1      1869 6.69000E+01 4.61030E+01 0.00000E+00
 -1      1870 6.46500E+01 4.48040E+01 0.00000E+00
 -1      1871 6.84000E+01 4.61030E+01 0.00000E+00
 -1      1872 6.99000E+01 4.61030E+01 0.00000E+00
 -1      1873 6.76500E+01 4.48040E+01 0.00000E+00
 -1      1874 7.14000E+01 4.61030E+01 0.00000E+00
 -1      1875 7.29000E+01 4.61030E+01 0.00000E+00
 -1      1876 7.06500E+01 4.48040E+01 0.00000E+00
 -1      1877 7.44000E+01 4.61030E+01 0.00000E+00
 -1      1878 7.59000E+01 4.61030E+01 0.00000E+00
 -1      1879 7.36500E+01 4.48040E+01 0.00000E+00
 -1      1880 7.74000E+01 4.61030E+01 0.00000E+00
 -1      1881 7.89000E+01 4.61030E+01 0.00000E+00
 -1      1882 7.66500E+01 4.48040E+01 0.00000E+00
 -1      1883 8.04000E+01 4.61030E+01 0.00000E+00
 -1      1884 8.19000E+01 4.61030E+01 0.00000E+00
 -1      1885 7.96500E+01 4.48040E+01 0.00000E+00
 -1      1886 8.34000E+01 4.61030E+01 0.00000E+00
 -1      1887 8.49000E+01 4.61030E+01 0.00000E+00
 -1      1888 8.26500E+01 4.48040E+01 0.00000E+00
 -1      1889 8.64000E+01 4.61030E+01 0.00000E+00
 -1      1890 8.79000E+01 4.61030E+01 0.00000E+00
 -1      1891 8.56500E+01 4.48040E+01 0.00000E+00
 -1      1892 8.94000E+01 4.61030E+01 0.00000E+00
 -1      1893 9.09000E+01 4.61030E+01 0.00000E+00
 -1      1894 8.86500E+01 4.48040E+01 0.00000E+00
 -1      1895 9.24000E+01 4.61030E+01 0.00000E+00
 -1      1896 9.39000E+01 4.61030E+01 0.00000E+00
 -1      1897 9.16500E+01 4.48040E+01 0.00000E+00
 -1      1898 9.54000E+01 4.61030E+01 0.00000E+00
 -1      1899 9.69000E+01 4.61030E+01 0.00000E+00
 -1      1900 9.46500E+01 4.48040E+01 0.00000E+00
 -1      1901 9.84000E+01 4.61030E+01 0.00000E+00
 -1      1902 9.99000E+01 4.61030E+01 0.00000E+00
 -1      1903 9.76500E+01 4.48040E+01 0.00000E+00
 -1      1904 1.01400E+02 4.61030E+01 0.00000E+00
 -1      1905 1.02900E+02 4.61030E+01 0.00000E+00
 -1      1906 1.00650E+02 4.48040E+01 0.00000E+00
 -1      1907 1.04400E+02 4.61030E+01 0.00000E+00
 -1      1908 1.05900E+02 4.61030E+01 0.00000E+00
 -1      1909 1.03650E+02 4.48040E+01 0.00000E+00
 -1      1910 1.07400E+02 4.61030E+01 0.00000E+00
 -1      1911 1.08900E+02 4.61030E+01 0.00000E+00
 -1      1912 1.06650E+02 4.48040E+01 0.00000E+00
 -1      1913 1.10400E+02 4.61030E+01 0.00000E+00
 -1      1914 1.11900E+02 4.61030E+01 0.00000E+00
 -1      1915 1.09650E+02 4.48040E+01 0.00000E+00
 -1      1916 1.13400E+02 4.61030E+01 0.00000E+00
 -1      1917 1.14900E+02 4.61030E+01 0.00000E+00
 -1      1918 1.12650E+02 4.48040E+01 0.00000E+00
 -1      1919 1.16400E+02 4.61030E+01 0.00000E+00
 -1      1920 1.17900E+02 4.61030E+01 0.00000E+00
 -1      1921 1.15650E+02 4.48040E+01 0.00000E+00
 -1      1922 1.19400E+02 4.61030E+01 0.00000E+00
 -1      1923 1.20900E+02 4.61030E+01 0.00000E+00
 -1      1924 1.18650E+02 4.48040E+01 0.00000E+00
 -1      1925 1.22400E+02 4.61030E+01 0.00000E+00
 -1      1926 1.23900E+02 4.61030E+01 0.00000E+00
 -1      1927 1.21650E+02 4.48040E+01 0.00000E+00
 -1      1928 1.25400E+02 4.61030E+01 0.00000E+00
 -1      1929 1.26900E+02 4.61030E+01 0.00000E+00
 -1      1930 1.24650E+02 4.48040E+01 0.00000E+00
 -1      1931 1.28400E+02 4.61030E+01 0.00000E+00
 -1      1932 1.29900E+02 4.61030E+01 0.00000E+00
 -1      1933 1.27650E+02 4.48040E+01 0.00000E+00
 -1      1934 1.31400E+02 4.61030E+01 0.00000E+00
 -1      1935 1.32900E+02 4.61030E+01 0.00000E+00
 -1      1936 1.30650E+02 4.48040E+01 0.00000E+00
 -1      1937 1.34400E+02 4.61030E+01 0.00000E+00
 -1      1938 1.35900E+02 4.61030E+01 0.00000E+00
 -1      1939 1.33650E+02 4.48040E+01 0.00000E+00
 -1      1940 1.37400E+02 4.61030E+01 0.00000E+00
 -1      1941 1.38900E+02 4.61030E+01 0.00000E+00
 -1      1942 1.36650E+02 4.48040E+01 0.00000E+00
 -1      1943 1.40400E+02 4.61030E+01 0.00000E+00
 -1      1944 1.41900E+02 4.61030E+01 0.00000E+00
 -1      1945 1.39650E+02 4.48040E+01 0.00000E+00
 -1      1946 1.43244E+02 4.61616E+01 0.00000E+00
 -1      1947 1.44744E+02 4.61616E+01 0.00000E+00
 -1      1948 1.45182E+02 4.49799E+01 0.00000E+00
 -1      1949 1.42494E+02 4.48626E+01 0.00000E+00
 -1      1950 1.17045E+01 3.09687E+00 0.00000E+00
 -1      1951 1.02045E+01 3.09687E+00 0.00000E+00
 -1      1952 1.00350E+01 4.00625E+00 0.00000E+00
 -1      1953 1.47045E+01 3.09687E+00 0.00000E+00
 -1      1954 1.32045E+01 3.09687E+00 0.00000E+00
 -1      1955 1.30350E+01 4.00625E+00 0.00000E+00
 -1      1956 1.77045E+01 3.09687E+00 0.00000E+00
 -1      1957 1.62045E+01 3.09687E+00 0.00000E+00
 -1      1958 1.60350E+01 4.00625E+00 0.00000E+00
 -1      1959 2.07045E+01 3.09687E+00 0.00000E+00
 -1      1960 1.92045E+01 3.09687E+00 0.00000E+00
 -1      1961 1.90350E+01 4.00625E+00 0.00000E+00
 -1      1962 2.37045E+01 3.09687E+00 0.00000E+00
 -1      1963 2.22045E+01 3.09687E+00 0.00000E+00
 -1      1964 2.20350E+01 4.00625E+00 0.00000E+00
 -1      1965 2.67045E+01 3.09687E+00 0.00000E+00
 -1      1966 2.52045E+01 3.09687E+00 0.00000E+00
 -1      1967 2.50350E+01 4.00625E+00 0.00000E+00
 -1      1968 2.97045E+01 3.09687E+00 0.00000E+00
 -1      1969 2.82045E+01 3.09687E+00 0.00000E+00
 -1      1970 2.80350E+01 4.00625E+00 0.00000E+00
 -1      1971 3.27045E+01 3.09687E+00 0.00000E+00
 -1      1972 3.12045E+01 3.09687E+00 0.00000E+00
 -1      1973 3.10350E+01 4.00625E+00 0.00000E+00
 -1      1974 3.57045E+01 3.09687E+00 0.00000E+00
 -1      1975 3.42045E+01 3.09687E+00 0.00000E+00
 -1      1976 3.40350E+01 4.00625E+00 0.00000E+00
 -1      1977 3.87045E+01 3.09687E+00 0.00000E+00
 -1      1978 3.72045E+01 3.09687E+00 0.00000E+00
 -1      1979 3.70350E+01 4.00625E+00 0.00000E+00
 -1      1980 4.17045E+01 3.09687E+00 0.00000E+00
 -1      1981 4.02045E+01 3.09687E+00 0.00000E+00
 -1      1982 4.00350E+01 4.00625E+00 0.00000E+00
 -1      1983 4.47045E+01 3.09687E+00 0.00000E+00
 -1      1984 4.32045E+01 3.09687E+00 0.00000E+00
 -1      1985 4.30350E+01 4.00625E+00 0.00000E+00
 -1      1986 4.77045E+01 3.09687E+00 0.00000E+00
 -1      1987 4.62045E+01 3.09687E+00 0.00000E+00
 -1      1988 4.60350E+01 4.00625E+00 0.00000E+00
 -1      1989 5.07045E+01 3.09687E+00 0.00000E+00
 -1      1990 4.92045E+01 3.09687E+00 0.00000E+00
 -1      1991 4.90350E+01 4.00625E+00 0.00000E+00
 -1      1992 5.37045E+01 3.09687E+00 0.00000E+00
 -1      1993 5.22045E+01 3.09687E+00 0.00000E+00
 -1      1994 5.20350E+01 4.00625E+00 0.00000E+00
 -1      1995 5.67045E+01 3.09687E+00 0.00000E+00
 -1      1996 5.52045E+01 3.09687E+00 0.00000E+00
 -1      1997 5.50350E+01 4.00625E+00 0.00000E+00
 -1      1998 5.97045E+01 3.09687E+00 0.00000E+00
 -1      1999 5.82045E+01 3.09687E+00 0.00000E+00
 -1      2000 5.80350E+01 4.00625E+00 0.00000E+00
 -1      2001 6.27045E+01 3.09687E+00 0.00000E+00
 -1      2002 6.12045E+01 3.09687E+00 0.00000E+00
 -1      2003 6.10350E+01 4.00625E+00 0.00000E+00
 -1      2004 6.57045E+01 3.09687E+00 0.00000E+00
 -1      2005 6.42045E+01 3.09687E+00 0.00000E+00
 -1      2006 6.40350E+01 4.00625E+00 0.00000E+00
 -1      2007 6.87045E+01 3.09687E+00 0.00000E+00
 -1      2008 6.72045E+01 3.09687E+00 0.00000E+00
 -1      2009 6.70350E+01 4.00625E+00 0.00000E+00
 -1      2010 7.17045E+01 3.09687E+00 0.00000E+00
 -1      2011 7.02045E+01 3.09687E+00 0.00000E+00
 -1      2012 7.00350E+01 4.00625E+00 0.00000E+00
 -1      2013 7.47045E+01 3.09687E+00 0.00000E+00
 -1      2014 7.32045E+01 3.09687E+00 0.00000E+00
 -1      2015 7.30350E+01 4.00625E+00 0.00000E+00
 -1      2016 7.77045E+01 3.09687E+00 0.00000E+00
 -1      2017 7.62045E+01 3.09687E+00 0.00000E+00
 -1      2018 7.60350E+01 4.00625E+00 0.00000E+00
 -1      2019 8.07045E+01 3.09687E+00 0.00000E+00
 -1      2020 7.92045E+01 3.09687E+00 0.00000E+00
 -1      2021 7.90350E+01 4.00625E+00 0.00000E+00
 -1      2022 8.37045E+01 3.09687E+00 0.00000E+00
 -1      2023 8.22045E+01 3.09687E+00 0.00000E+00
 -1      2024 8.20350E+01 4.00625E+00 0.00000E+00
 -1      2025 8.67045E+01 3.09687E+00 0.00000E+00
 -1      2026 8.52045E+01 3.09687E+00 0.00000E+00
 -1      2027 8.50350E+01 4.00625E+00 0.00000E+00
 -1      2028 8.97045E+01 3.09687E+00 0.00000E+00
 -1      2029 8.82045E+01 3.09687E+00 0.00000E+00
 -1      2030 8.80350E+01 4.00625E+00 0.00000E+00
 -1      2031 9.27045E+01 3.09687E+00 0.00000E+00
 -1      2032 9.12045E+01 3.09687E+00 0.00000E+00
 -1      2033 9.10350E+01 4.00625E+00 0.00000E+00
 -1      2034 9.57045E+01 3.09687E+00 0.00000E+00
 -1      2035 9.42045E+01 3.09687E+00 0.00000E+00
 -1      2036 9.40350E+01 4.00625E+00 0.00000E+00
 -1      2037 9.87045E+01 3.09687E+00 0.00000E+00
 -1      2038 9.72045E+01 3.09687E+00 0.00000E+00
 -1      2039 9.70350E+01 4.00625E+00 0.00000E+00
 -1      2040 1.01704E+02 3.09687E+00 0.00000E+00
 -1      2041 1.00204E+02 3.09687E+00 0.00000E+00
 -1      2042 1.00035E+02 4.00625E+00 0.00000E+00
 -1      2043 1.04704E+02 3.09687E+00 0.00000E+00
 -1      2044 1.03204E+02 3.09687E+00 0.00000E+00
 -1      2045 1.03035E+02 4.00625E+00 0.00000E+00
 -1      2046 1.07704E+02 3.09687E+00 0.00000E+00
 -1      2047 1.06204E+02 3.09687E+00 0.00000E+00
 -1      2048 1.06035E+02 4.00625E+00 0.00000E+00
 -1      2049 1.10704E+02 3.09687E+00 0.00000E+00
 -1      2050 1.09204E+02 3.09687E+00 0.00000E+00
 -1      2051 1.09035E+02 4.00625E+00 0.00000E+00
 -1      2052 1.13704E+02 3.09687E+00 0.00000E+00
 -1      2053 1.12204E+02 3.09687E+00 0.00000E+00
 -1      2054 1.12035E+02 4.00625E+00 0.00000E+00
 -1      2055 1.16704E+02 3.09687E+00 0.00000E+00
 -1      2056 1.15204E+02 3.09687E+00 0.00000E+00
 -1      2057 1.15035E+02 4.00625E+00 0.00000E+00
 -1      2058 1.19704E+02 3.09687E+00 0.00000E+00
 -1      2059 1.18204E+02 3.09687E+00 0.00000E+00
 -1      2060 1.18035E+02 4.00625E+00 0.00000E+00
 -1      2061 1.22704E+02 3.09687E+00 0.00000E+00
 -1      2062 1.21204E+02 3.09687E+00 0.00000E+00
 -1      2063 1.21035E+02 4.00625E+00 0.00000E+00
 -1      2064 1.25704E+02 3.09687E+00 0.00000E+00
 -1      2065 1.24204E+02 3.09687E+00 0.00000E+00
 -1      2066 1.24035E+02 4.00625E+00 0.00000E+00
 -1      2067 1.28704E+02 3.09687E+00 0.00000E+00
 -1      2068 1.27204E+02 3.09687E+00 0.00000E+00
 -1      2069 1.27035E+02 4.00625E+00 0.00000E+00
 -1      2070 1.31704E+02 3.09687E+00 0.00000E+00
 -1      2071 1.30204E+02 3.09687E+00 0.00000E+00
 -1      2072 1.30035E+02 4.00625E+00 0.00000E+00
 -1      2073 1.34704E+02 3.09687E+00 0.00000E+00
 -1      2074 1.33204E+02 3.09687E+00 0.00000E+00
 -1      2075 1.33035E+02 4.00625E+00 0.00000E+00
 -1      2076 1.37704E+02 3.09687E+00 0.00000E+00
 -1      2077 1.36204E+02 3.09687E+00 0.00000E+00
 -1      2078 1.36035E+02 4.00625E+00 0.00000E+00
 -1      2079 1.40704E+02 3.09687E+00 0.00000E+00
 -1      2080 1.39204E+02 3.09687E+00 0.00000E+00
 -1      2081 1.39035E+02 4.00625E+00 0.00000E+00
 -1      2082 1.43704E+02 3.09687E+00 0.00000E+00
 -1      2083 1.42204E+02 3.09687E+00 0.00000E+00
 -1      2084 1.42035E+02 4.00625E+00 0.00000E+00
 -1      2085 1.46171E+02 3.20156E+00 0.00000E+00
 -1      2086 1.44671E+02 3.20156E+00 0.00000E+00
 -1      2087 1.44502E+02 4.11094E+00 0.00000E+00
 -1      2088 1.46435E+02 4.32031E+00 0.00000E+00
 -1      2089 1.46103E+02 1.25375E+01 0.00000E+00
 -1      2090 1.46103E+02 1.10625E+01 0.00000E+00
 -1      2091 1.46103E+02 9.58750E+00 0.00000E+00
 -1      2092 1.46103E+02 8.11250E+00 0.00000E+00
 -1      2093 1.44804E+02 1.03250E+01 0.00000E+00
 -1      2094 1.46269E+02 6.95391E+00 0.00000E+00
 -1      2095 1.46269E+02 5.47891E+00 0.00000E+00
 -1      2096 1.45302E+02 5.37422E+00 0.00000E+00
 -1      2097 1.44970E+02 7.69141E+00 0.00000E+00
 -1      2098 1.46103E+02 1.54375E+01 0.00000E+00
 -1      2099 1.46103E+02 1.39875E+01 0.00000E+00
 -1      2100 1.44804E+02 1.32500E+01 0.00000E+00
 -1      2101 1.46103E+02 1.83875E+01 0.00000E+00
 -1      2102 1.46103E+02 1.69125E+01 0.00000E+00
 -1      2103 1.44804E+02 1.61750E+01 0.00000E+00
 -1      2104 1.46103E+02 2.13375E+01 0.00000E+00
 -1      2105 1.46103E+02 1.98625E+01 0.00000E+00
 -1      2106 1.44804E+02 1.91250E+01 0.00000E+00
 -1      2107 1.46103E+02 2.42875E+01 0.00000E+00
 -1      2108 1.46103E+02 2.28125E+01 0.00000E+00
 -1      2109 1.44804E+02 2.20750E+01 0.00000E+00
 -1      2110 1.46103E+02 2.72375E+01 0.00000E+00
 -1      2111 1.46103E+02 2.57625E+01 0.00000E+00
 -1      2112 1.44804E+02 2.50250E+01 0.00000E+00
 -1      2113 1.46103E+02 3.01875E+01 0.00000E+00
 -1      2114 1.46103E+02 2.87125E+01 0.00000E+00
 -1      2115 1.44804E+02 2.79750E+01 0.00000E+00
 -1      2116 1.46103E+02 3.30875E+01 0.00000E+00
 -1      2117 1.46103E+02 3.16375E+01 0.00000E+00
 -1      2118 1.44804E+02 3.09000E+01 0.00000E+00
 -1      2119 1.46103E+02 3.60375E+01 0.00000E+00
 -1      2120 1.46103E+02 3.45625E+01 0.00000E+00
 -1      2121 1.44804E+02 3.38250E+01 0.00000E+00
 -1      2122 1.46103E+02 3.89875E+01 0.00000E+00
 -1      2123 1.46103E+02 3.75125E+01 0.00000E+00
 -1      2124 1.44804E+02 3.67750E+01 0.00000E+00
 -1      2125 1.46103E+02 4.19375E+01 0.00000E+00
 -1      2126 1.46103E+02 4.04625E+01 0.00000E+00
 -1      2127 1.44804E+02 3.97250E+01 0.00000E+00
 -1      2128 1.18415E+02 2.43936E+01 0.00000E+00
 -1      2129 1.18912E+02 2.51760E+01 0.00000E+00
 -1      2130 1.19561E+02 2.81467E+01 0.00000E+00
 -1      2131 1.19605E+02 2.89979E+01 0.00000E+00
 -1      2132 1.19491E+02 2.62961E+01 0.00000E+00
 -1      2133 1.19526E+02 2.72214E+01 0.00000E+00
 -1      2134 1.20404E+02 2.76030E+01 0.00000E+00
 -1      2135 1.17528E+02 2.27675E+01 0.00000E+00
 -1      2136 1.18024E+02 2.35450E+01 0.00000E+00
 -1      2137 1.03738E+02 3.45407E+01 0.00000E+00
 -1      2138 1.03218E+02 3.40312E+01 0.00000E+00
 -1      2139 1.08792E+02 3.72712E+01 0.00000E+00
 -1      2140 1.07948E+02 3.70561E+01 0.00000E+00
 -1      2141 1.15900E+02 2.14174E+01 0.00000E+00
 -1      2142 1.16662E+02 2.19001E+01 0.00000E+00
 -1      2143 3.89700E+00 3.74688E+01 0.00000E+00
 -1      2144 3.89700E+00 3.89437E+01 0.00000E+00
 -1      2145 5.19600E+00 3.96813E+01 0.00000E+00
 -1      2146 5.19600E+00 3.67438E+01 0.00000E+00
 -1      2147 1.12596E+02 1.99214E+01 0.00000E+00
 -1      2148 1.13421E+02 2.01178E+01 0.00000E+00
 -1      2149 1.10855E+02 1.96368E+01 0.00000E+00
 -1      2150 1.11726E+02 1.97791E+01 0.00000E+00
 -1      2151 1.12317E+02 1.91246E+01 0.00000E+00
 -1      2152 1.08800E+02 1.99735E+01 0.00000E+00
 -1      2153 1.09676E+02 1.97651E+01 0.00000E+00
 -1      2154 1.06996E+02 2.03449E+01 0.00000E+00
 -1      2155 1.07839E+02 2.00701E+01 0.00000E+00
 -1      2156 1.05252E+02 2.13309E+01 0.00000E+00
 -1      2157 1.05970E+02 2.08172E+01 0.00000E+00
 -1      2158 1.03958E+02 2.26936E+01 0.00000E+00
 -1      2159 1.04567E+02 2.20782E+01 0.00000E+00
 -1      2160 1.02936E+02 2.42392E+01 0.00000E+00
 -1      2161 1.03398E+02 2.35229E+01 0.00000E+00
 -1      2162 1.02143E+02 2.58817E+01 0.00000E+00
 -1      2163 1.02484E+02 2.50889E+01 0.00000E+00
 -1      2164 1.01663E+02 2.77619E+01 0.00000E+00
 -1      2165 1.01753E+02 2.68904E+01 0.00000E+00
 -1      2166 1.01652E+02 2.95457E+01 0.00000E+00
 -1      2167 1.01682E+02 2.86838E+01 0.00000E+00
 -1      2168 1.01976E+02 3.14863E+01 0.00000E+00
 -1      2169 1.01675E+02 3.07004E+01 0.00000E+00
 -1      2170 1.02490E+02 3.31970E+01 0.00000E+00
 -1      2171 1.02233E+02 3.23416E+01 0.00000E+00
 -1      2172 1.01281E+02 3.22550E+01 0.00000E+00
 -1      2173 1.07008E+02 3.67774E+01 0.00000E+00
 -1      2174 1.06219E+02 3.64318E+01 0.00000E+00
 -1      2175 1.10629E+02 3.75662E+01 0.00000E+00
 -1      2176 1.09741E+02 3.74517E+01 0.00000E+00
 -1      2177 1.12604E+02 3.73436E+01 0.00000E+00
 -1      2178 1.11780E+02 3.75712E+01 0.00000E+00
 -1      2179 1.14124E+02 3.68317E+01 0.00000E+00
 -1      2180 1.13364E+02 3.70876E+01 0.00000E+00
 -1      2181 1.13158E+02 3.79473E+01 0.00000E+00
 -1      2182 1.15701E+02 3.58362E+01 0.00000E+00
 -1      2183 1.15056E+02 3.63002E+01 0.00000E+00
 -1      2184 1.17003E+02 3.48024E+01 0.00000E+00
 -1      2185 1.16352E+02 3.53193E+01 0.00000E+00
 -1      2186 1.16432E+02 3.61115E+01 0.00000E+00
 -1      2187 1.18206E+02 3.32856E+01 0.00000E+00
 -1      2188 1.17802E+02 3.40179E+01 0.00000E+00
 -1      2189 1.19073E+02 3.18846E+01 0.00000E+00
 -1      2190 1.18639E+02 3.25851E+01 0.00000E+00
 -1      2191 1.19115E+02 3.33252E+01 0.00000E+00
 -1      2192 1.19371E+02 2.99531E+01 0.00000E+00
 -1      2193 1.19285E+02 3.07917E+01 0.00000E+00
 -1      2194 1.14449E+02 2.05566E+01 0.00000E+00
 -1      2195 1.15174E+02 2.09870E+01 0.00000E+00
 -1      2196 1.15969E+02 2.05749E+01 0.00000E+00
 -1      2197 1.03669E+02 3.54708E+01 0.00000E+00
 -1      2198 1.05332E+02 3.67189E+01 0.00000E+00
 -1      2199 6.42300E+00 4.57510E+01 0.00000E+00
 -1      2200 7.17300E+00 4.44520E+01 0.00000E+00
 -1      2201 1.19790E+02 2.55575E+01 0.00000E+00
 -1      2202 1.20668E+02 2.59391E+01 0.00000E+00
 -1      2203 1.20089E+02 2.48189E+01 0.00000E+00
 -1      2204 1.18819E+02 2.35888E+01 0.00000E+00
 -1      2205 1.45665E+02 4.31193E+01 0.00000E+00
 -1      2206 1.20206E+02 2.94836E+01 0.00000E+00
 -1      2207 1.17562E+02 2.18727E+01 0.00000E+00
 -1      2208 1.02267E+02 3.39446E+01 0.00000E+00
 -1      2209 1.14216E+02 1.97057E+01 0.00000E+00
 -1      2210 1.19761E+02 3.15317E+01 0.00000E+00
 -1      2211 1.17882E+02 3.48101E+01 0.00000E+00
 -1      2212 1.14850E+02 3.71599E+01 0.00000E+00
 -1      2213 1.11247E+02 3.81983E+01 0.00000E+00
 -1      2214 1.01001E+02 3.02449E+01 0.00000E+00
 -1      2215 1.07260E+02 3.75536E+01 0.00000E+00
 -1      2216 1.00958E+02 2.81684E+01 0.00000E+00
 -1      2217 1.01328E+02 2.62379E+01 0.00000E+00
 -1      2218 1.02170E+02 2.43795E+01 0.00000E+00
 -1      2219 1.03182E+02 2.27004E+01 0.00000E+00
 -1      2220 1.04427E+02 2.11238E+01 0.00000E+00
 -1      2221 1.06138E+02 1.99043E+01 0.00000E+00
 -1      2222 1.09148E+02 3.80128E+01 0.00000E+00
 -1      2223 1.10267E+02 1.91106E+01 0.00000E+00
 -1      2224 1.10859E+02 1.84560E+01 0.00000E+00
 -1      2225 1.09679E+02 1.85843E+01 0.00000E+00
 -1      2226 1.08126E+02 1.93355E+01 0.00000E+00
 -1      2227 1.07850E+01 5.30525E+00 0.00000E+00
 -1      2228 9.28500E+00 5.30525E+00 0.00000E+00
 -1      2229 6.49500E+00 3.01125E+01 0.00000E+00
 -1      2230 6.49500E+00 3.15875E+01 0.00000E+00
 -1      2231 6.49500E+00 3.30625E+01 0.00000E+00
 -1      2232 6.49500E+00 3.45375E+01 0.00000E+00
 -1      2233 7.79400E+00 3.23250E+01 0.00000E+00
 -1      2234 6.49500E+00 2.42125E+01 0.00000E+00
 -1      2235 6.49500E+00 2.56875E+01 0.00000E+00
 -1      2236 6.49500E+00 2.12625E+01 0.00000E+00
 -1      2237 6.49500E+00 2.27375E+01 0.00000E+00
 -1      2238 7.79400E+00 2.34750E+01 0.00000E+00
 -1      2239 6.49500E+00 1.83625E+01 0.00000E+00
 -1      2240 6.49500E+00 1.98125E+01 0.00000E+00
 -1      2241 7.79400E+00 2.05500E+01 0.00000E+00
 -1      2242 6.49500E+00 1.54125E+01 0.00000E+00
 -1      2243 6.49500E+00 1.68875E+01 0.00000E+00
 -1      2244 7.79400E+00 1.76250E+01 0.00000E+00
 -1      2245 6.49500E+00 1.24625E+01 0.00000E+00
 -1      2246 6.49500E+00 1.39375E+01 0.00000E+00
 -1      2247 7.79400E+00 1.46750E+01 0.00000E+00
 -1      2248 6.49500E+00 9.51250E+00 0.00000E+00
 -1      2249 6.49500E+00 1.09875E+01 0.00000E+00
 -1      2250 7.79400E+00 1.17250E+01 0.00000E+00
 -1      2251 9.90000E+00 4.35050E+01 0.00000E+00
 -1      2252 1.14000E+01 4.35050E+01 0.00000E+00
 -1      2253 1.05405E+02 3.77442E+01 0.00000E+00
 -1      2254 1.04417E+02 3.71881E+01 0.00000E+00
 -1      2255 1.37850E+01 5.30525E+00 0.00000E+00
 -1      2256 1.22850E+01 5.30525E+00 0.00000E+00
 -1      2257 1.15350E+01 6.60425E+00 0.00000E+00
 -1      2258 6.55950E+00 4.28890E+01 0.00000E+00
 -1      2259 8.53650E+00 4.32410E+01 0.00000E+00
 -1      2260 9.28650E+00 4.19420E+01 0.00000E+00
 -1      2261 6.55950E+00 4.14140E+01 0.00000E+00
 -1      2262 1.29000E+01 4.35050E+01 0.00000E+00
 -1      2263 1.44000E+01 4.35050E+01 0.00000E+00
 -1      2264 1.21500E+01 4.22060E+01 0.00000E+00
 -1      2265 1.59000E+01 4.35050E+01 0.00000E+00
 -1      2266 1.74000E+01 4.35050E+01 0.00000E+00
 -1      2267 1.51500E+01 4.22060E+01 0.00000E+00
 -1      2268 1.89000E+01 4.35050E+01 0.00000E+00
 -1      2269 2.04000E+01 4.35050E+01 0.00000E+00
 -1      2270 1.81500E+01 4.22060E+01 0.00000E+00
 -1      2271 2.19000E+01 4.35050E+01 0.00000E+00
 -1      2272 2.34000E+01 4.35050E+01 0.00000E+00
 -1      2273 2.11500E+01 4.22060E+01 0.00000E+00
 -1      2274 2.49000E+01 4.35050E+01 0.00000E+00
 -1      2275 2.64000E+01 4.35050E+01 0.00000E+00
 -1      2276 2.41500E+01 4.22060E+01 0.00000E+00
 -1      2277 2.79000E+01 4.35050E+01 0.00000E+00
 -1      2278 2.94000E+01 4.35050E+01 0.00000E+00
 -1      2279 2.71500E+01 4.22060E+01 0.00000E+00
 -1      2280 3.09000E+01 4.35050E+01 0.00000E+00
 -1      2281 3.24000E+01 4.35050E+01 0.00000E+00
 -1      2282 3.01500E+01 4.22060E+01 0.00000E+00
 -1      2283 3.39000E+01 4.35050E+01 0.00000E+00
 -1      2284 3.54000E+01 4.35050E+01 0.00000E+00
 -1      2285 3.31500E+01 4.22060E+01 0.00000E+00
 -1      2286 3.69000E+01 4.35050E+01 0.00000E+00
 -1      2287 3.84000E+01 4.35050E+01 0.00000E+00
 -1      2288 3.61500E+01 4.22060E+01 0.00000E+00
 -1      2289 3.99000E+01 4.35050E+01 0.00000E+00
 -1      2290 4.14000E+01 4.35050E+01 0.00000E+00
 -1      2291 3.91500E+01 4.22060E+01 0.00000E+00
 -1      2292 4.29000E+01 4.35050E+01 0.00000E+00
 -1      2293 4.44000E+01 4.35050E+01 0.00000E+00
 -1      2294 4.21500E+01 4.22060E+01 0.00000E+00
 -1      2295 4.59000E+01 4.35050E+01 0.00000E+00
 -1      2296 4.74000E+01 4.35050E+01 0.00000E+00
 -1      2297 4.51500E+01 4.22060E+01 0.00000E+00
 -1      2298 4.89000E+01 4.35050E+01 0.00000E+00
 -1      2299 5.04000E+01 4.35050E+01 0.00000E+00
 -1      2300 4.81500E+01 4.22060E+01 0.00000E+00
 -1      2301 5.19000E+01 4.35050E+01 0.00000E+00
 -1      2302 5.34000E+01 4.35050E+01 0.00000E+00
 -1      2303 5.11500E+01 4.22060E+01 0.00000E+00
 -1      2304 5.49000E+01 4.35050E+01 0.00000E+00
 -1      2305 5.64000E+01 4.35050E+01 0.00000E+00
 -1      2306 5.41500E+01 4.22060E+01 0.00000E+00
 -1      2307 5.79000E+01 4.35050E+01 0.00000E+00
 -1      2308 5.94000E+01 4.35050E+01 0.00000E+00
 -1      2309 5.71500E+01 4.22060E+01 0.00000E+00
 -1      2310 6.09000E+01 4.35050E+01 0.00000E+00
 -1      2311 6.24000E+01 4.35050E+01 0.00000E+00
 -1      2312 6.01500E+01 4.22060E+01 0.00000E+00
 -1      2313 6.39000E+01 4.35050E+01 0.00000E+00
 -1      2314 6.54000E+01 4.35050E+01 0.00000E+00
 -1      2315 6.31500E+01 4.22060E+01 0.00000E+00
 -1      2316 6.69000E+01 4.35050E+01 0.00000E+00
 -1      2317 6.84000E+01 4.35050E+01 0.00000E+00
 -1      2318 6.61500E+01 4.22060E+01 0.00000E+00
 -1      2319 6.99000E+01 4.35050E+01 0.00000E+00
 -1      2320 7.14000E+01 4.35050E+01 0.00000E+00
 -1      2321 6.91500E+01 4.22060E+01 0.00000E+00
 -1      2322 7.29000E+01 4.35050E+01 0.00000E+00
 -1      2323 7.44000E+01 4.35050E+01 0.00000E+00
 -1      2324 7.21500E+01 4.22060E+01 0.00000E+00
 -1      2325 7.59000E+01 4.35050E+01 0.00000E+00
 -1      2326 7.74000E+01 4.35050E+01 0.00000E+00
 -1      2327 7.51500E+01 4.22060E+01 0.00000E+00
 -1      2328 7.89000E+01 4.35050E+01 0.00000E+00
 -1      2329 8.04000E+01 4.35050E+01 0.00000E+00
 -1      2330 7.81500E+01 4.22060E+01 0.00000E+00
 -1      2331 8.19000E+01 4.35050E+01 0.00000E+00
 -1      2332 8.34000E+01 4.35050E+01 0.00000E+00
 -1      2333 8.11500E+01 4.22060E+01 0.00000E+00
 -1      2334 8.49000E+01 4.35050E+01 0.00000E+00
 -1      2335 8.64000E+01 4.35050E+01 0.00000E+00
 -1      2336 8.41500E+01 4.22060E+01 0.00000E+00
 -1      2337 8.79000E+01 4.35050E+01 0.00000E+00
 -1      2338 8.94000E+01 4.35050E+01 0.00000E+00
 -1      2339 8.71500E+01 4.22060E+01 0.00000E+00
 -1      2340 9.09000E+01 4.35050E+01 0.00000E+00
 -1      2341 9.24000E+01 4.35050E+01 0.00000E+00
 -1      2342 9.01500E+01 4.22060E+01 0.00000E+00
 -1      2343 9.39000E+01 4.35050E+01 0.00000E+00
 -1      2344 9.54000E+01 4.35050E+01 0.00000E+00
 -1      2345 9.31500E+01 4.22060E+01 0.00000E+00
 -1      2346 9.69000E+01 4.35050E+01 0.00000E+00
 -1      2347 9.84000E+01 4.35050E+01 0.00000E+00
 -1      2348 9.61500E+01 4.22060E+01 0.00000E+00
 -1      2349 9.99000E+01 4.35050E+01 0.00000E+00
 -1      2350 1.01400E+02 4.35050E+01 0.00000E+00
 -1      2351 9.91500E+01 4.22060E+01 0.00000E+00
 -1      2352 1.02900E+02 4.35050E+01 0.00000E+00
 -1      2353 1.04400E+02 4.35050E+01 0.00000E+00
 -1      2354 1.02150E+02 4.22060E+01 0.00000E+00
 -1      2355 1.05900E+02 4.35050E+01 0.00000E+00
 -1      2356 1.07400E+02 4.35050E+01 0.00000E+00
 -1      2357 1.05150E+02 4.22060E+01 0.00000E+00
 -1      2358 1.08900E+02 4.35050E+01 0.00000E+00
 -1      2359 1.10400E+02 4.35050E+01 0.00000E+00
 -1      2360 1.08150E+02 4.22060E+01 0.00000E+00
 -1      2361 1.11900E+02 4.35050E+01 0.00000E+00
 -1      2362 1.13400E+02 4.35050E+01 0.00000E+00
 -1      2363 1.11150E+02 4.22060E+01 0.00000E+00
 -1      2364 1.14900E+02 4.35050E+01 0.00000E+00
 -1      2365 1.16400E+02 4.35050E+01 0.00000E+00
 -1      2366 1.14150E+02 4.22060E+01 0.00000E+00
 -1      2367 1.17900E+02 4.35050E+01 0.00000E+00
 -1      2368 1.19400E+02 4.35050E+01 0.00000E+00
 -1      2369 1.17150E+02 4.22060E+01 0.00000E+00
 -1      2370 1.20900E+02 4.35050E+01 0.00000E+00
 -1      2371 1.22400E+02 4.35050E+01 0.00000E+00
 -1      2372 1.20150E+02 4.22060E+01 0.00000E+00
 -1      2373 1.23900E+02 4.35050E+01 0.00000E+00
 -1      2374 1.25400E+02 4.35050E+01 0.00000E+00
 -1      2375 1.23150E+02 4.22060E+01 0.00000E+00
 -1      2376 1.26900E+02 4.35050E+01 0.00000E+00
 -1      2377 1.28400E+02 4.35050E+01 0.00000E+00
 -1      2378 1.26150E+02 4.22060E+01 0.00000E+00
 -1      2379 1.29900E+02 4.35050E+01 0.00000E+00
 -1      2380 1.31400E+02 4.35050E+01 0.00000E+00
 -1      2381 1.29150E+02 4.22060E+01 0.00000E+00
 -1      2382 1.32900E+02 4.35050E+01 0.00000E+00
 -1      2383 1.34400E+02 4.35050E+01 0.00000E+00
 -1      2384 1.32150E+02 4.22060E+01 0.00000E+00
 -1      2385 1.35900E+02 4.35050E+01 0.00000E+00
 -1      2386 1.37400E+02 4.35050E+01 0.00000E+00
 -1      2387 1.35150E+02 4.22060E+01 0.00000E+00
 -1      2388 1.38900E+02 4.35050E+01 0.00000E+00
 -1      2389 1.40400E+02 4.35050E+01 0.00000E+00
 -1      2390 1.38150E+02 4.22060E+01 0.00000E+00
 -1      2391 1.97850E+01 5.30525E+00 0.00000E+00
 -1      2392 1.82850E+01 5.30525E+00 0.00000E+00
 -1      2393 2.27850E+01 5.30525E+00 0.00000E+00
 -1      2394 2.12850E+01 5.30525E+00 0.00000E+00
 -1      2395 2.05350E+01 6.60425E+00 0.00000E+00
 -1      2396 2.57850E+01 5.30525E+00 0.00000E+00
 -1      2397 2.42850E+01 5.30525E+00 0.00000E+00
 -1      2398 2.35350E+01 6.60425E+00 0.00000E+00
 -1      2399 2.87850E+01 5.30525E+00 0.00000E+00
 -1      2400 2.72850E+01 5.30525E+00 0.00000E+00
 -1      2401 2.65350E+01 6.60425E+00 0.00000E+00
 -1      2402 3.17850E+01 5.30525E+00 0.00000E+00
 -1      2403 3.02850E+01 5.30525E+00 0.00000E+00
 -1      2404 2.95350E+01 6.60425E+00 0.00000E+00
 -1      2405 3.47850E+01 5.30525E+00 0.00000E+00
 -1      2406 3.32850E+01 5.30525E+00 0.00000E+00
 -1      2407 3.25350E+01 6.60425E+00 0.00000E+00
 -1      2408 3.77850E+01 5.30525E+00 0.00000E+00
 -1      2409 3.62850E+01 5.30525E+00 0.00000E+00
 -1      2410 3.55350E+01 6.60425E+00 0.00000E+00
 -1      2411 4.07850E+01 5.30525E+00 0.00000E+00
 -1      2412 3.92850E+01 5.30525E+00 0.00000E+00
 -1      2413 3.85350E+01 6.60425E+00 0.00000E+00
 -1      2414 4.37850E+01 5.30525E+00 0.00000E+00
 -1      2415 4.22850E+01 5.30525E+00 0.00000E+00
 -1      2416 4.15350E+01 6.60425E+00 0.00000E+00
 -1      2417 4.67850E+01 5.30525E+00 0.00000E+00
 -1      2418 4.52850E+01 5.30525E+00 0.00000E+00
 -1      2419 4.45350E+01 6.60425E+00 0.00000E+00
 -1      2420 4.97850E+01 5.30525E+00 0.00000E+00
 -1      2421 4.82850E+01 5.30525E+00 0.00000E+00
 -1      2422 4.75350E+01 6.60425E+00 0.00000E+00
 -1      2423 5.27850E+01 5.30525E+00 0.00000E+00
 -1      2424 5.12850E+01 5.30525E+00 0.00000E+00
 -1      2425 5.05350E+01 6.60425E+00 0.00000E+00
 -1      2426 5.57850E+01 5.30525E+00 0.00000E+00
 -1      2427 5.42850E+01 5.30525E+00 0.00000E+00
 -1      2428 5.35350E+01 6.60425E+00 0.00000E+00
 -1      2429 5.87850E+01 5.30525E+00 0.00000E+00
 -1      2430 5.72850E+01 5.30525E+00 0.00000E+00
 -1      2431 5.65350E+01 6.60425E+00 0.00000E+00
 -1      2432 6.17850E+01 5.30525E+00 0.00000E+00
 -1      2433 6.02850E+01 5.30525E+00 0.00000E+00
 -1      2434 5.95350E+01 6.60425E+00 0.00000E+00
 -1      2435 6.47850E+01 5.30525E+00 0.00000E+00
 -1      2436 6.32850E+01 5.30525E+00 0.00000E+00
 -1      2437 6.25350E+01 6.60425E+00 0.00000E+00
 -1      2438 6.77850E+01 5.30525E+00 0.00000E+00
 -1      2439 6.62850E+01 5.30525E+00 0.00000E+00
 -1      2440 6.55350E+01 6.60425E+00 0.00000E+00
 -1      2441 7.07850E+01 5.30525E+00 0.00000E+00
 -1      2442 6.92850E+01 5.30525E+00 0.00000E+00
 -1      2443 6.85350E+01 6.60425E+00 0.00000E+00
 -1      2444 7.37850E+01 5.30525E+00 0.00000E+00
 -1      2445 7.22850E+01 5.30525E+00 0.00000E+00
 -1      2446 7.15350E+01 6.60425E+00 0.00000E+00
 -1      2447 7.67850E+01 5.30525E+00 0.00000E+00
 -1      2448 7.52850E+01 5.30525E+00 0.00000E+00
 -1      2449 7.45350E+01 6.60425E+00 0.00000E+00
 -1      2450 7.97850E+01 5.30525E+00 0.00000E+00
 -1      2451 7.82850E+01 5.30525E+00 0.00000E+00
 -1      2452 7.75350E+01 6.60425E+00 0.00000E+00
 -1      2453 8.27850E+01 5.30525E+00 0.00000E+00
 -1      2454 8.12850E+01 5.30525E+00 0.00000E+00
 -1      2455 8.05350E+01 6.60425E+00 0.00000E+00
 -1      2456 8.57850E+01 5.30525E+00 0.00000E+00
 -1      2457 8.42850E+01 5.30525E+00 0.00000E+00
 -1      2458 8.35350E+01 6.60425E+00 0.00000E+00
 -1      2459 8.87850E+01 5.30525E+00 0.00000E+00
 -1      2460 8.72850E+01 5.30525E+00 0.00000E+00
 -1      2461 8.65350E+01 6.60425E+00 0.00000E+00
 -1      2462 9.17850E+01 5.30525E+00 0.00000E+00
 -1      2463 9.02850E+01 5.30525E+00 0.00000E+00
 -1      2464 8.95350E+01 6.60425E+00 0.00000E+00
 -1      2465 9.47850E+01 5.30525E+00 0.00000E+00
 -1      2466 9.32850E+01 5.30525E+00 0.00000E+00
 -1      2467 9.25350E+01 6.60425E+00 0.00000E+00
 -1      2468 9.77850E+01 5.30525E+00 0.00000E+00
 -1      2469 9.62850E+01 5.30525E+00 0.00000E+00
 -1      2470 9.55350E+01 6.60425E+00 0.00000E+00
 -1      2471 1.00785E+02 5.30525E+00 0.00000E+00
 -1      2472 9.92850E+01 5.30525E+00 0.00000E+00
 -1      2473 9.85350E+01 6.60425E+00 0.00000E+00
 -1      2474 1.03785E+02 5.30525E+00 0.00000E+00
 -1      2475 1.02285E+02 5.30525E+00 0.00000E+00
 -1      2476 1.01535E+02 6.60425E+00 0.00000E+00
 -1      2477 1.06785E+02 5.30525E+00 0.00000E+00
 -1      2478 1.05285E+02 5.30525E+00 0.00000E+00
 -1      2479 1.04535E+02 6.60425E+00 0.00000E+00
 -1      2480 1.09785E+02 5.30525E+00 0.00000E+00
 -1      2481 1.08285E+02 5.30525E+00 0.00000E+00
 -1      2482 1.07535E+02 6.60425E+00 0.00000E+00
 -1      2483 1.12785E+02 5.30525E+00 0.00000E+00
 -1      2484 1.11285E+02 5.30525E+00 0.00000E+00
 -1      2485 1.10535E+02 6.60425E+00 0.00000E+00
 -1      2486 1.15785E+02 5.30525E+00 0.00000E+00
 -1      2487 1.14285E+02 5.30525E+00 0.00000E+00
 -1      2488 1.13535E+02 6.60425E+00 0.00000E+00
 -1      2489 1.18785E+02 5.30525E+00 0.00000E+00
 -1      2490 1.17285E+02 5.30525E+00 0.00000E+00
 -1      2491 1.16535E+02 6.60425E+00 0.00000E+00
 -1      2492 1.21785E+02 5.30525E+00 0.00000E+00
 -1      2493 1.20285E+02 5.30525E+00 0.00000E+00
 -1      2494 1.19535E+02 6.60425E+00 0.00000E+00
 -1      2495 1.24785E+02 5.30525E+00 0.00000E+00
 -1      2496 1.23285E+02 5.30525E+00 0.00000E+00
 -1      2497 1.22535E+02 6.60425E+00 0.00000E+00
 -1      2498 1.27785E+02 5.30525E+00 0.00000E+00
 -1      2499 1.26285E+02 5.30525E+00 0.00000E+00
 -1      2500 1.25535E+02 6.60425E+00 0.00000E+00
 -1      2501 1.30785E+02 5.30525E+00 0.00000E+00
 -1      2502 1.29285E+02 5.30525E+00 0.00000E+00
 -1      2503 1.28535E+02 6.60425E+00 0.00000E+00
 -1      2504 1.33785E+02 5.30525E+00 0.00000E+00
 -1      2505 1.32285E+02 5.30525E+00 0.00000E+00
 -1      2506 1.31535E+02 6.60425E+00 0.00000E+00
 -1      2507 1.36785E+02 5.30525E+00 0.00000E+00
 -1      2508 1.35285E+02 5.30525E+00 0.00000E+00
 -1      2509 1.34535E+02 6.60425E+00 0.00000E+00
 -1      2510 1.39785E+02 5.30525E+00 0.00000E+00
 -1      2511 1.38285E+02 5.30525E+00 0.00000E+00
 -1      2512 1.37535E+02 6.60425E+00 0.00000E+00
 -1      2513 1.42785E+02 5.30525E+00 0.00000E+00
 -1      2514 1.41285E+02 5.30525E+00 0.00000E+00
 -1      2515 1.40535E+02 6.60425E+00 0.00000E+00
 -1      2516 1.44336E+02 5.26953E+00 0.00000E+00
 -1      2517 1.43505E+02 1.69125E+01 0.00000E+00
 -1      2518 1.43505E+02 1.54375E+01 0.00000E+00
 -1      2519 1.43505E+02 1.98625E+01 0.00000E+00
 -1      2520 1.43505E+02 1.83875E+01 0.00000E+00
 -1      2521 1.42206E+02 1.76500E+01 0.00000E+00
 -1      2522 1.43505E+02 1.10625E+01 0.00000E+00
 -1      2523 1.43505E+02 9.58750E+00 0.00000E+00
 -1      2524 1.43505E+02 1.39750E+01 0.00000E+00
 -1      2525 1.43505E+02 1.25250E+01 0.00000E+00
 -1      2526 1.42206E+02 1.17875E+01 0.00000E+00
 -1      2527 1.42206E+02 1.47125E+01 0.00000E+00
 -1      2528 1.43505E+02 2.28125E+01 0.00000E+00
 -1      2529 1.43505E+02 2.13375E+01 0.00000E+00
 -1      2530 1.42206E+02 2.06000E+01 0.00000E+00
 -1      2531 1.43505E+02 2.57625E+01 0.00000E+00
 -1      2532 1.43505E+02 2.42875E+01 0.00000E+00
 -1      2533 1.42206E+02 2.35500E+01 0.00000E+00
 -1      2534 1.43505E+02 2.87125E+01 0.00000E+00
 -1      2535 1.43505E+02 2.72375E+01 0.00000E+00
 -1      2536 1.42206E+02 2.65000E+01 0.00000E+00
 -1      2537 1.43505E+02 3.16125E+01 0.00000E+00
 -1      2538 1.43505E+02 3.01625E+01 0.00000E+00
 -1      2539 1.42206E+02 2.94250E+01 0.00000E+00
 -1      2540 1.43505E+02 3.45625E+01 0.00000E+00
 -1      2541 1.43505E+02 3.30875E+01 0.00000E+00
 -1      2542 1.42206E+02 3.23500E+01 0.00000E+00
 -1      2543 1.43505E+02 3.75125E+01 0.00000E+00
 -1      2544 1.43505E+02 3.60375E+01 0.00000E+00
 -1      2545 1.42206E+02 3.53000E+01 0.00000E+00
 -1      2546 1.43505E+02 4.04625E+01 0.00000E+00
 -1      2547 1.43505E+02 3.89875E+01 0.00000E+00
 -1      2548 1.42206E+02 3.82500E+01 0.00000E+00
 -1      2549 1.19403E+02 2.28055E+01 0.00000E+00
 -1      2550 1.19794E+02 2.36541E+01 0.00000E+00
 -1      2551 1.44321E+02 4.30606E+01 0.00000E+00
 -1      2552 1.21074E+02 2.91893E+01 0.00000E+00
 -1      2553 1.20841E+02 3.01446E+01 0.00000E+00
 -1      2554 1.67850E+01 5.30525E+00 0.00000E+00
 -1      2555 1.52850E+01 5.30525E+00 0.00000E+00
 -1      2556 1.75350E+01 6.60425E+00 0.00000E+00
 -1      2557 1.21411E+02 2.71019E+01 0.00000E+00
 -1      2558 1.21446E+02 2.80273E+01 0.00000E+00
 -1      2559 1.11819E+02 3.89745E+01 0.00000E+00
 -1      2560 1.10669E+02 3.89695E+01 0.00000E+00
 -1      2561 1.14006E+02 1.87747E+01 0.00000E+00
 -1      2562 1.15033E+02 1.92135E+01 0.00000E+00
 -1      2563 1.02016E+02 3.48981E+01 0.00000E+00
 -1      2564 1.01288E+02 3.40639E+01 0.00000E+00
 -1      2565 1.03422E+02 3.63861E+01 0.00000E+00
 -1      2566 1.02748E+02 3.56941E+01 0.00000E+00
 -1      2567 6.49500E+00 2.71625E+01 0.00000E+00
 -1      2568 6.49500E+00 2.86375E+01 0.00000E+00
 -1      2569 7.79400E+00 2.93750E+01 0.00000E+00
 -1      2570 7.79400E+00 2.64250E+01 0.00000E+00
 -1      2571 1.12020E+02 1.82071E+01 0.00000E+00
 -1      2572 1.12891E+02 1.83494E+01 0.00000E+00
 -1      2573 1.09478E+02 3.88632E+01 0.00000E+00
 -1      2574 1.08529E+02 3.86827E+01 0.00000E+00
 -1      2575 1.05231E+02 1.92853E+01 0.00000E+00
 -1      2576 1.06258E+02 1.88130E+01 0.00000E+00
 -1      2577 1.03390E+02 2.08615E+01 0.00000E+00
 -1      2578 1.04075E+02 2.01142E+01 0.00000E+00
 -1      2579 1.02226E+02 2.26587E+01 0.00000E+00
 -1      2580 1.02786E+02 2.18294E+01 0.00000E+00
 -1      2581 1.01187E+02 2.44015E+01 0.00000E+00
 -1      2582 1.01639E+02 2.35517E+01 0.00000E+00
 -1      2583 1.00407E+02 2.64187E+01 0.00000E+00
 -1      2584 1.00797E+02 2.54101E+01 0.00000E+00
 -1      2585 1.00266E+02 2.45823E+01 0.00000E+00
 -1      2586 1.07510E+02 3.84348E+01 0.00000E+00
 -1      2587 1.06570E+02 3.81561E+01 0.00000E+00
 -1      2588 1.00669E+02 3.29052E+01 0.00000E+00
 -1      2589 1.00412E+02 3.20499E+01 0.00000E+00
 -1      2590 1.00278E+02 2.86441E+01 0.00000E+00
 -1      2591 1.00258E+02 2.77222E+01 0.00000E+00
 -1      2592 1.07572E+02 1.86556E+01 0.00000E+00
 -1      2593 1.08534E+02 1.85589E+01 0.00000E+00
 -1      2594 1.20629E+02 3.12375E+01 0.00000E+00
 -1      2595 1.20416E+02 3.23304E+01 0.00000E+00
 -1      2596 1.21497E+02 3.09433E+01 0.00000E+00
 -1      2597 1.00239E+02 3.08380E+01 0.00000E+00
 -1      2598 1.00216E+02 2.96833E+01 0.00000E+00
 -1      2599 1.13838E+02 3.87114E+01 0.00000E+00
 -1      2600 1.13078E+02 3.89674E+01 0.00000E+00
 -1      2601 1.15702E+02 3.76485E+01 0.00000E+00
 -1      2602 1.14770E+02 3.81800E+01 0.00000E+00
 -1      2603 1.14691E+02 3.92001E+01 0.00000E+00
 -1      2604 1.17343E+02 3.65901E+01 0.00000E+00
 -1      2605 1.16692E+02 3.71070E+01 0.00000E+00
 -1      2606 1.18942E+02 3.50212E+01 0.00000E+00
 -1      2607 1.18142E+02 3.58056E+01 0.00000E+00
 -1      2608 1.18403E+02 3.68011E+01 0.00000E+00
 -1      2609 1.20025E+02 3.34040E+01 0.00000E+00
 -1      2610 1.19592E+02 3.41045E+01 0.00000E+00
 -1      2611 1.17913E+02 2.06553E+01 0.00000E+00
 -1      2612 1.18780E+02 2.15228E+01 0.00000E+00
 -1      2613 1.16044E+02 1.96221E+01 0.00000E+00
 -1      2614 1.16770E+02 2.00524E+01 0.00000E+00
 -1      2615 8.07525E+00 5.11044E+00 0.00000E+00
 -1      2616 6.57525E+00 5.11044E+00 0.00000E+00
 -1      2617 6.40575E+00 6.01981E+00 0.00000E+00
 -1      2618 8.82525E+00 6.40944E+00 0.00000E+00
 -1      2619 1.13709E+02 1.78572E+01 0.00000E+00
 -1      2620 7.79400E+00 3.52687E+01 0.00000E+00
 -1      2621 6.49500E+00 3.60062E+01 0.00000E+00
 -1      2622 6.49500E+00 3.74750E+01 0.00000E+00
 -1      2623 1.22081E+02 2.86883E+01 0.00000E+00
 -1      2624 6.40575E+00 7.49481E+00 0.00000E+00
 -1      2625 1.03496E+02 3.74114E+01 0.00000E+00
 -1      2626 1.19852E+02 3.50999E+01 0.00000E+00
 -1      2627 6.55950E+00 3.99453E+01 0.00000E+00
 -1      2628 1.16613E+02 3.81271E+01 0.00000E+00
 -1      2629 1.20672E+02 2.40357E+01 0.00000E+00
 -1      2630 9.95159E+01 2.92372E+01 0.00000E+00
 -1      2631 1.43586E+02 6.56853E+00 0.00000E+00
 -1      2632 1.43419E+02 7.72713E+00 0.00000E+00
 -1      2633 1.06666E+02 1.80365E+01 0.00000E+00
 -1      2634 1.19754E+02 2.15881E+01 0.00000E+00
 -1      2635 1.42758E+02 4.35929E+01 0.00000E+00
 -1      2636 1.43241E+02 4.17323E+01 0.00000E+00
 -1      2637 1.41942E+02 4.09948E+01 0.00000E+00
 -1      2638 1.41414E+02 4.35342E+01 0.00000E+00
 -1      2639 7.70475E+00 8.23231E+00 0.00000E+00
 -1      2640 1.45350E+01 6.60425E+00 0.00000E+00
 -1      2641 1.21710E+02 2.63633E+01 0.00000E+00
 -1      2642 1.22752E+02 2.67876E+01 0.00000E+00
 -1      2643 1.22009E+02 2.56247E+01 0.00000E+00
 -1      2644 1.00418E+02 3.38588E+01 0.00000E+00
 -1      2645 1.10050E+02 3.96394E+01 0.00000E+00
 -1      2646 9.97272E+01 2.68944E+01 0.00000E+00
 -1      2647 9.91963E+01 2.60667E+01 0.00000E+00
 -1      2648 9.90472E+01 2.73702E+01 0.00000E+00
 -1      2649 1.05655E+02 3.86254E+01 0.00000E+00
 -1      2650 1.15834E+02 1.86910E+01 0.00000E+00
 -1      2651 1.01243E+02 2.26807E+01 0.00000E+00
 -1      2652 1.02435E+02 2.08197E+01 0.00000E+00
 -1      2653 1.04195E+02 1.90229E+01 0.00000E+00
 -1      2654 1.01769E+02 3.58134E+01 0.00000E+00
 -1      2655 1.12500E+02 3.97387E+01 0.00000E+00
 -1      2656 1.09125E+02 1.79044E+01 0.00000E+00
 -1      2657 1.40664E+02 4.22352E+01 0.00000E+00
 -1      2658 1.11432E+02 1.76809E+01 0.00000E+00
 -1      2659 1.07839E+02 3.92852E+01 0.00000E+00
 -1      2660 9.96265E+01 3.14883E+01 0.00000E+00
 -1      2661 1.20893E+02 3.31097E+01 0.00000E+00
 -1      2662 1.17988E+02 1.97025E+01 0.00000E+00
 -1      2663 1.42120E+02 8.46463E+00 0.00000E+00
 -1      2664 9.09300E+00 1.98250E+01 0.00000E+00
 -1      2665 9.09300E+00 2.12750E+01 0.00000E+00
 -1      2666 9.09300E+00 2.27500E+01 0.00000E+00
 -1      2667 9.09300E+00 2.42250E+01 0.00000E+00
 -1      2668 1.03920E+01 2.20250E+01 0.00000E+00
 -1      2669 9.09300E+00 1.39375E+01 0.00000E+00
 -1      2670 9.09300E+00 1.54125E+01 0.00000E+00
 -1      2671 9.09300E+00 1.09875E+01 0.00000E+00
 -1      2672 9.09300E+00 1.24625E+01 0.00000E+00
 -1      2673 1.03920E+01 1.32000E+01 0.00000E+00
 -1      2674 1.52850E+01 7.90325E+00 0.00000E+00
 -1      2675 1.37850E+01 7.90325E+00 0.00000E+00
 -1      2676 1.14000E+01 4.09070E+01 0.00000E+00
 -1      2677 1.29000E+01 4.09070E+01 0.00000E+00
 -1      2678 1.21437E+02 2.32221E+01 0.00000E+00
 -1      2679 1.21732E+02 2.43870E+01 0.00000E+00
 -1      2680 2.72850E+01 7.90325E+00 0.00000E+00
 -1      2681 2.57850E+01 7.90325E+00 0.00000E+00
 -1      2682 1.44000E+01 4.09070E+01 0.00000E+00
 -1      2683 1.59000E+01 4.09070E+01 0.00000E+00
 -1      2684 1.36500E+01 3.96080E+01 0.00000E+00
 -1      2685 1.74000E+01 4.09070E+01 0.00000E+00
 -1      2686 1.89000E+01 4.09070E+01 0.00000E+00
 -1      2687 1.66500E+01 3.96080E+01 0.00000E+00
 -1      2688 2.04000E+01 4.09070E+01 0.00000E+00
 -1      2689 2.19000E+01 4.09070E+01 0.00000E+00
 -1      2690 1.96500E+01 3.96080E+01 0.00000E+00
 -1      2691 2.34000E+01 4.09070E+01 0.00000E+00
 -1      2692 2.49000E+01 4.09070E+01 0.00000E+00
 -1      2693 2.26500E+01 3.96080E+01 0.00000E+00
 -1      2694 2.64000E+01 4.09070E+01 0.00000E+00
 -1      2695 2.79000E+01 4.09070E+01 0.00000E+00
 -1      2696 2.56500E+01 3.96080E+01 0.00000E+00
 -1      2697 2.94000E+01 4.09070E+01 0.00000E+00
 -1      2698 3.09000E+01 4.09070E+01 0.00000E+00
 -1      2699 2.86500E+01 3.96080E+01 0.00000E+00
 -1      2700 3.24000E+01 4.09070E+01 0.00000E+00
 -1      2701 3.39000E+01 4.09070E+01 0.00000E+00
 -1      2702 3.16500E+01 3.96080E+01 0.00000E+00
 -1      2703 3.54000E+01 4.09070E+01 0.00000E+00
 -1      2704 3.69000E+01 4.09070E+01 0.00000E+00
 -1      2705 3.46500E+01 3.96080E+01 0.00000E+00
 -1      2706 3.84000E+01 4.09070E+01 0.00000E+00
 -1      2707 3.99000E+01 4.09070E+01 0.00000E+00
 -1      2708 3.76500E+01 3.96080E+01 0.00000E+00
 -1      2709 4.14000E+01 4.09070E+01 0.00000E+00
 -1      2710 4.29000E+01 4.09070E+01 0.00000E+00
 -1      2711 4.06500E+01 3.96080E+01 0.00000E+00
 -1      2712 4.44000E+01 4.09070E+01 0.00000E+00
 -1      2713 4.59000E+01 4.09070E+01 0.00000E+00
 -1      2714 4.36500E+01 3.96080E+01 0.00000E+00
 -1      2715 4.74000E+01 4.09070E+01 0.00000E+00
 -1      2716 4.89000E+01 4.09070E+01 0.00000E+00
 -1      2717 4.66500E+01 3.96080E+01 0.00000E+00
 -1      2718 5.04000E+01 4.09070E+01 0.00000E+00
 -1      2719 5.19000E+01 4.09070E+01 0.00000E+00
 -1      2720 4.96500E+01 3.96080E+01 0.00000E+00
 -1      2721 5.34000E+01 4.09070E+01 0.00000E+00
 -1      2722 5.49000E+01 4.09070E+01 0.00000E+00
 -1      2723 5.26500E+01 3.96080E+01 0.00000E+00
 -1      2724 5.64000E+01 4.09070E+01 0.00000E+00
 -1      2725 5.79000E+01 4.09070E+01 0.00000E+00
 -1      2726 5.56500E+01 3.96080E+01 0.00000E+00
 -1      2727 5.94000E+01 4.09070E+01 0.00000E+00
 -1      2728 6.09000E+01 4.09070E+01 0.00000E+00
 -1      2729 5.86500E+01 3.96080E+01 0.00000E+00
 -1      2730 6.24000E+01 4.09070E+01 0.00000E+00
 -1      2731 6.39000E+01 4.09070E+01 0.00000E+00
 -1      2732 6.16500E+01 3.96080E+01 0.00000E+00
 -1      2733 6.54000E+01 4.09070E+01 0.00000E+00
 -1      2734 6.69000E+01 4.09070E+01 0.00000E+00
 -1      2735 6.46500E+01 3.96080E+01 0.00000E+00
 -1      2736 6.84000E+01 4.09070E+01 0.00000E+00
 -1      2737 6.99000E+01 4.09070E+01 0.00000E+00
 -1      2738 6.76500E+01 3.96080E+01 0.00000E+00
 -1      2739 7.14000E+01 4.09070E+01 0.00000E+00
 -1      2740 7.29000E+01 4.09070E+01 0.00000E+00
 -1      2741 7.06500E+01 3.96080E+01 0.00000E+00
 -1      2742 7.44000E+01 4.09070E+01 0.00000E+00
 -1      2743 7.59000E+01 4.09070E+01 0.00000E+00
 -1      2744 7.36500E+01 3.96080E+01 0.00000E+00
 -1      2745 7.74000E+01 4.09070E+01 0.00000E+00
 -1      2746 7.89000E+01 4.09070E+01 0.00000E+00
 -1      2747 7.66500E+01 3.96080E+01 0.00000E+00
 -1      2748 8.04000E+01 4.09070E+01 0.00000E+00
 -1      2749 8.19000E+01 4.09070E+01 0.00000E+00
 -1      2750 7.96500E+01 3.96080E+01 0.00000E+00
 -1      2751 8.34000E+01 4.09070E+01 0.00000E+00
 -1      2752 8.49000E+01 4.09070E+01 0.00000E+00
 -1      2753 8.26500E+01 3.96080E+01 0.00000E+00
 -1      2754 8.64000E+01 4.09070E+01 0.00000E+00
 -1      2755 8.79000E+01 4.09070E+01 0.00000E+00
 -1      2756 8.56500E+01 3.96080E+01 0.00000E+00
 -1      2757 8.94000E+01 4.09070E+01 0.00000E+00
 -1      2758 9.09000E+01 4.09070E+01 0.00000E+00
 -1      2759 8.86500E+01 3.96080E+01 0.00000E+00
 -1      2760 9.24000E+01 4.09070E+01 0.00000E+00
 -1      2761 9.39000E+01 4.09070E+01 0.00000E+00
 -1      2762 9.16500E+01 3.96080E+01 0.00000E+00
 -1      2763 9.54000E+01 4.09070E+01 0.00000E+00
 -1      2764 9.69000E+01 4.09070E+01 0.00000E+00
 -1      2765 9.46500E+01 3.96080E+01 0.00000E+00
 -1      2766 9.84000E+01 4.09070E+01 0.00000E+00
 -1      2767 9.99000E+01 4.09070E+01 0.00000E+00
 -1      2768 9.76500E+01 3.96080E+01 0.00000E+00
 -1      2769 1.04070E+02 4.02097E+01 0.00000E+00
 -1      2770 1.05570E+02 4.02097E+01 0.00000E+00
 -1      2771 1.10445E+02 4.09759E+01 0.00000E+00
 -1      2772 1.11945E+02 4.09759E+01 0.00000E+00
 -1      2773 1.13204E+02 4.09688E+01 0.00000E+00
 -1      2774 1.14704E+02 4.09688E+01 0.00000E+00
 -1      2775 1.16400E+02 4.10133E+01 0.00000E+00
 -1      2776 1.17900E+02 4.10133E+01 0.00000E+00
 -1      2777 1.19400E+02 4.10133E+01 0.00000E+00
 -1      2778 1.20900E+02 4.10133E+01 0.00000E+00
 -1      2779 1.18650E+02 3.98206E+01 0.00000E+00
 -1      2780 1.22400E+02 4.10133E+01 0.00000E+00
 -1      2781 1.23900E+02 4.10133E+01 0.00000E+00
 -1      2782 1.21650E+02 3.98206E+01 0.00000E+00
 -1      2783 1.25400E+02 4.10133E+01 0.00000E+00
 -1      2784 1.26900E+02 4.10133E+01 0.00000E+00
 -1      2785 1.24650E+02 3.98206E+01 0.00000E+00
 -1      2786 1.28400E+02 4.10133E+01 0.00000E+00
 -1      2787 1.29900E+02 4.10133E+01 0.00000E+00
 -1      2788 1.27650E+02 3.98206E+01 0.00000E+00
 -1      2789 1.31400E+02 4.10133E+01 0.00000E+00
 -1      2790 1.32900E+02 4.10133E+01 0.00000E+00
 -1      2791 1.30650E+02 3.98206E+01 0.00000E+00
 -1      2792 1.34400E+02 4.10133E+01 0.00000E+00
 -1      2793 1.35900E+02 4.10133E+01 0.00000E+00
 -1      2794 1.33650E+02 3.98206E+01 0.00000E+00
 -1      2795 1.37400E+02 4.10133E+01 0.00000E+00
 -1      2796 1.38900E+02 4.10133E+01 0.00000E+00
 -1      2797 1.36650E+02 3.98206E+01 0.00000E+00
 -1      2798 2.42850E+01 7.90325E+00 0.00000E+00
 -1      2799 2.27850E+01 7.90325E+00 0.00000E+00
 -1      2800 2.50350E+01 9.20225E+00 0.00000E+00
 -1      2801 8.91450E+00 8.42712E+00 0.00000E+00
 -1      2802 1.22527E+02 3.05765E+01 0.00000E+00
 -1      2803 1.22315E+02 3.16694E+01 0.00000E+00
 -1      2804 2.12850E+01 7.90325E+00 0.00000E+00
 -1      2805 1.97850E+01 7.90325E+00 0.00000E+00
 -1      2806 2.20350E+01 9.20225E+00 0.00000E+00
 -1      2807 3.02850E+01 7.90325E+00 0.00000E+00
 -1      2808 2.87850E+01 7.90325E+00 0.00000E+00
 -1      2809 2.80350E+01 9.20225E+00 0.00000E+00
 -1      2810 3.32850E+01 7.90325E+00 0.00000E+00
 -1      2811 3.17850E+01 7.90325E+00 0.00000E+00
 -1      2812 3.10350E+01 9.20225E+00 0.00000E+00
 -1      2813 3.62850E+01 7.90325E+00 0.00000E+00
 -1      2814 3.47850E+01 7.90325E+00 0.00000E+00
 -1      2815 3.40350E+01 9.20225E+00 0.00000E+00
 -1      2816 3.92850E+01 7.90325E+00 0.00000E+00
 -1      2817 3.77850E+01 7.90325E+00 0.00000E+00
 -1      2818 3.70350E+01 9.20225E+00 0.00000E+00
 -1      2819 4.22850E+01 7.90325E+00 0.00000E+00
 -1      2820 4.07850E+01 7.90325E+00 0.00000E+00
 -1      2821 4.00350E+01 9.20225E+00 0.00000E+00
 -1      2822 4.52850E+01 7.90325E+00 0.00000E+00
 -1      2823 4.37850E+01 7.90325E+00 0.00000E+00
 -1      2824 4.30350E+01 9.20225E+00 0.00000E+00
 -1      2825 4.82850E+01 7.90325E+00 0.00000E+00
 -1      2826 4.67850E+01 7.90325E+00 0.00000E+00
 -1      2827 4.60350E+01 9.20225E+00 0.00000E+00
 -1      2828 5.12850E+01 7.90325E+00 0.00000E+00
 -1      2829 4.97850E+01 7.90325E+00 0.00000E+00
 -1      2830 4.90350E+01 9.20225E+00 0.00000E+00
 -1      2831 5.42850E+01 7.90325E+00 0.00000E+00
 -1      2832 5.27850E+01 7.90325E+00 0.00000E+00
 -1      2833 5.20350E+01 9.20225E+00 0.00000E+00
 -1      2834 5.72850E+01 7.90325E+00 0.00000E+00
 -1      2835 5.57850E+01 7.90325E+00 0.00000E+00
 -1      2836 5.50350E+01 9.20225E+00 0.00000E+00
 -1      2837 6.02850E+01 7.90325E+00 0.00000E+00
 -1      2838 5.87850E+01 7.90325E+00 0.00000E+00
 -1      2839 5.80350E+01 9.20225E+00 0.00000E+00
 -1      2840 6.32850E+01 7.90325E+00 0.00000E+00
 -1      2841 6.17850E+01 7.90325E+00 0.00000E+00
 -1      2842 6.10350E+01 9.20225E+00 0.00000E+00
 -1      2843 6.62850E+01 7.90325E+00 0.00000E+00
 -1      2844 6.47850E+01 7.90325E+00 0.00000E+00
 -1      2845 6.40350E+01 9.20225E+00 0.00000E+00
 -1      2846 6.92850E+01 7.90325E+00 0.00000E+00
 -1      2847 6.77850E+01 7.90325E+00 0.00000E+00
 -1      2848 6.70350E+01 9.20225E+00 0.00000E+00
 -1      2849 7.22850E+01 7.90325E+00 0.00000E+00
 -1      2850 7.07850E+01 7.90325E+00 0.00000E+00
 -1      2851 7.00350E+01 9.20225E+00 0.00000E+00
 -1      2852 7.52850E+01 7.90325E+00 0.00000E+00
 -1      2853 7.37850E+01 7.90325E+00 0.00000E+00
 -1      2854 7.30350E+01 9.20225E+00 0.00000E+00
 -1      2855 7.82850E+01 7.90325E+00 0.00000E+00
 -1      2856 7.67850E+01 7.90325E+00 0.00000E+00
 -1      2857 7.60350E+01 9.20225E+00 0.00000E+00
 -1      2858 8.12850E+01 7.90325E+00 0.00000E+00
 -1      2859 7.97850E+01 7.90325E+00 0.00000E+00
 -1      2860 7.90350E+01 9.20225E+00 0.00000E+00
 -1      2861 8.42850E+01 7.90325E+00 0.00000E+00
 -1      2862 8.27850E+01 7.90325E+00 0.00000E+00
 -1      2863 8.20350E+01 9.20225E+00 0.00000E+00
 -1      2864 8.72850E+01 7.90325E+00 0.00000E+00
 -1      2865 8.57850E+01 7.90325E+00 0.00000E+00
 -1      2866 8.50350E+01 9.20225E+00 0.00000E+00
 -1      2867 9.02850E+01 7.90325E+00 0.00000E+00
 -1      2868 8.87850E+01 7.90325E+00 0.00000E+00
 -1      2869 8.80350E+01 9.20225E+00 0.00000E+00
 -1      2870 9.32850E+01 7.90325E+00 0.00000E+00
 -1      2871 9.17850E+01 7.90325E+00 0.00000E+00
 -1      2872 9.10350E+01 9.20225E+00 0.00000E+00
 -1      2873 9.62850E+01 7.90325E+00 0.00000E+00
 -1      2874 9.47850E+01 7.90325E+00 0.00000E+00
 -1      2875 9.40350E+01 9.20225E+00 0.00000E+00
 -1      2876 9.92850E+01 7.90325E+00 0.00000E+00
 -1      2877 9.77850E+01 7.90325E+00 0.00000E+00
 -1      2878 9.70350E+01 9.20225E+00 0.00000E+00
 -1      2879 1.02285E+02 7.90325E+00 0.00000E+00
 -1      2880 1.00785E+02 7.90325E+00 0.00000E+00
 -1      2881 1.00035E+02 9.20225E+00 0.00000E+00
 -1      2882 1.05285E+02 7.90325E+00 0.00000E+00
 -1      2883 1.03785E+02 7.90325E+00 0.00000E+00
 -1      2884 1.03035E+02 9.20225E+00 0.00000E+00
 -1      2885 1.08285E+02 7.90325E+00 0.00000E+00
 -1      2886 1.06785E+02 7.90325E+00 0.00000E+00
 -1      2887 1.06035E+02 9.20225E+00 0.00000E+00
 -1      2888 1.11285E+02 7.90325E+00 0.00000E+00
 -1      2889 1.09785E+02 7.90325E+00 0.00000E+00
 -1      2890 1.09035E+02 9.20225E+00 0.00000E+00
 -1      2891 1.14285E+02 7.90325E+00 0.00000E+00
 -1      2892 1.12785E+02 7.90325E+00 0.00000E+00
 -1      2893 1.12035E+02 9.20225E+00 0.00000E+00
 -1      2894 1.17285E+02 7.90325E+00 0.00000E+00
 -1      2895 1.15785E+02 7.90325E+00 0.00000E+00
 -1      2896 1.15035E+02 9.20225E+00 0.00000E+00
 -1      2897 1.20285E+02 7.90325E+00 0.00000E+00
 -1      2898 1.18785E+02 7.90325E+00 0.00000E+00
 -1      2899 1.18035E+02 9.20225E+00 0.00000E+00
 -1      2900 1.23285E+02 7.90325E+00 0.00000E+00
 -1      2901 1.21785E+02 7.90325E+00 0.00000E+00
 -1      2902 1.21035E+02 9.20225E+00 0.00000E+00
 -1      2903 1.26285E+02 7.90325E+00 0.00000E+00
 -1      2904 1.24785E+02 7.90325E+00 0.00000E+00
 -1      2905 1.24035E+02 9.20225E+00 0.00000E+00
 -1      2906 1.29285E+02 7.90325E+00 0.00000E+00
 -1      2907 1.27785E+02 7.90325E+00 0.00000E+00
 -1      2908 1.27035E+02 9.20225E+00 0.00000E+00
 -1      2909 1.32285E+02 7.90325E+00 0.00000E+00
 -1      2910 1.30785E+02 7.90325E+00 0.00000E+00
 -1      2911 1.30035E+02 9.20225E+00 0.00000E+00
 -1      2912 1.35285E+02 7.90325E+00 0.00000E+00
 -1      2913 1.33785E+02 7.90325E+00 0.00000E+00
 -1      2914 1.33035E+02 9.20225E+00 0.00000E+00
 -1      2915 1.38285E+02 7.90325E+00 0.00000E+00
 -1      2916 1.36785E+02 7.90325E+00 0.00000E+00
 -1      2917 1.36035E+02 9.20225E+00 0.00000E+00
 -1      2918 1.40953E+02 8.18394E+00 0.00000E+00
 -1      2919 1.39453E+02 8.18394E+00 0.00000E+00
 -1      2920 1.38703E+02 9.48294E+00 0.00000E+00
 -1      2921 1.41038E+02 1.00443E+01 0.00000E+00
 -1      2922 1.40907E+02 2.42875E+01 0.00000E+00
 -1      2923 1.40907E+02 2.28125E+01 0.00000E+00
 -1      2924 1.40907E+02 1.83875E+01 0.00000E+00
 -1      2925 1.40907E+02 1.69125E+01 0.00000E+00
 -1      2926 1.40907E+02 2.72375E+01 0.00000E+00
 -1      2927 1.40907E+02 2.57625E+01 0.00000E+00
 -1      2928 1.39608E+02 2.50250E+01 0.00000E+00
 -1      2929 1.40907E+02 2.13375E+01 0.00000E+00
 -1      2930 1.40907E+02 1.98625E+01 0.00000E+00
 -1      2931 1.39608E+02 1.91250E+01 0.00000E+00
 -1      2932 1.39608E+02 2.20750E+01 0.00000E+00
 -1      2933 1.82850E+01 7.90325E+00 0.00000E+00
 -1      2934 1.67850E+01 7.90325E+00 0.00000E+00
 -1      2935 1.60350E+01 9.20225E+00 0.00000E+00
 -1      2936 1.90350E+01 9.20225E+00 0.00000E+00
 -1      2937 1.40907E+02 3.01375E+01 0.00000E+00
 -1      2938 1.40907E+02 2.86875E+01 0.00000E+00
 -1      2939 1.39608E+02 2.79500E+01 0.00000E+00
 -1      2940 1.40907E+02 3.30875E+01 0.00000E+00
 -1      2941 1.40907E+02 3.16125E+01 0.00000E+00
 -1      2942 1.39608E+02 3.08750E+01 0.00000E+00
 -1      2943 1.40907E+02 3.60375E+01 0.00000E+00
 -1      2944 1.40907E+02 3.45625E+01 0.00000E+00
 -1      2945 1.39608E+02 3.38250E+01 0.00000E+00
 -1      2946 9.86288E+01 2.97056E+01 0.00000E+00
 -1      2947 9.86910E+01 2.86664E+01 0.00000E+00
 -1      2948 1.10654E+02 1.68849E+01 0.00000E+00
 -1      2949 1.11816E+02 1.66360E+01 0.00000E+00
 -1      2950 1.05906E+02 1.72638E+01 0.00000E+00
 -1      2951 1.07221E+02 1.71063E+01 0.00000E+00
 -1      2952 1.00233E+02 2.26561E+01 0.00000E+00
 -1      2953 1.00820E+02 2.17631E+01 0.00000E+00
 -1      2954 1.20945E+02 3.51861E+01 0.00000E+00
 -1      2955 1.20295E+02 3.61028E+01 0.00000E+00
 -1      2956 1.09254E+02 4.08695E+01 0.00000E+00
 -1      2957 9.99717E+01 3.48423E+01 0.00000E+00
 -1      2958 9.93525E+01 3.36837E+01 0.00000E+00
 -1      2959 1.15650E+02 1.76917E+01 0.00000E+00
 -1      2960 1.16660E+02 1.81003E+01 0.00000E+00
 -1      2961 9.09300E+00 1.68813E+01 0.00000E+00
 -1      2962 9.09300E+00 1.83563E+01 0.00000E+00
 -1      2963 1.03920E+01 1.90812E+01 0.00000E+00
 -1      2964 1.03920E+01 1.61437E+01 0.00000E+00
 -1      2965 9.09300E+00 3.15875E+01 0.00000E+00
 -1      2966 9.09300E+00 3.30625E+01 0.00000E+00
 -1      2967 1.23271E+02 2.82523E+01 0.00000E+00
 -1      2968 1.22899E+02 2.94144E+01 0.00000E+00
 -1      2969 1.23717E+02 3.01405E+01 0.00000E+00
 -1      2970 1.17377E+02 3.87031E+01 0.00000E+00
 -1      2971 1.16386E+02 3.92446E+01 0.00000E+00
 -1      2972 1.13457E+02 1.68433E+01 0.00000E+00
 -1      2973 1.14572E+02 1.72686E+01 0.00000E+00
 -1      2974 1.20365E+02 2.04988E+01 0.00000E+00
 -1      2975 1.20988E+02 2.17816E+01 0.00000E+00
 -1      2976 1.01504E+02 3.67918E+01 0.00000E+00
 -1      2977 1.00772E+02 3.59958E+01 0.00000E+00
 -1      2978 1.03020E+02 1.86042E+01 0.00000E+00
 -1      2979 1.04176E+02 1.77753E+01 0.00000E+00
 -1      2980 1.01424E+02 2.07952E+01 0.00000E+00
 -1      2981 1.02029E+02 1.98272E+01 0.00000E+00
 -1      2982 1.00414E+02 2.07706E+01 0.00000E+00
 -1      2983 9.91932E+01 2.47472E+01 0.00000E+00
 -1      2984 9.95830E+01 2.37386E+01 0.00000E+00
 -1      2985 9.89054E+01 3.22093E+01 0.00000E+00
 -1      2986 9.87326E+01 3.09974E+01 0.00000E+00
 -1      2987 1.39914E+02 4.09894E+01 0.00000E+00
 -1      2988 1.40928E+02 4.10187E+01 0.00000E+00
 -1      2989 1.41192E+02 3.97489E+01 0.00000E+00
 -1      2990 1.39164E+02 3.97967E+01 0.00000E+00
 -1      2991 1.21895E+02 3.28666E+01 0.00000E+00
 -1      2992 1.21504E+02 3.39401E+01 0.00000E+00
 -1      2993 1.08365E+02 1.69829E+01 0.00000E+00
 -1      2994 1.09510E+02 1.70083E+01 0.00000E+00
 -1      2995 1.09894E+02 1.59634E+01 0.00000E+00
 -1      2996 1.07606E+02 1.62102E+01 0.00000E+00
 -1      2997 7.85850E+00 3.92077E+01 0.00000E+00
 -1      2998 1.19403E+02 3.70209E+01 0.00000E+00
 -1      2999 1.18604E+02 3.78054E+01 0.00000E+00
 -1      3000 1.17894E+02 1.84942E+01 0.00000E+00
 -1      3001 1.19037E+02 1.90971E+01 0.00000E+00
 -1      3002 1.03455E+02 3.84800E+01 0.00000E+00
 -1      3003 1.02460E+02 3.76780E+01 0.00000E+00
 -1      3004 1.08743E+01 7.88444E+00 0.00000E+00
 -1      3005 9.75375E+00 9.70731E+00 0.00000E+00
 -1      3006 1.10527E+01 1.04448E+01 0.00000E+00
 -1      3007 1.23743E+01 7.88444E+00 0.00000E+00
 -1      3008 9.09300E+00 3.45313E+01 0.00000E+00
 -1      3009 9.09300E+00 3.60000E+01 0.00000E+00
 -1      3010 1.03920E+01 3.37938E+01 0.00000E+00
 -1      3011 1.03920E+01 2.49750E+01 0.00000E+00
 -1      3012 9.09300E+00 2.57000E+01 0.00000E+00
 -1      3013 9.09300E+00 2.71750E+01 0.00000E+00
 -1      3014 1.31243E+01 9.18344E+00 0.00000E+00
 -1      3015 1.06735E+02 4.06217E+01 0.00000E+00
 -1      3016 1.22774E+02 2.48112E+01 0.00000E+00
 -1      3017 1.00785E+02 3.91773E+01 0.00000E+00
 -1      3018 1.01535E+02 4.04763E+01 0.00000E+00
 -1      3019 1.03035E+02 4.04763E+01 0.00000E+00
 -1      3020 1.15398E+02 1.66779E+01 0.00000E+00
 -1      3021 1.15454E+02 3.97761E+01 0.00000E+00
 -1      3022 1.21946E+02 3.49429E+01 0.00000E+00
 -1      3023 1.41038E+02 1.15068E+01 0.00000E+00
 -1      3024 1.39870E+02 1.12261E+01 0.00000E+00
 -1      3025 1.41038E+02 1.29693E+01 0.00000E+00
 -1      3026 1.04731E+02 1.68451E+01 0.00000E+00
 -1      3027 1.05286E+02 1.59149E+01 0.00000E+00
 -1      3028 1.03556E+02 1.64264E+01 0.00000E+00
 -1      3029 1.17710E+02 1.74949E+01 0.00000E+00
 -1      3030 9.81601E+01 2.78386E+01 0.00000E+00
 -1      3031 9.79077E+01 3.04266E+01 0.00000E+00
 -1      3032 1.40907E+02 3.89875E+01 0.00000E+00
 -1      3033 1.40907E+02 3.75125E+01 0.00000E+00
 -1      3034 1.11901E+02 1.52514E+01 0.00000E+00
 -1      3035 1.12679E+02 1.60474E+01 0.00000E+00
 -1      3036 1.13542E+02 1.54588E+01 0.00000E+00
 -1      3037 9.15750E+00 3.77359E+01 0.00000E+00
 -1      3038 9.22200E+00 4.02061E+01 0.00000E+00
 -1      3039 1.05855E+01 4.04701E+01 0.00000E+00
 -1      3040 1.04565E+01 3.69984E+01 0.00000E+00
 -1      3041 9.91600E+01 2.28210E+01 0.00000E+00
 -1      3042 9.84586E+01 3.31928E+01 0.00000E+00
 -1      3043 9.75648E+01 3.27020E+01 0.00000E+00
 -1      3044 9.80119E+01 3.41764E+01 0.00000E+00
 -1      3045 1.02010E+02 1.85797E+01 0.00000E+00
 -1      3046 1.01463E+02 3.78604E+01 0.00000E+00
 -1      3047 1.20271E+02 1.92906E+01 0.00000E+00
 -1      3048 1.21505E+02 1.94841E+01 0.00000E+00
 -1      3049 1.20177E+02 1.80824E+01 0.00000E+00
 -1      3050 1.22925E+02 3.24998E+01 0.00000E+00
 -1      3051 1.20496E+02 3.71071E+01 0.00000E+00
 -1      3052 9.97063E+01 3.58207E+01 0.00000E+00
 -1      3053 1.13355E+01 3.91711E+01 0.00000E+00
 -1      3054 1.18377E+02 3.89229E+01 0.00000E+00
 -1      3055 1.40973E+02 1.56722E+01 0.00000E+00
 -1      3056 1.40973E+02 1.42097E+01 0.00000E+00
 -1      3057 1.39805E+02 1.39290E+01 0.00000E+00
 -1      3058 1.39674E+02 1.64097E+01 0.00000E+00
 -1      3059 1.23868E+02 2.67751E+01 0.00000E+00
 -1      3060 1.23570E+02 2.75137E+01 0.00000E+00
 -1      3061 1.24388E+02 2.82398E+01 0.00000E+00
 -1      3062 9.09300E+00 2.86437E+01 0.00000E+00
 -1      3063 9.09300E+00 3.01187E+01 0.00000E+00
 -1      3064 1.03920E+01 3.08563E+01 0.00000E+00
 -1      3065 1.03920E+01 2.79188E+01 0.00000E+00
 -1      3066 9.85132E+01 2.52229E+01 0.00000E+00
 -1      3067 1.22048E+02 2.21329E+01 0.00000E+00
 -1      3068 1.39608E+02 3.67750E+01 0.00000E+00
 -1      3069 1.16910E+01 1.24625E+01 0.00000E+00
 -1      3070 1.16910E+01 1.39375E+01 0.00000E+00
 -1      3071 1.38309E+02 3.45625E+01 0.00000E+00
 -1      3072 1.38309E+02 3.30875E+01 0.00000E+00
 -1      3073 9.98283E+01 3.82911E+01 0.00000E+00
 -1      3074 9.80280E+01 2.28777E+01 0.00000E+00
 -1      3075 9.86779E+01 2.17952E+01 0.00000E+00
 -1      3076 1.15203E+02 1.55900E+01 0.00000E+00
 -1      3077 1.16281E+02 1.60131E+01 0.00000E+00
 -1      3078 1.59000E+01 3.83090E+01 0.00000E+00
 -1      3079 1.74000E+01 3.83090E+01 0.00000E+00
 -1      3080 1.89000E+01 3.83090E+01 0.00000E+00
 -1      3081 2.04000E+01 3.83090E+01 0.00000E+00
 -1      3082 1.81500E+01 3.70100E+01 0.00000E+00
 -1      3083 2.19000E+01 3.83090E+01 0.00000E+00
 -1      3084 2.34000E+01 3.83090E+01 0.00000E+00
 -1      3085 2.11500E+01 3.70100E+01 0.00000E+00
 -1      3086 2.49000E+01 3.83090E+01 0.00000E+00
 -1      3087 2.64000E+01 3.83090E+01 0.00000E+00
 -1      3088 2.41500E+01 3.70100E+01 0.00000E+00
 -1      3089 2.79000E+01 3.83090E+01 0.00000E+00
 -1      3090 2.94000E+01 3.83090E+01 0.00000E+00
 -1      3091 2.71500E+01 3.70100E+01 0.00000E+00
 -1      3092 3.09000E+01 3.83090E+01 0.00000E+00
 -1      3093 3.24000E+01 3.83090E+01 0.00000E+00
 -1      3094 3.01500E+01 3.70100E+01 0.00000E+00
 -1      3095 3.39000E+01 3.83090E+01 0.00000E+00
 -1      3096 3.54000E+01 3.83090E+01 0.00000E+00
 -1      3097 3.31500E+01 3.70100E+01 0.00000E+00
 -1      3098 3.69000E+01 3.83090E+01 0.00000E+00
 -1      3099 3.84000E+01 3.83090E+01 0.00000E+00
 -1      3100 3.61500E+01 3.70100E+01 0.00000E+00
 -1      3101 3.99000E+01 3.83090E+01 0.00000E+00
 -1      3102 4.14000E+01 3.83090E+01 0.00000E+00
 -1      3103 3.91500E+01 3.70100E+01 0.00000E+00
 -1      3104 4.29000E+01 3.83090E+01 0.00000E+00
 -1      3105 4.44000E+01 3.83090E+01 0.00000E+00
 -1      3106 4.21500E+01 3.70100E+01 0.00000E+00
 -1      3107 4.59000E+01 3.83090E+01 0.00000E+00
 -1      3108 4.74000E+01 3.83090E+01 0.00000E+00
 -1      3109 4.51500E+01 3.70100E+01 0.00000E+00
 -1      3110 4.89000E+01 3.83090E+01 0.00000E+00
 -1      3111 5.04000E+01 3.83090E+01 0.00000E+00
 -1      3112 4.81500E+01 3.70100E+01 0.00000E+00
 -1      3113 5.19000E+01 3.83090E+01 0.00000E+00
 -1      3114 5.34000E+01 3.83090E+01 0.00000E+00
 -1      3115 5.11500E+01 3.70100E+01 0.00000E+00
 -1      3116 5.49000E+01 3.83090E+01 0.00000E+00
 -1      3117 5.64000E+01 3.83090E+01 0.00000E+00
 -1      3118 5.41500E+01 3.70100E+01 0.00000E+00
 -1      3119 5.79000E+01 3.83090E+01 0.00000E+00
 -1      3120 5.94000E+01 3.83090E+01 0.00000E+00
 -1      3121 5.71500E+01 3.70100E+01 0.00000E+00
 -1      3122 6.09000E+01 3.83090E+01 0.00000E+00
 -1      3123 6.24000E+01 3.83090E+01 0.00000E+00
 -1      3124 6.01500E+01 3.70100E+01 0.00000E+00
 -1      3125 6.39000E+01 3.83090E+01 0.00000E+00
 -1      3126 6.54000E+01 3.83090E+01 0.00000E+00
 -1      3127 6.31500E+01 3.70100E+01 0.00000E+00
 -1      3128 6.69000E+01 3.83090E+01 0.00000E+00
 -1      3129 6.84000E+01 3.83090E+01 0.00000E+00
 -1      3130 6.61500E+01 3.70100E+01 0.00000E+00
 -1      3131 6.99000E+01 3.83090E+01 0.00000E+00
 -1      3132 7.14000E+01 3.83090E+01 0.00000E+00
 -1      3133 6.91500E+01 3.70100E+01 0.00000E+00
 -1      3134 7.29000E+01 3.83090E+01 0.00000E+00
 -1      3135 7.44000E+01 3.83090E+01 0.00000E+00
 -1      3136 7.21500E+01 3.70100E+01 0.00000E+00
 -1      3137 7.59000E+01 3.83090E+01 0.00000E+00
 -1      3138 7.74000E+01 3.83090E+01 0.00000E+00
 -1      3139 7.51500E+01 3.70100E+01 0.00000E+00
 -1      3140 7.89000E+01 3.83090E+01 0.00000E+00
 -1      3141 8.04000E+01 3.83090E+01 0.00000E+00
 -1      3142 7.81500E+01 3.70100E+01 0.00000E+00
 -1      3143 8.19000E+01 3.83090E+01 0.00000E+00
 -1      3144 8.34000E+01 3.83090E+01 0.00000E+00
 -1      3145 8.11500E+01 3.70100E+01 0.00000E+00
 -1      3146 8.49000E+01 3.83090E+01 0.00000E+00
 -1      3147 8.64000E+01 3.83090E+01 0.00000E+00
 -1      3148 8.41500E+01 3.70100E+01 0.00000E+00
 -1      3149 8.79000E+01 3.83090E+01 0.00000E+00
 -1      3150 8.94000E+01 3.83090E+01 0.00000E+00
 -1      3151 8.71500E+01 3.70100E+01 0.00000E+00
 -1      3152 9.09000E+01 3.83090E+01 0.00000E+00
 -1      3153 9.24000E+01 3.83090E+01 0.00000E+00
 -1      3154 9.01500E+01 3.70100E+01 0.00000E+00
 -1      3155 9.39000E+01 3.83090E+01 0.00000E+00
 -1      3156 9.54000E+01 3.83090E+01 0.00000E+00
 -1      3157 9.31500E+01 3.70100E+01 0.00000E+00
 -1      3158 9.68642E+01 3.83000E+01 0.00000E+00
 -1      3159 9.83642E+01 3.83000E+01 0.00000E+00
 -1      3160 9.90425E+01 3.69831E+01 0.00000E+00
 -1      3161 9.61142E+01 3.70010E+01 0.00000E+00
 -1      3162 1.07400E+02 4.12647E+01 0.00000E+00
 -1      3163 1.08900E+02 4.12647E+01 0.00000E+00
 -1      3164 2.87850E+01 1.05013E+01 0.00000E+00
 -1      3165 2.72850E+01 1.05013E+01 0.00000E+00
 -1      3166 1.23900E+02 3.85441E+01 0.00000E+00
 -1      3167 1.25400E+02 3.85441E+01 0.00000E+00
 -1      3168 1.26900E+02 3.85441E+01 0.00000E+00
 -1      3169 1.28400E+02 3.85441E+01 0.00000E+00
 -1      3170 1.26150E+02 3.72676E+01 0.00000E+00
 -1      3171 1.29900E+02 3.85441E+01 0.00000E+00
 -1      3172 1.31400E+02 3.85441E+01 0.00000E+00
 -1      3173 1.29150E+02 3.72676E+01 0.00000E+00
 -1      3174 1.32900E+02 3.85441E+01 0.00000E+00
 -1      3175 1.34400E+02 3.85441E+01 0.00000E+00
 -1      3176 1.32150E+02 3.72676E+01 0.00000E+00
 -1      3177 2.57850E+01 1.05013E+01 0.00000E+00
 -1      3178 2.42850E+01 1.05013E+01 0.00000E+00
 -1      3179 2.65350E+01 1.18003E+01 0.00000E+00
 -1      3180 2.27850E+01 1.05013E+01 0.00000E+00
 -1      3181 2.12850E+01 1.05013E+01 0.00000E+00
 -1      3182 2.35350E+01 1.18003E+01 0.00000E+00
 -1      3183 1.38309E+02 2.86750E+01 0.00000E+00
 -1      3184 1.38309E+02 2.72250E+01 0.00000E+00
 -1      3185 3.47850E+01 1.05013E+01 0.00000E+00
 -1      3186 3.32850E+01 1.05013E+01 0.00000E+00
 -1      3187 3.77850E+01 1.05013E+01 0.00000E+00
 -1      3188 3.62850E+01 1.05013E+01 0.00000E+00
 -1      3189 3.55350E+01 1.18003E+01 0.00000E+00
 -1      3190 4.07850E+01 1.05013E+01 0.00000E+00
 -1      3191 3.92850E+01 1.05013E+01 0.00000E+00
 -1      3192 3.85350E+01 1.18003E+01 0.00000E+00
 -1      3193 4.37850E+01 1.05013E+01 0.00000E+00
 -1      3194 4.22850E+01 1.05013E+01 0.00000E+00
 -1      3195 4.15350E+01 1.18003E+01 0.00000E+00
 -1      3196 4.67850E+01 1.05013E+01 0.00000E+00
 -1      3197 4.52850E+01 1.05013E+01 0.00000E+00
 -1      3198 4.45350E+01 1.18003E+01 0.00000E+00
 -1      3199 4.97850E+01 1.05013E+01 0.00000E+00
 -1      3200 4.82850E+01 1.05013E+01 0.00000E+00
 -1      3201 4.75350E+01 1.18003E+01 0.00000E+00
 -1      3202 5.27850E+01 1.05013E+01 0.00000E+00
 -1      3203 5.12850E+01 1.05013E+01 0.00000E+00
 -1      3204 5.05350E+01 1.18003E+01 0.00000E+00
 -1      3205 5.57850E+01 1.05013E+01 0.00000E+00
 -1      3206 5.42850E+01 1.05013E+01 0.00000E+00
 -1      3207 5.35350E+01 1.18003E+01 0.00000E+00
 -1      3208 5.87850E+01 1.05013E+01 0.00000E+00
 -1      3209 5.72850E+01 1.05013E+01 0.00000E+00
 -1      3210 5.65350E+01 1.18003E+01 0.00000E+00
 -1      3211 6.17850E+01 1.05013E+01 0.00000E+00
 -1      3212 6.02850E+01 1.05013E+01 0.00000E+00
 -1      3213 5.95350E+01 1.18003E+01 0.00000E+00
 -1      3214 6.47850E+01 1.05013E+01 0.00000E+00
 -1      3215 6.32850E+01 1.05013E+01 0.00000E+00
 -1      3216 6.25350E+01 1.18003E+01 0.00000E+00
 -1      3217 6.77850E+01 1.05013E+01 0.00000E+00
 -1      3218 6.62850E+01 1.05013E+01 0.00000E+00
 -1      3219 6.55350E+01 1.18003E+01 0.00000E+00
 -1      3220 7.07850E+01 1.05013E+01 0.00000E+00
 -1      3221 6.92850E+01 1.05013E+01 0.00000E+00
 -1      3222 6.85350E+01 1.18003E+01 0.00000E+00
 -1      3223 7.37850E+01 1.05013E+01 0.00000E+00
 -1      3224 7.22850E+01 1.05013E+01 0.00000E+00
 -1      3225 7.15350E+01 1.18003E+01 0.00000E+00
 -1      3226 7.67850E+01 1.05013E+01 0.00000E+00
 -1      3227 7.52850E+01 1.05013E+01 0.00000E+00
 -1      3228 7.45350E+01 1.18003E+01 0.00000E+00
 -1      3229 7.97850E+01 1.05013E+01 0.00000E+00
 -1      3230 7.82850E+01 1.05013E+01 0.00000E+00
 -1      3231 7.75350E+01 1.18003E+01 0.00000E+00
 -1      3232 8.27850E+01 1.05013E+01 0.00000E+00
 -1      3233 8.12850E+01 1.05013E+01 0.00000E+00
 -1      3234 8.05350E+01 1.18003E+01 0.00000E+00
 -1      3235 8.57850E+01 1.05013E+01 0.00000E+00
 -1      3236 8.42850E+01 1.05013E+01 0.00000E+00
 -1      3237 8.35350E+01 1.18003E+01 0.00000E+00
 -1      3238 8.87850E+01 1.05013E+01 0.00000E+00
 -1      3239 8.72850E+01 1.05013E+01 0.00000E+00
 -1      3240 8.65350E+01 1.18003E+01 0.00000E+00
 -1      3241 9.17850E+01 1.05013E+01 0.00000E+00
 -1      3242 9.02850E+01 1.05013E+01 0.00000E+00
 -1      3243 8.95350E+01 1.18003E+01 0.00000E+00
 -1      3244 9.47850E+01 1.05013E+01 0.00000E+00
 -1      3245 9.32850E+01 1.05013E+01 0.00000E+00
 -1      3246 9.25350E+01 1.18003E+01 0.00000E+00
 -1      3247 9.77850E+01 1.05013E+01 0.00000E+00
 -1      3248 9.62850E+01 1.05013E+01 0.00000E+00
 -1      3249 9.55350E+01 1.18003E+01 0.00000E+00
 -1      3250 1.00785E+02 1.05013E+01 0.00000E+00
 -1      3251 9.92850E+01 1.05013E+01 0.00000E+00
 -1      3252 9.85350E+01 1.18003E+01 0.00000E+00
 -1      3253 1.03785E+02 1.05013E+01 0.00000E+00
 -1      3254 1.02285E+02 1.05013E+01 0.00000E+00
 -1      3255 1.01535E+02 1.18003E+01 0.00000E+00
 -1      3256 1.06785E+02 1.05013E+01 0.00000E+00
 -1      3257 1.05285E+02 1.05013E+01 0.00000E+00
 -1      3258 1.04535E+02 1.18003E+01 0.00000E+00
 -1      3259 1.09785E+02 1.05013E+01 0.00000E+00
 -1      3260 1.08285E+02 1.05013E+01 0.00000E+00
 -1      3261 1.07535E+02 1.18003E+01 0.00000E+00
 -1      3262 1.12785E+02 1.05013E+01 0.00000E+00
 -1      3263 1.11285E+02 1.05013E+01 0.00000E+00
 -1      3264 1.10535E+02 1.18003E+01 0.00000E+00
 -1      3265 1.15785E+02 1.05013E+01 0.00000E+00
 -1      3266 1.14285E+02 1.05013E+01 0.00000E+00
 -1      3267 1.13535E+02 1.18003E+01 0.00000E+00
 -1      3268 1.18785E+02 1.05013E+01 0.00000E+00
 -1      3269 1.17285E+02 1.05013E+01 0.00000E+00
 -1      3270 1.16535E+02 1.18003E+01 0.00000E+00
 -1      3271 1.21785E+02 1.05013E+01 0.00000E+00
 -1      3272 1.20285E+02 1.05013E+01 0.00000E+00
 -1      3273 1.19535E+02 1.18003E+01 0.00000E+00
 -1      3274 1.24785E+02 1.05013E+01 0.00000E+00
 -1      3275 1.23285E+02 1.05013E+01 0.00000E+00
 -1      3276 1.22535E+02 1.18003E+01 0.00000E+00
 -1      3277 1.27785E+02 1.05013E+01 0.00000E+00
 -1      3278 1.26285E+02 1.05013E+01 0.00000E+00
 -1      3279 1.25535E+02 1.18003E+01 0.00000E+00
 -1      3280 1.30785E+02 1.05013E+01 0.00000E+00
 -1      3281 1.29285E+02 1.05013E+01 0.00000E+00
 -1      3282 1.28535E+02 1.18003E+01 0.00000E+00
 -1      3283 1.33785E+02 1.05013E+01 0.00000E+00
 -1      3284 1.32285E+02 1.05013E+01 0.00000E+00
 -1      3285 1.31535E+02 1.18003E+01 0.00000E+00
 -1      3286 1.36785E+02 1.05013E+01 0.00000E+00
 -1      3287 1.35285E+02 1.05013E+01 0.00000E+00
 -1      3288 1.34535E+02 1.18003E+01 0.00000E+00
 -1      3289 1.38912E+02 1.10040E+01 0.00000E+00
 -1      3290 1.37744E+02 1.07233E+01 0.00000E+00
 -1      3291 1.36994E+02 1.20223E+01 0.00000E+00
 -1      3292 1.38912E+02 1.24665E+01 0.00000E+00
 -1      3293 9.76572E+01 2.58847E+01 0.00000E+00
 -1      3294 9.76541E+01 2.45653E+01 0.00000E+00
 -1      3295 1.38309E+02 2.57500E+01 0.00000E+00
 -1      3296 1.38309E+02 2.42750E+01 0.00000E+00
 -1      3297 1.37010E+02 2.64750E+01 0.00000E+00
 -1      3298 1.07485E+02 3.96803E+01 0.00000E+00
 -1      3299 9.92823E+01 2.08273E+01 0.00000E+00
 -1      3300 9.98867E+01 1.98594E+01 0.00000E+00
 -1      3301 9.81503E+01 2.08840E+01 0.00000E+00
 -1      3302 9.69377E+01 3.11546E+01 0.00000E+00
 -1      3303 9.68339E+01 2.98628E+01 0.00000E+00
 -1      3304 1.38309E+02 3.16187E+01 0.00000E+00
 -1      3305 1.38309E+02 3.01437E+01 0.00000E+00
 -1      3306 1.37010E+02 2.94188E+01 0.00000E+00
 -1      3307 1.37010E+02 3.23563E+01 0.00000E+00
 -1      3308 1.19877E+02 3.89229E+01 0.00000E+00
 -1      3309 1.08504E+02 3.99282E+01 0.00000E+00
 -1      3310 1.23238E+02 3.47735E+01 0.00000E+00
 -1      3311 1.22679E+02 3.60195E+01 0.00000E+00
 -1      3312 9.69448E+01 2.84771E+01 0.00000E+00
 -1      3313 9.73010E+01 2.71809E+01 0.00000E+00
 -1      3314 9.64419E+01 2.65232E+01 0.00000E+00
 -1      3315 1.24879E+02 2.98719E+01 0.00000E+00
 -1      3316 1.24507E+02 3.10340E+01 0.00000E+00
 -1      3317 1.00653E+02 1.84931E+01 0.00000E+00
 -1      3318 1.01643E+02 1.72701E+01 0.00000E+00
 -1      3319 1.29000E+01 3.83090E+01 0.00000E+00
 -1      3320 1.44000E+01 3.83090E+01 0.00000E+00
 -1      3321 1.51500E+01 3.70100E+01 0.00000E+00
 -1      3322 3.17850E+01 1.05013E+01 0.00000E+00
 -1      3323 3.02850E+01 1.05013E+01 0.00000E+00
 -1      3324 2.95350E+01 1.18003E+01 0.00000E+00
 -1      3325 1.38309E+02 3.75125E+01 0.00000E+00
 -1      3326 1.38309E+02 3.60375E+01 0.00000E+00
 -1      3327 1.37010E+02 3.53000E+01 0.00000E+00
 -1      3328 1.12710E+01 3.74352E+01 0.00000E+00
 -1      3329 1.20855E+01 3.78721E+01 0.00000E+00
 -1      3330 1.12065E+01 3.56994E+01 0.00000E+00
 -1      3331 1.17515E+02 1.64071E+01 0.00000E+00
 -1      3332 1.18748E+02 1.68010E+01 0.00000E+00
 -1      3333 1.17319E+02 1.53192E+01 0.00000E+00
 -1      3334 1.22882E+02 2.10823E+01 0.00000E+00
 -1      3335 1.23331E+02 2.25229E+01 0.00000E+00
 -1      3336 1.23554E+02 2.39869E+01 0.00000E+00
 -1      3337 1.23831E+02 2.52247E+01 0.00000E+00
 -1      3338 9.82421E+01 3.58296E+01 0.00000E+00
 -1      3339 1.24087E+02 3.22311E+01 0.00000E+00
 -1      3340 1.23667E+02 3.34283E+01 0.00000E+00
 -1      3341 1.25250E+02 3.19625E+01 0.00000E+00
 -1      3342 1.21724E+02 3.70122E+01 0.00000E+00
 -1      3343 1.20832E+02 3.79303E+01 0.00000E+00
 -1      3344 1.21105E+02 3.88280E+01 0.00000E+00
 -1      3345 1.23015E+02 3.68427E+01 0.00000E+00
 -1      3346 1.16910E+01 2.12875E+01 0.00000E+00
 -1      3347 1.16910E+01 2.27625E+01 0.00000E+00
 -1      3348 1.27380E+01 1.01829E+01 0.00000E+00
 -1      3349 1.20772E+01 1.14631E+01 0.00000E+00
 -1      3350 1.33763E+01 1.22006E+01 0.00000E+00
 -1      3351 1.41488E+01 1.02017E+01 0.00000E+00
 -1      3352 1.16910E+01 2.42375E+01 0.00000E+00
 -1      3353 1.16910E+01 2.57125E+01 0.00000E+00
 -1      3354 1.29900E+01 2.35000E+01 0.00000E+00
 -1      3355 1.16910E+01 1.98188E+01 0.00000E+00
 -1      3356 1.29900E+01 2.05562E+01 0.00000E+00
 -1      3357 1.16910E+01 1.83500E+01 0.00000E+00
 -1      3358 9.95205E+01 1.85498E+01 0.00000E+00
 -1      3359 9.71720E+01 2.35395E+01 0.00000E+00
 -1      3360 9.66899E+01 2.25137E+01 0.00000E+00
 -1      3361 9.63160E+01 2.42012E+01 0.00000E+00
 -1      3362 1.24388E+02 2.29364E+01 0.00000E+00
 -1      3363 1.24400E+02 3.45049E+01 0.00000E+00
 -1      3364 2.05350E+01 1.18003E+01 0.00000E+00
 -1      3365 1.97850E+01 1.05013E+01 0.00000E+00
 -1      3366 1.82850E+01 1.05013E+01 0.00000E+00
 -1      3367 1.24649E+02 2.59508E+01 0.00000E+00
 -1      3368 1.22605E+02 3.88280E+01 0.00000E+00
 -1      3369 1.35330E+02 3.70213E+01 0.00000E+00
 -1      3370 1.36080E+02 3.82978E+01 0.00000E+00
 -1      3371 1.37580E+02 3.82978E+01 0.00000E+00
 -1      3372 3.25350E+01 1.18003E+01 0.00000E+00
 -1      3373 1.38309E+02 1.98625E+01 0.00000E+00
 -1      3374 1.38309E+02 1.83875E+01 0.00000E+00
 -1      3375 1.02199E+02 1.63399E+01 0.00000E+00
 -1      3376 1.02754E+02 1.54097E+01 0.00000E+00
 -1      3377 1.00841E+02 1.62533E+01 0.00000E+00
 -1      3378 1.25477E+02 2.83947E+01 0.00000E+00
 -1      3379 1.25178E+02 2.91333E+01 0.00000E+00
 -1      3380 1.25968E+02 3.00268E+01 0.00000E+00
 -1      3381 1.38309E+02 2.28062E+01 0.00000E+00
 -1      3382 1.38309E+02 2.13312E+01 0.00000E+00
 -1      3383 1.37010E+02 2.05938E+01 0.00000E+00
 -1      3384 1.37010E+02 2.35313E+01 0.00000E+00
 -1      3385 1.05099E+02 1.45820E+01 0.00000E+00
 -1      3386 1.06274E+02 1.50007E+01 0.00000E+00
 -1      3387 1.10797E+02 1.45603E+01 0.00000E+00
 -1      3388 1.11660E+02 1.39717E+01 0.00000E+00
 -1      3389 1.29900E+01 1.46687E+01 0.00000E+00
 -1      3390 1.16910E+01 1.54063E+01 0.00000E+00
 -1      3391 1.16910E+01 1.68750E+01 0.00000E+00
 -1      3392 1.39893E+02 3.90114E+01 0.00000E+00
 -1      3393 1.14425E+02 1.47940E+01 0.00000E+00
 -1      3394 1.19787E+02 1.59066E+01 0.00000E+00
 -1      3395 1.19982E+02 1.69945E+01 0.00000E+00
 -1      3396 1.21216E+02 1.71880E+01 0.00000E+00
 -1      3397 1.38879E+02 3.90353E+01 0.00000E+00
 -1      3398 9.73482E+01 3.53388E+01 0.00000E+00
 -1      3399 9.64910E+01 3.21382E+01 0.00000E+00
 -1      3400 9.54173E+01 3.15744E+01 0.00000E+00
 -1      3401 9.60443E+01 3.31217E+01 0.00000E+00
 -1      3402 1.07418E+02 1.48773E+01 0.00000E+00
 -1      3403 1.09653E+02 1.46837E+01 0.00000E+00
 -1      3404 1.28355E+01 3.65731E+01 0.00000E+00
 -1      3405 9.59748E+01 2.92051E+01 0.00000E+00
 -1      3406 1.38375E+02 1.71472E+01 0.00000E+00
 -1      3407 1.38440E+02 1.59068E+01 0.00000E+00
 -1      3408 1.37076E+02 1.78847E+01 0.00000E+00
 -1      3409 1.23355E+02 3.75515E+01 0.00000E+00
 -1      3410 1.16910E+01 3.01219E+01 0.00000E+00
 -1      3411 1.16910E+01 3.15906E+01 0.00000E+00
 -1      3412 1.22788E+02 1.98741E+01 0.00000E+00
 -1      3413 1.24071E+02 2.02641E+01 0.00000E+00
 -1      3414 1.22694E+02 1.86658E+01 0.00000E+00
 -1      3415 1.14487E+01 3.29106E+01 0.00000E+00
 -1      3416 1.14487E+01 3.43794E+01 0.00000E+00
 -1      3417 1.22633E+01 3.48162E+01 0.00000E+00
 -1      3418 1.27478E+01 3.21763E+01 0.00000E+00
 -1      3419 1.69669E+01 1.03515E+01 0.00000E+00
 -1      3420 1.54669E+01 1.03515E+01 0.00000E+00
 -1      3421 1.50806E+01 1.13509E+01 0.00000E+00
 -1      3422 1.77169E+01 1.16505E+01 0.00000E+00
 -1      3423 2.04000E+01 3.57110E+01 0.00000E+00
 -1      3424 2.19000E+01 3.57110E+01 0.00000E+00
 -1      3425 2.34000E+01 3.57110E+01 0.00000E+00
 -1      3426 2.49000E+01 3.57110E+01 0.00000E+00
 -1      3427 2.26500E+01 3.44120E+01 0.00000E+00
 -1      3428 2.64000E+01 3.57110E+01 0.00000E+00
 -1      3429 2.79000E+01 3.57110E+01 0.00000E+00
 -1      3430 2.56500E+01 3.44120E+01 0.00000E+00
 -1      3431 2.94000E+01 3.57110E+01 0.00000E+00
 -1      3432 3.09000E+01 3.57110E+01 0.00000E+00
 -1      3433 2.86500E+01 3.44120E+01 0.00000E+00
 -1      3434 3.24000E+01 3.57110E+01 0.00000E+00
 -1      3435 3.39000E+01 3.57110E+01 0.00000E+00
 -1      3436 3.16500E+01 3.44120E+01 0.00000E+00
 -1      3437 3.54000E+01 3.57110E+01 0.00000E+00
 -1      3438 3.69000E+01 3.57110E+01 0.00000E+00
 -1      3439 3.46500E+01 3.44120E+01 0.00000E+00
 -1      3440 3.84000E+01 3.57110E+01 0.00000E+00
 -1      3441 3.99000E+01 3.57110E+01 0.00000E+00
 -1      3442 3.76500E+01 3.44120E+01 0.00000E+00
 -1      3443 4.14000E+01 3.57110E+01 0.00000E+00
 -1      3444 4.29000E+01 3.57110E+01 0.00000E+00
 -1      3445 4.06500E+01 3.44120E+01 0.00000E+00
 -1      3446 4.44000E+01 3.57110E+01 0.00000E+00
 -1      3447 4.59000E+01 3.57110E+01 0.00000E+00
 -1      3448 4.36500E+01 3.44120E+01 0.00000E+00
 -1      3449 4.74000E+01 3.57110E+01 0.00000E+00
 -1      3450 4.89000E+01 3.57110E+01 0.00000E+00
 -1      3451 4.66500E+01 3.44120E+01 0.00000E+00
 -1      3452 5.04000E+01 3.57110E+01 0.00000E+00
 -1      3453 5.19000E+01 3.57110E+01 0.00000E+00
 -1      3454 4.96500E+01 3.44120E+01 0.00000E+00
 -1      3455 5.34000E+01 3.57110E+01 0.00000E+00
 -1      3456 5.49000E+01 3.57110E+01 0.00000E+00
 -1      3457 5.26500E+01 3.44120E+01 0.00000E+00
 -1      3458 5.64000E+01 3.57110E+01 0.00000E+00
 -1      3459 5.79000E+01 3.57110E+01 0.00000E+00
 -1      3460 5.56500E+01 3.44120E+01 0.00000E+00
 -1      3461 5.94000E+01 3.57110E+01 0.00000E+00
 -1      3462 6.09000E+01 3.57110E+01 0.00000E+00
 -1      3463 5.86500E+01 3.44120E+01 0.00000E+00
 -1      3464 6.24000E+01 3.57110E+01 0.00000E+00
 -1      3465 6.39000E+01 3.57110E+01 0.00000E+00
 -1      3466 6.16500E+01 3.44120E+01 0.00000E+00
 -1      3467 6.54000E+01 3.57110E+01 0.00000E+00
 -1      3468 6.69000E+01 3.57110E+01 0.00000E+00
 -1      3469 6.46500E+01 3.44120E+01 0.00000E+00
 -1      3470 6.84000E+01 3.57110E+01 0.00000E+00
 -1      3471 6.99000E+01 3.57110E+01 0.00000E+00
 -1      3472 6.76500E+01 3.44120E+01 0.00000E+00
 -1      3473 7.14000E+01 3.57110E+01 0.00000E+00
 -1      3474 7.29000E+01 3.57110E+01 0.00000E+00
 -1      3475 7.06500E+01 3.44120E+01 0.00000E+00
 -1      3476 7.44000E+01 3.57110E+01 0.00000E+00
 -1      3477 7.59000E+01 3.57110E+01 0.00000E+00
 -1      3478 7.36500E+01 3.44120E+01 0.00000E+00
 -1      3479 7.74000E+01 3.57110E+01 0.00000E+00
 -1      3480 7.89000E+01 3.57110E+01 0.00000E+00
 -1      3481 7.66500E+01 3.44120E+01 0.00000E+00
 -1      3482 8.04000E+01 3.57110E+01 0.00000E+00
 -1      3483 8.19000E+01 3.57110E+01 0.00000E+00
 -1      3484 7.96500E+01 3.44120E+01 0.00000E+00
 -1      3485 8.34000E+01 3.57110E+01 0.00000E+00
 -1      3486 8.49000E+01 3.57110E+01 0.00000E+00
 -1      3487 8.26500E+01 3.44120E+01 0.00000E+00
 -1      3488 8.64000E+01 3.57110E+01 0.00000E+00
 -1      3489 8.79000E+01 3.57110E+01 0.00000E+00
 -1      3490 8.56500E+01 3.44120E+01 0.00000E+00
 -1      3491 8.94000E+01 3.57110E+01 0.00000E+00
 -1      3492 9.09000E+01 3.57110E+01 0.00000E+00
 -1      3493 8.86500E+01 3.44120E+01 0.00000E+00
 -1      3494 9.58840E+01 3.53478E+01 0.00000E+00
 -1      3495 1.35330E+02 3.55463E+01 0.00000E+00
 -1      3496 1.35330E+02 3.40713E+01 0.00000E+00
 -1      3497 1.33650E+02 3.57926E+01 0.00000E+00
 -1      3498 1.28400E+02 3.59686E+01 0.00000E+00
 -1      3499 1.29900E+02 3.59686E+01 0.00000E+00
 -1      3500 1.31025E+02 3.58806E+01 0.00000E+00
 -1      3501 1.32525E+02 3.58806E+01 0.00000E+00
 -1      3502 1.32525E+02 3.44056E+01 0.00000E+00
 -1      3503 1.30275E+02 3.45816E+01 0.00000E+00
 -1      3504 2.72850E+01 1.30992E+01 0.00000E+00
 -1      3505 2.57850E+01 1.30992E+01 0.00000E+00
 -1      3506 2.42850E+01 1.30992E+01 0.00000E+00
 -1      3507 2.27850E+01 1.30992E+01 0.00000E+00
 -1      3508 2.50350E+01 1.43982E+01 0.00000E+00
 -1      3509 3.62850E+01 1.30992E+01 0.00000E+00
 -1      3510 3.47850E+01 1.30992E+01 0.00000E+00
 -1      3511 4.52850E+01 1.30992E+01 0.00000E+00
 -1      3512 4.37850E+01 1.30992E+01 0.00000E+00
 -1      3513 4.82850E+01 1.30992E+01 0.00000E+00
 -1      3514 4.67850E+01 1.30992E+01 0.00000E+00
 -1      3515 4.60350E+01 1.43982E+01 0.00000E+00
 -1      3516 5.12850E+01 1.30992E+01 0.00000E+00
 -1      3517 4.97850E+01 1.30992E+01 0.00000E+00
 -1      3518 4.90350E+01 1.43982E+01 0.00000E+00
 -1      3519 5.42850E+01 1.30992E+01 0.00000E+00
 -1      3520 5.27850E+01 1.30992E+01 0.00000E+00
 -1      3521 5.20350E+01 1.43982E+01 0.00000E+00
 -1      3522 5.72850E+01 1.30992E+01 0.00000E+00
 -1      3523 5.57850E+01 1.30992E+01 0.00000E+00
 -1      3524 5.50350E+01 1.43982E+01 0.00000E+00
 -1      3525 6.02850E+01 1.30992E+01 0.00000E+00
 -1      3526 5.87850E+01 1.30992E+01 0.00000E+00
 -1      3527 5.80350E+01 1.43982E+01 0.00000E+00
 -1      3528 6.32850E+01 1.30992E+01 0.00000E+00
 -1      3529 6.17850E+01 1.30992E+01 0.00000E+00
 -1      3530 6.10350E+01 1.43982E+01 0.00000E+00
 -1      3531 6.62850E+01 1.30992E+01 0.00000E+00
 -1      3532 6.47850E+01 1.30992E+01 0.00000E+00
 -1      3533 6.40350E+01 1.43982E+01 0.00000E+00
 -1      3534 6.92850E+01 1.30992E+01 0.00000E+00
 -1      3535 6.77850E+01 1.30992E+01 0.00000E+00
 -1      3536 6.70350E+01 1.43982E+01 0.00000E+00
 -1      3537 7.22850E+01 1.30992E+01 0.00000E+00
 -1      3538 7.07850E+01 1.30992E+01 0.00000E+00
 -1      3539 7.00350E+01 1.43982E+01 0.00000E+00
 -1      3540 7.52850E+01 1.30992E+01 0.00000E+00
 -1      3541 7.37850E+01 1.30992E+01 0.00000E+00
 -1      3542 7.30350E+01 1.43982E+01 0.00000E+00
 -1      3543 7.82850E+01 1.30992E+01 0.00000E+00
 -1      3544 7.67850E+01 1.30992E+01 0.00000E+00
 -1      3545 7.60350E+01 1.43982E+01 0.00000E+00
 -1      3546 8.12850E+01 1.30992E+01 0.00000E+00
 -1      3547 7.97850E+01 1.30992E+01 0.00000E+00
 -1      3548 7.90350E+01 1.43982E+01 0.00000E+00
 -1      3549 8.42850E+01 1.30992E+01 0.00000E+00
 -1      3550 8.27850E+01 1.30992E+01 0.00000E+00
 -1      3551 8.20350E+01 1.43982E+01 0.00000E+00
 -1      3552 8.72850E+01 1.30992E+01 0.00000E+00
 -1      3553 8.57850E+01 1.30992E+01 0.00000E+00
 -1      3554 8.50350E+01 1.43982E+01 0.00000E+00
 -1      3555 9.02850E+01 1.30992E+01 0.00000E+00
 -1      3556 8.87850E+01 1.30992E+01 0.00000E+00
 -1      3557 8.80350E+01 1.43982E+01 0.00000E+00
 -1      3558 9.32850E+01 1.30992E+01 0.00000E+00
 -1      3559 9.17850E+01 1.30992E+01 0.00000E+00
 -1      3560 9.10350E+01 1.43982E+01 0.00000E+00
 -1      3561 9.62850E+01 1.30992E+01 0.00000E+00
 -1      3562 9.47850E+01 1.30992E+01 0.00000E+00
 -1      3563 9.40350E+01 1.43982E+01 0.00000E+00
 -1      3564 9.92850E+01 1.30992E+01 0.00000E+00
 -1      3565 9.77850E+01 1.30992E+01 0.00000E+00
 -1      3566 9.70350E+01 1.43982E+01 0.00000E+00
 -1      3567 1.02216E+02 1.35617E+01 0.00000E+00
 -1      3568 1.00716E+02 1.35617E+01 0.00000E+00
 -1      3569 1.07561E+02 1.27340E+01 0.00000E+00
 -1      3570 1.06061E+02 1.27340E+01 0.00000E+00
 -1      3571 1.11296E+02 1.25405E+01 0.00000E+00
 -1      3572 1.09796E+02 1.25405E+01 0.00000E+00
 -1      3573 1.17060E+02 1.33628E+01 0.00000E+00
 -1      3574 1.15560E+02 1.33628E+01 0.00000E+00
 -1      3575 1.19794E+02 1.37567E+01 0.00000E+00
 -1      3576 1.18294E+02 1.37567E+01 0.00000E+00
 -1      3577 1.22528E+02 1.39502E+01 0.00000E+00
 -1      3578 1.21028E+02 1.39502E+01 0.00000E+00
 -1      3579 1.29285E+02 1.30992E+01 0.00000E+00
 -1      3580 1.27785E+02 1.30992E+01 0.00000E+00
 -1      3581 1.32285E+02 1.30992E+01 0.00000E+00
 -1      3582 1.30785E+02 1.30992E+01 0.00000E+00
 -1      3583 1.30035E+02 1.43982E+01 0.00000E+00
 -1      3584 1.35285E+02 1.30992E+01 0.00000E+00
 -1      3585 1.33785E+02 1.30992E+01 0.00000E+00
 -1      3586 1.33035E+02 1.43982E+01 0.00000E+00
 -1      3587 3.32850E+01 1.30992E+01 0.00000E+00
 -1      3588 3.17850E+01 1.30992E+01 0.00000E+00
 -1      3589 3.40350E+01 1.43982E+01 0.00000E+00
 -1      3590 1.35711E+02 2.72125E+01 0.00000E+00
 -1      3591 1.35711E+02 2.57375E+01 0.00000E+00
 -1      3592 1.25655E+02 2.51509E+01 0.00000E+00
 -1      3593 1.25692E+02 2.67013E+01 0.00000E+00
 -1      3594 3.02850E+01 1.30992E+01 0.00000E+00
 -1      3595 2.87850E+01 1.30992E+01 0.00000E+00
 -1      3596 3.10350E+01 1.43982E+01 0.00000E+00
 -1      3597 1.12399E+02 1.32315E+01 0.00000E+00
 -1      3598 1.13899E+02 1.32315E+01 0.00000E+00
 -1      3599 9.68364E+01 2.07363E+01 0.00000E+00
 -1      3600 9.74408E+01 1.97683E+01 0.00000E+00
 -1      3601 1.25373E+02 2.20372E+01 0.00000E+00
 -1      3602 1.25596E+02 2.35013E+01 0.00000E+00
 -1      3603 4.22850E+01 1.30992E+01 0.00000E+00
 -1      3604 4.07850E+01 1.30992E+01 0.00000E+00
 -1      3605 4.30350E+01 1.43982E+01 0.00000E+00
 -1      3606 9.48103E+01 3.47839E+01 0.00000E+00
 -1      3607 3.92850E+01 1.30992E+01 0.00000E+00
 -1      3608 3.77850E+01 1.30992E+01 0.00000E+00
 -1      3609 4.00350E+01 1.43982E+01 0.00000E+00
 -1      3610 9.53561E+01 2.69219E+01 0.00000E+00
 -1      3611 9.57123E+01 2.56257E+01 0.00000E+00
 -1      3612 1.16910E+01 2.86531E+01 0.00000E+00
 -1      3613 1.29900E+01 2.93875E+01 0.00000E+00
 -1      3614 1.16910E+01 2.71844E+01 0.00000E+00
 -1      3615 1.38643E+02 1.48068E+01 0.00000E+00
 -1      3616 1.38709E+02 1.35665E+01 0.00000E+00
 -1      3617 1.37750E+02 1.33444E+01 0.00000E+00
 -1      3618 1.37344E+02 1.55443E+01 0.00000E+00
 -1      3619 1.74000E+01 3.57110E+01 0.00000E+00
 -1      3620 1.89000E+01 3.57110E+01 0.00000E+00
 -1      3621 1.96500E+01 3.44120E+01 0.00000E+00
 -1      3622 1.24310E+02 3.65588E+01 0.00000E+00
 -1      3623 9.48976E+01 2.98163E+01 0.00000E+00
 -1      3624 9.50084E+01 2.84305E+01 0.00000E+00
 -1      3625 1.30778E+01 3.52531E+01 0.00000E+00
 -1      3626 1.38923E+01 3.56900E+01 0.00000E+00
 -1      3627 1.33200E+01 3.39331E+01 0.00000E+00
 -1      3628 1.26506E+02 3.17311E+01 0.00000E+00
 -1      3629 1.26086E+02 3.29283E+01 0.00000E+00
 -1      3630 1.25105E+02 3.55318E+01 0.00000E+00
 -1      3631 1.25445E+02 3.62407E+01 0.00000E+00
 -1      3632 1.26945E+02 3.62407E+01 0.00000E+00
 -1      3633 1.25535E+02 3.41867E+01 0.00000E+00
 -1      3634 1.46944E+01 1.23503E+01 0.00000E+00
 -1      3635 1.43081E+01 1.33498E+01 0.00000E+00
 -1      3636 1.60125E+01 1.25001E+01 0.00000E+00
 -1      3637 1.29900E+01 1.76125E+01 0.00000E+00
 -1      3638 9.52302E+01 2.45999E+01 0.00000E+00
 -1      3639 1.42890E+01 1.98219E+01 0.00000E+00
 -1      3640 1.42890E+01 2.12906E+01 0.00000E+00
 -1      3641 2.12850E+01 1.30992E+01 0.00000E+00
 -1      3642 1.97850E+01 1.30992E+01 0.00000E+00
 -1      3643 2.20350E+01 1.43982E+01 0.00000E+00
 -1      3644 9.24000E+01 3.57110E+01 0.00000E+00
 -1      3645 9.39000E+01 3.57110E+01 0.00000E+00
 -1      3646 2.80350E+01 1.43982E+01 0.00000E+00
 -1      3647 1.27695E+02 3.49417E+01 0.00000E+00
 -1      3648 1.43081E+01 1.48185E+01 0.00000E+00
 -1      3649 1.34412E+02 2.50063E+01 0.00000E+00
 -1      3650 1.35711E+02 2.42687E+01 0.00000E+00
 -1      3651 1.35711E+02 2.28000E+01 0.00000E+00
 -1      3652 9.94107E+01 1.57909E+01 0.00000E+00
 -1      3653 9.99658E+01 1.48607E+01 0.00000E+00
 -1      3654 3.70350E+01 1.43982E+01 0.00000E+00
 -1      3655 9.51244E+01 2.20598E+01 0.00000E+00
 -1      3656 9.59804E+01 2.13980E+01 0.00000E+00
 -1      3657 9.52710E+01 2.02823E+01 0.00000E+00
 -1      3658 1.03795E+02 1.41638E+01 0.00000E+00
 -1      3659 1.04782E+02 1.32495E+01 0.00000E+00
 -1      3660 1.04757E+02 1.23158E+01 0.00000E+00
 -1      3661 1.08892E+02 1.39435E+01 0.00000E+00
 -1      3662 1.53923E+01 3.56900E+01 0.00000E+00
 -1      3663 1.25279E+02 2.08290E+01 0.00000E+00
 -1      3664 1.26487E+02 2.13939E+01 0.00000E+00
 -1      3665 1.25186E+02 1.96208E+01 0.00000E+00
 -1      3666 1.27035E+02 1.43982E+01 0.00000E+00
 -1      3667 1.26285E+02 1.30992E+01 0.00000E+00
 -1      3668 1.24785E+02 1.30992E+01 0.00000E+00
 -1      3669 1.36791E+02 1.31223E+01 0.00000E+00
 -1      3670 1.35711E+02 2.86812E+01 0.00000E+00
 -1      3671 1.34412E+02 2.79438E+01 0.00000E+00
 -1      3672 1.35711E+02 3.01500E+01 0.00000E+00
 -1      3673 1.61423E+01 3.43910E+01 0.00000E+00
 -1      3674 1.26483E+02 2.75947E+01 0.00000E+00
 -1      3675 1.35520E+02 3.28450E+01 0.00000E+00
 -1      3676 1.35520E+02 3.13763E+01 0.00000E+00
 -1      3677 1.34221E+02 3.06388E+01 0.00000E+00
 -1      3678 1.33840E+02 3.30914E+01 0.00000E+00
 -1      3679 1.26639E+02 2.42517E+01 0.00000E+00
 -1      3680 1.55880E+01 2.20313E+01 0.00000E+00
 -1      3681 1.42890E+01 2.27656E+01 0.00000E+00
 -1      3682 1.42890E+01 2.42406E+01 0.00000E+00
 -1      3683 1.23278E+02 1.52492E+01 0.00000E+00
 -1      3684 1.35746E+02 1.84362E+01 0.00000E+00
 -1      3685 1.35811E+02 1.71959E+01 0.00000E+00
 -1      3686 1.29900E+01 2.64469E+01 0.00000E+00
 -1      3687 9.42788E+01 2.75330E+01 0.00000E+00
 -1      3688 1.42890E+01 2.86531E+01 0.00000E+00
 -1      3689 1.42890E+01 3.01219E+01 0.00000E+00
 -1      3690 1.35728E+02 2.13525E+01 0.00000E+00
 -1      3691 1.35728E+02 1.98837E+01 0.00000E+00
 -1      3692 1.34464E+02 1.91949E+01 0.00000E+00
 -1      3693 1.34429E+02 2.20900E+01 0.00000E+00
 -1      3694 9.80045E+01 1.85978E+01 0.00000E+00
 -1      3695 9.87703E+01 1.72315E+01 0.00000E+00
 -1      3696 1.27103E+02 3.02540E+01 0.00000E+00
 -1      3697 1.26805E+02 3.09926E+01 0.00000E+00
 -1      3698 1.27641E+02 3.19583E+01 0.00000E+00
 -1      3699 9.40041E+01 3.17833E+01 0.00000E+00
 -1      3700 9.44508E+01 3.07998E+01 0.00000E+00
 -1      3701 9.34844E+01 3.00252E+01 0.00000E+00
 -1      3702 1.39256E+01 3.13675E+01 0.00000E+00
 -1      3703 1.36834E+01 3.26875E+01 0.00000E+00
 -1      3704 1.44979E+01 3.31244E+01 0.00000E+00
 -1      3705 1.52246E+01 3.06331E+01 0.00000E+00
 -1      3706 1.26791E+02 3.39553E+01 0.00000E+00
 -1      3707 9.78946E+01 1.58389E+01 0.00000E+00
 -1      3708 9.16500E+01 3.44120E+01 0.00000E+00
 -1      3709 1.36041E+02 1.44213E+01 0.00000E+00
 -1      3710 9.66906E+01 1.84501E+01 0.00000E+00
 -1      3711 1.42890E+01 1.83469E+01 0.00000E+00
 -1      3712 1.55880E+01 1.90812E+01 0.00000E+00
 -1      3713 1.42890E+01 1.68719E+01 0.00000E+00
 -1      3714 1.35838E+02 1.55213E+01 0.00000E+00
 -1      3715 2.49000E+01 3.31130E+01 0.00000E+00
 -1      3716 2.64000E+01 3.31130E+01 0.00000E+00
 -1      3717 2.79000E+01 3.31130E+01 0.00000E+00
 -1      3718 2.94000E+01 3.31130E+01 0.00000E+00
 -1      3719 2.71500E+01 3.18140E+01 0.00000E+00
 -1      3720 3.09000E+01 3.31130E+01 0.00000E+00
 -1      3721 3.24000E+01 3.31130E+01 0.00000E+00
 -1      3722 3.01500E+01 3.18140E+01 0.00000E+00
 -1      3723 3.39000E+01 3.31130E+01 0.00000E+00
 -1      3724 3.54000E+01 3.31130E+01 0.00000E+00
 -1      3725 3.31500E+01 3.18140E+01 0.00000E+00
 -1      3726 3.69000E+01 3.31130E+01 0.00000E+00
 -1      3727 3.84000E+01 3.31130E+01 0.00000E+00
 -1      3728 3.61500E+01 3.18140E+01 0.00000E+00
 -1      3729 3.99000E+01 3.31130E+01 0.00000E+00
 -1      3730 4.14000E+01 3.31130E+01 0.00000E+00
 -1      3731 3.91500E+01 3.18140E+01 0.00000E+00
 -1      3732 4.29000E+01 3.31130E+01 0.00000E+00
 -1      3733 4.44000E+01 3.31130E+01 0.00000E+00
 -1      3734 4.21500E+01 3.18140E+01 0.00000E+00
 -1      3735 4.59000E+01 3.31130E+01 0.00000E+00
 -1      3736 4.74000E+01 3.31130E+01 0.00000E+00
 -1      3737 4.51500E+01 3.18140E+01 0.00000E+00
 -1      3738 4.89000E+01 3.31130E+01 0.00000E+00
 -1      3739 5.04000E+01 3.31130E+01 0.00000E+00
 -1      3740 4.81500E+01 3.18140E+01 0.00000E+00
 -1      3741 5.19000E+01 3.31130E+01 0.00000E+00
 -1      3742 5.34000E+01 3.31130E+01 0.00000E+00
 -1      3743 5.11500E+01 3.18140E+01 0.00000E+00
 -1      3744 5.49000E+01 3.31130E+01 0.00000E+00
 -1      3745 5.64000E+01 3.31130E+01 0.00000E+00
 -1      3746 5.41500E+01 3.18140E+01 0.00000E+00
 -1      3747 5.79000E+01 3.31130E+01 0.00000E+00
 -1      3748 5.94000E+01 3.31130E+01 0.00000E+00
 -1      3749 5.71500E+01 3.18140E+01 0.00000E+00
 -1      3750 6.09000E+01 3.31130E+01 0.00000E+00
 -1      3751 6.24000E+01 3.31130E+01 0.00000E+00
 -1      3752 6.01500E+01 3.18140E+01 0.00000E+00
 -1      3753 6.39000E+01 3.31130E+01 0.00000E+00
 -1      3754 6.54000E+01 3.31130E+01 0.00000E+00
 -1      3755 6.31500E+01 3.18140E+01 0.00000E+00
 -1      3756 6.69000E+01 3.31130E+01 0.00000E+00
 -1      3757 6.84000E+01 3.31130E+01 0.00000E+00
 -1      3758 6.61500E+01 3.18140E+01 0.00000E+00
 -1      3759 6.99000E+01 3.31130E+01 0.00000E+00
 -1      3760 7.14000E+01 3.31130E+01 0.00000E+00
 -1      3761 6.91500E+01 3.18140E+01 0.00000E+00
 -1      3762 7.29000E+01 3.31130E+01 0.00000E+00
 -1      3763 7.44000E+01 3.31130E+01 0.00000E+00
 -1      3764 7.21500E+01 3.18140E+01 0.00000E+00
 -1      3765 7.59000E+01 3.31130E+01 0.00000E+00
 -1      3766 7.74000E+01 3.31130E+01 0.00000E+00
 -1      3767 7.51500E+01 3.18140E+01 0.00000E+00
 -1      3768 7.89000E+01 3.31130E+01 0.00000E+00
 -1      3769 8.04000E+01 3.31130E+01 0.00000E+00
 -1      3770 7.81500E+01 3.18140E+01 0.00000E+00
 -1      3771 8.19000E+01 3.31130E+01 0.00000E+00
 -1      3772 8.34000E+01 3.31130E+01 0.00000E+00
 -1      3773 8.11500E+01 3.18140E+01 0.00000E+00
 -1      3774 8.49000E+01 3.31130E+01 0.00000E+00
 -1      3775 8.64000E+01 3.31130E+01 0.00000E+00
 -1      3776 8.41500E+01 3.18140E+01 0.00000E+00
 -1      3777 8.79000E+01 3.31130E+01 0.00000E+00
 -1      3778 8.94000E+01 3.31130E+01 0.00000E+00
 -1      3779 8.71500E+01 3.18140E+01 0.00000E+00
 -1      3780 2.87850E+01 1.56973E+01 0.00000E+00
 -1      3781 2.72850E+01 1.56973E+01 0.00000E+00
 -1      3782 2.57850E+01 1.56973E+01 0.00000E+00
 -1      3783 2.42850E+01 1.56973E+01 0.00000E+00
 -1      3784 2.65350E+01 1.69963E+01 0.00000E+00
 -1      3785 9.40603E+01 3.34849E+01 0.00000E+00
 -1      3786 3.77850E+01 1.56973E+01 0.00000E+00
 -1      3787 3.62850E+01 1.56973E+01 0.00000E+00
 -1      3788 4.67850E+01 1.56973E+01 0.00000E+00
 -1      3789 4.52850E+01 1.56973E+01 0.00000E+00
 -1      3790 5.57850E+01 1.56973E+01 0.00000E+00
 -1      3791 5.42850E+01 1.56973E+01 0.00000E+00
 -1      3792 5.87850E+01 1.56973E+01 0.00000E+00
 -1      3793 5.72850E+01 1.56973E+01 0.00000E+00
 -1      3794 5.65350E+01 1.69963E+01 0.00000E+00
 -1      3795 6.17850E+01 1.56973E+01 0.00000E+00
 -1      3796 6.02850E+01 1.56973E+01 0.00000E+00
 -1      3797 5.95350E+01 1.69963E+01 0.00000E+00
 -1      3798 6.47850E+01 1.56973E+01 0.00000E+00
 -1      3799 6.32850E+01 1.56973E+01 0.00000E+00
 -1      3800 6.25350E+01 1.69963E+01 0.00000E+00
 -1      3801 6.77850E+01 1.56973E+01 0.00000E+00
 -1      3802 6.62850E+01 1.56973E+01 0.00000E+00
 -1      3803 6.55350E+01 1.69963E+01 0.00000E+00
 -1      3804 7.07850E+01 1.56973E+01 0.00000E+00
 -1      3805 6.92850E+01 1.56973E+01 0.00000E+00
 -1      3806 6.85350E+01 1.69963E+01 0.00000E+00
 -1      3807 7.37850E+01 1.56973E+01 0.00000E+00
 -1      3808 7.22850E+01 1.56973E+01 0.00000E+00
 -1      3809 7.15350E+01 1.69963E+01 0.00000E+00
 -1      3810 7.67850E+01 1.56973E+01 0.00000E+00
 -1      3811 7.52850E+01 1.56973E+01 0.00000E+00
 -1      3812 7.45350E+01 1.69963E+01 0.00000E+00
 -1      3813 7.97850E+01 1.56973E+01 0.00000E+00
 -1      3814 7.82850E+01 1.56973E+01 0.00000E+00
 -1      3815 7.75350E+01 1.69963E+01 0.00000E+00
 -1      3816 8.27850E+01 1.56973E+01 0.00000E+00
 -1      3817 8.12850E+01 1.56973E+01 0.00000E+00
 -1      3818 8.05350E+01 1.69963E+01 0.00000E+00
 -1      3819 8.57850E+01 1.56973E+01 0.00000E+00
 -1      3820 8.42850E+01 1.56973E+01 0.00000E+00
 -1      3821 8.35350E+01 1.69963E+01 0.00000E+00
 -1      3822 8.87850E+01 1.56973E+01 0.00000E+00
 -1      3823 8.72850E+01 1.56973E+01 0.00000E+00
 -1      3824 8.65350E+01 1.69963E+01 0.00000E+00
 -1      3825 9.17850E+01 1.56973E+01 0.00000E+00
 -1      3826 9.02850E+01 1.56973E+01 0.00000E+00
 -1      3827 8.95350E+01 1.69963E+01 0.00000E+00
 -1      3828 9.47850E+01 1.56973E+01 0.00000E+00
 -1      3829 9.32850E+01 1.56973E+01 0.00000E+00
 -1      3830 9.25350E+01 1.69963E+01 0.00000E+00
 -1      3831 9.63946E+01 1.58389E+01 0.00000E+00
 -1      3832 1.03257E+02 1.23158E+01 0.00000E+00
 -1      3833 1.27785E+02 1.56973E+01 0.00000E+00
 -1      3834 1.26285E+02 1.56973E+01 0.00000E+00
 -1      3835 1.30785E+02 1.56973E+01 0.00000E+00
 -1      3836 1.29285E+02 1.56973E+01 0.00000E+00
 -1      3837 1.28535E+02 1.69963E+01 0.00000E+00
 -1      3838 9.50810E+01 1.83084E+01 0.00000E+00
 -1      3839 9.56446E+01 1.71379E+01 0.00000E+00
 -1      3840 3.47850E+01 1.56973E+01 0.00000E+00
 -1      3841 3.32850E+01 1.56973E+01 0.00000E+00
 -1      3842 3.55350E+01 1.69963E+01 0.00000E+00
 -1      3843 1.28246E+02 3.36833E+01 0.00000E+00
 -1      3844 9.39073E+01 2.48794E+01 0.00000E+00
 -1      3845 9.45110E+01 2.34549E+01 0.00000E+00
 -1      3846 3.17850E+01 1.56973E+01 0.00000E+00
 -1      3847 3.02850E+01 1.56973E+01 0.00000E+00
 -1      3848 3.25350E+01 1.69963E+01 0.00000E+00
 -1      3849 1.65056E+01 3.31454E+01 0.00000E+00
 -1      3850 4.37850E+01 1.56973E+01 0.00000E+00
 -1      3851 4.22850E+01 1.56973E+01 0.00000E+00
 -1      3852 4.45350E+01 1.69963E+01 0.00000E+00
 -1      3853 5.27850E+01 1.56973E+01 0.00000E+00
 -1      3854 5.12850E+01 1.56973E+01 0.00000E+00
 -1      3855 5.35350E+01 1.69963E+01 0.00000E+00
 -1      3856 1.42890E+01 2.57109E+01 0.00000E+00
 -1      3857 1.42890E+01 2.71828E+01 0.00000E+00
 -1      3858 1.55880E+01 2.79172E+01 0.00000E+00
 -1      3859 1.55880E+01 2.49766E+01 0.00000E+00
 -1      3860 9.31060E+01 2.80571E+01 0.00000E+00
 -1      3861 9.34537E+01 2.65484E+01 0.00000E+00
 -1      3862 4.07850E+01 1.56973E+01 0.00000E+00
 -1      3863 3.92850E+01 1.56973E+01 0.00000E+00
 -1      3864 4.15350E+01 1.69963E+01 0.00000E+00
 -1      3865 1.22400E+02 1.73297E+01 0.00000E+00
 -1      3866 1.23683E+02 1.77197E+01 0.00000E+00
 -1      3867 9.30938E+01 3.27104E+01 0.00000E+00
 -1      3868 1.34508E+02 1.60728E+01 0.00000E+00
 -1      3869 1.33008E+02 1.60728E+01 0.00000E+00
 -1      3870 1.22204E+02 1.62418E+01 0.00000E+00
 -1      3871 1.25211E+02 1.66899E+01 0.00000E+00
 -1      3872 1.25506E+02 1.80260E+01 0.00000E+00
 -1      3873 1.27718E+02 2.33874E+01 0.00000E+00
 -1      3874 1.27777E+02 2.50369E+01 0.00000E+00
 -1      3875 1.85578E+01 1.28746E+01 0.00000E+00
 -1      3876 1.72397E+01 1.27248E+01 0.00000E+00
 -1      3877 1.68534E+01 1.37242E+01 0.00000E+00
 -1      3878 1.93078E+01 1.41736E+01 0.00000E+00
 -1      3879 1.89000E+01 3.31130E+01 0.00000E+00
 -1      3880 2.04000E+01 3.31130E+01 0.00000E+00
 -1      3881 1.32258E+02 1.73718E+01 0.00000E+00
 -1      3882 1.27774E+02 2.68987E+01 0.00000E+00
 -1      3883 1.27558E+02 2.85921E+01 0.00000E+00
 -1      3884 4.97850E+01 1.56973E+01 0.00000E+00
 -1      3885 4.82850E+01 1.56973E+01 0.00000E+00
 -1      3886 4.75350E+01 1.69963E+01 0.00000E+00
 -1      3887 5.05350E+01 1.69963E+01 0.00000E+00
 -1      3888 1.56071E+01 1.55529E+01 0.00000E+00
 -1      3889 1.28506E+02 3.27768E+01 0.00000E+00
 -1      3890 1.29410E+02 3.37632E+01 0.00000E+00
 -1      3891 1.30535E+02 3.36752E+01 0.00000E+00
 -1      3892 1.28805E+02 3.20382E+01 0.00000E+00
 -1      3893 2.19000E+01 3.31130E+01 0.00000E+00
 -1      3894 2.34000E+01 3.31130E+01 0.00000E+00
 -1      3895 2.11500E+01 3.18140E+01 0.00000E+00
 -1      3896 2.27850E+01 1.56973E+01 0.00000E+00
 -1      3897 2.12850E+01 1.56973E+01 0.00000E+00
 -1      3898 2.35350E+01 1.69963E+01 0.00000E+00
 -1      3899 2.41500E+01 3.18140E+01 0.00000E+00
 -1      3900 2.95350E+01 1.69963E+01 0.00000E+00
 -1      3901 1.33113E+02 2.57406E+01 0.00000E+00
 -1      3902 1.33113E+02 2.42719E+01 0.00000E+00
 -1      3903 9.15938E+01 3.27104E+01 0.00000E+00
 -1      3904 1.31625E+02 3.34273E+01 0.00000E+00
 -1      3905 1.32750E+02 3.33393E+01 0.00000E+00
 -1      3906 1.32941E+02 3.21130E+01 0.00000E+00
 -1      3907 1.30760E+02 3.26088E+01 0.00000E+00
 -1      3908 3.85350E+01 1.69963E+01 0.00000E+00
 -1      3909 1.68343E+01 1.57776E+01 0.00000E+00
 -1      3910 9.38016E+01 2.23393E+01 0.00000E+00
 -1      3911 1.02438E+02 1.40772E+01 0.00000E+00
 -1      3912 1.68870E+01 2.71820E+01 0.00000E+00
 -1      3913 1.68870E+01 2.86523E+01 0.00000E+00
 -1      3914 1.28394E+02 2.95579E+01 0.00000E+00
 -1      3915 1.26714E+02 1.85910E+01 0.00000E+00
 -1      3916 1.68870E+01 1.83438E+01 0.00000E+00
 -1      3917 1.68870E+01 1.98188E+01 0.00000E+00
 -1      3918 9.44260E+01 1.92954E+01 0.00000E+00
 -1      3919 9.33800E+01 1.79832E+01 0.00000E+00
 -1      3920 9.18800E+01 1.79832E+01 0.00000E+00
 -1      3921 9.35700E+01 1.99571E+01 0.00000E+00
 -1      3922 1.72556E+01 3.18464E+01 0.00000E+00
 -1      3923 9.27345E+01 2.54035E+01 0.00000E+00
 -1      3924 1.68870E+01 2.12938E+01 0.00000E+00
 -1      3925 1.68870E+01 2.27687E+01 0.00000E+00
 -1      3926 1.81860E+01 2.05562E+01 0.00000E+00
 -1      3927 9.26593E+01 2.90407E+01 0.00000E+00
 -1      3928 9.18342E+01 2.80561E+01 0.00000E+00
 -1      3929 9.22126E+01 3.00242E+01 0.00000E+00
 -1      3930 1.33113E+02 2.86781E+01 0.00000E+00
 -1      3931 1.33113E+02 2.72094E+01 0.00000E+00
 -1      3932 1.31814E+02 2.64750E+01 0.00000E+00
 -1      3933 1.27887E+02 2.19257E+01 0.00000E+00
 -1      3934 1.29025E+02 2.27109E+01 0.00000E+00
 -1      3935 1.27794E+02 2.07174E+01 0.00000E+00
 -1      3936 1.76190E+01 3.06007E+01 0.00000E+00
 -1      3937 1.28852E+02 2.60343E+01 0.00000E+00
 -1      3938 9.08438E+01 3.14114E+01 0.00000E+00
 -1      3939 1.89180E+01 2.98656E+01 0.00000E+00
 -1      3940 2.64000E+01 3.05150E+01 0.00000E+00
 -1      3941 2.79000E+01 3.05150E+01 0.00000E+00
 -1      3942 6.02850E+01 1.82952E+01 0.00000E+00
 -1      3943 5.87850E+01 1.82952E+01 0.00000E+00
 -1      3944 1.96860E+01 2.79172E+01 0.00000E+00
 -1      3945 2.04180E+01 2.98656E+01 0.00000E+00
 -1      3946 2.19180E+01 2.98656E+01 0.00000E+00
 -1      3947 2.94000E+01 3.05150E+01 0.00000E+00
 -1      3948 3.09000E+01 3.05150E+01 0.00000E+00
 -1      3949 2.86500E+01 2.92160E+01 0.00000E+00
 -1      3950 3.24000E+01 3.05150E+01 0.00000E+00
 -1      3951 3.39000E+01 3.05150E+01 0.00000E+00
 -1      3952 3.16500E+01 2.92160E+01 0.00000E+00
 -1      3953 3.54000E+01 3.05150E+01 0.00000E+00
 -1      3954 3.69000E+01 3.05150E+01 0.00000E+00
 -1      3955 3.46500E+01 2.92160E+01 0.00000E+00
 -1      3956 3.84000E+01 3.05150E+01 0.00000E+00
 -1      3957 3.99000E+01 3.05150E+01 0.00000E+00
 -1      3958 3.76500E+01 2.92160E+01 0.00000E+00
 -1      3959 4.14000E+01 3.05150E+01 0.00000E+00
 -1      3960 4.29000E+01 3.05150E+01 0.00000E+00
 -1      3961 4.06500E+01 2.92160E+01 0.00000E+00
 -1      3962 4.44000E+01 3.05150E+01 0.00000E+00
 -1      3963 4.59000E+01 3.05150E+01 0.00000E+00
 -1      3964 4.36500E+01 2.92160E+01 0.00000E+00
 -1      3965 4.74000E+01 3.05150E+01 0.00000E+00
 -1      3966 4.89000E+01 3.05150E+01 0.00000E+00
 -1      3967 4.66500E+01 2.92160E+01 0.00000E+00
 -1      3968 5.04000E+01 3.05150E+01 0.00000E+00
 -1      3969 5.19000E+01 3.05150E+01 0.00000E+00
 -1      3970 4.96500E+01 2.92160E+01 0.00000E+00
 -1      3971 5.34000E+01 3.05150E+01 0.00000E+00
 -1      3972 5.49000E+01 3.05150E+01 0.00000E+00
 -1      3973 5.26500E+01 2.92160E+01 0.00000E+00
 -1      3974 5.64000E+01 3.05150E+01 0.00000E+00
 -1      3975 5.79000E+01 3.05150E+01 0.00000E+00
 -1      3976 5.56500E+01 2.92160E+01 0.00000E+00
 -1      3977 5.94000E+01 3.05150E+01 0.00000E+00
 -1      3978 6.09000E+01 3.05150E+01 0.00000E+00
 -1      3979 5.86500E+01 2.92160E+01 0.00000E+00
 -1      3980 6.24000E+01 3.05150E+01 0.00000E+00
 -1      3981 6.39000E+01 3.05150E+01 0.00000E+00
 -1      3982 6.16500E+01 2.92160E+01 0.00000E+00
 -1      3983 6.54000E+01 3.05150E+01 0.00000E+00
 -1      3984 6.69000E+01 3.05150E+01 0.00000E+00
 -1      3985 6.46500E+01 2.92160E+01 0.00000E+00
 -1      3986 6.84000E+01 3.05150E+01 0.00000E+00
 -1      3987 6.99000E+01 3.05150E+01 0.00000E+00
 -1      3988 6.76500E+01 2.92160E+01 0.00000E+00
 -1      3989 7.14000E+01 3.05150E+01 0.00000E+00
 -1      3990 7.29000E+01 3.05150E+01 0.00000E+00
 -1      3991 7.06500E+01 2.92160E+01 0.00000E+00
 -1      3992 7.44000E+01 3.05150E+01 0.00000E+00
 -1      3993 7.59000E+01 3.05150E+01 0.00000E+00
 -1      3994 7.36500E+01 2.92160E+01 0.00000E+00
 -1      3995 7.74000E+01 3.05150E+01 0.00000E+00
 -1      3996 7.89000E+01 3.05150E+01 0.00000E+00
 -1      3997 7.66500E+01 2.92160E+01 0.00000E+00
 -1      3998 8.04000E+01 3.05150E+01 0.00000E+00
 -1      3999 8.19000E+01 3.05150E+01 0.00000E+00
 -1      4000 7.96500E+01 2.92160E+01 0.00000E+00
 -1      4001 8.34000E+01 3.05150E+01 0.00000E+00
 -1      4002 8.49000E+01 3.05150E+01 0.00000E+00
 -1      4003 8.26500E+01 2.92160E+01 0.00000E+00
 -1      4004 8.64000E+01 3.05150E+01 0.00000E+00
 -1      4005 8.79000E+01 3.05150E+01 0.00000E+00
 -1      4006 8.56500E+01 2.92160E+01 0.00000E+00
 -1      4007 1.30400E+02 2.21293E+01 0.00000E+00
 -1      4008 1.30231E+02 2.35909E+01 0.00000E+00
 -1      4009 2.34090E+01 3.01903E+01 0.00000E+00
 -1      4010 2.49090E+01 3.01903E+01 0.00000E+00
 -1      4011 2.56590E+01 2.88913E+01 0.00000E+00
 -1      4012 2.26770E+01 2.82419E+01 0.00000E+00
 -1      4013 1.68870E+01 2.57117E+01 0.00000E+00
 -1      4014 1.81860E+01 2.64469E+01 0.00000E+00
 -1      4015 1.68870E+01 2.42414E+01 0.00000E+00
 -1      4016 5.72850E+01 1.82952E+01 0.00000E+00
 -1      4017 5.57850E+01 1.82952E+01 0.00000E+00
 -1      4018 5.80350E+01 1.95942E+01 0.00000E+00
 -1      4019 6.62850E+01 1.82952E+01 0.00000E+00
 -1      4020 6.47850E+01 1.82952E+01 0.00000E+00
 -1      4021 6.92850E+01 1.82952E+01 0.00000E+00
 -1      4022 6.77850E+01 1.82952E+01 0.00000E+00
 -1      4023 6.70350E+01 1.95942E+01 0.00000E+00
 -1      4024 7.22850E+01 1.82952E+01 0.00000E+00
 -1      4025 7.07850E+01 1.82952E+01 0.00000E+00
 -1      4026 7.00350E+01 1.95942E+01 0.00000E+00
 -1      4027 7.52850E+01 1.82952E+01 0.00000E+00
 -1      4028 7.37850E+01 1.82952E+01 0.00000E+00
 -1      4029 7.30350E+01 1.95942E+01 0.00000E+00
 -1      4030 7.82850E+01 1.82952E+01 0.00000E+00
 -1      4031 7.67850E+01 1.82952E+01 0.00000E+00
 -1      4032 7.60350E+01 1.95942E+01 0.00000E+00
 -1      4033 8.12850E+01 1.82952E+01 0.00000E+00
 -1      4034 7.97850E+01 1.82952E+01 0.00000E+00
 -1      4035 7.90350E+01 1.95942E+01 0.00000E+00
 -1      4036 8.42850E+01 1.82952E+01 0.00000E+00
 -1      4037 8.27850E+01 1.82952E+01 0.00000E+00
 -1      4038 8.20350E+01 1.95942E+01 0.00000E+00
 -1      4039 8.72850E+01 1.82952E+01 0.00000E+00
 -1      4040 8.57850E+01 1.82952E+01 0.00000E+00
 -1      4041 8.50350E+01 1.95942E+01 0.00000E+00
 -1      4042 9.02850E+01 1.82952E+01 0.00000E+00
 -1      4043 8.87850E+01 1.82952E+01 0.00000E+00
 -1      4044 8.80350E+01 1.95942E+01 0.00000E+00
 -1      4045 3.02850E+01 1.82952E+01 0.00000E+00
 -1      4046 2.87850E+01 1.82952E+01 0.00000E+00
 -1      4047 3.62850E+01 1.82952E+01 0.00000E+00
 -1      4048 3.47850E+01 1.82952E+01 0.00000E+00
 -1      4049 1.81333E+01 1.65151E+01 0.00000E+00
 -1      4050 1.29614E+02 1.91227E+01 0.00000E+00
 -1      4051 1.28114E+02 1.91227E+01 0.00000E+00
 -1      4052 2.72850E+01 1.82952E+01 0.00000E+00
 -1      4053 2.57850E+01 1.82952E+01 0.00000E+00
 -1      4054 2.80350E+01 1.95942E+01 0.00000E+00
 -1      4055 3.32850E+01 1.82952E+01 0.00000E+00
 -1      4056 3.17850E+01 1.82952E+01 0.00000E+00
 -1      4057 3.10350E+01 1.95942E+01 0.00000E+00
 -1      4058 1.32932E+02 3.10087E+01 0.00000E+00
 -1      4059 1.33122E+02 2.97824E+01 0.00000E+00
 -1      4060 1.31823E+02 2.90480E+01 0.00000E+00
 -1      4061 1.31841E+02 3.12566E+01 0.00000E+00
 -1      4062 1.31710E+02 2.40078E+01 0.00000E+00
 -1      4063 1.33009E+02 2.32734E+01 0.00000E+00
 -1      4064 1.30335E+02 2.60582E+01 0.00000E+00
 -1      4065 1.30331E+02 2.79199E+01 0.00000E+00
 -1      4066 4.52850E+01 1.82952E+01 0.00000E+00
 -1      4067 4.37850E+01 1.82952E+01 0.00000E+00
 -1      4068 5.42850E+01 1.82952E+01 0.00000E+00
 -1      4069 5.27850E+01 1.82952E+01 0.00000E+00
 -1      4070 5.50350E+01 1.95942E+01 0.00000E+00
 -1      4071 3.92850E+01 1.82952E+01 0.00000E+00
 -1      4072 3.77850E+01 1.82952E+01 0.00000E+00
 -1      4073 3.70350E+01 1.95942E+01 0.00000E+00
 -1      4074 4.22850E+01 1.82952E+01 0.00000E+00
 -1      4075 4.07850E+01 1.82952E+01 0.00000E+00
 -1      4076 4.30350E+01 1.95942E+01 0.00000E+00
 -1      4077 1.33026E+02 2.18259E+01 0.00000E+00
 -1      4078 9.12759E+01 2.59032E+01 0.00000E+00
 -1      4079 9.17296E+01 2.42342E+01 0.00000E+00
 -1      4080 1.33156E+02 1.99031E+01 0.00000E+00
 -1      4081 1.33174E+02 1.84556E+01 0.00000E+00
 -1      4082 9.23432E+01 2.27475E+01 0.00000E+00
 -1      4083 9.29566E+01 2.13523E+01 0.00000E+00
 -1      4084 9.21116E+01 2.03653E+01 0.00000E+00
 -1      4085 1.30951E+02 1.80800E+01 0.00000E+00
 -1      4086 9.00187E+01 3.04268E+01 0.00000E+00
 -1      4087 6.32850E+01 1.82952E+01 0.00000E+00
 -1      4088 6.17850E+01 1.82952E+01 0.00000E+00
 -1      4089 6.10350E+01 1.95942E+01 0.00000E+00
 -1      4090 1.30530E+02 2.02065E+01 0.00000E+00
 -1      4091 1.31736E+02 2.10866E+01 0.00000E+00
 -1      4092 6.40350E+01 1.95942E+01 0.00000E+00
 -1      4093 1.96860E+01 2.64469E+01 0.00000E+00
 -1      4094 1.29772E+02 2.90417E+01 0.00000E+00
 -1      4095 1.29317E+02 3.07036E+01 0.00000E+00
 -1      4096 9.11300E+01 1.92822E+01 0.00000E+00
 -1      4097 4.67850E+01 1.82952E+01 0.00000E+00
 -1      4098 4.60350E+01 1.95942E+01 0.00000E+00
 -1      4099 4.82850E+01 1.82952E+01 0.00000E+00
 -1      4100 3.40350E+01 1.95942E+01 0.00000E+00
 -1      4101 1.94057E+01 1.52053E+01 0.00000E+00
 -1      4102 1.94584E+01 1.77715E+01 0.00000E+00
 -1      4103 1.24461E+02 1.53909E+01 0.00000E+00
 -1      4104 2.50350E+01 1.95942E+01 0.00000E+00
 -1      4105 2.42850E+01 1.82952E+01 0.00000E+00
 -1      4106 2.27850E+01 1.82952E+01 0.00000E+00
 -1      4107 8.92687E+01 2.91278E+01 0.00000E+00
 -1      4108 1.94850E+01 1.98188E+01 0.00000E+00
 -1      4109 1.94850E+01 2.12938E+01 0.00000E+00
 -1      4110 1.81860E+01 2.35039E+01 0.00000E+00
 -1      4111 5.20350E+01 1.95942E+01 0.00000E+00
 -1      4112 5.12850E+01 1.82952E+01 0.00000E+00
 -1      4113 4.97850E+01 1.82952E+01 0.00000E+00
 -1      4114 4.00350E+01 1.95942E+01 0.00000E+00
 -1      4115 9.03825E+01 2.78703E+01 0.00000E+00
 -1      4116 9.08292E+01 2.68868E+01 0.00000E+00
 -1      4117 8.98242E+01 2.57174E+01 0.00000E+00
 -1      4118 9.08846E+01 2.32472E+01 0.00000E+00
 -1      4119 2.06329E+01 1.54300E+01 0.00000E+00
 -1      4120 1.30182E+02 3.15221E+01 0.00000E+00
 -1      4121 2.07574E+01 1.85090E+01 0.00000E+00
 -1      4122 2.79000E+01 2.79170E+01 0.00000E+00
 -1      4123 2.94000E+01 2.79170E+01 0.00000E+00
 -1      4124 3.09000E+01 2.79170E+01 0.00000E+00
 -1      4125 3.24000E+01 2.79170E+01 0.00000E+00
 -1      4126 3.01500E+01 2.66180E+01 0.00000E+00
 -1      4127 3.39000E+01 2.79170E+01 0.00000E+00
 -1      4128 3.54000E+01 2.79170E+01 0.00000E+00
 -1      4129 3.31500E+01 2.66180E+01 0.00000E+00
 -1      4130 3.69000E+01 2.79170E+01 0.00000E+00
 -1      4131 3.84000E+01 2.79170E+01 0.00000E+00
 -1      4132 3.61500E+01 2.66180E+01 0.00000E+00
 -1      4133 3.99000E+01 2.79170E+01 0.00000E+00
 -1      4134 4.14000E+01 2.79170E+01 0.00000E+00
 -1      4135 3.91500E+01 2.66180E+01 0.00000E+00
 -1      4136 4.29000E+01 2.79170E+01 0.00000E+00
 -1      4137 4.44000E+01 2.79170E+01 0.00000E+00
 -1      4138 4.21500E+01 2.66180E+01 0.00000E+00
 -1      4139 4.59000E+01 2.79170E+01 0.00000E+00
 -1      4140 4.74000E+01 2.79170E+01 0.00000E+00
 -1      4141 4.51500E+01 2.66180E+01 0.00000E+00
 -1      4142 4.89000E+01 2.79170E+01 0.00000E+00
 -1      4143 5.04000E+01 2.79170E+01 0.00000E+00
 -1      4144 4.81500E+01 2.66180E+01 0.00000E+00
 -1      4145 5.19000E+01 2.79170E+01 0.00000E+00
 -1      4146 5.34000E+01 2.79170E+01 0.00000E+00
 -1      4147 5.11500E+01 2.66180E+01 0.00000E+00
 -1      4148 5.49000E+01 2.79170E+01 0.00000E+00
 -1      4149 5.64000E+01 2.79170E+01 0.00000E+00
 -1      4150 5.41500E+01 2.66180E+01 0.00000E+00
 -1      4151 5.79000E+01 2.79170E+01 0.00000E+00
 -1      4152 5.94000E+01 2.79170E+01 0.00000E+00
 -1      4153 5.71500E+01 2.66180E+01 0.00000E+00
 -1      4154 6.09000E+01 2.79170E+01 0.00000E+00
 -1      4155 6.24000E+01 2.79170E+01 0.00000E+00
 -1      4156 6.01500E+01 2.66180E+01 0.00000E+00
 -1      4157 6.39000E+01 2.79170E+01 0.00000E+00
 -1      4158 6.54000E+01 2.79170E+01 0.00000E+00
 -1      4159 6.31500E+01 2.66180E+01 0.00000E+00
 -1      4160 6.69000E+01 2.79170E+01 0.00000E+00
 -1      4161 6.84000E+01 2.79170E+01 0.00000E+00
 -1      4162 6.61500E+01 2.66180E+01 0.00000E+00
 -1      4163 6.99000E+01 2.79170E+01 0.00000E+00
 -1      4164 7.14000E+01 2.79170E+01 0.00000E+00
 -1      4165 6.91500E+01 2.66180E+01 0.00000E+00
 -1      4166 7.29000E+01 2.79170E+01 0.00000E+00
 -1      4167 7.44000E+01 2.79170E+01 0.00000E+00
 -1      4168 7.21500E+01 2.66180E+01 0.00000E+00
 -1      4169 7.59000E+01 2.79170E+01 0.00000E+00
 -1      4170 7.74000E+01 2.79170E+01 0.00000E+00
 -1      4171 7.51500E+01 2.66180E+01 0.00000E+00
 -1      4172 7.89000E+01 2.79170E+01 0.00000E+00
 -1      4173 8.04000E+01 2.79170E+01 0.00000E+00
 -1      4174 7.81500E+01 2.66180E+01 0.00000E+00
 -1      4175 8.19000E+01 2.79170E+01 0.00000E+00
 -1      4176 8.34000E+01 2.79170E+01 0.00000E+00
 -1      4177 8.11500E+01 2.66180E+01 0.00000E+00
 -1      4178 8.49000E+01 2.79170E+01 0.00000E+00
 -1      4179 8.64000E+01 2.79170E+01 0.00000E+00
 -1      4180 8.41500E+01 2.66180E+01 0.00000E+00
 -1      4181 6.47850E+01 2.08932E+01 0.00000E+00
 -1      4182 6.32850E+01 2.08932E+01 0.00000E+00
 -1      4183 7.37850E+01 2.08932E+01 0.00000E+00
 -1      4184 7.22850E+01 2.08932E+01 0.00000E+00
 -1      4185 5.87850E+01 2.08932E+01 0.00000E+00
 -1      4186 5.72850E+01 2.08932E+01 0.00000E+00
 -1      4187 9.05166E+01 2.06774E+01 0.00000E+00
 -1      4188 7.07850E+01 2.08932E+01 0.00000E+00
 -1      4189 6.92850E+01 2.08932E+01 0.00000E+00
 -1      4190 7.15350E+01 2.21922E+01 0.00000E+00
 -1      4191 6.77850E+01 2.08932E+01 0.00000E+00
 -1      4192 6.62850E+01 2.08932E+01 0.00000E+00
 -1      4193 6.55350E+01 2.21922E+01 0.00000E+00
 -1      4194 6.85350E+01 2.21922E+01 0.00000E+00
 -1      4195 7.67850E+01 2.08932E+01 0.00000E+00
 -1      4196 7.52850E+01 2.08932E+01 0.00000E+00
 -1      4197 7.45350E+01 2.21922E+01 0.00000E+00
 -1      4198 7.97850E+01 2.08932E+01 0.00000E+00
 -1      4199 7.82850E+01 2.08932E+01 0.00000E+00
 -1      4200 7.75350E+01 2.21922E+01 0.00000E+00
 -1      4201 8.27850E+01 2.08932E+01 0.00000E+00
 -1      4202 8.12850E+01 2.08932E+01 0.00000E+00
 -1      4203 8.05350E+01 2.21922E+01 0.00000E+00
 -1      4204 8.57850E+01 2.08932E+01 0.00000E+00
 -1      4205 8.42850E+01 2.08932E+01 0.00000E+00
 -1      4206 8.35350E+01 2.21922E+01 0.00000E+00
 -1      4207 8.87850E+01 2.08932E+01 0.00000E+00
 -1      4208 8.72850E+01 2.08932E+01 0.00000E+00
 -1      4209 8.65350E+01 2.21922E+01 0.00000E+00
 -1      4210 3.17850E+01 2.08932E+01 0.00000E+00
 -1      4211 3.02850E+01 2.08932E+01 0.00000E+00
 -1      4212 1.30335E+02 2.45894E+01 0.00000E+00
 -1      4213 5.57850E+01 2.08932E+01 0.00000E+00
 -1      4214 5.42850E+01 2.08932E+01 0.00000E+00
 -1      4215 5.65350E+01 2.21922E+01 0.00000E+00
 -1      4216 2.87850E+01 2.08932E+01 0.00000E+00
 -1      4217 2.72850E+01 2.08932E+01 0.00000E+00
 -1      4218 2.95350E+01 2.21922E+01 0.00000E+00
 -1      4219 1.94850E+01 2.27664E+01 0.00000E+00
 -1      4220 1.94850E+01 2.42391E+01 0.00000E+00
 -1      4221 2.07840E+01 2.20289E+01 0.00000E+00
 -1      4222 6.17850E+01 2.08932E+01 0.00000E+00
 -1      4223 6.02850E+01 2.08932E+01 0.00000E+00
 -1      4224 6.25350E+01 2.21922E+01 0.00000E+00
 -1      4225 4.37850E+01 2.08932E+01 0.00000E+00
 -1      4226 4.22850E+01 2.08932E+01 0.00000E+00
 -1      4227 3.77850E+01 2.08932E+01 0.00000E+00
 -1      4228 3.62850E+01 2.08932E+01 0.00000E+00
 -1      4229 8.91530E+01 2.34631E+01 0.00000E+00
 -1      4230 8.97666E+01 2.19764E+01 0.00000E+00
 -1      4231 4.07850E+01 2.08932E+01 0.00000E+00
 -1      4232 3.92850E+01 2.08932E+01 0.00000E+00
 -1      4233 4.15350E+01 2.21922E+01 0.00000E+00
 -1      4234 2.09850E+01 2.57094E+01 0.00000E+00
 -1      4235 3.47850E+01 2.08932E+01 0.00000E+00
 -1      4236 3.32850E+01 2.08932E+01 0.00000E+00
 -1      4237 3.55350E+01 2.21922E+01 0.00000E+00
 -1      4238 8.82638E+01 2.79585E+01 0.00000E+00
 -1      4239 2.13829E+01 1.67290E+01 0.00000E+00
 -1      4240 1.31255E+02 2.90656E+01 0.00000E+00
 -1      4241 8.75138E+01 2.66595E+01 0.00000E+00
 -1      4242 2.49180E+01 2.72676E+01 0.00000E+00
 -1      4243 2.64090E+01 2.75923E+01 0.00000E+00
 -1      4244 2.71590E+01 2.62933E+01 0.00000E+00
 -1      4245 2.65350E+01 2.21922E+01 0.00000E+00
 -1      4246 2.57850E+01 2.08932E+01 0.00000E+00
 -1      4247 2.42850E+01 2.08932E+01 0.00000E+00
 -1      4248 1.31273E+02 3.12741E+01 0.00000E+00
 -1      4249 8.87386E+01 2.45903E+01 0.00000E+00
 -1      4250 8.76206E+01 2.33194E+01 0.00000E+00
 -1      4251 8.61206E+01 2.33194E+01 0.00000E+00
 -1      4252 8.82919E+01 2.55738E+01 0.00000E+00
 -1      4253 3.25350E+01 2.21922E+01 0.00000E+00
 -1      4254 4.90350E+01 1.95942E+01 0.00000E+00
 -1      4255 4.67850E+01 2.08932E+01 0.00000E+00
 -1      4256 4.52850E+01 2.08932E+01 0.00000E+00
 -1      4257 4.45350E+01 2.21922E+01 0.00000E+00
 -1      4258 3.85350E+01 2.21922E+01 0.00000E+00
 -1      4259 5.35350E+01 2.21922E+01 0.00000E+00
 -1      4260 5.27850E+01 2.08932E+01 0.00000E+00
 -1      4261 5.12850E+01 2.08932E+01 0.00000E+00
 -1      4262 5.95350E+01 2.21922E+01 0.00000E+00
 -1      4263 2.22060E+01 2.63261E+01 0.00000E+00
 -1      4264 2.36970E+01 2.66508E+01 0.00000E+00
 -1      4265 2.44470E+01 2.53518E+01 0.00000E+00
 -1      4266 2.20050E+01 2.41183E+01 0.00000E+00
 -1      4267 3.28425E+01 2.44051E+01 0.00000E+00
 -1      4268 3.43425E+01 2.44051E+01 0.00000E+00
 -1      4269 3.58425E+01 2.44051E+01 0.00000E+00
 -1      4270 3.73425E+01 2.44051E+01 0.00000E+00
 -1      4271 3.88425E+01 2.44051E+01 0.00000E+00
 -1      4272 4.03425E+01 2.44051E+01 0.00000E+00
 -1      4273 4.18425E+01 2.44051E+01 0.00000E+00
 -1      4274 4.33425E+01 2.44051E+01 0.00000E+00
 -1      4275 4.48425E+01 2.44051E+01 0.00000E+00
 -1      4276 4.63425E+01 2.44051E+01 0.00000E+00
 -1      4277 5.04000E+01 2.53190E+01 0.00000E+00
 -1      4278 5.19000E+01 2.53190E+01 0.00000E+00
 -1      4279 5.38425E+01 2.44051E+01 0.00000E+00
 -1      4280 5.53425E+01 2.44051E+01 0.00000E+00
 -1      4281 5.68425E+01 2.44051E+01 0.00000E+00
 -1      4282 5.83425E+01 2.44051E+01 0.00000E+00
 -1      4283 5.98425E+01 2.44051E+01 0.00000E+00
 -1      4284 6.13425E+01 2.44051E+01 0.00000E+00
 -1      4285 6.28425E+01 2.44051E+01 0.00000E+00
 -1      4286 6.43425E+01 2.44051E+01 0.00000E+00
 -1      4287 6.58425E+01 2.44051E+01 0.00000E+00
 -1      4288 6.73425E+01 2.44051E+01 0.00000E+00
 -1      4289 6.88425E+01 2.44051E+01 0.00000E+00
 -1      4290 7.03425E+01 2.44051E+01 0.00000E+00
 -1      4291 7.18425E+01 2.44051E+01 0.00000E+00
 -1      4292 7.33425E+01 2.44051E+01 0.00000E+00
 -1      4293 7.48425E+01 2.44051E+01 0.00000E+00
 -1      4294 7.63425E+01 2.44051E+01 0.00000E+00
 -1      4295 7.78425E+01 2.44051E+01 0.00000E+00
 -1      4296 7.93425E+01 2.44051E+01 0.00000E+00
 -1      4297 8.08425E+01 2.44051E+01 0.00000E+00
 -1      4298 8.23425E+01 2.44051E+01 0.00000E+00
 -1      4299 8.38425E+01 2.44051E+01 0.00000E+00
 -1      4300 2.14095E+01 1.87763E+01 0.00000E+00
 -1      4301 2.20830E+01 2.12926E+01 0.00000E+00
 -1      4302 2.20830E+01 2.27652E+01 0.00000E+00
 -1      4303 2.98425E+01 2.44051E+01 0.00000E+00
 -1      4304 2.83425E+01 2.44051E+01 0.00000E+00
 -1      4305 8.64281E+01 2.55323E+01 0.00000E+00
 -1      4306 1.31264E+02 3.01699E+01 0.00000E+00
 -1      4307 3.13425E+01 2.44051E+01 0.00000E+00
 -1      4308 2.68515E+01 2.40804E+01 0.00000E+00
 -1      4309 4.97850E+01 2.08932E+01 0.00000E+00
 -1      4310 4.82850E+01 2.08932E+01 0.00000E+00
 -1      4311 4.75350E+01 2.21922E+01 0.00000E+00
 -1      4312 2.33040E+01 2.33820E+01 0.00000E+00
 -1      4313 2.21595E+01 2.00753E+01 0.00000E+00
 -1      4314 2.34585E+01 2.08116E+01 0.00000E+00
 -1      4315 2.42085E+01 2.21106E+01 0.00000E+00
 -1      4316 5.05350E+01 2.21922E+01 0.00000E+00
 -1      4317 2.53515E+01 2.40804E+01 0.00000E+00
 -1      4318 4.78425E+01 2.44051E+01 0.00000E+00
 -1      4319 4.93425E+01 2.44051E+01 0.00000E+00
 -1      4320 8.49281E+01 2.55323E+01 0.00000E+00
 -1      4321 5.30925E+01 2.31061E+01 0.00000E+00
 -1      4322 2.41305E+01 2.34637E+01 0.00000E+00
 -1      4323 5.00925E+01 2.31061E+01 0.00000E+00
 -1      4324 5.15925E+01 2.31061E+01 0.00000E+00
 -3
    3C                          2080                                     1
 -1       165    8    0    1
 -2         6         7        23      1123      1287      1140
 -1       166    8    0    1
 -2         7         8       165      1124      1288      1289
 -1       167    8    0    1
 -2         8         9       166      1125      1290      1291
 -1       168    8    0    1
 -2         8       166       165      1291      1292      1288
 -1       169    8    0    1
 -2         9        10       167      1126      1293      1294
 -1       170    8    0    1
 -2         9       167       166      1294      1295      1290
 -1       171    8    0    1
 -2        10        11       168      1127      1296      1297
 -1       172    8    0    1
 -2        10       168       167      1297      1298      1293
 -1       173    8    0    1
 -2        11        12       169      1128      1299      1300
 -1       174    8    0    1
 -2        11       169       168      1300      1301      1296
 -1       175    8    0    1
 -2        12        13       170      1129      1302      1303
 -1       176    8    0    1
 -2        12       170       169      1303      1304      1299
 -1       177    8    0    1
 -2        13        14       171      1130      1305      1306
 -1       178    8    0    1
 -2        13       171       170      1306      1307      1302
 -1       179    8    0    1
 -2        14        15       172      1131      1308      1309
 -1       180    8    0    1
 -2        14       172       171      1309      1310      1305
 -1       181    8    0    1
 -2        15        16       173      1132      1311      1312
 -1       182    8    0    1
 -2        15       173       172      1312      1313      1308
 -1       183    8    0    1
 -2        16        17       174      1133      1314      1315
 -1       184    8    0    1
 -2        16       174       173      1315      1316      1311
 -1       185    8    0    1
 -2        17        18       175      1134      1317      1318
 -1       186    8    0    1
 -2        17       175       174      1318      1319      1314
 -1       187    8    0    1
 -2        18        19       176      1135      1320      1321
 -1       188    8    0    1
 -2        18       176       175      1321      1322      1317
 -1       189    8    0    1
 -2        19        20       177      1136      1323      1324
 -1       190    8    0    1
 -2        19       177       176      1324      1325      1320
 -1       191    8    0    1
 -2        20        21       178      1137      1326      1327
 -1       192    8    0    1
 -2        20       178       177      1327      1328      1323
 -1       193    8    0    1
 -2        21        22       179      1138      1329      1330
 -1       194    8    0    1
 -2        21       179       178      1330      1331      1326
 -1       195    8    0    1
 -2        22         5       180      1139      1332      1333
 -1       196    8    0    1
 -2       179        22       180      1329      1333      1334
 -1       197    8    0    1
 -2         5        72       180      1190      1335      1332
 -1       198    8    0    1
 -2        24        23       181      1141      1336      1337
 -1       199    8    0    1
 -2        25        24       182      1142      1338      1339
 -1       200    8    0    1
 -2        24       181       182      1337      1340      1338
 -1       201    8    0    1
 -2        26        25       183      1143      1341      1342
 -1       202    8    0    1
 -2        25       182       183      1339      1343      1341
 -1       203    8    0    1
 -2        27        26       184      1144      1344      1345
 -1       204    8    0    1
 -2        26       183       184      1342      1346      1344
 -1       205    8    0    1
 -2        28        27       185      1145      1347      1348
 -1       206    8    0    1
 -2        27       184       185      1345      1349      1347
 -1       207    8    0    1
 -2        29        28       186      1146      1350      1351
 -1       208    8    0    1
 -2        28       185       186      1348      1352      1350
 -1       209    8    0    1
 -2        30        29       187      1147      1353      1354
 -1       210    8    0    1
 -2        29       186       187      1351      1355      1353
 -1       211    8    0    1
 -2        31        30       188      1148      1356      1357
 -1       212    8    0    1
 -2        30       187       188      1354      1358      1356
 -1       213    8    0    1
 -2        32        31       189      1149      1359      1360
 -1       214    8    0    1
 -2        31       188       189      1357      1361      1359
 -1       215    8    0    1
 -2        33        32       190      1150      1362      1363
 -1       216    8    0    1
 -2        32       189       190      1360      1364      1362
 -1       217    8    0    1
 -2        34        33       191      1151      1365      1366
 -1       218    8    0    1
 -2        33       190       191      1363      1367      1365
 -1       219    8    0    1
 -2        35        34       192      1152      1368      1369
 -1       220    8    0    1
 -2        34       191       192      1366      1370      1368
 -1       221    8    0    1
 -2        36        35       193      1153      1371      1372
 -1       222    8    0    1
 -2        35       192       193      1369      1373      1371
 -1       223    8    0    1
 -2        37        36       194      1154      1374      1375
 -1       224    8    0    1
 -2        36       193       194      1372      1376      1374
 -1       225    8    0    1
 -2        38        37       195      1155      1377      1378
 -1       226    8    0    1
 -2        37       194       195      1375      1379      1377
 -1       227    8    0    1
 -2        39        38       196      1156      1380      1381
 -1       228    8    0    1
 -2        38       195       196      1378      1382      1380
 -1       229    8    0    1
 -2        40        39       197      1157      1383      1384
 -1       230    8    0    1
 -2        39       196       197      1381      1385      1383
 -1       231    8    0    1
 -2        41        40       198      1158      1386      1387
 -1       232    8    0    1
 -2        40       197       198      1384      1388      1386
 -1       233    8    0    1
 -2        42        41       199      1159      1389      1390
 -1       234    8    0    1
 -2        41       198       199      1387      1391      1389
 -1       235    8    0    1
 -2        43        42       200      1160      1392      1393
 -1       236    8    0    1
 -2        42       199       200      1390      1394      1392
 -1       237    8    0    1
 -2        44        43       201      1161      1395      1396
 -1       238    8    0    1
 -2        43       200       201      1393      1397      1395
 -1       239    8    0    1
 -2        45        44       202      1162      1398      1399
 -1       240    8    0    1
 -2        44       201       202      1396      1400      1398
 -1       241    8    0    1
 -2        46        45       203      1163      1401      1402
 -1       242    8    0    1
 -2        45       202       203      1399      1403      1401
 -1       243    8    0    1
 -2        47        46       204      1164      1404      1405
 -1       244    8    0    1
 -2        46       203       204      1402      1406      1404
 -1       245    8    0    1
 -2        48        47       205      1165      1407      1408
 -1       246    8    0    1
 -2        47       204       205      1405      1409      1407
 -1       247    8    0    1
 -2        49        48       206      1166      1410      1411
 -1       248    8    0    1
 -2        48       205       206      1408      1412      1410
 -1       249    8    0    1
 -2        50        49       207      1167      1413      1414
 -1       250    8    0    1
 -2        49       206       207      1411      1415      1413
 -1       251    8    0    1
 -2        51        50       208      1168      1416      1417
 -1       252    8    0    1
 -2        50       207       208      1414      1418      1416
 -1       253    8    0    1
 -2        52        51       209      1169      1419      1420
 -1       254    8    0    1
 -2        51       208       209      1417      1421      1419
 -1       255    8    0    1
 -2        53        52       210      1170      1422      1423
 -1       256    8    0    1
 -2        52       209       210      1420      1424      1422
 -1       257    8    0    1
 -2        54        53       211      1171      1425      1426
 -1       258    8    0    1
 -2        53       210       211      1423      1427      1425
 -1       259    8    0    1
 -2        55        54       212      1172      1428      1429
 -1       260    8    0    1
 -2        54       211       212      1426      1430      1428
 -1       261    8    0    1
 -2        56        55       213      1173      1431      1432
 -1       262    8    0    1
 -2        55       212       213      1429      1433      1431
 -1       263    8    0    1
 -2        57        56       214      1174      1434      1435
 -1       264    8    0    1
 -2        56       213       214      1432      1436      1434
 -1       265    8    0    1
 -2        58        57       215      1175      1437      1438
 -1       266    8    0    1
 -2        57       214       215      1435      1439      1437
 -1       267    8    0    1
 -2        59        58       216      1176      1440      1441
 -1       268    8    0    1
 -2        58       215       216      1438      1442      1440
 -1       269    8    0    1
 -2        60        59       217      1177      1443      1444
 -1       270    8    0    1
 -2        59       216       217      1441      1445      1443
 -1       271    8    0    1
 -2        61        60       218      1178      1446      1447
 -1       272    8    0    1
 -2        60       217       218      1444      1448      1446
 -1       273    8    0    1
 -2        62        61       219      1179      1449      1450
 -1       274    8    0    1
 -2        61       218       219      1447      1451      1449
 -1       275    8    0    1
 -2        63        62       220      1180      1452      1453
 -1       276    8    0    1
 -2        62       219       220      1450      1454      1452
 -1       277    8    0    1
 -2        64        63       221      1181      1455      1456
 -1       278    8    0    1
 -2        63       220       221      1453      1457      1455
 -1       279    8    0    1
 -2        65        64       222      1182      1458      1459
 -1       280    8    0    1
 -2        64       221       222      1456      1460      1458
 -1       281    8    0    1
 -2        66        65       223      1183      1461      1462
 -1       282    8    0    1
 -2        65       222       223      1459      1463      1461
 -1       283    8    0    1
 -2        67        66       224      1184      1464      1465
 -1       284    8    0    1
 -2        66       223       224      1462      1466      1464
 -1       285    8    0    1
 -2        68        67       225      1185      1467      1468
 -1       286    8    0    1
 -2        67       224       225      1465      1469      1467
 -1       287    8    0    1
 -2        69        68       226      1186      1470      1471
 -1       288    8    0    1
 -2        68       225       226      1468      1472      1470
 -1       289    8    0    1
 -2        70        69       227      1187      1473      1474
 -1       290    8    0    1
 -2        69       226       227      1471      1475      1473
 -1       291    8    0    1
 -2        71        70       228      1188      1476      1477
 -1       292    8    0    1
 -2        70       227       228      1474      1478      1476
 -1       293    8    0    1
 -2         4        71       136      1189      1479      1256
 -1       294    8    0    1
 -2       136        71       228      1479      1477      1480
 -1       295    8    0    1
 -2        72        73       229      1191      1481      1482
 -1       296    8    0    1
 -2        72       229       180      1482      1483      1335
 -1       297    8    0    1
 -2        73        74       230      1192      1484      1485
 -1       298    8    0    1
 -2        73       230       229      1485      1486      1481
 -1       299    8    0    1
 -2        74        75       231      1193      1487      1488
 -1       300    8    0    1
 -2        74       231       230      1488      1489      1484
 -1       301    8    0    1
 -2        75        76       232      1194      1490      1491
 -1       302    8    0    1
 -2        75       232       231      1491      1492      1487
 -1       303    8    0    1
 -2        76        77       233      1195      1493      1494
 -1       304    8    0    1
 -2        76       233       232      1494      1495      1490
 -1       305    8    0    1
 -2        77        78       234      1196      1496      1497
 -1       306    8    0    1
 -2        77       234       233      1497      1498      1493
 -1       307    8    0    1
 -2        78        79       235      1197      1499      1500
 -1       308    8    0    1
 -2        78       235       234      1500      1501      1496
 -1       309    8    0    1
 -2        79        80       236      1198      1502      1503
 -1       310    8    0    1
 -2        79       236       235      1503      1504      1499
 -1       311    8    0    1
 -2        80        81       237      1199      1505      1506
 -1       312    8    0    1
 -2        80       237       236      1506      1507      1502
 -1       313    8    0    1
 -2        81        82       238      1200      1508      1509
 -1       314    8    0    1
 -2        81       238       237      1509      1510      1505
 -1       315    8    0    1
 -2        82        83       239      1201      1511      1512
 -1       316    8    0    1
 -2        82       239       238      1512      1513      1508
 -1       317    8    0    1
 -2        83        84       240      1202      1514      1515
 -1       318    8    0    1
 -2        83       240       239      1515      1516      1511
 -1       319    8    0    1
 -2        84        85       241      1203      1517      1518
 -1       320    8    0    1
 -2        84       241       240      1518      1519      1514
 -1       321    8    0    1
 -2        85        86       242      1204      1520      1521
 -1       322    8    0    1
 -2        85       242       241      1521      1522      1517
 -1       323    8    0    1
 -2        86        87       243      1205      1523      1524
 -1       324    8    0    1
 -2        86       243       242      1524      1525      1520
 -1       325    8    0    1
 -2        87        88       244      1206      1526      1527
 -1       326    8    0    1
 -2        87       244       243      1527      1528      1523
 -1       327    8    0    1
 -2        88        89       245      1207      1529      1530
 -1       328    8    0    1
 -2        88       245       244      1530      1531      1526
 -1       329    8    0    1
 -2        89        90       246      1208      1532      1533
 -1       330    8    0    1
 -2        89       246       245      1533      1534      1529
 -1       331    8    0    1
 -2        90        91       247      1209      1535      1536
 -1       332    8    0    1
 -2        90       247       246      1536      1537      1532
 -1       333    8    0    1
 -2        91        92       248      1210      1538      1539
 -1       334    8    0    1
 -2        91       248       247      1539      1540      1535
 -1       335    8    0    1
 -2        92        93       249      1211      1541      1542
 -1       336    8    0    1
 -2        92       249       248      1542      1543      1538
 -1       337    8    0    1
 -2        93        94       250      1212      1544      1545
 -1       338    8    0    1
 -2        93       250       249      1545      1546      1541
 -1       339    8    0    1
 -2        94        95       251      1213      1547      1548
 -1       340    8    0    1
 -2        94       251       250      1548      1549      1544
 -1       341    8    0    1
 -2        95        96       252      1214      1550      1551
 -1       342    8    0    1
 -2        95       252       251      1551      1552      1547
 -1       343    8    0    1
 -2        96        97       253      1215      1553      1554
 -1       344    8    0    1
 -2        96       253       252      1554      1555      1550
 -1       345    8    0    1
 -2        97        98       254      1216      1556      1557
 -1       346    8    0    1
 -2        97       254       253      1557      1558      1553
 -1       347    8    0    1
 -2        98        99       255      1217      1559      1560
 -1       348    8    0    1
 -2        98       255       254      1560      1561      1556
 -1       349    8    0    1
 -2        99       100       256      1218      1562      1563
 -1       350    8    0    1
 -2        99       256       255      1563      1564      1559
 -1       351    8    0    1
 -2       100       101       257      1219      1565      1566
 -1       352    8    0    1
 -2       100       257       256      1566      1567      1562
 -1       353    8    0    1
 -2       101       102       258      1220      1568      1569
 -1       354    8    0    1
 -2       101       258       257      1569      1570      1565
 -1       355    8    0    1
 -2       102       103       259      1221      1571      1572
 -1       356    8    0    1
 -2       102       259       258      1572      1573      1568
 -1       357    8    0    1
 -2       103       104       260      1222      1574      1575
 -1       358    8    0    1
 -2       103       260       259      1575      1576      1571
 -1       359    8    0    1
 -2       104       105       261      1223      1577      1578
 -1       360    8    0    1
 -2       104       261       260      1578      1579      1574
 -1       361    8    0    1
 -2       105       106       262      1224      1580      1581
 -1       362    8    0    1
 -2       105       262       261      1581      1582      1577
 -1       363    8    0    1
 -2       106       107       263      1225      1583      1584
 -1       364    8    0    1
 -2       106       263       262      1584      1585      1580
 -1       365    8    0    1
 -2       107       108       264      1226      1586      1587
 -1       366    8    0    1
 -2       107       264       263      1587      1588      1583
 -1       367    8    0    1
 -2       108       109       265      1227      1589      1590
 -1       368    8    0    1
 -2       108       265       264      1590      1591      1586
 -1       369    8    0    1
 -2       109       110       266      1228      1592      1593
 -1       370    8    0    1
 -2       109       266       265      1593      1594      1589
 -1       371    8    0    1
 -2       110       111       267      1229      1595      1596
 -1       372    8    0    1
 -2       110       267       266      1596      1597      1592
 -1       373    8    0    1
 -2       111       112       268      1230      1598      1599
 -1       374    8    0    1
 -2       111       268       267      1599      1600      1595
 -1       375    8    0    1
 -2       112       113       269      1231      1601      1602
 -1       376    8    0    1
 -2       112       269       268      1602      1603      1598
 -1       377    8    0    1
 -2       113       114       270      1232      1604      1605
 -1       378    8    0    1
 -2       113       270       269      1605      1606      1601
 -1       379    8    0    1
 -2       114       115       271      1233      1607      1608
 -1       380    8    0    1
 -2       114       271       270      1608      1609      1604
 -1       381    8    0    1
 -2       115       116       272      1234      1610      1611
 -1       382    8    0    1
 -2       115       272       271      1611      1612      1607
 -1       383    8    0    1
 -2       116       117       273      1235      1613      1614
 -1       384    8    0    1
 -2       116       273       272      1614      1615      1610
 -1       385    8    0    1
 -2       117       118       274      1236      1616      1617
 -1       386    8    0    1
 -2       117       274       273      1617      1618      1613
 -1       387    8    0    1
 -2       118       119       275      1237      1619      1620
 -1       388    8    0    1
 -2       118       275       274      1620      1621      1616
 -1       389    8    0    1
 -2       119       120       276      1238      1622      1623
 -1       390    8    0    1
 -2       119       276       275      1623      1624      1619
 -1       391    8    0    1
 -2       120         3       121      1239      1240      1625
 -1       392    8    0    1
 -2       121       122       277      1241      1626      1627
 -1       393    8    0    1
 -2       122       123       278      1242      1628      1629
 -1       394    8    0    1
 -2       122       278       277      1629      1630      1626
 -1       395    8    0    1
 -2       123       124       279      1243      1631      1632
 -1       396    8    0    1
 -2       123       279       278      1632      1633      1628
 -1       397    8    0    1
 -2       124       125       280      1244      1634      1635
 -1       398    8    0    1
 -2       124       280       279      1635      1636      1631
 -1       399    8    0    1
 -2       125       126       281      1245      1637      1638
 -1       400    8    0    1
 -2       125       281       280      1638      1639      1634
 -1       401    8    0    1
 -2       126       127       282      1246      1640      1641
 -1       402    8    0    1
 -2       126       282       281      1641      1642      1637
 -1       403    8    0    1
 -2       127       128       283      1247      1643      1644
 -1       404    8    0    1
 -2       127       283       282      1644      1645      1640
 -1       405    8    0    1
 -2       128       129       284      1248      1646      1647
 -1       406    8    0    1
 -2       128       284       283      1647      1648      1643
 -1       407    8    0    1
 -2       129       130       285      1249      1649      1650
 -1       408    8    0    1
 -2       129       285       284      1650      1651      1646
 -1       409    8    0    1
 -2       130       131       286      1250      1652      1653
 -1       410    8    0    1
 -2       130       286       285      1653      1654      1649
 -1       411    8    0    1
 -2       131       132       287      1251      1655      1656
 -1       412    8    0    1
 -2       131       287       286      1656      1657      1652
 -1       413    8    0    1
 -2       132       133       288      1252      1658      1659
 -1       414    8    0    1
 -2       132       288       287      1659      1660      1655
 -1       415    8    0    1
 -2       133       134       289      1253      1661      1662
 -1       416    8    0    1
 -2       133       289       288      1662      1663      1658
 -1       417    8    0    1
 -2       134       135       290      1254      1664      1665
 -1       418    8    0    1
 -2       134       290       289      1665      1666      1661
 -1       419    8    0    1
 -2       135       136       291      1255      1667      1668
 -1       420    8    0    1
 -2       290       135       291      1664      1668      1669
 -1       421    8    0    1
 -2       136       228       291      1480      1670      1667
 -1       422    8    0    1
 -2         2       137       292      1257      1671      1672
 -1       423    8    0    1
 -2       137       138       293      1258      1673      1674
 -1       424    8    0    1
 -2       138       139       294      1259      1675      1676
 -1       425    8    0    1
 -2       139       140       295      1260      1677      1678
 -1       426    8    0    1
 -2       140       141       296      1261      1679      1680
 -1       427    8    0    1
 -2       141       142       297      1262      1681      1682
 -1       428    8    0    1
 -2       142       143       298      1263      1683      1684
 -1       429    8    0    1
 -2       143       144       299      1264      1685      1686
 -1       430    8    0    1
 -2       144       145       300      1265      1687      1688
 -1       431    8    0    1
 -2       145       146       301      1266      1689      1690
 -1       432    8    0    1
 -2       146       147       302      1267      1691      1692
 -1       433    8    0    1
 -2       147       148       303      1268      1693      1694
 -1       434    8    0    1
 -2       148       149       304      1269      1695      1696
 -1       435    8    0    1
 -2       149       150       305      1270      1697      1698
 -1       436    8    0    1
 -2       150       151       306      1271      1699      1700
 -1       437    8    0    1
 -2       151       152       307      1272      1701      1702
 -1       438    8    0    1
 -2       152       153       308      1273      1703      1704
 -1       439    8    0    1
 -2       153       154       309      1274      1705      1706
 -1       440    8    0    1
 -2       154       155       310      1275      1707      1708
 -1       441    8    0    1
 -2       154       310       309      1708      1709      1705
 -1       442    8    0    1
 -2       155       156       311      1276      1710      1711
 -1       443    8    0    1
 -2       156       157       312      1277      1712      1713
 -1       444    8    0    1
 -2       157       158       313      1278      1714      1715
 -1       445    8    0    1
 -2       158         1       314      1279      1716      1717
 -1       446    8    0    1
 -2         1       159       315      1280      1718      1719
 -1       447    8    0    1
 -2       159       160       316      1281      1720      1721
 -1       448    8    0    1
 -2       160       161       317      1282      1722      1723
 -1       449    8    0    1
 -2       161       162       318      1283      1724      1725
 -1       450    8    0    1
 -2       162       163       319      1284      1726      1727
 -1       451    8    0    1
 -2       163       164       320      1285      1728      1729
 -1       452    8    0    1
 -2       164         2       321      1286      1730      1731
 -1       453    8    0    1
 -2       295       140       296      1677      1680      1732
 -1       454    8    0    1
 -2       294       139       295      1675      1678      1733
 -1       455    8    0    1
 -2       120       121       276      1625      1734      1622
 -1       456    8    0    1
 -2       121       277       276      1627      1735      1734
 -1       457    8    0    1
 -2       292       137       293      1671      1674      1736
 -1       458    8    0    1
 -2       293       138       294      1673      1676      1737
 -1       459    8    0    1
 -2         2       292       321      1672      1738      1730
 -1       460    8    0    1
 -2       141       297       296      1682      1739      1679
 -1       461    8    0    1
 -2       142       298       297      1684      1740      1681
 -1       462    8    0    1
 -2       143       299       298      1686      1741      1683
 -1       463    8    0    1
 -2       144       300       299      1688      1742      1685
 -1       464    8    0    1
 -2       145       301       300      1690      1743      1687
 -1       465    8    0    1
 -2       146       302       301      1692      1744      1689
 -1       466    8    0    1
 -2       147       303       302      1694      1745      1691
 -1       467    8    0    1
 -2       148       304       303      1696      1746      1693
 -1       468    8    0    1
 -2       149       305       304      1698      1747      1695
 -1       469    8    0    1
 -2       150       306       305      1700      1748      1697
 -1       470    8    0    1
 -2       151       307       306      1702      1749      1699
 -1       471    8    0    1
 -2       152       308       307      1704      1750      1701
 -1       472    8    0    1
 -2       153       309       308      1706      1751      1703
 -1       473    8    0    1
 -2       311       156       312      1710      1713      1752
 -1       474    8    0    1
 -2       157       313       312      1715      1753      1712
 -1       475    8    0    1
 -2       158       314       313      1717      1754      1714
 -1       476    8    0    1
 -2         1       315       314      1719      1755      1716
 -1       477    8    0    1
 -2       159       316       315      1721      1756      1718
 -1       478    8    0    1
 -2       160       317       316      1723      1757      1720
 -1       479    8    0    1
 -2       161       318       317      1725      1758      1722
 -1       480    8    0    1
 -2       162       319       318      1727      1759      1724
 -1       481    8    0    1
 -2       163       320       319      1729      1760      1726
 -1       482    8    0    1
 -2       164       321       320      1731      1761      1728
 -1       483    8    0    1
 -2        23         7       165      1287      1289      1762
 -1       484    8    0    1
 -2       155       311       310      1711      1763      1707
 -1       485    8    0    1
 -2       166       167       322      1295      1764      1765
 -1       486    8    0    1
 -2       165       166       323      1292      1766      1767
 -1       487    8    0    1
 -2       166       322       323      1765      1768      1766
 -1       488    8    0    1
 -2       168       169       324      1301      1769      1770
 -1       489    8    0    1
 -2       169       170       325      1304      1771      1772
 -1       490    8    0    1
 -2       169       325       324      1772      1773      1769
 -1       491    8    0    1
 -2       170       171       326      1307      1774      1775
 -1       492    8    0    1
 -2       170       326       325      1775      1776      1771
 -1       493    8    0    1
 -2       171       172       327      1310      1777      1778
 -1       494    8    0    1
 -2       171       327       326      1778      1779      1774
 -1       495    8    0    1
 -2       172       173       328      1313      1780      1781
 -1       496    8    0    1
 -2       172       328       327      1781      1782      1777
 -1       497    8    0    1
 -2       173       174       329      1316      1783      1784
 -1       498    8    0    1
 -2       173       329       328      1784      1785      1780
 -1       499    8    0    1
 -2       174       175       330      1319      1786      1787
 -1       500    8    0    1
 -2       174       330       329      1787      1788      1783
 -1       501    8    0    1
 -2       175       176       331      1322      1789      1790
 -1       502    8    0    1
 -2       175       331       330      1790      1791      1786
 -1       503    8    0    1
 -2       176       177       332      1325      1792      1793
 -1       504    8    0    1
 -2       176       332       331      1793      1794      1789
 -1       505    8    0    1
 -2       177       178       333      1328      1795      1796
 -1       506    8    0    1
 -2       177       333       332      1796      1797      1792
 -1       507    8    0    1
 -2       178       179       334      1331      1798      1799
 -1       508    8    0    1
 -2       178       334       333      1799      1800      1795
 -1       509    8    0    1
 -2       179       180       335      1334      1801      1802
 -1       510    8    0    1
 -2       334       179       335      1798      1802      1803
 -1       511    8    0    1
 -2       180       229       335      1483      1804      1801
 -1       512    8    0    1
 -2       181        23       165      1336      1762      1805
 -1       513    8    0    1
 -2       229       230       336      1486      1806      1807
 -1       514    8    0    1
 -2       229       336       335      1807      1808      1804
 -1       515    8    0    1
 -2       310       311       337      1763      1809      1810
 -1       516    8    0    1
 -2       181       165       323      1805      1767      1811
 -1       517    8    0    1
 -2       183       182       338      1343      1812      1813
 -1       518    8    0    1
 -2       184       183       339      1346      1814      1815
 -1       519    8    0    1
 -2       183       338       339      1813      1816      1814
 -1       520    8    0    1
 -2       185       184       340      1349      1817      1818
 -1       521    8    0    1
 -2       184       339       340      1815      1819      1817
 -1       522    8    0    1
 -2       186       185       341      1352      1820      1821
 -1       523    8    0    1
 -2       185       340       341      1818      1822      1820
 -1       524    8    0    1
 -2       187       186       342      1355      1823      1824
 -1       525    8    0    1
 -2       186       341       342      1821      1825      1823
 -1       526    8    0    1
 -2       188       187       343      1358      1826      1827
 -1       527    8    0    1
 -2       187       342       343      1824      1828      1826
 -1       528    8    0    1
 -2       189       188       344      1361      1829      1830
 -1       529    8    0    1
 -2       188       343       344      1827      1831      1829
 -1       530    8    0    1
 -2       190       189       345      1364      1832      1833
 -1       531    8    0    1
 -2       189       344       345      1830      1834      1832
 -1       532    8    0    1
 -2       191       190       346      1367      1835      1836
 -1       533    8    0    1
 -2       190       345       346      1833      1837      1835
 -1       534    8    0    1
 -2       192       191       347      1370      1838      1839
 -1       535    8    0    1
 -2       191       346       347      1836      1840      1838
 -1       536    8    0    1
 -2       193       192       348      1373      1841      1842
 -1       537    8    0    1
 -2       192       347       348      1839      1843      1841
 -1       538    8    0    1
 -2       194       193       349      1376      1844      1845
 -1       539    8    0    1
 -2       193       348       349      1842      1846      1844
 -1       540    8    0    1
 -2       195       194       350      1379      1847      1848
 -1       541    8    0    1
 -2       194       349       350      1845      1849      1847
 -1       542    8    0    1
 -2       196       195       351      1382      1850      1851
 -1       543    8    0    1
 -2       195       350       351      1848      1852      1850
 -1       544    8    0    1
 -2       197       196       352      1385      1853      1854
 -1       545    8    0    1
 -2       196       351       352      1851      1855      1853
 -1       546    8    0    1
 -2       198       197       353      1388      1856      1857
 -1       547    8    0    1
 -2       197       352       353      1854      1858      1856
 -1       548    8    0    1
 -2       199       198       354      1391      1859      1860
 -1       549    8    0    1
 -2       198       353       354      1857      1861      1859
 -1       550    8    0    1
 -2       200       199       355      1394      1862      1863
 -1       551    8    0    1
 -2       199       354       355      1860      1864      1862
 -1       552    8    0    1
 -2       201       200       356      1397      1865      1866
 -1       553    8    0    1
 -2       200       355       356      1863      1867      1865
 -1       554    8    0    1
 -2       202       201       357      1400      1868      1869
 -1       555    8    0    1
 -2       201       356       357      1866      1870      1868
 -1       556    8    0    1
 -2       203       202       358      1403      1871      1872
 -1       557    8    0    1
 -2       202       357       358      1869      1873      1871
 -1       558    8    0    1
 -2       204       203       359      1406      1874      1875
 -1       559    8    0    1
 -2       203       358       359      1872      1876      1874
 -1       560    8    0    1
 -2       205       204       360      1409      1877      1878
 -1       561    8    0    1
 -2       204       359       360      1875      1879      1877
 -1       562    8    0    1
 -2       206       205       361      1412      1880      1881
 -1       563    8    0    1
 -2       205       360       361      1878      1882      1880
 -1       564    8    0    1
 -2       207       206       362      1415      1883      1884
 -1       565    8    0    1
 -2       206       361       362      1881      1885      1883
 -1       566    8    0    1
 -2       208       207       363      1418      1886      1887
 -1       567    8    0    1
 -2       207       362       363      1884      1888      1886
 -1       568    8    0    1
 -2       209       208       364      1421      1889      1890
 -1       569    8    0    1
 -2       208       363       364      1887      1891      1889
 -1       570    8    0    1
 -2       210       209       365      1424      1892      1893
 -1       571    8    0    1
 -2       209       364       365      1890      1894      1892
 -1       572    8    0    1
 -2       211       210       366      1427      1895      1896
 -1       573    8    0    1
 -2       210       365       366      1893      1897      1895
 -1       574    8    0    1
 -2       212       211       367      1430      1898      1899
 -1       575    8    0    1
 -2       211       366       367      1896      1900      1898
 -1       576    8    0    1
 -2       213       212       368      1433      1901      1902
 -1       577    8    0    1
 -2       212       367       368      1899      1903      1901
 -1       578    8    0    1
 -2       214       213       369      1436      1904      1905
 -1       579    8    0    1
 -2       213       368       369      1902      1906      1904
 -1       580    8    0    1
 -2       215       214       370      1439      1907      1908
 -1       581    8    0    1
 -2       214       369       370      1905      1909      1907
 -1       582    8    0    1
 -2       216       215       371      1442      1910      1911
 -1       583    8    0    1
 -2       215       370       371      1908      1912      1910
 -1       584    8    0    1
 -2       217       216       372      1445      1913      1914
 -1       585    8    0    1
 -2       216       371       372      1911      1915      1913
 -1       586    8    0    1
 -2       218       217       373      1448      1916      1917
 -1       587    8    0    1
 -2       217       372       373      1914      1918      1916
 -1       588    8    0    1
 -2       219       218       374      1451      1919      1920
 -1       589    8    0    1
 -2       218       373       374      1917      1921      1919
 -1       590    8    0    1
 -2       220       219       375      1454      1922      1923
 -1       591    8    0    1
 -2       219       374       375      1920      1924      1922
 -1       592    8    0    1
 -2       221       220       376      1457      1925      1926
 -1       593    8    0    1
 -2       220       375       376      1923      1927      1925
 -1       594    8    0    1
 -2       222       221       377      1460      1928      1929
 -1       595    8    0    1
 -2       221       376       377      1926      1930      1928
 -1       596    8    0    1
 -2       223       222       378      1463      1931      1932
 -1       597    8    0    1
 -2       222       377       378      1929      1933      1931
 -1       598    8    0    1
 -2       224       223       379      1466      1934      1935
 -1       599    8    0    1
 -2       223       378       379      1932      1936      1934
 -1       600    8    0    1
 -2       225       224       380      1469      1937      1938
 -1       601    8    0    1
 -2       224       379       380      1935      1939      1937
 -1       602    8    0    1
 -2       226       225       381      1472      1940      1941
 -1       603    8    0    1
 -2       225       380       381      1938      1942      1940
 -1       604    8    0    1
 -2       227       226       382      1475      1943      1944
 -1       605    8    0    1
 -2       226       381       382      1941      1945      1943
 -1       606    8    0    1
 -2       228       227       383      1478      1946      1947
 -1       607    8    0    1
 -2       291       228       383      1670      1947      1948
 -1       608    8    0    1
 -2       227       382       383      1944      1949      1946
 -1       609    8    0    1
 -2       230       231       384      1489      1950      1951
 -1       610    8    0    1
 -2       230       384       336      1951      1952      1806
 -1       611    8    0    1
 -2       231       232       385      1492      1953      1954
 -1       612    8    0    1
 -2       231       385       384      1954      1955      1950
 -1       613    8    0    1
 -2       232       233       386      1495      1956      1957
 -1       614    8    0    1
 -2       232       386       385      1957      1958      1953
 -1       615    8    0    1
 -2       233       234       387      1498      1959      1960
 -1       616    8    0    1
 -2       233       387       386      1960      1961      1956
 -1       617    8    0    1
 -2       234       235       388      1501      1962      1963
 -1       618    8    0    1
 -2       234       388       387      1963      1964      1959
 -1       619    8    0    1
 -2       235       236       389      1504      1965      1966
 -1       620    8    0    1
 -2       235       389       388      1966      1967      1962
 -1       621    8    0    1
 -2       236       237       390      1507      1968      1969
 -1       622    8    0    1
 -2       236       390       389      1969      1970      1965
 -1       623    8    0    1
 -2       237       238       391      1510      1971      1972
 -1       624    8    0    1
 -2       237       391       390      1972      1973      1968
 -1       625    8    0    1
 -2       238       239       392      1513      1974      1975
 -1       626    8    0    1
 -2       238       392       391      1975      1976      1971
 -1       627    8    0    1
 -2       239       240       393      1516      1977      1978
 -1       628    8    0    1
 -2       239       393       392      1978      1979      1974
 -1       629    8    0    1
 -2       240       241       394      1519      1980      1981
 -1       630    8    0    1
 -2       240       394       393      1981      1982      1977
 -1       631    8    0    1
 -2       241       242       395      1522      1983      1984
 -1       632    8    0    1
 -2       241       395       394      1984      1985      1980
 -1       633    8    0    1
 -2       242       243       396      1525      1986      1987
 -1       634    8    0    1
 -2       242       396       395      1987      1988      1983
 -1       635    8    0    1
 -2       243       244       397      1528      1989      1990
 -1       636    8    0    1
 -2       243       397       396      1990      1991      1986
 -1       637    8    0    1
 -2       244       245       398      1531      1992      1993
 -1       638    8    0    1
 -2       244       398       397      1993      1994      1989
 -1       639    8    0    1
 -2       245       246       399      1534      1995      1996
 -1       640    8    0    1
 -2       245       399       398      1996      1997      1992
 -1       641    8    0    1
 -2       246       247       400      1537      1998      1999
 -1       642    8    0    1
 -2       246       400       399      1999      2000      1995
 -1       643    8    0    1
 -2       247       248       401      1540      2001      2002
 -1       644    8    0    1
 -2       247       401       400      2002      2003      1998
 -1       645    8    0    1
 -2       248       249       402      1543      2004      2005
 -1       646    8    0    1
 -2       248       402       401      2005      2006      2001
 -1       647    8    0    1
 -2       249       250       403      1546      2007      2008
 -1       648    8    0    1
 -2       249       403       402      2008      2009      2004
 -1       649    8    0    1
 -2       250       251       404      1549      2010      2011
 -1       650    8    0    1
 -2       250       404       403      2011      2012      2007
 -1       651    8    0    1
 -2       251       252       405      1552      2013      2014
 -1       652    8    0    1
 -2       251       405       404      2014      2015      2010
 -1       653    8    0    1
 -2       252       253       406      1555      2016      2017
 -1       654    8    0    1
 -2       252       406       405      2017      2018      2013
 -1       655    8    0    1
 -2       253       254       407      1558      2019      2020
 -1       656    8    0    1
 -2       253       407       406      2020      2021      2016
 -1       657    8    0    1
 -2       254       255       408      1561      2022      2023
 -1       658    8    0    1
 -2       254       408       407      2023      2024      2019
 -1       659    8    0    1
 -2       255       256       409      1564      2025      2026
 -1       660    8    0    1
 -2       255       409       408      2026      2027      2022
 -1       661    8    0    1
 -2       256       257       410      1567      2028      2029
 -1       662    8    0    1
 -2       256       410       409      2029      2030      2025
 -1       663    8    0    1
 -2       257       258       411      1570      2031      2032
 -1       664    8    0    1
 -2       257       411       410      2032      2033      2028
 -1       665    8    0    1
 -2       258       259       412      1573      2034      2035
 -1       666    8    0    1
 -2       258       412       411      2035      2036      2031
 -1       667    8    0    1
 -2       259       260       413      1576      2037      2038
 -1       668    8    0    1
 -2       259       413       412      2038      2039      2034
 -1       669    8    0    1
 -2       260       261       414      1579      2040      2041
 -1       670    8    0    1
 -2       260       414       413      2041      2042      2037
 -1       671    8    0    1
 -2       261       262       415      1582      2043      2044
 -1       672    8    0    1
 -2       261       415       414      2044      2045      2040
 -1       673    8    0    1
 -2       262       263       416      1585      2046      2047
 -1       674    8    0    1
 -2       262       416       415      2047      2048      2043
 -1       675    8    0    1
 -2       263       264       417      1588      2049      2050
 -1       676    8    0    1
 -2       263       417       416      2050      2051      2046
 -1       677    8    0    1
 -2       264       265       418      1591      2052      2053
 -1       678    8    0    1
 -2       264       418       417      2053      2054      2049
 -1       679    8    0    1
 -2       265       266       419      1594      2055      2056
 -1       680    8    0    1
 -2       265       419       418      2056      2057      2052
 -1       681    8    0    1
 -2       266       267       420      1597      2058      2059
 -1       682    8    0    1
 -2       266       420       419      2059      2060      2055
 -1       683    8    0    1
 -2       267       268       421      1600      2061      2062
 -1       684    8    0    1
 -2       267       421       420      2062      2063      2058
 -1       685    8    0    1
 -2       268       269       422      1603      2064      2065
 -1       686    8    0    1
 -2       268       422       421      2065      2066      2061
 -1       687    8    0    1
 -2       269       270       423      1606      2067      2068
 -1       688    8    0    1
 -2       269       423       422      2068      2069      2064
 -1       689    8    0    1
 -2       270       271       424      1609      2070      2071
 -1       690    8    0    1
 -2       270       424       423      2071      2072      2067
 -1       691    8    0    1
 -2       271       272       425      1612      2073      2074
 -1       692    8    0    1
 -2       271       425       424      2074      2075      2070
 -1       693    8    0    1
 -2       272       273       426      1615      2076      2077
 -1       694    8    0    1
 -2       272       426       425      2077      2078      2073
 -1       695    8    0    1
 -2       273       274       427      1618      2079      2080
 -1       696    8    0    1
 -2       273       427       426      2080      2081      2076
 -1       697    8    0    1
 -2       274       275       428      1621      2082      2083
 -1       698    8    0    1
 -2       274       428       427      2083      2084      2079
 -1       699    8    0    1
 -2       275       276       429      1624      2085      2086
 -1       700    8    0    1
 -2       428       275       429      2082      2086      2087
 -1       701    8    0    1
 -2       276       277       429      1735      2088      2085
 -1       702    8    0    1
 -2       279       280       430      1636      2089      2090
 -1       703    8    0    1
 -2       278       279       431      1633      2091      2092
 -1       704    8    0    1
 -2       279       430       431      2090      2093      2091
 -1       705    8    0    1
 -2       277       278       432      1630      2094      2095
 -1       706    8    0    1
 -2       429       277       432      2088      2095      2096
 -1       707    8    0    1
 -2       278       431       432      2092      2097      2094
 -1       708    8    0    1
 -2       280       281       433      1639      2098      2099
 -1       709    8    0    1
 -2       280       433       430      2099      2100      2089
 -1       710    8    0    1
 -2       281       282       434      1642      2101      2102
 -1       711    8    0    1
 -2       281       434       433      2102      2103      2098
 -1       712    8    0    1
 -2       282       283       435      1645      2104      2105
 -1       713    8    0    1
 -2       282       435       434      2105      2106      2101
 -1       714    8    0    1
 -2       283       284       436      1648      2107      2108
 -1       715    8    0    1
 -2       283       436       435      2108      2109      2104
 -1       716    8    0    1
 -2       284       285       437      1651      2110      2111
 -1       717    8    0    1
 -2       284       437       436      2111      2112      2107
 -1       718    8    0    1
 -2       285       286       438      1654      2113      2114
 -1       719    8    0    1
 -2       285       438       437      2114      2115      2110
 -1       720    8    0    1
 -2       286       287       439      1657      2116      2117
 -1       721    8    0    1
 -2       286       439       438      2117      2118      2113
 -1       722    8    0    1
 -2       287       288       440      1660      2119      2120
 -1       723    8    0    1
 -2       287       440       439      2120      2121      2116
 -1       724    8    0    1
 -2       288       289       441      1663      2122      2123
 -1       725    8    0    1
 -2       288       441       440      2123      2124      2119
 -1       726    8    0    1
 -2       289       290       442      1666      2125      2126
 -1       727    8    0    1
 -2       289       442       441      2126      2127      2122
 -1       728    8    0    1
 -2       293       294       443      1737      2128      2129
 -1       729    8    0    1
 -2       321       292       444      1738      2130      2131
 -1       730    8    0    1
 -2       292       293       445      1736      2132      2133
 -1       731    8    0    1
 -2       292       445       444      2133      2134      2130
 -1       732    8    0    1
 -2       294       295       446      1733      2135      2136
 -1       733    8    0    1
 -2       309       310       447      1709      2137      2138
 -1       734    8    0    1
 -2       312       313       448      1753      2139      2140
 -1       735    8    0    1
 -2       295       296       449      1732      2141      2142
 -1       736    8    0    1
 -2       167       168       450      1298      2143      2144
 -1       737    8    0    1
 -2       322       167       450      1764      2144      2145
 -1       738    8    0    1
 -2       168       324       450      1770      2146      2143
 -1       739    8    0    1
 -2       297       298       451      1740      2147      2148
 -1       740    8    0    1
 -2       298       299       452      1741      2149      2150
 -1       741    8    0    1
 -2       298       452       451      2150      2151      2147
 -1       742    8    0    1
 -2       299       300       453      1742      2152      2153
 -1       743    8    0    1
 -2       300       301       454      1743      2154      2155
 -1       744    8    0    1
 -2       301       302       455      1744      2156      2157
 -1       745    8    0    1
 -2       302       303       456      1745      2158      2159
 -1       746    8    0    1
 -2       303       304       457      1746      2160      2161
 -1       747    8    0    1
 -2       304       305       458      1747      2162      2163
 -1       748    8    0    1
 -2       305       306       459      1748      2164      2165
 -1       749    8    0    1
 -2       306       307       460      1749      2166      2167
 -1       750    8    0    1
 -2       307       308       461      1750      2168      2169
 -1       751    8    0    1
 -2       308       309       462      1751      2170      2171
 -1       752    8    0    1
 -2       308       462       461      2171      2172      2168
 -1       753    8    0    1
 -2       311       312       463      1752      2173      2174
 -1       754    8    0    1
 -2       313       314       464      1754      2175      2176
 -1       755    8    0    1
 -2       314       315       465      1755      2177      2178
 -1       756    8    0    1
 -2       315       316       466      1756      2179      2180
 -1       757    8    0    1
 -2       315       466       465      2180      2181      2177
 -1       758    8    0    1
 -2       316       317       467      1757      2182      2183
 -1       759    8    0    1
 -2       317       318       468      1758      2184      2185
 -1       760    8    0    1
 -2       317       468       467      2185      2186      2182
 -1       761    8    0    1
 -2       318       319       469      1759      2187      2188
 -1       762    8    0    1
 -2       319       320       470      1760      2189      2190
 -1       763    8    0    1
 -2       319       470       469      2190      2191      2187
 -1       764    8    0    1
 -2       320       321       471      1761      2192      2193
 -1       765    8    0    1
 -2       296       297       472      1739      2194      2195
 -1       766    8    0    1
 -2       296       472       449      2195      2196      2141
 -1       767    8    0    1
 -2       310       337       447      1810      2197      2137
 -1       768    8    0    1
 -2       337       311       463      1809      2174      2198
 -1       769    8    0    1
 -2       182       181       323      1340      1811      2199
 -1       770    8    0    1
 -2       338       182       323      1812      2199      2200
 -1       771    8    0    1
 -2       445       293       473      2132      2201      2202
 -1       772    8    0    1
 -2       293       443       473      2129      2203      2201
 -1       773    8    0    1
 -2       294       446       443      2136      2204      2128
 -1       774    8    0    1
 -2       442       290       291      2125      1669      2205
 -1       775    8    0    1
 -2       321       444       471      2131      2206      2192
 -1       776    8    0    1
 -2       446       295       449      2135      2142      2207
 -1       777    8    0    1
 -2       309       447       462      2138      2208      2170
 -1       778    8    0    1
 -2       472       297       451      2194      2148      2209
 -1       779    8    0    1
 -2       470       320       471      2189      2193      2210
 -1       780    8    0    1
 -2       468       318       469      2184      2188      2211
 -1       781    8    0    1
 -2       466       316       467      2179      2183      2212
 -1       782    8    0    1
 -2       464       314       465      2175      2178      2213
 -1       783    8    0    1
 -2       460       307       461      2166      2169      2214
 -1       784    8    0    1
 -2       312       448       463      2140      2215      2173
 -1       785    8    0    1
 -2       459       306       460      2164      2167      2216
 -1       786    8    0    1
 -2       458       305       459      2162      2165      2217
 -1       787    8    0    1
 -2       457       304       458      2160      2163      2218
 -1       788    8    0    1
 -2       456       303       457      2158      2161      2219
 -1       789    8    0    1
 -2       455       302       456      2156      2159      2220
 -1       790    8    0    1
 -2       454       301       455      2154      2157      2221
 -1       791    8    0    1
 -2       448       313       464      2139      2176      2222
 -1       792    8    0    1
 -2       452       299       474      2149      2223      2224
 -1       793    8    0    1
 -2       299       453       474      2153      2225      2223
 -1       794    8    0    1
 -2       453       300       454      2152      2155      2226
 -1       795    8    0    1
 -2       336       384       475      1952      2227      2228
 -1       796    8    0    1
 -2       325       326       476      1776      2229      2230
 -1       797    8    0    1
 -2       324       325       477      1773      2231      2232
 -1       798    8    0    1
 -2       325       476       477      2230      2233      2231
 -1       799    8    0    1
 -2       327       328       478      1782      2234      2235
 -1       800    8    0    1
 -2       328       329       479      1785      2236      2237
 -1       801    8    0    1
 -2       328       479       478      2237      2238      2234
 -1       802    8    0    1
 -2       329       330       480      1788      2239      2240
 -1       803    8    0    1
 -2       329       480       479      2240      2241      2236
 -1       804    8    0    1
 -2       330       331       481      1791      2242      2243
 -1       805    8    0    1
 -2       330       481       480      2243      2244      2239
 -1       806    8    0    1
 -2       331       332       482      1794      2245      2246
 -1       807    8    0    1
 -2       331       482       481      2246      2247      2242
 -1       808    8    0    1
 -2       332       333       483      1797      2248      2249
 -1       809    8    0    1
 -2       332       483       482      2249      2250      2245
 -1       810    8    0    1
 -2       339       338       484      1816      2251      2252
 -1       811    8    0    1
 -2       337       463       485      2198      2253      2254
 -1       812    8    0    1
 -2       384       385       486      1955      2255      2256
 -1       813    8    0    1
 -2       384       486       475      2256      2257      2227
 -1       814    8    0    1
 -2       338       323       487      2200      2258      2259
 -1       815    8    0    1
 -2       484       338       487      2251      2259      2260
 -1       816    8    0    1
 -2       323       322       487      1768      2261      2258
 -1       817    8    0    1
 -2       340       339       488      1819      2262      2263
 -1       818    8    0    1
 -2       339       484       488      2252      2264      2262
 -1       819    8    0    1
 -2       341       340       489      1822      2265      2266
 -1       820    8    0    1
 -2       340       488       489      2263      2267      2265
 -1       821    8    0    1
 -2       342       341       490      1825      2268      2269
 -1       822    8    0    1
 -2       341       489       490      2266      2270      2268
 -1       823    8    0    1
 -2       343       342       491      1828      2271      2272
 -1       824    8    0    1
 -2       342       490       491      2269      2273      2271
 -1       825    8    0    1
 -2       344       343       492      1831      2274      2275
 -1       826    8    0    1
 -2       343       491       492      2272      2276      2274
 -1       827    8    0    1
 -2       345       344       493      1834      2277      2278
 -1       828    8    0    1
 -2       344       492       493      2275      2279      2277
 -1       829    8    0    1
 -2       346       345       494      1837      2280      2281
 -1       830    8    0    1
 -2       345       493       494      2278      2282      2280
 -1       831    8    0    1
 -2       347       346       495      1840      2283      2284
 -1       832    8    0    1
 -2       346       494       495      2281      2285      2283
 -1       833    8    0    1
 -2       348       347       496      1843      2286      2287
 -1       834    8    0    1
 -2       347       495       496      2284      2288      2286
 -1       835    8    0    1
 -2       349       348       497      1846      2289      2290
 -1       836    8    0    1
 -2       348       496       497      2287      2291      2289
 -1       837    8    0    1
 -2       350       349       498      1849      2292      2293
 -1       838    8    0    1
 -2       349       497       498      2290      2294      2292
 -1       839    8    0    1
 -2       351       350       499      1852      2295      2296
 -1       840    8    0    1
 -2       350       498       499      2293      2297      2295
 -1       841    8    0    1
 -2       352       351       500      1855      2298      2299
 -1       842    8    0    1
 -2       351       499       500      2296      2300      2298
 -1       843    8    0    1
 -2       353       352       501      1858      2301      2302
 -1       844    8    0    1
 -2       352       500       501      2299      2303      2301
 -1       845    8    0    1
 -2       354       353       502      1861      2304      2305
 -1       846    8    0    1
 -2       353       501       502      2302      2306      2304
 -1       847    8    0    1
 -2       355       354       503      1864      2307      2308
 -1       848    8    0    1
 -2       354       502       503      2305      2309      2307
 -1       849    8    0    1
 -2       356       355       504      1867      2310      2311
 -1       850    8    0    1
 -2       355       503       504      2308      2312      2310
 -1       851    8    0    1
 -2       357       356       505      1870      2313      2314
 -1       852    8    0    1
 -2       356       504       505      2311      2315      2313
 -1       853    8    0    1
 -2       358       357       506      1873      2316      2317
 -1       854    8    0    1
 -2       357       505       506      2314      2318      2316
 -1       855    8    0    1
 -2       359       358       507      1876      2319      2320
 -1       856    8    0    1
 -2       358       506       507      2317      2321      2319
 -1       857    8    0    1
 -2       360       359       508      1879      2322      2323
 -1       858    8    0    1
 -2       359       507       508      2320      2324      2322
 -1       859    8    0    1
 -2       361       360       509      1882      2325      2326
 -1       860    8    0    1
 -2       360       508       509      2323      2327      2325
 -1       861    8    0    1
 -2       362       361       510      1885      2328      2329
 -1       862    8    0    1
 -2       361       509       510      2326      2330      2328
 -1       863    8    0    1
 -2       363       362       511      1888      2331      2332
 -1       864    8    0    1
 -2       362       510       511      2329      2333      2331
 -1       865    8    0    1
 -2       364       363       512      1891      2334      2335
 -1       866    8    0    1
 -2       363       511       512      2332      2336      2334
 -1       867    8    0    1
 -2       365       364       513      1894      2337      2338
 -1       868    8    0    1
 -2       364       512       513      2335      2339      2337
 -1       869    8    0    1
 -2       366       365       514      1897      2340      2341
 -1       870    8    0    1
 -2       365       513       514      2338      2342      2340
 -1       871    8    0    1
 -2       367       366       515      1900      2343      2344
 -1       872    8    0    1
 -2       366       514       515      2341      2345      2343
 -1       873    8    0    1
 -2       368       367       516      1903      2346      2347
 -1       874    8    0    1
 -2       367       515       516      2344      2348      2346
 -1       875    8    0    1
 -2       369       368       517      1906      2349      2350
 -1       876    8    0    1
 -2       368       516       517      2347      2351      2349
 -1       877    8    0    1
 -2       370       369       518      1909      2352      2353
 -1       878    8    0    1
 -2       369       517       518      2350      2354      2352
 -1       879    8    0    1
 -2       371       370       519      1912      2355      2356
 -1       880    8    0    1
 -2       370       518       519      2353      2357      2355
 -1       881    8    0    1
 -2       372       371       520      1915      2358      2359
 -1       882    8    0    1
 -2       371       519       520      2356      2360      2358
 -1       883    8    0    1
 -2       373       372       521      1918      2361      2362
 -1       884    8    0    1
 -2       372       520       521      2359      2363      2361
 -1       885    8    0    1
 -2       374       373       522      1921      2364      2365
 -1       886    8    0    1
 -2       373       521       522      2362      2366      2364
 -1       887    8    0    1
 -2       375       374       523      1924      2367      2368
 -1       888    8    0    1
 -2       374       522       523      2365      2369      2367
 -1       889    8    0    1
 -2       376       375       524      1927      2370      2371
 -1       890    8    0    1
 -2       375       523       524      2368      2372      2370
 -1       891    8    0    1
 -2       377       376       525      1930      2373      2374
 -1       892    8    0    1
 -2       376       524       525      2371      2375      2373
 -1       893    8    0    1
 -2       378       377       526      1933      2376      2377
 -1       894    8    0    1
 -2       377       525       526      2374      2378      2376
 -1       895    8    0    1
 -2       379       378       527      1936      2379      2380
 -1       896    8    0    1
 -2       378       526       527      2377      2381      2379
 -1       897    8    0    1
 -2       380       379       528      1939      2382      2383
 -1       898    8    0    1
 -2       379       527       528      2380      2384      2382
 -1       899    8    0    1
 -2       381       380       529      1942      2385      2386
 -1       900    8    0    1
 -2       380       528       529      2383      2387      2385
 -1       901    8    0    1
 -2       382       381       530      1945      2388      2389
 -1       902    8    0    1
 -2       381       529       530      2386      2390      2388
 -1       903    8    0    1
 -2       386       387       531      1961      2391      2392
 -1       904    8    0    1
 -2       387       388       532      1964      2393      2394
 -1       905    8    0    1
 -2       387       532       531      2394      2395      2391
 -1       906    8    0    1
 -2       388       389       533      1967      2396      2397
 -1       907    8    0    1
 -2       388       533       532      2397      2398      2393
 -1       908    8    0    1
 -2       389       390       534      1970      2399      2400
 -1       909    8    0    1
 -2       389       534       533      2400      2401      2396
 -1       910    8    0    1
 -2       390       391       535      1973      2402      2403
 -1       911    8    0    1
 -2       390       535       534      2403      2404      2399
 -1       912    8    0    1
 -2       391       392       536      1976      2405      2406
 -1       913    8    0    1
 -2       391       536       535      2406      2407      2402
 -1       914    8    0    1
 -2       392       393       537      1979      2408      2409
 -1       915    8    0    1
 -2       392       537       536      2409      2410      2405
 -1       916    8    0    1
 -2       393       394       538      1982      2411      2412
 -1       917    8    0    1
 -2       393       538       537      2412      2413      2408
 -1       918    8    0    1
 -2       394       395       539      1985      2414      2415
 -1       919    8    0    1
 -2       394       539       538      2415      2416      2411
 -1       920    8    0    1
 -2       395       396       540      1988      2417      2418
 -1       921    8    0    1
 -2       395       540       539      2418      2419      2414
 -1       922    8    0    1
 -2       396       397       541      1991      2420      2421
 -1       923    8    0    1
 -2       396       541       540      2421      2422      2417
 -1       924    8    0    1
 -2       397       398       542      1994      2423      2424
 -1       925    8    0    1
 -2       397       542       541      2424      2425      2420
 -1       926    8    0    1
 -2       398       399       543      1997      2426      2427
 -1       927    8    0    1
 -2       398       543       542      2427      2428      2423
 -1       928    8    0    1
 -2       399       400       544      2000      2429      2430
 -1       929    8    0    1
 -2       399       544       543      2430      2431      2426
 -1       930    8    0    1
 -2       400       401       545      2003      2432      2433
 -1       931    8    0    1
 -2       400       545       544      2433      2434      2429
 -1       932    8    0    1
 -2       401       402       546      2006      2435      2436
 -1       933    8    0    1
 -2       401       546       545      2436      2437      2432
 -1       934    8    0    1
 -2       402       403       547      2009      2438      2439
 -1       935    8    0    1
 -2       402       547       546      2439      2440      2435
 -1       936    8    0    1
 -2       403       404       548      2012      2441      2442
 -1       937    8    0    1
 -2       403       548       547      2442      2443      2438
 -1       938    8    0    1
 -2       404       405       549      2015      2444      2445
 -1       939    8    0    1
 -2       404       549       548      2445      2446      2441
 -1       940    8    0    1
 -2       405       406       550      2018      2447      2448
 -1       941    8    0    1
 -2       405       550       549      2448      2449      2444
 -1       942    8    0    1
 -2       406       407       551      2021      2450      2451
 -1       943    8    0    1
 -2       406       551       550      2451      2452      2447
 -1       944    8    0    1
 -2       407       408       552      2024      2453      2454
 -1       945    8    0    1
 -2       407       552       551      2454      2455      2450
 -1       946    8    0    1
 -2       408       409       553      2027      2456      2457
 -1       947    8    0    1
 -2       408       553       552      2457      2458      2453
 -1       948    8    0    1
 -2       409       410       554      2030      2459      2460
 -1       949    8    0    1
 -2       409       554       553      2460      2461      2456
 -1       950    8    0    1
 -2       410       411       555      2033      2462      2463
 -1       951    8    0    1
 -2       410       555       554      2463      2464      2459
 -1       952    8    0    1
 -2       411       412       556      2036      2465      2466
 -1       953    8    0    1
 -2       411       556       555      2466      2467      2462
 -1       954    8    0    1
 -2       412       413       557      2039      2468      2469
 -1       955    8    0    1
 -2       412       557       556      2469      2470      2465
 -1       956    8    0    1
 -2       413       414       558      2042      2471      2472
 -1       957    8    0    1
 -2       413       558       557      2472      2473      2468
 -1       958    8    0    1
 -2       414       415       559      2045      2474      2475
 -1       959    8    0    1
 -2       414       559       558      2475      2476      2471
 -1       960    8    0    1
 -2       415       416       560      2048      2477      2478
 -1       961    8    0    1
 -2       415       560       559      2478      2479      2474
 -1       962    8    0    1
 -2       416       417       561      2051      2480      2481
 -1       963    8    0    1
 -2       416       561       560      2481      2482      2477
 -1       964    8    0    1
 -2       417       418       562      2054      2483      2484
 -1       965    8    0    1
 -2       417       562       561      2484      2485      2480
 -1       966    8    0    1
 -2       418       419       563      2057      2486      2487
 -1       967    8    0    1
 -2       418       563       562      2487      2488      2483
 -1       968    8    0    1
 -2       419       420       564      2060      2489      2490
 -1       969    8    0    1
 -2       419       564       563      2490      2491      2486
 -1       970    8    0    1
 -2       420       421       565      2063      2492      2493
 -1       971    8    0    1
 -2       420       565       564      2493      2494      2489
 -1       972    8    0    1
 -2       421       422       566      2066      2495      2496
 -1       973    8    0    1
 -2       421       566       565      2496      2497      2492
 -1       974    8    0    1
 -2       422       423       567      2069      2498      2499
 -1       975    8    0    1
 -2       422       567       566      2499      2500      2495
 -1       976    8    0    1
 -2       423       424       568      2072      2501      2502
 -1       977    8    0    1
 -2       423       568       567      2502      2503      2498
 -1       978    8    0    1
 -2       424       425       569      2075      2504      2505
 -1       979    8    0    1
 -2       424       569       568      2505      2506      2501
 -1       980    8    0    1
 -2       425       426       570      2078      2507      2508
 -1       981    8    0    1
 -2       425       570       569      2508      2509      2504
 -1       982    8    0    1
 -2       426       427       571      2081      2510      2511
 -1       983    8    0    1
 -2       426       571       570      2511      2512      2507
 -1       984    8    0    1
 -2       427       428       572      2084      2513      2514
 -1       985    8    0    1
 -2       427       572       571      2514      2515      2510
 -1       986    8    0    1
 -2       428       429       432      2087      2096      2516
 -1       987    8    0    1
 -2       433       434       573      2103      2517      2518
 -1       988    8    0    1
 -2       434       435       574      2106      2519      2520
 -1       989    8    0    1
 -2       434       574       573      2520      2521      2517
 -1       990    8    0    1
 -2       431       430       575      2093      2522      2523
 -1       991    8    0    1
 -2       430       433       576      2100      2524      2525
 -1       992    8    0    1
 -2       575       430       576      2522      2525      2526
 -1       993    8    0    1
 -2       433       573       576      2518      2527      2524
 -1       994    8    0    1
 -2       435       436       577      2109      2528      2529
 -1       995    8    0    1
 -2       435       577       574      2529      2530      2519
 -1       996    8    0    1
 -2       436       437       578      2112      2531      2532
 -1       997    8    0    1
 -2       436       578       577      2532      2533      2528
 -1       998    8    0    1
 -2       437       438       579      2115      2534      2535
 -1       999    8    0    1
 -2       437       579       578      2535      2536      2531
 -1      1000    8    0    1
 -2       438       439       580      2118      2537      2538
 -1      1001    8    0    1
 -2       438       580       579      2538      2539      2534
 -1      1002    8    0    1
 -2       439       440       581      2121      2540      2541
 -1      1003    8    0    1
 -2       439       581       580      2541      2542      2537
 -1      1004    8    0    1
 -2       440       441       582      2124      2543      2544
 -1      1005    8    0    1
 -2       440       582       581      2544      2545      2540
 -1      1006    8    0    1
 -2       441       442       583      2127      2546      2547
 -1      1007    8    0    1
 -2       441       583       582      2547      2548      2543
 -1      1008    8    0    1
 -2       443       446       584      2204      2549      2550
 -1      1009    8    0    1
 -2       442       291       383      2205      1948      2551
 -1      1010    8    0    1
 -2       471       444       585      2206      2552      2553
 -1      1011    8    0    1
 -2       385       386       586      1958      2554      2555
 -1      1012    8    0    1
 -2       386       531       586      2392      2556      2554
 -1      1013    8    0    1
 -2       444       445       587      2134      2557      2558
 -1      1014    8    0    1
 -2       464       465       588      2213      2559      2560
 -1      1015    8    0    1
 -2       472       451       589      2209      2561      2562
 -1      1016    8    0    1
 -2       462       447       590      2208      2563      2564
 -1      1017    8    0    1
 -2       447       337       591      2197      2565      2566
 -1      1018    8    0    1
 -2       326       327       592      1779      2567      2568
 -1      1019    8    0    1
 -2       476       326       592      2229      2568      2569
 -1      1020    8    0    1
 -2       327       478       592      2235      2570      2567
 -1      1021    8    0    1
 -2       451       452       593      2151      2571      2572
 -1      1022    8    0    1
 -2       448       464       594      2222      2573      2574
 -1      1023    8    0    1
 -2       454       455       595      2221      2575      2576
 -1      1024    8    0    1
 -2       455       456       596      2220      2577      2578
 -1      1025    8    0    1
 -2       456       457       597      2219      2579      2580
 -1      1026    8    0    1
 -2       457       458       598      2218      2581      2582
 -1      1027    8    0    1
 -2       458       459       599      2217      2583      2584
 -1      1028    8    0    1
 -2       458       599       598      2584      2585      2581
 -1      1029    8    0    1
 -2       463       448       600      2215      2586      2587
 -1      1030    8    0    1
 -2       461       462       601      2172      2588      2589
 -1      1031    8    0    1
 -2       459       460       602      2216      2590      2591
 -1      1032    8    0    1
 -2       453       454       603      2226      2592      2593
 -1      1033    8    0    1
 -2       470       471       604      2210      2594      2595
 -1      1034    8    0    1
 -2       471       585       604      2553      2596      2594
 -1      1035    8    0    1
 -2       460       461       605      2214      2597      2598
 -1      1036    8    0    1
 -2       465       466       606      2181      2599      2600
 -1      1037    8    0    1
 -2       466       467       607      2212      2601      2602
 -1      1038    8    0    1
 -2       466       607       606      2602      2603      2599
 -1      1039    8    0    1
 -2       467       468       608      2186      2604      2605
 -1      1040    8    0    1
 -2       468       469       609      2211      2606      2607
 -1      1041    8    0    1
 -2       468       609       608      2607      2608      2604
 -1      1042    8    0    1
 -2       469       470       610      2191      2609      2610
 -1      1043    8    0    1
 -2       446       449       611      2207      2611      2612
 -1      1044    8    0    1
 -2       449       472       612      2196      2613      2614
 -1      1045    8    0    1
 -2       335       336       613      1808      2615      2616
 -1      1046    8    0    1
 -2       334       335       613      1803      2616      2617
 -1      1047    8    0    1
 -2       336       475       613      2228      2618      2615
 -1      1048    8    0    1
 -2       451       593       589      2572      2619      2561
 -1      1049    8    0    1
 -2       324       477       614      2232      2620      2621
 -1      1050    8    0    1
 -2       324       614       450      2621      2622      2146
 -1      1051    8    0    1
 -2       444       587       585      2558      2623      2552
 -1      1052    8    0    1
 -2       333       334       613      1800      2617      2624
 -1      1053    8    0    1
 -2       337       485       591      2254      2625      2565
 -1      1054    8    0    1
 -2       609       469       610      2606      2610      2626
 -1      1055    8    0    1
 -2       487       322       450      2261      2145      2627
 -1      1056    8    0    1
 -2       607       467       608      2601      2605      2628
 -1      1057    8    0    1
 -2       473       443       584      2203      2550      2629
 -1      1058    8    0    1
 -2       460       605       602      2598      2630      2590
 -1      1059    8    0    1
 -2       428       432       572      2516      2631      2513
 -1      1060    8    0    1
 -2       432       431       572      2097      2632      2631
 -1      1061    8    0    1
 -2       603       454       595      2592      2576      2633
 -1      1062    8    0    1
 -2       584       446       611      2549      2612      2634
 -1      1063    8    0    1
 -2       442       383       615      2551      2635      2636
 -1      1064    8    0    1
 -2       583       442       615      2546      2636      2637
 -1      1065    8    0    1
 -2       383       382       615      1949      2638      2635
 -1      1066    8    0    1
 -2       333       613       483      2624      2639      2248
 -1      1067    8    0    1
 -2       385       586       486      2555      2640      2255
 -1      1068    8    0    1
 -2       587       445       616      2557      2641      2642
 -1      1069    8    0    1
 -2       445       473       616      2202      2643      2641
 -1      1070    8    0    1
 -2       601       462       590      2588      2564      2644
 -1      1071    8    0    1
 -2       464       588       594      2560      2645      2573
 -1      1072    8    0    1
 -2       599       459       617      2583      2646      2647
 -1      1073    8    0    1
 -2       459       602       617      2591      2648      2646
 -1      1074    8    0    1
 -2       463       600       485      2587      2649      2253
 -1      1075    8    0    1
 -2       612       472       589      2613      2562      2650
 -1      1076    8    0    1
 -2       597       457       598      2579      2582      2651
 -1      1077    8    0    1
 -2       596       456       597      2577      2580      2652
 -1      1078    8    0    1
 -2       595       455       596      2575      2578      2653
 -1      1079    8    0    1
 -2       590       447       591      2563      2566      2654
 -1      1080    8    0    1
 -2       588       465       606      2559      2600      2655
 -1      1081    8    0    1
 -2       474       453       603      2225      2593      2656
 -1      1082    8    0    1
 -2       382       530       615      2389      2657      2638
 -1      1083    8    0    1
 -2       593       452       474      2571      2224      2658
 -1      1084    8    0    1
 -2       448       594       600      2574      2659      2586
 -1      1085    8    0    1
 -2       461       601       605      2589      2660      2597
 -1      1086    8    0    1
 -2       470       604       610      2595      2661      2609
 -1      1087    8    0    1
 -2       449       612       611      2614      2662      2611
 -1      1088    8    0    1
 -2       572       431       575      2632      2523      2663
 -1      1089    8    0    1
 -2       479       480       618      2241      2664      2665
 -1      1090    8    0    1
 -2       478       479       619      2238      2666      2667
 -1      1091    8    0    1
 -2       479       618       619      2665      2668      2666
 -1      1092    8    0    1
 -2       481       482       620      2247      2669      2670
 -1      1093    8    0    1
 -2       482       483       621      2250      2671      2672
 -1      1094    8    0    1
 -2       482       621       620      2672      2673      2669
 -1      1095    8    0    1
 -2       486       586       622      2640      2674      2675
 -1      1096    8    0    1
 -2       488       484       623      2264      2676      2677
 -1      1097    8    0    1
 -2       473       584       624      2629      2678      2679
 -1      1098    8    0    1
 -2       533       534       625      2401      2680      2681
 -1      1099    8    0    1
 -2       489       488       626      2267      2682      2683
 -1      1100    8    0    1
 -2       488       623       626      2677      2684      2682
 -1      1101    8    0    1
 -2       490       489       627      2270      2685      2686
 -1      1102    8    0    1
 -2       489       626       627      2683      2687      2685
 -1      1103    8    0    1
 -2       491       490       628      2273      2688      2689
 -1      1104    8    0    1
 -2       490       627       628      2686      2690      2688
 -1      1105    8    0    1
 -2       492       491       629      2276      2691      2692
 -1      1106    8    0    1
 -2       491       628       629      2689      2693      2691
 -1      1107    8    0    1
 -2       493       492       630      2279      2694      2695
 -1      1108    8    0    1
 -2       492       629       630      2692      2696      2694
 -1      1109    8    0    1
 -2       494       493       631      2282      2697      2698
 -1      1110    8    0    1
 -2       493       630       631      2695      2699      2697
 -1      1111    8    0    1
 -2       495       494       632      2285      2700      2701
 -1      1112    8    0    1
 -2       494       631       632      2698      2702      2700
 -1      1113    8    0    1
 -2       496       495       633      2288      2703      2704
 -1      1114    8    0    1
 -2       495       632       633      2701      2705      2703
 -1      1115    8    0    1
 -2       497       496       634      2291      2706      2707
 -1      1116    8    0    1
 -2       496       633       634      2704      2708      2706
 -1      1117    8    0    1
 -2       498       497       635      2294      2709      2710
 -1      1118    8    0    1
 -2       497       634       635      2707      2711      2709
 -1      1119    8    0    1
 -2       499       498       636      2297      2712      2713
 -1      1120    8    0    1
 -2       498       635       636      2710      2714      2712
 -1      1121    8    0    1
 -2       500       499       637      2300      2715      2716
 -1      1122    8    0    1
 -2       499       636       637      2713      2717      2715
 -1      1123    8    0    1
 -2       501       500       638      2303      2718      2719
 -1      1124    8    0    1
 -2       500       637       638      2716      2720      2718
 -1      1125    8    0    1
 -2       502       501       639      2306      2721      2722
 -1      1126    8    0    1
 -2       501       638       639      2719      2723      2721
 -1      1127    8    0    1
 -2       503       502       640      2309      2724      2725
 -1      1128    8    0    1
 -2       502       639       640      2722      2726      2724
 -1      1129    8    0    1
 -2       504       503       641      2312      2727      2728
 -1      1130    8    0    1
 -2       503       640       641      2725      2729      2727
 -1      1131    8    0    1
 -2       505       504       642      2315      2730      2731
 -1      1132    8    0    1
 -2       504       641       642      2728      2732      2730
 -1      1133    8    0    1
 -2       506       505       643      2318      2733      2734
 -1      1134    8    0    1
 -2       505       642       643      2731      2735      2733
 -1      1135    8    0    1
 -2       507       506       644      2321      2736      2737
 -1      1136    8    0    1
 -2       506       643       644      2734      2738      2736
 -1      1137    8    0    1
 -2       508       507       645      2324      2739      2740
 -1      1138    8    0    1
 -2       507       644       645      2737      2741      2739
 -1      1139    8    0    1
 -2       509       508       646      2327      2742      2743
 -1      1140    8    0    1
 -2       508       645       646      2740      2744      2742
 -1      1141    8    0    1
 -2       510       509       647      2330      2745      2746
 -1      1142    8    0    1
 -2       509       646       647      2743      2747      2745
 -1      1143    8    0    1
 -2       511       510       648      2333      2748      2749
 -1      1144    8    0    1
 -2       510       647       648      2746      2750      2748
 -1      1145    8    0    1
 -2       512       511       649      2336      2751      2752
 -1      1146    8    0    1
 -2       511       648       649      2749      2753      2751
 -1      1147    8    0    1
 -2       513       512       650      2339      2754      2755
 -1      1148    8    0    1
 -2       512       649       650      2752      2756      2754
 -1      1149    8    0    1
 -2       514       513       651      2342      2757      2758
 -1      1150    8    0    1
 -2       513       650       651      2755      2759      2757
 -1      1151    8    0    1
 -2       515       514       652      2345      2760      2761
 -1      1152    8    0    1
 -2       514       651       652      2758      2762      2760
 -1      1153    8    0    1
 -2       516       515       653      2348      2763      2764
 -1      1154    8    0    1
 -2       515       652       653      2761      2765      2763
 -1      1155    8    0    1
 -2       517       516       654      2351      2766      2767
 -1      1156    8    0    1
 -2       516       653       654      2764      2768      2766
 -1      1157    8    0    1
 -2       519       518       485      2357      2769      2770
 -1      1158    8    0    1
 -2       521       520       588      2363      2771      2772
 -1      1159    8    0    1
 -2       522       521       606      2366      2773      2774
 -1      1160    8    0    1
 -2       523       522       655      2369      2775      2776
 -1      1161    8    0    1
 -2       524       523       656      2372      2777      2778
 -1      1162    8    0    1
 -2       523       655       656      2776      2779      2777
 -1      1163    8    0    1
 -2       525       524       657      2375      2780      2781
 -1      1164    8    0    1
 -2       524       656       657      2778      2782      2780
 -1      1165    8    0    1
 -2       526       525       658      2378      2783      2784
 -1      1166    8    0    1
 -2       525       657       658      2781      2785      2783
 -1      1167    8    0    1
 -2       527       526       659      2381      2786      2787
 -1      1168    8    0    1
 -2       526       658       659      2784      2788      2786
 -1      1169    8    0    1
 -2       528       527       660      2384      2789      2790
 -1      1170    8    0    1
 -2       527       659       660      2787      2791      2789
 -1      1171    8    0    1
 -2       529       528       661      2387      2792      2793
 -1      1172    8    0    1
 -2       528       660       661      2790      2794      2792
 -1      1173    8    0    1
 -2       530       529       662      2390      2795      2796
 -1      1174    8    0    1
 -2       529       661       662      2793      2797      2795
 -1      1175    8    0    1
 -2       532       533       663      2398      2798      2799
 -1      1176    8    0    1
 -2       533       625       663      2681      2800      2798
 -1      1177    8    0    1
 -2       483       613       475      2639      2618      2801
 -1      1178    8    0    1
 -2       604       585       664      2596      2802      2803
 -1      1179    8    0    1
 -2       531       532       665      2395      2804      2805
 -1      1180    8    0    1
 -2       532       663       665      2799      2806      2804
 -1      1181    8    0    1
 -2       534       535       666      2404      2807      2808
 -1      1182    8    0    1
 -2       534       666       625      2808      2809      2680
 -1      1183    8    0    1
 -2       535       536       667      2407      2810      2811
 -1      1184    8    0    1
 -2       535       667       666      2811      2812      2807
 -1      1185    8    0    1
 -2       536       537       668      2410      2813      2814
 -1      1186    8    0    1
 -2       536       668       667      2814      2815      2810
 -1      1187    8    0    1
 -2       537       538       669      2413      2816      2817
 -1      1188    8    0    1
 -2       537       669       668      2817      2818      2813
 -1      1189    8    0    1
 -2       538       539       670      2416      2819      2820
 -1      1190    8    0    1
 -2       538       670       669      2820      2821      2816
 -1      1191    8    0    1
 -2       539       540       671      2419      2822      2823
 -1      1192    8    0    1
 -2       539       671       670      2823      2824      2819
 -1      1193    8    0    1
 -2       540       541       672      2422      2825      2826
 -1      1194    8    0    1
 -2       540       672       671      2826      2827      2822
 -1      1195    8    0    1
 -2       541       542       673      2425      2828      2829
 -1      1196    8    0    1
 -2       541       673       672      2829      2830      2825
 -1      1197    8    0    1
 -2       542       543       674      2428      2831      2832
 -1      1198    8    0    1
 -2       542       674       673      2832      2833      2828
 -1      1199    8    0    1
 -2       543       544       675      2431      2834      2835
 -1      1200    8    0    1
 -2       543       675       674      2835      2836      2831
 -1      1201    8    0    1
 -2       544       545       676      2434      2837      2838
 -1      1202    8    0    1
 -2       544       676       675      2838      2839      2834
 -1      1203    8    0    1
 -2       545       546       677      2437      2840      2841
 -1      1204    8    0    1
 -2       545       677       676      2841      2842      2837
 -1      1205    8    0    1
 -2       546       547       678      2440      2843      2844
 -1      1206    8    0    1
 -2       546       678       677      2844      2845      2840
 -1      1207    8    0    1
 -2       547       548       679      2443      2846      2847
 -1      1208    8    0    1
 -2       547       679       678      2847      2848      2843
 -1      1209    8    0    1
 -2       548       549       680      2446      2849      2850
 -1      1210    8    0    1
 -2       548       680       679      2850      2851      2846
 -1      1211    8    0    1
 -2       549       550       681      2449      2852      2853
 -1      1212    8    0    1
 -2       549       681       680      2853      2854      2849
 -1      1213    8    0    1
 -2       550       551       682      2452      2855      2856
 -1      1214    8    0    1
 -2       550       682       681      2856      2857      2852
 -1      1215    8    0    1
 -2       551       552       683      2455      2858      2859
 -1      1216    8    0    1
 -2       551       683       682      2859      2860      2855
 -1      1217    8    0    1
 -2       552       553       684      2458      2861      2862
 -1      1218    8    0    1
 -2       552       684       683      2862      2863      2858
 -1      1219    8    0    1
 -2       553       554       685      2461      2864      2865
 -1      1220    8    0    1
 -2       553       685       684      2865      2866      2861
 -1      1221    8    0    1
 -2       554       555       686      2464      2867      2868
 -1      1222    8    0    1
 -2       554       686       685      2868      2869      2864
 -1      1223    8    0    1
 -2       555       556       687      2467      2870      2871
 -1      1224    8    0    1
 -2       555       687       686      2871      2872      2867
 -1      1225    8    0    1
 -2       556       557       688      2470      2873      2874
 -1      1226    8    0    1
 -2       556       688       687      2874      2875      2870
 -1      1227    8    0    1
 -2       557       558       689      2473      2876      2877
 -1      1228    8    0    1
 -2       557       689       688      2877      2878      2873
 -1      1229    8    0    1
 -2       558       559       690      2476      2879      2880
 -1      1230    8    0    1
 -2       558       690       689      2880      2881      2876
 -1      1231    8    0    1
 -2       559       560       691      2479      2882      2883
 -1      1232    8    0    1
 -2       559       691       690      2883      2884      2879
 -1      1233    8    0    1
 -2       560       561       692      2482      2885      2886
 -1      1234    8    0    1
 -2       560       692       691      2886      2887      2882
 -1      1235    8    0    1
 -2       561       562       693      2485      2888      2889
 -1      1236    8    0    1
 -2       561       693       692      2889      2890      2885
 -1      1237    8    0    1
 -2       562       563       694      2488      2891      2892
 -1      1238    8    0    1
 -2       562       694       693      2892      2893      2888
 -1      1239    8    0    1
 -2       563       564       695      2491      2894      2895
 -1      1240    8    0    1
 -2       563       695       694      2895      2896      2891
 -1      1241    8    0    1
 -2       564       565       696      2494      2897      2898
 -1      1242    8    0    1
 -2       564       696       695      2898      2899      2894
 -1      1243    8    0    1
 -2       565       566       697      2497      2900      2901
 -1      1244    8    0    1
 -2       565       697       696      2901      2902      2897
 -1      1245    8    0    1
 -2       566       567       698      2500      2903      2904
 -1      1246    8    0    1
 -2       566       698       697      2904      2905      2900
 -1      1247    8    0    1
 -2       567       568       699      2503      2906      2907
 -1      1248    8    0    1
 -2       567       699       698      2907      2908      2903
 -1      1249    8    0    1
 -2       568       569       700      2506      2909      2910
 -1      1250    8    0    1
 -2       568       700       699      2910      2911      2906
 -1      1251    8    0    1
 -2       569       570       701      2509      2912      2913
 -1      1252    8    0    1
 -2       569       701       700      2913      2914      2909
 -1      1253    8    0    1
 -2       570       571       702      2512      2915      2916
 -1      1254    8    0    1
 -2       570       702       701      2916      2917      2912
 -1      1255    8    0    1
 -2       571       572       703      2515      2918      2919
 -1      1256    8    0    1
 -2       702       571       703      2915      2919      2920
 -1      1257    8    0    1
 -2       572       575       703      2663      2921      2918
 -1      1258    8    0    1
 -2       577       578       704      2533      2922      2923
 -1      1259    8    0    1
 -2       573       574       705      2521      2924      2925
 -1      1260    8    0    1
 -2       578       579       706      2536      2926      2927
 -1      1261    8    0    1
 -2       578       706       704      2927      2928      2922
 -1      1262    8    0    1
 -2       574       577       707      2530      2929      2930
 -1      1263    8    0    1
 -2       705       574       707      2924      2930      2931
 -1      1264    8    0    1
 -2       577       704       707      2923      2932      2929
 -1      1265    8    0    1
 -2       586       531       708      2556      2933      2934
 -1      1266    8    0    1
 -2       622       586       708      2674      2934      2935
 -1      1267    8    0    1
 -2       531       665       708      2805      2936      2933
 -1      1268    8    0    1
 -2       579       580       709      2539      2937      2938
 -1      1269    8    0    1
 -2       579       709       706      2938      2939      2926
 -1      1270    8    0    1
 -2       580       581       710      2542      2940      2941
 -1      1271    8    0    1
 -2       580       710       709      2941      2942      2937
 -1      1272    8    0    1
 -2       581       582       711      2545      2943      2944
 -1      1273    8    0    1
 -2       581       711       710      2944      2945      2940
 -1      1274    8    0    1
 -2       602       605       712      2630      2946      2947
 -1      1275    8    0    1
 -2       593       474       713      2658      2948      2949
 -1      1276    8    0    1
 -2       603       595       714      2633      2950      2951
 -1      1277    8    0    1
 -2       597       598       715      2651      2952      2953
 -1      1278    8    0    1
 -2       609       610       716      2626      2954      2955
 -1      1279    8    0    1
 -2       594       588       520      2645      2771      2956
 -1      1280    8    0    1
 -2       601       590       717      2644      2957      2958
 -1      1281    8    0    1
 -2       606       521       588      2773      2772      2655
 -1      1282    8    0    1
 -2       612       589       718      2650      2959      2960
 -1      1283    8    0    1
 -2       480       481       719      2244      2961      2962
 -1      1284    8    0    1
 -2       618       480       719      2664      2962      2963
 -1      1285    8    0    1
 -2       481       620       719      2670      2964      2961
 -1      1286    8    0    1
 -2       477       476       720      2233      2965      2966
 -1      1287    8    0    1
 -2       585       587       721      2623      2967      2968
 -1      1288    8    0    1
 -2       585       721       664      2968      2969      2802
 -1      1289    8    0    1
 -2       607       608       655      2628      2970      2971
 -1      1290    8    0    1
 -2       589       593       722      2619      2972      2973
 -1      1291    8    0    1
 -2       584       611       723      2634      2974      2975
 -1      1292    8    0    1
 -2       590       591       724      2654      2976      2977
 -1      1293    8    0    1
 -2       595       596       725      2653      2978      2979
 -1      1294    8    0    1
 -2       596       597       726      2652      2980      2981
 -1      1295    8    0    1
 -2       597       715       726      2953      2982      2980
 -1      1296    8    0    1
 -2       598       599       727      2585      2983      2984
 -1      1297    8    0    1
 -2       605       601       728      2660      2985      2986
 -1      1298    8    0    1
 -2       615       530       729      2657      2987      2988
 -1      1299    8    0    1
 -2       583       615       729      2637      2988      2989
 -1      1300    8    0    1
 -2       530       662       729      2796      2990      2987
 -1      1301    8    0    1
 -2       610       604       730      2661      2991      2992
 -1      1302    8    0    1
 -2       474       603       731      2656      2993      2994
 -1      1303    8    0    1
 -2       713       474       731      2948      2994      2995
 -1      1304    8    0    1
 -2       603       714       731      2951      2996      2993
 -1      1305    8    0    1
 -2       487       450       614      2627      2622      2997
 -1      1306    8    0    1
 -2       608       609       732      2608      2998      2999
 -1      1307    8    0    1
 -2       611       612       733      2662      3000      3001
 -1      1308    8    0    1
 -2       591       485       734      2625      3002      3003
 -1      1309    8    0    1
 -2       483       475       735      2801      3004      3005
 -1      1310    8    0    1
 -2       621       483       735      2671      3005      3006
 -1      1311    8    0    1
 -2       475       486       735      2257      3007      3004
 -1      1312    8    0    1
 -2       614       477       736      2620      3008      3009
 -1      1313    8    0    1
 -2       477       720       736      2966      3010      3008
 -1      1314    8    0    1
 -2       478       619       737      2667      3011      3012
 -1      1315    8    0    1
 -2       478       737       592      3012      3013      2570
 -1      1316    8    0    1
 -2       486       622       735      2675      3014      3007
 -1      1317    8    0    1
 -2       519       485       600      2770      2649      3015
 -1      1318    8    0    1
 -2       473       624       616      2679      3016      2643
 -1      1319    8    0    1
 -2       517       654       734      2767      3017      3018
 -1      1320    8    0    1
 -2       485       518       734      2769      3019      3002
 -1      1321    8    0    1
 -2       518       517       734      2354      3018      3019
 -1      1322    8    0    1
 -2       718       589       722      2959      2973      3020
 -1      1323    8    0    1
 -2       522       606       655      2774      3021      2775
 -1      1324    8    0    1
 -2       610       730       716      2992      3022      2954
 -1      1325    8    0    1
 -2       703       575       738      2921      3023      3024
 -1      1326    8    0    1
 -2       575       576       738      2526      3025      3023
 -1      1327    8    0    1
 -2       714       595       739      2950      3026      3027
 -1      1328    8    0    1
 -2       595       725       739      2979      3028      3026
 -1      1329    8    0    1
 -2       733       612       718      3000      2960      3029
 -1      1330    8    0    1
 -2       602       712       617      2947      3030      2648
 -1      1331    8    0    1
 -2       712       605       728      2946      2986      3031
 -1      1332    8    0    1
 -2       582       583       740      2548      3032      3033
 -1      1333    8    0    1
 -2       593       713       741      2949      3034      3035
 -1      1334    8    0    1
 -2       593       741       722      3035      3036      2972
 -1      1335    8    0    1
 -2       487       614       742      2997      3037      3038
 -1      1336    8    0    1
 -2       484       487       742      2260      3038      3039
 -1      1337    8    0    1
 -2       614       736       742      3009      3040      3037
 -1      1338    8    0    1
 -2       598       727       715      2984      3041      2952
 -1      1339    8    0    1
 -2       728       601       743      2985      3042      3043
 -1      1340    8    0    1
 -2       601       717       743      2958      3044      3042
 -1      1341    8    0    1
 -2       725       596       726      2978      2981      3045
 -1      1342    8    0    1
 -2       724       591       734      2976      3003      3046
 -1      1343    8    0    1
 -2       723       611       744      2974      3047      3048
 -1      1344    8    0    1
 -2       611       733       744      3001      3049      3047
 -1      1345    8    0    1
 -2       604       664       730      2803      3050      2991
 -1      1346    8    0    1
 -2       609       716       732      2955      3051      2998
 -1      1347    8    0    1
 -2       717       590       724      2957      2977      3052
 -1      1348    8    0    1
 -2       484       742       623      3039      3053      2676
 -1      1349    8    0    1
 -2       608       732       655      2999      3054      2970
 -1      1350    8    0    1
 -2       576       573       745      2527      3055      3056
 -1      1351    8    0    1
 -2       738       576       745      3025      3056      3057
 -1      1352    8    0    1
 -2       573       705       745      2925      3058      3055
 -1      1353    8    0    1
 -2       587       616       746      2642      3059      3060
 -1      1354    8    0    1
 -2       587       746       721      3060      3061      2967
 -1      1355    8    0    1
 -2       476       592       747      2569      3062      3063
 -1      1356    8    0    1
 -2       720       476       747      2965      3063      3064
 -1      1357    8    0    1
 -2       592       737       747      3013      3065      3062
 -1      1358    8    0    1
 -2       599       617       727      2647      3066      2983
 -1      1359    8    0    1
 -2       624       584       723      2678      2975      3067
 -1      1360    8    0    1
 -2       582       740       711      3033      3068      2943
 -1      1361    8    0    1
 -2       620       621       748      2673      3069      3070
 -1      1362    8    0    1
 -2       710       711       749      2945      3071      3072
 -1      1363    8    0    1
 -2       734       654       724      3017      3073      3046
 -1      1364    8    0    1
 -2       715       727       750      3041      3074      3075
 -1      1365    8    0    1
 -2       718       722       751      3020      3076      3077
 -1      1366    8    0    1
 -2       627       626       752      2687      3078      3079
 -1      1367    8    0    1
 -2       628       627       753      2690      3080      3081
 -1      1368    8    0    1
 -2       627       752       753      3079      3082      3080
 -1      1369    8    0    1
 -2       629       628       754      2693      3083      3084
 -1      1370    8    0    1
 -2       628       753       754      3081      3085      3083
 -1      1371    8    0    1
 -2       630       629       755      2696      3086      3087
 -1      1372    8    0    1
 -2       629       754       755      3084      3088      3086
 -1      1373    8    0    1
 -2       631       630       756      2699      3089      3090
 -1      1374    8    0    1
 -2       630       755       756      3087      3091      3089
 -1      1375    8    0    1
 -2       632       631       757      2702      3092      3093
 -1      1376    8    0    1
 -2       631       756       757      3090      3094      3092
 -1      1377    8    0    1
 -2       633       632       758      2705      3095      3096
 -1      1378    8    0    1
 -2       632       757       758      3093      3097      3095
 -1      1379    8    0    1
 -2       634       633       759      2708      3098      3099
 -1      1380    8    0    1
 -2       633       758       759      3096      3100      3098
 -1      1381    8    0    1
 -2       635       634       760      2711      3101      3102
 -1      1382    8    0    1
 -2       634       759       760      3099      3103      3101
 -1      1383    8    0    1
 -2       636       635       761      2714      3104      3105
 -1      1384    8    0    1
 -2       635       760       761      3102      3106      3104
 -1      1385    8    0    1
 -2       637       636       762      2717      3107      3108
 -1      1386    8    0    1
 -2       636       761       762      3105      3109      3107
 -1      1387    8    0    1
 -2       638       637       763      2720      3110      3111
 -1      1388    8    0    1
 -2       637       762       763      3108      3112      3110
 -1      1389    8    0    1
 -2       639       638       764      2723      3113      3114
 -1      1390    8    0    1
 -2       638       763       764      3111      3115      3113
 -1      1391    8    0    1
 -2       640       639       765      2726      3116      3117
 -1      1392    8    0    1
 -2       639       764       765      3114      3118      3116
 -1      1393    8    0    1
 -2       641       640       766      2729      3119      3120
 -1      1394    8    0    1
 -2       640       765       766      3117      3121      3119
 -1      1395    8    0    1
 -2       642       641       767      2732      3122      3123
 -1      1396    8    0    1
 -2       641       766       767      3120      3124      3122
 -1      1397    8    0    1
 -2       643       642       768      2735      3125      3126
 -1      1398    8    0    1
 -2       642       767       768      3123      3127      3125
 -1      1399    8    0    1
 -2       644       643       769      2738      3128      3129
 -1      1400    8    0    1
 -2       643       768       769      3126      3130      3128
 -1      1401    8    0    1
 -2       645       644       770      2741      3131      3132
 -1      1402    8    0    1
 -2       644       769       770      3129      3133      3131
 -1      1403    8    0    1
 -2       646       645       771      2744      3134      3135
 -1      1404    8    0    1
 -2       645       770       771      3132      3136      3134
 -1      1405    8    0    1
 -2       647       646       772      2747      3137      3138
 -1      1406    8    0    1
 -2       646       771       772      3135      3139      3137
 -1      1407    8    0    1
 -2       648       647       773      2750      3140      3141
 -1      1408    8    0    1
 -2       647       772       773      3138      3142      3140
 -1      1409    8    0    1
 -2       649       648       774      2753      3143      3144
 -1      1410    8    0    1
 -2       648       773       774      3141      3145      3143
 -1      1411    8    0    1
 -2       650       649       775      2756      3146      3147
 -1      1412    8    0    1
 -2       649       774       775      3144      3148      3146
 -1      1413    8    0    1
 -2       651       650       776      2759      3149      3150
 -1      1414    8    0    1
 -2       650       775       776      3147      3151      3149
 -1      1415    8    0    1
 -2       652       651       777      2762      3152      3153
 -1      1416    8    0    1
 -2       651       776       777      3150      3154      3152
 -1      1417    8    0    1
 -2       653       652       778      2765      3155      3156
 -1      1418    8    0    1
 -2       652       777       778      3153      3157      3155
 -1      1419    8    0    1
 -2       654       653       779      2768      3158      3159
 -1      1420    8    0    1
 -2       724       654       779      3073      3159      3160
 -1      1421    8    0    1
 -2       653       778       779      3156      3161      3158
 -1      1422    8    0    1
 -2       520       519       780      2360      3162      3163
 -1      1423    8    0    1
 -2       625       666       781      2809      3164      3165
 -1      1424    8    0    1
 -2       658       657       782      2785      3166      3167
 -1      1425    8    0    1
 -2       659       658       783      2788      3168      3169
 -1      1426    8    0    1
 -2       658       782       783      3167      3170      3168
 -1      1427    8    0    1
 -2       660       659       784      2791      3171      3172
 -1      1428    8    0    1
 -2       659       783       784      3169      3173      3171
 -1      1429    8    0    1
 -2       661       660       785      2794      3174      3175
 -1      1430    8    0    1
 -2       660       784       785      3172      3176      3174
 -1      1431    8    0    1
 -2       663       625       786      2800      3177      3178
 -1      1432    8    0    1
 -2       625       781       786      3165      3179      3177
 -1      1433    8    0    1
 -2       665       663       787      2806      3180      3181
 -1      1434    8    0    1
 -2       663       786       787      3178      3182      3180
 -1      1435    8    0    1
 -2       706       709       788      2939      3183      3184
 -1      1436    8    0    1
 -2       667       668       789      2815      3185      3186
 -1      1437    8    0    1
 -2       668       669       790      2818      3187      3188
 -1      1438    8    0    1
 -2       668       790       789      3188      3189      3185
 -1      1439    8    0    1
 -2       669       670       791      2821      3190      3191
 -1      1440    8    0    1
 -2       669       791       790      3191      3192      3187
 -1      1441    8    0    1
 -2       670       671       792      2824      3193      3194
 -1      1442    8    0    1
 -2       670       792       791      3194      3195      3190
 -1      1443    8    0    1
 -2       671       672       793      2827      3196      3197
 -1      1444    8    0    1
 -2       671       793       792      3197      3198      3193
 -1      1445    8    0    1
 -2       672       673       794      2830      3199      3200
 -1      1446    8    0    1
 -2       672       794       793      3200      3201      3196
 -1      1447    8    0    1
 -2       673       674       795      2833      3202      3203
 -1      1448    8    0    1
 -2       673       795       794      3203      3204      3199
 -1      1449    8    0    1
 -2       674       675       796      2836      3205      3206
 -1      1450    8    0    1
 -2       674       796       795      3206      3207      3202
 -1      1451    8    0    1
 -2       675       676       797      2839      3208      3209
 -1      1452    8    0    1
 -2       675       797       796      3209      3210      3205
 -1      1453    8    0    1
 -2       676       677       798      2842      3211      3212
 -1      1454    8    0    1
 -2       676       798       797      3212      3213      3208
 -1      1455    8    0    1
 -2       677       678       799      2845      3214      3215
 -1      1456    8    0    1
 -2       677       799       798      3215      3216      3211
 -1      1457    8    0    1
 -2       678       679       800      2848      3217      3218
 -1      1458    8    0    1
 -2       678       800       799      3218      3219      3214
 -1      1459    8    0    1
 -2       679       680       801      2851      3220      3221
 -1      1460    8    0    1
 -2       679       801       800      3221      3222      3217
 -1      1461    8    0    1
 -2       680       681       802      2854      3223      3224
 -1      1462    8    0    1
 -2       680       802       801      3224      3225      3220
 -1      1463    8    0    1
 -2       681       682       803      2857      3226      3227
 -1      1464    8    0    1
 -2       681       803       802      3227      3228      3223
 -1      1465    8    0    1
 -2       682       683       804      2860      3229      3230
 -1      1466    8    0    1
 -2       682       804       803      3230      3231      3226
 -1      1467    8    0    1
 -2       683       684       805      2863      3232      3233
 -1      1468    8    0    1
 -2       683       805       804      3233      3234      3229
 -1      1469    8    0    1
 -2       684       685       806      2866      3235      3236
 -1      1470    8    0    1
 -2       684       806       805      3236      3237      3232
 -1      1471    8    0    1
 -2       685       686       807      2869      3238      3239
 -1      1472    8    0    1
 -2       685       807       806      3239      3240      3235
 -1      1473    8    0    1
 -2       686       687       808      2872      3241      3242
 -1      1474    8    0    1
 -2       686       808       807      3242      3243      3238
 -1      1475    8    0    1
 -2       687       688       809      2875      3244      3245
 -1      1476    8    0    1
 -2       687       809       808      3245      3246      3241
 -1      1477    8    0    1
 -2       688       689       810      2878      3247      3248
 -1      1478    8    0    1
 -2       688       810       809      3248      3249      3244
 -1      1479    8    0    1
 -2       689       690       811      2881      3250      3251
 -1      1480    8    0    1
 -2       689       811       810      3251      3252      3247
 -1      1481    8    0    1
 -2       690       691       812      2884      3253      3254
 -1      1482    8    0    1
 -2       690       812       811      3254      3255      3250
 -1      1483    8    0    1
 -2       691       692       813      2887      3256      3257
 -1      1484    8    0    1
 -2       691       813       812      3257      3258      3253
 -1      1485    8    0    1
 -2       692       693       814      2890      3259      3260
 -1      1486    8    0    1
 -2       692       814       813      3260      3261      3256
 -1      1487    8    0    1
 -2       693       694       815      2893      3262      3263
 -1      1488    8    0    1
 -2       693       815       814      3263      3264      3259
 -1      1489    8    0    1
 -2       694       695       816      2896      3265      3266
 -1      1490    8    0    1
 -2       694       816       815      3266      3267      3262
 -1      1491    8    0    1
 -2       695       696       817      2899      3268      3269
 -1      1492    8    0    1
 -2       695       817       816      3269      3270      3265
 -1      1493    8    0    1
 -2       696       697       818      2902      3271      3272
 -1      1494    8    0    1
 -2       696       818       817      3272      3273      3268
 -1      1495    8    0    1
 -2       697       698       819      2905      3274      3275
 -1      1496    8    0    1
 -2       697       819       818      3275      3276      3271
 -1      1497    8    0    1
 -2       698       699       820      2908      3277      3278
 -1      1498    8    0    1
 -2       698       820       819      3278      3279      3274
 -1      1499    8    0    1
 -2       699       700       821      2911      3280      3281
 -1      1500    8    0    1
 -2       699       821       820      3281      3282      3277
 -1      1501    8    0    1
 -2       700       701       822      2914      3283      3284
 -1      1502    8    0    1
 -2       700       822       821      3284      3285      3280
 -1      1503    8    0    1
 -2       701       702       823      2917      3286      3287
 -1      1504    8    0    1
 -2       701       823       822      3287      3288      3283
 -1      1505    8    0    1
 -2       702       703       824      2920      3289      3290
 -1      1506    8    0    1
 -2       823       702       824      3286      3290      3291
 -1      1507    8    0    1
 -2       703       738       824      3024      3292      3289
 -1      1508    8    0    1
 -2       727       617       825      3066      3293      3294
 -1      1509    8    0    1
 -2       704       706       826      2928      3295      3296
 -1      1510    8    0    1
 -2       706       788       826      3184      3297      3295
 -1      1511    8    0    1
 -2       519       600       780      3015      3298      3162
 -1      1512    8    0    1
 -2       726       715       827      2982      3299      3300
 -1      1513    8    0    1
 -2       715       750       827      3075      3301      3299
 -1      1514    8    0    1
 -2       712       728       828      3031      3302      3303
 -1      1515    8    0    1
 -2       709       710       829      2942      3304      3305
 -1      1516    8    0    1
 -2       788       709       829      3183      3305      3306
 -1      1517    8    0    1
 -2       710       749       829      3072      3307      3304
 -1      1518    8    0    1
 -2       656       655       732      2779      3054      3308
 -1      1519    8    0    1
 -2       594       520       780      2956      3163      3309
 -1      1520    8    0    1
 -2       716       730       830      3022      3310      3311
 -1      1521    8    0    1
 -2       617       712       831      3030      3312      3313
 -1      1522    8    0    1
 -2       617       831       825      3313      3314      3293
 -1      1523    8    0    1
 -2       664       721       832      2969      3315      3316
 -1      1524    8    0    1
 -2       725       726       833      3045      3317      3318
 -1      1525    8    0    1
 -2       626       623       834      2684      3319      3320
 -1      1526    8    0    1
 -2       626       834       752      3320      3321      3078
 -1      1527    8    0    1
 -2       666       667       835      2812      3322      3323
 -1      1528    8    0    1
 -2       666       835       781      3323      3324      3164
 -1      1529    8    0    1
 -2       711       740       836      3068      3325      3326
 -1      1530    8    0    1
 -2       711       836       749      3326      3327      3071
 -1      1531    8    0    1
 -2       623       742       837      3053      3328      3329
 -1      1532    8    0    1
 -2       742       736       837      3040      3330      3328
 -1      1533    8    0    1
 -2       733       718       838      3029      3331      3332
 -1      1534    8    0    1
 -2       718       751       838      3077      3333      3331
 -1      1535    8    0    1
 -2       624       723       839      3067      3334      3335
 -1      1536    8    0    1
 -2       780       600       594      3298      2659      3309
 -1      1537    8    0    1
 -2       616       624       840      3016      3336      3337
 -1      1538    8    0    1
 -2       606       607       655      2603      2971      3021
 -1      1539    8    0    1
 -2       717       724       779      3052      3160      3338
 -1      1540    8    0    1
 -2       730       664       841      3050      3339      3340
 -1      1541    8    0    1
 -2       664       832       841      3316      3341      3339
 -1      1542    8    0    1
 -2       732       716       842      3051      3342      3343
 -1      1543    8    0    1
 -2       656       732       842      3308      3343      3344
 -1      1544    8    0    1
 -2       716       830       842      3311      3345      3342
 -1      1545    8    0    1
 -2       619       618       843      2668      3346      3347
 -1      1546    8    0    1
 -2       621       735       844      3006      3348      3349
 -1      1547    8    0    1
 -2       748       621       844      3069      3349      3350
 -1      1548    8    0    1
 -2       735       622       844      3014      3351      3348
 -1      1549    8    0    1
 -2       737       619       845      3011      3352      3353
 -1      1550    8    0    1
 -2       619       843       845      3347      3354      3352
 -1      1551    8    0    1
 -2       843       618       846      3346      3355      3356
 -1      1552    8    0    1
 -2       618       719       846      2963      3357      3355
 -1      1553    8    0    1
 -2       726       827       833      3300      3358      3317
 -1      1554    8    0    1
 -2       750       727       847      3074      3359      3360
 -1      1555    8    0    1
 -2       727       825       847      3294      3361      3359
 -1      1556    8    0    1
 -2       624       839       840      3335      3362      3336
 -1      1557    8    0    1
 -2       730       841       830      3340      3363      3310
 -1      1558    8    0    1
 -2       665       787       848      3181      3364      3365
 -1      1559    8    0    1
 -2       665       848       708      3365      3366      2936
 -1      1560    8    0    1
 -2       746       616       840      3059      3337      3367
 -1      1561    8    0    1
 -2       657       656       842      2782      3344      3368
 -1      1562    8    0    1
 -2       661       785       836      3175      3369      3370
 -1      1563    8    0    1
 -2       662       661       836      2797      3370      3371
 -1      1564    8    0    1
 -2       667       789       835      3186      3372      3322
 -1      1565    8    0    1
 -2       705       707       849      2931      3373      3374
 -1      1566    8    0    1
 -2       739       725       850      3028      3375      3376
 -1      1567    8    0    1
 -2       725       833       850      3318      3377      3375
 -1      1568    8    0    1
 -2       721       746       851      3061      3378      3379
 -1      1569    8    0    1
 -2       721       851       832      3379      3380      3315
 -1      1570    8    0    1
 -2       707       704       852      2932      3381      3382
 -1      1571    8    0    1
 -2       849       707       852      3373      3382      3383
 -1      1572    8    0    1
 -2       704       826       852      3296      3384      3381
 -1      1573    8    0    1
 -2       714       739       853      3027      3385      3386
 -1      1574    8    0    1
 -2       741       713       854      3034      3387      3388
 -1      1575    8    0    1
 -2       620       748       855      3070      3389      3390
 -1      1576    8    0    1
 -2       620       855       719      3390      3391      2964
 -1      1577    8    0    1
 -2       740       583       729      3032      2989      3392
 -1      1578    8    0    1
 -2       722       741       751      3036      3393      3076
 -1      1579    8    0    1
 -2       733       838       856      3332      3394      3395
 -1      1580    8    0    1
 -2       733       856       744      3395      3396      3049
 -1      1581    8    0    1
 -2       729       662       740      2990      3397      3392
 -1      1582    8    0    1
 -2       743       717       779      3044      3338      3398
 -1      1583    8    0    1
 -2       828       728       857      3302      3399      3400
 -1      1584    8    0    1
 -2       728       743       857      3043      3401      3399
 -1      1585    8    0    1
 -2       740       662       836      3397      3371      3325
 -1      1586    8    0    1
 -2       714       853       731      3386      3402      2996
 -1      1587    8    0    1
 -2       854       713       731      3387      2995      3403
 -1      1588    8    0    1
 -2       834       623       837      3319      3329      3404
 -1      1589    8    0    1
 -2       831       712       828      3312      3303      3405
 -1      1590    8    0    1
 -2       745       705       858      3058      3406      3407
 -1      1591    8    0    1
 -2       705       849       858      3374      3408      3406
 -1      1592    8    0    1
 -2       782       657       842      3166      3368      3409
 -1      1593    8    0    1
 -2       720       747       859      3064      3410      3411
 -1      1594    8    0    1
 -2       839       723       860      3334      3412      3413
 -1      1595    8    0    1
 -2       723       744       860      3048      3414      3412
 -1      1596    8    0    1
 -2       736       720       861      3010      3415      3416
 -1      1597    8    0    1
 -2       837       736       861      3330      3416      3417
 -1      1598    8    0    1
 -2       720       859       861      3411      3418      3415
 -1      1599    8    0    1
 -2       622       708       862      2935      3419      3420
 -1      1600    8    0    1
 -2       844       622       862      3351      3420      3421
 -1      1601    8    0    1
 -2       708       848       862      3366      3422      3419
 -1      1602    8    0    1
 -2       754       753       863      3085      3423      3424
 -1      1603    8    0    1
 -2       755       754       864      3088      3425      3426
 -1      1604    8    0    1
 -2       754       863       864      3424      3427      3425
 -1      1605    8    0    1
 -2       756       755       865      3091      3428      3429
 -1      1606    8    0    1
 -2       755       864       865      3426      3430      3428
 -1      1607    8    0    1
 -2       757       756       866      3094      3431      3432
 -1      1608    8    0    1
 -2       756       865       866      3429      3433      3431
 -1      1609    8    0    1
 -2       758       757       867      3097      3434      3435
 -1      1610    8    0    1
 -2       757       866       867      3432      3436      3434
 -1      1611    8    0    1
 -2       759       758       868      3100      3437      3438
 -1      1612    8    0    1
 -2       758       867       868      3435      3439      3437
 -1      1613    8    0    1
 -2       760       759       869      3103      3440      3441
 -1      1614    8    0    1
 -2       759       868       869      3438      3442      3440
 -1      1615    8    0    1
 -2       761       760       870      3106      3443      3444
 -1      1616    8    0    1
 -2       760       869       870      3441      3445      3443
 -1      1617    8    0    1
 -2       762       761       871      3109      3446      3447
 -1      1618    8    0    1
 -2       761       870       871      3444      3448      3446
 -1      1619    8    0    1
 -2       763       762       872      3112      3449      3450
 -1      1620    8    0    1
 -2       762       871       872      3447      3451      3449
 -1      1621    8    0    1
 -2       764       763       873      3115      3452      3453
 -1      1622    8    0    1
 -2       763       872       873      3450      3454      3452
 -1      1623    8    0    1
 -2       765       764       874      3118      3455      3456
 -1      1624    8    0    1
 -2       764       873       874      3453      3457      3455
 -1      1625    8    0    1
 -2       766       765       875      3121      3458      3459
 -1      1626    8    0    1
 -2       765       874       875      3456      3460      3458
 -1      1627    8    0    1
 -2       767       766       876      3124      3461      3462
 -1      1628    8    0    1
 -2       766       875       876      3459      3463      3461
 -1      1629    8    0    1
 -2       768       767       877      3127      3464      3465
 -1      1630    8    0    1
 -2       767       876       877      3462      3466      3464
 -1      1631    8    0    1
 -2       769       768       878      3130      3467      3468
 -1      1632    8    0    1
 -2       768       877       878      3465      3469      3467
 -1      1633    8    0    1
 -2       770       769       879      3133      3470      3471
 -1      1634    8    0    1
 -2       769       878       879      3468      3472      3470
 -1      1635    8    0    1
 -2       771       770       880      3136      3473      3474
 -1      1636    8    0    1
 -2       770       879       880      3471      3475      3473
 -1      1637    8    0    1
 -2       772       771       881      3139      3476      3477
 -1      1638    8    0    1
 -2       771       880       881      3474      3478      3476
 -1      1639    8    0    1
 -2       773       772       882      3142      3479      3480
 -1      1640    8    0    1
 -2       772       881       882      3477      3481      3479
 -1      1641    8    0    1
 -2       774       773       883      3145      3482      3483
 -1      1642    8    0    1
 -2       773       882       883      3480      3484      3482
 -1      1643    8    0    1
 -2       775       774       884      3148      3485      3486
 -1      1644    8    0    1
 -2       774       883       884      3483      3487      3485
 -1      1645    8    0    1
 -2       776       775       885      3151      3488      3489
 -1      1646    8    0    1
 -2       775       884       885      3486      3490      3488
 -1      1647    8    0    1
 -2       777       776       886      3154      3491      3492
 -1      1648    8    0    1
 -2       776       885       886      3489      3493      3491
 -1      1649    8    0    1
 -2       779       778       743      3161      3494      3398
 -1      1650    8    0    1
 -2       749       836       887      3327      3495      3496
 -1      1651    8    0    1
 -2       836       785       887      3369      3497      3495
 -1      1652    8    0    1
 -2       784       783       888      3173      3498      3499
 -1      1653    8    0    1
 -2       785       784       889      3176      3500      3501
 -1      1654    8    0    1
 -2       887       785       889      3497      3501      3502
 -1      1655    8    0    1
 -2       784       888       889      3499      3503      3500
 -1      1656    8    0    1
 -2       786       781       890      3179      3504      3505
 -1      1657    8    0    1
 -2       787       786       891      3182      3506      3507
 -1      1658    8    0    1
 -2       786       890       891      3505      3508      3506
 -1      1659    8    0    1
 -2       789       790       892      3189      3509      3510
 -1      1660    8    0    1
 -2       792       793       893      3198      3511      3512
 -1      1661    8    0    1
 -2       793       794       894      3201      3513      3514
 -1      1662    8    0    1
 -2       793       894       893      3514      3515      3511
 -1      1663    8    0    1
 -2       794       795       895      3204      3516      3517
 -1      1664    8    0    1
 -2       794       895       894      3517      3518      3513
 -1      1665    8    0    1
 -2       795       796       896      3207      3519      3520
 -1      1666    8    0    1
 -2       795       896       895      3520      3521      3516
 -1      1667    8    0    1
 -2       796       797       897      3210      3522      3523
 -1      1668    8    0    1
 -2       796       897       896      3523      3524      3519
 -1      1669    8    0    1
 -2       797       798       898      3213      3525      3526
 -1      1670    8    0    1
 -2       797       898       897      3526      3527      3522
 -1      1671    8    0    1
 -2       798       799       899      3216      3528      3529
 -1      1672    8    0    1
 -2       798       899       898      3529      3530      3525
 -1      1673    8    0    1
 -2       799       800       900      3219      3531      3532
 -1      1674    8    0    1
 -2       799       900       899      3532      3533      3528
 -1      1675    8    0    1
 -2       800       801       901      3222      3534      3535
 -1      1676    8    0    1
 -2       800       901       900      3535      3536      3531
 -1      1677    8    0    1
 -2       801       802       902      3225      3537      3538
 -1      1678    8    0    1
 -2       801       902       901      3538      3539      3534
 -1      1679    8    0    1
 -2       802       803       903      3228      3540      3541
 -1      1680    8    0    1
 -2       802       903       902      3541      3542      3537
 -1      1681    8    0    1
 -2       803       804       904      3231      3543      3544
 -1      1682    8    0    1
 -2       803       904       903      3544      3545      3540
 -1      1683    8    0    1
 -2       804       805       905      3234      3546      3547
 -1      1684    8    0    1
 -2       804       905       904      3547      3548      3543
 -1      1685    8    0    1
 -2       805       806       906      3237      3549      3550
 -1      1686    8    0    1
 -2       805       906       905      3550      3551      3546
 -1      1687    8    0    1
 -2       806       807       907      3240      3552      3553
 -1      1688    8    0    1
 -2       806       907       906      3553      3554      3549
 -1      1689    8    0    1
 -2       807       808       908      3243      3555      3556
 -1      1690    8    0    1
 -2       807       908       907      3556      3557      3552
 -1      1691    8    0    1
 -2       808       809       909      3246      3558      3559
 -1      1692    8    0    1
 -2       808       909       908      3559      3560      3555
 -1      1693    8    0    1
 -2       809       810       910      3249      3561      3562
 -1      1694    8    0    1
 -2       809       910       909      3562      3563      3558
 -1      1695    8    0    1
 -2       810       811       911      3252      3564      3565
 -1      1696    8    0    1
 -2       810       911       910      3565      3566      3561
 -1      1697    8    0    1
 -2       811       812       850      3255      3567      3568
 -1      1698    8    0    1
 -2       813       814       853      3261      3569      3570
 -1      1699    8    0    1
 -2       814       815       854      3264      3571      3572
 -1      1700    8    0    1
 -2       816       817       751      3270      3573      3574
 -1      1701    8    0    1
 -2       817       818       838      3273      3575      3576
 -1      1702    8    0    1
 -2       818       819       856      3276      3577      3578
 -1      1703    8    0    1
 -2       820       821       912      3282      3579      3580
 -1      1704    8    0    1
 -2       821       822       913      3285      3581      3582
 -1      1705    8    0    1
 -2       821       913       912      3582      3583      3579
 -1      1706    8    0    1
 -2       822       823       914      3288      3584      3585
 -1      1707    8    0    1
 -2       822       914       913      3585      3586      3581
 -1      1708    8    0    1
 -2       835       789       915      3372      3587      3588
 -1      1709    8    0    1
 -2       789       892       915      3510      3589      3587
 -1      1710    8    0    1
 -2       826       788       916      3297      3590      3591
 -1      1711    8    0    1
 -2       746       840       917      3367      3592      3593
 -1      1712    8    0    1
 -2       781       835       918      3324      3594      3595
 -1      1713    8    0    1
 -2       835       915       918      3588      3596      3594
 -1      1714    8    0    1
 -2       854       815       741      3571      3597      3388
 -1      1715    8    0    1
 -2       741       815       816      3597      3267      3598
 -1      1716    8    0    1
 -2       827       750       919      3301      3599      3600
 -1      1717    8    0    1
 -2       838       818       856      3575      3578      3394
 -1      1718    8    0    1
 -2       840       839       920      3362      3601      3602
 -1      1719    8    0    1
 -2       791       792       921      3195      3603      3604
 -1      1720    8    0    1
 -2       792       893       921      3512      3605      3603
 -1      1721    8    0    1
 -2       743       778       857      3494      3606      3401
 -1      1722    8    0    1
 -2       790       791       922      3192      3607      3608
 -1      1723    8    0    1
 -2       791       921       922      3604      3609      3607
 -1      1724    8    0    1
 -2       825       831       923      3314      3610      3611
 -1      1725    8    0    1
 -2       859       747       924      3410      3612      3613
 -1      1726    8    0    1
 -2       747       737       924      3065      3614      3612
 -1      1727    8    0    1
 -2       738       745       925      3057      3615      3616
 -1      1728    8    0    1
 -2       824       738       925      3292      3616      3617
 -1      1729    8    0    1
 -2       745       858       925      3407      3618      3615
 -1      1730    8    0    1
 -2       753       752       926      3082      3619      3620
 -1      1731    8    0    1
 -2       753       926       863      3620      3621      3423
 -1      1732    8    0    1
 -2       782       842       830      3409      3345      3622
 -1      1733    8    0    1
 -2       831       828       927      3405      3623      3624
 -1      1734    8    0    1
 -2       838       751       817      3333      3573      3576
 -1      1735    8    0    1
 -2       751       741       816      3393      3598      3574
 -1      1736    8    0    1
 -2       834       837       928      3404      3625      3626
 -1      1737    8    0    1
 -2       837       861       928      3417      3627      3625
 -1      1738    8    0    1
 -2       841       832       929      3341      3628      3629
 -1      1739    8    0    1
 -2       782       830       930      3622      3630      3631
 -1      1740    8    0    1
 -2       783       782       930      3170      3631      3632
 -1      1741    8    0    1
 -2       830       841       930      3363      3633      3630
 -1      1742    8    0    1
 -2       748       844       931      3350      3634      3635
 -1      1743    8    0    1
 -2       844       862       931      3421      3636      3634
 -1      1744    8    0    1
 -2       846       719       855      3357      3391      3637
 -1      1745    8    0    1
 -2       847       825       923      3361      3611      3638
 -1      1746    8    0    1
 -2       843       846       932      3356      3639      3640
 -1      1747    8    0    1
 -2       848       787       933      3364      3641      3642
 -1      1748    8    0    1
 -2       787       891       933      3507      3643      3641
 -1      1749    8    0    1
 -2       778       777       934      3157      3644      3645
 -1      1750    8    0    1
 -2       890       781       918      3504      3595      3646
 -1      1751    8    0    1
 -2       888       783       930      3498      3632      3647
 -1      1752    8    0    1
 -2       855       748       931      3389      3635      3648
 -1      1753    8    0    1
 -2       826       916       935      3591      3649      3650
 -1      1754    8    0    1
 -2       826       935       852      3650      3651      3384
 -1      1755    8    0    1
 -2       850       833       911      3377      3652      3653
 -1      1756    8    0    1
 -2       892       790       922      3509      3608      3654
 -1      1757    8    0    1
 -2       750       847       936      3360      3655      3656
 -1      1758    8    0    1
 -2       750       936       919      3656      3657      3599
 -1      1759    8    0    1
 -2       853       739       937      3385      3658      3659
 -1      1760    8    0    1
 -2       811       850       911      3568      3653      3564
 -1      1761    8    0    1
 -2       813       853       937      3570      3659      3660
 -1      1762    8    0    1
 -2       814       854       731      3572      3403      3661
 -1      1763    8    0    1
 -2       834       928       752      3626      3662      3321
 -1      1764    8    0    1
 -2       920       839       938      3601      3663      3664
 -1      1765    8    0    1
 -2       839       860       938      3413      3665      3663
 -1      1766    8    0    1
 -2       820       912       939      3580      3666      3667
 -1      1767    8    0    1
 -2       820       939       819      3667      3668      3279
 -1      1768    8    0    1
 -2       823       824       925      3291      3617      3669
 -1      1769    8    0    1
 -2       916       788       940      3590      3670      3671
 -1      1770    8    0    1
 -2       788       829       940      3306      3672      3670
 -1      1771    8    0    1
 -2       926       752       928      3619      3662      3673
 -1      1772    8    0    1
 -2       746       917       851      3593      3674      3378
 -1      1773    8    0    1
 -2       829       749       941      3307      3675      3676
 -1      1774    8    0    1
 -2       940       829       941      3672      3676      3677
 -1      1775    8    0    1
 -2       749       887       941      3496      3678      3675
 -1      1776    8    0    1
 -2       853       814       731      3569      3661      3402
 -1      1777    8    0    1
 -2       840       920       917      3602      3679      3592
 -1      1778    8    0    1
 -2       843       932       942      3640      3680      3681
 -1      1779    8    0    1
 -2       843       942       845      3681      3682      3354
 -1      1780    8    0    1
 -2       856       819       939      3577      3668      3683
 -1      1781    8    0    1
 -2       858       849       943      3408      3684      3685
 -1      1782    8    0    1
 -2       737       845       924      3353      3686      3614
 -1      1783    8    0    1
 -2       923       831       927      3610      3624      3687
 -1      1784    8    0    1
 -2       859       924       944      3613      3688      3689
 -1      1785    8    0    1
 -2       849       852       945      3383      3690      3691
 -1      1786    8    0    1
 -2       943       849       945      3684      3691      3692
 -1      1787    8    0    1
 -2       852       935       945      3651      3693      3690
 -1      1788    8    0    1
 -2       833       827       946      3358      3694      3695
 -1      1789    8    0    1
 -2       832       851       947      3380      3696      3697
 -1      1790    8    0    1
 -2       832       947       929      3697      3698      3628
 -1      1791    8    0    1
 -2       828       857       948      3400      3699      3700
 -1      1792    8    0    1
 -2       828       948       927      3700      3701      3623
 -1      1793    8    0    1
 -2       861       859       949      3418      3702      3703
 -1      1794    8    0    1
 -2       928       861       949      3627      3703      3704
 -1      1795    8    0    1
 -2       859       944       949      3689      3705      3702
 -1      1796    8    0    1
 -2       930       841       929      3633      3629      3706
 -1      1797    8    0    1
 -2       833       946       911      3695      3707      3652
 -1      1798    8    0    1
 -2       934       777       886      3644      3492      3708
 -1      1799    8    0    1
 -2       823       925       914      3669      3709      3584
 -1      1800    8    0    1
 -2       946       827       919      3694      3600      3710
 -1      1801    8    0    1
 -2       932       846       950      3639      3711      3712
 -1      1802    8    0    1
 -2       846       855       950      3637      3713      3711
 -1      1803    8    0    1
 -2       914       925       858      3709      3618      3714
 -1      1804    8    0    1
 -2       865       864       951      3430      3715      3716
 -1      1805    8    0    1
 -2       866       865       952      3433      3717      3718
 -1      1806    8    0    1
 -2       865       951       952      3716      3719      3717
 -1      1807    8    0    1
 -2       867       866       953      3436      3720      3721
 -1      1808    8    0    1
 -2       866       952       953      3718      3722      3720
 -1      1809    8    0    1
 -2       868       867       954      3439      3723      3724
 -1      1810    8    0    1
 -2       867       953       954      3721      3725      3723
 -1      1811    8    0    1
 -2       869       868       955      3442      3726      3727
 -1      1812    8    0    1
 -2       868       954       955      3724      3728      3726
 -1      1813    8    0    1
 -2       870       869       956      3445      3729      3730
 -1      1814    8    0    1
 -2       869       955       956      3727      3731      3729
 -1      1815    8    0    1
 -2       871       870       957      3448      3732      3733
 -1      1816    8    0    1
 -2       870       956       957      3730      3734      3732
 -1      1817    8    0    1
 -2       872       871       958      3451      3735      3736
 -1      1818    8    0    1
 -2       871       957       958      3733      3737      3735
 -1      1819    8    0    1
 -2       873       872       959      3454      3738      3739
 -1      1820    8    0    1
 -2       872       958       959      3736      3740      3738
 -1      1821    8    0    1
 -2       874       873       960      3457      3741      3742
 -1      1822    8    0    1
 -2       873       959       960      3739      3743      3741
 -1      1823    8    0    1
 -2       875       874       961      3460      3744      3745
 -1      1824    8    0    1
 -2       874       960       961      3742      3746      3744
 -1      1825    8    0    1
 -2       876       875       962      3463      3747      3748
 -1      1826    8    0    1
 -2       875       961       962      3745      3749      3747
 -1      1827    8    0    1
 -2       877       876       963      3466      3750      3751
 -1      1828    8    0    1
 -2       876       962       963      3748      3752      3750
 -1      1829    8    0    1
 -2       878       877       964      3469      3753      3754
 -1      1830    8    0    1
 -2       877       963       964      3751      3755      3753
 -1      1831    8    0    1
 -2       879       878       965      3472      3756      3757
 -1      1832    8    0    1
 -2       878       964       965      3754      3758      3756
 -1      1833    8    0    1
 -2       880       879       966      3475      3759      3760
 -1      1834    8    0    1
 -2       879       965       966      3757      3761      3759
 -1      1835    8    0    1
 -2       881       880       967      3478      3762      3763
 -1      1836    8    0    1
 -2       880       966       967      3760      3764      3762
 -1      1837    8    0    1
 -2       882       881       968      3481      3765      3766
 -1      1838    8    0    1
 -2       881       967       968      3763      3767      3765
 -1      1839    8    0    1
 -2       883       882       969      3484      3768      3769
 -1      1840    8    0    1
 -2       882       968       969      3766      3770      3768
 -1      1841    8    0    1
 -2       884       883       970      3487      3771      3772
 -1      1842    8    0    1
 -2       883       969       970      3769      3773      3771
 -1      1843    8    0    1
 -2       885       884       971      3490      3774      3775
 -1      1844    8    0    1
 -2       884       970       971      3772      3776      3774
 -1      1845    8    0    1
 -2       886       885       972      3493      3777      3778
 -1      1846    8    0    1
 -2       885       971       972      3775      3779      3777
 -1      1847    8    0    1
 -2       890       918       973      3646      3780      3781
 -1      1848    8    0    1
 -2       891       890       974      3508      3782      3783
 -1      1849    8    0    1
 -2       890       973       974      3781      3784      3782
 -1      1850    8    0    1
 -2       778       934       857      3645      3785      3606
 -1      1851    8    0    1
 -2       892       922       975      3654      3786      3787
 -1      1852    8    0    1
 -2       893       894       976      3515      3788      3789
 -1      1853    8    0    1
 -2       896       897       977      3524      3790      3791
 -1      1854    8    0    1
 -2       897       898       978      3527      3792      3793
 -1      1855    8    0    1
 -2       897       978       977      3793      3794      3790
 -1      1856    8    0    1
 -2       898       899       979      3530      3795      3796
 -1      1857    8    0    1
 -2       898       979       978      3796      3797      3792
 -1      1858    8    0    1
 -2       899       900       980      3533      3798      3799
 -1      1859    8    0    1
 -2       899       980       979      3799      3800      3795
 -1      1860    8    0    1
 -2       900       901       981      3536      3801      3802
 -1      1861    8    0    1
 -2       900       981       980      3802      3803      3798
 -1      1862    8    0    1
 -2       901       902       982      3539      3804      3805
 -1      1863    8    0    1
 -2       901       982       981      3805      3806      3801
 -1      1864    8    0    1
 -2       902       903       983      3542      3807      3808
 -1      1865    8    0    1
 -2       902       983       982      3808      3809      3804
 -1      1866    8    0    1
 -2       903       904       984      3545      3810      3811
 -1      1867    8    0    1
 -2       903       984       983      3811      3812      3807
 -1      1868    8    0    1
 -2       904       905       985      3548      3813      3814
 -1      1869    8    0    1
 -2       904       985       984      3814      3815      3810
 -1      1870    8    0    1
 -2       905       906       986      3551      3816      3817
 -1      1871    8    0    1
 -2       905       986       985      3817      3818      3813
 -1      1872    8    0    1
 -2       906       907       987      3554      3819      3820
 -1      1873    8    0    1
 -2       906       987       986      3820      3821      3816
 -1      1874    8    0    1
 -2       907       908       988      3557      3822      3823
 -1      1875    8    0    1
 -2       907       988       987      3823      3824      3819
 -1      1876    8    0    1
 -2       908       909       989      3560      3825      3826
 -1      1877    8    0    1
 -2       908       989       988      3826      3827      3822
 -1      1878    8    0    1
 -2       909       910       990      3563      3828      3829
 -1      1879    8    0    1
 -2       909       990       989      3829      3830      3825
 -1      1880    8    0    1
 -2       910       911       946      3566      3707      3831
 -1      1881    8    0    1
 -2       812       813       937      3258      3660      3832
 -1      1882    8    0    1
 -2       939       912       991      3666      3833      3834
 -1      1883    8    0    1
 -2       912       913       992      3583      3835      3836
 -1      1884    8    0    1
 -2       912       992       991      3836      3837      3833
 -1      1885    8    0    1
 -2       946       919       990      3710      3838      3839
 -1      1886    8    0    1
 -2       915       892       993      3589      3840      3841
 -1      1887    8    0    1
 -2       892       975       993      3787      3842      3840
 -1      1888    8    0    1
 -2       888       930       929      3647      3706      3843
 -1      1889    8    0    1
 -2       847       923       994      3638      3844      3845
 -1      1890    8    0    1
 -2       918       915       995      3596      3846      3847
 -1      1891    8    0    1
 -2       915       993       995      3841      3848      3846
 -1      1892    8    0    1
 -2       926       928       949      3673      3704      3849
 -1      1893    8    0    1
 -2       921       893       996      3605      3850      3851
 -1      1894    8    0    1
 -2       893       976       996      3789      3852      3850
 -1      1895    8    0    1
 -2       895       896       997      3521      3853      3854
 -1      1896    8    0    1
 -2       896       977       997      3791      3855      3853
 -1      1897    8    0    1
 -2       924       845       998      3686      3856      3857
 -1      1898    8    0    1
 -2       944       924       998      3688      3857      3858
 -1      1899    8    0    1
 -2       845       942       998      3682      3859      3856
 -1      1900    8    0    1
 -2       923       927       999      3687      3860      3861
 -1      1901    8    0    1
 -2       922       921      1000      3609      3862      3863
 -1      1902    8    0    1
 -2       921       996      1000      3851      3864      3862
 -1      1903    8    0    1
 -2       860       744      1001      3414      3865      3866
 -1      1904    8    0    1
 -2       857       934       948      3785      3867      3699
 -1      1905    8    0    1
 -2       858       943       914      3685      3868      3714
 -1      1906    8    0    1
 -2       914       943       913      3868      3869      3586
 -1      1907    8    0    1
 -2       744       856      1001      3396      3870      3865
 -1      1908    8    0    1
 -2       860      1001       991      3866      3871      3872
 -1      1909    8    0    1
 -2       917       920      1002      3679      3873      3874
 -1      1910    8    0    1
 -2       862       848      1003      3422      3875      3876
 -1      1911    8    0    1
 -2       931       862      1003      3636      3876      3877
 -1      1912    8    0    1
 -2       848       933      1003      3642      3878      3875
 -1      1913    8    0    1
 -2       863       926      1004      3621      3879      3880
 -1      1914    8    0    1
 -2       913       943       992      3869      3881      3835
 -1      1915    8    0    1
 -2       851       917      1005      3674      3882      3883
 -1      1916    8    0    1
 -2       894       895      1006      3518      3884      3885
 -1      1917    8    0    1
 -2       976       894      1006      3788      3885      3886
 -1      1918    8    0    1
 -2       895       997      1006      3854      3887      3884
 -1      1919    8    0    1
 -2       855       931       950      3648      3888      3713
 -1      1920    8    0    1
 -2       888       929      1007      3843      3889      3890
 -1      1921    8    0    1
 -2       889       888      1007      3503      3890      3891
 -1      1922    8    0    1
 -2       929       947      1007      3698      3892      3889
 -1      1923    8    0    1
 -2       910       946       990      3831      3839      3828
 -1      1924    8    0    1
 -2       864       863      1008      3427      3893      3894
 -1      1925    8    0    1
 -2       863      1004      1008      3880      3895      3893
 -1      1926    8    0    1
 -2       933       891      1009      3643      3896      3897
 -1      1927    8    0    1
 -2       891       974      1009      3783      3898      3896
 -1      1928    8    0    1
 -2       951       864      1008      3715      3894      3899
 -1      1929    8    0    1
 -2       973       918       995      3780      3847      3900
 -1      1930    8    0    1
 -2       935       916      1010      3649      3901      3902
 -1      1931    8    0    1
 -2       934       886       948      3708      3903      3867
 -1      1932    8    0    1
 -2       887       889      1011      3502      3904      3905
 -1      1933    8    0    1
 -2       941       887      1011      3678      3905      3906
 -1      1934    8    0    1
 -2       889      1007      1011      3891      3907      3904
 -1      1935    8    0    1
 -2       975       922      1000      3786      3863      3908
 -1      1936    8    0    1
 -2       950       931      1003      3888      3877      3909
 -1      1937    8    0    1
 -2       936       847       994      3655      3845      3910
 -1      1938    8    0    1
 -2       937       739       850      3658      3376      3911
 -1      1939    8    0    1
 -2       944       998      1012      3858      3912      3913
 -1      1940    8    0    1
 -2       851      1005       947      3883      3914      3696
 -1      1941    8    0    1
 -2       938       860       991      3665      3872      3915
 -1      1942    8    0    1
 -2       932       950      1013      3712      3916      3917
 -1      1943    8    0    1
 -2       990       919      1014      3838      3918      3919
 -1      1944    8    0    1
 -2       989       990      1014      3830      3919      3920
 -1      1945    8    0    1
 -2       919       936      1014      3657      3921      3918
 -1      1946    8    0    1
 -2       926       949      1004      3849      3922      3879
 -1      1947    8    0    1
 -2       994       923       999      3844      3861      3923
 -1      1948    8    0    1
 -2       942       932      1015      3680      3924      3925
 -1      1949    8    0    1
 -2       932      1013      1015      3917      3926      3924
 -1      1950    8    0    1
 -2       999       927      1016      3860      3927      3928
 -1      1951    8    0    1
 -2       927       948      1016      3701      3929      3927
 -1      1952    8    0    1
 -2       916       940      1017      3671      3930      3931
 -1      1953    8    0    1
 -2       916      1017      1010      3931      3932      3901
 -1      1954    8    0    1
 -2      1002       920      1018      3873      3933      3934
 -1      1955    8    0    1
 -2       920       938      1018      3664      3935      3933
 -1      1956    8    0    1
 -2       949       944      1004      3705      3936      3922
 -1      1957    8    0    1
 -2       917      1002      1005      3874      3937      3882
 -1      1958    8    0    1
 -2       948       886       972      3903      3778      3938
 -1      1959    8    0    1
 -2      1004       944      1012      3936      3913      3939
 -1      1960    8    0    1
 -2       952       951      1019      3719      3940      3941
 -1      1961    8    0    1
 -2       978       979      1020      3797      3942      3943
 -1      1962    8    0    1
 -2      1004      1012      1021      3939      3944      3945
 -1      1963    8    0    1
 -2      1004      1021      1008      3945      3946      3895
 -1      1964    8    0    1
 -2       953       952      1022      3722      3947      3948
 -1      1965    8    0    1
 -2       952      1019      1022      3941      3949      3947
 -1      1966    8    0    1
 -2       954       953      1023      3725      3950      3951
 -1      1967    8    0    1
 -2       953      1022      1023      3948      3952      3950
 -1      1968    8    0    1
 -2       955       954      1024      3728      3953      3954
 -1      1969    8    0    1
 -2       954      1023      1024      3951      3955      3953
 -1      1970    8    0    1
 -2       956       955      1025      3731      3956      3957
 -1      1971    8    0    1
 -2       955      1024      1025      3954      3958      3956
 -1      1972    8    0    1
 -2       957       956      1026      3734      3959      3960
 -1      1973    8    0    1
 -2       956      1025      1026      3957      3961      3959
 -1      1974    8    0    1
 -2       958       957      1027      3737      3962      3963
 -1      1975    8    0    1
 -2       957      1026      1027      3960      3964      3962
 -1      1976    8    0    1
 -2       959       958      1028      3740      3965      3966
 -1      1977    8    0    1
 -2       958      1027      1028      3963      3967      3965
 -1      1978    8    0    1
 -2       960       959      1029      3743      3968      3969
 -1      1979    8    0    1
 -2       959      1028      1029      3966      3970      3968
 -1      1980    8    0    1
 -2       961       960      1030      3746      3971      3972
 -1      1981    8    0    1
 -2       960      1029      1030      3969      3973      3971
 -1      1982    8    0    1
 -2       962       961      1031      3749      3974      3975
 -1      1983    8    0    1
 -2       961      1030      1031      3972      3976      3974
 -1      1984    8    0    1
 -2       963       962      1032      3752      3977      3978
 -1      1985    8    0    1
 -2       962      1031      1032      3975      3979      3977
 -1      1986    8    0    1
 -2       964       963      1033      3755      3980      3981
 -1      1987    8    0    1
 -2       963      1032      1033      3978      3982      3980
 -1      1988    8    0    1
 -2       965       964      1034      3758      3983      3984
 -1      1989    8    0    1
 -2       964      1033      1034      3981      3985      3983
 -1      1990    8    0    1
 -2       966       965      1035      3761      3986      3987
 -1      1991    8    0    1
 -2       965      1034      1035      3984      3988      3986
 -1      1992    8    0    1
 -2       967       966      1036      3764      3989      3990
 -1      1993    8    0    1
 -2       966      1035      1036      3987      3991      3989
 -1      1994    8    0    1
 -2       968       967      1037      3767      3992      3993
 -1      1995    8    0    1
 -2       967      1036      1037      3990      3994      3992
 -1      1996    8    0    1
 -2       969       968      1038      3770      3995      3996
 -1      1997    8    0    1
 -2       968      1037      1038      3993      3997      3995
 -1      1998    8    0    1
 -2       970       969      1039      3773      3998      3999
 -1      1999    8    0    1
 -2       969      1038      1039      3996      4000      3998
 -1      2000    8    0    1
 -2       971       970      1040      3776      4001      4002
 -1      2001    8    0    1
 -2       970      1039      1040      3999      4003      4001
 -1      2002    8    0    1
 -2       972       971      1041      3779      4004      4005
 -1      2003    8    0    1
 -2       971      1040      1041      4002      4006      4004
 -1      2004    8    0    1
 -2      1002      1018      1042      3934      4007      4008
 -1      2005    8    0    1
 -2       951      1008      1043      3899      4009      4010
 -1      2006    8    0    1
 -2      1019       951      1043      3940      4010      4011
 -1      2007    8    0    1
 -2      1008      1021      1043      3946      4012      4009
 -1      2008    8    0    1
 -2      1012       998      1044      3912      4013      4014
 -1      2009    8    0    1
 -2       998       942      1044      3859      4015      4013
 -1      2010    8    0    1
 -2       977       978      1045      3794      4016      4017
 -1      2011    8    0    1
 -2       978      1020      1045      3943      4018      4016
 -1      2012    8    0    1
 -2       980       981      1046      3803      4019      4020
 -1      2013    8    0    1
 -2       981       982      1047      3806      4021      4022
 -1      2014    8    0    1
 -2       981      1047      1046      4022      4023      4019
 -1      2015    8    0    1
 -2       982       983      1048      3809      4024      4025
 -1      2016    8    0    1
 -2       982      1048      1047      4025      4026      4021
 -1      2017    8    0    1
 -2       983       984      1049      3812      4027      4028
 -1      2018    8    0    1
 -2       983      1049      1048      4028      4029      4024
 -1      2019    8    0    1
 -2       984       985      1050      3815      4030      4031
 -1      2020    8    0    1
 -2       984      1050      1049      4031      4032      4027
 -1      2021    8    0    1
 -2       985       986      1051      3818      4033      4034
 -1      2022    8    0    1
 -2       985      1051      1050      4034      4035      4030
 -1      2023    8    0    1
 -2       986       987      1052      3821      4036      4037
 -1      2024    8    0    1
 -2       986      1052      1051      4037      4038      4033
 -1      2025    8    0    1
 -2       987       988      1053      3824      4039      4040
 -1      2026    8    0    1
 -2       987      1053      1052      4040      4041      4036
 -1      2027    8    0    1
 -2       988       989      1054      3827      4042      4043
 -1      2028    8    0    1
 -2       988      1054      1053      4043      4044      4039
 -1      2029    8    0    1
 -2       973       995      1055      3900      4045      4046
 -1      2030    8    0    1
 -2       993       975      1056      3842      4047      4048
 -1      2031    8    0    1
 -2      1013       950      1003      3916      3909      4049
 -1      2032    8    0    1
 -2       991       992      1018      3837      4050      4051
 -1      2033    8    0    1
 -2       974       973      1057      3784      4052      4053
 -1      2034    8    0    1
 -2       973      1055      1057      4046      4054      4052
 -1      2035    8    0    1
 -2       995       993      1058      3848      4055      4056
 -1      2036    8    0    1
 -2       995      1058      1055      4056      4057      4045
 -1      2037    8    0    1
 -2       940       941      1059      3677      4058      4059
 -1      2038    8    0    1
 -2      1017       940      1059      3930      4059      4060
 -1      2039    8    0    1
 -2       941      1011      1059      3906      4061      4058
 -1      2040    8    0    1
 -2       935      1010      1042      3902      4062      4063
 -1      2041    8    0    1
 -2      1005      1002      1017      3937      4064      4065
 -1      2042    8    0    1
 -2       996       976      1060      3852      4066      4067
 -1      2043    8    0    1
 -2       997       977      1061      3855      4068      4069
 -1      2044    8    0    1
 -2       977      1045      1061      4017      4070      4068
 -1      2045    8    0    1
 -2       975      1000      1062      3908      4071      4072
 -1      2046    8    0    1
 -2       975      1062      1056      4072      4073      4047
 -1      2047    8    0    1
 -2      1000       996      1063      3864      4074      4075
 -1      2048    8    0    1
 -2       996      1060      1063      4067      4076      4074
 -1      2049    8    0    1
 -2       945       935      1042      3693      4063      4077
 -1      2050    8    0    1
 -2       991      1018       938      4051      3935      3915
 -1      2051    8    0    1
 -2       994       999      1064      3923      4078      4079
 -1      2052    8    0    1
 -2       943       945      1065      3692      4080      4081
 -1      2053    8    0    1
 -2       936       994      1066      3910      4082      4083
 -1      2054    8    0    1
 -2       936      1066      1014      4083      4084      3921
 -1      2055    8    0    1
 -2       992       943      1065      3881      4081      4085
 -1      2056    8    0    1
 -2       948       972      1016      3938      4086      3929
 -1      2057    8    0    1
 -2       979       980      1067      3800      4087      4088
 -1      2058    8    0    1
 -2       979      1067      1020      4088      4089      3942
 -1      2059    8    0    1
 -2       992      1065      1018      4085      4090      4050
 -1      2060    8    0    1
 -2      1065       945      1042      4080      4077      4091
 -1      2061    8    0    1
 -2      1018      1065      1042      4090      4091      4007
 -1      2062    8    0    1
 -2       980      1046      1067      4020      4092      4087
 -1      2063    8    0    1
 -2      1012      1044      1021      4014      4093      3944
 -1      2064    8    0    1
 -2       947      1005      1068      3914      4094      4095
 -1      2065    8    0    1
 -2      1054       989      1014      4042      3920      4096
 -1      2066    8    0    1
 -2      1060       976      1069      4066      4097      4098
 -1      2067    8    0    1
 -2       976      1006      1069      3886      4099      4097
 -1      2068    8    0    1
 -2       993      1056      1058      4048      4100      4055
 -1      2069    8    0    1
 -2      1013      1003      1070      4049      4101      4102
 -1      2070    8    0    1
 -2       939       991      1001      3834      3871      4103
 -1      2071    8    0    1
 -2       850       812       937      3567      3832      3911
 -1      2072    8    0    1
 -2       974      1057      1071      4053      4104      4105
 -1      2073    8    0    1
 -2       974      1071      1009      4105      4106      3898
 -1      2074    8    0    1
 -2       972      1041      1016      4005      4107      4086
 -1      2075    8    0    1
 -2      1015      1013      1072      3926      4108      4109
 -1      2076    8    0    1
 -2       942      1015      1044      3925      4110      4015
 -1      2077    8    0    1
 -2      1001       856       939      3870      3683      4103
 -1      2078    8    0    1
 -2       997      1061      1073      4069      4111      4112
 -1      2079    8    0    1
 -2       997      1073      1006      4112      4113      3887
 -1      2080    8    0    1
 -2      1062      1000      1063      4071      4075      4114
 -1      2081    8    0    1
 -2       999      1016      1074      3928      4115      4116
 -1      2082    8    0    1
 -2       999      1074      1064      4116      4117      4078
 -1      2083    8    0    1
 -2      1066       994      1064      4082      4079      4118
 -1      2084    8    0    1
 -2      1003       933      1070      3878      4119      4101
 -1      2085    8    0    1
 -2       947      1068      1007      4095      4120      3892
 -1      2086    8    0    1
 -2      1072      1013      1070      4108      4102      4121
 -1      2087    8    0    1
 -2      1022      1019      1075      3949      4122      4123
 -1      2088    8    0    1
 -2      1023      1022      1076      3952      4124      4125
 -1      2089    8    0    1
 -2      1022      1075      1076      4123      4126      4124
 -1      2090    8    0    1
 -2      1024      1023      1077      3955      4127      4128
 -1      2091    8    0    1
 -2      1023      1076      1077      4125      4129      4127
 -1      2092    8    0    1
 -2      1025      1024      1078      3958      4130      4131
 -1      2093    8    0    1
 -2      1024      1077      1078      4128      4132      4130
 -1      2094    8    0    1
 -2      1026      1025      1079      3961      4133      4134
 -1      2095    8    0    1
 -2      1025      1078      1079      4131      4135      4133
 -1      2096    8    0    1
 -2      1027      1026      1080      3964      4136      4137
 -1      2097    8    0    1
 -2      1026      1079      1080      4134      4138      4136
 -1      2098    8    0    1
 -2      1028      1027      1081      3967      4139      4140
 -1      2099    8    0    1
 -2      1027      1080      1081      4137      4141      4139
 -1      2100    8    0    1
 -2      1029      1028      1082      3970      4142      4143
 -1      2101    8    0    1
 -2      1028      1081      1082      4140      4144      4142
 -1      2102    8    0    1
 -2      1030      1029      1083      3973      4145      4146
 -1      2103    8    0    1
 -2      1029      1082      1083      4143      4147      4145
 -1      2104    8    0    1
 -2      1031      1030      1084      3976      4148      4149
 -1      2105    8    0    1
 -2      1030      1083      1084      4146      4150      4148
 -1      2106    8    0    1
 -2      1032      1031      1085      3979      4151      4152
 -1      2107    8    0    1
 -2      1031      1084      1085      4149      4153      4151
 -1      2108    8    0    1
 -2      1033      1032      1086      3982      4154      4155
 -1      2109    8    0    1
 -2      1032      1085      1086      4152      4156      4154
 -1      2110    8    0    1
 -2      1034      1033      1087      3985      4157      4158
 -1      2111    8    0    1
 -2      1033      1086      1087      4155      4159      4157
 -1      2112    8    0    1
 -2      1035      1034      1088      3988      4160      4161
 -1      2113    8    0    1
 -2      1034      1087      1088      4158      4162      4160
 -1      2114    8    0    1
 -2      1036      1035      1089      3991      4163      4164
 -1      2115    8    0    1
 -2      1035      1088      1089      4161      4165      4163
 -1      2116    8    0    1
 -2      1037      1036      1090      3994      4166      4167
 -1      2117    8    0    1
 -2      1036      1089      1090      4164      4168      4166
 -1      2118    8    0    1
 -2      1038      1037      1091      3997      4169      4170
 -1      2119    8    0    1
 -2      1037      1090      1091      4167      4171      4169
 -1      2120    8    0    1
 -2      1039      1038      1092      4000      4172      4173
 -1      2121    8    0    1
 -2      1038      1091      1092      4170      4174      4172
 -1      2122    8    0    1
 -2      1040      1039      1093      4003      4175      4176
 -1      2123    8    0    1
 -2      1039      1092      1093      4173      4177      4175
 -1      2124    8    0    1
 -2      1041      1040      1094      4006      4178      4179
 -1      2125    8    0    1
 -2      1040      1093      1094      4176      4180      4178
 -1      2126    8    0    1
 -2      1067      1046      1095      4092      4181      4182
 -1      2127    8    0    1
 -2      1048      1049      1096      4029      4183      4184
 -1      2128    8    0    1
 -2      1045      1020      1097      4018      4185      4186
 -1      2129    8    0    1
 -2      1054      1014      1066      4096      4084      4187
 -1      2130    8    0    1
 -2      1047      1048      1098      4026      4188      4189
 -1      2131    8    0    1
 -2      1048      1096      1098      4184      4190      4188
 -1      2132    8    0    1
 -2      1046      1047      1099      4023      4191      4192
 -1      2133    8    0    1
 -2      1095      1046      1099      4181      4192      4193
 -1      2134    8    0    1
 -2      1047      1098      1099      4189      4194      4191
 -1      2135    8    0    1
 -2      1049      1050      1100      4032      4195      4196
 -1      2136    8    0    1
 -2      1049      1100      1096      4196      4197      4183
 -1      2137    8    0    1
 -2      1050      1051      1101      4035      4198      4199
 -1      2138    8    0    1
 -2      1050      1101      1100      4199      4200      4195
 -1      2139    8    0    1
 -2      1051      1052      1102      4038      4201      4202
 -1      2140    8    0    1
 -2      1051      1102      1101      4202      4203      4198
 -1      2141    8    0    1
 -2      1052      1053      1103      4041      4204      4205
 -1      2142    8    0    1
 -2      1052      1103      1102      4205      4206      4201
 -1      2143    8    0    1
 -2      1053      1054      1104      4044      4207      4208
 -1      2144    8    0    1
 -2      1053      1104      1103      4208      4209      4204
 -1      2145    8    0    1
 -2      1055      1058      1105      4057      4210      4211
 -1      2146    8    0    1
 -2      1002      1042      1010      4008      4062      4212
 -1      2147    8    0    1
 -2      1061      1045      1106      4070      4213      4214
 -1      2148    8    0    1
 -2      1045      1097      1106      4186      4215      4213
 -1      2149    8    0    1
 -2      1057      1055      1107      4054      4216      4217
 -1      2150    8    0    1
 -2      1055      1105      1107      4211      4218      4216
 -1      2151    8    0    1
 -2      1017      1002      1010      4064      4212      3932
 -1      2152    8    0    1
 -2      1044      1015      1108      4110      4219      4220
 -1      2153    8    0    1
 -2      1015      1072      1108      4109      4221      4219
 -1      2154    8    0    1
 -2      1020      1067      1109      4089      4222      4223
 -1      2155    8    0    1
 -2      1067      1095      1109      4182      4224      4222
 -1      2156    8    0    1
 -2      1063      1060      1110      4076      4225      4226
 -1      2157    8    0    1
 -2      1056      1062      1111      4073      4227      4228
 -1      2158    8    0    1
 -2      1066      1064      1104      4118      4229      4230
 -1      2159    8    0    1
 -2      1062      1063      1112      4114      4231      4232
 -1      2160    8    0    1
 -2      1063      1110      1112      4226      4233      4231
 -1      2161    8    0    1
 -2      1021      1044      1108      4093      4220      4234
 -1      2162    8    0    1
 -2      1058      1056      1113      4100      4235      4236
 -1      2163    8    0    1
 -2      1056      1111      1113      4228      4237      4235
 -1      2164    8    0    1
 -2      1016      1041      1074      4107      4238      4115
 -1      2165    8    0    1
 -2      1054      1066      1104      4187      4230      4207
 -1      2166    8    0    1
 -2       933      1009      1070      3897      4239      4119
 -1      2167    8    0    1
 -2      1068      1005      1017      4094      4065      4240
 -1      2168    8    0    1
 -2      1041      1094      1074      4179      4241      4238
 -1      2169    8    0    1
 -2      1019      1043      1114      4011      4242      4243
 -1      2170    8    0    1
 -2      1019      1114      1075      4243      4244      4122
 -1      2171    8    0    1
 -2      1057      1107      1115      4217      4245      4246
 -1      2172    8    0    1
 -2      1057      1115      1071      4246      4247      4104
 -1      2173    8    0    1
 -2      1011      1007      1068      3907      4120      4248
 -1      2174    8    0    1
 -2      1104      1064      1116      4229      4249      4250
 -1      2175    8    0    1
 -2      1103      1104      1116      4209      4250      4251
 -1      2176    8    0    1
 -2      1064      1074      1116      4117      4252      4249
 -1      2177    8    0    1
 -2      1105      1058      1113      4210      4236      4253
 -1      2178    8    0    1
 -2      1069      1006      1073      4099      4113      4254
 -1      2179    8    0    1
 -2      1060      1069      1117      4098      4255      4256
 -1      2180    8    0    1
 -2      1060      1117      1110      4256      4257      4225
 -1      2181    8    0    1
 -2      1111      1062      1112      4227      4232      4258
 -1      2182    8    0    1
 -2      1061      1106      1118      4214      4259      4260
 -1      2183    8    0    1
 -2      1061      1118      1073      4260      4261      4111
 -1      2184    8    0    1
 -2      1020      1109      1097      4223      4262      4185
 -1      2185    8    0    1
 -2      1043      1021      1119      4012      4263      4264
 -1      2186    8    0    1
 -2      1114      1043      1119      4242      4264      4265
 -1      2187    8    0    1
 -2      1021      1108      1119      4234      4266      4263
 -1      2188    8    0    1
 -2      1077      1076      1113      4129      4267      4268
 -1      2189    8    0    1
 -2      1078      1077      1111      4132      4269      4270
 -1      2190    8    0    1
 -2      1079      1078      1112      4135      4271      4272
 -1      2191    8    0    1
 -2      1080      1079      1110      4138      4273      4274
 -1      2192    8    0    1
 -2      1081      1080      1117      4141      4275      4276
 -1      2193    8    0    1
 -2      1083      1082      1120      4147      4277      4278
 -1      2194    8    0    1
 -2      1084      1083      1106      4150      4279      4280
 -1      2195    8    0    1
 -2      1085      1084      1097      4153      4281      4282
 -1      2196    8    0    1
 -2      1086      1085      1109      4156      4283      4284
 -1      2197    8    0    1
 -2      1087      1086      1095      4159      4285      4286
 -1      2198    8    0    1
 -2      1088      1087      1099      4162      4287      4288
 -1      2199    8    0    1
 -2      1089      1088      1098      4165      4289      4290
 -1      2200    8    0    1
 -2      1090      1089      1096      4168      4291      4292
 -1      2201    8    0    1
 -2      1091      1090      1100      4171      4293      4294
 -1      2202    8    0    1
 -2      1092      1091      1101      4174      4295      4296
 -1      2203    8    0    1
 -2      1093      1092      1102      4177      4297      4298
 -1      2204    8    0    1
 -2      1101      1102      1092      4203      4297      4296
 -1      2205    8    0    1
 -2      1097      1084      1106      4281      4280      4215
 -1      2206    8    0    1
 -2      1098      1088      1099      4289      4288      4194
 -1      2207    8    0    1
 -2      1098      1096      1089      4190      4291      4290
 -1      2208    8    0    1
 -2      1102      1103      1093      4206      4299      4298
 -1      2209    8    0    1
 -2      1070      1009      1072      4239      4300      4121
 -1      2210    8    0    1
 -2      1108      1072      1121      4221      4301      4302
 -1      2211    8    0    1
 -2      1110      1079      1112      4273      4272      4233
 -1      2212    8    0    1
 -2      1077      1113      1111      4268      4237      4269
 -1      2213    8    0    1
 -2      1107      1105      1075      4218      4303      4304
 -1      2214    8    0    1
 -2      1109      1095      1086      4224      4285      4284
 -1      2215    8    0    1
 -2      1074      1094      1116      4241      4305      4252
 -1      2216    8    0    1
 -2      1111      1112      1078      4258      4271      4270
 -1      2217    8    0    1
 -2      1096      1100      1090      4197      4293      4292
 -1      2218    8    0    1
 -2      1068      1017      1059      4240      4060      4306
 -1      2219    8    0    1
 -2      1100      1101      1091      4200      4295      4294
 -1      2220    8    0    1
 -2      1105      1113      1076      4253      4267      4307
 -1      2221    8    0    1
 -2      1107      1075      1114      4304      4244      4308
 -1      2222    8    0    1
 -2      1076      1075      1105      4126      4303      4307
 -1      2223    8    0    1
 -2      1097      1109      1085      4262      4283      4282
 -1      2224    8    0    1
 -2      1069      1073      1122      4254      4309      4310
 -1      2225    8    0    1
 -2      1069      1122      1117      4310      4311      4255
 -1      2226    8    0    1
 -2      1108      1121      1119      4302      4312      4266
 -1      2227    8    0    1
 -2      1009      1071      1072      4106      4313      4300
 -1      2228    8    0    1
 -2      1011      1068      1059      4248      4306      4061
 -1      2229    8    0    1
 -2      1080      1110      1117      4274      4257      4275
 -1      2230    8    0    1
 -2      1087      1095      1099      4286      4193      4287
 -1      2231    8    0    1
 -2      1121      1072      1071      4301      4313      4314
 -1      2232    8    0    1
 -2      1121      1071      1115      4314      4247      4315
 -1      2233    8    0    1
 -2      1122      1073      1118      4309      4261      4316
 -1      2234    8    0    1
 -2      1107      1114      1115      4308      4317      4245
 -1      2235    8    0    1
 -2      1081      1117      1122      4276      4311      4318
 -1      2236    8    0    1
 -2      1082      1081      1122      4144      4318      4319
 -1      2237    8    0    1
 -2      1093      1103      1116      4299      4251      4320
 -1      2238    8    0    1
 -2      1106      1083      1120      4279      4278      4321
 -1      2239    8    0    1
 -2      1119      1121      1115      4312      4315      4322
 -1      2240    8    0    1
 -2      1119      1115      1114      4322      4317      4265
 -1      2241    8    0    1
 -2      1082      1122      1120      4319      4323      4277
 -1      2242    8    0    1
 -2      1094      1093      1116      4180      4320      4305
 -1      2243    8    0    1
 -2      1106      1120      1118      4321      4324      4259
 -1      2244    8    0    1
 -2      1122      1118      1120      4316      4324      4323
 -3
    1PSTEP                         1           1           1          
  100CL  101 1.000000000        4324                     0    1           1
 -4  DISP        4    1
 -5  D1          1    2    1    0
 -5  D2          1    2    2    0
 -5  D3          1    2    3    0
 -5  ALL         1    2    0    0    1ALL
 -1         1 1.14556E-02-1.19329E-03-8.87069E-14
 -1         2 1.32255E-02-3.53696E-04-9.73753E-14
 -1         3 1.45816E-02-1.66664E-04-1.48492E-13
 -1         4 1.54145E-02-1.16400E-03-1.45852E-13
 -1         5 0.00000E+00 0.00000E+00 0.00000E+00
 -1         6 0.00000E+00 0.00000E+00 0.00000E+00
 -1         7 0.00000E+00 0.00000E+00 0.00000E+00
 -1         8 0.00000E+00 0.00000E+00 0.00000E+00
 -1         9 0.00000E+00 0.00000E+00 0.00000E+00
 -1        10 0.00000E+00 0.00000E+00 0.00000E+00
 -1        11 0.00000E+00 0.00000E+00 0.00000E+00
 -1        12 0.00000E+00 0.00000E+00 0.00000E+00
 -1        13 0.00000E+00 0.00000E+00 0.00000E+00
 -1        14 0.00000E+00 0.00000E+00 0.00000E+00
 -1        15 0.00000E+00 0.00000E+00 0.00000E+00
 -1        16 0.00000E+00 0.00000E+00 0.00000E+00
 -1        17 0.00000E+00 0.00000E+00 0.00000E+00
 -1        18 0.00000E+00 0.00000E+00 0.00000E+00
 -1        19 0.00000E+00 0.00000E+00 0.00000E+00
 -1        20 0.00000E+00 0.00000E+00 0.00000E+00
 -1        21 0.00000E+00 0.00000E+00 0.00000E+00
 -1        22 0.00000E+00 0.00000E+00 0.00000E+00
 -1        23 4.11375E-04-2.60758E-04 5.98954E-17
 -1        24 7.03337E-04-4.01030E-04-3.41490E-17
 -1        25 9.73369E-04-4.98428E-04-2.81320E-16
 -1        26 1.23781E-03-5.67180E-04-6.81387E-16
 -1        27 1.50127E-03-6.16423E-04-1.23194E-15
 -1        28 1.76586E-03-6.51540E-04-1.93254E-15
 -1        29 2.03251E-03-6.76230E-04-2.77953E-15
 -1        30 2.30160E-03-6.93179E-04-3.76869E-15
 -1        31 2.57317E-03-7.04390E-04-4.90116E-15
 -1        32 2.84708E-03-7.11369E-04-6.17763E-15
 -1        33 3.12312E-03-7.15242E-04-7.59502E-15
 -1        34 3.40101E-03-7.16840E-04-9.14419E-15
 -1        35 3.68050E-03-7.16756E-04-1.08306E-14
 -1        36 3.96137E-03-7.15401E-04-1.26491E-14
 -1        37 4.24341E-03-7.13037E-04-1.46003E-14
 -1        38 4.52653E-03-7.09817E-04-1.66852E-14
 -1        39 4.81067E-03-7.05809E-04-1.89015E-14
 -1        40 5.09590E-03-7.01030E-04-2.12481E-14
 -1        41 5.38238E-03-6.95466E-04-2.37237E-14
 -1        42 5.67041E-03-6.89109E-04-2.63266E-14
 -1        43 5.96045E-03-6.81995E-04-2.90617E-14
 -1        44 6.25315E-03-6.74250E-04-3.19215E-14
 -1        45 6.54942E-03-6.66167E-04-3.49001E-14
 -1        46 6.85043E-03-6.58299E-04-3.79996E-14
 -1        47 7.15767E-03-6.51602E-04-4.12067E-14
 -1        48 7.47298E-03-6.47627E-04-4.45155E-14
 -1        49 7.79847E-03-6.48782E-04-4.79258E-14
 -1        50 8.13639E-03-6.58637E-04-5.14438E-14
 -1        51 8.48867E-03-6.82230E-04-5.50542E-14
 -1        52 8.85605E-03-7.26140E-04-5.87456E-14
 -1        53 9.23666E-03-7.97929E-04-6.25051E-14
 -1        54 9.62416E-03-9.04159E-04-6.63288E-14
 -1        55 1.00062E-02-1.04620E-03-7.02301E-14
 -1        56 1.03658E-02-1.21406E-03-7.42125E-14
 -1        57 1.06874E-02-1.38165E-03-7.82805E-14
 -1        58 1.09676E-02-1.51032E-03-8.24296E-14
 -1        59 1.12227E-02-1.56525E-03-8.66531E-14
 -1        60 1.14829E-02-1.53609E-03-9.09381E-14
 -1        61 1.17747E-02-1.44393E-03-9.52725E-14
 -1        62 1.21070E-02-1.32718E-03-9.96671E-14
 -1        63 1.24702E-02-1.22058E-03-1.04129E-13
 -1        64 1.28471E-02-1.14351E-03-1.08641E-13
 -1        65 1.32214E-02-1.10031E-03-1.13217E-13
 -1        66 1.35830E-02-1.08612E-03-1.17846E-13
 -1        67 1.39270E-02-1.09241E-03-1.22513E-13
 -1        68 1.42525E-02-1.11017E-03-1.27193E-13
 -1        69 1.45613E-02-1.13137E-03-1.31882E-13
 -1        70 1.48567E-02-1.14942E-03-1.36592E-13
 -1        71 1.51439E-02-1.16016E-03-1.41336E-13
 -1        72 4.13821E-04 2.61463E-04 5.27532E-17
 -1        73 7.03160E-04 4.03736E-04-5.78761E-17
 -1        74 9.73905E-04 5.00198E-04-3.25745E-16
 -1        75 1.23864E-03 5.68889E-04-7.50136E-16
 -1        76 1.50223E-03 6.18182E-04-1.32955E-15
 -1        77 1.76689E-03 6.53390E-04-2.06135E-15
 -1        78 2.03358E-03 6.78190E-04-2.94527E-15
 -1        79 2.30269E-03 6.95260E-04-3.97418E-15
 -1        80 2.57428E-03 7.06597E-04-5.14803E-15
 -1        81 2.84821E-03 7.13707E-04-6.46755E-15
 -1        82 3.12426E-03 7.17714E-04-7.93030E-15
 -1        83 3.40217E-03 7.19451E-04-9.52878E-15
 -1        84 3.68169E-03 7.19513E-04-1.12655E-14
 -1        85 3.96258E-03 7.18316E-04-1.31374E-14
 -1        86 4.24467E-03 7.16131E-04-1.51492E-14
 -1        87 4.52785E-03 7.13123E-04-1.72939E-14
 -1        88 4.81206E-03 7.09386E-04-1.95726E-14
 -1        89 5.09737E-03 7.04965E-04-2.19803E-14
 -1        90 5.38391E-03 6.99896E-04-2.45170E-14
 -1        91 5.67195E-03 6.94239E-04-2.71783E-14
 -1        92 5.96187E-03 6.88116E-04-2.99631E-14
 -1        93 6.25417E-03 6.81767E-04-3.28657E-14
 -1        94 6.54948E-03 6.75608E-04-3.58853E-14
 -1        95 6.84852E-03 6.70300E-04-3.90187E-14
 -1        96 7.15208E-03 6.66829E-04-4.22655E-14
 -1        97 7.46088E-03 6.66574E-04-4.56174E-14
 -1        98 7.77542E-03 6.71341E-04-4.90730E-14
 -1        99 8.09573E-03 6.83321E-04-5.26257E-14
 -1       100 8.42102E-03 7.04890E-04-5.62867E-14
 -1       101 8.74931E-03 7.38155E-04-6.00597E-14
 -1       102 9.07710E-03 7.84160E-04-6.39353E-14
 -1       103 9.39940E-03 8.41762E-04-6.78936E-14
 -1       104 9.71034E-03 9.06410E-04-7.19236E-14
 -1       105 1.00048E-02 9.69450E-04-7.60203E-14
 -1       106 1.02804E-02 1.01881E-03-8.01871E-14
 -1       107 1.05395E-02 1.04166E-03-8.44290E-14
 -1       108 1.07897E-02 1.02851E-03-8.87387E-14
 -1       109 1.10414E-02 9.76809E-04-9.31011E-14
 -1       110 1.13041E-02 8.91984E-04-9.75184E-14
 -1       111 1.15833E-02 7.85136E-04-1.01989E-13
 -1       112 1.18792E-02 6.68918E-04-1.06513E-13
 -1       113 1.21878E-02 5.53798E-04-1.11088E-13
 -1       114 1.25030E-02 4.46143E-04-1.15716E-13
 -1       115 1.28189E-02 3.48137E-04-1.20374E-13
 -1       116 1.31309E-02 2.58754E-04-1.25049E-13
 -1       117 1.34362E-02 1.75007E-04-1.29741E-13
 -1       118 1.37337E-02 9.30595E-05-1.34463E-13
 -1       119 1.40244E-02 9.17172E-06-1.39221E-13
 -1       120 1.43106E-02-7.91841E-05-1.43984E-13
 -1       121 1.46731E-02-2.51412E-04-1.48382E-13
 -1       122 1.47685E-02-3.35150E-04-1.48288E-13
 -1       123 1.48685E-02-4.14480E-04-1.48178E-13
 -1       124 1.49711E-02-4.86497E-04-1.48052E-13
 -1       125 1.50730E-02-5.49271E-04-1.47913E-13
 -1       126 1.51682E-02-6.01090E-04-1.47789E-13
 -1       127 1.52558E-02-6.44033E-04-1.47677E-13
 -1       128 1.53295E-02-6.78778E-04-1.47551E-13
 -1       129 1.53860E-02-7.08364E-04-1.47402E-13
 -1       130 1.54236E-02-7.36920E-04-1.47247E-13
 -1       131 1.54428E-02-7.69060E-04-1.47079E-13
 -1       132 1.54462E-02-8.08340E-04-1.46918E-13
 -1       133 1.54389E-02-8.59277E-04-1.46737E-13
 -1       134 1.54268E-02-9.22708E-04-1.46526E-13
 -1       135 1.54164E-02-9.97832E-04-1.46301E-13
 -1       136 1.54123E-02-1.08039E-03-1.46074E-13
 -1       137 1.31593E-02-1.75222E-04-9.72346E-14
 -1       138 1.29807E-02 8.80233E-06-9.65797E-14
 -1       139 1.27248E-02 1.68997E-04-9.55284E-14
 -1       140 1.23609E-02 3.20143E-04-9.39679E-14
 -1       141 1.19835E-02 4.26742E-04-9.23211E-14
 -1       142 1.15500E-02 5.07079E-04-9.04013E-14
 -1       143 1.11064E-02 5.50322E-04-8.84254E-14
 -1       144 1.06170E-02 5.56403E-04-8.62061E-14
 -1       145 1.01690E-02 5.22259E-04-8.41635E-14
 -1       146 9.74339E-03 4.47894E-04-8.21977E-14
 -1       147 9.39304E-03 3.45376E-04-8.05729E-14
 -1       148 9.10646E-03 2.13692E-04-7.92252E-14
 -1       149 8.91306E-03 6.93396E-05-7.82825E-14
 -1       150 8.79859E-03-9.92930E-05-7.76723E-14
 -1       151 8.78376E-03-2.72467E-04-7.75086E-14
 -1       152 8.86238E-03-4.44576E-04-7.77591E-14
 -1       153 9.02333E-03-6.10684E-04-7.83830E-14
 -1       154 9.29677E-03-7.84814E-04-7.94875E-14
 -1       155 9.63140E-03-9.33162E-04-8.08670E-14
 -1       156 1.00273E-02-1.05520E-03-8.25256E-14
 -1       157 1.04778E-02-1.14569E-03-8.44402E-14
 -1       158 1.09651E-02-1.19410E-03-8.65415E-14
 -1       159 1.18809E-02-1.15114E-03-9.06115E-14
 -1       160 1.22657E-02-1.07405E-03-9.23843E-14
 -1       161 1.25969E-02-9.69645E-04-9.39528E-14
 -1       162 1.28862E-02-8.31505E-04-9.53871E-14
 -1       163 1.30803E-02-6.84232E-04-9.64141E-14
 -1       164 1.31962E-02-5.25832E-04-9.70844E-14
 -1       165 2.40391E-04-1.25544E-04-1.94343E-17
 -1       166 2.25265E-04-9.46489E-05-4.42219E-17
 -1       167 2.19517E-04-7.28077E-05-5.85876E-17
 -1       168 2.16711E-04-5.51368E-05-6.70748E-17
 -1       169 2.15230E-04-3.99921E-05-7.19707E-17
 -1       170 2.14399E-04-2.59322E-05-7.48133E-17
 -1       171 2.13983E-04-1.26527E-05-7.64498E-17
 -1       172 2.13862E-04 2.73220E-07-7.72020E-17
 -1       173 2.14002E-04 1.32116E-05-7.69343E-17
 -1       174 2.14439E-04 2.65307E-05-7.58637E-17
 -1       175 2.15278E-04 4.04174E-05-7.37393E-17
 -1       176 2.16820E-04 5.59426E-05-6.95753E-17
 -1       177 2.19669E-04 7.38474E-05-6.21180E-17
 -1       178 2.25435E-04 9.60480E-05-4.90195E-17
 -1       179 2.39321E-04 1.27622E-04-2.48316E-17
 -1       180 2.97694E-04 1.85525E-04 1.82959E-19
 -1       181 4.68597E-04-2.63593E-04-5.58669E-17
 -1       182 7.66713E-04-3.82210E-04-2.62191E-16
 -1       183 1.05053E-03-4.65109E-04-6.12693E-16
 -1       184 1.32787E-03-5.23881E-04-1.11004E-15
 -1       185 1.60242E-03-5.65547E-04-1.75299E-15
 -1       186 1.87624E-03-5.94787E-04-2.54149E-15
 -1       187 2.15046E-03-6.14895E-04-3.47335E-15
 -1       188 2.42569E-03-6.28278E-04-4.54584E-15
 -1       189 2.70218E-03-6.36731E-04-5.75951E-15
 -1       190 2.98002E-03-6.41586E-04-7.11334E-15
 -1       191 3.25915E-03-6.43830E-04-8.60334E-15
 -1       192 3.53950E-03-6.44169E-04-1.02257E-14
 -1       193 3.82094E-03-6.43098E-04-1.19824E-14
 -1       194 4.10339E-03-6.40937E-04-1.38709E-14
 -1       195 4.38677E-03-6.37879E-04-1.58936E-14
 -1       196 4.67106E-03-6.34011E-04-1.80466E-14
 -1       197 4.95631E-03-6.29354E-04-2.03300E-14
 -1       198 5.24262E-03-6.23878E-04-2.27412E-14
 -1       199 5.53020E-03-6.17540E-04-2.52819E-14
 -1       200 5.81938E-03-6.10312E-04-2.79490E-14
 -1       201 6.11059E-03-6.02223E-04-3.07457E-14
 -1       202 6.40444E-03-5.93422E-04-3.36632E-14
 -1       203 6.70171E-03-5.84256E-04-3.67012E-14
 -1       204 7.00335E-03-5.75391E-04-3.98525E-14
 -1       205 7.31053E-03-5.67982E-04-4.31088E-14
 -1       206 7.62459E-03-5.63910E-04-4.64656E-14
 -1       207 7.94696E-03-5.66092E-04-4.99270E-14
 -1       208 8.27899E-03-5.78849E-04-5.34880E-14
 -1       209 8.62157E-03-6.08210E-04-5.71338E-14
 -1       210 8.97466E-03-6.61856E-04-6.08600E-14
 -1       211 9.33639E-03-7.48088E-04-6.46532E-14
 -1       212 9.70225E-03-8.72834E-04-6.85154E-14
 -1       213 1.00647E-02-1.03392E-03-7.24576E-14
 -1       214 1.04142E-02-1.21380E-03-7.64783E-14
 -1       215 1.07442E-02-1.37645E-03-8.05844E-14
 -1       216 1.10562E-02-1.47753E-03-8.47708E-14
 -1       217 1.13624E-02-1.48838E-03-8.90279E-14
 -1       218 1.16786E-02-1.41598E-03-9.33408E-14
 -1       219 1.20131E-02-1.29762E-03-9.77071E-14
 -1       220 1.23639E-02-1.17640E-03-1.02138E-13
 -1       221 1.27224E-02-1.08127E-03-1.06622E-13
 -1       222 1.30795E-02-1.02271E-03-1.11164E-13
 -1       223 1.34284E-02-9.98301E-04-1.15756E-13
 -1       224 1.37656E-02-9.99624E-04-1.20399E-13
 -1       225 1.40899E-02-1.01690E-03-1.25067E-13
 -1       226 1.44019E-02-1.04107E-03-1.29750E-13
 -1       227 1.47033E-02-1.06447E-03-1.34452E-13
 -1       228 1.49963E-02-1.08124E-03-1.39174E-13
 -1       229 6.04528E-04 3.31089E-04-1.30497E-16
 -1       230 8.93589E-04 4.32724E-04-4.08436E-16
 -1       231 1.17244E-03 5.04477E-04-8.37024E-16
 -1       232 1.44673E-03 5.55553E-04-1.41650E-15
 -1       233 1.71948E-03 5.91766E-04-2.14584E-15
 -1       234 1.99230E-03 6.17087E-04-3.02408E-15
 -1       235 2.26604E-03 6.34376E-04-4.04732E-15
 -1       236 2.54109E-03 6.45750E-04-5.21362E-15
 -1       237 2.81761E-03 6.52789E-04-6.52258E-15
 -1       238 3.09558E-03 6.56671E-04-7.97194E-15
 -1       239 3.37491E-03 6.58257E-04-9.56006E-15
 -1       240 3.65549E-03 6.58164E-04-1.12840E-14
 -1       241 3.93718E-03 6.56815E-04-1.31441E-14
 -1       242 4.21989E-03 6.54485E-04-1.51398E-14
 -1       243 4.50355E-03 6.51335E-04-1.72689E-14
 -1       244 4.78816E-03 6.47446E-04-1.95301E-14
 -1       245 5.07376E-03 6.42851E-04-2.19221E-14
 -1       246 5.36050E-03 6.37566E-04-2.44395E-14
 -1       247 5.64858E-03 6.31622E-04-2.70826E-14
 -1       248 5.93831E-03 6.25112E-04-2.98526E-14
 -1       249 6.23008E-03 6.18238E-04-3.27407E-14
 -1       250 6.52438E-03 6.11373E-04-3.57440E-14
 -1       251 6.82175E-03 6.05139E-04-3.88585E-14
 -1       252 7.12276E-03 6.00484E-04-4.20850E-14
 -1       253 7.42794E-03 5.98770E-04-4.54225E-14
 -1       254 7.73763E-03 6.01821E-04-4.88645E-14
 -1       255 8.05186E-03 6.11909E-04-5.24070E-14
 -1       256 8.37010E-03 6.31587E-04-5.60522E-14
 -1       257 8.69104E-03 6.63266E-04-5.98059E-14
 -1       258 9.01240E-03 7.08435E-04-6.36602E-14
 -1       259 9.33097E-03 7.66475E-04-6.75976E-14
 -1       260 9.64297E-03 8.33290E-04-7.16106E-14
 -1       261 9.94493E-03 9.00341E-04-7.56952E-14
 -1       262 1.02351E-02 9.55075E-04-7.98536E-14
 -1       263 1.05145E-02 9.83531E-04-8.40810E-14
 -1       264 1.07877E-02 9.74810E-04-8.83723E-14
 -1       265 1.10611E-02 9.25351E-04-9.27190E-14
 -1       266 1.13407E-02 8.40412E-04-9.71209E-14
 -1       267 1.16303E-02 7.31758E-04-1.01578E-13
 -1       268 1.19301E-02 6.13072E-04-1.06092E-13
 -1       269 1.22376E-02 4.95735E-04-1.10654E-13
 -1       270 1.25491E-02 3.86663E-04-1.15271E-13
 -1       271 1.28607E-02 2.88214E-04-1.19914E-13
 -1       272 1.31692E-02 1.99286E-04-1.24576E-13
 -1       273 1.34727E-02 1.16674E-04-1.29259E-13
 -1       274 1.37705E-02 3.62532E-05-1.33970E-13
 -1       275 1.40629E-02-4.60698E-05-1.38714E-13
 -1       276 1.43512E-02-1.33290E-04-1.43466E-13
 -1       277 1.44729E-02-2.12172E-04-1.44227E-13
 -1       278 1.45719E-02-2.92335E-04-1.44126E-13
 -1       279 1.46753E-02-3.67760E-04-1.44016E-13
 -1       280 1.47802E-02-4.37096E-04-1.43896E-13
 -1       281 1.48807E-02-4.98451E-04-1.43777E-13
 -1       282 1.49759E-02-5.53762E-04-1.43655E-13
 -1       283 1.50589E-02-6.02601E-04-1.43528E-13
 -1       284 1.51256E-02-6.46634E-04-1.43393E-13
 -1       285 1.51731E-02-6.88391E-04-1.43240E-13
 -1       286 1.52004E-02-7.30951E-04-1.43079E-13
 -1       287 1.52094E-02-7.76614E-04-1.42915E-13
 -1       288 1.52043E-02-8.29542E-04-1.42729E-13
 -1       289 1.51908E-02-8.90646E-04-1.42529E-13
 -1       290 1.51760E-02-9.60266E-04-1.42309E-13
 -1       291 1.50840E-02-1.01911E-03-1.40744E-13
 -1       292 1.32253E-02-3.17521E-04-9.91213E-14
 -1       293 1.30568E-02-2.23134E-04-9.91207E-14
 -1       294 1.27702E-02-6.22311E-05-9.77320E-14
 -1       295 1.23863E-02 1.08905E-04-9.63509E-14
 -1       296 1.20064E-02 3.13403E-04-9.41740E-14
 -1       297 1.16152E-02 4.76357E-04-9.21125E-14
 -1       298 1.12453E-02 5.90337E-04-8.97629E-14
 -1       299 1.08658E-02 6.39143E-04-8.72890E-14
 -1       300 1.04804E-02 5.90559E-04-8.47950E-14
 -1       301 1.00999E-02 4.76292E-04-8.24061E-14
 -1       302 9.71012E-03 3.21736E-04-8.03704E-14
 -1       303 9.35271E-03 1.61514E-04-7.86436E-14
 -1       304 9.05477E-03 1.98347E-05-7.73171E-14
 -1       305 8.84420E-03-9.99135E-05-7.63196E-14
 -1       306 8.75283E-03-1.95167E-04-7.59913E-14
 -1       307 8.79620E-03-2.84628E-04-7.58283E-14
 -1       308 8.96432E-03-4.02626E-04-7.65549E-14
 -1       309 9.26100E-03-5.28209E-04-7.71663E-14
 -1       310 9.54159E-03-6.90411E-04-7.85171E-14
 -1       311 1.00063E-02-9.34593E-04-8.06830E-14
 -1       312 1.03971E-02-1.11654E-03-8.28259E-14
 -1       313 1.07950E-02-1.24025E-03-8.51687E-14
 -1       314 1.11887E-02-1.28200E-03-8.76780E-14
 -1       315 1.15662E-02-1.21813E-03-9.00661E-14
 -1       316 1.19200E-02-1.09844E-03-9.22867E-14
 -1       317 1.22818E-02-9.45514E-04-9.42124E-14
 -1       318 1.26201E-02-7.70580E-04-9.61766E-14
 -1       319 1.29291E-02-6.31302E-04-9.74489E-14
 -1       320 1.31392E-02-5.01625E-04-9.88120E-14
 -1       321 1.32479E-02-4.11608E-04-9.91595E-14
 -1       322 4.55381E-04-1.64848E-04-2.01634E-16
 -1       323 4.74230E-04-2.13030E-04-1.59354E-16
 -1       324 4.40465E-04-9.40609E-05-2.45877E-16
 -1       325 4.37512E-04-6.49461E-05-2.56512E-16
 -1       326 4.35898E-04-3.79281E-05-2.63078E-16
 -1       327 4.35193E-04-1.20247E-05-2.66649E-16
 -1       328 4.35223E-04 1.35447E-05-2.67503E-16
 -1       329 4.35995E-04 3.95057E-05-2.65636E-16
 -1       330 4.37652E-04 6.61752E-05-2.60778E-16
 -1       331 4.40696E-04 9.54607E-05-2.51911E-16
 -1       332 4.46068E-04 1.28380E-04-2.37305E-16
 -1       333 4.55885E-04 1.67361E-04-2.13185E-16
 -1       334 4.75864E-04 2.17100E-04-1.73218E-16
 -1       335 5.31982E-04 2.70026E-04-1.59842E-16
 -1       336 8.24436E-04 3.73579E-04-4.41589E-16
 -1       337 9.85660E-03-7.62755E-04-7.82378E-14
 -1       338 8.63212E-04-3.57485E-04-5.22108E-16
 -1       339 1.14954E-03-4.26246E-04-9.70164E-16
 -1       340 1.43229E-03-4.75402E-04-1.56050E-15
 -1       341 1.71297E-03-5.10100E-04-2.29312E-15
 -1       342 1.99271E-03-5.34126E-04-3.16808E-15
 -1       343 2.27226E-03-5.50288E-04-4.18294E-15
 -1       344 2.55209E-03-5.60686E-04-5.33634E-15
 -1       345 2.83248E-03-5.66885E-04-6.62844E-15
 -1       346 3.11355E-03-5.70047E-04-8.05817E-15
 -1       347 3.39534E-03-5.71015E-04-9.62027E-15
 -1       348 3.67785E-03-5.70381E-04-1.13152E-14
 -1       349 3.96105E-03-5.68544E-04-1.31424E-14
 -1       350 4.24492E-03-5.65749E-04-1.51019E-14
 -1       351 4.52946E-03-5.62122E-04-1.71928E-14
 -1       352 4.81470E-03-5.57701E-04-1.94131E-14
 -1       353 5.10071E-03-5.52465E-04-2.17626E-14
 -1       354 5.38761E-03-5.46356E-04-2.42390E-14
 -1       355 5.67559E-03-5.39313E-04-2.68431E-14
 -1       356 5.96490E-03-5.31307E-04-2.95745E-14
 -1       357 6.25590E-03-5.22390E-04-3.24308E-14
 -1       358 6.54901E-03-5.12758E-04-3.54080E-14
 -1       359 6.84479E-03-5.02855E-04-3.85029E-14
 -1       360 7.14388E-03-4.93503E-04-4.17069E-14
 -1       361 7.44708E-03-4.86096E-04-4.50123E-14
 -1       362 7.75530E-03-4.82866E-04-4.84212E-14
 -1       363 8.06960E-03-4.87214E-04-5.19297E-14
 -1       364 8.39124E-03-5.04076E-04-5.55312E-14
 -1       365 8.72167E-03-5.40194E-04-5.92133E-14
 -1       366 9.06238E-03-6.03940E-04-6.29707E-14
 -1       367 9.41437E-03-7.04019E-04-6.67991E-14
 -1       368 9.77664E-03-8.45830E-04-7.07043E-14
 -1       369 1.01439E-02-1.02414E-03-7.46847E-14
 -1       370 1.05063E-02-1.21340E-03-7.87431E-14
 -1       371 1.08550E-02-1.36513E-03-8.28857E-14
 -1       372 1.11921E-02-1.42750E-03-8.71087E-14
 -1       373 1.15317E-02-1.38404E-03-9.14021E-14
 -1       374 1.18843E-02-1.26821E-03-9.57477E-14
 -1       375 1.22472E-02-1.13416E-03-1.00151E-13
 -1       376 1.26098E-02-1.02233E-03-1.04611E-13
 -1       377 1.29638E-02-9.49153E-04-1.09121E-13
 -1       378 1.33055E-02-9.14196E-04-1.13682E-13
 -1       379 1.36349E-02-9.09320E-04-1.18292E-13
 -1       380 1.39533E-02-9.24419E-04-1.22944E-13
 -1       381 1.42620E-02-9.49958E-04-1.27616E-13
 -1       382 1.45625E-02-9.77749E-04-1.32306E-13
 -1       383 1.48254E-02-1.00223E-03-1.36519E-13
 -1       384 1.10988E-03 4.47908E-04-8.69439E-16
 -1       385 1.39059E-03 5.00961E-04-1.44465E-15
 -1       386 1.66886E-03 5.38540E-04-2.16751E-15
 -1       387 1.94620E-03 5.64757E-04-3.03656E-15
 -1       388 2.22357E-03 5.82609E-04-4.04931E-15
 -1       389 2.50149E-03 5.94315E-04-5.20422E-15
 -1       390 2.78024E-03 6.01534E-04-6.50043E-15
 -1       391 3.05994E-03 6.05494E-04-7.93571E-15
 -1       392 3.34061E-03 6.07098E-04-9.50917E-15
 -1       393 3.62220E-03 6.06987E-04-1.12175E-14
 -1       394 3.90466E-03 6.05602E-04-1.30623E-14
 -1       395 4.18794E-03 6.03228E-04-1.50409E-14
 -1       396 4.47201E-03 6.00028E-04-1.71533E-14
 -1       397 4.75687E-03 5.96083E-04-1.93963E-14
 -1       398 5.04259E-03 5.91419E-04-2.17696E-14
 -1       399 5.32927E-03 5.86037E-04-2.42689E-14
 -1       400 5.61708E-03 5.79952E-04-2.68941E-14
 -1       401 5.90626E-03 5.73229E-04-2.96445E-14
 -1       402 6.19713E-03 5.66039E-04-3.25156E-14
 -1       403 6.49007E-03 5.58714E-04-3.55019E-14
 -1       404 6.78551E-03 5.51825E-04-3.86003E-14
 -1       405 7.08393E-03 5.46266E-04-4.18075E-14
 -1       406 7.38578E-03 5.43341E-04-4.51273E-14
 -1       407 7.69144E-03 5.44833E-04-4.85530E-14
 -1       408 8.00112E-03 5.53009E-04-5.20798E-14
 -1       409 8.31469E-03 5.70491E-04-5.57097E-14
 -1       410 8.63153E-03 5.99904E-04-5.94458E-14
 -1       411 8.95031E-03 6.43145E-04-6.32801E-14
 -1       412 9.26891E-03 7.00232E-04-6.71991E-14
 -1       413 9.58442E-03 7.67825E-04-7.11958E-14
 -1       414 9.89368E-03 8.37956E-04-7.52678E-14
 -1       415 1.01944E-02 8.97970E-04-7.94130E-14
 -1       416 1.04865E-02 9.32821E-04-8.36267E-14
 -1       417 1.07729E-02 9.29841E-04-8.79054E-14
 -1       418 1.10588E-02 8.83948E-04-9.22372E-14
 -1       419 1.13493E-02 7.99948E-04-9.66240E-14
 -1       420 1.16475E-02 6.90260E-04-1.01068E-13
 -1       421 1.19531E-02 5.69684E-04-1.05570E-13
 -1       422 1.22637E-02 4.50537E-04-1.10125E-13
 -1       423 1.25761E-02 3.40250E-04-1.14727E-13
 -1       424 1.28872E-02 2.41349E-04-1.19357E-13
 -1       425 1.31948E-02 1.52701E-04-1.24010E-13
 -1       426 1.34976E-02 7.09920E-05-1.28685E-13
 -1       427 1.37952E-02-8.04820E-06-1.33387E-13
 -1       428 1.40879E-02-8.87174E-05-1.38119E-13
 -1       429 1.42811E-02-1.49156E-04-1.41173E-13
 -1       430 1.44830E-02-3.31625E-04-1.39865E-13
 -1       431 1.43765E-02-2.56499E-04-1.39969E-13
 -1       432 1.43270E-02-2.03725E-04-1.40573E-13
 -1       433 1.45877E-02-4.00506E-04-1.39756E-13
 -1       434 1.46895E-02-4.64980E-04-1.39639E-13
 -1       435 1.47816E-02-5.23780E-04-1.39512E-13
 -1       436 1.48589E-02-5.77634E-04-1.39379E-13
 -1       437 1.49173E-02-6.28132E-04-1.39239E-13
 -1       438 1.49545E-02-6.77588E-04-1.39087E-13
 -1       439 1.49709E-02-7.27777E-04-1.38922E-13
 -1       440 1.49699E-02-7.82906E-04-1.38738E-13
 -1       441 1.49566E-02-8.44035E-04-1.38540E-13
 -1       442 1.49382E-02-9.12174E-04-1.38327E-13
 -1       443 1.28807E-02-2.00907E-04-1.00086E-13
 -1       444 1.32754E-02-3.79382E-04-1.01708E-13
 -1       445 1.31861E-02-3.31705E-04-1.01702E-13
 -1       446 1.25559E-02-6.47944E-05-9.90071E-14
 -1       447 9.47837E-03-5.57066E-04-7.64969E-14
 -1       448 1.06566E-02-1.20601E-03-8.34360E-14
 -1       449 1.20807E-02 1.81273E-04-9.65322E-14
 -1       450 4.45599E-04-1.26538E-04-2.28489E-16
 -1       451 1.13511E-02 5.59807E-04-9.15059E-14
 -1       452 1.10587E-02 6.50667E-04-8.90182E-14
 -1       453 1.06714E-02 6.49667E-04-8.56562E-14
 -1       454 1.03540E-02 5.57042E-04-8.29426E-14
 -1       455 9.95888E-03 3.72332E-04-8.00587E-14
 -1       456 9.58515E-03 1.91307E-04-7.81252E-14
 -1       457 9.22832E-03 3.17604E-05-7.65368E-14
 -1       458 8.94909E-03-8.53028E-05-7.52474E-14
 -1       459 8.76227E-03-1.67715E-04-7.41213E-14
 -1       460 8.73859E-03-2.15784E-04-7.40894E-14
 -1       461 8.87995E-03-2.82640E-04-7.40444E-14
 -1       462 9.10542E-03-3.70585E-04-7.46427E-14
 -1       463 1.02973E-02-1.02261E-03-8.08657E-14
 -1       464 1.09929E-02-1.30492E-03-8.60846E-14
 -1       465 1.13765E-02-1.28676E-03-8.93643E-14
 -1       466 1.16521E-02-1.19052E-03-9.15836E-14
 -1       467 1.20518E-02-9.96189E-04-9.43541E-14
 -1       468 1.23716E-02-8.28996E-04-9.63214E-14
 -1       469 1.27734E-02-6.27465E-04-9.87766E-14
 -1       470 1.30175E-02-5.20688E-04-1.00147E-13
 -1       471 1.32284E-02-4.31105E-04-1.00905E-13
 -1       472 1.17573E-02 3.60978E-04-9.44486E-14
 -1       473 1.30745E-02-3.02638E-04-1.02669E-13
 -1       474 1.08643E-02 6.81776E-04-8.73762E-14
 -1       475 9.31196E-04 3.46103E-04-7.26161E-16
 -1       476 6.65898E-04-7.51771E-05-5.54105E-16
 -1       477 6.69842E-04-1.15952E-04-5.37927E-16
 -1       478 6.63246E-04 1.10568E-06-5.68078E-16
 -1       479 6.63961E-04 3.87899E-05-5.67194E-16
 -1       480 6.66086E-04 7.68634E-05-5.60949E-16
 -1       481 6.70156E-04 1.17792E-04-5.48532E-16
 -1       482 6.77138E-04 1.62422E-04-5.27891E-16
 -1       483 6.89015E-04 2.12789E-04-4.95396E-16
 -1       484 9.76248E-04-3.28739E-04-8.16116E-16
 -1       485 1.01157E-02-8.89655E-04-7.83144E-14
 -1       486 1.21706E-03 4.06602E-04-1.24751E-15
 -1       487 7.12602E-04-2.51907E-04-4.56622E-16
 -1       488 1.26216E-03-3.83591E-04-1.35580E-15
 -1       489 1.54716E-03-4.23318E-04-2.03513E-15
 -1       490 1.83127E-03-4.51325E-04-2.85490E-15
 -1       491 2.11479E-03-4.70498E-04-3.81289E-15
 -1       492 2.39804E-03-4.83115E-04-4.90815E-15
 -1       493 2.68128E-03-4.90923E-04-6.14053E-15
 -1       494 2.96467E-03-4.95240E-04-7.50936E-15
 -1       495 3.24831E-03-4.97040E-04-9.01231E-15
 -1       496 3.53226E-03-4.97020E-04-1.06473E-14
 -1       497 3.81654E-03-4.95661E-04-1.24136E-14
 -1       498 4.10116E-03-4.93270E-04-1.43112E-14
 -1       499 4.38615E-03-4.90022E-04-1.63395E-14
 -1       500 4.67152E-03-4.85989E-04-1.84973E-14
 -1       501 4.95731E-03-4.81171E-04-2.07831E-14
 -1       502 5.24357E-03-4.75519E-04-2.31992E-14
 -1       503 5.53038E-03-4.68964E-04-2.57405E-14
 -1       504 5.81785E-03-4.61449E-04-2.84102E-14
 -1       505 6.10612E-03-4.52966E-04-3.12051E-14
 -1       506 6.39536E-03-4.43614E-04-3.41227E-14
 -1       507 6.68578E-03-4.33667E-04-3.71569E-14
 -1       508 6.97762E-03-4.23681E-04-4.03065E-14
 -1       509 7.27121E-03-4.14631E-04-4.35612E-14
 -1       510 7.56699E-03-4.08097E-04-4.69205E-14
 -1       511 7.86565E-03-4.06517E-04-5.03799E-14
 -1       512 8.16830E-03-4.13480E-04-5.39327E-14
 -1       513 8.47687E-03-4.34080E-04-5.75707E-14
 -1       514 8.79451E-03-4.75252E-04-6.12894E-14
 -1       515 9.12579E-03-5.45910E-04-6.50830E-14
 -1       516 9.47597E-03-6.56283E-04-6.89522E-14
 -1       517 9.84741E-03-8.14435E-04-7.28935E-14
 -1       518 1.02347E-02-1.01521E-03-7.69082E-14
 -1       519 1.06206E-02-1.21987E-03-8.10004E-14
 -1       520 1.09935E-02-1.35492E-03-8.51841E-14
 -1       521 1.13598E-02-1.35713E-03-8.94483E-14
 -1       522 1.17374E-02-1.24311E-03-9.37762E-14
 -1       523 1.21247E-02-1.08871E-03-9.81596E-14
 -1       524 1.25057E-02-9.57233E-04-1.02598E-13
 -1       525 1.28672E-02-8.71363E-04-1.07085E-13
 -1       526 1.32070E-02-8.29060E-04-1.11615E-13
 -1       527 1.35293E-02-8.20121E-04-1.16194E-13
 -1       528 1.38391E-02-8.33634E-04-1.20818E-13
 -1       529 1.41404E-02-8.60030E-04-1.25478E-13
 -1       530 1.44355E-02-8.91258E-04-1.30160E-13
 -1       531 1.78386E-03 4.81098E-04-2.72203E-15
 -1       532 2.06583E-03 5.02361E-04-3.67302E-15
 -1       533 2.34754E-03 5.16533E-04-4.76394E-15
 -1       534 2.62935E-03 5.25506E-04-5.99405E-15
 -1       535 2.91148E-03 5.30700E-04-7.36384E-15
 -1       536 3.19403E-03 5.33167E-04-8.87098E-15
 -1       537 3.47706E-03 5.33667E-04-1.05137E-14
 -1       538 3.76059E-03 5.32728E-04-1.22906E-14
 -1       539 4.04462E-03 5.30702E-04-1.42018E-14
 -1       540 4.32915E-03 5.27801E-04-1.62460E-14
 -1       541 4.61419E-03 5.24134E-04-1.84196E-14
 -1       542 4.89977E-03 5.19739E-04-2.07239E-14
 -1       543 5.18597E-03 5.14613E-04-2.31548E-14
 -1       544 5.47288E-03 5.08745E-04-2.57125E-14
 -1       545 5.76064E-03 5.02149E-04-2.83953E-14
 -1       546 6.04945E-03 4.94912E-04-3.12001E-14
 -1       547 6.33954E-03 4.87244E-04-3.41215E-14
 -1       548 6.63123E-03 4.79544E-04-3.71602E-14
 -1       549 6.92488E-03 4.72481E-04-4.03077E-14
 -1       550 7.22091E-03 4.67081E-04-4.35661E-14
 -1       551 7.51983E-03 4.64813E-04-4.69304E-14
 -1       552 7.82217E-03 4.67649E-04-5.04006E-14
 -1       553 8.12849E-03 4.78060E-04-5.39726E-14
 -1       554 8.43925E-03 4.98861E-04-5.76484E-14
 -1       555 8.75462E-03 5.32796E-04-6.14248E-14
 -1       556 9.07411E-03 5.81702E-04-6.52907E-14
 -1       557 9.39613E-03 6.45124E-04-6.92386E-14
 -1       558 9.71770E-03 7.18451E-04-7.32647E-14
 -1       559 1.00349E-02 7.91277E-04-7.73662E-14
 -1       560 1.03446E-02 8.47586E-04-8.15379E-14
 -1       561 1.06468E-02 8.69616E-04-8.57782E-14
 -1       562 1.09456E-02 8.45284E-04-9.00727E-14
 -1       563 1.12472E-02 7.74438E-04-9.44211E-14
 -1       564 1.15556E-02 6.68914E-04-9.88297E-14
 -1       565 1.18708E-02 5.46235E-04-1.03294E-13
 -1       566 1.21898E-02 4.22178E-04-1.07817E-13
 -1       567 1.25084E-02 3.06761E-04-1.12387E-13
 -1       568 1.28235E-02 2.03944E-04-1.16993E-13
 -1       569 1.31336E-02 1.13246E-04-1.21624E-13
 -1       570 1.34380E-02 3.15826E-05-1.26280E-13
 -1       571 1.37368E-02-4.53261E-05-1.30960E-13
 -1       572 1.40305E-02-1.22043E-04-1.35673E-13
 -1       573 1.43970E-02-3.76811E-04-1.35625E-13
 -1       574 1.44981E-02-4.43947E-04-1.35509E-13
 -1       575 1.41814E-02-2.28689E-04-1.35824E-13
 -1       576 1.42900E-02-3.04998E-04-1.35726E-13
 -1       577 1.45868E-02-5.05615E-04-1.35379E-13
 -1       578 1.46576E-02-5.62567E-04-1.35240E-13
 -1       579 1.47067E-02-6.16623E-04-1.35092E-13
 -1       580 1.47322E-02-6.69477E-04-1.34935E-13
 -1       581 1.47369E-02-7.25731E-04-1.34752E-13
 -1       582 1.47248E-02-7.86871E-04-1.34555E-13
 -1       583 1.47031E-02-8.54383E-04-1.34349E-13
 -1       584 1.27597E-02-1.86137E-04-1.01896E-13
 -1       585 1.32964E-02-4.13412E-04-1.03536E-13
 -1       586 1.50115E-03 4.50257E-04-1.91296E-15
 -1       587 1.32973E-02-3.82258E-04-1.04780E-13
 -1       588 1.11793E-02-1.33684E-03-8.76100E-14
 -1       589 1.15278E-02 4.66571E-04-9.39066E-14
 -1       590 9.30899E-03-4.38602E-04-7.38790E-14
 -1       591 9.67053E-03-6.25169E-04-7.57355E-14
 -1       592 6.63849E-04-3.65433E-05-5.63741E-16
 -1       593 1.11756E-02 6.27821E-04-9.07106E-14
 -1       594 1.08388E-02-1.28208E-03-8.42546E-14
 -1       595 1.01611E-02 4.84493E-04-8.04574E-14
 -1       596 9.72377E-03 2.56481E-04-7.72340E-14
 -1       597 9.37656E-03 8.23438E-05-7.55340E-14
 -1       598 9.06598E-03-4.72980E-05-7.38960E-14
 -1       599 8.83158E-03-1.30640E-04-7.27842E-14
 -1       600 1.05186E-02-1.13361E-03-8.14483E-14
 -1       601 8.94743E-03-2.88028E-04-7.23671E-14
 -1       602 8.70803E-03-1.85098E-04-7.22851E-14
 -1       603 1.05423E-02 6.36006E-04-8.41354E-14
 -1       604 1.31687E-02-4.65858E-04-1.02774E-13
 -1       605 8.74804E-03-2.18718E-04-7.20295E-14
 -1       606 1.15344E-02-1.26105E-03-9.12179E-14
 -1       607 1.18498E-02-1.10564E-03-9.39909E-14
 -1       608 1.22173E-02-9.05052E-04-9.69612E-14
 -1       609 1.25825E-02-7.13457E-04-9.94238E-14
 -1       610 1.29154E-02-5.63370E-04-1.01474E-13
 -1       611 1.23116E-02 2.62134E-05-1.00151E-13
 -1       612 1.18801E-02 2.66369E-04-9.68257E-14
 -1       613 7.03773E-04 2.90970E-04-4.01060E-16
 -1       614 6.76642E-04-1.60125E-04-5.13373E-16
 -1       615 1.46319E-02-9.13146E-04-1.33330E-13
 -1       616 1.32460E-02-3.61733E-04-1.05752E-13
 -1       617 8.71848E-03-1.51368E-04-7.09546E-14
 -1       618 8.99886E-04 7.41536E-05-9.70100E-16
 -1       619 8.97812E-04 2.51940E-05-9.75128E-16
 -1       620 9.11895E-04 1.78312E-04-9.32160E-16
 -1       621 9.24216E-04 2.36898E-04-8.94236E-16
 -1       622 1.33459E-03 3.61646E-04-1.65244E-15
 -1       623 1.09771E-03-2.94745E-04-1.14376E-15
 -1       624 1.30118E-02-2.80991E-04-1.05034E-13
 -1       625 2.47537E-03 4.48170E-04-5.48890E-15
 -1       626 1.38329E-03-3.37129E-04-1.77056E-15
 -1       627 1.66949E-03-3.68020E-04-2.53579E-15
 -1       628 1.95570E-03-3.89731E-04-3.43792E-15
 -1       629 2.24175E-03-4.04409E-04-4.47644E-15
 -1       630 2.52761E-03-4.13829E-04-5.65031E-15
 -1       631 2.81333E-03-4.19384E-04-6.95957E-15
 -1       632 3.09897E-03-4.22135E-04-8.40305E-15
 -1       633 3.38457E-03-4.22861E-04-9.97811E-15
 -1       634 3.67017E-03-4.22115E-04-1.16840E-14
 -1       635 3.95578E-03-4.20266E-04-1.35209E-14
 -1       636 4.24144E-03-4.17538E-04-1.54874E-14
 -1       637 4.52714E-03-4.14045E-04-1.75839E-14
 -1       638 4.81291E-03-4.09818E-04-1.98075E-14
 -1       639 5.09875E-03-4.04831E-04-2.21601E-14
 -1       640 5.38465E-03-3.99027E-04-2.46407E-14
 -1       641 5.67062E-03-3.92343E-04-2.72486E-14
 -1       642 5.95664E-03-3.84747E-04-2.99849E-14
 -1       643 6.24268E-03-3.76279E-04-3.28426E-14
 -1       644 6.52870E-03-3.67101E-04-3.58177E-14
 -1       645 6.81461E-03-3.57574E-04-3.89097E-14
 -1       646 7.10038E-03-3.48351E-04-4.21116E-14
 -1       647 7.38597E-03-3.40491E-04-4.54194E-14
 -1       648 7.67153E-03-3.35607E-04-4.88297E-14
 -1       649 7.95759E-03-3.36040E-04-5.23340E-14
 -1       650 8.24547E-03-3.45094E-04-5.59297E-14
 -1       651 8.53795E-03-3.67400E-04-5.96064E-14
 -1       652 8.84020E-03-4.09622E-04-6.33641E-14
 -1       653 9.16047E-03-4.81644E-04-6.71972E-14
 -1       654 9.50952E-03-5.98342E-04-7.11013E-14
 -1       655 1.20090E-02-1.05675E-03-9.61435E-14
 -1       656 1.24147E-02-8.94408E-04-1.00561E-13
 -1       657 1.27873E-02-7.93605E-04-1.05028E-13
 -1       658 1.31262E-02-7.46782E-04-1.09536E-13
 -1       659 1.34404E-02-7.36913E-04-1.14087E-13
 -1       660 1.37396E-02-7.50518E-04-1.18683E-13
 -1       661 1.40308E-02-7.77908E-04-1.23321E-13
 -1       662 1.43178E-02-8.11657E-04-1.27988E-13
 -1       663 2.19061E-03 4.37325E-04-4.32297E-15
 -1       664 1.33141E-02-4.49720E-04-1.05904E-13
 -1       665 1.90562E-03 4.20684E-04-3.29402E-15
 -1       666 2.76005E-03 4.54759E-04-6.79273E-15
 -1       667 3.04474E-03 4.58261E-04-8.23491E-15
 -1       668 3.32950E-03 4.59538E-04-9.81267E-15
 -1       669 3.61440E-03 4.59203E-04-1.15238E-14
 -1       670 3.89945E-03 4.57675E-04-1.33673E-14
 -1       671 4.18468E-03 4.55220E-04-1.53440E-14
 -1       672 4.47010E-03 4.51983E-04-1.74519E-14
 -1       673 4.75573E-03 4.48028E-04-1.96870E-14
 -1       674 5.04161E-03 4.43359E-04-2.20510E-14
 -1       675 5.32778E-03 4.37955E-04-2.45416E-14
 -1       676 5.61430E-03 4.31796E-04-2.71561E-14
 -1       677 5.90126E-03 4.24903E-04-2.98943E-14
 -1       678 6.18880E-03 4.17381E-04-3.27536E-14
 -1       679 6.47710E-03 4.09470E-04-3.57285E-14
 -1       680 6.76641E-03 4.01611E-04-3.88160E-14
 -1       681 7.05708E-03 3.94526E-04-4.20129E-14
 -1       682 7.34964E-03 3.89301E-04-4.53216E-14
 -1       683 7.64480E-03 3.87476E-04-4.87317E-14
 -1       684 7.94351E-03 3.91113E-04-5.22472E-14
 -1       685 8.24702E-03 4.02825E-04-5.58638E-14
 -1       686 8.55670E-03 4.25674E-04-5.95811E-14
 -1       687 8.87377E-03 4.62825E-04-6.33926E-14
 -1       688 9.19855E-03 5.16671E-04-6.72899E-14
 -1       689 9.52941E-03 5.87044E-04-7.12712E-14
 -1       690 9.86200E-03 6.68287E-04-7.53280E-14
 -1       691 1.01901E-02 7.46386E-04-7.94546E-14
 -1       692 1.05090E-02 7.99099E-04-8.36546E-14
 -1       693 1.08203E-02 8.03719E-04-8.79115E-14
 -1       694 1.11314E-02 7.50441E-04-9.22240E-14
 -1       695 1.14499E-02 6.48769E-04-9.65980E-14
 -1       696 1.17773E-02 5.21093E-04-1.01029E-13
 -1       697 1.21091E-02 3.89555E-04-1.05517E-13
 -1       698 1.24388E-02 2.67998E-04-1.10057E-13
 -1       699 1.27621E-02 1.61586E-04-1.14635E-13
 -1       700 1.30772E-02 6.97357E-05-1.19243E-13
 -1       701 1.33842E-02-1.09925E-05-1.23879E-13
 -1       702 1.36842E-02-8.51053E-05-1.28545E-13
 -1       703 1.39347E-02-1.57170E-04-1.32178E-13
 -1       704 1.43938E-02-4.95021E-04-1.31259E-13
 -1       705 1.42074E-02-3.62522E-04-1.31510E-13
 -1       706 1.44573E-02-5.52866E-04-1.31112E-13
 -1       707 1.43084E-02-4.31944E-04-1.31390E-13
 -1       708 1.62028E-03 3.96269E-04-2.40353E-15
 -1       709 1.44947E-02-6.07183E-04-1.30953E-13
 -1       710 1.45071E-02-6.63279E-04-1.30778E-13
 -1       711 1.44974E-02-7.23518E-04-1.30585E-13
 -1       712 8.65870E-03-1.83569E-04-6.99208E-14
 -1       713 1.09435E-02 6.93259E-04-8.85254E-14
 -1       714 1.03723E-02 6.05458E-04-8.20501E-14
 -1       715 9.16974E-03 2.26475E-05-7.28270E-14
 -1       716 1.28154E-02-6.45348E-04-1.02661E-13
 -1       717 9.07218E-03-3.39810E-04-7.10887E-14
 -1       718 1.16850E-02 3.86918E-04-9.63525E-14
 -1       719 9.04306E-04 1.24681E-04-9.56412E-16
 -1       720 9.03943E-04-1.22280E-04-9.41948E-16
 -1       721 1.33885E-02-4.17916E-04-1.07160E-13
 -1       722 1.13623E-02 5.58411E-04-9.32352E-14
 -1       723 1.26419E-02-1.20401E-04-1.03806E-13
 -1       724 9.46338E-03-5.20817E-04-7.30601E-14
 -1       725 9.88155E-03 3.88666E-04-7.72441E-14
 -1       726 9.46980E-03 1.63166E-04-7.44986E-14
 -1       727 8.87853E-03-8.30490E-05-7.10379E-14
 -1       728 8.77029E-03-2.28354E-04-7.00735E-14
 -1       729 1.45110E-02-8.33825E-04-1.31165E-13
 -1       730 1.31211E-02-5.15913E-04-1.04495E-13
 -1       731 1.06647E-02 6.86157E-04-8.52713E-14
 -1       732 1.24541E-02-8.15386E-04-9.98830E-14
 -1       733 1.20672E-02 1.77235E-04-9.99555E-14
 -1       734 9.86782E-03-7.47625E-04-7.54938E-14
 -1       735 1.06615E-03 3.18181E-04-1.07406E-15
 -1       736 9.11328E-04-1.75712E-04-9.11899E-16
 -1       737 8.97750E-04-2.31696E-05-9.72252E-16
 -1       738 1.40457E-02-2.38528E-04-1.32088E-13
 -1       739 1.00890E-02 5.24963E-04-7.88072E-14
 -1       740 1.44727E-02-7.90123E-04-1.30382E-13
 -1       741 1.11306E-02 6.62970E-04-9.10262E-14
 -1       742 9.38245E-04-2.47247E-04-8.78807E-16
 -1       743 8.84882E-03-2.67777E-04-6.88107E-14
 -1       744 1.24100E-02 2.00311E-05-1.03614E-13
 -1       745 1.41277E-02-3.02045E-04-1.31802E-13
 -1       746 1.33896E-02-4.02983E-04-1.08139E-13
 -1       747 8.99680E-04-7.18654E-05-9.61474E-16
 -1       748 1.16160E-03 2.43745E-04-1.40720E-15
 -1       749 1.42769E-02-6.57829E-04-1.26630E-13
 -1       750 8.94632E-03-8.50856E-06-6.98272E-14
 -1       751 1.15389E-02 4.93133E-04-9.58404E-14
 -1       752 1.51029E-03-2.86588E-04-2.21492E-15
 -1       753 1.79739E-03-3.09509E-04-3.06153E-15
 -1       754 2.08507E-03-3.25500E-04-4.04287E-15
 -1       755 2.37289E-03-3.36135E-04-5.15898E-15
 -1       756 2.66061E-03-3.42745E-04-6.40984E-15
 -1       757 2.94812E-03-3.46391E-04-7.79413E-15
 -1       758 3.23539E-03-3.47884E-04-9.30982E-15
 -1       759 3.52240E-03-3.47817E-04-1.09559E-14
 -1       760 3.80915E-03-3.46601E-04-1.27325E-14
 -1       761 4.09565E-03-3.44501E-04-1.46383E-14
 -1       762 4.38190E-03-3.41670E-04-1.66738E-14
 -1       763 4.66789E-03-3.38174E-04-1.88365E-14
 -1       764 4.95360E-03-3.34015E-04-2.11264E-14
 -1       765 5.23896E-03-3.29158E-04-2.35461E-14
 -1       766 5.52391E-03-3.23557E-04-2.60936E-14
 -1       767 5.80833E-03-3.17175E-04-2.87679E-14
 -1       768 6.09204E-03-3.10025E-04-3.15665E-14
 -1       769 6.37483E-03-3.02206E-04-3.44856E-14
 -1       770 6.65640E-03-2.93957E-04-3.75186E-14
 -1       771 6.93642E-03-2.85712E-04-4.06651E-14
 -1       772 7.21447E-03-2.78173E-04-4.39205E-14
 -1       773 7.49018E-03-2.72376E-04-4.72805E-14
 -1       774 7.76331E-03-2.69761E-04-5.07382E-14
 -1       775 8.03402E-03-2.72237E-04-5.42883E-14
 -1       776 8.30338E-03-2.82325E-04-5.79251E-14
 -1       777 8.57417E-03-3.03522E-04-6.16434E-14
 -1       778 8.85293E-03-3.42007E-04-6.54415E-14
 -1       779 9.14143E-03-4.06351E-04-6.92178E-14
 -1       780 1.07635E-02-1.26070E-03-8.32109E-14
 -1       781 2.60678E-03 3.77887E-04-6.22762E-15
 -1       782 1.30862E-02-6.50642E-04-1.07468E-13
 -1       783 1.33812E-02-6.45895E-04-1.11995E-13
 -1       784 1.36616E-02-6.63548E-04-1.16567E-13
 -1       785 1.39365E-02-6.93626E-04-1.21183E-13
 -1       786 2.31985E-03 3.70006E-04-4.98826E-15
 -1       787 2.03278E-03 3.57584E-04-3.88423E-15
 -1       788 1.42590E-02-5.45091E-04-1.26992E-13
 -1       789 3.18011E-03 3.84545E-04-9.11553E-15
 -1       790 3.46652E-03 3.84911E-04-1.07622E-14
 -1       791 3.75278E-03 3.83996E-04-1.25400E-14
 -1       792 4.03892E-03 3.82113E-04-1.44494E-14
 -1       793 4.32493E-03 3.79446E-04-1.64895E-14
 -1       794 4.61083E-03 3.76086E-04-1.86593E-14
 -1       795 4.89663E-03 3.72056E-04-2.09563E-14
 -1       796 5.18233E-03 3.67337E-04-2.33788E-14
 -1       797 5.46792E-03 3.61893E-04-2.59279E-14
 -1       798 5.75343E-03 3.55700E-04-2.85995E-14
 -1       799 6.03887E-03 3.48779E-04-3.13946E-14
 -1       800 6.32431E-03 3.41237E-04-3.43085E-14
 -1       801 6.60988E-03 3.33312E-04-3.73334E-14
 -1       802 6.89580E-03 3.25436E-04-4.04700E-14
 -1       803 7.18248E-03 3.18303E-04-4.37186E-14
 -1       804 7.47060E-03 3.12952E-04-4.70742E-14
 -1       805 7.76118E-03 3.10869E-04-5.05335E-14
 -1       806 8.05579E-03 3.14102E-04-5.40931E-14
 -1       807 8.35654E-03 3.25396E-04-5.77524E-14
 -1       808 8.66603E-03 3.48301E-04-6.15071E-14
 -1       809 8.98685E-03 3.87074E-04-6.53508E-14
 -1       810 9.32034E-03 4.45872E-04-6.92804E-14
 -1       811 9.66453E-03 5.26208E-04-7.32949E-14
 -1       812 1.00123E-02 6.21014E-04-7.73769E-14
 -1       813 1.03541E-02 7.09074E-04-8.15310E-14
 -1       814 1.06831E-02 7.55653E-04-8.57543E-14
 -1       815 1.10061E-02 7.31460E-04-9.00320E-14
 -1       816 1.13355E-02 6.36076E-04-9.43707E-14
 -1       817 1.16772E-02 4.98382E-04-9.87673E-14
 -1       818 1.20255E-02 3.53337E-04-1.03223E-13
 -1       819 1.23704E-02 2.22171E-04-1.07731E-13
 -1       820 1.27045E-02 1.11686E-04-1.12284E-13
 -1       821 1.30261E-02 1.97670E-05-1.16870E-13
 -1       822 1.33361E-02-5.85365E-05-1.21489E-13
 -1       823 1.36369E-02-1.28625E-04-1.26137E-13
 -1       824 1.38429E-02-1.84326E-04-1.29109E-13
 -1       825 8.69075E-03-1.14139E-04-6.87528E-14
 -1       826 1.42045E-02-4.88385E-04-1.27146E-13
 -1       827 9.19977E-03 9.55916E-05-7.14692E-14
 -1       828 8.60755E-03-1.87745E-04-6.73424E-14
 -1       829 1.42823E-02-5.99893E-04-1.26818E-13
 -1       830 1.31007E-02-5.94735E-04-1.06547E-13
 -1       831 8.58345E-03-1.52593E-04-6.77410E-14
 -1       832 1.34535E-02-4.59424E-04-1.09433E-13
 -1       833 9.54103E-03 2.82532E-04-7.35698E-14
 -1       834 1.22459E-03-2.55119E-04-1.50444E-15
 -1       835 2.89353E-03 3.82428E-04-7.60399E-15
 -1       836 1.42496E-02-7.22832E-04-1.26430E-13
 -1       837 1.06668E-03-2.15029E-04-1.19145E-15
 -1       838 1.18840E-02 3.11535E-04-9.94415E-14
 -1       839 1.29703E-02-2.30839E-04-1.07628E-13
 -1       840 1.32291E-02-3.39670E-04-1.08176E-13
 -1       841 1.33223E-02-5.03449E-04-1.08017E-13
 -1       842 1.27701E-02-7.17397E-04-1.03547E-13
 -1       843 1.13844E-03 5.90838E-05-1.48349E-15
 -1       844 1.24623E-03 3.00927E-04-1.53328E-15
 -1       845 1.13708E-03 1.19954E-06-1.48480E-15
 -1       846 1.14252E-03 1.17862E-04-1.47163E-15
 -1       847 8.72588E-03-5.52399E-05-6.75581E-14
 -1       848 1.74572E-03 3.39112E-04-2.91591E-15
 -1       849 1.40211E-02-3.55622E-04-1.27406E-13
 -1       850 9.75174E-03 4.16858E-04-7.51009E-14
 -1       851 1.34976E-02-4.42922E-04-1.10423E-13
 -1       852 1.41228E-02-4.26024E-04-1.27285E-13
 -1       853 1.03550E-02 6.61564E-04-8.15813E-14
 -1       854 1.08611E-02 7.29437E-04-8.78941E-14
 -1       855 1.14989E-03 1.79179E-04-1.44707E-15
 -1       856 1.22162E-02 1.55032E-04-1.03097E-13
 -1       857 8.63277E-03-2.16615E-04-6.61015E-14
 -1       858 1.39383E-02-2.92418E-04-1.27700E-13
 -1       859 1.14217E-03-1.15254E-04-1.45435E-15
 -1       860 1.27642E-02-1.16322E-04-1.07440E-13
 -1       861 1.10299E-03-1.65277E-04-1.32533E-15
 -1       862 1.49561E-03 3.24181E-04-2.17031E-15
 -1       863 1.92974E-03-2.47744E-04-3.61172E-15
 -1       864 2.21857E-03-2.58738E-04-4.66963E-15
 -1       865 2.50767E-03-2.65881E-04-5.86159E-15
 -1       866 2.79669E-03-2.70126E-04-7.18716E-15
 -1       867 3.08544E-03-2.72237E-04-8.64444E-15
 -1       868 3.37381E-03-2.72796E-04-1.02312E-14
 -1       869 3.66173E-03-2.72220E-04-1.19469E-14
 -1       870 3.94918E-03-2.70795E-04-1.37931E-14
 -1       871 4.23613E-03-2.68696E-04-1.57676E-14
 -1       872 4.52256E-03-2.66016E-04-1.78702E-14
 -1       873 4.80842E-03-2.62788E-04-2.00996E-14
 -1       874 5.09363E-03-2.59003E-04-2.24573E-14
 -1       875 5.37807E-03-2.54636E-04-2.49445E-14
 -1       876 5.66155E-03-2.49663E-04-2.75571E-14
 -1       877 5.94384E-03-2.44093E-04-3.02962E-14
 -1       878 6.22461E-03-2.37997E-04-3.31573E-14
 -1       879 6.50345E-03-2.31542E-04-3.61349E-14
 -1       880 6.77983E-03-2.25037E-04-3.92257E-14
 -1       881 7.05311E-03-2.18968E-04-4.24254E-14
 -1       882 7.32253E-03-2.14035E-04-4.57321E-14
 -1       883 7.58725E-03-2.11158E-04-4.91430E-14
 -1       884 7.84642E-03-2.11457E-04-5.26481E-14
 -1       885 8.09926E-03-2.16187E-04-5.62420E-14
 -1       886 8.34552E-03-2.26840E-04-5.99213E-14
 -1       887 1.39847E-02-6.23546E-04-1.21390E-13
 -1       888 1.36022E-02-5.79156E-04-1.14458E-13
 -1       889 1.37929E-02-5.99580E-04-1.17912E-13
 -1       890 2.45294E-03 3.00630E-04-5.66898E-15
 -1       891 2.16439E-03 2.91925E-04-4.49224E-15
 -1       892 3.31753E-03 3.09859E-04-1.00068E-14
 -1       893 4.17901E-03 3.06352E-04-1.55347E-14
 -1       894 4.46539E-03 3.03706E-04-1.76380E-14
 -1       895 4.75136E-03 3.00457E-04-1.98692E-14
 -1       896 5.03690E-03 2.96599E-04-2.22268E-14
 -1       897 5.32195E-03 2.92093E-04-2.47095E-14
 -1       898 5.60647E-03 2.86892E-04-2.73158E-14
 -1       899 5.89039E-03 2.80961E-04-3.00458E-14
 -1       900 6.17365E-03 2.74310E-04-3.28984E-14
 -1       901 6.45626E-03 2.67016E-04-3.58619E-14
 -1       902 6.73827E-03 2.59271E-04-3.89381E-14
 -1       903 7.01988E-03 2.51423E-04-4.21276E-14
 -1       904 7.30155E-03 2.44036E-04-4.54267E-14
 -1       905 7.58409E-03 2.37974E-04-4.88301E-14
 -1       906 7.86886E-03 2.34530E-04-5.23342E-14
 -1       907 8.15803E-03 2.35630E-04-5.59364E-14
 -1       908 8.45472E-03 2.44185E-04-5.96346E-14
 -1       909 8.76307E-03 2.64612E-04-6.34247E-14
 -1       910 9.08768E-03 3.03334E-04-6.73020E-14
 -1       911 9.43175E-03 3.68188E-04-7.12647E-14
 -1       912 1.29844E-02-3.84901E-05-1.14502E-13
 -1       913 1.32957E-02-1.12353E-04-1.19102E-13
 -1       914 1.35954E-02-1.76931E-04-1.23727E-13
 -1       915 3.02963E-03 3.08813E-04-8.42564E-15
 -1       916 1.40226E-02-4.84371E-04-1.23051E-13
 -1       917 1.34452E-02-3.93580E-04-1.11259E-13
 -1       918 2.74141E-03 3.05962E-04-6.98006E-15
 -1       919 8.94171E-03 7.79862E-05-6.80170E-14
 -1       920 1.32613E-02-3.10329E-04-1.11233E-13
 -1       921 3.89223E-03 3.08354E-04-1.35626E-14
 -1       922 3.60507E-03 3.09594E-04-1.17191E-14
 -1       923 8.53483E-03-1.13395E-04-6.59215E-14
 -1       924 1.13828E-03-5.65369E-05-1.47507E-15
 -1       925 1.38903E-02-2.38843E-04-1.28407E-13
 -1       926 1.64178E-03-2.31777E-04-2.68741E-15
 -1       927 8.47220E-03-1.52423E-04-6.49276E-14
 -1       928 1.25915E-03-1.99702E-04-1.66114E-15
 -1       929 1.35169E-02-5.13888E-04-1.11840E-13
 -1       930 1.33386E-02-5.72313E-04-1.10006E-13
 -1       931 1.41049E-03 2.66032E-04-2.01842E-15
 -1       932 1.38441E-03 1.00013E-04-2.08960E-15
 -1       933 1.87605E-03 2.78745E-04-3.44958E-15
 -1       934 8.58631E-03-2.45718E-04-6.36850E-14
 -1       935 1.39457E-02-4.24778E-04-1.23194E-13
 -1       936 8.71457E-03 2.16083E-05-6.57745E-14
 -1       937 1.00546E-02 5.99408E-04-7.79771E-14
 -1       938 1.30888E-02-2.22559E-04-1.11047E-13
 -1       939 1.26570E-02 5.22805E-05-1.09939E-13
 -1       940 1.40630E-02-5.38186E-04-1.22885E-13
 -1       941 1.40369E-02-5.78528E-04-1.22143E-13
 -1       942 1.38127E-03 3.39819E-05-2.09699E-15
 -1       943 1.37318E-02-2.77344E-04-1.23535E-13
 -1       944 1.38410E-03-9.70830E-05-2.07243E-15
 -1       945 1.38463E-02-3.56209E-04-1.23369E-13
 -1       946 9.17702E-03 2.00431E-04-6.95325E-14
 -1       947 1.35876E-02-4.91492E-04-1.12840E-13
 -1       948 8.45278E-03-1.75535E-04-6.37107E-14
 -1       949 1.32037E-03-1.49368E-04-1.86638E-15
 -1       950 1.39089E-03 1.67517E-04-2.06830E-15
 -1       951 2.35561E-03-1.89589E-04-5.31699E-15
 -1       952 2.64562E-03-1.93863E-04-6.58323E-15
 -1       953 2.93551E-03-1.96240E-04-7.98140E-15
 -1       954 3.22503E-03-1.97220E-04-9.50974E-15
 -1       955 3.51403E-03-1.97180E-04-1.11659E-14
 -1       956 3.80242E-03-1.96388E-04-1.29515E-14
 -1       957 4.09016E-03-1.95019E-04-1.48652E-14
 -1       958 4.37718E-03-1.93178E-04-1.69094E-14
 -1       959 4.66343E-03-1.90917E-04-1.90781E-14
 -1       960 4.94881E-03-1.88250E-04-2.13750E-14
 -1       961 5.23319E-03-1.85174E-04-2.38014E-14
 -1       962 5.51636E-03-1.81686E-04-2.63531E-14
 -1       963 5.79805E-03-1.77801E-04-2.90318E-14
 -1       964 6.07790E-03-1.73581E-04-3.18331E-14
 -1       965 6.35545E-03-1.69161E-04-3.47537E-14
 -1       966 6.63011E-03-1.64777E-04-3.77897E-14
 -1       967 6.90113E-03-1.60798E-04-4.09357E-14
 -1       968 7.16762E-03-1.57743E-04-4.41896E-14
 -1       969 7.42845E-03-1.56286E-04-4.75475E-14
 -1       970 7.68223E-03-1.57216E-04-5.10075E-14
 -1       971 7.92720E-03-1.61347E-04-5.45591E-14
 -1       972 8.16112E-03-1.69328E-04-5.81976E-14
 -1       973 2.58939E-03 2.29400E-04-6.36446E-15
 -1       974 2.29976E-03 2.23824E-04-5.11795E-15
 -1       975 3.45685E-03 2.34509E-04-1.09068E-14
 -1       976 4.31969E-03 2.30716E-04-1.66258E-14
 -1       977 5.17663E-03 2.22032E-04-2.35002E-14
 -1       978 5.46064E-03 2.18030E-04-2.60419E-14
 -1       979 5.74365E-03 2.13383E-04-2.87080E-14
 -1       980 6.02551E-03 2.08039E-04-3.14958E-14
 -1       981 6.30607E-03 2.01968E-04-3.44010E-14
 -1       982 6.58523E-03 1.95190E-04-3.74171E-14
 -1       983 6.86296E-03 1.87790E-04-4.05458E-14
 -1       984 7.13937E-03 1.79954E-04-4.37876E-14
 -1       985 7.41488E-03 1.72015E-04-4.71362E-14
 -1       986 7.69030E-03 1.64530E-04-5.05859E-14
 -1       987 7.96715E-03 1.58447E-04-5.41335E-14
 -1       988 8.24799E-03 1.55434E-04-5.77768E-14
 -1       989 8.53695E-03 1.58554E-04-6.15143E-14
 -1       990 8.83976E-03 1.73425E-04-6.53387E-14
 -1       991 1.29596E-02-1.05687E-04-1.12138E-13
 -1       992 1.32677E-02-1.73127E-04-1.16714E-13
 -1       993 3.16812E-03 2.34205E-04-9.25963E-15
 -1       994 8.50377E-03-5.51005E-05-6.41436E-14
 -1       995 2.87892E-03 2.32656E-04-7.74525E-15
 -1       996 4.03268E-03 2.32591E-04-1.45893E-14
 -1       997 4.89174E-03 2.25448E-04-2.10817E-14
 -1       998 1.38118E-03-3.13332E-05-2.09137E-15
 -1       999 8.37274E-03-1.12392E-04-6.29008E-14
 -1      1000 3.74505E-03 2.33898E-04-1.26830E-14
 -1      1001 1.25187E-02 3.62269E-05-1.06639E-13
 -1      1002 1.35230E-02-3.77220E-04-1.14628E-13
 -1      1003 1.64279E-03 2.75334E-04-2.68758E-15
 -1      1004 1.77703E-03-1.72695E-04-3.18607E-15
 -1      1005 1.36397E-02-4.47726E-04-1.14421E-13
 -1      1006 4.60606E-03 2.28333E-04-1.87904E-14
 -1      1007 1.36853E-02-5.43115E-04-1.15372E-13
 -1      1008 2.06587E-03-1.82786E-04-4.18478E-15
 -1      1009 2.01041E-03 2.15160E-04-4.00390E-15
 -1      1010 1.37805E-02-4.25993E-04-1.19117E-13
 -1      1011 1.38603E-02-5.59819E-04-1.18747E-13
 -1      1012 1.62940E-03-7.02047E-05-2.79256E-15
 -1      1013 1.63471E-03 1.45844E-04-2.79127E-15
 -1      1014 8.63709E-03 9.15073E-05-6.36403E-14
 -1      1015 1.62956E-03 7.31978E-05-2.80706E-15
 -1      1016 8.31499E-03-1.36270E-04-6.17081E-14
 -1      1017 1.38478E-02-4.80452E-04-1.18959E-13
 -1      1018 1.34084E-02-3.02757E-04-1.15272E-13
 -1      1019 2.49576E-03-1.18277E-04-5.98490E-15
 -1      1020 5.59870E-03 1.45502E-04-2.73789E-14
 -1      1021 1.91737E-03-7.54180E-05-3.73497E-15
 -1      1022 2.78636E-03-1.20353E-04-7.32279E-15
 -1      1023 3.07672E-03-1.21384E-04-8.79190E-15
 -1      1024 3.36659E-03-1.21646E-04-1.03896E-14
 -1      1025 3.65582E-03-1.21345E-04-1.21144E-14
 -1      1026 3.94431E-03-1.20624E-04-1.39683E-14
 -1      1027 4.23198E-03-1.19572E-04-1.59512E-14
 -1      1028 4.51877E-03-1.18246E-04-1.80628E-14
 -1      1029 4.80456E-03-1.16670E-04-2.02989E-14
 -1      1030 5.08923E-03-1.14859E-04-2.26636E-14
 -1      1031 5.37258E-03-1.12828E-04-2.51568E-14
 -1      1032 5.65435E-03-1.10604E-04-2.77745E-14
 -1      1033 5.93417E-03-1.08250E-04-3.05153E-14
 -1      1034 6.21161E-03-1.05881E-04-3.33766E-14
 -1      1035 6.48610E-03-1.03693E-04-3.63566E-14
 -1      1036 6.75692E-03-1.01979E-04-3.94489E-14
 -1      1037 7.02320E-03-1.01157E-04-4.26496E-14
 -1      1038 7.28385E-03-1.01773E-04-4.59558E-14
 -1      1039 7.53746E-03-1.04485E-04-4.93659E-14
 -1      1040 7.78217E-03-1.10036E-04-5.28747E-14
 -1      1041 8.01529E-03-1.19054E-04-5.64710E-14
 -1      1042 1.36935E-02-3.79098E-04-1.18893E-13
 -1      1043 2.20614E-03-9.69425E-05-4.79591E-15
 -1      1044 1.62782E-03 1.45421E-06-2.80716E-15
 -1      1045 5.31601E-03 1.48691E-04-2.47757E-14
 -1      1046 6.15938E-03 1.37318E-04-3.29452E-14
 -1      1047 6.43688E-03 1.32154E-04-3.59044E-14
 -1      1048 6.71214E-03 1.26168E-04-3.89755E-14
 -1      1049 6.98499E-03 1.19296E-04-4.21586E-14
 -1      1050 7.25535E-03 1.11498E-04-4.54516E-14
 -1      1051 7.52338E-03 1.02789E-04-4.88467E-14
 -1      1052 7.78963E-03 9.33116E-05-5.23422E-14
 -1      1053 8.05535E-03 8.35104E-05-5.59327E-14
 -1      1054 8.32290E-03 7.47173E-05-5.96177E-14
 -1      1055 2.72879E-03 1.56560E-04-7.07470E-15
 -1      1056 3.30870E-03 1.58906E-04-1.01040E-14
 -1      1057 2.43843E-03 1.53463E-04-5.75920E-15
 -1      1058 3.01897E-03 1.58250E-04-8.52364E-15
 -1      1059 1.38678E-02-5.18927E-04-1.18858E-13
 -1      1060 4.17403E-03 1.57015E-04-1.56232E-14
 -1      1061 5.03204E-03 1.51382E-04-2.22979E-14
 -1      1062 3.59785E-03 1.58803E-04-1.18141E-14
 -1      1063 3.88631E-03 1.58133E-04-1.36535E-14
 -1      1064 8.26370E-03-5.67771E-05-6.04454E-14
 -1      1065 1.35486E-02-2.77391E-04-1.19448E-13
 -1      1066 8.43208E-03 5.70797E-06-6.20450E-14
 -1      1067 5.87990E-03 1.41739E-04-3.01025E-14
 -1      1068 1.37845E-02-5.05647E-04-1.17108E-13
 -1      1069 4.46094E-03 1.55512E-04-1.77210E-14
 -1      1070 1.88665E-03 2.24420E-04-3.55246E-15
 -1      1071 2.14827E-03 1.48487E-04-4.57637E-15
 -1      1072 1.88104E-03 1.16566E-04-3.61395E-15
 -1      1073 4.74697E-03 1.53641E-04-1.99462E-14
 -1      1074 8.17651E-03-8.73108E-05-5.92819E-14
 -1      1075 2.63866E-03-4.51405E-05-6.67201E-15
 -1      1076 2.92949E-03-4.56934E-05-8.07993E-15
 -1      1077 3.21996E-03-4.58941E-05-9.61816E-15
 -1      1078 3.50982E-03-4.58380E-05-1.12827E-14
 -1      1079 3.79894E-03-4.55938E-05-1.30763E-14
 -1      1080 4.08721E-03-4.52093E-05-1.49985E-14
 -1      1081 4.37456E-03-4.47168E-05-1.70489E-14
 -1      1082 4.66089E-03-4.41390E-05-1.92274E-14
 -1      1083 4.94608E-03-4.34921E-05-2.15319E-14
 -1      1084 5.22995E-03-4.28123E-05-2.39638E-14
 -1      1085 5.51226E-03-4.21254E-05-2.65225E-14
 -1      1086 5.79272E-03-4.15003E-05-2.92043E-14
 -1      1087 6.07091E-03-4.10402E-05-3.20072E-14
 -1      1088 6.34636E-03-4.09047E-05-3.49286E-14
 -1      1089 6.61845E-03-4.13289E-05-3.79637E-14
 -1      1090 6.88645E-03-4.26423E-05-4.11130E-14
 -1      1091 7.14950E-03-4.52853E-05-4.43702E-14
 -1      1092 7.40648E-03-4.98160E-05-4.77268E-14
 -1      1093 7.65591E-03-5.68743E-05-5.11857E-14
 -1      1094 7.89595E-03-6.73664E-05-5.47436E-14
 -1      1095 6.01587E-03 7.22272E-05-3.14999E-14
 -1      1096 6.83832E-03 6.02656E-05-4.05366E-14
 -1      1097 5.45534E-03 7.68407E-05-2.60563E-14
 -1      1098 6.56716E-03 6.51508E-05-3.74107E-14
 -1      1099 6.29286E-03 6.90720E-05-3.43968E-14
 -1      1100 7.10592E-03 5.41724E-05-4.37739E-14
 -1      1101 7.36954E-03 4.65806E-05-4.71150E-14
 -1      1102 7.62883E-03 3.71649E-05-5.05569E-14
 -1      1103 7.88352E-03 2.56878E-05-5.40990E-14
 -1      1104 8.13407E-03 1.19284E-05-5.77318E-14
 -1      1105 2.87077E-03 8.24251E-05-7.79977E-15
 -1      1106 5.17246E-03 7.85227E-05-2.35179E-14
 -1      1107 2.58000E-03 8.11363E-05-6.41651E-15
 -1      1108 1.87755E-03 3.98365E-05-3.62204E-15
 -1      1109 5.73657E-03 7.47750E-05-2.87180E-14
 -1      1110 4.02867E-03 8.25915E-05-1.46316E-14
 -1      1111 3.45110E-03 8.32329E-05-1.09576E-14
 -1      1112 3.74029E-03 8.30479E-05-1.27293E-14
 -1      1113 3.16121E-03 8.30662E-05-9.31406E-15
 -1      1114 2.34927E-03-2.59799E-05-5.40927E-15
 -1      1115 2.28931E-03 7.89783E-05-5.16645E-15
 -1      1116 8.03298E-03-3.30071E-05-5.66778E-14
 -1      1117 4.31617E-03 8.19084E-05-1.66621E-14
 -1      1118 4.88819E-03 7.98975E-05-2.11057E-14
 -1      1119 2.11274E-03 8.19067E-06-4.47473E-15
 -1      1120 4.80358E-03 2.89873E-05-2.04043E-14
 -1      1121 2.12955E-03 8.17561E-05-4.53374E-15
 -1      1122 4.60271E-03 8.10123E-05-1.88202E-14
 -1      1123 0.00000E+00 0.00000E+00 0.00000E+00
 -1      1124 0.00000E+00 0.00000E+00 0.00000E+00
 -1      1125 0.00000E+00 0.00000E+00 0.00000E+00
 -1      1126 0.00000E+00 0.00000E+00 0.00000E+00
 -1      1127 0.00000E+00 0.00000E+00 0.00000E+00
 -1      1128 0.00000E+00 0.00000E+00 0.00000E+00
 -1      1129 0.00000E+00 0.00000E+00 0.00000E+00
 -1      1130 0.00000E+00 0.00000E+00 0.00000E+00
 -1      1131 0.00000E+00 0.00000E+00 0.00000E+00
 -1      1132 0.00000E+00 0.00000E+00 0.00000E+00
 -1      1133 0.00000E+00 0.00000E+00 0.00000E+00
 -1      1134 0.00000E+00 0.00000E+00 0.00000E+00
 -1      1135 0.00000E+00 0.00000E+00 0.00000E+00
 -1      1136 0.00000E+00 0.00000E+00 0.00000E+00
 -1      1137 0.00000E+00 0.00000E+00 0.00000E+00
 -1      1138 0.00000E+00 0.00000E+00 0.00000E+00
 -1      1139 0.00000E+00 0.00000E+00 0.00000E+00
 -1      1140 2.11661E-04-1.48338E-04 2.71051E-17
 -1      1141 5.51608E-04-3.37541E-04-7.64363E-18
 -1      1142 8.33394E-04-4.59053E-04-1.75519E-16
 -1      1143 1.10292E-03-5.40743E-04-5.00346E-16
 -1      1144 1.36828E-03-5.97983E-04-9.77042E-16
 -1      1145 1.63302E-03-6.38664E-04-1.60314E-15
 -1      1146 1.89899E-03-6.67427E-04-2.37749E-15
 -1      1147 2.16704E-03-6.87383E-04-3.29519E-15
 -1      1148 2.43746E-03-7.00803E-04-4.35506E-15
 -1      1149 2.71025E-03-7.09393E-04-5.55976E-15
 -1      1150 2.98524E-03-7.14437E-04-6.90618E-15
 -1      1151 3.26221E-03-7.16887E-04-8.38924E-15
 -1      1152 3.54091E-03-7.17438E-04-1.00075E-14
 -1      1153 3.82108E-03-7.16574E-04-1.17603E-14
 -1      1154 4.10253E-03-7.14617E-04-1.36439E-14
 -1      1155 4.38512E-03-7.11764E-04-1.56627E-14
 -1      1156 4.66876E-03-7.08112E-04-1.78121E-14
 -1      1157 4.95347E-03-7.03694E-04-2.00928E-14
 -1      1158 5.23936E-03-6.98497E-04-2.25031E-14
 -1      1159 5.52666E-03-6.92496E-04-2.50432E-14
 -1      1160 5.81577E-03-6.85685E-04-2.77121E-14
 -1      1161 6.10723E-03-6.78121E-04-3.05110E-14
 -1      1162 6.40182E-03-6.69978E-04-3.34293E-14
 -1      1163 6.70059E-03-6.61632E-04-3.64662E-14
 -1      1164 7.00485E-03-6.53778E-04-3.96177E-14
 -1      1165 7.31626E-03-6.47592E-04-4.28778E-14
 -1      1166 7.63675E-03-6.44969E-04-4.62370E-14
 -1      1167 7.96848E-03-6.48831E-04-4.96987E-14
 -1      1168 8.31347E-03-6.63488E-04-5.32651E-14
 -1      1169 8.67301E-03-6.94947E-04-5.69125E-14
 -1      1170 9.04659E-03-7.50843E-04-6.06340E-14
 -1      1171 9.43029E-03-8.39338E-04-6.44262E-14
 -1      1172 9.81511E-03-9.65957E-04-6.82891E-14
 -1      1173 1.01866E-02-1.12773E-03-7.22322E-14
 -1      1174 1.05280E-02-1.30621E-03-7.62562E-14
 -1      1175 1.08290E-02-1.46571E-03-8.03634E-14
 -1      1176 1.10955E-02-1.56425E-03-8.45490E-14
 -1      1177 1.13517E-02-1.57556E-03-8.88017E-14
 -1      1178 1.16270E-02-1.50598E-03-9.31117E-14
 -1      1179 1.19396E-02-1.39000E-03-9.74773E-14
 -1      1180 1.22881E-02-1.26903E-03-1.01909E-13
 -1      1181 1.26586E-02-1.17234E-03-1.06394E-13
 -1      1182 1.30340E-02-1.11135E-03-1.10938E-13
 -1      1183 1.34016E-02-1.08429E-03-1.15538E-13
 -1      1184 1.37540E-02-1.08306E-03-1.20186E-13
 -1      1185 1.40887E-02-1.09797E-03-1.24857E-13
 -1      1186 1.44059E-02-1.12002E-03-1.29542E-13
 -1      1187 1.47081E-02-1.14156E-03-1.34240E-13
 -1      1188 1.49993E-02-1.15679E-03-1.38964E-13
 -1      1189 1.52778E-02-1.16370E-03-1.43600E-13
 -1      1190 2.28420E-04 1.60717E-04 2.75929E-17
 -1      1191 5.53780E-04 3.42174E-04-2.08980E-17
 -1      1192 8.34323E-04 4.61220E-04-2.10281E-16
 -1      1193 1.10382E-03 5.42427E-04-5.57930E-16
 -1      1194 1.36918E-03 5.99663E-04-1.06073E-15
 -1      1195 1.63397E-03 6.40433E-04-1.71654E-15
 -1      1196 1.90000E-03 6.69301E-04-2.52489E-15
 -1      1197 2.16809E-03 6.89374E-04-3.48083E-15
 -1      1198 2.43854E-03 7.02920E-04-4.58128E-15
 -1      1199 2.71135E-03 7.11642E-04-5.82741E-15
 -1      1200 2.98637E-03 7.16821E-04-7.21931E-15
 -1      1201 3.26336E-03 7.19411E-04-8.74967E-15
 -1      1202 3.54207E-03 7.20105E-04-1.04180E-14
 -1      1203 3.82228E-03 7.19393E-04-1.22224E-14
 -1      1204 4.10377E-03 7.17604E-04-1.41624E-14
 -1      1205 4.38640E-03 7.14942E-04-1.62415E-14
 -1      1206 4.67011E-03 7.11525E-04-1.84531E-14
 -1      1207 4.95489E-03 7.07410E-04-2.07949E-14
 -1      1208 5.24084E-03 7.02625E-04-2.32681E-14
 -1      1209 5.52817E-03 6.97201E-04-2.58692E-14
 -1      1210 5.81719E-03 6.91212E-04-2.85889E-14
 -1      1211 6.10835E-03 6.84819E-04-3.14308E-14
 -1      1212 6.40220E-03 6.78327E-04-3.43894E-14
 -1      1213 6.69943E-03 6.72252E-04-3.74663E-14
 -1      1214 7.00077E-03 6.67397E-04-4.06613E-14
 -1      1215 7.30696E-03 6.64937E-04-4.39604E-14
 -1      1216 7.61859E-03 6.66483E-04-4.73612E-14
 -1      1217 7.93592E-03 6.74099E-04-5.08642E-14
 -1      1218 8.25857E-03 6.90207E-04-5.44708E-14
 -1      1219 8.58516E-03 7.17279E-04-5.81869E-14
 -1      1220 8.91299E-03 7.57212E-04-6.20095E-14
 -1      1221 9.23789E-03 8.10307E-04-6.59262E-14
 -1      1222 9.55447E-03 8.73954E-04-6.99210E-14
 -1      1223 9.85724E-03 9.41458E-04-7.39828E-14
 -1      1224 1.01424E-02 1.00186E-03-7.81123E-14
 -1      1225 1.04098E-02 1.04162E-03-8.23154E-14
 -1      1226 1.06646E-02 1.04839E-03-8.65898E-14
 -1      1227 1.09155E-02 1.01547E-03-9.09286E-14
 -1      1228 1.11727E-02 9.44493E-04-9.53196E-14
 -1      1229 1.14438E-02 8.44704E-04-9.97613E-14
 -1      1230 1.17314E-02 7.29228E-04-1.04258E-13
 -1      1231 1.20337E-02 6.10564E-04-1.08808E-13
 -1      1232 1.23455E-02 4.97519E-04-1.13408E-13
 -1      1233 1.26609E-02 3.94285E-04-1.18046E-13
 -1      1234 1.29747E-02 3.01110E-04-1.22711E-13
 -1      1235 1.32832E-02 2.15592E-04-1.27397E-13
 -1      1236 1.35846E-02 1.33944E-04-1.32103E-13
 -1      1237 1.38786E-02 5.20230E-05-1.36846E-13
 -1      1238 1.41669E-02-3.36559E-05-1.41607E-13
 -1      1239 1.44453E-02-1.21927E-04-1.46242E-13
 -1      1240 1.46263E-02-2.08199E-04-1.48436E-13
 -1      1241 1.47195E-02-2.92658E-04-1.48336E-13
 -1      1242 1.48176E-02-3.74233E-04-1.48233E-13
 -1      1243 1.49198E-02-4.49838E-04-1.48113E-13
 -1      1244 1.50234E-02-5.17180E-04-1.47983E-13
 -1      1245 1.51235E-02-5.74457E-04-1.47847E-13
 -1      1246 1.52164E-02-6.21991E-04-1.47732E-13
 -1      1247 1.52983E-02-6.61024E-04-1.47620E-13
 -1      1248 1.53643E-02-6.93428E-04-1.47481E-13
 -1      1249 1.54116E-02-7.22757E-04-1.47326E-13
 -1      1250 1.54393E-02-7.53346E-04-1.47161E-13
 -1      1251 1.54493E-02-7.89280E-04-1.46996E-13
 -1      1252 1.54455E-02-8.34448E-04-1.46826E-13
 -1      1253 1.54337E-02-8.91648E-04-1.46631E-13
 -1      1254 1.54206E-02-9.60916E-04-1.46412E-13
 -1      1255 1.54124E-02-1.03998E-03-1.46189E-13
 -1      1256 1.54117E-02-1.12359E-03-1.45970E-13
 -1      1257 1.32446E-02-2.78352E-04-9.73542E-14
 -1      1258 1.31060E-02-1.17904E-04-9.69700E-14
 -1      1259 1.28600E-02 4.81268E-05-9.61085E-14
 -1      1260 1.25240E-02 2.15372E-04-9.48040E-14
 -1      1261 1.21361E-02 3.67693E-04-9.31853E-14
 -1      1262 1.17320E-02 4.87339E-04-9.13983E-14
 -1      1263 1.13085E-02 5.69157E-04-8.94432E-14
 -1      1264 1.08654E-02 5.99916E-04-8.73391E-14
 -1      1265 1.04185E-02 5.74139E-04-8.51992E-14
 -1      1266 9.99156E-03 4.95356E-04-8.31794E-14
 -1      1267 9.59805E-03 3.80101E-04-8.13690E-14
 -1      1268 9.25889E-03 2.44420E-04-7.98720E-14
 -1      1269 8.99324E-03 1.01838E-04-7.87254E-14
 -1      1270 8.81426E-03-4.29971E-05-7.79321E-14
 -1      1271 8.73768E-03-1.90907E-04-7.75392E-14
 -1      1272 8.77435E-03-3.38540E-04-7.75812E-14
 -1      1273 8.91264E-03-4.89819E-04-7.80266E-14
 -1      1274 9.15488E-03-6.56143E-04-7.88923E-14
 -1      1275 9.48461E-03-8.28979E-04-8.01570E-14
 -1      1276 9.86524E-03-9.89498E-04-8.16941E-14
 -1      1277 1.02866E-02-1.12496E-03-8.34970E-14
 -1      1278 1.07381E-02-1.21484E-03-8.55143E-14
 -1      1279 1.12024E-02-1.24161E-03-8.76542E-14
 -1      1280 1.16393E-02-1.20626E-03-8.96922E-14
 -1      1281 1.20356E-02-1.12240E-03-9.15353E-14
 -1      1282 1.23992E-02-1.00574E-03-9.32061E-14
 -1      1283 1.27298E-02-8.64984E-04-9.47196E-14
 -1      1284 1.29970E-02-7.15964E-04-9.59515E-14
 -1      1285 1.31754E-02-5.71957E-04-9.67996E-14
 -1      1286 1.32632E-02-4.27385E-04-9.72752E-14
 -1      1287 1.66690E-04-1.10350E-04 4.09286E-18
 -1      1288 1.12533E-04-5.69889E-05-2.56685E-17
 -1      1289 1.17614E-04-6.75944E-05-1.75234E-17
 -1      1290 1.08420E-04-4.35103E-05-3.90042E-17
 -1      1291 1.10280E-04-4.96235E-05-3.48164E-17
 -1      1292 2.26316E-04-1.07654E-04-8.16811E-17
 -1      1293 1.06840E-04-3.36275E-05-4.69324E-17
 -1      1294 1.07686E-04-3.83510E-05-4.46149E-17
 -1      1295 2.19103E-04-8.24927E-05-1.06279E-16
 -1      1296 1.06063E-04-2.53720E-05-5.19604E-17
 -1      1297 1.06491E-04-2.94041E-05-5.06322E-17
 -1      1298 2.15861E-04-6.33107E-05-1.21797E-16
 -1      1299 1.05666E-04-1.81064E-05-5.50368E-17
 -1      1300 1.05894E-04-2.16766E-05-5.43050E-17
 -1      1301 2.14215E-04-4.72234E-05-1.31622E-16
 -1      1302 1.05447E-04-1.12491E-05-5.70968E-17
 -1      1303 1.05569E-04-1.46368E-05-5.66496E-17
 -1      1304 2.13309E-04-3.27780E-05-1.37870E-16
 -1      1305 1.05348E-04-4.69347E-06-5.81810E-17
 -1      1306 1.05400E-04-7.94941E-06-5.79642E-17
 -1      1307 2.12814E-04-1.92056E-05-1.41705E-16
 -1      1308 1.05337E-04 1.74457E-06-5.85740E-17
 -1      1309 1.05335E-04-1.47160E-06-5.85605E-17
 -1      1310 2.12602E-04-6.16544E-06-1.43792E-16
 -1      1311 1.05408E-04 8.23217E-06-5.82217E-17
 -1      1312 1.05352E-04 4.96972E-06-5.83301E-17
 -1      1313 2.12610E-04 6.71443E-06-1.44077E-16
 -1      1314 1.05584E-04 1.49446E-05-5.74356E-17
 -1      1315 1.05458E-04 1.15424E-05-5.76660E-17
 -1      1316 2.12839E-04 1.97807E-05-1.42871E-16
 -1      1317 1.05915E-04 2.19675E-05-5.56738E-17
 -1      1318 1.05681E-04 1.83746E-05-5.62430E-17
 -1      1319 2.13346E-04 3.32920E-05-1.40214E-16
 -1      1320 1.06536E-04 2.98371E-05-5.26109E-17
 -1      1321 1.06098E-04 2.57591E-05-5.37222E-17
 -1      1322 2.14282E-04 4.78268E-05-1.35281E-16
 -1      1323 1.07723E-04 3.89365E-05-4.70950E-17
 -1      1324 1.06873E-04 3.41429E-05-4.91550E-17
 -1      1325 2.15979E-04 6.42439E-05-1.26716E-16
 -1      1326 1.10259E-04 5.03618E-05-3.77709E-17
 -1      1327 1.08423E-04 4.41791E-05-4.18502E-17
 -1      1328 2.19198E-04 8.37420E-05-1.12513E-16
 -1      1329 1.16930E-04 6.76304E-05-2.18196E-17
 -1      1330 1.12180E-04 5.77882E-05-2.95716E-17
 -1      1331 2.26304E-04 1.09474E-04-8.95687E-17
 -1      1332 1.57572E-04 1.09866E-04 3.97089E-18
 -1      1333 1.35653E-04 8.61007E-05-1.26039E-17
 -1      1334 2.56021E-04 1.52116E-04-6.16233E-17
 -1      1335 3.35066E-04 2.20755E-04-1.95834E-17
 -1      1336 4.21513E-04-2.61763E-04-3.31088E-17
 -1      1337 5.74596E-04-3.36834E-04-8.74274E-17
 -1      1338 7.21767E-04-3.97446E-04-1.82173E-16
 -1      1339 8.64916E-04-4.46749E-04-3.14337E-16
 -1      1340 6.12023E-04-3.30937E-04-1.80330E-16
 -1      1341 1.00492E-03-4.87826E-04-4.82755E-16
 -1      1342 1.14274E-03-5.21816E-04-6.88997E-16
 -1      1343 9.05222E-04-4.31652E-04-4.58780E-16
 -1      1344 1.27920E-03-5.50585E-04-9.32116E-16
 -1      1345 1.41482E-03-5.74613E-04-1.21288E-15
 -1      1346 1.18761E-03-5.01076E-04-8.82785E-16
 -1      1347 1.55003E-03-5.94963E-04-1.53020E-15
 -1      1348 1.68509E-03-6.11969E-04-1.88438E-15
 -1      1349 1.46449E-03-5.49831E-04-1.45333E-15
 -1      1350 1.82023E-03-6.26258E-04-2.27464E-15
 -1      1351 1.95558E-03-6.38122E-04-2.70124E-15
 -1      1352 1.73911E-03-5.84094E-04-2.16933E-15
 -1      1353 2.09125E-03-6.47960E-04-3.16340E-15
 -1      1354 2.22728E-03-6.56021E-04-3.66108E-15
 -1      1355 2.01335E-03-6.07838E-04-3.02910E-15
 -1      1356 2.36373E-03-6.62577E-04-4.19420E-15
 -1      1357 2.50061E-03-6.67832E-04-4.76291E-15
 -1      1358 2.28819E-03-6.23862E-04-4.03091E-15
 -1      1359 2.63794E-03-6.71977E-04-5.36760E-15
 -1      1360 2.77570E-03-6.75174E-04-6.00790E-15
 -1      1361 2.56410E-03-6.34222E-04-5.17381E-15
 -1      1362 2.91390E-03-6.77558E-04-6.68236E-15
 -1      1363 3.05251E-03-6.79255E-04-7.39106E-15
 -1      1364 2.84128E-03-6.40448E-04-6.45714E-15
 -1      1365 3.19152E-03-6.80359E-04-8.13396E-15
 -1      1366 3.33090E-03-6.80965E-04-8.91073E-15
 -1      1367 3.11977E-03-6.43674E-04-7.87848E-15
 -1      1368 3.47064E-03-6.81135E-04-9.72109E-15
 -1      1369 3.61071E-03-6.80939E-04-1.05656E-14
 -1      1370 3.39950E-03-6.44727E-04-9.43440E-15
 -1      1371 3.75109E-03-6.80416E-04-1.14431E-14
 -1      1372 3.89178E-03-6.79617E-04-1.23525E-14
 -1      1373 3.68038E-03-6.44189E-04-1.11248E-14
 -1      1374 4.03274E-03-6.78560E-04-1.32959E-14
 -1      1375 4.17397E-03-6.77280E-04-1.42730E-14
 -1      1376 3.96232E-03-6.42455E-04-1.29478E-14
 -1      1377 4.31545E-03-6.75781E-04-1.52821E-14
 -1      1378 4.45719E-03-6.74088E-04-1.63256E-14
 -1      1379 4.24523E-03-6.39767E-04-1.49023E-14
 -1      1380 4.59918E-03-6.72193E-04-1.74011E-14
 -1      1381 4.74142E-03-6.70112E-04-1.85087E-14
 -1      1382 4.52907E-03-6.36255E-04-1.69893E-14
 -1      1383 4.88393E-03-6.67829E-04-1.96499E-14
 -1      1384 5.02672E-03-6.65358E-04-2.08230E-14
 -1      1385 4.81386E-03-6.31960E-04-1.92073E-14
 -1      1386 5.16981E-03-6.62674E-04-2.20293E-14
 -1      1387 5.31322E-03-6.59793E-04-2.32672E-14
 -1      1388 5.09966E-03-6.26867E-04-2.15551E-14
 -1      1389 5.45700E-03-6.56688E-04-2.45372E-14
 -1      1390 5.60118E-03-6.53378E-04-2.58391E-14
 -1      1391 5.38666E-03-6.20927E-04-2.40313E-14
 -1      1392 5.74583E-03-6.49837E-04-2.71733E-14
 -1      1393 5.89100E-03-6.46097E-04-2.85404E-14
 -1      1394 5.67510E-03-6.14085E-04-2.66355E-14
 -1      1395 6.03678E-03-6.42135E-04-2.99389E-14
 -1      1396 6.18324E-03-6.38006E-04-3.13672E-14
 -1      1397 5.96538E-03-6.06321E-04-2.93674E-14
 -1      1398 6.33049E-03-6.33695E-04-3.28260E-14
 -1      1399 6.47864E-03-6.29291E-04-3.43152E-14
 -1      1400 6.25802E-03-5.97697E-04-3.22238E-14
 -1      1401 6.62782E-03-6.24803E-04-3.58333E-14
 -1      1402 6.77817E-03-6.20363E-04-3.73792E-14
 -1      1403 6.55371E-03-5.88420E-04-3.52004E-14
 -1      1404 6.92986E-03-6.16023E-04-3.89544E-14
 -1      1405 7.08304E-03-6.11981E-04-4.05580E-14
 -1      1406 6.85332E-03-5.78946E-04-3.82938E-14
 -1      1407 7.23793E-03-6.08357E-04-4.21866E-14
 -1      1408 7.39470E-03-6.05440E-04-4.38404E-14
 -1      1409 7.15790E-03-5.70119E-04-4.14968E-14
 -1      1410 7.55359E-03-6.03460E-04-4.55204E-14
 -1      1411 7.71480E-03-6.02828E-04-4.72248E-14
 -1      1412 7.46869E-03-5.63377E-04-4.48039E-14
 -1      1413 7.87854E-03-6.03945E-04-4.89554E-14
 -1      1414 8.04500E-03-6.07371E-04-5.07117E-14
 -1      1415 7.78702E-03-5.61039E-04-4.82131E-14
 -1      1416 8.21437E-03-6.13756E-04-5.24914E-14
 -1      1417 8.38673E-03-6.23825E-04-5.42951E-14
 -1      1418 8.11422E-03-5.66680E-04-5.17223E-14
 -1      1419 8.56216E-03-6.38542E-04-5.61192E-14
 -1      1420 8.74056E-03-6.58777E-04-5.79595E-14
 -1      1421 8.45135E-03-5.85536E-04-5.53241E-14
 -1      1422 8.92176E-03-6.85789E-04-5.98210E-14
 -1      1423 9.10534E-03-7.20467E-04-6.17003E-14
 -1      1424 8.79876E-03-6.24772E-04-5.90089E-14
 -1      1425 9.29077E-03-7.64131E-04-6.35960E-14
 -1      1426 9.47716E-03-8.17349E-04-6.55104E-14
 -1      1427 9.15555E-03-6.93130E-04-6.27668E-14
 -1      1428 9.66352E-03-8.80866E-04-6.74426E-14
 -1      1429 9.84843E-03-9.54258E-04-6.93939E-14
 -1      1430 9.51877E-03-7.99073E-04-6.65950E-14
 -1      1431 1.00306E-02-1.03663E-03-7.13654E-14
 -1      1432 1.02083E-02-1.12565E-03-7.33571E-14
 -1      1433 9.88277E-03-9.46221E-04-7.04988E-14
 -1      1434 1.03804E-02-1.21782E-03-7.53696E-14
 -1      1435 1.05458E-02-1.30839E-03-7.74007E-14
 -1      1436 1.02393E-02-1.12582E-03-7.44816E-14
 -1      1437 1.07040E-02-1.39157E-03-7.94526E-14
 -1      1438 1.08558E-02-1.46166E-03-8.15254E-14
 -1      1439 1.05798E-02-1.30955E-03-7.85434E-14
 -1      1440 1.10021E-02-1.51311E-03-8.36181E-14
 -1      1441 1.11454E-02-1.54227E-03-8.57280E-14
 -1      1442 1.09007E-02-1.45220E-03-8.26867E-14
 -1      1443 1.12881E-02-1.54744E-03-8.78542E-14
 -1      1444 1.14330E-02-1.52954E-03-8.99963E-14
 -1      1445 1.12090E-02-1.51131E-03-8.69058E-14
 -1      1446 1.15822E-02-1.49200E-03-9.21515E-14
 -1      1447 1.17374E-02-1.43956E-03-9.43201E-14
 -1      1448 1.15196E-02-1.47411E-03-9.11908E-14
 -1      1449 1.18992E-02-1.37829E-03-9.65066E-14
 -1      1450 1.20674E-02-1.31371E-03-9.87073E-14
 -1      1451 1.18452E-02-1.36674E-03-9.55331E-14
 -1      1452 1.22413E-02-1.25095E-03-1.00919E-13
 -1      1453 1.24193E-02-1.19377E-03-1.03148E-13
 -1      1454 1.21887E-02-1.23554E-03-9.99323E-14
 -1      1455 1.26001E-02-1.14461E-03-1.05392E-13
 -1      1456 1.27821E-02-1.10489E-03-1.07648E-13
 -1      1457 1.25436E-02-1.12032E-03-1.04390E-13
 -1      1458 1.29640E-02-1.07471E-03-1.09920E-13
 -1      1459 1.31446E-02-1.05392E-03-1.12205E-13
 -1      1460 1.29011E-02-1.04112E-03-1.08903E-13
 -1      1461 1.33229E-02-1.04134E-03-1.14503E-13
 -1      1462 1.34983E-02-1.03609E-03-1.16813E-13
 -1      1463 1.32534E-02-1.00050E-03-1.13469E-13
 -1      1464 1.36704E-02-1.03667E-03-1.19131E-13
 -1      1465 1.38389E-02-1.04200E-03-1.21460E-13
 -1      1466 1.35959E-02-9.91383E-04-1.18083E-13
 -1      1467 1.40036E-02-1.05068E-03-1.23797E-13
 -1      1468 1.41647E-02-1.06166E-03-1.26133E-13
 -1      1469 1.39264E-02-1.00357E-03-1.22735E-13
 -1      1470 1.43223E-02-1.07380E-03-1.28475E-13
 -1      1471 1.44766E-02-1.08616E-03-1.30823E-13
 -1      1472 1.42446E-02-1.02703E-03-1.27411E-13
 -1      1473 1.46280E-02-1.09786E-03-1.33175E-13
 -1      1474 1.47767E-02-1.10812E-03-1.35526E-13
 -1      1475 1.45514E-02-1.05311E-03-1.32103E-13
 -1      1476 1.49232E-02-1.11638E-03-1.37887E-13
 -1      1477 1.50681E-02-1.12214E-03-1.40259E-13
 -1      1478 1.48488E-02-1.07480E-03-1.36815E-13
 -1      1479 1.52759E-02-1.12238E-03-1.43711E-13
 -1      1480 1.52037E-02-1.08453E-03-1.42627E-13
 -1      1481 6.43031E-04 3.72051E-04-1.36488E-16
 -1      1482 4.92920E-04 3.03719E-04-5.79642E-17
 -1      1483 4.44850E-04 2.65925E-04-8.91756E-17
 -1      1484 9.28578E-04 4.72028E-04-4.10804E-16
 -1      1485 7.87735E-04 4.26532E-04-2.54340E-16
 -1      1486 7.44680E-04 3.90765E-04-2.90444E-16
 -1      1487 1.20342E-03 5.41450E-04-8.37356E-16
 -1      1488 1.06678E-03 5.09772E-04-6.04700E-16
 -1      1489 1.03069E-03 4.76214E-04-6.44233E-16
 -1      1490 1.47390E-03 5.90630E-04-1.41705E-15
 -1      1491 1.33888E-03 5.68182E-04-1.10811E-15
 -1      1492 1.30855E-03 5.36034E-04-1.14860E-15
 -1      1493 1.74336E-03 6.25484E-04-2.14706E-15
 -1      1494 1.60859E-03 6.09607E-04-1.76312E-15
 -1      1495 1.58272E-03 5.78296E-04-1.80295E-15
 -1      1496 2.01347E-03 6.49870E-04-3.02744E-15
 -1      1497 1.87825E-03 6.38814E-04-2.56862E-15
 -1      1498 1.85581E-03 6.07969E-04-2.60648E-15
 -1      1499 2.28505E-03 6.66523E-04-4.05259E-15
 -1      1500 2.14904E-03 6.59033E-04-3.52222E-15
 -1      1501 2.12924E-03 6.28426E-04-3.55690E-15
 -1      1502 2.55841E-03 6.77469E-04-5.22217E-15
 -1      1503 2.42149E-03 6.72610E-04-4.61951E-15
 -1      1504 2.40371E-03 6.42101E-04-4.65130E-15
 -1      1505 2.83361E-03 6.84227E-04-6.53567E-15
 -1      1506 2.69578E-03 6.81296E-04-5.86080E-15
 -1      1507 2.67953E-03 6.50803E-04-5.88832E-15
 -1      1508 3.11057E-03 6.87930E-04-7.99164E-15
 -1      1509 2.97188E-03 6.86404E-04-7.24645E-15
 -1      1510 2.95678E-03 6.55878E-04-7.26765E-15
 -1      1511 3.38913E-03 6.89410E-04-9.58429E-15
 -1      1512 3.24966E-03 6.88907E-04-8.77075E-15
 -1      1513 3.23543E-03 6.58322E-04-8.78644E-15
 -1      1514 3.66911E-03 6.89262E-04-1.13155E-14
 -1      1515 3.52895E-03 6.89510E-04-1.04327E-14
 -1      1516 3.51537E-03 6.58857E-04-1.04422E-14
 -1      1517 3.95035E-03 6.87893E-04-1.31806E-14
 -1      1518 3.80959E-03 6.88710E-04-1.22311E-14
 -1      1519 3.79650E-03 6.57984E-04-1.22342E-14
 -1      1520 4.23272E-03 6.85568E-04-1.51825E-14
 -1      1521 4.09141E-03 6.86837E-04-1.41644E-14
 -1      1522 4.07869E-03 6.56040E-04-1.41610E-14
 -1      1523 4.51614E-03 6.82440E-04-1.73209E-14
 -1      1524 4.37431E-03 6.84096E-04-1.62350E-14
 -1      1525 4.36187E-03 6.53229E-04-1.62240E-14
 -1      1526 4.80057E-03 6.78589E-04-1.95896E-14
 -1      1527 4.65823E-03 6.80599E-04-1.84391E-14
 -1      1528 4.64601E-03 6.49661E-04-1.84193E-14
 -1      1529 5.08609E-03 6.74043E-04-2.19878E-14
 -1      1530 4.94319E-03 6.76397E-04-2.07729E-14
 -1      1531 4.93114E-03 6.45380E-04-2.07458E-14
 -1      1532 5.37282E-03 6.68818E-04-2.45168E-14
 -1      1533 5.22929E-03 6.71508E-04-2.32359E-14
 -1      1534 5.21733E-03 6.40397E-04-2.32002E-14
 -1      1535 5.66101E-03 6.62948E-04-2.71692E-14
 -1      1536 5.51672E-03 6.65952E-04-2.58275E-14
 -1      1537 5.50478E-03 6.34722E-04-2.57820E-14
 -1      1538 5.95101E-03 6.56529E-04-2.99416E-14
 -1      1539 5.80576E-03 6.59787E-04-2.85400E-14
 -1      1540 5.79374E-03 6.28399E-04-2.84865E-14
 -1      1541 6.24325E-03 6.49765E-04-3.28364E-14
 -1      1542 6.09682E-03 6.53158E-04-3.13745E-14
 -1      1543 6.08455E-03 6.21558E-04-3.13138E-14
 -1      1544 6.53827E-03 6.43038E-04-3.58451E-14
 -1      1545 6.39038E-03 6.46349E-04-3.43268E-14
 -1      1546 6.37765E-03 6.14463E-04-3.42582E-14
 -1      1547 6.83671E-03 6.36975E-04-3.89718E-14
 -1      1548 6.68703E-03 6.39856E-04-3.73944E-14
 -1      1549 6.67355E-03 6.07590E-04-3.73182E-14
 -1      1550 7.13918E-03 6.32537E-04-4.22120E-14
 -1      1551 6.98740E-03 6.34462E-04-4.05774E-14
 -1      1552 6.97280E-03 6.01705E-04-4.04911E-14
 -1      1553 7.44626E-03 6.31103E-04-4.55518E-14
 -1      1554 7.29211E-03 6.31330E-04-4.38683E-14
 -1      1555 7.27592E-03 5.97955E-04-4.37731E-14
 -1      1556 7.75829E-03 6.34522E-04-4.89982E-14
 -1      1557 7.60163E-03 6.32072E-04-4.72628E-14
 -1      1558 7.58333E-03 5.97944E-04-4.71608E-14
 -1      1559 8.07522E-03 6.45099E-04-5.25466E-14
 -1      1560 7.91616E-03 6.38775E-04-5.07589E-14
 -1      1561 7.89520E-03 6.03778E-04-5.06510E-14
 -1      1562 8.39631E-03 6.65426E-04-5.62002E-14
 -1      1563 8.23531E-03 6.53924E-04-5.43597E-14
 -1      1564 8.21126E-03 6.17990E-04-5.42439E-14
 -1      1565 8.71988E-03 6.97950E-04-5.99598E-14
 -1      1566 8.55792E-03 6.80112E-04-5.80666E-14
 -1      1567 8.53058E-03 6.43272E-04-5.79427E-14
 -1      1568 9.04310E-03 7.44155E-04-6.38206E-14
 -1      1569 8.88175E-03 7.19423E-04-6.18782E-14
 -1      1570 8.85142E-03 6.81875E-04-6.17441E-14
 -1      1571 9.36210E-03 8.03338E-04-6.77670E-14
 -1      1572 9.20341E-03 7.72411E-04-6.57845E-14
 -1      1573 9.17108E-03 7.34585E-04-6.56389E-14
 -1      1574 9.67246E-03 8.71204E-04-7.17886E-14
 -1      1575 9.51866E-03 8.36728E-04-6.97686E-14
 -1      1576 9.48616E-03 7.99319E-04-6.96151E-14
 -1      1577 9.97034E-03 9.38912E-04-7.58784E-14
 -1      1578 9.82317E-03 9.05850E-04-7.38243E-14
 -1      1579 9.79309E-03 8.69754E-04-7.36627E-14
 -1      1580 1.02540E-02 9.93599E-04-8.00393E-14
 -1      1581 1.01140E-02 9.68741E-04-7.79498E-14
 -1      1582 1.00893E-02 9.34837E-04-7.77836E-14
 -1      1583 1.05252E-02 1.02114E-03-8.42710E-14
 -1      1584 1.03909E-02 1.01145E-03-8.21469E-14
 -1      1585 1.03743E-02 9.80276E-04-8.19750E-14
 -1      1586 1.07894E-02 1.01076E-03-8.85702E-14
 -1      1587 1.06577E-02 1.02095E-03-8.64120E-14
 -1      1588 1.06509E-02 9.92396E-04-8.62330E-14
 -1      1589 1.10542E-02 9.59214E-04-9.29263E-14
 -1      1590 1.09212E-02 9.89835E-04-9.07411E-14
 -1      1591 1.09245E-02 9.63143E-04-9.05523E-14
 -1      1592 1.13266E-02 8.72188E-04-9.73342E-14
 -1      1593 1.11890E-02 9.19402E-04-9.51238E-14
 -1      1594 1.12013E-02 8.93438E-04-9.49265E-14
 -1      1595 1.16111E-02 7.61810E-04-1.01799E-13
 -1      1596 1.14672E-02 8.19027E-04-9.95611E-14
 -1      1597 1.14861E-02 7.92742E-04-9.93569E-14
 -1      1598 1.19079E-02 6.41959E-04-1.06317E-13
 -1      1599 1.17580E-02 7.02303E-04-1.04051E-13
 -1      1600 1.17808E-02 6.75060E-04-1.03843E-13
 -1      1601 1.22144E-02 5.24037E-04-1.10887E-13
 -1      1602 1.20602E-02 5.82278E-04-1.08596E-13
 -1      1603 1.20844E-02 5.53923E-04-1.08381E-13
 -1      1604 1.25262E-02 4.14833E-04-1.15498E-13
 -1      1605 1.23699E-02 4.68169E-04-1.13187E-13
 -1      1606 1.23937E-02 4.38917E-04-1.12967E-13
 -1      1607 1.28386E-02 3.16516E-04-1.20146E-13
 -1      1608 1.26826E-02 3.64370E-04-1.17820E-13
 -1      1609 1.27049E-02 3.34623E-04-1.17592E-13
 -1      1610 1.31480E-02 2.27795E-04-1.24817E-13
 -1      1611 1.29939E-02 2.71153E-04-1.22480E-13
 -1      1612 1.30146E-02 2.41351E-04-1.22246E-13
 -1      1613 1.34521E-02 1.45317E-04-1.29508E-13
 -1      1614 1.33008E-02 1.86032E-04-1.27160E-13
 -1      1615 1.33205E-02 1.56561E-04-1.26923E-13
 -1      1616 1.37500E-02 6.48470E-05-1.34227E-13
 -1      1617 1.36018E-02 1.05084E-04-1.31862E-13
 -1      1618 1.36211E-02 7.62271E-05-1.31620E-13
 -1      1619 1.40420E-02-1.77617E-05-1.38971E-13
 -1      1620 1.38966E-02 2.40077E-05-1.36594E-13
 -1      1621 1.39162E-02-4.07898E-06-1.36346E-13
 -1      1622 1.43298E-02-1.05434E-04-1.43725E-13
 -1      1623 1.41863E-02-6.09100E-05-1.41349E-13
 -1      1624 1.42065E-02-8.82356E-05-1.41091E-13
 -1      1625 1.44906E-02-1.64015E-04-1.46185E-13
 -1      1626 1.46199E-02-2.71731E-04-1.46256E-13
 -1      1627 1.45720E-02-2.30665E-04-1.46305E-13
 -1      1628 1.47200E-02-3.50812E-04-1.46147E-13
 -1      1629 1.46693E-02-3.11872E-04-1.46204E-13
 -1      1630 1.45211E-02-2.51668E-04-1.44174E-13
 -1      1631 1.48239E-02-4.24155E-04-1.46032E-13
 -1      1632 1.47716E-02-3.88312E-04-1.46088E-13
 -1      1633 1.46230E-02-3.29337E-04-1.44067E-13
 -1      1634 1.49284E-02-4.90210E-04-1.45904E-13
 -1      1635 1.48763E-02-4.58165E-04-1.45972E-13
 -1      1636 1.47284E-02-4.01600E-04-1.43952E-13
 -1      1637 1.50275E-02-5.47216E-04-1.45783E-13
 -1      1638 1.49786E-02-5.19715E-04-1.45843E-13
 -1      1639 1.48325E-02-4.66879E-04-1.43836E-13
 -1      1640 1.51199E-02-5.97196E-04-1.45665E-13
 -1      1641 1.50750E-02-5.73174E-04-1.45723E-13
 -1      1642 1.49319E-02-5.25315E-04-1.43717E-13
 -1      1643 1.51991E-02-6.40217E-04-1.45539E-13
 -1      1644 1.51614E-02-6.19467E-04-1.45601E-13
 -1      1645 1.50225E-02-5.77569E-04-1.43592E-13
 -1      1646 1.52611E-02-6.78488E-04-1.45396E-13
 -1      1647 1.52325E-02-6.59774E-04-1.45469E-13
 -1      1648 1.50985E-02-6.24271E-04-1.43458E-13
 -1      1649 1.53035E-02-7.15121E-04-1.45242E-13
 -1      1650 1.52848E-02-6.96796E-04-1.45322E-13
 -1      1651 1.51561E-02-6.67486E-04-1.43316E-13
 -1      1652 1.53260E-02-7.53711E-04-1.45078E-13
 -1      1653 1.53171E-02-7.33950E-04-1.45161E-13
 -1      1654 1.51933E-02-7.09974E-04-1.43161E-13
 -1      1655 1.53309E-02-7.96933E-04-1.44909E-13
 -1      1656 1.53304E-02-7.74482E-04-1.44996E-13
 -1      1657 1.52104E-02-7.54396E-04-1.42996E-13
 -1      1658 1.53232E-02-8.48991E-04-1.44727E-13
 -1      1659 1.53283E-02-8.21818E-04-1.44819E-13
 -1      1660 1.52108E-02-8.03867E-04-1.42820E-13
 -1      1661 1.53089E-02-9.10691E-04-1.44523E-13
 -1      1662 1.53164E-02-8.78603E-04-1.44629E-13
 -1      1663 1.51995E-02-8.60956E-04-1.42628E-13
 -1      1664 1.52950E-02-9.81887E-04-1.44304E-13
 -1      1665 1.53015E-02-9.45185E-04-1.44416E-13
 -1      1666 1.51832E-02-9.26273E-04-1.42419E-13
 -1      1667 1.52464E-02-1.05235E-03-1.43410E-13
 -1      1668 1.52495E-02-1.01248E-03-1.43521E-13
 -1      1669 1.51288E-02-9.90847E-04-1.41529E-13
 -1      1670 1.50381E-02-1.05109E-03-1.39963E-13
 -1      1671 1.32336E-02-2.84810E-04-9.81709E-14
 -1      1672 1.32749E-02-3.32746E-04-9.82424E-14
 -1      1673 1.30309E-02-1.73341E-04-9.78507E-14
 -1      1674 1.31430E-02-2.33440E-04-9.81780E-14
 -1      1675 1.27274E-02-6.10904E-06-9.66328E-14
 -1      1676 1.28775E-02-7.99278E-05-9.71617E-14
 -1      1677 1.23250E-02 1.77512E-04-9.51659E-14
 -1      1678 1.25163E-02 8.42633E-05-9.59468E-14
 -1      1679 1.19450E-02 3.69831E-04-9.32594E-14
 -1      1680 1.21217E-02 2.90231E-04-9.40845E-14
 -1      1681 1.15478E-02 5.23346E-04-9.12704E-14
 -1      1682 1.17290E-02 4.55762E-04-9.22332E-14
 -1      1683 1.11726E-02 6.20832E-04-8.91118E-14
 -1      1684 1.13445E-02 5.83963E-04-9.00989E-14
 -1      1685 1.07787E-02 6.47418E-04-8.67692E-14
 -1      1686 1.09611E-02 6.47942E-04-8.78785E-14
 -1      1687 1.03863E-02 5.81198E-04-8.45075E-14
 -1      1688 1.05638E-02 6.19519E-04-8.55246E-14
 -1      1689 9.99183E-03 4.51817E-04-8.23290E-14
 -1      1690 1.01772E-02 5.19232E-04-8.33099E-14
 -1      1691 9.60336E-03 2.94646E-04-8.04889E-14
 -1      1692 9.77622E-03 3.69190E-04-8.13013E-14
 -1      1693 9.24964E-03 1.34243E-04-7.89519E-14
 -1      1694 9.40854E-03 2.07712E-04-7.96222E-14
 -1      1695 8.97007E-03-2.83400E-06-7.78166E-14
 -1      1696 9.08812E-03 5.64957E-05-7.82842E-14
 -1      1697 8.78065E-03-1.21672E-04-7.70061E-14
 -1      1698 8.85585E-03-7.07491E-05-7.73098E-14
 -1      1699 8.71924E-03-2.20939E-04-7.67536E-14
 -1      1700 8.73043E-03-1.75767E-04-7.68356E-14
 -1      1701 8.79380E-03-3.18133E-04-7.67936E-14
 -1      1702 8.74272E-03-2.71814E-04-7.66692E-14
 -1      1703 8.98387E-03-4.45788E-04-7.74708E-14
 -1      1704 8.88296E-03-3.86745E-04-7.71593E-14
 -1      1705 9.30669E-03-5.92730E-04-7.83348E-14
 -1      1706 9.14722E-03-5.10473E-04-7.77842E-14
 -1      1707 9.62947E-03-7.75600E-04-7.97076E-14
 -1      1708 9.45852E-03-6.84508E-04-7.90191E-14
 -1      1709 9.41606E-03-5.64833E-04-7.78533E-14
 -1      1710 1.00691E-02-9.96489E-04-8.16333E-14
 -1      1711 9.88463E-03-9.06391E-04-8.08020E-14
 -1      1712 1.04699E-02-1.16710E-03-8.36690E-14
 -1      1713 1.02821E-02-1.09438E-03-8.27145E-14
 -1      1714 1.08763E-02-1.27112E-03-8.58879E-14
 -1      1715 1.06889E-02-1.23308E-03-8.48427E-14
 -1      1716 1.12776E-02-1.28590E-03-8.82183E-14
 -1      1717 1.10955E-02-1.29343E-03-8.71385E-14
 -1      1718 1.16589E-02-1.20805E-03-9.03580E-14
 -1      1719 1.14894E-02-1.25098E-03-8.94076E-14
 -1      1720 1.20211E-02-1.07581E-03-9.23529E-14
 -1      1721 1.18527E-02-1.14276E-03-9.14647E-14
 -1      1722 1.23846E-02-9.19357E-04-9.40950E-14
 -1      1723 1.22216E-02-9.94217E-04-9.33103E-14
 -1      1724 1.27262E-02-7.43398E-04-9.57931E-14
 -1      1725 1.25664E-02-8.21713E-04-9.50707E-14
 -1      1726 1.30155E-02-6.07253E-04-9.69379E-14
 -1      1727 1.28968E-02-6.69483E-04-9.64249E-14
 -1      1728 1.32043E-02-4.81954E-04-9.79485E-14
 -1      1729 1.31272E-02-5.30378E-04-9.76141E-14
 -1      1730 1.32863E-02-3.87129E-04-9.82594E-14
 -1      1731 1.32645E-02-4.31574E-04-9.81152E-14
 -1      1732 1.21638E-02 1.88808E-04-9.52696E-14
 -1      1733 1.25671E-02-1.88593E-05-9.70459E-14
 -1      1734 1.45115E-02-1.90892E-04-1.45927E-13
 -1      1735 1.44108E-02-1.72012E-04-1.43845E-13
 -1      1736 1.31870E-02-2.94508E-04-9.91186E-14
 -1      1737 1.29340E-02-1.89168E-04-9.84280E-14
 -1      1738 1.32906E-02-3.66485E-04-9.91317E-14
 -1      1739 1.17679E-02 3.99106E-04-9.31548E-14
 -1      1740 1.13998E-02 5.63644E-04-9.09503E-14
 -1      1741 1.10425E-02 6.60247E-04-8.85423E-14
 -1      1742 1.06951E-02 6.57110E-04-8.60629E-14
 -1      1743 1.03263E-02 5.55018E-04-8.36244E-14
 -1      1744 9.94611E-03 3.91085E-04-8.14072E-14
 -1      1745 9.55699E-03 2.09219E-04-7.95224E-14
 -1      1746 9.20369E-03 4.60058E-05-7.79958E-14
 -1      1747 8.92160E-03-8.06954E-05-7.68303E-14
 -1      1748 8.74959E-03-1.66516E-04-7.61627E-14
 -1      1749 8.72196E-03-2.34236E-04-7.59124E-14
 -1      1750 8.84110E-03-3.08710E-04-7.61926E-14
 -1      1751 9.09742E-03-4.20747E-04-7.68670E-14
 -1      1752 1.02423E-02-1.03349E-03-8.17836E-14
 -1      1753 1.06261E-02-1.21396E-03-8.40303E-14
 -1      1754 1.10009E-02-1.30995E-03-8.64513E-14
 -1      1755 1.13515E-02-1.29168E-03-8.88924E-14
 -1      1756 1.17048E-02-1.17859E-03-9.11918E-14
 -1      1757 1.20579E-02-1.01368E-03-9.32618E-14
 -1      1758 1.24233E-02-8.25538E-04-9.52015E-14
 -1      1759 1.27710E-02-6.55032E-04-9.68180E-14
 -1      1760 1.30572E-02-5.20219E-04-9.81306E-14
 -1      1761 1.32386E-02-4.32502E-04-9.89798E-14
 -1      1762 2.85221E-04-1.76249E-04-3.63208E-17
 -1      1763 9.80397E-03-7.89671E-04-7.96190E-14
 -1      1764 3.32182E-04-1.16813E-04-1.71494E-16
 -1      1765 3.36315E-04-1.33057E-04-1.57358E-16
 -1      1766 3.42190E-04-1.52044E-04-1.40635E-16
 -1      1767 3.51738E-04-1.74043E-04-1.18043E-16
 -1      1768 4.58311E-04-1.88122E-04-2.27940E-16
 -1      1769 3.24583E-04-6.54110E-05-2.04304E-16
 -1      1770 3.25715E-04-7.67136E-05-1.98545E-16
 -1      1771 3.23097E-04-4.39114E-05-2.12422E-16
 -1      1772 3.23747E-04-5.44051E-05-2.08668E-16
 -1      1773 4.36538E-04-7.93184E-05-3.05352E-16
 -1      1774 3.22320E-04-2.37845E-05-2.17274E-16
 -1      1775 3.22649E-04-3.37028E-05-2.15160E-16
 -1      1776 4.34550E-04-5.13406E-05-3.15422E-16
 -1      1777 3.22030E-04-4.33939E-06-2.19781E-16
 -1      1778 3.22126E-04-1.39972E-05-2.18792E-16
 -1      1779 4.33539E-04-2.49362E-05-3.21412E-16
 -1      1780 3.22151E-04 1.49897E-05-2.19673E-16
 -1      1781 3.22039E-04 5.32174E-06-2.20147E-16
 -1      1782 4.33245E-04 7.58042E-07-3.24014E-16
 -1      1783 3.22711E-04 3.47489E-05-2.17464E-16
 -1      1784 3.22363E-04 2.47981E-05-2.18819E-16
 -1      1785 4.33597E-04 2.64811E-05-3.23350E-16
 -1      1786 3.23830E-04 5.51942E-05-2.12761E-16
 -1      1787 3.23172E-04 4.48279E-05-2.15566E-16
 -1      1788 4.34663E-04 5.27480E-05-3.19338E-16
 -1      1789 3.25874E-04 7.78510E-05-2.04250E-16
 -1      1790 3.24683E-04 6.62676E-05-2.09129E-16
 -1      1791 4.36703E-04 8.06363E-05-3.11518E-16
 -1      1792 3.29546E-04 1.03691E-04-1.90088E-16
 -1      1793 3.27406E-04 9.03405E-05-1.98287E-16
 -1      1794 4.40332E-04 1.11612E-04-2.98088E-16
 -1      1795 3.36565E-04 1.35147E-04-1.66994E-16
 -1      1796 3.32390E-04 1.18650E-04-1.80276E-16
 -1      1797 4.46779E-04 1.47383E-04-2.76458E-16
 -1      1798 3.52277E-04 1.77635E-04-1.29494E-16
 -1      1799 3.42788E-04 1.54793E-04-1.50663E-16
 -1      1800 4.59293E-04 1.91501E-04-2.41723E-16
 -1      1801 4.07667E-04 2.33714E-04-1.05222E-16
 -1      1802 3.78061E-04 2.02693E-04-1.21932E-16
 -1      1803 4.95819E-04 2.44036E-04-2.10877E-16
 -1      1804 5.58501E-04 3.02541E-04-1.87675E-16
 -1      1805 3.39996E-04-1.90935E-04-7.76560E-17
 -1      1806 8.53492E-04 4.07164E-04-4.68579E-16
 -1      1807 7.07103E-04 3.59419E-04-3.09567E-16
 -1      1808 6.73345E-04 3.28854E-04-3.24339E-16
 -1      1809 9.97567E-03-8.26938E-04-7.94790E-14
 -1      1810 9.74808E-03-6.90496E-04-7.83970E-14
 -1      1811 4.58919E-04-2.36754E-04-1.50907E-16
 -1      1812 8.07163E-04-3.74165E-04-4.28639E-16
 -1      1813 9.52414E-04-4.15353E-04-6.10731E-16
 -1      1814 1.09523E-03-4.50040E-04-8.28439E-16
 -1      1815 1.23688E-03-4.78928E-04-1.08264E-15
 -1      1816 1.00385E-03-3.97975E-04-7.69973E-16
 -1      1817 1.37727E-03-5.03397E-04-1.37269E-15
 -1      1818 1.51694E-03-5.23751E-04-1.69912E-15
 -1      1819 1.28950E-03-4.55921E-04-1.28870E-15
 -1      1820 1.65608E-03-5.40905E-04-2.06119E-15
 -1      1821 1.79489E-03-5.55097E-04-2.45888E-15
 -1      1822 1.57188E-03-4.96830E-04-1.94987E-15
 -1      1823 1.93359E-03-5.66932E-04-2.89201E-15
 -1      1824 2.07221E-03-5.76613E-04-3.36090E-15
 -1      1825 1.85246E-03-5.25310E-04-2.75303E-15
 -1      1826 2.21093E-03-5.84556E-04-3.86549E-15
 -1      1827 2.34974E-03-5.90929E-04-4.40435E-15
 -1      1828 2.13232E-03-5.44681E-04-3.69758E-15
 -1      1829 2.48875E-03-5.96025E-04-4.97841E-15
 -1      1830 2.62794E-03-5.99983E-04-5.58746E-15
 -1      1831 2.41214E-03-5.57384E-04-4.78152E-15
 -1      1832 2.76737E-03-6.03010E-04-6.23156E-15
 -1      1833 2.90702E-03-6.05216E-04-6.90965E-15
 -1      1834 2.69233E-03-5.65229E-04-6.00424E-15
 -1      1835 3.04693E-03-6.06748E-04-7.62220E-15
 -1      1836 3.18706E-03-6.07689E-04-8.36790E-15
 -1      1837 2.97310E-03-5.69559E-04-7.36492E-15
 -1      1838 3.32745E-03-6.08141E-04-9.14724E-15
 -1      1839 3.46806E-03-6.08167E-04-9.96050E-15
 -1      1840 3.25455E-03-5.71357E-04-8.86011E-15
 -1      1841 3.60891E-03-6.07832E-04-1.08065E-14
 -1      1842 3.74997E-03-6.07182E-04-1.16862E-14
 -1      1843 3.53671E-03-5.71327E-04-1.04884E-14
 -1      1844 3.89126E-03-6.06256E-04-1.25985E-14
 -1      1845 4.03274E-03-6.05085E-04-1.35442E-14
 -1      1846 3.81957E-03-5.69950E-04-1.22494E-14
 -1      1847 4.17445E-03-6.03688E-04-1.45229E-14
 -1      1848 4.31634E-03-6.02084E-04-1.55338E-14
 -1      1849 4.10312E-03-5.67535E-04-1.41425E-14
 -1      1850 4.45845E-03-6.00277E-04-1.65780E-14
 -1      1851 4.60075E-03-5.98278E-04-1.76551E-14
 -1      1852 4.38734E-03-5.64256E-04-1.61674E-14
 -1      1853 4.74328E-03-5.96078E-04-1.87651E-14
 -1      1854 4.88602E-03-5.93685E-04-1.99069E-14
 -1      1855 4.67224E-03-5.60186E-04-1.83227E-14
 -1      1856 5.02900E-03-5.91080E-04-2.10806E-14
 -1      1857 5.17223E-03-5.88270E-04-2.22870E-14
 -1      1858 4.95789E-03-5.55321E-04-2.06070E-14
 -1      1859 5.31574E-03-5.85229E-04-2.35258E-14
 -1      1860 5.45956E-03-5.81968E-04-2.47957E-14
 -1      1861 5.24438E-03-5.49608E-04-2.30200E-14
 -1      1862 5.60371E-03-5.78460E-04-2.60977E-14
 -1      1863 5.74826E-03-5.74720E-04-2.74317E-14
 -1      1864 5.53187E-03-5.42975E-04-2.55612E-14
 -1      1865 5.89322E-03-5.70725E-04-2.87973E-14
 -1      1866 6.03868E-03-5.66504E-04-3.01945E-14
 -1      1867 5.82057E-03-5.35357E-04-2.82287E-14
 -1      1868 6.18467E-03-5.62045E-04-3.16224E-14
 -1      1869 6.33130E-03-5.57395E-04-3.30807E-14
 -1      1870 6.11080E-03-5.26742E-04-3.10227E-14
 -1      1871 6.47858E-03-5.52565E-04-3.45696E-14
 -1      1872 6.62670E-03-5.47631E-04-3.60869E-14
 -1      1873 6.40295E-03-5.17223E-04-3.39393E-14
 -1      1874 6.77564E-03-5.42645E-04-3.76326E-14
 -1      1875 6.92564E-03-5.37725E-04-3.92063E-14
 -1      1876 6.69749E-03-5.07077E-04-3.69737E-14
 -1      1877 7.07665E-03-5.32989E-04-4.08073E-14
 -1      1878 7.22898E-03-5.28617E-04-4.24349E-14
 -1      1879 6.99503E-03-4.96885E-04-4.01195E-14
 -1      1880 7.38257E-03-5.24832E-04-4.40893E-14
 -1      1881 7.53774E-03-5.21899E-04-4.57684E-14
 -1      1882 7.29625E-03-4.87690E-04-4.33754E-14
 -1      1883 7.69445E-03-5.20200E-04-4.74734E-14
 -1      1884 7.85303E-03-5.20120E-04-4.92025E-14
 -1      1885 7.60198E-03-4.81233E-04-4.67340E-14
 -1      1886 8.01345E-03-5.22259E-04-5.09552E-14
 -1      1887 8.17598E-03-5.27171E-04-5.27327E-14
 -1      1888 7.91317E-03-4.80271E-04-5.01908E-14
 -1      1889 8.34066E-03-5.35727E-04-5.45328E-14
 -1      1890 8.50760E-03-5.48700E-04-5.63542E-14
 -1      1891 8.23093E-03-4.88963E-04-5.37434E-14
 -1      1892 8.67700E-03-5.67228E-04-5.81956E-14
 -1      1893 8.84861E-03-5.92324E-04-6.00552E-14
 -1      1894 8.55658E-03-5.13266E-04-5.73832E-14
 -1      1895 9.02295E-03-6.25241E-04-6.19347E-14
 -1      1896 9.19908E-03-6.67135E-04-6.38312E-14
 -1      1897 8.89170E-03-5.61123E-04-6.11023E-14
 -1      1898 9.37797E-03-7.18943E-04-6.57469E-14
 -1      1899 9.55773E-03-7.81545E-04-6.76797E-14
 -1      1900 9.23786E-03-6.41926E-04-6.48975E-14
 -1      1901 9.73964E-03-8.54763E-04-6.96300E-14
 -1      1902 9.92079E-03-9.38168E-04-7.16019E-14
 -1      1903 9.59564E-03-7.64252E-04-6.87636E-14
 -1      1904 1.01023E-02-1.02950E-03-7.35930E-14
 -1      1905 1.02810E-02-1.12547E-03-7.56034E-14
 -1      1906 9.96240E-03-9.30243E-04-7.27059E-14
 -1      1907 1.04570E-02-1.22124E-03-7.76348E-14
 -1      1908 1.06290E-02-1.31000E-03-7.96842E-14
 -1      1909 1.03299E-02-1.12570E-03-7.67245E-14
 -1      1910 1.07956E-02-1.38561E-03-8.17562E-14
 -1      1911 1.09599E-02-1.44100E-03-8.38478E-14
 -1      1912 1.06860E-02-1.31055E-03-8.08255E-14
 -1      1913 1.11195E-02-1.47190E-03-8.59563E-14
 -1      1914 1.12811E-02-1.47618E-03-8.80840E-14
 -1      1915 1.10252E-02-1.42692E-03-8.50065E-14
 -1      1916 1.14422E-02-1.45482E-03-9.02272E-14
 -1      1917 1.16084E-02-1.41242E-03-9.23850E-14
 -1      1918 1.13583E-02-1.43402E-03-8.92629E-14
 -1      1919 1.17776E-02-1.35435E-03-9.45565E-14
 -1      1920 1.19511E-02-1.28803E-03-9.67452E-14
 -1      1921 1.17023E-02-1.34225E-03-9.35816E-14
 -1      1922 1.21282E-02-1.21948E-03-9.89474E-14
 -1      1923 1.23063E-02-1.15415E-03-1.01161E-13
 -1      1924 1.20617E-02-1.20352E-03-9.79569E-14
 -1      1925 1.24862E-02-1.09592E-03-1.03388E-13
 -1      1926 1.26646E-02-1.04679E-03-1.05630E-13
 -1      1927 1.24270E-02-1.07129E-03-1.02390E-13
 -1      1928 1.28427E-02-1.00807E-03-1.07888E-13
 -1      1929 1.30179E-02-9.79471E-04-1.10158E-13
 -1      1930 1.27868E-02-9.75030E-04-1.06873E-13
 -1      1931 1.31914E-02-9.60533E-04-1.12439E-13
 -1      1932 1.33618E-02-9.50104E-04-1.14732E-13
 -1      1933 1.31350E-02-9.21034E-04-1.11411E-13
 -1      1934 1.35297E-02-9.46901E-04-1.17040E-13
 -1      1935 1.36946E-02-9.49666E-04-1.19354E-13
 -1      1936 1.34702E-02-9.03113E-04-1.15995E-13
 -1      1937 1.38568E-02-9.56934E-04-1.21677E-13
 -1      1938 1.40162E-02-9.67601E-04-1.24010E-13
 -1      1939 1.37938E-02-9.10903E-04-1.20624E-13
 -1      1940 1.41730E-02-9.80328E-04-1.26347E-13
 -1      1941 1.43274E-02-9.94191E-04-1.28688E-13
 -1      1942 1.41071E-02-9.33924E-04-1.25281E-13
 -1      1943 1.44794E-02-1.00809E-03-1.31036E-13
 -1      1944 1.46294E-02-1.02123E-03-1.33388E-13
 -1      1945 1.44117E-02-9.63000E-04-1.29967E-13
 -1      1946 1.47618E-02-1.03339E-03-1.35490E-13
 -1      1947 1.49084E-02-1.04296E-03-1.37849E-13
 -1      1948 1.49540E-02-1.01279E-03-1.38632E-13
 -1      1949 1.46933E-02-9.90863E-04-1.34417E-13
 -1      1950 1.13851E-03 4.80126E-04-8.96432E-16
 -1      1951 9.96756E-04 4.46877E-04-6.63654E-16
 -1      1952 9.64384E-04 4.17425E-04-6.78765E-16
 -1      1953 1.41757E-03 5.31587E-04-1.47385E-15
 -1      1954 1.27844E-03 5.08151E-04-1.16640E-15
 -1      1955 1.24882E-03 4.80019E-04-1.18002E-15
 -1      1956 1.69390E-03 5.67835E-04-2.19943E-15
 -1      1957 1.55590E-03 5.51368E-04-1.81810E-15
 -1      1958 1.52905E-03 5.24204E-04-1.82893E-15
 -1      1959 1.96940E-03 5.93041E-04-3.07194E-15
 -1      1960 1.83166E-03 5.81649E-04-2.61726E-15
 -1      1961 1.80724E-03 5.55125E-04-2.62432E-15
 -1      1962 2.24516E-03 6.10147E-04-4.08945E-15
 -1      1963 2.10721E-03 6.02483E-04-3.56288E-15
 -1      1964 2.08480E-03 5.76367E-04-3.56472E-15
 -1      1965 2.52175E-03 6.21313E-04-5.24971E-15
 -1      1966 2.38333E-03 6.16380E-04-4.65197E-15
 -1      1967 2.36256E-03 5.90517E-04-4.64853E-15
 -1      1968 2.79941E-03 6.28145E-04-6.55089E-15
 -1      1969 2.66044E-03 6.25202E-04-5.88242E-15
 -1      1970 2.64096E-03 5.99485E-04-5.87296E-15
 -1      1971 3.07824E-03 6.31834E-04-7.99331E-15
 -1      1972 2.93868E-03 6.30332E-04-7.25475E-15
 -1      1973 2.92022E-03 6.04692E-04-7.23812E-15
 -1      1974 3.35821E-03 6.33250E-04-9.57334E-15
 -1      1975 3.21809E-03 6.32790E-04-8.76644E-15
 -1      1976 3.20042E-03 6.07184E-04-8.74269E-15
 -1      1977 3.63926E-03 6.33014E-04-1.12906E-14
 -1      1978 3.49861E-03 6.33314E-04-1.04149E-14
 -1      1979 3.48155E-03 6.07714E-04-1.03842E-14
 -1      1980 3.92130E-03 6.31547E-04-1.31420E-14
 -1      1981 3.78016E-03 6.32418E-04-1.21989E-14
 -1      1982 3.76357E-03 6.06810E-04-1.21605E-14
 -1      1983 4.20428E-03 6.29121E-04-1.51281E-14
 -1      1984 4.06268E-03 6.30444E-04-1.41183E-14
 -1      1985 4.04644E-03 6.04819E-04-1.40717E-14
 -1      1986 4.48814E-03 6.25889E-04-1.72494E-14
 -1      1987 4.34610E-03 6.27600E-04-1.61723E-14
 -1      1988 4.33012E-03 6.01955E-04-1.61176E-14
 -1      1989 4.77290E-03 6.21925E-04-1.95011E-14
 -1      1990 4.63041E-03 6.23996E-04-1.83584E-14
 -1      1991 4.61460E-03 5.98328E-04-1.82947E-14
 -1      1992 5.05861E-03 6.17249E-04-2.18827E-14
 -1      1993 4.91563E-03 6.19673E-04-2.06766E-14
 -1      1994 4.89990E-03 5.93978E-04-2.06036E-14
 -1      1995 5.34539E-03 6.11859E-04-2.43919E-14
 -1      1996 5.20185E-03 6.14639E-04-2.31209E-14
 -1      1997 5.18613E-03 5.88908E-04-2.30399E-14
 -1      1998 5.63343E-03 6.05768E-04-2.70261E-14
 -1      1999 5.48923E-03 6.08893E-04-2.56931E-14
 -1      2000 5.47341E-03 5.83111E-04-2.56023E-14
 -1      2001 5.92301E-03 5.99044E-04-2.97827E-14
 -1      2002 5.77800E-03 6.02472E-04-2.83895E-14
 -1      2003 5.76194E-03 5.76612E-04-2.82888E-14
 -1      2004 6.21448E-03 5.91861E-04-3.26613E-14
 -1      2005 6.06848E-03 5.95487E-04-3.12075E-14
 -1      2006 6.05202E-03 5.69510E-04-3.10987E-14
 -1      2007 6.50825E-03 5.84558E-04-3.56543E-14
 -1      2008 6.36104E-03 5.88188E-04-3.41434E-14
 -1      2009 6.34397E-03 5.62036E-04-3.40258E-14
 -1      2010 6.80481E-03 5.77722E-04-3.87618E-14
 -1      2011 6.65614E-03 5.81029E-04-3.71937E-14
 -1      2012 6.63821E-03 5.54621E-04-3.70679E-14
 -1      2013 7.10465E-03 5.72272E-04-4.19817E-14
 -1      2014 6.95428E-03 5.74750E-04-4.03568E-14
 -1      2015 6.93517E-03 5.47979E-04-4.02219E-14
 -1      2016 7.40822E-03 5.69551E-04-4.53062E-14
 -1      2017 7.25593E-03 5.70472E-04-4.36310E-14
 -1      2018 7.23530E-03 5.43198E-04-4.34861E-14
 -1      2019 7.71584E-03 5.71395E-04-4.87386E-14
 -1      2020 7.56150E-03 5.69780E-04-4.70099E-14
 -1      2021 7.53902E-03 5.41834E-04-4.68569E-14
 -1      2022 8.02757E-03 5.80142E-04-5.22728E-14
 -1      2023 7.87120E-03 5.74767E-04-5.04931E-14
 -1      2024 7.84659E-03 5.45958E-04-5.03325E-14
 -1      2025 8.34304E-03 5.98495E-04-5.59116E-14
 -1      2026 8.18489E-03 5.87983E-04-5.40788E-14
 -1      2027 8.15805E-03 5.58121E-04-5.39110E-14
 -1      2028 8.66129E-03 6.29133E-04-5.96530E-14
 -1      2029 8.50194E-03 6.12184E-04-5.77691E-14
 -1      2030 8.47305E-03 5.81139E-04-5.75931E-14
 -1      2031 8.98056E-03 6.73934E-04-6.34919E-14
 -1      2032 8.82100E-03 6.49771E-04-6.15607E-14
 -1      2033 8.79066E-03 6.17555E-04-6.13757E-14
 -1      2034 9.29833E-03 7.32750E-04-6.74190E-14
 -1      2035 9.13991E-03 7.01780E-04-6.54446E-14
 -1      2036 9.10925E-03 6.68677E-04-6.52503E-14
 -1      2037 9.61147E-03 8.01882E-04-7.14239E-14
 -1      2038 9.45579E-03 7.66472E-04-6.94126E-14
 -1      2039 9.42635E-03 7.33153E-04-6.92081E-14
 -1      2040 9.91690E-03 8.72860E-04-7.55004E-14
 -1      2041 9.76539E-03 8.37853E-04-7.34523E-14
 -1      2042 9.73897E-03 8.05387E-04-7.32405E-14
 -1      2043 1.02127E-02 9.32603E-04-7.96529E-14
 -1      2044 1.00661E-02 9.05000E-04-7.75686E-14
 -1      2045 1.00442E-02 8.74636E-04-7.73505E-14
 -1      2046 1.04995E-02 9.65983E-04-8.38704E-14
 -1      2047 1.03570E-02 9.53342E-04-8.17530E-14
 -1      2048 1.03407E-02 9.26039E-04-8.15293E-14
 -1      2049 1.07805E-02 9.60707E-04-8.81507E-14
 -1      2050 1.06402E-02 9.68512E-04-8.60025E-14
 -1      2051 1.06298E-02 9.44438E-04-8.57719E-14
 -1      2052 1.10614E-02 9.12301E-04-9.24927E-14
 -1      2053 1.09204E-02 9.41656E-04-9.03162E-14
 -1      2054 1.09156E-02 9.20047E-04-9.00774E-14
 -1      2055 1.13473E-02 8.26047E-04-9.68867E-14
 -1      2056 1.12033E-02 8.73189E-04-9.46829E-14
 -1      2057 1.12036E-02 8.52744E-04-9.44379E-14
 -1      2058 1.16413E-02 7.14602E-04-1.01340E-13
 -1      2059 1.14931E-02 7.72586E-04-9.91069E-14
 -1      2060 1.14980E-02 7.52084E-04-9.88560E-14
 -1      2061 1.19435E-02 5.92804E-04-1.05845E-13
 -1      2062 1.17915E-02 6.54239E-04-1.03585E-13
 -1      2063 1.18002E-02 6.32971E-04-1.03328E-13
 -1      2064 1.22517E-02 4.72942E-04-1.10405E-13
 -1      2065 1.20971E-02 5.32168E-04-1.08118E-13
 -1      2066 1.21085E-02 5.09968E-04-1.07855E-13
 -1      2067 1.25626E-02 3.62356E-04-1.15002E-13
 -1      2068 1.24071E-02 4.16330E-04-1.12699E-13
 -1      2069 1.24201E-02 3.93387E-04-1.12428E-13
 -1      2070 1.28731E-02 2.63444E-04-1.19638E-13
 -1      2071 1.27182E-02 3.11508E-04-1.17318E-13
 -1      2072 1.27317E-02 2.88162E-04-1.17043E-13
 -1      2073 1.31806E-02 1.74915E-04-1.24298E-13
 -1      2074 1.30274E-02 2.18080E-04-1.21965E-13
 -1      2075 1.30409E-02 1.94691E-04-1.21685E-13
 -1      2076 1.34835E-02 9.32939E-05-1.28980E-13
 -1      2077 1.33327E-02 1.33494E-04-1.26636E-13
 -1      2078 1.33460E-02 1.10391E-04-1.26350E-13
 -1      2079 1.37813E-02 1.41662E-05-1.33690E-13
 -1      2080 1.36331E-02 5.36744E-05-1.31332E-13
 -1      2081 1.36461E-02 3.11372E-05-1.31041E-13
 -1      2082 1.40741E-02-6.68592E-05-1.38419E-13
 -1      2083 1.39283E-02-2.58994E-05-1.36052E-13
 -1      2084 1.39413E-02-4.76580E-05-1.35759E-13
 -1      2085 1.43150E-02-1.40314E-04-1.42320E-13
 -1      2086 1.41708E-02-9.69649E-05-1.39945E-13
 -1      2087 1.41839E-02-1.18000E-04-1.39648E-13
 -1      2088 1.43764E-02-1.79452E-04-1.42700E-13
 -1      2089 1.46330E-02-3.82414E-04-1.41882E-13
 -1      2090 1.45796E-02-3.47077E-04-1.41937E-13
 -1      2091 1.45264E-02-3.10305E-04-1.41992E-13
 -1      2092 1.44739E-02-2.72348E-04-1.42046E-13
 -1      2093 1.44299E-02-2.93700E-04-1.39920E-13
 -1      2094 1.44492E-02-2.46451E-04-1.42347E-13
 -1      2095 1.43990E-02-2.06599E-04-1.42398E-13
 -1      2096 1.43029E-02-1.75861E-04-1.40873E-13
 -1      2097 1.43511E-02-2.29498E-04-1.40271E-13
 -1      2098 1.47366E-02-4.47658E-04-1.41769E-13
 -1      2099 1.46852E-02-4.15781E-04-1.41823E-13
 -1      2100 1.45367E-02-3.65681E-04-1.39812E-13
 -1      2101 1.48360E-02-5.07947E-04-1.41649E-13
 -1      2102 1.47873E-02-4.78554E-04-1.41708E-13
 -1      2103 1.46414E-02-4.32447E-04-1.39699E-13
 -1      2104 1.49244E-02-5.62426E-04-1.41520E-13
 -1      2105 1.48819E-02-5.35821E-04-1.41588E-13
 -1      2106 1.47398E-02-4.94191E-04-1.39580E-13
 -1      2107 1.49969E-02-6.12234E-04-1.41386E-13
 -1      2108 1.49629E-02-5.87742E-04-1.41454E-13
 -1      2109 1.48257E-02-5.50636E-04-1.39450E-13
 -1      2110 1.50498E-02-6.59328E-04-1.41241E-13
 -1      2111 1.50259E-02-6.35883E-04-1.41313E-13
 -1      2112 1.48944E-02-6.02909E-04-1.39312E-13
 -1      2113 1.50816E-02-7.06262E-04-1.41082E-13
 -1      2114 1.50684E-02-6.82548E-04-1.41162E-13
 -1      2115 1.49425E-02-6.52947E-04-1.39163E-13
 -1      2116 1.50934E-02-7.54896E-04-1.40914E-13
 -1      2117 1.50898E-02-7.30028E-04-1.40999E-13
 -1      2118 1.49686E-02-7.02813E-04-1.39004E-13
 -1      2119 1.50892E-02-8.09310E-04-1.40731E-13
 -1      2120 1.50930E-02-7.81297E-04-1.40825E-13
 -1      2121 1.49751E-02-7.55466E-04-1.38829E-13
 -1      2122 1.50745E-02-8.70404E-04-1.40530E-13
 -1      2123 1.50827E-02-8.38935E-04-1.40631E-13
 -1      2124 1.49662E-02-8.13580E-04-1.38638E-13
 -1      2125 1.50566E-02-9.38932E-04-1.40318E-13
 -1      2126 1.50655E-02-9.03760E-04-1.40425E-13
 -1      2127 1.49483E-02-8.78180E-04-1.38432E-13
 -1      2128 1.28220E-02-1.85776E-04-9.89132E-14
 -1      2129 1.29809E-02-2.51817E-04-9.96089E-14
 -1      2130 1.32881E-02-3.65263E-04-1.00411E-13
 -1      2131 1.33007E-02-3.81423E-04-1.00429E-13
 -1      2132 1.31487E-02-3.18256E-04-1.00412E-13
 -1      2133 1.32377E-02-3.41101E-04-1.00412E-13
 -1      2134 1.32737E-02-3.67417E-04-1.01707E-13
 -1      2135 1.24447E-02-2.46293E-05-9.76850E-14
 -1      2136 1.26409E-02-1.13101E-04-9.83786E-14
 -1      2137 9.54075E-03-5.77020E-04-7.75197E-14
 -1      2138 9.39159E-03-4.96255E-04-7.68442E-14
 -1      2139 1.07438E-02-1.25980E-03-8.43369E-14
 -1      2140 1.05805E-02-1.18412E-03-8.31690E-14
 -1      2141 1.19960E-02 2.25696E-04-9.53634E-14
 -1      2142 1.21849E-02 1.11809E-04-9.64520E-14
 -1      2143 3.27134E-04-8.90231E-05-1.91389E-16
 -1      2144 3.29239E-04-1.02167E-04-1.82119E-16
 -1      2145 4.46308E-04-1.45151E-04-2.64830E-16
 -1      2146 4.40008E-04-1.09989E-04-2.89265E-16
 -1      2147 1.12762E-02 6.07842E-04-9.06489E-14
 -1      2148 1.14284E-02 5.36703E-04-9.18260E-14
 -1      2149 1.09711E-02 6.87177E-04-8.81693E-14
 -1      2150 1.11195E-02 6.57777E-04-8.94058E-14
 -1      2151 1.11842E-02 6.39211E-04-9.02744E-14
 -1      2152 1.06174E-02 6.51972E-04-8.52484E-14
 -1      2153 1.07712E-02 6.84428E-04-8.64914E-14
 -1      2154 1.02887E-02 5.24802E-04-8.27013E-14
 -1      2155 1.04491E-02 5.98742E-04-8.38916E-14
 -1      2156 9.89693E-03 3.24062E-04-8.02349E-14
 -1      2157 1.00743E-02 4.18588E-04-8.12529E-14
 -1      2158 9.50790E-03 1.33260E-04-7.84022E-14
 -1      2159 9.68736E-03 2.22943E-04-7.92608E-14
 -1      2160 9.14959E-03-2.19392E-05-7.69452E-14
 -1      2161 9.30927E-03 4.57138E-05-7.76052E-14
 -1      2162 8.87666E-03-1.27603E-04-7.57965E-14
 -1      2163 8.99458E-03-8.48683E-05-7.62937E-14
 -1      2164 8.72061E-03-1.89837E-04-7.50638E-14
 -1      2165 8.77211E-03-1.69574E-04-7.52270E-14
 -1      2166 8.72981E-03-2.28644E-04-7.49630E-14
 -1      2167 8.70684E-03-2.12247E-04-7.50456E-14
 -1      2168 8.90420E-03-2.93467E-04-7.53045E-14
 -1      2169 8.80911E-03-2.59060E-04-7.49423E-14
 -1      2170 9.18703E-03-3.93672E-04-7.59108E-14
 -1      2171 9.03147E-03-3.40007E-04-7.56058E-14
 -1      2172 8.97056E-03-2.90204E-04-7.43531E-14
 -1      2173 1.03894E-02-1.08098E-03-8.18773E-14
 -1      2174 1.02139E-02-9.72184E-04-8.08054E-14
 -1      2175 1.10763E-02-1.33658E-03-8.69068E-14
 -1      2176 1.09217E-02-1.31414E-03-8.56585E-14
 -1      2177 1.14239E-02-1.28391E-03-8.97336E-14
 -1      2178 1.12755E-02-1.32450E-03-8.85419E-14
 -1      2179 1.17246E-02-1.15281E-03-9.19525E-14
 -1      2180 1.15731E-02-1.22813E-03-9.08421E-14
 -1      2181 1.14837E-02-1.26651E-03-9.04894E-14
 -1      2182 1.21078E-02-9.49586E-04-9.42985E-14
 -1      2183 1.19405E-02-1.04189E-03-9.33341E-14
 -1      2184 1.24566E-02-7.59171E-04-9.62608E-14
 -1      2185 1.22835E-02-8.54945E-04-9.52782E-14
 -1      2186 1.21757E-02-8.92693E-04-9.53509E-14
 -1      2187 1.28375E-02-5.78086E-04-9.81190E-14
 -1      2188 1.26767E-02-6.46352E-04-9.74805E-14
 -1      2189 1.30927E-02-4.71488E-04-9.94813E-14
 -1      2190 1.29742E-02-5.18736E-04-9.88002E-14
 -1      2191 1.29019E-02-5.31130E-04-9.94652E-14
 -1      2192 1.32728E-02-4.06182E-04-1.00028E-13
 -1      2193 1.32125E-02-4.28211E-04-9.98570E-14
 -1      2194 1.16460E-02 4.25578E-04-9.32916E-14
 -1      2195 1.18198E-02 3.26942E-04-9.43258E-14
 -1      2196 1.18812E-02 2.61350E-04-9.55006E-14
 -1      2197 9.69148E-03-6.27223E-04-7.73812E-14
 -1      2198 1.01137E-02-8.85226E-04-7.95720E-14
 -1      2199 6.07831E-04-2.98173E-04-2.53744E-16
 -1      2200 6.63553E-04-2.92465E-04-3.55930E-16
 -1      2201 1.30738E-02-3.07648E-04-1.00899E-13
 -1      2202 1.31521E-02-3.41291E-04-1.02192E-13
 -1      2203 1.29920E-02-2.93061E-04-1.01383E-13
 -1      2204 1.27178E-02-1.74601E-04-9.95557E-14
 -1      2205 1.50086E-02-9.66314E-04-1.39536E-13
 -1      2206 1.32988E-02-3.91843E-04-1.01306E-13
 -1      2207 1.22968E-02 2.53747E-05-9.77791E-14
 -1      2208 9.28773E-03-4.18118E-04-7.55788E-14
 -1      2209 1.15168E-02 4.78610E-04-9.29888E-14
 -1      2210 1.31587E-02-4.41919E-04-1.00528E-13
 -1      2211 1.25596E-02-6.87616E-04-9.75556E-14
 -1      2212 1.18106E-02-1.10150E-03-9.29824E-14
 -1      2213 1.11783E-02-1.34427E-03-8.77426E-14
 -1      2214 8.76115E-03-2.30674E-04-7.40758E-14
 -1      2215 1.05114E-02-1.13538E-03-8.21798E-14
 -1      2216 8.70464E-03-1.97397E-04-7.41130E-14
 -1      2217 8.81651E-03-1.58960E-04-7.46937E-14
 -1      2218 9.07709E-03-6.98888E-05-7.59061E-14
 -1      2219 9.42205E-03 7.31209E-05-7.73460E-14
 -1      2220 9.80819E-03 2.62083E-04-7.91073E-14
 -1      2221 1.01943E-02 4.72257E-04-8.15172E-14
 -1      2222 1.08440E-02-1.29646E-03-8.47884E-14
 -1      2223 1.08719E-02 7.00829E-04-8.73489E-14
 -1      2224 1.09509E-02 7.00309E-04-8.82092E-14
 -1      2225 1.07878E-02 6.99670E-04-8.65319E-14
 -1      2226 1.05375E-02 6.33009E-04-8.43178E-14
 -1      2227 1.01651E-03 3.99866E-04-8.42005E-16
 -1      2228 8.72052E-04 3.63479E-04-6.22861E-16
 -1      2229 5.47836E-04-5.53307E-05-4.50513E-16
 -1      2230 5.48867E-04-7.20540E-05-4.45106E-16
 -1      2231 5.50279E-04-8.93815E-05-4.38329E-16
 -1      2232 5.52145E-04-1.07360E-04-4.29913E-16
 -1      2233 6.65341E-04-9.55394E-05-5.99130E-16
 -1      2234 5.46465E-04 8.86209E-06-4.59837E-16
 -1      2235 5.46445E-04-6.98510E-06-4.59187E-16
 -1      2236 5.47215E-04 4.08918E-05-4.57723E-16
 -1      2237 5.46718E-04 2.48082E-05-4.59376E-16
 -1      2238 6.61418E-04 1.99422E-05-6.22224E-16
 -1      2239 5.49029E-04 7.35295E-05-4.51313E-16
 -1      2240 5.47973E-04 5.70296E-05-4.55148E-16
 -1      2241 6.62735E-04 5.78178E-05-6.18334E-16
 -1      2242 5.52405E-04 1.09014E-04-4.39224E-16
 -1      2243 5.50490E-04 9.09340E-05-4.46244E-16
 -1      2244 6.65580E-04 9.73035E-05-6.08563E-16
 -1      2245 5.58264E-04 1.48357E-04-4.19275E-16
 -1      2246 5.54957E-04 1.28129E-04-4.30401E-16
 -1      2247 6.70650E-04 1.40087E-04-5.91053E-16
 -1      2248 5.68567E-04 1.93959E-04-3.87887E-16
 -1      2249 5.62741E-04 1.70241E-04-4.05451E-16
 -1      2250 6.79272E-04 1.87639E-04-5.62986E-16
 -1      2251 9.15115E-04-3.46447E-04-7.07537E-16
 -1      2252 1.05919E-03-3.79767E-04-9.36954E-16
 -1      2253 1.02407E-02-9.51541E-04-7.96126E-14
 -1      2254 1.00323E-02-8.12943E-04-7.82974E-14
 -1      2255 1.30193E-03 4.56797E-04-1.38974E-15
 -1      2256 1.15963E-03 4.30867E-04-1.09750E-15
 -1      2257 1.07170E-03 3.81398E-04-1.01233E-15
 -1      2258 5.88471E-04-2.38030E-04-3.34869E-16
 -1      2259 7.81256E-04-3.04885E-04-5.36951E-16
 -1      2260 8.40696E-04-2.93665E-04-6.67625E-16
 -1      2261 5.78950E-04-2.10234E-04-3.62110E-16
 -1      2262 1.20245E-03-4.08132E-04-1.20132E-15
 -1      2263 1.34524E-03-4.31991E-04-1.50129E-15
 -1      2264 1.11691E-03-3.60569E-04-1.11156E-15
 -1      2265 1.48740E-03-4.52191E-04-1.83649E-15
 -1      2266 1.62917E-03-4.69003E-04-2.20693E-15
 -1      2267 1.40322E-03-4.07307E-04-1.72052E-15
 -1      2268 1.77057E-03-4.83099E-04-2.61203E-15
 -1      2269 1.91173E-03-4.94692E-04-3.05240E-15
 -1      2270 1.68833E-03-4.40492E-04-2.46923E-15
 -1      2271 2.05274E-03-5.04274E-04-3.52770E-15
 -1      2272 2.19364E-03-5.12020E-04-4.03825E-15
 -1      2273 1.97249E-03-4.63446E-04-3.35689E-15
 -1      2274 2.33453E-03-5.18288E-04-4.58319E-15
 -1      2275 2.47540E-03-5.23218E-04-5.16243E-15
 -1      2276 2.25611E-03-4.78796E-04-4.38332E-15
 -1      2277 2.61633E-03-5.27070E-04-5.77611E-15
 -1      2278 2.75731E-03-5.29955E-04-6.42433E-15
 -1      2279 2.53950E-03-4.88560E-04-5.54725E-15
 -1      2280 2.89840E-03-5.32061E-04-7.10604E-15
 -1      2281 3.03958E-03-5.33474E-04-7.82199E-15
 -1      2282 2.82292E-03-4.94265E-04-6.84698E-15
 -1      2283 3.18088E-03-5.34325E-04-8.57128E-15
 -1      2284 3.32229E-03-5.34679E-04-9.35389E-15
 -1      2285 3.10650E-03-4.97044E-04-8.28214E-15
 -1      2286 3.46384E-03-5.34625E-04-1.01698E-14
 -1      2287 3.60550E-03-5.34211E-04-1.10187E-14
 -1      2288 3.39033E-03-4.97720E-04-9.85070E-15
 -1      2289 3.74730E-03-5.33492E-04-1.19005E-14
 -1      2290 3.88922E-03-5.32501E-04-1.28152E-14
 -1      2291 3.67448E-03-4.96872E-04-1.15511E-14
 -1      2292 4.03128E-03-5.31269E-04-1.37624E-14
 -1      2293 4.17346E-03-5.29819E-04-1.47431E-14
 -1      2294 3.95895E-03-4.94881E-04-1.33827E-14
 -1      2295 4.31577E-03-5.28161E-04-1.57575E-14
 -1      2296 4.45821E-03-5.26308E-04-1.68030E-14
 -1      2297 4.24378E-03-4.91979E-04-1.53460E-14
 -1      2298 4.60080E-03-5.24257E-04-1.78805E-14
 -1      2299 4.74352E-03-5.22015E-04-1.89909E-14
 -1      2300 4.52898E-03-4.88279E-04-1.74391E-14
 -1      2301 4.88640E-03-5.19567E-04-2.01340E-14
 -1      2302 5.02944E-03-5.16918E-04-2.13087E-14
 -1      2303 4.81459E-03-4.83806E-04-1.96607E-14
 -1      2304 5.17265E-03-5.14046E-04-2.25151E-14
 -1      2305 5.31605E-03-5.10954E-04-2.37546E-14
 -1      2306 5.10064E-03-4.78526E-04-2.20115E-14
 -1      2307 5.45966E-03-5.07619E-04-2.50257E-14
 -1      2308 5.60350E-03-5.04045E-04-2.63281E-14
 -1      2309 5.38721E-03-4.72365E-04-2.44899E-14
 -1      2310 5.74758E-03-5.00211E-04-2.76623E-14
 -1      2311 5.89195E-03-4.96128E-04-2.90280E-14
 -1      2312 5.67440E-03-4.65246E-04-2.70961E-14
 -1      2313 6.03661E-03-4.91786E-04-3.04243E-14
 -1      2314 6.18165E-03-4.87206E-04-3.18522E-14
 -1      2315 5.96232E-03-4.57117E-04-2.98277E-14
 -1      2316 6.32703E-03-4.82396E-04-3.33110E-14
 -1      2317 6.47288E-03-4.77398E-04-3.47991E-14
 -1      2318 6.25114E-03-4.47998E-04-3.26838E-14
 -1      2319 6.61916E-03-4.72253E-04-3.63163E-14
 -1      2320 6.76602E-03-4.67030E-04-3.78609E-14
 -1      2321 6.54102E-03-4.38043E-04-3.56590E-14
 -1      2322 6.91339E-03-4.61824E-04-3.94331E-14
 -1      2323 7.06147E-03-4.56748E-04-4.10337E-14
 -1      2324 6.83219E-03-4.27627E-04-3.87485E-14
 -1      2325 7.21020E-03-4.51979E-04-4.26620E-14
 -1      2326 7.35978E-03-4.47694E-04-4.43167E-14
 -1      2327 7.12491E-03-4.17465E-04-4.19498E-14
 -1      2328 7.51016E-03-4.44187E-04-4.59947E-14
 -1      2329 7.66159E-03-4.41733E-04-4.77000E-14
 -1      2330 7.41955E-03-4.08775E-04-4.52569E-14
 -1      2331 7.81402E-03-4.40784E-04-4.94278E-14
 -1      2332 7.96776E-03-4.41766E-04-5.11790E-14
 -1      2333 7.71661E-03-4.03508E-04-4.86642E-14
 -1      2334 8.12283E-03-4.45321E-04-5.29551E-14
 -1      2335 8.27953E-03-4.52103E-04-5.47533E-14
 -1      2336 8.01696E-03-4.04624E-04-5.21676E-14
 -1      2337 8.43809E-03-4.62947E-04-5.65732E-14
 -1      2338 8.59876E-03-4.78850E-04-5.84125E-14
 -1      2339 8.32209E-03-4.16451E-04-5.57624E-14
 -1      2340 8.76211E-03-5.00754E-04-6.02714E-14
 -1      2341 8.92818E-03-5.30116E-04-6.21491E-14
 -1      2342 8.63463E-03-4.45073E-04-5.94412E-14
 -1      2343 9.09806E-03-5.67769E-04-6.40461E-14
 -1      2344 9.27124E-03-6.15615E-04-6.59633E-14
 -1      2345 8.95874E-03-4.98693E-04-6.31957E-14
 -1      2346 9.44936E-03-6.73989E-04-6.78963E-14
 -1      2347 9.63072E-03-7.44630E-04-6.98474E-14
 -1      2348 9.30009E-03-5.87673E-04-6.70270E-14
 -1      2349 9.81703E-03-8.26808E-04-7.18189E-14
 -1      2350 1.00049E-02-9.20036E-04-7.38087E-14
 -1      2351 9.66357E-03-7.23204E-04-7.09322E-14
 -1      2352 1.01956E-02-1.02142E-03-7.58182E-14
 -1      2353 1.03839E-02-1.12545E-03-7.78464E-14
 -1      2354 1.00481E-02-9.09765E-04-7.49112E-14
 -1      2355 1.05698E-02-1.22709E-03-7.98981E-14
 -1      2356 1.07508E-02-1.31357E-03-8.19673E-14
 -1      2357 1.04397E-02-1.12951E-03-7.89683E-14
 -1      2358 1.09246E-02-1.37878E-03-8.40566E-14
 -1      2359 1.10980E-02-1.41333E-03-8.61664E-14
 -1      2360 1.08165E-02-1.31962E-03-8.31062E-14
 -1      2361 1.12671E-02-1.41505E-03-8.82952E-14
 -1      2362 1.14423E-02-1.38640E-03-9.04412E-14
 -1      2363 1.11743E-02-1.39468E-03-8.73265E-14
 -1      2364 1.16199E-02-1.33149E-03-9.26011E-14
 -1      2365 1.18037E-02-1.26267E-03-9.47767E-14
 -1      2366 1.15368E-02-1.32524E-03-9.16188E-14
 -1      2367 1.19914E-02-1.18607E-03-9.69663E-14
 -1      2368 1.21796E-02-1.11157E-03-9.91720E-14
 -1      2369 1.19196E-02-1.17122E-03-9.59739E-14
 -1      2370 1.23683E-02-1.04375E-03-1.01389E-13
 -1      2371 1.25528E-02-9.85762E-04-1.03617E-13
 -1      2372 1.23097E-02-1.01514E-03-1.00385E-13
 -1      2373 1.27348E-02-9.39645E-04-1.05858E-13
 -1      2374 1.29113E-02-9.04439E-04-1.08115E-13
 -1      2375 1.26855E-02-9.01913E-04-1.04846E-13
 -1      2376 1.30842E-02-8.80434E-04-1.10384E-13
 -1      2377 1.32523E-02-8.65594E-04-1.12662E-13
 -1      2378 1.30381E-02-8.38201E-04-1.09356E-13
 -1      2379 1.34171E-02-8.59237E-04-1.14952E-13
 -1      2380 1.35782E-02-8.59493E-04-1.17255E-13
 -1      2381 1.33695E-02-8.14839E-04-1.13911E-13
 -1      2382 1.37367E-02-8.65273E-04-1.19569E-13
 -1      2383 1.38925E-02-8.75155E-04-1.21889E-13
 -1      2384 1.36851E-02-8.19861E-04-1.18512E-13
 -1      2385 1.40462E-02-8.87973E-04-1.24217E-13
 -1      2386 1.41980E-02-9.02669E-04-1.26552E-13
 -1      2387 1.39902E-02-8.42479E-04-1.23153E-13
 -1      2388 1.43480E-02-9.18184E-04-1.28892E-13
 -1      2389 1.44965E-02-9.33666E-04-1.31242E-13
 -1      2390 1.42882E-02-8.73699E-04-1.27821E-13
 -1      2391 1.86501E-03 5.25171E-04-2.92041E-15
 -1      2392 1.72480E-03 5.12471E-04-2.48372E-15
 -1      2393 2.14503E-03 5.44308E-04-3.90141E-15
 -1      2394 2.00507E-03 5.35723E-04-3.39309E-15
 -1      2395 1.92438E-03 4.94531E-04-3.22065E-15
 -1      2396 2.42503E-03 5.56878E-04-5.02366E-15
 -1      2397 2.28502E-03 5.51309E-04-4.44484E-15
 -1      2398 2.20644E-03 5.11633E-04-4.24110E-15
 -1      2399 2.70538E-03 5.64665E-04-6.28597E-15
 -1      2400 2.56516E-03 5.61289E-04-5.63778E-15
 -1      2401 2.48834E-03 5.22706E-04-5.40143E-15
 -1      2402 2.98630E-03 5.68991E-04-7.68768E-15
 -1      2403 2.84577E-03 5.67200E-04-6.96886E-15
 -1      2404 2.77040E-03 5.29392E-04-6.70063E-15
 -1      2405 3.26789E-03 5.70825E-04-9.22763E-15
 -1      2406 3.12702E-03 5.70174E-04-8.44076E-15
 -1      2407 3.05279E-03 5.32914E-04-8.13866E-15
 -1      2408 3.55016E-03 5.70863E-04-1.09031E-14
 -1      2409 3.40895E-03 5.71036E-04-1.00481E-14
 -1      2410 3.33562E-03 5.34161E-04-9.71361E-15
 -1      2411 3.83312E-03 5.69579E-04-1.27135E-14
 -1      2412 3.69156E-03 5.70363E-04-1.17918E-14
 -1      2413 3.61892E-03 5.33766E-04-1.14232E-14
 -1      2414 4.11674E-03 5.67284E-04-1.46572E-14
 -1      2415 3.97485E-03 5.68543E-04-1.36684E-14
 -1      2416 3.90272E-03 5.32155E-04-1.32671E-14
 -1      2417 4.40102E-03 5.64157E-04-1.67352E-14
 -1      2418 4.25880E-03 5.65815E-04-1.56798E-14
 -1      2419 4.18701E-03 5.29599E-04-1.52440E-14
 -1      2420 4.68596E-03 5.60283E-04-1.89428E-14
 -1      2421 4.54341E-03 5.62308E-04-1.78227E-14
 -1      2422 4.47180E-03 5.26248E-04-1.73526E-14
 -1      2423 4.97163E-03 5.55686E-04-2.12817E-14
 -1      2424 4.82870E-03 5.58072E-04-2.00960E-14
 -1      2425 4.75713E-03 5.22164E-04-1.95913E-14
 -1      2426 5.25810E-03 5.50355E-04-2.37472E-14
 -1      2427 5.11475E-03 5.53110E-04-2.24989E-14
 -1      2428 5.04305E-03 5.17354E-04-2.19601E-14
 -1      2429 5.54550E-03 5.44280E-04-2.63376E-14
 -1      2430 5.40167E-03 5.47407E-04-2.50264E-14
 -1      2431 5.32962E-03 5.11798E-04-2.44540E-14
 -1      2432 5.83403E-03 5.37490E-04-2.90525E-14
 -1      2433 5.68961E-03 5.40967E-04-2.76799E-14
 -1      2434 5.61699E-03 5.05485E-04-2.70732E-14
 -1      2435 6.12394E-03 5.30098E-04-3.18900E-14
 -1      2436 5.97879E-03 5.33854E-04-3.04570E-14
 -1      2437 5.90530E-03 4.98448E-04-2.98170E-14
 -1      2438 6.41551E-03 5.22364E-04-3.48424E-14
 -1      2439 6.26948E-03 5.26249E-04-3.33514E-14
 -1      2440 6.19478E-03 4.90818E-04-3.26801E-14
 -1      2441 6.70912E-03 5.14762E-04-3.79098E-14
 -1      2442 6.56203E-03 5.18507E-04-3.63615E-14
 -1      2443 6.48569E-03 4.82882E-04-3.56584E-14
 -1      2444 7.00517E-03 5.08072E-04-4.10889E-14
 -1      2445 6.85680E-03 5.11244E-04-3.94852E-14
 -1      2446 6.77836E-03 4.75155E-04-3.87511E-14
 -1      2447 7.30409E-03 5.03466E-04-4.43750E-14
 -1      2448 7.15423E-03 5.05424E-04-4.27184E-14
 -1      2449 7.07317E-03 4.68472E-04-4.19534E-14
 -1      2450 7.60629E-03 5.02604E-04-4.77697E-14
 -1      2451 7.45475E-03 5.02454E-04-4.60598E-14
 -1      2452 7.37059E-03 4.64078E-04-4.52650E-14
 -1      2453 7.91216E-03 5.07673E-04-5.12680E-14
 -1      2454 7.75876E-03 5.04254E-04-4.95057E-14
 -1      2455 7.67111E-03 4.63715E-04-4.86825E-14
 -1      2456 8.22192E-03 5.21339E-04-5.48699E-14
 -1      2457 8.06658E-03 5.13265E-04-5.30565E-14
 -1      2458 7.97530E-03 4.69663E-04-5.22045E-14
 -1      2459 8.53554E-03 5.46497E-04-5.85735E-14
 -1      2460 8.37833E-03 5.32315E-04-5.67090E-14
 -1      2461 8.28370E-03 4.84687E-04-5.58277E-14
 -1      2462 8.85253E-03 5.85690E-04-6.23735E-14
 -1      2463 8.69378E-03 5.64221E-04-6.04612E-14
 -1      2464 8.59668E-03 5.11770E-04-5.95512E-14
 -1      2465 9.17165E-03 6.40052E-04-6.62643E-14
 -1      2466 9.01208E-03 6.10991E-04-6.43083E-14
 -1      2467 8.91422E-03 5.53511E-04-6.33695E-14
 -1      2468 9.49069E-03 7.07759E-04-7.02355E-14
 -1      2469 9.33150E-03 6.72501E-04-6.82398E-14
 -1      2470 9.23538E-03 6.10983E-04-6.72753E-14
 -1      2471 9.80652E-03 7.82297E-04-7.42840E-14
 -1      2472 9.64932E-03 7.44796E-04-7.22505E-14
 -1      2473 9.55789E-03 6.81998E-04-7.12619E-14
 -1      2474 1.01159E-02 8.51513E-04-7.84076E-14
 -1      2475 9.96216E-03 8.18535E-04-7.63359E-14
 -1      2476 9.87804E-03 7.59071E-04-7.53259E-14
 -1      2477 1.04170E-02 8.99041E-04-8.25989E-14
 -1      2478 1.02673E-02 8.79077E-04-8.04953E-14
 -1      2479 1.01918E-02 8.28337E-04-7.94612E-14
 -1      2480 1.07114E-02 9.09090E-04-8.68511E-14
 -1      2481 1.05646E-02 9.09545E-04-8.47171E-14
 -1      2482 1.04971E-02 8.71491E-04-8.36643E-14
 -1      2483 1.10039E-02 8.73035E-04-9.11670E-14
 -1      2484 1.08572E-02 8.96917E-04-8.90020E-14
 -1      2485 1.07962E-02 8.71957E-04-8.79296E-14
 -1      2486 1.13001E-02 7.93696E-04-9.55352E-14
 -1      2487 1.11510E-02 8.38136E-04-9.33447E-14
 -1      2488 1.10949E-02 8.22868E-04-9.22526E-14
 -1      2489 1.16033E-02 6.83849E-04-9.99643E-14
 -1      2490 1.14507E-02 7.41555E-04-9.77417E-14
 -1      2491 1.13992E-02 7.30827E-04-9.66313E-14
 -1      2492 1.19134E-02 5.60133E-04-1.04446E-13
 -1      2493 1.17577E-02 6.22736E-04-1.02199E-13
 -1      2494 1.17113E-02 6.12167E-04-1.01070E-13
 -1      2495 1.22275E-02 4.36898E-04-1.08984E-13
 -1      2496 1.20703E-02 4.97774E-04-1.06708E-13
 -1      2497 1.20292E-02 4.84966E-04-1.05564E-13
 -1      2498 1.25422E-02 3.23022E-04-1.13561E-13
 -1      2499 1.23851E-02 3.78481E-04-1.11268E-13
 -1      2500 1.23487E-02 3.62797E-04-1.10108E-13
 -1      2501 1.28546E-02 2.21741E-04-1.18177E-13
 -1      2502 1.26989E-02 2.70785E-04-1.15865E-13
 -1      2503 1.26660E-02 2.52656E-04-1.14691E-13
 -1      2504 1.31629E-02 1.32138E-04-1.22821E-13
 -1      2505 1.30094E-02 1.75634E-04-1.20497E-13
 -1      2506 1.29788E-02 1.55939E-04-1.19310E-13
 -1      2507 1.34663E-02 5.08521E-05-1.27488E-13
 -1      2508 1.33153E-02 9.06985E-05-1.25151E-13
 -1      2509 1.32860E-02 7.04706E-05-1.23955E-13
 -1      2510 1.37645E-02-2.65741E-05-1.32184E-13
 -1      2511 1.36160E-02 1.19307E-05-1.29831E-13
 -1      2512 1.35876E-02-7.76252E-06-1.28626E-13
 -1      2513 1.40578E-02-1.04777E-04-1.36899E-13
 -1      2514 1.39117E-02-6.53058E-05-1.34539E-13
 -1      2515 1.38838E-02-8.34251E-05-1.33321E-13
 -1      2516 1.42065E-02-1.45848E-04-1.39348E-13
 -1      2517 1.45461E-02-4.20286E-04-1.37633E-13
 -1      2518 1.44939E-02-3.86650E-04-1.37689E-13
 -1      2519 1.46435E-02-4.83492E-04-1.37511E-13
 -1      2520 1.45962E-02-4.52540E-04-1.37571E-13
 -1      2521 1.44509E-02-4.10798E-04-1.35569E-13
 -1      2522 1.43333E-02-2.79378E-04-1.37848E-13
 -1      2523 1.42791E-02-2.40990E-04-1.37897E-13
 -1      2524 1.44408E-02-3.51991E-04-1.37744E-13
 -1      2525 1.43874E-02-3.16433E-04-1.37796E-13
 -1      2526 1.42364E-02-2.66983E-04-1.35781E-13
 -1      2527 1.43454E-02-3.41174E-04-1.35680E-13
 -1      2528 1.47270E-02-5.41576E-04-1.37379E-13
 -1      2529 1.46873E-02-5.13074E-04-1.37447E-13
 -1      2530 1.45473E-02-4.75269E-04-1.35445E-13
 -1      2531 1.47917E-02-5.95689E-04-1.37242E-13
 -1      2532 1.47619E-02-5.68947E-04-1.37312E-13
 -1      2533 1.46282E-02-5.34510E-04-1.35316E-13
 -1      2534 1.48346E-02-6.47864E-04-1.37089E-13
 -1      2535 1.48160E-02-6.21778E-04-1.37165E-13
 -1      2536 1.46888E-02-5.89796E-04-1.35171E-13
 -1      2537 1.48548E-02-6.99763E-04-1.36924E-13
 -1      2538 1.48474E-02-6.73491E-04-1.37008E-13
 -1      2539 1.47259E-02-6.42938E-04-1.35014E-13
 -1      2540 1.48557E-02-7.55738E-04-1.36743E-13
 -1      2541 1.48575E-02-7.27134E-04-1.36836E-13
 -1      2542 1.47402E-02-6.97158E-04-1.34844E-13
 -1      2543 1.48419E-02-8.16991E-04-1.36547E-13
 -1      2544 1.48502E-02-7.85564E-04-1.36647E-13
 -1      2545 1.47349E-02-7.55594E-04-1.34658E-13
 -1      2546 1.48206E-02-8.84783E-04-1.36335E-13
 -1      2547 1.48317E-02-8.50015E-04-1.36440E-13
 -1      2548 1.47160E-02-8.19775E-04-1.34456E-13
 -1      2549 1.26504E-02-1.66753E-04-1.00459E-13
 -1      2550 1.28124E-02-2.31316E-04-1.00999E-13
 -1      2551 1.48804E-02-9.56488E-04-1.37424E-13
 -1      2552 1.33184E-02-3.93782E-04-1.02622E-13
 -1      2553 1.32899E-02-4.01998E-04-1.02220E-13
 -1      2554 1.58431E-03 4.97077E-04-2.08277E-15
 -1      2555 1.44340E-03 4.78779E-04-1.71781E-15
 -1      2556 1.64168E-03 4.69210E-04-2.34128E-15
 -1      2557 1.32681E-02-3.75396E-04-1.03241E-13
 -1      2558 1.33121E-02-3.83782E-04-1.03242E-13
 -1      2559 1.12547E-02-1.34589E-03-8.85036E-14
 -1      2560 1.10940E-02-1.35679E-03-8.68697E-14
 -1      2561 1.14137E-02 5.28671E-04-9.27178E-14
 -1      2562 1.15955E-02 4.19845E-04-9.41911E-14
 -1      2563 9.40642E-03-4.55945E-04-7.51990E-14
 -1      2564 9.21357E-03-3.68522E-04-7.42741E-14
 -1      2565 9.79137E-03-6.64676E-04-7.70002E-14
 -1      2566 9.60504E-03-5.58665E-04-7.61322E-14
 -1      2567 5.46657E-04-2.29145E-05-4.57330E-16
 -1      2568 5.47111E-04-3.89645E-05-4.54484E-16
 -1      2569 6.62586E-04-5.58462E-05-6.12981E-16
 -1      2570 6.61366E-04-1.77151E-05-6.20502E-16
 -1      2571 1.11078E-02 6.68025E-04-8.98794E-14
 -1      2572 1.12316E-02 6.18688E-04-9.11261E-14
 -1      2573 1.09200E-02-1.32761E-03-8.51970E-14
 -1      2574 1.07785E-02-1.27304E-03-8.38795E-14
 -1      2575 1.01084E-02 4.26954E-04-8.02795E-14
 -1      2576 1.02876E-02 5.27574E-04-8.17194E-14
 -1      2577 9.69675E-03 1.98041E-04-7.76980E-14
 -1      2578 9.87177E-03 2.95596E-04-7.86614E-14
 -1      2579 9.32497E-03 1.88699E-05-7.60533E-14
 -1      2580 9.50159E-03 9.98735E-05-7.68400E-14
 -1      2581 9.00632E-03-1.02732E-04-7.45886E-14
 -1      2582 9.15062E-03-5.25604E-05-7.52300E-14
 -1      2583 8.77211E-03-1.69243E-04-7.34644E-14
 -1      2584 8.87473E-03-1.44744E-04-7.40256E-14
 -1      2585 8.92865E-03-1.21132E-04-7.33545E-14
 -1      2586 1.06128E-02-1.18900E-03-8.24722E-14
 -1      2587 1.04532E-02-1.08856E-03-8.11871E-14
 -1      2588 9.01548E-03-2.91553E-04-7.35129E-14
 -1      2589 8.90041E-03-2.56816E-04-7.32161E-14
 -1      2590 8.69282E-03-1.97330E-04-7.31965E-14
 -1      2591 8.70405E-03-1.89997E-04-7.32114E-14
 -1      2592 1.04849E-02 6.17012E-04-8.35601E-14
 -1      2593 1.06236E-02 6.68537E-04-8.49149E-14
 -1      2594 1.32190E-02-4.24275E-04-1.01843E-13
 -1      2595 1.31091E-02-4.55418E-04-1.01463E-13
 -1      2596 1.32685E-02-4.18571E-04-1.03158E-13
 -1      2597 8.78461E-03-2.24321E-04-7.30468E-14
 -1      2598 8.71484E-03-2.09232E-04-7.30679E-14
 -1      2599 1.15535E-02-1.24361E-03-9.14187E-14
 -1      2600 1.14363E-02-1.29787E-03-9.03070E-14
 -1      2601 1.18997E-02-1.04865E-03-9.41893E-14
 -1      2602 1.17200E-02-1.15582E-03-9.28012E-14
 -1      2603 1.16614E-02-1.20031E-03-9.26173E-14
 -1      2604 1.22501E-02-8.43048E-04-9.66558E-14
 -1      2605 1.20985E-02-9.32406E-04-9.56696E-14
 -1      2606 1.26543E-02-6.34225E-04-9.91074E-14
 -1      2607 1.24528E-02-7.33612E-04-9.78792E-14
 -1      2608 1.23789E-02-7.85062E-04-9.81991E-14
 -1      2609 1.29653E-02-5.05692E-04-1.00814E-13
 -1      2610 1.28390E-02-5.52921E-04-1.00128E-13
 -1      2611 1.21685E-02 7.29187E-05-9.83489E-14
 -1      2612 1.23992E-02-5.12762E-05-9.95931E-14
 -1      2613 1.17826E-02 3.05623E-04-9.56486E-14
 -1      2614 1.19355E-02 2.09887E-04-9.66931E-14
 -1      2615 7.57822E-04 3.34278E-04-4.66803E-16
 -1      2616 6.11423E-04 2.84912E-04-3.12996E-16
 -1      2617 5.84708E-04 2.58144E-04-3.19216E-16
 -1      2618 8.13654E-04 3.22953E-04-5.95539E-16
 -1      2619 1.13251E-02 5.73418E-04-9.23190E-14
 -1      2620 6.70276E-04-1.38014E-04-5.77433E-16
 -1      2621 5.54641E-04-1.26264E-04-4.19383E-16
 -1      2622 5.57785E-04-1.46265E-04-4.06129E-16
 -1      2623 1.33382E-02-3.95222E-04-1.04160E-13
 -1      2624 5.72220E-04 2.27951E-04-3.48435E-16
 -1      2625 9.91899E-03-7.40792E-04-7.70399E-14
 -1      2626 1.27470E-02-6.03148E-04-1.00452E-13
 -1      2627 5.71813E-04-1.85261E-04-3.84228E-16
 -1      2628 1.20038E-02-1.00087E-03-9.54866E-14
 -1      2629 1.29321E-02-2.78043E-04-1.02292E-13
 -1      2630 8.68857E-03-1.96968E-04-7.21704E-14
 -1      2631 1.41788E-02-1.61502E-04-1.38122E-13
 -1      2632 1.42037E-02-1.88835E-04-1.37824E-13
 -1      2633 1.03762E-02 5.79779E-04-8.23085E-14
 -1      2634 1.25255E-02-1.10877E-04-1.01034E-13
 -1      2635 1.47264E-02-9.58254E-04-1.34928E-13
 -1      2636 1.47859E-02-9.13874E-04-1.35828E-13
 -1      2637 1.46678E-02-8.82927E-04-1.33842E-13
 -1      2638 1.45958E-02-9.44479E-04-1.32828E-13
 -1      2639 6.89504E-04 2.51314E-04-4.99411E-16
 -1      2640 1.35769E-03 4.32776E-04-1.60485E-15
 -1      2641 1.32288E-02-3.67110E-04-1.03727E-13
 -1      2642 1.32951E-02-3.82720E-04-1.05267E-13
 -1      2643 1.31807E-02-3.56500E-04-1.04214E-13
 -1      2644 9.11225E-03-3.26041E-04-7.31361E-14
 -1      2645 1.10145E-02-1.35246E-03-8.59504E-14
 -1      2646 8.72309E-03-1.76602E-04-7.25479E-14
 -1      2647 8.75268E-03-1.61119E-04-7.18823E-14
 -1      2648 8.68609E-03-1.76517E-04-7.16352E-14
 -1      2649 1.03468E-02-1.02024E-03-7.98984E-14
 -1      2650 1.16734E-02 3.70574E-04-9.53754E-14
 -1      2651 9.22172E-03-1.77689E-05-7.47292E-14
 -1      2652 9.57276E-03 1.44983E-04-7.63991E-14
 -1      2653 9.97410E-03 3.66720E-04-7.88581E-14
 -1      2654 9.49880E-03-4.99439E-04-7.48207E-14
 -1      2655 1.13436E-02-1.33606E-03-8.94253E-14
 -1      2656 1.07140E-02 6.94932E-04-8.57673E-14
 -1      2657 1.45336E-02-9.01798E-04-1.31748E-13
 -1      2658 1.10175E-02 6.92570E-04-8.90539E-14
 -1      2659 1.07006E-02-1.23738E-03-8.28744E-14
 -1      2660 8.81361E-03-2.28956E-04-7.22113E-14
 -1      2661 1.30611E-02-4.80737E-04-1.02128E-13
 -1      2662 1.20737E-02 1.28694E-04-9.84968E-14
 -1      2663 1.41051E-02-1.75733E-04-1.35755E-13
 -1      2664 7.80284E-04 7.73746E-05-8.04451E-16
 -1      2665 7.79032E-04 5.55024E-05-8.08517E-16
 -1      2666 7.78191E-04 3.35790E-05-8.10699E-16
 -1      2667 7.77772E-04 1.19032E-05-8.11403E-16
 -1      2668 8.96620E-04 4.97060E-05-1.02483E-15
 -1      2669 7.91571E-04 1.73205E-04-7.66124E-16
 -1      2670 7.87581E-04 1.47782E-04-7.79880E-16
 -1      2671 8.03393E-04 2.28409E-04-7.28611E-16
 -1      2672 7.96792E-04 2.00015E-04-7.49401E-16
 -1      2673 9.14870E-04 2.07906E-04-9.64005E-16
 -1      2674 1.41596E-03 4.07901E-04-1.82631E-15
 -1      2675 1.27292E-03 3.86888E-04-1.49017E-15
 -1      2676 1.03367E-03-3.14321E-04-1.01988E-15
 -1      2677 1.17690E-03-3.40434E-04-1.29394E-15
 -1      2678 1.28940E-02-2.64978E-04-1.03472E-13
 -1      2679 1.30474E-02-3.17063E-04-1.03861E-13
 -1      2680 2.55251E-03 4.87981E-04-5.78175E-15
 -1      2681 2.41078E-03 4.83747E-04-5.16553E-15
 -1      2682 1.32009E-03-3.62827E-04-1.60298E-15
 -1      2683 1.46331E-03-3.81791E-04-1.94683E-15
 -1      2684 1.23839E-03-3.19149E-04-1.48441E-15
 -1      2685 1.60634E-03-3.97850E-04-2.32479E-15
 -1      2686 1.74927E-03-4.11226E-04-2.73754E-15
 -1      2687 1.52495E-03-3.55453E-04-2.17926E-15
 -1      2688 1.89203E-03-4.22389E-04-3.18461E-15
 -1      2689 2.03468E-03-4.31523E-04-3.66612E-15
 -1      2690 1.81163E-03-3.81292E-04-3.01160E-15
 -1      2691 2.17723E-03-4.39003E-04-4.18247E-15
 -1      2692 2.31969E-03-4.44979E-04-4.73304E-15
 -1      2693 2.09809E-03-3.99031E-04-3.98105E-15
 -1      2694 2.46210E-03-4.49737E-04-5.31740E-15
 -1      2695 2.60447E-03-4.53397E-04-5.93582E-15
 -1      2696 2.38428E-03-4.10676E-04-5.08702E-15
 -1      2697 2.74682E-03-4.56171E-04-6.58788E-15
 -1      2698 2.88916E-03-4.58152E-04-7.27359E-15
 -1      2699 2.67023E-03-4.17824E-04-6.32818E-15
 -1      2700 3.03152E-03-4.59495E-04-7.99320E-15
 -1      2701 3.17388E-03-4.60269E-04-8.74581E-15
 -1      2702 2.95603E-03-4.21701E-04-7.70406E-15
 -1      2703 3.31628E-03-4.60583E-04-9.53152E-15
 -1      2704 3.45869E-03-4.60488E-04-1.03504E-14
 -1      2705 3.24173E-03-4.23223E-04-9.21289E-15
 -1      2706 3.60115E-03-4.60057E-04-1.12019E-14
 -1      2707 3.74365E-03-4.59324E-04-1.20862E-14
 -1      2708 3.52738E-03-4.23046E-04-1.08527E-14
 -1      2709 3.88619E-03-4.58335E-04-1.30035E-14
 -1      2710 4.02878E-03-4.57111E-04-1.39529E-14
 -1      2711 3.81303E-03-4.21623E-04-1.26238E-14
 -1      2712 4.17141E-03-4.55677E-04-1.49351E-14
 -1      2713 4.31410E-03-4.54044E-04-1.59509E-14
 -1      2714 4.09870E-03-4.19242E-04-1.45256E-14
 -1      2715 4.45684E-03-4.52220E-04-1.69982E-14
 -1      2716 4.59964E-03-4.50210E-04-1.80769E-14
 -1      2717 4.38441E-03-4.16063E-04-1.65571E-14
 -1      2718 4.74250E-03-4.48009E-04-1.91888E-14
 -1      2719 4.88542E-03-4.45616E-04-2.03323E-14
 -1      2720 4.67018E-03-4.12149E-04-1.87175E-14
 -1      2721 5.02841E-03-4.43019E-04-2.15079E-14
 -1      2722 5.17147E-03-4.40215E-04-2.27154E-14
 -1      2723 4.95601E-03-4.07493E-04-2.10053E-14
 -1      2724 5.31461E-03-4.37188E-04-2.39557E-14
 -1      2725 5.45783E-03-4.33934E-04-2.52277E-14
 -1      2726 5.24192E-03-4.02042E-04-2.34224E-14
 -1      2727 5.60114E-03-4.30438E-04-2.65310E-14
 -1      2728 5.74455E-03-4.26699E-04-2.78661E-14
 -1      2729 5.52789E-03-3.95724E-04-2.59672E-14
 -1      2730 5.88805E-03-4.22710E-04-2.92323E-14
 -1      2731 6.03168E-03-4.18474E-04-3.06292E-14
 -1      2732 5.81393E-03-3.88476E-04-2.86376E-14
 -1      2733 6.17540E-03-4.14000E-04-3.20575E-14
 -1      2734 6.31927E-03-4.09304E-04-3.35164E-14
 -1      2735 6.09999E-03-3.80282E-04-3.14331E-14
 -1      2736 6.46324E-03-4.04420E-04-3.50038E-14
 -1      2737 6.60740E-03-3.99382E-04-3.65196E-14
 -1      2738 6.38605E-03-3.71219E-04-3.43495E-14
 -1      2739 6.75165E-03-3.94266E-04-3.80653E-14
 -1      2740 6.89612E-03-3.89131E-04-3.96375E-14
 -1      2741 6.67202E-03-3.61520E-04-3.73820E-14
 -1      2742 7.04070E-03-3.84118E-04-4.12382E-14
 -1      2743 7.18554E-03-3.79324E-04-4.28663E-14
 -1      2744 6.95783E-03-3.51653E-04-4.05286E-14
 -1      2745 7.33052E-03-3.74974E-04-4.45183E-14
 -1      2746 7.47585E-03-3.71231E-04-4.61975E-14
 -1      2747 7.24341E-03-3.42432E-04-4.37811E-14
 -1      2748 7.62140E-03-3.68426E-04-4.79019E-14
 -1      2749 7.76744E-03-3.66824E-04-4.96298E-14
 -1      2750 7.52878E-03-3.35141E-04-4.71386E-14
 -1      2751 7.91392E-03-3.66878E-04-5.13813E-14
 -1      2752 8.06119E-03-3.69022E-04-5.31553E-14
 -1      2753 7.81423E-03-3.31703E-04-5.05951E-14
 -1      2754 8.20934E-03-3.73821E-04-5.49536E-14
 -1      2755 8.35889E-03-3.82008E-04-5.67722E-14
 -1      2756 8.10064E-03-3.34864E-04-5.41441E-14
 -1      2757 8.51018E-03-3.94203E-04-5.86109E-14
 -1      2758 8.66390E-03-4.11663E-04-6.04693E-14
 -1      2759 8.39007E-03-3.48484E-04-5.77806E-14
 -1      2760 8.82092E-03-4.34940E-04-6.23476E-14
 -1      2761 8.98196E-03-4.66173E-04-6.42445E-14
 -1      2762 8.68669E-03-3.78042E-04-6.14983E-14
 -1      2763 9.14868E-03-5.05651E-04-6.61587E-14
 -1      2764 9.32124E-03-5.56762E-04-6.80922E-14
 -1      2765 8.99789E-03-4.31735E-04-6.52915E-14
 -1      2766 9.50246E-03-6.19334E-04-7.00456E-14
 -1      2767 9.69005E-03-6.97543E-04-7.20162E-14
 -1      2768 9.33477E-03-5.22369E-04-6.91584E-14
 -1      2769 1.02151E-02-9.53390E-04-7.76381E-14
 -1      2770 1.04235E-02-1.08006E-03-7.96805E-14
 -1      2771 1.10786E-02-1.37519E-03-8.64155E-14
 -1      2772 1.12667E-02-1.37150E-03-8.85462E-14
 -1      2773 1.14236E-02-1.33353E-03-9.03494E-14
 -1      2774 1.16195E-02-1.26251E-03-9.25113E-14
 -1      2775 1.18457E-02-1.16129E-03-9.49689E-14
 -1      2776 1.20487E-02-1.07084E-03-9.71640E-14
 -1      2777 1.22523E-02-9.88420E-04-9.93720E-14
 -1      2778 1.24482E-02-9.19098E-04-1.01592E-13
 -1      2779 1.21994E-02-9.63058E-04-9.83556E-14
 -1      2780 1.26390E-02-8.65464E-04-1.03822E-13
 -1      2781 1.28204E-02-8.24901E-04-1.06064E-13
 -1      2782 1.25978E-02-8.26268E-04-1.02797E-13
 -1      2783 1.29953E-02-7.97952E-04-1.08322E-13
 -1      2784 1.31627E-02-7.80849E-04-1.10588E-13
 -1      2785 1.29582E-02-7.54906E-04-1.07286E-13
 -1      2786 1.33249E-02-7.73333E-04-1.12865E-13
 -1      2787 1.34824E-02-7.72569E-04-1.15152E-13
 -1      2788 1.32858E-02-7.30378E-04-1.11818E-13
 -1      2789 1.36363E-02-7.77909E-04-1.17451E-13
 -1      2790 1.37875E-02-7.87524E-04-1.19761E-13
 -1      2791 1.35922E-02-7.35666E-04-1.16393E-13
 -1      2792 1.39366E-02-8.00576E-04-1.22079E-13
 -1      2793 1.40842E-02-8.15904E-04-1.24406E-13
 -1      2794 1.38868E-02-7.58989E-04-1.21007E-13
 -1      2795 1.42304E-02-8.32626E-04-1.26740E-13
 -1      2796 1.43757E-02-8.49896E-04-1.29080E-13
 -1      2797 1.41754E-02-7.91969E-04-1.25658E-13
 -1      2798 2.26901E-03 4.78315E-04-4.58342E-15
 -1      2799 2.12720E-03 4.71557E-04-4.03646E-15
 -1      2800 2.33263E-03 4.44482E-04-4.92966E-15
 -1      2801 8.03046E-04 2.78323E-04-6.56769E-16
 -1      2802 1.33250E-02-4.19260E-04-1.04724E-13
 -1      2803 1.32611E-02-4.34906E-04-1.04342E-13
 -1      2804 1.98529E-03 4.63159E-04-3.52467E-15
 -1      2805 1.84326E-03 4.52959E-04-3.04735E-15
 -1      2806 2.04753E-03 4.31200E-04-3.83229E-15
 -1      2807 2.83604E-03 4.93657E-04-7.11746E-15
 -1      2808 2.69427E-03 4.91251E-04-6.43267E-15
 -1      2809 2.61751E-03 4.52816E-04-6.16473E-15
 -1      2810 3.11972E-03 4.96457E-04-8.59122E-15
 -1      2811 2.97786E-03 4.95367E-04-7.83661E-15
 -1      2812 2.90230E-03 4.57552E-04-7.53683E-15
 -1      2813 3.40364E-03 4.97192E-04-1.02008E-14
 -1      2814 3.26165E-03 4.97047E-04-9.37938E-15
 -1      2815 3.18710E-03 4.59698E-04-9.04558E-15
 -1      2816 3.68786E-03 4.96430E-04-1.19446E-14
 -1      2817 3.54572E-03 4.96973E-04-1.10558E-14
 -1      2818 3.47198E-03 4.59982E-04-1.06899E-14
 -1      2819 3.97239E-03 4.94551E-04-1.38212E-14
 -1      2820 3.83009E-03 4.95614E-04-1.28667E-14
 -1      2821 3.75699E-03 4.58910E-04-1.24667E-14
 -1      2822 4.25726E-03 4.91787E-04-1.58307E-14
 -1      2823 4.11478E-03 4.93270E-04-1.48090E-14
 -1      2824 4.04216E-03 4.56815E-04-1.43768E-14
 -1      2825 4.54248E-03 4.88261E-04-1.79710E-14
 -1      2826 4.39983E-03 4.90115E-04-1.68847E-14
 -1      2827 4.32751E-03 4.53892E-04-1.64183E-14
 -1      2828 4.82809E-03 4.84013E-04-2.02402E-14
 -1      2829 4.68524E-03 4.86226E-04-1.90894E-14
 -1      2830 4.61305E-03 4.50236E-04-1.85901E-14
 -1      2831 5.11413E-03 4.79037E-04-2.26384E-14
 -1      2832 4.97105E-03 4.81617E-04-2.14232E-14
 -1      2833 4.89883E-03 4.45872E-04-2.08891E-14
 -1      2834 5.40068E-03 4.73307E-04-2.51609E-14
 -1      2835 5.25733E-03 4.76267E-04-2.38843E-14
 -1      2836 5.18487E-03 4.40780E-04-2.33164E-14
 -1      2837 5.68783E-03 4.66809E-04-2.78095E-14
 -1      2838 5.54416E-03 4.70152E-04-2.64701E-14
 -1      2839 5.47124E-03 4.34929E-04-2.58686E-14
 -1      2840 5.97572E-03 4.59585E-04-3.05805E-14
 -1      2841 5.83166E-03 4.63281E-04-2.91794E-14
 -1      2842 5.75800E-03 4.28305E-04-2.85450E-14
 -1      2843 6.26454E-03 4.51781E-04-3.34696E-14
 -1      2844 6.11999E-03 4.55742E-04-3.20106E-14
 -1      2845 6.04526E-03 4.20958E-04-3.13430E-14
 -1      2846 6.55451E-03 4.43705E-04-3.64740E-14
 -1      2847 6.40935E-03 4.47751E-04-3.49581E-14
 -1      2848 6.33318E-03 4.13042E-04-3.42598E-14
 -1      2849 6.84595E-03 4.35905E-04-3.95927E-14
 -1      2850 6.70001E-03 4.39728E-04-3.80196E-14
 -1      2851 6.62195E-03 4.04882E-04-3.72904E-14
 -1      2852 7.13925E-03 4.29254E-04-4.28189E-14
 -1      2853 6.99233E-03 4.32370E-04-4.11922E-14
 -1      2854 6.91189E-03 3.97045E-04-4.04325E-14
 -1      2855 7.43492E-03 4.25045E-04-4.61544E-14
 -1      2856 7.28674E-03 4.26749E-04-4.44727E-14
 -1      2857 7.20342E-03 3.90423E-04-4.36839E-14
 -1      2858 7.73361E-03 4.25073E-04-4.95944E-14
 -1      2859 7.58384E-03 4.24397E-04-4.78613E-14
 -1      2860 7.49713E-03 3.86330E-04-4.70426E-14
 -1      2861 8.03614E-03 4.31685E-04-5.31386E-14
 -1      2862 7.88436E-03 4.27384E-04-5.13535E-14
 -1      2863 7.79389E-03 3.86585E-04-5.05064E-14
 -1      2864 8.34344E-03 4.47732E-04-5.67844E-14
 -1      2865 8.18918E-03 4.38322E-04-5.49490E-14
 -1      2866 8.09483E-03 3.93579E-04-5.40726E-14
 -1      2867 8.65638E-03 4.76325E-04-6.05260E-14
 -1      2868 8.49924E-03 4.60240E-04-5.86430E-14
 -1      2869 8.40134E-03 4.10261E-04-5.77378E-14
 -1      2870 8.97543E-03 5.20235E-04-6.43634E-14
 -1      2871 8.81527E-03 4.96192E-04-6.24346E-14
 -1      2872 8.71486E-03 4.39952E-04-6.15012E-14
 -1      2873 9.29992E-03 5.80691E-04-6.82847E-14
 -1      2874 9.13726E-03 5.48395E-04-6.63135E-14
 -1      2875 9.03637E-03 4.85795E-04-6.53542E-14
 -1      2876 9.62732E-03 6.55352E-04-7.22876E-14
 -1      2877 9.46367E-03 6.16603E-04-7.02756E-14
 -1      2878 9.36537E-03 5.49443E-04-6.92918E-14
 -1      2879 9.95298E-03 7.35800E-04-7.63633E-14
 -1      2880 9.79082E-03 6.95780E-04-7.43160E-14
 -1      2881 9.69871E-03 6.28607E-04-7.33091E-14
 -1      2882 1.02716E-02 8.05892E-04-8.05131E-14
 -1      2883 1.01134E-02 7.73545E-04-7.84299E-14
 -1      2884 1.00304E-02 7.13494E-04-7.73995E-14
 -1      2885 1.05808E-02 8.44621E-04-8.47265E-14
 -1      2886 1.04271E-02 8.30681E-04-8.26123E-14
 -1      2887 1.03537E-02 7.84921E-04-8.15601E-14
 -1      2888 1.08839E-02 8.34165E-04-8.90034E-14
 -1      2889 1.07323E-02 8.46296E-04-8.68583E-14
 -1      2890 1.06664E-02 8.17909E-04-8.57883E-14
 -1      2891 1.11888E-02 7.69889E-04-9.33380E-14
 -1      2892 1.10353E-02 8.08171E-04-9.11638E-14
 -1      2893 1.09740E-02 7.93632E-04-9.00749E-14
 -1      2894 1.15016E-02 6.63822E-04-9.77262E-14
 -1      2895 1.13439E-02 7.20720E-04-9.55241E-14
 -1      2896 1.12864E-02 7.11952E-04-9.44193E-14
 -1      2897 1.18230E-02 5.36465E-04-1.02175E-13
 -1      2898 1.16615E-02 6.01351E-04-9.99438E-14
 -1      2899 1.16091E-02 5.91405E-04-9.88193E-14
 -1      2900 1.21485E-02 4.07010E-04-1.06679E-13
 -1      2901 1.19857E-02 4.71039E-04-1.04420E-13
 -1      2902 1.19401E-02 4.56745E-04-1.03279E-13
 -1      2903 1.24727E-02 2.87366E-04-1.11229E-13
 -1      2904 1.23112E-02 3.45514E-04-1.08949E-13
 -1      2905 1.22725E-02 3.27012E-04-1.07791E-13
 -1      2906 1.27919E-02 1.82162E-04-1.15818E-13
 -1      2907 1.26332E-02 2.32946E-04-1.13519E-13
 -1      2908 1.26002E-02 2.11670E-04-1.12349E-13
 -1      2909 1.31044E-02 9.07606E-05-1.20438E-13
 -1      2910 1.29491E-02 1.34938E-04-1.18124E-13
 -1      2911 1.29201E-02 1.12487E-04-1.16942E-13
 -1      2912 1.34101E-02 9.78200E-06-1.25087E-13
 -1      2913 1.32581E-02 4.92553E-05-1.22760E-13
 -1      2914 1.32314E-02 2.68812E-05-1.21565E-13
 -1      2915 1.37096E-02-6.52959E-05-1.29762E-13
 -1      2916 1.35606E-02-2.81866E-05-1.27421E-13
 -1      2917 1.35350E-02-4.94991E-05-1.26220E-13
 -1      2918 1.39816E-02-1.38882E-04-1.33928E-13
 -1      2919 1.38350E-02-1.02069E-04-1.31579E-13
 -1      2920 1.38101E-02-1.21749E-04-1.30368E-13
 -1      2921 1.40588E-02-1.92747E-04-1.34006E-13
 -1      2922 1.45300E-02-5.29087E-04-1.33252E-13
 -1      2923 1.44933E-02-4.99700E-04-1.33320E-13
 -1      2924 1.43562E-02-4.03646E-04-1.33509E-13
 -1      2925 1.43039E-02-3.68670E-04-1.33567E-13
 -1      2926 1.45861E-02-5.84936E-04-1.33101E-13
 -1      2927 1.45611E-02-5.57296E-04-1.33179E-13
 -1      2928 1.44323E-02-5.24677E-04-1.31188E-13
 -1      2929 1.44516E-02-4.69160E-04-1.33384E-13
 -1      2930 1.44057E-02-4.37111E-04-1.33445E-13
 -1      2931 1.42620E-02-3.98462E-04-1.31451E-13
 -1      2932 1.43567E-02-4.64630E-04-1.31326E-13
 -1      2933 1.70106E-03 4.40540E-04-2.60509E-15
 -1      2934 1.55862E-03 4.25698E-04-2.19798E-15
 -1      2935 1.47604E-03 3.82242E-04-2.05405E-15
 -1      2936 1.76204E-03 4.11201E-04-2.87387E-15
 -1      2937 1.46170E-02-6.38454E-04-1.32941E-13
 -1      2938 1.46046E-02-6.11594E-04-1.33024E-13
 -1      2939 1.44831E-02-5.80067E-04-1.31037E-13
 -1      2940 1.46246E-02-6.94602E-04-1.32764E-13
 -1      2941 1.46236E-02-6.66041E-04-1.32853E-13
 -1      2942 1.45076E-02-6.34498E-04-1.30869E-13
 -1      2943 1.46126E-02-7.55276E-04-1.32573E-13
 -1      2944 1.46206E-02-7.24171E-04-1.32670E-13
 -1      2945 1.45076E-02-6.91989E-04-1.30686E-13
 -1      2946 8.67749E-03-1.91538E-04-7.09877E-14
 -1      2947 8.65989E-03-1.85728E-04-7.11140E-14
 -1      2948 1.09078E-02 7.13514E-04-8.79663E-14
 -1      2949 1.10448E-02 6.89356E-04-8.96336E-14
 -1      2950 1.02978E-02 5.58301E-04-8.12729E-14
 -1      2951 1.04749E-02 6.35339E-04-8.31114E-14
 -1      2952 9.12563E-03-4.02642E-05-7.33814E-14
 -1      2953 9.28036E-03 2.11540E-05-7.41931E-14
 -1      2954 1.28557E-02-5.77207E-04-1.02073E-13
 -1      2955 1.26911E-02-6.48706E-04-1.01045E-13
 -1      2956 1.09317E-02-1.34473E-03-8.47476E-14
 -1      2957 9.18765E-03-3.56674E-04-7.24959E-14
 -1      2958 9.00662E-03-2.88221E-04-7.17441E-14
 -1      2959 1.15821E-02 4.29964E-04-9.51396E-14
 -1      2960 1.17483E-02 3.27229E-04-9.66031E-14
 -1      2961 7.84449E-04 1.23519E-04-7.90275E-16
 -1      2962 7.82076E-04 1.00074E-04-7.98312E-16
 -1      2963 8.99711E-04 9.94968E-05-1.01529E-15
 -1      2964 9.05415E-04 1.51653E-04-9.95799E-16
 -1      2965 7.81811E-04-9.80235E-05-7.87754E-16
 -1      2966 7.84109E-04-1.21388E-04-7.76926E-16
 -1      2967 1.33682E-02-4.03575E-04-1.05969E-13
 -1      2968 1.33635E-02-4.08423E-04-1.05346E-13
 -1      2969 1.33830E-02-4.24172E-04-1.06535E-13
 -1      2970 1.20784E-02-9.75717E-04-9.65642E-14
 -1      2971 1.19042E-02-1.08018E-03-9.50781E-14
 -1      2972 1.12553E-02 6.11584E-04-9.19864E-14
 -1      2973 1.14143E-02 5.26403E-04-9.35855E-14
 -1      2974 1.24706E-02-7.50569E-05-1.01986E-13
 -1      2975 1.26859E-02-1.78837E-04-1.02862E-13
 -1      2976 9.58032E-03-5.45691E-04-7.44119E-14
 -1      2977 9.40097E-03-4.53927E-04-7.34870E-14
 -1      2978 9.83730E-03 3.14690E-04-7.72615E-14
 -1      2979 1.00427E-02 4.31427E-04-7.88673E-14
 -1      2980 9.44748E-03 9.90210E-05-7.50345E-14
 -1      2981 9.61352E-03 1.88367E-04-7.58807E-14
 -1      2982 9.32819E-03 6.91341E-05-7.36805E-14
 -1      2983 8.84698E-03-1.29460E-04-7.19269E-14
 -1      2984 8.96417E-03-9.55674E-05-7.24804E-14
 -1      2985 8.83865E-03-2.33314E-04-7.12316E-14
 -1      2986 8.74099E-03-2.08701E-04-7.10642E-14
 -1      2987 1.44736E-02-8.60856E-04-1.30668E-13
 -1      2988 1.45706E-02-8.72841E-04-1.32253E-13
 -1      2989 1.46078E-02-8.43972E-04-1.32758E-13
 -1      2990 1.44152E-02-8.21563E-04-1.29581E-13
 -1      2991 1.31525E-02-4.66434E-04-1.03639E-13
 -1      2992 1.30268E-02-5.08107E-04-1.02987E-13
 -1      2993 1.06242E-02 6.83686E-04-8.47202E-14
 -1      2994 1.07656E-02 7.10944E-04-8.63362E-14
 -1      2995 1.08085E-02 7.20208E-04-8.69094E-14
 -1      2996 1.05339E-02 6.68679E-04-8.36728E-14
 -1      2997 6.88536E-04-2.04080E-04-5.38564E-16
 -1      2998 1.24937E-02-7.43274E-04-9.96612E-14
 -1      2999 1.23165E-02-8.40173E-04-9.84296E-14
 -1      3000 1.19500E-02 2.08975E-04-9.84034E-14
 -1      3001 1.21605E-02 8.96180E-05-1.00070E-13
 -1      3002 1.00136E-02-8.05787E-04-7.69201E-14
 -1      3003 9.79913E-03-6.69983E-04-7.56335E-14
 -1      3004 9.94867E-04 3.35291E-04-9.39380E-16
 -1      3005 8.73401E-04 2.68932E-04-8.04424E-16
 -1      3006 9.91515E-04 2.77906E-04-1.03123E-15
 -1      3007 1.13845E-03 3.64110E-04-1.20623E-15
 -1      3008 7.87156E-04-1.45550E-04-7.63576E-16
 -1      3009 7.91051E-04-1.70736E-04-7.47341E-16
 -1      3010 9.04953E-04-1.49148E-04-9.77422E-16
 -1      3011 8.95603E-04 1.01178E-06-1.02597E-15
 -1      3012 7.77742E-04-9.72590E-06-8.10251E-16
 -1      3013 7.78103E-04-3.13856E-05-8.07378E-16
 -1      3014 1.19829E-03 3.43459E-04-1.39240E-15
 -1      3015 1.06006E-02-1.19217E-03-8.12557E-14
 -1      3016 1.31529E-02-3.43644E-04-1.05400E-13
 -1      3017 9.69730E-03-6.52029E-04-7.33061E-14
 -1      3018 9.88144E-03-7.74379E-04-7.42134E-14
 -1      3019 1.00842E-02-8.83779E-04-7.62228E-14
 -1      3020 1.15006E-02 4.85734E-04-9.48042E-14
 -1      3021 1.17522E-02-1.17153E-03-9.36833E-14
 -1      3022 1.29770E-02-5.51537E-04-1.03584E-13
 -1      3023 1.41138E-02-2.32626E-04-1.33957E-13
 -1      3024 1.39905E-02-1.98417E-04-1.32138E-13
 -1      3025 1.41693E-02-2.71573E-04-1.33909E-13
 -1      3026 1.01533E-02 5.05972E-04-7.96539E-14
 -1      3027 1.02461E-02 5.71894E-04-8.04438E-14
 -1      3028 1.00088E-02 4.59714E-04-7.80461E-14
 -1      3029 1.18555E-02 2.78372E-04-9.81629E-14
 -1      3030 8.64964E-03-1.74161E-04-7.04547E-14
 -1      3031 8.68019E-03-1.94060E-04-7.00150E-14
 -1      3032 1.45882E-02-8.22335E-04-1.32365E-13
 -1      3033 1.46014E-02-7.87898E-04-1.32471E-13
 -1      3034 1.10336E-02 7.00207E-04-8.97904E-14
 -1      3035 1.11379E-02 6.63716E-04-9.08883E-14
 -1      3036 1.12287E-02 6.30912E-04-9.21455E-14
 -1      3037 8.03082E-04-2.03408E-04-7.33327E-16
 -1      3038 8.21661E-04-2.53939E-04-6.98389E-16
 -1      3039 9.52780E-04-2.88339E-04-8.96500E-16
 -1      3040 9.21178E-04-2.11352E-04-9.45438E-16
 -1      3041 9.01337E-03-5.83048E-05-7.19498E-14
 -1      3042 8.89535E-03-2.53969E-04-7.05980E-14
 -1      3043 8.79770E-03-2.30826E-04-6.94593E-14
 -1      3044 8.94938E-03-2.80583E-04-6.99650E-14
 -1      3045 9.69972E-03 2.64348E-04-7.58890E-14
 -1      3046 9.67931E-03-6.13325E-04-7.42926E-14
 -1      3047 1.23399E-02 3.69528E-06-1.01891E-13
 -1      3048 1.25124E-02-6.56676E-05-1.03724E-13
 -1      3049 1.22283E-02 8.37612E-05-1.01794E-13
 -1      3050 1.32430E-02-4.59644E-04-1.05205E-13
 -1      3051 1.26275E-02-7.05458E-04-1.01276E-13
 -1      3052 9.26384E-03-3.99998E-04-7.20913E-14
 -1      3053 1.01521E-03-2.72485E-04-1.05261E-15
 -1      3054 1.22097E-02-9.25402E-04-9.80167E-14
 -1      3055 1.42647E-02-3.39495E-04-1.33715E-13
 -1      3056 1.42100E-02-3.02466E-04-1.33765E-13
 -1      3057 1.40880E-02-2.70873E-04-1.31948E-13
 -1      3058 1.41699E-02-3.33077E-04-1.31659E-13
 -1      3059 1.33409E-02-3.92272E-04-1.06946E-13
 -1      3060 1.33594E-02-3.98379E-04-1.06458E-13
 -1      3061 1.34113E-02-4.11919E-04-1.07649E-13
 -1      3062 7.78876E-04-5.31828E-05-8.02770E-16
 -1      3063 7.80084E-04-7.53836E-05-7.96211E-16
 -1      3064 8.99431E-04-9.71503E-05-1.00325E-15
 -1      3065 8.96491E-04-4.75516E-05-1.01904E-15
 -1      3066 8.77411E-03-1.37822E-04-7.10160E-14
 -1      3067 1.28319E-02-2.28081E-04-1.04432E-13
 -1      3068 1.44883E-02-7.54987E-04-1.30488E-13
 -1      3069 1.04030E-03 2.43357E-04-1.18414E-15
 -1      3070 1.03371E-03 2.11629E-04-1.20677E-15
 -1      3071 1.43890E-02-6.89548E-04-1.28610E-13
 -1      3072 1.43962E-02-6.59332E-04-1.28705E-13
 -1      3073 9.50482E-03-5.44820E-04-7.20999E-14
 -1      3074 8.91192E-03-6.43837E-05-7.04532E-14
 -1      3075 9.05631E-03-1.60124E-05-7.13416E-14
 -1      3076 1.14363E-02 5.34517E-04-9.45484E-14
 -1      3077 1.15882E-02 4.47707E-04-9.61089E-14
 -1      3078 1.44460E-03-3.13798E-04-2.03339E-15
 -1      3079 1.58811E-03-3.28251E-04-2.41873E-15
 -1      3080 1.73170E-03-3.40474E-04-2.83824E-15
 -1      3081 1.87537E-03-3.50639E-04-3.29141E-15
 -1      3082 1.65244E-03-3.00167E-04-2.66491E-15
 -1      3083 2.01903E-03-3.59074E-04-3.77916E-15
 -1      3084 2.16269E-03-3.65932E-04-4.30104E-15
 -1      3085 1.94025E-03-3.19302E-04-3.57773E-15
 -1      3086 2.30629E-03-3.71487E-04-4.85611E-15
 -1      3087 2.44985E-03-3.75864E-04-5.44551E-15
 -1      3088 2.22831E-03-3.32289E-04-4.62557E-15
 -1      3089 2.59335E-03-3.79280E-04-6.06852E-15
 -1      3090 2.73679E-03-3.81831E-04-6.72472E-15
 -1      3091 2.51630E-03-3.40617E-04-5.80848E-15
 -1      3092 2.88019E-03-3.83684E-04-7.41421E-15
 -1      3093 3.02352E-03-3.84912E-04-8.13744E-15
 -1      3094 2.80409E-03-3.45494E-04-7.12517E-15
 -1      3095 3.16681E-03-3.85638E-04-8.89391E-15
 -1      3096 3.31005E-03-3.85914E-04-9.68251E-15
 -1      3097 3.09160E-03-3.47858E-04-8.57464E-15
 -1      3098 3.45326E-03-3.85826E-04-1.05038E-14
 -1      3099 3.59641E-03-3.85410E-04-1.13579E-14
 -1      3100 3.37883E-03-3.48408E-04-1.01556E-14
 -1      3101 3.73955E-03-3.84725E-04-1.22449E-14
 -1      3102 3.88264E-03-3.83792E-04-1.31642E-14
 -1      3103 3.66578E-03-3.47640E-04-1.18663E-14
 -1      3104 4.02570E-03-3.82648E-04-1.41158E-14
 -1      3105 4.16874E-03-3.81304E-04-1.51002E-14
 -1      3106 3.95246E-03-3.45887E-04-1.37071E-14
 -1      3107 4.31175E-03-3.79778E-04-1.61175E-14
 -1      3108 4.45473E-03-3.78074E-04-1.71666E-14
 -1      3109 4.23887E-03-3.43349E-04-1.56781E-14
 -1      3110 4.59768E-03-3.76198E-04-1.82466E-14
 -1      3111 4.74061E-03-3.74145E-04-1.93592E-14
 -1      3112 4.52503E-03-3.40129E-04-1.77772E-14
 -1      3113 4.88350E-03-3.71916E-04-2.05048E-14
 -1      3114 5.02637E-03-3.69500E-04-2.16812E-14
 -1      3115 4.81091E-03-3.36251E-04-2.00038E-14
 -1      3116 5.16919E-03-3.66893E-04-2.28888E-14
 -1      3117 5.31198E-03-3.64084E-04-2.41306E-14
 -1      3118 5.09648E-03-3.31692E-04-2.23587E-14
 -1      3119 5.45472E-03-3.61067E-04-2.54041E-14
 -1      3120 5.59741E-03-3.57832E-04-2.67087E-14
 -1      3121 5.38167E-03-3.26400E-04-2.48417E-14
 -1      3122 5.74001E-03-3.54378E-04-2.80447E-14
 -1      3123 5.88256E-03-3.50697E-04-2.94114E-14
 -1      3124 5.66638E-03-3.20322E-04-2.74523E-14
 -1      3125 6.02499E-03-3.46801E-04-3.08091E-14
 -1      3126 6.16733E-03-3.42688E-04-3.22379E-14
 -1      3127 5.95047E-03-3.13430E-04-3.01870E-14
 -1      3128 6.30951E-03-3.38391E-04-3.36972E-14
 -1      3129 6.45157E-03-3.33915E-04-3.51845E-14
 -1      3130 6.23373E-03-3.05765E-04-3.30450E-14
 -1      3131 6.59341E-03-3.29330E-04-3.67011E-14
 -1      3132 6.73507E-03-3.24653E-04-3.82462E-14
 -1      3133 6.51590E-03-2.97472E-04-3.60214E-14
 -1      3134 6.87645E-03-3.20000E-04-3.98179E-14
 -1      3135 7.01760E-03-3.15409E-04-4.14181E-14
 -1      3136 6.79665E-03-2.88863E-04-3.91100E-14
 -1      3137 7.15838E-03-3.11058E-04-4.30451E-14
 -1      3138 7.29891E-03-3.07018E-04-4.46982E-14
 -1      3139 7.07557E-03-2.80476E-04-4.23092E-14
 -1      3140 7.43901E-03-3.03540E-04-4.63767E-14
 -1      3141 7.57884E-03-3.00741E-04-4.80810E-14
 -1      3142 7.35223E-03-2.73147E-04-4.56154E-14
 -1      3143 7.71827E-03-2.98956E-04-4.98105E-14
 -1      3144 7.85754E-03-2.98382E-04-5.15613E-14
 -1      3145 7.62628E-03-2.68069E-04-4.90242E-14
 -1      3146 7.99655E-03-2.99421E-04-5.33342E-14
 -1      3147 8.13578E-03-3.02418E-04-5.51317E-14
 -1      3148 7.89763E-03-2.66851E-04-5.25270E-14
 -1      3149 8.27522E-03-3.07791E-04-5.69502E-14
 -1      3150 8.41570E-03-3.16230E-04-5.87885E-14
 -1      3151 8.16683E-03-2.71561E-04-5.61193E-14
 -1      3152 8.55747E-03-3.28041E-04-6.06466E-14
 -1      3153 8.70197E-03-3.44723E-04-6.25262E-14
 -1      3154 8.43584E-03-2.84920E-04-5.97962E-14
 -1      3155 8.84986E-03-3.66450E-04-6.44226E-14
 -1      3156 9.00321E-03-3.96022E-04-6.63367E-14
 -1      3157 8.70947E-03-3.11030E-04-6.35527E-14
 -1      3158 9.15909E-03-4.32059E-04-6.82261E-14
 -1      3159 9.32853E-03-4.83070E-04-7.01782E-14
 -1      3160 9.30200E-03-4.37702E-04-7.11493E-14
 -1      3161 8.99327E-03-3.56767E-04-6.73392E-14
 -1      3162 1.07052E-02-1.25715E-03-8.21324E-14
 -1      3163 1.08948E-02-1.33532E-03-8.42218E-14
 -1      3164 2.68332E-03 4.17196E-04-6.55068E-15
 -1      3165 2.54034E-03 4.14134E-04-5.89791E-15
 -1      3166 1.29362E-02-7.05378E-04-1.06253E-13
 -1      3167 1.31007E-02-6.88795E-04-1.08510E-13
 -1      3168 1.32576E-02-6.83200E-04-1.10778E-13
 -1      3169 1.34089E-02-6.83921E-04-1.13053E-13
 -1      3170 1.32380E-02-6.33986E-04-1.09734E-13
 -1      3171 1.35558E-02-6.90831E-04-1.15340E-13
 -1      3172 1.37002E-02-7.01539E-04-1.17637E-13
 -1      3173 1.35252E-02-6.45594E-04-1.14288E-13
 -1      3174 1.38425E-02-7.15633E-04-1.19944E-13
 -1      3175 1.39838E-02-7.31896E-04-1.22260E-13
 -1      3176 1.38019E-02-6.72790E-04-1.18881E-13
 -1      3177 2.39729E-03 4.10109E-04-5.27903E-15
 -1      3178 2.25420E-03 4.05017E-04-4.69419E-15
 -1      3179 2.46289E-03 3.75282E-04-5.63223E-15
 -1      3180 2.11105E-03 3.98611E-04-4.14398E-15
 -1      3181 1.96782E-03 3.90755E-04-3.62845E-15
 -1      3182 2.17566E-03 3.65471E-04-4.46056E-15
 -1      3183 1.43808E-02-5.75826E-04-1.28974E-13
 -1      3184 1.43619E-02-5.48817E-04-1.29054E-13
 -1      3185 3.25495E-03 4.22641E-04-9.50292E-15
 -1      3186 3.11208E-03 4.22107E-04-8.71380E-15
 -1      3187 3.54065E-03 4.22543E-04-1.11803E-14
 -1      3188 3.39781E-03 4.22772E-04-1.03249E-14
 -1      3189 3.32326E-03 3.85355E-04-9.96179E-15
 -1      3190 3.82634E-03 4.21225E-04-1.29908E-14
 -1      3191 3.68350E-03 4.22018E-04-1.20689E-14
 -1      3192 3.60966E-03 3.84937E-04-1.16730E-14
 -1      3193 4.11203E-03 4.18971E-04-1.49325E-14
 -1      3194 3.96919E-03 4.20204E-04-1.39455E-14
 -1      3195 3.89590E-03 3.83430E-04-1.35159E-14
 -1      3196 4.39775E-03 4.15945E-04-1.70062E-14
 -1      3197 4.25489E-03 4.17550E-04-1.59530E-14
 -1      3198 4.18201E-03 3.81073E-04-1.54897E-14
 -1      3199 4.68352E-03 4.12217E-04-1.92083E-14
 -1      3200 4.54063E-03 4.14168E-04-1.80913E-14
 -1      3201 4.46800E-03 3.77996E-04-1.75944E-14
 -1      3202 4.96935E-03 4.07794E-04-2.15380E-14
 -1      3203 4.82642E-03 4.10094E-04-2.03571E-14
 -1      3204 4.75388E-03 3.74250E-04-1.98276E-14
 -1      3205 5.25527E-03 4.02647E-04-2.39943E-14
 -1      3206 5.11230E-03 4.05313E-04-2.27504E-14
 -1      3207 5.03965E-03 3.69825E-04-2.21870E-14
 -1      3208 5.54131E-03 3.96740E-04-2.65758E-14
 -1      3209 5.39827E-03 3.99790E-04-2.52693E-14
 -1      3210 5.32531E-03 3.64685E-04-2.46727E-14
 -1      3211 5.82751E-03 3.90061E-04-2.92809E-14
 -1      3212 5.68438E-03 3.93496E-04-2.79140E-14
 -1      3213 5.61087E-03 3.58790E-04-2.72840E-14
 -1      3214 6.11395E-03 3.82661E-04-3.21070E-14
 -1      3215 5.97069E-03 3.86446E-04-3.06786E-14
 -1      3216 5.89635E-03 3.52126E-04-3.00176E-14
 -1      3217 6.40075E-03 3.74701E-04-3.50495E-14
 -1      3218 6.25728E-03 3.78737E-04-3.35639E-14
 -1      3219 6.18178E-03 3.44744E-04-3.28709E-14
 -1      3220 6.68809E-03 3.66510E-04-3.81052E-14
 -1      3221 6.54432E-03 3.70608E-04-3.65629E-14
 -1      3222 6.46724E-03 3.36802E-04-3.58393E-14
 -1      3223 6.97627E-03 3.58655E-04-4.12722E-14
 -1      3224 6.83204E-03 3.62497E-04-3.96752E-14
 -1      3225 6.75291E-03 3.28620E-04-3.89191E-14
 -1      3226 7.26577E-03 3.52024E-04-4.45490E-14
 -1      3227 7.12081E-03 3.55118E-04-4.28973E-14
 -1      3228 7.03910E-03 3.20745E-04-4.21128E-14
 -1      3229 7.55731E-03 3.47916E-04-4.79316E-14
 -1      3230 7.41122E-03 3.49552E-04-4.62274E-14
 -1      3231 7.32632E-03 3.14031E-04-4.54142E-14
 -1      3232 7.85196E-03 3.48143E-04-5.14181E-14
 -1      3233 7.70416E-03 3.47341E-04-4.96623E-14
 -1      3234 7.61546E-03 3.09731E-04-4.88210E-14
 -1      3235 8.15122E-03 3.55114E-04-5.50064E-14
 -1      3236 8.00092E-03 3.50582E-04-5.31989E-14
 -1      3237 7.90781E-03 3.09609E-04-5.23301E-14
 -1      3238 8.45700E-03 3.71892E-04-5.86910E-14
 -1      3239 8.30321E-03 3.62011E-04-5.68370E-14
 -1      3240 8.20529E-03 3.16082E-04-5.59382E-14
 -1      3241 8.77142E-03 4.02103E-04-6.24735E-14
 -1      3242 8.61309E-03 3.85000E-04-6.05702E-14
 -1      3243 8.51042E-03 3.32368E-04-5.96439E-14
 -1      3244 9.09605E-03 4.49489E-04-6.63421E-14
 -1      3245 8.93255E-03 4.23346E-04-6.43976E-14
 -1      3246 8.82603E-03 3.62572E-04-6.34433E-14
 -1      3247 9.43063E-03 5.16526E-04-7.02968E-14
 -1      3248 9.26245E-03 4.80474E-04-6.83081E-14
 -1      3249 9.15443E-03 4.11416E-04-6.73281E-14
 -1      3250 9.77125E-03 6.01226E-04-7.43272E-14
 -1      3251 9.60083E-03 5.57168E-04-7.23024E-14
 -1      3252 9.49553E-03 4.82661E-04-7.12973E-14
 -1      3253 1.01103E-02 6.92318E-04-7.84327E-14
 -1      3254 9.94185E-03 6.47435E-04-7.63708E-14
 -1      3255 9.84449E-03 5.74807E-04-7.53430E-14
 -1      3256 1.04387E-02 7.66265E-04-8.26051E-14
 -1      3257 1.02760E-02 7.33797E-04-8.05103E-14
 -1      3258 1.01908E-02 6.74289E-04-7.94603E-14
 -1      3259 1.07546E-02 7.92447E-04-8.68442E-14
 -1      3260 1.05972E-02 7.87399E-04-8.47166E-14
 -1      3261 1.05241E-02 7.50810E-04-8.36475E-14
 -1      3262 1.10675E-02 7.50962E-04-9.11436E-14
 -1      3263 1.09102E-02 7.80307E-04-8.89866E-14
 -1      3264 1.08446E-02 7.65816E-04-8.78988E-14
 -1      3265 1.13885E-02 6.48533E-04-9.54975E-14
 -1      3266 1.12259E-02 7.05435E-04-9.33135E-14
 -1      3267 1.11651E-02 7.01942E-04-9.22076E-14
 -1      3268 1.17225E-02 5.12732E-04-9.99110E-14
 -1      3269 1.15541E-02 5.82497E-04-9.76973E-14
 -1      3270 1.14982E-02 5.76623E-04-9.65756E-14
 -1      3271 1.20634E-02 3.72459E-04-1.04381E-13
 -1      3272 1.18930E-02 4.41623E-04-1.02140E-13
 -1      3273 1.18449E-02 4.27324E-04-1.01002E-13
 -1      3274 1.24019E-02 2.45008E-04-1.08902E-13
 -1      3275 1.22338E-02 3.06616E-04-1.06636E-13
 -1      3276 1.21948E-02 2.84883E-04-1.05482E-13
 -1      3277 1.27314E-02 1.35851E-04-1.13466E-13
 -1      3278 1.25681E-02 1.88123E-04-1.11180E-13
 -1      3279 1.25368E-02 1.62603E-04-1.10012E-13
 -1      3280 1.30504E-02 4.38369E-05-1.18063E-13
 -1      3281 1.28924E-02 8.80325E-05-1.15760E-13
 -1      3282 1.28659E-02 6.14472E-05-1.14580E-13
 -1      3283 1.33594E-02-3.54976E-05-1.22692E-13
 -1      3284 1.32061E-02 2.96244E-06-1.20373E-13
 -1      3285 1.31823E-02-2.26983E-05-1.19183E-13
 -1      3286 1.36602E-02-1.07188E-04-1.27349E-13
 -1      3287 1.35107E-02-7.19416E-05-1.25016E-13
 -1      3288 1.34878E-02-9.57052E-05-1.23815E-13
 -1      3289 1.38887E-02-1.70515E-04-1.30648E-13
 -1      3290 1.37635E-02-1.35859E-04-1.28836E-13
 -1      3291 1.37409E-02-1.57626E-04-1.27627E-13
 -1      3292 1.39454E-02-2.11955E-04-1.30601E-13
 -1      3293 8.69203E-03-1.45790E-04-6.98709E-14
 -1      3294 8.76683E-03-1.17985E-04-6.99118E-14
 -1      3295 1.43355E-02-5.20929E-04-1.29131E-13
 -1      3296 1.43023E-02-4.91779E-04-1.29204E-13
 -1      3297 1.42398E-02-5.17493E-04-1.27077E-13
 -1      3298 1.06678E-02-1.22048E-03-8.23558E-14
 -1      3299 9.19573E-03 4.03404E-05-7.21690E-14
 -1      3300 9.34085E-03 1.08424E-04-7.29985E-14
 -1      3301 9.07196E-03 2.41257E-05-7.06672E-14
 -1      3302 8.66982E-03-1.94926E-04-6.87193E-14
 -1      3303 8.61620E-03-1.80210E-04-6.86426E-14
 -1      3304 1.43978E-02-6.30793E-04-1.28797E-13
 -1      3305 1.43928E-02-6.02922E-04-1.28888E-13
 -1      3306 1.42787E-02-5.71919E-04-1.26912E-13
 -1      3307 1.42866E-02-6.27019E-04-1.26731E-13
 -1      3308 1.24161E-02-8.43230E-04-1.00232E-13
 -1      3309 1.08146E-02-1.29523E-03-8.37621E-14
 -1      3310 1.31092E-02-5.35936E-04-1.05527E-13
 -1      3311 1.29623E-02-5.95158E-04-1.04606E-13
 -1      3312 8.60133E-03-1.67884E-04-6.88461E-14
 -1      3313 8.63007E-03-1.60829E-04-6.93589E-14
 -1      3314 8.60946E-03-1.43761E-04-6.82672E-14
 -1      3315 1.34397E-02-4.33997E-04-1.08299E-13
 -1      3316 1.33988E-02-4.43785E-04-1.07673E-13
 -1      3317 9.52805E-03 2.11570E-04-7.40561E-14
 -1      3318 9.72311E-03 3.23412E-04-7.54213E-14
 -1      3319 1.15851E-03-2.77011E-04-1.36528E-15
 -1      3320 1.30138E-03-2.96786E-04-1.68251E-15
 -1      3321 1.36548E-03-2.73167E-04-1.88772E-15
 -1      3322 2.96918E-03 4.21074E-04-7.95849E-15
 -1      3323 2.82627E-03 4.19482E-04-7.23770E-15
 -1      3324 2.74989E-03 3.81205E-04-6.93988E-15
 -1      3325 1.43618E-02-7.55117E-04-1.28408E-13
 -1      3326 1.43771E-02-7.21333E-04-1.28512E-13
 -1      3327 1.42681E-02-6.87553E-04-1.26538E-13
 -1      3328 9.99609E-04-2.33171E-04-1.07694E-15
 -1      3329 1.07879E-03-2.55137E-04-1.21688E-15
 -1      3330 9.86408E-04-1.96068E-04-1.09491E-15
 -1      3331 1.17676E-02 3.46468E-04-9.79090E-14
 -1      3332 1.19532E-02 2.42790E-04-9.97175E-14
 -1      3333 1.16955E-02 4.07448E-04-9.76518E-14
 -1      3334 1.28113E-02-1.98917E-04-1.05724E-13
 -1      3335 1.29880E-02-2.74133E-04-1.06340E-13
 -1      3336 1.31339E-02-3.29852E-04-1.06614E-13
 -1      3337 1.32489E-02-3.64243E-04-1.06970E-13
 -1      3338 9.11320E-03-3.53907E-04-7.01715E-14
 -1      3339 1.33293E-02-4.62179E-04-1.06968E-13
 -1      3340 1.32339E-02-4.89154E-04-1.06260E-13
 -1      3341 1.34100E-02-4.68627E-04-1.08733E-13
 -1      3342 1.27834E-02-6.63129E-04-1.03112E-13
 -1      3343 1.26063E-02-7.43985E-04-1.01720E-13
 -1      3344 1.25839E-02-7.88330E-04-1.02062E-13
 -1      3345 1.29400E-02-6.32940E-04-1.05053E-13
 -1      3346 1.01671E-03 6.82370E-05-1.26418E-15
 -1      3347 1.01554E-03 4.12435E-05-1.26713E-15
 -1      3348 1.15363E-03 3.12525E-04-1.34033E-15
 -1      3349 1.08236E-03 2.71718E-04-1.23915E-15
 -1      3350 1.20145E-03 2.73123E-04-1.51703E-15
 -1      3351 1.28814E-03 3.32616E-04-1.63865E-15
 -1      3352 1.01495E-03 1.44562E-05-1.26784E-15
 -1      3353 1.01492E-03-1.22321E-05-1.26614E-15
 -1      3354 1.13566E-03 3.01784E-05-1.53473E-15
 -1      3355 1.01850E-03 9.55090E-05-1.25881E-15
 -1      3356 1.13830E-03 8.85942E-05-1.52802E-15
 -1      3357 1.02095E-03 1.23289E-04-1.25065E-15
 -1      3358 9.38264E-03 1.74245E-04-7.25385E-14
 -1      3359 8.79881E-03-8.60192E-05-6.93132E-14
 -1      3360 8.82623E-03-4.89054E-05-6.87110E-14
 -1      3361 8.69909E-03-9.82617E-05-6.81787E-14
 -1      3362 1.31120E-02-3.04103E-04-1.07913E-13
 -1      3363 1.32253E-02-5.28870E-04-1.07290E-13
 -1      3364 1.88829E-03 3.50399E-04-3.42525E-15
 -1      3365 1.82454E-03 3.81138E-04-3.14709E-15
 -1      3366 1.68119E-03 3.69585E-04-2.69992E-15
 -1      3367 1.33382E-02-3.83935E-04-1.08166E-13
 -1      3368 1.27695E-02-7.43443E-04-1.04296E-13
 -1      3369 1.40959E-02-7.04549E-04-1.23811E-13
 -1      3370 1.41450E-02-7.45681E-04-1.24883E-13
 -1      3371 1.42847E-02-7.64691E-04-1.27217E-13
 -1      3372 3.03668E-03 3.84300E-04-8.38358E-15
 -1      3373 1.41689E-02-3.95091E-04-1.29400E-13
 -1      3374 1.41161E-02-3.59051E-04-1.29460E-13
 -1      3375 9.83426E-03 3.97857E-04-7.61935E-14
 -1      3376 9.93274E-03 4.69198E-04-7.69660E-14
 -1      3377 9.66104E-03 3.45374E-04-7.43542E-14
 -1      3378 1.34637E-02-4.23607E-04-1.09284E-13
 -1      3379 1.34565E-02-4.28321E-04-1.08792E-13
 -1      3380 1.34935E-02-4.46693E-04-1.09935E-13
 -1      3381 1.42629E-02-4.61420E-04-1.29273E-13
 -1      3382 1.42181E-02-4.29071E-04-1.29336E-13
 -1      3383 1.40770E-02-3.92977E-04-1.27350E-13
 -1      3384 1.41705E-02-4.58961E-04-1.27221E-13
 -1      3385 1.02414E-02 6.06514E-04-8.02078E-14
 -1      3386 1.03814E-02 6.43950E-04-8.18360E-14
 -1      3387 1.08997E-02 7.28901E-04-8.82281E-14
 -1      3388 1.09885E-02 7.19685E-04-8.94738E-14
 -1      3389 1.15316E-03 2.11895E-04-1.47683E-15
 -1      3390 1.02839E-03 1.81231E-04-1.22493E-15
 -1      3391 1.02423E-03 1.51898E-04-1.23943E-15
 -1      3392 1.44928E-02-8.10906E-04-1.30777E-13
 -1      3393 1.13207E-02 5.99963E-04-9.34382E-14
 -1      3394 1.20394E-02 2.27799E-04-1.01281E-13
 -1      3395 1.21268E-02 1.57075E-04-1.01539E-13
 -1      3396 1.22989E-02 8.05666E-05-1.03370E-13
 -1      3397 1.43972E-02-7.99063E-04-1.29189E-13
 -1      3398 8.98730E-03-3.14714E-04-6.90358E-14
 -1      3399 8.69624E-03-2.08562E-04-6.80944E-14
 -1      3400 8.60620E-03-1.92642E-04-6.67372E-14
 -1      3401 8.72656E-03-2.26786E-04-6.74689E-14
 -1      3402 1.05169E-02 6.88436E-04-8.34375E-14
 -1      3403 1.07744E-02 7.30931E-04-8.65974E-14
 -1      3404 1.14332E-03-2.36108E-04-1.38995E-15
 -1      3405 8.56668E-03-1.67376E-04-6.75602E-14
 -1      3406 1.40758E-02-3.28565E-04-1.29607E-13
 -1      3407 1.40344E-02-2.97067E-04-1.29754E-13
 -1      3408 1.39826E-02-3.25732E-04-1.27560E-13
 -1      3409 1.29311E-02-6.63560E-04-1.05511E-13
 -1      3410 1.01822E-03-9.30315E-05-1.24597E-15
 -1      3411 1.02059E-03-1.20750E-04-1.23403E-15
 -1      3412 1.26944E-02-1.34435E-04-1.05630E-13
 -1      3413 1.28654E-02-1.87902E-04-1.07543E-13
 -1      3414 1.25860E-02-6.46841E-05-1.05534E-13
 -1      3415 1.00086E-03-1.43897E-04-1.17510E-15
 -1      3416 1.00473E-03-1.72626E-04-1.15741E-15
 -1      3417 1.08237E-03-1.90950E-04-1.30622E-15
 -1      3418 1.12036E-03-1.40910E-04-1.43863E-15
 -1      3419 1.55628E-03 3.61527E-04-2.33103E-15
 -1      3420 1.41291E-03 3.45378E-04-1.94929E-15
 -1      3421 1.36911E-03 3.15161E-04-1.88287E-15
 -1      3422 1.61930E-03 3.33915E-04-2.57307E-15
 -1      3423 1.86200E-03-2.79973E-04-3.37659E-15
 -1      3424 2.00624E-03-2.87255E-04-3.86948E-15
 -1      3425 2.15056E-03-2.93253E-04-4.39583E-15
 -1      3426 2.29493E-03-2.98084E-04-4.95550E-15
 -1      3427 2.07319E-03-2.54524E-04-4.16656E-15
 -1      3428 2.43929E-03-3.01944E-04-5.54935E-15
 -1      3429 2.58362E-03-3.04925E-04-6.17669E-15
 -1      3430 2.36244E-03-2.63364E-04-5.29087E-15
 -1      3431 2.72790E-03-3.07191E-04-6.83660E-15
 -1      3432 2.87210E-03-3.08811E-04-7.52978E-15
 -1      3433 2.65172E-03-2.68849E-04-6.54866E-15
 -1      3434 3.01623E-03-3.09912E-04-8.25640E-15
 -1      3435 3.16026E-03-3.10545E-04-9.01563E-15
 -1      3436 2.94078E-03-2.71849E-04-7.93904E-15
 -1      3437 3.30421E-03-3.10803E-04-9.80776E-15
 -1      3438 3.44805E-03-3.10721E-04-1.06321E-14
 -1      3439 3.22946E-03-2.73037E-04-9.46049E-15
 -1      3440 3.59181E-03-3.10366E-04-1.14886E-14
 -1      3441 3.73546E-03-3.09758E-04-1.23779E-14
 -1      3442 3.51770E-03-2.72912E-04-1.11119E-14
 -1      3443 3.87902E-03-3.08945E-04-1.32994E-14
 -1      3444 4.02249E-03-3.07935E-04-1.42530E-14
 -1      3445 3.80546E-03-2.71821E-04-1.28924E-14
 -1      3446 4.16585E-03-3.06757E-04-1.52395E-14
 -1      3447 4.30912E-03-3.05412E-04-1.62585E-14
 -1      3448 4.09271E-03-2.69989E-04-1.48025E-14
 -1      3449 4.45228E-03-3.03918E-04-1.73084E-14
 -1      3450 4.59534E-03-3.02269E-04-1.83903E-14
 -1      3451 4.37946E-03-2.67545E-04-1.68409E-14
 -1      3452 4.73828E-03-3.00472E-04-1.95049E-14
 -1      3453 4.88111E-03-2.98517E-04-2.06517E-14
 -1      3454 4.66564E-03-2.64545E-04-1.90076E-14
 -1      3455 5.02381E-03-2.96408E-04-2.18298E-14
 -1      3456 5.16638E-03-2.94130E-04-2.30391E-14
 -1      3457 4.95121E-03-2.60993E-04-2.13017E-14
 -1      3458 5.30878E-03-2.91688E-04-2.42817E-14
 -1      3459 5.45102E-03-2.89064E-04-2.55567E-14
 -1      3460 5.23607E-03-2.56865E-04-2.37235E-14
 -1      3461 5.59305E-03-2.86267E-04-2.68621E-14
 -1      3462 5.73488E-03-2.83281E-04-2.81993E-14
 -1      3463 5.52005E-03-2.52128E-04-2.62733E-14
 -1      3464 5.87645E-03-2.80123E-04-2.95668E-14
 -1      3465 6.01776E-03-2.76779E-04-3.09648E-14
 -1      3466 5.80296E-03-2.46764E-04-2.89479E-14
 -1      3467 6.15872E-03-2.73285E-04-3.23949E-14
 -1      3468 6.29935E-03-2.69629E-04-3.38550E-14
 -1      3469 6.08449E-03-2.40799E-04-3.17466E-14
 -1      3470 6.43953E-03-2.65875E-04-3.53430E-14
 -1      3471 6.57928E-03-2.62016E-04-3.68599E-14
 -1      3472 6.36428E-03-2.34338E-04-3.46659E-14
 -1      3473 6.71846E-03-2.58153E-04-3.84038E-14
 -1      3474 6.85707E-03-2.54287E-04-3.99752E-14
 -1      3475 6.64183E-03-2.27604E-04-3.76989E-14
 -1      3476 6.99497E-03-2.50566E-04-4.15746E-14
 -1      3477 7.13217E-03-2.47000E-04-4.32015E-14
 -1      3478 6.91654E-03-2.20974E-04-4.08418E-14
 -1      3479 7.26849E-03-2.43798E-04-4.48562E-14
 -1      3480 7.40396E-03-2.40974E-04-4.65348E-14
 -1      3481 7.18768E-03-2.15022E-04-4.40954E-14
 -1      3482 7.53836E-03-2.38804E-04-4.82372E-14
 -1      3483 7.67181E-03-2.37310E-04-4.99669E-14
 -1      3484 7.45442E-03-2.10532E-04-4.74532E-14
 -1      3485 7.80405E-03-2.36826E-04-5.17182E-14
 -1      3486 7.93532E-03-2.37388E-04-5.34914E-14
 -1      3487 7.71584E-03-2.08489E-04-5.09085E-14
 -1      3488 8.06533E-03-2.39362E-04-5.52878E-14
 -1      3489 8.19459E-03-2.42835E-04-5.71067E-14
 -1      3490 7.97106E-03-2.10001E-04-5.44571E-14
 -1      3491 8.32276E-03-2.48112E-04-5.89466E-14
 -1      3492 8.45094E-03-2.55611E-04-6.08057E-14
 -1      3493 8.21947E-03-2.16106E-04-5.80948E-14
 -1      3494 8.85735E-03-2.90344E-04-6.71406E-14
 -1      3495 1.41173E-02-6.70173E-04-1.23914E-13
 -1      3496 1.41340E-02-6.38103E-04-1.24013E-13
 -1      3497 1.39659E-02-6.53826E-04-1.21297E-13
 -1      3498 1.35016E-02-6.00774E-04-1.13238E-13
 -1      3499 1.36339E-02-6.14530E-04-1.15524E-13
 -1      3500 1.37346E-02-6.24224E-04-1.17252E-13
 -1      3501 1.38659E-02-6.41772E-04-1.19557E-13
 -1      3502 1.38929E-02-6.07504E-04-1.19659E-13
 -1      3503 1.37026E-02-5.83319E-04-1.16194E-13
 -1      3504 2.52939E-03 3.39985E-04-5.98889E-15
 -1      3505 2.38539E-03 3.36370E-04-5.36761E-15
 -1      3506 2.24135E-03 3.31752E-04-4.78083E-15
 -1      3507 2.09729E-03 3.26023E-04-4.22751E-15
 -1      3508 2.30799E-03 2.97508E-04-5.10530E-15
 -1      3509 3.39203E-03 3.47852E-04-1.04229E-14
 -1      3510 3.24844E-03 3.47736E-04-9.60033E-15
 -1      3511 4.25210E-03 3.43149E-04-1.60481E-14
 -1      3512 4.10893E-03 3.44438E-04-1.50289E-14
 -1      3513 4.53825E-03 3.40083E-04-1.81845E-14
 -1      3514 4.39521E-03 3.41697E-04-1.71002E-14
 -1      3515 4.32229E-03 3.05251E-04-1.66082E-14
 -1      3516 4.82413E-03 3.36380E-04-2.04473E-14
 -1      3517 4.68123E-03 3.38313E-04-1.92995E-14
 -1      3518 4.60851E-03 3.02254E-04-1.87744E-14
 -1      3519 5.10973E-03 3.32020E-04-2.28370E-14
 -1      3520 4.96697E-03 3.34286E-04-2.16265E-14
 -1      3521 4.89429E-03 2.98656E-04-2.10676E-14
 -1      3522 5.39502E-03 3.26959E-04-2.53524E-14
 -1      3523 5.25241E-03 3.29582E-04-2.40791E-14
 -1      3524 5.17960E-03 2.94427E-04-2.34879E-14
 -1      3525 5.67997E-03 3.21152E-04-2.79932E-14
 -1      3526 5.53754E-03 3.24153E-04-2.66573E-14
 -1      3527 5.46440E-03 2.89517E-04-2.60334E-14
 -1      3528 5.96457E-03 3.14583E-04-3.07543E-14
 -1      3529 5.82231E-03 3.17965E-04-2.93582E-14
 -1      3530 5.74862E-03 2.83875E-04-2.87017E-14
 -1      3531 6.24881E-03 3.07295E-04-3.36343E-14
 -1      3532 6.10673E-03 3.11026E-04-3.21792E-14
 -1      3533 6.03219E-03 2.77478E-04-3.14910E-14
 -1      3534 6.53275E-03 2.99435E-04-3.66281E-14
 -1      3535 6.39081E-03 3.03426E-04-3.51178E-14
 -1      3536 6.31508E-03 2.70357E-04-3.43990E-14
 -1      3537 6.81654E-03 2.91298E-04-3.97358E-14
 -1      3538 6.67464E-03 2.95379E-04-3.81684E-14
 -1      3539 6.59731E-03 2.62635E-04-3.74191E-14
 -1      3540 7.10048E-03 2.83388E-04-4.29536E-14
 -1      3541 6.95845E-03 2.87275E-04-4.13302E-14
 -1      3542 6.87900E-03 2.54565E-04-4.05513E-14
 -1      3543 7.38517E-03 2.76496E-04-4.62794E-14
 -1      3544 7.24267E-03 2.79751E-04-4.46034E-14
 -1      3545 7.16045E-03 2.46584E-04-4.37949E-14
 -1      3546 7.67158E-03 2.71789E-04-4.97097E-14
 -1      3547 7.52806E-03 2.73767E-04-4.79815E-14
 -1      3548 7.44231E-03 2.39383E-04-4.71455E-14
 -1      3549 7.96129E-03 2.70953E-04-5.32413E-14
 -1      3550 7.81589E-03 2.70729E-04-5.14631E-14
 -1      3551 7.72566E-03 2.34008E-04-5.05986E-14
 -1      3552 8.25661E-03 2.76385E-04-5.68697E-14
 -1      3553 8.10807E-03 2.72642E-04-5.50430E-14
 -1      3554 8.01230E-03 2.32019E-04-5.41512E-14
 -1      3555 8.56070E-03 2.91486E-04-6.05952E-14
 -1      3556 8.40736E-03 2.82366E-04-5.87223E-14
 -1      3557 8.30499E-03 2.35780E-04-5.78012E-14
 -1      3558 8.87728E-03 3.20971E-04-6.44119E-14
 -1      3559 8.71728E-03 3.03929E-04-6.24924E-14
 -1      3560 8.60759E-03 2.48930E-04-6.15458E-14
 -1      3561 9.20967E-03 3.70860E-04-6.83131E-14
 -1      3562 9.04156E-03 3.42772E-04-6.63518E-14
 -1      3563 8.92490E-03 2.77042E-04-6.53790E-14
 -1      3564 9.55852E-03 4.46826E-04-7.22961E-14
 -1      3565 9.38266E-03 4.05236E-04-7.02948E-14
 -1      3566 9.26161E-03 3.28066E-04-6.92957E-14
 -1      3567 9.90255E-03 5.26608E-04-7.62568E-14
 -1      3568 9.72097E-03 4.71939E-04-7.42193E-14
 -1      3569 1.05317E-02 7.31861E-04-8.36730E-14
 -1      3570 1.03636E-02 6.94566E-04-8.15720E-14
 -1      3571 1.09335E-02 7.45996E-04-8.89770E-14
 -1      3572 1.07720E-02 7.58220E-04-8.68369E-14
 -1      3573 1.15972E-02 4.98257E-04-9.73154E-14
 -1      3574 1.14199E-02 5.77726E-04-9.51198E-14
 -1      3575 1.19421E-02 3.30838E-04-1.01347E-13
 -1      3576 1.17590E-02 4.12935E-04-9.91256E-14
 -1      3577 1.22821E-02 1.86893E-04-1.05423E-13
 -1      3578 1.21017E-02 2.57464E-04-1.03178E-13
 -1      3579 1.30031E-02-1.10877E-05-1.15693E-13
 -1      3580 1.28421E-02 3.23249E-05-1.13402E-13
 -1      3581 1.33150E-02-8.67800E-05-1.20300E-13
 -1      3582 1.31607E-02-5.02996E-05-1.17992E-13
 -1      3583 1.31416E-02-8.01313E-05-1.16804E-13
 -1      3584 1.36160E-02-1.53542E-04-1.24941E-13
 -1      3585 1.34666E-02-1.20865E-04-1.22618E-13
 -1      3586 1.34474E-02-1.47587E-04-1.21417E-13
 -1      3587 3.10477E-03 3.47233E-04-8.81084E-15
 -1      3588 2.96103E-03 3.46303E-04-8.05450E-15
 -1      3589 3.17342E-03 3.09941E-04-9.24055E-15
 -1      3590 1.41458E-02-5.14670E-04-1.25021E-13
 -1      3591 1.41173E-02-4.86854E-04-1.25098E-13
 -1      3592 1.33542E-02-3.77353E-04-1.09725E-13
 -1      3593 1.34302E-02-4.03679E-04-1.09701E-13
 -1      3594 2.81722E-03 3.44839E-04-7.33211E-15
 -1      3595 2.67334E-03 3.42780E-04-6.64392E-15
 -1      3596 2.88523E-03 3.08164E-04-7.72760E-15
 -1      3597 1.10603E-02 7.12082E-04-9.05480E-14
 -1      3598 1.12275E-02 6.59827E-04-9.27115E-14
 -1      3599 8.94977E-03 2.18887E-05-6.89441E-14
 -1      3600 9.07155E-03 7.09793E-05-6.97581E-14
 -1      3601 1.31260E-02-2.86058E-04-1.09438E-13
 -1      3602 1.32488E-02-3.36054E-04-1.09714E-13
 -1      3603 3.96568E-03 3.45549E-04-1.40423E-14
 -1      3604 3.82237E-03 3.46474E-04-1.30886E-14
 -1      3605 4.03567E-03 3.07636E-04-1.45701E-14
 -1      3606 8.73235E-03-2.61144E-04-6.57941E-14
 -1      3607 3.67899E-03 3.47183E-04-1.21670E-14
 -1      3608 3.53555E-03 3.47659E-04-1.12784E-14
 -1      3609 3.74865E-03 3.09338E-04-1.26627E-14
 -1      3610 8.54427E-03-1.37940E-04-6.68494E-14
 -1      3611 8.59914E-03-1.23472E-04-6.73517E-14
 -1      3612 1.01652E-03-6.58021E-05-1.25521E-15
 -1      3613 1.13805E-03-8.60120E-05-1.51508E-15
 -1      3614 1.01544E-03-3.89497E-05-1.26188E-15
 -1      3615 1.40109E-02-2.71238E-04-1.30107E-13
 -1      3616 1.39688E-02-2.38445E-04-1.30249E-13
 -1      3617 1.38673E-02-2.12393E-04-1.28763E-13
 -1      3618 1.39158E-02-2.66754E-04-1.28059E-13
 -1      3619 1.57412E-03-2.60748E-04-2.49197E-15
 -1      3620 1.71794E-03-2.71177E-04-2.91729E-15
 -1      3621 1.78442E-03-2.41280E-04-3.17666E-15
 -1      3622 1.30931E-02-6.08588E-04-1.07013E-13
 -1      3623 8.52353E-03-1.65563E-04-6.61483E-14
 -1      3624 8.51392E-03-1.52565E-04-6.63478E-14
 -1      3625 1.16066E-03-2.09534E-04-1.46369E-15
 -1      3626 1.23953E-03-2.28324E-04-1.62999E-15
 -1      3627 1.17891E-03-1.83099E-04-1.53612E-15
 -1      3628 1.34957E-02-4.78804E-04-1.10645E-13
 -1      3629 1.34299E-02-4.97231E-04-1.09935E-13
 -1      3630 1.32274E-02-5.66926E-04-1.08282E-13
 -1      3631 1.32210E-02-5.94618E-04-1.08744E-13
 -1      3632 1.33607E-02-5.99162E-04-1.11011E-13
 -1      3633 1.33346E-02-5.25053E-04-1.09021E-13
 -1      3634 1.32613E-03 2.85715E-04-1.81449E-15
 -1      3635 1.28397E-03 2.57028E-04-1.74519E-15
 -1      3636 1.45115E-03 2.96028E-04-2.13959E-15
 -1      3637 1.14386E-03 1.48755E-04-1.50966E-15
 -1      3638 8.60899E-03-9.79536E-05-6.67606E-14
 -1      3639 1.26131E-03 1.10590E-04-1.81634E-15
 -1      3640 1.25912E-03 7.90951E-05-1.82288E-15
 -1      3641 1.95325E-03 3.18960E-04-3.70850E-15
 -1      3642 1.80926E-03 3.10412E-04-3.22317E-15
 -1      3643 2.01925E-03 2.86830E-04-3.99667E-15
 -1      3644 8.57841E-03-2.65758E-04-6.26833E-14
 -1      3645 8.70754E-03-2.79229E-04-6.45806E-14
 -1      3646 2.59672E-03 3.04282E-04-6.34913E-15
 -1      3647 1.34780E-02-5.64695E-04-1.12238E-13
 -1      3648 1.27739E-03 2.22460E-04-1.76973E-15
 -1      3649 1.39931E-02-4.56762E-04-1.23124E-13
 -1      3650 1.40806E-02-4.57738E-04-1.25173E-13
 -1      3651 1.40369E-02-4.26281E-04-1.25240E-13
 -1      3652 9.49982E-03 3.20300E-04-7.24390E-14
 -1      3653 9.59817E-03 3.85879E-04-7.31956E-14
 -1      3654 3.46123E-03 3.10196E-04-1.08860E-14
 -1      3655 8.71915E-03-2.76812E-05-6.66903E-14
 -1      3656 8.83042E-03-6.77542E-06-6.78127E-14
 -1      3657 8.82356E-03 3.74432E-05-6.69155E-14
 -1      3658 1.00871E-02 5.66536E-04-7.84140E-14
 -1      3659 1.02140E-02 6.37695E-04-7.97899E-14
 -1      3660 1.02148E-02 6.65307E-04-7.97641E-14
 -1      3661 1.06848E-02 7.34554E-04-8.55316E-14
 -1      3662 1.38218E-03-2.43285E-04-1.97616E-15
 -1      3663 1.30286E-02-2.38060E-04-1.09345E-13
 -1      3664 1.31805E-02-2.77745E-04-1.11154E-13
 -1      3665 1.29314E-02-1.83636E-04-1.09251E-13
 -1      3666 1.28213E-02 5.62725E-07-1.12224E-13
 -1      3667 1.26768E-02 8.02049E-05-1.11118E-13
 -1      3668 1.25077E-02 1.34157E-04-1.08844E-13
 -1      3669 1.37651E-02-1.85985E-04-1.27277E-13
 -1      3670 1.41657E-02-5.41185E-04-1.24939E-13
 -1      3671 1.40528E-02-5.11504E-04-1.22969E-13
 -1      3672 1.41767E-02-5.67843E-04-1.24851E-13
 -1      3673 1.44829E-03-2.18044E-04-2.18936E-15
 -1      3674 1.34999E-02-4.21873E-04-1.10851E-13
 -1      3675 1.41594E-02-6.15951E-04-1.24386E-13
 -1      3676 1.41637E-02-5.87681E-04-1.24480E-13
 -1      3677 1.40585E-02-5.56659E-04-1.22515E-13
 -1      3678 1.40182E-02-5.97715E-04-1.21772E-13
 -1      3679 1.33712E-02-3.64180E-04-1.11260E-13
 -1      3680 1.38086E-03 6.71124E-05-2.14256E-15
 -1      3681 1.25767E-03 4.78022E-05-1.82641E-15
 -1      3682 1.25694E-03 1.67263E-05-1.82702E-15
 -1      3683 1.24356E-02 9.20549E-05-1.06515E-13
 -1      3684 1.38805E-02-3.19051E-04-1.25475E-13
 -1      3685 1.38366E-02-2.85838E-04-1.25621E-13
 -1      3686 1.13558E-03-2.77047E-05-1.53047E-15
 -1      3687 8.47938E-03-1.36319E-04-6.54448E-14
 -1      3688 1.25890E-03-7.63486E-05-1.81021E-15
 -1      3689 1.26099E-03-1.07798E-04-1.79824E-15
 -1      3690 1.39896E-02-3.93220E-04-1.25330E-13
 -1      3691 1.39356E-02-3.56909E-04-1.25391E-13
 -1      3692 1.37929E-02-3.20049E-04-1.23461E-13
 -1      3693 1.39023E-02-3.93680E-04-1.23288E-13
 -1      3694 9.20156E-03 1.37429E-04-7.05237E-14
 -1      3695 9.36225E-03 2.27077E-04-7.15630E-14
 -1      3696 1.35563E-02-4.62645E-04-1.11642E-13
 -1      3697 1.35297E-02-4.69649E-04-1.11145E-13
 -1      3698 1.35647E-02-4.95918E-04-1.12354E-13
 -1      3699 8.52860E-03-1.87849E-04-6.49205E-14
 -1      3700 8.52270E-03-1.75401E-04-6.55348E-14
 -1      3701 8.44871E-03-1.60193E-04-6.43371E-14
 -1      3702 1.22916E-03-1.32518E-04-1.70231E-15
 -1      3703 1.20951E-03-1.59240E-04-1.63240E-15
 -1      3704 1.28768E-03-1.75422E-04-1.81055E-15
 -1      3705 1.35031E-03-1.23937E-04-2.01645E-15
 -1      3706 1.34423E-02-5.30067E-04-1.10935E-13
 -1      3707 9.31454E-03 2.77674E-04-7.04189E-14
 -1      3708 8.46120E-03-2.28149E-04-6.18146E-14
 -1      3709 1.37447E-02-2.09326E-04-1.26073E-13
 -1      3710 9.06243E-03 1.27083E-04-6.87962E-14
 -1      3711 1.26434E-03 1.42703E-04-1.80596E-15
 -1      3712 1.38560E-03 1.34017E-04-2.12800E-15
 -1      3713 1.26827E-03 1.75423E-04-1.79204E-15
 -1      3714 1.37704E-02-2.37966E-04-1.25721E-13
 -1      3715 2.28592E-03-2.25021E-04-5.03344E-15
 -1      3716 2.43081E-03-2.28128E-04-5.63093E-15
 -1      3717 2.57571E-03-2.30563E-04-6.26192E-15
 -1      3718 2.72058E-03-2.32392E-04-6.92568E-15
 -1      3719 2.49997E-03-1.92423E-04-5.97578E-15
 -1      3720 2.86538E-03-2.33727E-04-7.62214E-15
 -1      3721 3.01009E-03-2.34615E-04-8.35212E-15
 -1      3722 2.79013E-03-1.95610E-04-7.30697E-15
 -1      3723 3.15470E-03-2.35146E-04-9.11401E-15
 -1      3724 3.29918E-03-2.35351E-04-9.90893E-15
 -1      3725 3.07999E-03-1.97170E-04-8.76891E-15
 -1      3726 3.44353E-03-2.35297E-04-1.07357E-14
 -1      3727 3.58775E-03-2.35004E-04-1.15948E-14
 -1      3728 3.36938E-03-1.97544E-04-1.03604E-14
 -1      3729 3.73182E-03-2.34520E-04-1.24868E-14
 -1      3730 3.87574E-03-2.33854E-04-1.34101E-14
 -1      3731 3.65817E-03-1.97051E-04-1.20814E-14
 -1      3732 4.01952E-03-2.33041E-04-1.43660E-14
 -1      3733 4.16314E-03-2.32081E-04-1.53548E-14
 -1      3734 3.94631E-03-1.95910E-04-1.39310E-14
 -1      3735 4.30660E-03-2.30996E-04-1.63746E-14
 -1      3736 4.44990E-03-2.29781E-04-1.74269E-14
 -1      3737 4.23374E-03-1.94258E-04-1.59096E-14
 -1      3738 4.59302E-03-2.28451E-04-1.85107E-14
 -1      3739 4.73596E-03-2.26996E-04-1.96268E-14
 -1      3740 4.52043E-03-1.92167E-04-1.80160E-14
 -1      3741 4.87870E-03-2.25425E-04-2.07757E-14
 -1      3742 5.02123E-03-2.23725E-04-2.19553E-14
 -1      3743 4.80629E-03-1.89666E-04-2.02496E-14
 -1      3744 5.16354E-03-2.21905E-04-2.31664E-14
 -1      3745 5.30559E-03-2.19950E-04-2.44103E-14
 -1      3746 5.09120E-03-1.86755E-04-2.26116E-14
 -1      3747 5.44737E-03-2.17871E-04-2.56857E-14
 -1      3748 5.58884E-03-2.15651E-04-2.69922E-14
 -1      3749 5.37500E-03-1.83425E-04-2.50995E-14
 -1      3750 5.72996E-03-2.13312E-04-2.83312E-14
 -1      3751 5.87071E-03-2.10835E-04-2.96993E-14
 -1      3752 5.65744E-03-1.79673E-04-2.77144E-14
 -1      3753 6.01101E-03-2.08256E-04-3.10992E-14
 -1      3754 6.15083E-03-2.05557E-04-3.25297E-14
 -1      3755 5.93822E-03-1.75531E-04-3.04540E-14
 -1      3756 6.29009E-03-2.02797E-04-3.39885E-14
 -1      3757 6.42876E-03-1.99958E-04-3.54771E-14
 -1      3758 6.21690E-03-1.71087E-04-3.33127E-14
 -1      3759 6.56670E-03-1.97131E-04-3.69944E-14
 -1      3760 6.70389E-03-1.94296E-04-3.85384E-14
 -1      3761 6.49294E-03-1.66516E-04-3.62895E-14
 -1      3762 6.84017E-03-1.91587E-04-4.01118E-14
 -1      3763 6.97550E-03-1.88979E-04-4.17105E-14
 -1      3764 6.76568E-03-1.62112E-04-3.93801E-14
 -1      3765 7.10970E-03-1.86657E-04-4.33361E-14
 -1      3766 7.24270E-03-1.84587E-04-4.49902E-14
 -1      3767 7.03425E-03-1.58308E-04-4.25801E-14
 -1      3768 7.37430E-03-1.83011E-04-4.66697E-14
 -1      3769 7.50443E-03-1.81870E-04-4.83726E-14
 -1      3770 7.29762E-03-1.55691E-04-4.58854E-14
 -1      3771 7.63280E-03-1.81475E-04-5.00994E-14
 -1      3772 7.75941E-03-1.81705E-04-5.18518E-14
 -1      3773 7.55447E-03-1.54982E-04-4.92921E-14
 -1      3774 7.88385E-03-1.82945E-04-5.36266E-14
 -1      3775 8.00620E-03-1.84969E-04-5.54236E-14
 -1      3776 7.80316E-03-1.56965E-04-5.27956E-14
 -1      3777 8.12582E-03-1.88223E-04-5.72432E-14
 -1      3778 8.24307E-03-1.92262E-04-5.90845E-14
 -1      3779 8.04155E-03-1.62297E-04-5.63914E-14
 -1      3780 2.66485E-03 2.68171E-04-6.71320E-15
 -1      3781 2.52021E-03 2.65811E-04-6.05664E-15
 -1      3782 2.37554E-03 2.62730E-04-5.43379E-15
 -1      3783 2.23087E-03 2.58849E-04-4.84472E-15
 -1      3784 2.44391E-03 2.27462E-04-5.76659E-15
 -1      3785 8.60509E-03-2.21173E-04-6.49076E-14
 -1      3786 3.53086E-03 2.72402E-04-1.13506E-14
 -1      3787 3.38680E-03 2.72560E-04-1.04951E-14
 -1      3788 4.39259E-03 2.67412E-04-1.71683E-14
 -1      3789 4.24930E-03 2.68640E-04-1.61174E-14
 -1      3790 5.24930E-03 2.57098E-04-2.41390E-14
 -1      3791 5.10691E-03 2.59191E-04-2.28986E-14
 -1      3792 5.53350E-03 2.52416E-04-2.67138E-14
 -1      3793 5.39149E-03 2.54846E-04-2.54103E-14
 -1      3794 5.31882E-03 2.20076E-04-2.47907E-14
 -1      3795 5.81687E-03 2.47022E-04-2.94113E-14
 -1      3796 5.67529E-03 2.49815E-04-2.80478E-14
 -1      3797 5.60234E-03 2.15702E-04-2.73949E-14
 -1      3798 6.09929E-03 2.40881E-04-3.22283E-14
 -1      3799 5.95820E-03 2.44050E-04-3.08049E-14
 -1      3800 5.88475E-03 2.10638E-04-3.01209E-14
 -1      3801 6.38070E-03 2.34006E-04-3.51626E-14
 -1      3802 6.24012E-03 2.37538E-04-3.36813E-14
 -1      3803 6.16592E-03 2.04836E-04-3.29664E-14
 -1      3804 6.66105E-03 2.26482E-04-3.82099E-14
 -1      3805 6.52099E-03 2.30322E-04-3.66717E-14
 -1      3806 6.44571E-03 1.98280E-04-3.59274E-14
 -1      3807 6.94044E-03 2.18505E-04-4.13683E-14
 -1      3808 6.80084E-03 2.22538E-04-3.97758E-14
 -1      3809 6.72403E-03 1.91009E-04-3.90011E-14
 -1      3810 7.21915E-03 2.10422E-04-4.46365E-14
 -1      3811 7.07983E-03 2.14451E-04-4.29880E-14
 -1      3812 7.00092E-03 1.83141E-04-4.21854E-14
 -1      3813 7.49783E-03 2.02797E-04-4.80109E-14
 -1      3814 7.35841E-03 2.06503E-04-4.63110E-14
 -1      3815 7.27663E-03 1.74910E-04-4.54786E-14
 -1      3816 7.77764E-03 1.96514E-04-5.14873E-14
 -1      3817 7.63746E-03 1.99397E-04-4.97364E-14
 -1      3818 7.55175E-03 1.66715E-04-4.88768E-14
 -1      3819 8.06056E-03 1.92974E-04-5.50607E-14
 -1      3820 7.91851E-03 1.94243E-04-5.32625E-14
 -1      3821 7.82748E-03 1.59239E-04-5.23757E-14
 -1      3822 8.34969E-03 1.94456E-04-5.87321E-14
 -1      3823 8.20406E-03 1.92797E-04-5.68839E-14
 -1      3824 8.10587E-03 1.53660E-04-5.59710E-14
 -1      3825 8.64964E-03 2.04856E-04-6.24937E-14
 -1      3826 8.49795E-03 1.98058E-04-6.06011E-14
 -1      3827 8.39039E-03 1.52139E-04-5.96606E-14
 -1      3828 8.96649E-03 2.30698E-04-6.63437E-14
 -1      3829 8.80558E-03 2.15005E-04-6.44076E-14
 -1      3830 8.68635E-03 1.58841E-04-6.34407E-14
 -1      3831 9.14105E-03 2.47123E-04-6.84424E-14
 -1      3832 1.00415E-02 6.14371E-04-7.76952E-14
 -1      3833 1.29687E-02-7.55738E-05-1.13329E-13
 -1      3834 1.28059E-02-3.39993E-05-1.11048E-13
 -1      3835 1.32804E-02-1.45241E-04-1.17912E-13
 -1      3836 1.31266E-02-1.11892E-04-1.15616E-13
 -1      3837 1.31160E-02-1.46034E-04-1.14429E-13
 -1      3838 8.89762E-03 1.18573E-04-6.67005E-14
 -1      3839 9.00781E-03 1.76192E-04-6.74473E-14
 -1      3840 3.24262E-03 2.72436E-04-9.67253E-15
 -1      3841 3.09833E-03 2.72004E-04-8.88284E-15
 -1      3842 3.31232E-03 2.34777E-04-1.01067E-14
 -1      3843 1.35642E-02-5.38893E-04-1.13160E-13
 -1      3844 8.51051E-03-9.16326E-05-6.50528E-14
 -1      3845 8.60605E-03-6.51741E-05-6.58654E-14
 -1      3846 2.95392E-03 2.71187E-04-8.12565E-15
 -1      3847 2.80943E-03 2.69944E-04-7.40244E-15
 -1      3848 3.02323E-03 2.33968E-04-8.52687E-15
 -1      3849 1.47860E-03-1.90381E-04-2.30646E-15
 -1      3850 4.10586E-03 2.69721E-04-1.50997E-14
 -1      3851 3.96231E-03 2.70657E-04-1.41140E-14
 -1      3852 4.17625E-03 2.31853E-04-1.56297E-14
 -1      3853 4.96436E-03 2.61122E-04-2.16896E-14
 -1      3854 4.82164E-03 2.62909E-04-2.05110E-14
 -1      3855 5.03435E-03 2.23824E-04-2.23112E-14
 -1      3856 1.25689E-03-1.41859E-05-1.82460E-15
 -1      3857 1.25754E-03-4.51826E-05-1.81909E-15
 -1      3858 1.38067E-03-6.43258E-05-2.13107E-15
 -1      3859 1.37927E-03 1.32521E-06-2.14335E-15
 -1      3860 8.40968E-03-1.32982E-04-6.39331E-14
 -1      3861 8.44291E-03-1.16272E-04-6.44256E-14
 -1      3862 3.81862E-03 2.71425E-04-1.31598E-14
 -1      3863 3.67480E-03 2.72020E-04-1.22387E-14
 -1      3864 3.88887E-03 2.33499E-04-1.36590E-14
 -1      3865 1.24545E-02 1.91175E-05-1.05136E-13
 -1      3866 1.26338E-02-4.94549E-05-1.07049E-13
 -1      3867 8.50290E-03-2.00085E-04-6.37201E-14
 -1      3868 1.36651E-02-2.29895E-04-1.23643E-13
 -1      3869 1.35191E-02-2.02104E-04-1.21322E-13
 -1      3870 1.23622E-02 8.69412E-05-1.04876E-13
 -1      3871 1.27419E-02-4.75444E-05-1.09391E-13
 -1      3872 1.28575E-02-1.19210E-04-1.09793E-13
 -1      3873 1.34043E-02-3.53023E-04-1.12937E-13
 -1      3874 1.34907E-02-3.91107E-04-1.12946E-13
 -1      3875 1.69275E-03 3.08104E-04-2.84566E-15
 -1      3876 1.56728E-03 3.01585E-04-2.46853E-15
 -1      3877 1.52501E-03 2.72540E-04-2.38569E-15
 -1      3878 1.75813E-03 2.78655E-04-3.10043E-15
 -1      3879 1.70767E-03-2.03501E-04-2.97769E-15
 -1      3880 1.85187E-03-2.10458E-04-3.44152E-15
 -1      3881 1.35050E-02-2.30572E-04-1.20121E-13
 -1      3882 1.35581E-02-4.23839E-04-1.12850E-13
 -1      3883 1.35797E-02-4.44895E-04-1.12427E-13
 -1      3884 4.67877E-03 2.64547E-04-1.93652E-14
 -1      3885 4.53575E-03 2.66051E-04-1.82516E-14
 -1      3886 4.46299E-03 2.29680E-04-1.77300E-14
 -1      3887 4.74904E-03 2.27010E-04-1.99578E-14
 -1      3888 1.39797E-03 2.16910E-04-2.09384E-15
 -1      3889 1.36076E-02-5.22029E-04-1.13616E-13
 -1      3890 1.36526E-02-5.54245E-04-1.14929E-13
 -1      3891 1.37437E-02-5.66153E-04-1.16655E-13
 -1      3892 1.36441E-02-5.11686E-04-1.14120E-13
 -1      3893 1.99637E-03-2.16303E-04-3.93874E-15
 -1      3894 2.14108E-03-2.21107E-04-4.46926E-15
 -1      3895 1.92019E-03-1.78738E-04-3.71248E-15
 -1      3896 2.08626E-03 2.54010E-04-4.28933E-15
 -1      3897 1.94174E-03 2.48108E-04-3.76735E-15
 -1      3898 2.15415E-03 2.20524E-04-4.58668E-15
 -1      3899 2.20982E-03-1.87032E-04-4.77746E-15
 -1      3900 2.73371E-03 2.31710E-04-7.07975E-15
 -1      3901 1.39084E-02-4.56325E-04-1.21084E-13
 -1      3902 1.38666E-02-4.26871E-04-1.21158E-13
 -1      3903 8.39547E-03-1.93226E-04-6.18316E-14
 -1      3904 1.38346E-02-5.74979E-04-1.18341E-13
 -1      3905 1.39267E-02-5.88078E-04-1.20077E-13
 -1      3906 1.39536E-02-5.66496E-04-1.20447E-13
 -1      3907 1.37790E-02-5.47206E-04-1.17068E-13
 -1      3908 3.60089E-03 2.34531E-04-1.18176E-14
 -1      3909 1.51421E-03 2.20806E-04-2.41736E-15
 -1      3910 8.59755E-03-2.87863E-05-6.49815E-14
 -1      3911 9.92065E-03 5.13864E-04-7.65543E-14
 -1      3912 1.50335E-03-5.02795E-05-2.47702E-15
 -1      3913 1.50488E-03-8.49189E-05-2.46634E-15
 -1      3914 1.36362E-02-4.67084E-04-1.13646E-13
 -1      3915 1.30214E-02-1.72289E-04-1.11606E-13
 -1      3916 1.51098E-03 1.58332E-04-2.46355E-15
 -1      3917 1.50761E-03 1.22902E-04-2.47546E-15
 -1      3918 8.78805E-03 7.48909E-05-6.58394E-14
 -1      3919 8.73690E-03 1.24077E-04-6.45120E-14
 -1      3920 8.58840E-03 1.20309E-04-6.26009E-14
 -1      3921 8.67694E-03 4.95614E-05-6.47303E-14
 -1      3922 1.54637E-03-1.63133E-04-2.52927E-15
 -1      3923 8.41928E-03-9.10044E-05-6.35461E-14
 -1      3924 1.50512E-03 8.78705E-05-2.48338E-15
 -1      3925 1.50348E-03 5.31191E-05-2.48708E-15
 -1      3926 1.63033E-03 1.09742E-04-2.84782E-15
 -1      3927 8.38638E-03-1.42535E-04-6.33317E-14
 -1      3928 8.33190E-03-1.24466E-04-6.23274E-14
 -1      3929 8.37114E-03-1.52651E-04-6.27289E-14
 -1      3930 1.39614E-02-5.08443E-04-1.20925E-13
 -1      3931 1.39404E-02-4.82808E-04-1.21007E-13
 -1      3932 1.38270E-02-4.55540E-04-1.19050E-13
 -1      3933 1.33364E-02-3.13383E-04-1.13258E-13
 -1      3934 1.34738E-02-3.47738E-04-1.14956E-13
 -1      3935 1.32560E-02-2.72443E-04-1.13164E-13
 -1      3936 1.57812E-03-1.34378E-04-2.64787E-15
 -1      3937 1.36018E-02-4.18329E-04-1.14535E-13
 -1      3938 8.30649E-03-1.67221E-04-6.09528E-14
 -1      3939 1.70101E-03-1.20763E-04-3.03529E-15
 -1      3940 2.42461E-03-1.54542E-04-5.69132E-15
 -1      3941 2.56988E-03-1.56265E-04-6.32525E-15
 -1      3942 5.67098E-03 1.79420E-04-2.80772E-14
 -1      3943 5.52976E-03 1.81495E-04-2.67453E-14
 -1      3944 1.77184E-03-7.32284E-05-3.29256E-15
 -1      3945 1.84518E-03-1.25126E-04-3.50398E-15
 -1      3946 1.98981E-03-1.28766E-04-4.00575E-15
 -1      3947 2.71513E-03-1.57579E-04-6.99274E-15
 -1      3948 2.86034E-03-1.58521E-04-7.69217E-15
 -1      3949 2.64047E-03-1.19707E-04-6.67953E-15
 -1      3950 3.00545E-03-1.59165E-04-8.42437E-15
 -1      3951 3.15045E-03-1.59533E-04-9.18948E-15
 -1      3952 2.93114E-03-1.21182E-04-8.08170E-15
 -1      3953 3.29532E-03-1.59687E-04-9.98636E-15
 -1      3954 3.44003E-03-1.59638E-04-1.08156E-14
 -1      3955 3.22141E-03-1.21761E-04-9.61380E-15
 -1      3956 3.58457E-03-1.59433E-04-1.16774E-14
 -1      3957 3.72894E-03-1.59077E-04-1.25712E-14
 -1      3958 3.51108E-03-1.21688E-04-1.12748E-14
 -1      3959 3.87313E-03-1.58605E-04-1.34971E-14
 -1      3960 4.01713E-03-1.58014E-04-1.44552E-14
 -1      3961 3.80003E-03-1.21133E-04-1.30643E-14
 -1      3962 4.16093E-03-1.57330E-04-1.54456E-14
 -1      3963 4.30453E-03-1.56548E-04-1.64678E-14
 -1      3964 4.08819E-03-1.20212E-04-1.49823E-14
 -1      3965 4.44791E-03-1.55686E-04-1.75211E-14
 -1      3966 4.59107E-03-1.54733E-04-1.86070E-14
 -1      3967 4.37547E-03-1.18994E-04-1.70285E-14
 -1      3968 4.73399E-03-1.53705E-04-1.97251E-14
 -1      3969 4.87666E-03-1.52589E-04-2.08754E-14
 -1      3970 4.66181E-03-1.17517E-04-1.92021E-14
 -1      3971 5.01905E-03-1.51398E-04-2.20576E-14
 -1      3972 5.16115E-03-1.50118E-04-2.32706E-14
 -1      3973 4.94708E-03-1.15796E-04-2.15038E-14
 -1      3974 5.30292E-03-1.48766E-04-2.45151E-14
 -1      3975 5.44434E-03-1.47324E-04-2.57916E-14
 -1      3976 5.23111E-03-1.13844E-04-2.39326E-14
 -1      3977 5.58537E-03-1.45817E-04-2.71000E-14
 -1      3978 5.72597E-03-1.44226E-04-2.84396E-14
 -1      3979 5.51369E-03-1.11675E-04-2.64874E-14
 -1      3980 5.86607E-03-1.42586E-04-2.98092E-14
 -1      3981 6.00564E-03-1.40879E-04-3.12093E-14
 -1      3982 5.79448E-03-1.09331E-04-2.91665E-14
 -1      3983 6.14461E-03-1.39159E-04-3.26392E-14
 -1      3984 6.28291E-03-1.37405E-04-3.40982E-14
 -1      3985 6.07310E-03-1.06894E-04-3.19666E-14
 -1      3986 6.42044E-03-1.35697E-04-3.55869E-14
 -1      3987 6.55715E-03-1.34012E-04-3.71047E-14
 -1      3988 6.34901E-03-1.04514E-04-3.48860E-14
 -1      3989 6.69290E-03-1.32464E-04-3.86498E-14
 -1      3990 6.82761E-03-1.31024E-04-4.02235E-14
 -1      3991 6.62157E-03-1.02433E-04-3.79208E-14
 -1      3992 6.96113E-03-1.29852E-04-4.18224E-14
 -1      3993 7.09335E-03-1.28901E-04-4.34484E-14
 -1      3994 6.88996E-03-1.01002E-04-4.10652E-14
 -1      3995 7.22408E-03-1.28389E-04-4.51010E-14
 -1      3996 7.35319E-03-1.28236E-04-4.67801E-14
 -1      3997 7.15318E-03-1.00706E-04-4.43180E-14
 -1      3998 7.48042E-03-1.28729E-04-4.84858E-14
 -1      3999 7.60560E-03-1.29732E-04-5.02120E-14
 -1      4000 7.40992E-03-1.02147E-04-4.76763E-14
 -1      4001 7.72841E-03-1.31625E-04-5.19632E-14
 -1      4002 7.84858E-03-1.34132E-04-5.37397E-14
 -1      4003 7.65852E-03-1.06037E-04-5.11334E-14
 -1      4004 7.96560E-03-1.37767E-04-5.55385E-14
 -1      4005 8.07921E-03-1.42004E-04-5.73585E-14
 -1      4006 7.89659E-03-1.13157E-04-5.46851E-14
 -1      4007 1.35598E-02-3.47112E-04-1.17086E-13
 -1      4008 1.36113E-02-3.81746E-04-1.16761E-13
 -1      4009 2.13449E-03-1.40671E-04-4.53195E-15
 -1      4010 2.27962E-03-1.43278E-04-5.09995E-15
 -1      4011 2.35011E-03-1.07916E-04-5.41762E-15
 -1      4012 2.06059E-03-8.64091E-05-4.29364E-15
 -1      4013 1.50260E-03-1.58121E-05-2.48416E-15
 -1      4014 1.62683E-03-3.44418E-05-2.84805E-15
 -1      4015 1.50265E-03 1.85952E-05-2.48713E-15
 -1      4016 5.38823E-03 1.83404E-04-2.54441E-14
 -1      4017 5.24640E-03 1.85175E-04-2.41733E-14
 -1      4018 5.45754E-03 1.47121E-04-2.60977E-14
 -1      4019 6.23221E-03 1.69398E-04-3.37045E-14
 -1      4020 6.09250E-03 1.72188E-04-3.22536E-14
 -1      4021 6.51028E-03 1.63242E-04-3.66926E-14
 -1      4022 6.37147E-03 1.66428E-04-3.51839E-14
 -1      4023 6.29822E-03 1.34603E-04-3.44428E-14
 -1      4024 6.78644E-03 1.56288E-04-3.97933E-14
 -1      4025 6.64860E-03 1.59873E-04-3.82290E-14
 -1      4026 6.57450E-03 1.28926E-04-3.74587E-14
 -1      4027 7.06066E-03 1.48565E-04-4.30032E-14
 -1      4028 6.92377E-03 1.52527E-04-4.13856E-14
 -1      4029 6.84839E-03 1.22352E-04-4.05858E-14
 -1      4030 7.33308E-03 1.40174E-04-4.63216E-14
 -1      4031 7.19705E-03 1.44449E-04-4.46483E-14
 -1      4032 7.11976E-03 1.14806E-04-4.38225E-14
 -1      4033 7.60423E-03 1.31335E-04-4.97431E-14
 -1      4034 7.46873E-03 1.35791E-04-4.80197E-14
 -1      4035 7.38862E-03 1.06241E-04-4.71641E-14
 -1      4036 7.87518E-03 1.22489E-04-5.32650E-14
 -1      4037 7.73958E-03 1.26851E-04-5.14922E-14
 -1      4038 7.65533E-03 9.66605E-05-5.06098E-14
 -1      4039 8.14799E-03 1.14579E-04-5.68811E-14
 -1      4040 8.01110E-03 1.18289E-04-5.50610E-14
 -1      4041 7.92075E-03 8.62457E-05-5.41538E-14
 -1      4042 8.42612E-03 1.09496E-04-6.05873E-14
 -1      4043 8.28598E-03 1.11391E-04-5.87218E-14
 -1      4044 8.18671E-03 7.55788E-05-5.77882E-14
 -1      4045 2.80327E-03 1.94909E-04-7.45039E-15
 -1      4046 2.65820E-03 1.93547E-04-6.75991E-15
 -1      4047 3.38251E-03 1.96984E-04-1.05431E-14
 -1      4048 3.23789E-03 1.96881E-04-9.72112E-15
 -1      4049 1.63580E-03 2.10665E-04-2.79238E-15
 -1      4050 1.33375E-02-2.44477E-04-1.16001E-13
 -1      4051 1.31929E-02-2.19391E-04-1.13714E-13
 -1      4052 2.51309E-03 1.91714E-04-6.10291E-15
 -1      4053 2.36798E-03 1.89361E-04-5.47900E-15
 -1      4054 2.58299E-03 1.55536E-04-6.44274E-15
 -1      4055 3.09314E-03 1.96523E-04-8.93124E-15
 -1      4056 2.94825E-03 1.95890E-04-8.17385E-15
 -1      4057 2.87346E-03 1.57825E-04-7.82427E-15
 -1      4058 1.39576E-02-5.46340E-04-1.20503E-13
 -1      4059 1.39704E-02-5.27258E-04-1.20874E-13
 -1      4060 1.38684E-02-4.98876E-04-1.18919E-13
 -1      4061 1.38735E-02-5.36513E-04-1.18812E-13
 -1      4062 1.37447E-02-4.05957E-04-1.19012E-13
 -1      4063 1.38244E-02-4.04146E-04-1.21043E-13
 -1      4064 1.37071E-02-4.33290E-04-1.16799E-13
 -1      4065 1.37493E-02-4.64223E-04-1.16696E-13
 -1      4066 4.24682E-03 1.94060E-04-1.61612E-14
 -1      4067 4.10321E-03 1.94885E-04-1.51444E-14
 -1      4068 5.10429E-03 1.86799E-04-2.29342E-14
 -1      4069 4.96193E-03 1.88302E-04-2.17267E-14
 -1      4070 5.17420E-03 1.50088E-04-2.35578E-14
 -1      4071 3.67129E-03 1.96602E-04-1.22863E-14
 -1      4072 3.52698E-03 1.96888E-04-1.13988E-14
 -1      4073 3.45314E-03 1.59113E-04-1.09828E-14
 -1      4074 3.95941E-03 1.95585E-04-1.41596E-14
 -1      4075 3.81543E-03 1.96167E-04-1.32060E-14
 -1      4076 4.03019E-03 1.57733E-04-1.46614E-14
 -1      4077 1.37713E-02-3.69995E-04-1.21135E-13
 -1      4078 8.31116E-03-8.77316E-05-6.16938E-14
 -1      4079 8.37586E-03-6.06774E-05-6.23072E-14
 -1      4080 1.37032E-02-3.20948E-04-1.21413E-13
 -1      4081 1.36416E-02-2.79388E-04-1.21496E-13
 -1      4082 8.46504E-03-3.08230E-05-6.31154E-14
 -1      4083 8.56629E-03 4.68005E-06-6.39237E-14
 -1      4084 8.52820E-03 3.92698E-05-6.28667E-14
 -1      4085 1.34126E-02-2.31194E-04-1.18086E-13
 -1      4086 8.23087E-03-1.48750E-04-5.99702E-14
 -1      4087 5.95238E-03 1.74774E-04-3.08307E-14
 -1      4088 5.81186E-03 1.77190E-04-2.94391E-14
 -1      4089 5.73948E-03 1.43609E-04-2.87596E-14
 -1      4090 1.34788E-02-2.93644E-04-1.17363E-13
 -1      4091 1.36280E-02-3.34543E-04-1.19180E-13
 -1      4092 6.01980E-03 1.39467E-04-3.15424E-14
 -1      4093 1.77064E-03-3.58222E-05-3.30366E-15
 -1      4094 1.37240E-02-4.75457E-04-1.15777E-13
 -1      4095 1.36946E-02-4.95096E-04-1.14985E-13
 -1      4096 8.47529E-03 7.61469E-05-6.16391E-14
 -1      4097 4.39025E-03 1.93131E-04-1.72101E-14
 -1      4098 4.31756E-03 1.56389E-04-1.66940E-14
 -1      4099 4.53349E-03 1.92087E-04-1.82921E-14
 -1      4100 3.16358E-03 1.58909E-04-9.33769E-15
 -1      4101 1.76297E-03 2.51930E-04-3.15164E-15
 -1      4102 1.75889E-03 1.85069E-04-3.20799E-15
 -1      4103 1.25827E-02 3.91397E-05-1.08294E-13
 -1      4104 2.29248E-03 1.51613E-04-5.19429E-15
 -1      4105 2.22292E-03 1.86382E-04-4.88818E-15
 -1      4106 2.07797E-03 1.82704E-04-4.33070E-15
 -1      4107 8.16382E-03-1.25329E-04-5.90916E-14
 -1      4108 1.75632E-03 1.32443E-04-3.23580E-15
 -1      4109 1.75371E-03 9.47810E-05-3.24461E-15
 -1      4110 1.62692E-03 3.73979E-05-2.85588E-15
 -1      4111 4.88967E-03 1.52586E-04-2.11440E-14
 -1      4112 4.81934E-03 1.89676E-04-2.05501E-14
 -1      4113 4.67652E-03 1.90940E-04-1.94059E-14
 -1      4114 3.74203E-03 1.58670E-04-1.27573E-14
 -1      4115 8.23650E-03-1.12180E-04-6.05174E-14
 -1      4116 8.27011E-03-1.00565E-04-6.11056E-14
 -1      4117 8.21151E-03-7.44329E-05-5.98885E-14
 -1      4118 8.33680E-03-3.25904E-05-6.12697E-14
 -1      4119 1.88003E-03 2.52348E-04-3.54619E-15
 -1      4120 1.37488E-02-5.19757E-04-1.16256E-13
 -1      4121 1.88181E-03 1.70768E-04-3.63305E-15
 -1      4122 2.56624E-03-8.20844E-05-6.36893E-15
 -1      4123 2.71172E-03-8.27809E-05-7.03853E-15
 -1      4124 2.85716E-03-8.32889E-05-7.74061E-15
 -1      4125 3.00252E-03-8.36209E-05-8.47525E-15
 -1      4126 2.78356E-03-4.55372E-05-7.40135E-15
 -1      4127 3.14776E-03-8.38164E-05-9.24257E-15
 -1      4128 3.29285E-03-8.38811E-05-1.00420E-14
 -1      4129 3.07439E-03-4.58884E-05-8.87307E-15
 -1      4130 3.43778E-03-8.38484E-05-1.08734E-14
 -1      4131 3.58252E-03-8.37181E-05-1.17372E-14
 -1      4132 3.36469E-03-4.59398E-05-1.04737E-14
 -1      4133 3.72708E-03-8.35174E-05-1.26329E-14
 -1      4134 3.87142E-03-8.32423E-05-1.35605E-14
 -1      4135 3.65429E-03-4.57726E-05-1.22027E-14
 -1      4136 4.01556E-03-8.29144E-05-1.45206E-14
 -1      4137 4.15947E-03-8.25269E-05-1.55128E-14
 -1      4138 3.94307E-03-4.54443E-05-1.40599E-14
 -1      4139 4.30315E-03-8.20973E-05-1.65374E-14
 -1      4140 4.44658E-03-8.16168E-05-1.75926E-14
 -1      4141 4.23095E-03-4.49938E-05-1.60465E-14
 -1      4142 4.58976E-03-8.11011E-05-1.86799E-14
 -1      4143 4.73266E-03-8.05398E-05-1.98007E-14
 -1      4144 4.51784E-03-4.44477E-05-1.81601E-14
 -1      4145 4.87528E-03-7.99454E-05-2.09520E-14
 -1      4146 5.01759E-03-7.93070E-05-2.21354E-14
 -1      4147 4.80364E-03-4.38251E-05-2.04013E-14
 -1      4148 5.15955E-03-7.86465E-05-2.33507E-14
 -1      4149 5.30115E-03-7.79470E-05-2.45971E-14
 -1      4150 5.08820E-03-4.31464E-05-2.27693E-14
 -1      4151 5.44235E-03-7.72305E-05-2.58758E-14
 -1      4152 5.58312E-03-7.64847E-05-2.71853E-14
 -1      4153 5.37131E-03-4.24432E-05-2.52649E-14
 -1      4154 5.72339E-03-7.57406E-05-2.85245E-14
 -1      4155 5.86313E-03-7.49839E-05-2.98946E-14
 -1      4156 5.65270E-03-4.17627E-05-2.78844E-14
 -1      4157 6.00228E-03-7.42599E-05-3.12956E-14
 -1      4158 6.14077E-03-7.35527E-05-3.27260E-14
 -1      4159 5.93201E-03-4.11872E-05-3.06258E-14
 -1      4160 6.27852E-03-7.29281E-05-3.41865E-14
 -1      4161 6.41547E-03-7.23669E-05-3.56751E-14
 -1      4162 6.20878E-03-4.08468E-05-3.34877E-14
 -1      4163 6.55151E-03-7.19634E-05-3.71930E-14
 -1      4164 6.68657E-03-7.16921E-05-3.87384E-14
 -1      4165 6.48247E-03-4.09387E-05-3.64658E-14
 -1      4166 6.82050E-03-7.16854E-05-4.03109E-14
 -1      4167 6.95321E-03-7.19048E-05-4.19105E-14
 -1      4168 6.75237E-03-4.17480E-05-3.95571E-14
 -1      4169 7.08455E-03-7.25337E-05-4.35374E-14
 -1      4170 7.21437E-03-7.35062E-05-4.51912E-14
 -1      4171 7.01767E-03-4.36675E-05-4.27587E-14
 -1      4172 7.34249E-03-7.50750E-05-4.68701E-14
 -1      4173 7.46871E-03-7.71110E-05-4.85746E-14
 -1      4174 7.27735E-03-4.72129E-05-4.60653E-14
 -1      4175 7.59278E-03-7.99487E-05-5.03040E-14
 -1      4176 7.71445E-03-8.34253E-05-5.20559E-14
 -1      4177 7.53009E-03-5.29961E-05-4.94729E-14
 -1      4178 7.83336E-03-8.80884E-05-5.38314E-14
 -1      4179 7.94906E-03-9.33955E-05-5.56316E-14
 -1      4180 7.77415E-03-6.18098E-05-5.29794E-14
 -1      4181 6.08714E-03 1.04747E-04-3.22547E-14
 -1      4182 5.94779E-03 1.06610E-04-3.08342E-14
 -1      4183 6.91014E-03 8.92635E-05-4.13790E-14
 -1      4184 6.77472E-03 9.24648E-05-3.97881E-14
 -1      4185 5.52684E-03 1.11254E-04-2.67522E-14
 -1      4186 5.38567E-03 1.12546E-04-2.54516E-14
 -1      4187 8.37727E-03 3.55854E-05-6.08521E-14
 -1      4188 6.63858E-03 9.53773E-05-3.82263E-14
 -1      4189 6.50169E-03 9.80548E-05-3.66897E-14
 -1      4190 6.70266E-03 6.26363E-05-3.89920E-14
 -1      4191 6.36414E-03 1.00486E-04-3.51821E-14
 -1      4192 6.22593E-03 1.02721E-04-3.37042E-14
 -1      4193 6.15450E-03 7.06496E-05-3.29670E-14
 -1      4194 6.43006E-03 6.70844E-05-3.59231E-14
 -1      4195 7.17853E-03 8.19640E-05-4.46402E-14
 -1      4196 7.04471E-03 8.57809E-05-4.29971E-14
 -1      4197 6.97184E-03 5.70712E-05-4.21717E-14
 -1      4198 7.44360E-03 7.32798E-05-4.80076E-14
 -1      4199 7.31144E-03 7.78113E-05-4.63113E-14
 -1      4200 7.23716E-03 5.00981E-05-4.54609E-14
 -1      4201 7.70542E-03 6.30076E-05-5.14779E-14
 -1      4202 7.57483E-03 6.83541E-05-4.97302E-14
 -1      4203 7.49822E-03 4.13679E-05-4.88526E-14
 -1      4204 7.96444E-03 5.10159E-05-5.50421E-14
 -1      4205 7.83510E-03 5.72103E-05-5.32483E-14
 -1      4206 7.75466E-03 3.04519E-05-5.23443E-14
 -1      4207 8.22216E-03 3.76202E-05-5.86972E-14
 -1      4208 8.09324E-03 4.44861E-05-5.68589E-14
 -1      4209 8.00647E-03 1.68427E-05-5.59299E-14
 -1      4210 2.94427E-03 1.20482E-04-8.20126E-15
 -1      4211 2.79897E-03 1.19849E-04-7.47724E-15
 -1      4212 1.36585E-02-4.04594E-04-1.16874E-13
 -1      4213 5.24413E-03 1.13717E-04-2.41827E-14
 -1      4214 5.10225E-03 1.14793E-04-2.29451E-14
 -1      4215 5.31409E-03 7.77173E-05-2.48082E-14
 -1      4216 2.65360E-03 1.18952E-04-6.78632E-15
 -1      4217 2.50820E-03 1.17779E-04-6.12856E-15
 -1      4218 2.72483E-03 8.20136E-05-7.13339E-15
 -1      4219 1.75197E-03 5.74002E-05-3.24891E-15
 -1      4220 1.75109E-03 2.01381E-05-3.24858E-15
 -1      4221 1.87771E-03 7.83644E-05-3.66573E-15
 -1      4222 5.80794E-03 1.08297E-04-2.94428E-14
 -1      4223 5.66760E-03 1.09849E-04-2.80821E-14
 -1      4224 5.87640E-03 7.35178E-05-3.01273E-14
 -1      4225 4.10122E-03 1.19965E-04-1.51649E-14
 -1      4226 3.95727E-03 1.20407E-04-1.41811E-14
 -1      4227 3.52418E-03 1.21188E-04-1.14237E-14
 -1      4228 3.37944E-03 1.21241E-04-1.05693E-14
 -1      4229 8.19643E-03-2.58644E-05-5.91105E-14
 -1      4230 8.27866E-03 4.58617E-06-5.98991E-14
 -1      4231 3.81310E-03 1.20758E-04-1.32287E-14
 -1      4232 3.66874E-03 1.21028E-04-1.23097E-14
 -1      4233 3.88446E-03 8.29108E-05-1.37028E-14
 -1      4234 1.89536E-03-1.75721E-05-3.72888E-15
 -1      4235 3.23453E-03 1.21150E-04-9.74724E-15
 -1      4236 3.08947E-03 1.20913E-04-8.95769E-15
 -1      4237 3.30594E-03 8.32958E-05-1.01592E-14
 -1      4238 8.08778E-03-1.02437E-04-5.78973E-14
 -1      4239 1.94745E-03 2.20621E-04-3.81878E-15
 -1      4240 1.38273E-02-4.92371E-04-1.18047E-13
 -1      4241 8.03442E-03-7.69242E-05-5.70214E-14
 -1      4242 2.27650E-03-6.19263E-05-5.14362E-15
 -1      4243 2.42133E-03-7.19960E-05-5.74032E-15
 -1      4244 2.49321E-03-3.55701E-05-6.06772E-15
 -1      4245 2.43387E-03 8.03478E-05-5.81780E-15
 -1      4246 2.36282E-03 1.16252E-04-5.50414E-15
 -1      4247 2.21754E-03 1.14349E-04-4.91253E-15
 -1      4248 1.38308E-02-5.29531E-04-1.17941E-13
 -1      4249 8.14557E-03-4.64672E-05-5.85737E-14
 -1      4250 8.07742E-03-1.36768E-05-5.72295E-14
 -1      4251 7.95603E-03-5.74201E-06-5.54098E-14
 -1      4252 8.10011E-03-6.19263E-05-5.80015E-14
 -1      4253 3.01562E-03 8.29310E-05-8.58122E-15
 -1      4254 4.60408E-03 1.54674E-04-1.88551E-14
 -1      4255 4.38847E-03 1.18863E-04-1.72276E-14
 -1      4256 4.24496E-03 1.19455E-04-1.61804E-14
 -1      4257 4.17247E-03 8.23230E-05-1.56694E-14
 -1      4258 3.59559E-03 8.32555E-05-1.18661E-14
 -1      4259 5.03050E-03 7.92480E-05-2.23333E-14
 -1      4260 4.96005E-03 1.15766E-04-2.17380E-14
 -1      4261 4.81755E-03 1.16662E-04-2.05630E-14
 -1      4262 5.59615E-03 7.58353E-05-2.74063E-14
 -1      4263 2.01342E-03-3.44603E-05-4.14350E-15
 -1      4264 2.15780E-03-4.41213E-05-4.68173E-15
 -1      4265 2.22997E-03-8.66626E-06-4.97539E-15
 -1      4266 1.99387E-03 2.44781E-05-4.08275E-15
 -1      4267 3.04435E-03 1.85573E-05-8.73422E-15
 -1      4268 3.18963E-03 1.86395E-05-9.51295E-15
 -1      4269 3.33476E-03 1.86792E-05-1.03242E-14
 -1      4270 3.47971E-03 1.87148E-05-1.11674E-14
 -1      4271 3.62447E-03 1.87156E-05-1.20420E-14
 -1      4272 3.76903E-03 1.87152E-05-1.29494E-14
 -1      4273 3.91337E-03 1.86851E-05-1.38895E-14
 -1      4274 4.05749E-03 1.86543E-05-1.48619E-14
 -1      4275 4.20137E-03 1.85961E-05-1.58657E-14
 -1      4276 4.34500E-03 1.85357E-05-1.69018E-14
 -1      4277 4.73216E-03-7.44353E-06-1.98512E-14
 -1      4278 4.87476E-03-7.38448E-06-2.10049E-14
 -1      4279 5.05899E-03 1.79093E-05-2.25600E-14
 -1      4280 5.20082E-03 1.77121E-05-2.37869E-14
 -1      4281 5.34226E-03 1.74582E-05-2.50446E-14
 -1      4282 5.48329E-03 1.71737E-05-2.63344E-14
 -1      4283 5.62387E-03 1.68110E-05-2.76538E-14
 -1      4284 5.76394E-03 1.64004E-05-2.90040E-14
 -1      4285 5.90347E-03 1.58795E-05-3.03851E-14
 -1      4286 6.04240E-03 1.52856E-05-3.17955E-14
 -1      4287 6.18067E-03 1.45363E-05-3.32354E-14
 -1      4288 6.31821E-03 1.36782E-05-3.47040E-14
 -1      4289 6.45498E-03 1.26025E-05-3.62019E-14
 -1      4290 6.59087E-03 1.13683E-05-3.77280E-14
 -1      4291 6.72583E-03 9.83208E-06-3.92817E-14
 -1      4292 6.85974E-03 8.07072E-06-4.08633E-14
 -1      4293 6.99256E-03 5.89531E-06-4.24728E-14
 -1      4294 7.12413E-03 3.40869E-06-4.41088E-14
 -1      4295 7.25443E-03 3.62691E-07-4.57707E-14
 -1      4296 7.38324E-03-3.09893E-06-4.74574E-14
 -1      4297 7.51057E-03-7.30386E-06-4.91699E-14
 -1      4298 7.63614E-03-1.20127E-05-5.09076E-14
 -1      4299 7.76001E-03-1.77966E-05-5.26688E-14
 -1      4300 1.94398E-03 1.65747E-04-3.85418E-15
 -1      4301 2.00399E-03 1.00025E-04-4.10608E-15
 -1      4302 2.00226E-03 6.06238E-05-4.11066E-15
 -1      4303 2.75344E-03 1.83209E-05-7.27394E-15
 -1      4304 2.60789E-03 1.81574E-05-6.59305E-15
 -1      4305 7.95832E-03-5.11841E-05-5.57326E-14
 -1      4306 1.38329E-02-5.10542E-04-1.17994E-13
 -1      4307 2.89894E-03 1.84655E-05-7.98778E-15
 -1      4308 2.46330E-03 2.71203E-05-5.94988E-15
 -1      4309 4.67478E-03 1.17469E-04-1.94198E-14
 -1      4310 4.53175E-03 1.18207E-04-1.83076E-14
 -1      4311 4.45954E-03 8.15208E-05-1.77631E-14
 -1      4312 2.11982E-03 4.50297E-05-4.54988E-15
 -1      4313 2.01346E-03 1.32858E-04-4.12561E-15
 -1      4314 2.13769E-03 1.15348E-04-4.60000E-15
 -1      4315 2.20849E-03 8.06355E-05-4.88856E-15
 -1      4316 4.74559E-03 8.05034E-05-1.99849E-14
 -1      4317 2.31781E-03 2.67276E-05-5.33514E-15
 -1      4318 4.48838E-03 1.84475E-05-1.79699E-14
 -1      4319 4.63148E-03 1.83543E-05-1.90695E-14
 -1      4320 7.84012E-03-4.44727E-05-5.39325E-14
 -1      4321 4.98822E-03 5.40610E-05-2.19721E-14
 -1      4322 2.19978E-03 4.32976E-05-4.85998E-15
 -1      4323 4.70317E-03 5.49055E-05-1.96437E-14
 -1      4324 4.84585E-03 5.45062E-05-2.07917E-14
 -3
    1PSTEP                         2           1           1          
  100CL  101 1.000000000        4324                     0    1           1
 -4  STRESS      6    1
 -5  SXX         1    4    1    1
 -5  SYY         1    4    2    2
 -5  SZZ         1    4    3    3
 -5  SXY         1    4    1    2
 -5  SYZ         1    4    2    3
 -5  SZX         1    4    3    1
 -1         1 6.33510E+01 2.75069E+00 3.57447E+00-1.08623E+01-2.20091E-13 1.20784E-12
 -1         2-7.06338E-01-2.54381E+01-3.45495E+00 7.04314E-02-1.21639E-13 2.31298E-13
 -1         3 1.99826E+01-1.83164E-02 3.61885E-02-1.81999E-02-3.94507E-13-3.57550E-13
 -1         4 1.99706E+01-3.03068E-02 5.83790E-02 3.04376E-02 2.53527E-13-8.11261E-14
 -1         5 3.27666E+01 6.14242E+00 2.74253E+00 6.22428E+00-4.01762E-14 3.09321E-12
 -1         6 3.57509E+01 1.22630E+01 5.12558E+00-8.64664E+00-1.69587E-13 3.35876E-12
 -1         7 2.08168E+01 6.09919E+00-1.28757E-01-4.72595E+00-2.67980E-14 8.44474E-13
 -1         8 1.96704E+01 5.93458E+00 5.09111E-02-3.27562E+00-3.99680E-14 8.61724E-16
 -1         9 1.91368E+01 5.77175E+00 4.91576E-02-2.52759E+00-3.60458E-14-4.72643E-13
 -1        10 1.88948E+01 5.69207E+00 5.09740E-02-1.95229E+00-2.82760E-14-7.17543E-13
 -1        11 1.87743E+01 5.65142E+00 5.03311E-02-1.45720E+00-2.03882E-14-8.47601E-13
 -1        12 1.87115E+01 5.63000E+00 4.88930E-02-1.01597E+00-1.46506E-14-9.15766E-13
 -1        13 1.86782E+01 5.61866E+00 4.74913E-02-5.95845E-01-8.66245E-15-9.54635E-13
 -1        14 1.86644E+01 5.61389E+00 4.67651E-02-1.91362E-01-3.37209E-15-9.73097E-13
 -1        15 1.86648E+01 5.61404E+00 4.68061E-02 2.08392E-01 1.29774E-15-9.73150E-13
 -1        16 1.86798E+01 5.61914E+00 4.76208E-02 6.13701E-01 6.18938E-15-9.62218E-13
 -1        17 1.87141E+01 5.63072E+00 4.91253E-02 1.03575E+00 8.84340E-15-9.41121E-13
 -1        18 1.87784E+01 5.65258E+00 5.08598E-02 1.48005E+00 1.66954E-14-8.85242E-13
 -1        19 1.89009E+01 5.69375E+00 5.15478E-02 1.98129E+00 2.47484E-14-7.75563E-13
 -1        20 1.91416E+01 5.77425E+00 4.87724E-02 2.56487E+00 3.70450E-14-5.58690E-13
 -1        21 1.96660E+01 5.94918E+00 4.58763E-02 3.30967E+00 4.20913E-14-1.04570E-13
 -1        22 2.11998E+01 6.38098E+00 1.39623E-01 4.52354E+00 8.17402E-15 8.48948E-13
 -1        23 2.30274E+01-1.37908E+00-9.38233E-01-7.11328E-01-1.11248E-13 2.73569E-12
 -1        24 1.93637E+01-9.94805E-02-3.09831E-01 6.31751E-02-2.80670E-14 2.19819E-12
 -1        25 1.86744E+01-5.63202E-02-6.88060E-02 6.06879E-02-1.56307E-14 1.62787E-12
 -1        26 1.84710E+01-2.20835E-02-6.48111E-03 3.29587E-02-6.46033E-15 1.19974E-12
 -1        27 1.84813E+01-1.17922E-02 1.61588E-03 2.25704E-02-1.43116E-14 9.25961E-13
 -1        28 1.85942E+01-6.23326E-03 1.81378E-03 1.62463E-02-7.68168E-15 7.55108E-13
 -1        29 1.87525E+01-3.08636E-03 1.74869E-03 1.20796E-02 2.13013E-14 6.56685E-13
 -1        30 1.89251E+01-1.24509E-03 1.92500E-03 9.10288E-03 1.01619E-14 6.04098E-13
 -1        31 1.90944E+01-1.71099E-04 2.07395E-03 6.85457E-03 6.10551E-16 3.99243E-13
 -1        32 1.92509E+01 4.22223E-04 2.08272E-03 5.10336E-03-1.09142E-14 2.52857E-13
 -1        33 1.93900E+01 7.00278E-04 1.95445E-03 3.72030E-03 2.98947E-14 2.02873E-13
 -1        34 1.95107E+01 7.63779E-04 1.72190E-03 2.62461E-03-1.01358E-14 9.73293E-14
 -1        35 1.96141E+01 6.75461E-04 1.41365E-03 1.76088E-03 2.91717E-14 5.27982E-14
 -1        36 1.97030E+01 4.73513E-04 1.04646E-03 1.08963E-03-6.86020E-15 1.68234E-13
 -1        37 1.97813E+01 1.78902E-04 6.25160E-04 5.83429E-04-6.71782E-14 1.04988E-13
 -1        38 1.98541E+01-2.00276E-04 1.43751E-04 2.26046E-04 3.85627E-14 5.38206E-15
 -1        39 1.99273E+01-6.65912E-04-4.13854E-04 1.31793E-05-3.02680E-14 2.94485E-14
 -1        40 2.00080E+01-1.22765E-03-1.07349E-03-4.54063E-05 1.45554E-14-1.06820E-13
 -1        41 2.01049E+01-1.90067E-03-1.87074E-03 7.77151E-05-1.52780E-14-2.16587E-13
 -1        42 2.02283E+01-2.70257E-03-2.85079E-03 4.33121E-04-5.75330E-14-3.48520E-13
 -1        43 2.03904E+01-3.64823E-03-4.06697E-03 1.10251E-03-2.38346E-14-4.66457E-13
 -1        44 2.06064E+01-4.74005E-03-5.57514E-03 2.20956E-03 1.04864E-14-4.68293E-13
 -1        45 2.08944E+01-5.94987E-03-7.41768E-03 3.93308E-03 1.76568E-15-2.82320E-13
 -1        46 2.12753E+01-7.18598E-03-9.58348E-03 6.51824E-03-2.38585E-14-5.17334E-13
 -1        47 2.17725E+01-8.23661E-03-1.19179E-02 1.02727E-02 3.59370E-15-5.13406E-13
 -1        48 2.24086E+01-8.68152E-03-1.39386E-02 1.55140E-02-5.21279E-15-3.72673E-13
 -1        49 2.31992E+01-7.77599E-03-1.45023E-02 2.23915E-02 2.21976E-14-3.36276E-13
 -1        50 2.41404E+01-4.35637E-03-1.13172E-02 3.04380E-02-4.98019E-14-4.43099E-13
 -1        51 2.51849E+01 3.06967E-03-5.50315E-04 3.76445E-02-1.69619E-14-1.98126E-13
 -1        52 2.62070E+01 1.56869E-02 2.25833E-02 3.89612E-02 4.22902E-14-6.70713E-14
 -1        53 2.69631E+01 3.26839E-02 6.03374E-02 2.48763E-02 1.30750E-14-1.16460E-13
 -1        54 2.70792E+01 4.85115E-02 1.04192E-01-1.71027E-02 4.83615E-14-1.63447E-13
 -1        55 2.61411E+01 5.13948E-02 1.25575E-01-9.22763E-02-5.97283E-14-1.03730E-13
 -1        56 2.39678E+01 2.87636E-02 8.20540E-02-1.77921E-01 7.88159E-14-8.57231E-14
 -1        57 2.10076E+01-1.92600E-02-4.38154E-02-2.11765E-01 8.10886E-15-2.78992E-13
 -1        58 1.84664E+01-6.81640E-02-1.87797E-01-1.34149E-01 3.54903E-14-6.27075E-13
 -1        59 1.76969E+01-8.30625E-02-2.34150E-01 3.24222E-02 5.30062E-14-6.74729E-13
 -1        60 1.91268E+01-5.21129E-02-1.40534E-01 1.75330E-01-1.17716E-13-7.57498E-13
 -1        61 2.18700E+01 9.62962E-04 9.63091E-03 2.07681E-01 9.22548E-14-8.09269E-13
 -1        62 2.45056E+01 4.14070E-02 1.08526E-01 1.45388E-01-2.73948E-14-1.00667E-12
 -1        63 2.60800E+01 5.37867E-02 1.24596E-01 5.78833E-02 1.50262E-14-5.46344E-13
 -1        64 2.64157E+01 4.45072E-02 9.08246E-02-6.54343E-03-1.09049E-14-6.45600E-13
 -1        65 2.58195E+01 2.70294E-02 4.74918E-02-3.83169E-02-2.33487E-14-5.45692E-13
 -1        66 2.47104E+01 1.06455E-02 1.46345E-02-4.72605E-02 7.45379E-14-7.39122E-13
 -1        67 2.34240E+01-1.46781E-03-5.19318E-03-4.50046E-02 1.65546E-13-5.14207E-13
 -1        68 2.21782E+01-9.83292E-03-1.71482E-02-3.85563E-02-8.50337E-14-1.51160E-13
 -1        69 2.11100E+01-1.58750E-02-2.72359E-02-2.96254E-02 1.75617E-13-1.70038E-14
 -1        70 2.03328E+01-1.73199E-02-3.45025E-02-1.24002E-02-7.65100E-14-2.81148E-13
 -1        71 1.99692E+01 3.40584E-03-1.28147E-02 1.35207E-02-2.56214E-14-3.50581E-13
 -1        72 2.10399E+01-4.04866E-01-9.80361E-01-3.11516E-01 5.18439E-14 2.73680E-12
 -1        73 1.93282E+01-6.58794E-02-2.91140E-01-5.38094E-02 2.40420E-14 1.95949E-12
 -1        74 1.86840E+01-2.05074E-02-6.42686E-02-2.03328E-02 1.90385E-14 1.39921E-12
 -1        75 1.84802E+01-9.87286E-03-9.30126E-03-1.54199E-02 5.17403E-15 1.02680E-12
 -1        76 1.84903E+01-5.16321E-03 7.03878E-04-1.23488E-02 4.50345E-15 7.52074E-13
 -1        77 1.86024E+01-2.61696E-03 1.76281E-03-1.00619E-02 1.64266E-14 4.91625E-13
 -1        78 1.87598E+01-1.15411E-03 1.89316E-03-8.30130E-03-2.38024E-14 4.08940E-13
 -1        79 1.89314E+01-3.02586E-04 2.07714E-03-6.84181E-03 5.34130E-15 3.12588E-13
 -1        80 1.90999E+01 1.77626E-04 2.20034E-03-5.57492E-03-3.27547E-15 5.83162E-14
 -1        81 1.92556E+01 4.19587E-04 2.18153E-03-4.45795E-03 2.58935E-14-1.07132E-13
 -1        82 1.93942E+01 5.02637E-04 2.02726E-03-3.47171E-03-4.58409E-15-2.32212E-13
 -1        83 1.95146E+01 4.75920E-04 1.76961E-03-2.60392E-03 2.72006E-14-3.48182E-13
 -1        84 1.96179E+01 3.70291E-04 1.43693E-03-1.84404E-03-2.36343E-14-3.21819E-13
 -1        85 1.97070E+01 2.04765E-04 1.04674E-03-1.18236E-03 1.22597E-14-3.07631E-13
 -1        86 1.97857E+01-9.44832E-06 6.06171E-04-6.11001E-04 1.05938E-14-5.81531E-13
 -1        87 1.98589E+01-2.65935E-04 1.14264E-04-1.25946E-04-3.85118E-14-5.92303E-13
 -1        88 1.99325E+01-5.60302E-04-4.35209E-04 2.70231E-04-1.17018E-14-4.91751E-13
 -1        89 2.00129E+01-8.87119E-04-1.05013E-03 5.65033E-04 7.72277E-14-8.20676E-13
 -1        90 2.01075E+01-1.23609E-03-1.73505E-03 7.32095E-04-5.43060E-14-9.66613E-13
 -1        91 2.02245E+01-1.58705E-03-2.48377E-03 7.26734E-04 1.11658E-15-4.87781E-13
 -1        92 2.03726E+01-1.90324E-03-3.26801E-03 4.81509E-04-9.99857E-15-5.33444E-13
 -1        93 2.05607E+01-2.12296E-03-4.02025E-03-9.68124E-05-2.38398E-14-5.52244E-13
 -1        94 2.07968E+01-2.14986E-03-4.60866E-03-1.12569E-03 5.89056E-14-9.28280E-13
 -1        95 2.10864E+01-1.84475E-03-4.80305E-03-2.73414E-03-2.08873E-14-1.22101E-12
 -1        96 2.14299E+01-1.02506E-03-4.23600E-03-5.02711E-03-1.10078E-15-7.14996E-13
 -1        97 2.18184E+01 5.15117E-04-2.37579E-03-8.00805E-03-4.51472E-14-4.30012E-13
 -1        98 2.22284E+01 2.94252E-03 1.44472E-03-1.14365E-02 5.68066E-14-2.64776E-13
 -1        99 2.26151E+01 6.25288E-03 7.85698E-03-1.46082E-02-1.89864E-14-5.33089E-13
 -1       100 2.29074E+01 1.00575E-02 1.70193E-02-1.60988E-02 3.49275E-14-4.27155E-13
 -1       101 2.30079E+01 1.33433E-02 2.78361E-02-1.36509E-02 2.20218E-14-7.32214E-13
 -1       102 2.28055E+01 1.44135E-02 3.70469E-02-4.60452E-03 1.10025E-15-1.08136E-12
 -1       103 2.22095E+01 1.13508E-02 3.89926E-02 1.26286E-02-4.47584E-14-7.34399E-13
 -1       104 2.12058E+01 3.23736E-03 2.74475E-02 3.60380E-02 1.89249E-14-4.48645E-13
 -1       105 1.99173E+01-8.34524E-03 1.76859E-04 5.79667E-02 1.84139E-14-4.94028E-13
 -1       106 1.86250E+01-1.90177E-02-3.59466E-02 6.65916E-02-9.56891E-14-1.72352E-13
 -1       107 1.76999E+01-2.37863E-02-6.52310E-02 5.29500E-02 4.05693E-14-5.18223E-13
 -1       108 1.74448E+01-2.03371E-02-7.18883E-02 1.92159E-02 5.77257E-14-9.33813E-13
 -1       109 1.79343E+01-1.06071E-02-5.18692E-02-2.05425E-02 3.29797E-14-4.65107E-13
 -1       110 1.89707E+01 7.89772E-04-1.63116E-02-4.93841E-02-7.14560E-14-3.13898E-13
 -1       111 2.01921E+01 9.63329E-03 1.75837E-02-5.84958E-02 5.53805E-14-4.70582E-13
 -1       112 2.12471E+01 1.39028E-02 3.77501E-02-5.01933E-02-7.90357E-14-4.53703E-13
 -1       113 2.19199E+01 1.38534E-02 4.21223E-02-3.28313E-02 1.43063E-13-3.87202E-13
 -1       114 2.21550E+01 1.09207E-02 3.53910E-02-1.43712E-02 1.91925E-14-4.66282E-13
 -1       115 2.20139E+01 6.63982E-03 2.37014E-02 7.19245E-04 7.23052E-14-1.06223E-12
 -1       116 2.16144E+01 2.05831E-03 1.11685E-02 1.11949E-02-7.86627E-15-1.15213E-12
 -1       117 2.10872E+01-2.28884E-03-8.59850E-04 1.73836E-02 1.08402E-14-1.42789E-12
 -1       118 2.05583E+01-5.88671E-03-1.23499E-02 1.94268E-02 4.53882E-14-1.62013E-12
 -1       119 2.01490E+01-7.23554E-03-2.00688E-02 1.47027E-02 1.77995E-14-1.59535E-12
 -1       120 1.99763E+01 7.93463E-03-2.76402E-03-4.58311E-03 8.10495E-14-1.00458E-12
 -1       121 1.99985E+01-1.22291E-02-3.87853E-03-1.15514E-02-6.85003E-13 2.25853E-13
 -1       122 1.99885E+01 1.64119E-01-2.08559E-02 5.56098E-03-1.38416E-13-4.41507E-14
 -1       123 1.99905E+01 5.91762E-01-1.65907E-02 1.55718E-02 3.29214E-13 1.19582E-14
 -1       124 1.99940E+01 1.18981E+00-9.93981E-03 2.12310E-02 3.50609E-13 1.46910E-13
 -1       125 1.99988E+01 1.88840E+00-2.70570E-03 2.44160E-02 4.93489E-13-2.04855E-13
 -1       126 2.00045E+01 2.59909E+00 5.51674E-03 2.49019E-02-5.79736E-13-5.01475E-14
 -1       127 2.00104E+01 3.25364E+00 1.45599E-02 2.18801E-02-8.74371E-13 1.91411E-13
 -1       128 2.00155E+01 3.74028E+00 2.29525E-02 1.46875E-02 1.15860E-13 1.62584E-13
 -1       129 2.00187E+01 3.96814E+00 2.85363E-02 3.85519E-03 2.75528E-13-1.34413E-13
 -1       130 2.00190E+01 3.87862E+00 2.95248E-02-8.94714E-03 2.66145E-13 1.51149E-13
 -1       131 2.00157E+01 3.46409E+00 2.49917E-02-2.17134E-02-1.66232E-13-2.64166E-13
 -1       132 2.00097E+01 2.78834E+00 1.56373E-02-3.07254E-02-3.81436E-13 4.16957E-13
 -1       133 2.00013E+01 1.93249E+00 1.39019E-03-3.55144E-02-1.22917E-13-1.57833E-13
 -1       134 1.99899E+01 1.05069E+00-1.79369E-02-3.51963E-02 5.04319E-14 3.18328E-14
 -1       135 1.99866E+01 3.45597E-01-2.76785E-02-2.49557E-02 1.40231E-13-3.76702E-14
 -1       136 1.99856E+01 8.24082E-03-7.36827E-03 2.91350E-02-3.04598E-14 7.13170E-14
 -1       137-1.50994E+00-2.02090E+01-3.10176E+00-3.94377E+00 1.01102E-12 3.03410E-13
 -1       138-1.25036E+00-7.85580E+00-2.17408E+00-2.46573E+00 1.15802E-12 3.38368E-13
 -1       139 3.92751E+00 4.39051E+00-8.86024E-01 4.43817E+00 1.09235E-12 9.77662E-13
 -1       140 1.81123E+01 1.10352E+01 6.42963E-01 1.39551E+01 1.26832E-12 1.68832E-12
 -1       141 3.66345E+01 9.89231E+00 1.96991E+00 1.84779E+01 1.15516E-12 2.10365E-12
 -1       142 5.49738E+01 4.96471E+00 2.97895E+00 1.52370E+01 6.20767E-13 2.10726E-12
 -1       143 6.53567E+01 1.15913E+00 3.46499E+00 4.62114E+00 1.61246E-13 1.16585E-12
 -1       144 6.29512E+01 2.03327E+00 3.34014E+00-8.72314E+00 9.96067E-14-5.77510E-13
 -1       145 4.83652E+01 6.94234E+00 2.60103E+00-1.74171E+01 5.90888E-13-1.27198E-12
 -1       146 2.79587E+01 1.10693E+01 1.37787E+00-1.72427E+01 1.20454E-12-1.92268E-12
 -1       147 1.08074E+01 9.42911E+00-2.92419E-02-1.00870E+01 1.12810E-12-1.09168E-12
 -1       148 8.86218E-01 4.51655E-01-1.41481E+00-1.14666E+00 1.56203E-12-9.14602E-13
 -1       149-1.67937E+00-1.18074E+01-2.48771E+00 3.70878E+00 2.24543E-12-8.34804E-13
 -1       150-1.06904E+00-2.22128E+01-3.19349E+00 3.00400E+00 1.94100E-12-4.09892E-13
 -1       151-8.20756E-01-2.45776E+01-3.36151E+00-1.51921E+00 5.65194E-13 6.61658E-14
 -1       152-1.70794E+00-1.83815E+01-3.03428E+00-4.37665E+00-1.01291E-12-2.07390E-13
 -1       153-1.48828E+00-6.94289E+00-2.23107E+00-2.59541E+00-1.84974E-12-1.09002E-12
 -1       154 5.07340E+00 4.57480E+00-9.33666E-01 5.01999E+00-2.07795E-12-1.55492E-12
 -1       155 1.88319E+01 1.06025E+01 5.81007E-01 1.38361E+01-1.43424E-12-1.67222E-12
 -1       156 3.88515E+01 9.23983E+00 2.03259E+00 1.84378E+01-8.80768E-13-1.70230E-12
 -1       157 5.83115E+01 4.25042E+00 3.25817E+00 1.43417E+01-3.11785E-13-1.07336E-12
 -1       158 6.82257E+01 1.00192E+00 3.84831E+00 2.14630E+00-1.15186E-15 1.08018E-13
 -1       159 4.78562E+01 7.52253E+00 2.65532E+00-1.80873E+01-8.70498E-13 1.87583E-12
 -1       160 2.87188E+01 1.08975E+01 1.38358E+00-1.73123E+01-1.73511E-12 2.36816E-12
 -1       161 1.20767E+01 9.26638E+00-4.23906E-02-1.05774E+01-1.37695E-12 1.86079E-12
 -1       162 1.38633E+00 8.31487E-01-1.45073E+00-1.60296E+00-1.01935E-12 7.67664E-13
 -1       163-1.76211E+00-1.10423E+01-2.52896E+00 3.63500E+00-1.30257E-12 4.27880E-13
 -1       164-1.48797E+00-2.11731E+01-3.20470E+00 3.93440E+00-1.89013E-12 3.97130E-13
 -1       165 2.10114E+01 3.69395E+00-5.73536E-02-3.61109E+00-4.51809E-13 3.74416E-13
 -1       166 1.99897E+01 4.20765E+00-4.57313E-02-2.81038E+00-4.60281E-13-1.61333E-13
 -1       167 1.95084E+01 4.47694E+00-3.15898E-02-2.19534E+00-3.87264E-13-4.67461E-13
 -1       168 1.92677E+01 4.61500E+00-2.37332E-02-1.67657E+00-3.12161E-13-6.42511E-13
 -1       169 1.91385E+01 4.69667E+00-1.94825E-02-1.21996E+00-2.30094E-13-7.26170E-13
 -1       170 1.90651E+01 4.74782E+00-1.74153E-02-7.92651E-01-1.55558E-13-7.76420E-13
 -1       171 1.90282E+01 4.77572E+00-1.64243E-02-3.87198E-01-7.80896E-14-7.97928E-13
 -1       172 1.90175E+01 4.78425E+00-1.61370E-02 8.27922E-03-2.11035E-14-8.22484E-13
 -1       173 1.90299E+01 4.77443E+00-1.64703E-02 4.04101E-01 4.48836E-14-8.12433E-13
 -1       174 1.90687E+01 4.74487E+00-1.75239E-02 8.10650E-01 1.17329E-13-8.04079E-13
 -1       175 1.91427E+01 4.69240E+00-1.96921E-02 1.23237E+00 1.91108E-13-7.49845E-13
 -1       176 1.92775E+01 4.60520E+00-2.40136E-02 1.69925E+00 2.91442E-13-6.67046E-13
 -1       177 1.95234E+01 4.45941E+00-3.28542E-02 2.22768E+00 3.83978E-13-5.36383E-13
 -1       178 2.00121E+01 4.18370E+00-4.72113E-02 2.84786E+00 4.45494E-13-2.46747E-13
 -1       179 2.11331E+01 3.46362E+00-5.97873E-02 3.53760E+00 4.60063E-13 3.17989E-13
 -1       180 2.24171E+01 1.14346E+00-3.36469E-01 3.01547E+00 3.63217E-13 1.08404E-12
 -1       181 2.19692E+01 8.58278E-01 6.55992E-04-1.95967E+00-3.86947E-13 9.55194E-13
 -1       182 2.04442E+01 1.90151E-01-9.99829E-03-7.64954E-01-3.32456E-13 7.53545E-13
 -1       183 1.96680E+01 1.01732E-01 1.35556E-02-2.86454E-01-2.66683E-13 5.88721E-13
 -1       184 1.93276E+01 4.71223E-02 1.00085E-02-6.87557E-02-1.96923E-13 3.98144E-13
 -1       185 1.91971E+01 2.24952E-02 5.16013E-03 3.83725E-02-1.06552E-13 2.76435E-13
 -1       186 1.91829E+01 9.49746E-03 2.43391E-03 9.09123E-02-8.26295E-14 2.28298E-13
 -1       187 1.92308E+01 2.14459E-03 1.13483E-03 1.13332E-01-3.43481E-14 1.45134E-13
 -1       188 1.93095E+01-2.02651E-03 5.06978E-04 1.18444E-01-8.35927E-14 1.00458E-13
 -1       189 1.94004E+01-4.22796E-03 1.80378E-04 1.13749E-01-9.91293E-14 1.04273E-13
 -1       190 1.94927E+01-5.14519E-03 5.90407E-06 1.03973E-01-5.98497E-14 5.10699E-14
 -1       191 1.95807E+01-5.19912E-03-7.83610E-05 9.22355E-02-5.27349E-14-8.85399E-14
 -1       192 1.96616E+01-4.65542E-03-1.02502E-04 8.06602E-02-8.91632E-15-7.17380E-14
 -1       193 1.97354E+01-3.67751E-03-8.34626E-05 7.07500E-02 2.71599E-14-8.57512E-14
 -1       194 1.98034E+01-2.35522E-03-3.12259E-05 6.36348E-02-8.25494E-15-4.66634E-14
 -1       195 1.98682E+01-7.21485E-04 4.87563E-05 6.02535E-02-7.90570E-14 1.56817E-15
 -1       196 1.99338E+01 1.23705E-03 1.54258E-04 6.14945E-02-2.22509E-14-1.30383E-13
 -1       197 2.00048E+01 3.57293E-03 2.85339E-04 6.83100E-02-2.87979E-14-1.65714E-13
 -1       198 2.00872E+01 6.37226E-03 4.43446E-04 8.18098E-02-3.29372E-14-2.22018E-13
 -1       199 2.01880E+01 9.74832E-03 6.30228E-04 1.03336E-01-1.57346E-13-2.70439E-13
 -1       200 2.03157E+01 1.38306E-02 8.45649E-04 1.34511E-01-4.45640E-14-3.30727E-13
 -1       201 2.04801E+01 1.87415E-02 1.08471E-03 1.77235E-01-3.98819E-14-2.53605E-13
 -1       202 2.06927E+01 2.45469E-02 1.33176E-03 2.33591E-01 2.51793E-14-2.59030E-13
 -1       203 2.09663E+01 3.11516E-02 1.55125E-03 3.05540E-01-2.47840E-14-2.56086E-13
 -1       204 2.13145E+01 3.80933E-02 1.67450E-03 3.94235E-01-8.96017E-15-1.86080E-13
 -1       205 2.17499E+01 4.41574E-02 1.58494E-03 4.98623E-01 1.32440E-14-2.33365E-13
 -1       206 2.22811E+01 4.67194E-02 1.11310E-03 6.12812E-01 1.58526E-14-1.24613E-13
 -1       207 2.29072E+01 4.07749E-02 6.72324E-05 7.21601E-01-3.28872E-14-2.09622E-13
 -1       208 2.36086E+01 1.79372E-02-1.65159E-03 7.93858E-01 9.95684E-14-1.96480E-13
 -1       209 2.43344E+01-3.33890E-02-3.82430E-03 7.75223E-01 1.53831E-13-3.64804E-14
 -1       210 2.49885E+01-1.23501E-01-5.66109E-03 5.86447E-01-8.89948E-14-5.42613E-14
 -1       211 2.54214E+01-2.47096E-01-5.87990E-03 1.43120E-01-4.43829E-15-3.23006E-14
 -1       212 2.54449E+01-3.56710E-01-3.68106E-03-5.78530E-01-2.47684E-14-4.11290E-14
 -1       213 2.49000E+01-3.44947E-01-3.71412E-04-1.42311E+00 3.39936E-14-9.02455E-14
 -1       214 2.38027E+01-9.84327E-02 2.78768E-04-1.97267E+00-3.92800E-14-4.59112E-14
 -1       215 2.25099E+01 3.34989E-01-7.90424E-03-1.71186E+00-1.59186E-13-1.59619E-13
 -1       216 2.16817E+01 6.58099E-01-1.70390E-02-5.25990E-01-1.60757E-13-5.12139E-13
 -1       217 2.18263E+01 5.72947E-01-1.58396E-02 9.54605E-01-1.37248E-13-8.99830E-13
 -1       218 2.28095E+01 1.62979E-01-6.15598E-03 1.82493E+00-1.64637E-13-8.16378E-13
 -1       219 2.39926E+01-2.24138E-01-3.73071E-04 1.72985E+00 6.84088E-15-7.74167E-13
 -1       220 2.47949E+01-3.76608E-01-1.59232E-03 9.97549E-01 1.89460E-13-5.10686E-13
 -1       221 2.49966E+01-3.29354E-01-4.80799E-03 1.50707E-01-5.83856E-14-6.25890E-13
 -1       222 2.46670E+01-2.06298E-01-6.06465E-03-4.89366E-01 1.20453E-13-5.61985E-13
 -1       223 2.39886E+01-9.18417E-02-4.90571E-03-8.46156E-01-3.94368E-14-3.13867E-13
 -1       224 2.31441E+01-1.28460E-02-2.47102E-03-9.70943E-01 2.07117E-13-3.33060E-13
 -1       225 2.22748E+01 3.56811E-02-1.07008E-05-9.40514E-01 2.12859E-13-4.92344E-13
 -1       226 2.14782E+01 6.86168E-02 1.58618E-03-8.09869E-01 6.13916E-14-3.75945E-13
 -1       227 2.08207E+01 1.00974E-01 2.31345E-03-6.02749E-01 8.33255E-14-5.82417E-13
 -1       228 2.03294E+01 1.37733E-01 1.59827E-03-3.27015E-01 2.41892E-14-1.56843E-13
 -1       229 2.09606E+01 2.77048E-01-5.13426E-02 1.16548E+00 3.62359E-13 9.14186E-13
 -1       230 1.98652E+01 1.26796E-01 8.30038E-03 4.43779E-01 2.73752E-13 6.57157E-13
 -1       231 1.93581E+01 5.80593E-02 1.27324E-02 1.50820E-01 1.99319E-13 4.45399E-13
 -1       232 1.91477E+01 2.76895E-02 7.63551E-03 1.15994E-02 1.60728E-13 2.70418E-13
 -1       233 1.90970E+01 1.30453E-02 3.82593E-03-5.74634E-02 1.13651E-13 1.66157E-13
 -1       234 1.91320E+01 5.12117E-03 1.91046E-03-8.98762E-02 4.40036E-14 7.56030E-14
 -1       235 1.92104E+01 6.15980E-04 1.01241E-03-1.01725E-01 1.08614E-13-1.19771E-14
 -1       236 1.93076E+01-1.90939E-03 5.57985E-04-1.01786E-01 1.16060E-13-3.62837E-14
 -1       237 1.94094E+01-3.18998E-03 3.02210E-04-9.53572E-02 9.40071E-14-1.84059E-13
 -1       238 1.95076E+01-3.65135E-03 1.51515E-04-8.58340E-02 7.87188E-14-2.58682E-13
 -1       239 1.95984E+01-3.55762E-03 6.63092E-05-7.54798E-02 7.56141E-14-2.65662E-13
 -1       240 1.96806E+01-3.07649E-03 2.58620E-05-6.58479E-02-8.91931E-15-2.79830E-13
 -1       241 1.97548E+01-2.31216E-03 1.72235E-05-5.80430E-02-1.00319E-14-3.40221E-13
 -1       242 1.98234E+01-1.32460E-03 3.15167E-05-5.28958E-02 7.04867E-14-2.76165E-13
 -1       243 1.98895E+01-1.42842E-04 6.22150E-05-5.10827E-02 1.36343E-14-3.15386E-13
 -1       244 1.99573E+01 1.22371E-03 1.03979E-04-5.32056E-02 9.53073E-15-4.38215E-13
 -1       245 2.00317E+01 2.77353E-03 1.51656E-04-5.98333E-02 1.84193E-13-4.55133E-13
 -1       246 2.01182E+01 4.49894E-03 1.99290E-04-7.15016E-02-8.64339E-14-4.37038E-13
 -1       247 2.02229E+01 6.36708E-03 2.39113E-04-8.86616E-02-1.65619E-13-4.19734E-13
 -1       248 2.03522E+01 8.29335E-03 2.60598E-04-1.11557E-01 2.27759E-14-3.69693E-13
 -1       249 2.05125E+01 1.01037E-02 2.49878E-04-1.40005E-01 8.11114E-14-4.97932E-13
 -1       250 2.07089E+01 1.14829E-02 1.90251E-04-1.73044E-01 1.84916E-13-6.06834E-13
 -1       251 2.09446E+01 1.19095E-02 6.51382E-05-2.08415E-01 4.62298E-15-5.51280E-13
 -1       252 2.12186E+01 1.05864E-02-1.34441E-04-2.41854E-01-2.22069E-13-5.03297E-13
 -1       253 2.15234E+01 6.40009E-03-3.95962E-04-2.66260E-01-1.51754E-13-3.52050E-13
 -1       254 2.18413E+01-2.01419E-03-6.65383E-04-2.70932E-01 3.39700E-15-2.15752E-13
 -1       255 2.21411E+01-1.59543E-02-8.29466E-04-2.41427E-01 9.30898E-14-1.04464E-13
 -1       256 2.23759E+01-3.58591E-02-7.23286E-04-1.61090E-01-3.75108E-14-1.78784E-13
 -1       257 2.24843E+01-5.98540E-02-1.96548E-04-1.58168E-02 9.45164E-15-2.93114E-14
 -1       258 2.23988E+01-8.18596E-02 7.29352E-04 1.96420E-01 1.05429E-13-2.29389E-14
 -1       259 2.20657E+01-9.05499E-02 1.69053E-03 4.51993E-01-1.66892E-13-6.93321E-14
 -1       260 2.14768E+01-7.19142E-02 1.93965E-03 6.90305E-01-3.57084E-14-1.81528E-13
 -1       261 2.07029E+01-1.78171E-02 7.65221E-04 8.18612E-01 7.75884E-14-1.14634E-13
 -1       262 1.99074E+01 6.19648E-02-1.61590E-03 7.47030E-01-1.57202E-13-1.68004E-13
 -1       263 1.93121E+01 1.35241E-01-3.78069E-03 4.48583E-01 1.98519E-13-3.09665E-13
 -1       264 1.91071E+01 1.63553E-01-3.95383E-03 2.47718E-03 1.02736E-13-3.15137E-13
 -1       265 1.93519E+01 1.30477E-01-1.76601E-03-4.30640E-01-1.61176E-13-2.62563E-13
 -1       266 1.99404E+01 5.49578E-02 1.22539E-03-6.96589E-01-6.59364E-14-2.95671E-13
 -1       267 2.06587E+01-2.42456E-02 3.11763E-03-7.30501E-01 7.34574E-14-3.14074E-13
 -1       268 2.12900E+01-7.66912E-02 3.06076E-03-5.71078E-01-4.61601E-14-1.14309E-13
 -1       269 2.16930E+01-9.38121E-02 1.71277E-03-3.12692E-01-5.16080E-14-1.24189E-13
 -1       270 2.18223E+01-8.38672E-02 2.02661E-04-4.76771E-02 2.79967E-14 3.70906E-14
 -1       271 2.17075E+01-6.00637E-02-7.23533E-04 1.64575E-01 3.97925E-13-6.05230E-14
 -1       272 2.14184E+01-3.24541E-02-9.88501E-04 2.99033E-01 1.37787E-13-2.92543E-13
 -1       273 2.10382E+01-5.74145E-03-1.00549E-03 3.52263E-01 8.49378E-14-4.17891E-13
 -1       274 2.06478E+01 1.94034E-02-1.35937E-03 3.28909E-01-8.55815E-15-3.98427E-13
 -1       275 2.03189E+01 4.48194E-02-1.10971E-03 2.34683E-01-4.90188E-14-3.15197E-13
 -1       276 2.00966E+01 5.66159E-02 1.18478E-03 8.98631E-02-2.88232E-13-2.04355E-13
 -1       277 2.00772E+01 1.96554E-01 1.60940E-03 1.81539E-01-2.53435E-13 3.99857E-13
 -1       278 2.00621E+01 4.72988E-01 1.28558E-03 3.41390E-01-2.42831E-14 2.16020E-13
 -1       279 2.00411E+01 8.54191E-01 9.19016E-04 4.65926E-01 9.29639E-14 6.75355E-14
 -1       280 2.00196E+01 1.31532E+00 3.49756E-04 5.41097E-01-2.41469E-14 2.32487E-13
 -1       281 1.99939E+01 1.80556E+00-6.74903E-04 5.57488E-01-9.48512E-14-7.78460E-13
 -1       282 1.99635E+01 2.28651E+00-1.72200E-03 5.03917E-01-2.42386E-13-3.23923E-13
 -1       283 1.99328E+01 2.68376E+00-2.64448E-03 3.73793E-01-1.51885E-13 6.47401E-13
 -1       284 1.99085E+01 2.93288E+00-3.23321E-03 1.74892E-01-1.20247E-14 7.64078E-14
 -1       285 1.98974E+01 2.98409E+00-3.37585E-03-6.78813E-02 1.70205E-13-1.47559E-13
 -1       286 1.99041E+01 2.81649E+00-2.98225E-03-3.15762E-01-1.02293E-13-2.47401E-13
 -1       287 1.99282E+01 2.45446E+00-2.04975E-03-5.21260E-01-7.05781E-14-2.24090E-13
 -1       288 1.99675E+01 1.93737E+00-9.11243E-04-6.50977E-01 9.79399E-14 3.02530E-13
 -1       289 2.00174E+01 1.35137E+00 1.86680E-04-6.70498E-01 2.52087E-13 2.62724E-14
 -1       290 2.00816E+01 7.91754E-01 2.01213E-03-5.54948E-01 2.44699E-13 9.88281E-14
 -1       291 2.01948E+01 4.34551E-01 2.65005E-03-5.05877E-01 1.61808E-13-2.65737E-13
 -1       292-9.31145E-01-1.11133E+01-9.76715E-01 1.32727E+00-1.32547E-13 5.12035E-13
 -1       293 3.95426E+00-7.80909E+00-5.16230E-01 4.73666E+00 8.58758E-14 2.18985E-13
 -1       294 1.03567E+01-4.90806E+00-4.20757E-01 5.98386E+00 3.53717E-13 3.99125E-13
 -1       295 2.07397E+01-1.53817E+00-3.67643E-02 7.10540E+00 2.54130E-13 6.20004E-13
 -1       296 3.01218E+01 2.94166E+00 3.76389E-01 7.69167E+00 4.66197E-13 8.15792E-13
 -1       297 3.88114E+01 5.13936E+00 6.90370E-01 5.85524E+00 3.43597E-13 5.65076E-13
 -1       298 4.52121E+01 6.40759E+00 9.66633E-01 3.38143E+00 6.15216E-13 5.76136E-13
 -1       299 4.51285E+01 7.13906E+00 8.46734E-01-4.56403E-01 7.15455E-13 3.62575E-13
 -1       300 4.34834E+01 6.05195E+00 9.06688E-01-4.55954E+00 3.93380E-13-1.78524E-13
 -1       301 3.55016E+01 4.22936E+00 5.60393E-01-6.60137E+00 7.55854E-13-3.88856E-13
 -1       302 2.55010E+01 1.70316E+00 2.04840E-01-7.82441E+00 3.99486E-13-9.04138E-13
 -1       303 1.52332E+01-1.93657E+00-2.31520E-01-6.85780E+00 8.34999E-13-4.73371E-13
 -1       304 6.92396E+00-6.03241E+00-6.06803E-01-4.93674E+00 8.74828E-13-2.98567E-13
 -1       305 1.44849E+00-9.18114E+00-8.05177E-01-3.08361E+00 5.98771E-13-3.12805E-13
 -1       306-1.24573E+00-1.12725E+01-9.92736E-01-7.04783E-01 4.83814E-13-7.22242E-13
 -1       307-2.15929E-01-9.76227E+00-8.04031E-01 1.68905E+00 1.80828E-14-7.86232E-13
 -1       308 3.57447E+00-8.24440E+00-7.65084E-01 3.57290E+00-5.26856E-13-7.49102E-13
 -1       309 1.26107E+01-5.27532E+00-3.11385E-01 6.21316E+00-5.48145E-13-6.55004E-13
 -1       310 1.92916E+01-2.23172E+00-2.05854E-01 6.60061E+00-8.13377E-13-4.77729E-13
 -1       311 3.14934E+01 2.22921E+00 3.51880E-01 6.73768E+00-6.15244E-13-5.37015E-13
 -1       312 4.09612E+01 5.01113E+00 8.18696E-01 5.58025E+00-4.86399E-13-3.68067E-13
 -1       313 4.71335E+01 6.41776E+00 1.10759E+00 2.46052E+00-6.10970E-13 1.45967E-13
 -1       314 4.62844E+01 7.07213E+00 9.52477E-01-1.17724E+00-4.57884E-13 4.89490E-13
 -1       315 4.37724E+01 5.76810E+00 9.25099E-01-4.68668E+00-7.94864E-13 7.12069E-13
 -1       316 3.60935E+01 3.70781E+00 5.56878E-01-6.30373E+00-7.52072E-13 6.66411E-13
 -1       317 2.66662E+01 1.23589E+00 1.87506E-01-7.51521E+00-4.94521E-13 9.75997E-13
 -1       318 1.74868E+01-2.93679E+00-2.03571E-01-6.76421E+00-3.93768E-13 9.52960E-13
 -1       319 8.02318E+00-6.14366E+00-5.93179E-01-5.07150E+00-5.81535E-13 5.05603E-13
 -1       320 2.80364E+00-8.46284E+00-6.35365E-01-3.78497E+00-4.21774E-13-1.99979E-14
 -1       321-9.08915E-01-1.07827E+01-9.10450E-01-1.01355E+00-3.52371E-13 8.83016E-13
 -1       322 2.01446E+01 3.01502E+00-1.79029E-02-2.11111E+00-4.80456E-13-1.84693E-13
 -1       323 2.07541E+01 2.20827E+00-1.78587E-02-2.36439E+00-4.99347E-13 1.30984E-13
 -1       324 1.95854E+01 3.69128E+00-1.50844E-02-1.31774E+00-3.23722E-13-5.18365E-13
 -1       325 1.94620E+01 3.84842E+00-1.35787E-02-9.24218E-01-2.36172E-13-5.68747E-13
 -1       326 1.93935E+01 3.93910E+00-1.26939E-02-5.44334E-01-1.45511E-13-6.07550E-13
 -1       327 1.93633E+01 3.98037E+00-1.22957E-02-1.73409E-01-5.71856E-14-6.28888E-13
 -1       328 1.93646E+01 3.97876E+00-1.23176E-02 1.94574E-01 1.94030E-14-6.36370E-13
 -1       329 1.93977E+01 3.93388E+00-1.27642E-02 5.65863E-01 9.93459E-14-6.31732E-13
 -1       330 1.94680E+01 3.84063E+00-1.37743E-02 9.40057E-01 1.96050E-13-5.86232E-13
 -1       331 1.95942E+01 3.67839E+00-1.56649E-02 1.33429E+00 3.06579E-13-4.97863E-13
 -1       332 1.98089E+01 3.40970E+00-1.88508E-02 1.73980E+00 4.09171E-13-4.20337E-13
 -1       333 2.01783E+01 2.95507E+00-2.29250E-02 2.12831E+00 4.85875E-13-2.62874E-13
 -1       334 2.07472E+01 2.12941E+00-3.04598E-02 2.32325E+00 5.11294E-13 7.94313E-14
 -1       335 2.10931E+01 1.18775E+00-2.49302E-02 1.92283E+00 4.74365E-13 4.13693E-13
 -1       336 2.03891E+01 4.89217E-01 8.33809E-03 9.28189E-01 3.85207E-13 2.77189E-13
 -1       337 2.81062E+01-3.61140E+00-2.26068E-02 3.39457E+00-4.92467E-13-9.54237E-14
 -1       338 2.04559E+01 6.75146E-01 1.23337E-02-1.02665E+00-3.82705E-13 1.75167E-13
 -1       339 2.00340E+01 3.36845E-01 7.17728E-03-4.58809E-01-3.18579E-13 1.31194E-13
 -1       340 1.97795E+01 1.76237E-01 4.12701E-03-1.50236E-01-2.45132E-13 7.65491E-14
 -1       341 1.96436E+01 9.03952E-02 1.88687E-03 2.08490E-02-1.49174E-13-7.88258E-15
 -1       342 1.95880E+01 4.14505E-02 7.87083E-04 1.12125E-01-7.56039E-14-3.59133E-14
 -1       343 1.95826E+01 1.27255E-02 2.75717E-04 1.55651E-01-8.16632E-14-4.84564E-14
 -1       344 1.96070E+01-3.87651E-03 2.43277E-05 1.70460E-01-9.98784E-14-9.54564E-14
 -1       345 1.96475E+01-1.27469E-02-1.02636E-04 1.68512E-01-1.04188E-13-9.80699E-14
 -1       346 1.96954E+01-1.64855E-02-1.59176E-04 1.57656E-01-1.25640E-13-9.53770E-14
 -1       347 1.97456E+01-1.67123E-02-1.70171E-04 1.43215E-01-4.32539E-14-9.84926E-14
 -1       348 1.97955E+01-1.44493E-02-1.49259E-04 1.28912E-01-2.08052E-14-1.25156E-13
 -1       349 1.98445E+01-1.03169E-02-1.04428E-04 1.17456E-01 4.95954E-14-1.47343E-13
 -1       350 1.98931E+01-4.64395E-03-3.99600E-05 1.10951E-01 1.81010E-14-1.01131E-13
 -1       351 1.99430E+01 2.46513E-03 4.26305E-05 1.11193E-01-8.87676E-14-8.85142E-14
 -1       352 1.99967E+01 1.10849E-02 1.43980E-04 1.19905E-01-1.06941E-13-1.37797E-13
 -1       353 2.00578E+01 2.14350E-02 2.66379E-04 1.38908E-01-6.96748E-14-1.78030E-13
 -1       354 2.01302E+01 3.38475E-02 4.13217E-04 1.70262E-01-1.08330E-13-1.81885E-13
 -1       355 2.02190E+01 4.87226E-02 5.88157E-04 2.16349E-01-1.39948E-13-2.05103E-13
 -1       356 2.03296E+01 6.64526E-02 7.93612E-04 2.79885E-01-1.81424E-14-2.26416E-13
 -1       357 2.04685E+01 8.72736E-02 1.02784E-03 3.63813E-01 6.64001E-14-2.87482E-13
 -1       358 2.06425E+01 1.10975E-01 1.27955E-03 4.70971E-01 2.56563E-14-1.55045E-13
 -1       359 2.08587E+01 1.36348E-01 1.51840E-03 6.03360E-01-6.28738E-14-1.72384E-13
 -1       360 2.11241E+01 1.60172E-01 1.68005E-03 7.60694E-01-1.75189E-14-2.46108E-13
 -1       361 2.14453E+01 1.75514E-01 1.64576E-03 9.37778E-01 1.33152E-13-2.97078E-13
 -1       362 2.18280E+01 1.69125E-01 1.22285E-03 1.12008E+00 5.17381E-16-1.24193E-13
 -1       363 2.22767E+01 1.18325E-01 1.44122E-04 1.27691E+00 1.26142E-13 5.67292E-14
 -1       364 2.27955E+01-1.05095E-02-1.84199E-03 1.35253E+00 1.55609E-13-4.95022E-14
 -1       365 2.33861E+01-2.55532E-01-4.75718E-03 1.25827E+00-2.55728E-14-1.80376E-13
 -1       366 2.40403E+01-6.32063E-01-8.07662E-03 8.75833E-01-1.08172E-13-1.27444E-13
 -1       367 2.47109E+01-1.06770E+00-1.07955E-02 9.50817E-02 6.00522E-14-1.38951E-13
 -1       368 2.52590E+01-1.31087E+00-1.22800E-02-1.07262E+00 5.86558E-14 5.85994E-14
 -1       369 2.54312E+01-9.37712E-01-1.42292E-02-2.29173E+00-6.16455E-14-7.51104E-14
 -1       370 2.50475E+01 2.90966E-01-1.91781E-02-2.78671E+00-2.49389E-13-1.81824E-13
 -1       371 2.43429E+01 1.82176E+00-3.59969E-02-1.81400E+00-3.80342E-13-2.42567E-13
 -1       372 2.40695E+01 2.31821E+00-4.53169E-02 3.46433E-01-2.41730E-13-2.44763E-13
 -1       373 2.45109E+01 1.28969E+00-3.36129E-02 2.19215E+00-1.41139E-13-3.21830E-13
 -1       374 2.50932E+01-2.56569E-01-1.77739E-02 2.56728E+00 2.05500E-14-4.10448E-13
 -1       375 2.52009E+01-1.18769E+00-1.19185E-02 1.67852E+00 1.56319E-13-3.63342E-13
 -1       376 2.47786E+01-1.28683E+00-1.12364E-02 3.93842E-01 9.50988E-14-3.76456E-13
 -1       377 2.40801E+01-9.34137E-01-9.80646E-03-6.68123E-01 1.48931E-13-7.68467E-14
 -1       378 2.33200E+01-5.02446E-01-6.90888E-03-1.31542E+00 2.21040E-13 8.51471E-14
 -1       379 2.25981E+01-1.62951E-01-3.50501E-03-1.59303E+00-2.87494E-14 1.15641E-13
 -1       380 2.19465E+01 5.98612E-02-5.82651E-04-1.61030E+00-1.13371E-13-2.36190E-13
 -1       381 2.13733E+01 2.01814E-01 1.50815E-03-1.45969E+00-2.35813E-13-3.73817E-13
 -1       382 2.08853E+01 3.09813E-01 3.51291E-03-1.19735E+00 3.59189E-14-4.54784E-13
 -1       383 2.05225E+01 3.78599E-01 3.82247E-03-8.75916E-01 2.73731E-13-3.84688E-13
 -1       384 1.98868E+01 2.28665E-01 1.08206E-02 3.99870E-01 2.97844E-13 1.77793E-13
 -1       385 1.95978E+01 1.15265E-01 6.18863E-03 1.21206E-01 2.29146E-13 6.97374E-14
 -1       386 1.94626E+01 5.75688E-02 2.80236E-03-2.75397E-02 1.58281E-13 1.74985E-14
 -1       387 1.94223E+01 2.57570E-02 1.17497E-03-1.04396E-01 9.99641E-14-9.28904E-14
 -1       388 1.94378E+01 7.43298E-03 4.52796E-04-1.39755E-01 9.62258E-14-1.07373E-13
 -1       389 1.94839E+01-3.05846E-03 1.11497E-04-1.50659E-01 1.60508E-13-9.02360E-14
 -1       390 1.95448E+01-8.64441E-03-6.23312E-05-1.47475E-01 1.88620E-13-1.12139E-13
 -1       391 1.96110E+01-1.10123E-02-1.46626E-04-1.36862E-01 1.14470E-13-1.65508E-13
 -1       392 1.96769E+01-1.12025E-02-1.74497E-04-1.23269E-01 6.27847E-14-2.21576E-13
 -1       393 1.97399E+01-9.87511E-03-1.63471E-04-1.09757E-01 1.90106E-14-2.18132E-13
 -1       394 1.97994E+01-7.44568E-03-1.24380E-04-9.84987E-02 6.74218E-14-2.37392E-13
 -1       395 1.98564E+01-4.16247E-03-6.41210E-05-9.11105E-02 2.77991E-14-2.60248E-13
 -1       396 1.99128E+01-1.59008E-04 1.29394E-05-8.88743E-02 6.08793E-14-2.09334E-13
 -1       397 1.99715E+01 4.50268E-03 1.03885E-04-9.28840E-02 8.50514E-14-2.61199E-13
 -1       398 2.00360E+01 9.78908E-03 2.06159E-04-1.04125E-01 1.49966E-13-2.96779E-13
 -1       399 2.01105E+01 1.56450E-02 3.16318E-04-1.23480E-01 1.21461E-14-1.16992E-13
 -1       400 2.01997E+01 2.19286E-02 4.28485E-04-1.51653E-01-1.46418E-13-3.15747E-13
 -1       401 2.03082E+01 2.83224E-02 5.32396E-04-1.88980E-01-1.14555E-14-4.19199E-13
 -1       402 2.04409E+01 3.42117E-02 6.11045E-04-2.35093E-01 1.46345E-13-3.68267E-13
 -1       403 2.06018E+01 3.85229E-02 6.38194E-04-2.88390E-01 2.38698E-13-3.79328E-13
 -1       404 2.07936E+01 3.95288E-02 5.76657E-04-3.45269E-01 1.12376E-14-4.26109E-13
 -1       405 2.10165E+01 3.46536E-02 3.79246E-04-3.99118E-01-2.80829E-13-4.40809E-13
 -1       406 2.12663E+01 2.03876E-02-4.14708E-06-4.39130E-01-2.32896E-13-3.05079E-13
 -1       407 2.15331E+01-7.45445E-03-6.09534E-04-4.49272E-01-5.75262E-14-2.57005E-13
 -1       408 2.17986E+01-5.26984E-02-1.42688E-03-4.08129E-01 3.65159E-14 5.73348E-15
 -1       409 2.20345E+01-1.16380E-01-2.35890E-03-2.91034E-01-4.85649E-14 1.87150E-13
 -1       410 2.22013E+01-1.92420E-01-3.18338E-03-7.66070E-02-1.07978E-13 2.67596E-13
 -1       411 2.22512E+01-2.62043E-01-3.55339E-03 2.40088E-01 1.25769E-13 2.16424E-13
 -1       412 2.21360E+01-2.90632E-01-3.12972E-03 6.28051E-01-4.58639E-14 8.73470E-14
 -1       413 2.18269E+01-2.34798E-01-1.71822E-03 1.00222E+00-3.12571E-14-1.12964E-13
 -1       414 2.13434E+01-6.76070E-02 2.64022E-04 1.22569E+00-4.33214E-14-3.11953E-14
 -1       415 2.07828E+01 1.84339E-01 2.28175E-03 1.15592E+00-8.77766E-14-3.48016E-14
 -1       416 2.03146E+01 4.23154E-01 3.95882E-03 7.34953E-01 1.72519E-13 1.36088E-13
 -1       417 2.01130E+01 5.24507E-01 4.94509E-03 6.77145E-02 1.86661E-13 1.73310E-13
 -1       418 2.02521E+01 4.28759E-01 4.97685E-03-6.02193E-01-1.20392E-13-7.33510E-14
 -1       419 2.06545E+01 1.90005E-01 3.68123E-03-1.02746E+00 7.39309E-14-1.33914E-13
 -1       420 2.11424E+01-6.81428E-02 1.45697E-03-1.09612E+00-2.39260E-13-1.95680E-13
 -1       421 2.15430E+01-2.44070E-01-1.23738E-03-8.61730E-01 6.15415E-15 6.77453E-14
 -1       422 2.17577E+01-3.05872E-01-3.29193E-03-4.68484E-01-1.71157E-13-1.60282E-13
 -1       423 2.17688E+01-2.77459E-01-4.06435E-03-5.97172E-02 4.71283E-14-2.35955E-14
 -1       424 2.16101E+01-2.01101E-01-3.58832E-03 2.71312E-01 3.52982E-13 1.17390E-14
 -1       425 2.13368E+01-1.10336E-01-2.36524E-03 4.84236E-01 1.96750E-13 1.63098E-13
 -1       426 2.10066E+01-2.22856E-02-9.52867E-04 5.72963E-01 1.66620E-13 1.08677E-13
 -1       427 2.06703E+01 5.88591E-02 2.54410E-04 5.46444E-01-6.19259E-14 1.81159E-13
 -1       428 2.03690E+01 1.29390E-01 9.46006E-04 4.19464E-01-7.42149E-14 4.22537E-13
 -1       429 2.02093E+01 1.73668E-01 1.38479E-03 3.12084E-01-2.91187E-13 3.31784E-13
 -1       430 2.01174E+01 8.63516E-01 1.15167E-03 8.60405E-01-2.93598E-13-8.04134E-14
 -1       431 2.01882E+01 5.50350E-01 1.89209E-03 7.03980E-01-1.04746E-13 2.27579E-13
 -1       432 2.02094E+01 3.51414E-01 2.16451E-03 5.14034E-01-2.05361E-13 3.04565E-13
 -1       433 2.00285E+01 1.21334E+00 1.19792E-04 9.37032E-01-6.39443E-13-4.04565E-13
 -1       434 1.99170E+01 1.58646E+00-1.03364E-03 9.10882E-01-8.86420E-14-5.25029E-13
 -1       435 1.97949E+01 1.93408E+00-2.15258E-03 7.59857E-01 2.47790E-13 1.40943E-13
 -1       436 1.96845E+01 2.20371E+00-3.04700E-03 4.82562E-01-3.01546E-13 3.45206E-13
 -1       437 1.96136E+01 2.34459E+00-3.56872E-03 1.06027E-01-2.65346E-13 4.18541E-14
 -1       438 1.96053E+01 2.32289E+00-3.54468E-03-3.14155E-01-1.17645E-13-2.91042E-13
 -1       439 1.96663E+01 2.13863E+00-2.88458E-03-6.99031E-01-3.28977E-14-3.16116E-13
 -1       440 1.97917E+01 1.81150E+00-1.70509E-03-9.90524E-01 1.69730E-13 6.36492E-13
 -1       441 1.99634E+01 1.39311E+00-9.75269E-05-1.12649E+00 3.78534E-13 2.73202E-13
 -1       442 2.01628E+01 9.43083E-01 2.34683E-03-1.08137E+00 4.53420E-13-1.13036E-13
 -1       443 1.15706E+01-5.68573E+00-2.02150E-02 7.17678E+00-1.70308E-13 2.34632E-13
 -1       444 1.78932E+00-3.76705E+00 4.04932E-02 4.75300E-01-2.01674E-13 7.32414E-13
 -1       445 4.43931E+00-3.91495E+00 9.23512E-02 4.51803E+00-4.20865E-13 4.74870E-13
 -1       446 1.96961E+01-5.63968E+00-1.95429E-02 6.78959E+00-2.69409E-13 3.16233E-13
 -1       447 2.09688E+01-5.68174E+00-1.01900E-02 5.97428E+00-3.99764E-13-6.20892E-14
 -1       448 3.65458E+01 5.59119E+00 1.04277E-01-4.13386E-01-6.73794E-13 5.79953E-14
 -1       449 2.81666E+01-2.80715E+00 2.81663E-02 3.79071E+00-1.04562E-13-1.02252E-13
 -1       450 1.97864E+01 3.43969E+00-2.09093E-02-1.72762E+00-4.03993E-13-4.11989E-13
 -1       451 3.46584E+01 5.59164E+00 2.43834E-02-6.16943E-02 1.24373E-13-2.28983E-13
 -1       452 3.53176E+01 7.85706E+00-8.91716E-03-1.07935E-01 4.54248E-13 4.77153E-14
 -1       453 3.60621E+01 7.27355E+00 5.05820E-02 8.18480E-02 6.25916E-13 4.07827E-13
 -1       454 3.37177E+01 4.00704E+00-2.16025E-03-4.54849E-02 5.73708E-13 1.67227E-13
 -1       455 3.02625E+01-1.02581E+00-2.21942E-02-2.17009E+00 1.80687E-13 6.91253E-14
 -1       456 2.43049E+01-3.99525E+00-2.55976E-03-5.46918E+00 6.27554E-14-3.67290E-13
 -1       457 1.57428E+01-5.44720E+00-5.69527E-02-7.13965E+00 3.49748E-13-1.34101E-13
 -1       458 7.95970E+00-5.58010E+00-8.11856E-02-6.51492E+00 1.27370E-13-1.36065E-13
 -1       459 2.65733E+00-4.33758E+00-8.82227E-03-3.46682E+00-3.59296E-14-4.35554E-13
 -1       460 1.17820E+00-4.54745E+00-6.39760E-02 6.72394E-01 9.88081E-14-7.73520E-13
 -1       461 6.04735E+00-4.53307E+00 5.81208E-02 5.29631E+00 1.01863E-13-9.20500E-13
 -1       462 1.26065E+01-5.59872E+00 2.66476E-02 6.88495E+00-1.21847E-13-6.74544E-13
 -1       463 3.36776E+01 1.21879E+00 2.88445E-02 6.27768E-01-4.08354E-13-1.98092E-13
 -1       464 3.70455E+01 7.87172E+00 1.04253E-01-3.15125E-01-6.51340E-13-8.89115E-14
 -1       465 3.57763E+01 6.60937E+00 3.00246E-02 5.39920E-01-3.76602E-13-2.76196E-13
 -1       466 3.51034E+01 3.57406E+00 5.62614E-02 1.19080E-01-2.93154E-13-4.10866E-13
 -1       467 3.13726E+01-1.16499E+00 9.60887E-03-2.40667E+00-1.52489E-13-2.10665E-13
 -1       468 2.60520E+01-4.17209E+00 5.93025E-03-4.79368E+00 1.82340E-13 2.02741E-13
 -1       469 1.73456E+01-6.13171E+00-3.37958E-02-6.86808E+00 5.01266E-14 4.27774E-13
 -1       470 1.07234E+01-5.61396E+00 2.62484E-02-6.89555E+00-1.72556E-13-3.29597E-15
 -1       471 3.12893E+00-5.05334E+00-6.51594E-02-3.76662E+00-1.44940E-13 3.65041E-13
 -1       472 3.19965E+01 8.25623E-01-3.85561E-03 1.68187E+00-5.36637E-14-2.65135E-13
 -1       473 9.78493E+00-3.80995E+00 1.25378E-01 6.51028E+00-4.98740E-13 2.77653E-13
 -1       474 3.14684E+01 7.88039E+00-1.21976E-01 3.09290E-01 5.54279E-13-2.30710E-14
 -1       475 2.03708E+01 8.31400E-01 3.91198E-03 9.72772E-01 3.83055E-13-6.83606E-14
 -1       476 1.97351E+01 3.10346E+00-5.36278E-03-6.34662E-01-1.77877E-13-5.32577E-13
 -1       477 1.98302E+01 2.93055E+00-5.80382E-03-9.51585E-01-2.58505E-13-4.70866E-13
 -1       478 1.96681E+01 3.22607E+00-5.02527E-03 8.83725E-03-2.08122E-14-5.68653E-13
 -1       479 1.96864E+01 3.19309E+00-5.10484E-03 3.30813E-01 4.96702E-14-5.77070E-13
 -1       480 1.97397E+01 3.09633E+00-5.41615E-03 6.46542E-01 1.31290E-13-5.46080E-13
 -1       481 1.98375E+01 2.91854E+00-5.97185E-03 9.62349E-01 2.50430E-13-4.63650E-13
 -1       482 1.99921E+01 2.63360E+00-6.53517E-03 1.25785E+00 3.42080E-13-3.96668E-13
 -1       483 2.02340E+01 2.18707E+00-5.42965E-03 1.50297E+00 4.20538E-13-2.93709E-13
 -1       484 2.03419E+01 9.75442E-01 2.92070E-03-9.44914E-01-3.67456E-13-9.68827E-14
 -1       485 3.02029E+01-2.36791E+00-7.46907E-02-6.54553E-01-7.32244E-14 2.95680E-13
 -1       486 2.01088E+01 4.54532E-01 5.19313E-03 4.65704E-01 3.19925E-13-9.59154E-14
 -1       487 2.03908E+01 1.77135E+00-5.66961E-03-1.54773E+00-4.40649E-13-1.31342E-13
 -1       488 2.01696E+01 5.43485E-01 1.92981E-03-4.69586E-01-3.01106E-13-7.69660E-14
 -1       489 2.00227E+01 3.03503E-01 1.06679E-03-1.68183E-01-2.34884E-13-7.48064E-14
 -1       490 1.99219E+01 1.61848E-01 4.37727E-04 1.34684E-02-1.44741E-13-9.42659E-14
 -1       491 1.98634E+01 7.60036E-02 1.55802E-04 1.16518E-01-1.06432E-13-1.93412E-13
 -1       492 1.98365E+01 2.39985E-02 2.43114E-05 1.68719E-01-1.31984E-13-2.15913E-13
 -1       493 1.98313E+01-6.38856E-03-4.14036E-05 1.88916E-01-9.51031E-14-2.04538E-13
 -1       494 1.98402E+01-2.24344E-02-7.27933E-05 1.89980E-01-1.08870E-13-2.18672E-13
 -1       495 1.98575E+01-2.86918E-02-8.26746E-05 1.80834E-01-6.57331E-14-1.20345E-13
 -1       496 1.98799E+01-2.80833E-02-7.75894E-05 1.67773E-01-5.10262E-14-8.51562E-14
 -1       497 1.99053E+01-2.24687E-02-6.15203E-05 1.55339E-01 2.61541E-14-9.54612E-14
 -1       498 1.99329E+01-1.29601E-02-3.68069E-05 1.46943E-01-1.42883E-15-1.53006E-13
 -1       499 1.99627E+01-1.14087E-04-4.51432E-06 1.45313E-01-8.05917E-14-2.21388E-13
 -1       500 1.99954E+01 1.59416E-02 3.53288E-05 1.52838E-01-7.61700E-14-1.32484E-13
 -1       501 2.00324E+01 3.54159E-02 8.35178E-05 1.71825E-01-1.06313E-13-5.32093E-14
 -1       502 2.00752E+01 5.87756E-02 1.41476E-04 2.04686E-01-1.66553E-13-1.63271E-13
 -1       503 2.01260E+01 8.66570E-02 2.11022E-04 2.54068E-01-1.51555E-13-2.34660E-13
 -1       504 2.01870E+01 1.19740E-01 2.93971E-04 3.22898E-01-1.18673E-13-1.78586E-13
 -1       505 2.02603E+01 1.58530E-01 3.91365E-04 4.14329E-01 6.91468E-14-1.73491E-13
 -1       506 2.03484E+01 2.02964E-01 5.01914E-04 5.31513E-01 9.48329E-14-1.75606E-13
 -1       507 2.04534E+01 2.51676E-01 6.19135E-04 6.77114E-01-3.53825E-14-1.15043E-13
 -1       508 2.05778E+01 3.00690E-01 7.26244E-04 8.52387E-01-9.17265E-14-1.43233E-13
 -1       509 2.07249E+01 3.41199E-01 7.88371E-04 1.05558E+00-8.17733E-14-2.09257E-13
 -1       510 2.09011E+01 3.56054E-01 7.40420E-04 1.27931E+00 1.20952E-13-2.70158E-13
 -1       511 2.11199E+01 3.14905E-01 4.71774E-04 1.50636E+00 1.40330E-13-2.11862E-13
 -1       512 2.14097E+01 1.69270E-01-1.90512E-04 1.70335E+00 6.39322E-15-3.38836E-13
 -1       513 2.18233E+01-1.47225E-01-1.33492E-03 1.81112E+00 9.10067E-15-3.38807E-13
 -1       514 2.24449E+01-6.99829E-01-2.83484E-03 1.73206E+00 3.48058E-14-2.79824E-13
 -1       515 2.33743E+01-1.48818E+00-4.34707E-03 1.32023E+00-3.78710E-14-3.21594E-14
 -1       516 2.46520E+01-2.30227E+00-7.32024E-03 3.92771E-01 3.01797E-14-1.69873E-13
 -1       517 2.60809E+01-2.52289E+00-2.02818E-02-1.12034E+00-1.02725E-13-3.50449E-13
 -1       518 2.71310E+01-1.12238E+00-4.70628E-02-2.76002E+00-1.39775E-13-2.31185E-13
 -1       519 2.70049E+01 1.92994E+00-1.43179E-01-3.10894E+00-4.15459E-13-2.28028E-13
 -1       520 2.66173E+01 4.43780E+00-1.41468E-01-1.06168E+00-2.91649E-13-3.46250E-13
 -1       521 2.67223E+01 3.72502E+00-1.31923E-01 1.78231E+00-3.98348E-13-2.84916E-13
 -1       522 2.70702E+01 6.02640E-01-7.63895E-02 2.87071E+00-2.55551E-13-3.37481E-13
 -1       523 2.66535E+01-1.93052E+00-3.25004E-02 1.89529E+00 1.57276E-13-3.97882E-13
 -1       524 2.53896E+01-2.59136E+00-1.11745E-02 2.30707E-01 2.94700E-13-9.73379E-14
 -1       525 2.39495E+01-2.06416E+00-4.63671E-03-1.08235E+00 2.14236E-13-4.75866E-14
 -1       526 2.27616E+01-1.21920E+00-3.36874E-03-1.82179E+00 1.33498E-13-1.73007E-13
 -1       527 2.19177E+01-4.98749E-01-2.01083E-03-2.11230E+00-3.19653E-14-2.00657E-13
 -1       528 2.13448E+01-6.79536E-03-6.57241E-04-2.11626E+00-1.44722E-13-1.18241E-13
 -1       529 2.09440E+01 3.03563E-01 4.11686E-04-1.94742E+00-3.10981E-13-1.51428E-13
 -1       530 2.06446E+01 5.11413E-01 1.39042E-03-1.66973E+00-2.95234E-13-3.59396E-13
 -1       531 1.98068E+01 1.28985E-01 9.87560E-04-1.81546E-02 1.75666E-13-1.51098E-13
 -1       532 1.97489E+01 5.98926E-02 3.64150E-04-1.16952E-01 1.27052E-13-1.68714E-13
 -1       533 1.97304E+01 1.86561E-02 8.88476E-05-1.65746E-01 9.87845E-14-2.08308E-13
 -1       534 1.97371E+01-5.29592E-03-4.36843E-05-1.83653E-01 1.67204E-13-1.14737E-13
 -1       535 1.97589E+01-1.79887E-02-1.07244E-04-1.83278E-01 1.65290E-13-9.61893E-14
 -1       536 1.97890E+01-2.31022E-02-1.30985E-04-1.73163E-01 1.16163E-13-1.18866E-13
 -1       537 1.98231E+01-2.29768E-02-1.28240E-04-1.59222E-01 6.78224E-14-1.23793E-13
 -1       538 1.98590E+01-1.91200E-02-1.06860E-04-1.45638E-01 3.46707E-14-1.54323E-13
 -1       539 1.98958E+01-1.24846E-02-7.18247E-05-1.35461E-01 4.75259E-14-1.49600E-13
 -1       540 1.99337E+01-3.64280E-03-2.62246E-05-1.31010E-01 5.23719E-14-1.89320E-13
 -1       541 1.99739E+01 7.08454E-03 2.80362E-05-1.34154E-01 4.38030E-14-1.42631E-13
 -1       542 2.00180E+01 1.95127E-02 8.96407E-05-1.46485E-01 7.63932E-14-1.15240E-13
 -1       543 2.00683E+01 3.34731E-02 1.57167E-04-1.69387E-01 3.43831E-14-3.22809E-15
 -1       544 2.01273E+01 4.86687E-02 2.28246E-04-2.04013E-01-1.39717E-14 3.80388E-15
 -1       545 2.01982E+01 6.44880E-02 2.98506E-04-2.51114E-01 5.53483E-15-1.24590E-13
 -1       546 2.02840E+01 7.97563E-02 3.60232E-04-3.10725E-01 7.51991E-14-1.08318E-13
 -1       547 2.03879E+01 9.24096E-02 4.00714E-04-3.81636E-01 1.00379E-13-5.23497E-14
 -1       548 2.05132E+01 9.90918E-02 4.00553E-04-4.60615E-01 1.23683E-13 4.29370E-14
 -1       549 2.06627E+01 9.47190E-02 3.32502E-04-5.41343E-01-5.52984E-14 6.22005E-14
 -1       550 2.08388E+01 7.21622E-02 1.62125E-04-6.13097E-01-2.29322E-13-1.74884E-13
 -1       551 2.10430E+01 2.24038E-02-1.46782E-04-6.59323E-01-2.44055E-13-2.28551E-13
 -1       552 2.12752E+01-6.41302E-02-6.21123E-04-6.56589E-01-9.88116E-14-2.46476E-13
 -1       553 2.15318E+01-1.93911E-01-1.25012E-03-5.74928E-01-1.33214E-13-3.09992E-13
 -1       554 2.18029E+01-3.62921E-01-1.95117E-03-3.81476E-01-2.53011E-13-1.26695E-13
 -1       555 2.20657E+01-5.44990E-01-2.51920E-03-5.04848E-02-3.44177E-14 1.95111E-14
 -1       556 2.22778E+01-6.79221E-01-2.59502E-03 4.16726E-01 1.94899E-13 1.73221E-13
 -1       557 2.23746E+01-6.69050E-01-1.92601E-03 9.61359E-01 2.77841E-14-1.83662E-15
 -1       558 2.22889E+01-4.14996E-01-2.96217E-04 1.43960E+00-2.92351E-13 7.30048E-14
 -1       559 2.20012E+01 1.04536E-01 8.95398E-04 1.63407E+00-8.30708E-15 1.96797E-13
 -1       560 2.16038E+01 7.43805E-01 1.42804E-03 1.34787E+00 8.94113E-14 2.46838E-13
 -1       561 2.13025E+01 1.19556E+00 2.35650E-03 5.74905E-01 1.05766E-13 1.90308E-13
 -1       562 2.12778E+01 1.19390E+00 2.14933E-03-4.05530E-01 1.98200E-13 2.00018E-13
 -1       563 2.15312E+01 7.35602E-01 1.08663E-03-1.17500E+00 3.45383E-15 1.21892E-13
 -1       564 2.18813E+01 8.71523E-02 7.16907E-04-1.45254E+00 3.98413E-14 2.01256E-14
 -1       565 2.21211E+01-4.43437E-01 3.77177E-05-1.24091E+00-1.94191E-13-4.88139E-13
 -1       566 2.21544E+01-7.05154E-01-1.60229E-03-7.38127E-01 2.41482E-14-2.41141E-13
 -1       567 2.19993E+01-7.13901E-01-2.78871E-03-1.67332E-01-4.22833E-14-1.66603E-13
 -1       568 2.17249E+01-5.66946E-01-2.82087E-03 3.19639E-01 2.03150E-14-2.30300E-13
 -1       569 2.13979E+01-3.57957E-01-2.02942E-03 6.55088E-01 1.85306E-13 1.46649E-14
 -1       570 2.10637E+01-1.44091E-01-9.74089E-04 8.26843E-01 1.71374E-13 1.45603E-13
 -1       571 2.07490E+01 5.19757E-02 3.61813E-04 8.48688E-01-1.10075E-13 4.33629E-13
 -1       572 2.04618E+01 2.23647E-01 1.24565E-03 7.42946E-01-1.90099E-13 6.61142E-13
 -1       573 1.99569E+01 1.00955E+00-3.28895E-04 1.23692E+00-4.35495E-13 1.29576E-13
 -1       574 1.97083E+01 1.32718E+00-7.93584E-04 1.14185E+00 2.02757E-13 4.84781E-14
 -1       575 2.03147E+01 4.76671E-01 9.05060E-04 1.02550E+00-1.86027E-13-3.30468E-13
 -1       576 2.01616E+01 7.21012E-01 3.51967E-04 1.18351E+00-5.12923E-13-3.62738E-13
 -1       577 1.94551E+01 1.62664E+00-1.22001E-03 8.71833E-01 9.65611E-14 8.66164E-15
 -1       578 1.92540E+01 1.84998E+00-1.53105E-03 4.37435E-01-1.84823E-13 1.45514E-13
 -1       579 1.91645E+01 1.94339E+00-1.67275E-03-1.05387E-01-3.17465E-13 1.05761E-13
 -1       580 1.92192E+01 1.88148E+00-1.53221E-03-6.53732E-01-9.87684E-15-1.51401E-13
 -1       581 1.94188E+01 1.67092E+00-1.06147E-03-1.12332E+00 2.98998E-13 1.35800E-13
 -1       582 1.97295E+01 1.35135E+00-3.92453E-04-1.41818E+00 8.61210E-14 5.00573E-13
 -1       583 2.01060E+01 9.74763E-01-1.61319E-04-1.48894E+00 1.53372E-13 3.13648E-13
 -1       584 1.77051E+01-5.37770E+00 8.42036E-02 6.95635E+00-3.43899E-13 7.08201E-14
 -1       585 5.35783E+00-1.74766E+00 1.72611E-01-2.32053E+00-3.23463E-13 5.76358E-13
 -1       586 1.99218E+01 2.46147E-01 2.42238E-03 1.60245E-01 2.26446E-13-1.37447E-13
 -1       587 6.68518E+00-9.27485E-01 2.10728E-01 2.32122E+00-4.51203E-13 6.30121E-13
 -1       588 3.10393E+01 6.84848E+00-1.64154E-01 5.28584E-01-3.24615E-13-8.51923E-14
 -1       589 3.05257E+01 2.18034E+00-1.27225E-01-1.29625E+00 7.25808E-15-1.78024E-13
 -1       590 1.97006E+01-5.61457E+00 8.13954E-02 5.92203E+00 8.83668E-14 1.99171E-13
 -1       591 2.57455E+01-5.55643E+00-1.37363E-02 3.36958E+00-2.24543E-14 4.15099E-13
 -1       592 1.96836E+01 3.19743E+00-5.10827E-03-3.13253E-01-1.00954E-13-5.47335E-13
 -1       593 2.98999E+01 6.07605E+00-1.79183E-01-1.37414E+00 1.97869E-13-3.18343E-13
 -1       594 3.15220E+01 5.97270E+00-1.66302E-01-1.65519E+00-4.26104E-13 7.43988E-14
 -1       595 2.96217E+01 2.82156E-01-1.20343E-01 1.27298E+00 2.40617E-13 4.48371E-13
 -1       596 2.71451E+01-4.21246E+00-4.44194E-02-2.25546E+00-1.92464E-13 2.10353E-13
 -1       597 2.18327E+01-5.56842E+00 3.46224E-02-5.72488E+00 1.25733E-14 4.70561E-14
 -1       598 1.50468E+01-4.84271E+00 1.04114E-01-7.12241E+00-1.23075E-13-7.75491E-14
 -1       599 8.57548E+00-3.03166E+00 1.42623E-01-5.86339E+00-3.18287E-13 5.03486E-14
 -1       600 3.18096E+01 2.58421E+00-6.87101E-02-2.35015E+00-5.69031E-13 1.85144E-13
 -1       601 1.16707E+01-3.56164E+00 1.45848E-01 6.11068E+00 2.47774E-13-7.06185E-13
 -1       602 4.18774E+00-1.69189E+00 1.52256E-01-1.26303E+00-6.07986E-14-4.76147E-13
 -1       603 3.07750E+01 5.42726E+00-1.46394E-01 1.57178E+00 5.71543E-13 3.28348E-13
 -1       604 9.73835E+00-3.33260E+00 1.43202E-01-5.87035E+00-2.40502E-14-1.86587E-13
 -1       605 5.64987E+00-1.83330E+00 1.60478E-01 2.95854E+00 1.36776E-13-8.64794E-13
 -1       606 3.05541E+01 3.57904E+00-1.52214E-01 2.40497E+00-2.84377E-13-2.27242E-13
 -1       607 3.10204E+01-3.18196E-01-1.37419E-01 1.28834E+00-2.27228E-13-3.37230E-13
 -1       608 2.86687E+01-4.18244E+00-5.70226E-02-1.29219E+00 1.82115E-13-1.88009E-13
 -1       609 2.38263E+01-5.89692E+00 3.64493E-02-4.74417E+00 1.85525E-13 4.71116E-14
 -1       610 1.69533E+01-5.22704E+00 9.92296E-02-6.69294E+00 1.83603E-14 8.81933E-14
 -1       611 2.53768E+01-5.36449E+00 1.37104E-02 3.73380E+00-4.86489E-13-1.47372E-13
 -1       612 2.91332E+01-2.24513E+00-7.56561E-02 4.84647E-01-5.29880E-14 3.65055E-14
 -1       613 2.05832E+01 1.30547E+00-8.89290E-04 1.54932E+00 4.63999E-13-2.11333E-15
 -1       614 1.99794E+01 2.66241E+00-6.58109E-03-1.25577E+00-3.42730E-13-4.22693E-13
 -1       615 2.04781E+01 6.23105E-01 1.85968E-03-1.43201E+00 1.23161E-13-8.03207E-14
 -1       616 9.75082E+00-1.29365E+00 1.46550E-01 4.28743E+00-4.20750E-13 2.73455E-13
 -1       617 8.05441E+00-1.16125E+00 1.58009E-01-3.95008E+00-2.78291E-13 7.10682E-14
 -1       618 1.99632E+01 2.44872E+00-1.57810E-03 3.94774E-01 8.34073E-14-5.08200E-13
 -1       619 1.99317E+01 2.52363E+00-1.51706E-03 1.35992E-01 5.59180E-15-5.36035E-13
 -1       620 2.01223E+01 2.04525E+00-1.54132E-03 8.51158E-01 2.54515E-13-3.51058E-13
 -1       621 2.02390E+01 1.67482E+00-2.38388E-03 9.93550E-01 3.48464E-13-2.93229E-13
 -1       622 2.02046E+01 6.14643E-01 9.99158E-04 4.22235E-01 2.78564E-13-2.08971E-13
 -1       623 2.02893E+01 1.12541E+00 9.04877E-04-7.64512E-01-3.02875E-13-1.86479E-13
 -1       624 1.50002E+01-3.37668E+00 1.03359E-01 6.24586E+00-4.74513E-13 3.50837E-13
 -1       625 1.99415E+01 2.72328E-02 2.96206E-06-1.69903E-01 1.10941E-13-1.81125E-13
 -1       626 2.02396E+01 6.72161E-01 2.17381E-04-3.95273E-01-2.74919E-13-1.80423E-13
 -1       627 2.01673E+01 3.91957E-01 1.55224E-04-1.41364E-01-2.02258E-13-1.42505E-13
 -1       628 2.01022E+01 2.13155E-01 4.35634E-05 2.08907E-02-1.83636E-13-1.70911E-13
 -1       629 2.00525E+01 9.98722E-02 5.01458E-06 1.16660E-01-1.50567E-13-2.21670E-13
 -1       630 2.00182E+01 2.97751E-02-1.37784E-05 1.66878E-01-1.08949E-13-1.97012E-13
 -1       631 1.99968E+01-1.11929E-02-2.37975E-05 1.87448E-01-7.94599E-14-1.70532E-13
 -1       632 1.99854E+01-3.20902E-02-2.81067E-05 1.90087E-01-4.45418E-14-1.34026E-13
 -1       633 1.99813E+01-3.88941E-02-2.77969E-05 1.83357E-01-3.32797E-14-1.18125E-13
 -1       634 1.99825E+01-3.55513E-02-2.38834E-05 1.73526E-01-5.76861E-14-1.16359E-13
 -1       635 1.99877E+01-2.45846E-02-1.71651E-05 1.65256E-01-5.23477E-14-1.94458E-13
 -1       636 1.99959E+01-7.47012E-03-8.11084E-06 1.62148E-01-3.48771E-14-1.57318E-13
 -1       637 2.00067E+01 1.51112E-02 3.13393E-06 1.67158E-01-5.06997E-14-8.57923E-14
 -1       638 2.00197E+01 4.30906E-02 1.67504E-05 1.82919E-01-1.01407E-13-1.31854E-13
 -1       639 2.00348E+01 7.68652E-02 3.31394E-05 2.11970E-01-1.72698E-13-2.22723E-13
 -1       640 2.00517E+01 1.17157E-01 5.28733E-05 2.56920E-01-1.78397E-13-1.43117E-13
 -1       641 2.00702E+01 1.64843E-01 7.66684E-05 3.20529E-01-1.31007E-13-1.40270E-13
 -1       642 2.00895E+01 2.20702E-01 1.05371E-04 4.05705E-01-5.30530E-15-9.25169E-14
 -1       643 2.01085E+01 2.85005E-01 1.39620E-04 5.15404E-01 2.73360E-14-1.65688E-13
 -1       644 2.01254E+01 3.56797E-01 1.79505E-04 6.52399E-01 1.31814E-13-2.80923E-13
 -1       645 2.01383E+01 4.32653E-01 2.23641E-04 8.18911E-01-6.34090E-14-1.28826E-13
 -1       646 2.01459E+01 5.04582E-01 2.67323E-04 1.01605E+00-1.24846E-13-3.69788E-14
 -1       647 2.01496E+01 5.56669E-01 3.01592E-04 1.24312E+00 4.18188E-14 2.83010E-14
 -1       648 2.01582E+01 5.60029E-01 3.07207E-04 1.49665E+00 5.49783E-14-1.25029E-13
 -1       649 2.01965E+01 4.66119E-01 2.42990E-04 1.76892E+00-2.46059E-15-2.44488E-13
 -1       650 2.03194E+01 2.00060E-01 8.75534E-06 2.04436E+00 2.52035E-14-1.44210E-13
 -1       651 2.06352E+01-3.39180E-01 2.87709E-04 2.28859E+00-2.63378E-14-1.13383E-13
 -1       652 2.13197E+01-1.24612E+00 2.43957E-03 2.41724E+00 1.30186E-13-2.37720E-14
 -1       653 2.26253E+01-2.52544E+00 7.86791E-03 2.25408E+00-1.83809E-14-1.23712E-13
 -1       654 2.47260E+01-3.77081E+00 1.50571E-02 1.45086E+00-1.62932E-13-4.18311E-14
 -1       655 2.88129E+01-2.11553E+00-9.18490E-02 1.63728E+00 1.49186E-16-1.56385E-13
 -1       656 2.63782E+01-3.91227E+00-2.77095E-03-5.02938E-01 1.76257E-13-1.16308E-13
 -1       657 2.39357E+01-3.35144E+00 1.10217E-02-1.97917E+00 1.94317E-13-4.20710E-13
 -1       658 2.21554E+01-2.06771E+00 2.78557E-03-2.57309E+00 1.35272E-13-2.56489E-13
 -1       659 2.11011E+01-9.29698E-01 4.95207E-04-2.66640E+00-1.73108E-14-1.80902E-13
 -1       660 2.05579E+01-1.45590E-01 3.10239E-04-2.52450E+00-6.11146E-14-1.57037E-13
 -1       661 2.03030E+01 3.43684E-01 1.11961E-04-2.27855E+00-2.03029E-13-2.57492E-13
 -1       662 2.01915E+01 6.54818E-01-5.52857E-04-1.97105E+00-2.68062E-13 2.91961E-13
 -1       663 1.99728E+01 8.90697E-02 6.33174E-05-1.18707E-01 1.30710E-13-1.73749E-13
 -1       664 1.01363E+01-1.02585E+00 1.41854E-01-3.87718E+00 2.67824E-14-1.05235E-13
 -1       665 2.00261E+01 1.89798E-01 1.72920E-04-1.96201E-02 1.56219E-13-1.89183E-13
 -1       666 1.99269E+01-8.92055E-03-2.52417E-05-1.90320E-01 1.37470E-13-1.15067E-13
 -1       667 1.99239E+01-2.76528E-02-3.87889E-05-1.92189E-01 1.22166E-13-8.37781E-14
 -1       668 1.99288E+01-3.43150E-02-4.23470E-05-1.84260E-01 9.22958E-14-5.19422E-14
 -1       669 1.99390E+01-3.24345E-02-3.85942E-05-1.72819E-01 7.37734E-14-6.75513E-14
 -1       670 1.99529E+01-2.43213E-02-2.93691E-05-1.62447E-01 6.10063E-14-2.03424E-14
 -1       671 1.99694E+01-1.14427E-02-1.59617E-05-1.56570E-01 1.92966E-14-5.67852E-14
 -1       672 1.99886E+01 5.31290E-03 8.83288E-07-1.57855E-01 2.46378E-14-6.19788E-14
 -1       673 2.00106E+01 2.54207E-02 2.06771E-05-1.68493E-01 2.83342E-14-3.60207E-14
 -1       674 2.00361E+01 4.85119E-02 4.30919E-05-1.90353E-01 3.57994E-14-3.80932E-15
 -1       675 2.00661E+01 7.41478E-02 6.76534E-05-2.25037E-01 2.95190E-14 2.88772E-15
 -1       676 2.01019E+01 1.01545E-01 9.33942E-05-2.73812E-01 7.82762E-14-4.39225E-14
 -1       677 2.01454E+01 1.29218E-01 1.18507E-04-3.37396E-01 8.14587E-14-6.99830E-14
 -1       678 2.01987E+01 1.54526E-01 1.39774E-04-4.15577E-01 8.97352E-15-4.79596E-14
 -1       679 2.02648E+01 1.73086E-01 1.52009E-04-5.06615E-01 2.81331E-14 1.13115E-13
 -1       680 2.03478E+01 1.78106E-01 1.47245E-04-6.06401E-01 9.18256E-14 2.25751E-13
 -1       681 2.04536E+01 1.59730E-01 1.14076E-04-7.07324E-01-4.05547E-14 2.61981E-13
 -1       682 2.05905E+01 1.04736E-01 3.66946E-05-7.96845E-01-1.19041E-13 1.26363E-13
 -1       683 2.07703E+01-2.72642E-03-1.02729E-04-8.55848E-01-2.11756E-13-5.08471E-14
 -1       684 2.10076E+01-1.78025E-01-3.28289E-04-8.57071E-01-9.19345E-14 7.41852E-14
 -1       685 2.13178E+01-4.28471E-01-6.40002E-04-7.64397E-01-1.90288E-13 1.19991E-13
 -1       686 2.17094E+01-7.38737E-01-1.00865E-03-5.35164E-01-1.77904E-13 4.26128E-14
 -1       687 2.21684E+01-1.04836E+00-1.30970E-03-1.30316E-01 2.65577E-14-2.68040E-14
 -1       688 2.26355E+01-1.22834E+00-1.24814E-03 4.58787E-01 1.60919E-13 2.25639E-13
 -1       689 2.29890E+01-1.08541E+00-1.39554E-03 1.15736E+00-1.04943E-13 1.30081E-13
 -1       690 2.30860E+01-4.51458E-01-1.32899E-03 1.74651E+00-1.57751E-13-1.03984E-13
 -1       691 2.28550E+01 6.45810E-01-5.41698E-03 1.88378E+00-2.76588E-14-5.46654E-14
 -1       692 2.24698E+01 1.77178E+00-7.18380E-03 1.28803E+00 1.98412E-13-1.14596E-13
 -1       693 2.22742E+01 2.25297E+00-5.29342E-03 1.01765E-01 1.78801E-13-2.23713E-13
 -1       694 2.24441E+01 1.76186E+00-8.85886E-03-1.08720E+00 2.06840E-13-1.15278E-13
 -1       695 2.28082E+01 6.25709E-01-6.30138E-03-1.67907E+00 1.08982E-13-1.44961E-13
 -1       696 2.30225E+01-4.91086E-01-2.16833E-03-1.52939E+00 4.31591E-14-9.25104E-14
 -1       697 2.29090E+01-1.14199E+00 8.86457E-04-9.15205E-01-1.27989E-13-1.32415E-13
 -1       698 2.25293E+01-1.28799E+00-8.01068E-04-1.85776E-01-6.98331E-14-2.19197E-13
 -1       699 2.20352E+01-1.09573E+00-1.61460E-03 4.29739E-01-1.29700E-14-1.58669E-13
 -1       700 2.15460E+01-7.53108E-01-1.20264E-03 8.50146E-01-1.29764E-13-2.08650E-13
 -1       701 2.11214E+01-3.85237E-01-5.87119E-04 1.07355E+00 2.03178E-14-3.37525E-14
 -1       702 2.07754E+01-4.61394E-02 1.17777E-04 1.12591E+00-1.98970E-13 2.36817E-13
 -1       703 2.05228E+01 2.12966E-01 4.16872E-04 1.11885E+00-4.02215E-13 1.69355E-14
 -1       704 1.89200E+01 1.39964E+00-5.25402E-04 8.92158E-01 1.64210E-13-4.61715E-14
 -1       705 1.97620E+01 7.58946E-01-5.18664E-04 1.48397E+00-1.86428E-13 3.36734E-13
 -1       706 1.86512E+01 1.61688E+00-6.14999E-04 2.77889E-01-5.67711E-14-1.73637E-13
 -1       707 1.93275E+01 1.08635E+00-4.66848E-04 1.30564E+00 3.81454E-14 2.41199E-13
 -1       708 2.01043E+01 3.52979E-01 5.76785E-04 1.50966E-01 2.08906E-13-1.76664E-13
 -1       709 1.86131E+01 1.67237E+00-7.75651E-04-4.20360E-01-1.72787E-13 1.20666E-13
 -1       710 1.88325E+01 1.55236E+00-7.20713E-04-1.08504E+00 1.88380E-13 2.93620E-13
 -1       711 1.92709E+01 1.29087E+00-9.36072E-05-1.57116E+00 1.67668E-13 9.78508E-14
 -1       712 7.39426E+00-1.04703E-01 1.68195E-01 5.23850E-01-1.22446E-13-6.00908E-13
 -1       713 2.70519E+01 6.16918E+00-1.68801E-01-2.79920E-01 1.11348E-13-1.78402E-13
 -1       714 2.77323E+01 2.66545E+00-1.38822E-01 2.23941E+00 3.64080E-13 2.89602E-13
 -1       715 1.97572E+01-4.81764E+00 6.77064E-02-5.73530E+00-1.30247E-13 8.28018E-14
 -1       716 2.15158E+01-4.97347E+00 5.97065E-02-4.93423E+00 2.07719E-13 1.96544E-14
 -1       717 1.72174E+01-3.84099E+00 6.52666E-02 5.50162E+00 3.12046E-13-9.19854E-14
 -1       718 2.81595E+01-4.18303E-01-9.22757E-02-1.46955E+00 2.09728E-14-2.17160E-13
 -1       719 2.00263E+01 2.29421E+00-1.65096E-03 6.38922E-01 1.62679E-13-4.23088E-13
 -1       720 2.00200E+01 2.30496E+00-1.84660E-03-6.29207E-01-2.11247E-13-4.25120E-13
 -1       721 8.90436E+00 1.11163E-01 1.43647E-01-3.84887E-01 1.20446E-14 2.56926E-13
 -1       722 2.77258E+01 3.18771E+00-1.32109E-01-2.05941E+00 1.32894E-13-1.39944E-13
 -1       723 2.17432E+01-4.89650E+00 5.49800E-02 4.90372E+00-3.53731E-13-1.93248E-13
 -1       724 2.35942E+01-5.22691E+00 3.57912E-02 3.69653E+00-7.48360E-15 2.95687E-13
 -1       725 2.73019E+01-2.51049E+00-3.88057E-02 4.59084E-01 1.59138E-13 2.30219E-13
 -1       726 2.44685E+01-5.01015E+00-5.01849E-04-3.34267E+00 4.81854E-14 1.34264E-13
 -1       727 1.39677E+01-2.87197E+00 1.24400E-01-6.06456E+00-2.46646E-13-3.30309E-13
 -1       728 1.04186E+01-1.23825E+00 1.47387E-01 4.16814E+00 2.04958E-13-7.77968E-13
 -1       729 2.01431E+01 8.26789E-01 7.61927E-04-1.73876E+00-9.62357E-14 4.11676E-13
 -1       730 1.50219E+01-3.22533E+00 1.02420E-01-5.89134E+00 5.53273E-14 2.73219E-14
 -1       731 2.73435E+01 5.62232E+00-1.47994E-01 1.47718E+00 2.58238E-13 3.16327E-14
 -1       732 2.62318E+01-5.03953E+00-1.59731E-02-2.10028E+00 1.25575E-13-2.51684E-13
 -1       733 2.67664E+01-3.66734E+00-4.42237E-02 6.94690E-01-4.31945E-13-5.85226E-14
 -1       734 2.75576E+01-4.14449E+00-1.66265E-02 3.30620E-01 1.09936E-14 1.73816E-13
 -1       735 2.03134E+01 9.97374E-01 2.73773E-03 8.03499E-01 3.57534E-13-2.14748E-13
 -1       736 2.01097E+01 2.06627E+00-2.38290E-03-8.45792E-01-2.85916E-13-3.92149E-13
 -1       737 1.99308E+01 2.52522E+00-1.52261E-03-1.26699E-01-5.68318E-14-4.95563E-13
 -1       738 2.03207E+01 3.72543E-01 4.39618E-04 1.33664E+00-3.51295E-13-4.31608E-13
 -1       739 2.65861E+01-3.20194E-01-5.17848E-02 1.99949E+00 2.66950E-13 3.06248E-14
 -1       740 1.98459E+01 9.55803E-01 1.01317E-03-1.79294E+00-3.01949E-14 3.40488E-13
 -1       741 2.57754E+01 4.43095E+00-9.17546E-02-1.48036E+00 1.93012E-13-2.25465E-13
 -1       742 2.02557E+01 1.60337E+00-8.30518E-04-9.96203E-01-3.26166E-13-2.74508E-13
 -1       743 1.49831E+01-1.93401E+00 6.14778E-02 4.76025E+00 1.81926E-13-4.39215E-13
 -1       744 2.44321E+01-4.43318E+00 4.92011E-03 2.45223E+00-2.61887E-13 2.53179E-13
 -1       745 2.00799E+01 5.41819E-01-1.30814E-04 1.45989E+00-3.16012E-13-2.19708E-14
 -1       746 1.00492E+01 1.06149E-01 9.71984E-02 1.72110E+00-2.99469E-13 4.15862E-13
 -1       747 1.99601E+01 2.45438E+00-1.58074E-03-3.84774E-01-1.20780E-13-4.65084E-13
 -1       748 2.02657E+01 1.30813E+00 2.08987E-04 6.33429E-01 2.62116E-13-2.42807E-13
 -1       749 1.85625E+01 1.23111E+00-5.75163E-04-1.60355E+00 1.26561E-13 1.44014E-13
 -1       750 1.80778E+01-3.25383E+00 5.01702E-02-5.12824E+00-3.29030E-13 3.69167E-14
 -1       751 2.62892E+01 8.38721E-01-7.32541E-02-2.14532E+00-8.56711E-14-3.94277E-13
 -1       752 2.02926E+01 7.25433E-01-4.26309E-04-2.93341E-01-2.03123E-13-2.44819E-13
 -1       753 2.02639E+01 4.33717E-01 2.89307E-05-9.48066E-02-1.56193E-13-2.26753E-13
 -1       754 2.02241E+01 2.36047E-01-1.66489E-05 3.52614E-02-1.65019E-13-1.54823E-13
 -1       755 2.01832E+01 1.07539E-01-9.26653E-06 1.13649E-01-1.52983E-13-1.67861E-13
 -1       756 2.01462E+01 2.73376E-02-8.13114E-06 1.55343E-01-6.42683E-14-2.10885E-13
 -1       757 2.01150E+01-1.88091E-02-8.39804E-06 1.72728E-01-3.78978E-14-2.15117E-13
 -1       758 2.00896E+01-4.07458E-02-8.31805E-06 1.75522E-01-5.01832E-14-1.69039E-13
 -1       759 2.00696E+01-4.52500E-02-7.44162E-06 1.71107E-01-3.01436E-14-2.00012E-13
 -1       760 2.00540E+01-3.68792E-02-5.94928E-06 1.65047E-01-4.86125E-14-1.04186E-13
 -1       761 2.00417E+01-1.85349E-02-3.97313E-06 1.61589E-01 5.25918E-16-9.21026E-14
 -1       762 2.00319E+01 8.14179E-03-1.58505E-06 1.64086E-01-7.26061E-14-9.21899E-14
 -1       763 2.00231E+01 4.24753E-02 1.18286E-06 1.75343E-01-1.54633E-13-6.32909E-14
 -1       764 2.00140E+01 8.45214E-02 4.48904E-06 1.97863E-01-1.67333E-13-7.24233E-14
 -1       765 2.00030E+01 1.34866E-01 8.46622E-06 2.34031E-01-9.26611E-14-6.60996E-14
 -1       766 1.99878E+01 1.94406E-01 1.32326E-05 2.86215E-01-9.80420E-14-6.65795E-14
 -1       767 1.99657E+01 2.64075E-01 1.93248E-05 3.56792E-01-5.33432E-14-2.47448E-14
 -1       768 1.99332E+01 3.44466E-01 2.71431E-05 4.48115E-01 2.31217E-14-4.85138E-14
 -1       769 1.98856E+01 4.35220E-01 3.74265E-05 5.62437E-01 3.20114E-14-4.29474E-14
 -1       770 1.98176E+01 5.34046E-01 5.11429E-05 7.01853E-01 1.38228E-13-3.72697E-14
 -1       771 1.97230E+01 6.35122E-01 6.91469E-05 8.68364E-01-3.73136E-14 2.62120E-14
 -1       772 1.95966E+01 7.26576E-01 9.10590E-05 1.06429E+00-8.11199E-14-5.68987E-14
 -1       773 1.94362E+01 7.86665E-01 1.25133E-04 1.29343E+00-8.13002E-14-1.89401E-13
 -1       774 1.92481E+01 7.78156E-01 1.88894E-04 1.56331E+00 2.84056E-14-1.03523E-13
 -1       775 1.90574E+01 6.40452E-01 3.43147E-04 1.88866E+00 2.99604E-14-6.60183E-14
 -1       776 1.89257E+01 2.80814E-01 4.66137E-04 2.29274E+00 3.10271E-14-1.43978E-14
 -1       777 1.89779E+01-4.36413E-01 8.87174E-04 2.81313E+00-2.81420E-14-1.85811E-14
 -1       778 1.95765E+01-1.70375E+00 1.34077E-02 3.46722E+00-8.57647E-15-8.16899E-14
 -1       779 2.09429E+01-3.40964E+00 5.47819E-02 3.91704E+00 9.65304E-14 5.16705E-14
 -1       780 2.94797E+01 4.52029E+00-2.11576E-01-2.06124E+00-5.19515E-13-9.21659E-15
 -1       781 2.00919E+01 2.84562E-02-8.35392E-06-1.62489E-01 5.26865E-14-1.52270E-13
 -1       782 2.06919E+01-2.86185E+00 2.60537E-02-3.86136E+00 2.87013E-13 8.16708E-15
 -1       783 1.96251E+01-1.27959E+00 8.43919E-03-3.41981E+00-3.03810E-14-1.78902E-13
 -1       784 1.92910E+01-2.30091E-01 3.63867E-03-2.92083E+00-9.53801E-14-3.28616E-13
 -1       785 1.93036E+01 4.14268E-01 1.51014E-03-2.48049E+00-5.63484E-14 3.54565E-15
 -1       786 2.01275E+01 1.04006E-01-1.45258E-07-1.17195E-01 9.93880E-14-1.85992E-13
 -1       787 2.01718E+01 2.25329E-01 2.01342E-05-3.14030E-02 1.32253E-13-1.63284E-13
 -1       788 1.78939E+01 1.46876E+00-4.13132E-04 1.70930E-03 1.91081E-13 9.01869E-14
 -1       789 2.00454E+01-3.69001E-02-1.23810E-05-1.83736E-01 6.76993E-14-1.48395E-13
 -1       790 2.00321E+01-4.26167E-02-1.18609E-05-1.78160E-01 7.11527E-14-1.00465E-13
 -1       791 2.00237E+01-3.68749E-02-9.90558E-06-1.70280E-01-1.74758E-14-5.04129E-14
 -1       792 2.00190E+01-2.25658E-02-6.75004E-06-1.64482E-01 4.96704E-14-7.02537E-14
 -1       793 2.00172E+01-1.52934E-03-2.78140E-06-1.64136E-01 8.46313E-14-9.20696E-14
 -1       794 2.00176E+01 2.51115E-02 2.05664E-06-1.71941E-01 4.68110E-14-1.56481E-13
 -1       795 2.00197E+01 5.66471E-02 7.71849E-06-1.90169E-01-4.89958E-14-1.45470E-13
 -1       796 2.00232E+01 9.24735E-02 1.42939E-05-2.20797E-01 1.11168E-14-1.64544E-13
 -1       797 2.00281E+01 1.31751E-01 2.17072E-05-2.65547E-01 2.37242E-14-1.62997E-13
 -1       798 2.00346E+01 1.72980E-01 2.97127E-05-3.25814E-01 5.55221E-14-1.47124E-13
 -1       799 2.00437E+01 2.13459E-01 3.77469E-05-4.02471E-01-5.47656E-14-3.42884E-14
 -1       800 2.00572E+01 2.48607E-01 4.52681E-05-4.95529E-01-1.26476E-13 1.56877E-13
 -1       801 2.00787E+01 2.71146E-01 5.10949E-05-6.03631E-01-6.53202E-14 2.21990E-13
 -1       802 2.01146E+01 2.70172E-01 5.32653E-05-7.23339E-01 1.64711E-14 2.02075E-13
 -1       803 2.01752E+01 2.30335E-01 4.80042E-05-8.48122E-01-8.17697E-15 2.01805E-13
 -1       804 2.02771E+01 1.31568E-01 2.48704E-05-9.66882E-01-8.89730E-14 2.11336E-13
 -1       805 2.04446E+01-4.95603E-02-2.81236E-05-1.06172E+00-2.27587E-13 1.42909E-13
 -1       806 2.07108E+01-3.34997E-01-1.60365E-04-1.10464E+00-1.39307E-13 1.35561E-13
 -1       807 2.11143E+01-7.33382E-01-3.65033E-04-1.05299E+00-2.85537E-13 1.64256E-13
 -1       808 2.16877E+01-1.21626E+00-6.66246E-04-8.45660E-01 2.62187E-14 7.82817E-14
 -1       809 2.24288E+01-1.67866E+00-1.06304E-03-4.08425E-01-5.43377E-14 6.76664E-14
 -1       810 2.32537E+01-1.89152E+00-1.15834E-03 3.10381E-01 7.09229E-14 1.29247E-13
 -1       811 2.39485E+01-1.49063E+00-1.81076E-03 1.24864E+00 8.59555E-14 7.29768E-14
 -1       812 2.41944E+01-1.91233E-01-2.19851E-02 2.04026E+00 1.12825E-13-2.67436E-13
 -1       813 2.39920E+01 1.72198E+00-2.58608E-02 2.04959E+00 6.57057E-14-4.72090E-13
 -1       814 2.35387E+01 3.33336E+00-3.08736E-02 9.66688E-01 1.64438E-13-5.45892E-13
 -1       815 2.35517E+01 3.29914E+00-3.50173E-02-7.35692E-01 7.63938E-14-3.20228E-13
 -1       816 2.39134E+01 1.73190E+00-2.96769E-02-1.83988E+00 8.53241E-14-2.48127E-13
 -1       817 2.41735E+01-2.46084E-01-1.94693E-02-1.82197E+00 5.50116E-14-1.65521E-13
 -1       818 2.39421E+01-1.55561E+00-4.95507E-03-1.02141E+00 4.88128E-14-2.75112E-13
 -1       819 2.32845E+01-1.98820E+00-9.02600E-04-6.21449E-02-1.65301E-13-3.75819E-13
 -1       820 2.24642E+01-1.76018E+00-1.53751E-03 7.02324E-01-1.45597E-13-3.07791E-13
 -1       821 2.17212E+01-1.26665E+00-1.42758E-03 1.16933E+00-9.34342E-14-1.27046E-13
 -1       822 2.11434E+01-7.18287E-01-3.71733E-04 1.38336E+00-4.69993E-14-1.98150E-13
 -1       823 2.07332E+01-2.23549E-01-1.26244E-04 1.41963E+00-1.21796E-13-4.83942E-13
 -1       824 2.04952E+01 7.83957E-02-9.74466E-04 1.40798E+00-2.80159E-13-4.71035E-13
 -1       825 1.19689E+01-9.01122E-01 8.90822E-02-4.27086E+00-2.87691E-13-9.59094E-14
 -1       826 1.81633E+01 1.25962E+00-4.00304E-04 8.41076E-01-1.27314E-14-3.01732E-13
 -1       827 2.19002E+01-4.35100E+00 2.30274E-02-4.00870E+00-2.77660E-14 1.40929E-14
 -1       828 1.10188E+01 3.44522E-01 9.40669E-02 2.01817E+00-1.23554E-13-5.35273E-13
 -1       829 1.80339E+01 1.45192E+00-9.18852E-04-8.78795E-01 1.66885E-13 4.35493E-13
 -1       830 1.90568E+01-3.03894E+00 4.41111E-02-4.72447E+00 2.12714E-13-1.40376E-13
 -1       831 9.94485E+00 4.92179E-01 9.93291E-02-1.31775E+00-3.82402E-13-6.96040E-14
 -1       832 1.19663E+01 2.08115E-01 7.98878E-02-2.29911E+00-6.02027E-14 1.67612E-13
 -1       833 2.51340E+01-3.75307E+00 7.89984E-04-1.04262E+00 1.29923E-13 1.56854E-14
 -1       834 2.02797E+01 1.17161E+00 4.66945E-04-5.68107E-01-2.56241E-13-3.21539E-13
 -1       835 2.00649E+01-1.53584E-02-1.13275E-05-1.81145E-01 1.07005E-13-1.19445E-13
 -1       836 1.93405E+01 8.96630E-01 2.38684E-04-2.02578E+00 1.42662E-13 1.76865E-13
 -1       837 2.02251E+01 1.58914E+00-6.86208E-05-7.21097E-01-2.59582E-13-3.75965E-13
 -1       838 2.62944E+01-1.96224E+00-3.39005E-02-1.00523E+00-2.46764E-14-2.51138E-13
 -1       839 1.87410E+01-3.17731E+00 4.89905E-02 4.94603E+00-3.13090E-13 9.46916E-14
 -1       840 1.37986E+01-1.39631E+00 8.37241E-02 4.71946E+00-3.46237E-13 4.02806E-13
 -1       841 1.44290E+01-1.23722E+00 6.79343E-02-4.42731E+00-8.78238E-14-5.95461E-14
 -1       842 2.32512E+01-4.40602E+00 2.03673E-02-3.34270E+00 1.55055E-13-1.64141E-13
 -1       843 2.01426E+01 1.88839E+00-3.06604E-04 1.99607E-01 3.04052E-14-4.64038E-13
 -1       844 2.02781E+01 9.43518E-01 1.27282E-04 5.55457E-01 2.75673E-13-2.13103E-13
 -1       845 2.01309E+01 1.92685E+00-3.16464E-04 3.36303E-03-2.65190E-14-4.55131E-13
 -1       846 2.01743E+01 1.77538E+00-2.42959E-04 3.82227E-01 1.21386E-13-3.99922E-13
 -1       847 1.56235E+01-1.59493E+00 4.94455E-02-4.55897E+00-2.93902E-13-5.74792E-14
 -1       848 2.02209E+01 4.15355E-01 1.28370E-04 1.12214E-01 2.05205E-13-1.66100E-13
 -1       849 1.94051E+01 4.96628E-01-4.08618E-04 1.73043E+00-1.34938E-13 4.80580E-13
 -1       850 2.55792E+01-2.36864E+00-1.02163E-02 7.78672E-01 2.63120E-13 1.25859E-14
 -1       851 1.17013E+01 6.44639E-01 5.60638E-02-5.89007E-01 7.98808E-15 1.00543E-13
 -1       852 1.87352E+01 8.91464E-01-1.79123E-04 1.44305E+00-1.05438E-13 1.89317E-13
 -1       853 2.51107E+01 2.07055E+00-6.13908E-02 2.27436E+00 1.96463E-13-3.30853E-13
 -1       854 2.43190E+01 4.44985E+00-9.25524E-02 9.30262E-02 3.04617E-15-3.79853E-13
 -1       855 2.02246E+01 1.58086E+00 1.51944E-04 5.35737E-01 1.96770E-13-3.07414E-13
 -1       856 2.50785E+01-3.36993E+00-1.17473E-02 5.80821E-01-9.84359E-14-2.50754E-15
 -1       857 1.39262E+01-2.17454E-01 3.62387E-02 3.26850E+00 2.95449E-14-5.17903E-13
 -1       858 1.99300E+01 2.37690E-01 4.59721E-04 1.73594E+00-2.76045E-13 3.50414E-13
 -1       859 2.01701E+01 1.78246E+00-5.44354E-04-3.75122E-01-1.57769E-13-3.80123E-13
 -1       860 2.17966E+01-3.74192E+00 1.03398E-02 3.58751E+00-5.69692E-14 1.73940E-13
 -1       861 2.01860E+01 1.72082E+00-6.61151E-04-5.52606E-01-2.15932E-13-3.59304E-13
 -1       862 2.02500E+01 6.36108E-01-6.88287E-05 2.96127E-01 2.14916E-13-1.85320E-13
 -1       863 2.03340E+01 4.31978E-01-1.62682E-05-4.66740E-02-1.33428E-13-2.52374E-13
 -1       864 2.03081E+01 2.31142E-01-2.88478E-05 4.77711E-02-1.42259E-13-2.14209E-13
 -1       865 2.02721E+01 9.90032E-02-5.63737E-07 1.05113E-01-1.36959E-13-1.81315E-13
 -1       866 2.02328E+01 1.70390E-02-1.97509E-06 1.35415E-01-8.04866E-14-2.18158E-13
 -1       867 2.01943E+01-2.83749E-02-3.19434E-06 1.47912E-01-4.23968E-15-2.71239E-13
 -1       868 2.01585E+01-4.72022E-02-3.07395E-06 1.50033E-01-1.24924E-14-2.13746E-13
 -1       869 2.01259E+01-4.64743E-02-2.59426E-06 1.47574E-01 1.04084E-14-1.33087E-13
 -1       870 2.00964E+01-3.09465E-02-2.12209E-06 1.44994E-01-5.15731E-14-1.62758E-13
 -1       871 2.00689E+01-3.60128E-03-1.64717E-06 1.45753E-01-2.49468E-14-2.46010E-13
 -1       872 2.00418E+01 3.39542E-02-1.23706E-06 1.52622E-01-2.43718E-14-1.62523E-13
 -1       873 2.00133E+01 8.11495E-02-1.14544E-06 1.67926E-01-1.26626E-13-6.61134E-14
 -1       874 1.99808E+01 1.38179E-01-1.37825E-06 1.93695E-01-9.34299E-14-8.29236E-14
 -1       875 1.99411E+01 2.05748E-01-1.93660E-06 2.31787E-01-9.65669E-14-4.33490E-15
 -1       876 1.98901E+01 2.84748E-01-1.93527E-06 2.83917E-01-1.67284E-14 3.70269E-14
 -1       877 1.98230E+01 3.75906E-01-1.76432E-06 3.51614E-01-3.41155E-14 7.10037E-14
 -1       878 1.97334E+01 4.79302E-01-1.15052E-06 4.36196E-01 8.65148E-14-6.52735E-14
 -1       879 1.96138E+01 5.93647E-01 3.45050E-07 5.38777E-01 1.17153E-13 6.92295E-14
 -1       880 1.94550E+01 7.15224E-01 3.02780E-06 6.60477E-01 8.35844E-14 1.79467E-14
 -1       881 1.92463E+01 8.36324E-01 5.63874E-06 8.03087E-01-1.51421E-13-1.28342E-13
 -1       882 1.89761E+01 9.42981E-01 9.98105E-07 9.70639E-01-1.26061E-13-1.72864E-13
 -1       883 1.86325E+01 1.01188E+00 2.48834E-05 1.17262E+00-2.81144E-14-1.99087E-13
 -1       884 1.82060E+01 1.00578E+00 1.89344E-04 1.43007E+00 9.12798E-14-2.45762E-13
 -1       885 1.76934E+01 8.65421E-01 4.43406E-04 1.78734E+00 4.13221E-14-1.82682E-13
 -1       886 1.71336E+01 4.91014E-01-5.72285E-04 2.32008E+00 1.31861E-15-3.50833E-13
 -1       887 1.80320E+01 8.37254E-01 1.95122E-04-2.11280E+00 1.83522E-13-7.66132E-14
 -1       888 1.73094E+01-1.04449E-01 8.09352E-03-3.10152E+00-9.39862E-15-4.07373E-13
 -1       889 1.76353E+01 4.61913E-01 1.52979E-03-2.53639E+00 1.42299E-13-2.02198E-13
 -1       890 2.02341E+01 1.02501E-01-3.90779E-06-1.11220E-01 8.30029E-14-2.05236E-13
 -1       891 2.02718E+01 2.32645E-01-9.49130E-06-4.49827E-02 1.04012E-13-1.62825E-13
 -1       892 2.01294E+01-4.45368E-02-1.25134E-06-1.62801E-01 5.90496E-14-7.89280E-14
 -1       893 2.00579E+01-1.23326E-02 2.56386E-07-1.54003E-01 2.13135E-14-1.16497E-13
 -1       894 2.00390E+01 1.83827E-02 2.07309E-07-1.58930E-01 6.69801E-14-8.48885E-14
 -1       895 2.00207E+01 5.63148E-02 5.37274E-07-1.72416E-01-5.61711E-14-3.49858E-14
 -1       896 2.00016E+01 1.00613E-01 1.42134E-06-1.96654E-01-1.92927E-14-4.07291E-14
 -1       897 1.99807E+01 1.50423E-01 3.23943E-06-2.33637E-01 5.95267E-14-9.74171E-14
 -1       898 1.99567E+01 2.04434E-01 5.73594E-06-2.85227E-01-9.24120E-15-1.31858E-13
 -1       899 1.99292E+01 2.60305E-01 8.11801E-06-3.53128E-01-1.12862E-13 2.76810E-14
 -1       900 1.98983E+01 3.13965E-01 1.12689E-05-4.38784E-01-1.35025E-13-7.31514E-14
 -1       901 1.98658E+01 3.58765E-01 1.55407E-05-5.43210E-01-1.09542E-13-1.90948E-13
 -1       902 1.98361E+01 3.84451E-01 2.15561E-05-6.66748E-01-7.21416E-14-1.00528E-13
 -1       903 1.98175E+01 3.76036E-01 3.02767E-05-8.08675E-01-4.93470E-14-1.03416E-13
 -1       904 1.98251E+01 3.12752E-01 4.07814E-05-9.66513E-01-1.64097E-13-9.92958E-15
 -1       905 1.98832E+01 1.67554E-01 3.53368E-05-1.13456E+00-1.37127E-13 6.83365E-14
 -1       906 2.00294E+01-9.15437E-02 1.91706E-05-1.30079E+00-1.09450E-13 3.32431E-15
 -1       907 2.03179E+01-4.96249E-01-1.11468E-04-1.44059E+00-1.80551E-13-4.55273E-14
 -1       908 2.08190E+01-1.06279E+00-2.11042E-04-1.50476E+00-7.85888E-14-2.06947E-13
 -1       909 2.16100E+01-1.75951E+00-6.71554E-05-1.40244E+00 8.37871E-16 4.56779E-14
 -1       910 2.27254E+01-2.43180E+00-1.44574E-03-9.84935E-01-8.88260E-14 1.71966E-14
 -1       911 2.40515E+01-2.69440E+00-4.27608E-03-1.12974E-01 1.12961E-13-1.49904E-14
 -1       912 2.17853E+01-1.84498E+00-3.28856E-04 1.70498E+00-1.97667E-13 2.63593E-14
 -1       913 2.10233E+01-1.09485E+00 1.21571E-03 1.83688E+00 1.49372E-14-1.30556E-13
 -1       914 2.05361E+01-4.31151E-01-1.76548E-03 1.77433E+00-3.01301E-14-1.92076E-13
 -1       915 2.01607E+01-2.42379E-02-1.94565E-06-1.60582E-01 6.93652E-14-1.64964E-13
 -1       916 1.71360E+01 1.19804E+00-8.32878E-04 6.63433E-01 9.30387E-14 8.33908E-14
 -1       917 1.32291E+01 1.59393E-01 4.72180E-02 2.68154E+00-2.29986E-13 3.76804E-13
 -1       918 2.01961E+01 2.14746E-02-3.34390E-06-1.46198E-01 8.04382E-14-2.47538E-13
 -1       919 2.03516E+01-3.00579E+00 1.26162E-02-3.65205E+00-7.53247E-14-2.56939E-13
 -1       920 1.68438E+01-1.42200E+00 3.00292E-02 4.10811E+00-1.86013E-13 4.41718E-13
 -1       921 2.00786E+01-3.45957E-02-3.68976E-07-1.55141E-01 1.93387E-14-1.40697E-13
 -1       922 2.01022E+01-4.63910E-02-8.28312E-07-1.59340E-01 2.55174E-14-9.98770E-14
 -1       923 1.25967E+01 2.71584E-01 4.81271E-02-2.66963E+00-3.71353E-13-1.94305E-13
 -1       924 2.01416E+01 1.89139E+00-3.01267E-04-1.92870E-01-7.49441E-14-4.18015E-13
 -1       925 2.02676E+01 1.32536E-01 3.27812E-04 1.60090E+00-1.98792E-13-5.67618E-14
 -1       926 2.03393E+01 7.19336E-01-4.02456E-04-1.89968E-01-1.40868E-13-2.66561E-13
 -1       927 1.21720E+01 9.63249E-01 4.77371E-02 1.48946E-01-1.97853E-13-1.05645E-13
 -1       928 2.02708E+01 1.32336E+00 4.19295E-04-4.62039E-01-1.83798E-13-3.50496E-13
 -1       929 1.49885E+01-4.96772E-03 3.14750E-02-3.07236E+00-2.75253E-14-1.61329E-16
 -1       930 1.76035E+01-1.41948E+00 2.11361E-02-4.06842E+00 6.65266E-16-5.21074E-13
 -1       931 2.02980E+01 9.03937E-01-2.10797E-04 3.78984E-01 2.02681E-13-2.26664E-13
 -1       932 2.02894E+01 1.33808E+00 6.61952E-05 1.97699E-01 9.34444E-14-3.71257E-13
 -1       933 2.03011E+01 4.34563E-01 2.49368E-04 6.44963E-02 1.50902E-13-2.27965E-13
 -1       934 1.66608E+01-2.55400E-01 4.15408E-02 3.11912E+00-2.02444E-14-1.92572E-13
 -1       935 1.78534E+01 7.69145E-01 5.77113E-04 1.56700E+00-2.49567E-13-8.89299E-14
 -1       936 1.83296E+01-1.84499E+00 2.02359E-02-3.76884E+00-7.72072E-14-1.55958E-13
 -1       937 2.47500E+01-1.34842E-01-3.70135E-02 2.07902E+00 1.92720E-13-2.56782E-13
 -1       938 1.94710E+01-2.35104E+00 3.30258E-03 3.83209E+00-8.03827E-14 2.28104E-13
 -1       939 2.28431E+01-2.54721E+00 7.84235E-03 1.29013E+00-2.61639E-13 8.20849E-14
 -1       940 1.70234E+01 1.34421E+00 9.09802E-05-4.55416E-01 1.79683E-13 1.07507E-14
 -1       941 1.72994E+01 1.18491E+00 4.54294E-04-1.38177E+00 2.17200E-13 7.40220E-13
 -1       942 2.02796E+01 1.40631E+00 3.73314E-06 6.92891E-02 1.95434E-14-4.40322E-13
 -1       943 1.97424E+01-1.68748E-01 1.01411E-03 2.07506E+00-8.14156E-14 2.30261E-13
 -1       944 2.02908E+01 1.34044E+00 8.82465E-04-1.95632E-01-8.95929E-14-3.34496E-13
 -1       945 1.88227E+01 2.52927E-01-2.09088E-03 2.01651E+00-1.97321E-13 3.18167E-13
 -1       946 2.28352E+01-3.41290E+00 5.74669E-03-2.15977E+00 6.93386E-14-6.27235E-14
 -1       947 1.41116E+01 6.06362E-01 2.65154E-02-1.99971E+00 4.19212E-14 1.42779E-13
 -1       948 1.37064E+01 8.02207E-01 1.92701E-02 1.64071E+00-1.81239E-13-4.14964E-13
 -1       949 2.02779E+01 1.35367E+00 4.69191E-04-3.25498E-01-1.34483E-13-3.26275E-13
 -1       950 2.03055E+01 1.20334E+00 1.46037E-04 3.06647E-01 1.64906E-13-2.87819E-13
 -1       951 2.03641E+01 2.03730E-01 2.13780E-05 5.16514E-02-1.07063E-13-3.08151E-13
 -1       952 2.03280E+01 7.75615E-02 3.78679E-06 8.83243E-02-8.72387E-14-2.28364E-13
 -1       953 2.02854E+01 1.28425E-03 1.95335E-06 1.07229E-01-5.23054E-14-1.89118E-13
 -1       954 2.02407E+01-3.80870E-02 6.23134E-08 1.14708E-01 2.43842E-15-1.82077E-13
 -1       955 2.01966E+01-5.01825E-02-1.54682E-07 1.15938E-01 3.65175E-14-1.84213E-13
 -1       956 2.01541E+01-4.18499E-02-4.80304E-07 1.14980E-01-4.96143E-14-1.92527E-13
 -1       957 2.01131E+01-1.76874E-02-1.12987E-06 1.14984E-01-6.18440E-14-1.25210E-13
 -1       958 2.00722E+01 1.94947E-02-1.48268E-06 1.18404E-01 5.61045E-14-8.45841E-14
 -1       959 2.00295E+01 6.82830E-02-1.87529E-06 1.27202E-01-1.01904E-14-9.32209E-14
 -1       960 1.99821E+01 1.28218E-01-6.00368E-06 1.42973E-01-1.07360E-13 3.42462E-14
 -1       961 1.99264E+01 1.99621E-01-1.18459E-05 1.66980E-01-2.58120E-14 6.24060E-14
 -1       962 1.98579E+01 2.83139E-01-1.66382E-05 2.00274E-01 2.13908E-14 7.41033E-14
 -1       963 1.97711E+01 3.79379E-01-2.21878E-05 2.43536E-01 1.64246E-14 1.79128E-13
 -1       964 1.96593E+01 4.88547E-01-2.94016E-05 2.97046E-01-5.53368E-14 2.28709E-13
 -1       965 1.95139E+01 6.09866E-01-3.87053E-05 3.60632E-01 1.21919E-14 2.01002E-13
 -1       966 1.93248E+01 7.40895E-01-5.10366E-05 4.33720E-01 4.14815E-14 7.38333E-15
 -1       967 1.90792E+01 8.76648E-01-6.88379E-05 5.15723E-01-1.06268E-13 1.32913E-14
 -1       968 1.87609E+01 1.00848E+00-1.01499E-04 6.07063E-01-1.44495E-13 4.21236E-14
 -1       969 1.83489E+01 1.12275E+00-1.82527E-04 7.11243E-01-8.62489E-14-1.67803E-14
 -1       970 1.78146E+01 1.19978E+00-2.09184E-04 8.38824E-01-6.83229E-14-7.44496E-14
 -1       971 1.71163E+01 1.21106E+00-9.30234E-06 1.01622E+00 4.85674E-14-3.11056E-13
 -1       972 1.62263E+01 1.12064E+00 1.99517E-03 1.30817E+00-6.06046E-14-3.21687E-13
 -1       973 2.03045E+01 8.64376E-02 6.96951E-07-9.80744E-02 9.29288E-14-1.72232E-13
 -1       974 2.03400E+01 2.14887E-01-1.63083E-05-5.30148E-02 1.11359E-13-1.91191E-13
 -1       975 2.01808E+01-4.92788E-02 8.46505E-06-1.32268E-01 6.69544E-14-9.31020E-14
 -1       976 2.00719E+01 6.53792E-03 5.63023E-06-1.32223E-01 8.15858E-15-1.75276E-14
 -1       977 1.99597E+01 1.55440E-01-2.47608E-06-1.85311E-01 8.37949E-14-1.12709E-13
 -1       978 1.99128E+01 2.19731E-01-2.57343E-06-2.24907E-01-3.25748E-14-1.66606E-13
 -1       979 1.98576E+01 2.88913E-01-4.99360E-06-2.78896E-01-1.20391E-13 1.32661E-14
 -1       980 1.97925E+01 3.59851E-01-7.16332E-06-3.49546E-01-2.33477E-14-2.41460E-14
 -1       981 1.97170E+01 4.27249E-01-9.05838E-06-4.39372E-01 5.98164E-14-1.81273E-13
 -1       982 1.96321E+01 4.82689E-01-1.04061E-05-5.51243E-01-1.96919E-13-2.30036E-13
 -1       983 1.95420E+01 5.13494E-01-1.01300E-05-6.88536E-01-1.08478E-13-1.94989E-13
 -1       984 1.94557E+01 5.01452E-01-6.27710E-06-8.55289E-01-1.05272E-13-6.14676E-14
 -1       985 1.93900E+01 4.21402E-01-2.85214E-06-1.05617E+00-1.46295E-13-2.27120E-13
 -1       986 1.93737E+01 2.39848E-01-5.37839E-05-1.29543E+00-7.32735E-14-2.44288E-13
 -1       987 1.94547E+01-8.47213E-02 1.14004E-05-1.57325E+00-1.30633E-13-2.07482E-13
 -1       988 1.97070E+01-5.99538E-01-3.98865E-04-1.87792E+00-1.59776E-13-1.95463E-13
 -1       989 2.02468E+01-1.34147E+00 2.10920E-03-2.16030E+00-1.89868E-13 3.94602E-14
 -1       990 2.12273E+01-2.30336E+00 1.26607E-03-2.28604E+00-4.48530E-14-2.81828E-15
 -1       991 2.15531E+01-2.46618E+00 1.16301E-02 2.59917E+00-2.11450E-13 1.94721E-13
 -1       992 2.05403E+01-1.43252E+00-9.65028E-03 2.46471E+00-4.76040E-14 3.26204E-13
 -1       993 2.02214E+01-3.41211E-02 8.39910E-06-1.30860E-01 3.73360E-14-1.17502E-13
 -1       994 1.54509E+01-3.02727E-01 1.69437E-02-3.22932E+00-1.81805E-13-1.67164E-13
 -1       995 2.02635E+01 7.86478E-03 6.36758E-06-1.21510E-01 3.62547E-14-1.44698E-13
 -1       996 2.01065E+01-2.49436E-02 6.51825E-06-1.29572E-01 3.48290E-15-1.32220E-13
 -1       997 2.00004E+01 9.78015E-02-1.52659E-06-1.58006E-01 1.01131E-14-4.21205E-14
 -1       998 2.02789E+01 1.40798E+00 2.19078E-05-6.56852E-02-5.65386E-14-3.92117E-13
 -1       999 1.37268E+01 9.25149E-01 2.00027E-02-1.26020E+00-1.94962E-13 2.65165E-14
 -1      1000 2.01426E+01-4.46089E-02 7.59881E-06-1.30581E-01 5.78320E-14-1.47060E-13
 -1      1001 2.36212E+01-3.44344E+00 1.06030E-02 1.70650E+00-2.55017E-13 2.42487E-13
 -1      1002 1.58018E+01 2.88030E-02 1.39831E-02 2.77261E+00 1.96708E-13 4.84864E-13
 -1      1003 2.03081E+01 6.36943E-01-1.76669E-05 1.97947E-01 1.78594E-13-2.29042E-13
 -1      1004 2.03835E+01 6.69396E-01-1.95083E-04-1.03529E-01-1.36141E-13-3.16810E-13
 -1      1005 1.39792E+01 9.51727E-01 2.30579E-02 5.73030E-01 2.40867E-13-2.04051E-13
 -1      1006 2.00371E+01 4.78508E-02 6.43793E-07-1.40980E-01-9.52194E-15 2.13399E-14
 -1      1007 1.61119E+01 5.08385E-01 8.81832E-03-2.43391E+00-4.31416E-14 2.08601E-13
 -1      1008 2.03853E+01 3.97071E-01 7.27968E-06-9.93423E-03-1.53289E-13-3.15038E-13
 -1      1009 2.03624E+01 4.10990E-01-5.25552E-04 2.29092E-02 1.00327E-13-1.74307E-13
 -1      1010 1.65748E+01 6.87010E-01 2.14317E-03 1.63486E+00 1.22268E-13 7.10171E-14
 -1      1011 1.66862E+01 9.16737E-01 2.99408E-03-1.82859E+00 4.21949E-13 6.19552E-13
 -1      1012 2.03718E+01 9.71140E-01-3.86984E-04-7.74695E-02-1.18081E-13-3.53322E-13
 -1      1013 2.03668E+01 8.88301E-01-2.23486E-04 1.47868E-01 1.39081E-13-2.65338E-13
 -1      1014 1.95774E+01-1.63437E+00 8.15640E-03-2.87850E+00-9.64467E-14-3.19075E-13
 -1      1015 2.03723E+01 9.70576E-01 7.52312E-05 8.00954E-02 5.90439E-14-3.36559E-13
 -1      1016 1.41491E+01 1.16961E+00 1.33930E-02 1.38809E-01-2.04728E-13-1.66841E-13
 -1      1017 1.57937E+01 1.17680E+00 1.62626E-03 2.75377E-01 1.12417E-13 9.17826E-14
 -1      1018 1.82634E+01-9.62116E-01 5.47747E-03 3.23257E+00-2.04297E-13 2.01397E-13
 -1      1019 2.03950E+01 1.60073E-01-4.98763E-05 4.27576E-02-5.98270E-14-2.49191E-13
 -1      1020 1.98268E+01 2.96480E-01-2.75320E-05-1.91161E-01-8.86704E-14-2.98423E-14
 -1      1021 2.04243E+01 6.10865E-01-1.15538E-04-3.11256E-02-1.16246E-13-3.18393E-13
 -1      1022 2.03558E+01 4.79569E-02-2.73252E-05 6.19287E-02-5.54228E-14-2.11585E-13
 -1      1023 2.03089E+01-1.66869E-02-1.68374E-05 7.12161E-02 8.70456E-15-1.61712E-13
 -1      1024 2.02589E+01-4.59588E-02-1.00086E-05 7.46262E-02 1.42775E-14-1.29634E-13
 -1      1025 2.02085E+01-4.87763E-02-6.96106E-06 7.51414E-02 2.92868E-14-1.56006E-13
 -1      1026 2.01585E+01-3.14510E-02-7.20827E-06 7.51035E-02-2.27071E-14-1.14014E-13
 -1      1027 2.01085E+01 1.85020E-03-1.01787E-05 7.63179E-02 1.40048E-14-1.07778E-13
 -1      1028 2.00569E+01 4.86505E-02-8.18781E-06 8.01273E-02-2.34986E-14-1.70534E-13
 -1      1029 2.00007E+01 1.07952E-01 1.22400E-06 8.76048E-02 1.75553E-14-2.99606E-13
 -1      1030 1.99369E+01 1.78991E-01-3.06283E-05 9.93149E-02 3.06134E-14-7.16538E-14
 -1      1031 1.98605E+01 2.62575E-01-4.94869E-05 1.15815E-01 7.81469E-14 5.61574E-14
 -1      1032 1.97664E+01 3.58693E-01-6.01853E-05 1.36954E-01 8.09589E-14 6.18510E-14
 -1      1033 1.96480E+01 4.67473E-01-7.69622E-05 1.62138E-01-2.09601E-14 8.21982E-14
 -1      1034 1.94974E+01 5.88170E-01-9.79647E-05 1.90100E-01 4.92822E-14 1.12998E-13
 -1      1035 1.93049E+01 7.18719E-01-1.24725E-04 2.18708E-01-1.18903E-13 1.79840E-13
 -1      1036 1.90585E+01 8.55175E-01-1.59998E-04 2.44926E-01-9.99812E-14 9.89575E-14
 -1      1037 1.87428E+01 9.91185E-01-2.07777E-04 2.65016E-01-1.09239E-13 2.93358E-14
 -1      1038 1.83363E+01 1.11752E+00-2.95808E-04 2.75333E-01-9.25330E-14 5.09701E-14
 -1      1039 1.78094E+01 1.22098E+00-4.75509E-04 2.73401E-01-1.50901E-13 2.43702E-14
 -1      1040 1.71153E+01 1.28770E+00-1.24878E-04 2.56813E-01-1.20401E-13-1.03550E-13
 -1      1041 1.61851E+01 1.30075E+00-1.39345E-03 2.47046E-01-4.09810E-14-2.23380E-13
 -1      1042 1.74316E+01 2.05947E-01 4.43852E-03 2.27259E+00-6.33413E-14 3.34575E-14
 -1      1043 2.04253E+01 3.43381E-01 7.55778E-05 7.68267E-03-7.98871E-14-2.59753E-13
 -1      1044 2.03748E+01 9.98743E-01 2.26310E-04-1.23870E-04-6.47734E-14-3.56748E-13
 -1      1045 1.99000E+01 2.17831E-01-1.48523E-05-1.53804E-01 7.20040E-14 7.32886E-14
 -1      1046 1.96345E+01 4.67239E-01-4.18912E-05-3.09272E-01 1.56897E-14-1.76425E-13
 -1      1047 1.95102E+01 5.49631E-01-4.70904E-05-3.96996E-01 6.37548E-14-1.33713E-13
 -1      1048 1.93658E+01 6.18556E-01-4.98509E-05-5.10420E-01-1.60008E-13-2.42013E-13
 -1      1049 1.92031E+01 6.60102E-01-4.81667E-05-6.56769E-01-2.54565E-13-1.40907E-13
 -1      1050 1.90279E+01 6.54604E-01-4.30042E-05-8.46118E-01-5.22824E-14-1.29383E-13
 -1      1051 1.88528E+01 5.74865E-01-7.96395E-05-1.09266E+00-7.36414E-14-1.11334E-13
 -1      1052 1.87029E+01 3.82592E-01-3.44758E-04-1.41486E+00-9.94051E-14-1.93259E-13
 -1      1053 1.86270E+01 2.52810E-02 2.41255E-05-1.83412E+00-1.54285E-13-5.34295E-14
 -1      1054 1.86999E+01-5.57332E-01 1.70660E-04-2.36298E+00-3.32993E-13-1.68959E-13
 -1      1055 2.03450E+01 5.99935E-02-2.56013E-05-7.56735E-02 5.45262E-14-1.09850E-13
 -1      1056 2.02520E+01-4.31080E-02 1.98149E-06-9.35438E-02 1.40504E-14-9.47910E-14
 -1      1057 2.03823E+01 1.77791E-01-6.06016E-05-4.96007E-02 1.04075E-13-1.59953E-13
 -1      1058 2.02999E+01-9.51943E-03-7.02955E-06-8.86931E-02-2.69171E-14-1.14178E-13
 -1      1059 1.60122E+01 1.15942E+00 9.85915E-03-8.62127E-01 2.84944E-13 5.20162E-13
 -1      1060 2.01113E+01-8.25548E-03 4.28381E-06-9.50894E-02-4.02381E-14 4.46602E-14
 -1      1061 1.99619E+01 1.46940E-01-1.98600E-05-1.27474E-01 5.84419E-14-4.46054E-14
 -1      1062 2.02042E+01-5.00223E-02 5.57410E-06-9.42224E-02 2.88575E-15-3.66284E-14
 -1      1063 2.01574E+01-3.68976E-02 5.82400E-06-9.38951E-02-5.20787E-15 5.51601E-14
 -1      1064 1.57464E+01 5.91773E-01 4.55882E-03-1.92907E+00-1.71453E-13-2.15784E-13
 -1      1065 1.94097E+01-6.00844E-01 8.87910E-03 2.50704E+00-1.08109E-13 1.17341E-13
 -1      1066 1.73726E+01-5.31861E-01 3.84007E-03-2.89953E+00-1.40876E-13-2.13612E-13
 -1      1067 1.97393E+01 3.80830E-01-3.51730E-05-2.41976E-01-5.47333E-14-2.09883E-13
 -1      1068 1.53712E+01 1.08698E+00 5.94943E-03-9.56830E-01 2.90851E-13 6.15768E-13
 -1      1069 2.00648E+01 3.29823E-02 3.54895E-06-9.98958E-02 5.04339E-14-6.13045E-14
 -1      1070 2.03563E+01 5.04527E-01 9.21809E-05 6.69023E-02 1.15800E-13-2.05776E-13
 -1      1071 2.04048E+01 3.60931E-01 2.29022E-04-4.28956E-03 1.02506E-13-2.01007E-13
 -1      1072 2.04098E+01 6.24531E-01 5.06230E-05 5.08239E-02 7.02092E-14-2.51721E-13
 -1      1073 2.00158E+01 8.51004E-02-9.17739E-06-1.10069E-01 9.60615E-15-6.71527E-15
 -1      1074 1.54256E+01 1.07096E+00 5.50251E-03-9.56093E-01-1.39583E-13-3.39900E-14
 -1      1075 2.04030E+01 1.09673E-01 6.18813E-05 2.04531E-02-3.25915E-14-1.42407E-13
 -1      1076 2.03590E+01 1.70041E-02 8.55353E-05 2.62345E-02-2.68929E-15-1.10789E-13
 -1      1077 2.03081E+01-3.25286E-02 7.37944E-05 2.87511E-02-4.50932E-15-1.62286E-13
 -1      1078 2.02543E+01-4.95734E-02 6.16283E-05 2.95733E-02-2.20794E-14-1.70157E-13
 -1      1079 2.01998E+01-4.21091E-02 5.04183E-05 2.96999E-02-4.51474E-15-1.64555E-13
 -1      1080 2.01450E+01-1.56729E-02 3.99400E-05 2.98749E-02 8.31255E-15-1.58134E-13
 -1      1081 2.00888E+01 2.61659E-02 2.05036E-05 3.06088E-02-3.97370E-14-1.98525E-13
 -1      1082 2.00294E+01 8.11610E-02 1.68459E-05 3.21130E-02 2.70797E-14-6.09130E-14
 -1      1083 1.99637E+01 1.48677E-01 1.37539E-04 3.49413E-02 7.85990E-14-6.92973E-14
 -1      1084 1.98861E+01 2.29015E-01 5.34736E-05 3.82427E-02 7.15633E-14-2.02687E-13
 -1      1085 1.97936E+01 3.20881E-01 3.62514E-05 4.14120E-02 4.90690E-14-2.35200E-13
 -1      1086 1.96797E+01 4.24675E-01 3.97653E-05 4.34882E-02 9.94884E-14-1.92835E-13
 -1      1087 1.95374E+01 5.39326E-01 4.01059E-05 4.23973E-02 1.43577E-14-1.52036E-13
 -1      1088 1.93589E+01 6.62604E-01 3.42919E-05 3.50504E-02-3.90150E-14-1.65079E-13
 -1      1089 1.91344E+01 7.90502E-01 1.77300E-05 1.69340E-02-1.40452E-13-1.17222E-13
 -1      1090 1.88522E+01 9.16748E-01-1.50297E-05-1.83500E-02-1.55597E-13-8.36639E-14
 -1      1091 1.84963E+01 1.03249E+00-6.12844E-05-7.97422E-02-1.26517E-13-2.67209E-13
 -1      1092 1.80443E+01 1.12660E+00-4.92289E-05-1.79988E-01-1.25707E-13-2.35157E-13
 -1      1093 1.74565E+01 1.18914E+00-1.76275E-03-3.22633E-01-1.36526E-13-2.49410E-14
 -1      1094 1.67670E+01 1.17196E+00 5.11295E-03-5.34401E-01-9.55740E-14 9.03942E-14
 -1      1095 1.96107E+01 4.75950E-01-4.37830E-05-1.70614E-01 1.82751E-14-2.12381E-13
 -1      1096 1.90743E+01 7.64325E-01-6.96738E-05-4.09934E-01-2.11999E-13-1.49623E-13
 -1      1097 1.98295E+01 2.84273E-01-2.58517E-05-1.00452E-01 8.48435E-14-4.57408E-14
 -1      1098 1.92870E+01 6.77639E-01-6.56425E-05-3.04237E-01-8.10361E-15-1.14980E-13
 -1      1099 1.94644E+01 5.78356E-01-5.53741E-05-2.27001E-01 3.11609E-14-2.66509E-13
 -1      1100 1.88225E+01 8.24809E-01-5.60755E-05-5.54943E-01-1.92184E-13-2.13295E-13
 -1      1101 1.85289E+01 8.40394E-01 1.89617E-05-7.54721E-01-1.14088E-13-1.22606E-13
 -1      1102 1.81924E+01 7.85435E-01-1.74041E-04-1.03168E+00-5.79534E-14-1.89026E-13
 -1      1103 1.78354E+01 6.24832E-01 8.99262E-04-1.41321E+00-1.09902E-13-2.15139E-13
 -1      1104 1.74708E+01 2.88354E-01 2.45903E-03-1.95872E+00-1.80718E-13-1.86023E-13
 -1      1105 2.03601E+01 2.95617E-02-5.75113E-06-4.31296E-02-1.49910E-14-8.90045E-14
 -1      1106 1.99117E+01 2.00591E-01-3.75182E-06-7.94244E-02-1.51490E-15-1.14512E-13
 -1      1107 2.04013E+01 1.30526E-01-3.08397E-05-3.20192E-02 3.46401E-14-1.27021E-13
 -1      1108 2.04219E+01 6.67929E-01-3.12879E-04 1.91453E-02 3.04784E-14-2.61455E-13
 -1      1109 1.97308E+01 3.76651E-01-3.33049E-05-1.29706E-01 4.81690E-14-1.29283E-13
 -1      1110 2.01520E+01-2.32858E-02-1.36784E-05-5.12367E-02 1.73608E-14-1.78770E-13
 -1      1111 2.02582E+01-4.87332E-02-1.44854E-05-5.03681E-02-1.82076E-14-4.34712E-14
 -1      1112 2.02051E+01-4.56880E-02-1.47872E-05-5.07485E-02-2.81523E-14-1.05243E-13
 -1      1113 2.03107E+01-2.64645E-02-1.22805E-05-4.84893E-02-8.00909E-15-1.00436E-13
 -1      1114 2.04346E+01 2.60612E-01 1.07661E-05 5.80434E-03-6.39949E-15-1.60825E-13
 -1      1115 2.04265E+01 2.91588E-01-1.92872E-04-1.24650E-02 7.30491E-14-1.80049E-13
 -1      1116 1.67484E+01 8.38433E-01-2.65175E-03-1.35044E+00-1.97835E-13-1.71842E-13
 -1      1117 2.00983E+01 1.45412E-02-7.56561E-06-5.31603E-02 6.07414E-14-1.60652E-13
 -1      1118 1.99819E+01 1.27454E-01 1.96772E-04-6.61183E-02 3.31437E-14-2.35412E-13
 -1      1119 2.04418E+01 4.39413E-01 2.25120E-04 4.30226E-04 3.30045E-14-2.08852E-13
 -1      1120 1.99971E+01 1.11824E-01-2.42988E-04-2.42606E-02 1.45040E-14-1.26347E-13
 -1      1121 2.04292E+01 4.10022E-01 1.76305E-04 1.53696E-03 3.70700E-14-2.46156E-13
 -1      1122 2.00421E+01 6.52405E-02-3.97023E-05-5.79088E-02 2.98111E-14-1.19214E-13
 -1      1123 2.79616E+01 9.08612E+00 2.32530E+00-6.69853E+00-4.40759E-14 2.06574E-12
 -1      1124 2.05459E+01 6.22667E+00 2.09648E-01-3.90482E+00-2.87548E-14 5.04832E-13
 -1      1125 1.94336E+01 5.85268E+00 7.53341E-02-2.88910E+00-2.11914E-14-2.15059E-13
 -1      1126 1.90255E+01 5.72575E+00 6.03095E-02-2.23622E+00-1.64660E-14-5.80460E-13
 -1      1127 1.88398E+01 5.66920E+00 5.75492E-02-1.70272E+00-1.07397E-14-7.63651E-13
 -1      1128 1.87469E+01 5.64078E+00 5.56267E-02-1.23522E+00-8.56086E-15-8.66572E-13
 -1      1129 1.86985E+01 5.62572E+00 5.38688E-02-8.05070E-01-5.50254E-15-9.17958E-13
 -1      1130 1.86748E+01 5.61822E+00 5.26067E-02-3.93209E-01-2.86294E-15-9.48593E-13
 -1      1131 1.86680E+01 5.61607E+00 5.22074E-02 8.49473E-03 3.11383E-16-9.53930E-13
 -1      1132 1.86758E+01 5.61856E+00 5.27163E-02 4.10607E-01 2.18272E-15-9.51498E-13
 -1      1133 1.87006E+01 5.62642E+00 5.40957E-02 8.23794E-01 3.77996E-15-9.34958E-13
 -1      1134 1.87508E+01 5.64213E+00 5.62884E-02 1.25650E+00 7.01956E-15-8.93704E-13
 -1      1135 1.88453E+01 5.67115E+00 5.84747E-02 1.72848E+00 1.07657E-14-8.12779E-13
 -1      1136 1.90311E+01 5.72745E+00 6.03974E-02 2.26960E+00 1.53176E-14-6.45816E-13
 -1      1137 1.94300E+01 5.84976E+00 6.91717E-02 2.92966E+00 2.32592E-14-3.12396E-13
 -1      1138 2.04520E+01 6.18157E+00 1.53193E-01 3.87940E+00 2.68674E-14 3.77535E-13
 -1      1139 2.52158E+01 7.99389E+00 1.43037E+00 5.84679E+00 6.53921E-14 1.87139E-12
 -1      1140 2.88113E+01 3.61641E+00 1.27144E+00-4.21725E+00-1.97037E-13 3.06838E-12
 -1      1141 2.02252E+01-1.77708E-01-6.16275E-01-1.09991E-01-6.00006E-14 2.61183E-12
 -1      1142 1.88299E+01-9.63539E-02-2.36359E-01 6.24830E-02-2.40051E-14 1.92127E-12
 -1      1143 1.84950E+01-4.80819E-02-5.96162E-02 4.04846E-02-1.87047E-14 1.41594E-12
 -1      1144 1.84389E+01-2.45954E-02-1.51771E-02 2.67705E-02-9.51257E-15 1.07843E-12
 -1      1145 1.85196E+01-1.30427E-02-4.94085E-03 1.90215E-02-1.08971E-14 8.47208E-13
 -1      1146 1.86651E+01-6.61067E-03-1.45167E-03 1.40567E-02-3.66612E-15 7.00136E-13
 -1      1147 1.88361E+01-2.85824E-03 5.69945E-04 1.06093E-02 8.26227E-15 6.54199E-13
 -1      1148 1.90102E+01-6.51627E-04 1.86474E-03 8.05042E-03-4.67942E-16 5.09190E-13
 -1      1149 1.91748E+01 6.00158E-04 2.57001E-03 6.07085E-03-1.17575E-15 3.23076E-13
 -1      1150 1.93234E+01 1.23313E-03 2.81343E-03 4.50769E-03 4.83779E-15 1.98059E-13
 -1      1151 1.94535E+01 1.45037E-03 2.72077E-03 3.26485E-03 7.77689E-15 2.04876E-13
 -1      1152 1.95653E+01 1.37888E-03 2.38915E-03 2.27903E-03-4.26484E-16 1.06703E-14
 -1      1153 1.96608E+01 1.09772E-03 1.88213E-03 1.50568E-03 6.53363E-15 1.46682E-13
 -1      1154 1.97436E+01 6.52920E-04 1.23393E-03 9.13313E-04-1.68744E-14 1.38391E-13
 -1      1155 1.98180E+01 6.61388E-05 4.54402E-04 4.81609E-04-2.79114E-14 4.84237E-14
 -1      1156 1.98897E+01-6.59898E-04-4.67293E-04 2.01669E-04 9.04835E-15 4.82840E-14
 -1      1157 1.99652E+01-1.53752E-03-1.56014E-03 7.76055E-05-1.08914E-14-2.57058E-14
 -1      1158 2.00522E+01-2.59081E-03-2.86950E-03 1.29498E-04-5.26779E-15-1.88579E-13
 -1      1159 2.01601E+01-3.85188E-03-4.45513E-03 3.97939E-04-2.49793E-14-2.84132E-13
 -1      1160 2.03001E+01-5.35496E-03-6.38744E-03 9.50593E-04-2.84156E-14-4.10183E-13
 -1      1161 2.04860E+01-7.12583E-03-8.73825E-03 1.89117E-03-3.63143E-15-4.75894E-13
 -1      1162 2.07343E+01-9.16137E-03-1.15589E-02 3.37040E-03 3.17429E-14-3.62921E-13
 -1      1163 2.10646E+01-1.13908E-02-1.48307E-02 5.59633E-03-4.49687E-14-3.90426E-13
 -1      1164 2.14995E+01-1.36053E-02-1.83595E-02 8.83473E-03 1.92728E-15-5.68486E-13
 -1      1165 2.20626E+01-1.53367E-02-2.15686E-02 1.33759E-02-1.13822E-14-4.01179E-13
 -1      1166 2.27751E+01-1.56689E-02-2.31270E-02 1.94143E-02 4.74447E-15-3.33227E-13
 -1      1167 2.36460E+01-1.29935E-02-2.03880E-02 2.67346E-02-6.31624E-15-3.64039E-13
 -1      1168 2.46546E+01-4.82194E-03-8.81696E-03 3.40415E-02-1.74259E-14-3.75720E-13
 -1      1169 2.57213E+01 1.19686E-02 1.78055E-02 3.77990E-02 1.79683E-14-1.30215E-13
 -1      1170 2.66659E+01 3.96264E-02 6.44994E-02 3.08564E-02 2.72321E-14-8.24098E-14
 -1      1171 2.71732E+01 7.55255E-02 1.26796E-01 2.49531E-03 1.76682E-14-1.70128E-13
 -1      1172 2.68181E+01 1.05411E-01 1.77666E-01-5.60240E-02-7.89906E-15-1.27912E-13
 -1      1173 2.52429E+01 9.96541E-02 1.63481E-01-1.36458E-01 2.85345E-14-7.24976E-14
 -1      1174 2.25292E+01 2.91368E-02 3.60962E-02-1.96851E-01 4.06053E-14-1.77330E-13
 -1      1175 1.95428E+01-9.38017E-02-1.73286E-01-1.75424E-01 2.91355E-14-4.39176E-13
 -1      1176 1.77199E+01-1.85172E-01-3.23501E-01-5.17470E-02 5.15490E-14-6.24549E-13
 -1      1177 1.80935E+01-1.61483E-01-2.85606E-01 1.05519E-01 6.52776E-15-7.15747E-13
 -1      1178 2.03957E+01-4.54566E-02-9.36946E-02 1.93826E-01 1.62600E-14-8.67140E-13
 -1      1179 2.33015E+01 6.47225E-02 9.75652E-02 1.78123E-01-3.02232E-14-9.06469E-13
 -1      1180 2.55046E+01 1.09884E-01 1.82226E-01 1.02803E-01 1.63914E-14-7.53522E-13
 -1      1181 2.64440E+01 9.85549E-02 1.66199E-01 2.69342E-02-1.21431E-17-4.75883E-13
 -1      1182 2.62469E+01 6.39378E-02 1.06693E-01-2.12405E-02 4.41843E-14-6.17681E-13
 -1      1183 2.53262E+01 2.97055E-02 4.83086E-02-4.20272E-02 4.53760E-15-5.52496E-13
 -1      1184 2.40785E+01 4.53120E-03 7.35832E-03-4.58828E-02 6.11609E-14-6.07209E-13
 -1      1185 2.27801E+01-1.19656E-02-1.79047E-02-4.18765E-02 2.55224E-14-3.09405E-13
 -1      1186 2.16009E+01-2.32272E-02-3.52958E-02-3.43569E-02 6.01175E-14-1.72935E-13
 -1      1187 2.06581E+01-3.19005E-02-4.99014E-02-2.22271E-02 9.50021E-15 8.63407E-14
 -1      1188 2.00773E+01-4.12950E-02-5.06882E-02 1.55956E-03-1.63689E-14-6.54671E-13
 -1      1189 1.99572E+01 1.38483E-02 2.56305E-02 1.55421E-02 9.91069E-14-1.96863E-13
 -1      1190 2.77910E+01 5.25745E-01 3.77204E-01 1.96669E+00-3.69704E-14 3.12617E-12
 -1      1191 2.00826E+01-6.62342E-02-5.73613E-01 1.29499E-01 2.63886E-14 2.37602E-12
 -1      1192 1.89046E+01-4.05951E-02-1.93232E-01 1.94273E-02 1.87914E-14 1.68851E-12
 -1      1193 1.85240E+01-2.14212E-02-5.05549E-02 1.46993E-03 1.52781E-14 1.22293E-12
 -1      1194 1.84516E+01-1.23995E-02-1.33953E-02-4.06366E-03 1.09272E-14 8.95121E-13
 -1      1195 1.85259E+01-7.39991E-03-4.64509E-03-5.51468E-03 6.55357E-15 6.50001E-13
 -1      1196 1.86684E+01-4.32923E-03-1.92279E-03-5.68909E-03 7.96048E-15 4.28664E-13
 -1      1197 1.88378E+01-2.36933E-03-3.46344E-04-5.38957E-03-1.79643E-14 4.01713E-13
 -1      1198 1.90111E+01-1.11740E-03 7.53599E-04-4.86557E-03 5.25885E-15 1.98412E-13
 -1      1199 1.91753E+01-3.44797E-04 1.43042E-03-4.22918E-03 1.21944E-14-7.66314E-15
 -1      1200 1.93239E+01 9.09647E-05 1.74213E-03-3.54592E-03 9.14087E-15-1.99204E-13
 -1      1201 1.94542E+01 2.82335E-04 1.76896E-03-2.85637E-03 1.03245E-14-2.83274E-13
 -1      1202 1.95664E+01 2.89693E-04 1.58052E-03-2.18444E-03-7.60365E-15-3.54499E-13
 -1      1203 1.96626E+01 1.51287E-04 1.22495E-03-1.54283E-03-1.21782E-14-2.75862E-13
 -1      1204 1.97463E+01-1.10446E-04 7.29609E-04-9.37182E-04 1.60646E-14-4.76111E-13
 -1      1205 1.98218E+01-4.84197E-04 1.05148E-04-3.69871E-04 7.83518E-15-5.96138E-13
 -1      1206 1.98945E+01-9.65533E-04-6.49808E-04 1.56224E-04-2.75548E-14-5.57147E-13
 -1      1207 1.99706E+01-1.55218E-03-1.54311E-03 6.33576E-04 1.71447E-14-6.04621E-13
 -1      1208 2.00569E+01-2.23800E-03-2.58180E-03 1.04520E-03 5.39309E-14-9.89696E-13
 -1      1209 2.01612E+01-3.00447E-03-3.76162E-03 1.35888E-03-3.88952E-14-7.44727E-13
 -1      1210 2.02921E+01-3.80871E-03-5.05118E-03 1.52033E-03 1.86113E-14-4.83450E-13
 -1      1211 2.04583E+01-4.56646E-03-6.36822E-03 1.44561E-03-2.98732E-14-5.18575E-13
 -1      1212 2.06686E+01-5.12950E-03-7.54489E-03 1.01426E-03 4.44620E-15-7.48908E-13
 -1      1213 2.09299E+01-5.25875E-03-8.28022E-03 6.71411E-05 2.86937E-14-1.09191E-12
 -1      1214 2.12460E+01-4.59954E-03-8.08318E-03-1.58292E-03-3.04223E-14-1.10094E-12
 -1      1215 2.16133E+01-2.67678E-03-6.22388E-03-4.11159E-03 4.02011E-15-5.44098E-13
 -1      1216 2.20168E+01 1.05306E-03-1.74073E-03-7.58965E-03-1.73496E-14-3.06385E-13
 -1      1217 2.24239E+01 7.03113E-03 6.39755E-03-1.18057E-02 3.95721E-14-4.12601E-13
 -1      1218 2.27776E+01 1.52317E-02 1.88199E-02-1.59930E-02-2.06293E-14-4.57219E-13
 -1      1219 2.29936E+01 2.45848E-02 3.48277E-02-1.85282E-02 3.97857E-14-5.61968E-13
 -1      1220 2.29647E+01 3.23802E-02 5.11226E-02-1.68527E-02 2.27938E-14-9.89799E-13
 -1      1221 2.25832E+01 3.42722E-02 6.09525E-02-8.09520E-03 6.64399E-16-9.52287E-13
 -1      1222 2.17862E+01 2.57825E-02 5.52962E-02 9.14652E-03-1.67622E-14-6.44748E-13
 -1      1223 2.06187E+01 5.63708E-03 2.75982E-02 3.22062E-02-4.34505E-15-4.64941E-13
 -1      1224 1.92816E+01-2.08247E-02-1.90177E-02 5.29349E-02-5.08815E-14-3.20806E-13
 -1      1225 1.81150E+01-4.23357E-02-6.81323E-02 6.03034E-02 7.39860E-16-3.03250E-13
 -1      1226 1.74804E+01-4.83767E-02-9.67017E-02 4.74532E-02 8.53068E-14-8.36888E-13
 -1      1227 1.75866E+01-3.68945E-02-9.01645E-02 1.78022E-02 4.60161E-14-6.91700E-13
 -1      1228 1.83738E+01-1.54225E-02-5.33197E-02-1.61096E-02-2.83467E-14-4.22461E-13
 -1      1229 1.95460E+01 5.39605E-03-5.88484E-03-4.06700E-02-1.83520E-14-3.56735E-13
 -1      1230 2.07257E+01 1.86672E-02 3.19350E-02-4.92557E-02 2.94929E-14-5.69322E-13
 -1      1231 2.16165E+01 2.31757E-02 5.03773E-02-4.36528E-02 2.17101E-14-2.53887E-13
 -1      1232 2.20806E+01 2.11707E-02 5.08761E-02-3.01474E-02 5.39356E-14-4.56871E-13
 -1      1233 2.21252E+01 1.55996E-02 4.02706E-02-1.48451E-02 7.85134E-14-8.17351E-13
 -1      1234 2.18452E+01 8.53955E-03 2.50797E-02-1.41942E-03-1.89362E-14-1.11232E-12
 -1      1235 2.13683E+01 9.21326E-04 8.83020E-03 8.80016E-03 2.76152E-14-1.26481E-12
 -1      1236 2.08240E+01-7.02327E-03-7.59247E-03 1.55804E-02 3.27101E-14-1.49253E-12
 -1      1237 2.03355E+01-1.42120E-02-2.25468E-02 1.78036E-02 4.29724E-14-1.70290E-12
 -1      1238 2.00244E+01-1.44424E-02-2.44173E-02 1.04574E-02 4.40780E-14-1.31830E-12
 -1      1239 1.99760E+01 8.64884E-03 1.88290E-02-8.59068E-03-7.60099E-14-6.78272E-13
 -1      1240 2.00082E+01-2.49971E-02 1.72724E-02-8.21211E-03-5.65331E-13-7.08103E-15
 -1      1241 1.99808E+01 2.71624E-02-2.73702E-02-4.60806E-03-5.44848E-13-1.20398E-14
 -1      1242 1.99806E+01 3.40794E-01-2.99249E-02 1.08359E-02 1.42414E-13-2.83228E-14
 -1      1243 1.99859E+01 8.65042E-01-2.11757E-02 1.85254E-02 3.08021E-13-5.60489E-15
 -1      1244 1.99933E+01 1.52736E+00-1.00032E-02 2.28183E-02 6.45272E-13-9.63783E-14
 -1      1245 2.00024E+01 2.24852E+00 2.89166E-03 2.45069E-02-1.19422E-13-1.29762E-14
 -1      1246 2.00131E+01 2.94969E+00 1.73796E-02 2.33392E-02-8.66193E-13-1.76074E-15
 -1      1247 2.00238E+01 3.53925E+00 3.21474E-02 1.81640E-02-3.34163E-13 4.68349E-14
 -1      1248 2.00321E+01 3.91118E+00 4.38265E-02 9.15435E-03 3.21488E-13-3.52114E-14
 -1      1249 2.00357E+01 3.98680E+00 4.91620E-02-2.64517E-03 5.56161E-14 2.13640E-14
 -1      1250 2.00329E+01 3.73039E+00 4.59597E-02-1.52296E-02 2.29627E-13-1.44811E-13
 -1      1251 2.00249E+01 3.16949E+00 3.43125E-02-2.62612E-02-4.10273E-13 1.58927E-14
 -1      1252 2.00110E+01 2.38012E+00 1.48828E-02-3.30785E-02-2.71339E-13 7.49335E-15
 -1      1253 1.99941E+01 1.48031E+00-1.11970E-02-3.46208E-02 5.72008E-14 2.50022E-14
 -1      1254 1.99752E+01 6.34934E-01-4.17950E-02-3.04192E-02 1.23724E-13 5.29633E-15
 -1      1255 1.99615E+01 1.01205E-01-4.29994E-02 8.79230E-03 9.53170E-14-1.42144E-13
 -1      1256 2.00162E+01-4.10903E-02 2.66233E-02 1.25367E-02 7.88388E-14 1.41282E-13
 -1      1257-1.05438E+00-2.48142E+01-3.80310E+00-2.28094E+00 5.37292E-13 1.92034E-13
 -1      1258-1.81679E+00-1.50884E+01-3.02588E+00-3.86852E+00 1.32694E-12 3.95961E-13
 -1      1259 6.83405E-01-1.97267E+00-1.77420E+00 3.20209E-01 9.32587E-13 6.52256E-13
 -1      1260 1.05715E+01 8.37139E+00-6.08254E-02 9.23750E+00 1.26743E-12 1.39755E-12
 -1      1261 2.77338E+01 1.12540E+01 1.62534E+00 1.69121E+01 1.25533E-12 1.87139E-12
 -1      1262 4.70648E+01 8.04314E+00 2.99585E+00 1.76479E+01 9.10383E-13 2.14162E-12
 -1      1263 6.24389E+01 3.26462E+00 3.92010E+00 1.05068E+01 3.71495E-13 1.76470E-12
 -1      1264 6.65025E+01 1.76197E+00 4.08375E+00-2.14969E+00 1.06665E-13 1.30812E-13
 -1      1265 5.76911E+01 4.75227E+00 3.61269E+00-1.38488E+01 3.16525E-13-9.41469E-13
 -1      1266 3.90070E+01 9.71532E+00 2.41923E+00-1.81298E+01 9.85878E-13-1.70175E-12
 -1      1267 1.93580E+01 1.10360E+01 8.95614E-01-1.40644E+01 1.22857E-12-1.62648E-12
 -1      1268 5.33319E+00 5.29218E+00-7.56275E-01-5.38828E+00 1.28542E-12-9.69891E-13
 -1      1269-8.76776E-01-6.15602E+00-2.21319E+00 1.89916E+00 1.87295E-12-9.33809E-13
 -1      1270-1.60839E+00-1.82592E+01-3.23372E+00 3.92968E+00 2.39342E-12-6.68132E-13
 -1      1271-8.80361E-01-2.53215E+01-3.78121E+00 8.68401E-01 1.18033E-12-1.64511E-13
 -1      1272-1.48406E+00-2.29908E+01-3.66684E+00-3.32779E+00-5.87308E-14-5.76345E-14
 -1      1273-1.95523E+00-1.38190E+01-3.04550E+00-4.28600E+00-1.59650E-12-6.67522E-13
 -1      1274 1.14146E+00-1.17676E+00-1.74925E+00 7.81489E-01-2.06057E-12-1.46549E-12
 -1      1275 1.16683E+01 8.45609E+00-2.84770E-03 9.53749E+00-1.85052E-12-1.66533E-12
 -1      1276 2.91977E+01 1.07333E+01 1.62396E+00 1.67940E+01-1.13021E-12-1.69531E-12
 -1      1277 4.99508E+01 7.27018E+00 3.16864E+00 1.72756E+01-6.46372E-13-1.48681E-12
 -1      1278 6.57962E+01 2.69833E+00 4.27020E+00 8.77640E+00-8.58619E-14-5.09148E-13
 -1      1279 6.82415E+01 2.15164E+00 4.46061E+00-4.63646E+00-1.29875E-13 7.05602E-13
 -1      1280 5.75669E+01 5.57075E+00 3.79526E+00-1.53104E+01-4.86666E-13 1.66134E-12
 -1      1281 3.90908E+01 9.97790E+00 2.46345E+00-1.84057E+01-1.24245E-12 2.10454E-12
 -1      1282 2.03803E+01 1.08294E+01 8.76053E-01-1.43720E+01-1.66045E-12 2.25042E-12
 -1      1283 6.17728E+00 5.42287E+00-7.88106E-01-5.90529E+00-1.19860E-12 1.18061E-12
 -1      1284-7.81210E-01-5.68252E+00-2.31207E+00 1.73848E+00-9.19487E-13 6.03406E-13
 -1      1285-2.07254E+00-1.72814E+01-3.31404E+00 4.35148E+00-1.92302E-12 4.75009E-13
 -1      1286-1.19002E+00-2.51749E+01-3.86475E+00 2.31881E+00-1.04999E-12 3.07261E-13
 -1      1287 2.22648E+01 1.83808E+00-7.25864E-01-2.79100E+00-7.33302E-14 1.75826E-12
 -1      1288 2.03577E+01 4.69002E+00-4.86575E-02-3.30792E+00-2.36144E-13 1.68823E-13
 -1      1289 2.08649E+01 4.81046E+00-1.13402E-01-4.16200E+00-2.92988E-13 5.49477E-13
 -1      1290 1.95308E+01 4.99322E+00-1.96038E-02-2.65578E+00-2.55754E-13-3.74336E-13
 -1      1291 1.98284E+01 5.09001E+00 2.39832E-04-3.04672E+00-2.86389E-13-1.36821E-13
 -1      1292 2.05243E+01 3.95274E+00-2.59013E-02-3.07598E+00-4.28782E-13 1.50810E-13
 -1      1293 1.91838E+01 5.08413E+00-3.63404E-03-2.07158E+00-2.16988E-13-6.58570E-13
 -1      1294 1.93327E+01 5.13927E+00 1.05911E-02-2.36470E+00-2.42438E-13-5.27939E-13
 -1      1295 1.97533E+01 4.36593E+00-2.42737E-02-2.49074E+00-4.03533E-13-3.01932E-13
 -1      1296 1.90094E+01 5.13090E+00 3.30677E-03-1.56598E+00-1.70421E-13-8.11214E-13
 -1      1297 1.90865E+01 5.16068E+00 1.25622E-02-1.81599E+00-1.92804E-13-7.40207E-13
 -1      1298 1.93925E+01 4.55556E+00-1.95314E-02-1.93243E+00-3.31894E-13-5.49435E-13
 -1      1299 1.89169E+01 5.16072E+00 6.62854E-03-1.11799E+00-1.24088E-13-8.90168E-13
 -1      1300 1.89588E+01 5.17691E+00 1.27433E-02-1.33960E+00-1.40627E-13-8.51331E-13
 -1      1301 1.92065E+01 4.66122E+00-1.60504E-02-1.44602E+00-2.57508E-13-6.74297E-13
 -1      1302 1.88659E+01 5.18064E+00 8.22455E-03-6.94410E-01-8.27060E-14-9.34459E-13
 -1      1303 1.88886E+01 5.18943E+00 1.20495E-02-9.04770E-01-9.57108E-14-9.13991E-13
 -1      1304 1.91044E+01 4.72667E+00-1.39413E-02-1.00502E+00-1.82588E-13-7.47288E-13
 -1      1305 1.88422E+01 5.19261E+00 9.31165E-03-2.89420E-01-4.08734E-14-9.57422E-13
 -1      1306 1.88520E+01 5.19640E+00 1.10863E-02-4.91691E-01-5.23028E-14-9.43520E-13
 -1      1307 1.90491E+01 4.76570E+00-1.29080E-02-5.89258E-01-1.13053E-13-7.76518E-13
 -1      1308 1.88385E+01 5.19755E+00 1.02400E-02 1.08310E-01-7.29755E-15-9.67159E-13
 -1      1309 1.88382E+01 5.19741E+00 1.01680E-02-9.15199E-02-1.83256E-14-9.65091E-13
 -1      1310 1.90252E+01 4.78372E+00-1.24725E-02-1.89258E-01-4.71661E-14-8.05477E-13
 -1      1311 1.88537E+01 5.19603E+00 1.11743E-02 5.09072E-01 3.22841E-14-9.54629E-13
 -1      1312 1.88432E+01 5.19196E+00 9.24589E-03 3.06381E-01 1.94786E-14-9.61838E-13
 -1      1313 1.90260E+01 4.78308E+00-1.24918E-02 2.05952E-01 8.57653E-15-8.12461E-13
 -1      1314 1.88918E+01 5.18827E+00 1.21035E-02 9.23635E-01 7.36182E-14-9.38485E-13
 -1      1315 1.88683E+01 5.17932E+00 8.15415E-03 7.12322E-01 6.24364E-14-9.50545E-13
 -1      1316 1.90517E+01 4.76363E+00-1.29780E-02 6.06657E-01 7.75569E-14-8.00981E-13
 -1      1317 1.89631E+01 5.17517E+00 1.29031E-02 1.35709E+00 1.17979E-13-8.82926E-13
 -1      1318 1.89202E+01 5.15853E+00 6.46599E-03 1.13409E+00 1.01914E-13-9.14546E-13
 -1      1319 1.91086E+01 4.72317E+00-1.40010E-02 1.02024E+00 1.47746E-13-7.72625E-13
 -1      1320 1.90950E+01 5.15659E+00 1.28205E-02 1.84191E+00 1.78829E-13-7.87394E-13
 -1      1321 1.90159E+01 5.12636E+00 3.15575E-03 1.58904E+00 1.56374E-13-8.45130E-13
 -1      1322 1.92134E+01 4.65475E+00-1.61488E-02 1.46357E+00 2.27391E-13-6.98077E-13
 -1      1323 1.93429E+01 5.13324E+00 1.01566E-02 2.39904E+00 2.42084E-13-6.04614E-13
 -1      1324 1.91932E+01 5.07625E+00-4.36919E-03 2.10177E+00 2.08472E-13-7.17794E-13
 -1      1325 1.94052E+01 4.54228E+00-1.99917E-02 1.95940E+00 3.18663E-13-5.94590E-13
 -1      1326 1.98537E+01 5.09912E+00 6.02373E-03 3.08505E+00 2.79776E-13-2.36561E-13
 -1      1327 1.95421E+01 4.98423E+00-2.05425E-02 2.69774E+00 2.48981E-13-4.63497E-13
 -1      1328 1.97736E+01 4.34626E+00-2.45652E-02 2.52927E+00 4.01410E-13-3.78558E-13
 -1      1329 2.11010E+01 4.90673E+00 8.27645E-03 4.05481E+00 2.63178E-13 5.09939E-13
 -1      1330 2.03322E+01 4.73363E+00-4.79821E-02 3.41733E+00 2.49398E-13 5.27356E-14
 -1      1331 2.05626E+01 3.91581E+00-2.24232E-02 3.17951E+00 4.30302E-13 4.50889E-14
 -1      1332 2.72006E+01 3.20531E+00 9.29084E-01 4.58268E+00 1.42997E-13 1.98819E-12
 -1      1333 2.20177E+01 3.52204E+00-1.82011E-01 3.88568E+00 1.38028E-13 9.51461E-13
 -1      1334 2.21098E+01 2.56176E+00-3.25744E-02 3.45749E+00 4.33830E-13 7.28584E-13
 -1      1335 2.14242E+01 3.59627E-01-7.63523E-01 1.18432E+00 2.44971E-13 1.87722E-12
 -1      1336 2.19985E+01 1.31396E-01-4.00864E-01-1.28618E+00-2.30024E-13 1.81893E-12
 -1      1337 2.06753E+01 3.06728E-01-1.64831E-01-8.06180E-01-2.21038E-13 1.55819E-12
 -1      1338 2.00772E+01 1.53467E-01-7.35432E-02-4.02569E-01-1.68591E-13 1.42983E-12
 -1      1339 1.96069E+01 9.11851E-02-1.49436E-02-3.30417E-01-1.65975E-13 1.18049E-12
 -1      1340 2.09693E+01 3.69191E-01-1.04238E-01-1.27474E+00-3.85733E-13 8.67480E-13
 -1      1341 1.92491E+01 6.45217E-02 3.01848E-03-1.35789E-01-1.49379E-13 1.08290E-12
 -1      1342 1.90942E+01 4.12839E-02 1.32024E-02-1.17968E-01-1.37374E-13 8.77388E-13
 -1      1343 1.99178E+01 1.33901E-01-3.51623E-02-5.04852E-01-3.05509E-13 6.98913E-13
 -1      1344 1.89335E+01 3.15077E-02 1.32397E-02-2.84555E-02-9.81949E-14 7.76528E-13
 -1      1345 1.89135E+01 1.93550E-02 1.10634E-02-1.90963E-02-1.00948E-13 6.39107E-13
 -1      1346 1.94398E+01 5.54760E-02-8.51028E-03-1.70840E-01-2.33947E-13 5.03314E-13
 -1      1347 1.88570E+01 1.59757E-02 8.78460E-03 2.44780E-02-6.25723E-14 5.82522E-13
 -1      1348 1.88986E+01 9.05188E-03 6.44111E-03 2.90874E-02-4.98208E-14 5.03724E-13
 -1      1349 1.92301E+01 2.43339E-02-3.50178E-03-1.21291E-02-1.55783E-13 3.39240E-13
 -1      1350 1.88982E+01 7.83576E-03 4.68262E-03 5.02076E-02-5.61769E-14 4.81320E-13
 -1      1351 1.89677E+01 3.50264E-03 3.65026E-03 5.20901E-02-2.94271E-14 4.27212E-13
 -1      1352 1.91724E+01 1.01450E-02-2.21815E-03 6.64165E-02-9.89612E-14 2.63732E-13
 -1      1353 1.89968E+01 3.18729E-03 2.45902E-03 6.08906E-02 2.61737E-15 4.04993E-13
 -1      1354 1.90765E+01 3.54553E-04 2.22561E-03 6.11601E-02-1.75829E-14 3.73914E-13
 -1      1355 1.91976E+01 2.75961E-03-1.32807E-03 1.03210E-01-3.77670E-14 2.00557E-13
 -1      1356 1.91197E+01 4.69695E-04 1.35590E-03 6.29093E-02-3.81006E-14 3.42481E-13
 -1      1357 1.91998E+01-1.40295E-03 1.46230E-03 6.22428E-02-4.97856E-14 2.58899E-13
 -1      1358 1.92659E+01-1.28321E-03-5.71296E-04 1.16569E-01-7.31781E-14 1.22550E-13
 -1      1359 1.92481E+01-1.07049E-03 7.79407E-04 6.00176E-02-4.89587E-14 2.39045E-13
 -1      1360 1.93232E+01-2.28721E-03 1.00412E-03 5.88573E-02-5.57212E-14 1.78042E-13
 -1      1361 1.93536E+01-3.42681E-03-2.57283E-05 1.16514E-01-8.97737E-14 1.01734E-13
 -1      1362 1.93716E+01-1.84901E-03 4.53025E-04 5.45948E-02-4.92046E-14 1.49745E-13
 -1      1363 1.94390E+01-2.59885E-03 7.06312E-04 5.32383E-02-1.57749E-14 1.07094E-13
 -1      1364 1.94469E+01-4.38936E-03 3.05780E-04 1.09097E-01-9.15879E-14 8.49011E-14
 -1      1365 1.94846E+01-2.11650E-03 2.61216E-04 4.82137E-02-4.74658E-15 5.42884E-14
 -1      1366 1.95436E+01-2.52478E-03 5.08893E-04 4.68644E-02-3.40208E-14 3.19796E-15
 -1      1367 1.95379E+01-4.58135E-03 4.65542E-04 9.82124E-02-3.87100E-14-2.85439E-14
 -1      1368 1.95853E+01-2.03035E-03 1.51838E-04 4.19455E-02-1.61571E-14 2.48933E-15
 -1      1369 1.96362E+01-2.18294E-03 3.82617E-04 4.07450E-02 6.69362E-15-2.22291E-14
 -1      1370 1.96226E+01-4.25408E-03 4.98798E-04 8.64631E-02-4.90673E-14-8.49709E-14
 -1      1371 1.96739E+01-1.68892E-03 9.71311E-05 3.65448E-02 4.05975E-14-4.59799E-15
 -1      1372 1.97180E+01-1.64492E-03 3.10468E-04 3.55967E-02 1.41296E-14 2.40888E-14
 -1      1373 1.96999E+01-3.56229E-03 4.39956E-04 7.56510E-02 1.99086E-14-7.11361E-14
 -1      1374 1.97525E+01-1.14953E-03 7.99480E-05 3.25762E-02-5.02360E-15 3.30632E-14
 -1      1375 1.97917E+01-9.48576E-04 2.81481E-04 3.19627E-02-4.28931E-14-6.70118E-15
 -1      1376 1.97703E+01-2.59496E-03 3.11617E-04 6.70836E-02 6.48236E-15-4.94166E-14
 -1      1377 1.98245E+01-4.38625E-04 8.85480E-05 3.05061E-02-7.15071E-14 3.71255E-14
 -1      1378 1.98612E+01-1.05767E-04 2.88262E-04 3.03022E-02-2.38388E-14-1.82001E-14
 -1      1379 1.98361E+01-1.39199E-03 1.26607E-04 6.17887E-02-4.08336E-14-3.94925E-14
 -1      1380 1.98941E+01 4.42083E-04 1.14077E-04 3.07746E-02 1.63095E-14-6.79150E-14
 -1      1381 1.99313E+01 8.92652E-04 3.25588E-04 3.10592E-02-2.45104E-14-7.18261E-14
 -1      1382 1.99004E+01 4.60440E-05-1.09976E-04 6.06746E-02-6.01618E-14-6.33486E-14
 -1      1383 1.99669E+01 1.51152E-03 1.48871E-04 3.38540E-02-3.03209E-14-7.93395E-14
 -1      1384 2.00080E+01 2.07313E-03 3.89248E-04 3.47197E-02-2.18203E-14-1.54918E-13
 -1      1385 1.99675E+01 1.75175E-03-3.99185E-04 6.46574E-02-2.37726E-14-1.34617E-13
 -1      1386 2.00493E+01 2.80630E-03 1.84921E-04 4.02981E-02-1.90377E-14-1.59363E-13
 -1      1387 2.00987E+01 3.47612E-03 4.74742E-04 4.18595E-02-4.39846E-14-2.07062E-13
 -1      1388 2.00429E+01 3.78676E-03-7.47012E-04 7.47649E-02-3.68666E-14-2.00264E-13
 -1      1389 2.01492E+01 4.37772E-03 2.12100E-04 5.07815E-02-6.83703E-14-2.15527E-13
 -1      1390 2.02119E+01 5.15189E-03 5.75424E-04 5.31828E-02-9.98537E-14-3.23719E-13
 -1      1391 2.01329E+01 6.23779E-03-1.16331E-03 9.22207E-02-9.69251E-14-2.47912E-13
 -1      1392 2.02760E+01 6.28717E-03 2.15833E-04 6.61279E-02-5.46582E-14-3.19938E-13
 -1      1393 2.03581E+01 7.15315E-03 6.79657E-04 6.95473E-02-4.32928E-14-3.91440E-13
 -1      1394 2.02453E+01 9.21066E-03-1.66054E-03 1.18507E-01-1.10824E-13-3.04996E-13
 -1      1395 2.04409E+01 8.59674E-03 1.73876E-04 8.73148E-02-3.28859E-14-3.70024E-13
 -1      1396 2.05498E+01 9.52029E-03 7.66463E-04 9.19653E-02-1.25221E-14-3.59601E-13
 -1      1397 2.03891E+01 1.28174E-02-2.25195E-03 1.55387E-01-4.29756E-14-3.49234E-13
 -1      1398 2.06572E+01 1.13493E-02 5.22069E-05 1.15433E-01 3.92898E-14-3.81763E-13
 -1      1399 2.08016E+01 1.22513E-02 7.99472E-04 1.21551E-01 4.68479E-14-3.12598E-13
 -1      1400 2.05752E+01 1.71471E-02-2.94824E-03 2.04863E-01-1.25713E-14-2.13198E-13
 -1      1401 2.09404E+01 1.45263E-02-1.99044E-04 1.51550E-01-2.33563E-14-2.83190E-13
 -1      1402 2.11305E+01 1.52419E-02 7.20344E-04 1.59364E-01-4.40514E-14-3.89146E-13
 -1      1403 2.08155E+01 2.22025E-02-3.75092E-03 2.68975E-01 5.76622E-15-2.72584E-13
 -1      1404 2.13076E+01 1.79640E-02-6.45788E-04 1.96390E-01-9.29400E-15-3.63565E-13
 -1      1405 2.15543E+01 1.81729E-02 4.46780E-04 2.06034E-01 1.03854E-14-3.61544E-13
 -1      1406 2.11237E+01 2.77686E-02-4.63889E-03 3.49325E-01-3.35348E-14-2.18962E-13
 -1      1407 2.17766E+01 2.11945E-02-1.35581E-03 2.49653E-01 1.83458E-14-3.72704E-13
 -1      1408 2.20901E+01 2.03094E-02-1.10842E-04 2.60996E-01 1.12067E-14-3.33506E-13
 -1      1409 2.15132E+01 3.31588E-02-5.54115E-03 4.46049E-01-2.36530E-15-2.31321E-13
 -1      1410 2.23624E+01 2.31688E-02-2.34709E-03 3.08728E-01-3.61148E-15-2.76577E-13
 -1      1411 2.27489E+01 2.01817E-02-9.85589E-04 3.21029E-01-5.78595E-15-2.99842E-13
 -1      1412 2.19956E+01 3.67613E-02-6.28359E-03 5.55827E-01 2.78397E-14-1.17143E-13
 -1      1413 2.30710E+01 2.18298E-02-3.46000E-03 3.66440E-01 7.36173E-16-2.89086E-13
 -1      1414 2.35262E+01 1.51661E-02-2.00027E-03 3.77739E-01-5.36639E-14-2.86738E-13
 -1      1415 2.25763E+01 3.53239E-02-6.49317E-03 6.68371E-01-1.56338E-14-2.35900E-13
 -1      1416 2.38883E+01 1.36144E-02-4.11491E-03 4.07614E-01 3.63510E-14-3.30420E-13
 -1      1417 2.43861E+01 1.19071E-03-2.50926E-03 4.13793E-01 6.20309E-14-2.21129E-13
 -1      1418 2.32472E+01 2.30816E-02-5.45137E-03 7.60872E-01 3.55345E-14-2.09774E-13
 -1      1419 2.47619E+01-6.69400E-03-3.01422E-03 4.05033E-01 3.00649E-14-1.19869E-13
 -1      1420 2.52386E+01-2.67033E-02-1.17006E-03 3.98752E-01 8.06655E-14-3.67553E-14
 -1      1421 2.39759E+01-8.60108E-03-1.94862E-03 7.90923E-01 1.07985E-13-1.33686E-13
 -1      1422 2.55769E+01-4.45423E-02 1.86034E-03 3.17738E-01 1.18395E-14-8.04183E-14
 -1      1423 2.59152E+01-7.13201E-02 3.76265E-03 2.88283E-01-1.02401E-14-4.31044E-14
 -1      1424 2.46914E+01-6.91220E-02 5.61567E-03 6.91573E-01 3.71387E-14-9.86650E-14
 -1      1425 2.61357E+01-1.00245E-01 1.20733E-02 9.95205E-02 3.73902E-14-1.04038E-13
 -1      1426 2.61650E+01-1.25613E-01 1.27503E-02 3.63025E-02 2.73948E-14-8.95881E-14
 -1      1427 2.52698E+01-1.60200E-01 1.83235E-02 3.79257E-01-4.53578E-14-2.69723E-14
 -1      1428 2.61651E+01-1.57615E-01 2.54542E-02-2.69113E-01 3.28210E-14-1.10984E-13
 -1      1429 2.57096E+01-1.61367E-01 2.16896E-02-3.65136E-01-5.04752E-14-1.02224E-13
 -1      1430 2.55330E+01-2.57671E-01 3.42459E-02-2.05017E-01-2.54085E-14 1.09687E-14
 -1      1431 2.54016E+01-1.72901E-01 3.23962E-02-7.19430E-01 4.65947E-15-1.20043E-13
 -1      1432 2.44043E+01-1.28265E-01 2.00318E-02-8.17231E-01 6.62803E-14-1.37154E-13
 -1      1433 2.52854E+01-2.93499E-01 4.45291E-02-1.00301E+00-1.56264E-14-9.00356E-14
 -1      1434 2.37956E+01-8.91327E-02 1.85954E-02-1.04309E+00-4.64212E-15-9.52571E-14
 -1      1435 2.24767E+01 9.71842E-03-3.85314E-03-1.07565E+00-4.38059E-14-2.10276E-13
 -1      1436 2.44256E+01-1.75824E-01 3.29583E-02-1.72983E+00-6.98747E-15-5.11535E-14
 -1      1437 2.17636E+01 9.54079E-02-2.09868E-02-9.60226E-01-8.88560E-14-2.17187E-13
 -1      1438 2.06519E+01 2.01242E-01-4.39524E-02-8.70157E-01-7.85483E-14-4.01415E-13
 -1      1439 2.31293E+01 1.13840E-01-1.25594E-02-1.89931E+00-9.82244E-14-7.62307E-14
 -1      1440 2.01965E+01 2.69632E-01-6.02977E-02-3.71849E-01-2.92787E-14-5.30825E-13
 -1      1441 1.98601E+01 3.02718E-01-6.77423E-02-1.87654E-01-2.39843E-14-5.46626E-13
 -1      1442 2.19528E+01 4.20067E-01-7.36573E-02-1.16231E+00-1.63716E-13-3.50981E-13
 -1      1443 1.99423E+01 2.84245E-01-6.36324E-02 4.31755E-01-1.62717E-14-7.80397E-13
 -1      1444 2.05576E+01 2.15896E-01-4.96760E-02 5.91070E-01-1.08545E-13-8.10921E-13
 -1      1445 2.15738E+01 5.14024E-01-9.50667E-02 2.25696E-01-1.17316E-13-6.70357E-13
 -1      1446 2.11032E+01 1.30406E-01-3.01340E-02 9.59426E-01-1.86623E-13-7.56076E-13
 -1      1447 2.23026E+01 1.83007E-02-5.99948E-03 1.00044E+00-8.00315E-15-8.89122E-13
 -1      1448 2.22145E+01 3.16901E-01-5.40988E-02 1.44433E+00-2.24189E-13-8.66043E-13
 -1      1449 2.29608E+01-5.49663E-02 6.83489E-03 9.66799E-01 3.81639E-16-8.05953E-13
 -1      1450 2.41400E+01-1.35856E-01 2.59918E-02 9.00129E-01-9.79486E-14-9.22790E-13
 -1      1451 2.34184E+01-1.16109E-02 6.68781E-03 1.82802E+00-2.04715E-14-9.27081E-13
 -1      1452 2.45919E+01-1.54163E-01 2.27031E-02 5.95966E-01 1.08651E-13-7.40547E-13
 -1      1453 2.53214E+01-1.78049E-01 3.14292E-02 4.91533E-01 1.21712E-13-6.52416E-13
 -1      1454 2.44917E+01-2.45023E-01 4.11025E-02 1.38351E+00 8.15684E-14-5.86361E-13
 -1      1455 2.54469E+01-1.56088E-01 1.93999E-02 1.34929E-01-4.36543E-14-6.39620E-13
 -1      1456 2.56225E+01-1.40968E-01 2.06974E-02 4.78993E-02-6.67140E-14-7.22963E-13
 -1      1457 2.50104E+01-2.97913E-01 4.30514E-02 5.68926E-01 7.22825E-14-5.22140E-13
 -1      1458 2.54606E+01-1.09107E-01 9.80842E-03-2.23597E-01 7.67962E-14-6.35525E-13
 -1      1459 2.52004E+01-8.09147E-02 8.07744E-03-2.75353E-01 8.34992E-14-6.08347E-13
 -1      1460 2.49220E+01-2.29589E-01 2.92440E-02-1.83763E-01 2.41439E-14-5.84940E-13
 -1      1461 2.48512E+01-5.64405E-02 2.48817E-03-4.27552E-01-9.77673E-14-4.53498E-13
 -1      1462 2.43391E+01-3.03126E-02 1.84070E-04-4.48874E-01 5.71938E-15-5.81118E-13
 -1      1463 2.43808E+01-1.29425E-01 1.39144E-02-6.81361E-01 6.58744E-14-4.07568E-13
 -1      1464 2.39015E+01-1.65580E-02-6.53730E-04-5.02771E-01 1.00230E-13-5.69642E-13
 -1      1465 2.32947E+01 3.10817E-03-2.84679E-03-5.04305E-01 1.61376E-13-4.70953E-13
 -1      1466 2.35858E+01-4.70032E-02 2.81292E-03-9.18213E-01 8.37663E-14-3.67165E-13
 -1      1467 2.28439E+01 9.24936E-03-1.15058E-03-4.92331E-01 1.80642E-13-5.29077E-13
 -1      1468 2.22498E+01 2.35049E-02-3.38496E-03-4.82355E-01 4.28234E-14-2.76147E-13
 -1      1469 2.27041E+01 7.26696E-03-3.88158E-03-9.61967E-01 1.90555E-13-5.03458E-13
 -1      1470 2.18373E+01 2.64471E-02-1.34741E-03-4.27838E-01 2.00534E-15-2.20868E-13
 -1      1471 2.13259E+01 3.77955E-02-3.85623E-03-4.10194E-01 1.04825E-13-1.38313E-13
 -1      1472 2.18541E+01 4.18017E-02-7.98307E-03-8.79625E-01 1.59948E-13-4.03987E-13
 -1      1473 2.09863E+01 4.13445E-02-3.08173E-03-3.23320E-01 1.46218E-13-2.55481E-13
 -1      1474 2.06124E+01 5.13738E-02-4.57212E-03-2.97503E-01-3.11643E-15-2.53671E-13
 -1      1475 2.11156E+01 6.95119E-02-1.09500E-02-7.10119E-01 5.04822E-14-5.03379E-13
 -1      1476 2.03648E+01 6.13644E-02-4.49320E-03-1.78726E-01-6.03870E-14-2.05763E-13
 -1      1477 2.01738E+01 5.95123E-02-8.54320E-04-1.45320E-01 7.25938E-15-1.37425E-13
 -1      1478 2.05387E+01 1.01317E-01-1.26443E-02-4.68779E-01 1.93118E-14-3.64577E-13
 -1      1479 2.00053E+01 2.31272E-02 1.15021E-03 2.18932E-03-1.03281E-14 4.01853E-14
 -1      1480 2.01163E+01 1.03716E-01-6.28885E-03-1.41778E-01 6.76507E-14-7.04571E-14
 -1      1481 2.02560E+01 7.54836E-02-1.52113E-01 4.84235E-01 2.06602E-13 1.41711E-12
 -1      1482 2.15269E+01 2.16124E-01-2.29292E-01 7.21247E-01 1.83867E-13 1.75254E-12
 -1      1483 2.17256E+01 8.81831E-01-8.54519E-02 2.06556E+00 3.66360E-13 1.08888E-12
 -1      1484 1.93268E+01 3.23725E-02-2.13371E-02 1.86389E-01 1.51126E-13 1.01698E-12
 -1      1485 1.97480E+01 1.13604E-01-6.27145E-02 2.38394E-01 1.45852E-13 1.26103E-12
 -1      1486 2.02997E+01 1.87697E-01-5.51879E-02 7.86886E-01 3.16872E-13 8.05690E-13
 -1      1487 1.89440E+01 1.51066E-02 5.66551E-03 5.39396E-02 1.02441E-13 7.26121E-13
 -1      1488 1.90832E+01 5.16021E-02 9.67601E-04 8.02393E-02 1.06488E-13 9.01734E-13
 -1      1489 1.95538E+01 7.17941E-02-1.21634E-02 2.99759E-01 2.32626E-13 5.75047E-13
 -1      1490 1.88324E+01 7.11085E-03 6.98418E-03-8.52683E-03 8.41683E-14 4.99619E-13
 -1      1491 1.88477E+01 2.58361E-02 1.10884E-02 5.85443E-03 7.71353E-14 6.29871E-13
 -1      1492 1.92175E+01 3.10270E-02-2.45100E-03 8.43152E-02 1.82353E-13 3.65716E-13
 -1      1493 1.88572E+01 3.20061E-03 4.78652E-03-3.87331E-02 7.00958E-14 3.22777E-13
 -1      1494 1.88141E+01 1.37833E-02 8.52465E-03-3.06385E-02 6.74727E-14 4.42046E-13
 -1      1495 1.91000E+01 1.32414E-02-1.60500E-03-2.05881E-02 1.41327E-13 2.25217E-13
 -1      1496 1.89500E+01 1.05264E-03 3.29611E-03-5.21377E-02 1.20191E-14 2.41554E-13
 -1      1497 1.88803E+01 7.26061E-03 5.36958E-03-4.76874E-02 2.63889E-14 2.69373E-13
 -1      1498 1.91002E+01 4.52624E-03-1.62299E-03-7.20154E-02 7.62018E-14 1.30257E-13
 -1      1499 1.90730E+01-1.80371E-04 2.51250E-03-5.61085E-02 5.92332E-14 1.41348E-13
 -1      1500 1.89937E+01 3.44245E-03 3.43525E-03-5.39092E-02 3.46516E-14 1.91026E-13
 -1      1501 1.91619E+01-1.03752E-04-1.36835E-03-9.46593E-02 6.89911E-14 4.12556E-14
 -1      1502 1.92046E+01-8.62289E-04 2.04451E-03-5.47105E-02 5.78214E-14 2.23693E-15
 -1      1503 1.91252E+01 1.13984E-03 2.33672E-03-5.39159E-02 6.49441E-14 1.07844E-13
 -1      1504 1.92531E+01-2.58295E-03-9.96123E-04-1.00976E-01 1.17411E-13-1.63860E-14
 -1      1505 1.93327E+01-1.18583E-03 1.69412E-03-5.04266E-02 5.48617E-14-1.38476E-13
 -1      1506 1.92583E+01-2.18773E-04 1.66330E-03-5.04829E-02 3.45818E-14-7.20071E-14
 -1      1507 1.93548E+01-3.78938E-03-6.61414E-04-9.80433E-02 1.04793E-13-8.86056E-14
 -1      1508 1.94507E+01-1.26754E-03 1.39450E-03-4.48609E-02 4.67608E-14-2.34346E-13
 -1      1509 1.93839E+01-9.51217E-04 1.20934E-03-4.53903E-02 6.10522E-14-1.77131E-13
 -1      1510 1.94563E+01-4.19501E-03-4.11556E-04-9.02380E-02 9.35858E-14-2.13583E-13
 -1      1511 1.95561E+01-1.18215E-03 1.12678E-03-3.90852E-02 6.06515E-14-3.00778E-13
 -1      1512 1.94976E+01-1.25142E-03 8.86173E-04-3.98220E-02 3.94778E-14-2.43235E-13
 -1      1513 1.95518E+01-4.08112E-03-2.45352E-04-8.04097E-02 7.85594E-14-2.65393E-13
 -1      1514 1.96488E+01-9.77613E-04 8.85038E-04-3.38363E-02-1.98431E-14-3.02452E-13
 -1      1515 1.95983E+01-1.24280E-03 6.52513E-04-3.45869E-02-7.60600E-15-3.27561E-13
 -1      1516 1.96388E+01-3.62321E-03-1.50758E-04-7.04796E-02 1.38089E-14-2.79596E-13
 -1      1517 1.97306E+01-6.83458E-04 6.65471E-04-2.96396E-02-1.55341E-14-3.25527E-13
 -1      1518 1.96867E+01-1.00373E-03 4.85386E-04-3.02563E-02-2.34386E-14-3.42543E-13
 -1      1519 1.97172E+01-2.93103E-03-1.17210E-04-6.17851E-02 4.72056E-15-3.07116E-13
 -1      1520 1.98045E+01-3.15987E-04 4.63779E-04-2.68937E-02 3.82396E-14-4.17064E-13
 -1      1521 1.97654E+01-5.81544E-04 3.69685E-04-2.72553E-02 5.10748E-14-3.02377E-13
 -1      1522 1.97886E+01-2.07012E-03-1.38157E-04-5.52989E-02 3.11901E-14-3.09489E-13
 -1      1523 1.98745E+01 1.17638E-04 2.74742E-04-2.59279E-02-2.90658E-14-4.49821E-13
 -1      1524 1.98379E+01-1.50597E-06 2.94352E-04-2.59268E-02 1.82749E-14-4.59501E-13
 -1      1525 1.98557E+01-1.07522E-03-2.10917E-04-5.17773E-02 6.10245E-14-3.12086E-13
 -1      1526 1.99455E+01 6.15601E-04 9.24284E-05-2.70420E-02 1.60378E-15-4.74540E-13
 -1      1527 1.99087E+01 7.26075E-04 2.50623E-04-2.65732E-02-1.55625E-14-4.92149E-13
 -1      1528 1.99222E+01 3.95427E-05-3.35957E-04-5.18605E-02 4.04630E-15-3.60803E-13
 -1      1529 2.00234E+01 1.17722E-03-8.92810E-05-3.05255E-02 1.13808E-13-6.12435E-13
 -1      1530 1.99830E+01 1.59899E-03 2.30935E-04-2.94815E-02 7.22218E-14-4.70738E-13
 -1      1531 1.99927E+01 1.27120E-03-5.15924E-04-5.61344E-02 8.52056E-14-4.66991E-13
 -1      1532 2.01145E+01 1.79761E-03-2.75821E-04-3.66566E-02-8.00989E-14-6.96166E-13
 -1      1533 2.00671E+01 2.61507E-03 2.28048E-04-3.49259E-02 4.57547E-14-6.49726E-13
 -1      1534 2.00723E+01 2.61761E-03-7.54200E-04-6.51524E-02 1.24384E-13-4.38969E-13
 -1      1535 2.02260E+01 2.46044E-03-4.70464E-04-4.56737E-02-6.86525E-14-4.61922E-13
 -1      1536 2.01675E+01 3.76142E-03 2.34277E-04-4.31468E-02-1.29959E-13-6.46763E-13
 -1      1537 2.01669E+01 4.06434E-03-1.05265E-03-7.94114E-02-1.91471E-13-4.40768E-13
 -1      1538 2.03654E+01 3.12758E-03-6.71769E-04-5.77097E-02 1.58508E-14-4.34657E-13
 -1      1539 2.02917E+01 4.99919E-03 2.40844E-04-5.42950E-02 1.27452E-14-4.10980E-13
 -1      1540 2.02828E+01 5.56689E-03-1.40797E-03-9.92671E-02-5.17234E-14-4.01797E-13
 -1      1541 2.05402E+01 3.72481E-03-8.69189E-04-7.26737E-02 3.66787E-14-5.28626E-13
 -1      1542 2.04470E+01 6.24166E-03 2.37650E-04-6.83285E-02 9.03856E-15-5.14221E-13
 -1      1543 2.04263E+01 7.02563E-03-1.80587E-03-1.24767E-01 4.00061E-14-4.18622E-13
 -1      1544 2.07569E+01 4.12262E-03-1.03569E-03-9.00615E-02 1.28242E-13-7.49524E-13
 -1      1545 2.06405E+01 7.32364E-03 2.14080E-04-8.48456E-02 7.89751E-14-5.85150E-13
 -1      1546 2.06035E+01 8.25091E-03-2.21209E-03-1.55368E-01 1.38358E-13-5.43756E-13
 -1      1547 2.10197E+01 4.11319E-03-1.11601E-03-1.08674E-01 1.41715E-14-8.43413E-13
 -1      1548 2.08777E+01 7.96131E-03 1.62035E-04-1.02833E-01 6.59195E-14-7.38301E-13
 -1      1549 2.08186E+01 8.91723E-03-2.55916E-03-1.89509E-01 1.31533E-13-6.03087E-13
 -1      1550 2.13280E+01 3.38859E-03-1.01009E-03-1.26233E-01-1.42014E-13-6.35298E-13
 -1      1551 2.11605E+01 7.70659E-03 8.29941E-05-1.20319E-01-1.56996E-13-8.50075E-13
 -1      1552 2.10733E+01 8.50938E-03-2.72862E-03-2.24008E-01-1.17897E-13-5.16533E-13
 -1      1553 2.16732E+01 1.53512E-03-5.54926E-04-1.38917E-01-9.37545E-14-4.00182E-13
 -1      1554 2.14850E+01 5.91178E-03 7.94218E-07-1.33950E-01-5.54954E-14-4.91866E-13
 -1      1555 2.13637E+01 6.27648E-03-2.53146E-03-2.53287E-01-1.78035E-13-4.25309E-13
 -1      1556 2.20342E+01-1.92399E-03 4.81893E-04-1.40944E-01 2.91901E-14-2.15748E-13
 -1      1557 2.18372E+01 1.74386E-03-2.05612E-05-1.38573E-01-6.77472E-14-3.12294E-13
 -1      1558 2.16778E+01 1.23517E-03-1.69691E-03-2.68570E-01-1.14213E-13-2.93099E-13
 -1      1559 2.23728E+01-7.38018E-03 2.36463E-03-1.24482E-01 2.15558E-14-3.36339E-13
 -1      1560 2.21889E+01-5.67260E-03 1.37445E-04-1.27080E-01 8.68381E-14-2.57441E-13
 -1      1561 2.19922E+01-7.68917E-03 1.06346E-04-2.57399E-01 1.05070E-13-1.65418E-13
 -1      1562 2.26298E+01-1.48093E-02 5.25088E-03-8.04888E-02-1.57255E-14-3.13833E-13
 -1      1563 2.24934E+01-1.68613E-02 6.34523E-04-9.09850E-02-4.78736E-14-3.86548E-13
 -1      1564 2.22683E+01-2.12358E-02 3.17125E-03-2.04243E-01-1.67813E-14-1.06641E-13
 -1      1565 2.27267E+01-2.32183E-02 8.89544E-03-1.36185E-03 3.82949E-14-3.60852E-13
 -1      1566 2.26836E+01-3.12286E-02 1.58880E-03-2.25260E-02 3.82992E-14-2.58372E-13
 -1      1567 2.24518E+01-3.89188E-02 7.52281E-03-9.35073E-02-3.65385E-14-1.13182E-13
 -1      1568 2.25763E+01-3.00205E-02 1.22300E-02 1.13773E-01 3.69791E-14-5.29760E-13
 -1      1569 2.26776E+01-4.59888E-02 2.88512E-03 8.09096E-02 8.19162E-14-3.97045E-13
 -1      1570 2.24766E+01-5.76449E-02 1.25511E-02 8.34714E-02 9.57056E-14-4.12978E-14
 -1      1571 2.21099E+01-3.09139E-02 1.31071E-02 2.51564E-01-1.28108E-13-4.06411E-13
 -1      1572 2.23955E+01-5.53636E-02 3.92294E-03 2.10074E-01-6.36678E-14-5.59629E-13
 -1      1573 2.22783E+01-7.04030E-02 1.66588E-02 3.16896E-01-1.48614E-14-6.14070E-14
 -1      1574 2.13196E+01-2.12575E-02 8.82583E-03 3.78369E-01-2.78614E-14-2.99302E-13
 -1      1575 2.17930E+01-5.14118E-02 3.52785E-03 3.37500E-01-8.27428E-14-4.04371E-13
 -1      1576 2.18202E+01-6.65480E-02 1.73970E-02 5.65715E-01-1.42211E-13-1.53983E-13
 -1      1577 2.03037E+01 4.82389E-04-2.03916E-03 4.43394E-01 6.23497E-14-3.19696E-13
 -1      1578 2.09048E+01-2.79342E-02 4.36157E-04 4.17893E-01 8.76083E-14-2.62929E-13
 -1      1579 2.11284E+01-3.61592E-02 1.25107E-02 7.53475E-01 6.11911E-14-1.35718E-13
 -1      1580 1.92809E+01 2.88305E-02-1.70500E-02 3.98524E-01-1.62848E-13-1.40873E-13
 -1      1581 1.98791E+01 1.31587E-02-5.44152E-03 4.02917E-01-9.26949E-14-2.93897E-13
 -1      1582 2.03194E+01 2.13573E-02 2.05663E-03 7.87385E-01-8.53735E-14-1.20461E-13
 -1      1583 1.85391E+01 5.12983E-02-2.93993E-02 2.31240E-01 1.07428E-13-3.75512E-13
 -1      1584 1.89653E+01 5.78686E-02-1.18907E-02 2.70202E-01 7.52991E-14-2.60333E-13
 -1      1585 1.95928E+01 8.90495E-02-1.02747E-02 6.06031E-01 4.56198E-14-3.02989E-13
 -1      1586 1.83164E+01 5.56746E-02-3.15241E-02-1.28841E-02 9.51956E-14-6.13181E-13
 -1      1587 1.84338E+01 8.54004E-02-1.50674E-02 4.91892E-02 1.30326E-13-4.51493E-13
 -1      1588 1.91668E+01 1.35431E-01-1.87755E-02 2.33311E-01 1.92228E-13-2.90241E-13
 -1      1589 1.86768E+01 3.93719E-02-2.11537E-02-2.45401E-01-5.68495E-14-3.91118E-13
 -1      1590 1.84521E+01 8.18608E-02-1.22283E-02-1.83359E-01-6.62916E-14-5.81651E-13
 -1      1591 1.91765E+01 1.33906E-01-1.96529E-02-2.10104E-01-8.26058E-14-2.47604E-13
 -1      1592 1.94726E+01 1.15077E-02-3.71953E-03-3.83718E-01-7.38454E-14-2.76321E-13
 -1      1593 1.89955E+01 5.04946E-02-4.35523E-03-3.43428E-01-2.19126E-14-3.08135E-13
 -1      1594 1.96004E+01 8.34801E-02-1.38227E-02-5.63909E-01-9.50819E-14-2.71172E-13
 -1      1595 2.04242E+01-1.43163E-02 1.21370E-02-3.95433E-01 8.36821E-14-3.48804E-13
 -1      1596 1.98592E+01 8.52180E-03 4.42645E-03-3.85781E-01 3.60524E-14-3.16962E-13
 -1      1597 2.02721E+01 1.05841E-02-5.35057E-03-7.16133E-01 1.32701E-15-3.94035E-13
 -1      1598 2.12540E+01-2.92968E-02 2.04805E-02-3.04328E-01-7.41317E-14-3.27554E-13
 -1      1599 2.07628E+01-2.58868E-02 1.01201E-02-3.20286E-01 5.30435E-15-3.66308E-13
 -1      1600 2.09673E+01-5.13298E-02 1.79830E-03-6.53558E-01 1.86483E-16-2.10816E-13
 -1      1601 2.17859E+01-3.22922E-02 2.08035E-02-1.62914E-01 8.24618E-14-2.22815E-13
 -1      1602 2.14700E+01-4.36558E-02 1.12681E-02-1.92415E-01-7.25262E-14-2.50182E-13
 -1      1603 2.15004E+01-8.30327E-02 5.86423E-03-4.43833E-01-8.59963E-14-1.22566E-13
 -1      1604 2.19686E+01-2.70477E-02 1.60541E-02-2.08755E-02-5.09488E-15-2.33148E-13
 -1      1605 2.18562E+01-4.55349E-02 9.01318E-03-5.23790E-02 6.66116E-14-2.24792E-13
 -1      1606 2.17756E+01-8.46441E-02 7.05576E-03-1.81313E-01 1.99268E-14 1.26082E-14
 -1      1607 2.18451E+01-1.80972E-02 9.65307E-03 9.09219E-02 2.12086E-13-5.52327E-13
 -1      1608 2.19098E+01-3.71557E-02 5.42715E-03 6.47747E-02 2.11068E-13-2.40170E-13
 -1      1609 2.17853E+01-6.70974E-02 6.39698E-03 5.78655E-02 2.21617E-13-1.11721E-14
 -1      1610 2.15071E+01-8.48833E-03 3.66108E-03 1.60281E-01 8.38609E-15-7.46025E-13
 -1      1611 2.16947E+01-2.41338E-02 2.09522E-03 1.42763E-01 7.65720E-14-6.35708E-13
 -1      1612 2.15807E+01-4.20245E-02 4.75443E-03 2.31673E-01 2.58098E-13-1.43619E-13
 -1      1613 2.10605E+01 5.75696E-04-1.45576E-03 1.86175E-01 3.37657E-14-9.07992E-13
 -1      1614 2.13092E+01-9.82123E-03-4.31745E-04 1.78233E-01 4.94746E-14-7.56525E-13
 -1      1615 2.12400E+01-1.66172E-02 2.47642E-03 3.26156E-01 1.44300E-13-4.28596E-13
 -1      1616 2.06082E+01 9.06614E-03-5.93698E-03 1.71326E-01 2.93572E-14-1.02448E-12
 -1      1617 2.08580E+01 4.68538E-03-2.42659E-03 1.73324E-01 3.72933E-15-9.44949E-13
 -1      1618 2.08464E+01 6.71048E-03-5.10507E-04 3.42123E-01 1.43713E-14-4.13120E-13
 -1      1619 2.02451E+01 1.69133E-02-8.42823E-03 1.18307E-01-5.11717E-14-9.67799E-13
 -1      1620 2.04387E+01 1.93042E-02-3.99546E-03 1.31286E-01-3.79781E-14-9.70975E-13
 -1      1621 2.04769E+01 2.89168E-02-3.71522E-03 2.85022E-01-5.59951E-14-3.45765E-13
 -1      1622 2.00480E+01 2.25315E-02-4.92934E-06 3.92319E-02-1.58276E-13-6.40975E-13
 -1      1623 2.01347E+01 2.98425E-02-3.10550E-03 5.96883E-02-9.76953E-14-8.82733E-13
 -1      1624 2.01928E+01 4.76194E-02-4.95121E-03 1.64794E-01-9.56700E-14-2.78620E-13
 -1      1625 2.00029E+01 1.18303E-02 3.45282E-03-9.60416E-04-2.73333E-13-3.31337E-13
 -1      1626 2.00322E+01 1.97844E-01-3.91630E-03 9.98074E-02-1.47040E-13 2.08550E-13
 -1      1627 2.00347E+01 9.95365E-02 1.39690E-03 7.81556E-02-4.54456E-13 2.73578E-13
 -1      1628 2.00252E+01 5.45658E-01-2.19917E-03 1.83232E-01 1.70931E-13 1.17326E-13
 -1      1629 2.00305E+01 3.39225E-01-2.82379E-03 1.68065E-01-5.47444E-14 4.49267E-14
 -1      1630 2.00613E+01 3.12197E-01-6.77737E-03 2.61917E-01-1.43067E-13 2.50596E-13
 -1      1631 2.00159E+01 1.02775E+00-8.85875E-04 2.45687E-01 1.36327E-13 6.61235E-14
 -1      1632 2.00225E+01 7.41628E-01-2.28531E-03 2.35246E-01 1.87265E-13 7.35579E-14
 -1      1633 2.00422E+01 6.43784E-01-6.57957E-03 4.06074E-01 8.43804E-14 2.04548E-13
 -1      1634 2.00052E+01 1.59934E+00-3.25387E-04 2.82333E-01 2.61693E-13-4.54307E-14
 -1      1635 2.00128E+01 1.26598E+00-1.64918E-03 2.77182E-01 1.44756E-13 2.14029E-13
 -1      1636 2.00245E+01 1.07179E+00-4.43615E-03 5.06326E-01 1.43817E-14 1.36604E-13
 -1      1637 1.99924E+01 2.19064E+00-1.26269E-04 2.87911E-01-2.74079E-13-2.98050E-13
 -1      1638 2.00011E+01 1.85307E+00-1.25025E-03 2.89136E-01 1.23155E-13-3.39805E-13
 -1      1639 2.00051E+01 1.55834E+00-1.21286E-03 5.52536E-01-8.49728E-14-3.24357E-13
 -1      1640 1.99777E+01 2.74964E+00 2.36308E-04 2.56547E-01-5.50069E-13 3.22656E-14
 -1      1641 1.99871E+01 2.44034E+00-6.54279E-04 2.65473E-01-4.70034E-13-1.94008E-13
 -1      1642 1.99829E+01 2.05684E+00 2.72451E-03 5.34672E-01-2.32699E-13-6.22750E-13
 -1      1643 1.99640E+01 3.18445E+00 7.82541E-04 1.85321E-01-5.41017E-14 3.28208E-13
 -1      1644 1.99721E+01 2.95613E+00 1.65039E-04 2.02203E-01-4.93876E-13 4.09075E-13
 -1      1645 1.99586E+01 2.50992E+00 7.19049E-03 4.42803E-01-1.41042E-13 2.86375E-13
 -1      1646 1.99543E+01 3.41957E+00 1.34492E-03 7.91002E-02 1.84945E-13-5.97413E-14
 -1      1647 1.99592E+01 3.31417E+00 1.09749E-03 1.02373E-01 4.18554E-14 2.30469E-13
 -1      1648 1.99368E+01 2.84547E+00 1.13233E-02 2.77418E-01-7.51313E-14 3.89547E-13
 -1      1649 1.99516E+01 3.40216E+00 1.64652E-03-4.83195E-02 9.05231E-14 4.74039E-14
 -1      1650 1.99518E+01 3.44637E+00 1.87475E-03-2.20906E-02 1.82774E-13-2.08892E-13
 -1      1651 1.99229E+01 3.00328E+00 1.40318E-02 5.48315E-02 1.34766E-13-2.67693E-13
 -1      1652 1.99573E+01 3.11828E+00 1.49999E-03-1.76214E-01-1.26232E-13-2.97884E-13
 -1      1653 1.99526E+01 3.31504E+00 2.34388E-03-1.51625E-01 1.40614E-13-3.11027E-14
 -1      1654 1.99210E+01 2.94568E+00 1.43948E-02-1.92766E-01 9.82287E-16-4.84448E-14
 -1      1655 1.99711E+01 2.61105E+00 9.76942E-04-2.80022E-01-1.85484E-13 1.64081E-13
 -1      1656 1.99614E+01 2.92950E+00 2.19829E-03-2.62036E-01-8.93521E-14-2.49074E-13
 -1      1657 1.99336E+01 2.67290E+00 1.22762E-02-4.21664E-01-1.48863E-13-4.16005E-13
 -1      1658 1.99916E+01 1.93914E+00-3.07560E-04-3.42665E-01-5.89077E-14-9.96811E-14
 -1      1659 1.99781E+01 2.34145E+00 1.48235E-03-3.34067E-01-6.65336E-14 4.27983E-13
 -1      1660 1.99584E+01 2.21948E+00 7.64687E-03-5.91150E-01 4.74334E-14 3.44374E-13
 -1      1661 2.00157E+01 1.22223E+00-2.65519E-03-3.46997E-01 9.97449E-14 2.21995E-14
 -1      1662 2.00003E+01 1.63398E+00-3.69779E-04-3.50515E-01 1.01353E-13 6.30724E-15
 -1      1663 1.99946E+01 1.64873E+00 1.35960E-03-6.67081E-01 1.36866E-13 1.45553E-14
 -1      1664 2.00441E+01 6.02305E-01-1.37944E-03-2.81000E-01 1.47432E-13 9.12825E-14
 -1      1665 2.00254E+01 9.33636E-01-3.53278E-03-3.00205E-01 1.31702E-13 9.50785E-14
 -1      1666 2.00396E+01 1.05596E+00-5.29559E-03-6.22191E-01 2.22546E-13 2.62871E-14
 -1      1667 2.00908E+01 2.42390E-01 5.23188E-03-2.14726E-01 9.97661E-15-2.88618E-13
 -1      1668 2.00806E+01 4.26174E-01-2.96678E-03-2.68652E-01 1.53311E-13-1.67952E-13
 -1      1669 2.01217E+01 5.89311E-01-9.55874E-03-5.30645E-01 2.47616E-13-1.00202E-14
 -1      1670 2.02650E+01 2.75954E-01-3.34793E-04-4.18259E-01 1.08871E-13-3.57248E-13
 -1      1671-7.09864E-01-1.51408E+01-1.70652E+00-1.04424E+00 3.59324E-13 2.68480E-13
 -1      1672-6.73273E-01-1.75323E+01-1.94505E+00 3.69444E-01-1.04194E-13 3.13638E-13
 -1      1673 2.08393E+00-7.74124E+00-1.03285E+00 1.28271E+00 6.34826E-13 1.98230E-13
 -1      1674 1.08856E+00-1.29765E+01-1.56294E+00 4.90858E-01 5.16476E-13 3.05769E-13
 -1      1675 7.51086E+00-1.50280E-01-4.58732E-01 4.97385E+00 6.65690E-13 6.74238E-13
 -1      1676 4.32421E+00-5.71745E+00-1.20736E+00 2.05531E+00 7.22977E-13 3.50941E-13
 -1      1677 1.94328E+01 4.65074E+00 3.42168E-01 1.00033E+01 7.78044E-13 1.16207E-12
 -1      1678 1.24154E+01 1.28956E+00-5.46077E-01 6.27720E+00 7.52953E-13 8.44436E-13
 -1      1679 3.26794E+01 6.66670E+00 1.07420E+00 1.28050E+01 8.33666E-13 1.42020E-12
 -1      1680 2.39169E+01 6.49478E+00 2.51534E-01 1.10536E+01 8.91731E-13 1.30074E-12
 -1      1681 4.58098E+01 5.13536E+00 1.56624E+00 1.04958E+01 5.09440E-13 1.33626E-12
 -1      1682 3.75274E+01 6.61572E+00 9.56586E-01 1.20115E+01 6.76903E-13 1.37890E-12
 -1      1683 5.41166E+01 3.61406E+00 1.82484E+00 4.30293E+00 4.35707E-13 9.80105E-13
 -1      1684 4.94661E+01 4.96958E+00 1.54478E+00 8.91427E+00 5.55056E-13 1.39488E-12
 -1      1685 5.32689E+01 4.04078E+00 1.66801E+00-4.08522E+00 3.59379E-13-1.07025E-13
 -1      1686 5.43167E+01 3.74304E+00 1.73513E+00 1.57906E+00 3.95572E-13 6.23820E-13
 -1      1687 4.54404E+01 5.68548E+00 1.33325E+00-1.06473E+01 4.33348E-13-7.14206E-13
 -1      1688 5.20473E+01 3.97980E+00 1.77121E+00-6.84028E+00 2.68299E-13-2.96763E-13
 -1      1689 3.16259E+01 6.79382E+00 6.28783E-01-1.19344E+01 9.25926E-13-1.13287E-12
 -1      1690 4.09861E+01 5.75583E+00 1.38645E+00-1.18506E+01 7.19064E-13-7.75713E-13
 -1      1691 1.79733E+01 5.19473E+00-1.25329E-01-9.28650E+00 7.69940E-13-1.01918E-12
 -1      1692 2.62029E+01 6.58294E+00 7.41633E-01-1.21701E+01 7.72715E-13-1.35802E-12
 -1      1693 7.87335E+00-5.67761E-01-8.71023E-01-4.38557E+00 1.18106E-12-6.67355E-13
 -1      1694 1.31498E+01 3.80882E+00-2.06438E-02-8.10897E+00 9.61453E-13-7.15317E-13
 -1      1695 2.44031E+00-8.25140E+00-1.43876E+00-8.18719E-01 1.43330E-12-5.67490E-13
 -1      1696 4.45999E+00-2.71096E+00-7.79448E-01-2.94403E+00 1.22657E-12-5.83422E-13
 -1      1697 1.33040E-01-1.48156E+01-1.77415E+00 5.59200E-02 1.24933E-12-4.62075E-13
 -1      1698 5.31024E-01-1.02484E+01-1.34487E+00 1.10259E-01 1.47726E-12-5.13256E-13
 -1      1699-7.67456E-01-1.71972E+01-1.87511E+00-8.10676E-01 5.13738E-13-2.99871E-13
 -1      1700-7.62908E-01-1.61564E+01-1.78413E+00 8.05694E-01 1.13776E-12-5.17614E-13
 -1      1701-3.62941E-01-1.35710E+01-1.56463E+00-9.73656E-01-4.08895E-13-4.63962E-13
 -1      1702-4.07905E-01-1.62429E+01-1.78101E+00-8.44823E-02 2.90240E-13-3.18717E-13
 -1      1703 1.60727E+00-7.34294E+00-1.21303E+00 4.72557E-01-1.16795E-12-8.52013E-13
 -1      1704 7.30608E-01-1.25073E+01-1.73438E+00-4.51888E-01-8.35887E-13-5.04423E-13
 -1      1705 9.38953E+00-6.45181E-01-4.81269E-01 5.37595E+00-1.29541E-12-1.01585E-12
 -1      1706 5.53555E+00-5.66018E+00-1.20008E+00 2.32449E+00-1.11622E-12-9.39693E-13
 -1      1707 1.87154E+01 4.09034E+00 1.42892E-01 9.68232E+00-1.15530E-12-1.02296E-12
 -1      1708 1.19798E+01 1.01521E+00-7.06073E-01 6.05642E+00-1.35736E-12-9.69114E-13
 -1      1709 1.59350E+01-3.87172E+00-2.73074E-01 6.22950E+00-7.21645E-13-5.40290E-13
 -1      1710 3.44846E+01 5.89367E+00 1.08011E+00 1.22185E+01-7.72715E-13-1.11511E-12
 -1      1711 2.51050E+01 5.77615E+00 1.96597E-01 1.04562E+01-9.71445E-13-1.11955E-12
 -1      1712 4.85286E+01 4.77766E+00 1.77998E+00 9.99790E+00-4.73094E-13-7.13540E-13
 -1      1713 3.96437E+01 6.31505E+00 1.06182E+00 1.18729E+01-6.48925E-13-1.12754E-12
 -1      1714 5.64602E+01 3.45551E+00 2.04317E+00 2.70348E+00-2.92488E-13 5.49560E-14
 -1      1715 5.21068E+01 4.63273E+00 1.76251E+00 7.95246E+00-4.04982E-13-4.69624E-13
 -1      1716 5.39140E+01 4.27377E+00 1.78216E+00-5.44691E+00-3.42587E-13 8.05855E-13
 -1      1717 5.60747E+01 3.71347E+00 1.94807E+00 5.48438E-03-2.63123E-13 3.35270E-13
 -1      1718 4.53062E+01 5.87498E+00 1.37437E+00-1.11347E+01-8.65738E-13 1.35059E-12
 -1      1719 5.22695E+01 4.26257E+00 1.88394E+00-7.94630E+00-5.08538E-13 9.56346E-13
 -1      1720 3.23068E+01 6.48058E+00 6.47878E-01-1.18033E+01-1.20493E-12 1.50902E-12
 -1      1721 4.10051E+01 5.69057E+00 1.38312E+00-1.19200E+01-8.76632E-13 1.28808E-12
 -1      1722 1.92335E+01 4.92835E+00-1.13576E-01-9.35016E+00-9.28257E-13 1.55342E-12
 -1      1723 2.72249E+01 6.21382E+00 7.33165E-01-1.20284E+01-1.15008E-12 1.70997E-12
 -1      1724 9.46768E+00-9.73975E-01-8.52686E-01-4.67018E+00-7.72715E-13 8.44769E-13
 -1      1725 1.50268E+01 3.04819E+00-2.42906E-02-8.25044E+00-8.88178E-13 1.34381E-12
 -1      1726 2.91550E+00-7.86594E+00-1.43747E+00-9.07215E-01-8.57647E-13 4.62574E-13
 -1      1727 5.15065E+00-2.46934E+00-7.88359E-01-3.18626E+00-8.04912E-13 7.21867E-13
 -1      1728 6.74163E-01-1.37769E+01-1.63139E+00-5.53066E-02-1.10290E-12 2.58682E-13
 -1      1729 1.26776E+00-9.47466E+00-1.23519E+00-3.60569E-01-9.14935E-13 2.44013E-13
 -1      1730-6.54981E-01-1.72634E+01-1.88256E+00-1.53479E-01-3.18870E-13 5.65076E-13
 -1      1731-6.92815E-01-1.53645E+01-1.70338E+00 1.16790E+00-1.02623E-12 5.50893E-13
 -1      1732 2.55560E+01 8.83604E-01 2.81163E-01 7.30294E+00 3.60934E-13 7.70384E-13
 -1      1733 1.55753E+01-3.22767E+00-2.34350E-01 6.70092E+00 2.69451E-13 5.45064E-13
 -1      1734 2.00352E+01 3.54102E-02-2.33877E-03 3.66520E-02-4.54130E-13 1.75344E-14
 -1      1735 2.00828E+01 1.20159E-01-2.44930E-03 1.33345E-01-3.52519E-13 1.57237E-13
 -1      1736 9.63148E-01-1.00446E+01-1.04681E+00 3.00490E+00-7.93809E-15 3.64209E-13
 -1      1737 6.71509E+00-7.15198E+00-7.64692E-01 5.12279E+00 3.10196E-13 2.61798E-13
 -1      1738-1.48511E+00-1.20017E+01-1.37657E+00 1.41450E-01-2.63629E-13 8.21732E-13
 -1      1739 3.53462E+01 4.55908E+00 9.14297E-01 7.03698E+00 3.93408E-13 6.83453E-13
 -1      1740 4.31265E+01 6.44450E+00 1.33018E+00 4.77604E+00 4.35763E-13 5.50893E-13
 -1      1741 4.66334E+01 7.36451E+00 1.45579E+00 1.50172E+00 7.30749E-13 4.09173E-13
 -1      1742 4.57955E+01 7.11206E+00 1.40484E+00-2.62970E+00 5.36904E-13 1.49714E-13
 -1      1743 4.04321E+01 5.78256E+00 1.17581E+00-5.74759E+00 6.17714E-13-3.09086E-13
 -1      1744 3.12085E+01 3.41482E+00 7.01157E-01-7.40739E+00 5.57554E-13-6.87450E-13
 -1      1745 2.05337E+01 4.69179E-02 9.05014E-02-7.41597E+00 6.19282E-13-7.15428E-13
 -1      1746 1.08709E+01-4.21517E+00-5.31720E-01-5.84994E+00 9.29923E-13-4.11338E-13
 -1      1747 3.82392E+00-8.26369E+00-9.73165E-01-3.89172E+00 8.09353E-13-2.59813E-13
 -1      1748-4.01362E-01-1.10443E+01-1.25312E+00-1.85518E+00 5.38403E-13-6.42653E-13
 -1      1749-1.22486E+00-1.14525E+01-1.28285E+00 4.66073E-01 2.41640E-13-6.89115E-13
 -1      1750 1.19019E+00-9.92913E+00-1.15754E+00 2.47130E+00-2.44027E-13-8.06716E-13
 -1      1751 7.76786E+00-6.99107E+00-7.08815E-01 4.98151E+00-5.61551E-13-8.36275E-13
 -1      1752 3.69200E+01 4.11237E+00 9.17616E-01 6.27224E+00-5.51198E-13-5.71987E-13
 -1      1753 4.53109E+01 6.34891E+00 1.48367E+00 4.17859E+00-6.19255E-13-7.28306E-14
 -1      1754 4.81597E+01 7.46034E+00 1.62291E+00 6.13065E-01-5.31353E-13 3.10696E-13
 -1      1755 4.64647E+01 7.12795E+00 1.53121E+00-3.00733E+00-5.57443E-13 5.84199E-13
 -1      1756 4.08679E+01 5.34372E+00 1.18253E+00-5.63251E+00-8.10393E-13 7.85927E-13
 -1      1757 3.20313E+01 2.88575E+00 6.66950E-01-7.14172E+00-6.65690E-13 7.77933E-13
 -1      1758 2.20831E+01-8.00871E-01 2.88663E-02-7.06082E+00-4.22884E-13 9.90097E-13
 -1      1759 1.25995E+01-4.66674E+00-4.87419E-01-6.00069E+00-4.88054E-13 8.26450E-13
 -1      1760 4.97491E+00-8.11341E+00-9.39526E-01-4.22497E+00-5.36016E-13 1.35926E-13
 -1      1761 4.72400E-01-1.04163E+01-1.12451E+00-2.34255E+00-3.60434E-13 4.33764E-13
 -1      1762 2.28575E+01 1.98493E+00-2.35555E-02-2.72297E+00-2.84672E-13 1.44965E-12
 -1      1763 2.57191E+01 2.86766E-01 2.53646E-01 6.86070E+00-7.58060E-13-5.62106E-13
 -1      1764 1.98247E+01 3.71348E+00-3.54605E-02-2.15390E+00-4.26986E-13-2.78173E-13
 -1      1765 2.00570E+01 3.56252E+00-4.02562E-02-2.44614E+00-4.80324E-13-1.31953E-13
 -1      1766 2.03621E+01 3.18148E+00-4.57792E-02-2.58592E+00-4.70754E-13 5.09037E-14
 -1      1767 2.05818E+01 2.80973E+00-1.42549E-01-2.85415E+00-4.80425E-13 3.09100E-13
 -1      1768 2.04229E+01 2.69274E+00-4.24966E-03-2.22545E+00-4.87191E-13-1.60219E-14
 -1      1769 1.93561E+01 4.18861E+00-2.00357E-02-1.27133E+00-2.80202E-13-5.58342E-13
 -1      1770 1.94297E+01 4.14902E+00-1.68856E-02-1.49585E+00-3.21647E-13-5.19126E-13
 -1      1771 1.92599E+01 4.29453E+00-1.67487E-02-8.60201E-01-1.95336E-13-6.08109E-13
 -1      1772 1.93024E+01 4.27056E+00-1.42385E-02-1.07106E+00-2.38269E-13-5.82725E-13
 -1      1773 1.95284E+01 3.78289E+00-8.93795E-03-1.12022E+00-2.79305E-13-5.43598E-13
 -1      1774 1.92088E+01 4.35493E+00-1.47956E-02-4.67146E-01-1.09889E-13-6.34527E-13
 -1      1775 1.92305E+01 4.34206E+00-1.33110E-02-6.67564E-01-1.52625E-13-6.24103E-13
 -1      1776 1.94314E+01 3.90304E+00-9.15577E-03-7.33719E-01-1.85227E-13-5.91941E-13
 -1      1777 1.91896E+01 4.38051E+00-1.36735E-02-8.36992E-02-3.69168E-14-6.55793E-13
 -1      1778 1.91959E+01 4.37659E+00-1.32222E-02-2.79286E-01-6.83262E-14-6.47102E-13
 -1      1779 1.93815E+01 3.96742E+00-9.15413E-03-3.58587E-01-9.95277E-14-6.22991E-13
 -1      1780 1.91976E+01 4.37521E+00-1.31787E-02 2.98365E-01 3.27348E-14-6.58449E-13
 -1      1781 1.91900E+01 4.37968E+00-1.37582E-02 1.02615E-01-3.56803E-15-6.58966E-13
 -1      1782 1.93669E+01 3.98681E+00-9.14689E-03 1.05711E-02-1.98752E-14-6.32269E-13
 -1      1783 1.92345E+01 4.33802E+00-1.33391E-02 6.87386E-01 1.12151E-13-6.50915E-13
 -1      1784 1.92115E+01 4.35173E+00-1.49209E-02 4.86454E-01 7.22482E-14-6.56005E-13
 -1      1785 1.93842E+01 3.96411E+00-9.18981E-03 3.79925E-01 5.71243E-14-6.39041E-13
 -1      1786 1.93076E+01 4.26462E+00-1.44209E-02 1.08527E+00 1.99114E-13-6.01115E-13
 -1      1787 1.92645E+01 4.28911E+00-1.69765E-02 8.77201E-01 1.53555E-13-6.30232E-13
 -1      1788 1.94367E+01 3.89665E+00-9.19654E-03 7.52356E-01 1.43801E-13-6.14557E-13
 -1      1789 1.94386E+01 4.13741E+00-1.74161E-02 1.51545E+00 3.04182E-13-5.16913E-13
 -1      1790 1.93624E+01 4.18002E+00-2.05066E-02 1.28584E+00 2.42721E-13-5.58579E-13
 -1      1791 1.95358E+01 3.77277E+00-9.24569E-03 1.13631E+00 2.44626E-13-5.42589E-13
 -1      1792 1.96670E+01 3.92090E+00-2.52150E-02 1.98065E+00 3.99547E-13-4.20965E-13
 -1      1793 1.95346E+01 3.99767E+00-2.69084E-02 1.72328E+00 3.49140E-13-4.78454E-13
 -1      1794 1.97085E+01 3.56572E+00-8.70928E-03 1.53621E+00 3.55166E-13-4.59275E-13
 -1      1795 2.00749E+01 3.52263E+00-4.51896E-02 2.47303E+00 4.71546E-13-2.07150E-13
 -1      1796 1.98352E+01 3.68312E+00-3.97133E-02 2.18396E+00 4.32783E-13-3.40353E-13
 -1      1797 2.00041E+01 3.22270E+00-5.26777E-03 1.93565E+00 4.46456E-13-3.32970E-13
 -1      1798 2.09195E+01 2.68177E+00-5.76544E-02 2.85864E+00 4.85406E-13 2.38740E-13
 -1      1799 2.04125E+01 3.09688E+00-5.04116E-02 2.61694E+00 4.65286E-13-2.93446E-14
 -1      1800 2.05165E+01 2.60984E+00 3.21206E-03 2.24555E+00 4.84451E-13-9.30367E-14
 -1      1801 2.17295E+01 1.21302E+00-1.22097E-01 2.33052E+00 4.25139E-13 7.98916E-13
 -1      1802 2.12732E+01 2.26306E+00 1.21357E-04 2.74122E+00 4.57032E-13 4.31988E-13
 -1      1803 2.09359E+01 1.68503E+00-2.29648E-02 2.14109E+00 4.95839E-13 2.43829E-13
 -1      1804 2.09506E+01 7.78704E-01-6.24645E-02 1.52484E+00 4.28962E-13 6.69893E-13
 -1      1805 2.17955E+01 2.45825E+00 9.09190E-02-3.04889E+00-3.97628E-13 7.22714E-13
 -1      1806 2.00994E+01 2.97892E-01-8.92073E-03 6.57683E-01 3.35877E-13 4.68684E-13
 -1      1807 2.06517E+01 4.40397E-01-1.24786E-02 1.03471E+00 3.60281E-13 5.95575E-13
 -1      1808 2.07430E+01 8.45104E-01 2.23636E-03 1.41589E+00 4.29559E-13 3.54616E-13
 -1      1809 2.95892E+01-6.87167E-01 1.81696E-01 5.05460E+00-5.53946E-13-2.41696E-13
 -1      1810 2.38237E+01-3.05421E+00-2.00305E-01 5.08948E+00-6.23113E-13-2.76335E-13
 -1      1811 2.15059E+01 1.74233E+00 7.94357E-02-2.33794E+00-4.35405E-13 5.37570E-13
 -1      1812 2.05190E+01 5.00548E-01 3.23897E-02-9.22524E-01-3.48374E-13 4.67245E-13
 -1      1813 2.00870E+01 3.52046E-01 7.55390E-03-6.30685E-01-3.14374E-13 3.83455E-13
 -1      1814 1.98923E+01 2.57362E-01 2.74140E-02-3.92157E-01-2.89093E-13 3.63802E-13
 -1      1815 1.97011E+01 1.77940E-01 1.04118E-02-2.54373E-01-2.61588E-13 2.76264E-13
 -1      1816 2.01972E+01 4.83392E-01-5.97777E-03-7.23852E-01-3.58091E-13 1.66578E-13
 -1      1817 1.95789E+01 1.32528E-01 1.66575E-02-1.21014E-01-2.22608E-13 2.54036E-13
 -1      1818 1.95004E+01 9.28771E-02 6.95696E-03-5.03317E-02-1.72069E-13 1.86232E-13
 -1      1819 1.98710E+01 2.43607E-01-5.78608E-03-2.96862E-01-2.91773E-13 1.04277E-13
 -1      1820 1.94352E+01 6.82356E-02 8.68228E-03 2.30816E-02-1.30041E-13 1.51150E-13
 -1      1821 1.94203E+01 4.65843E-02 4.10578E-03 5.91730E-02-1.10253E-13 1.15947E-13
 -1      1822 1.96878E+01 1.24973E-01-4.64324E-03-6.04026E-02-1.99024E-13 4.26683E-14
 -1      1823 1.93940E+01 3.22871E-02 4.24098E-03 9.78324E-02-8.12865E-14 9.25950E-14
 -1      1824 1.94133E+01 1.98947E-02 2.43538E-03 1.14565E-01-5.03527E-14 3.90384E-14
 -1      1825 1.96009E+01 6.07579E-02-3.47356E-03 6.90311E-02-1.18577E-13-1.96899E-14
 -1      1826 1.94115E+01 1.13156E-02 1.86781E-03 1.32513E-01-6.57513E-14 3.18639E-14
 -1      1827 1.94481E+01 4.21655E-03 1.46653E-03 1.37972E-01-7.47401E-14 2.86812E-14
 -1      1828 1.95763E+01 2.40243E-02-2.35372E-03 1.35429E-01-8.10229E-14-5.59960E-14
 -1      1829 1.94606E+01-8.77015E-04 5.77029E-04 1.43522E-01-8.14653E-14 9.87171E-15
 -1      1830 1.95046E+01-4.71948E-03 8.75351E-04 1.42468E-01-8.37015E-14 1.09247E-14
 -1      1831 1.95897E+01 2.73633E-03-1.46387E-03 1.63982E-01-1.00917E-13-5.90648E-14
 -1      1832 1.95249E+01-7.54972E-03-1.30427E-04 1.40836E-01-1.01214E-13 1.31799E-14
 -1      1833 1.95704E+01-9.29173E-03 5.11749E-04 1.36282E-01-7.87365E-14-8.52641E-15
 -1      1834 1.96246E+01-9.11717E-03-8.35010E-04 1.70013E-01-9.49367E-14-1.05162E-13
 -1      1835 1.95942E+01-1.05942E-02-4.97503E-04 1.30885E-01-7.71011E-14-1.87855E-14
 -1      1836 1.96379E+01-1.09369E-02 3.05141E-04 1.24825E-01-6.85925E-14-6.72203E-14
 -1      1837 1.96703E+01-1.48835E-02-4.25725E-04 1.63341E-01-1.26542E-13-9.30986E-14
 -1      1838 1.96628E+01-1.11782E-02-6.52463E-04 1.17977E-01-5.38032E-14-6.56019E-14
 -1      1839 1.97034E+01-1.05591E-02 2.17261E-04 1.11774E-01-2.18463E-14-8.16578E-14
 -1      1840 1.97202E+01-1.65732E-02-1.83561E-04 1.50505E-01-7.84659E-14-9.20858E-14
 -1      1841 1.97281E+01-1.00390E-02-6.70410E-04 1.05092E-01-7.08697E-15-1.03546E-13
 -1      1842 1.97654E+01-8.72641E-03 2.25470E-04 9.97128E-02-1.62229E-15-1.03845E-13
 -1      1843 1.97707E+01-1.54395E-02-6.50848E-05 1.35998E-01-3.20856E-14-1.18183E-13
 -1      1844 1.97895E+01-7.63112E-03-5.98511E-04 9.43713E-02 2.47111E-14-1.30646E-13
 -1      1845 1.98240E+01-5.77507E-03 3.17158E-04 9.05417E-02 2.75494E-14-5.91242E-14
 -1      1846 1.98201E+01-1.22575E-02-3.86267E-05 1.23017E-01 1.23481E-14-1.38266E-13
 -1      1847 1.98479E+01-4.20743E-03-4.67145E-04 8.74546E-02 6.04409E-15-6.63689E-14
 -1      1848 1.98811E+01-1.86925E-03 4.87435E-04 8.57721E-02-2.51794E-14-1.25923E-14
 -1      1849 1.98687E+01-7.47146E-03-8.23508E-05 1.13954E-01 3.24708E-14-1.35437E-13
 -1      1850 1.99056E+01 1.32271E-04-2.95736E-04 8.57240E-02-9.71779E-14-3.74569E-14
 -1      1851 1.99393E+01 2.96143E-03 7.37758E-04 8.67436E-02-5.27205E-14-7.51228E-14
 -1      1852 1.99174E+01-1.27931E-03-1.81809E-04 1.10748E-01-3.77375E-14-1.06246E-13
 -1      1853 1.99656E+01 5.40973E-03-9.64070E-05 9.04910E-02-6.75918E-14-9.21546E-14
 -1      1854 2.00022E+01 8.79615E-03 1.07483E-03 9.47940E-02-5.90349E-14-1.30111E-13
 -1      1855 1.99686E+01 6.31404E-03-3.27848E-04 1.15150E-01-9.47715E-14-1.04057E-13
 -1      1856 2.00321E+01 1.17454E-02 1.23345E-04 1.03145E-01-5.47058E-14-1.88308E-13
 -1      1857 2.00746E+01 1.58024E-02 1.50941E-03 1.11394E-01-3.95265E-14-2.10741E-13
 -1      1858 2.00252E+01 1.54597E-02-5.14843E-04 1.28925E-01-1.02694E-13-1.83391E-13
 -1      1859 2.01101E+01 1.93381E-02 3.58390E-04 1.25270E-01-5.70684E-14-2.32647E-13
 -1      1860 2.01621E+01 2.42146E-02 2.05447E-03 1.38251E-01-1.33510E-13-2.23470E-13
 -1      1861 2.00909E+01 2.64339E-02-7.39110E-04 1.54009E-01-7.60968E-14-1.85745E-13
 -1      1862 2.02056E+01 2.84403E-02 6.03750E-04 1.58724E-01-1.67331E-13-2.29062E-13
 -1      1863 2.02713E+01 3.43022E-02 2.72190E-03 1.77370E-01-8.58245E-14-2.35625E-13
 -1      1864 2.01704E+01 3.96015E-02-9.97312E-04 1.92620E-01-1.38022E-13-2.06152E-13
 -1      1865 2.03255E+01 3.93170E-02 8.52118E-04 2.05674E-01-3.83872E-14-2.86005E-13
 -1      1866 2.04099E+01 4.63115E-02 3.51628E-03 2.31061E-01-2.71908E-14-2.60414E-13
 -1      1867 2.02688E+01 5.53596E-02-1.28490E-03 2.47308E-01-8.07340E-14-2.07388E-13
 -1      1868 2.04780E+01 5.21664E-02 1.09094E-03 2.68546E-01-7.69198E-15-2.16906E-13
 -1      1869 2.05869E+01 6.03507E-02 4.42315E-03 3.01822E-01 1.19095E-14-2.28153E-13
 -1      1870 2.03921E+01 7.40292E-02-1.59480E-03 3.20912E-01 3.39292E-14-2.59476E-13
 -1      1871 2.06722E+01 6.69637E-02 1.29912E-03 3.49808E-01-1.13754E-14-1.68704E-13
 -1      1872 2.08118E+01 7.61638E-02 5.38811E-03 3.92017E-01 1.04632E-14-1.95091E-13
 -1      1873 2.05470E+01 9.56420E-02-1.91697E-03 4.16342E-01 4.04785E-14-2.30968E-13
 -1      1874 2.09179E+01 8.31576E-02 1.44418E-03 4.51465E-01-3.34494E-14-1.97918E-13
 -1      1875 2.10950E+01 9.27015E-02 6.28194E-03 5.03141E-01-4.17893E-14-1.78132E-13
 -1      1876 2.07406E+01 1.19526E-01-2.24026E-03 5.36062E-01-1.59696E-14-1.56772E-13
 -1      1877 2.12255E+01 9.91061E-02 1.48288E-03 5.73996E-01-7.10716E-15-2.19057E-13
 -1      1878 2.14459E+01 1.07349E-01 6.84789E-03 6.34373E-01 1.43943E-14-2.09895E-13
 -1      1879 2.09802E+01 1.43535E-01-2.55900E-03 6.81012E-01-4.71988E-14-2.50356E-13
 -1      1880 2.16044E+01 1.11093E-01 1.37180E-03 7.14356E-01 7.08253E-14-2.40315E-13
 -1      1881 2.18716E+01 1.14640E-01 6.63440E-03 7.79914E-01 9.58036E-14-1.37029E-13
 -1      1882 2.12728E+01 1.62696E-01-2.88778E-03 8.48604E-01 7.03647E-14-2.64859E-13
 -1      1883 2.20614E+01 1.11770E-01 1.09983E-03 8.62442E-01 2.19709E-14-1.08736E-13
 -1      1884 2.23737E+01 1.04393E-01 4.93702E-03 9.24508E-01-8.84102E-15-1.36944E-13
 -1      1885 2.16248E+01 1.67062E-01-3.28599E-03 1.02922E+00 7.21998E-14-2.50994E-13
 -1      1886 2.25981E+01 8.81137E-02 7.51237E-04 9.95458E-01 2.93697E-14-5.55140E-14
 -1      1887 2.29437E+01 5.97194E-02 8.26783E-04 1.03675E+00 9.92957E-14-7.31407E-14
 -1      1888 2.20416E+01 1.38828E-01-3.88161E-03 1.20065E+00 4.59715E-14 3.27060E-15
 -1      1889 2.32064E+01 1.98904E-02 5.92216E-04 1.07014E+00 1.13183E-13-5.17481E-14
 -1      1890 2.35574E+01-4.30551E-02-6.57242E-03 1.06109E+00 1.95498E-13 2.18115E-14
 -1      1891 2.25274E+01 4.99493E-02-4.83995E-03 1.32014E+00 1.64290E-13-3.23127E-14
 -1      1892 2.38616E+01-1.18045E-01 1.03879E-03 1.01521E+00 7.66579E-14-8.75168E-14
 -1      1893 2.41676E+01-2.27178E-01-1.73252E-02 9.13419E-01-9.09281E-14-1.13244E-13
 -1      1894 2.30853E+01-1.35456E-01-6.14947E-03 1.31585E+00 5.68768E-14-7.73791E-14
 -1      1895 2.45107E+01-3.42077E-01 2.17326E-03 7.32428E-01-1.30797E-13-8.65922E-14
 -1      1896 2.46973E+01-4.91011E-01-2.92439E-02 4.93030E-01-5.58460E-14-8.74179E-14
 -1      1897 2.37123E+01-4.44202E-01-7.12297E-03 1.08388E+00-8.55891E-14-1.50495E-13
 -1      1898 2.50540E+01-6.23633E-01 2.37796E-03 1.25914E-01-3.35964E-14-6.94262E-14
 -1      1899 2.50353E+01-7.57792E-01-3.60902E-02-2.65000E-01-1.51146E-14-2.61915E-14
 -1      1900 2.43833E+01-8.47437E-01-5.77024E-03 5.07258E-01-9.05699E-15-1.56118E-13
 -1      1901 2.53258E+01-8.29690E-01-2.89382E-03-8.08167E-01-2.66696E-14 3.50523E-16
 -1      1902 2.50439E+01-8.24522E-01-2.83206E-02-1.27189E+00 3.82680E-15 4.62824E-15
 -1      1903 2.50091E+01-1.17994E+00 6.69106E-04-4.71244E-01 5.39152E-14-4.46816E-14
 -1      1904 2.51256E+01-7.03507E-01-1.76354E-02-1.82636E+00 2.73219E-16-3.73312E-14
 -1      1905 2.46155E+01-4.23116E-01-2.40476E-03-2.14273E+00-2.15578E-14-4.62668E-14
 -1      1906 2.53911E+01-1.10484E+00 9.19350E-03-1.69184E+00-1.86318E-14 2.48035E-14
 -1      1907 2.43849E+01-3.27377E-02-3.50071E-02-2.34990E+00-1.39718E-13-1.13826E-13
 -1      1908 2.38210E+01 4.73713E-01 2.04468E-02-2.22908E+00-1.82125E-13-1.95486E-13
 -1      1909 2.52851E+01-3.00277E-01 3.72965E-03-2.59863E+00-1.59769E-13-1.02670E-13
 -1      1910 2.34233E+01 9.52556E-01-4.00498E-02-1.76490E+00-2.65586E-13-2.55044E-13
 -1      1911 2.30760E+01 1.33557E+00 7.69893E-03-1.12169E+00-3.02314E-13-3.89870E-13
 -1      1912 2.47071E+01 1.06804E+00-2.53418E-02-2.39600E+00-2.81029E-13-2.47296E-13
 -1      1913 2.29224E+01 1.49233E+00-1.47412E-02-1.31931E-01-2.50036E-13-4.36871E-13
 -1      1914 2.29764E+01 1.39114E+00-2.90126E-02 6.80628E-01-2.07195E-13-5.60382E-13
 -1      1915 2.41722E+01 2.04307E+00-6.77050E-02-7.65412E-01-2.97068E-13-1.82850E-13
 -1      1916 2.32313E+01 1.06804E+00 1.50624E-02 1.53151E+00-1.56965E-13-6.10448E-13
 -1      1917 2.36399E+01 5.83441E-01-4.50189E-02 1.99440E+00-1.51656E-13-4.65537E-13
 -1      1918 2.42689E+01 1.78877E+00-5.80520E-02 1.33516E+00-1.87982E-13-2.90647E-13
 -1      1919 2.39802E+01 9.73726E-02 1.32430E-02 2.18711E+00-4.25146E-14-5.21465E-13
 -1      1920 2.44989E+01-3.53124E-01-3.18040E-02 2.11464E+00 6.51159E-14-4.86871E-13
 -1      1921 2.48359E+01 5.34462E-01-1.31243E-02 2.46858E+00-1.10585E-13-4.10670E-13
 -1      1922 2.45802E+01-6.48037E-01-1.29531E-02 1.72253E+00 1.67255E-13-4.42486E-13
 -1      1923 2.49609E+01-8.18248E-01-1.18566E-02 1.31200E+00 1.93883E-13-3.06862E-13
 -1      1924 2.52037E+01-6.92079E-01 1.27315E-02 2.16542E+00 1.10649E-13-3.86934E-13
 -1      1925 2.47460E+01-8.52548E-01-3.26295E-02 7.21009E-01 9.88445E-14-3.34867E-13
 -1      1926 2.48661E+01-7.89996E-01-8.37040E-04 2.59068E-01 3.79557E-14-4.12616E-13
 -1      1927 2.50301E+01-1.22042E+00 8.36565E-03 1.03333E+00 1.02805E-13-3.76001E-13
 -1      1928 2.44976E+01-6.83055E-01-3.41299E-02-2.37319E-01 4.67838E-14-3.22983E-13
 -1      1929 2.43642E+01-5.34040E-01 1.68134E-03-5.83563E-01 7.52818E-14-2.50210E-13
 -1      1930 2.44475E+01-1.10348E+00-1.42087E-03-1.57535E-01 1.66448E-13-3.18595E-13
 -1      1931 2.39647E+01-4.02157E-01-2.44839E-02-8.88442E-01 1.90957E-13-2.09656E-13
 -1      1932 2.36527E+01-2.63840E-01 1.12491E-03-1.08101E+00 1.87335E-13-5.26228E-14
 -1      1933 2.37044E+01-7.16430E-01-6.29246E-03-1.01221E+00 1.41768E-13 7.01000E-14
 -1      1934 2.32785E+01-1.59950E-01-1.24186E-02-1.21300E+00-3.18448E-14 1.43939E-14
 -1      1935 2.28751E+01-6.33013E-02 1.04292E-03-1.27935E+00 1.46473E-13 5.60645E-14
 -1      1936 2.29558E+01-3.33812E-01-6.84102E-03-1.46913E+00 1.14163E-13 7.31437E-14
 -1      1937 2.25420E+01 5.18473E-03-2.58703E-03-1.28983E+00 7.49822E-14-1.99674E-13
 -1      1938 2.21191E+01 6.54608E-02 2.25214E-03-1.27053E+00 6.64958E-14-3.45230E-13
 -1      1939 2.22635E+01-5.51969E-02-5.90028E-03-1.61122E+00-5.71491E-14-1.09994E-13
 -1      1940 2.18289E+01 1.09575E-01 3.65320E-03-1.20335E+00 3.39516E-14-4.45925E-13
 -1      1941 2.14375E+01 1.49609E-01 4.17563E-03-1.12805E+00-2.74169E-14-5.21832E-13
 -1      1942 2.16463E+01 1.24874E-01-5.03071E-03-1.54114E+00-1.26097E-13-3.33284E-13
 -1      1943 2.11885E+01 1.83861E-01 6.45337E-03-1.00988E+00 3.04661E-14-5.78156E-13
 -1      1944 2.08638E+01 2.17614E-01 5.98100E-03-8.91984E-01 3.86653E-14-5.79777E-13
 -1      1945 2.11113E+01 2.46923E-01-4.16878E-03-1.33299E+00-1.07826E-13-4.35710E-13
 -1      1946 2.06789E+01 2.40938E-01 6.55730E-03-7.42945E-01 2.24651E-13-5.41109E-13
 -1      1947 2.04374E+01 2.72371E-01 8.25397E-03-5.92734E-01 1.94769E-13-3.99465E-13
 -1      1948 2.03532E+01 3.89397E-01-3.53841E-03-6.93250E-01 1.95838E-13-3.28244E-13
 -1      1949 2.06811E+01 3.36871E-01-5.47306E-03-1.03711E+00 1.95603E-13-4.01974E-13
 -1      1950 1.96160E+01 1.42073E-01 7.88788E-03 2.60179E-01 2.53141E-13 3.08580E-13
 -1      1951 1.98884E+01 2.04021E-01 1.64045E-02 4.33173E-01 2.75722E-13 4.18880E-13
 -1      1952 2.01005E+01 3.50754E-01-1.43023E-03 6.55930E-01 3.39369E-13 2.39761E-13
 -1      1953 1.93731E+01 7.18624E-02 6.95115E-03 5.72569E-02 2.04364E-13 1.65991E-13
 -1      1954 1.94885E+01 1.01745E-01 1.41973E-02 1.45725E-01 2.10826E-13 2.52005E-13
 -1      1955 1.97072E+01 1.65253E-01-1.88976E-03 2.57179E-01 2.61617E-13 1.32130E-13
 -1      1956 1.92821E+01 3.61173E-02 4.42547E-03-4.81437E-02 1.30216E-13 9.30831E-14
 -1      1957 1.93126E+01 5.19212E-02 8.34156E-03-9.79167E-04 1.55302E-13 1.43689E-13
 -1      1958 1.95065E+01 8.06212E-02-2.81858E-03 4.52615E-02 1.97299E-13 4.17049E-14
 -1      1959 1.92798E+01 1.62379E-02 2.86016E-03-1.00661E-01 8.24924E-14-2.46018E-14
 -1      1960 1.92649E+01 2.50717E-02 4.35526E-03-7.60461E-02 9.47869E-14 4.90250E-14
 -1      1961 1.94270E+01 3.74714E-02-2.84740E-03-6.66314E-02 1.34112E-13-2.84874E-14
 -1      1962 1.93266E+01 4.70234E-03 1.99315E-03-1.22923E-01 1.13487E-13-5.72779E-14
 -1      1963 1.92885E+01 9.69227E-03 2.15797E-03-1.11441E-01 7.04280E-14-2.16270E-14
 -1      1964 1.94201E+01 1.37480E-02-2.31913E-03-1.22320E-01 9.29025E-14-9.87218E-14
 -1      1965 1.93980E+01-1.93072E-03 1.46127E-03-1.27534E-01 1.33710E-13-6.78779E-14
 -1      1966 1.93496E+01 7.48315E-04 9.70198E-04-1.23882E-01 1.28933E-13-3.91075E-14
 -1      1967 1.94546E+01 3.36587E-04-1.70374E-03-1.45236E-01 1.36356E-13-9.06891E-14
 -1      1968 1.94790E+01-5.46421E-03 1.09497E-03-1.22160E-01 1.36909E-13-1.60176E-13
 -1      1969 1.94279E+01-4.23970E-03 3.12071E-04-1.23071E-01 1.48979E-13-8.64634E-14
 -1      1970 1.95105E+01-6.99869E-03-1.19078E-03-1.48979E-01 1.82645E-13-1.16383E-13
 -1      1971 1.95609E+01-6.94825E-03 8.32256E-04-1.11735E-01 8.48652E-14-2.27485E-13
 -1      1972 1.95113E+01-6.65997E-03-5.04863E-05-1.15072E-01 1.08613E-13-1.92897E-13
 -1      1973 1.95757E+01-1.05011E-02-8.12207E-04-1.42015E-01 1.47198E-13-1.36468E-13
 -1      1974 1.96390E+01-7.03534E-03 6.48350E-04-9.95530E-02 6.58622E-14-2.51045E-13
 -1      1975 1.95929E+01-7.35413E-03-2.31077E-04-1.03867E-01 6.41549E-14-2.75059E-13
 -1      1976 1.96427E+01-1.14811E-02-5.50301E-04-1.29872E-01 9.91278E-14-2.03836E-13
 -1      1977 1.97114E+01-6.14094E-03 5.30511E-04-8.78840E-02 1.86875E-14-2.46032E-13
 -1      1978 1.96696E+01-6.85406E-03-2.91382E-04-9.21548E-02 3.22432E-14-2.35910E-13
 -1      1979 1.97077E+01-1.07475E-02-3.80730E-04-1.16291E-01 2.20710E-14-2.03653E-13
 -1      1980 1.97782E+01-4.52617E-03 4.70795E-04-7.83423E-02 3.60901E-14-2.77531E-13
 -1      1981 1.97403E+01-5.49735E-03-2.68686E-04-8.18265E-02 3.51492E-14-2.47567E-13
 -1      1982 1.97692E+01-8.80814E-03-2.83500E-04-1.03879E-01 5.01901E-14-2.42296E-13
 -1      1983 1.98409E+01-2.34604E-03 4.64050E-04-7.21358E-02 5.67926E-14-2.85110E-13
 -1      1984 1.98059E+01-3.49092E-03-1.86862E-04-7.42596E-02 1.73391E-14-2.81584E-13
 -1      1985 1.98275E+01-5.97390E-03-2.44158E-04-9.45245E-02 3.85430E-14-2.40826E-13
 -1      1986 1.99022E+01 3.17148E-04 5.06882E-04-7.02344E-02 3.28242E-14-2.61373E-13
 -1      1987 1.98684E+01-9.51497E-04-6.14734E-05-7.05212E-02 6.26840E-14-2.71067E-13
 -1      1988 1.98839E+01-2.42186E-03-2.52762E-04-8.96719E-02 6.91727E-14-2.50075E-13
 -1      1989 1.99655E+01 3.42566E-03 5.96584E-04-7.34811E-02 2.43062E-14-3.34638E-13
 -1      1990 1.99309E+01 2.06335E-03 9.70860E-05-7.15027E-02 3.67530E-14-2.60360E-13
 -1      1991 1.99411E+01 1.75890E-03-3.02701E-04-9.05057E-02 5.88742E-14-2.24147E-13
 -1      1992 2.00352E+01 6.95766E-03 7.29687E-04-8.26499E-02 1.44978E-13-3.75711E-13
 -1      1993 1.99972E+01 5.52622E-03 2.81118E-04-7.80003E-02 7.19479E-14-3.61854E-13
 -1      1994 2.00021E+01 6.52619E-03-3.89598E-04-9.80639E-02 1.27868E-13-2.90444E-13
 -1      1995 2.01159E+01 1.08732E-02 8.99884E-04-9.84469E-02-4.36314E-14-2.69615E-13
 -1      1996 2.00719E+01 9.40759E-03 4.83271E-04-9.07419E-02 1.22257E-13-3.00152E-13
 -1      1997 2.00710E+01 1.18403E-02-5.10286E-04-1.13282E-01 9.03443E-14-1.99696E-13
 -1      1998 2.02132E+01 1.50697E-02 1.09503E-03-1.21443E-01-1.65012E-13-3.82188E-13
 -1      1999 2.01601E+01 1.36352E-02 6.94011E-04-1.10351E-01-1.67372E-13-3.77642E-13
 -1      2000 2.01521E+01 1.76090E-02-6.61703E-04-1.36958E-01-8.34612E-14-2.02796E-13
 -1      2001 2.03326E+01 1.93206E-02 1.29296E-03-1.51911E-01 9.99363E-15-4.12664E-13
 -1      2002 2.02672E+01 1.80392E-02 8.98713E-04-1.37230E-01-7.35308E-14-4.15208E-13
 -1      2003 2.02501E+01 2.36139E-02-8.39577E-04-1.69623E-01-6.69560E-14-3.89941E-13
 -1      2004 2.04794E+01 2.31915E-02 1.45612E-03-1.89547E-01 1.09948E-13-4.66369E-13
 -1      2005 2.03987E+01 2.22765E-02 1.07430E-03-1.71336E-01 8.53211E-14-4.14723E-13
 -1      2006 2.03699E+01 2.94095E-02-1.03672E-03-2.11282E-01 7.31468E-14-3.92037E-13
 -1      2007 2.06583E+01 2.59296E-02 1.52551E-03-2.33016E-01 1.90719E-13-5.17890E-13
 -1      2008 2.05598E+01 2.57294E-02 1.18570E-03-2.11816E-01 1.72856E-13-4.61425E-13
 -1      2009 2.05160E+01 3.41877E-02-1.24072E-03-2.60981E-01 1.90088E-13-3.77634E-13
 -1      2010 2.08721E+01 2.63309E-02 1.41585E-03-2.79302E-01-2.97122E-14-4.98665E-13
 -1      2011 2.07543E+01 2.73776E-02 1.18291E-03-2.56457E-01 1.00694E-13-5.44919E-13
 -1      2012 2.06919E+01 3.66062E-02-1.43056E-03-3.16172E-01 1.29120E-13-4.33149E-13
 -1      2013 2.11201E+01 2.26140E-02 1.01670E-03-3.22835E-01-2.13017E-13-4.78565E-13
 -1      2014 2.09839E+01 2.56602E-02 1.00065E-03-3.00930E-01-1.77004E-13-5.05192E-13
 -1      2015 2.08994E+01 3.46023E-02-1.57139E-03-3.71818E-01-1.42397E-13-4.26945E-13
 -1      2016 2.13962E+01 1.23773E-02 2.07811E-04-3.54482E-01-1.78356E-13-3.19410E-13
 -1      2017 2.12458E+01 1.83805E-02 5.63908E-04-3.37866E-01-2.08731E-13-4.06340E-13
 -1      2018 2.11367E+01 2.52608E-02-1.60664E-03-4.19301E-01-2.67860E-13-3.72961E-13
 -1      2019 2.16862E+01-7.18752E-03-1.09869E-03-3.60653E-01-2.14045E-14-2.47834E-13
 -1      2020 2.15308E+01 2.78167E-03-1.96312E-04-3.55918E-01-1.20777E-13-3.24340E-13
 -1      2021 2.13971E+01 4.90247E-03-1.44720E-03-4.45295E-01-1.43089E-13-2.98150E-13
 -1      2022 2.19654E+01-3.85217E-02-2.87687E-03-3.23202E-01 1.17818E-13-2.54085E-14
 -1      2023 2.18207E+01-2.39574E-02-1.31198E-03-3.39296E-01 8.16337E-14-1.16708E-13
 -1      2024 2.16669E+01-3.02800E-02-9.60771E-04-4.31128E-01 1.93436E-14-1.28116E-13
 -1      2025 2.21962E+01-8.19478E-02-4.87072E-03-2.21361E-01-3.72688E-14 1.82450E-14
 -1      2026 2.20855E+01-6.34175E-02-2.73345E-03-2.68690E-01-1.69921E-14 5.95366E-14
 -1      2027 2.19231E+01-8.25294E-02 2.79722E-05-3.53672E-01-4.45468E-14 8.18837E-14
 -1      2028 2.23291E+01-1.32661E-01-6.48961E-03-3.75983E-02-1.04079E-13 1.39253E-13
 -1      2029 2.22818E+01-1.13420E-01-4.28019E-03-1.25156E-01-1.04870E-13 8.56869E-14
 -1      2030 2.21315E+01-1.49244E-01 1.69697E-03-1.89534E-01-7.51031E-14 2.15328E-13
 -1      2031 2.23085E+01-1.77078E-01-6.85468E-03 2.30773E-01 8.01009E-14 7.90136E-14
 -1      2032 2.23554E+01-1.64376E-01-5.60546E-03 1.01196E-01 4.41114E-14 1.20460E-13
 -1      2033 2.22476E+01-2.18211E-01 4.10179E-03 7.52622E-02 4.17869E-14 2.28055E-13
 -1      2034 2.20856E+01-1.91335E-01-5.19762E-03 5.54870E-01-8.83313E-14 2.28992E-14
 -1      2035 2.22498E+01-1.96239E-01-6.22570E-03 3.97042E-01 2.30423E-14 7.16289E-14
 -1      2036 2.22216E+01-2.63519E-01 6.90602E-03 4.28926E-01 1.89440E-14 1.55461E-13
 -1      2037 2.16430E+01-1.47243E-01-1.63129E-03 8.59821E-01-3.66998E-14-2.16107E-13
 -1      2038 2.19259E+01-1.80486E-01-5.56262E-03 7.10138E-01-1.17576E-13-1.10668E-13
 -1      2039 2.20114E+01-2.47943E-01 9.03858E-03 8.14520E-01-2.76107E-14-5.01175E-14
 -1      2040 2.10241E+01-3.02381E-02 2.10479E-03 1.02948E+00 7.64363E-16-8.47378E-14
 -1      2041 2.13918E+01-9.30842E-02-3.23516E-03 9.44102E-01 2.48777E-14-1.24798E-13
 -1      2042 2.16089E+01-1.38717E-01 8.72186E-03 1.12067E+00-2.28320E-14-6.36765E-14
 -1      2043 2.03537E+01 1.36926E-01 3.46064E-03 9.48737E-01-1.20744E-13-8.82003E-14
 -1      2044 2.07327E+01 6.19916E-02 8.23134E-04 9.82132E-01-7.92547E-14-7.38784E-14
 -1      2045 2.10710E+01 6.23667E-02 4.41918E-03 1.20442E+00-9.29424E-14-1.36557E-14
 -1      2046 1.98226E+01 2.86601E-01 1.29746E-03 5.79427E-01 1.96889E-13-6.99081E-14
 -1      2047 2.01136E+01 2.33989E-01 5.99550E-03 7.47427E-01 8.04738E-14-3.52947E-14
 -1      2048 2.05354E+01 2.94776E-01-2.77876E-03 9.60121E-01 5.67567E-14 3.86401E-14
 -1      2049 1.96133E+01 3.40404E-01-2.37686E-03 1.82498E-02 1.09590E-13-9.79984E-14
 -1      2050 1.97275E+01 3.40669E-01 1.04015E-02 2.73016E-01 1.68686E-13-4.23628E-14
 -1      2051 2.01843E+01 4.55081E-01-8.31288E-03 4.08562E-01 1.89888E-13 1.53693E-13
 -1      2052 1.97987E+01 2.67210E-01-3.98223E-03-5.31274E-01-1.84940E-13-1.58287E-13
 -1      2053 1.97013E+01 3.22756E-01 1.17339E-02-2.83825E-01-8.44758E-14-2.42439E-13
 -1      2054 2.01503E+01 4.57909E-01-8.35346E-03-2.71778E-01 5.20139E-14 5.45002E-14
 -1      2055 2.02929E+01 1.08257E-01-2.04786E-03-8.70818E-01-5.22412E-15-2.11034E-13
 -1      2056 2.00239E+01 1.90289E-01 8.86209E-03-7.18064E-01-5.09523E-14-1.30179E-13
 -1      2057 2.04316E+01 3.00072E-01-3.41192E-03-8.27545E-01-4.76503E-14-1.33669E-13
 -1      2058 2.09002E+01-5.59765E-02 1.79079E-03-9.15433E-01-6.55695E-14-2.31653E-13
 -1      2059 2.05553E+01 1.44537E-02 3.08171E-03-8.91880E-01-1.23670E-13-2.95040E-13
 -1      2060 2.08923E+01 6.28218E-02 2.07958E-03-1.07474E+00-7.45766E-14-2.38294E-13
 -1      2061 2.14216E+01-1.63668E-01 4.54963E-03-7.13379E-01-9.60169E-15 4.15249E-14
 -1      2062 2.11062E+01-1.27263E-01-2.99416E-03-7.96317E-01-3.98553E-14-4.77916E-14
 -1      2063 2.13490E+01-1.47772E-01 4.49076E-03-9.86507E-01-1.62255E-13 7.83401E-15
 -1      2064 2.17336E+01-1.98044E-01 5.02282E-03-3.84657E-01-1.43698E-13-1.66088E-13
 -1      2065 2.15223E+01-1.96272E-01-7.16311E-03-5.22380E-01-5.65494E-14-1.74312E-13
 -1      2066 2.16632E+01-2.65630E-01 3.76207E-03-6.66508E-01-5.64392E-15-1.41223E-13
 -1      2067 2.18037E+01-1.76344E-01 3.81916E-03-4.69276E-02 4.31356E-14 7.31923E-15
 -1      2068 2.17251E+01-1.97024E-01-8.59482E-03-1.89744E-01-2.72490E-14-3.38080E-14
 -1      2069 2.17776E+01-2.84224E-01 1.93228E-03-2.61421E-01-9.60169E-14-5.77346E-14
 -1      2070 2.16649E+01-1.25627E-01 2.21729E-03 2.23980E-01 3.99738E-13-1.23718E-13
 -1      2071 2.17089E+01-1.55292E-01-7.69417E-03 1.08120E-01 2.09662E-13-3.27915E-14
 -1      2072 2.17022E+01-2.34432E-01 5.00107E-04 1.10085E-01 2.27561E-13-2.34123E-14
 -1      2073 2.13816E+01-6.65844E-02 1.10163E-03 3.95899E-01 1.65507E-13-9.55781E-14
 -1      2074 2.15153E+01-9.64502E-02-5.41166E-03 3.21146E-01 3.05145E-13-4.22236E-14
 -1      2075 2.14827E+01-1.53270E-01-2.18261E-04 3.82169E-01 2.79000E-13 1.04954E-13
 -1      2076 2.10252E+01-9.34876E-03 7.12082E-04 4.64490E-01 1.11134E-13-1.59808E-13
 -1      2077 2.12074E+01-3.58946E-02-2.69738E-03 4.33776E-01 1.86176E-13-8.60648E-14
 -1      2078 2.11763E+01-6.60025E-02-5.75547E-04 5.32612E-01 2.09001E-13 1.68371E-13
 -1      2079 2.06620E+01 4.37089E-02 6.93521E-04 4.36751E-01-4.61272E-14-6.10271E-14
 -1      2080 2.08520E+01 2.08253E-02-3.11469E-04 4.48828E-01 1.95341E-15-7.46491E-14
 -1      2081 2.08382E+01 1.65812E-02-9.41622E-04 5.63564E-01 2.93266E-14 1.07256E-13
 -1      2082 2.03488E+01 9.18388E-02 1.69215E-03 3.23858E-01-3.81722E-14 2.85990E-14
 -1      2083 2.05093E+01 7.15524E-02 1.03064E-03 3.76184E-01-3.44453E-14 1.10410E-13
 -1      2084 2.05150E+01 9.07289E-02-1.53135E-03 4.86962E-01-6.32530E-14 3.28949E-13
 -1      2085 2.01550E+01 1.21165E-01 3.50644E-03 1.96461E-01-2.89707E-13 1.36335E-13
 -1      2086 2.02693E+01 1.08849E-01 1.34376E-03 2.73730E-01-1.23113E-13 6.29311E-14
 -1      2087 2.02844E+01 1.44831E-01-2.18375E-03 3.65473E-01-1.81930E-13 2.89327E-13
 -1      2088 2.01436E+01 1.85034E-01 6.67367E-04 2.46370E-01-3.36246E-13 3.55516E-13
 -1      2089 2.00621E+01 1.09102E+00 1.51112E-03 7.02248E-01-6.42264E-14 9.43182E-14
 -1      2090 2.00885E+01 8.65968E-01 3.18968E-03 6.58896E-01-7.84160E-14 4.44761E-14
 -1      2091 2.01114E+01 7.06536E-01 2.95780E-03 5.88996E-01 2.55633E-14 9.62281E-14
 -1      2092 2.01332E+01 5.19189E-01 3.65328E-03 5.17739E-01-7.88424E-14 3.44122E-13
 -1      2093 2.01479E+01 6.96671E-01-2.75563E-03 7.85961E-01-2.37101E-13-3.67458E-15
 -1      2094 2.01352E+01 4.19287E-01 3.13828E-03 4.28607E-01-1.43947E-13 2.98798E-13
 -1      2095 2.01491E+01 2.78159E-01 3.58515E-03 3.40692E-01-2.65153E-13 3.09619E-13
 -1      2096 2.02113E+01 2.61867E-01 2.07322E-03 4.10137E-01-2.88922E-13 2.23660E-13
 -1      2097 2.01938E+01 4.46232E-01-9.52268E-04 6.08444E-01-1.35843E-13 3.47036E-13
 -1      2098 2.00009E+01 1.50591E+00-1.61490E-03 7.45999E-01-4.02888E-13-7.32528E-13
 -1      2099 2.00338E+01 1.26854E+00 1.75195E-03 7.36474E-01-3.08066E-13-1.28887E-14
 -1      2100 2.00697E+01 1.03275E+00-1.89352E-03 9.02814E-01-4.15653E-13-1.53078E-13
 -1      2101 1.99261E+01 1.92676E+00-5.32203E-03 7.02762E-01-1.91080E-13-5.08646E-13
 -1      2102 1.99657E+01 1.69637E+00-1.27590E-04 7.34027E-01-1.18129E-13-7.05634E-13
 -1      2103 1.99729E+01 1.40167E+00-1.16983E-04 9.29519E-01-3.85667E-13-5.84883E-13
 -1      2104 1.98479E+01 2.29354E+00-8.63697E-03 5.58854E-01 5.53138E-14 4.40160E-13
 -1      2105 1.98881E+01 2.10519E+00-2.50100E-03 6.34775E-01 8.90273E-14-1.16691E-13
 -1      2106 1.98606E+01 1.77174E+00 2.56916E-03 8.41575E-01 7.61158E-14-2.32052E-13
 -1      2107 1.97819E+01 2.54924E+00-1.06603E-02 3.18358E-01-1.80530E-13 1.56073E-13
 -1      2108 1.98136E+01 2.43288E+00-5.17542E-03 4.34426E-01-1.83126E-13 4.56332E-13
 -1      2109 1.97492E+01 2.09051E+00 5.69459E-03 6.26898E-01 1.53848E-15 2.86845E-13
 -1      2110 1.97456E+01 2.64471E+00-1.08392E-02 7.99660E-03 2.42795E-14-1.26893E-13
 -1      2111 1.97600E+01 2.62286E+00-7.68060E-03 1.49615E-01-1.54695E-13 2.77382E-15
 -1      2112 1.96625E+01 2.30379E+00 8.34308E-03 2.97973E-01-3.41539E-13 1.58160E-13
 -1      2113 1.97519E+01 2.55297E+00-9.11610E-03-3.24590E-01-7.96793E-14-1.56000E-13
 -1      2114 1.97434E+01 2.63475E+00-9.26256E-03-1.80260E-01 1.01881E-14-6.77618E-14
 -1      2115 1.96245E+01 2.36687E+00 9.54815E-03-1.03620E-01-2.20267E-13-1.75864E-13
 -1      2116 1.98025E+01 2.28558E+00-5.70530E-03-6.16565E-01-1.39831E-13-3.91431E-13
 -1      2117 1.97712E+01 2.45886E+00-9.43223E-03-4.97143E-01-1.24270E-13-2.40338E-13
 -1      2118 1.96502E+01 2.26090E+00 9.00616E-03-5.09695E-01-2.16889E-14-2.96295E-13
 -1      2119 1.98924E+01 1.87117E+00-1.37961E-03-8.22969E-01 1.47768E-13 5.78043E-13
 -1      2120 1.98421E+01 2.11756E+00-7.85560E-03-7.47525E-01 3.89784E-14 3.01848E-13
 -1      2121 1.97391E+01 1.99761E+00 6.63784E-03-8.51045E-01 1.08727E-13 9.92446E-14
 -1      2122 2.00093E+01 1.37636E+00 3.11391E-03-8.95962E-01 3.89290E-13 1.50210E-13
 -1      2123 1.99462E+01 1.65551E+00-5.13376E-03-8.83829E-01 2.26433E-13 2.42856E-13
 -1      2124 1.98821E+01 1.61344E+00 3.42083E-03-1.06680E+00 2.05024E-13 4.84297E-13
 -1      2125 2.01417E+01 8.65726E-01 3.34715E-03-8.16165E-01 3.83367E-13-6.90106E-14
 -1      2126 2.00681E+01 1.14247E+00-2.93050E-03-8.72877E-01 3.46367E-13 3.47812E-16
 -1      2127 2.00596E+01 1.16774E+00 3.00348E-04-1.10980E+00 4.06376E-13 1.50860E-14
 -1      2128 1.11214E+01-5.37470E+00-1.59148E-01 6.71009E+00 1.01252E-13 3.56271E-13
 -1      2129 7.70126E+00-6.45982E+00-2.47762E-01 5.95696E+00-1.80966E-14 2.80831E-13
 -1      2130 5.77937E-01-7.05993E+00-3.34456E-01 1.17336E+00-2.11497E-13 6.69020E-13
 -1      2131 5.52856E-01-6.88104E+00-2.97552E-01-4.77252E-01-2.82344E-13 8.05189E-13
 -1      2132 4.19883E+00-5.76357E+00-1.50805E-01 4.70788E+00-2.01228E-13 2.64788E-13
 -1      2133 1.73264E+00-7.24783E+00-4.03469E-01 2.80700E+00-2.87770E-13 5.09759E-13
 -1      2134 2.87688E+00-4.22101E+00-8.11108E-02 2.53950E+00-3.59754E-13 6.89115E-13
 -1      2135 2.00820E+01-3.55894E+00 3.99059E-03 6.99834E+00-1.18239E-14 4.26770E-13
 -1      2136 1.51299E+01-5.31301E+00-2.69827E-01 6.41493E+00-3.63043E-14 3.61627E-13
 -1      2137 2.03436E+01-3.88107E+00-9.06605E-03 6.41754E+00-6.07292E-13-2.37477E-13
 -1      2138 1.66685E+01-5.35549E+00-2.06253E-01 6.01714E+00-4.65794E-13-2.99316E-13
 -1      2139 4.12247E+01 5.93566E+00 4.47392E-01 1.24434E+00-6.74349E-13 1.37335E-13
 -1      2140 3.84673E+01 4.96395E+00 2.55604E-01 2.24193E+00-5.53280E-13-4.30767E-14
 -1      2141 2.90757E+01-1.68842E-03 2.17957E-01 5.64124E+00 1.13409E-13 3.37397E-13
 -1      2142 2.43925E+01-2.27289E+00-1.21056E-01 5.36584E+00 2.24265E-14 2.68841E-13
 -1      2143 1.95187E+01 4.01545E+00-2.69989E-02-1.70402E+00-3.54987E-13-4.60623E-13
 -1      2144 1.96462E+01 3.94588E+00-2.46360E-02-1.95537E+00-4.04427E-13-3.73878E-13
 -1      2145 1.99711E+01 3.24672E+00-1.38922E-02-1.91958E+00-4.31638E-13-3.02054E-13
 -1      2146 1.96978E+01 3.58469E+00-7.21685E-03-1.52200E+00-3.49200E-13-4.63090E-13
 -1      2147 3.93190E+01 5.95032E+00 3.54265E-01 1.80258E+00 3.34510E-13 1.07914E-13
 -1      2148 3.64407E+01 5.02387E+00 1.45642E-01 2.54877E+00 2.20990E-13 4.53526E-14
 -1      2149 3.97362E+01 7.44115E+00 2.78786E-01-1.52890E-02 6.30385E-13 2.87003E-13
 -1      2150 4.00032E+01 6.99509E+00 3.65848E-01 1.22769E+00 5.22304E-13 2.45748E-13
 -1      2151 3.55814E+01 7.14258E+00 2.84625E-01-5.96692E-02 2.50466E-13-4.49363E-14
 -1      2152 3.96160E+01 6.47547E+00 3.68781E-01-1.86906E+00 4.65961E-13 1.04028E-13
 -1      2153 4.01860E+01 7.18712E+00 3.49413E-01-4.10889E-01 6.85729E-13 3.99930E-13
 -1      2154 3.43859E+01 3.72786E+00 6.14511E-02-2.96082E+00 6.17895E-13-1.00475E-13
 -1      2155 3.80534E+01 5.03487E+00 3.54600E-01-2.35903E+00 4.83835E-13-2.67009E-14
 -1      2156 2.79720E+01-1.32737E-01-7.36385E-02-4.79426E+00 2.90101E-13-4.33431E-13
 -1      2157 3.23958E+01 1.51560E+00 1.75379E-01-4.30016E+00 4.87874E-13-1.86462E-13
 -1      2158 1.97560E+01-3.14922E+00-2.33417E-01-6.15186E+00 3.55882E-13-4.64406E-13
 -1      2159 2.47313E+01-1.24221E+00 8.19466E-02-6.54196E+00 2.37865E-13-6.77902E-13
 -1      2160 1.12464E+01-5.65276E+00-3.83958E-01-6.02219E+00 5.97300E-13-2.47663E-13
 -1      2161 1.55905E+01-3.66980E+00-6.69378E-02-7.01552E+00 6.14619E-13-2.94820E-13
 -1      2162 4.64971E+00-7.10241E+00-4.17785E-01-4.71257E+00 3.20521E-13-1.78885E-13
 -1      2163 7.68431E+00-5.72390E+00-2.26820E-01-5.88053E+00 5.06040E-13-2.47372E-13
 -1      2164 7.47698E-01-7.42976E+00-4.08098E-01-1.90941E+00 1.90320E-13-6.74349E-13
 -1      2165 2.19396E+00-6.52114E+00-2.73026E-01-3.51154E+00 2.57683E-13-3.43836E-13
 -1      2166 5.42637E-01-6.86510E+00-3.33140E-01 1.33514E+00-2.80331E-15-7.75324E-13
 -1      2167 7.71089E-02-7.60464E+00-4.33212E-01-2.39774E-01 3.09738E-13-7.68552E-13
 -1      2168 5.15291E+00-6.30400E+00-2.28616E-01 4.71460E+00-2.17881E-13-7.77545E-13
 -1      2169 2.93835E+00-6.73053E+00-2.88748E-01 3.44204E+00 9.23706E-14-8.93119E-13
 -1      2170 1.26561E+01-5.32401E+00-5.06217E-02 6.62141E+00-3.15192E-13-6.24625E-13
 -1      2171 8.25806E+00-6.71378E+00-3.39235E-01 5.37756E+00-2.85494E-13-7.04561E-13
 -1      2172 9.30091E+00-5.28617E+00-3.71030E-02 6.11638E+00-8.20455E-14-7.94864E-13
 -1      2173 3.68933E+01 3.12826E+00 3.63491E-01 3.11690E+00-4.23508E-13-2.64677E-13
 -1      2174 3.24648E+01 1.38538E+00 6.89839E-03 3.44890E+00-4.44492E-13-3.19522E-13
 -1      2175 4.11215E+01 7.27465E+00 3.23113E-01-4.53127E-01-5.70877E-13 2.07383E-13
 -1      2176 4.17048E+01 6.95601E+00 4.56463E-01 6.58592E-01-6.06071E-13 1.41193E-13
 -1      2177 3.94613E+01 5.84913E+00 2.89579E-01-1.64874E+00-5.75651E-13 1.91902E-13
 -1      2178 4.04150E+01 6.73765E+00 3.12970E-01-5.62362E-01-4.02900E-13 1.40193E-13
 -1      2179 3.54468E+01 3.32513E+00 1.16551E-01-2.84061E+00-4.57190E-13 1.05471E-13
 -1      2180 3.89092E+01 4.58396E+00 3.65733E-01-2.34004E+00-5.73985E-13 1.44218E-13
 -1      2181 3.59791E+01 5.44404E+00 3.11131E-01 3.42920E-01-3.93130E-13-3.28626E-13
 -1      2182 2.89753E+01-3.24181E-01-6.04183E-02-4.84139E+00-3.25184E-13 2.80220E-13
 -1      2183 3.33619E+01 1.30178E+00 2.35432E-01-4.39037E+00-4.50917E-13 1.24789E-13
 -1      2184 2.16238E+01-3.55850E+00-1.98543E-01-5.75698E+00-5.72320E-14 5.67602E-13
 -1      2185 2.63679E+01-1.44621E+00 1.48951E-01-6.14083E+00-1.26232E-13 5.25580E-13
 -1      2186 2.90037E+01-2.54583E+00 1.24319E-01-3.61665E+00 5.32907E-15 3.14193E-14
 -1      2187 1.27881E+01-6.09765E+00-3.35501E-01-6.04437E+00-1.76748E-13 4.85306E-13
 -1      2188 1.74501E+01-4.46708E+00-3.12795E-02-6.87486E+00-1.23568E-13 7.32886E-13
 -1      2189 6.78292E+00-6.77457E+00-2.71837E-01-5.30278E+00-3.14082E-13-2.63400E-14
 -1      2190 9.73925E+00-5.94482E+00-1.75628E-01-6.16982E+00-4.05342E-13 2.15009E-13
 -1      2191 1.39954E+01-6.05198E+00-6.18711E-02-6.85177E+00-6.90559E-14 2.29719E-13
 -1      2192 1.15425E+00-7.66440E+00-4.36541E-01-2.22186E+00-1.66867E-13 5.64604E-13
 -1      2193 3.03361E+00-6.54922E+00-2.60485E-01-3.86698E+00-3.18967E-13 1.02029E-13
 -1      2194 3.48823E+01 2.99178E+00 2.49855E-01 3.76842E+00 1.99091E-13 1.38833E-13
 -1      2195 3.09801E+01 1.43422E+00 1.32104E-03 4.45921E+00 1.42539E-13 2.49467E-13
 -1      2196 3.03685E+01-7.97193E-01 1.53719E-01 2.71948E+00-1.25372E-13-1.35003E-13
 -1      2197 2.46962E+01-4.70363E+00 3.59655E-03 4.75536E+00-4.56801E-13-1.36890E-13
 -1      2198 3.13258E+01-1.12900E+00 1.42368E-01 1.99538E+00-4.26464E-13-2.20546E-13
 -1      2199 2.07337E+01 1.10842E+00-2.07797E-02-1.61677E+00-4.18110E-13 4.30090E-13
 -1      2200 2.06245E+01 1.33002E+00-1.86691E-02-1.67878E+00-4.40479E-13 1.69240E-13
 -1      2201 7.20572E+00-5.55153E+00-9.24259E-02 5.75906E+00-2.08611E-13 2.79970E-13
 -1      2202 7.23011E+00-3.77760E+00 1.48104E-01 5.61728E+00-4.27103E-13 3.96627E-13
 -1      2203 1.03523E+01-5.01312E+00-8.77263E-02 6.85109E+00-3.82250E-13 1.53377E-13
 -1      2204 1.57056E+01-5.73323E+00-9.73547E-03 7.10330E+00-1.99951E-13 2.98947E-13
 -1      2205 2.01990E+01 6.91123E-01 4.14432E-03-7.97066E-01 3.46151E-13-1.08569E-13
 -1      2206 2.18711E+00-4.79056E+00-1.55512E-01-1.61187E+00-9.03583E-14 6.07736E-13
 -1      2207 2.42213E+01-4.35253E+00 5.79202E-02 5.34553E+00-1.25344E-13 1.24872E-13
 -1      2208 1.67367E+01-5.89323E+00-1.96826E-02 6.41343E+00-2.59071E-13-3.10741E-13
 -1      2209 3.39886E+01 3.46407E+00 2.25241E-01 8.75799E-01 8.83738E-14-3.00704E-13
 -1      2210 6.71317E+00-5.56896E+00-1.06927E-01-5.43839E+00-1.88016E-13 1.16046E-13
 -1      2211 2.17597E+01-5.33017E+00-1.13032E-02-5.87917E+00 6.19504E-14 3.90687E-13
 -1      2212 3.38811E+01 1.42883E+00 2.32794E-01-1.21895E+00-2.20692E-13-3.29070E-13
 -1      2213 3.71406E+01 7.60593E+00 3.13253E-01 1.18706E-01-4.64018E-13-1.70503E-13
 -1      2214 3.27228E+00-4.83148E+00-1.26987E-01 3.06973E+00 9.07885E-14-8.30225E-13
 -1      2215 3.56120E+01 3.71975E+00 2.81302E-01 8.84961E-02-6.17423E-13-4.19664E-14
 -1      2216 1.64881E+00-4.75830E+00-1.75934E-01-1.40800E+00 6.03406E-14-6.46205E-13
 -1      2217 4.99400E+00-5.36930E+00-1.79666E-01-5.00219E+00 3.53051E-14-2.28983E-13
 -1      2218 1.17649E+01-5.73332E+00-1.34453E-01-6.85746E+00 2.75113E-13-2.02748E-13
 -1      2219 2.01864E+01-4.72029E+00 1.79175E-02-6.42360E+00 2.22045E-13-2.02199E-13
 -1      2220 2.77677E+01-2.37133E+00 1.47074E-01-3.93612E+00 1.27121E-13-1.46327E-13
 -1      2221 3.25440E+01 1.68404E+00 1.80611E-01-1.09424E+00 4.03483E-13 1.44829E-13
 -1      2222 3.74653E+01 7.14542E+00 3.89573E-01-3.70095E-01-6.60694E-13-3.43336E-14
 -1      2223 3.73959E+01 7.58418E+00 2.19112E-01 5.58215E-03 7.04936E-13 2.90032E-13
 -1      2224 3.33749E+01 7.91987E+00-4.93528E-02 8.04453E-02 5.42733E-13 2.80852E-14
 -1      2225 3.37357E+01 7.65489E+00-2.23917E-02 2.71570E-01 6.40599E-13 2.17243E-13
 -1      2226 3.53852E+01 6.03693E+00 2.61766E-01 8.14130E-04 5.72542E-13 2.97040E-13
 -1      2227 2.01459E+01 5.06071E-01 3.74752E-03 6.79612E-01 3.39107E-13 5.11115E-14
 -1      2228 2.04133E+01 6.99006E-01 2.04522E-02 9.70231E-01 3.75890E-13 1.10743E-13
 -1      2229 1.95621E+01 3.51569E+00-1.10911E-02-5.92145E-01-1.61852E-13-5.73612E-13
 -1      2230 1.95974E+01 3.46991E+00-1.04306E-02-7.76616E-01-2.09808E-13-5.56994E-13
 -1      2231 1.96436E+01 3.38202E+00-1.26583E-02-9.41155E-01-2.43245E-13-5.20763E-13
 -1      2232 1.97044E+01 3.30104E+00-1.26251E-02-1.13060E+00-3.00708E-13-4.95898E-13
 -1      2233 1.97885E+01 3.03286E+00 2.60861E-04-7.93235E-01-2.11150E-13-5.06029E-13
 -1      2234 1.95153E+01 3.59812E+00-9.62526E-03 9.95549E-02 1.61358E-15-6.11448E-13
 -1      2235 1.95146E+01 3.59895E+00-9.62864E-03-8.01234E-02-4.23497E-14-6.05819E-13
 -1      2236 1.95412E+01 3.55874E+00-9.72825E-03 4.46022E-01 7.60903E-14-6.08476E-13
 -1      2237 1.95239E+01 3.58130E+00-1.01425E-02 2.65001E-01 3.37640E-14-6.13557E-13
 -1      2238 1.96815E+01 3.22080E+00-8.96629E-04 1.69816E-01 1.53051E-14-5.76721E-13
 -1      2239 1.96025E+01 3.46226E+00-1.06190E-02 7.90356E-01 1.69821E-13-5.71847E-13
 -1      2240 1.95665E+01 3.50925E+00-1.12119E-02 6.08759E-01 1.13040E-13-5.94950E-13
 -1      2241 1.97180E+01 3.15732E+00-4.99816E-04 4.88673E-01 8.61829E-14-5.66027E-13
 -1      2242 1.97126E+01 3.28857E+00-1.29645E-02 1.14398E+00 2.81438E-13-4.85814E-13
 -1      2243 1.96502E+01 3.37189E+00-1.28857E-02 9.54588E-01 2.17598E-13-5.29150E-13
 -1      2244 1.97945E+01 3.02371E+00 2.66085E-04 8.04693E-01 1.91778E-13-5.04575E-13
 -1      2245 1.98910E+01 3.00302E+00-1.81934E-02 1.49128E+00 3.84992E-13-4.16283E-13
 -1      2246 1.97919E+01 3.14432E+00-1.51895E-02 1.30076E+00 3.23721E-13-4.50882E-13
 -1      2247 1.99230E+01 2.79860E+00 1.91621E-03 1.11123E+00 2.90732E-13-4.30395E-13
 -1      2248 2.01682E+01 2.54342E+00-2.85210E-02 1.79560E+00 4.65294E-13-2.82028E-13
 -1      2249 2.00176E+01 2.78296E+00-1.71356E-02 1.62127E+00 4.07169E-13-3.57507E-13
 -1      2250 2.01169E+01 2.44832E+00 5.89882E-03 1.37724E+00 3.77355E-13-3.41736E-13
 -1      2251 2.03992E+01 8.54877E-01 1.29429E-02-1.00207E+00-3.67763E-13 3.78588E-14
 -1      2252 2.01884E+01 6.27973E-01-4.01025E-03-6.92026E-01-3.37314E-13 1.41817E-14
 -1      2253 3.15491E+01-8.43660E-01-1.27983E-01 2.12398E-01-2.37445E-13-5.01266E-14
 -1      2254 2.92342E+01-2.92092E+00-3.16083E-02 1.33070E+00-2.51008E-13 7.28306E-14
 -1      2255 1.98680E+01 2.67957E-01 4.71555E-03 2.86643E-01 2.73016E-13-1.24354E-14
 -1      2256 2.00284E+01 3.67970E-01 2.00295E-02 4.43446E-01 3.08337E-13 4.06489E-14
 -1      2257 2.02098E+01 6.36721E-01-1.16078E-03 7.07026E-01 3.57592E-13-7.65590E-14
 -1      2258 2.05462E+01 1.95500E+00-1.36942E-02-1.89945E+00-4.59816E-13-7.46625E-15
 -1      2259 2.04092E+01 1.21403E+00-7.27073E-03-1.28839E+00-4.16247E-13 1.18695E-14
 -1      2260 2.03802E+01 1.38025E+00 7.27171E-03-1.23849E+00-3.98530E-13-1.01948E-13
 -1      2261 2.02888E+01 2.38471E+00-4.82531E-03-1.84363E+00-4.61539E-13-1.38448E-13
 -1      2262 2.01224E+01 4.68892E-01 1.61244E-02-4.76733E-01-3.07065E-13 2.39430E-14
 -1      2263 1.99811E+01 3.44137E-01 2.63314E-05-3.05214E-01-2.79267E-13-8.12165E-15
 -1      2264 2.02432E+01 7.44946E-01-1.73530E-03-6.95849E-01-3.42318E-13-8.24808E-14
 -1      2265 1.99177E+01 2.59259E-01 1.08802E-02-1.67700E-01-2.37921E-13-7.91901E-16
 -1      2266 1.98387E+01 1.87860E-01 6.95932E-04-7.05615E-02-1.88506E-13-4.29434E-14
 -1      2267 2.00785E+01 4.16112E-01-3.69820E-03-3.12128E-01-2.69144E-13-7.60321E-14
 -1      2268 1.97942E+01 1.38486E-01 6.38509E-03 1.15196E-02-1.44354E-13-4.84203E-14
 -1      2269 1.97590E+01 9.62757E-02 7.17296E-04 6.48516E-02-1.03742E-13-5.05558E-14
 -1      2270 1.99578E+01 2.27110E-01-3.66693E-03-7.32431E-02-1.90508E-13-7.51725E-14
 -1      2271 1.97332E+01 6.65092E-02 3.58208E-03 1.10680E-01-8.71861E-14-1.08726E-13
 -1      2272 1.97258E+01 4.11603E-02 6.38229E-04 1.37379E-01-8.64792E-14-1.24369E-13
 -1      2273 1.98821E+01 1.15054E-01-2.95471E-03 6.76504E-02-1.35296E-13-1.51845E-13
 -1      2274 1.97143E+01 2.31297E-02 1.86383E-03 1.59906E-01-1.05244E-13-1.24268E-13
 -1      2275 1.97236E+01 8.19158E-03 5.39781E-04 1.70365E-01-1.20255E-13-1.52933E-13
 -1      2276 1.98427E+01 4.74053E-02-2.14908E-03 1.44307E-01-1.13072E-13-1.98878E-13
 -1      2277 1.97220E+01-2.36426E-03 8.05182E-04 1.78325E-01-9.95701E-14-1.61087E-13
 -1      2278 1.97406E+01-1.05672E-02 4.52574E-04 1.79153E-01-8.79930E-14-1.62563E-13
 -1      2279 1.98291E+01 7.13347E-03-1.47429E-03 1.79857E-01-1.20838E-13-2.06909E-13
 -1      2280 1.97453E+01-1.61586E-02 1.58825E-04 1.78488E-01-1.07749E-13-1.65323E-13
 -1      2281 1.97685E+01-1.98576E-02 3.95263E-04 1.74056E-01-1.33099E-13-1.62114E-13
 -1      2282 1.98327E+01-1.54418E-02-9.72410E-04 1.90042E-01-9.39322E-14-2.18050E-13
 -1      2283 1.97772E+01-2.20514E-02-2.20259E-04 1.68873E-01-1.08179E-13-1.29591E-13
 -1      2284 1.98021E+01-2.26557E-02 3.77360E-04 1.62164E-01-4.62264E-14-1.27650E-13
 -1      2285 1.98470E+01-2.61725E-02-6.26152E-04 1.85689E-01-1.00495E-13-1.72072E-13
 -1      2286 1.98130E+01-2.24588E-02-4.22996E-04 1.55352E-01-4.42032E-14-1.07972E-13
 -1      2287 1.98382E+01-2.08661E-02 4.03312E-04 1.48461E-01-3.45130E-14-9.65174E-14
 -1      2288 1.98676E+01-2.87435E-02-4.04928E-04 1.74362E-01-5.16095E-14-1.05538E-13
 -1      2289 1.98504E+01-1.89208E-02-5.10053E-04 1.42101E-01 3.98396E-15-1.03561E-13
 -1      2290 1.98754E+01-1.56829E-02 4.76203E-04 1.36556E-01 3.90468E-14-8.90995E-14
 -1      2291 1.98918E+01-2.55052E-02-2.80343E-04 1.61451E-01-2.47162E-14-9.34752E-14
 -1      2292 1.98886E+01-1.23744E-02-5.23359E-04 1.32211E-01 4.00010E-14-1.27130E-13
 -1      2293 1.99137E+01-7.79238E-03 5.99928E-04 1.29194E-01 2.18980E-14-1.13254E-13
 -1      2294 1.99184E+01-1.79130E-02-2.29608E-04 1.50909E-01 2.11717E-14-1.02920E-13
 -1      2295 1.99278E+01-3.31387E-03-4.92445E-04 1.28119E-01-3.28797E-14-1.66478E-13
 -1      2296 1.99538E+01 2.50200E-03 7.80061E-04 1.28632E-01-7.36118E-14-1.47054E-13
 -1      2297 1.99470E+01-6.77955E-03-2.35238E-04 1.45790E-01-5.41237E-14-2.15697E-13
 -1      2298 1.99692E+01 8.10603E-03-4.38472E-04 1.31932E-01-9.13913E-14-1.09110E-13
 -1      2299 1.99973E+01 1.51957E-02 1.02399E-03 1.36921E-01-8.77831E-14-1.21652E-13
 -1      2300 1.99781E+01 7.56886E-03-2.83796E-04 1.48640E-01-8.27254E-14-1.90066E-13
 -1      2301 2.00147E+01 2.19982E-02-3.77055E-04 1.45674E-01-1.27712E-13-1.10209E-13
 -1      2302 2.00468E+01 3.05205E-02 1.34054E-03 1.56124E-01-9.82814E-14-9.14850E-14
 -1      2303 2.00126E+01 2.51845E-02-3.64405E-04 1.61797E-01-9.40847E-14-9.06245E-14
 -1      2304 2.00669E+01 3.86847E-02-3.20316E-04 1.71469E-01-7.47571E-14-1.34792E-13
 -1      2305 2.01049E+01 4.88872E-02 1.73904E-03 1.88474E-01-1.07056E-13-1.59220E-13
 -1      2306 2.00520E+01 4.64147E-02-4.67326E-04 1.87615E-01-1.32165E-13-1.05121E-13
 -1      2307 2.01288E+01 5.86365E-02-2.78310E-04 2.11678E-01-1.36360E-13-2.06665E-13
 -1      2308 2.01753E+01 7.08172E-02 2.22744E-03 2.36481E-01-1.36249E-13-2.01594E-13
 -1      2309 2.00984E+01 7.18203E-02-5.82555E-04 2.28618E-01-1.58871E-13-2.39253E-13
 -1      2310 2.02039E+01 8.23901E-02-2.59789E-04 2.68959E-01-1.14110E-13-1.99646E-13
 -1      2311 2.02617E+01 9.68341E-02 2.80901E-03 3.02956E-01-3.40540E-14-2.00948E-13
 -1      2312 2.01537E+01 1.02071E-01-6.98589E-04 2.87595E-01-1.59746E-13-2.08289E-13
 -1      2313 2.02962E+01 1.10407E-01-2.71844E-04 3.46253E-01 1.12965E-14-2.08044E-13
 -1      2314 2.03685E+01 1.27271E-01 3.47640E-03 3.90929E-01 7.45352E-14-2.53675E-13
 -1      2315 2.02203E+01 1.37774E-01-8.02042E-04 3.67590E-01-1.21179E-14-1.62619E-13
 -1      2316 2.04099E+01 1.42814E-01-3.17436E-04 4.46617E-01 8.87987E-14-2.60167E-13
 -1      2317 2.05001E+01 1.61910E-01 4.20167E-03 5.03366E-01 7.92828E-14-1.85729E-13
 -1      2318 2.03006E+01 1.79172E-01-8.79344E-04 4.71768E-01 8.44495E-14-1.76905E-13
 -1      2319 2.05496E+01 1.78914E-01-3.88950E-04 5.72807E-01-1.19067E-14-1.49056E-13
 -1      2320 2.06613E+01 1.99307E-01 4.92022E-03 6.42551E-01-7.67556E-14-1.15145E-13
 -1      2321 2.03968E+01 2.25574E-01-9.22842E-04 6.03067E-01 4.43142E-14-1.54818E-13
 -1      2322 2.07200E+01 2.16296E-01-4.54572E-04 7.26453E-01-6.23335E-14-1.27428E-13
 -1      2323 2.08565E+01 2.35594E-01 5.50716E-03 8.08907E-01-5.26425E-14-1.84584E-13
 -1      2324 2.05113E+01 2.74330E-01-9.45904E-04 7.63499E-01-8.55165E-14-1.19199E-13
 -1      2325 2.09266E+01 2.49283E-01-4.32271E-04 9.06508E-01-7.04130E-14-2.67857E-13
 -1      2326 2.10906E+01 2.62458E-01 5.74525E-03 9.98893E-01 2.98215E-14-2.48580E-13
 -1      2327 2.06469E+01 3.19049E-01-1.01425E-03 9.52904E-01-7.57463E-14-2.08082E-13
 -1      2328 2.11760E+01 2.66404E-01-1.46393E-04 1.10659E+00 1.48401E-13-3.15267E-13
 -1      2329 2.13696E+01 2.64019E-01 5.28587E-03 1.20151E+00 1.00590E-13-2.32409E-13
 -1      2330 2.08082E+01 3.46682E-01-1.30305E-03 1.16685E+00 1.74347E-14-2.71166E-13
 -1      2331 2.14784E+01 2.46771E-01 7.32868E-04 1.31060E+00 7.97539E-14-1.74778E-13
 -1      2332 2.17027E+01 2.12803E-01 3.60518E-03 1.39288E+00 1.66608E-13-6.81250E-14
 -1      2333 2.10043E+01 3.33254E-01-2.18570E-03 1.39327E+00 1.41515E-13-2.63037E-13
 -1      2334 2.18512E+01 1.56075E-01 2.73384E-03 1.48605E+00 1.03282E-13-1.93600E-13
 -1      2335 2.21060E+01 6.65893E-02-6.58752E-06 1.52869E+00 1.03762E-13-2.74174E-13
 -1      2336 2.12547E+01 2.38838E-01-4.33000E-03 1.60721E+00 5.04650E-14-2.48253E-13
 -1      2337 2.23239E+01-5.43333E-02 6.56933E-03 1.57479E+00 5.23013E-14-2.64829E-13
 -1      2338 2.26070E+01-2.27767E-01-6.31373E-03 1.53553E+00-1.45760E-15-2.65198E-13
 -1      2339 2.15974E+01 4.98204E-03-8.64448E-03 1.76291E+00 1.42458E-14-3.29285E-13
 -1      2340 2.29398E+01-4.35954E-01 1.26692E-02 1.48313E+00 1.21474E-15-3.07182E-13
 -1      2341 2.32428E+01-7.09591E-01-1.57588E-02 1.30590E+00-3.50006E-14-1.74657E-13
 -1      2342 2.20988E+01-4.35494E-01-1.56977E-02 1.78274E+00-2.45398E-15-3.24428E-13
 -1      2343 2.37408E+01-1.00036E+00 1.95994E-02 1.07971E+00-7.27881E-14-9.98867E-14
 -1      2344 2.40370E+01-1.33564E+00-2.76747E-02 7.11066E-01 3.50171E-14-4.48235E-14
 -1      2345 2.28516E+01-1.11613E+00-2.45570E-02 1.54559E+00 3.75440E-14-1.57303E-13
 -1      2346 2.47109E+01-1.62096E+00 2.02070E-02 2.25757E-01 1.01420E-13-2.09408E-13
 -1      2347 2.49401E+01-1.84790E+00-3.59820E-02-3.37106E-01 1.08309E-13-7.06102E-14
 -1      2348 2.39371E+01-1.93046E+00-3.12206E-02 8.87448E-01-1.14687E-14-1.01494E-13
 -1      2349 2.56548E+01-1.88436E+00-3.31260E-04-1.08255E+00 2.07876E-14-1.74947E-13
 -1      2350 2.57274E+01-1.68454E+00-3.09479E-02-1.68454E+00-1.05616E-13-2.01707E-13
 -1      2351 2.52777E+01-2.45104E+00-3.80176E-02-3.34905E-01-3.59552E-14-2.77641E-13
 -1      2352 2.61894E+01-1.13024E+00-4.62294E-02-2.45440E+00-5.40280E-14-1.77906E-13
 -1      2353 2.60253E+01-2.44789E-01-1.42984E-02-2.71963E+00-1.59990E-13-2.30049E-13
 -1      2354 2.65563E+01-1.89650E+00-4.98426E-02-1.96261E+00-1.46626E-13-2.83058E-13
 -1      2355 2.59877E+01 8.59560E-01-1.02599E-01-2.83099E+00-3.17409E-13-1.98594E-13
 -1      2356 2.57280E+01 2.06033E+00-1.63971E-02-2.38262E+00-3.74735E-13-2.87900E-13
 -1      2357 2.71129E+01 4.05623E-01-8.70947E-02-3.03546E+00-2.74308E-13-1.80016E-13
 -1      2358 2.54419E+01 2.97582E+00-1.15667E-01-1.41154E+00-3.87843E-13-2.61636E-13
 -1      2359 2.53308E+01 3.37886E+00-8.67089E-02-3.39528E-01-2.68285E-13-2.87095E-13
 -1      2360 2.69900E+01 3.21583E+00-9.01128E-02-2.15191E+00-3.60115E-13-2.98157E-13
 -1      2361 2.54062E+01 3.13753E+00-5.69793E-02 1.04907E+00-3.33664E-13-2.32772E-13
 -1      2362 2.55577E+01 2.30663E+00-1.24195E-01 1.95522E+00-3.20965E-13-2.92136E-13
 -1      2363 2.67902E+01 4.20329E+00-1.03929E-01 4.11860E-01-3.28931E-13-3.53700E-13
 -1      2364 2.58163E+01 1.17423E+00-1.11551E-02 2.52619E+00-2.21198E-13-4.33336E-13
 -1      2365 2.60003E+01-1.15118E-02-9.60397E-02 2.66439E+00-1.23315E-13-5.25856E-13
 -1      2366 2.70241E+01 2.17178E+00-7.36232E-02 2.46072E+00-3.65347E-13-3.10849E-13
 -1      2367 2.58782E+01-9.59668E-01-1.34244E-02 2.24765E+00 1.05246E-13-5.47072E-13
 -1      2368 2.58913E+01-1.61061E+00-3.24874E-02 1.76540E+00 1.31339E-13-5.15115E-13
 -1      2369 2.69385E+01-6.30890E-01-2.02565E-02 2.47056E+00-4.72192E-14-3.54515E-13
 -1      2370 2.52869E+01-1.88887E+00-3.09123E-02 9.61640E-01 1.47370E-13-3.90030E-13
 -1      2371 2.51001E+01-1.90148E+00 8.66393E-03 3.23570E-01 1.88550E-13-2.80442E-13
 -1      2372 2.60107E+01-2.27938E+00-1.68505E-02 1.05349E+00 1.94235E-13-2.78590E-13
 -1      2373 2.43591E+01-1.72897E+00-3.12521E-02-3.44458E-01 2.01185E-13-2.06467E-13
 -1      2374 2.40500E+01-1.43792E+00 2.00439E-02-8.54844E-01 2.85005E-13-1.00637E-13
 -1      2375 2.46102E+01-2.35817E+00-2.41323E-02-4.57266E-01 2.54422E-13 9.79902E-15
 -1      2376 2.34211E+01-1.13094E+00-2.18792E-02-1.24697E+00 1.80608E-13-1.03557E-13
 -1      2377 2.30728E+01-8.08572E-01 1.63935E-02-1.55245E+00 1.21040E-13-2.95501E-14
 -1      2378 2.32919E+01-1.66754E+00-2.53891E-02-1.47748E+00 2.14277E-13-1.10195E-13
 -1      2379 2.26213E+01-5.39337E-01-1.14266E-02-1.71535E+00 8.91899E-14-1.11595E-13
 -1      2380 2.22804E+01-2.94899E-01 1.02830E-02-1.84242E+00 1.07859E-14-1.25325E-13
 -1      2381 2.22934E+01-8.74767E-01-1.93897E-02-1.98320E+00 3.74514E-14-2.32528E-13
 -1      2382 2.19745E+01-1.08514E-01-3.57578E-03-1.85585E+00-1.76976E-13-1.69372E-13
 -1      2383 2.16604E+01 4.97146E-02 6.09343E-03-1.85688E+00-1.84114E-13-2.40625E-13
 -1      2384 2.16031E+01-2.61530E-01-1.20454E-02-2.12376E+00-1.44510E-13-1.95791E-13
 -1      2385 2.14485E+01 1.68063E-01 1.19470E-03-1.78048E+00-1.45534E-13-1.21171E-13
 -1      2386 2.11690E+01 2.68228E-01 4.25880E-03-1.69901E+00-2.04099E-13-2.18972E-13
 -1      2387 2.11280E+01 1.43016E-01-6.69038E-03-2.03772E+00-1.70224E-13-6.27285E-14
 -1      2388 2.10101E+01 3.48731E-01 3.61174E-03-1.56721E+00-3.07046E-13-2.49612E-13
 -1      2389 2.07736E+01 4.20177E-01 4.33536E-03-1.42912E+00-1.43036E-13-2.65492E-13
 -1      2390 2.07831E+01 4.03997E-01-2.89758E-03-1.81309E+00-2.69606E-13-3.45956E-13
 -1      2391 1.96199E+01 7.26453E-02 2.07170E-03-6.47791E-02 1.33135E-13-1.15250E-13
 -1      2392 1.96474E+01 1.04288E-01 6.90810E-03-1.85975E-02 1.69381E-13-5.87758E-14
 -1      2393 1.95962E+01 3.10392E-02 1.35687E-03-1.30730E-01 9.36855E-14-1.48190E-13
 -1      2394 1.95932E+01 4.98167E-02 3.68746E-03-1.08085E-01 9.85056E-14-1.30910E-13
 -1      2395 1.97656E+01 9.00516E-02-3.19521E-03-7.01532E-02 1.49979E-13-1.51896E-13
 -1      2396 1.96085E+01 6.39227E-03 9.10586E-04-1.59775E-01 1.31053E-13-1.41551E-13
 -1      2397 1.95883E+01 1.74192E-02 1.82887E-03-1.51233E-01 9.52341E-14-1.66382E-13
 -1      2398 1.97316E+01 3.64669E-02-2.30820E-03-1.42970E-01 1.19084E-13-2.02288E-13
 -1      2399 1.96414E+01-7.62113E-03 6.16944E-04-1.66580E-01 1.78998E-13-8.94912E-14
 -1      2400 1.96126E+01-1.52495E-03 7.37524E-04-1.66329E-01 1.60856E-13-9.65251E-14
 -1      2401 1.97287E+01 4.96324E-03-1.55086E-03-1.75695E-01 1.32803E-13-1.60392E-13
 -1      2402 1.96849E+01-1.46536E-02 4.31289E-04-1.60721E-01 1.29348E-13-1.16317E-13
 -1      2403 1.96527E+01-1.18186E-02 9.47441E-05-1.64988E-01 1.78318E-13-7.88589E-14
 -1      2404 1.97450E+01-1.26235E-02-9.91185E-04-1.84038E-01 1.79003E-13-9.57343E-14
 -1      2405 1.97326E+01-1.69564E-02 3.31977E-04-1.48647E-01 9.07558E-14-1.46630E-13
 -1      2406 1.97000E+01-1.63402E-02-2.67245E-04-1.54891E-01 1.24552E-13-1.12578E-13
 -1      2407 1.97723E+01-2.10563E-02-6.09793E-04-1.78501E-01 1.44072E-13-1.27563E-13
 -1      2408 1.97812E+01-1.59668E-02 3.05683E-04-1.34812E-01 3.94816E-14-1.82629E-13
 -1      2409 1.97496E+01-1.69023E-02-4.46105E-04-1.41275E-01 6.62204E-14-1.60278E-13
 -1      2410 1.98052E+01-2.32762E-02-3.69466E-04-1.66267E-01 9.36780E-14-1.29564E-13
 -1      2411 1.98291E+01-1.26063E-02 3.43121E-04-1.22374E-01 4.55678E-14-1.97297E-13
 -1      2412 1.97989E+01-1.46695E-02-5.03724E-04-1.27796E-01 1.50183E-14-2.09393E-13
 -1      2413 1.98406E+01-2.11562E-02-2.36300E-04-1.52356E-01 4.33541E-14-1.65846E-13
 -1      2414 1.98762E+01-7.44863E-03 4.38172E-04-1.13648E-01 8.96658E-15-2.04512E-13
 -1      2415 1.98472E+01-1.03813E-02-4.81377E-04-1.17091E-01 6.48037E-14-1.79266E-13
 -1      2416 1.98770E+01-1.58896E-02-1.84027E-04-1.40364E-01 5.58503E-14-1.31600E-13
 -1      2417 1.99237E+01-8.29414E-04 5.86962E-04-1.10425E-01 5.99269E-14-1.91624E-13
 -1      2418 1.98948E+01-4.48616E-03-4.06993E-04-1.11144E-01 2.53441E-14-2.07458E-13
 -1      2419 1.99143E+01-8.21286E-03-1.93252E-04-1.32962E-01 3.32781E-14-1.82306E-13
 -1      2420 1.99736E+01 7.06882E-03 7.86438E-04-1.14181E-01 6.75637E-14-2.31172E-13
 -1      2421 1.99434E+01 2.76334E-03-2.99441E-04-1.11544E-01 6.55085E-14-1.78908E-13
 -1      2422 1.99530E+01 1.44613E-03-2.49831E-04-1.32236E-01 7.27137E-14-1.75384E-13
 -1      2423 2.00283E+01 1.61367E-02 1.03237E-03-1.26195E-01 1.18766E-13-2.10764E-13
 -1      2424 1.99951E+01 1.12295E-02-1.71355E-04-1.19642E-01 9.82816E-14-2.01610E-13
 -1      2425 1.99947E+01 1.28480E-02-3.43326E-04-1.39910E-01 3.02154E-14-1.29812E-13
 -1      2426 2.00912E+01 2.62504E-02 1.31662E-03-1.47597E-01 2.35398E-14-8.00084E-14
 -1      2427 2.00529E+01 2.08077E-02-3.11973E-05-1.36629E-01 1.11411E-13-1.35064E-13
 -1      2428 2.00414E+01 2.58267E-02-4.65575E-04-1.57472E-01 7.67430E-14-4.07797E-14
 -1      2429 2.01658E+01 3.71630E-02 1.62339E-03-1.79298E-01-6.55308E-14-1.33171E-13
 -1      2430 2.01201E+01 3.13302E-02 1.15208E-04-1.63529E-01 6.89916E-15-5.18534E-14
 -1      2431 2.00955E+01 4.01599E-02-6.09628E-04-1.86194E-01-5.72806E-15-7.13321E-15
 -1      2432 2.02559E+01 4.83610E-02 1.92418E-03-2.21823E-01-1.22406E-14-2.64585E-13
 -1      2433 2.02006E+01 4.24431E-02 2.63590E-04-2.01073E-01-6.11025E-14-2.14818E-13
 -1      2434 2.01599E+01 5.54052E-02-7.68969E-04-2.27038E-01-8.25273E-15-6.47318E-14
 -1      2435 2.03654E+01 5.88725E-02 2.17142E-03-2.74966E-01 9.56698E-14-2.18720E-13
 -1      2436 2.02981E+01 5.34411E-02 4.10562E-04-2.49451E-01 2.16748E-14-2.82236E-13
 -1      2437 2.02376E+01 7.06850E-02-9.37103E-04-2.80416E-01 3.25770E-14-1.62566E-13
 -1      2438 2.04978E+01 6.70158E-02 2.29105E-03-3.37265E-01 1.94690E-13-2.07187E-13
 -1      2439 2.04168E+01 6.30489E-02 5.53435E-04-3.07877E-01 1.59735E-13-2.28075E-13
 -1      2440 2.03320E+01 8.44008E-02-1.10782E-03-3.45766E-01 1.03556E-13-6.18798E-14
 -1      2441 2.06561E+01 7.00968E-02 2.17540E-03-4.05221E-01 6.96241E-14-1.53170E-13
 -1      2442 2.05601E+01 6.91424E-02 6.90657E-04-3.73935E-01 1.76755E-13-1.16570E-13
 -1      2443 2.04462E+01 9.38699E-02-1.27617E-03-4.20908E-01 1.09512E-13-2.52797E-14
 -1      2444 2.08414E+01 6.40993E-02 1.67993E-03-4.72255E-01-1.85134E-13-1.60786E-13
 -1      2445 2.07308E+01 6.84332E-02 8.22707E-04-4.42661E-01-1.26467E-14-1.43437E-13
 -1      2446 2.05834E+01 9.49052E-02-1.43974E-03-5.01120E-01 4.11109E-14 4.82266E-14
 -1      2447 2.10528E+01 4.35137E-02 6.31008E-04-5.27458E-01-2.59825E-13-2.29960E-13
 -1      2448 2.09301E+01 5.61981E-02 9.52374E-04-5.05374E-01-2.86487E-13-2.55382E-13
 -1      2449 2.07463E+01 8.14375E-02-1.59856E-03-5.77943E-01-1.69659E-13-4.29919E-14
 -1      2450 2.12860E+01 1.62427E-03-1.14321E-03-5.54385E-01-1.45174E-13-2.27488E-13
 -1      2451 2.11565E+01 2.62717E-02 1.08175E-03-5.48374E-01-2.13989E-13-2.27795E-13
 -1      2452 2.09370E+01 4.54329E-02-1.74923E-03-6.37802E-01-2.29834E-13-2.05412E-13
 -1      2453 2.15316E+01-6.81448E-02-3.73952E-03-5.30486E-01-6.17845E-14-1.50706E-13
 -1      2454 2.14049E+01-2.82589E-02 1.19812E-03-5.51911E-01-7.07716E-14-2.25618E-13
 -1      2455 2.11561E+01-2.23600E-02-1.86584E-03-6.60738E-01-1.70078E-13-2.12670E-13
 -1      2456 2.17741E+01-1.68906E-01-7.04194E-03-4.28426E-01-9.91750E-14-4.99981E-14
 -1      2457 2.16643E+01-1.12890E-01 1.24270E-03-4.90307E-01-8.52907E-14-1.14779E-13
 -1      2458 2.14021E+01-1.29902E-01-1.85655E-03-6.19998E-01-9.24700E-14-2.94610E-13
 -1      2459 2.19892E+01-2.94080E-01-1.05104E-02-2.21298E-01-1.79584E-13 1.28084E-13
 -1      2460 2.19153E+01-2.27076E-01 1.04870E-03-3.34915E-01-1.30702E-13 1.20388E-13
 -1      2461 2.16684E+01-2.78295E-01-1.48919E-03-4.83917E-01-1.95796E-13-2.69320E-13
 -1      2462 2.21430E+01-4.18510E-01-1.29355E-02 1.05623E-01 7.98966E-14 1.74464E-13
 -1      2463 2.21270E+01-3.56509E-01 2.82584E-04-6.24974E-02-3.12038E-14 2.03465E-13
 -1      2464 2.19393E+01-4.52194E-01-3.29621E-04-2.22578E-01-1.59394E-13-7.94545E-14
 -1      2465 2.21921E+01-4.91080E-01-1.24306E-02 5.34940E-01 6.88759E-14 1.17973E-13
 -1      2466 2.22539E+01-4.63971E-01-1.50484E-03 3.28187E-01 1.84376E-13 2.08480E-13
 -1      2467 2.21827E+01-6.07696E-01 2.18380E-03 1.77406E-01 9.24759E-14 1.10070E-13
 -1      2468 2.20923E+01-4.40068E-01-7.14717E-03 9.92864E-01 8.03524E-15-5.91350E-14
 -1      2469 2.22407E+01-4.86096E-01-4.60665E-03 7.91763E-01 2.70920E-14-1.61720E-15
 -1      2470 2.23446E+01-6.65821E-01 6.17002E-03 6.87650E-01 1.34485E-13 9.20124E-14
 -1      2471 2.18207E+01-2.06276E-01 2.79088E-03 1.33729E+00-1.43582E-13 3.30101E-14
 -1      2472 2.20415E+01-3.50350E-01-8.20353E-03 1.21437E+00-1.13657E-13 1.18269E-14
 -1      2473 2.23556E+01-5.30134E-01 1.01136E-02 1.20797E+00-1.82381E-13-1.73469E-14
 -1      2474 2.14130E+01 1.95305E-01 1.32671E-02 1.38877E+00-1.89224E-14 7.55741E-14
 -1      2475 2.16601E+01-2.48030E-02-1.03148E-02 1.42117E+00-4.35049E-14 8.62795E-14
 -1      2476 2.21662E+01-1.42990E-01 1.04498E-02 1.55594E+00-1.54593E-13 1.45398E-13
 -1      2477 2.09909E+01 6.26518E-01 1.75648E-02 1.02490E+00 6.92632E-14 1.33278E-13
 -1      2478 2.11937E+01 4.17832E-01-7.24785E-03 1.24598E+00 4.00170E-14 8.90889E-14
 -1      2479 2.18074E+01 4.27865E-01 2.97003E-03 1.51751E+00 5.76431E-14 2.66467E-13
 -1      2480 2.07357E+01 8.69330E-01 1.23399E-02 3.03524E-01 1.54359E-13 1.94333E-13
 -1      2481 2.08267E+01 7.84153E-01 2.63364E-03 6.56789E-01 9.76823E-14 1.98387E-13
 -1      2482 2.14350E+01 9.58837E-01-8.34727E-03 9.81232E-01 6.45135E-14 1.98939E-13
 -1      2483 2.07763E+01 7.80285E-01 9.52950E-04-5.12344E-01 7.92248E-14 1.50432E-13
 -1      2484 2.07260E+01 8.70067E-01 1.37233E-02-1.60233E-01 1.94221E-13 2.14585E-13
 -1      2485 2.12612E+01 1.17730E+00-1.34295E-02 8.46321E-02 1.72791E-13 1.47562E-13
 -1      2486 2.10840E+01 4.10195E-01-8.47357E-03-1.09718E+00 3.15924E-14-1.34879E-14
 -1      2487 2.09205E+01 6.22276E-01 1.83216E-02-8.79464E-01-2.76237E-14 6.41362E-14
 -1      2488 2.13868E+01 9.53659E-01-8.63599E-03-8.10532E-01 1.12123E-13 1.84804E-13
 -1      2489 2.14901E+01-3.75882E-02-1.05884E-02-1.26344E+00-1.22222E-13-8.92788E-14
 -1      2490 2.12811E+01 1.84362E-01 1.34553E-02-1.23565E+00 8.87586E-14-3.85724E-14
 -1      2491 2.17113E+01 4.14743E-01 2.67700E-03-1.34053E+00 1.81335E-14 1.01399E-13
 -1      2492 2.18075E+01-3.69514E-01-7.70419E-03-1.04108E+00-8.45053E-14-1.68392E-13
 -1      2493 2.16260E+01-2.24495E-01 3.09556E-03-1.16955E+00-2.68212E-13-2.14306E-13
 -1      2494 2.20226E+01-1.65989E-01 1.04972E-02-1.36603E+00-9.61791E-14-1.60343E-13
 -1      2495 2.19361E+01-5.09160E-01-3.85236E-03-5.96929E-01-8.65310E-14-1.57438E-13
 -1      2496 2.18299E+01-4.63677E-01-6.76290E-03-8.04083E-01 7.30995E-14-1.73145E-13
 -1      2497 2.21616E+01-5.61959E-01 1.06241E-02-9.97067E-01-7.18143E-14-4.87757E-13
 -1      2498 2.18710E+01-4.84916E-01-9.62520E-04-1.10947E-01-2.38824E-14-1.31029E-13
 -1      2499 2.18558E+01-5.14737E-01-1.20486E-02-3.22866E-01-1.40252E-13-1.11093E-13
 -1      2500 2.20947E+01-7.01447E-01 6.03157E-03-4.51076E-01-3.34875E-14-1.01959E-13
 -1      2501 2.16615E+01-3.67112E-01 8.90569E-04 2.95576E-01 1.45535E-13-6.91029E-14
 -1      2502 2.17268E+01-4.35265E-01-1.25336E-02 1.25494E-01 7.93558E-14-1.41393E-13
 -1      2503 2.18720E+01-6.36257E-01 1.64178E-03 8.23181E-02 4.08937E-14-2.75102E-13
 -1      2504 2.13672E+01-2.16319E-01 2.16286E-03 5.68291E-01 2.04664E-13 1.70675E-13
 -1      2505 2.14898E+01-2.94957E-01-1.00581E-02 4.59862E-01 2.13062E-13 1.14123E-13
 -1      2506 2.15649E+01-4.61213E-01-9.68180E-04 4.94775E-01 4.76646E-14-7.75398E-14
 -1      2507 2.10394E+01-6.66937E-02 3.22492E-03 6.97409E-01 1.89836E-13 1.07513E-13
 -1      2508 2.11925E+01-1.41882E-01-6.59224E-03 6.53432E-01 1.94005E-13 1.93480E-13
 -1      2509 2.12297E+01-2.51718E-01-2.01902E-03 7.48019E-01 2.23002E-13 6.64536E-14
 -1      2510 2.07162E+01 6.99192E-02 4.29947E-03 6.94285E-01-4.05054E-14 2.48345E-13
 -1      2511 2.08748E+01 1.71653E-03-3.44472E-03 7.09607E-01 6.32916E-14 2.70459E-13
 -1      2512 2.09014E+01-4.85290E-02-2.30034E-03 8.43797E-01-1.56887E-15 3.61244E-13
 -1      2513 2.04212E+01 1.87542E-01 4.21279E-03 5.76329E-01-1.68201E-13 4.95908E-13
 -1      2514 2.05673E+01 1.30640E-01-9.41818E-04 6.42685E-01-1.14004E-13 4.16621E-13
 -1      2515 2.05995E+01 1.37489E-01-1.48202E-03 8.00192E-01-1.41535E-13 5.76926E-13
 -1      2516 2.02927E+01 2.33990E-01 1.53799E-03 4.67793E-01-1.68713E-13 3.16518E-13
 -1      2517 1.99190E+01 1.29148E+00-5.20902E-03 1.07120E+00-2.10387E-13-1.71484E-13
 -1      2518 2.00072E+01 1.11690E+00 3.71077E-03 1.08433E+00-5.33189E-13-1.61852E-13
 -1      2519 1.97310E+01 1.61912E+00-8.53456E-03 9.45249E-01 2.10731E-13 1.39797E-13
 -1      2520 1.98294E+01 1.46018E+00 3.04040E-03 1.02453E+00 8.62135E-14-2.15805E-13
 -1      2521 1.98318E+01 1.16960E+00-4.89131E-04 1.19697E+00-8.83116E-14 4.02302E-14
 -1      2522 2.02074E+01 6.70701E-01 9.67478E-04 9.43124E-01-3.09477E-13-3.07809E-13
 -1      2523 2.02591E+01 5.17300E-01 3.57066E-03 8.62577E-01-1.17682E-13-7.54414E-14
 -1      2524 2.00820E+01 9.64817E-01-1.63628E-03 1.05960E+00-6.53353E-13-2.99429E-13
 -1      2525 2.01501E+01 7.97995E-01 3.84817E-03 1.01916E+00-4.51750E-13-2.17373E-13
 -1      2526 2.02373E+01 5.92289E-01-1.38967E-03 1.10697E+00-3.24473E-13-4.19384E-13
 -1      2527 2.00593E+01 8.61410E-01-1.05131E-03 1.21544E+00-5.61684E-13-1.02720E-13
 -1      2528 1.95498E+01 1.90018E+00-1.05482E-02 6.69454E-01-5.64977E-14 2.96668E-13
 -1      2529 1.96398E+01 1.77967E+00 1.04252E-03 8.16510E-01 1.55305E-13 9.48169E-14
 -1      2530 1.95853E+01 1.48574E+00 2.37324E-03 1.01517E+00 1.14182E-13 2.44684E-14
 -1      2531 1.94194E+01 2.08168E+00-1.03855E-02 2.63218E-01-2.68792E-13 1.72470E-13
 -1      2532 1.94776E+01 2.02085E+00-2.13821E-03 4.63816E-01-3.08617E-13 3.56753E-13
 -1      2533 1.93625E+01 1.75565E+00 5.81388E-03 6.61489E-01-3.03654E-14 6.65856E-14
 -1      2534 1.93801E+01 2.12026E+00-7.97422E-03-2.17026E-01-2.92445E-13-1.77745E-13
 -1      2535 1.93876E+01 2.13286E+00-5.77125E-03 7.08508E-03-3.37758E-13 9.07659E-14
 -1      2536 1.92202E+01 1.92012E+00 8.34536E-03 1.69201E-01-2.08636E-13 9.03709E-14
 -1      2537 1.94493E+01 2.00253E+00-3.84421E-03-6.80813E-01 1.86071E-14-1.65889E-13
 -1      2538 1.94004E+01 2.08742E+00-8.77694E-03-4.75755E-01-5.21060E-14-2.50403E-13
 -1      2539 1.92038E+01 1.93634E+00 8.88030E-03-3.81233E-01-1.52639E-13 4.09742E-15
 -1      2540 1.96219E+01 1.74023E+00 8.33102E-04-1.05775E+00 2.57590E-13 3.66066E-13
 -1      2541 1.95221E+01 1.88925E+00-1.00291E-02-9.02755E-01 1.47969E-13-9.79210E-14
 -1      2542 1.93281E+01 1.79606E+00 7.21608E-03-8.94897E-01 1.43556E-13-8.24685E-14
 -1      2543 1.98693E+01 1.37697E+00 4.74665E-03-1.26954E+00 1.70537E-13 5.18998E-13
 -1      2544 1.97353E+01 1.56790E+00-9.33461E-03-1.19751E+00 1.18338E-13 5.65237E-13
 -1      2545 1.95792E+01 1.52292E+00 4.30411E-03-1.28054E+00 2.30706E-13 3.25569E-13
 -1      2546 2.01545E+01 9.65919E-01 6.91989E-03-1.27633E+00 2.98450E-13 2.38669E-14
 -1      2547 2.00081E+01 1.17610E+00-6.40150E-03-1.30462E+00 2.51410E-13 2.88034E-13
 -1      2548 1.99139E+01 1.16886E+00 9.83203E-04-1.46531E+00 6.88163E-14 4.79144E-13
 -1      2549 1.83736E+01-5.64588E+00-7.32877E-02 6.92429E+00-3.16136E-13 1.52251E-13
 -1      2550 1.48639E+01-5.47011E+00 8.20401E-02 6.93342E+00-2.15578E-13 9.18501E-14
 -1      2551 2.03407E+01 6.52001E-01 3.20775E-03-9.90000E-01 3.35983E-13-1.53000E-13
 -1      2552 3.49086E+00-2.73408E+00 8.19574E-02-9.04709E-01-2.24900E-13 6.49092E-13
 -1      2553 4.31016E+00-3.37216E+00 6.73566E-02-3.14782E+00-2.40585E-13 5.71931E-13
 -1      2554 1.97012E+01 1.43253E-01 3.25600E-03 6.13712E-02 1.87748E-13-5.47394E-14
 -1      2555 1.97799E+01 1.98065E-01 1.23787E-02 1.47546E-01 2.24819E-13-2.06720E-14
 -1      2556 1.98466E+01 1.80918E-01-3.88174E-03 6.69169E-02 2.03764E-13-1.53957E-13
 -1      2557 5.52341E+00-2.39332E+00 1.41707E-01 3.44942E+00-4.25507E-13 5.67102E-13
 -1      2558 4.39774E+00-2.25705E+00 1.62819E-01 1.35620E+00-3.53644E-13 5.76927E-13
 -1      2559 3.33158E+01 6.72170E+00-1.15629E-01 6.40672E-01-3.61822E-13-1.82576E-13
 -1      2560 3.38978E+01 7.27681E+00-8.62481E-02-6.80298E-02-5.03209E-13-1.25431E-13
 -1      2561 3.23419E+01 3.77336E+00-1.24668E-01-5.66472E-01 9.06220E-14-2.07750E-13
 -1      2562 3.13107E+01 1.53187E+00-7.47884E-02 7.76505E-02 2.36339E-14-2.43416E-13
 -1      2563 2.01931E+01-5.78631E+00-1.44603E-02 6.00489E+00-1.80689E-13 8.96991E-14
 -1      2564 1.62618E+01-5.48397E+00 8.23151E-02 6.34666E+00-4.47142E-14-2.59043E-13
 -1      2565 2.66594E+01-4.75799E+00-1.01655E-01 3.47745E+00-2.65565E-13 1.72307E-13
 -1      2566 2.34608E+01-5.51133E+00 2.88715E-03 4.56135E+00-2.05169E-13 1.45189E-13
 -1      2567 1.95218E+01 3.58431E+00-1.00962E-02-2.45584E-01-7.45104E-14-5.95426E-13
 -1      2568 1.95377E+01 3.56366E+00-9.65977E-03-4.26486E-01-1.28502E-13-5.81096E-13
 -1      2569 1.97141E+01 3.16297E+00-5.77188E-04-4.73982E-01-1.42324E-13-5.35932E-13
 -1      2570 1.96801E+01 3.22288E+00-9.16226E-04-1.52199E-01-5.80754E-14-5.62205E-13
 -1      2571 3.25385E+01 6.85247E+00-1.25297E-01-5.35715E-01 3.38063E-13-2.26458E-13
 -1      2572 3.21939E+01 5.81104E+00-1.05574E-01-8.75954E-01 2.11497E-13-1.74388E-13
 -1      2573 3.39626E+01 6.82695E+00-1.18454E-01-8.16412E-01-5.94302E-13-7.02077E-14
 -1      2574 3.39288E+01 5.72578E+00-7.43650E-02-1.18253E+00-5.46285E-13 1.55154E-14
 -1      2575 3.00493E+01-2.45375E-01-4.73217E-02-2.76838E-01 2.37199E-13 2.43083E-13
 -1      2576 3.13945E+01 1.94050E+00-1.50342E-01 4.68450E-01 4.71193E-13 2.83440E-13
 -1      2577 2.59264E+01-4.08557E+00 7.51353E-03-3.70457E+00-3.28071E-14-2.83940E-14
 -1      2578 2.82911E+01-2.81866E+00-1.51492E-01-2.30861E+00-3.98154E-14 1.53794E-13
 -1      2579 1.89454E+01-5.45199E+00 3.49279E-03-6.35425E+00 1.74027E-13-1.02640E-13
 -1      2580 2.27662E+01-4.91938E+00-6.37997E-02-5.63400E+00 8.30169E-14-1.54182E-13
 -1      2581 1.16400E+01-5.06496E+00 3.42249E-02-6.79362E+00 1.52378E-14-9.16073E-14
 -1      2582 1.52979E+01-5.22592E+00 2.03050E-03-7.20689E+00 8.47655E-14-8.66182E-14
 -1      2583 5.65423E+00-3.54430E+00 9.05610E-02-4.71026E+00-1.54377E-13-1.53877E-13
 -1      2584 8.23822E+00-4.30179E+00 3.62866E-02-6.28823E+00-1.02474E-13-1.75970E-14
 -1      2585 1.18318E+01-4.04730E+00 1.24907E-01-6.55301E+00-2.01256E-13-1.05249E-13
 -1      2586 3.38575E+01 3.92250E+00-6.70249E-02-1.26087E+00-6.45067E-13 6.41709E-14
 -1      2587 3.25676E+01 1.99853E+00-5.80989E-02-1.00097E+00-5.34683E-13 1.62093E-14
 -1      2588 1.19375E+01-4.60504E+00 3.21740E-02 6.55027E+00 5.70377E-14-7.42489E-13
 -1      2589 9.04927E+00-3.96948E+00 1.43291E-01 5.55879E+00 1.49963E-13-7.97029E-13
 -1      2590 2.70149E+00-3.12003E+00 2.72081E-02-2.28846E-01 4.48938E-14-6.08569E-13
 -1      2591 3.39361E+00-2.95919E+00 6.38804E-02-2.36057E+00-6.39766E-14-4.26770E-13
 -1      2592 3.21466E+01 4.77843E+00-9.82265E-02 8.31580E-01 5.38264E-13 2.07556E-13
 -1      2593 3.34042E+01 6.27350E+00-5.23497E-02 5.88867E-01 5.78926E-13 3.53273E-13
 -1      2594 6.53221E+00-4.05785E+00 6.36972E-02-4.81509E+00-1.41470E-13 6.13398E-14
 -1      2595 1.00571E+01-4.51387E+00 4.05009E-02-6.40577E+00-6.82232E-14-1.77469E-13
 -1      2596 7.50070E+00-2.60424E+00 1.59319E-01-4.15094E+00-1.84061E-13 1.59706E-13
 -1      2597 5.61829E+00-3.24484E+00 4.52107E-02 4.12275E+00 1.45661E-13-9.03222E-13
 -1      2598 3.55101E+00-3.10205E+00 8.26909E-02 1.76531E+00 1.22208E-13-7.81597E-13
 -1      2599 3.26449E+01 3.49267E+00-1.20098E-01 1.43846E+00-2.56323E-13-3.48888E-13
 -1      2600 3.28107E+01 4.87838E+00-1.80199E-01 1.29865E+00-3.24962E-13-3.43697E-13
 -1      2601 3.12559E+01-7.11578E-01-8.17661E-02-3.57400E-01-1.80196E-13-3.04645E-13
 -1      2602 3.27001E+01 1.59178E+00-1.09538E-01 6.32318E-01-2.47052E-13-3.96017E-13
 -1      2603 3.10784E+01 1.93875E+00 4.13610E-03 1.84175E+00-2.39309E-13-2.50522E-13
 -1      2604 2.74635E+01-4.18666E+00-3.96031E-02-2.89444E+00 2.21129E-13-2.47857E-14
 -1      2605 2.97257E+01-2.87370E+00-1.05820E-01-1.89048E+00 2.82413E-14-1.77414E-13
 -1      2606 2.07243E+01-5.89495E+00 2.04410E-02-5.75332E+00 1.00531E-13 2.04850E-13
 -1      2607 2.47373E+01-5.23772E+00-3.78002E-02-4.80486E+00 1.46327E-13 8.99281E-14
 -1      2608 2.64680E+01-5.10732E+00 3.62181E-02-3.06911E+00 1.51643E-13-6.17839E-14
 -1      2609 1.39567E+01-5.30318E+00 8.56601E-02-6.67984E+00-9.38971E-14 1.15574E-13
 -1      2610 1.70434E+01-5.70687E+00 1.34955E-03-6.85446E+00-4.38538E-15 1.69975E-13
 -1      2611 2.64574E+01-4.33780E+00-6.89184E-02 3.83708E+00-2.17604E-13-1.69753E-13
 -1      2612 2.28855E+01-5.37555E+00 5.71961E-02 5.15073E+00-3.63348E-13 8.64309E-14
 -1      2613 3.03531E+01-8.40509E-01-9.60495E-02 1.18696E+00-6.09894E-14-1.27398E-13
 -1      2614 2.86018E+01-2.45468E+00-4.71803E-02 1.99352E+00-6.21100E-14-6.80012E-14
 -1      2615 2.04880E+01 8.75139E-01-7.24836E-03 1.22786E+00 4.28114E-13 1.34080E-13
 -1      2616 2.08387E+01 1.25703E+00-6.03359E-03 1.72856E+00 4.57686E-13 1.95578E-13
 -1      2617 2.06449E+01 1.71559E+00-1.57836E-02 1.92282E+00 4.87064E-13 3.74145E-14
 -1      2618 2.04468E+01 1.05861E+00-9.25823E-03 1.24234E+00 4.31741E-13-2.45206E-14
 -1      2619 3.05235E+01 4.28259E+00-6.65240E-02-1.35389E+00 7.92144E-14-2.18436E-13
 -1      2620 1.99140E+01 2.81537E+00 2.43608E-03-1.09987E+00-2.95256E-13-4.40810E-13
 -1      2621 1.97833E+01 3.15997E+00-1.45319E-02-1.28567E+00-3.21896E-13-4.70399E-13
 -1      2622 1.98771E+01 3.03663E+00-1.74845E-02-1.48447E+00-3.81453E-13-4.26605E-13
 -1      2623 5.84355E+00-1.38927E+00 1.70849E-01 1.07451E-01-3.91517E-13 5.81757E-13
 -1      2624 2.04212E+01 2.11578E+00-1.26845E-02 1.87589E+00 4.64522E-13-1.35593E-13
 -1      2625 2.82735E+01-4.06341E+00 2.42633E-02 1.47294E+00-1.47105E-14 3.62266E-13
 -1      2626 2.05268E+01-5.64311E+00 9.14865E-02-5.75543E+00 1.58346E-13 9.73596E-14
 -1      2627 2.01126E+01 2.62110E+00-1.16989E-02-1.67970E+00-4.16669E-13-2.75089E-13
 -1      2628 3.01382E+01-2.20411E+00-1.03693E-02 1.28375E-01-7.36182E-14-2.85744E-13
 -1      2629 1.37507E+01-4.57862E+00 1.43782E-01 6.88624E+00-3.81029E-13 1.72196E-13
 -1      2630 4.92840E+00-1.83043E+00 1.68117E-01 8.61104E-01 4.64212E-14-6.73073E-13
 -1      2631 2.03324E+01 2.86300E-01 6.75600E-04 6.32145E-01-1.53735E-13 4.05600E-13
 -1      2632 2.03184E+01 3.81943E-01 1.48936E-03 7.27342E-01-1.14177E-13 4.25176E-13
 -1      2633 3.03395E+01 2.94286E+00-8.44970E-02 1.49593E+00 4.26492E-13 3.74589E-13
 -1      2634 2.18680E+01-5.43000E+00 9.77316E-02 5.46778E+00-4.47031E-13-3.86288E-14
 -1      2635 2.05172E+01 5.11125E-01 7.03010E-03-1.15022E+00 1.62961E-13-1.68086E-13
 -1      2636 2.02939E+01 7.75894E-01-3.72022E-03-1.25894E+00 3.28974E-13-9.18834E-14
 -1      2637 2.02919E+01 7.97294E-01 2.21311E-03-1.46721E+00 2.06382E-13 9.17263E-14
 -1      2638 2.06964E+01 4.64954E-01 6.55994E-03-1.31381E+00 4.10876E-14-2.24228E-13
 -1      2639 2.04354E+01 1.80761E+00 1.25118E-02 1.56399E+00 4.40947E-13-1.53540E-13
 -1      2640 1.99926E+01 3.39965E-01-3.53518E-03 3.06196E-01 2.84116E-13-1.14307E-13
 -1      2641 7.41114E+00-2.49908E+00 1.67037E-01 4.38496E+00-4.05453E-13 3.40200E-13
 -1      2642 8.21405E+00-1.15488E+00 1.51486E-01 3.36580E+00-4.44603E-13 4.86944E-13
 -1      2643 9.49239E+00-2.58035E+00 5.03525E-02 5.28942E+00-4.35790E-13 2.63345E-13
 -1      2644 1.56338E+01-4.71254E+00 1.02731E-01 6.16320E+00 2.04808E-13-2.88630E-13
 -1      2645 3.15718E+01 6.65813E+00-5.04447E-02-5.86830E-01-4.14724E-13 2.52437E-14
 -1      2646 5.74299E+00-2.59193E+00 1.37073E-01-3.72329E+00-1.45869E-13-1.98896E-13
 -1      2647 8.15570E+00-2.18798E+00 6.74842E-02-4.88344E+00-2.97248E-13 1.16185E-13
 -1      2648 6.07171E+00-1.39413E+00 1.38548E-01-2.67960E+00-1.72057E-13-2.40197E-13
 -1      2649 3.11586E+01 2.15221E-01-1.41144E-02-1.63321E+00-3.39881E-13 1.58040E-13
 -1      2650 3.00542E+01 2.46619E-02-3.18674E-02-4.50318E-01 3.35981E-14-4.41591E-14
 -1      2651 1.85313E+01-5.27916E+00 9.55480E-02-6.46860E+00-5.37348E-14-3.27360E-14
 -1      2652 2.47385E+01-4.86824E+00 5.87223E-02-4.10028E+00-4.84751E-14 1.70947E-13
 -1      2653 2.87768E+01-1.95180E+00 3.92584E-03-4.56642E-01 5.40627E-15 3.19050E-13
 -1      2654 2.28617E+01-5.63342E+00 7.11040E-02 4.64570E+00 1.18794E-14 3.35780E-13
 -1      2655 3.10637E+01 5.39990E+00-7.51497E-02 1.52497E+00-3.04451E-13-1.86462E-13
 -1      2656 3.14017E+01 6.76057E+00-7.19102E-02 9.81873E-01 5.25635E-13 1.76414E-13
 -1      2657 2.05515E+01 5.60086E-01-3.82708E-03-1.54842E+00-1.32235E-13-1.78461E-13
 -1      2658 3.08975E+01 7.10625E+00-9.91873E-02-6.16304E-01 3.62321E-13-2.93932E-13
 -1      2659 3.19767E+01 4.37324E+00-2.47106E-02-1.99934E+00-5.26829E-13 1.03390E-13
 -1      2660 8.55191E+00-2.71066E+00 1.62074E-01 4.64081E+00 1.48465E-13-8.18706E-13
 -1      2661 1.33614E+01-4.35218E+00 1.31405E-01-6.39678E+00 1.20182E-14 4.93355E-14
 -1      2662 2.73670E+01-3.93337E+00-5.61336E-03 2.08240E+00-2.57509E-13-5.21805E-14
 -1      2663 2.03889E+01 3.40643E-01-1.08080E-03 8.87180E-01-1.68329E-13 2.90230E-13
 -1      2664 1.98477E+01 2.76443E+00-6.29865E-03 5.16940E-01 1.05548E-13-5.25170E-13
 -1      2665 1.98231E+01 2.81416E+00-5.69899E-03 3.65902E-01 6.11818E-14-5.38295E-13
 -1      2666 1.98064E+01 2.85168E+00-5.61899E-03 2.30183E-01 3.07300E-14-5.57920E-13
 -1      2667 1.97979E+01 2.86855E+00-5.43870E-03 7.53786E-02-7.79458E-15-5.42546E-13
 -1      2668 1.99529E+01 2.50045E+00 3.65342E-03 2.65661E-01 4.31391E-14-5.30467E-13
 -1      2669 2.00451E+01 2.32346E+00-1.06794E-02 1.04717E+00 2.99648E-13-3.75844E-13
 -1      2670 1.99811E+01 2.47230E+00-6.33593E-03 9.11330E-01 2.50283E-13-4.01723E-13
 -1      2671 2.02176E+01 1.90778E+00-1.17071E-02 1.22890E+00 3.82723E-13-2.97679E-13
 -1      2672 2.01249E+01 2.14588E+00-4.81783E-03 1.13566E+00 3.36819E-13-3.42588E-13
 -1      2673 2.01908E+01 1.88556E+00 6.40296E-03 9.27936E-01 2.99458E-13-3.23730E-13
 -1      2674 2.00680E+01 4.15650E-01-1.59145E-03 2.89356E-01 2.57552E-13-1.78978E-13
 -1      2675 2.01686E+01 5.53850E-01 1.00830E-02 4.52631E-01 2.96865E-13-1.53801E-13
 -1      2676 2.03105E+01 1.05935E+00 2.51865E-03-8.58160E-01-3.30374E-13-1.43520E-13
 -1      2677 2.02256E+01 8.16793E-01-5.20185E-03-6.14195E-01-2.92673E-13-1.30962E-13
 -1      2678 1.59093E+01-4.51260E+00-4.39980E-02 6.64746E+00-3.92991E-13 1.55112E-13
 -1      2679 1.26205E+01-3.42735E+00 1.98083E-01 6.25727E+00-5.14117E-13 2.92197E-13
 -1      2680 1.98408E+01 8.99307E-03 2.51467E-04-1.77465E-01 1.29654E-13-1.65851E-13
 -1      2681 1.98403E+01 2.77050E-02 1.78358E-03-1.65680E-01 1.05736E-13-1.86274E-13
 -1      2682 2.02151E+01 6.26694E-01 8.22470E-03-4.38714E-01-2.79353E-13-1.19173E-13
 -1      2683 2.01314E+01 4.75004E-01-3.41169E-03-2.80178E-01-2.52767E-13-1.25816E-13
 -1      2684 2.02622E+01 8.90378E-01 7.62219E-05-5.72558E-01-2.93290E-13-1.76750E-13
 -1      2685 2.01054E+01 3.62619E-01 6.60963E-03-1.60346E-01-2.18251E-13-1.00408E-13
 -1      2686 2.00462E+01 2.68107E-01-1.78386E-03-6.25345E-02-1.74299E-13-1.30085E-13
 -1      2687 2.01951E+01 5.28608E-01-1.73920E-03-2.63542E-01-2.40827E-13-1.60434E-13
 -1      2688 2.00203E+01 1.98088E-01 4.51309E-03 1.30119E-02-1.69596E-13-1.39967E-13
 -1      2689 1.99846E+01 1.38859E-01-8.19016E-04 6.98596E-02-1.48466E-13-1.93396E-13
 -1      2690 2.01265E+01 2.99321E-01-2.10626E-03-5.68455E-02-2.00629E-13-1.43673E-13
 -1      2691 1.99639E+01 9.51121E-02 2.89215E-03 1.13622E-01-1.16082E-13-1.91147E-13
 -1      2692 1.99461E+01 5.83690E-02-2.52433E-04 1.43566E-01-1.34840E-13-2.21335E-13
 -1      2693 2.00704E+01 1.53899E-01-1.91985E-03 7.11240E-02-1.57896E-13-2.04717E-13
 -1      2694 1.99314E+01 3.15398E-02 1.72431E-03 1.65764E-01-1.29171E-13-2.06967E-13
 -1      2695 1.99261E+01 9.60366E-03 7.16066E-05 1.78545E-01-1.04923E-13-1.90206E-13
 -1      2696 2.00300E+01 6.28450E-02-1.55000E-03 1.43323E-01-1.39031E-13-2.13881E-13
 -1      2697 1.99167E+01-5.95002E-03 9.12171E-04 1.86835E-01-8.85297E-14-1.82421E-13
 -1      2698 1.99196E+01-1.78759E-02 2.60977E-04 1.89196E-01-8.55646E-14-1.93328E-13
 -1      2699 2.00035E+01 7.84761E-03-1.17887E-03 1.78138E-01-9.22936E-14-1.80405E-13
 -1      2700 1.99144E+01-2.57115E-02 3.62056E-04 1.89176E-01-7.00217E-14-1.78536E-13
 -1      2701 1.99224E+01-3.07217E-02 3.81052E-04 1.85836E-01-4.63342E-14-1.33407E-13
 -1      2702 1.99882E+01-2.26749E-02-8.70514E-04 1.89321E-01-6.40821E-14-1.50226E-13
 -1      2703 1.99204E+01-3.31561E-02-4.67706E-07 1.81576E-01-4.61924E-14-9.91892E-14
 -1      2704 1.99314E+01-3.32802E-02 4.70787E-04 1.75886E-01-4.11578E-14-1.00479E-13
 -1      2705 1.99812E+01-3.62286E-02-6.36181E-04 1.86969E-01-3.34157E-14-1.32572E-13
 -1      2706 1.99317E+01-3.18310E-02-2.33458E-04 1.70354E-01-5.64062E-14-8.64736E-14
 -1      2707 1.99447E+01-2.83818E-02 5.54522E-04 1.64741E-01-2.51948E-14-1.13608E-13
 -1      2708 1.99803E+01-3.77566E-02-4.68992E-04 1.78464E-01-4.42741E-14-1.21249E-13
 -1      2709 1.99467E+01-2.40130E-02-3.81582E-04 1.60142E-01-6.37699E-15-1.52153E-13
 -1      2710 1.99611E+01-1.77913E-02 6.48919E-04 1.56430E-01-3.02198E-14-1.79794E-13
 -1      2711 1.99839E+01-3.04741E-02-3.57008E-04 1.69243E-01-6.06108E-14-1.46787E-13
 -1      2712 1.99644E+01-1.10620E-02-4.79078E-04 1.54470E-01-4.16623E-14-2.01113E-13
 -1      2713 1.99802E+01-2.48535E-03 7.66477E-04 1.54114E-01-6.81895E-14-2.02713E-13
 -1      2714 1.99908E+01-1.63632E-02-2.87685E-04 1.63419E-01-4.07093E-14-1.82362E-13
 -1      2715 1.99846E+01 6.35305E-03-5.52455E-04 1.56197E-01-6.37985E-14-1.41006E-13
 -1      2716 2.00021E+01 1.71611E-02 9.17181E-04 1.60459E-01-4.94153E-14-1.06707E-13
 -1      2717 2.00004E+01 3.51285E-03-2.49127E-04 1.64254E-01-4.92250E-14-1.15239E-13
 -1      2718 2.00074E+01 2.80951E-02-6.22737E-04 1.67849E-01-9.22676E-14-1.28466E-13
 -1      2719 2.00273E+01 4.12393E-02 1.10921E-03 1.77930E-01-8.84320E-14-9.11874E-14
 -1      2720 2.00123E+01 2.87927E-02-2.29852E-04 1.74533E-01-8.06710E-14-9.55722E-14
 -1      2721 2.00334E+01 5.44377E-02-7.07287E-04 1.91861E-01-1.21426E-13-1.23481E-13
 -1      2722 2.00566E+01 7.01939E-02 1.34892E-03 2.08998E-01-1.99731E-13-1.85977E-13
 -1      2723 2.00264E+01 5.96541E-02-2.18003E-04 1.96832E-01-1.19114E-13-1.71424E-13
 -1      2724 2.00633E+01 8.59544E-02-8.20933E-04 2.30755E-01-2.05790E-13-1.32764E-13
 -1      2725 2.00907E+01 1.04708E-01 1.64019E-03 2.56280E-01-1.62404E-13-1.90631E-13
 -1      2726 2.00424E+01 9.66715E-02-2.00733E-04 2.33720E-01-1.84701E-13-1.77401E-13
 -1      2727 2.00978E+01 1.23390E-01-9.76376E-04 2.87245E-01-1.49797E-13-1.83645E-13
 -1      2728 2.01307E+01 1.45549E-01 1.98342E-03 3.22608E-01-1.47001E-13-1.72656E-13
 -1      2729 2.00602E+01 1.40661E-01-1.63294E-04 2.87880E-01-1.52659E-13-1.61956E-13
 -1      2730 2.01378E+01 1.67473E-01-1.18351E-03 3.64262E-01-4.81623E-14-1.28041E-13
 -1      2731 2.01773E+01 1.93336E-01 2.37420E-03 4.10993E-01 7.23243E-14-1.30189E-13
 -1      2732 2.00792E+01 1.92471E-01-8.87882E-05 3.62148E-01-7.18525E-14-1.23856E-13
 -1      2733 2.01838E+01 2.18612E-01-1.44669E-03 4.64869E-01 4.69074E-14-1.72197E-13
 -1      2734 2.02309E+01 2.48123E-01 2.80155E-03 5.24465E-01 6.04520E-14-1.95702E-13
 -1      2735 2.00986E+01 2.52651E-01 3.97362E-05 4.59464E-01 4.10741E-15-1.13119E-13
 -1      2736 2.02360E+01 2.76343E-01-1.75838E-03 5.92040E-01 9.41475E-14-2.11973E-13
 -1      2737 2.02920E+01 3.08672E-01 3.24705E-03 6.65716E-01 5.97219E-14-2.02692E-13
 -1      2738 2.01170E+01 3.20884E-01 2.33533E-04 5.82706E-01 9.05691E-14-2.38341E-13
 -1      2739 2.02946E+01 3.38370E-01-2.08674E-03 7.48211E-01-2.69615E-14-1.16950E-13
 -1      2740 2.03606E+01 3.71168E-01 3.68606E-03 8.36462E-01-9.27377E-14-1.40935E-13
 -1      2741 2.01327E+01 3.94993E-01 4.84647E-04 7.34390E-01 4.74663E-14-2.26823E-13
 -1      2742 2.03604E+01 3.98888E-01-2.35333E-03 9.34528E-01-1.25181E-13-1.49310E-13
 -1      2743 2.04379E+01 4.27058E-01 4.09409E-03 1.03640E+00-1.10196E-13-1.11082E-13
 -1      2744 2.01438E+01 4.69253E-01 7.38063E-04 9.16211E-01-1.19543E-13-9.02120E-14
 -1      2745 2.04360E+01 4.45851E-01-2.39322E-03 1.14965E+00-3.52469E-14-7.01525E-14
 -1      2746 2.05281E+01 4.59612E-01 4.45807E-03 1.26156E+00 4.87294E-14-7.00794E-14
 -1      2747 2.01500E+01 5.31619E-01 8.40426E-04 1.12841E+00-3.49023E-14-2.82511E-14
 -1      2748 2.05297E+01 4.56780E-01-1.89107E-03 1.38787E+00 7.47394E-14-1.04769E-13
 -1      2749 2.06429E+01 4.38932E-01 4.77847E-03 1.50190E+00 1.17921E-13-1.36523E-13
 -1      2750 2.01557E+01 5.59436E-01 4.51420E-04 1.36894E+00 4.72167E-14-5.11426E-14
 -1      2751 2.06620E+01 3.93180E-01-2.80385E-04 1.63617E+00 4.99004E-14-2.50782E-13
 -1      2752 2.08099E+01 3.15999E-01 5.00436E-03 1.73741E+00-3.99447E-14-2.70125E-13
 -1      2753 2.01757E+01 5.13419E-01-1.09713E-03 1.63227E+00 4.79531E-14-2.34429E-13
 -1      2754 2.08766E+01 1.95067E-01 3.37877E-03 1.86894E+00 2.84665E-14-2.58239E-13
 -1      2755 2.10844E+01 1.89581E-02 4.86985E-03 1.93169E+00 5.82296E-14-2.28413E-13
 -1      2756 2.02466E+01 3.30819E-01-4.96946E-03 1.90693E+00-1.03262E-14-1.98339E-13
 -1      2757 2.12562E+01-2.18163E-01 1.08290E-02 2.03756E+00-2.10404E-14-2.40226E-13
 -1      2758 2.15628E+01-5.37844E-01 3.70230E-03 2.01995E+00-2.47135E-14-1.90945E-13
 -1      2759 2.04445E+01-7.83055E-02-1.26759E-02 2.16870E+00-1.60442E-14-7.56682E-14
 -1      2760 2.19342E+01-9.24172E-01 2.42807E-02 2.04964E+00 1.25701E-13-1.35111E-13
 -1      2761 2.23818E+01-1.40568E+00-6.89084E-05 1.88788E+00 7.50710E-14-3.85785E-14
 -1      2762 2.09071E+01-8.16710E-01-2.48993E-02 2.35976E+00 7.63505E-14-8.80624E-14
 -1      2763 2.30780E+01-1.92061E+00 4.29843E-02 1.74317E+00-2.72258E-14-5.03902E-14
 -1      2764 2.36836E+01-2.47855E+00-8.46744E-03 1.35184E+00 1.00857E-14-9.75387E-14
 -1      2765 2.18412E+01-1.93147E+00-4.05670E-02 2.35684E+00 1.06065E-14-7.19615E-14
 -1      2766 2.47961E+01-2.93073E+00 5.53444E-02 8.64179E-01-8.50032E-14-7.99256E-14
 -1      2767 2.55025E+01-3.20585E+00-6.75205E-03 1.83852E-01-1.46074E-13-1.94098E-13
 -1      2768 2.34816E+01-3.23595E+00-5.65774E-02 1.89549E+00-3.85143E-14-1.12620E-13
 -1      2769 2.87114E+01-1.69283E+00-5.66002E-02-1.92003E+00-1.43260E-13 1.44662E-13
 -1      2770 2.89434E+01 1.67355E-01-8.17470E-02-2.22421E+00-2.98275E-13 9.69641E-14
 -1      2771 2.85872E+01 5.64367E+00-1.88842E-01-1.93632E-01-2.61069E-13-2.42204E-13
 -1      2772 2.86515E+01 5.13445E+00-2.06970E-01 1.09526E+00-2.38198E-13-1.90747E-13
 -1      2773 2.85283E+01 3.88422E+00-1.20285E-01 2.09973E+00-3.19078E-13-2.40502E-13
 -1      2774 2.86207E+01 1.77605E+00-1.86013E-01 2.57816E+00-2.80623E-13-1.41318E-13
 -1      2775 2.79630E+01-5.12660E-01-5.01828E-02 2.29384E+00-9.38694E-14-1.60191E-13
 -1      2776 2.77044E+01-2.12799E+00-7.56668E-02 1.73731E+00 1.44912E-13-1.61079E-13
 -1      2777 2.65288E+01-2.92104E+00-4.03313E-02 6.82965E-01 2.08280E-13-2.15862E-13
 -1      2778 2.59389E+01-3.18626E+00 2.47070E-02-9.13628E-02 2.92374E-13-7.83124E-14
 -1      2779 2.74968E+01-3.15420E+00-7.11733E-02 4.95066E-01 9.77760E-14-1.32977E-13
 -1      2780 2.46794E+01-3.04311E+00-2.57847E-02-8.96243E-01 2.75474E-13-1.77368E-13
 -1      2781 2.40219E+01-2.61167E+00 4.67132E-02-1.47394E+00 1.86389E-13-3.09574E-13
 -1      2782 2.50009E+01-3.72555E+00-4.27870E-02-1.29988E+00 1.85817E-13-2.38857E-13
 -1      2783 2.30750E+01-2.12143E+00-1.02703E-02-1.85395E+00 1.48675E-13-1.63103E-13
 -1      2784 2.25192E+01-1.57135E+00 3.32417E-02-2.16274E+00 1.35430E-13-1.81492E-13
 -1      2785 2.29045E+01-2.76942E+00-4.25969E-02-2.30596E+00 1.75065E-13-3.53261E-13
 -1      2786 2.19518E+01-1.10566E+00-1.35649E-03-2.25906E+00 8.72904E-14-1.82893E-13
 -1      2787 2.15466E+01-6.72031E-01 1.79205E-02-2.36928E+00 1.73077E-14-1.19788E-13
 -1      2788 2.15306E+01-1.53289E+00-3.31153E-02-2.63352E+00 7.21265E-14-2.24469E-13
 -1      2789 2.12513E+01-3.38115E-01 2.49349E-03-2.32437E+00-7.65340E-14-1.58459E-13
 -1      2790 2.09704E+01-5.25373E-02 8.28212E-03-2.30922E+00-3.47952E-14-6.56145E-14
 -1      2791 2.07771E+01-5.53986E-01-1.90435E-02-2.60076E+00-7.63186E-14-1.57386E-13
 -1      2792 2.08322E+01 1.59926E-01 3.22353E-03-2.19758E+00-1.48482E-13-1.10658E-13
 -1      2793 2.06327E+01 3.38374E-01 3.08488E-03-2.10611E+00-3.56886E-13-1.96785E-13
 -1      2794 2.04056E+01 9.09414E-02-1.02837E-02-2.40401E+00-8.62209E-14-2.76184E-13
 -1      2795 2.05721E+01 4.72447E-01 2.93791E-03-1.95758E+00-4.47329E-13-1.42605E-14
 -1      2796 2.04280E+01 5.90058E-01 2.18463E-03-1.81726E+00-3.27613E-13-1.66125E-13
 -1      2797 2.02400E+01 5.00496E-01-1.99215E-03-2.12853E+00-2.40750E-13 5.29854E-14
 -1      2798 1.98537E+01 5.04542E-02 8.82698E-05-1.43253E-01 1.16630E-13-1.86322E-13
 -1      2799 1.98674E+01 8.19480E-02 3.16253E-03-1.14563E-01 1.43311E-13-1.58498E-13
 -1      2800 1.99510E+01 5.59168E-02-1.79834E-03-1.45921E-01 1.29521E-13-1.69627E-13
 -1      2801 2.03362E+01 1.49961E+00-1.96493E-03 1.26778E+00 4.02620E-13-1.84572E-13
 -1      2802 7.77185E+00-1.36779E+00 1.39198E-01-3.08880E+00-1.26357E-13 1.58068E-13
 -1      2803 9.79147E+00-2.19704E+00 9.71138E-02-4.89200E+00-9.22873E-15-1.28120E-13
 -1      2804 1.98902E+01 1.19253E-01-2.35510E-04-6.97649E-02 1.47747E-13-1.77321E-13
 -1      2805 1.99258E+01 1.70633E-01 5.19468E-03-1.40908E-02 1.61455E-13-1.70329E-13
 -1      2806 1.99911E+01 1.36295E-01-2.35455E-03-7.16490E-02 1.49738E-13-1.96805E-13
 -1      2807 1.98440E+01-1.44597E-02 3.35210E-04-1.87253E-01 1.56547E-13-1.00343E-13
 -1      2808 1.98347E+01-4.23616E-03 8.74889E-04-1.85632E-01 1.62712E-13-1.10503E-13
 -1      2809 1.99299E+01 7.61890E-03-1.29844E-03-1.81120E-01 1.21270E-13-1.51355E-13
 -1      2810 1.98573E+01-2.57039E-02 3.86025E-04-1.82987E-01 1.22961E-13-9.70242E-14
 -1      2811 1.98430E+01-2.12624E-02 2.86144E-04-1.86921E-01 1.52095E-13-7.80070E-14
 -1      2812 1.99225E+01-1.93181E-02-9.06842E-04-1.91829E-01 1.34611E-13-1.00694E-13
 -1      2813 1.98767E+01-2.84783E-02 4.32116E-04-1.71979E-01 8.09622E-14-7.62504E-14
 -1      2814 1.98598E+01-2.80614E-02-8.32325E-05-1.78260E-01 1.04042E-13-7.87523E-14
 -1      2815 1.99244E+01-3.16666E-02-6.24549E-04-1.88489E-01 1.01447E-13-8.42848E-14
 -1      2816 1.98997E+01-2.52303E-02 4.89523E-04-1.59450E-01 5.28235E-14-1.05802E-13
 -1      2817 1.98815E+01-2.76897E-02-3.03060E-04-1.65796E-01 6.60823E-14-7.11276E-14
 -1      2818 1.99326E+01-3.38332E-02-4.34764E-04-1.78580E-01 9.64028E-14-4.52979E-14
 -1      2819 1.99250E+01-1.75436E-02 5.68011E-04-1.49202E-01 6.22432E-14-9.13679E-14
 -1      2820 1.99060E+01-2.21439E-02-4.23404E-04-1.53950E-01 6.98692E-14-7.37395E-14
 -1      2821 1.99450E+01-2.87084E-02-3.18664E-04-1.67509E-01 6.02235E-14-6.55676E-14
 -1      2822 1.99524E+01-6.40567E-03 6.73915E-04-1.44098E-01 3.70980E-14-1.43193E-13
 -1      2823 1.99326E+01-1.26973E-02-4.80226E-04-1.45983E-01 4.06551E-14-9.93890E-14
 -1      2824 1.99603E+01-1.81583E-02-2.59717E-04-1.59258E-01 4.74469E-14-1.88092E-14
 -1      2825 1.99822E+01 7.59946E-03 8.11085E-04-1.46400E-01 2.14202E-14-8.39716E-14
 -1      2826 1.99611E+01-1.24535E-04-4.98965E-04-1.44410E-01 4.30792E-14-1.14523E-13
 -1      2827 1.99782E+01-3.34286E-03-2.44561E-04-1.56861E-01 2.08923E-14-9.88670E-14
 -1      2828 2.00155E+01 2.41261E-02 9.80584E-04-1.57992E-01 5.23936E-14-8.41384E-14
 -1      2829 1.99922E+01 1.51231E-02-4.96958E-04-1.51273E-01 1.90398E-14-5.36165E-14
 -1      2830 1.99987E+01 1.50448E-02-2.62803E-04-1.62738E-01 1.17334E-14-9.06830E-15
 -1      2831 2.00536E+01 4.29020E-02 1.17970E-03-1.80494E-01 3.26758E-14-4.08858E-15
 -1      2832 2.00271E+01 3.27551E-02-4.84791E-04-1.68312E-01 6.65445E-14-6.30247E-14
 -1      2833 2.00223E+01 3.65684E-02-3.06652E-04-1.78913E-01 4.41079E-14-4.02531E-14
 -1      2834 2.00984E+01 6.35413E-02 1.40014E-03-2.15273E-01-1.14386E-14 1.70744E-14
 -1      2835 2.00673E+01 5.24692E-02-4.66928E-04-1.97028E-01 9.04042E-15 1.13405E-14
 -1      2836 2.00498E+01 6.08328E-02-3.70515E-04-2.07123E-01 2.74457E-14-6.43739E-15
 -1      2837 2.01520E+01 8.53091E-02 1.62543E-03-2.63327E-01 5.18101E-14-7.71320E-14
 -1      2838 2.01149E+01 7.37438E-02-4.41327E-04-2.38633E-01 3.23481E-14-4.68757E-14
 -1      2839 2.00825E+01 8.72332E-02-4.51541E-04-2.48809E-01 4.63362E-14-2.97762E-14
 -1      2840 2.02168E+01 1.06815E-01 1.82765E-03-3.25016E-01 6.94761E-14-1.08146E-13
 -1      2841 2.01723E+01 9.55716E-02-3.98003E-04-2.93862E-01 5.77089E-14-1.23588E-13
 -1      2842 2.01218E+01 1.14640E-01-5.50535E-04-3.04975E-01 1.00216E-13-6.00808E-14
 -1      2843 2.02956E+01 1.25615E-01 1.96352E-03-3.99611E-01 1.95772E-14 1.40451E-14
 -1      2844 2.02420E+01 1.16111E-01-3.16571E-04-3.62623E-01 6.00479E-14-1.14418E-14
 -1      2845 2.01699E+01 1.40992E-01-6.74094E-04-3.75894E-01 3.42198E-14-7.10013E-14
 -1      2846 2.03913E+01 1.37716E-01 1.97017E-03-4.84605E-01 9.23063E-14 4.26141E-14
 -1      2847 2.03274E+01 1.32239E-01-1.62654E-04-4.43430E-01 5.69466E-14 7.41921E-14
 -1      2848 2.02292E+01 1.62769E-01-8.38187E-04-4.60622E-01 2.36600E-14 4.53373E-14
 -1      2849 2.05074E+01 1.37019E-01 1.76116E-03-5.74766E-01 2.27734E-14 1.36566E-13
 -1      2850 2.04320E+01 1.39023E-01 1.16253E-04-5.32592E-01 1.08513E-13 1.18980E-13
 -1      2851 2.03033E+01 1.74367E-01-1.07317E-03-5.56277E-01 5.97656E-14 1.15827E-13
 -1      2852 2.06480E+01 1.14842E-01 1.22398E-03-6.60916E-01-1.09947E-13 2.54616E-14
 -1      2853 2.05603E+01 1.29170E-01 5.93431E-04-6.23110E-01-3.59130E-14 1.43589E-13
 -1      2854 2.03970E+01 1.67424E-01-1.42864E-03-6.57053E-01 1.00221E-14 2.56326E-13
 -1      2855 2.08179E+01 5.98741E-02 2.22475E-04-7.28511E-01-2.40411E-13-1.06704E-13
 -1      2856 2.07178E+01 9.27029E-02 1.35860E-03-7.03300E-01-1.64248E-13-3.79477E-14
 -1      2857 2.05173E+01 1.30336E-01-1.97386E-03-7.52944E-01-7.42134E-14 2.08670E-13
 -1      2858 2.10228E+01-4.07207E-02-1.39096E-03-7.56297E-01-1.53089E-13-1.87574E-13
 -1      2859 2.09113E+01 1.73542E-02 2.49738E-03-7.55271E-01-1.98108E-13-1.95078E-13
 -1      2860 2.06741E+01 4.84786E-02-2.78267E-03-8.28200E-01-1.58949E-13 5.52857E-14
 -1      2861 2.12684E+01-1.97771E-01-3.73389E-03-7.15673E-01-9.20901E-14-1.23442E-13
 -1      2862 2.11479E+01-1.09354E-01 4.02918E-03-7.53652E-01-7.22000E-14-9.44636E-14
 -1      2863 2.08803E+01-9.38401E-02-3.88543E-03-8.59699E-01-1.66077E-13 2.00023E-14
 -1      2864 2.15569E+01-4.12303E-01-6.77952E-03-5.72125E-01-2.22675E-13-7.48143E-14
 -1      2865 2.14333E+01-2.94765E-01 5.79599E-03-6.65506E-01-1.59577E-13-9.81299E-14
 -1      2866 2.11512E+01-3.07964E-01-5.15644E-03-8.15769E-01-1.24986E-13 5.85011E-14
 -1      2867 2.18814E+01-6.61838E-01-1.00990E-02-2.91316E-01-1.30773E-13-8.74522E-14
 -1      2868 2.17658E+01-5.30610E-01 7.24866E-03-4.53502E-01-1.88484E-13-8.89186E-14
 -1      2869 2.14998E+01-5.89588E-01-6.10259E-03-6.56864E-01-1.90360E-13 1.08870E-13
 -1      2870 2.22139E+01-8.82063E-01-1.23589E-02 1.45843E-01 1.16146E-13 3.30465E-14
 -1      2871 2.21252E+01-7.76599E-01 7.23090E-03-8.62439E-02 4.23294E-15-3.66845E-14
 -1      2872 2.19257E+01-8.99942E-01-5.65768E-03-3.41500E-01-8.95029E-14-1.59617E-14
 -1      2873 2.24945E+01-9.54531E-01-1.09994E-02 7.14127E-01 9.23259E-14 1.46715E-13
 -1      2874 2.24581E+01-9.42735E-01 4.04575E-03 4.38304E-01 1.85471E-13 1.72691E-13
 -1      2875 2.23958E+01-1.14264E+00-2.20714E-03 1.55866E-01 1.10483E-13 8.40051E-14
 -1      2876 2.26329E+01-7.29163E-01-3.37523E-03 1.30253E+00-2.50977E-13 7.37067E-14
 -1      2877 2.26709E+01-8.88891E-01-3.97105E-03 1.05207E+00-4.60318E-14 1.12380E-13
 -1      2878 2.28218E+01-1.15407E+00 4.99001E-03 8.05542E-01 3.95404E-14 1.80608E-13
 -1      2879 2.25488E+01-1.16660E-01 9.52759E-03 1.69083E+00-7.59380E-14 5.56087E-14
 -1      2880 2.26612E+01-4.77589E-01-1.50611E-02 1.57654E+00-2.39010E-13 3.84336E-14
 -1      2881 2.30639E+01-7.56298E-01 1.20545E-02 1.46271E+00-1.47269E-13-2.04525E-14
 -1      2882 2.22499E+01 7.68241E-01 1.85899E-02 1.60818E+00 5.27954E-14 1.15317E-13
 -1      2883 2.23967E+01 3.00356E-01-2.48679E-02 1.73894E+00 1.27466E-14 8.58591E-14
 -1      2884 2.30059E+01 1.14260E-01 1.17891E-02 1.84707E+00-8.33530E-14-6.99007E-14
 -1      2885 2.19070E+01 1.52919E+00 1.47479E-02 9.17112E-01 1.05969E-13 2.07375E-14
 -1      2886 2.20153E+01 1.18957E+00-2.13813E-02 1.30801E+00 1.31423E-13 7.48043E-14
 -1      2887 2.26839E+01 1.22170E+00-3.52826E-04 1.62539E+00 7.60399E-14-7.57987E-14
 -1      2888 2.17782E+01 1.70721E+00-2.63337E-03-1.58896E-01 2.06581E-13-3.56212E-14
 -1      2889 2.17908E+01 1.70801E+00-2.17813E-03 3.44514E-01 1.85706E-13-1.66278E-14
 -1      2890 2.23685E+01 2.00727E+00-1.49933E-02 7.13162E-01 2.06546E-13-1.76558E-13
 -1      2891 2.19665E+01 1.17976E+00-2.27398E-02-1.12077E+00 1.42967E-13-7.10300E-14
 -1      2892 2.18828E+01 1.52454E+00 1.47418E-02-7.32382E-01 2.33424E-13 4.56289E-14
 -1      2893 2.23552E+01 2.00158E+00-1.65392E-02-5.10927E-01 1.74588E-13-1.64246E-13
 -1      2894 2.23114E+01 2.80990E-01-2.64598E-02-1.54527E+00 6.04616E-14-1.45676E-13
 -1      2895 2.21908E+01 7.55706E-01 1.88387E-02-1.41821E+00 5.28865E-14-2.79069E-14
 -1      2896 2.26457E+01 1.20095E+00-3.71089E-03-1.42317E+00 1.57876E-13-1.36790E-13
 -1      2897 2.25445E+01-5.12631E-01-1.61105E-02-1.36783E+00-7.66659E-14-2.80973E-13
 -1      2898 2.24584E+01-1.43248E-01 1.02368E-02-1.49151E+00 3.11006E-14-9.94628E-14
 -1      2899 2.29497E+01 8.55841E-02 1.07913E-02-1.63773E+00 5.62246E-14-1.46897E-13
 -1      2900 2.25195E+01-9.34874E-01-3.52063E-03-8.19123E-01-1.21193E-13-3.02475E-13
 -1      2901 2.25086E+01-7.69647E-01-1.57225E-03-1.08224E+00-1.79472E-13-4.02106E-13
 -1      2902 2.29918E+01-8.02992E-01 1.29584E-02-1.23424E+00 2.54831E-15-4.92531E-15
 -1      2903 2.22658E+01-9.88932E-01 3.88845E-03-1.77219E-01-5.44247E-14-2.02613E-13
 -1      2904 2.23311E+01-1.00212E+00-1.01872E-02-4.66161E-01-3.67065E-14-2.19233E-13
 -1      2905 2.27276E+01-1.21210E+00 6.33753E-03-5.47630E-01-1.92659E-13-2.65529E-13
 -1      2906 2.18889E+01-8.09287E-01 7.09062E-03 3.70150E-01-1.64186E-14-2.14811E-13
 -1      2907 2.20079E+01-9.23469E-01-1.23128E-02 1.28300E-01-1.90039E-14-2.03958E-13
 -1      2908 2.22755E+01-1.19613E+00-2.22261E-03 1.30707E-01-9.39935E-15-1.65031E-13
 -1      2909 2.14829E+01-5.32131E-01 7.68169E-03 7.46926E-01 6.78983E-14-2.17634E-13
 -1      2910 2.16289E+01-6.81629E-01-1.04173E-02 5.83118E-01-3.87216E-14-2.19195E-13
 -1      2911 2.17766E+01-9.31152E-01-5.99186E-03 6.49484E-01-5.30734E-14-1.45725E-13
 -1      2912 2.11031E+01-2.43445E-01 7.10427E-03 9.44897E-01 1.49101E-13-5.00076E-14
 -1      2913 2.12557E+01-3.91118E-01-7.27568E-03 8.63138E-01 1.80801E-13-8.34887E-14
 -1      2914 2.13186E+01-5.75730E-01-6.40493E-03 9.69971E-01-2.14725E-14-9.44695E-14
 -1      2915 2.07715E+01 1.80922E-02 6.07182E-03 9.82308E-01-1.80608E-13 2.94357E-13
 -1      2916 2.09163E+01-1.11519E-01-4.48846E-03 9.76418E-01-5.39238E-14 2.33977E-13
 -1      2917 2.09347E+01-2.20780E-01-5.09765E-03 1.10728E+00-1.41292E-13 1.13528E-13
 -1      2918 2.05034E+01 2.31932E-01 4.68636E-03 9.25583E-01-2.72836E-13 4.01594E-13
 -1      2919 2.06352E+01 1.19693E-01-2.26651E-03 9.83698E-01-2.38845E-13 2.72942E-13
 -1      2920 2.06379E+01 8.01396E-02-2.80828E-03 1.12650E+00-2.45136E-13 1.04124E-13
 -1      2921 2.04096E+01 3.46510E-01-1.14665E-03 1.07457E+00-3.15454E-13-1.32091E-13
 -1      2922 1.90650E+01 1.60979E+00-1.09666E-02 6.57161E-01 3.33745E-14-4.95090E-15
 -1      2923 1.92078E+01 1.51619E+00 4.47716E-03 8.80937E-01 1.43336E-13 5.11406E-14
 -1      2924 1.97113E+01 1.03435E+00-7.74006E-03 1.31076E+00 4.09048E-15 2.11926E-13
 -1      2925 1.98790E+01 8.92336E-01 5.76583E-03 1.35551E+00-2.80923E-13 3.62028E-13
 -1      2926 1.88970E+01 1.76730E+00-8.27224E-03 7.91218E-02-1.79497E-13 5.69998E-15
 -1      2927 1.89620E+01 1.72964E+00-1.14582E-04 3.60793E-01-9.26239E-14 4.40988E-15
 -1      2928 1.87932E+01 1.52399E+00 6.99620E-03 5.92777E-01 5.27564E-14-1.49412E-13
 -1      2929 1.93651E+01 1.34346E+00-1.05866E-02 1.08281E+00 3.25926E-14 4.05692E-14
 -1      2930 1.95420E+01 1.21445E+00 6.76831E-03 1.21979E+00 1.26180E-13 9.36905E-14
 -1      2931 1.95423E+01 9.20270E-01-1.64880E-03 1.40624E+00-5.44882E-14 2.59644E-13
 -1      2932 1.91262E+01 1.24914E+00 2.37579E-03 1.10973E+00 4.98245E-14 9.88468E-14
 -1      2933 1.99594E+01 2.31221E-01-8.08152E-04 6.42118E-02 1.83029E-13-1.83543E-13
 -1      2934 2.00252E+01 3.14917E-01 7.82968E-03 1.62004E-01 2.09763E-13-1.64788E-13
 -1      2935 2.01452E+01 4.77920E-01-1.83669E-03 2.81943E-01 2.45086E-13-1.83379E-13
 -1      2936 2.00554E+01 2.66230E-01-2.72265E-03 6.20602E-02 1.83132E-13-1.81913E-13
 -1      2937 1.89204E+01 1.77008E+00-3.20904E-03-5.41358E-01-1.29753E-13-7.64731E-14
 -1      2938 1.88836E+01 1.79723E+00-5.56787E-03-2.56728E-01-2.08706E-13 1.55758E-13
 -1      2939 1.86431E+01 1.66479E+00 9.37449E-03-6.98706E-02-8.38920E-14-2.01336E-15
 -1      2940 1.91444E+01 1.61234E+00 2.49141E-03-1.10449E+00 2.69083E-13 1.60484E-13
 -1      2941 1.90066E+01 1.70223E+00-9.70448E-03-8.61330E-01 7.91150E-14 1.72459E-14
 -1      2942 1.87316E+01 1.63111E+00 8.32753E-03-7.58031E-01-4.80112E-14 1.71034E-13
 -1      2943 1.95276E+01 1.32821E+00 6.86529E-03-1.49137E+00 1.65824E-13 2.64984E-13
 -1      2944 1.93163E+01 1.46538E+00-1.12250E-02-1.34000E+00 3.04651E-13 1.97001E-13
 -1      2945 1.90572E+01 1.43256E+00 5.23189E-03-1.33899E+00 2.35286E-13 1.98974E-13
 -1      2946 6.38394E+00-1.00127E+00 9.98226E-02 1.71785E+00 8.03524E-15-7.22034E-13
 -1      2947 5.90567E+00-8.64138E-01 1.91538E-01-4.08789E-01-7.49470E-14-5.31380E-13
 -1      2948 2.92181E+01 6.94085E+00-1.55271E-01 6.84585E-02 3.06588E-13-1.33902E-13
 -1      2949 2.84074E+01 6.22085E+00-1.78572E-01-7.94446E-01 1.76303E-13-2.75155E-13
 -1      2950 2.86649E+01 1.67261E+00-1.09565E-01 1.76339E+00 2.85272E-13 4.13655E-13
 -1      2951 2.91780E+01 3.92790E+00-1.65773E-01 1.83578E+00 5.27994E-13 3.27210E-13
 -1      2952 1.75381E+01-4.72979E+00 1.21357E-01-6.33586E+00-1.09412E-13 1.81591E-14
 -1      2953 2.05318E+01-5.30166E+00-3.24611E-02-5.79286E+00-9.98368E-14 1.43873E-13
 -1      2954 1.94688E+01-4.97592E+00 1.43100E-01-5.69950E+00 1.47479E-13-9.23567E-15
 -1      2955 2.23937E+01-5.57604E+00-5.17419E-02-4.90500E+00 2.09499E-13 7.90618E-14
 -1      2956 2.88449E+01 5.18406E+00-1.94537E-01-1.42335E+00-2.80193E-13-7.77156E-14
 -1      2957 1.81841E+01-4.82705E+00-7.05434E-03 5.79388E+00 2.41862E-13 5.57610E-14
 -1      2958 1.45863E+01-3.60265E+00 1.39071E-01 5.81058E+00 2.74475E-13-4.10769E-13
 -1      2959 2.91632E+01 6.98391E-01-1.77974E-01-1.29087E+00 3.59296E-14-9.67837E-14
 -1      2960 2.86789E+01-1.13775E+00-4.66589E-02-5.56225E-01-1.16712E-14-4.55885E-14
 -1      2961 1.99254E+01 2.59545E+00-7.90559E-03 7.95460E-01 2.17556E-13-4.42668E-13
 -1      2962 1.98820E+01 2.68753E+00-6.13168E-03 6.46356E-01 1.44790E-13-4.83148E-13
 -1      2963 2.00010E+01 2.38792E+00 4.35578E-03 5.17593E-01 1.19680E-13-4.68788E-13
 -1      2964 2.00819E+01 2.19021E+00 5.68930E-03 7.46715E-01 2.09358E-13-3.82762E-13
 -1      2965 1.98774E+01 2.69563E+00-6.15770E-03-6.36113E-01-1.87247E-13-4.79588E-13
 -1      2966 1.99196E+01 2.60677E+00-7.59918E-03-7.86256E-01-2.32596E-13-4.53240E-13
 -1      2967 7.66587E+00-4.52720E-01 1.31812E-01 9.24723E-01-2.61917E-13 4.84668E-13
 -1      2968 7.21584E+00-7.32536E-01 1.80875E-01-1.32067E+00-1.85255E-13 3.86663E-13
 -1      2969 9.48253E+00-4.32666E-01 1.66877E-01-2.08575E+00 7.82222E-14 5.24858E-14
 -1      2970 2.89101E+01-2.81288E+00 2.32966E-02 2.82281E-01 4.78992E-14-2.40988E-13
 -1      2971 2.97434E+01-1.50094E+00-2.22510E-01 1.40523E+00-1.28821E-13-3.14609E-13
 -1      2972 2.86791E+01 4.59013E+00-1.78704E-01-1.70196E+00 1.34476E-13-1.94122E-13
 -1      2973 2.91599E+01 2.78462E+00-1.00673E-01-1.76392E+00 3.86635E-14-1.78801E-13
 -1      2974 2.32039E+01-5.22453E+00-5.54096E-02 4.36465E+00-4.69000E-13-1.66421E-13
 -1      2975 2.01167E+01-5.01898E+00 1.71473E-01 5.82802E+00-4.44825E-13-8.12458E-15
 -1      2976 2.43944E+01-5.54849E+00-9.18309E-02 3.62429E+00-2.63956E-14 3.89258E-13
 -1      2977 2.18408E+01-5.25289E+00 1.25969E-01 4.68734E+00 4.60881E-14 2.38166E-13
 -1      2978 2.74604E+01-3.15524E+00 4.38472E-02-7.30098E-01-3.50154E-14 1.70128E-13
 -1      2979 2.81957E+01-1.27800E+00-1.55235E-01 7.82884E-01 1.84353E-13 3.59782E-13
 -1      2980 2.33645E+01-5.12078E+00 9.71834E-02-4.41952E+00 2.43972E-14 2.02380E-13
 -1      2981 2.54584E+01-4.78903E+00-1.46612E-01-2.90056E+00-4.58591E-14 1.50692E-13
 -1      2982 2.22134E+01-4.93981E+00 5.96833E-02-4.60808E+00-7.90618E-14 1.87867E-13
 -1      2983 1.14832E+01-2.86796E+00 1.91428E-01-5.91802E+00-2.78083E-13-1.35281E-13
 -1      2984 1.42723E+01-3.91788E+00 4.49447E-02-6.62853E+00-1.67921E-13-2.36172E-13
 -1      2985 1.08041E+01-2.43834E+00 8.35884E-02 5.09920E+00 2.04045E-13-6.82537E-13
 -1      2986 8.17758E+00-1.48544E+00 1.95114E-01 3.57384E+00 1.80134E-13-7.87898E-13
 -1      2987 2.04014E+01 6.68728E-01 4.28341E-03-1.70472E+00-2.12005E-13-1.96873E-14
 -1      2988 2.03191E+01 7.28975E-01 1.93274E-03-1.58361E+00 6.57407E-14 1.37986E-13
 -1      2989 2.01166E+01 8.95460E-01-4.30762E-03-1.61006E+00 5.76196E-14 3.62988E-13
 -1      2990 2.01654E+01 7.39829E-01-4.12754E-05-1.85421E+00-2.18239E-13 3.41746E-13
 -1      2991 1.25465E+01-3.19959E+00 1.62245E-01-5.81755E+00 3.20022E-14 2.65898E-14
 -1      2992 1.56963E+01-4.34136E+00 9.99006E-04-6.33721E+00 4.28962E-14 5.52197E-14
 -1      2993 2.89817E+01 5.58877E+00-1.63620E-01 1.57445E+00 4.62852E-13 2.49342E-13
 -1      2994 2.93022E+01 6.67869E+00-1.77316E-01 8.12413E-01 3.87801E-13 1.84297E-14
 -1      2995 2.73814E+01 6.02555E+00-1.07076E-01 5.99612E-01 1.62120E-13-1.30434E-13
 -1      2996 2.77380E+01 4.14598E+00-1.10388E-01 1.88549E+00 3.60392E-13 1.82326E-13
 -1      2997 2.01795E+01 2.27218E+00 5.27701E-05-1.42452E+00-3.90130E-13-2.83932E-13
 -1      2998 2.51773E+01-5.24543E+00 8.24604E-02-3.27631E+00 1.23193E-13-1.06207E-13
 -1      2999 2.72184E+01-4.79495E+00-1.35028E-01-1.79787E+00 1.40506E-13-1.57221E-13
 -1      3000 2.78358E+01-3.13011E+00-1.06056E-01 6.86159E-01-3.09855E-13 3.72341E-14
 -1      3001 2.61189E+01-4.34467E+00 3.06771E-03 2.13819E+00-4.99319E-13-6.04239E-14
 -1      3002 2.86177E+01-3.40892E+00-1.08388E-01-1.10875E-01-1.15324E-14 3.35718E-13
 -1      3003 2.68584E+01-4.69048E+00 5.50548E-02 1.73938E+00-1.08039E-14 2.86715E-13
 -1      3004 2.03484E+01 9.29519E-01 8.25239E-03 8.91057E-01 3.61317E-13-1.40717E-13
 -1      3005 2.02912E+01 1.56442E+00-4.75292E-04 1.15213E+00 3.93678E-13-2.37575E-13
 -1      3006 2.02787E+01 1.34348E+00 1.72811E-03 9.07117E-01 3.65008E-13-2.52200E-13
 -1      3007 2.02053E+01 7.10558E-01-3.69970E-03 6.29107E-01 3.30483E-13-1.52849E-13
 -1      3008 1.99743E+01 2.48494E+00-6.46828E-03-9.02414E-01-2.69017E-13-4.26987E-13
 -1      3009 2.00285E+01 2.34212E+00-1.32287E-02-1.04283E+00-3.14673E-13-4.13487E-13
 -1      3010 2.00721E+01 2.20095E+00 3.79083E-03-7.37474E-01-2.49533E-13-3.98046E-13
 -1      3011 1.99365E+01 2.53798E+00 3.44171E-03 4.66769E-03-2.28199E-14-5.11103E-13
 -1      3012 1.97973E+01 2.86935E+00-5.49818E-03-6.19589E-02-3.68229E-14-5.26001E-13
 -1      3013 1.98047E+01 2.85468E+00-5.56720E-03-2.16875E-01-8.50610E-14-5.21134E-13
 -1      3014 2.02498E+01 8.06608E-01 1.24695E-03 6.05607E-01 3.25854E-13-2.17917E-13
 -1      3015 2.92858E+01 2.18495E+00-1.57838E-01-2.75353E+00-4.72580E-13 3.34455E-15
 -1      3016 1.23966E+01-2.32784E+00 1.70069E-01 5.36891E+00-4.33487E-13 3.45876E-13
 -1      3017 2.58510E+01-4.10395E+00-6.47477E-02 9.60811E-01-9.23359E-14 4.06862E-14
 -1      3018 2.68855E+01-3.28387E+00 1.12264E-02-4.81597E-01-4.18008E-14-9.08995E-14
 -1      3019 2.75380E+01-2.58022E+00-3.44486E-02-1.27052E+00-8.94250E-14 1.06547E-14
 -1      3020 2.81022E+01 1.37670E+00-9.07769E-02-1.82031E+00 1.04444E-13-1.23734E-13
 -1      3021 2.97480E+01 6.48108E-01-1.03532E-01 2.14601E+00-1.54474E-13-1.59012E-13
 -1      3022 1.83809E+01-4.13543E+00 1.11068E-01-5.52201E+00 1.53919E-13-9.29812E-15
 -1      3023 2.03293E+01 4.33488E-01 3.99841E-03 1.17639E+00-2.66397E-13-4.35256E-13
 -1      3024 2.04244E+01 2.85717E-01-7.19349E-04 1.22946E+00-4.02153E-13-2.17438E-13
 -1      3025 2.02294E+01 5.47010E-01-2.13628E-03 1.26012E+00-3.52929E-13-4.93155E-13
 -1      3026 2.80069E+01-7.56792E-02-8.55868E-02 1.66692E+00 2.22253E-13 2.58654E-13
 -1      3027 2.70967E+01 1.16911E+00-9.54725E-02 2.17868E+00 3.15262E-13 1.39236E-13
 -1      3028 2.69116E+01-1.35092E+00-4.38233E-02 1.18947E+00 2.35256E-13 1.95129E-13
 -1      3029 2.75989E+01-2.12409E+00-4.43184E-02-4.22520E-01-2.48697E-13-1.91444E-13
 -1      3030 7.57270E+00-6.05036E-01 1.83180E-01-1.67264E+00-2.42809E-13-2.97679E-13
 -1      3031 8.86188E+00-6.56161E-01 1.90839E-01 2.41848E+00 7.37743E-14-7.26086E-13
 -1      3032 1.99942E+01 9.72453E-01 4.28901E-03-1.63606E+00 2.20566E-14 3.74553E-13
 -1      3033 1.97563E+01 1.14099E+00-9.08841E-03-1.60386E+00 1.84005E-15 3.61096E-13
 -1      3034 2.63560E+01 5.33467E+00-1.33131E-01-9.18288E-01 1.48867E-13-1.74760E-13
 -1      3035 2.77094E+01 5.11274E+00-1.54712E-01-1.43066E+00 1.68920E-13-2.67786E-13
 -1      3036 2.68297E+01 3.97483E+00-5.45640E-02-1.78156E+00 2.04142E-13-1.69288E-13
 -1      3037 2.01405E+01 2.12839E+00 8.89034E-04-1.14179E+00-3.31596E-13-3.50046E-13
 -1      3038 2.02916E+01 1.68119E+00-1.06585E-02-1.24986E+00-3.84536E-13-2.10405E-13
 -1      3039 2.02867E+01 1.30270E+00-1.29922E-03-9.77494E-01-3.52275E-13-1.80682E-13
 -1      3040 2.01954E+01 1.85307E+00 5.07857E-03-9.28673E-01-2.98195E-13-3.46893E-13
 -1      3041 1.68634E+01-3.90760E+00 1.07704E-01-5.96918E+00-1.35822E-13-1.84422E-13
 -1      3042 1.35296E+01-2.67481E+00 1.35212E-01 5.36682E+00 2.17659E-13-5.26607E-13
 -1      3043 1.27144E+01-1.53957E+00 1.08069E-01 4.54528E+00 1.61725E-13-5.97550E-13
 -1      3044 1.58497E+01-2.96371E+00-2.32017E-02 5.09844E+00 2.21233E-13-3.17801E-13
 -1      3045 2.61879E+01-3.82269E+00 1.27323E-02-1.39987E+00 6.34597E-14 1.09780E-13
 -1      3046 2.57741E+01-4.80988E+00 3.49822E-02 2.03908E+00-2.30302E-14 2.51382E-13
 -1      3047 2.49144E+01-4.86936E+00 2.35418E-02 3.02467E+00-4.34978E-13 7.24143E-14
 -1      3048 2.30824E+01-4.67238E+00 6.15885E-03 3.69446E+00-2.52427E-13 1.86960E-14
 -1      3049 2.55770E+01-4.07317E+00-1.40240E-02 1.55301E+00-3.65668E-13 8.65176E-14
 -1      3050 1.25753E+01-2.09006E+00 1.64645E-01-4.96212E+00-3.80251E-15 3.30985E-14
 -1      3051 2.39473E+01-5.06006E+00 3.81978E-02-3.55377E+00 1.65562E-13-8.50882E-14
 -1      3052 2.05490E+01-4.61175E+00 9.27337E-02 4.73788E+00 1.79440E-13 1.29143E-13
 -1      3053 2.02785E+01 1.37798E+00 5.63481E-03-8.85504E-01-3.15294E-13-2.09772E-13
 -1      3054 2.77601E+01-3.64059E+00-2.42358E-02-2.51774E-01 3.66582E-14-2.12066E-13
 -1      3055 2.00025E+01 7.72455E-01-4.21258E-03 1.34720E+00-3.92266E-13 6.83376E-14
 -1      3056 2.01352E+01 6.39299E-01 4.21869E-03 1.31754E+00-3.82376E-13-1.84240E-13
 -1      3057 2.02024E+01 4.51842E-01-6.22647E-04 1.40188E+00-3.42080E-13-2.96240E-13
 -1      3058 1.99195E+01 6.45719E-01-2.16216E-03 1.47788E+00-2.09608E-13 2.78102E-13
 -1      3059 9.65968E+00-6.79446E-01 3.84129E-02 2.95166E+00-3.76980E-13 4.23897E-13
 -1      3060 8.64277E+00-4.17382E-01 1.96092E-01 1.93706E+00-3.65416E-13 5.87030E-13
 -1      3061 9.44099E+00 9.07298E-02 1.02347E-01 7.14515E-01-1.70487E-13 2.82302E-13
 -1      3062 1.98201E+01 2.81915E+00-5.72085E-03-3.52194E-01-1.09674E-13-5.02545E-13
 -1      3063 1.98440E+01 2.77091E+00-6.20600E-03-5.06059E-01-1.53562E-13-4.97417E-13
 -1      3064 1.99967E+01 2.39453E+00 3.88528E-03-5.07642E-01-1.66861E-13-4.50427E-13
 -1      3065 1.99509E+01 2.50389E+00 3.61020E-03-2.56063E-01-8.96713E-14-4.77842E-13
 -1      3066 1.10049E+01-2.02990E+00 1.57410E-01-5.13579E+00-2.29053E-13-5.04319E-14
 -1      3067 1.85581E+01-4.23648E+00 1.04640E-01 5.70986E+00-4.07924E-13 6.63219E-14
 -1      3068 1.95555E+01 1.12722E+00 1.85726E-03-1.69936E+00 3.19507E-14 1.49479E-13
 -1      3069 2.02408E+01 1.48113E+00-6.07122E-03 8.04392E-01 3.01395E-13-2.71350E-13
 -1      3070 2.02031E+01 1.66924E+00-1.53965E-04 7.48615E-01 2.51443E-13-2.97033E-13
 -1      3071 1.89467E+01 1.26904E+00 8.78197E-03-1.58320E+00 8.89769E-14 1.05891E-13
 -1      3072 1.86628E+01 1.37693E+00-1.23051E-02-1.33610E+00 1.73358E-13 2.62662E-13
 -1      3073 2.43309E+01-4.35082E+00 9.59611E-02 2.42880E+00-9.88896E-14 1.34403E-13
 -1      3074 1.61061E+01-3.04957E+00 9.13946E-02-5.56999E+00-2.94632E-13-1.33546E-13
 -1      3075 1.87248E+01-4.08839E+00 7.82196E-03-5.47433E+00-2.00548E-13 4.11893E-14
 -1      3076 2.69114E+01 1.82625E+00-1.73140E-01-2.05556E+00 2.61458E-14-2.23287E-13
 -1      3077 2.72880E+01 3.89825E-01-2.34373E-02-1.85257E+00-9.92262E-15-3.10016E-13
 -1      3078 2.02730E+01 7.13216E-01 5.10939E-03-3.48403E-01-2.33459E-13-2.19752E-13
 -1      3079 2.02269E+01 5.51164E-01-3.71615E-03-2.17262E-01-1.94258E-13-2.02598E-13
 -1      3080 2.02222E+01 4.23719E-01 4.23987E-03-1.21492E-01-1.81764E-13-1.82473E-13
 -1      3081 2.01827E+01 3.15982E-01-2.32305E-03-3.65061E-02-1.72206E-13-1.85089E-13
 -1      3082 2.02734E+01 5.81286E-01-1.03958E-04-1.90207E-01-1.89159E-13-2.32544E-13
 -1      3083 2.01688E+01 2.32828E-01 3.15919E-03 2.52027E-02-1.71912E-13-1.61723E-13
 -1      3084 2.01388E+01 1.62852E-01-1.27869E-03 7.65296E-02-1.68249E-13-1.91068E-13
 -1      3085 2.02397E+01 3.33227E-01-8.21360E-04-2.72005E-02-1.56778E-13-1.92265E-13
 -1      3086 2.01222E+01 1.09587E-01 2.21720E-03 1.12914E-01-1.64837E-13-1.82518E-13
 -1      3087 2.01015E+01 6.53878E-02-5.75671E-04 1.40832E-01-1.30384E-13-1.89016E-13
 -1      3088 2.01994E+01 1.70139E-01-1.02952E-03 7.63280E-02-1.64658E-13-1.46800E-13
 -1      3089 2.00855E+01 3.25247E-02 1.43700E-03 1.59452E-01-8.78634E-14-2.05859E-13
 -1      3090 2.00725E+01 6.16787E-03-1.19109E-04 1.71922E-01-7.38772E-14-2.02147E-13
 -1      3091 2.01609E+01 6.60143E-02-9.85885E-04 1.35771E-01-1.12519E-13-2.01929E-13
 -1      3092 2.00582E+01-1.25161E-02 8.34671E-04 1.78903E-01-6.01610E-14-1.78067E-13
 -1      3093 2.00511E+01-2.63554E-02 1.76563E-04 1.81887E-01-5.97835E-14-1.67446E-13
 -1      3094 2.01274E+01 3.09146E-03-8.60642E-04 1.64837E-01-4.87463E-14-2.01403E-13
 -1      3095 2.00390E+01-3.50490E-02 3.89671E-04 1.81987E-01-6.25750E-14-1.46530E-13
 -1      3096 2.00364E+01-3.99967E-02 3.70865E-04 1.79878E-01-4.37610E-14-1.54112E-13
 -1      3097 2.00998E+01-3.07180E-02-7.16394E-04 1.74568E-01-4.63418E-14-2.03470E-13
 -1      3098 2.00264E+01-4.15339E-02 6.69075E-05 1.76691E-01-3.26448E-14-1.53218E-13
 -1      3099 2.00270E+01-4.00368E-02 5.04824E-04 1.72727E-01-4.19189E-14-1.63294E-13
 -1      3100 2.00776E+01-4.37398E-02-5.78159E-04 1.73488E-01-3.91852E-14-1.81243E-13
 -1      3101 2.00188E+01-3.63009E-02-1.69452E-04 1.68950E-01-6.30091E-14-1.18757E-13
 -1      3102 2.00217E+01-2.99520E-02 6.07149E-04 1.65546E-01-5.37010E-14-1.42360E-13
 -1      3103 2.00602E+01-4.16422E-02-4.54214E-04 1.68048E-01-5.31660E-14-1.67390E-13
 -1      3104 2.00149E+01-2.21288E-02-3.51075E-04 1.63238E-01-3.71489E-14-1.35023E-13
 -1      3105 2.00197E+01-1.18817E-02 6.98300E-04 1.62259E-01-1.41654E-14-9.86736E-14
 -1      3106 2.00466E+01-2.81494E-02-3.44356E-04 1.63133E-01-1.62946E-14-8.46283E-14
 -1      3107 2.00138E+01-6.30536E-04-5.04686E-04 1.63049E-01-3.05635E-14-1.06409E-13
 -1      3108 2.00202E+01 1.30496E-02 7.92710E-04 1.66019E-01-6.40622E-14-1.08066E-13
 -1      3109 2.00359E+01-5.52403E-03-2.43808E-04 1.62525E-01-2.73285E-14-1.02749E-13
 -1      3110 2.00146E+01 2.74727E-02-6.52631E-04 1.71277E-01-1.14065E-13-1.03651E-13
 -1      3111 2.00224E+01 4.44946E-02 9.00077E-04 1.79539E-01-1.30653E-13-1.25258E-13
 -1      3112 2.00269E+01 2.50859E-02-1.45162E-04 1.69292E-01-1.15872E-13-7.91270E-14
 -1      3113 2.00164E+01 6.21408E-02-8.13926E-04 1.90505E-01-1.40144E-13-1.51233E-13
 -1      3114 2.00254E+01 8.26952E-02 1.02628E-03 2.05333E-01-1.69636E-13-1.98831E-13
 -1      3115 2.00182E+01 6.33834E-02-3.82379E-05 1.86080E-01-1.69603E-13-9.00878E-14
 -1      3116 2.00181E+01 1.03840E-01-1.00533E-03 2.23209E-01-1.45013E-13-1.90468E-13
 -1      3117 2.00284E+01 1.28310E-01 1.17338E-03 2.45888E-01-1.37299E-13-1.61049E-13
 -1      3118 2.00085E+01 1.09705E-01 8.98681E-05 2.15325E-01-1.23667E-13-3.29677E-14
 -1      3119 2.00187E+01 1.53362E-01-1.24157E-03 2.71889E-01-1.45117E-13-1.16879E-13
 -1      3120 2.00300E+01 1.82219E-01 1.33955E-03 3.03753E-01-1.13092E-13-8.52691E-14
 -1      3121 1.99959E+01 1.64810E-01 2.54212E-04 2.59402E-01-9.20000E-14-1.18929E-13
 -1      3122 2.00166E+01 2.11604E-01-1.53545E-03 3.39131E-01-8.03865E-14-5.49738E-14
 -1      3123 2.00286E+01 2.45264E-01 1.52013E-03 3.81553E-01-3.52834E-14-5.40121E-14
 -1      3124 1.99778E+01 2.29639E-01 4.73764E-04 3.20683E-01-8.76555E-14-3.84784E-14
 -1      3125 2.00095E+01 2.79250E-01-1.89725E-03 4.27582E-01-3.68500E-14-6.71448E-14
 -1      3126 2.00216E+01 3.17848E-01 1.70930E-03 4.81917E-01 1.14452E-14-6.97126E-14
 -1      3127 1.99514E+01 3.04980E-01 7.69277E-04 4.01538E-01-1.79837E-14-4.45476E-14
 -1      3128 1.99945E+01 3.56265E-01-2.33228E-03 5.39862E-01 4.32609E-14-7.14088E-14
 -1      3129 2.00059E+01 3.99289E-01 1.90537E-03 6.07339E-01 1.08368E-13-1.48659E-13
 -1      3130 1.99124E+01 3.90982E-01 1.16003E-03 5.04274E-01 2.39539E-14-5.39796E-14
 -1      3131 1.99682E+01 4.41044E-01-2.83633E-03 6.78414E-01 1.29636E-13-1.58649E-13
 -1      3132 1.99779E+01 4.86709E-01 2.12210E-03 7.59962E-01 4.15449E-14-8.82605E-14
 -1      3133 1.98561E+01 4.86346E-01 1.65641E-03 6.31067E-01 9.23173E-14-2.72085E-14
 -1      3134 1.99265E+01 5.28989E-01-3.38787E-03 8.45342E-01-8.73308E-14-3.52625E-14
 -1      3135 1.99339E+01 5.73230E-01 2.41073E-03 9.41366E-01-1.11748E-13 3.65589E-14
 -1      3136 1.97766E+01 5.87023E-01 2.24369E-03 7.83959E-01 5.72824E-14-1.11761E-14
 -1      3137 1.98664E+01 6.10205E-01-3.93412E-03 1.04231E+00-8.74531E-14 2.02139E-14
 -1      3138 1.98724E+01 6.45079E-01 2.90125E-03 1.15245E+00-2.75970E-14 5.15222E-15
 -1      3139 1.96682E+01 6.84136E-01 2.85177E-03 9.65086E-01-5.51628E-14-1.42757E-15
 -1      3140 1.97878E+01 6.65920E-01-4.35597E-03 1.27072E+00-2.71874E-14-9.79774E-14
 -1      3141 1.97972E+01 6.77216E-01 3.86361E-03 1.39362E+00-3.98017E-14-1.93148E-13
 -1      3142 1.95265E+01 7.60751E-01 3.30558E-03 1.17743E+00-7.64089E-14-1.23287E-13
 -1      3143 1.96991E+01 6.63237E-01-4.39628E-03 1.53228E+00-4.04847E-15-1.68454E-13
 -1      3144 1.97250E+01 6.27137E-01 5.75513E-03 1.66530E+00 2.99079E-14-1.25062E-13
 -1      3145 1.93527E+01 7.87093E-01 3.23712E-03 1.42650E+00-4.09973E-14-2.11872E-13
 -1      3146 1.96271E+01 5.48213E-01-3.47293E-03 1.82969E+00 3.29375E-14-1.10565E-13
 -1      3147 1.96981E+01 4.27274E-01 9.15587E-03 1.96800E+00 2.19489E-14-9.97757E-14
 -1      3148 1.91603E+01 7.13608E-01 1.91881E-03 1.72321E+00 4.20711E-14-6.87324E-14
 -1      3149 1.96336E+01 2.38690E-01-3.18694E-04 2.16558E+00 2.01922E-14-1.01412E-13
 -1      3150 1.98056E+01-1.98122E-02 1.54238E-02 2.29787E+00 2.22399E-14-2.93213E-14
 -1      3151 1.89886E+01 4.62235E-01-1.99379E-03 2.08657E+00 4.53784E-14-1.11946E-13
 -1      3152 1.98467E+01-3.79422E-01 9.08081E-03 2.53535E+00-1.67815E-14-8.52022E-14
 -1      3153 2.02021E+01-8.44298E-01 2.16328E-02 2.63194E+00 3.80277E-14-1.19587E-14
 -1      3154 1.89242E+01-8.11000E-02-1.03940E-02 2.54428E+00-1.85505E-14 2.60183E-14
 -1      3155 2.05104E+01-1.40700E+00 4.10625E-02 2.86419E+00 7.20908E-15-5.57965E-14
 -1      3156 2.11522E+01-2.11729E+00 3.40694E-02 2.86057E+00-3.86774E-14-1.10482E-13
 -1      3157 1.91918E+01-1.06902E+00-9.43800E-03 3.12450E+00-1.52187E-14-8.83980E-14
 -1      3158 2.19017E+01-2.87604E+00 7.58206E-02 2.98089E+00 4.69095E-14-6.02548E-14
 -1      3159 2.29184E+01-3.67549E+00 3.29862E-02 2.70944E+00-1.10051E-14 1.89640E-14
 -1      3160 2.19163E+01-4.42931E+00-5.73964E-02 3.87030E+00 2.39392E-14 1.19030E-13
 -1      3161 1.99846E+01-2.63997E+00-6.94638E-02 3.67698E+00 6.29254E-14-1.75242E-14
 -1      3162 2.80223E+01 3.12206E+00-2.17298E-01-2.57823E+00-4.86902E-13-1.95653E-13
 -1      3163 2.81218E+01 4.64335E+00-1.18983E-01-1.64836E+00-3.56493E-13-1.51662E-13
 -1      3164 2.00105E+01 7.76754E-03-4.53194E-05-1.76975E-01 8.46336E-14-1.39300E-13
 -1      3165 2.00203E+01 3.21099E-02 1.56285E-03-1.64384E-01 7.66480E-14-1.59948E-13
 -1      3166 2.23855E+01-3.18517E+00 1.36202E-02-2.97073E+00 2.08587E-13-2.06596E-13
 -1      3167 2.15435E+01-2.38988E+00 5.24726E-02-3.15696E+00 1.71345E-13-1.77368E-13
 -1      3168 2.09511E+01-1.69091E+00 2.20076E-02-3.02506E+00 5.17485E-14-2.08497E-13
 -1      3169 2.04268E+01-1.07251E+00 2.31439E-02-3.01515E+00-3.64559E-14-1.81671E-13
 -1      3170 2.00259E+01-2.10526E+00-3.02870E-02-3.64659E+00 1.44354E-13-5.11188E-14
 -1      3171 2.02278E+01-5.77606E-01 1.76710E-02-2.80599E+00-7.64970E-14-2.73244E-13
 -1      3172 1.99478E+01-1.77150E-01 7.19775E-03-2.70985E+00-7.95115E-14-2.18317E-13
 -1      3173 1.93882E+01-7.75736E-01-2.06499E-02-3.16750E+00-1.07706E-13-3.14370E-13
 -1      3174 1.99443E+01 1.39413E-01 1.26366E-02-2.50578E+00-1.27436E-13-1.02162E-13
 -1      3175 1.98071E+01 3.82662E-01 1.31297E-03-2.37196E+00-9.56260E-14-2.02172E-13
 -1      3176 1.92556E+01 7.78937E-02-1.51351E-02-2.69553E+00-9.06191E-14-1.67279E-13
 -1      3177 2.00357E+01 6.22072E-02-4.52173E-04-1.44233E-01 1.07246E-13-1.82232E-13
 -1      3178 2.00552E+01 1.02966E-01 2.50314E-03-1.15412E-01 1.08157E-13-1.86631E-13
 -1      3179 2.01053E+01 6.45855E-02-1.21129E-03-1.41238E-01 7.18015E-14-1.64640E-13
 -1      3180 2.00733E+01 1.51861E-01-1.07747E-03-7.58444E-02 1.18159E-13-1.84080E-13
 -1      3181 2.01055E+01 2.16659E-01 3.65275E-03-2.20499E-02 1.43290E-13-1.68733E-13
 -1      3182 2.01443E+01 1.62592E-01-1.39836E-03-7.63948E-02 1.10762E-13-1.87265E-13
 -1      3183 1.82500E+01 1.56100E+00-5.72716E-03-2.14632E-01 1.17150E-14 1.68165E-13
 -1      3184 1.82788E+01 1.53838E+00-9.31216E-04 1.43692E-01 7.92707E-14-5.89352E-14
 -1      3185 1.99881E+01-3.58589E-02 3.77589E-04-1.84407E-01 7.32664E-14-1.20418E-13
 -1      3186 1.99863E+01-3.08256E-02 3.86017E-04-1.87129E-01 1.00938E-13-1.20278E-13
 -1      3187 1.99865E+01-3.72377E-02 4.93397E-04-1.75859E-01 8.06936E-14-7.04508E-14
 -1      3188 1.99815E+01-3.78807E-02 4.65382E-05-1.80679E-01 8.69637E-14-6.84272E-14
 -1      3189 2.00368E+01-4.04948E-02-5.96783E-04-1.81155E-01 5.36909E-14-1.55756E-13
 -1      3190 1.99891E+01-2.98992E-02 5.85618E-04-1.66717E-01 4.52703E-15-4.14982E-14
 -1      3191 1.99819E+01-3.46994E-02-1.86838E-04-1.71231E-01 2.86340E-14-6.95333E-14
 -1      3192 2.00264E+01-4.03035E-02-4.57612E-04-1.74215E-01 4.24859E-14-6.00453E-14
 -1      3193 1.99951E+01-1.59746E-02 6.72422E-04-1.60884E-01 2.97758E-14-2.55138E-14
 -1      3194 1.99861E+01-2.39536E-02-3.49304E-04-1.63291E-01 5.03978E-14 1.10508E-15
 -1      3195 2.00202E+01-3.01489E-02-3.51997E-04-1.67216E-01 6.66288E-15-6.89903E-14
 -1      3196 2.00038E+01 3.20582E-03 7.66173E-04-1.61376E-01 5.75512E-14-1.01540E-13
 -1      3197 1.99933E+01-7.35135E-03-4.68150E-04-1.60276E-01 5.21438E-14-7.12047E-14
 -1      3198 2.00172E+01-1.23857E-02-2.73909E-04-1.64018E-01 6.89827E-14-8.36239E-14
 -1      3199 2.00151E+01 2.68390E-02 8.74774E-04-1.70633E-01 3.16613E-14-1.11520E-13
 -1      3200 2.00030E+01 1.40631E-02-5.63185E-04-1.64884E-01 4.58038E-14-1.18311E-13
 -1      3201 2.00166E+01 1.15143E-02-2.17371E-04-1.67645E-01 6.24347E-14-1.27298E-13
 -1      3202 2.00290E+01 5.43942E-02 1.00197E-03-1.90721E-01-1.76292E-14-6.88285E-14
 -1      3203 2.00149E+01 3.96485E-02-6.47523E-04-1.79354E-01-1.62927E-14-1.05764E-13
 -1      3204 2.00180E+01 4.06427E-02-1.77470E-04-1.80573E-01-8.29804E-16-1.63970E-13
 -1      3205 2.00459E+01 8.53463E-02 1.14756E-03-2.23425E-01 4.91331E-14-9.60826E-14
 -1      3206 2.00293E+01 6.89097E-02-7.27549E-04-2.05618E-01 4.10016E-14-5.51133E-14
 -1      3207 2.00209E+01 7.43489E-02-1.51165E-04-2.04924E-01-1.84923E-14-1.41024E-13
 -1      3208 2.00664E+01 1.18866E-01 1.30674E-03-2.70232E-01 2.83018E-14-8.04026E-14
 -1      3209 2.00467E+01 1.01214E-01-8.02485E-04-2.45339E-01 3.88619E-14-7.35429E-14
 -1      3210 2.00252E+01 1.11915E-01-1.38509E-04-2.42546E-01 1.74966E-14-1.74973E-13
 -1      3211 2.00915E+01 1.53427E-01 1.46950E-03-3.32196E-01 5.10464E-14-7.67904E-14
 -1      3212 2.00679E+01 1.35446E-01-8.62423E-04-2.99847E-01 6.74006E-14-7.08226E-14
 -1      3213 2.00309E+01 1.52170E-01-1.44864E-04-2.95006E-01 4.63776E-14-1.64868E-13
 -1      3214 2.01228E+01 1.86304E-01 1.61991E-03-4.09642E-01-2.69673E-14-9.58542E-14
 -1      3215 2.00942E+01 1.69563E-01-8.85430E-04-3.69927E-01 1.64353E-14-6.66052E-14
 -1      3216 2.00386E+01 1.93004E-01-1.83846E-04-3.63448E-01 7.38779E-15-1.10332E-13
 -1      3217 2.01628E+01 2.12944E-01 1.73570E-03-5.01708E-01-7.86527E-14 1.18562E-13
 -1      3218 2.01278E+01 2.00032E-01-8.33207E-04-4.55458E-01-4.45733E-14 1.61651E-14
 -1      3219 2.00497E+01 2.30757E-01-2.81762E-04-4.48331E-01-8.36861E-14 7.39817E-14
 -1      3220 2.02152E+01 2.26216E-01 1.78652E-03-6.05677E-01 2.60625E-14 2.07813E-13
 -1      3221 2.01720E+01 2.21141E-01-6.45280E-04-5.54853E-01-2.93010E-14 1.51111E-13
 -1      3222 2.00669E+01 2.59460E-01-4.84881E-04-5.49008E-01-8.38475E-14 1.71063E-13
 -1      3223 2.02862E+01 2.15616E-01 1.73019E-03-7.16054E-01-2.98208E-14 2.39182E-13
 -1      3224 2.02322E+01 2.24208E-01-2.32033E-04-6.64276E-01 6.36139E-14 2.55055E-13
 -1      3225 2.00948E+01 2.69952E-01-8.68097E-04-6.63117E-01-2.84645E-14 2.39190E-13
 -1      3226 2.03854E+01 1.66692E-01 1.50162E-03-8.23362E-01-3.93813E-14 1.63371E-13
 -1      3227 2.03167E+01 1.96858E-01 5.31315E-04-7.76560E-01-2.93882E-14 2.51100E-13
 -1      3228 2.01415E+01 2.48990E-01-1.54366E-03-7.85722E-01-7.02743E-15 1.79780E-13
 -1      3229 2.05267E+01 6.12696E-02 9.91635E-04-9.12569E-01-1.95065E-13 8.86506E-14
 -1      3230 2.04383E+01 1.22739E-01 1.80217E-03-8.79749E-01-4.71232E-14 1.51920E-13
 -1      3231 2.02200E+01 1.78698E-01-2.66438E-03-9.08084E-01-1.47332E-14 2.15264E-13
 -1      3232 2.07298E+01-1.20333E-01 4.60549E-06-9.61170E-01-2.09176E-13 1.32483E-13
 -1      3233 2.06151E+01-1.74452E-02 3.75284E-03-9.55175E-01-2.48751E-13 5.41152E-14
 -1      3234 2.03504E+01 3.71006E-02-4.40171E-03-1.01582E+00-1.73734E-13 1.36302E-13
 -1      3235 2.10185E+01-3.93033E-01-1.77672E-03-9.37094E-01-1.78605E-13 1.29684E-13
 -1      3236 2.08711E+01-2.42063E-01 6.47917E-03-9.75077E-01-1.27603E-13 7.65609E-14
 -1      3237 2.05608E+01-1.98706E-01-6.87556E-03-1.08616E+00-1.86149E-13 9.34664E-14
 -1      3238 2.14156E+01-7.53440E-01-4.72842E-03-7.97454E-01-2.44240E-13 1.29443E-13
 -1      3239 2.12331E+01-5.59179E-01 9.86201E-03-9.00159E-01-2.16684E-13 1.18393E-13
 -1      3240 2.08873E+01-5.44157E-01-9.96715E-03-1.08403E+00-1.94595E-13 1.37324E-13
 -1      3241 2.19290E+01-1.15559E+00-8.93607E-03-4.91516E-01-1.38542E-14 2.20732E-14
 -1      3242 2.17196E+01-9.48277E-01 1.31137E-02-6.79257E-01-6.86441E-14 8.56601E-14
 -1      3243 2.13673E+01-9.88932E-01-1.28854E-02-9.57800E-01-1.44328E-13 1.60378E-13
 -1      3244 2.25275E+01-1.47724E+00-1.30924E-02 2.33137E-02 3.16983E-14 1.84666E-13
 -1      3245 2.23190E+01-1.33090E+00 1.41805E-02-2.57772E-01-1.22576E-14 5.29991E-14
 -1      3246 2.20206E+01-1.46461E+00-1.37429E-02-6.39475E-01-1.32802E-14 3.41170E-14
 -1      3247 2.31098E+01-1.49623E+00-1.37690E-02 7.35942E-01 2.29265E-14 1.50405E-13
 -1      3248 2.29535E+01-1.53687E+00 9.55440E-03 3.90832E-01 1.23882E-13 2.21338E-13
 -1      3249 2.28118E+01-1.80114E+00-9.43357E-03-6.34223E-02-2.19605E-14 1.17610E-13
 -1      3250 2.34998E+01-9.36479E-01-5.05121E-03 1.49317E+00-8.47174E-14-3.50948E-14
 -1      3251 2.34493E+01-1.29890E+00-4.70992E-03 1.18966E+00-2.95349E-14 8.50283E-14
 -1      3252 2.35948E+01-1.70364E+00-4.68488E-04 7.72428E-01 1.14448E-13 2.62776E-14
 -1      3253 2.35242E+01 3.02110E-01 4.05736E-03 1.94646E+00 2.79030E-15-1.81279E-13
 -1      3254 2.36056E+01-4.03075E-01-2.85095E-02 1.85312E+00-1.75096E-14-2.12014E-13
 -1      3255 2.41053E+01-8.36310E-01 5.54249E-03 1.66299E+00 1.10268E-13-5.29975E-14
 -1      3256 2.32210E+01 1.85525E+00 8.06396E-03 1.66712E+00 1.83796E-13-3.20798E-13
 -1      3257 2.33655E+01 1.07581E+00-4.67451E-02 1.93439E+00 5.06548E-14-2.91882E-13
 -1      3258 2.41460E+01 7.62931E-01-3.69677E-03 2.07597E+00 7.27716E-14-3.25510E-13
 -1      3259 2.29176E+01 2.80315E+00-9.23207E-03 5.07493E-01 1.95954E-13-3.61441E-13
 -1      3260 2.29691E+01 2.46249E+00-4.55135E-02 1.09183E+00 2.59395E-13-2.80780E-13
 -1      3261 2.37828E+01 2.62184E+00-2.26650E-02 1.55668E+00 1.20171E-13-5.31162E-13
 -1      3262 2.29681E+01 2.45947E+00-3.95602E-02-8.97598E-01 1.24106E-13-1.88534E-13
 -1      3263 2.29100E+01 2.80682E+00-8.07964E-03-3.02258E-01 9.38954E-14-2.84370E-13
 -1      3264 2.35776E+01 3.35865E+00-3.65167E-02 1.10607E-01 1.24165E-13-4.29931E-13
 -1      3265 2.33189E+01 1.06250E+00-5.45865E-02-1.72483E+00 1.11666E-13-1.43248E-13
 -1      3266 2.32069E+01 1.84772E+00 7.90111E-03-1.44563E+00 1.19627E-13-1.22019E-13
 -1      3267 2.37715E+01 2.49860E+00-3.17582E-02-1.32453E+00 8.92706E-14-2.83454E-13
 -1      3268 2.35672E+01-4.50126E-01-3.61520E-02-1.64184E+00 3.67805E-14-1.13722E-13
 -1      3269 2.35244E+01 2.82120E-01 1.10025E-02-1.74061E+00 5.77611E-14-6.84327E-14
 -1      3270 2.41396E+01 7.48686E-01 2.63826E-03-1.88844E+00 5.95825E-14-1.44801E-13
 -1      3271 2.34207E+01-1.36559E+00-4.75372E-03-9.52289E-01-4.30463E-14-1.28831E-13
 -1      3272 2.34918E+01-9.86993E-01-6.08698E-04-1.26714E+00 1.39424E-14-2.50489E-13
 -1      3273 2.41255E+01-8.99235E-01 1.30099E-02-1.45549E+00 6.06052E-14-2.87216E-13
 -1      3274 2.29112E+01-1.60861E+00 9.02655E-03-1.20914E-01-1.53707E-13-3.12923E-13
 -1      3275 2.30871E+01-1.56547E+00-9.92619E-03-4.78914E-01-1.12725E-13-2.31440E-13
 -1      3276 2.36318E+01-1.75524E+00 8.91169E-03-5.59334E-01-6.87529E-14-2.24887E-13
 -1      3277 2.22696E+01-1.39350E+00 1.38125E-02 5.54769E-01-6.18182E-14-1.66514E-13
 -1      3278 2.24907E+01-1.54684E+00-1.28739E-02 2.61151E-01-6.77583E-14-2.16216E-13
 -1      3279 2.28316E+01-1.89027E+00-1.50538E-02 3.35011E-01-1.67630E-13-3.89661E-13
 -1      3280 2.16557E+01-9.77548E-01 1.31712E-02 9.97774E-01-1.22122E-13-9.52775E-14
 -1      3281 2.18787E+01-1.20581E+00-9.64668E-03 8.02958E-01 1.46842E-14-1.57359E-13
 -1      3282 2.20526E+01-1.53248E+00-1.51686E-02 9.49250E-01-1.05285E-13-2.17349E-13
 -1      3283 2.11514E+01-5.27126E-01 1.05616E-02 1.21924E+00-5.09539E-14-5.48562E-14
 -1      3284 2.13483E+01-7.55770E-01-5.24605E-03 1.12053E+00-1.44580E-13-1.88132E-13
 -1      3285 2.13965E+01-1.00761E+00-1.38389E-02 1.28627E+00-7.57798E-14-1.58778E-13
 -1      3286 2.07707E+01-1.17142E-01 7.83253E-03 1.26534E+00-1.39779E-13-1.07482E-13
 -1      3287 2.09304E+01-3.18162E-01-2.34562E-03 1.24998E+00-1.13651E-13-2.87297E-13
 -1      3288 2.09126E+01-4.79740E-01-9.34584E-03 1.40895E+00-9.68923E-14-3.19554E-13
 -1      3289 2.05235E+01 1.54807E-01 4.49934E-03 1.25913E+00-3.68676E-13-1.92631E-13
 -1      3290 2.06420E+01 5.23245E-03-1.63571E-03 1.26852E+00-2.15491E-13-1.69898E-13
 -1      3291 2.06010E+01-7.99343E-02-5.41149E-03 1.41707E+00-1.84100E-13-5.50110E-13
 -1      3292 2.03986E+01 2.28121E-01-1.59847E-03 1.37010E+00-3.20747E-13-2.93499E-13
 -1      3293 1.01442E+01-1.01355E+00 1.43673E-01-4.11256E+00-2.78721E-13 2.88103E-14
 -1      3294 1.27816E+01-1.89912E+00 6.29726E-02-5.13205E+00-2.42993E-13-1.56597E-13
 -1      3295 1.83841E+01 1.42324E+00-1.15280E-02 5.50714E-01-6.74472E-14-1.99855E-13
 -1      3296 1.85671E+01 1.33527E+00 6.76855E-03 8.64970E-01 1.19040E-13-2.07042E-13
 -1      3297 1.80381E+01 1.38261E+00 9.86510E-03 4.28197E-01 8.02529E-15-1.40579E-13
 -1      3298 3.07833E+01 3.54571E+00-1.29262E-01-2.18520E+00-5.56472E-13 1.22347E-13
 -1      3299 2.09757E+01-4.45613E+00 1.06616E-01-4.77733E+00-1.22680E-13 3.31627E-14
 -1      3300 2.28861E+01-4.80713E+00-8.38221E-02-3.75931E+00-3.41394E-15 4.17305E-14
 -1      3301 2.00520E+01-3.82308E+00 6.39253E-02-4.62919E+00-1.71842E-13 2.47771E-14
 -1      3302 1.05814E+01-4.75847E-01 7.55746E-02 3.05462E+00 2.60347E-14-6.76029E-13
 -1      3303 9.27856E+00 1.43360E-01 1.41973E-01 1.29292E+00-1.10757E-13-5.59594E-13
 -1      3304 1.84496E+01 1.50119E+00 1.63531E-03-9.82616E-01 1.64176E-13 3.58788E-13
 -1      3305 1.83079E+01 1.55084E+00-8.05763E-03-6.42494E-01 5.30700E-14 2.40922E-13
 -1      3306 1.79704E+01 1.48181E+00 1.02387E-02-4.40986E-01 2.36263E-13 2.27472E-13
 -1      3307 1.83050E+01 1.35715E+00 8.54625E-03-1.25113E+00 1.69009E-13 3.12423E-13
 -1      3308 2.64768E+01-4.33953E+00 6.94651E-02-1.22398E+00 1.10405E-13-2.68549E-13
 -1      3309 3.05009E+01 5.16478E+00-2.01062E-01-1.85073E+00-4.32071E-13 4.97796E-14
 -1      3310 1.72679E+01-3.04721E+00 1.24224E-01-5.23797E+00 1.56049E-13-1.72182E-13
 -1      3311 1.99962E+01-4.10283E+00-4.31712E-02-4.88103E+00 2.17354E-13-6.30815E-14
 -1      3312 8.60062E+00 1.43118E-01 8.32279E-02-4.04273E-01-2.68129E-13-3.44350E-13
 -1      3313 8.87288E+00-2.98747E-01 1.01233E-01-2.57444E+00-3.85483E-13-4.55469E-14
 -1      3314 1.09961E+01-1.62012E-01 1.43368E-01-2.84199E+00-3.81561E-13-1.01447E-13
 -1      3315 1.03716E+01 1.20917E-01 8.09133E-02-1.38024E+00 1.65562E-14 2.70256E-13
 -1      3316 1.10602E+01-3.87516E-01 1.08613E-01-3.06000E+00-1.61121E-14 7.10543E-14
 -1      3317 2.50432E+01-4.22903E+00 8.46233E-02-2.09343E+00 3.15928E-14-2.28983E-15
 -1      3318 2.60291E+01-3.28115E+00-8.66105E-02-3.34399E-01 1.10450E-13 7.12000E-14
 -1      3319 2.02820E+01 1.15457E+00 1.28984E-03-6.67062E-01-2.83444E-13-2.74851E-13
 -1      3320 2.02543E+01 9.10104E-01-5.16045E-03-4.80632E-01-2.64317E-13-2.62247E-13
 -1      3321 2.02840E+01 9.39814E-01-1.63336E-03-4.24808E-01-2.32971E-13-2.73719E-13
 -1      3322 1.99954E+01-2.24902E-02 2.11372E-04-1.87143E-01 9.39506E-14-1.01832E-13
 -1      3323 1.99983E+01-9.49704E-03 8.75077E-04-1.84482E-01 1.02430E-13-1.18895E-13
 -1      3324 2.00749E+01 5.27039E-03-9.85070E-04-1.72696E-01 8.19363E-14-1.35296E-13
 -1      3325 1.96215E+01 9.32475E-01 7.11852E-03-1.90530E+00 8.59901E-14 2.27925E-13
 -1      3326 1.92636E+01 1.07811E+00-1.31839E-02-1.78831E+00 1.05928E-13 5.53294E-14
 -1      3327 1.89671E+01 1.06845E+00 6.75387E-03-1.82639E+00 6.53488E-14 1.25736E-13
 -1      3328 2.02274E+01 1.58926E+00-6.64372E-03-8.53858E-01-2.90101E-13-3.43228E-13
 -1      3329 2.02565E+01 1.36578E+00 4.79152E-05-7.47554E-01-2.85692E-13-2.96582E-13
 -1      3330 2.01728E+01 1.83002E+00 1.10429E-03-7.89065E-01-2.68138E-13-3.82103E-13
 -1      3331 2.71022E+01-1.36462E+00-1.19077E-01-1.15434E+00-3.25920E-14-2.92912E-13
 -1      3332 2.65738E+01-2.70130E+00-1.48710E-02-1.69061E-01-2.04534E-13-1.30708E-13
 -1      3333 2.64499E+01-5.78129E-01-1.48456E-02-1.61937E+00-2.35090E-14-3.68663E-13
 -1      3334 1.99721E+01-4.13722E+00-2.63676E-02 4.95560E+00-3.51365E-13-1.23547E-13
 -1      3335 1.71852E+01-3.15953E+00 1.65661E-01 5.54272E+00-4.21586E-13 2.58099E-13
 -1      3336 1.40746E+01-2.49494E+00-2.53679E-02 5.47280E+00-4.41522E-13 4.29670E-13
 -1      3337 1.19655E+01-1.25100E+00 1.90202E-01 4.49163E+00-3.75505E-13 3.39867E-13
 -1      3338 1.93923E+01-3.51401E+00 1.59435E-01 4.67308E+00 1.82521E-13-3.54439E-14
 -1      3339 1.23310E+01-1.13297E+00 9.79476E-02-4.14758E+00-3.88682E-14 3.91354E-15
 -1      3340 1.45232E+01-2.28524E+00 1.44319E-02-5.16370E+00-2.72074E-14-4.43118E-14
 -1      3341 1.31940E+01-4.65571E-01 1.08304E-01-3.35984E+00-5.39117E-14 1.01148E-13
 -1      3342 2.25276E+01-4.53802E+00 1.12491E-01-4.02671E+00 1.57124E-13-8.30247E-14
 -1      3343 2.44883E+01-4.83290E+00-7.53295E-02-2.81332E+00 1.49873E-13-2.29385E-13
 -1      3344 2.49071E+01-4.26816E+00-2.10403E-03-1.97404E+00 1.30663E-13-1.60569E-13
 -1      3345 2.11490E+01-3.76394E+00 3.81953E-02-4.10342E+00 1.78697E-13-8.67847E-14
 -1      3346 2.00483E+01 2.16012E+00-4.28181E-03 2.93179E-01 6.44976E-14-4.83910E-13
 -1      3347 2.00353E+01 2.19891E+00-3.32419E-03 1.71238E-01 1.21030E-14-5.04783E-13
 -1      3348 2.02890E+01 9.71256E-01-2.96531E-04 6.78991E-01 3.21317E-13-2.22723E-13
 -1      3349 2.02673E+01 1.30693E+00 2.89947E-03 7.72949E-01 3.19217E-13-2.46446E-13
 -1      3350 2.02711E+01 1.12769E+00 7.01928E-05 5.95570E-01 2.71380E-13-2.27738E-13
 -1      3351 2.02319E+01 7.75511E-01-4.00144E-03 4.86839E-01 2.75281E-13-2.15903E-13
 -1      3352 2.00283E+01 2.21777E+00-3.67732E-03 6.61426E-02-1.29844E-14-4.93679E-13
 -1      3353 2.00279E+01 2.21862E+00-3.64214E-03-5.80867E-02-4.30561E-14-4.75675E-13
 -1      3354 2.01424E+01 1.92218E+00 4.97934E-03 1.01711E-01-6.94540E-15-4.69151E-13
 -1      3355 2.00683E+01 2.10468E+00-3.05250E-03 3.91983E-01 1.02660E-13-4.52732E-13
 -1      3356 2.01646E+01 1.84737E+00 5.35635E-03 2.91763E-01 8.04015E-14-4.32841E-13
 -1      3357 2.00933E+01 2.02444E+00-5.36235E-03 5.05446E-01 1.45126E-13-4.07558E-13
 -1      3358 2.36972E+01-4.15282E+00 1.66789E-02-2.56430E+00 2.46331E-14 2.83263E-14
 -1      3359 1.49260E+01-2.24528E+00 8.85133E-02-5.25248E+00-2.84314E-13-1.75457E-13
 -1      3360 1.68610E+01-2.39446E+00 6.82686E-02-4.78368E+00-3.55105E-13 1.28959E-14
 -1      3361 1.37739E+01-1.27154E+00 4.44641E-02-4.46480E+00-2.52624E-13-1.31471E-13
 -1      3362 1.63971E+01-2.35907E+00 8.23353E-02 4.92317E+00-3.56250E-13 3.02845E-13
 -1      3363 1.68419E+01-2.12356E+00 9.54367E-02-4.65053E+00 2.22600E-14-1.76560E-13
 -1      3364 2.01909E+01 3.16448E-01-1.53427E-03 3.73755E-02 1.76577E-13-1.62866E-13
 -1      3365 2.01245E+01 2.94240E-01-1.90313E-03 4.53078E-02 1.78455E-13-1.67615E-13
 -1      3366 2.01692E+01 3.95172E-01 4.32148E-03 1.35907E-01 2.09699E-13-1.64866E-13
 -1      3367 1.18680E+01-5.87674E-01 1.25386E-01 3.32192E+00-3.16035E-13 4.18082E-13
 -1      3368 2.37669E+01-3.74329E+00 9.13798E-02-2.59331E+00 1.65358E-13-2.77679E-13
 -1      3369 1.92839E+01 6.46238E-01-1.19168E-02-2.24936E+00 9.27721E-14 1.22666E-13
 -1      3370 1.98090E+01 6.18989E-01 4.73784E-03-2.16490E+00-2.19627E-14-8.79505E-16
 -1      3371 1.97742E+01 7.79697E-01 1.66977E-03-2.00907E+00 2.61419E-14 2.82261E-13
 -1      3372 2.00525E+01-2.71038E-02-7.73552E-04-1.82932E-01 1.02814E-13-1.19536E-13
 -1      3373 1.93352E+01 7.80582E-01-1.05163E-02 1.51552E+00-4.01636E-14 5.06844E-13
 -1      3374 1.96105E+01 6.40505E-01 8.95734E-03 1.59889E+00-2.17527E-13 3.20504E-13
 -1      3375 2.64206E+01-2.47296E+00-9.53083E-03 5.87093E-01 2.34350E-13 1.95413E-13
 -1      3376 2.60414E+01-1.39393E+00-4.26579E-02 1.38613E+00 2.25250E-13 6.30954E-14
 -1      3377 2.53165E+01-3.10751E+00-2.50311E-02-2.01082E-01 2.50198E-13 4.71064E-14
 -1      3378 1.06965E+01 3.07026E-01 5.55145E-03 5.10321E-01-1.30909E-13 1.55709E-13
 -1      3379 1.05336E+01 3.77157E-01 1.42263E-01-5.29060E-01 5.32040E-15 1.72168E-13
 -1      3380 1.18271E+01 4.26526E-01 6.67191E-02-1.40757E+00-2.50754E-14 1.79662E-13
 -1      3381 1.87935E+01 1.13038E+00-1.33475E-02 1.16102E+00 3.35750E-14 8.28454E-14
 -1      3382 1.90637E+01 1.00185E+00 1.07829E-02 1.36809E+00 7.98970E-15 2.71230E-13
 -1      3383 1.90681E+01 6.88059E-01-1.99190E-03 1.60293E+00-9.05391E-14 3.77213E-13
 -1      3384 1.84525E+01 1.08199E+00 3.93063E-03 1.15688E+00-5.38989E-15-8.42200E-14
 -1      3385 2.59316E+01 9.38326E-01-4.39761E-02 2.11524E+00 2.73184E-13-1.70537E-13
 -1      3386 2.63822E+01 2.31993E+00-1.02194E-01 2.32468E+00 2.76779E-13-8.73884E-14
 -1      3387 2.56259E+01 5.21718E+00-1.55236E-01-1.53831E-01 7.00134E-14-2.70468E-13
 -1      3388 2.50998E+01 4.50099E+00-8.23661E-02-6.04131E-01 1.03598E-13-2.62289E-13
 -1      3389 2.02578E+01 1.46099E+00 7.32782E-03 5.89227E-01 2.32496E-13-2.80409E-13
 -1      3390 2.01601E+01 1.79966E+00-7.43327E-03 6.85360E-01 2.25756E-13-3.37783E-13
 -1      3391 2.01247E+01 1.93013E+00-2.84275E-03 5.91029E-01 1.69371E-13-3.64014E-13
 -1      3392 1.99967E+01 8.95054E-01 2.41033E-03-1.76290E+00-5.60834E-14 4.56865E-13
 -1      3393 2.61278E+01 2.67244E+00-8.01061E-02-1.91937E+00 8.09006E-14-2.60451E-13
 -1      3394 2.57814E+01-2.67419E+00 7.47817E-03-2.66303E-01-1.15075E-13-1.16476E-13
 -1      3395 2.59021E+01-3.57056E+00-3.73118E-02 6.75177E-01-2.14277E-13-5.12854E-14
 -1      3396 2.47754E+01-3.85488E+00-1.07518E-03 1.54715E+00-1.66167E-13 1.38334E-13
 -1      3397 2.00056E+01 8.00834E-01-3.20422E-03-1.87474E+00-6.19834E-14 3.54385E-13
 -1      3398 1.81669E+01-2.69927E+00 1.12716E-01 4.43568E+00 1.47764E-13-1.82007E-13
 -1      3399 1.24530E+01-6.72930E-01 1.41131E-01 3.62717E+00 8.35096E-14-6.63088E-13
 -1      3400 1.25090E+01 5.29745E-02 6.61900E-02 2.66825E+00-6.52221E-14-5.56367E-13
 -1      3401 1.42260E+01-1.12533E+00-2.43835E-02 4.00073E+00 1.19498E-13-4.95715E-13
 -1      3402 2.61196E+01 3.77417E+00-1.05175E-01 1.92337E+00 2.26569E-13-1.51892E-13
 -1      3403 2.57692E+01 5.07096E+00-1.25316E-01 7.38395E-01 1.05901E-13-2.23679E-13
 -1      3404 2.02557E+01 1.38140E+00 1.46209E-03-6.48457E-01-2.53843E-13-3.41745E-13
 -1      3405 1.04740E+01 4.55672E-01 1.33050E-01 3.95710E-01-2.09785E-13-2.55990E-13
 -1      3406 1.98270E+01 4.96361E-01-5.06532E-03 1.60695E+00-2.73288E-13 2.69697E-13
 -1      3407 2.00204E+01 3.96585E-01 4.48227E-03 1.59031E+00-3.16385E-13 1.83447E-13
 -1      3408 1.96570E+01 3.57817E-01-6.23713E-03 1.74233E+00-2.61030E-13 3.19982E-13
 -1      3409 2.17746E+01-3.71768E+00-4.16027E-02-3.66216E+00 2.16219E-13-6.71373E-14
 -1      3410 2.00653E+01 2.11094E+00-3.11736E-03-3.84669E-01-1.34260E-13-4.26316E-13
 -1      3411 2.00903E+01 2.03623E+00-4.07330E-03-4.97805E-01-1.94529E-13-4.04051E-13
 -1      3412 2.18634E+01-4.24283E+00 7.43834E-02 4.17430E+00-1.33369E-13-7.08374E-15
 -1      3413 2.02278E+01-3.51853E+00-5.94131E-03 4.30323E+00-1.74423E-13 1.14995E-13
 -1      3414 2.30342E+01-4.11099E+00-6.40336E-03 3.03550E+00-1.63659E-13 2.05486E-13
 -1      3415 2.01040E+01 2.00603E+00-2.97573E-03-5.94646E-01-2.12910E-13-3.88895E-13
 -1      3416 2.01385E+01 1.88698E+00-5.49719E-03-6.93230E-01-2.57214E-13-3.75263E-13
 -1      3417 2.02078E+01 1.66638E+00 3.51149E-03-6.36754E-01-2.40477E-13-3.58395E-13
 -1      3418 2.01836E+01 1.76435E+00 4.20858E-03-4.63658E-01-1.98248E-13-3.65733E-13
 -1      3419 2.01761E+01 4.86504E-01-2.72401E-03 2.22938E-01 2.21291E-13-1.76784E-13
 -1      3420 2.02311E+01 6.34694E-01 3.75997E-03 3.61987E-01 2.40625E-13-1.93360E-13
 -1      3421 2.02610E+01 7.93944E-01 1.17636E-03 4.23131E-01 2.41076E-13-2.02743E-13
 -1      3422 2.02307E+01 5.25265E-01-7.06159E-04 2.01730E-01 2.10085E-13-1.69823E-13
 -1      3423 2.03030E+01 4.40790E-01 2.78265E-03-7.26910E-02-1.30013E-13-2.42238E-13
 -1      3424 2.02779E+01 3.28271E-01-2.17191E-03-5.80201E-03-1.45043E-13-2.11669E-13
 -1      3425 2.02698E+01 2.39581E-01 2.10606E-03 3.95778E-02-1.57341E-13-1.92705E-13
 -1      3426 2.02456E+01 1.65297E-01-1.24981E-03 8.09445E-02-1.43722E-13-1.91898E-13
 -1      3427 2.03188E+01 3.30721E-01-1.42256E-04 2.22013E-03-1.50133E-13-2.39984E-13
 -1      3428 2.02307E+01 1.07717E-01 1.58691E-03 1.07756E-01-1.35506E-13-1.78224E-13
 -1      3429 2.02096E+01 6.05560E-02-5.98555E-04 1.30609E-01-8.94864E-14-1.80698E-13
 -1      3430 2.02874E+01 1.64089E-01-4.47668E-04 7.78088E-02-1.37812E-13-1.83057E-13
 -1      3431 2.01920E+01 2.52482E-02 1.07739E-03 1.44093E-01-6.29390E-14-2.04251E-13
 -1      3432 2.01746E+01-2.35866E-03-1.48569E-04 1.54521E-01-4.97834E-14-2.22558E-13
 -1      3433 2.02497E+01 5.70019E-02-5.81693E-04 1.21201E-01-1.02438E-13-1.96183E-13
 -1      3434 2.01565E+01-2.16613E-02 6.51825E-04 1.59340E-01-1.64864E-14-2.57563E-13
 -1      3435 2.01428E+01-3.51749E-02 1.55771E-04 1.62183E-01-1.83993E-14-2.32436E-13
 -1      3436 2.02110E+01-6.60861E-03-6.11545E-04 1.42246E-01-5.05878E-14-2.48815E-13
 -1      3437 2.01254E+01-4.29331E-02 3.12508E-04 1.62061E-01-2.53562E-14-1.98058E-13
 -1      3438 2.01149E+01-4.62069E-02 3.57014E-04 1.61026E-01-2.03362E-14-2.03399E-13
 -1      3439 2.01742E+01-3.86113E-02-5.72451E-04 1.49276E-01 1.70607E-15-2.62794E-13
 -1      3440 2.00986E+01-4.55145E-02 4.36215E-05 1.58846E-01-2.21833E-14-1.69608E-13
 -1      3441 2.00909E+01-4.11901E-02 4.89265E-04 1.56743E-01-2.04991E-14-1.14848E-13
 -1      3442 2.01404E+01-4.75222E-02-4.92191E-04 1.48893E-01-1.54889E-14-1.74524E-13
 -1      3443 2.00756E+01-3.41127E-02-1.76306E-04 1.54713E-01-2.78080E-14-1.26404E-13
 -1      3444 2.00700E+01-2.39018E-02 5.78527E-04 1.53690E-01-7.74260E-15-1.21352E-13
 -1      3445 2.01097E+01-3.92458E-02-3.86581E-04 1.46209E-01-9.60434E-15-1.43675E-13
 -1      3446 2.00554E+01-1.17173E-02-3.68624E-04 1.53525E-01-4.08508E-15-1.71299E-13
 -1      3447 2.00512E+01 3.38643E-03 6.43737E-04 1.55276E-01-4.59172E-14-1.60260E-13
 -1      3448 2.00816E+01-1.76535E-02-2.61870E-04 1.45170E-01-5.17266E-14-1.99518E-13
 -1      3449 2.00366E+01 2.00068E-02-5.52861E-04 1.58358E-01-6.67103E-14-1.17730E-13
 -1      3450 2.00332E+01 3.95605E-02 6.96995E-04 1.64289E-01-9.86292E-14-8.29148E-14
 -1      3451 2.00548E+01 1.49641E-02-1.17606E-04 1.48879E-01 1.27571E-15-2.09441E-13
 -1      3452 2.00177E+01 6.04047E-02-7.46244E-04 1.71787E-01-1.38946E-13-2.67210E-14
 -1      3453 2.00143E+01 8.43793E-02 7.44731E-04 1.83135E-01-1.28970E-13-1.83393E-14
 -1      3454 2.00275E+01 5.75242E-02 5.01687E-05 1.59875E-01-9.19656E-14-1.19797E-13
 -1      3455 1.99965E+01 1.09576E-01-9.64473E-04 1.96093E-01-1.25099E-13 6.64565E-15
 -1      3456 1.99924E+01 1.38241E-01 7.89109E-04 2.14013E-01-1.04006E-13 1.00159E-14
 -1      3457 1.99976E+01 1.09855E-01 2.52155E-04 1.80331E-01-9.38039E-14-8.07323E-14
 -1      3458 1.99707E+01 1.68148E-01-1.22178E-03 2.33410E-01-9.91424E-14-1.54521E-14
 -1      3459 1.99647E+01 2.01939E-01 8.26712E-04 2.59021E-01-8.64024E-14-5.98083E-14
 -1      3460 1.99621E+01 1.72419E-01 5.00231E-04 2.12187E-01-1.06199E-13-5.86519E-14
 -1      3461 1.99371E+01 2.37002E-01-1.53059E-03 2.85797E-01-5.92133E-14-1.91886E-14
 -1      3462 1.99279E+01 2.76374E-01 8.51101E-04 3.20187E-01-4.02154E-14-3.45766E-15
 -1      3463 1.99177E+01 2.46040E-01 8.13357E-04 2.57231E-01-5.54096E-14 1.90898E-14
 -1      3464 1.98919E+01 3.16960E-01-1.90401E-03 3.55226E-01-4.67309E-14 4.12795E-14
 -1      3465 1.98775E+01 3.62186E-01 8.54240E-04 3.99428E-01 2.01710E-14 1.30733E-14
 -1      3466 1.98598E+01 3.31555E-01 1.21407E-03 3.17086E-01-1.61414E-14 5.02255E-14
 -1      3467 1.98300E+01 4.08346E-01-2.35603E-03 4.43552E-01 8.68715E-14-6.81855E-14
 -1      3468 1.98083E+01 4.59223E-01 8.32315E-04 4.98505E-01 5.52396E-14-7.28159E-14
 -1      3469 1.97829E+01 4.29399E-01 1.72695E-03 3.93179E-01 1.75673E-14-1.19269E-14
 -1      3470 1.97454E+01 5.10315E-01-2.90325E-03 5.52486E-01 6.56339E-14-6.19989E-15
 -1      3471 1.97136E+01 5.65707E-01 7.96538E-04 6.19002E-01 1.60898E-13 7.91220E-15
 -1      3472 1.96802E+01 5.39006E-01 2.37910E-03 4.86725E-01 8.59643E-14-1.74352E-15
 -1      3473 1.96307E+01 6.19808E-01-3.56969E-03 6.83657E-01 1.30469E-13 3.30775E-15
 -1      3474 1.95859E+01 6.76945E-01 7.93652E-04 7.62475E-01 5.86633E-14 3.91992E-14
 -1      3475 1.95435E+01 6.57915E-01 3.19501E-03 5.98826E-01 1.20734E-13 6.97961E-14
 -1      3476 1.94775E+01 7.29941E-01-4.39510E-03 8.38981E-01-8.93785E-14-3.38820E-14
 -1      3477 1.94173E+01 7.83352E-01 9.40207E-04 9.31019E-01-1.21758E-13-1.17970E-13
 -1      3478 1.93628E+01 7.80445E-01 4.18807E-03 7.30898E-01-4.00282E-14-1.24589E-14
 -1      3479 1.92774E+01 8.27557E-01-5.44950E-03 1.02164E+00-1.19714E-13-1.55594E-13
 -1      3480 1.92011E+01 8.67524E-01 1.49405E-03 1.12864E+00-9.93974E-14-1.54674E-13
 -1      3481 1.91271E+01 8.95778E-01 5.34639E-03 8.85762E-01-1.36682E-13-1.62968E-13
 -1      3482 1.90236E+01 8.89701E-01-6.81696E-03 1.23824E+00-6.61025E-14-2.08174E-13
 -1      3483 1.89354E+01 9.00013E-01 2.97526E-03 1.36411E+00 1.75367E-14-1.65207E-13
 -1      3484 1.88245E+01 9.85259E-01 6.63356E-03 1.06999E+00-9.70068E-14-1.78508E-13
 -1      3485 1.87150E+01 8.78498E-01-8.54526E-03 1.50292E+00 5.76639E-14-1.59138E-13
 -1      3486 1.86295E+01 8.33180E-01 6.38075E-03 1.65576E+00 2.18338E-14-1.57308E-13
 -1      3487 1.84441E+01 1.01857E+00 7.99449E-03 1.29848E+00 6.76455E-14-2.50464E-13
 -1      3488 1.83648E+01 7.33272E-01-1.04051E-02 1.84397E+00 4.62954E-16-1.21453E-13
 -1      3489 1.83151E+01 5.90384E-01 1.22963E-02 2.03820E+00 3.38329E-14-1.20418E-13
 -1      3490 1.79791E+01 9.47625E-01 9.33817E-03 1.60254E+00 2.64760E-14-2.11688E-13
 -1      3491 1.80191E+01 3.62185E-01-1.06295E-02 2.30539E+00-1.18273E-14-1.40948E-13
 -1      3492 1.80617E+01 5.36250E-02 1.97150E-02 2.56670E+00-3.08798E-14-1.86604E-13
 -1      3493 1.74417E+01 6.95766E-01 1.25230E-02 2.04254E+00 4.74327E-14-2.86534E-13
 -1      3494 1.76032E+01-1.74698E+00 1.10156E-01 4.06919E+00 9.96599E-14-2.21920E-13
 -1      3495 1.87272E+01 8.79658E-01 5.26911E-03-2.06131E+00 1.24933E-13 8.59122E-14
 -1      3496 1.82709E+01 1.02603E+00-1.22633E-02-1.84967E+00 1.22097E-13-1.39829E-14
 -1      3497 1.87018E+01 6.30704E-01 1.35723E-02-2.31405E+00 8.99328E-14 4.53097E-14
 -1      3498 1.84808E+01-6.66052E-01 3.14993E-02-3.29326E+00-7.85656E-14-3.84132E-13
 -1      3499 1.83285E+01-1.69493E-01 8.10785E-03-3.01382E+00-7.47343E-14-2.85529E-13
 -1      3500 1.84907E+01 1.32096E-01 2.05301E-02-2.74554E+00 3.60120E-14-2.54544E-13
 -1      3501 1.85059E+01 4.39920E-01 4.56670E-03-2.51191E+00 1.05146E-13-3.46056E-14
 -1      3502 1.78094E+01 6.27817E-01-1.26279E-02-2.32120E+00 1.90214E-13-1.11313E-13
 -1      3503 1.74392E+01 1.50341E-01-1.48515E-02-2.80978E+00 9.51108E-14-2.92514E-13
 -1      3504 2.01636E+01 6.25711E-02-5.97967E-04-1.37302E-01 6.74683E-14-1.90688E-13
 -1      3505 2.01845E+01 1.08301E-01 1.85521E-03-1.12337E-01 8.61878E-14-1.79278E-13
 -1      3506 2.01998E+01 1.63852E-01-1.24070E-03-8.14728E-02 1.10824E-13-1.72556E-13
 -1      3507 2.02263E+01 2.35751E-01 2.51977E-03-3.58364E-02 1.25814E-13-1.45109E-13
 -1      3508 2.02496E+01 1.66302E-01-6.83599E-04-7.97412E-02 9.70341E-14-1.76527E-13
 -1      3509 2.00817E+01-4.36437E-02 3.65241E-04-1.70926E-01 4.78158E-14-9.97725E-14
 -1      3510 2.00888E+01-3.95388E-02 3.48033E-04-1.72514E-01 4.72779E-14-1.06149E-13
 -1      3511 2.00384E+01-5.82060E-03 6.74288E-04-1.59444E-01 3.96678E-14-1.17357E-13
 -1      3512 2.00386E+01-1.80458E-02-3.45288E-04-1.59077E-01 4.33358E-14-1.02454E-13
 -1      3513 2.00292E+01 2.31106E-02 7.47910E-04-1.65791E-01 5.59753E-14-9.11831E-14
 -1      3514 2.00280E+01 7.45920E-03-5.01287E-04-1.61494E-01 7.43476E-14-9.11576E-14
 -1      3515 2.00477E+01 2.74061E-03-2.01526E-04-1.56157E-01 3.64878E-14-1.26231E-13
 -1      3516 2.00210E+01 5.80706E-02 8.27478E-04-1.81631E-01-5.01223E-14-1.16447E-13
 -1      3517 2.00188E+01 3.94244E-02-6.47488E-04-1.72248E-01-2.64536E-15-9.52988E-14
 -1      3518 2.00294E+01 3.71892E-02-9.58713E-05-1.65267E-01 3.13665E-14-2.93532E-14
 -1      3519 2.00133E+01 9.83412E-02 9.19438E-04-2.09046E-01-2.14959E-14-6.37649E-14
 -1      3520 2.00101E+01 7.70520E-02-7.92602E-04-1.93577E-01-2.10065E-14-6.53292E-14
 -1      3521 2.00110E+01 7.84265E-02 8.84462E-06-1.84042E-01-5.90636E-14-7.17920E-14
 -1      3522 2.00053E+01 1.43077E-01 1.02788E-03-2.49893E-01 3.36281E-14-1.35836E-13
 -1      3523 2.00012E+01 1.19606E-01-9.39572E-04-2.27471E-01 1.37797E-14-1.18760E-13
 -1      3524 1.99913E+01 1.25603E-01 1.11542E-04-2.14572E-01 2.13351E-14-6.08977E-14
 -1      3525 1.99966E+01 1.90863E-01 1.15497E-03-3.05801E-01 1.86134E-14-1.66366E-13
 -1      3526 1.99915E+01 1.66020E-01-1.08429E-03-2.75721E-01 2.21578E-14-1.84990E-13
 -1      3527 1.99692E+01 1.77633E-01 2.05251E-04-2.58784E-01 5.62159E-14-1.20065E-13
 -1      3528 1.99874E+01 2.39159E-01 1.30247E-03-3.78062E-01-8.54432E-14 1.80921E-14
 -1      3529 1.99809E+01 2.14398E-01-1.21302E-03-3.39867E-01-1.90273E-14-7.18956E-14
 -1      3530 1.99437E+01 2.32682E-01 2.75428E-04-3.18465E-01-8.70751E-14-5.72074E-14
 -1      3531 1.99788E+01 2.83619E-01 1.47517E-03-4.67417E-01-1.67709E-13 4.74066E-14
 -1      3532 1.99699E+01 2.61399E-01-1.29884E-03-4.21049E-01-1.27036E-13-2.57132E-14
 -1      3533 1.99147E+01 2.87524E-01 2.96346E-04-3.95193E-01-1.23301E-13-2.14758E-14
 -1      3534 1.99736E+01 3.17246E-01 1.68173E-03-5.73725E-01-7.50029E-14-5.02352E-15
 -1      3535 1.99605E+01 3.01480E-01-1.29685E-03-5.19744E-01-9.91983E-14-4.05179E-15
 -1      3536 1.98829E+01 3.36758E-01 2.22824E-04-4.90206E-01-1.00024E-13-1.10905E-13
 -1      3537 1.99771E+01 3.29423E-01 1.93590E-03-6.95487E-01-3.39711E-14 3.25914E-14
 -1      3538 1.99569E+01 3.25983E-01-1.13651E-03-6.35384E-01-9.24669E-14 6.00303E-14
 -1      3539 1.98514E+01 3.71865E-01-1.90969E-05-6.04195E-01-1.04501E-13-1.63016E-13
 -1      3540 1.99990E+01 3.04912E-01 2.25064E-03-8.29163E-01-4.41404E-14 4.11772E-14
 -1      3541 1.99665E+01 3.22134E-01-7.09775E-04-7.65789E-01-8.85710E-15 1.69897E-14
 -1      3542 1.98261E+01 3.80109E-01-5.45243E-04-7.36987E-01-4.09107E-14-1.11430E-13
 -1      3543 2.00552E+01 2.23148E-01 2.61050E-03-9.68089E-01-1.22562E-13 1.73426E-13
 -1      3544 2.00024E+01 2.72141E-01 1.45890E-04-9.06295E-01-7.61802E-14 1.22222E-13
 -1      3545 1.98183E+01 3.43434E-01-1.53109E-03-8.87016E-01-1.21671E-13-6.60065E-14
 -1      3546 2.01702E+01 5.85724E-02 2.92068E-03-1.10062E+00-1.76811E-13 1.56823E-13
 -1      3547 2.00855E+01 1.52890E-01 1.66160E-03-1.04827E+00-1.30936E-13 1.90118E-13
 -1      3548 1.98468E+01 2.37659E-01-3.23355E-03-1.05028E+00-1.34038E-13 3.48611E-14
 -1      3549 2.03793E+01-2.16444E-01 2.88026E-03-1.20689E+00-1.36145E-13 1.10983E-13
 -1      3550 2.02474E+01-6.26301E-02 4.17399E-03-1.17642E+00-1.66756E-13 1.13630E-13
 -1      3551 1.99417E+01 3.28640E-02-5.97744E-03-1.21807E+00-1.36207E-13 3.02138E-14
 -1      3552 2.07286E+01-6.23246E-01 1.82555E-03-1.25330E+00-2.53302E-13 9.72814E-14
 -1      3553 2.05320E+01-4.00210E-01 8.02181E-03-1.26407E+00-1.61415E-13 1.09097E-13
 -1      3554 2.01479E+01-3.03186E-01-1.01006E-02-1.37244E+00-1.39643E-13-3.19048E-14
 -1      3555 2.12678E+01-1.15730E+00-1.34249E-03-1.18431E+00-3.23837E-14 7.51851E-15
 -1      3556 2.09940E+01-8.71404E-01 1.35609E-02-1.26507E+00-1.57423E-13 4.56265E-14
 -1      3557 2.05271E+01-7.95528E-01-1.57890E-02-1.47716E+00-1.07935E-13-1.30504E-13
 -1      3558 2.20310E+01-1.74878E+00-7.52254E-03-9.16214E-01-1.57565E-14 5.53453E-14
 -1      3559 2.16850E+01-1.44571E+00 2.01438E-02-1.10418E+00 4.10058E-14 9.33852E-14
 -1      3560 2.11537E+01-1.43539E+00-2.20182E-02-1.46402E+00-6.85079E-14-7.45996E-14
 -1      3561 2.29940E+01-2.19646E+00-1.42567E-02-3.48827E-01-4.56599E-14 5.21861E-14
 -1      3562 2.26147E+01-1.99973E+00 2.43374E-02-6.76142E-01-8.05645E-14 3.68212E-14
 -1      3563 2.20889E+01-2.12893E+00-2.71888E-02-1.21291E+00-4.49725E-14 5.03445E-14
 -1      3564 2.40149E+01-2.11701E+00-1.55349E-02 5.63366E-01 1.10786E-13 2.56904E-14
 -1      3565 2.36885E+01-2.24812E+00 2.04084E-02 1.07671E-01 7.25902E-14 8.63077E-14
 -1      3566 2.33198E+01-2.60033E+00-2.59050E-02-5.73070E-01 2.22166E-14-1.90013E-14
 -1      3567 2.49484E+01-1.18777E+00-1.51734E-02 1.48938E+00 1.96915E-13-1.83976E-13
 -1      3568 2.47322E+01-1.90817E+00-7.99364E-03 1.03154E+00 2.24166E-13 1.72640E-14
 -1      3569 2.43608E+01 2.80804E+00-3.05087E-02 1.62762E+00 1.37071E-13-4.24181E-13
 -1      3570 2.45588E+01 1.85043E+00-6.18890E-02 2.14377E+00 7.16371E-14-3.86800E-13
 -1      3571 2.39804E+01 3.88923E+00-5.25636E-02-3.01140E-01 3.20646E-14-3.31475E-13
 -1      3572 2.39358E+01 3.90013E+00-4.52827E-02 5.39008E-01 4.38538E-14-5.30419E-13
 -1      3573 2.51045E+01 1.45570E-01-9.36602E-02-1.90541E+00-6.75154E-15-3.56406E-13
 -1      3574 2.50675E+01 1.44292E+00-2.44284E-02-2.00542E+00-4.30211E-15-3.51889E-13
 -1      3575 2.50353E+01-1.82636E+00-4.16713E-02-9.83976E-01 8.52200E-14-2.86386E-13
 -1      3576 2.52173E+01-9.76336E-01-1.88415E-02-1.45084E+00 8.84813E-14-2.98745E-13
 -1      3577 2.41511E+01-2.62253E+00 3.53875E-03 2.11588E-01-1.37732E-13-1.80120E-13
 -1      3578 2.45349E+01-2.38950E+00-1.28350E-02-2.89915E-01 1.34146E-14-1.45148E-13
 -1      3579 2.17935E+01-1.51544E+00 1.97994E-02 1.41579E+00-1.59467E-13-6.96895E-14
 -1      3580 2.21434E+01-1.83490E+00-6.24363E-03 1.21554E+00-1.59007E-13-1.77209E-13
 -1      3581 2.11121E+01-8.72541E-01 1.46035E-02 1.58848E+00-4.77678E-15-2.69309E-13
 -1      3582 2.13884E+01-1.19627E+00-8.95732E-04 1.50826E+00-7.27874E-14-1.69695E-13
 -1      3583 2.13408E+01-1.49989E+00-2.47374E-02 1.77946E+00-8.56172E-14-6.62651E-14
 -1      3584 2.06566E+01-3.11571E-01 6.68573E-03 1.58636E+00-4.21146E-14-2.73664E-13
 -1      3585 2.08613E+01-5.88052E-01 1.69465E-03 1.57922E+00 3.17884E-14-1.57332E-13
 -1      3586 2.07511E+01-7.74678E-01-9.94742E-03 1.80889E+00-1.75647E-14-1.38986E-13
 -1      3587 2.01040E+01-3.13134E-02 1.63881E-04-1.72625E-01 7.35805E-14-1.41110E-13
 -1      3588 2.01148E+01-1.76327E-02 7.30817E-04-1.69804E-01 1.19700E-13-1.44079E-13
 -1      3589 2.01427E+01-3.52525E-02-6.24096E-04-1.62054E-01 6.38950E-14-1.29576E-13
 -1      3590 1.74979E+01 1.31669E+00-1.16447E-02 3.23105E-01 1.94100E-13 1.66367E-13
 -1      3591 1.76777E+01 1.23375E+00 6.40342E-03 7.52969E-01-3.68911E-15-1.61973E-13
 -1      3592 1.32375E+01-7.19153E-01-3.77563E-02 3.66809E+00-2.85189E-13 4.13815E-13
 -1      3593 1.18133E+01 2.24854E-01 1.39276E-01 2.22821E+00-3.02292E-13 3.87947E-13
 -1      3594 2.01313E+01 1.39095E-03-1.41538E-04-1.64144E-01 9.74073E-14-1.87210E-13
 -1      3595 2.01467E+01 2.84110E-02 1.22958E-03-1.52910E-01 6.34907E-14-2.00563E-13
 -1      3596 2.01756E+01-2.41012E-03-7.05506E-04-1.54066E-01 7.83993E-14-1.94334E-13
 -1      3597 2.46245E+01 3.88541E+00-4.95969E-02-1.08404E+00 1.22208E-13-3.07514E-13
 -1      3598 2.47348E+01 2.93892E+00-9.78087E-02-1.64066E+00 1.26593E-13-3.06121E-13
 -1      3599 1.92916E+01-3.09076E+00 4.58189E-02-4.35823E+00-1.95554E-13-1.44898E-13
 -1      3600 2.09404E+01-3.72568E+00-3.76753E-02-3.86096E+00-6.77444E-14-9.60516E-14
 -1      3601 1.75735E+01-2.36642E+00-2.88728E-02 4.51930E+00-1.97706E-13 2.43507E-13
 -1      3602 1.55865E+01-1.32481E+00 1.34885E-01 4.38320E+00-2.72758E-13 3.25403E-13
 -1      3603 2.00497E+01-2.77700E-02 5.96528E-04-1.60207E-01 3.08143E-14-1.19375E-13
 -1      3604 2.00517E+01-3.58805E-02-1.65551E-04-1.62392E-01-1.27324E-15-9.54960E-14
 -1      3605 2.00672E+01-2.38789E-02-3.08245E-04-1.54376E-01 2.25371E-14-9.11617E-14
 -1      3606 1.68881E+01-1.00451E+00 5.45417E-02 3.52839E+00 4.40724E-14-2.64627E-13
 -1      3607 2.00639E+01-4.12002E-02 5.00187E-04-1.65230E-01 1.75030E-14-6.71000E-14
 -1      3608 2.00680E+01-4.40745E-02 5.77483E-05-1.68239E-01 6.00127E-14-9.05018E-14
 -1      3609 2.00889E+01-4.10473E-02-4.16042E-04-1.57184E-01 2.78414E-14-1.38304E-13
 -1      3610 1.12233E+01 3.37251E-01 3.69464E-02-2.02138E+00-3.73427E-13-9.55763E-14
 -1      3611 1.22662E+01-3.28921E-01 5.86826E-02-3.46616E+00-3.39055E-13-1.76970E-13
 -1      3612 2.00463E+01 2.16478E+00-4.17564E-03-2.84829E-01-1.03542E-13-4.37067E-13
 -1      3613 2.01628E+01 1.85107E+00 5.00446E-03-2.85369E-01-1.14708E-13-4.02357E-13
 -1      3614 2.00342E+01 2.20122E+00-3.35741E-03-1.63160E-01-6.01147E-14-4.53254E-13
 -1      3615 2.01615E+01 3.40469E-01-1.91854E-03 1.52527E+00-2.61834E-13-1.51022E-13
 -1      3616 2.03050E+01 2.57835E-01 2.86552E-03 1.46353E+00-3.26051E-13-2.49686E-13
 -1      3617 2.03936E+01 1.06425E-01 3.11965E-03 1.50420E+00-2.65232E-13-2.14748E-13
 -1      3618 2.00948E+01 1.81883E-01-1.93972E-03 1.66627E+00-1.90556E-13 1.31096E-13
 -1      3619 2.03231E+01 7.35967E-01 4.89368E-03-2.43470E-01-1.82719E-13-2.61678E-13
 -1      3620 2.02972E+01 5.71665E-01-3.72767E-03-1.43119E-01-1.48322E-13-2.45176E-13
 -1      3621 2.03337E+01 5.80991E-01 9.11059E-04-1.15774E-01-1.36611E-13-2.48722E-13
 -1      3622 1.99728E+01-2.85081E+00 9.09874E-02-4.23881E+00 2.70497E-13 3.93435E-15
 -1      3623 1.15009E+01 6.10117E-01 3.13630E-02 1.04023E+00-1.63409E-13-3.34281E-13
 -1      3624 1.11176E+01 7.44601E-01 8.65739E-02-5.46010E-01-2.59057E-13-7.99083E-14
 -1      3625 2.02395E+01 1.45445E+00-2.14509E-03-5.86458E-01-2.23193E-13-3.61205E-13
 -1      3626 2.02807E+01 1.26226E+00 5.52545E-03-5.18181E-01-2.16876E-13-3.32177E-13
 -1      3627 2.02254E+01 1.51613E+00-2.98387E-03-5.09595E-01-1.91815E-13-3.51685E-13
 -1      3628 1.34857E+01 7.19362E-02 4.15743E-02-2.70462E+00-4.30177E-14 9.22873E-15
 -1      3629 1.46297E+01-6.25483E-01 2.36218E-02-3.72787E+00-7.10508E-14 5.31519E-15
 -1      3630 1.81523E+01-2.29989E+00-3.47068E-02-4.40956E+00 1.14259E-13-3.05016E-13
 -1      3631 1.91701E+01-2.13088E+00 4.54978E-02-4.00200E+00 1.66636E-13-2.18825E-13
 -1      3632 1.86639E+01-1.31948E+00 2.85595E-02-3.71018E+00-1.68904E-14-3.75226E-13
 -1      3633 1.61279E+01-1.30699E+00 6.52682E-02-4.23701E+00-3.22988E-14-3.02192E-13
 -1      3634 2.02877E+01 9.28370E-01 9.47503E-04 4.65795E-01 2.33615E-13-2.15209E-13
 -1      3635 2.02761E+01 1.10017E+00-2.38871E-03 5.02062E-01 2.38103E-13-2.30410E-13
 -1      3636 2.02690E+01 7.67227E-01-2.54976E-03 3.34140E-01 2.07795E-13-2.13567E-13
 -1      3637 2.02056E+01 1.69664E+00 6.43957E-03 4.60906E-01 1.62080E-13-3.42593E-13
 -1      3638 1.40760E+01-6.27414E-01 7.67363E-02-3.67952E+00-3.24957E-13-1.90771E-13
 -1      3639 2.02259E+01 1.54757E+00-4.04768E-03 2.85556E-01 1.02887E-13-3.88893E-13
 -1      3640 2.02153E+01 1.60641E+00-2.04236E-03 2.02101E-01 5.85959E-14-4.17647E-13
 -1      3641 2.02370E+01 3.23006E-01-1.67760E-03 1.63611E-02 1.43523E-13-1.86079E-13
 -1      3642 2.02650E+01 4.31340E-01 2.53105E-03 9.12706E-02 1.85876E-13-1.93410E-13
 -1      3643 2.02840E+01 3.29774E-01-7.22498E-04 7.22497E-03 1.19003E-13-1.91111E-13
 -1      3644 1.77494E+01-3.59235E-01-9.35777E-03 2.93118E+00-1.46124E-14-5.54522E-14
 -1      3645 1.79257E+01-1.03249E+00-2.41744E-02 3.34384E+00 1.08312E-14-1.53135E-13
 -1      3646 2.02120E+01 6.08130E-02-7.38463E-04-1.29794E-01 8.31924E-14-2.45106E-13
 -1      3647 1.73604E+01-7.67934E-01-1.38615E-02-3.57568E+00-5.66058E-14-5.27325E-13
 -1      3648 2.02710E+01 1.23645E+00 5.34292E-04 4.66587E-01 2.02061E-13-2.66566E-13
 -1      3649 1.74878E+01 9.94919E-01 5.62904E-03 1.13392E+00-1.29894E-13-1.56415E-13
 -1      3650 1.79622E+01 9.95031E-01-1.71903E-02 1.19696E+00-7.42456E-14-1.96946E-13
 -1      3651 1.83398E+01 8.45153E-01 1.51930E-02 1.49955E+00-2.18930E-13 3.64825E-14
 -1      3652 2.46337E+01-3.13402E+00 3.78512E-02-5.25771E-01 1.91740E-13 1.44711E-14
 -1      3653 2.47012E+01-2.55726E+00-2.34681E-02 2.89147E-01 1.94066E-13-5.58924E-14
 -1      3654 2.01139E+01-4.61684E-02-5.23154E-04-1.61194E-01 4.30866E-14-8.66305E-14
 -1      3655 1.70086E+01-1.72496E+00 2.74623E-02-4.14568E+00-1.85113E-13-4.29119E-14
 -1      3656 1.82038E+01-2.55457E+00 2.08804E-02-4.42552E+00-2.19328E-13-6.53158E-14
 -1      3657 1.93678E+01-2.41519E+00 3.45775E-02-3.68924E+00-9.57437E-14-2.70250E-13
 -1      3658 2.57075E+01-2.17445E-01-2.75517E-02 2.02992E+00 2.31939E-13-1.02730E-13
 -1      3659 2.49594E+01 9.75715E-01-2.90627E-02 2.17593E+00 1.92093E-13-2.90516E-13
 -1      3660 2.43759E+01 8.18509E-01-2.87010E-02 2.05863E+00 9.08180E-14-3.08401E-13
 -1      3661 2.52658E+01 4.34184E+00-1.03355E-01 1.23569E+00 1.34948E-13-3.55486E-13
 -1      3662 2.02808E+01 1.00876E+00-4.74223E-03-3.80355E-01-1.89828E-13-2.97083E-13
 -1      3663 1.92278E+01-2.67681E+00 7.77646E-02 4.32652E+00-1.46149E-13 1.73490E-13
 -1      3664 1.81358E+01-1.94929E+00-8.33216E-03 4.01932E+00-1.12802E-13 3.03717E-13
 -1      3665 2.05825E+01-3.01448E+00 1.08414E-02 3.67701E+00-4.51323E-14 2.68599E-13
 -1      3666 2.22522E+01-2.23447E+00-2.68925E-02 1.51043E+00-2.65865E-13 5.33774E-14
 -1      3667 2.27252E+01-2.09671E+00 2.95386E-02 9.65181E-01-2.41272E-13-1.91113E-13
 -1      3668 2.31007E+01-2.31368E+00-4.86297E-03 6.22691E-01-2.03313E-13-1.79971E-13
 -1      3669 2.05070E+01-5.32842E-02 1.96603E-03 1.51538E+00-1.75565E-13-1.54362E-13
 -1      3670 1.74582E+01 1.39790E+00-3.28089E-03-2.21459E-01 2.26342E-13 5.54334E-14
 -1      3671 1.70841E+01 1.29112E+00 1.09837E-02 1.06370E-01 1.73082E-13 1.48099E-13
 -1      3672 1.75307E+01 1.38485E+00-6.01464E-03-6.68094E-01 2.11070E-13 2.41980E-13
 -1      3673 2.03056E+01 1.00627E+00-1.88410E-03-3.20877E-01-1.69446E-13-3.13475E-13
 -1      3674 1.23909E+01 4.79837E-01 8.14159E-02 1.10481E+00-9.62286E-14 1.20758E-13
 -1      3675 1.79485E+01 1.20619E+00-1.18143E-03-1.49076E+00 1.88921E-13 4.88448E-13
 -1      3676 1.76518E+01 1.30701E+00-9.18871E-03-1.12421E+00 1.17338E-13 6.40024E-13
 -1      3677 1.71708E+01 1.28271E+00 1.25572E-02-9.20657E-01 2.29236E-13 3.23280E-13
 -1      3678 1.76752E+01 1.02945E+00 1.38451E-02-1.75373E+00 1.73059E-13 3.07986E-13
 -1      3679 1.50787E+01-6.61980E-01 5.02041E-02 3.48399E+00-1.95580E-13 4.37459E-13
 -1      3680 2.02902E+01 1.38638E+00 5.13679E-03 1.34238E-01 5.20224E-14-4.08156E-13
 -1      3681 2.02069E+01 1.63948E+00-3.31609E-03 1.30616E-01 1.88692E-14-4.51883E-13
 -1      3682 2.02028E+01 1.65949E+00-2.64300E-03 3.98301E-02-7.12080E-15-4.47242E-13
 -1      3683 2.38366E+01-2.97562E+00-2.72804E-03 9.77186E-01-1.46418E-13 1.06911E-13
 -1      3684 1.95492E+01 1.57412E-01-8.41236E-03 1.89139E+00-7.98851E-14 3.21047E-13
 -1      3685 1.98630E+01 4.37475E-02 7.62734E-03 1.89207E+00-1.81053E-13 3.43821E-13
 -1      3686 2.01418E+01 1.92381E+00 4.99376E-03-9.48915E-02-4.46472E-14-4.40520E-13
 -1      3687 1.23566E+01 6.80451E-01 8.07175E-02-1.24091E+00-2.93246E-13-8.24896E-14
 -1      3688 2.02129E+01 1.61138E+00-2.03880E-03-1.96915E-01-8.00401E-14-3.75632E-13
 -1      3689 2.02242E+01 1.55707E+00-2.76323E-03-2.78521E-01-1.19286E-13-3.63313E-13
 -1      3690 1.87314E+01 5.56599E-01-1.68007E-02 1.71989E+00-2.46728E-13 2.38891E-13
 -1      3691 1.91522E+01 3.98765E-01 1.49488E-02 1.86244E+00-1.48456E-13 3.23877E-13
 -1      3692 1.92698E+01 1.84652E-02-1.22912E-02 2.05713E+00-4.79486E-14 2.57095E-13
 -1      3693 1.83635E+01 5.07966E-01 6.07436E-03 1.81016E+00-2.73250E-13 2.14658E-13
 -1      3694 2.25277E+01-3.77564E+00 6.98896E-02-3.02031E+00 1.24067E-14-6.33582E-14
 -1      3695 2.38267E+01-3.69163E+00-5.15599E-02-1.64716E+00 8.78202E-14-8.10376E-15
 -1      3696 1.28136E+01 5.62401E-01-1.05455E-02-1.33988E+00 2.43564E-14 2.40547E-13
 -1      3697 1.31815E+01 3.82545E-01 6.98215E-02-2.16598E+00-1.36349E-15 6.53574E-14
 -1      3698 1.45921E+01 3.09528E-01 4.48207E-02-2.50810E+00 4.93594E-14-7.46816E-14
 -1      3699 1.35505E+01 2.50003E-01-4.59397E-02 2.38365E+00-7.24785E-14-4.72032E-13
 -1      3700 1.25492E+01 5.87708E-01 9.26773E-02 1.76950E+00-1.44277E-13-4.87062E-13
 -1      3701 1.29130E+01 8.52914E-01 1.97230E-02 9.19137E-01-2.14100E-13-2.74034E-13
 -1      3702 2.02185E+01 1.56104E+00-4.24106E-03-3.51759E-01-1.45133E-13-3.43145E-13
 -1      3703 2.02262E+01 1.53849E+00-1.55778E-03-4.34610E-01-1.85306E-13-3.43941E-13
 -1      3704 2.02807E+01 1.35636E+00 6.79732E-03-3.94776E-01-1.69237E-13-3.41915E-13
 -1      3705 2.02929E+01 1.35862E+00 6.20589E-03-2.59811E-01-1.07412E-13-3.27519E-13
 -1      3706 1.63316E+01-6.71337E-01 6.20405E-02-3.60615E+00-3.42556E-14-1.81547E-13
 -1      3707 2.34904E+01-3.11765E+00-1.43726E-02-1.15212E+00 1.07244E-13-3.55076E-16
 -1      3708 1.68642E+01 8.15536E-02-6.35714E-03 2.71082E+00-3.29016E-14-2.76708E-13
 -1      3709 2.03832E+01-1.42818E-01-3.19704E-03 1.68997E+00-1.02897E-13-1.48316E-13
 -1      3710 2.16927E+01-3.25663E+00 2.30956E-02-2.95006E+00-1.14925E-14-1.53231E-13
 -1      3711 2.02384E+01 1.48202E+00-1.76089E-03 3.46534E-01 1.40343E-13-3.47359E-13
 -1      3712 2.03029E+01 1.28534E+00 5.74038E-03 2.52759E-01 1.36153E-13-3.16746E-13
 -1      3713 2.02533E+01 1.38068E+00-5.87698E-03 4.13815E-01 1.85444E-13-3.01667E-13
 -1      3714 2.02234E+01-9.08508E-02 2.22675E-03 1.76063E+00-1.37547E-13 4.99560E-14
 -1      3715 2.03384E+01 2.21466E-01 1.35566E-03 4.83849E-02-1.17333E-13-2.61658E-13
 -1      3716 2.03177E+01 1.48493E-01-9.63724E-04 7.85672E-02-1.32268E-13-2.62012E-13
 -1      3717 2.03022E+01 9.13294E-02 1.02909E-03 9.55683E-02-1.06182E-13-2.17313E-13
 -1      3718 2.02808E+01 4.54747E-02-4.67023E-04 1.12196E-01-7.78424E-14-2.12163E-13
 -1      3719 2.03442E+01 1.39938E-01-1.08094E-04 7.09458E-02-9.54392E-14-2.69111E-13
 -1      3720 2.02609E+01 1.12981E-02 7.26110E-04 1.20348E-01-7.19106E-14-1.95303E-13
 -1      3721 2.02405E+01-1.44926E-02-8.71160E-05 1.27992E-01-2.83293E-14-2.03190E-13
 -1      3722 2.03047E+01 3.86680E-02-3.34624E-04 9.83956E-02-7.51941E-14-1.99889E-13
 -1      3723 2.02189E+01-3.18916E-02 4.46992E-04 1.30524E-01 1.17428E-14-2.19443E-13
 -1      3724 2.02004E+01-4.29323E-02 1.70722E-04 1.32826E-01 1.98511E-15-2.01500E-13
 -1      3725 2.02610E+01-1.91756E-02-4.43118E-04 1.11332E-01-2.15604E-14-1.84296E-13
 -1      3726 2.01786E+01-4.80065E-02 2.05864E-04 1.32388E-01-1.90488E-15-1.88173E-13
 -1      3727 2.01621E+01-4.81360E-02 3.34902E-04 1.32201E-01 2.80652E-14-1.69809E-13
 -1      3728 2.02168E+01-4.48458E-02-4.52746E-04 1.15492E-01 4.83522E-15-1.79908E-13
 -1      3729 2.01407E+01-4.40090E-02-5.56890E-06 1.30860E-01 4.14459E-15-1.70778E-13
 -1      3730 2.01261E+01-3.58622E-02 4.31674E-04 1.30390E-01-4.87167E-14-1.74534E-13
 -1      3731 2.01738E+01-4.66110E-02-3.93411E-04 1.15478E-01 9.47174E-16-2.14412E-13
 -1      3732 2.01050E+01-2.46063E-02-1.98749E-04 1.29747E-01-7.87265E-14-1.74309E-13
 -1      3733 2.00917E+01-9.86451E-03 4.81693E-04 1.30706E-01-6.35090E-14-1.95840E-13
 -1      3734 2.01324E+01-3.02082E-02-2.83360E-04 1.14884E-01-5.99511E-14-1.52542E-13
 -1      3735 2.00705E+01 7.27404E-03-3.86388E-04 1.32010E-01 2.56577E-14-1.59346E-13
 -1      3736 2.00576E+01 2.76787E-02 5.00452E-04 1.35760E-01 3.87925E-14-1.29999E-13
 -1      3737 2.00920E+01 6.50804E-04-1.31378E-04 1.16506E-01 7.37210E-15-7.91992E-14
 -1      3738 2.00352E+01 5.00935E-02-5.81186E-04 1.40023E-01-2.65980E-14-1.31625E-13
 -1      3739 2.00218E+01 7.57854E-02 4.93887E-04 1.47699E-01-9.23002E-14-9.28802E-14
 -1      3740 2.00507E+01 4.38612E-02 6.28494E-05 1.22538E-01 1.42706E-14-1.02601E-13
 -1      3741 1.99969E+01 1.03325E-01-7.95485E-04 1.55755E-01-1.24474E-13-1.77384E-14
 -1      3742 1.99815E+01 1.34337E-01 4.64087E-04 1.68320E-01-8.75959E-14-1.50454E-14
 -1      3743 2.00064E+01 9.84822E-02 2.95983E-04 1.34768E-01-6.10358E-14-4.69809E-14
 -1      3744 1.99523E+01 1.67199E-01-1.04187E-03 1.80869E-01-4.48834E-14-4.43079E-14
 -1      3745 1.99335E+01 2.03838E-01 4.08267E-04 1.99180E-01-5.16419E-14 1.82538E-14
 -1      3746 1.99556E+01 1.64475E-01 5.83566E-04 1.54606E-01-7.16824E-14 4.26652E-14
 -1      3747 1.98976E+01 2.42389E-01-1.32727E-03 2.16827E-01-4.44544E-14 3.35448E-14
 -1      3748 1.98733E+01 2.85041E-01 3.18365E-04 2.41636E-01-1.65503E-14 4.77691E-14
 -1      3749 1.98946E+01 2.42318E-01 9.33039E-04 1.83219E-01 8.54307E-15 7.70100E-14
 -1      3750 1.98281E+01 3.29638E-01-1.66277E-03 2.64851E-01 2.45579E-16 1.12596E-13
 -1      3751 1.97957E+01 3.78594E-01 1.81865E-04 2.96776E-01-6.20719E-16 1.21974E-13
 -1      3752 1.98182E+01 3.32686E-01 1.37282E-03 2.21478E-01 2.01171E-14 1.05644E-13
 -1      3753 1.97377E+01 4.29398E-01-2.06378E-03 3.25864E-01-5.43951E-14 1.35254E-13
 -1      3754 1.96941E+01 4.84620E-01-1.40812E-05 3.65369E-01 1.03514E-15 9.01806E-14
 -1      3755 1.97204E+01 4.36002E-01 1.92206E-03 2.69864E-01-1.63418E-14 1.69773E-13
 -1      3756 1.96191E+01 5.41297E-01-2.55069E-03 4.00470E-01 4.97065E-14 6.93379E-14
 -1      3757 1.95605E+01 6.02085E-01-2.76790E-04 4.47856E-01 5.20689E-14 8.75279E-14
 -1      3758 1.95939E+01 5.52027E-01 2.61400E-03 3.28435E-01-2.36220E-14 2.40858E-13
 -1      3759 1.94634E+01 6.63406E-01-3.16133E-03 4.88978E-01 8.53939E-14 5.96750E-14
 -1      3760 1.93851E+01 7.27953E-01-5.96315E-04 5.44480E-01 6.62865E-14-2.45338E-14
 -1      3761 1.94293E+01 6.79202E-01 3.49214E-03 3.96812E-01 1.12678E-14 7.65945E-14
 -1      3762 1.92593E+01 7.91233E-01-3.96759E-03 5.91712E-01-4.15565E-14 6.05639E-15
 -1      3763 1.91561E+01 8.56012E-01-9.26953E-04 6.55817E-01-1.03619E-13-3.24767E-14
 -1      3764 1.92154E+01 8.13887E-01 4.61655E-03 4.74390E-01-1.17370E-14-1.01945E-14
 -1      3765 1.89934E+01 9.16326E-01-5.10657E-03 7.09864E-01-1.19343E-13-7.99593E-14
 -1      3766 1.88596E+01 9.75254E-01-1.16971E-03 7.84087E-01-8.87447E-14-7.35275E-14
 -1      3767 1.89380E+01 9.49368E-01 6.07351E-03 5.61024E-01-1.16991E-13 5.34861E-14
 -1      3768 1.86489E+01 1.02436E+00-6.84266E-03 8.47341E-01-1.07947E-13-1.21621E-13
 -1      3769 1.84792E+01 1.06783E+00-1.07941E-03 9.35757E-01-7.42515E-14-7.83361E-14
 -1      3770 1.85790E+01 1.07464E+00 7.98750E-03 6.58575E-01-1.21952E-13 2.69619E-15
 -1      3771 1.82051E+01 1.09285E+00-9.56068E-03 1.01444E+00-4.46031E-14-8.75833E-14
 -1      3772 1.79959E+01 1.10644E+00-9.41354E-05 1.12661E+00 3.87636E-14-1.34754E-13
 -1      3773 1.81146E+01 1.17328E+00 1.06630E-02 7.73841E-01-7.41308E-14-2.76079E-14
 -1      3774 1.76353E+01 1.08728E+00-1.39691E-02 1.23491E+00 7.75079E-14-2.47855E-13
 -1      3775 1.73855E+01 1.04863E+00 2.02988E-03 1.39095E+00 4.48378E-14-2.03705E-13
 -1      3776 1.75109E+01 1.22240E+00 1.49055E-02 9.24739E-01-7.12115E-15-2.60436E-13
 -1      3777 1.69019E+01 9.52750E-01-2.21866E-02 1.55476E+00-1.75177E-14-2.73951E-13
 -1      3778 1.66524E+01 8.23665E-01 4.01940E-03 1.78883E+00-1.48822E-14-3.16820E-13
 -1      3779 1.67271E+01 1.19049E+00 2.54184E-02 1.15129E+00-3.99384E-14-3.00888E-13
 -1      3780 2.02506E+01 5.17910E-02-5.31544E-04-1.22473E-01 9.82395E-14-2.01654E-13
 -1      3781 2.02718E+01 9.81087E-02 1.25728E-03-1.03313E-01 8.92561E-14-1.87942E-13
 -1      3782 2.02869E+01 1.55289E-01-1.10391E-03-8.22719E-02 9.70386E-14-1.98203E-13
 -1      3783 2.03088E+01 2.28588E-01 1.64968E-03-4.74972E-02 1.03836E-13-1.91176E-13
 -1      3784 2.03202E+01 1.49840E-01-2.47581E-04-7.66753E-02 9.41088E-14-1.75007E-13
 -1      3785 1.54197E+01-1.72401E-01 9.11727E-02 3.23117E+00 7.95024E-15-3.40070E-13
 -1      3786 2.01424E+01-4.77090E-02 3.53925E-04-1.46252E-01 2.33271E-14-1.04019E-13
 -1      3787 2.01562E+01-4.60812E-02 2.53647E-04-1.46893E-01 7.14863E-14-8.87784E-14
 -1      3788 2.00562E+01 1.35308E-02 5.98451E-04-1.45893E-01 2.43235E-14-7.50004E-14
 -1      3789 2.00649E+01-3.57000E-03-3.65441E-04-1.43005E-01 1.94430E-14-9.24203E-14
 -1      3790 1.99706E+01 1.54559E-01 7.47595E-04-2.09578E-01 4.30501E-14-1.26230E-13
 -1      3791 1.99797E+01 1.26313E-01-9.20391E-04-1.91336E-01 3.29702E-14-9.47212E-14
 -1      3792 1.99351E+01 2.13891E-01 8.29572E-04-2.55089E-01 2.38352E-15-9.90510E-14
 -1      3793 1.99455E+01 1.83029E-01-1.12546E-03-2.29781E-01 4.46458E-14-1.29301E-13
 -1      3794 1.99373E+01 1.88050E-01 4.50599E-04-2.04555E-01 2.00346E-14-2.01060E-13
 -1      3795 1.98936E+01 2.76609E-01 9.43551E-04-3.15955E-01-1.34231E-13 2.81039E-14
 -1      3796 1.99056E+01 2.44291E-01-1.33958E-03-2.82727E-01-8.25756E-14-3.32242E-14
 -1      3797 1.98868E+01 2.55010E-01 6.26515E-04-2.51257E-01-7.99316E-14-6.01864E-14
 -1      3798 1.98457E+01 3.39123E-01 1.10942E-03-3.94046E-01-7.73618E-14-4.94717E-14
 -1      3799 1.98590E+01 3.07373E-01-1.55157E-03-3.52148E-01-7.78875E-14 6.38588E-15
 -1      3800 1.98273E+01 3.25290E-01 7.80330E-04-3.13480E-01-7.61910E-14-9.74287E-15
 -1      3801 1.97918E+01 3.95479E-01 1.35605E-03-4.91156E-01-4.37800E-14-1.65668E-13
 -1      3802 1.98056E+01 3.67617E-01-1.73984E-03-4.39999E-01-1.12547E-14-1.36931E-13
 -1      3803 1.97574E+01 3.94643E-01 8.78558E-04-3.93609E-01 1.23589E-14-1.27344E-13
 -1      3804 1.97348E+01 4.36371E-01 1.72857E-03-6.08940E-01-1.40186E-13-1.55649E-13
 -1      3805 1.97468E+01 4.17528E-01-1.86825E-03-5.48182E-01-1.69767E-13-2.21552E-13
 -1      3806 1.96774E+01 4.56166E-01 8.66759E-04-4.94331E-01-5.87146E-14-1.82858E-13
 -1      3807 1.96813E+01 4.48010E-01 2.29364E-03-7.48806E-01-7.56286E-14-1.26140E-13
 -1      3808 1.96873E+01 4.45710E-01-1.87698E-03-6.78484E-01-6.74873E-14-1.52565E-13
 -1      3809 1.95896E+01 4.99228E-01 6.57924E-04-6.18760E-01-1.47384E-13-2.34713E-13
 -1      3810 1.96435E+01 4.10921E-01 3.13605E-03-9.11666E-01-1.23784E-13-9.92621E-14
 -1      3811 1.96358E+01 4.35693E-01-1.66395E-03-8.32442E-01-6.57599E-14-8.36060E-14
 -1      3812 1.95003E+01 5.08256E-01 1.14394E-04-7.70592E-01-1.10629E-13-1.07440E-13
 -1      3813 1.96423E+01 2.98888E-01 4.30928E-03-1.09721E+00-1.24174E-13-1.71896E-13
 -1      3814 1.96087E+01 3.64802E-01-1.04826E-03-1.01094E+00-1.54273E-13-1.52103E-13
 -1      3815 1.94217E+01 4.61350E-01-9.88608E-04-9.54177E-01-1.24523E-13-1.39886E-13
 -1      3816 1.97114E+01 7.87610E-02 5.78487E-03-1.30180E+00-8.34377E-14-1.86712E-13
 -1      3817 1.96334E+01 2.03384E-01 2.73929E-04-1.21290E+00-8.50570E-14-1.67426E-13
 -1      3818 1.93755E+01 3.28828E-01-3.04177E-03-1.17406E+00-1.14832E-13-2.98323E-13
 -1      3819 1.99024E+01-2.87139E-01 7.32085E-03-1.51355E+00-1.48324E-13-1.80614E-13
 -1      3820 1.97536E+01-8.41676E-02 2.96795E-03-1.43182E+00-1.02023E-13-1.40816E-13
 -1      3821 1.93986E+01 7.23519E-02-6.59394E-03-1.43264E+00-1.08400E-13-2.15909E-13
 -1      3822 2.02865E+01-8.34428E-01 7.25397E-03-1.70266E+00-1.07389E-13-2.41987E-13
 -1      3823 2.00357E+01-5.35074E-01 7.85947E-03-1.64858E+00-1.26991E-13-1.51429E-13
 -1      3824 1.95494E+01-3.52421E-01-1.22845E-02-1.72428E+00-1.46207E-13-2.38799E-13
 -1      3825 2.09591E+01-1.56777E+00 5.28871E-03-1.79659E+00-1.24974E-13 4.21061E-15
 -1      3826 2.05764E+01-1.17283E+00 1.78412E-02-1.81113E+00-1.40830E-13-1.09014E-13
 -1      3827 1.99242E+01-9.97341E-01-2.13900E-02-2.02264E+00-1.61555E-13-3.82732E-14
 -1      3828 2.20246E+01-2.40892E+00 1.04887E-03-1.66450E+00-3.28695E-14 7.36191E-14
 -1      3829 2.14847E+01-1.97659E+00 3.06862E-02-1.82062E+00-3.86184E-14 3.75533E-14
 -1      3830 2.06432E+01-1.84934E+00-2.88215E-02-2.23494E+00-1.66873E-13 3.58684E-14
 -1      3831 2.28510E+01-2.83927E+00 3.80562E-02-1.52374E+00 1.49186E-14 9.64116E-15
 -1      3832 2.44169E+01-1.94059E-01-6.41497E-02 2.06289E+00 1.62167E-13-2.88910E-13
 -1      3833 2.17117E+01-2.07966E+00 3.18912E-02 2.08733E+00-2.44027E-13 1.74210E-13
 -1      3834 2.21851E+01-2.57036E+00-1.71374E-02 1.94183E+00-2.32302E-13 1.16357E-13
 -1      3835 2.08328E+01-1.23671E+00 1.56947E-02 2.12794E+00 3.96993E-14 2.14617E-13
 -1      3836 2.12239E+01-1.65897E+00 7.82397E-03 2.08576E+00-8.94211E-14 2.64527E-13
 -1      3837 2.09742E+01-1.98080E+00-2.52654E-02 2.53496E+00-1.49649E-13 3.72211E-13
 -1      3838 2.08754E+01-2.58934E+00 3.74093E-02-2.92271E+00-2.63383E-14-1.70210E-13
 -1      3839 2.18824E+01-2.89716E+00-3.95340E-02-2.24379E+00 7.19587E-14-3.78543E-14
 -1      3840 2.01762E+01-3.97554E-02 1.69617E-04-1.47286E-01 4.73347E-14-1.16976E-13
 -1      3841 2.01927E+01-2.75977E-02 5.35347E-04-1.44861E-01 5.22876E-14-1.65890E-13
 -1      3842 2.01991E+01-4.24498E-02-4.88218E-04-1.31788E-01 4.36596E-14-9.59762E-14
 -1      3843 1.61861E+01-6.28078E-02 1.97653E-02-3.08338E+00-1.32359E-14-2.00851E-13
 -1      3844 1.40183E+01-4.92274E-02 1.11880E-02-2.97202E+00-2.84171E-13-2.26760E-13
 -1      3845 1.54628E+01-9.77304E-01 6.21525E-03-3.88915E+00-2.24184E-13-6.82752E-14
 -1      3846 2.02128E+01-9.36257E-03-1.13354E-04-1.41472E-01 3.93805E-14-1.43853E-13
 -1      3847 2.02318E+01 1.71879E-02 8.71647E-04-1.32756E-01 6.85912E-14-1.63121E-13
 -1      3848 2.02402E+01-1.39590E-02-4.96629E-04-1.26642E-01 4.40326E-14-1.44017E-13
 -1      3849 2.03065E+01 1.01659E+00-5.48913E-03-2.60841E-01-1.28195E-13-2.99574E-13
 -1      3850 2.00830E+01-1.78042E-02 5.46611E-04-1.42160E-01 1.53171E-14-1.26049E-13
 -1      3851 2.00930E+01-3.00329E-02-1.82596E-04-1.42088E-01 2.05465E-14-1.41155E-13
 -1      3852 2.00883E+01-9.52631E-03-2.03879E-04-1.30690E-01 1.37861E-14-6.68542E-14
 -1      3853 2.00015E+01 1.00658E-01 6.87782E-04-1.77511E-01-4.54600E-15-1.13700E-13
 -1      3854 2.00099E+01 7.56785E-02-7.27725E-04-1.65408E-01-2.51047E-14-3.32500E-14
 -1      3855 1.99806E+01 1.26873E-01 2.71837E-04-1.71190E-01 5.31232E-14-8.88666E-14
 -1      3856 2.02024E+01 1.66022E+00-2.67501E-03-3.47222E-02-3.16039E-14-4.23966E-13
 -1      3857 2.02063E+01 1.64175E+00-3.26160E-03-1.25311E-01-6.30830E-14-4.15094E-13
 -1      3858 2.02898E+01 1.39171E+00 6.07155E-03-1.32120E-01-7.52672E-14-3.58598E-13
 -1      3859 2.02849E+01 1.42105E+00 5.10049E-03 1.67984E-03-1.62982E-14-4.12644E-13
 -1      3860 1.28826E+01 9.10008E-01 5.55489E-03-5.83975E-01-2.04573E-13 1.63307E-14
 -1      3861 1.31645E+01 6.15923E-01 3.61042E-02-1.93252E+00-3.06834E-13-8.91787E-14
 -1      3862 2.01115E+01-3.90712E-02 4.71193E-04-1.43279E-01 5.13054E-14-1.68949E-13
 -1      3863 2.01231E+01-4.52757E-02 1.89495E-05-1.44515E-01 3.35264E-14-1.27004E-13
 -1      3864 2.01233E+01-3.52609E-02-3.27953E-04-1.29981E-01 4.74605E-14-1.62814E-13
 -1      3865 2.40554E+01-3.90241E+00 1.94726E-02 2.05970E+00-2.54099E-13 2.48707E-13
 -1      3866 2.27055E+01-3.64502E+00-1.78363E-02 2.67567E+00-1.82927E-13 2.29464E-13
 -1      3867 1.51793E+01 3.06671E-01 5.87609E-02 2.47311E+00-9.83068E-14-3.48264E-13
 -1      3868 2.01602E+01-3.11973E-01 6.88317E-04 1.93382E+00-1.67019E-13 5.22800E-14
 -1      3869 2.03790E+01-6.43771E-01 5.69036E-03 1.99637E+00-4.28816E-14 9.55152E-14
 -1      3870 2.43373E+01-3.49132E+00-2.02319E-02 1.18844E+00-1.77162E-13 9.48425E-14
 -1      3871 2.24745E+01-2.95619E+00-4.17866E-03 2.17621E+00-2.05976E-13 1.91638E-13
 -1      3872 2.17147E+01-3.05085E+00 2.98258E-02 3.05937E+00-1.33316E-13 1.45565E-13
 -1      3873 1.61916E+01-7.77186E-01-3.33968E-02 3.44254E+00-7.23276E-14 5.15640E-13
 -1      3874 1.47472E+01 1.58046E-01 1.00141E-01 2.71579E+00-7.87955E-15 4.81483E-13
 -1      3875 2.02620E+01 5.22724E-01-1.36539E-03 1.53616E-01 1.96914E-13-1.92083E-13
 -1      3876 2.02814E+01 6.42611E-01 2.45620E-03 2.47735E-01 1.92464E-13-2.02019E-13
 -1      3877 2.02956E+01 7.64188E-01-3.17263E-03 2.83064E-01 1.89950E-13-2.30985E-13
 -1      3878 2.02995E+01 5.35805E-01-5.35423E-06 1.28279E-01 1.81203E-13-2.30984E-13
 -1      3879 2.03669E+01 7.08140E-01 4.90308E-03-1.46602E-01-1.30520E-13-2.91528E-13
 -1      3880 2.03536E+01 5.46327E-01-3.47265E-03-7.47443E-02-1.42402E-13-2.87172E-13
 -1      3881 2.00544E+01-7.73788E-01-1.31055E-02 2.27917E+00-5.08379E-14 1.99333E-13
 -1      3882 1.33920E+01 4.70565E-01-4.92519E-02 1.61222E+00 6.33608E-15 3.97252E-15
 -1      3883 1.29567E+01 8.63787E-01 8.37485E-02 2.77346E-02 1.10315E-13-7.91589E-14
 -1      3884 2.00295E+01 5.33553E-02 6.41499E-04-1.56950E-01-3.49937E-14 1.94192E-14
 -1      3885 2.00378E+01 3.20808E-02-5.44855E-04-1.50002E-01 2.04219E-14-4.16248E-14
 -1      3886 2.00541E+01 2.70468E-02-6.11336E-05-1.36300E-01-6.82625E-15-5.21001E-15
 -1      3887 2.00188E+01 7.28653E-02 9.55670E-05-1.49103E-01 5.49673E-15 2.14183E-14
 -1      3888 2.03128E+01 1.07156E+00 5.95388E-03 3.50446E-01 1.75620E-13-2.62288E-13
 -1      3889 1.55719E+01 2.21661E-01 9.04978E-03-2.74833E+00 3.52795E-14 6.36002E-14
 -1      3890 1.67648E+01 2.14883E-01 2.96140E-02-2.76022E+00 4.75791E-14-1.71592E-13
 -1      3891 1.68746E+01 4.75321E-01-9.73326E-04-2.47333E+00 3.32460E-14-1.65873E-14
 -1      3892 1.50817E+01 5.16059E-01-1.00912E-02-2.21743E+00-1.55128E-15 8.69773E-14
 -1      3893 2.03617E+01 4.19380E-01 1.69899E-03-2.97645E-02-1.43727E-13-2.92474E-13
 -1      3894 2.03451E+01 3.09770E-01-1.68209E-03 1.90743E-02-1.41450E-13-2.77633E-13
 -1      3895 2.03816E+01 5.37323E-01 5.90609E-04-5.48090E-02-1.51480E-13-3.15319E-13
 -1      3896 2.03163E+01 3.17699E-01-1.47195E-03-1.09129E-02 8.56338E-14-1.65429E-13
 -1      3897 2.03333E+01 4.27002E-01 1.10957E-03 4.45052E-02 1.03897E-13-1.94359E-13
 -1      3898 2.03492E+01 3.11598E-01-1.72572E-04-1.70558E-02 1.17263E-13-1.82654E-13
 -1      3899 2.03732E+01 2.99904E-01 2.49768E-04 2.22507E-02-1.32312E-13-3.03145E-13
 -1      3900 2.02817E+01 4.63025E-02-4.24907E-04-1.10542E-01 7.41884E-14-1.57265E-13
 -1      3901 1.67891E+01 9.23496E-01-2.34153E-02 1.15220E+00 6.66268E-14 7.96785E-14
 -1      3902 1.72577E+01 7.38311E-01 1.12905E-02 1.58608E+00-6.83691E-14-1.52116E-15
 -1      3903 1.54695E+01 6.42562E-01 5.54374E-03 2.07094E+00-8.74396E-14-3.62179E-13
 -1      3904 1.71852E+01 7.11529E-01 1.96335E-02-2.17888E+00 2.63477E-13 1.22022E-13
 -1      3905 1.73591E+01 8.67614E-01-3.31126E-03-1.96735E+00 3.44608E-13 3.48581E-13
 -1      3906 1.69830E+01 1.03933E+00-5.87257E-03-1.60265E+00 3.15737E-13 7.02565E-13
 -1      3907 1.63960E+01 7.23303E-01 8.79415E-03-2.11685E+00 1.34566E-13 3.93754E-13
 -1      3908 2.01600E+01-4.75734E-02-4.26249E-04-1.31469E-01 4.66265E-14-1.04181E-13
 -1      3909 2.03165E+01 9.16230E-01 4.90681E-04 2.62247E-01 1.57498E-13-2.58081E-13
 -1      3910 1.69175E+01-1.07127E+00 3.91604E-02-3.55300E+00-9.47749E-14-1.06118E-13
 -1      3911 2.52833E+01-1.17941E+00 1.80398E-03 1.50069E+00 2.09064E-13-1.24897E-13
 -1      3912 2.03255E+01 1.18176E+00-1.96661E-03-7.52282E-02-8.51406E-14-3.69531E-13
 -1      3913 2.03280E+01 1.14348E+00-3.86740E-03-1.35936E-01-1.07753E-13-3.41993E-13
 -1      3914 1.39839E+01 8.44630E-01 4.54428E-02-7.11412E-01 9.35749E-14 1.47743E-13
 -1      3915 2.06141E+01-2.42146E+00 2.12258E-02 3.21428E+00-1.58731E-13 1.93391E-13
 -1      3916 2.03284E+01 1.03647E+00-4.55119E-03 2.21701E-01 1.61945E-13-2.75091E-13
 -1      3917 2.03282E+01 1.10604E+00-1.14117E-03 1.74451E-01 1.18168E-13-3.15366E-13
 -1      3918 1.98758E+01-2.32174E+00-1.30979E-02-3.26307E+00-5.90882E-14-3.30118E-13
 -1      3919 2.04406E+01-1.98465E+00 1.20600E-02-2.58841E+00-8.01581E-14-2.06013E-13
 -1      3920 1.99619E+01-1.44778E+00 2.76475E-02-2.48663E+00-1.43944E-13-1.11628E-13
 -1      3921 1.89881E+01-1.70374E+00 2.95110E-02-3.27918E+00-8.38075E-14-2.89307E-13
 -1      3922 2.03322E+01 9.92728E-01-1.65225E-03-2.09422E-01-1.25769E-13-3.26904E-13
 -1      3923 1.45545E+01 3.77522E-01 4.75227E-02-2.27216E+00-2.20064E-13-1.87780E-13
 -1      3924 2.03260E+01 1.14660E+00-3.24594E-03 1.35171E-01 8.17422E-14-3.56852E-13
 -1      3925 2.03248E+01 1.18215E+00-1.79850E-03 7.79909E-02 3.68774E-14-3.99613E-13
 -1      3926 2.03747E+01 9.40589E-01 4.56016E-03 1.13583E-01 1.02932E-13-2.86012E-13
 -1      3927 1.32970E+01 1.09643E+00 6.89126E-02 1.24975E-01-1.81922E-13-1.25988E-13
 -1      3928 1.38912E+01 1.02923E+00 4.00464E-03-5.21398E-01-2.09027E-13 8.12544E-15
 -1      3929 1.38526E+01 9.80454E-01 8.49702E-04 8.27664E-01-1.92686E-13-3.28387E-13
 -1      3930 1.64406E+01 1.23703E+00-4.13804E-03-9.44120E-02 3.75930E-14 1.12492E-13
 -1      3931 1.65344E+01 1.20139E+00 1.83792E-02 4.54480E-01 1.33035E-13 1.22486E-13
 -1      3932 1.60836E+01 9.42160E-01-1.24973E-02 9.67532E-01 1.60842E-13 9.71254E-14
 -1      3933 1.77036E+01-1.09901E+00 7.69681E-02 3.57393E+00-2.15715E-13 4.10102E-13
 -1      3934 1.70073E+01-5.17926E-01-1.54828E-02 3.03642E+00-8.61290E-14 4.17434E-13
 -1      3935 1.87248E+01-1.70233E+00-3.98308E-02 3.55472E+00-1.86746E-13 1.57693E-13
 -1      3936 2.03398E+01 9.85921E-01-2.69735E-03-1.54191E-01-1.12681E-13-3.20841E-13
 -1      3937 1.47878E+01 4.80631E-01 2.84720E-03 1.75985E+00 2.56836E-13 1.77209E-13
 -1      3938 1.51209E+01 9.81790E-01 3.16025E-02 1.47989E+00-1.03895E-13-3.39983E-13
 -1      3939 2.03806E+01 8.29580E-01 1.71008E-03-9.42163E-02-1.32797E-13-3.26830E-13
 -1      3940 2.03806E+01 1.83650E-01 4.23158E-04 4.63573E-02-7.30782E-14-2.78530E-13
 -1      3941 2.03612E+01 1.17190E-01-6.48656E-04 6.59059E-02-7.92298E-14-2.56910E-13
 -1      3942 1.98419E+01 2.94178E-01 5.36467E-04-2.34706E-01-1.18883E-13-3.22649E-14
 -1      3943 1.98680E+01 2.55877E-01-1.29965E-03-2.08815E-01-8.21821E-14-6.38668E-14
 -1      3944 2.03964E+01 7.90308E-01-9.04169E-05-5.27295E-02-1.23588E-13-3.43522E-13
 -1      3945 2.04042E+01 6.48439E-01 5.13517E-04-6.84609E-02-1.26852E-13-3.19414E-13
 -1      3946 2.04053E+01 5.02551E-01-1.23707E-03-2.14419E-02-1.38360E-13-3.17667E-13
 -1      3947 2.03433E+01 6.47043E-02 5.63260E-04 7.43425E-02-8.42633E-14-2.36268E-13
 -1      3948 2.03210E+01 2.36918E-02-2.62049E-04 8.49012E-02-5.60942E-14-2.14200E-13
 -1      3949 2.03738E+01 1.03450E-01-7.42206E-05 5.30198E-02-6.60961E-14-2.46944E-13
 -1      3950 2.02984E+01-6.31748E-03 4.27897E-04 8.84868E-02-2.45312E-14-2.05813E-13
 -1      3951 2.02755E+01-2.77456E-02 2.00314E-05 9.33679E-02-8.43826E-15-1.73151E-13
 -1      3952 2.03305E+01 1.49212E-02-3.31236E-04 6.68612E-02-1.51503E-14-1.84944E-13
 -1      3953 2.02508E+01-4.11481E-02 2.74986E-04 9.40436E-02 1.88164E-15-1.51055E-13
 -1      3954 2.02285E+01-4.80167E-02 1.98716E-04 9.57085E-02 3.12965E-14-1.66304E-13
 -1      3955 2.02820E+01-3.20626E-02-4.27727E-04 7.30734E-02 3.39693E-15-1.31978E-13
 -1      3956 2.02033E+01-4.90452E-02 1.19133E-04 9.50546E-02 4.02731E-14-1.73359E-13
 -1      3957 2.01821E+01-4.49766E-02 2.96856E-04 9.54550E-02-2.44790E-14-1.77896E-13
 -1      3958 2.02320E+01-4.80382E-02-4.22449E-04 7.49295E-02 1.84298E-14-1.51872E-13
 -1      3959 2.01568E+01-3.65959E-02-3.89399E-05 9.47109E-02-3.56629E-14-1.56124E-13
 -1      3960 2.01364E+01-2.40522E-02 3.34363E-04 9.53664E-02-2.30182E-14-1.07676E-13
 -1      3961 2.01822E+01-4.06471E-02-3.41178E-04 7.50855E-02-2.99664E-15-1.38884E-13
 -1      3962 2.01110E+01-8.19709E-03-2.02340E-04 9.54872E-02-2.26783E-14-9.08761E-14
 -1      3963 2.00908E+01 1.12869E-02 3.24876E-04 9.75795E-02 1.76496E-14-8.19801E-14
 -1      3964 2.01327E+01-1.51433E-02-2.00517E-04 7.56094E-02 1.76200E-15-8.92194E-14
 -1      3965 2.00643E+01 3.34962E-02-3.74438E-04 9.92851E-02 1.33582E-14-1.22346E-13
 -1      3966 2.00434E+01 5.91305E-02 2.84169E-04 1.03740E-01 8.24216E-15-1.23209E-13
 -1      3967 2.00824E+01 2.51391E-02-8.98419E-06 7.80815E-02-2.94004E-15-1.26936E-13
 -1      3968 2.00145E+01 8.72125E-02-5.59444E-04 1.07610E-01 1.76790E-14-1.97049E-13
 -1      3969 1.99913E+01 1.18663E-01 1.98314E-04 1.15190E-01-4.14335E-14-1.60669E-13
 -1      3970 2.00293E+01 7.84497E-02 2.49082E-04 8.36466E-02-5.47418E-15-2.51935E-13
 -1      3971 1.99584E+01 1.52469E-01-7.81397E-04 1.21608E-01-4.75064E-14-3.40021E-14
 -1      3972 1.99311E+01 1.89849E-01 7.33546E-05 1.32835E-01-1.33687E-14-1.03662E-14
 -1      3973 1.99701E+01 1.44017E-01 5.63933E-04 9.33052E-02 1.74364E-14-1.94701E-13
 -1      3974 1.98918E+01 2.29657E-01-1.03495E-03 1.42111E-01 3.01043E-14 7.67453E-14
 -1      3975 1.98581E+01 2.73195E-01-9.63441E-05 1.57441E-01 6.91968E-14 5.99008E-14
 -1      3976 1.99010E+01 2.21709E-01 8.79016E-04 1.07328E-01 6.60093E-14 3.03724E-15
 -1      3977 1.98098E+01 3.19200E-01-1.31157E-03 1.69649E-01 7.75005E-14 5.62996E-14
 -1      3978 1.97669E+01 3.69073E-01-3.28520E-04 1.89277E-01 6.54187E-14 1.24290E-13
 -1      3979 1.98170E+01 3.12049E-01 1.32279E-03 1.26175E-01 8.96336E-14 2.32316E-14
 -1      3980 1.97064E+01 4.21425E-01-1.63378E-03 2.04258E-01-1.87797E-14 1.06566E-13
 -1      3981 1.96509E+01 4.77598E-01-6.44822E-04 2.28153E-01-1.91141E-14 1.21307E-13
 -1      3982 1.97124E+01 4.15101E-01 1.85915E-03 1.49369E-01 3.19318E-15 5.54067E-14
 -1      3983 1.95742E+01 5.36061E-01-2.01062E-03 2.45471E-01-1.72708E-14 1.84017E-13
 -1      3984 1.95017E+01 5.97976E-01-1.06969E-03 2.73315E-01 9.94715E-15 1.84332E-13
 -1      3985 1.95798E+01 5.30593E-01 2.52246E-03 1.76013E-01 3.47373E-14 9.25358E-14
 -1      3986 1.94040E+01 6.61653E-01-2.46947E-03 2.92175E-01-4.90561E-14 2.35298E-13
 -1      3987 1.93093E+01 7.27934E-01-1.62918E-03 3.23369E-01-6.24586E-14 1.16286E-13
 -1      3988 1.94108E+01 6.57164E-01 3.35620E-03 2.04410E-01-2.41448E-14 1.31122E-13
 -1      3989 1.91847E+01 7.94921E-01-3.06618E-03 3.42623E-01-1.57050E-14 5.03135E-14
 -1      3990 1.90612E+01 8.63027E-01-2.34746E-03 3.76443E-01-7.35909E-14 3.04163E-14
 -1      3991 1.91947E+01 7.91881E-01 4.42727E-03 2.31978E-01-1.08913E-13 1.64562E-13
 -1      3992 1.89017E+01 9.30005E-01-3.91275E-03 3.94753E-01-1.42351E-13 3.47473E-14
 -1      3993 1.87414E+01 9.95846E-01-3.23996E-03 4.30792E-01-1.47095E-13 5.01713E-14
 -1      3994 1.89181E+01 9.29707E-01 5.84822E-03 2.55317E-01-1.18970E-13 8.08156E-14
 -1      3995 1.85360E+01 1.05762E+00-5.22243E-03 4.47121E-01-1.81211E-13 7.23026E-14
 -1      3996 1.83283E+01 1.11506E+00-4.37611E-03 4.86256E-01-1.09304E-13 4.20183E-14
 -1      3997 1.85632E+01 1.06306E+00 7.80787E-03 2.70667E-01-1.03588E-13 3.40078E-14
 -1      3998 1.80613E+01 1.16397E+00-7.41328E-03 5.00524E-01-1.03889E-13-5.94449E-15
 -1      3999 1.77919E+01 1.20471E+00-5.75925E-03 5.46569E-01-7.71392E-14-3.55615E-14
 -1      4000 1.81052E+01 1.18116E+00 1.05676E-02 2.75084E-01-1.28357E-13 3.66096E-14
 -1      4001 1.74381E+01 1.23084E+00-1.09790E-02 5.60409E-01-9.10868E-14-1.45688E-13
 -1      4002 1.70861E+01 1.24587E+00-6.79875E-03 6.23510E-01-2.18100E-14-2.23733E-13
 -1      4003 1.75081E+01 1.27030E+00 1.48529E-02 2.66352E-01-1.30343E-13-7.50094E-14
 -1      4004 1.65984E+01 1.22968E+00-1.93621E-02 6.47404E-01-1.53263E-14-2.98810E-13
 -1      4005 1.61535E+01 1.20682E+00-8.54954E-03 7.51283E-01-6.08767E-14-2.98388E-13
 -1      4006 1.67105E+01 1.32011E+00 2.30565E-02 2.49713E-01-8.44369E-14-1.75105E-13
 -1      4007 1.77030E+01-3.78807E-01-2.92496E-02 2.73866E+00-1.50102E-13 1.32387E-13
 -1      4008 1.67204E+01 1.40505E-01 3.08327E-02 2.49125E+00 4.99063E-14 2.25340E-13
 -1      4009 2.04061E+01 3.71947E-01 4.63723E-05-2.28939E-03-1.16106E-13-2.94876E-13
 -1      4010 2.03946E+01 2.71419E-01-9.32744E-04 2.96259E-02-9.17487E-14-2.84256E-13
 -1      4011 2.04096E+01 2.50597E-01 3.76066E-04 2.54523E-02-6.85485E-14-2.39822E-13
 -1      4012 2.04247E+01 4.76544E-01 7.74206E-04-1.13046E-02-9.57423E-14-2.99154E-13
 -1      4013 2.03225E+01 1.19596E+00-2.88067E-03-2.86374E-02-6.75854E-14-3.62273E-13
 -1      4014 2.03784E+01 9.95698E-01 4.03394E-03-3.98804E-02-9.27848E-14-3.55021E-13
 -1      4015 2.03228E+01 1.19575E+00-2.73008E-03 3.16495E-02-9.73207E-15-3.98121E-13
 -1      4016 1.99062E+01 2.20100E-01 4.86781E-04-1.89174E-01 1.74557E-16-6.84429E-14
 -1      4017 1.99285E+01 1.84855E-01-1.02839E-03-1.70113E-01 1.10476E-13-1.61900E-14
 -1      4018 1.98656E+01 2.58083E-01 8.47041E-04-1.71958E-01-2.22171E-14 2.87015E-14
 -1      4019 1.96752E+01 4.49294E-01 8.31387E-04-3.73744E-01 7.73567E-14-1.70383E-13
 -1      4020 1.97107E+01 4.10251E-01-1.93793E-03-3.30670E-01 4.15187E-14-1.15053E-13
 -1      4021 1.95707E+01 5.18713E-01 1.15999E-03-4.73484E-01-7.85671E-14-1.95893E-13
 -1      4022 1.96103E+01 4.84481E-01-2.30206E-03-4.19672E-01 6.27761E-14-1.60138E-13
 -1      4023 1.95774E+01 5.10499E-01 1.68945E-03-3.52138E-01 4.89417E-14-1.47081E-13
 -1      4024 1.94539E+01 5.69347E-01 1.70616E-03-5.98902E-01-1.52374E-13-2.55316E-13
 -1      4025 1.94953E+01 5.45884E-01-2.68681E-03-5.32497E-01-1.66303E-13-2.58201E-13
 -1      4026 1.94438E+01 5.86516E-01 1.89099E-03-4.52429E-01-3.67402E-14-1.84998E-13
 -1      4027 1.93304E+01 5.85270E-01 2.59199E-03-7.55721E-01-2.00266E-13-6.22334E-14
 -1      4028 1.93688E+01 5.81145E-01-3.07233E-03-6.74387E-01-1.75955E-13-1.45311E-13
 -1      4029 1.92908E+01 6.42025E-01 1.96478E-03-5.81917E-01-2.17666E-13-2.13053E-13
 -1      4030 1.92119E+01 5.44231E-01 3.99753E-03-9.51461E-01-8.20038E-14-1.07023E-13
 -1      4031 1.92384E+01 5.71335E-01-3.40877E-03-8.52292E-01-1.04281E-13-4.70575E-14
 -1      4032 1.91217E+01 6.60145E-01 1.80439E-03-7.49197E-01-1.74775E-13-1.23458E-13
 -1      4033 1.91198E+01 4.15881E-01 6.06924E-03-1.19567E+00-9.96664E-14-1.62305E-13
 -1      4034 1.91194E+01 4.90458E-01-3.56547E-03-1.07542E+00-1.12377E-13-1.38606E-13
 -1      4035 1.89454E+01 6.17304E-01 1.19069E-03-9.66296E-01-2.26185E-14-1.15029E-13
 -1      4036 1.90911E+01 1.60163E-01 8.95880E-03-1.49838E+00-1.12554E-13-1.45060E-13
 -1      4037 1.90396E+01 3.03598E-01-3.21773E-03-1.35489E+00-8.99339E-14-1.55404E-13
 -1      4038 1.87789E+01 4.80495E-01-4.96093E-04-1.24974E+00-1.20687E-13-2.01742E-13
 -1      4039 1.91879E+01-2.74540E-01 1.23370E-02-1.86400E+00-1.68217E-13-1.11331E-13
 -1      4040 1.90499E+01-3.44847E-02-8.66649E-04-1.70014E+00-1.18482E-13-1.01616E-13
 -1      4041 1.86562E+01 2.00729E-01-4.69065E-03-1.61956E+00-1.20642E-13-1.46361E-13
 -1      4042 1.94855E+01-9.53054E-01 8.11071E-03-2.28778E+00-2.47796E-13-1.16988E-13
 -1      4043 1.92299E+01-5.68198E-01 6.50292E-03-2.11000E+00-2.62795E-13-1.57050E-13
 -1      4044 1.86401E+01-2.78445E-01-1.15376E-02-2.09137E+00-2.42790E-13-6.64056E-14
 -1      4045 2.03045E+01 3.26466E-02-3.62725E-04-9.88928E-02 4.13641E-14-1.49043E-13
 -1      4046 2.03265E+01 7.56944E-02 7.80983E-04-8.59489E-02 7.11294E-14-1.54294E-13
 -1      4047 2.02172E+01-4.62480E-02 1.97769E-04-1.13335E-01 3.90556E-14-1.06729E-13
 -1      4048 2.02379E+01-3.75195E-02 3.61071E-04-1.11522E-01 3.13633E-14-9.95791E-14
 -1      4049 2.03462E+01 7.79691E-01 3.83822E-03 1.79729E-01 1.53691E-13-2.51840E-13
 -1      4050 1.95293E+01-1.22157E+00 1.47036E-02 2.87729E+00-1.26441E-13 2.03269E-13
 -1      4051 1.99184E+01-1.76802E+00 1.03487E-02 3.03771E+00-1.84301E-13 2.15146E-13
 -1      4052 2.03432E+01 1.29952E-01-8.27766E-04-7.39784E-02 9.09684E-14-1.77851E-13
 -1      4053 2.03629E+01 1.99434E-01 9.03057E-04-5.03398E-02 1.08387E-13-1.77309E-13
 -1      4054 2.03620E+01 1.18326E-01-1.42982E-04-6.33864E-02 7.56322E-14-1.28349E-13
 -1      4055 2.02612E+01-2.23971E-02-2.43030E-05-1.10173E-01 1.39415E-14-1.16473E-13
 -1      4056 2.02831E+01 9.18145E-04 5.69379E-04-1.04280E-01 7.29058E-16-1.37388E-13
 -1      4057 2.03205E+01 2.45205E-02-3.55976E-04-8.26440E-02 7.06767E-15-1.17098E-13
 -1      4058 1.66463E+01 1.16288E+00-4.18151E-03-1.12308E+00 3.45896E-13 6.14967E-13
 -1      4059 1.65164E+01 1.24328E+00-2.11271E-03-6.62424E-01 2.06706E-13 1.46433E-13
 -1      4060 1.58930E+01 1.14489E+00-1.43334E-03-2.77237E-01 9.30281E-14 2.29352E-13
 -1      4061 1.63414E+01 1.05391E+00 1.29915E-02-1.34773E+00 3.56235E-13 6.44166E-13
 -1      4062 1.70505E+01 4.44701E-01 1.56397E-02 1.94156E+00 4.47619E-14 2.54198E-14
 -1      4063 1.75993E+01 4.64425E-01-1.86451E-02 1.90182E+00-1.53746E-13 1.20704E-14
 -1      4064 1.56223E+01 6.31943E-01-1.08183E-02 1.47826E+00 3.14681E-13 2.99762E-13
 -1      4065 1.50181E+01 1.12733E+00 5.77757E-02 4.00274E-01 2.58788E-13-7.04378E-14
 -1      4066 2.00922E+01-7.94186E-05 4.42757E-04-1.13943E-01-2.09046E-14 2.01754E-14
 -1      4067 2.01091E+01-1.69141E-02-1.96933E-04-1.12138E-01-3.83879E-14-1.99185E-14
 -1      4068 1.99609E+01 1.52377E-01 4.58918E-04-1.56337E-01 8.78565E-14-3.39905E-14
 -1      4069 1.99803E+01 1.20997E-01-7.86710E-04-1.43096E-01 1.38195E-14-2.09910E-14
 -1      4070 1.99324E+01 1.83001E-01 5.73708E-04-1.40215E-01 9.69298E-14-1.70089E-14
 -1      4071 2.01742E+01-4.69952E-02 3.32648E-04-1.12814E-01 2.93068E-14-6.46896E-14
 -1      4072 2.01934E+01-4.91029E-02 1.65769E-04-1.12722E-01 5.79037E-14-5.54926E-14
 -1      4073 2.02263E+01-4.72530E-02-4.43780E-04-9.39861E-02 5.42606E-15-7.85360E-14
 -1      4074 2.01327E+01-3.03333E-02 4.07051E-04-1.12096E-01 4.44171E-16-3.81564E-14
 -1      4075 2.01505E+01-4.06671E-02-1.82145E-05-1.11878E-01 2.78633E-14-5.22608E-14
 -1      4076 2.01333E+01-2.29772E-02-2.50942E-04-9.43780E-02-2.66421E-14 6.84359E-14
 -1      4077 1.82027E+01 2.52672E-01 2.17068E-02 2.14071E+00-1.48170E-13 2.02178E-13
 -1      4078 1.47392E+01 7.38963E-01 2.86237E-03-1.62619E+00-1.49485E-13-1.18322E-13
 -1      4079 1.55330E+01 1.55432E-01-4.66259E-03-2.55939E+00-2.12673E-13-2.05055E-13
 -1      4080 1.90414E+01-1.91547E-01-1.85846E-02 2.27459E+00-1.08100E-13 2.87996E-13
 -1      4081 1.96027E+01-3.45778E-01 2.30792E-02 2.25256E+00-5.21837E-14 1.20820E-13
 -1      4082 1.64672E+01-4.16150E-01 1.74391E-02-3.04262E+00-1.45446E-13-1.19201E-13
 -1      4083 1.77331E+01-1.22634E+00-2.42097E-02-3.34718E+00-7.17067E-14-2.08499E-13
 -1      4084 1.84891E+01-1.09760E+00 1.24221E-02-2.93256E+00-1.18915E-13-3.13262E-13
 -1      4085 1.99413E+01-1.01598E+00-8.48336E-03 2.48529E+00-1.09409E-13 3.06355E-14
 -1      4086 1.51562E+01 1.13047E+00-1.32494E-02 7.94149E-01-1.10410E-13-2.81425E-13
 -1      4087 1.97654E+01 3.72055E-01 6.40663E-04-2.95299E-01-2.08862E-14-1.37922E-13
 -1      4088 1.97962E+01 3.32149E-01-1.60248E-03-2.61455E-01-6.53523E-14-8.17383E-14
 -1      4089 1.97862E+01 3.39947E-01 1.13577E-03-2.15933E-01-8.51562E-14-1.08569E-13
 -1      4090 1.89210E+01-7.73037E-01 2.11171E-02 2.84612E+00-1.65868E-13 1.43904E-13
 -1      4091 1.84031E+01-2.22903E-01-3.92740E-03 2.45025E+00-1.41806E-13 1.76921E-13
 -1      4092 1.96910E+01 4.25710E-01 1.42433E-03-2.74834E-01-2.08587E-14-2.40054E-13
 -1      4093 2.03987E+01 7.99736E-01-1.31519E-03-2.13491E-02-9.99095E-14-3.37218E-13
 -1      4094 1.46215E+01 9.99770E-01-9.48775E-03-2.51907E-01 2.79329E-13 2.04692E-13
 -1      4095 1.47634E+01 8.93794E-01 3.33964E-02-1.44505E+00 1.24433E-13 3.46975E-13
 -1      4096 1.90530E+01-1.12673E+00-2.50846E-02-2.62995E+00-2.20242E-13-2.43022E-13
 -1      4097 2.00682E+01 1.90846E-02-3.77638E-04-1.16036E-01 2.93108E-14-9.00969E-16
 -1      4098 2.00875E+01 1.21654E-02-8.95549E-05-9.72978E-02 7.15935E-15-2.87791E-15
 -1      4099 2.00514E+01 4.13386E-02 4.52003E-04-1.20632E-01 3.00083E-14-2.06116E-15
 -1      4100 2.02740E+01-2.70610E-02-4.46555E-04-9.13762E-02 1.10089E-14-8.92822E-14
 -1      4101 2.03262E+01 5.68230E-01-2.35743E-03 1.26774E-01 1.53635E-13-2.36889E-13
 -1      4102 2.03676E+01 6.93489E-01 6.78705E-04 1.13219E-01 1.17811E-13-2.34451E-13
 -1      4103 2.32415E+01-2.91309E+00 4.65745E-02 1.48276E+00-2.39777E-13 1.94601E-13
 -1      4104 2.03925E+01 2.67753E-01 4.05366E-05-2.86161E-02 1.09510E-13-1.76528E-13
 -1      4105 2.03717E+01 2.84737E-01-1.10563E-03-2.90572E-02 1.13898E-13-2.04908E-13
 -1      4106 2.03850E+01 3.87002E-01 2.12283E-04 9.95883E-03 1.15597E-13-2.01241E-13
 -1      4107 1.52865E+01 1.26519E+00 3.04539E-02 2.02147E-01-1.10290E-13-1.90756E-13
 -1      4108 2.03813E+01 7.47747E-01-3.78351E-03 9.46352E-02 1.06948E-13-2.66067E-13
 -1      4109 2.03905E+01 7.91462E-01-1.12602E-03 6.70522E-02 6.56732E-14-2.77576E-13
 -1      4110 2.03786E+01 9.98133E-01 4.93843E-03 4.04215E-02 3.30371E-15-3.65633E-13
 -1      4111 1.99896E+01 1.16296E-01 3.05953E-04-1.18455E-01 2.00770E-14-2.56848E-14
 -1      4112 2.00084E+01 9.25039E-02 4.49887E-04-1.34128E-01 7.26623E-15 1.89294E-14
 -1      4113 2.00260E+01 6.54399E-02-5.75714E-04-1.25689E-01 2.43436E-14 1.76265E-14
 -1      4114 2.01793E+01-4.40268E-02-3.72871E-04-9.40411E-02-9.23874E-15 7.52644E-15
 -1      4115 1.47308E+01 1.09694E+00-1.08379E-02-4.60408E-01-1.73209E-13-1.01721E-13
 -1      4116 1.46794E+01 1.00954E+00 3.41155E-02-1.11924E+00-1.48818E-13-1.65844E-14
 -1      4117 1.55849E+01 8.34331E-01 9.55369E-03-1.41522E+00-1.31742E-13-1.58805E-13
 -1      4118 1.65724E+01 6.60269E-02 2.86047E-02-2.43431E+00-1.99234E-13-1.23286E-13
 -1      4119 2.03248E+01 4.71654E-01-3.96672E-04 6.37703E-02 1.36871E-13-2.18479E-13
 -1      4120 1.57301E+01 8.29694E-01 2.28412E-02-1.69146E+00 6.41599E-14 4.08585E-13
 -1      4121 2.03886E+01 5.74681E-01 2.88552E-03 6.34380E-02 9.35207E-14-2.24070E-13
 -1      4122 2.03986E+01 1.35394E-01 1.33499E-05 3.07493E-02-4.93280E-14-1.82751E-13
 -1      4123 2.03793E+01 7.82481E-02-9.96631E-06 4.19655E-02-4.30078E-14-1.77199E-13
 -1      4124 2.03573E+01 3.33126E-02 2.33521E-04 4.30296E-02-2.98403E-14-1.44861E-13
 -1      4125 2.03341E+01 9.09135E-05 2.21161E-04 4.94541E-02 1.18605E-14-1.34285E-13
 -1      4126 2.03777E+01 6.12843E-02-7.82131E-04 2.28588E-02-1.80126E-14-1.22059E-13
 -1      4127 2.03085E+01-2.39261E-02 2.35921E-04 4.90588E-02 1.63170E-14-1.41315E-13
 -1      4128 2.02838E+01-3.90003E-02 3.29924E-04 5.24163E-02 8.47476E-15-1.34587E-13
 -1      4129 2.03300E+01-9.81685E-03-9.79352E-04 2.69983E-02 8.67978E-16-1.31632E-13
 -1      4130 2.02567E+01-4.72913E-02 1.84042E-04 5.13228E-02-1.12273E-14-1.35135E-13
 -1      4131 2.02317E+01-4.87673E-02 3.67424E-04 5.29995E-02-4.03102E-15-1.52141E-13
 -1      4132 2.02778E+01-4.28595E-02-9.74324E-04 2.87557E-02-7.22415E-15-1.69877E-13
 -1      4133 2.02042E+01-4.52145E-02 9.21997E-05 5.17976E-02 2.11157E-14-1.75715E-13
 -1      4134 2.01795E+01-3.63267E-02 3.50165E-04 5.28961E-02-1.83810E-14-1.42462E-13
 -1      4135 2.02241E+01-4.72987E-02-8.23236E-04 2.93003E-02-2.24485E-14-1.68627E-13
 -1      4136 2.01517E+01-2.36094E-02-3.14163E-05 5.20246E-02-6.41457E-15-1.46742E-13
 -1      4137 2.01270E+01-6.50667E-03 2.89821E-04 5.33959E-02 3.40192E-14-1.43922E-13
 -1      4138 2.01703E+01-2.99223E-02-5.59311E-04 2.95112E-02 8.77352E-15-1.60907E-13
 -1      4139 2.00985E+01 1.36729E-02-1.81362E-04 5.31780E-02-1.68748E-14-1.67699E-13
 -1      4140 2.00730E+01 3.76913E-02 1.99439E-04 5.54600E-02-6.28374E-14-1.82902E-13
 -1      4141 2.01159E+01 4.70271E-03-2.11182E-04 3.00194E-02-1.53480E-14-1.70558E-13
 -1      4142 2.00427E+01 6.43324E-02-3.51854E-04 5.61203E-02-2.27695E-14-1.65463E-13
 -1      4143 2.00149E+01 9.47116E-02 6.23794E-05 5.97461E-02 1.45579E-14-1.75136E-13
 -1      4144 2.00591E+01 5.36429E-02 1.34637E-04 3.12158E-02-1.53592E-14-1.68991E-13
 -1      4145 1.99817E+01 1.27397E-01-4.52962E-04 6.12578E-02 6.50168E-14-1.41652E-13
 -1      4146 1.99496E+01 1.63495E-01-2.31737E-04 6.63146E-02 6.04819E-14-4.97139E-14
 -1      4147 1.99982E+01 1.15008E-01 6.62582E-04 3.34631E-02 6.60451E-14-4.72939E-14
 -1      4148 1.99107E+01 2.02611E-01-7.59024E-04 6.89843E-02 6.45348E-14-7.21043E-14
 -1      4149 1.98728E+01 2.45052E-01-3.63903E-04 7.59699E-02 8.07287E-14-4.22940E-14
 -1      4150 1.99277E+01 1.90461E-01 1.35063E-03 3.65721E-02 5.69861E-14-1.15097E-13
 -1      4151 1.98260E+01 2.89843E-01-1.04247E-03 7.91630E-02 3.62795E-14-4.08327E-14
 -1      4152 1.97791E+01 3.38414E-01-6.86545E-04 8.76594E-02 4.89037E-14-4.10577E-14
 -1      4153 1.98456E+01 2.77286E-01 2.29114E-03 4.00168E-02 5.02827E-14-2.30310E-13
 -1      4154 1.97218E+01 3.89344E-01-1.31100E-03 9.11401E-02 4.42744E-14-1.04420E-14
 -1      4155 1.96624E+01 4.43855E-01-1.11863E-03 1.00679E-01 1.86994E-14-2.94012E-15
 -1      4156 1.97451E+01 3.76300E-01 3.29293E-03 4.29128E-02 8.91996E-14-2.24478E-13
 -1      4157 1.95912E+01 5.00583E-01-1.60733E-03 1.03679E-01-1.89861E-15 1.88402E-14
 -1      4158 1.95153E+01 5.60396E-01-1.70575E-03 1.13368E-01 4.51663E-14-3.01410E-14
 -1      4159 1.96203E+01 4.86937E-01 4.50700E-03 4.37819E-02 5.94407E-14-1.81596E-13
 -1      4160 1.94264E+01 6.22060E-01-1.93423E-03 1.14656E-01 2.98111E-14-4.85278E-14
 -1      4161 1.93288E+01 6.85798E-01-2.50565E-03 1.23079E-01-6.49372E-14-3.42271E-14
 -1      4162 1.94640E+01 6.07681E-01 6.01016E-03 4.01055E-02-1.45217E-14-2.03920E-13
 -1      4163 1.92178E+01 7.50706E-01-2.30965E-03 1.20833E-01-1.60881E-13 3.50294E-15
 -1      4164 1.90920E+01 8.15971E-01-3.60195E-03 1.25987E-01-1.42582E-13-2.18383E-14
 -1      4165 1.92678E+01 7.35551E-01 7.90633E-03 2.81434E-02-9.94496E-14-1.44200E-13
 -1      4166 1.89532E+01 8.81336E-01-2.77924E-03 1.17630E-01-1.42063E-13 2.50544E-14
 -1      4167 1.87910E+01 9.44452E-01-5.12320E-03 1.16946E-01-9.26955E-14-6.74048E-15
 -1      4168 1.90213E+01 8.65602E-01 1.03558E-02 2.52324E-03-1.42273E-13-1.07858E-13
 -1      4169 1.86169E+01 1.00621E+00-3.43596E-03 9.89859E-02-4.50858E-14-1.20453E-13
 -1      4170 1.84068E+01 1.06203E+00-7.27899E-03 8.95539E-02-3.70902E-14-9.91497E-14
 -1      4171 1.87114E+01 9.90552E-01 1.36096E-02-4.42980E-02-1.26302E-13-1.72942E-13
 -1      4172 1.81865E+01 1.11506E+00-4.40519E-03 5.75674E-02-9.07283E-14-9.17054E-14
 -1      4173 1.79127E+01 1.15679E+00-1.01325E-02 3.66662E-02-1.45969E-13-7.60391E-14
 -1      4174 1.83201E+01 1.10058E+00 1.79796E-02-1.22914E-01-1.43307E-13-2.52409E-13
 -1      4175 1.76289E+01 1.19249E+00-6.32468E-03-1.28088E-02-2.11485E-13-2.27953E-14
 -1      4176 1.72703E+01 1.21058E+00-1.34779E-02-4.73390E-02-1.77098E-13-3.54067E-14
 -1      4177 1.78162E+01 1.18296E+00 2.27720E-02-2.47838E-01-1.32075E-13-1.62799E-13
 -1      4178 1.68964E+01 1.22868E+00-6.93947E-03-1.30344E-01-1.13318E-13-1.39585E-14
 -1      4179 1.64228E+01 1.21866E+00-1.39311E-02-1.68014E-01-5.44358E-14-8.81579E-14
 -1      4180 1.71544E+01 1.18706E+00 1.18816E-02-4.06670E-01-1.24176E-13 3.73299E-14
 -1      4181 1.96230E+01 4.71954E-01 1.69040E-04-2.38548E-01-5.78250E-14-1.85329E-13
 -1      4182 1.96734E+01 4.24142E-01-2.08554E-03-2.07932E-01-3.66750E-14-2.16149E-13
 -1      4183 1.91422E+01 7.14076E-01 1.44694E-03-5.29872E-01-2.39683E-13-1.73946E-13
 -1      4184 1.92174E+01 6.82003E-01-4.52143E-03-4.63042E-01-1.74832E-13-1.72188E-13
 -1      4185 1.98281E+01 2.90706E-01 9.25187E-05-1.45135E-01 1.37653E-14-2.82800E-14
 -1      4186 1.98637E+01 2.48646E-01-1.17544E-03-1.27949E-01 6.64064E-14 3.42620E-14
 -1      4187 1.80804E+01-5.27941E-01 1.18926E-02-2.60834E+00-2.46448E-13-2.12529E-13
 -1      4188 1.93283E+01 6.49128E-01 7.56241E-04-4.04727E-01-7.72518E-14-1.58109E-13
 -1      4189 1.93963E+01 6.06417E-01-3.49999E-03-3.53105E-01 3.20988E-14-1.34675E-13
 -1      4190 1.92012E+01 7.30750E-01 7.67893E-03-3.54178E-01-9.24700E-14-1.19745E-13
 -1      4191 1.94882E+01 5.64568E-01 3.66329E-04-3.10075E-01 6.23852E-14-1.92289E-13
 -1      4192 1.95474E+01 5.17257E-01-2.70838E-03-2.70201E-01 1.14951E-14-2.31272E-13
 -1      4193 1.95498E+01 5.32667E-01 4.59242E-03-1.97431E-01 1.67624E-14-2.41015E-13
 -1      4194 1.93917E+01 6.35390E-01 5.97567E-03-2.63610E-01 3.68233E-15-2.15186E-13
 -1      4195 1.89312E+01 7.42979E-01 2.59971E-03-6.95902E-01-1.22816E-13-2.19369E-13
 -1      4196 1.90099E+01 7.30036E-01-5.86028E-03-6.08981E-01-1.87705E-13-1.76231E-13
 -1      4197 1.89746E+01 8.07386E-01 9.82114E-03-4.78253E-01-1.97127E-13-1.75700E-13
 -1      4198 1.87010E+01 7.13282E-01 4.48651E-03-9.17589E-01-6.94738E-14-1.26125E-13
 -1      4199 1.87754E+01 7.31061E-01-7.63739E-03-8.03634E-01-9.40445E-14-1.57864E-13
 -1      4200 1.87090E+01 8.49349E-01 1.25532E-02-6.48846E-01-1.83766E-13-1.87141E-13
 -1      4201 1.84644E+01 5.93368E-01 7.35224E-03-1.21653E+00-8.04340E-14-1.78238E-13
 -1      4202 1.85197E+01 6.58817E-01-1.00218E-02-1.06555E+00-6.96633E-14-1.44201E-13
 -1      4203 1.84021E+01 8.34672E-01 1.57236E-02-8.84513E-01-5.35122E-14-1.64296E-13
 -1      4204 1.82447E+01 3.38004E-01 1.09684E-02-1.62981E+00-1.68055E-13-1.26809E-13
 -1      4205 1.82576E+01 4.81772E-01-1.16390E-02-1.42262E+00-1.03952E-13-1.76058E-13
 -1      4206 1.80463E+01 7.28019E-01 1.47667E-02-1.20962E+00-7.26839E-14-2.19955E-13
 -1      4207 1.81059E+01-1.13239E-01 1.86035E-02-2.17061E+00-2.46484E-13-9.00266E-14
 -1      4208 1.80456E+01 1.42923E-01-5.10458E-03-1.89975E+00-1.77848E-13-5.96558E-14
 -1      4209 1.76645E+01 4.40846E-01-2.56590E-03-1.68090E+00-1.86387E-13-2.08917E-13
 -1      4210 2.03294E+01 9.46884E-03-1.40645E-04-6.68728E-02-4.11575E-14-9.63542E-14
 -1      4211 2.03534E+01 4.64538E-02 7.15308E-04-5.85400E-02 1.56214E-14-9.13963E-14
 -1      4212 1.62196E+01 4.17752E-01 3.08199E-02 2.13804E+00 2.07630E-13 1.63392E-13
 -1      4213 1.99057E+01 2.09796E-01 1.43364E-04-1.16433E-01 1.21925E-14 2.82154E-14
 -1      4214 1.99362E+01 1.72193E-01-7.65848E-04-1.04072E-01 3.53728E-14-7.53651E-14
 -1      4215 1.98746E+01 2.44323E-01 1.61372E-03-8.98869E-02 3.27274E-14-4.51708E-14
 -1      4216 2.03722E+01 9.38897E-02-5.66901E-04-5.49145E-02 3.37297E-14-1.06963E-13
 -1      4217 2.03930E+01 1.56198E-01 7.84071E-04-4.02672E-02 5.51733E-14-1.41644E-13
 -1      4218 2.03776E+01 7.84642E-02-7.56568E-04-3.88869E-02 1.44522E-14-1.00236E-13
 -1      4219 2.03938E+01 8.11765E-01-2.73481E-03 4.64780E-02 4.74219E-14-3.11071E-13
 -1      4220 2.03976E+01 8.27578E-01-1.69014E-03 1.23681E-02-2.47622E-14-3.15299E-13
 -1      4221 2.04198E+01 6.54567E-01 3.32102E-03 3.44549E-02 5.53018E-14-2.66693E-13
 -1      4222 1.97352E+01 3.79038E-01 9.29060E-05-1.84858E-01-2.58088E-14-1.64600E-13
 -1      4223 1.97775E+01 3.33333E-01-1.58849E-03-1.61660E-01-1.50081E-15-6.13368E-14
 -1      4224 1.96799E+01 4.30310E-01 3.44930E-03-1.49228E-01 4.20738E-14-1.85446E-13
 -1      4225 2.01318E+01-1.51582E-02 3.33173E-04-7.34917E-02-1.04699E-14-8.83174E-14
 -1      4226 2.01548E+01-2.99902E-02 3.77745E-05-7.20333E-02-2.16218E-15-5.62947E-14
 -1      4227 2.02312E+01-4.90305E-02 2.60889E-04-7.29298E-02-1.58162E-14-5.64427E-14
 -1      4228 2.02556E+01-4.50354E-02 3.86590E-04-7.11083E-02 6.88966E-15-8.23249E-14
 -1      4229 1.66292E+01 4.23467E-01-1.44788E-03-1.95783E+00-1.85597E-13-2.37499E-13
 -1      4230 1.73761E+01-1.19686E-01-1.18223E-02-2.41429E+00-1.52044E-13-1.88962E-13
 -1      4231 2.01813E+01-4.07565E-02 3.25549E-04-7.28016E-02 1.76142E-15-4.52146E-14
 -1      4232 2.02049E+01-4.73630E-02 2.14116E-04-7.17717E-02-1.34818E-14-5.57745E-14
 -1      4233 2.01760E+01-3.56437E-02-7.92581E-04-5.13545E-02 1.62535E-15-1.55183E-13
 -1      4234 2.04254E+01 6.51715E-01 2.42947E-03-6.45707E-03-4.51602E-14-2.63378E-13
 -1      4235 2.02811E+01-3.47850E-02 1.15187E-04-7.18112E-02 8.72549E-15-9.24541E-14
 -1      4236 2.03059E+01-1.67100E-02 5.55448E-04-6.76776E-02-1.85173E-14-8.79556E-14
 -1      4237 2.02807E+01-3.93223E-02-1.13386E-03-5.02255E-02-3.40166E-15-8.51487E-14
 -1      4238 1.57592E+01 1.19158E+00-8.14749E-03-3.16374E-01-7.34174E-14-9.52142E-14
 -1      4239 2.03554E+01 4.59794E-01-9.21188E-04 4.42179E-02 1.05990E-13-1.86103E-13
 -1      4240 1.55481E+01 1.11004E+00-1.33711E-02-2.90991E-01 1.84111E-13 3.12333E-13
 -1      4241 1.61584E+01 1.13242E+00 1.84094E-02-7.37615E-01-1.12401E-13 7.23777E-14
 -1      4242 2.04291E+01 3.01200E-01-5.65634E-04 6.62837E-03-4.55208E-14-1.88301E-13
 -1      4243 2.04151E+01 2.10458E-01-1.09166E-04 2.45933E-02-4.22635E-14-1.86740E-13
 -1      4244 2.04166E+01 1.83331E-01-3.46262E-04 1.20157E-02-2.09745E-14-1.37597E-13
 -1      4245 2.04123E+01 2.09218E-01-2.91960E-04-2.37542E-02 6.65144E-14-1.33462E-13
 -1      4246 2.04037E+01 2.32660E-01-8.71997E-04-3.16223E-02 9.49342E-14-1.58914E-13
 -1      4247 2.04163E+01 3.28118E-01 4.49518E-04-9.01888E-03 8.49895E-14-1.92894E-13
 -1      4248 1.60030E+01 9.73408E-01-1.00528E-02-1.41459E+00 3.57364E-13 6.51173E-13
 -1      4249 1.62922E+01 7.03165E-01 3.40703E-03-1.63810E+00-1.82846E-13-2.25217E-13
 -1      4250 1.71466E+01 5.76132E-01 1.77177E-02-1.64131E+00-2.27323E-13-2.13460E-13
 -1      4251 1.72867E+01 7.15065E-01-7.99208E-03-1.37311E+00-1.51801E-13-1.95640E-13
 -1      4252 1.60737E+01 9.20927E-01-1.40310E-02-1.18004E+00-1.82004E-13-6.86950E-14
 -1      4253 2.03315E+01-2.68788E-04-1.07708E-03-4.68999E-02-1.62476E-14-7.23224E-14
 -1      4254 2.00404E+01 5.90560E-02 1.00666E-04-1.04718E-01 3.94441E-14-6.52217E-14
 -1      4255 2.00817E+01 2.43864E-02 3.12155E-04-7.67115E-02 6.82548E-14-1.36456E-13
 -1      4256 2.01047E+01 2.84508E-03-1.45991E-04-7.38167E-02 3.99329E-14-7.63648E-14
 -1      4257 2.01236E+01-5.12717E-03-4.67218E-04-5.24049E-02 3.91324E-14-1.83736E-13
 -1      4258 2.02283E+01-4.86996E-02-1.02397E-03-5.11143E-02-3.55539E-14-4.30448E-14
 -1      4259 1.99481E+01 1.62991E-01 1.22359E-04-7.22485E-02 4.03300E-14-1.98724E-13
 -1      4260 1.99714E+01 1.37785E-01 1.50947E-04-9.68718E-02 5.04927E-14-1.20858E-13
 -1      4261 1.99981E+01 1.05374E-01-4.95963E-04-8.83875E-02 7.98787E-15-1.07996E-13
 -1      4262 1.97867E+01 3.33247E-01 2.48766E-03-1.14462E-01 7.45595E-14-4.67249E-14
 -1      4263 2.04320E+01 5.23312E-01-1.16055E-03-1.19735E-02-2.87853E-14-2.51752E-13
 -1      4264 2.04342E+01 3.94632E-01 3.89805E-04 4.35336E-03-1.70322E-14-2.21228E-13
 -1      4265 2.04362E+01 3.50416E-01 8.54224E-05 6.92873E-04 2.25756E-14-1.78719E-13
 -1      4266 2.04302E+01 5.51285E-01-8.55399E-04 6.72023E-03 2.90681E-14-2.17737E-13
 -1      4267 2.03393E+01-4.85555E-03 4.84854E-04-1.04806E-02-1.02630E-14-1.22861E-13
 -1      4268 2.03137E+01-2.73984E-02 8.96088E-04-8.84106E-03-2.43490E-14-1.37288E-13
 -1      4269 2.02873E+01-4.05607E-02 5.87982E-04-1.05598E-02-2.19300E-14-1.07942E-13
 -1      4270 2.02600E+01-4.75949E-02 7.78566E-04-9.58845E-03-1.55166E-14-1.08432E-13
 -1      4271 2.02332E+01-4.74782E-02 5.51901E-04-1.05337E-02-3.50992E-14-1.41065E-13
 -1      4272 2.02054E+01-4.27474E-02 6.02277E-04-9.92287E-03-3.61945E-14-1.46286E-13
 -1      4273 2.01785E+01-3.25462E-02 4.12033E-04-1.07491E-02 1.80018E-15-1.53502E-13
 -1      4274 2.01505E+01-1.86330E-02 3.80413E-04-1.02818E-02 9.65657E-15-1.56119E-13
 -1      4275 2.01232E+01-4.79999E-04 1.95906E-04-1.15379E-02 3.01655E-15-1.25910E-13
 -1      4276 2.00945E+01 2.09676E-02 1.23597E-04-1.10839E-02 1.27660E-14-1.30423E-13
 -1      4277 2.00125E+01 9.63322E-02-4.53956E-04 4.01661E-03 4.52473E-14-6.33245E-14
 -1      4278 1.99791E+01 1.29972E-01-4.69502E-04 5.56697E-03 4.01965E-14-1.17946E-13
 -1      4279 1.99347E+01 1.75237E-01-5.47990E-04-2.15641E-02 2.32204E-14-1.45942E-13
 -1      4280 1.98949E+01 2.14869E-01-9.89452E-04-2.15759E-02 3.81887E-14-1.93826E-13
 -1      4281 1.98527E+01 2.56209E-01-1.35110E-03-3.00473E-02 6.29145E-14-2.01076E-13
 -1      4282 1.98050E+01 3.02103E-01-1.64980E-03-3.06010E-02 7.64298E-14-1.83258E-13
 -1      4283 1.97544E+01 3.48232E-01-1.97799E-03-4.28431E-02 6.94511E-14-2.25395E-13
 -1      4284 1.96957E+01 3.99608E-01-2.40693E-03-4.47819E-02 9.35070E-14-1.95724E-13
 -1      4285 1.96341E+01 4.49731E-01-2.66336E-03-6.20984E-02 9.74846E-14-2.39682E-13
 -1      4286 1.95609E+01 5.05716E-01-3.36567E-03-6.66094E-02 5.24328E-14-1.91600E-13
 -1      4287 1.94857E+01 5.58313E-01-3.45964E-03-9.08259E-02 6.70918E-15-1.90101E-13
 -1      4288 1.93940E+01 6.17285E-01-4.61301E-03-9.96312E-02-1.75814E-14-1.78650E-13
 -1      4289 1.93026E+01 6.69792E-01-4.40334E-03-1.33349E-01-4.69320E-14-9.53429E-14
 -1      4290 1.91873E+01 7.29037E-01-6.26366E-03-1.48933E-01-5.80710E-14-5.98193E-14
 -1      4291 1.90772E+01 7.77491E-01-5.54593E-03-1.95859E-01-1.61484E-13-8.26219E-14
 -1      4292 1.89322E+01 8.32879E-01-8.48242E-03-2.21739E-01-1.99380E-13-1.12207E-13
 -1      4293 1.88012E+01 8.71562E-01-6.95147E-03-2.87165E-01-2.07759E-13-1.26837E-13
 -1      4294 1.86185E+01 9.17255E-01-1.14835E-02-3.28319E-01-2.22973E-13-2.25116E-13
 -1      4295 1.84647E+01 9.38402E-01-8.59401E-03-4.19740E-01-1.78599E-13-1.78843E-13
 -1      4296 1.82335E+01 9.66649E-01-1.53381E-02-4.83483E-01-9.57069E-14-1.85818E-13
 -1      4297 1.80571E+01 9.60464E-01-9.75159E-03-6.11167E-01-7.99837E-14-2.08177E-13
 -1      4298 1.77644E+01 9.64743E-01-1.77720E-02-7.11660E-01-6.68428E-14-1.22548E-13
 -1      4299 1.75819E+01 9.33957E-01-1.43734E-03-8.75368E-01-5.52638E-14-8.51638E-14
 -1      4300 2.03901E+01 5.20357E-01 4.19232E-04 4.07934E-02 9.46454E-14-2.20141E-13
 -1      4301 2.04169E+01 5.11193E-01-1.66841E-03 2.24947E-02 5.05041E-14-2.51342E-13
 -1      4302 2.04255E+01 5.33984E-01-9.15160E-04 1.26956E-02 3.52474E-14-2.55048E-13
 -1      4303 2.03857E+01 6.92376E-02 1.84792E-04-9.94136E-03-1.33918E-14-1.50169E-13
 -1      4304 2.04061E+01 1.24177E-01 9.86362E-04-4.40403E-03 7.17070E-15-1.44417E-13
 -1      4305 1.67468E+01 1.01154E+00 1.33442E-03-9.40559E-01-1.43864E-13-4.07281E-15
 -1      4306 1.57209E+01 1.12770E+00 1.84785E-02-9.10400E-01 2.97296E-13 6.93618E-13
 -1      4307 2.03639E+01 2.60698E-02 9.24961E-04-7.18197E-03-1.14412E-15-1.18151E-13
 -1      4308 2.04206E+01 1.93810E-01-3.06199E-04-1.07290E-02 2.76957E-14-1.73644E-13
 -1      4309 2.00290E+01 7.56870E-02 2.14201E-04-8.39983E-02 6.21613E-15-7.98294E-14
 -1      4310 2.00532E+01 4.84052E-02-3.54265E-04-7.88156E-02 4.15016E-14-1.45912E-13
 -1      4311 2.00698E+01 3.96627E-02-7.85559E-05-5.55389E-02 5.00242E-14-1.47620E-13
 -1      4312 2.04379E+01 4.29959E-01 2.20982E-03 2.24286E-03 3.03339E-14-2.30136E-13
 -1      4313 2.04062E+01 4.89708E-01-2.10972E-04 2.41551E-02 8.47874E-14-2.22937E-13
 -1      4314 2.04173E+01 3.89134E-01 9.70440E-04-1.76922E-03 6.59951E-14-2.18886E-13
 -1      4315 2.04255E+01 3.51229E-01-5.26738E-04-5.69140E-03 5.47590E-14-2.27913E-13
 -1      4316 2.00123E+01 9.60886E-02 2.14058E-04-6.18295E-02 1.58116E-14-1.84718E-13
 -1      4317 2.04335E+01 2.80622E-01 1.17662E-03-2.50832E-03 3.56654E-14-1.80230E-13
 -1      4318 2.00659E+01 4.58654E-02-3.32412E-05-1.32339E-02 1.96453E-14-1.21769E-13
 -1      4319 2.00359E+01 7.41366E-02 8.23781E-05-1.29801E-02 4.47393E-14-5.07340E-14
 -1      4320 1.70960E+01 1.04581E+00 2.28146E-03-8.05893E-01-1.05256E-13-7.03331E-14
 -1      4321 1.99557E+01 1.56666E-01 4.67130E-04-5.05150E-02-4.06758E-15-1.57348E-13
 -1      4322 2.04343E+01 3.64073E-01-3.88906E-04-3.72182E-03 4.06277E-14-2.17601E-13
 -1      4323 2.00199E+01 8.82957E-02-1.47945E-04-4.17279E-02 3.50540E-14-1.25919E-13
 -1      4324 1.99904E+01 1.19899E-01 3.35048E-04-4.50257E-02 2.23527E-14-1.88536E-13
 -3
    1PSTEP                         3           1           1          
  100CL  101 1.000000000        4324                     0    1           1
 -4  TOSTRAIN    6    1
 -5  EXX         1    4    1    1
 -5  EYY         1    4    2    2
 -5  EZZ         1    4    3    3
 -5  EXY         1    4    1    2
 -5  EYZ         1    4    2    3
 -5  EZX         1    4    3    1
 -1         1 2.92636E-04-8.25093E-05-7.74097E-05-6.72426E-05-1.36260E-18 7.47655E-18
 -1         2 3.79122E-05-1.15189E-04 2.08970E-05 4.36004E-07-7.53012E-19 1.43180E-18
 -1         3 9.51298E-05-2.86855E-05-2.83481E-05-1.12666E-07-2.44219E-18-2.21340E-18
 -1         4 9.50579E-05-2.87571E-05-2.82081E-05 1.88423E-07 1.56945E-18-5.02208E-19
 -1         5 1.43339E-04-2.14778E-05-4.25247E-05 3.85313E-05-2.48445E-19 1.91482E-17
 -1         6 1.45402E-04 2.57545E-10-4.41838E-05-5.35268E-05-1.04947E-18 2.07930E-17
 -1         7 9.05986E-05-5.10620E-07-3.90646E-05-2.92559E-05-1.66548E-19 5.22783E-18
 -1         8 8.51179E-05 8.66058E-08-3.63361E-05-2.02777E-05-2.47439E-19 5.34690E-21
 -1         9 8.28118E-05 7.60666E-08-3.53495E-05-1.56470E-05-2.23127E-19-2.92589E-18
 -1        10 8.17710E-05 3.96662E-08-3.48814E-05-1.20856E-05-1.75045E-19-4.44194E-18
 -1        11 8.12560E-05 1.92190E-08-3.46542E-05-9.02079E-06-1.26205E-19-5.24705E-18
 -1        12 8.09894E-05 9.03432E-09-3.45407E-05-6.28934E-06-9.06888E-20-5.66901E-18
 -1        13 8.08495E-05 4.47613E-09-3.44837E-05-3.68856E-06-5.36253E-20-5.90965E-18
 -1        14 8.07912E-05 2.62721E-09-3.44605E-05-1.18462E-06-2.08754E-20-6.02393E-18
 -1        15 8.07933E-05 2.61333E-09-3.44612E-05 1.29004E-06 8.03441E-21-6.02426E-18
 -1        16 8.08559E-05 4.41063E-09-3.44859E-05 3.79910E-06 3.83134E-20-5.95659E-18
 -1        17 8.10008E-05 8.31263E-09-3.45444E-05 6.41181E-06 5.47478E-20-5.82600E-18
 -1        18 8.12732E-05 1.81022E-08-3.46592E-05 9.16221E-06 1.03351E-19-5.48008E-18
 -1        19 8.17967E-05 3.81774E-08-3.48897E-05 1.22651E-05 1.53227E-19-4.80110E-18
 -1        20 8.28320E-05 8.15761E-08-3.53619E-05 1.58778E-05 2.29334E-19-3.45856E-18
 -1        21 8.50831E-05 1.69623E-07-3.63746E-05 2.04884E-05 2.60754E-19-6.47352E-19
 -1        22 9.16363E-05-9.92668E-08-3.87362E-05 2.80029E-05 5.07161E-20 5.25540E-18
 -1        23 1.12965E-04-3.81230E-05-3.53940E-05-4.40346E-06-6.88664E-19 1.69345E-17
 -1        24 9.27931E-05-2.76936E-05-2.89958E-05 3.91084E-07-1.73758E-19 1.36078E-17
 -1        25 8.91045E-05-2.68476E-05-2.69249E-05 3.75687E-07-9.67553E-20 1.00773E-17
 -1        26 8.79979E-05-2.64830E-05-2.63865E-05 2.04030E-07-3.99934E-20 7.42697E-18
 -1        27 8.80209E-05-2.64604E-05-2.63774E-05 1.39722E-07-8.85952E-20 5.73214E-18
 -1        28 8.85501E-05-2.65954E-05-2.65456E-05 1.00572E-07-4.75536E-20 4.67450E-18
 -1        29 8.92996E-05-2.68065E-05-2.67766E-05 7.47788E-08 1.31865E-19 4.06520E-18
 -1        30 9.01186E-05-2.70446E-05-2.70249E-05 5.63511E-08 6.29067E-20 3.73967E-18
 -1        31 9.09231E-05-2.72815E-05-2.72676E-05 4.24331E-08 3.77953E-21 2.47150E-18
 -1        32 9.16673E-05-2.75022E-05-2.74919E-05 3.15922E-08-6.75642E-20 1.56530E-18
 -1        33 9.23297E-05-2.76995E-05-2.76917E-05 2.30304E-08 1.85062E-19 1.25588E-18
 -1        34 9.29047E-05-2.78713E-05-2.78654E-05 1.62476E-08-6.27456E-20 6.02518E-19
 -1        35 9.33977E-05-2.80190E-05-2.80144E-05 1.09007E-08 1.80587E-19 3.26845E-19
 -1        36 9.38217E-05-2.81464E-05-2.81429E-05 6.74532E-09-4.24679E-20 1.04145E-18
 -1        37 9.41957E-05-2.82591E-05-2.82563E-05 3.61170E-09-4.15865E-19 6.49922E-19
 -1        38 9.45433E-05-2.83641E-05-2.83620E-05 1.39933E-09 2.38722E-19 3.33180E-20
 -1        39 9.48933E-05-2.84701E-05-2.84685E-05 8.15862E-11-1.87373E-19 1.82300E-19
 -1        40 9.52797E-05-2.85872E-05-2.85863E-05-2.81087E-10 9.01051E-20-6.61264E-19
 -1        41 9.57432E-05-2.87277E-05-2.87275E-05 4.81093E-10-9.45782E-20-1.34077E-18
 -1        42 9.63329E-05-2.89063E-05-2.89072E-05 2.68122E-09-3.56156E-19-2.15751E-18
 -1        43 9.71081E-05-2.91407E-05-2.91433E-05 6.82504E-09-1.47547E-19-2.88759E-18
 -1        44 9.81405E-05-2.94524E-05-2.94575E-05 1.36782E-08 6.49142E-20-2.89895E-18
 -1        45 9.95162E-05-2.98669E-05-2.98759E-05 2.43477E-08 1.09310E-20-1.74769E-18
 -1        46 1.01335E-04-3.04139E-05-3.04287E-05 4.03510E-08-1.47694E-19-3.20255E-18
 -1        47 1.03707E-04-3.11258E-05-3.11486E-05 6.35931E-08 2.22445E-20-3.17824E-18
 -1        48 1.06740E-04-3.20337E-05-3.20662E-05 9.60393E-08-3.22700E-20-2.30700E-18
 -1        49 1.10504E-04-3.31581E-05-3.31997E-05 1.38614E-07 1.37414E-19-2.08172E-18
 -1        50 1.14977E-04-3.44909E-05-3.45340E-05 1.88425E-07-3.08297E-19-2.74301E-18
 -1        51 1.19924E-04-3.59630E-05-3.59854E-05 2.33038E-07-1.05002E-19-1.22653E-18
 -1        52 1.24741E-04-3.73962E-05-3.73535E-05 2.41189E-07 2.61798E-19-4.15231E-19
 -1        53 1.28263E-04-3.84493E-05-3.82781E-05 1.53996E-07 8.09429E-20-7.20974E-19
 -1        54 1.28730E-04-3.86024E-05-3.82577E-05-1.05874E-07 2.99401E-19-1.01179E-18
 -1        55 1.24228E-04-3.72790E-05-3.68198E-05-5.71234E-07-3.69750E-19-6.42077E-19
 -1        56 1.13974E-04-3.42200E-05-3.38901E-05-1.10141E-06 4.87903E-19-5.30613E-19
 -1        57 1.00126E-04-3.00400E-05-3.01920E-05-1.31092E-06 5.01950E-20-1.72705E-18
 -1        58 8.83007E-05-2.64368E-05-2.71774E-05-8.30446E-07 2.19709E-19-3.88185E-18
 -1        59 8.47242E-05-2.53424E-05-2.62777E-05 2.00709E-07 3.28152E-19-4.17692E-18
 -1        60 9.13554E-05-2.73714E-05-2.79188E-05 1.08537E-06-7.28703E-19-4.68912E-18
 -1        61 1.04128E-04-3.12520E-05-3.11984E-05 1.28564E-06 5.71103E-19-5.00967E-18
 -1        62 1.16479E-04-3.49658E-05-3.45503E-05 9.00024E-07-1.69585E-19-6.23173E-18
 -1        63 1.23936E-04-3.71790E-05-3.67407E-05 3.58325E-07 9.30115E-20-3.38204E-18
 -1        64 1.25596E-04-3.76545E-05-3.73678E-05-4.05069E-08-6.75161E-20-3.99656E-18
 -1        65 1.22844E-04-3.68242E-05-3.66975E-05-2.37200E-07-1.44533E-19-3.37811E-18
 -1        66 1.17632E-04-3.52708E-05-3.52461E-05-2.92565E-07 4.61424E-19-4.57549E-18
 -1        67 1.11553E-04-3.34625E-05-3.34856E-05-2.78600E-07 1.02481E-18-3.18311E-18
 -1        68 1.05649E-04-3.17054E-05-3.17507E-05-2.38682E-07-5.26396E-19-9.35773E-19
 -1        69 1.00585E-04-3.01938E-05-3.02642E-05-1.83396E-07 1.08715E-18-1.05264E-19
 -1        70 9.68968E-05-2.90800E-05-2.91864E-05-7.67632E-08-4.73633E-19-1.74044E-18
 -1        71 9.51047E-05-2.84929E-05-2.85933E-05 8.36999E-08-1.58607E-19-2.17026E-18
 -1        72 1.02169E-04-3.05844E-05-3.41470E-05-1.92843E-06 3.20840E-19 1.69422E-17
 -1        73 9.25491E-05-2.75095E-05-2.89040E-05-3.33106E-07 1.48833E-19 1.21301E-17
 -1        74 8.90924E-05-2.66972E-05-2.69681E-05-1.25870E-07 1.17853E-19 8.66181E-18
 -1        75 8.80282E-05-2.64340E-05-2.64304E-05-9.54563E-08 3.20280E-20 6.35637E-18
 -1        76 8.80555E-05-2.64403E-05-2.64040E-05-7.64450E-08 2.78789E-20 4.65571E-18
 -1        77 8.85840E-05-2.65898E-05-2.65627E-05-6.22877E-08 1.01688E-19 3.04340E-18
 -1        78 8.93311E-05-2.68079E-05-2.67890E-05-5.13890E-08-1.47350E-19 2.53155E-18
 -1        79 9.01471E-05-2.70493E-05-2.70346E-05-4.23541E-08 3.30652E-20 1.93508E-18
 -1        80 9.09485E-05-2.72879E-05-2.72753E-05-3.45114E-08-2.02767E-20 3.60997E-19
 -1        81 9.16898E-05-2.75092E-05-2.74983E-05-2.75968E-08 1.60293E-19-6.63200E-19
 -1        82 9.23498E-05-2.77065E-05-2.76971E-05-2.14915E-08-2.83777E-20-1.43750E-18
 -1        83 9.29234E-05-2.78782E-05-2.78702E-05-1.61195E-08 1.68385E-19-2.15542E-18
 -1        84 9.34160E-05-2.80259E-05-2.80193E-05-1.14155E-08-1.46308E-19-1.99221E-18
 -1        85 9.38409E-05-2.81533E-05-2.81481E-05-7.31939E-09 7.58935E-20-1.90438E-18
 -1        86 9.42166E-05-2.82662E-05-2.82623E-05-3.78239E-09 6.55807E-20-3.59995E-18
 -1        87 9.45666E-05-2.83713E-05-2.83690E-05-7.79664E-10-2.38407E-19-3.66664E-18
 -1        88 9.49180E-05-2.84770E-05-2.84763E-05 1.67286E-09-7.24393E-20-3.04417E-18
 -1        89 9.53022E-05-2.85926E-05-2.85936E-05 3.49782E-09 4.78076E-19-5.08037E-18
 -1        90 9.57543E-05-2.87284E-05-2.87315E-05 4.53202E-09-3.36180E-19-5.98379E-18
 -1        91 9.63130E-05-2.88962E-05-2.89017E-05 4.49883E-09 6.91192E-21-3.01960E-18
 -1        92 9.70199E-05-2.91081E-05-2.91166E-05 2.98077E-09-6.18959E-20-3.30227E-18
 -1        93 9.79169E-05-2.93768E-05-2.93885E-05-5.99315E-10-1.47580E-19-3.41865E-18
 -1        94 9.90419E-05-2.97133E-05-2.97285E-05-6.96854E-09 3.64654E-19-5.74649E-18
 -1        95 1.00421E-04-3.01253E-05-3.01436E-05-1.69256E-08-1.29302E-19-7.55864E-18
 -1        96 1.02054E-04-3.06129E-05-3.06328E-05-3.11202E-08-6.81452E-21-4.42617E-18
 -1        97 1.03900E-04-3.11633E-05-3.11812E-05-4.95736E-08-2.79483E-19-2.66198E-18
 -1        98 1.05843E-04-3.17429E-05-3.17521E-05-7.07975E-08 3.51660E-19-1.63909E-18
 -1        99 1.07671E-04-3.22887E-05-3.22788E-05-9.04318E-08-1.17534E-19-3.30008E-18
 -1       100 1.09044E-04-3.27013E-05-3.26582E-05-9.96592E-08 2.16219E-19-2.64429E-18
 -1       101 1.09502E-04-3.28446E-05-3.27549E-05-8.45058E-08 1.36322E-19-4.53275E-18
 -1       102 1.08524E-04-3.25635E-05-3.24234E-05-2.85042E-08 6.81018E-21-6.69412E-18
 -1       103 1.05688E-04-3.17295E-05-3.15584E-05 7.81771E-08-2.77075E-19-4.54622E-18
 -1       104 1.00936E-04-3.03178E-05-3.01679E-05 2.23092E-07 1.17153E-19-2.77734E-18
 -1       105 9.48560E-05-2.84933E-05-2.84405E-05 3.58841E-07 1.13989E-19-3.05819E-18
 -1       106 8.87691E-05-2.66464E-05-2.67512E-05 4.12234E-07-5.92362E-19-1.06690E-18
 -1       107 8.44123E-05-2.53056E-05-2.55622E-05 3.27785E-07 2.51147E-19-3.20798E-18
 -1       108 8.32020E-05-2.49152E-05-2.52343E-05 1.18956E-07 3.57350E-19-5.78074E-18
 -1       109 8.54905E-05-2.55968E-05-2.58522E-05-1.27168E-07 2.04166E-19-2.87932E-18
 -1       110 9.03589E-05-2.70740E-05-2.71798E-05-3.05711E-07-4.42346E-19-1.94315E-18
 -1       111 9.61138E-05-2.88251E-05-2.87758E-05-3.62117E-07 3.42831E-19-2.91312E-18
 -1       112 1.01103E-04-3.03407E-05-3.01931E-05-3.10721E-07-4.89267E-19-2.80862E-18
 -1       113 1.04300E-04-3.13083E-05-3.11333E-05-2.03242E-07 8.85628E-19-2.39694E-18
 -1       114 1.05434E-04-3.16485E-05-3.14971E-05-8.89647E-08 1.18814E-19-2.88651E-18
 -1       115 1.04785E-04-3.14507E-05-3.13451E-05 4.45247E-09 4.47605E-19-6.57570E-18
 -1       116 1.02907E-04-3.08839E-05-3.08275E-05 6.93020E-08-4.86955E-20-7.13224E-18
 -1       117 1.00420E-04-3.01343E-05-3.01254E-05 1.07613E-07 6.71063E-20-8.83934E-18
 -1       118 9.79225E-05-2.93793E-05-2.94193E-05 1.20261E-07 2.80975E-19-1.00294E-17
 -1       119 9.59866E-05-2.87901E-05-2.88695E-05 9.10165E-08 1.10187E-19-9.87600E-18
 -1       120 9.51179E-05-2.84959E-05-2.85621E-05-2.83716E-08 5.01734E-19-6.21882E-18
 -1       121 9.52541E-05-2.86220E-05-2.85703E-05-7.15086E-08-4.24049E-18 1.39814E-18
 -1       122 9.49785E-05-2.77436E-05-2.88887E-05 3.44251E-08-8.56863E-19-2.73315E-19
 -1       123 9.43710E-05-2.57162E-05-2.94822E-05 9.63968E-08 2.03799E-18 7.40277E-20
 -1       124 9.35241E-05-2.28829E-05-3.03100E-05 1.31430E-07 2.17045E-18 9.09443E-19
 -1       125 9.25385E-05-1.95735E-05-3.12803E-05 1.51146E-07 3.05495E-18-1.26815E-18
 -1       126 9.15388E-05-1.62092E-05-3.22646E-05 1.54155E-07-3.58880E-18-3.10435E-19
 -1       127 9.06186E-05-1.31135E-05-3.31650E-05 1.35448E-07-5.41279E-18 1.18492E-18
 -1       128 8.99361E-05-1.08156E-05-3.38276E-05 9.09228E-08 7.17228E-19 1.00647E-18
 -1       129 8.96178E-05-9.74309E-06-3.41311E-05 2.38654E-08 1.70565E-18-8.32085E-19
 -1       130 8.97457E-05-1.01712E-05-3.39989E-05-5.53871E-08 1.64755E-18 9.35677E-19
 -1       131 9.03282E-05-1.21338E-05-3.34235E-05-1.34416E-07-1.02907E-18-1.63531E-18
 -1       132 9.12788E-05-1.53299E-05-3.24942E-05-1.90205E-07-2.36127E-18 2.58116E-18
 -1       133 9.24816E-05-1.93729E-05-3.13274E-05-2.19851E-07-7.60940E-19-9.77064E-19
 -1       134 9.37146E-05-2.35281E-05-3.01434E-05-2.17882E-07 3.12204E-19 1.97060E-19
 -1       135 9.47199E-05-2.68670E-05-2.91777E-05-1.54487E-07 8.68080E-19-2.33195E-19
 -1       136 9.51682E-05-2.85011E-05-2.85977E-05 1.80359E-07-1.88553E-19 4.41486E-19
 -1       137 2.61108E-05-8.96451E-05 1.62568E-05-2.44138E-05 6.25788E-18 1.87830E-18
 -1       138 8.37429E-06-3.25165E-05 2.65603E-06-1.52641E-05 7.17056E-18 2.09429E-18
 -1       139 1.36960E-05 1.65622E-05-1.61020E-05 2.74744E-05 6.76483E-18 6.05247E-18
 -1       140 6.95657E-05 2.57555E-05-3.85775E-05 8.63888E-05 7.85242E-18 1.04520E-17
 -1       141 1.57504E-04-8.04291E-06-5.70864E-05 1.14387E-04 7.15171E-18 1.30223E-17
 -1       142 2.50432E-04-5.91482E-05-7.14410E-05 9.43243E-05 3.84278E-18 1.30443E-17
 -1       143 3.04617E-04-9.27971E-05-7.85227E-05 2.86071E-05 9.98070E-19 7.21693E-18
 -1       144 2.92091E-04-8.50197E-05-7.69295E-05-5.40004E-05 6.16631E-19-3.57448E-18
 -1       145 2.16677E-04-3.97501E-05-6.66248E-05-1.07820E-04 3.65791E-18-7.87444E-18
 -1       146 1.15355E-04 1.08017E-05-4.91931E-05-1.06740E-04 7.45664E-18-1.19000E-17
 -1       147 3.80353E-05 2.95032E-05-2.90485E-05-6.24434E-05 6.98463E-18-6.75678E-18
 -1       148 5.59603E-06 2.90588E-06-8.64846E-06-7.09839E-06 9.67227E-18-5.66199E-18
 -1       149 1.24246E-05-5.02727E-05 7.42055E-06 2.29591E-05 1.39019E-17-5.16807E-18
 -1       150 3.12040E-05-9.96859E-05 1.80527E-05 1.85962E-05 1.20156E-17-2.53753E-18
 -1       151 3.60047E-05-1.11062E-04 2.02762E-05-9.40461E-06 3.49872E-18 4.09435E-19
 -1       152 2.24609E-05-8.07562E-05 1.42502E-05-2.70936E-05-6.27058E-18-1.28384E-18
 -1       153 6.01864E-06-2.77480E-05 1.42036E-06-1.60668E-05-1.14515E-17-6.74683E-18
 -1       154 1.89574E-05 1.58708E-05-1.82292E-05 3.10761E-05-1.28639E-17-9.62568E-18
 -1       155 7.36993E-05 2.27553E-05-3.92824E-05 8.56520E-05-8.87818E-18-1.03516E-17
 -1       156 1.68904E-04-1.44067E-05-5.90230E-05 1.14139E-04-5.45320E-18-1.05384E-17
 -1       157 2.66947E-04-6.77166E-05-7.38591E-05 8.87817E-05-1.93007E-18-6.64370E-18
 -1       158 3.17955E-04-9.81918E-05-8.05713E-05 1.32866E-05-7.06743E-21 6.68468E-19
 -1       159 2.13347E-04-3.63378E-05-6.64682E-05-1.11969E-04-5.38882E-18 1.16120E-17
 -1       160 1.19212E-04 8.88958E-06-5.00062E-05-1.07171E-04-1.07404E-17 1.46600E-17
 -1       161 4.43310E-05 2.69337E-05-3.06920E-05-6.54790E-05-8.52666E-18 1.15175E-17
 -1       162 7.48619E-06 4.05147E-06-1.00765E-05-9.92310E-06-6.31294E-18 4.75101E-18
 -1       163 1.09966E-05-4.64524E-05 6.24937E-06 2.25024E-05-8.06333E-18 2.64899E-18
 -1       164 2.77399E-05-9.41206E-05 1.71125E-05 2.43558E-05-1.17020E-17 2.45849E-18
 -1       165 9.48592E-05-1.23441E-05-3.55665E-05-2.23544E-05-2.79686E-18 2.31780E-18
 -1       166 8.92433E-05-8.45491E-06-3.47854E-05-1.73976E-05-2.84935E-18-9.98692E-19
 -1       167 8.65466E-05-6.50525E-06-3.44152E-05-1.35902E-05-2.39734E-18-2.89381E-18
 -1       168 8.51920E-05-5.51520E-06-3.42312E-05-1.03788E-05-1.93243E-18-3.97746E-18
 -1       169 8.44538E-05-4.94773E-06-3.41430E-05-7.55213E-06-1.42439E-18-4.49534E-18
 -1       170 8.40285E-05-4.60230E-06-3.41014E-05-4.90689E-06-9.62981E-19-4.80641E-18
 -1       171 8.38116E-05-4.41819E-06-3.40839E-05-2.39694E-06-4.83412E-19-4.93955E-18
 -1       172 8.37478E-05-4.36261E-06-3.40793E-05 5.12523E-08-1.30641E-19-5.09157E-18
 -1       173 8.38216E-05-4.42667E-06-3.40846E-05 2.50158E-06 2.77852E-19-5.02935E-18
 -1       174 8.40501E-05-4.62138E-06-3.41028E-05 5.01831E-06 7.26325E-19-4.97764E-18
 -1       175 8.44804E-05-4.97383E-06-3.41439E-05 7.62898E-06 1.18305E-18-4.64192E-18
 -1       176 8.52530E-05-5.57544E-06-3.42325E-05 1.05192E-05 1.80416E-18-4.12935E-18
 -1       177 8.66451E-05-6.60842E-06-3.44177E-05 1.37904E-05 2.37700E-18-3.32048E-18
 -1       178 8.93864E-05-8.59890E-06-3.47902E-05 1.76296E-05 2.75783E-18-1.52752E-18
 -1       179 9.57711E-05-1.36113E-05-3.54228E-05 2.18995E-05 2.84799E-18 1.96853E-18
 -1       180 1.05595E-04-2.60987E-05-3.52601E-05 1.86672E-05 2.24844E-18 6.71072E-18
 -1       181 1.03388E-04-2.72985E-05-3.26076E-05-1.21313E-05-2.39549E-18 5.91311E-18
 -1       182 9.70961E-05-2.82863E-05-2.95253E-05-4.73543E-06-2.05805E-18 4.66481E-18
 -1       183 9.34923E-05-2.76320E-05-2.81779E-05-1.77329E-06-1.65089E-18 3.64447E-18
 -1       184 9.19546E-05-2.74008E-05-2.76305E-05-4.25631E-07-1.21905E-18 2.46470E-18
 -1       185 9.13755E-05-2.73247E-05-2.74321E-05 2.37544E-07-6.59610E-19 1.71126E-18
 -1       186 9.13302E-05-2.73624E-05-2.74061E-05 5.62791E-07-5.11517E-19 1.41327E-18
 -1       187 9.15706E-05-2.74640E-05-2.74703E-05 7.01576E-07-2.12631E-19 8.98451E-19
 -1       188 9.19521E-05-2.75954E-05-2.75797E-05 7.33227E-07-5.17479E-19 6.21884E-19
 -1       189 9.23886E-05-2.77352E-05-2.77079E-05 7.04161E-07-6.13658E-19 6.45498E-19
 -1       190 9.28299E-05-2.78713E-05-2.78394E-05 6.43644E-07-3.70498E-19 3.16148E-19
 -1       191 9.32488E-05-2.79970E-05-2.79653E-05 5.70982E-07-3.26454E-19-5.48103E-19
 -1       192 9.36337E-05-2.81101E-05-2.80819E-05 4.99325E-07-5.51963E-20-4.44092E-19
 -1       193 9.39835E-05-2.82108E-05-2.81886E-05 4.37976E-07 1.68133E-19-5.30841E-19
 -1       194 9.43051E-05-2.83017E-05-2.82873E-05 3.93930E-07-5.11020E-20-2.88868E-19
 -1       195 9.46115E-05-2.83867E-05-2.83819E-05 3.72998E-07-4.89401E-19 9.70766E-21
 -1       196 9.49206E-05-2.84711E-05-2.84778E-05 3.80680E-07-1.37743E-19-8.07130E-19
 -1       197 9.52553E-05-2.85616E-05-2.85820E-05 4.22872E-07-1.78272E-19-1.02585E-18
 -1       198 9.56434E-05-2.86662E-05-2.87029E-05 5.06442E-07-2.03898E-19-1.37440E-18
 -1       199 9.61185E-05-2.87945E-05-2.88509E-05 6.39698E-07-9.74045E-19-1.67414E-18
 -1       200 9.67204E-05-2.89577E-05-2.90381E-05 8.32685E-07-2.75872E-19-2.04736E-18
 -1       201 9.74960E-05-2.91696E-05-2.92789E-05 1.09717E-06-2.46888E-19-1.56994E-18
 -1       202 9.84998E-05-2.94460E-05-2.95898E-05 1.44604E-06 1.55872E-19-1.60352E-18
 -1       203 9.97930E-05-2.98058E-05-2.99890E-05 1.89144E-06-1.53425E-19-1.58530E-18
 -1       204 1.01441E-04-3.02703E-05-3.04958E-05 2.44050E-06-5.54666E-20-1.15192E-18
 -1       205 1.03506E-04-3.08633E-05-3.11268E-05 3.08671E-06 8.19860E-20-1.44464E-18
 -1       206 1.06032E-04-3.16093E-05-3.18916E-05 3.79360E-06 9.81351E-20-7.71410E-19
 -1       207 1.09024E-04-3.25305E-05-3.27825E-05 4.46705E-06-2.03590E-19-1.29766E-18
 -1       208 1.12398E-04-3.36387E-05-3.37600E-05 4.91436E-06 6.16376E-19-1.21630E-18
 -1       209 1.15931E-04-3.49169E-05-3.47339E-05 4.79900E-06 9.52289E-19-2.25830E-19
 -1       210 1.19178E-04-3.62779E-05-3.55484E-05 3.63039E-06-5.50922E-19-3.35892E-19
 -1       211 1.21416E-04-3.74846E-05-3.59913E-05 8.85979E-07-2.74756E-20-1.99953E-19
 -1       212 1.21681E-04-3.80433E-05-3.58579E-05-3.58138E-06-1.53306E-19-2.54605E-19
 -1       213 1.19065E-04-3.72135E-05-3.50804E-05-8.80975E-06 2.10438E-19-5.58671E-19
 -1       214 1.13487E-04-3.44730E-05-3.38620E-05-1.22118E-05-2.43161E-19-2.84193E-19
 -1       215 1.06723E-04-3.05505E-05-3.26732E-05-1.05972E-05-9.85443E-19-9.88104E-19
 -1       216 1.02330E-04-2.78157E-05-3.19951E-05-3.25613E-06-9.95171E-19-3.17038E-18
 -1       217 1.03139E-04-2.84295E-05-3.20744E-05 5.90946E-06-8.49653E-19-5.57037E-18
 -1       218 1.08393E-04-3.18001E-05-3.28471E-05 1.12972E-05-1.01916E-18-5.05377E-18
 -1       219 1.14571E-04-3.53419E-05-3.39567E-05 1.07086E-05 4.23516E-20-4.79245E-18
 -1       220 1.18611E-04-3.72124E-05-3.48909E-05 6.17530E-06 1.17286E-18-3.16140E-18
 -1       221 1.19509E-04-3.72710E-05-3.52619E-05 9.32947E-07-3.61432E-19-3.87456E-18
 -1       222 1.17765E-04-3.62123E-05-3.49728E-05-3.02941E-06 7.45640E-19-3.47897E-18
 -1       223 1.14370E-04-3.46997E-05-3.41616E-05-5.23811E-06-2.44131E-19-1.94298E-18
 -1       224 1.10232E-04-3.31207E-05-3.30565E-05-6.01060E-06 1.28215E-18-2.06180E-18
 -1       225 1.06020E-04-3.16513E-05-3.18722E-05-5.82223E-06 1.31770E-18-3.04785E-18
 -1       226 1.02177E-04-3.03586E-05-3.07735E-05-5.01348E-06 3.80043E-19-2.32727E-18
 -1       227 9.89984E-05-2.92663E-05-2.98770E-05-3.73130E-06 5.15828E-19-3.60544E-18
 -1       228 9.66076E-05-2.83884E-05-2.92311E-05-2.02438E-06 1.49741E-19-9.70933E-19
 -1       229 9.94899E-05-2.85511E-05-3.05840E-05 7.21486E-06 2.24314E-18 5.65924E-18
 -1       230 9.44033E-05-2.77869E-05-2.85205E-05 2.74720E-06 1.69464E-18 4.06810E-18
 -1       231 9.20803E-05-2.73961E-05-2.76767E-05 9.33647E-07 1.23388E-18 2.75723E-18
 -1       232 9.11289E-05-2.72329E-05-2.73570E-05 7.18060E-08 9.94986E-19 1.67402E-18
 -1       233 9.09141E-05-2.72248E-05-2.72819E-05-3.55726E-07 7.03559E-19 1.02859E-18
 -1       234 9.10946E-05-2.73097E-05-2.73296E-05-5.56376E-07 2.72403E-19 4.68022E-19
 -1       235 9.14756E-05-2.74419E-05-2.74394E-05-6.29723E-07 6.72371E-19-7.41423E-20
 -1       236 9.19429E-05-2.75922E-05-2.75769E-05-6.30106E-07 7.18470E-19-2.24614E-19
 -1       237 9.24297E-05-2.77433E-05-2.77217E-05-5.90307E-07 5.81949E-19-1.13941E-18
 -1       238 9.28985E-05-2.78857E-05-2.78621E-05-5.31353E-07 4.87307E-19-1.60136E-18
 -1       239 9.33308E-05-2.80148E-05-2.79924E-05-4.67256E-07 4.68087E-19-1.64457E-18
 -1       240 9.37214E-05-2.81298E-05-2.81106E-05-4.07630E-07-5.52151E-20-1.73228E-18
 -1       241 9.40740E-05-2.82322E-05-2.82178E-05-3.59314E-07-6.21026E-20-2.10613E-18
 -1       242 9.43991E-05-2.83255E-05-2.83171E-05-3.27450E-07 4.36346E-19-1.70959E-18
 -1       243 9.47121E-05-2.84144E-05-2.84131E-05-3.16226E-07 8.44030E-20-1.95239E-18
 -1       244 9.50329E-05-2.85048E-05-2.85117E-05-3.29368E-07 5.89999E-20-2.71276E-18
 -1       245 9.53847E-05-2.86037E-05-2.86199E-05-3.70396E-07 1.14024E-18-2.81749E-18
 -1       246 9.57940E-05-2.87191E-05-2.87457E-05-4.42629E-07-5.35067E-19-2.70547E-18
 -1       247 9.62900E-05-2.88599E-05-2.88978E-05-5.48857E-07-1.02526E-18-2.59835E-18
 -1       248 9.69032E-05-2.90355E-05-2.90852E-05-6.90592E-07 1.40993E-19-2.28857E-18
 -1       249 9.76636E-05-2.92558E-05-2.93168E-05-8.66700E-07 5.02118E-19-3.08244E-18
 -1       250 9.85970E-05-2.95297E-05-2.95996E-05-1.07123E-06 1.14472E-18-3.75659E-18
 -1       251 9.97189E-05-2.98642E-05-2.99375E-05-1.29019E-06 2.86171E-20-3.41268E-18
 -1       252 1.01026E-04-3.02617E-05-3.03281E-05-1.49719E-06-1.37471E-18-3.11564E-18
 -1       253 1.02484E-04-3.07167E-05-3.07588E-05-1.64828E-06-9.39430E-19-2.17936E-18
 -1       254 1.04010E-04-3.12105E-05-3.12021E-05-1.67720E-06 2.10286E-20-1.33561E-18
 -1       255 1.05458E-04-3.17049E-05-3.16113E-05-1.49455E-06 5.76270E-19-6.46683E-19
 -1       256 1.06604E-04-3.21353E-05-3.19178E-05-9.97221E-07-2.32210E-19-1.10676E-18
 -1       257 1.07154E-04-3.24052E-05-3.20358E-05-9.79134E-08 5.85098E-20-1.81453E-19
 -1       258 1.06777E-04-3.23891E-05-3.18778E-05 1.21594E-06 6.52660E-19-1.42003E-19
 -1       259 1.05202E-04-3.19561E-05-3.13851E-05 2.79805E-06-1.03314E-18-4.29194E-19
 -1       260 1.02371E-04-3.10264E-05-3.05692E-05 4.27331E-06-2.21054E-19-1.12375E-18
 -1       261 9.86094E-05-2.96615E-05-2.95464E-05 5.06760E-06 4.80309E-19-7.09658E-19
 -1       262 9.47110E-05-2.81418E-05-2.85354E-05 4.62447E-06-9.73152E-19-1.04002E-18
 -1       263 9.17746E-05-2.69393E-05-2.77999E-05 2.77694E-06 1.22894E-18-1.91698E-18
 -1       264 9.07580E-05-2.65113E-05-2.75483E-05 1.53349E-08 6.35960E-19-1.95085E-18
 -1       265 9.19678E-05-2.70217E-05-2.78403E-05-2.66587E-06-9.97742E-19-1.62540E-18
 -1       266 9.48739E-05-2.82263E-05-2.85589E-05-4.31222E-06-4.08181E-19-1.83034E-18
 -1       267 9.84051E-05-2.96324E-05-2.94630E-05-4.52215E-06 4.54735E-19-1.94427E-18
 -1       268 1.01486E-04-3.07839E-05-3.02902E-05-3.53524E-06-2.85758E-19-7.07630E-19
 -1       269 1.03431E-04-3.14391E-05-3.08478E-05-1.93571E-06-3.19475E-19-7.68790E-19
 -1       270 1.04035E-04-3.15744E-05-3.10540E-05-2.95144E-07 1.73313E-19 2.29609E-19
 -1       271 1.03456E-04-3.12958E-05-3.09284E-05 1.01880E-06 2.46335E-18-3.74665E-19
 -1       272 1.02040E-04-3.07509E-05-3.05561E-05 1.85116E-06 8.52966E-19-1.81098E-18
 -1       273 1.00191E-04-3.00804E-05-3.00511E-05 2.18068E-06 5.25805E-19-2.58694E-18
 -1       274 9.82971E-05-2.94025E-05-2.95311E-05 2.03610E-06-5.29776E-20-2.46645E-18
 -1       275 9.66940E-05-2.88119E-05-2.90962E-05 1.45280E-06-3.03449E-19-1.95122E-18
 -1       276 9.56157E-05-2.84416E-05-2.87847E-05 5.56296E-07-1.78429E-18-1.26505E-18
 -1       277 9.53228E-05-2.77481E-05-2.89549E-05 1.12382E-06-1.56888E-18 2.47531E-18
 -1       278 9.48563E-05-2.64097E-05-2.93297E-05 2.11336E-06-1.50324E-19 1.33726E-18
 -1       279 9.42123E-05-2.45639E-05-2.98461E-05 2.88431E-06 5.75494E-19 4.18077E-19
 -1       280 9.34519E-05-2.23365E-05-3.04768E-05 3.34965E-06-1.49482E-19 1.43920E-18
 -1       281 9.26307E-05-1.99639E-05-3.11453E-05 3.45112E-06-5.87166E-19-4.81904E-18
 -1       282 9.18004E-05-1.76287E-05-3.17940E-05 3.11949E-06-1.50048E-18-2.00523E-18
 -1       283 9.10879E-05-1.56918E-05-3.23220E-05 2.31395E-06-9.40242E-19 4.00772E-18
 -1       284 9.06169E-05-1.44699E-05-3.26459E-05 1.08266E-06-7.44396E-20 4.72998E-19
 -1       285 9.04914E-05-1.42101E-05-3.27039E-05-4.20218E-07 1.05365E-18-9.13454E-19
 -1       286 9.07623E-05-1.50184E-05-3.24722E-05-1.95472E-06-6.33244E-19-1.53153E-18
 -1       287 9.13929E-05-1.67781E-05-3.19850E-05-3.22685E-06-4.36910E-19-1.38723E-18
 -1       288 9.23171E-05-1.92982E-05-3.12971E-05-4.02986E-06 6.06299E-19 1.87281E-18
 -1       289 9.33903E-05-2.21615E-05-3.05260E-05-4.15070E-06 1.56054E-18 1.62640E-19
 -1       290 9.44926E-05-2.49206E-05-2.98095E-05-3.43539E-06 1.51480E-18 6.11791E-19
 -1       291 9.55413E-05-2.67843E-05-2.94579E-05-3.13162E-06 1.00167E-18-1.64504E-18
 -1       292 1.28375E-05-5.01951E-05 1.25554E-05 8.21646E-06-8.20881E-19 3.16939E-18
 -1       293 3.07231E-05-4.20976E-05 3.04866E-06 2.93222E-05 5.31725E-19 1.35568E-18
 -1       294 5.69300E-05-3.75658E-05-9.78731E-06 3.70429E-05 2.18873E-18 2.47053E-18
 -1       295 1.01010E-04-3.69002E-05-2.76058E-05 4.39858E-05 1.57315E-18 3.83791E-18
 -1       296 1.38697E-04-2.95610E-05-4.54412E-05 4.76151E-05 2.88584E-18 5.05065E-18
 -1       297 1.76488E-04-3.19579E-05-5.94993E-05 3.62467E-05 2.12695E-18 3.49782E-18
 -1       298 2.04761E-04-3.54572E-05-6.91394E-05 2.09326E-05 3.80858E-18 3.56643E-18
 -1       299 2.03489E-04-3.16833E-05-7.06359E-05-2.82535E-06 4.42850E-18 2.24458E-18
 -1       300 1.97123E-04-3.45956E-05-6.64472E-05-2.82257E-05 2.43522E-18-1.10495E-18
 -1       301 1.62213E-04-3.13774E-05-5.40900E-05-4.08656E-05 4.67901E-18-2.40748E-18
 -1       302 1.18708E-04-2.86124E-05-3.78877E-05-4.84368E-05 2.47334E-18-5.59719E-18
 -1       303 7.56364E-05-3.06527E-05-2.00977E-05-4.24531E-05 5.16944E-18-2.93010E-18
 -1       304 4.24558E-05-3.77502E-05-4.16318E-06-3.05608E-05 5.41572E-18-1.84812E-18
 -1       305 2.11637E-05-4.46387E-05 7.21246E-06-1.90890E-05 3.70725E-18-1.93663E-18
 -1       306 1.15898E-05-5.04809E-05 1.31559E-05-4.36294E-06 2.99519E-18-4.47085E-18
 -1       307 1.40665E-05-4.50299E-05 1.04259E-05 1.04560E-05 1.12020E-19-4.86716E-18
 -1       308 2.98920E-05-4.32725E-05 3.02808E-06 2.21180E-05-3.26065E-18-4.63735E-18
 -1       309 6.80317E-05-4.26910E-05-1.19618E-05 3.84624E-05-3.39300E-18-4.05459E-18
 -1       310 9.53472E-05-3.78926E-05-2.53516E-05 4.08609E-05-5.03625E-18-2.95763E-18
 -1       311 1.46281E-04-3.48779E-05-4.64995E-05 4.17094E-05-3.80911E-18-3.32503E-18
 -1       312 1.86725E-04-3.58230E-05-6.17761E-05 3.45444E-05-3.01096E-18-2.27725E-18
 -1       313 2.13695E-04-3.83551E-05-7.12276E-05 1.52318E-05-3.78232E-18 9.03678E-19
 -1       314 2.08938E-04-3.38045E-05-7.16881E-05-7.28767E-06-2.83460E-18 3.03031E-18
 -1       315 1.98878E-04-3.63865E-05-6.63670E-05-2.90128E-05-4.92057E-18 4.40732E-18
 -1       316 1.65782E-04-3.47015E-05-5.42073E-05-3.90231E-05-4.65545E-18 4.12590E-18
 -1       317 1.24949E-04-3.24773E-05-3.89673E-05-4.65227E-05-3.06160E-18 6.04125E-18
 -1       318 8.77567E-05-3.86750E-05-2.17551E-05-4.18737E-05-2.43713E-18 5.89927E-18
 -1       319 4.78297E-05-3.98698E-05-5.50969E-06-3.13950E-05-3.59925E-18 3.12968E-18
 -1       320 2.63481E-05-4.33968E-05 5.05901E-06-2.34308E-05-2.61119E-18-1.23984E-19
 -1       321 1.23764E-05-4.87472E-05 1.23669E-05-6.27434E-06-2.18132E-18 5.46664E-18
 -1       322 9.16452E-05-1.43952E-05-3.31705E-05-1.30688E-05-2.97425E-18-1.14332E-18
 -1       323 9.56997E-05-1.91076E-05-3.28884E-05-1.46367E-05-3.09119E-18 8.10908E-19
 -1       324 8.80122E-05-1.03801E-05-3.33243E-05-8.15742E-06-2.00400E-18-3.20892E-18
 -1       325 8.71980E-05-9.45771E-06-3.33653E-05-5.72135E-06-1.46202E-18-3.52082E-18
 -1       326 8.67410E-05-8.92927E-06-3.33928E-05-3.36969E-06-9.00784E-19-3.76102E-18
 -1       327 8.65375E-05-8.69012E-06-3.34066E-05-1.07348E-06-3.54006E-19-3.89312E-18
 -1       328 8.65461E-05-8.69965E-06-3.34063E-05 1.20451E-06 1.20114E-19-3.93944E-18
 -1       329 8.67685E-05-8.96001E-06-3.33916E-05 3.50296E-06 6.14998E-19-3.91071E-18
 -1       330 8.72378E-05-9.50301E-06-3.33636E-05 5.81940E-06 1.21364E-18-3.62905E-18
 -1       331 8.80733E-05-1.04532E-05-3.33212E-05 8.25988E-06 1.89787E-18-3.08201E-18
 -1       332 8.94839E-05-1.20348E-05-3.32591E-05 1.07702E-05 2.53297E-18-2.60207E-18
 -1       333 9.18986E-05-1.47217E-05-3.31569E-05 1.31752E-05 3.00780E-18-1.62732E-18
 -1       334 9.57975E-05-1.94552E-05-3.28258E-05 1.43820E-05 3.16516E-18 4.91729E-19
 -1       335 9.87820E-05-2.44414E-05-3.19485E-05 1.19032E-05 2.93653E-18 2.56096E-18
 -1       336 9.63800E-05-2.68096E-05-2.97864E-05 5.74593E-06 2.38459E-18 1.71594E-18
 -1       337 1.39030E-04-5.73166E-05-3.51002E-05 2.10140E-05-3.04852E-18-5.90594E-19
 -1       338 9.64270E-05-2.60254E-05-3.01285E-05-6.35545E-06-2.36913E-18 1.08437E-18
 -1       339 9.49086E-05-2.70263E-05-2.90671E-05-2.84025E-06-1.97216E-18 8.12153E-19
 -1       340 9.39305E-05-2.74231E-05-2.84886E-05-9.30030E-07-1.51748E-18 4.73876E-19
 -1       341 9.34091E-05-2.76345E-05-2.81824E-05 1.29066E-07-9.23461E-19-4.87983E-20
 -1       342 9.32156E-05-2.77865E-05-2.80383E-05 6.94109E-07-4.68024E-19-2.22321E-19
 -1       343 9.32321E-05-2.79150E-05-2.79921E-05 9.63552E-07-5.05534E-19-2.99968E-19
 -1       344 9.33723E-05-2.80285E-05-2.80044E-05 1.05523E-06-6.18295E-19-5.90921E-19
 -1       345 9.35778E-05-2.81284E-05-2.80501E-05 1.04317E-06-6.44974E-19-6.07100E-19
 -1       346 9.38112E-05-2.82145E-05-2.81134E-05 9.75967E-07-7.77770E-19-5.90429E-19
 -1       347 9.40507E-05-2.82873E-05-2.81849E-05 8.86572E-07-2.67762E-19-6.09716E-19
 -1       348 9.42853E-05-2.83479E-05-2.82594E-05 7.98029E-07-1.28794E-19-7.74778E-19
 -1       349 9.45125E-05-2.83983E-05-2.83350E-05 7.27111E-07 3.07019E-19-9.12125E-19
 -1       350 9.47356E-05-2.84407E-05-2.84122E-05 6.86839E-07 1.12054E-19-6.26049E-19
 -1       351 9.49629E-05-2.84783E-05-2.84933E-05 6.88339E-07-5.49514E-19-5.47945E-19
 -1       352 9.52065E-05-2.85142E-05-2.85819E-05 7.42267E-07-6.62015E-19-8.53031E-19
 -1       353 9.54822E-05-2.85523E-05-2.86833E-05 8.59905E-07-4.31320E-19-1.10209E-18
 -1       354 9.58093E-05-2.85969E-05-2.88039E-05 1.05400E-06-6.70614E-19-1.12595E-18
 -1       355 9.62104E-05-2.86531E-05-2.89511E-05 1.33930E-06-8.66347E-19-1.26969E-18
 -1       356 9.67118E-05-2.87270E-05-2.91335E-05 1.73262E-06-1.12310E-19-1.40162E-18
 -1       357 9.73431E-05-2.88266E-05-2.93605E-05 2.25217E-06 4.11049E-19-1.77965E-18
 -1       358 9.81372E-05-2.89626E-05-2.96417E-05 2.91554E-06 1.58825E-19-9.59801E-19
 -1       359 9.91300E-05-2.91510E-05-2.99856E-05 3.73509E-06-3.89219E-19-1.06714E-18
 -1       360 1.00360E-04-2.94170E-05-3.03981E-05 4.70906E-06-1.08450E-19-1.52352E-18
 -1       361 1.01868E-04-2.98028E-05-3.08791E-05 5.80529E-06 8.24276E-19-1.83906E-18
 -1       362 1.03700E-04-3.03793E-05-3.14187E-05 6.93380E-06 3.20243E-21-7.68814E-19
 -1       363 1.05911E-04-3.12607E-05-3.19923E-05 7.90465E-06 7.80876E-19 3.51181E-19
 -1       364 1.08567E-04-3.26124E-05-3.25587E-05 8.37278E-06 9.63295E-19-3.06442E-19
 -1       365 1.11734E-04-3.46188E-05-3.30663E-05 7.78931E-06-1.58307E-19-1.11661E-18
 -1       366 1.15392E-04-3.73416E-05-3.34788E-05 5.42182E-06-6.69632E-19-7.88939E-19
 -1       367 1.19212E-04-4.03702E-05-3.38274E-05 5.88601E-07 3.71755E-19-8.60172E-19
 -1       368 1.22171E-04-4.23090E-05-3.42701E-05-6.64001E-06 3.63106E-19 3.62762E-19
 -1       369 1.22461E-04-4.07753E-05-3.50585E-05-1.41869E-05-3.81612E-19-4.64965E-19
 -1       370 1.18886E-04-3.43692E-05-3.62891E-05-1.72511E-05-1.54382E-18-1.12557E-18
 -1       371 1.13368E-04-2.60491E-05-3.75495E-05-1.12295E-05-2.35447E-18-1.50160E-18
 -1       372 1.11369E-04-2.32811E-05-3.79125E-05 2.14459E-06-1.49643E-18-1.51521E-18
 -1       373 1.14924E-04-2.88261E-05-3.70180E-05 1.35705E-05-8.73714E-19-1.99227E-18
 -1       374 1.19884E-04-3.70438E-05-3.55656E-05 1.58927E-05 1.27209E-19-2.54086E-18
 -1       375 1.21718E-04-4.16399E-05-3.43613E-05 1.03908E-05 9.67694E-19-2.24926E-18
 -1       376 1.19848E-04-4.15097E-05-3.36132E-05 2.43807E-06 5.88706E-19-2.33044E-18
 -1       377 1.16016E-04-3.88345E-05-3.31124E-05-4.13600E-06 9.21952E-19-4.75719E-19
 -1       378 1.11775E-04-3.56970E-05-3.26294E-05-8.14306E-06 1.36834E-18 5.27099E-19
 -1       379 1.07848E-04-3.30540E-05-3.20670E-05-9.86161E-06-1.77973E-19 7.15874E-19
 -1       380 1.04422E-04-3.10662E-05-3.14404E-05-9.96850E-06-7.01819E-19-1.46213E-18
 -1       381 1.01487E-04-2.95744E-05-3.08144E-05-9.03618E-06-1.45979E-18-2.31410E-18
 -1       382 9.90061E-05-2.83658E-05-3.02620E-05-7.41218E-06 2.22353E-19-2.81533E-18
 -1       383 9.71798E-05-2.75204E-05-2.98405E-05-5.42234E-06 1.69453E-18-2.38140E-18
 -1       384 9.43568E-05-2.73363E-05-2.86848E-05 2.47539E-06 1.84380E-18 1.10062E-18
 -1       385 9.31492E-05-2.74568E-05-2.81320E-05 7.50324E-07 1.41852E-18 4.31712E-19
 -1       386 9.25930E-05-2.75336E-05-2.78727E-05-1.70484E-07 9.79838E-19 1.08322E-19
 -1       387 9.24489E-05-2.76252E-05-2.77774E-05-6.46259E-07 6.18825E-19-5.75035E-19
 -1       388 9.25497E-05-2.77335E-05-2.77768E-05-8.65153E-07 5.95684E-19-6.64693E-19
 -1       389 9.27846E-05-2.78489E-05-2.78292E-05-9.32654E-07 9.93624E-19-5.58604E-19
 -1       390 9.30830E-05-2.79623E-05-2.79091E-05-9.12938E-07 1.16765E-18-6.94193E-19
 -1       391 9.34015E-05-2.80679E-05-2.80006E-05-8.47239E-07 7.08622E-19-1.02457E-18
 -1       392 9.37156E-05-2.81629E-05-2.80946E-05-7.63095E-07 3.88667E-19-1.37166E-18
 -1       393 9.40137E-05-2.82466E-05-2.81865E-05-6.79448E-07 1.17684E-19-1.35034E-18
 -1       394 9.42938E-05-2.83202E-05-2.82748E-05-6.09754E-07 4.17373E-19-1.46957E-18
 -1       395 9.45603E-05-2.83860E-05-2.83606E-05-5.64018E-07 1.72090E-19-1.61106E-18
 -1       396 9.48230E-05-2.84476E-05-2.84465E-05-5.50174E-07 3.76872E-19-1.29588E-18
 -1       397 9.50956E-05-2.85094E-05-2.85366E-05-5.74996E-07 5.26508E-19-1.61695E-18
 -1       398 9.53952E-05-2.85765E-05-2.86359E-05-6.44582E-07 9.28358E-19-1.83720E-18
 -1       399 9.57417E-05-2.86553E-05-2.87502E-05-7.64400E-07 7.51898E-20-7.24236E-19
 -1       400 9.61570E-05-2.87529E-05-2.88860E-05-9.38806E-07-9.06395E-19-1.95462E-18
 -1       401 9.66646E-05-2.88776E-05-2.90497E-05-1.16988E-06-7.09146E-20-2.59504E-18
 -1       402 9.72878E-05-2.90392E-05-2.92472E-05-1.45534E-06 9.05947E-19-2.27975E-18
 -1       403 9.80479E-05-2.92486E-05-2.94831E-05-1.78527E-06 1.47766E-18-2.34822E-18
 -1       404 9.89600E-05-2.95178E-05-2.97589E-05-2.13738E-06 6.95663E-20-2.63781E-18
 -1       405 1.00028E-04-2.98590E-05-3.00712E-05-2.47073E-06-1.73847E-18-2.72882E-18
 -1       406 1.01239E-04-3.02834E-05-3.04096E-05-2.71842E-06-1.44174E-18-1.88858E-18
 -1       407 1.02550E-04-3.07962E-05-3.07539E-05-2.78120E-06-3.56115E-19-1.59098E-18
 -1       408 1.03880E-04-3.13898E-05-3.10724E-05-2.52651E-06 2.26051E-19 3.54939E-20
 -1       409 1.05096E-04-3.20286E-05-3.13228E-05-1.80164E-06-3.00639E-19 1.15854E-18
 -1       410 1.06000E-04-3.26278E-05-3.14564E-05-4.74234E-07-6.68436E-19 1.65654E-18
 -1       411 1.06337E-04-3.30301E-05-3.14299E-05 1.48626E-06 7.78572E-19 1.33976E-18
 -1       412 1.05829E-04-3.30024E-05-3.12226E-05 3.88794E-06-2.83915E-19 5.40718E-19
 -1       413 1.04275E-04-3.22969E-05-3.08540E-05 6.20423E-06-1.93496E-19-6.99303E-19
 -1       414 1.01732E-04-3.08129E-05-3.03928E-05 7.58761E-06-2.68181E-19-1.93114E-19
 -1       415 9.86991E-05-2.88152E-05-2.99422E-05 7.15570E-06-5.43379E-19-2.15441E-19
 -1       416 9.61261E-05-2.70115E-05-2.96065E-05 4.54971E-06 1.06797E-18 8.42444E-19
 -1       417 9.50197E-05-2.62422E-05-2.94586E-05 4.19185E-07 1.15552E-18 1.07287E-18
 -1       418 9.58191E-05-2.68970E-05-2.95204E-05-3.72786E-06-7.45288E-19-4.54079E-19
 -1       419 9.80780E-05-2.86069E-05-2.97603E-05-6.36048E-06 4.57667E-19-8.28995E-19
 -1       420 1.00774E-04-3.05300E-05-3.00992E-05-6.78550E-06-1.48113E-18-1.21136E-18
 -1       421 1.02936E-04-3.19361E-05-3.04329E-05-5.33452E-06 3.80933E-20 4.19377E-19
 -1       422 1.04050E-04-3.25343E-05-3.06612E-05-2.90014E-06-1.05954E-18-9.92222E-19
 -1       423 1.04063E-04-3.24137E-05-3.07213E-05-3.69678E-07 2.91747E-19-1.46068E-19
 -1       424 1.03198E-04-3.18240E-05-3.06013E-05 1.67955E-06 2.18513E-18 7.26720E-20
 -1       425 1.01765E-04-3.10032E-05-3.03348E-05 2.99765E-06 1.21798E-18 1.00965E-18
 -1       426 1.00065E-04-3.01142E-05-2.99821E-05 3.54692E-06 1.03146E-18 6.72760E-19
 -1       427 9.83458E-05-2.92491E-05-2.96119E-05 3.38275E-06-3.83351E-19 1.12146E-18
 -1       428 9.68090E-05-2.84838E-05-2.92789E-05 2.59668E-06-4.59426E-19 2.61571E-18
 -1       429 9.59847E-05-2.80454E-05-2.91119E-05 1.93195E-06-1.80259E-18 2.05390E-18
 -1       430 9.45619E-05-2.46288E-05-2.99672E-05 5.32631E-06-1.81751E-18-4.97797E-19
 -1       431 9.53453E-05-2.62223E-05-2.96175E-05 4.35797E-06-6.48425E-19 1.40882E-18
 -1       432 9.57299E-05-2.72002E-05-2.93622E-05 3.18212E-06-1.27128E-18 1.88540E-18
 -1       433 9.36402E-05-2.28345E-05-3.03449E-05 5.80067E-06-3.95846E-18-2.50445E-18
 -1       434 9.25780E-05-2.08968E-05-3.07242E-05 5.63879E-06-5.48737E-19-3.25018E-18
 -1       435 9.15017E-05-1.90655E-05-3.10517E-05 4.70388E-06 1.53394E-18 8.72508E-19
 -1       436 9.05918E-05-1.76225E-05-3.12833E-05 2.98729E-06-1.86671E-18 2.13699E-18
 -1       437 9.00537E-05-1.68496E-05-3.13858E-05 6.56356E-07-1.64262E-18 2.59098E-19
 -1       438 9.00452E-05-1.69411E-05-3.13429E-05-1.94477E-06-7.28276E-19-1.80169E-18
 -1       439 9.05979E-05-1.79066E-05-3.11636E-05-4.32734E-06-2.03653E-19-1.95691E-18
 -1       440 9.16608E-05-1.96452E-05-3.08698E-05-6.13181E-06 1.05071E-18 3.94019E-18
 -1       441 9.30737E-05-2.18851E-05-3.05097E-05-6.97349E-06 2.34331E-18 1.69125E-18
 -1       442 9.46627E-05-2.43165E-05-3.01401E-05-6.69417E-06 2.80688E-18-6.99747E-19
 -1       443 6.32496E-05-4.35755E-05-8.50325E-06 4.44277E-05-1.05445E-18 1.45245E-18
 -1       444 1.38442E-05-2.05523E-05 3.01816E-06 2.94233E-06-1.24844E-18 4.53396E-18
 -1       445 2.66004E-05-2.51164E-05-3.09325E-07 2.79688E-05-2.60537E-18 2.93942E-18
 -1       446 1.01876E-04-5.49650E-05-2.01737E-05 4.20308E-05-1.66770E-18 1.95765E-18
 -1       447 1.07983E-04-5.69967E-05-2.18871E-05 3.69836E-05-2.47471E-18-3.84235E-19
 -1       448 1.65891E-04-2.57326E-05-5.96992E-05-2.55905E-06-4.17121E-18 3.59036E-19
 -1       449 1.38097E-04-5.36457E-05-3.60937E-05 2.34663E-05-6.47186E-19-6.32734E-19
 -1       450 8.93371E-05-1.18570E-05-3.32797E-05-1.06948E-05-2.50091E-18-2.55041E-18
 -1       451 1.57017E-04-2.29200E-05-5.73839E-05-3.81917E-07 7.69635E-19-1.41762E-18
 -1       452 1.56967E-04-1.30264E-05-6.17205E-05-6.68170E-07 2.81183E-18 2.95403E-19
 -1       453 1.61261E-04-1.69536E-05-6.16672E-05 5.06678E-07 3.87443E-18 2.52463E-18
 -1       454 1.54839E-04-2.90839E-05-5.39028E-05-2.81573E-07 3.55150E-18 1.03518E-18
 -1       455 1.45604E-04-4.80853E-05-4.18724E-05-1.34339E-05 1.11844E-18 4.27434E-19
 -1       456 1.21449E-04-5.37426E-05-2.90259E-05-3.38569E-05 3.88470E-19-2.27375E-18
 -1       457 8.28287E-05-4.83474E-05-1.49792E-05-4.41978E-05 2.16555E-18-8.30145E-19
 -1       458 4.59909E-05-3.78269E-05-3.78602E-06-4.03304E-05 7.88694E-19-8.42163E-19
 -1       459 1.88631E-05-2.44387E-05 2.35836E-06-2.14612E-05-2.22452E-19-2.69653E-18
 -1       460 1.21982E-05-2.32463E-05 4.50857E-06 4.16244E-06 6.11664E-19-4.78849E-18
 -1       461 3.51897E-05-3.03081E-05-1.88650E-06 3.27867E-05 6.30616E-19-5.69831E-18
 -1       462 6.79911E-05-4.47079E-05-9.88423E-06 4.26211E-05-7.54071E-19-4.17577E-18
 -1       463 1.58587E-04-4.23483E-05-4.97146E-05 3.88618E-06-2.52781E-18-1.22608E-18
 -1       464 1.65013E-04-1.55867E-05-6.36710E-05-1.95077E-06-4.03167E-18-5.50360E-19
 -1       465 1.60879E-04-1.96788E-05-6.04080E-05 3.34236E-06-2.33146E-18-1.70974E-18
 -1       466 1.61973E-04-3.32088E-05-5.49857E-05 7.37162E-07-1.81472E-18-2.54353E-18
 -1       467 1.51044E-04-5.03794E-05-4.31080E-05-1.48984E-05-9.43886E-19-1.30432E-18
 -1       468 1.30009E-04-5.70927E-05-3.12288E-05-2.96751E-05 1.12878E-18 1.25520E-18
 -1       469 9.14058E-05-5.39297E-05-1.61807E-05-4.25167E-05 3.10755E-19 2.64813E-18
 -1       470 5.90462E-05-4.20898E-05-7.17419E-06-4.26867E-05-1.06853E-18-2.05405E-20
 -1       471 2.22118E-05-2.84404E-05 2.43888E-06-2.33172E-05-8.97326E-19 2.25957E-18
 -1       472 1.51190E-04-4.17723E-05-4.69071E-05 1.04116E-05-3.32235E-19-1.64113E-18
 -1       473 5.18586E-05-3.23002E-05-7.93865E-06 4.03017E-05-3.08728E-18 1.71852E-18
 -1       474 1.38766E-04-7.25500E-06-5.67935E-05 1.91465E-06 3.43112E-18-1.42824E-19
 -1       475 9.58107E-05-2.51477E-05-3.02703E-05 6.02192E-06 2.37129E-18-4.23184E-19
 -1       476 8.95507E-05-1.34069E-05-3.26520E-05-3.92886E-06-1.10114E-18-3.29690E-18
 -1       477 9.02512E-05-1.43655E-05-3.25430E-05-5.89077E-06-1.60027E-18-2.91488E-18
 -1       478 8.90562E-05-1.27279E-05-3.27299E-05 5.47068E-08-1.28837E-19-3.52023E-18
 -1       479 8.91907E-05-1.29110E-05-3.27093E-05 2.04789E-06 3.07482E-19-3.57234E-18
 -1       480 8.95831E-05-1.34474E-05-3.26487E-05 4.00240E-06 8.12751E-19-3.38050E-18
 -1       481 9.03036E-05-1.44330E-05-3.25371E-05 5.95740E-06 1.55028E-18-2.87021E-18
 -1       482 9.14476E-05-1.60099E-05-3.23536E-05 7.78667E-06 2.11763E-18-2.45557E-18
 -1       483 9.32359E-05-1.84834E-05-3.20560E-05 9.30407E-06 2.60333E-18-1.81819E-18
 -1       484 9.54685E-05-2.44191E-05-3.04394E-05-5.84947E-06-2.27473E-18-5.99751E-19
 -1       485 1.47313E-04-5.43161E-05-4.01200E-05-4.05199E-06-4.53209E-19 1.83044E-18
 -1       486 9.50994E-05-2.65698E-05-2.93515E-05 2.88293E-06 1.98049E-18-5.93760E-19
 -1       487 9.45765E-05-2.06866E-05-3.16872E-05-9.58118E-06-2.72783E-18-8.13073E-19
 -1       488 9.52668E-05-2.62285E-05-2.95810E-05-2.90696E-06-1.86399E-18-4.76454E-19
 -1       489 9.49110E-05-2.71601E-05-2.90323E-05-1.04113E-06-1.45404E-18-4.63087E-19
 -1       490 9.46343E-05-2.76898E-05-2.86890E-05 8.33760E-08-8.96019E-19-5.83551E-19
 -1       491 9.44787E-05-2.80146E-05-2.84841E-05 7.21303E-07-6.58863E-19-1.19731E-18
 -1       492 9.44252E-05-2.82236E-05-2.83720E-05 1.04445E-06-8.17045E-19-1.33661E-18
 -1       493 9.44441E-05-2.83608E-05-2.83215E-05 1.16948E-06-5.88733E-19-1.26619E-18
 -1       494 9.45091E-05-2.84498E-05-2.83114E-05 1.17606E-06-6.73959E-19-1.35368E-18
 -1       495 9.46008E-05-2.85044E-05-2.83273E-05 1.11945E-06-4.06919E-19-7.44995E-19
 -1       496 9.47065E-05-2.85335E-05-2.83601E-05 1.03859E-06-3.15877E-19-5.27157E-19
 -1       497 9.48194E-05-2.85431E-05-2.84044E-05 9.61624E-07 1.61906E-19-5.90950E-19
 -1       498 9.49371E-05-2.85372E-05-2.84572E-05 9.09648E-07-8.84513E-21-9.47180E-19
 -1       499 9.50605E-05-2.85186E-05-2.85180E-05 8.99558E-07-4.98901E-19-1.37049E-18
 -1       500 9.51934E-05-2.84890E-05-2.85875E-05 9.46143E-07-4.71529E-19-8.20140E-19
 -1       501 9.53415E-05-2.84491E-05-2.86678E-05 1.06368E-06-6.58129E-19-3.29391E-19
 -1       502 9.55122E-05-2.83992E-05-2.87622E-05 1.26710E-06-1.03104E-18-1.01073E-18
 -1       503 9.57142E-05-2.83391E-05-2.88743E-05 1.57280E-06-9.38200E-19-1.45266E-18
 -1       504 9.59569E-05-2.82687E-05-2.90082E-05 1.99889E-06-7.34644E-19-1.10553E-18
 -1       505 9.62507E-05-2.81890E-05-2.91679E-05 2.56490E-06 4.28052E-19-1.07399E-18
 -1       506 9.66065E-05-2.81034E-05-2.93567E-05 3.29032E-06 5.87061E-19-1.08708E-18
 -1       507 9.70368E-05-2.80216E-05-2.95758E-05 4.19166E-06-2.19035E-19-7.12173E-19
 -1       508 9.75589E-05-2.79660E-05-2.98230E-05 5.27668E-06-5.67831E-19-8.86683E-19
 -1       509 9.82014E-05-2.79834E-05-3.00907E-05 6.53456E-06-5.06215E-19-1.29540E-18
 -1       510 9.90192E-05-2.81642E-05-3.03638E-05 7.91951E-06 7.48752E-19-1.67241E-18
 -1       511 1.00121E-04-2.86725E-05-3.06190E-05 9.32509E-06 8.68706E-19-1.31153E-18
 -1       512 1.01709E-04-2.97790E-05-3.08280E-05 1.05446E-05 3.95776E-20-2.09755E-18
 -1       513 1.04133E-04-3.18753E-05-3.09722E-05 1.12117E-05 5.63379E-20-2.09738E-18
 -1       514 1.07884E-04-3.53926E-05-3.10778E-05 1.07223E-05 2.15466E-19-1.73224E-18
 -1       515 1.13438E-04-4.04722E-05-3.12865E-05 8.17282E-06-2.34437E-19-1.99083E-19
 -1       516 1.20690E-04-4.61699E-05-3.19631E-05 2.43144E-06 1.86826E-19-1.05158E-18
 -1       517 1.27828E-04-4.92432E-05-3.37509E-05-6.93546E-06-6.35916E-19-2.16944E-18
 -1       518 1.30866E-04-4.40360E-05-3.73792E-05-1.70858E-05-8.65324E-19-1.43114E-18
 -1       519 1.26042E-04-2.91837E-05-4.20173E-05-1.92458E-05-2.57191E-18-1.41161E-18
 -1       520 1.20612E-04-1.66903E-05-4.50381E-05-6.57230E-06-1.80534E-18-2.14345E-18
 -1       521 1.22116E-04-2.02480E-05-4.41243E-05 1.10333E-05-2.46606E-18-1.76375E-18
 -1       522 1.28154E-04-3.56929E-05-3.98964E-05 1.77711E-05-1.58206E-18-2.08911E-18
 -1       523 1.29726E-04-4.72230E-05-3.54734E-05 1.17327E-05 9.73621E-19-2.46307E-18
 -1       524 1.24621E-04-4.85947E-05-3.26221E-05 1.42818E-06 1.82433E-18-6.02571E-19
 -1       525 1.17001E-04-4.40363E-05-3.12869E-05-6.70028E-06 1.32622E-18-2.94583E-19
 -1       526 1.10135E-04-3.83174E-05-3.07909E-05-1.12777E-05 8.26418E-19-1.07100E-18
 -1       527 1.05085E-04-3.36831E-05-3.06080E-05-1.30762E-05-1.97882E-19-1.24216E-18
 -1       528 1.01653E-04-3.05241E-05-3.04861E-05-1.31007E-05-8.95901E-19-7.31969E-19
 -1       529 9.92992E-05-2.84751E-05-3.03517E-05-1.20554E-05-1.92512E-18-9.37409E-19
 -1       530 9.75751E-05-2.70590E-05-3.02163E-05-1.03364E-05-1.82764E-18-2.22483E-18
 -1       531 9.41325E-05-2.76826E-05-2.84750E-05-1.12386E-07 1.08746E-18-9.35367E-19
 -1       532 9.39563E-05-2.79280E-05-2.82965E-05-7.23988E-07 7.86511E-19-1.04442E-18
 -1       533 9.39274E-05-2.80975E-05-2.82125E-05-1.02605E-06 6.11523E-19-1.28953E-18
 -1       534 9.39938E-05-2.82210E-05-2.81885E-05-1.13690E-06 1.03507E-18-7.10278E-19
 -1       535 9.41160E-05-2.83125E-05-2.82018E-05-1.13458E-06 1.02322E-18-5.95458E-19
 -1       536 9.42666E-05-2.83798E-05-2.82376E-05-1.07196E-06 7.19105E-19-7.35837E-19
 -1       537 9.44289E-05-2.84280E-05-2.82865E-05-9.85658E-07 4.19853E-19-7.66337E-19
 -1       538 9.45941E-05-2.84609E-05-2.83432E-05-9.01572E-07 2.14628E-19-9.55331E-19
 -1       539 9.47598E-05-2.84819E-05-2.84051E-05-8.38571E-07 2.94208E-19-9.26098E-19
 -1       540 9.49277E-05-2.84941E-05-2.84717E-05-8.11017E-07 3.24207E-19-1.17198E-18
 -1       541 9.51036E-05-2.85004E-05-2.85441E-05-8.30480E-07 2.71161E-19-8.82956E-19
 -1       542 9.52957E-05-2.85043E-05-2.86246E-05-9.06809E-07 4.72910E-19-7.13391E-19
 -1       543 9.55151E-05-2.85098E-05-2.87160E-05-1.04859E-06 2.12848E-19-1.99834E-20
 -1       544 9.57746E-05-2.85219E-05-2.88218E-05-1.26294E-06-8.64913E-20 2.35478E-20
 -1       545 9.60893E-05-2.85479E-05-2.89452E-05-1.55452E-06 3.42635E-20-7.71274E-19
 -1       546 9.64759E-05-2.85978E-05-2.90893E-05-1.92354E-06 4.65519E-19-6.70541E-19
 -1       547 9.69527E-05-2.86861E-05-2.92557E-05-2.36251E-06 6.21393E-19-3.24070E-19
 -1       548 9.75398E-05-2.88333E-05-2.94442E-05-2.85142E-06 7.65660E-19 2.65800E-19
 -1       549 9.82581E-05-2.90676E-05-2.96519E-05-3.35117E-06-3.42324E-19 3.85051E-19
 -1       550 9.91292E-05-2.94264E-05-2.98721E-05-3.79536E-06-1.41961E-18-1.08261E-18
 -1       551 1.00173E-04-2.99546E-05-3.00942E-05-4.08152E-06-1.51081E-18-1.41484E-18
 -1       552 1.01403E-04-3.06976E-05-3.03044E-05-4.06460E-06-6.11691E-19-1.52581E-18
 -1       553 1.02811E-04-3.16813E-05-3.04887E-05-3.55908E-06-8.24658E-19-1.91900E-18
 -1       554 1.04344E-04-3.28724E-05-3.06378E-05-2.36152E-06-1.56626E-18-7.84304E-19
 -1       555 1.05857E-04-3.41140E-05-3.07559E-05-3.12525E-07-2.13061E-19 1.20783E-19
 -1       556 1.07059E-04-3.50560E-05-3.08674E-05 2.57973E-06 1.20652E-18 1.07232E-18
 -1       557 1.07504E-04-3.51468E-05-3.10170E-05 5.95127E-06 1.71996E-19-1.13691E-20
 -1       558 1.06731E-04-3.38170E-05-3.12498E-05 8.91179E-06-1.80979E-18 4.51934E-19
 -1       559 1.04617E-04-3.09338E-05-3.15754E-05 1.01157E-05-5.14252E-20 1.21827E-18
 -1       560 1.01810E-04-2.73226E-05-3.19183E-05 8.34393E-06 5.53501E-19 1.52804E-18
 -1       561 9.97290E-05-2.47423E-05-3.21288E-05 3.55894E-06 6.54737E-19 1.17810E-18
 -1       562 9.96140E-05-2.47146E-05-3.20921E-05-2.51042E-06 1.22695E-18 1.23821E-18
 -1       563 1.01477E-04-2.72575E-05-3.18045E-05-7.27382E-06 2.13851E-20 7.54568E-19
 -1       564 1.04071E-04-3.08450E-05-3.13801E-05-8.99192E-06 2.46637E-19 1.24585E-19
 -1       565 1.05972E-04-3.37132E-05-3.09679E-05-7.68185E-06-1.20213E-18-3.02181E-18
 -1       566 1.06507E-04-3.50047E-05-3.06494E-05-4.56935E-06 1.49483E-19-1.49278E-18
 -1       567 1.05782E-04-3.48231E-05-3.04210E-05-1.03586E-06-2.61751E-19-1.03135E-18
 -1       568 1.04266E-04-3.37313E-05-3.02391E-05 1.97872E-06 1.25761E-19-1.42567E-18
 -1       569 1.02409E-04-3.22702E-05-3.00668E-05 4.05531E-06 1.14713E-18 9.07829E-20
 -1       570 1.00510E-04-3.07757E-05-2.98897E-05 5.11855E-06 1.06089E-18 9.01353E-19
 -1       571 9.87301E-05-2.93945E-05-2.97140E-05 5.25378E-06-6.81417E-19 2.68437E-18
 -1       572 9.71159E-05-2.81679E-05-2.95447E-05 4.59919E-06-1.17680E-18 4.09278E-18
 -1       573 9.35913E-05-2.37021E-05-2.99537E-05 7.65711E-06-2.69592E-18 8.02139E-19
 -1       574 9.19543E-05-2.18337E-05-3.00545E-05 7.06857E-06 1.25516E-18 3.00102E-19
 -1       575 9.60546E-05-2.67525E-05-2.96977E-05 6.34835E-06-1.15160E-18-2.04576E-18
 -1       576 9.49770E-05-2.53694E-05-2.98306E-05 7.32651E-06-3.17523E-18-2.24552E-18
 -1       577 9.03215E-05-2.00454E-05-3.01226E-05 5.39706E-06 5.97759E-19 5.36199E-20
 -1       578 8.90453E-05-1.86942E-05-3.01559E-05 2.70793E-06-1.14414E-18 9.00804E-19
 -1       579 8.84855E-05-1.81212E-05-3.01621E-05-6.52394E-07-1.96526E-18 6.54712E-19
 -1       580 8.88346E-05-1.84944E-05-3.01512E-05-4.04691E-06-6.11422E-20-9.37247E-19
 -1       581 9.00851E-05-1.97829E-05-3.01333E-05-6.95388E-06 1.85094E-18 8.40666E-19
 -1       582 9.20201E-05-2.17495E-05-3.01174E-05-8.77921E-06 5.33130E-19 3.09879E-18
 -1       583 9.43504E-05-2.40808E-05-3.01161E-05-9.21725E-06 9.49444E-19 1.94163E-18
 -1       584 9.18721E-05-5.10214E-05-1.72096E-05 4.30631E-05-2.12870E-18 4.38419E-19
 -1       585 2.77635E-05-1.62228E-05-4.33543E-06-1.43652E-05-2.00247E-18 3.56791E-18
 -1       586 9.45107E-05-2.72911E-05-2.87999E-05 9.91990E-07 1.40181E-18-8.50864E-19
 -1       587 3.28581E-05-1.42679E-05-7.22181E-06 1.43694E-05-2.79316E-18 3.90112E-18
 -1       588 1.38257E-04-1.14956E-05-5.49071E-05 3.27218E-06-2.00906E-18-5.27424E-19
 -1       589 1.42427E-04-3.30438E-05-4.73287E-05-8.02441E-06 4.49457E-20-1.10188E-18
 -1       590 1.01717E-04-5.49961E-05-1.97353E-05 3.66602E-05 5.47024E-19 1.23294E-18
 -1       591 1.30555E-04-6.32188E-05-2.89069E-05 2.08593E-05-1.39072E-19 2.56979E-18
 -1       592 8.91709E-05-1.28862E-05-3.27115E-05-1.93918E-06-6.24951E-19-3.38827E-18
 -1       593 1.33956E-04-1.35246E-05-5.22475E-05-8.50658E-06 1.22481E-18-1.97049E-18
 -1       594 1.41810E-04-1.63524E-05-5.43557E-05-1.02464E-05-2.63766E-18 4.60733E-19
 -1       595 1.40825E-04-4.08012E-05-4.32928E-05 7.88036E-06 1.48961E-18 2.77562E-18
 -1       596 1.35344E-04-5.87746E-05-3.29725E-05-1.39624E-05-1.19147E-18 1.30221E-18
 -1       597 1.11870E-04-5.77553E-05-2.30698E-05-3.54398E-05 7.78741E-20 2.91300E-19
 -1       598 7.84209E-05-4.47047E-05-1.40815E-05-4.40911E-05-7.61747E-19-4.80109E-19
 -1       599 4.49628E-05-2.68909E-05-7.24059E-06-3.62972E-05-1.97020E-18 3.11655E-19
 -1       600 1.47880E-04-3.30383E-05-4.94611E-05-1.45485E-05-3.52260E-18 1.14614E-18
 -1       601 6.04543E-05-3.38409E-05-1.08898E-05 3.78280E-05 1.53398E-18-4.37170E-18
 -1       602 2.21411E-05-1.42566E-05-2.84048E-06-7.81878E-06-3.76321E-19-2.94725E-18
 -1       603 1.39004E-04-1.79111E-05-5.24147E-05 9.73006E-06 3.53806E-18 2.03256E-18
 -1       604 5.09294E-05-2.99860E-05-8.46915E-06-3.63402E-05-1.48866E-19-1.15493E-18
 -1       605 2.92939E-05-1.70305E-05-4.68807E-06 1.83148E-05 8.46689E-19-5.35399E-18
 -1       606 1.40600E-04-2.63882E-05-4.94865E-05 1.48879E-05-1.76066E-18-1.40660E-18
 -1       607 1.48367E-04-4.56338E-05-4.45147E-05 7.97541E-06-1.40658E-18-2.08762E-18
 -1       608 1.42574E-04-6.07903E-05-3.52520E-05-7.99925E-06 1.12741E-18-1.16393E-18
 -1       609 1.21831E-04-6.21703E-05-2.54399E-05-2.93687E-05 1.14842E-18 2.91671E-19
 -1       610 8.80556E-05-4.92515E-05-1.62793E-05-4.14325E-05 1.13661E-19 5.45913E-19
 -1       611 1.28486E-04-6.18174E-05-2.85237E-05 2.31140E-05-3.01157E-18-9.12413E-19
 -1       612 1.42045E-04-5.22018E-05-3.87717E-05 3.00020E-06-3.28040E-19 2.25893E-19
 -1       613 9.61516E-05-2.31868E-05-3.12738E-05 9.59102E-06 2.87236E-18-1.30794E-20
 -1       614 9.13460E-05-1.58544E-05-3.23768E-05-7.77381E-06-2.12166E-18-2.61667E-18
 -1       615 9.66220E-05-2.62899E-05-3.01357E-05-8.86480E-06 7.62427E-19-4.97224E-19
 -1       616 4.80712E-05-2.02994E-05-1.13838E-05 2.65412E-05-2.60465E-18 1.69285E-18
 -1       617 3.97876E-05-1.72618E-05-9.09494E-06-2.44529E-05-1.72271E-18 4.39769E-19
 -1       618 9.15670E-05-1.68561E-05-3.20246E-05 2.44384E-06 5.16331E-19-3.14600E-18
 -1       619 9.13099E-05-1.64544E-05-3.20863E-05 8.41853E-07 3.46159E-20-3.31831E-18
 -1       620 9.29009E-05-1.90047E-05-3.16752E-05 5.26907E-06 1.57557E-18-2.17321E-18
 -1       621 9.39872E-05-2.09342E-05-3.13169E-05 6.15054E-06 2.15716E-18-1.81523E-18
 -1       622 9.53327E-05-2.59382E-05-2.97370E-05 2.61383E-06 1.72445E-18-1.29363E-18
 -1       623 9.50068E-05-2.36270E-05-3.05882E-05-4.73269E-06-1.87494E-18-1.15439E-18
 -1       624 7.61059E-05-3.76560E-05-1.61129E-05 3.86648E-05-2.93746E-18 2.17190E-18
 -1       625 9.49208E-05-2.83582E-05-2.85268E-05-1.05178E-06 6.86777E-19-1.12125E-18
 -1       626 9.54186E-05-2.57133E-05-2.98730E-05-2.44693E-06-1.70188E-18-1.11690E-18
 -1       627 9.54748E-05-2.69442E-05-2.93697E-05-8.75112E-07-1.25207E-18-8.82175E-19
 -1       628 9.54202E-05-2.77025E-05-2.90217E-05 1.29323E-07-1.13680E-18-1.05802E-18
 -1       629 9.53453E-05-2.81708E-05-2.87890E-05 7.22179E-07-9.32083E-19-1.37224E-18
 -1       630 9.52821E-05-2.84556E-05-2.86400E-05 1.03306E-06-6.74447E-19-1.21960E-18
 -1       631 9.52389E-05-2.86201E-05-2.85510E-05 1.16039E-06-4.91894E-19-1.05567E-18
 -1       632 9.52143E-05-2.87033E-05-2.85048E-05 1.17673E-06-2.75735E-19-8.29683E-19
 -1       633 9.52044E-05-2.87298E-05-2.84892E-05 1.13507E-06-2.06017E-19-7.31247E-19
 -1       634 9.52055E-05-2.87157E-05-2.84957E-05 1.07421E-06-3.57104E-19-7.20320E-19
 -1       635 9.52145E-05-2.86708E-05-2.85188E-05 1.02301E-06-3.24057E-19-1.20379E-18
 -1       636 9.52292E-05-2.86011E-05-2.85549E-05 1.00377E-06-2.15906E-19-9.73874E-19
 -1       637 9.52482E-05-2.85090E-05-2.86025E-05 1.03479E-06-3.13855E-19-5.31095E-19
 -1       638 9.52702E-05-2.83944E-05-2.86610E-05 1.13236E-06-6.27757E-19-8.16240E-19
 -1       639 9.52938E-05-2.82551E-05-2.87307E-05 1.31220E-06-1.06909E-18-1.37876E-18
 -1       640 9.53170E-05-2.80875E-05-2.88124E-05 1.59046E-06-1.10436E-18-8.85960E-19
 -1       641 9.53369E-05-2.78869E-05-2.89069E-05 1.98423E-06-8.10998E-19-8.68337E-19
 -1       642 9.53489E-05-2.76485E-05-2.90141E-05 2.51151E-06-3.28424E-20-5.72724E-19
 -1       643 9.53472E-05-2.73694E-05-2.91328E-05 3.19059E-06 1.69223E-19-1.02569E-18
 -1       644 9.53250E-05-2.70517E-05-2.92594E-05 4.03866E-06 8.15992E-19-1.73905E-18
 -1       645 9.52781E-05-2.67090E-05-2.93860E-05 5.06945E-06-3.92532E-19-7.97496E-19
 -1       646 9.52114E-05-2.63774E-05-2.94993E-05 6.28985E-06-7.72856E-19-2.28916E-19
 -1       647 9.51547E-05-2.61347E-05-2.95789E-05 7.69549E-06 2.58878E-19 1.75197E-19
 -1       648 9.51911E-05-2.61311E-05-2.95961E-05 9.26496E-06 3.40342E-19-7.73991E-19
 -1       649 9.55076E-05-2.66329E-05-2.95169E-05 1.09505E-05-1.52322E-20-1.51349E-18
 -1       650 9.64734E-05-2.80751E-05-2.93135E-05 1.26556E-05 1.56022E-19-8.92725E-19
 -1       651 9.87470E-05-3.10944E-05-2.89929E-05 1.41675E-05-1.63044E-19-7.01895E-19
 -1       652 1.03299E-04-3.63941E-05-2.86649E-05 1.49639E-05 8.05909E-19-1.47165E-19
 -1       653 1.11336E-04-4.43590E-05-2.86766E-05 1.39539E-05-1.13784E-19-7.65830E-19
 -1       654 1.23108E-04-5.33006E-05-2.98643E-05 8.98152E-06-1.00864E-18-2.58977E-19
 -1       655 1.40358E-04-5.11041E-05-3.85765E-05 1.01355E-05 9.39677E-22-9.68106E-19
 -1       656 1.31204E-04-5.63091E-05-3.21074E-05-3.11342E-06 1.09111E-18-7.19991E-19
 -1       657 1.18751E-04-5.01688E-05-2.93536E-05-1.22520E-05 1.20291E-18-2.60440E-18
 -1       658 1.08452E-04-4.15007E-05-2.86834E-05-1.59286E-05 8.37400E-19-1.58779E-18
 -1       659 1.01809E-04-3.45723E-05-2.88139E-05-1.65063E-05-1.07164E-19-1.11987E-18
 -1       660 9.81022E-05-3.00621E-05-2.91589E-05-1.56278E-05-3.78328E-19-9.72135E-19
 -1       661 9.61899E-05-2.73679E-05-2.94948E-05-1.41053E-05-1.25685E-18-1.59400E-18
 -1       662 9.52154E-05-2.57260E-05-2.97831E-05-1.22017E-05-1.65943E-18 1.80738E-18
 -1       663 9.49812E-05-2.81085E-05-2.86595E-05-7.34852E-07 8.09157E-19-1.07559E-18
 -1       664 4.95309E-05-1.95681E-05-1.23394E-05-2.40016E-05 1.65793E-19-6.51421E-19
 -1       665 9.50909E-05-2.77051E-05-2.88790E-05-1.21458E-07 9.67070E-19-1.17113E-18
 -1       666 9.49027E-05-2.85094E-05-2.84544E-05-1.17817E-06 8.51004E-19-7.12322E-19
 -1       667 9.49154E-05-2.85944E-05-2.84234E-05-1.18974E-06 7.56268E-19-5.18626E-19
 -1       668 9.49484E-05-2.86331E-05-2.84210E-05-1.14066E-06 5.71355E-19-3.21547E-19
 -1       669 9.49942E-05-2.86387E-05-2.84382E-05-1.06983E-06 4.56693E-19-4.18174E-19
 -1       670 9.50484E-05-2.86199E-05-2.84695E-05-1.00563E-06 3.77658E-19-1.25929E-19
 -1       671 9.51090E-05-2.85823E-05-2.85115E-05-9.69241E-07 1.19455E-19-3.51527E-19
 -1       672 9.51762E-05-2.85299E-05-2.85627E-05-9.77200E-07 1.52520E-19-3.83678E-19
 -1       673 9.52522E-05-2.84655E-05-2.86228E-05-1.04305E-06 1.75402E-19-2.22985E-19
 -1       674 9.53405E-05-2.83920E-05-2.86920E-05-1.17838E-06 2.21615E-19-2.35815E-20
 -1       675 9.54466E-05-2.83128E-05-2.87714E-05-1.39309E-06 1.82737E-19 1.78764E-20
 -1       676 9.55782E-05-2.82336E-05-2.88616E-05-1.69503E-06 4.84567E-19-2.71901E-19
 -1       677 9.57456E-05-2.81640E-05-2.89631E-05-2.08864E-06 5.04268E-19-4.33228E-19
 -1       678 9.59632E-05-2.81196E-05-2.90753E-05-2.57262E-06 5.55503E-20-2.96892E-19
 -1       679 9.62514E-05-2.81257E-05-2.91962E-05-3.13619E-06 1.74157E-19 7.00239E-19
 -1       680 9.66396E-05-2.82204E-05-2.93220E-05-3.75391E-06 5.68444E-19 1.39750E-18
 -1       681 9.71696E-05-2.84589E-05-2.94470E-05-4.37867E-06-2.51053E-19 1.62178E-18
 -1       682 9.79005E-05-2.89164E-05-2.95645E-05-4.93285E-06-7.36918E-19 7.82249E-19
 -1       683 9.89102E-05-2.96847E-05-2.96685E-05-5.29811E-06-1.31087E-18-3.14768E-19
 -1       684 1.00291E-04-3.08581E-05-2.97581E-05-5.30568E-06-5.69119E-19 4.59242E-19
 -1       685 1.02126E-04-3.24934E-05-2.98449E-05-4.73198E-06-1.17797E-18 7.42800E-19
 -1       686 1.04435E-04-3.45298E-05-2.99629E-05-3.31292E-06-1.10131E-18 2.63792E-19
 -1       687 1.07064E-04-3.66595E-05-3.01778E-05-8.06721E-07 1.64406E-19-1.65929E-19
 -1       688 1.09545E-04-3.81839E-05-3.05876E-05 2.84011E-06 9.96169E-19 1.39681E-18
 -1       689 1.11024E-04-3.80080E-05-3.12974E-05 7.16461E-06-6.49645E-19 8.05262E-19
 -1       690 1.10580E-04-3.51279E-05-3.23414E-05 1.08118E-05-9.76550E-19-6.43710E-19
 -1       691 1.07919E-04-2.95670E-05-3.35984E-05 1.16615E-05-1.71223E-19-3.38407E-19
 -1       692 1.04478E-04-2.36524E-05-3.46650E-05 7.97354E-06 1.22827E-18-7.09403E-19
 -1       693 1.02857E-04-2.10843E-05-3.50640E-05 6.29977E-07 1.10686E-18-1.38489E-18
 -1       694 1.04372E-04-2.36605E-05-3.46221E-05-6.73031E-06 1.28044E-18-7.13630E-19
 -1       695 1.07726E-04-2.95946E-05-3.35070E-05-1.03942E-05 6.74648E-19-8.97379E-19
 -1       696 1.10336E-04-3.52248E-05-3.21981E-05-9.46765E-06 2.67174E-19-5.72685E-19
 -1       697 1.10720E-04-3.81664E-05-3.10914E-05-5.66555E-06-7.92308E-19-8.19713E-19
 -1       698 1.09123E-04-3.83168E-05-3.03485E-05-1.15004E-06-4.32302E-19-1.35693E-18
 -1       699 1.06497E-04-3.66943E-05-2.99213E-05 2.66029E-06-8.02913E-20-9.82236E-19
 -1       700 1.03678E-04-3.43645E-05-2.97099E-05 5.26281E-06-8.03303E-19-1.29164E-18
 -1       701 1.01129E-04-3.20071E-05-2.96259E-05 6.64578E-06 1.25777E-19-2.08944E-19
 -1       702 9.89962E-05-2.98990E-05-2.96127E-05 6.96994E-06-1.23172E-18 1.46601E-18
 -1       703 9.74229E-05-2.83048E-05-2.96206E-05 6.92619E-06-2.48990E-18 1.04839E-19
 -1       704 8.80967E-05-2.03629E-05-2.90306E-05 5.52288E-06 1.01654E-18-2.85824E-19
 -1       705 9.30212E-05-2.46166E-05-2.93181E-05 9.18650E-06-1.15408E-18 2.08454E-18
 -1       706 8.65062E-05-1.89442E-05-2.89573E-05 1.72027E-06-3.51440E-19-1.07489E-18
 -1       707 9.04846E-05-2.24370E-05-2.91649E-05 8.08255E-06 2.36139E-19 1.49314E-18
 -1       708 9.52298E-05-2.70404E-05-2.92220E-05 9.34552E-07 1.29323E-18-1.09364E-18
 -1       709 8.62460E-05-1.86254E-05-2.89830E-05-2.60223E-06-1.06963E-18 7.46980E-19
 -1       710 8.74620E-05-1.95104E-05-2.91247E-05-6.71692E-06 1.16616E-18 1.81765E-18
 -1       711 8.99224E-05-2.13828E-05-2.93745E-05-9.72623E-06 1.03794E-18 6.05743E-19
 -1       712 3.51201E-05-1.13021E-05-9.61273E-06 3.24288E-06-7.57995E-19-3.71996E-18
 -1       713 1.20247E-04-9.02741E-06-4.82625E-05-1.73284E-06 6.89273E-19-1.10440E-18
 -1       714 1.28449E-04-2.67267E-05-4.40864E-05 1.38630E-05 2.25388E-18 1.79275E-18
 -1       715 1.00867E-04-5.12624E-05-2.10198E-05-3.55042E-05-8.06296E-19 5.12554E-19
 -1       716 1.09476E-04-5.45053E-05-2.33475E-05-3.05452E-05 1.28577E-18 1.21655E-19
 -1       717 8.73813E-05-4.29799E-05-1.87983E-05 3.40577E-05 1.93171E-18-5.69444E-19
 -1       718 1.34822E-04-4.20879E-05-4.00697E-05-9.09721E-06 1.29848E-19-1.34432E-18
 -1       719 9.20882E-05-1.76818E-05-3.18943E-05 3.95523E-06 1.00706E-18-2.61912E-18
 -1       720 9.20433E-05-1.76214E-05-3.19016E-05-3.89509E-06-1.30772E-18-2.63169E-18
 -1       721 4.20377E-05-1.23964E-05-1.21953E-05-2.38263E-06 7.45621E-20 1.59041E-18
 -1       722 1.27662E-04-2.42400E-05-4.47912E-05-1.27487E-05 8.22628E-19-8.66369E-19
 -1       723 1.10455E-04-5.44569E-05-2.38049E-05 3.03564E-05-2.18971E-18-1.19628E-18
 -1       724 1.19769E-04-5.86472E-05-2.60686E-05 2.28833E-05-4.63089E-20 1.83043E-18
 -1       725 1.33651E-04-5.09020E-05-3.56011E-05 2.84195E-06 9.85165E-19 1.42519E-18
 -1       726 1.23675E-04-5.88122E-05-2.78001E-05-2.06927E-05 2.98261E-19 8.31164E-19
 -1       727 7.04380E-05-3.38077E-05-1.52587E-05-3.75425E-05-1.52686E-18-2.04474E-18
 -1       728 5.11708E-05-2.09907E-05-1.24130E-05 2.58028E-05 1.26872E-18-4.81581E-18
 -1       729 9.47373E-05-2.48399E-05-2.99534E-05-1.07638E-05-5.95745E-19 2.54847E-18
 -1       730 7.59940E-05-3.69648E-05-1.63645E-05-3.64702E-05 3.42545E-19 1.69062E-19
 -1       731 1.22387E-04-1.20778E-05-4.77988E-05 9.14445E-06 1.59856E-18 1.95810E-19
 -1       732 1.32136E-04-6.14490E-05-3.03508E-05-1.30017E-05 7.77351E-19-1.55800E-18
 -1       733 1.32762E-04-5.56381E-05-3.32093E-05 4.30046E-06-2.67395E-18-3.62252E-19
 -1       734 1.37171E-04-5.90800E-05-3.35265E-05 2.04670E-06 6.80213E-20 1.07602E-18
 -1       735 9.53017E-05-2.42736E-05-3.04309E-05 4.97404E-06 2.21330E-18-1.32939E-18
 -1       736 9.28119E-05-1.88853E-05-3.16913E-05-5.23586E-06-1.76996E-18-2.42759E-18
 -1       737 9.13034E-05-1.64456E-05-3.20873E-05-7.84327E-07-3.51816E-19-3.06777E-18
 -1       738 9.62322E-05-2.72561E-05-2.95596E-05 8.27447E-06-2.17468E-18-2.67186E-18
 -1       739 1.27132E-04-3.94310E-05-3.77694E-05 1.23778E-05 1.65259E-18 1.89590E-19
 -1       740 9.31375E-05-2.38013E-05-2.97119E-05-1.10991E-05-1.86921E-19 2.10778E-18
 -1       741 1.16541E-04-1.55911E-05-4.35888E-05-9.16415E-06 1.19482E-18-1.39573E-18
 -1       742 9.41664E-05-2.13004E-05-3.12312E-05-6.16697E-06-2.01913E-18-1.69933E-18
 -1       743 7.40229E-05-3.07018E-05-1.83487E-05 2.94682E-05 1.12625E-18-2.71892E-18
 -1       744 1.22669E-04-5.60204E-05-2.85464E-05 1.51805E-05-1.62121E-18 1.56729E-18
 -1       745 9.48449E-05-2.61053E-05-2.94603E-05 9.03743E-06-1.95627E-18-1.36010E-19
 -1       746 4.75630E-05-1.39894E-05-1.40448E-05 1.06544E-05-1.85385E-18 2.57453E-18
 -1       747 9.15443E-05-1.68247E-05-3.20283E-05-2.38194E-06-7.47683E-19-2.87909E-18
 -1       748 9.46342E-05-2.27221E-05-3.08187E-05 3.92123E-06 1.62262E-18-1.50309E-18
 -1       749 8.66348E-05-2.06546E-05-2.82793E-05-9.92675E-06 7.83476E-19 8.91515E-19
 -1       750 9.06616E-05-4.13916E-05-2.09382E-05-3.17462E-05-2.03681E-18 2.28527E-19
 -1       751 1.24093E-04-3.34575E-05-3.91031E-05-1.32805E-05-5.30349E-19-2.44080E-18
 -1       752 9.55958E-05-2.55344E-05-3.00278E-05-1.81592E-06-1.25743E-18-1.51554E-18
 -1       753 9.58753E-05-2.68832E-05-2.95680E-05-5.86898E-07-9.66906E-19-1.40371E-18
 -1       754 9.59682E-05-2.77676E-05-2.92289E-05 2.18285E-07-1.02155E-18-9.58426E-19
 -1       755 9.59569E-05-2.83210E-05-2.89868E-05 7.03543E-07-9.47039E-19-1.03914E-18
 -1       756 9.58954E-05-2.86501E-05-2.88194E-05 9.61647E-07-3.97851E-19-1.30548E-18
 -1       757 9.58126E-05-2.88253E-05-2.87089E-05 1.06927E-06-2.34605E-19-1.33168E-18
 -1       758 9.57232E-05-2.88935E-05-2.86413E-05 1.08656E-06-3.10658E-19-1.04643E-18
 -1       759 9.56341E-05-2.88863E-05-2.86062E-05 1.05923E-06-1.86603E-19-1.23817E-18
 -1       760 9.55477E-05-2.88241E-05-2.85959E-05 1.02172E-06-3.00934E-19-6.44958E-19
 -1       761 9.54634E-05-2.87193E-05-2.86046E-05 1.00031E-06 3.25565E-21-5.70159E-19
 -1       762 9.53782E-05-2.85782E-05-2.86286E-05 1.01577E-06-4.49466E-19-5.70699E-19
 -1       763 9.52873E-05-2.84021E-05-2.86651E-05 1.08545E-06-9.57250E-19-3.91801E-19
 -1       764 9.51841E-05-2.81890E-05-2.87122E-05 1.22487E-06-1.03587E-18-4.48335E-19
 -1       765 9.50596E-05-2.79335E-05-2.87683E-05 1.44876E-06-5.73616E-19-4.09188E-19
 -1       766 9.49023E-05-2.76283E-05-2.88317E-05 1.77181E-06-6.06927E-19-4.12159E-19
 -1       767 9.46977E-05-2.72650E-05-2.88996E-05 2.20871E-06-3.30220E-19-1.53182E-19
 -1       768 9.44278E-05-2.68357E-05-2.89679E-05 2.77404E-06 1.43134E-19-3.00324E-19
 -1       769 9.40716E-05-2.63356E-05-2.90296E-05 3.48175E-06 1.98166E-19-2.65865E-19
 -1       770 9.36063E-05-2.57678E-05-2.90735E-05 4.34480E-06 8.55700E-19-2.30718E-19
 -1       771 9.30118E-05-2.51515E-05-2.90827E-05 5.37558E-06-2.30989E-19 1.62264E-19
 -1       772 9.22792E-05-2.45354E-05-2.90327E-05 6.58849E-06-5.02171E-19-3.52230E-19
 -1       773 9.14293E-05-2.40201E-05-2.88892E-05 8.00692E-06-5.03287E-19-1.17248E-18
 -1       774 9.05456E-05-2.37920E-05-2.86080E-05 9.67764E-06 1.75844E-19-6.40855E-19
 -1       775 8.98341E-05-2.41756E-05-2.81382E-05 1.16917E-05 1.85469E-19-4.08685E-19
 -1       776 8.97208E-05-2.57002E-05-2.74357E-05 1.41932E-05 1.92073E-19-8.91291E-20
 -1       777 9.09932E-05-2.91907E-05-2.64836E-05 1.74146E-05-1.74209E-19-1.15028E-19
 -1       778 9.56361E-05-3.60987E-05-2.54686E-05 2.14638E-05-5.30868E-20-5.05703E-19
 -1       779 1.04521E-04-4.62330E-05-2.47866E-05 2.42483E-05 5.97575E-19 3.19894E-19
 -1       780 1.34224E-04-2.02865E-05-4.95790E-05-1.27600E-05-3.21613E-18-5.70953E-20
 -1       781 9.56349E-05-2.85671E-05-2.87434E-05-1.00589E-06 3.26155E-19-9.42625E-19
 -1       782 1.02584E-04-4.32250E-05-2.53475E-05-2.39036E-05 1.77675E-18 5.05407E-20
 -1       783 9.52686E-05-3.41412E-05-2.61676E-05-2.11702E-05-1.88073E-19-1.10748E-18
 -1       784 9.21853E-05-2.86594E-05-2.72125E-05-1.80813E-05-5.90446E-19-2.03429E-18
 -1       785 9.13280E-05-2.56060E-05-2.81612E-05-1.53554E-05-3.48824E-19 2.19495E-20
 -1       786 9.56968E-05-2.82583E-05-2.89022E-05-7.25495E-07 6.15259E-19-1.15138E-18
 -1       787 9.57344E-05-2.77439E-05-2.91387E-05-1.94399E-07 8.18709E-19-1.01081E-18
 -1       788 8.31115E-05-1.85681E-05-2.76630E-05 1.05814E-08 1.18288E-18 5.58299E-19
 -1       789 9.55072E-05-2.88120E-05-2.85837E-05-1.13741E-06 4.19091E-19-9.18638E-19
 -1       790 9.54521E-05-2.88203E-05-2.85565E-05-1.10290E-06 4.40469E-19-6.21926E-19
 -1       791 9.54036E-05-2.87809E-05-2.85527E-05-1.05411E-06-1.08183E-19-3.12080E-19
 -1       792 9.53609E-05-2.87060E-05-2.85664E-05-1.01822E-06 3.07483E-19-4.34904E-19
 -1       793 9.53222E-05-2.86033E-05-2.85938E-05-1.01608E-06 5.23908E-19-5.69955E-19
 -1       794 9.52861E-05-2.84770E-05-2.86324E-05-1.06440E-06 2.89783E-19-9.68689E-19
 -1       795 9.52511E-05-2.83299E-05-2.86805E-05-1.17724E-06-3.03307E-19-9.00528E-19
 -1       796 9.52167E-05-2.81643E-05-2.87367E-05-1.36684E-06 6.88180E-20-1.01861E-18
 -1       797 9.51837E-05-2.79842E-05-2.87997E-05-1.64386E-06 1.46864E-19-1.00903E-18
 -1       798 9.51559E-05-2.77972E-05-2.88679E-05-2.01694E-06 3.43708E-19-9.10769E-19
 -1       799 9.51412E-05-2.76174E-05-2.89386E-05-2.49149E-06-3.39025E-19-2.12261E-19
 -1       800 9.51553E-05-2.74694E-05-2.90081E-05-3.06756E-06-7.82945E-19 9.71144E-19
 -1       801 9.52256E-05-2.73928E-05-2.90710E-05-3.73676E-06-4.04363E-19 1.37422E-18
 -1       802 9.53978E-05-2.74487E-05-2.91209E-05-4.47781E-06 1.01964E-19 1.25094E-18
 -1       803 9.57434E-05-2.77250E-05-2.91506E-05-5.25028E-06-5.06194E-20 1.24927E-18
 -1       804 9.63697E-05-2.83408E-05-2.91552E-05-5.98546E-06-5.50785E-19 1.30827E-18
 -1       805 9.74262E-05-2.94426E-05-2.91359E-05-6.57258E-06-1.40887E-18 8.84676E-19
 -1       806 9.91015E-05-3.11818E-05-2.91090E-05-6.83828E-06-8.62379E-19 8.39187E-19
 -1       807 1.01593E-04-3.36551E-05-2.91173E-05-6.51852E-06-1.76761E-18 1.01682E-18
 -1       808 1.05013E-04-3.67732E-05-2.92480E-05-5.23504E-06 1.62309E-19 4.84603E-19
 -1       809 1.09203E-04-4.00333E-05-2.96481E-05-2.52835E-06-3.36376E-19 4.18890E-19
 -1       810 1.13436E-04-4.22252E-05-3.05229E-05 1.92141E-06 4.39044E-19 8.00101E-19
 -1       811 1.16173E-04-4.13078E-05-3.20913E-05 7.72969E-06 5.32107E-19 4.51758E-19
 -1       812 1.15516E-04-3.54426E-05-3.43949E-05 1.26302E-05 6.98455E-19-1.65556E-18
 -1       813 1.11825E-04-2.60375E-05-3.68575E-05 1.26879E-05 4.06741E-19-2.92247E-18
 -1       814 1.07371E-04-1.77095E-05-3.85357E-05 5.98426E-06 1.01794E-18-3.37933E-18
 -1       815 1.07488E-04-1.78851E-05-3.85251E-05-4.55428E-06 4.72916E-19-1.98236E-18
 -1       816 1.11442E-04-2.58725E-05-3.67775E-05-1.13897E-05 5.28185E-19-1.53603E-18
 -1       817 1.15491E-04-3.56776E-05-3.42748E-05-1.12788E-05 3.40554E-19-1.02466E-18
 -1       818 1.16240E-04-4.16037E-05-3.20043E-05-6.32301E-06 3.02174E-19-1.70308E-18
 -1       819 1.13720E-04-4.27299E-05-3.04275E-05-3.84706E-07-1.02329E-18-2.32651E-18
 -1       820 1.09489E-04-4.04714E-05-2.95846E-05 4.34772E-06-9.01315E-19-1.90537E-18
 -1       821 1.05246E-04-3.70598E-05-2.92275E-05 7.23872E-06-5.78402E-19-7.86475E-19
 -1       822 1.01710E-04-3.36247E-05-2.91805E-05 8.56365E-06-2.90950E-19-1.22664E-18
 -1       823 9.90493E-05-3.06833E-05-2.93002E-05 8.78820E-06-7.53979E-19-2.99583E-18
 -1       824 9.74858E-05-2.89042E-05-2.93956E-05 8.71604E-06-1.73432E-18-2.91593E-18
 -1       825 5.81549E-05-2.15168E-05-1.53869E-05-2.64387E-05-1.78097E-18-5.93691E-19
 -1       826 8.46930E-05-1.99488E-05-2.77489E-05 5.20666E-06-7.88138E-20-1.86786E-18
 -1       827 1.10469E-04-5.20379E-05-2.49606E-05-2.48158E-05-1.71908E-19 8.72312E-20
 -1       828 5.18439E-05-1.42349E-05-1.57854E-05 1.24934E-05-7.64877E-19-3.31354E-18
 -1       829 8.38030E-05-1.88475E-05-2.78413E-05-5.44016E-06 1.03310E-18 2.69591E-18
 -1       830 9.50249E-05-4.17582E-05-2.26726E-05-2.92467E-05 1.31678E-18-8.68996E-19
 -1       831 4.65114E-05-1.20051E-05-1.44370E-05-8.15753E-06-2.36725E-18-4.30769E-19
 -1       832 5.65710E-05-1.62178E-05-1.70116E-05-1.42326E-05-3.72668E-19 1.03756E-18
 -1       833 1.25046E-04-5.37786E-05-3.05404E-05-6.45429E-06 8.04286E-19 9.70912E-20
 -1       834 9.48956E-05-2.33926E-05-3.06425E-05-3.51685E-06-1.58626E-18-1.99048E-18
 -1       835 9.55690E-05-2.87372E-05-2.86422E-05-1.12137E-06 6.62413E-19-7.39422E-19
 -1       836 9.08162E-05-2.33599E-05-2.89090E-05-1.25406E-05 8.83144E-19 1.09488E-18
 -1       837 9.40400E-05-2.13256E-05-3.11636E-05-4.46394E-06-1.60694E-18-2.32740E-18
 -1       838 1.28063E-04-4.68590E-05-3.49217E-05-6.22288E-06-1.52774E-19-1.55466E-18
 -1       839 9.37121E-05-4.19729E-05-2.20006E-05 3.06183E-05-1.93819E-18 5.86180E-19
 -1       840 6.75828E-05-2.64810E-05-1.73189E-05 2.92157E-05-2.14336E-18 2.49357E-18
 -1       841 7.03799E-05-2.66014E-05-1.85219E-05-2.74072E-05-5.43636E-19-3.68711E-19
 -1       842 1.16985E-04-5.42261E-05-2.68247E-05-2.06929E-05 9.59814E-19-1.01611E-18
 -1       843 9.32198E-05-1.97824E-05-3.14743E-05 1.23566E-06 1.88223E-19-2.87262E-18
 -1       844 9.52144E-05-2.44760E-05-3.03160E-05 3.43854E-06 1.70655E-18-1.31921E-18
 -1       845 9.31093E-05-1.95825E-05-3.15126E-05 2.08188E-08-1.64165E-19-2.81748E-18
 -1       846 9.35324E-05-2.03660E-05-3.13579E-05 2.36616E-06 7.51436E-19-2.47571E-18
 -1       847 7.66056E-05-2.99849E-05-1.98054E-05-2.82222E-05-1.81941E-18-3.55800E-19
 -1       848 9.56966E-05-2.69093E-05-2.94798E-05 6.94656E-07 1.27032E-18-1.02824E-18
 -1       849 9.16965E-05-2.53561E-05-2.84330E-05 1.07122E-05-8.35331E-19 2.97502E-18
 -1       850 1.25204E-04-4.78063E-05-3.32065E-05 4.82035E-06 1.62884E-18 7.79270E-20
 -1       851 5.47196E-05-1.37266E-05-1.73701E-05-3.64623E-06 4.94613E-20 6.22450E-19
 -1       852 8.79418E-05-2.25192E-05-2.80389E-05 8.93314E-06-6.52715E-19 1.17196E-18
 -1       853 1.16704E-04-2.59249E-05-3.91226E-05 1.40794E-05 1.21622E-18-2.04814E-18
 -1       854 1.09580E-04-1.34194E-05-4.15391E-05 5.75877E-07 1.88200E-20-2.35148E-18
 -1       855 9.40491E-05-2.13646E-05-3.11500E-05 3.31647E-06 1.21810E-18-1.90304E-18
 -1       856 1.24252E-04-5.18569E-05-3.10682E-05 3.59556E-06-6.09371E-19-1.55220E-20
 -1       857 6.65740E-05-2.09818E-05-1.94113E-05 2.02336E-05 1.82893E-19-3.20605E-18
 -1       858 9.45643E-05-2.73402E-05-2.88087E-05 1.07463E-05-1.70885E-18 2.16923E-18
 -1       859 9.35027E-05-2.03258E-05-3.13634E-05-2.32218E-06-9.76664E-19-2.35314E-18
 -1       860 1.09124E-04-4.89715E-05-2.57432E-05 2.22084E-05-3.52670E-19 1.07677E-18
 -1       861 9.36666E-05-2.06418E-05-3.12987E-05-3.42089E-06-1.33672E-18-2.22426E-18
 -1       862 9.55200E-05-2.58994E-05-2.98376E-05 1.83317E-06 1.33043E-18-1.14722E-18
 -1       863 9.62117E-05-2.69916E-05-2.96658E-05-2.88934E-07-8.25981E-19-1.56231E-18
 -1       864 9.63751E-05-2.79108E-05-2.93419E-05 2.95726E-07-8.80652E-19-1.32605E-18
 -1       865 9.63922E-05-2.84887E-05-2.91015E-05 6.50700E-07-8.47840E-19-1.12243E-18
 -1       866 9.63223E-05-2.88229E-05-2.89284E-05 8.38286E-07-4.98250E-19-1.35050E-18
 -1       867 9.62038E-05-2.89841E-05-2.88085E-05 9.15647E-07-2.62457E-20-1.67910E-18
 -1       868 9.60602E-05-2.90226E-05-2.87304E-05 9.28773E-07-7.73339E-20-1.32319E-18
 -1       869 9.59042E-05-2.89726E-05-2.86850E-05 9.13552E-07 6.44327E-20-8.23875E-19
 -1       870 9.57413E-05-2.88565E-05-2.86649E-05 8.97581E-07-3.19262E-19-1.00755E-18
 -1       871 9.55711E-05-2.86869E-05-2.86647E-05 9.02280E-07-1.54433E-19-1.52292E-18
 -1       872 9.53888E-05-2.84695E-05-2.86797E-05 9.44804E-07-1.50873E-19-1.00609E-18
 -1       873 9.51857E-05-2.82041E-05-2.87064E-05 1.03954E-06-7.83874E-19-4.09273E-19
 -1       874 9.49494E-05-2.78860E-05-2.87414E-05 1.19906E-06-5.78375E-19-5.13337E-19
 -1       875 9.46637E-05-2.75075E-05-2.87812E-05 1.43487E-06-5.97795E-19-2.68351E-20
 -1       876 9.43082E-05-2.70585E-05-2.88213E-05 1.75758E-06-1.03556E-19 2.29214E-19
 -1       877 9.38582E-05-2.65285E-05-2.88556E-05 2.17666E-06-2.11191E-19 4.39547E-19
 -1       878 9.32840E-05-2.59082E-05-2.88754E-05 2.70026E-06 5.35568E-19-4.04074E-19
 -1       879 9.25512E-05-2.51929E-05-2.88678E-05 3.33528E-06 7.25231E-19 4.28563E-19
 -1       880 9.16212E-05-2.43871E-05-2.88146E-05 4.08867E-06 5.17427E-19 1.11099E-19
 -1       881 9.04544E-05-2.35123E-05-2.86895E-05 4.97149E-06-9.37365E-19-7.94497E-19
 -1       882 8.90150E-05-2.26183E-05-2.84558E-05 6.00872E-06-7.80375E-19-1.07011E-18
 -1       883 8.72804E-05-2.17994E-05-2.80632E-05 7.25908E-06-1.74042E-19-1.23245E-18
 -1       884 8.52583E-05-2.12195E-05-2.74445E-05 8.85280E-06 5.65066E-19-1.52138E-18
 -1       885 8.30172E-05-2.11558E-05-2.65104E-05 1.10645E-05 2.55803E-19-1.13089E-18
 -1       886 8.08881E-05-2.21376E-05-2.51808E-05 1.43624E-05 8.16593E-21-2.17182E-18
 -1       887 8.46704E-05-2.17734E-05-2.69552E-05-1.30793E-05 1.13609E-18-4.74270E-19
 -1       888 8.25636E-05-2.52367E-05-2.45400E-05-1.91999E-05-5.81822E-20-2.52184E-18
 -1       889 8.33154E-05-2.29958E-05-2.58458E-05-1.57015E-05 8.80897E-19-1.25170E-18
 -1       890 9.62065E-05-2.84178E-05-2.90523E-05-6.88502E-07 5.13828E-19-1.27051E-18
 -1       891 9.61999E-05-2.78518E-05-2.92921E-05-2.78465E-07 6.43886E-19-1.00797E-18
 -1       892 9.59179E-05-2.89684E-05-2.86927E-05-1.00781E-06 3.65545E-19-4.88602E-19
 -1       893 9.55315E-05-2.87129E-05-2.86366E-05-9.53355E-07 1.31941E-19-7.21172E-19
 -1       894 9.53975E-05-2.85396E-05-2.86534E-05-9.83853E-07 4.14639E-19-5.25500E-19
 -1       895 9.52560E-05-2.83328E-05-2.86814E-05-1.06734E-06-3.47726E-19-2.16579E-19
 -1       896 9.51021E-05-2.80946E-05-2.87175E-05-1.21738E-06-1.19431E-19-2.52132E-19
 -1       897 9.49312E-05-2.78275E-05-2.87587E-05-1.44632E-06 3.68499E-19-6.03058E-19
 -1       898 9.47400E-05-2.75361E-05-2.88016E-05-1.76569E-06-5.72075E-20-8.16261E-19
 -1       899 9.45291E-05-2.72308E-05-2.88421E-05-2.18603E-06-6.98668E-19 1.71359E-19
 -1       900 9.43053E-05-2.69311E-05-2.88746E-05-2.71628E-06-8.35872E-19-4.52842E-19
 -1       901 9.40865E-05-2.66713E-05-2.88922E-05-3.36273E-06-6.78120E-19-1.18206E-18
 -1       902 9.39082E-05-2.65065E-05-2.88863E-05-4.12749E-06-4.46591E-19-6.22317E-19
 -1       903 9.38320E-05-2.65202E-05-2.88478E-05-5.00609E-06-3.05481E-19-6.40195E-19
 -1       904 9.39585E-05-2.68324E-05-2.87682E-05-5.98317E-06-1.01584E-18-6.14689E-20
 -1       905 9.44425E-05-2.76067E-05-2.86438E-05-7.02349E-06-8.48879E-19 4.23036E-19
 -1       906 9.55087E-05-2.90493E-05-2.84825E-05-8.05253E-06-6.77547E-19 2.05788E-20
 -1       907 9.74608E-05-3.13884E-05-2.83171E-05-8.91796E-06-1.11769E-18-2.81835E-19
 -1       908 1.00656E-04-3.48020E-05-2.82241E-05-9.31521E-06-4.86502E-19-1.28110E-18
 -1       909 1.05418E-04-3.92500E-05-2.83582E-05-8.68174E-06 5.18477E-21 2.82767E-19
 -1       910 1.11692E-04-4.40429E-05-2.89978E-05-6.09722E-06-5.49870E-19 1.06453E-19
 -1       911 1.18386E-04-4.71836E-05-3.05304E-05-6.99362E-07 6.99279E-19-9.28039E-20
 -1       912 1.06376E-04-3.99070E-05-2.84878E-05 1.05546E-05-1.22365E-18 1.63178E-19
 -1       913 1.01674E-04-3.52487E-05-2.84635E-05 1.13712E-05 9.24709E-20-8.08206E-19
 -1       914 9.84092E-05-3.13878E-05-2.87297E-05 1.09839E-05-1.86519E-19-1.18904E-18
 -1       915 9.60382E-05-2.89165E-05-2.87665E-05-9.94082E-07 4.29404E-19-1.02121E-18
 -1       916 7.98895E-05-1.87738E-05-2.61954E-05 4.10696E-06 5.75953E-19 5.16228E-19
 -1       917 6.27005E-05-1.82071E-05-1.89015E-05 1.66000E-05-1.42372E-18 2.33261E-18
 -1       918 9.61411E-05-2.87493E-05-2.88822E-05-9.05036E-07 4.97951E-19-1.53238E-18
 -1       919 1.01188E-04-4.34050E-05-2.47197E-05-2.26080E-05-4.66278E-19-1.59057E-18
 -1       920 8.21971E-05-3.08769E-05-2.18881E-05 2.54312E-05-1.15151E-18 2.73444E-18
 -1       921 9.56619E-05-2.88485E-05-2.86343E-05-9.60399E-07 1.19716E-19-8.70981E-19
 -1       922 9.57909E-05-2.89383E-05-2.86511E-05-9.86387E-07 1.57965E-19-6.18286E-19
 -1       923 5.95276E-05-1.67708E-05-1.81541E-05-1.65263E-05-2.29886E-18-1.20283E-18
 -1       924 9.32107E-05-1.97666E-05-3.14771E-05-1.19395E-06-4.63940E-19-2.58772E-18
 -1       925 9.63227E-05-2.83231E-05-2.91415E-05 9.91032E-06-1.23061E-18-3.51382E-19
 -1       926 9.58265E-05-2.56301E-05-3.00856E-05-1.17599E-06-8.72040E-19-1.65014E-18
 -1       927 5.65177E-05-1.28699E-05-1.85374E-05 9.22046E-07-1.22480E-18-6.54002E-19
 -1       928 9.46364E-05-2.26571E-05-3.08468E-05-2.86024E-06-1.13780E-18-2.16974E-18
 -1       929 7.13358E-05-2.14807E-05-2.12551E-05-1.90194E-05-1.70389E-19-9.79382E-22
 -1       930 8.58241E-05-3.19376E-05-2.30194E-05-2.51855E-05 4.11440E-21-3.22571E-18
 -1       931 9.53663E-05-2.46924E-05-3.02895E-05 2.34609E-06 1.25469E-18-1.40316E-18
 -1       932 9.47045E-05-2.26131E-05-3.08961E-05 1.22385E-06 5.78466E-19-2.29826E-18
 -1       933 9.60505E-05-2.69325E-05-2.96211E-05 3.99263E-07 9.34156E-19-1.41121E-18
 -1       934 7.96427E-05-2.50767E-05-2.32385E-05 1.93088E-05-1.25326E-19-1.19211E-18
 -1       935 8.39168E-05-2.18431E-05-2.66009E-05 9.70050E-06-1.54494E-18-5.50519E-19
 -1       936 8.98906E-05-3.49997E-05-2.34531E-05-2.33309E-05-4.77950E-19-9.65449E-19
 -1       937 1.18103E-04-3.59464E-05-3.53408E-05 1.28701E-05 1.19303E-18-1.58960E-18
 -1       938 9.60731E-05-3.90159E-05-2.44414E-05 2.37225E-05-4.97604E-19 1.41208E-18
 -1       939 1.12405E-04-4.47738E-05-2.89569E-05 7.98649E-06-1.61967E-18 5.08140E-19
 -1       940 7.91435E-05-1.79183E-05-2.62391E-05-2.81924E-06 1.11233E-18 6.65525E-20
 -1       941 8.06846E-05-1.90716E-05-2.64040E-05-8.55384E-06 1.34457E-18 4.58231E-18
 -1       942 9.45607E-05-2.22742E-05-3.09799E-05 4.28932E-07 1.20983E-19-2.72580E-18
 -1       943 9.42510E-05-2.90084E-05-2.79575E-05 1.28456E-05-5.04001E-19 1.42542E-18
 -1       944 9.47068E-05-2.26051E-05-3.08976E-05-1.21106E-06-5.54623E-19-2.07069E-18
 -1       945 8.92734E-05-2.56821E-05-2.72608E-05 1.24832E-05-1.22151E-18 1.96960E-18
 -1       946 1.13607E-04-4.88819E-05-2.77188E-05-1.33700E-05 4.29224E-19-3.88287E-19
 -1       947 6.62941E-05-1.73099E-05-2.08994E-05-1.23792E-05 2.59512E-19 8.83856E-19
 -1       948 6.40950E-05-1.57880E-05-2.06348E-05 1.01568E-05-1.12195E-18-2.56884E-18
 -1       949 9.46271E-05-2.25231E-05-3.09001E-05-2.01499E-06-8.32513E-19-2.01980E-18
 -1       950 9.49738E-05-2.32779E-05-3.07263E-05 1.89829E-06 1.02085E-18-1.78174E-18
 -1       951 9.66807E-05-2.81214E-05-2.93825E-05 3.19747E-07-6.62769E-19-1.90760E-18
 -1       952 9.66894E-05-2.86707E-05-2.91508E-05 5.46769E-07-5.40049E-19-1.41368E-18
 -1       953 9.65954E-05-2.89731E-05-2.89810E-05 6.63801E-07-3.23795E-19-1.17073E-18
 -1       954 9.64387E-05-2.90966E-05-2.88609E-05 7.10096E-07 1.50950E-20-1.12714E-18
 -1       955 9.62459E-05-2.90912E-05-2.87806E-05 7.17712E-07 2.26061E-19-1.14036E-18
 -1       956 9.60318E-05-2.89909E-05-2.87318E-05 7.11779E-07-3.07136E-19-1.19184E-18
 -1       957 9.58017E-05-2.88172E-05-2.87077E-05 7.11806E-07-3.82844E-19-7.75109E-19
 -1       958 9.55541E-05-2.85817E-05-2.87024E-05 7.32976E-07 3.47313E-19-5.23616E-19
 -1       959 9.52809E-05-2.82884E-05-2.87111E-05 7.87439E-07-6.30833E-20-5.77082E-19
 -1       960 9.49696E-05-2.79353E-05-2.87290E-05 8.85074E-07-6.64608E-19 2.12000E-19
 -1       961 9.46025E-05-2.75157E-05-2.87515E-05 1.03369E-06-1.59788E-19 3.86323E-19
 -1       962 9.41571E-05-2.70202E-05-2.87730E-05 1.23979E-06 1.32419E-19 4.58735E-19
 -1       963 9.36064E-05-2.64379E-05-2.87866E-05 1.50760E-06 1.01676E-19 1.10889E-18
 -1       964 9.29176E-05-2.57582E-05-2.87827E-05 1.83886E-06-3.42561E-19 1.41582E-18
 -1       965 9.20522E-05-2.49728E-05-2.87484E-05 2.23248E-06 7.54743E-20 1.24430E-18
 -1       966 9.09646E-05-2.40787E-05-2.86656E-05 2.68494E-06 2.56790E-19 4.57063E-20
 -1       967 8.96011E-05-2.30814E-05-2.85087E-05 3.19257E-06-6.57850E-19 8.22799E-20
 -1       968 8.78970E-05-2.19988E-05-2.82424E-05 3.75801E-06-8.94495E-19 2.60766E-19
 -1       969 8.57723E-05-2.08661E-05-2.78176E-05 4.40293E-06-5.33922E-19-1.03879E-19
 -1       970 8.31176E-05-1.97359E-05-2.71643E-05 5.19272E-06-4.22952E-19-4.60878E-19
 -1       971 7.97761E-05-1.86849E-05-2.61820E-05 6.29091E-06 3.00657E-19-1.92559E-18
 -1       972 7.56641E-05-1.78468E-05-2.47718E-05 8.09822E-06-3.75166E-19-1.99140E-18
 -1       973 9.65648E-05-2.85949E-05-2.91299E-05-6.07127E-07 5.75273E-19-1.06620E-18
 -1       974 9.65500E-05-2.80338E-05-2.93641E-05-3.28187E-07 6.89366E-19-1.18357E-18
 -1       975 9.61694E-05-2.90644E-05-2.87593E-05-8.18803E-07 4.14480E-19-5.76346E-19
 -1       976 9.55709E-05-2.86430E-05-2.86834E-05-8.18521E-07 5.05055E-20-1.08504E-19
 -1       977 9.48240E-05-2.77736E-05-2.87359E-05-1.14716E-06 5.18730E-19-6.97722E-19
 -1       978 9.45087E-05-2.74004E-05-2.87607E-05-1.39228E-06-2.01654E-19-1.03137E-18
 -1       979 9.41471E-05-2.69922E-05-2.87807E-05-1.72650E-06-7.45275E-19 8.21237E-20
 -1       980 9.37360E-05-2.65614E-05-2.87891E-05-2.16386E-06-1.44534E-19-1.49475E-19
 -1       981 9.32800E-05-2.61326E-05-2.87775E-05-2.71992E-06 3.70292E-19-1.12216E-18
 -1       982 9.27965E-05-2.57473E-05-2.87354E-05-3.41246E-06-1.21902E-18-1.42403E-18
 -1       983 9.23236E-05-2.54719E-05-2.86508E-05-4.26237E-06-6.71529E-19-1.20707E-18
 -1       984 9.19300E-05-2.54060E-05-2.85103E-05-5.29465E-06-6.51683E-19-3.80514E-19
 -1       985 9.17312E-05-2.56933E-05-2.83020E-05-6.53819E-06-9.05636E-19-1.40598E-18
 -1       986 9.19132E-05-2.65345E-05-2.80196E-05-8.01934E-06-4.53598E-19-1.51226E-18
 -1       987 9.27625E-05-2.81959E-05-2.76714E-05-9.73918E-06-8.08680E-19-1.28441E-18
 -1       988 9.47001E-05-3.10073E-05-2.72983E-05-1.16252E-05-9.89087E-19-1.21001E-18
 -1       989 9.83267E-05-3.53150E-05-2.69975E-05-1.33733E-05-1.17537E-18 2.44277E-19
 -1       990 1.04371E-04-4.12949E-05-2.70282E-05-1.41517E-05-2.77659E-19-1.74469E-20
 -1       991 1.06140E-04-4.25505E-05-2.72117E-05 1.60901E-05-1.30897E-18 1.20541E-18
 -1       992 9.98714E-05-3.61511E-05-2.73428E-05 1.52577E-05-2.94689E-19 2.01936E-18
 -1       993 9.63412E-05-2.90502E-05-2.88389E-05-8.10085E-07 2.31128E-19-7.27395E-19
 -1       994 7.39838E-05-2.35384E-05-2.15595E-05-1.99911E-05-1.12546E-18-1.03484E-18
 -1       995 9.64814E-05-2.89104E-05-2.89590E-05-7.52205E-07 2.24434E-19-8.95751E-19
 -1       996 9.57810E-05-2.88424E-05-2.86880E-05-8.02114E-07 2.15609E-20-8.18507E-19
 -1       997 9.51002E-05-2.81063E-05-2.87117E-05-9.78133E-07 6.26051E-20-2.60746E-19
 -1       998 9.45546E-05-2.22652E-05-3.09811E-05-4.06622E-07-3.50001E-19-2.42739E-18
 -1       999 6.40155E-05-1.52328E-05-2.08361E-05-7.80125E-06-1.20691E-18 1.64146E-19
 -1      1000 9.59807E-05-2.89875E-05-2.87113E-05-8.08361E-07 3.58007E-19-9.10372E-19
 -1      1001 1.17386E-04-5.01571E-05-2.87749E-05 1.05641E-05-1.57868E-18 1.50111E-18
 -1      1002 7.51854E-05-2.24568E-05-2.25485E-05 1.71638E-05 1.21772E-18 3.00153E-18
 -1      1003 9.57954E-05-2.59785E-05-2.99216E-05 1.22539E-06 1.10558E-18-1.41788E-18
 -1      1004 9.61083E-05-2.59314E-05-3.00765E-05-6.40896E-07-8.42778E-19-1.96121E-18
 -1      1005 6.51749E-05-1.54711E-05-2.12200E-05 3.54733E-06 1.49108E-18-1.26317E-18
 -1      1006 9.53464E-05-2.83966E-05-2.86928E-05-8.72731E-07-5.89454E-20 1.32104E-19
 -1      1007 7.59846E-05-2.06087E-05-2.37013E-05-1.50670E-05-2.67068E-19 1.29135E-18
 -1      1008 9.65058E-05-2.72311E-05-2.96891E-05-6.14976E-08-9.48929E-19-1.95024E-18
 -1      1009 9.63775E-05-2.71313E-05-2.96788E-05 1.41819E-07 6.21069E-19-1.07905E-18
 -1      1010 7.79430E-05-2.04098E-05-2.46495E-05 1.01205E-05 7.56897E-19 4.39630E-19
 -1      1011 7.81444E-05-1.94763E-05-2.51328E-05-1.13198E-05 2.61207E-18 3.83532E-18
 -1      1012 9.56219E-05-2.44776E-05-3.04918E-05-4.79573E-07-7.30978E-19-2.18723E-18
 -1      1013 9.57159E-05-2.48651E-05-3.03655E-05 9.15372E-07 8.60978E-19-1.64257E-18
 -1      1014 9.55491E-05-3.57621E-05-2.55941E-05-1.78193E-05-5.97044E-19-1.97522E-18
 -1      1015 9.56243E-05-2.44816E-05-3.04895E-05 4.95828E-07 3.65509E-19-2.08346E-18
 -1      1016 6.56868E-05-1.46626E-05-2.18201E-05 8.59294E-07-1.26737E-18-1.03282E-18
 -1      1017 7.35244E-05-1.69609E-05-2.42358E-05 1.70472E-06 6.95910E-19 5.68183E-19
 -1      1018 8.83353E-05-3.06799E-05-2.46901E-05 2.00112E-05-1.26470E-18 1.24674E-18
 -1      1019 9.68903E-05-2.83733E-05-2.93646E-05 2.64690E-07-3.70357E-19-1.54261E-18
 -1      1020 9.39899E-05-2.69122E-05-2.87477E-05-1.18338E-06-5.48912E-19-1.84738E-19
 -1      1021 9.63860E-05-2.62685E-05-3.00508E-05-1.92682E-07-7.19617E-19-1.97100E-18
 -1      1022 9.68640E-05-2.88513E-05-2.91484E-05 3.83368E-07-3.43093E-19-1.30981E-18
 -1      1023 9.67329E-05-2.90922E-05-2.89890E-05 4.40862E-07 5.38854E-20-1.00107E-18
 -1      1024 9.65366E-05-2.91601E-05-2.88757E-05 4.61972E-07 8.83842E-20-8.02498E-19
 -1      1025 9.63006E-05-2.91015E-05-2.87996E-05 4.65161E-07 1.81300E-19-9.65748E-19
 -1      1026 9.60380E-05-2.89477E-05-2.87530E-05 4.64926E-07-1.40568E-19-7.05804E-19
 -1      1027 9.57523E-05-2.87177E-05-2.87292E-05 4.72444E-07 8.66967E-20-6.67195E-19
 -1      1028 9.54394E-05-2.84210E-05-2.87222E-05 4.96026E-07-1.45467E-19-1.05569E-18
 -1      1029 9.50874E-05-2.80584E-05-2.87267E-05 5.42316E-07 1.08676E-19-1.85470E-18
 -1      1030 9.46818E-05-2.76289E-05-2.87371E-05 6.14807E-07 1.89511E-19-4.43571E-19
 -1      1031 9.41986E-05-2.71217E-05-2.87474E-05 7.16950E-07 4.83767E-19 3.47641E-19
 -1      1032 9.36134E-05-2.65296E-05-2.87504E-05 8.47811E-07 5.01174E-19 3.82887E-19
 -1      1033 9.28941E-05-2.58424E-05-2.87367E-05 1.00371E-06-1.29753E-19 5.08846E-19
 -1      1034 9.20045E-05-2.50524E-05-2.86941E-05 1.17681E-06 3.05080E-19 6.99510E-19
 -1      1035 9.09014E-05-2.41558E-05-2.86057E-05 1.35391E-06-7.36069E-19 1.11329E-18
 -1      1036 8.95335E-05-2.31540E-05-2.84489E-05 1.51621E-06-6.18931E-19 6.12594E-19
 -1      1037 8.78357E-05-2.20552E-05-2.81924E-05 1.64058E-06-6.76242E-19 1.81603E-19
 -1      1038 8.57196E-05-2.08727E-05-2.77926E-05 1.70444E-06-5.72823E-19 3.15530E-19
 -1      1039 8.30631E-05-1.96271E-05-2.71885E-05 1.69248E-06-9.34151E-19 1.50864E-19
 -1      1040 7.96623E-05-1.83184E-05-2.62907E-05 1.58980E-06-7.45342E-19-6.41021E-19
 -1      1041 7.52158E-05-1.69256E-05-2.49865E-05 1.52933E-06-2.53689E-19-1.38283E-18
 -1      1042 8.27072E-05-2.39280E-05-2.51754E-05 1.40684E-05-3.92116E-19 2.07116E-19
 -1      1043 9.67727E-05-2.75440E-05-2.96692E-05 4.75594E-08-4.94539E-19-1.60800E-18
 -1      1044 9.55957E-05-2.43512E-05-3.05325E-05-7.66815E-10-4.00979E-19-2.20844E-18
 -1      1045 9.44505E-05-2.73912E-05-2.87398E-05-9.52119E-07 4.45739E-19 4.53691E-19
 -1      1046 9.28302E-05-2.58243E-05-2.87170E-05-1.91454E-06 9.71268E-20-1.09215E-18
 -1      1047 9.21207E-05-2.52544E-05-2.86572E-05-2.45760E-06 3.94672E-19-8.27745E-19
 -1      1048 9.13345E-05-2.47199E-05-2.85493E-05-3.15974E-06-9.90528E-19-1.49818E-18
 -1      1049 9.05003E-05-2.42896E-05-2.83762E-05-4.06571E-06-1.57588E-18-8.72281E-19
 -1      1050 8.96739E-05-2.40655E-05-2.81181E-05-5.23788E-06-3.23653E-19-8.00945E-19
 -1      1051 8.89539E-05-2.41949E-05-2.77541E-05-6.76411E-06-4.55875E-19-6.89212E-19
 -1      1052 8.85154E-05-2.48961E-05-2.72666E-05-8.75863E-06-6.15365E-19-1.19637E-18
 -1      1053 8.86639E-05-2.64896E-05-2.66460E-05-1.13541E-05-9.55097E-19-3.30754E-19
 -1      1054 8.98433E-05-2.93684E-05-2.59172E-05-1.46279E-05-2.06138E-18-1.04593E-18
 -1      1055 9.67952E-05-2.87785E-05-2.91501E-05-4.68455E-07 3.37543E-19-6.80024E-19
 -1      1056 9.64999E-05-2.91368E-05-2.88699E-05-5.79081E-07 8.69790E-20-5.86802E-19
 -1      1057 9.68048E-05-2.82709E-05-2.93719E-05-3.07052E-07 6.44276E-19-9.90184E-19
 -1      1058 9.66797E-05-2.90452E-05-2.89863E-05-5.49052E-07-1.66630E-19-7.06817E-19
 -1      1059 7.45781E-05-1.73676E-05-2.44839E-05-5.33697E-06 1.76394E-18 3.22005E-18
 -1      1060 9.57799E-05-2.87698E-05-2.87186E-05-5.88649E-07-2.49093E-19 2.76468E-19
 -1      1061 9.48468E-05-2.78173E-05-2.87270E-05-7.89127E-07 3.61783E-19-2.76129E-19
 -1      1062 9.62819E-05-2.91013E-05-2.87916E-05-5.83282E-07 1.78642E-20-2.26747E-19
 -1      1063 9.60402E-05-2.89719E-05-2.87435E-05-5.81255E-07-3.22392E-20 3.41467E-19
 -1      1064 7.41312E-05-1.96835E-05-2.33186E-05-1.19418E-05-1.06138E-18-1.33581E-18
 -1      1065 9.32726E-05-3.06019E-05-2.68275E-05 1.55198E-05-6.69245E-19 7.26387E-19
 -1      1066 8.34808E-05-2.73561E-05-2.40398E-05-1.79495E-05-8.72086E-19-1.32235E-18
 -1      1067 9.34528E-05-2.63855E-05-2.87432E-05-1.49795E-06-3.38825E-19-1.29927E-18
 -1      1068 7.16347E-05-1.67912E-05-2.34833E-05-5.92324E-06 1.80051E-18 3.81190E-18
 -1      1069 9.54995E-05-2.85069E-05-2.87111E-05-6.18403E-07 3.12210E-19-3.79504E-19
 -1      1070 9.62137E-05-2.66780E-05-2.98007E-05 4.14157E-07 7.16857E-19-1.27385E-18
 -1      1071 9.66496E-05-2.74313E-05-2.96642E-05-2.65544E-08 6.34564E-19-1.24433E-18
 -1      1072 9.62973E-05-2.61830E-05-3.00488E-05 3.14624E-07 4.34629E-19-1.55827E-18
 -1      1073 9.51919E-05-2.81888E-05-2.87156E-05-6.81379E-07 5.94666E-20-4.15708E-20
 -1      1074 7.19172E-05-1.69445E-05-2.35402E-05-5.91867E-06-8.64088E-19-2.10412E-19
 -1      1075 9.70003E-05-2.86249E-05-2.93035E-05 1.26614E-07-2.01757E-19-8.81568E-19
 -1      1076 9.69234E-05-2.90035E-05-2.91082E-05 1.62404E-07-1.66481E-20-6.85836E-19
 -1      1077 9.67514E-05-2.91665E-05-2.89647E-05 1.77983E-07-2.79149E-20-1.00463E-18
 -1      1078 9.65195E-05-2.91708E-05-2.88635E-05 1.83073E-07-1.36682E-19-1.05336E-18
 -1      1079 9.62494E-05-2.90574E-05-2.87964E-05 1.83857E-07-2.79484E-20-1.01867E-18
 -1      1080 9.59507E-05-2.88532E-05-2.87559E-05 1.84940E-07 5.14587E-20-9.78926E-19
 -1      1081 9.56237E-05-2.85738E-05-2.87356E-05 1.89483E-07-2.45991E-19-1.22897E-18
 -1      1082 9.52622E-05-2.82270E-05-2.87293E-05 1.98795E-07 1.67637E-19-3.77080E-19
 -1      1083 9.48528E-05-2.78118E-05-2.87314E-05 2.16303E-07 4.86565E-19-4.28983E-19
 -1      1084 9.43687E-05-2.73183E-05-2.87357E-05 2.36740E-07 4.43011E-19-1.25473E-18
 -1      1085 9.37970E-05-2.67487E-05-2.87349E-05 2.56360E-07 3.03760E-19-1.45600E-18
 -1      1086 9.31060E-05-2.60916E-05-2.87203E-05 2.69213E-07 6.15880E-19-1.19374E-18
 -1      1087 9.22649E-05-2.53425E-05-2.86809E-05 2.62460E-07 8.88805E-20-9.41176E-19
 -1      1088 9.12386E-05-2.45004E-05-2.86020E-05 2.16979E-07-2.41521E-19-1.02192E-18
 -1      1089 8.99871E-05-2.35707E-05-2.84641E-05 1.04829E-07-8.69462E-19-7.25660E-19
 -1      1090 8.84625E-05-2.25662E-05-2.82414E-05-1.13595E-07-9.63218E-19-5.17918E-19
 -1      1091 8.66027E-05-2.15066E-05-2.78986E-05-4.93642E-07-7.83201E-19-1.65415E-18
 -1      1092 8.43157E-05-2.04127E-05-2.73872E-05-1.11421E-06-7.78191E-19-1.45573E-18
 -1      1093 8.14299E-05-1.92728E-05-2.66450E-05-1.99725E-06-8.45164E-19-1.54397E-19
 -1      1094 7.81613E-05-1.83794E-05-2.56027E-05-3.30820E-06-5.91648E-19 5.59578E-19
 -1      1095 9.27045E-05-2.57488E-05-2.86954E-05-1.05618E-06 1.13131E-19-1.31474E-18
 -1      1096 8.97383E-05-2.36093E-05-2.83412E-05-2.53769E-06-1.31237E-18-9.26238E-19
 -1      1097 9.40200E-05-2.69741E-05-2.87340E-05-6.21848E-07 5.25222E-19-2.83157E-19
 -1      1098 9.08750E-05-2.43260E-05-2.85213E-05-1.88337E-06-5.01653E-20-7.11780E-19
 -1      1099 9.18613E-05-2.50521E-05-2.86327E-05-1.40524E-06 1.92901E-19-1.64982E-18
 -1      1100 8.84527E-05-2.29615E-05-2.80678E-05-3.43536E-06-1.18971E-18-1.32040E-18
 -1      1101 8.70324E-05-2.24681E-05-2.76704E-05-4.67208E-06-7.06257E-19-7.58989E-19
 -1      1102 8.55086E-05-2.22487E-05-2.71120E-05-6.38661E-06-3.58758E-19-1.17016E-18
 -1      1103 8.40367E-05-2.25051E-05-2.63675E-05-8.74846E-06-6.80346E-19-1.33181E-18
 -1      1104 8.27789E-05-2.35887E-05-2.53585E-05-1.21254E-05-1.11873E-18-1.15157E-18
 -1      1105 9.69107E-05-2.89451E-05-2.91281E-05-2.66993E-07-9.28016E-20-5.50980E-19
 -1      1106 9.45311E-05-2.74901E-05-2.87319E-05-4.91675E-07-9.37803E-21-7.08883E-19
 -1      1107 9.69627E-05-2.85231E-05-2.93313E-05-1.98214E-07 2.14439E-19-7.86320E-19
 -1      1108 9.62936E-05-2.59931E-05-3.01299E-05 1.18519E-07 1.88676E-19-1.61853E-18
 -1      1109 9.34182E-05-2.63932E-05-2.87251E-05-8.02940E-07 2.98189E-19-8.00325E-19
 -1      1110 9.59953E-05-2.88995E-05-2.87554E-05-3.17180E-07 1.07472E-19-1.10667E-18
 -1      1111 9.65371E-05-2.91723E-05-2.88707E-05-3.11803E-07-1.12714E-19-2.69107E-19
 -1      1112 9.62798E-05-2.90819E-05-2.87992E-05-3.14157E-07-1.74276E-19-6.51503E-19
 -1      1113 9.67553E-05-2.91412E-05-2.89775E-05-3.00172E-07-4.95801E-20-6.21749E-19
 -1      1114 9.69352E-05-2.79513E-05-2.95645E-05 3.59316E-08-3.96159E-20-9.95585E-19
 -1      1115 9.68526E-05-2.77919E-05-2.95981E-05-7.71646E-08 4.52209E-19-1.11459E-18
 -1      1116 7.85602E-05-1.99299E-05-2.51366E-05-8.35986E-06-1.22470E-18-1.06379E-18
 -1      1117 9.56856E-05-2.86426E-05-2.87327E-05-3.29087E-07 3.76018E-19-9.94512E-19
 -1      1118 9.49698E-05-2.79390E-05-2.87268E-05-4.09304E-07 2.05176E-19-1.45731E-18
 -1      1119 9.67140E-05-2.71105E-05-2.98293E-05 2.66331E-09 2.04314E-19-1.29289E-18
 -1      1120 9.50646E-05-2.80344E-05-2.87281E-05-1.50185E-07 8.97865E-20-7.82148E-19
 -1      1121 9.66959E-05-2.72323E-05-2.97695E-05 9.51454E-09 2.29481E-19-1.52382E-18
 -1      1122 9.53456E-05-2.83209E-05-2.87250E-05-3.58483E-07 1.84545E-19-7.37991E-19
 -1      1123 1.16848E-04 2.57545E-10-4.18524E-05-4.14671E-05-2.72745E-19 1.27883E-17
 -1      1124 8.86427E-05 7.19017E-11-3.72482E-05-2.41727E-05-1.78300E-19 3.12513E-18
 -1      1125 8.40723E-05 4.14454E-11-3.57645E-05-1.78849E-05-1.31184E-19-1.33130E-18
 -1      1126 8.23318E-05 3.20238E-11-3.50717E-05-1.38433E-05-1.01935E-19-3.59333E-18
 -1      1127 8.15321E-05 2.73361E-11-3.47388E-05-1.05407E-05-6.64789E-20-4.72738E-18
 -1      1128 8.11334E-05 2.46223E-11-3.45747E-05-7.64660E-06-5.29991E-20-5.36447E-18
 -1      1129 8.09268E-05 2.29675E-11-3.44924E-05-4.98377E-06-3.40600E-20-5.68259E-18
 -1      1130 8.08263E-05 2.20741E-11-3.44538E-05-2.43415E-06-1.77215E-20-5.87224E-18
 -1      1131 8.07977E-05 2.18045E-11-3.44429E-05 5.25864E-08 1.92899E-21-5.90526E-18
 -1      1132 8.08305E-05 2.21183E-11-3.44552E-05 2.54185E-06 1.35062E-20-5.89022E-18
 -1      1133 8.09355E-05 2.30660E-11-3.44953E-05 5.09968E-06 2.33927E-20-5.78783E-18
 -1      1134 8.11489E-05 2.47789E-11-3.45790E-05 7.77831E-06 4.34568E-20-5.53248E-18
 -1      1135 8.15546E-05 2.76473E-11-3.47451E-05 1.07001E-05 6.66641E-20-5.03149E-18
 -1      1136 8.23558E-05 3.24993E-11-3.50817E-05 1.40499E-05 9.47883E-20-3.99792E-18
 -1      1137 8.40682E-05 4.19168E-11-3.57846E-05 1.81360E-05 1.43996E-19-1.93390E-18
 -1      1138 8.83408E-05 6.67269E-11-3.73184E-05 2.40153E-05 1.66230E-19 2.33715E-18
 -1      1139 1.06612E-04 1.63899E-10-4.06312E-05 3.61944E-05 4.04882E-19 1.15847E-17
 -1      1140 1.30214E-04-2.57543E-05-4.02708E-05-2.61068E-05-1.21952E-18 1.89951E-17
 -1      1141 9.74446E-05-2.88589E-05-3.15739E-05-6.80897E-07-3.71450E-19 1.61683E-17
 -1      1142 9.01417E-05-2.70211E-05-2.78878E-05 3.86799E-07-1.48615E-19 1.18936E-17
 -1      1143 8.82252E-05-2.65652E-05-2.66366E-05 2.50619E-07-1.15785E-19 8.76531E-18
 -1      1144 8.78612E-05-2.64367E-05-2.63784E-05 1.65722E-07-5.88886E-20 6.67597E-18
 -1      1145 8.82141E-05-2.65116E-05-2.64614E-05 1.17752E-07-6.74566E-20 5.24464E-18
 -1      1146 8.88928E-05-2.66938E-05-2.66619E-05 8.70176E-08-2.26945E-20 4.33417E-18
 -1      1147 8.96990E-05-2.69231E-05-2.69019E-05 6.56764E-08 5.11475E-20 4.04981E-18
 -1      1148 9.05231E-05-2.71632E-05-2.71476E-05 4.98359E-08-2.89684E-21 3.15213E-18
 -1      1149 9.13041E-05-2.73934E-05-2.73812E-05 3.75814E-08-7.27847E-21 1.99999E-18
 -1      1150 9.20104E-05-2.76030E-05-2.75932E-05 2.79048E-08 2.99481E-20 1.22608E-18
 -1      1151 9.26296E-05-2.77877E-05-2.77798E-05 2.02110E-08 4.81425E-20 1.26828E-18
 -1      1152 9.31625E-05-2.79472E-05-2.79410E-05 1.41083E-08-2.64015E-21 6.60586E-20
 -1      1153 9.36186E-05-2.80843E-05-2.80795E-05 9.32090E-09 4.04465E-20 9.08029E-19
 -1      1154 9.40143E-05-2.82038E-05-2.82002E-05 5.65384E-09-1.04460E-19 8.56706E-19
 -1      1155 9.43709E-05-2.83118E-05-2.83094E-05 2.98139E-09-1.72785E-19 2.99765E-19
 -1      1156 9.47146E-05-2.84164E-05-2.84152E-05 1.24843E-09 5.60136E-20 2.98901E-19
 -1      1157 9.50767E-05-2.85268E-05-2.85269E-05 4.80415E-10-6.74232E-20-1.59131E-19
 -1      1158 9.54944E-05-2.86542E-05-2.86559E-05 8.01657E-10-3.26101E-20-1.16739E-18
 -1      1159 9.60122E-05-2.88121E-05-2.88158E-05 2.46343E-09-1.54634E-19-1.75892E-18
 -1      1160 9.66840E-05-2.90166E-05-2.90229E-05 5.88463E-09-1.75907E-19-2.53923E-18
 -1      1161 9.75752E-05-2.92872E-05-2.92972E-05 1.17072E-08-2.24819E-20-2.94601E-18
 -1      1162 9.87645E-05-2.96476E-05-2.96624E-05 2.08644E-08 1.96503E-19-2.24665E-18
 -1      1163 1.00345E-04-3.01254E-05-3.01467E-05 3.46440E-08-2.78377E-19-2.41692E-18
 -1      1164 1.02424E-04-3.07521E-05-3.07815E-05 5.46912E-08 1.19296E-20-3.51922E-18
 -1      1165 1.05113E-04-3.15603E-05-3.15988E-05 8.28034E-08-7.04626E-20-2.48347E-18
 -1      1166 1.08508E-04-3.25775E-05-3.26236E-05 1.20184E-07 2.93690E-20-2.06282E-18
 -1      1167 1.12647E-04-3.38127E-05-3.38585E-05 1.65500E-07-3.91000E-20-2.25361E-18
 -1      1168 1.17422E-04-3.52313E-05-3.52560E-05 2.10733E-07-1.07875E-19-2.32590E-18
 -1      1169 1.22440E-04-3.67131E-05-3.66770E-05 2.33994E-07 1.11234E-19-8.06111E-19
 -1      1170 1.26832E-04-3.79976E-05-3.78436E-05 1.91016E-07 1.68579E-19-5.10179E-19
 -1      1171 1.29107E-04-3.86404E-05-3.83230E-05 1.54472E-08 1.09393E-19-1.05313E-18
 -1      1172 1.27301E-04-3.80635E-05-3.76162E-05-3.46815E-07-4.88831E-20-7.91870E-19
 -1      1173 1.19828E-04-3.58203E-05-3.54252E-05-8.44739E-07 1.76639E-19-4.48716E-19
 -1      1174 1.07189E-04-3.20974E-05-3.20543E-05-1.21860E-06 2.51365E-19-1.09754E-18
 -1      1175 9.34427E-05-2.81175E-05-2.86095E-05-1.08596E-06 1.80365E-19-2.71866E-18
 -1      1176 8.51070E-05-2.57337E-05-2.65900E-05-3.20338E-07 3.19133E-19-3.86620E-18
 -1      1177 8.67982E-05-2.62088E-05-2.69772E-05 6.53211E-07 4.03929E-20-4.43072E-18
 -1      1178 9.73213E-05-2.92194E-05-2.95180E-05 1.19987E-06 1.00665E-19-5.36839E-18
 -1      1179 1.10728E-04-3.31190E-05-3.29157E-05 1.10267E-06-1.87078E-19-5.61138E-18
 -1      1180 1.21033E-04-3.61722E-05-3.57243E-05 6.36399E-07 1.01472E-19-4.66461E-18
 -1      1181 1.25546E-04-3.75453E-05-3.71265E-05 1.66736E-07-7.27919E-23-2.94598E-18
 -1      1182 1.24742E-04-3.73435E-05-3.70789E-05-1.31489E-07 2.73532E-19-3.82373E-18
 -1      1183 1.20489E-04-3.61078E-05-3.59926E-05-2.60168E-07 2.80877E-20-3.42016E-18
 -1      1184 1.14642E-04-3.43867E-05-3.43692E-05-2.84036E-07 3.78615E-19-3.75887E-18
 -1      1185 1.08519E-04-3.25744E-05-3.26111E-05-2.59236E-07 1.57996E-19-1.91538E-18
 -1      1186 1.02945E-04-3.09186E-05-3.09933E-05-2.12685E-07 3.72162E-19-1.07052E-18
 -1      1187 9.84890E-05-2.95923E-05-2.97037E-05-1.37596E-07 5.88159E-20 5.34504E-19
 -1      1188 9.57376E-05-2.88061E-05-2.88642E-05 9.65445E-09-1.01326E-19-4.05273E-18
 -1      1189 9.49779E-05-2.84810E-05-2.84080E-05 9.62130E-08 6.13518E-19-1.21867E-18
 -1      1190 1.31048E-04-3.77367E-05-3.86563E-05 1.21748E-05-2.28884E-19 1.93522E-17
 -1      1191 9.65456E-05-2.81854E-05-3.13263E-05 8.01661E-07 1.63292E-19 1.47085E-17
 -1      1192 9.03558E-05-2.69238E-05-2.78687E-05 1.20264E-07 1.16335E-19 1.04527E-17
 -1      1193 8.83123E-05-2.64926E-05-2.66730E-05 9.09959E-09 9.45798E-20 7.57052E-18
 -1      1194 8.79018E-05-2.63994E-05-2.64055E-05-2.51560E-08 6.76435E-20 5.54118E-18
 -1      1195 8.82359E-05-2.64942E-05-2.64771E-05-3.41385E-08 4.05691E-20 4.02386E-18
 -1      1196 8.89061E-05-2.66870E-05-2.66721E-05-3.52181E-08 4.92772E-20 2.65365E-18
 -1      1197 8.97078E-05-2.69220E-05-2.69095E-05-3.33640E-08-1.11208E-19 2.48681E-18
 -1      1198 9.05297E-05-2.71651E-05-2.71536E-05-3.01202E-08 3.25550E-20 1.22826E-18
 -1      1199 9.13096E-05-2.73970E-05-2.73861E-05-2.61806E-08 7.54891E-20-4.74471E-20
 -1      1200 9.20158E-05-2.76076E-05-2.75974E-05-2.19509E-08 5.65862E-20-1.23316E-18
 -1      1201 9.26360E-05-2.77929E-05-2.77836E-05-1.76823E-08 6.39135E-20-1.75360E-18
 -1      1202 9.31707E-05-2.79529E-05-2.79449E-05-1.35227E-08-4.70702E-20-2.19451E-18
 -1      1203 9.36297E-05-2.80905E-05-2.80839E-05-9.55085E-09-7.53887E-20-1.70771E-18
 -1      1204 9.40292E-05-2.82106E-05-2.82054E-05-5.80160E-09 9.94477E-20-2.94736E-18
 -1      1205 9.43903E-05-2.83194E-05-2.83157E-05-2.28968E-09 4.85036E-20-3.69038E-18
 -1      1206 9.47382E-05-2.84244E-05-2.84225E-05 9.67100E-10-1.70577E-19-3.44901E-18
 -1      1207 9.51024E-05-2.85346E-05-2.85345E-05 3.92214E-09 1.06134E-19-3.74290E-18
 -1      1208 9.55158E-05-2.86596E-05-2.86618E-05 6.47029E-09 3.33858E-19-6.12669E-18
 -1      1209 9.60154E-05-2.88107E-05-2.88154E-05 8.41213E-09-2.40780E-19-4.61021E-18
 -1      1210 9.66415E-05-2.89996E-05-2.90073E-05 9.41158E-09 1.15213E-19-2.99279E-18
 -1      1211 9.74361E-05-2.92388E-05-2.92500E-05 8.94899E-09-1.84929E-19-3.21022E-18
 -1      1212 9.84398E-05-2.95402E-05-2.95551E-05 6.27878E-09 2.75232E-20-4.63610E-18
 -1      1213 9.96857E-05-2.99131E-05-2.99318E-05 4.15635E-10 1.77628E-19-6.75947E-18
 -1      1214 1.01189E-04-3.03617E-05-3.03833E-05-9.79906E-09-1.88329E-19-6.81532E-18
 -1      1215 1.02933E-04-3.08799E-05-3.09019E-05-2.54527E-08 2.48861E-20-3.36823E-18
 -1      1216 1.04843E-04-3.14451E-05-3.14624E-05-4.69835E-08-1.07402E-19-1.89667E-18
 -1      1217 1.06761E-04-3.20097E-05-3.20137E-05-7.30828E-08 2.44970E-19-2.55420E-18
 -1      1218 1.08416E-04-3.24938E-05-3.24716E-05-9.90040E-08-1.27706E-19-2.83040E-18
 -1      1219 1.09408E-04-3.27806E-05-3.27172E-05-1.14698E-07 2.46296E-19-3.47885E-18
 -1      1220 1.09236E-04-3.27255E-05-3.26095E-05-1.04326E-07 1.41097E-19-6.12733E-18
 -1      1221 1.07403E-04-3.21855E-05-3.20204E-05-5.01131E-08 4.11274E-21-5.89508E-18
 -1      1222 1.03628E-04-3.10794E-05-3.08967E-05 5.66213E-08-1.03765E-19-3.99122E-18
 -1      1223 9.81366E-05-2.94678E-05-2.93318E-05 1.99371E-07-2.69016E-20-2.87811E-18
 -1      1224 9.18740E-05-2.76171E-05-2.76059E-05 3.27692E-07-3.14982E-19-1.98582E-18
 -1      1225 8.64197E-05-2.59828E-05-2.61425E-05 3.73307E-07 4.57596E-21-1.87724E-18
 -1      1226 8.34473E-05-2.50642E-05-2.53634E-05 2.93758E-07 5.28095E-19-5.18068E-18
 -1      1227 8.39273E-05-2.51706E-05-2.55004E-05 1.10204E-07 2.84864E-19-4.28199E-18
 -1      1228 8.75925E-05-2.62456E-05-2.64802E-05-9.97261E-08-1.75476E-19-2.61527E-18
 -1      1229 9.30767E-05-2.78887E-05-2.79585E-05-2.51767E-07-1.13607E-19-2.20843E-18
 -1      1230 9.86215E-05-2.95649E-05-2.94827E-05-3.04916E-07 1.82577E-19-3.52429E-18
 -1      1231 1.02831E-04-3.08424E-05-3.06740E-05-2.70232E-07 1.34397E-19-1.57164E-18
 -1      1232 1.05043E-04-3.15156E-05-3.13317E-05-1.86626E-07 3.33891E-19-2.82824E-18
 -1      1233 1.05278E-04-3.15907E-05-3.14379E-05-9.18984E-08 4.86040E-19-5.05979E-18
 -1      1234 1.03977E-04-3.12026E-05-3.11002E-05-8.78689E-09-1.17222E-19-6.88578E-18
 -1      1235 1.01740E-04-3.05344E-05-3.04855E-05 5.44772E-08 1.70951E-19-7.82980E-18
 -1      1236 9.91829E-05-2.97712E-05-2.97747E-05 9.64499E-08 2.02491E-19-9.23945E-18
 -1      1237 9.68881E-05-2.90861E-05-2.91377E-05 1.10213E-07 2.66018E-19-1.05418E-17
 -1      1238 9.54097E-05-2.86401E-05-2.87019E-05 6.47363E-08 2.72865E-19-8.16091E-18
 -1      1239 9.50846E-05-2.85229E-05-2.84599E-05-5.31804E-08-4.70541E-19-4.19883E-18
 -1      1240 9.52880E-05-2.87268E-05-2.84651E-05-5.08369E-08-3.49966E-18-4.38348E-20
 -1      1241 9.51472E-05-2.83756E-05-2.87132E-05-2.85261E-08-3.37286E-18-7.45348E-20
 -1      1242 9.47018E-05-2.68782E-05-2.91731E-05 6.70795E-08 8.81602E-19-1.75336E-19
 -1      1243 9.39652E-05-2.44017E-05-2.98878E-05 1.14681E-07 1.90680E-18-3.46944E-20
 -1      1244 9.30387E-05-2.12744E-05-3.07915E-05 1.41256E-07 3.99450E-18-5.96627E-19
 -1      1245 9.20331E-05-1.78717E-05-3.17732E-05 1.51709E-07-7.39195E-19-8.03294E-20
 -1      1246 9.10617E-05-1.45688E-05-3.27212E-05 1.44481E-07-5.36212E-18-1.08989E-20
 -1      1247 9.02492E-05-1.17977E-05-3.35084E-05 1.12444E-07-2.06864E-18 2.89932E-19
 -1      1248 8.97407E-05-1.00552E-05-3.39959E-05 5.66698E-08 1.99016E-18-2.17982E-19
 -1      1249 8.96422E-05-9.70781E-06-3.40837E-05-1.63748E-08 3.44289E-19 1.32253E-19
 -1      1250 8.99999E-05-1.09203E-05-3.37287E-05-9.42782E-08 1.42147E-18-8.96455E-19
 -1      1251 9.07799E-05-1.35632E-05-3.29715E-05-1.62570E-07-2.53983E-18 9.83816E-20
 -1      1252 9.18691E-05-1.72745E-05-3.19165E-05-2.04772E-07-1.67972E-18 4.63850E-20
 -1      1253 9.31114E-05-2.14979E-05-3.07311E-05-2.14319E-07 3.54060E-19 1.54777E-19
 -1      1254 9.42726E-05-2.54528E-05-2.96420E-05-1.88309E-07 7.65903E-19 3.27894E-20
 -1      1255 9.49715E-05-2.79730E-05-2.88657E-05 5.44286E-08 5.90051E-19-8.79937E-19
 -1      1256 9.53358E-05-2.88282E-05-2.84091E-05 7.76080E-08 4.88063E-19 8.74603E-19
 -1      1257 3.58610E-05-1.11224E-04 1.88451E-05-1.41201E-05 3.32630E-18 1.18876E-18
 -1      1258 1.72261E-05-6.49312E-05 9.74127E-06-2.39480E-05 8.21453E-18 2.45047E-18
 -1      1259 8.60698E-06-7.83539E-06-6.60676E-06 1.98225E-06 5.77846E-18 4.03865E-18
 -1      1260 3.84681E-05 2.48486E-05-2.73509E-05 5.71845E-05 7.84861E-18 8.65159E-18
 -1      1261 1.13667E-04 1.16487E-05-4.79571E-05 1.04694E-04 7.77153E-18 1.15857E-17
 -1      1262 2.08348E-04-3.32146E-05-6.44597E-05 1.09249E-04 5.63573E-18 1.32586E-17
 -1      1263 2.87064E-04-7.92527E-05-7.51949E-05 6.50422E-05 2.29980E-18 1.09233E-17
 -1      1264 3.08328E-04-9.24472E-05-7.80743E-05-1.33076E-05 6.60103E-19 8.09975E-19
 -1      1265 2.62769E-04-6.49470E-05-7.20015E-05-8.57304E-05 1.95982E-18-5.82843E-18
 -1      1266 1.68413E-04-1.29169E-05-5.80832E-05-1.12232E-04 6.10287E-18-1.05371E-17
 -1      1267 7.51357E-05 2.36186E-05-3.91551E-05-8.70652E-05 7.60805E-18-1.00661E-17
 -1      1268 1.89163E-05 1.86624E-05-1.87804E-05-3.33560E-05 7.96042E-18-6.00292E-18
 -1      1269 7.78089E-06-2.49002E-05-4.92142E-07 1.17567E-05 1.15976E-17-5.78185E-18
 -1      1270 2.30452E-05-8.00314E-05 1.29837E-05 2.43266E-05 1.48188E-17-4.13606E-18
 -1      1271 3.73831E-05-1.13919E-04 1.94254E-05 5.37581E-06 7.30651E-18-1.01845E-18
 -1      1272 3.10154E-05-1.02122E-04 1.75029E-05-2.06006E-05-3.64224E-19-3.56760E-19
 -1      1273 1.47814E-05-5.86606E-05 8.03219E-06-2.65324E-05-9.88318E-18-4.13140E-18
 -1      1274 9.61555E-06-4.73538E-06-8.27931E-06 4.83779E-06-1.27580E-17-9.07172E-18
 -1      1275 4.34874E-05 2.36021E-05-2.87627E-05 5.90416E-05-1.14536E-17-1.03067E-17
 -1      1276 1.21383E-04 7.07989E-06-4.93110E-05 1.03963E-04-6.99649E-18-1.04930E-17
 -1      1277 2.22949E-04-4.12651E-05-6.66556E-05 1.06944E-04-4.00223E-18-9.20555E-18
 -1      1278 3.03360E-04-8.72457E-05-7.75150E-05 5.43301E-05-5.31513E-19-3.15223E-18
 -1      1279 3.15514E-04-9.36143E-05-7.93207E-05-2.87019E-05-8.04072E-19 4.36730E-18
 -1      1280 2.60748E-04-6.11329E-05-7.21240E-05-9.47784E-05-3.01311E-18 1.02847E-17
 -1      1281 1.68373E-04-1.18493E-05-5.83674E-05-1.13940E-04-7.69021E-18 1.30257E-17
 -1      1282 8.03269E-05 2.12022E-05-4.04135E-05-8.89694E-05-1.02787E-17 1.39303E-17
 -1      1283 2.27945E-05 1.81244E-05-2.03245E-05-3.65566E-05-7.42001E-18 7.30651E-18
 -1      1284 7.70079E-06-2.26406E-05-1.77598E-06 1.07620E-05-5.69376E-18 3.73457E-18
 -1      1285 1.95528E-05-7.45971E-05 1.18673E-05 2.69378E-05-1.19025E-17 2.94069E-18
 -1      1286 3.58185E-05-1.12659E-04 1.92606E-05 1.43546E-05-6.50013E-18 1.90201E-18
 -1      1287 1.04434E-04-2.20171E-05-3.78892E-05-1.72776E-05-4.53798E-19 1.08839E-17
 -1      1288 9.03108E-05-6.67945E-06-3.60141E-05-2.04776E-05-1.46198E-18 1.04503E-18
 -1      1289 9.26464E-05-6.73800E-06-3.72190E-05-2.57648E-05-1.81392E-18 3.40163E-18
 -1      1290 8.58987E-05-4.09591E-06-3.51277E-05-1.64406E-05-1.58316E-18-2.31732E-18
 -1      1291 8.71491E-05-4.08848E-06-3.55966E-05-1.88606E-05-1.77284E-18-8.46874E-19
 -1      1292 9.21250E-05-1.04609E-05-3.50906E-05-1.90418E-05-2.65439E-18 9.33536E-19
 -1      1293 8.40934E-05-3.19006E-06-3.46857E-05-1.28241E-05-1.34328E-18-4.07682E-18
 -1      1294 8.47036E-05-3.16060E-06-3.49095E-05-1.46386E-05-1.50078E-18-3.26822E-18
 -1      1295 8.78611E-05-7.39422E-06-3.45717E-05-1.54189E-05-2.49805E-18-1.86911E-18
 -1      1296 8.31865E-05-2.72817E-06-3.44704E-05-9.69419E-06-1.05497E-18-5.02179E-18
 -1      1297 8.34977E-05-2.70971E-06-3.45790E-05-1.12419E-05-1.19355E-18-4.58224E-18
 -1      1298 8.58651E-05-5.98249E-06-3.43045E-05-1.19626E-05-2.05458E-18-3.40129E-18
 -1      1299 8.26983E-05-2.45869E-06-3.43650E-05-6.92086E-06-7.68166E-19-5.51057E-18
 -1      1300 8.28664E-05-2.45029E-06-3.44190E-05-8.29274E-06-8.70545E-19-5.27016E-18
 -1      1301 8.48238E-05-5.21869E-06-3.41732E-05-8.95156E-06-1.59410E-18-4.17426E-18
 -1      1302 8.24248E-05-2.29329E-06-3.43130E-05-4.29873E-06-5.11992E-19-5.78473E-18
 -1      1303 8.25151E-05-2.28938E-06-3.43398E-05-5.60096E-06-5.92493E-19-5.65803E-18
 -1      1304 8.42411E-05-4.76422E-06-3.41108E-05-6.22158E-06-1.13031E-18-4.62607E-18
 -1      1305 8.22935E-05-2.20404E-06-3.42911E-05-1.79165E-06-2.53025E-19-5.92690E-18
 -1      1306 8.23320E-05-2.20246E-06-3.43020E-05-3.04380E-06-3.23785E-19-5.84082E-18
 -1      1307 8.39202E-05-4.50073E-06-3.40826E-05-3.64779E-06-6.99855E-19-4.80702E-18
 -1      1308 8.22677E-05-2.17661E-06-3.42885E-05 6.70493E-07-4.51740E-20-5.98717E-18
 -1      1309 8.22663E-05-2.17665E-06-3.42882E-05-5.66552E-07-1.13445E-19-5.97439E-18
 -1      1310 8.37799E-05-4.38135E-06-3.40721E-05-1.17160E-06-2.91980E-19-4.98627E-18
 -1      1311 8.23405E-05-2.20678E-06-3.43035E-05 3.15140E-06 1.99857E-19-5.90960E-18
 -1      1312 8.22991E-05-2.20842E-06-3.42919E-05 1.89664E-06 1.20582E-19-5.95424E-18
 -1      1313 8.37848E-05-4.38557E-06-3.40725E-05 1.27494E-06 5.30930E-20-5.02952E-18
 -1      1314 8.25319E-05-2.29956E-06-3.43425E-05 5.71774E-06 4.55730E-19-5.80965E-18
 -1      1315 8.24383E-05-2.30294E-06-3.43149E-05 4.40961E-06 3.86512E-19-5.88434E-18
 -1      1316 8.39357E-05-4.51420E-06-3.40837E-05 3.75550E-06 4.80115E-19-4.95848E-18
 -1      1317 8.28890E-05-2.46491E-06-3.44218E-05 8.40102E-06 7.30348E-19-5.46574E-18
 -1      1318 8.27175E-05-2.47362E-06-3.43674E-05 7.02056E-06 6.30894E-19-5.66152E-18
 -1      1319 8.42660E-05-4.78674E-06-3.41121E-05 6.31580E-06 9.14620E-19-4.78288E-18
 -1      1320 8.35439E-05-2.74172E-06-3.45841E-05 1.14023E-05 1.10703E-18-4.87434E-18
 -1      1321 8.32242E-05-2.75887E-06-3.44740E-05 9.83694E-06 9.68026E-19-5.23177E-18
 -1      1322 8.48659E-05-5.25918E-06-3.41743E-05 9.06021E-06 1.40766E-18-4.32140E-18
 -1      1323 8.47613E-05-3.20320E-06-3.49175E-05 1.48512E-05 1.49861E-18-3.74288E-18
 -1      1324 8.41506E-05-3.23999E-06-3.46915E-05 1.30110E-05 1.29055E-18-4.44351E-18
 -1      1325 8.59453E-05-6.06324E-06-3.43059E-05 1.21296E-05 1.97267E-18-3.68083E-18
 -1      1326 8.72485E-05-4.08956E-06-3.56182E-05 1.90979E-05 1.73197E-18-1.46441E-18
 -1      1327 8.59667E-05-4.15352E-06-3.51354E-05 1.67003E-05 1.54134E-18-2.86927E-18
 -1      1328 8.79864E-05-7.51648E-06-3.45740E-05 1.56574E-05 2.48489E-18-2.34350E-18
 -1      1329 9.34596E-05-6.79075E-06-3.71145E-05 2.51012E-05 1.62916E-18 3.15663E-18
 -1      1330 9.01264E-05-6.43644E-06-3.60369E-05 2.11549E-05 1.54398E-18 3.26478E-19
 -1      1331 9.23552E-05-1.06964E-05-3.50759E-05 1.96827E-05 2.66376E-18 2.79150E-19
 -1      1332 1.23621E-04-2.49219E-05-3.90129E-05 2.83690E-05 8.85149E-19 1.23074E-17
 -1      1333 1.00075E-04-1.44222E-05-3.73520E-05 2.40542E-05 8.54339E-19 5.88995E-18
 -1      1334 1.01672E-04-1.93401E-05-3.54002E-05 2.14035E-05 2.68558E-18 4.51003E-18
 -1      1335 1.02597E-04-2.78028E-05-3.47556E-05 7.33148E-06 1.51643E-18 1.16211E-17
 -1      1336 1.05140E-04-3.02280E-05-3.35230E-05-7.96208E-06-1.42407E-18 1.12598E-17
 -1      1337 9.82509E-05-2.78400E-05-3.07592E-05-4.99064E-06-1.36843E-18 9.64585E-18
 -1      1338 9.54918E-05-2.78459E-05-2.92512E-05-2.49209E-06-1.04368E-18 8.85131E-18
 -1      1339 9.32572E-05-2.75543E-05-2.82113E-05-2.04544E-06-1.02745E-18 7.30780E-18
 -1      1340 9.94754E-05-2.80492E-05-3.09799E-05-7.89127E-06-2.38789E-18 5.37014E-18
 -1      1341 9.15659E-05-2.71958E-05-2.75765E-05-8.40595E-07-9.24728E-19 6.70366E-18
 -1      1342 9.08470E-05-2.70997E-05-2.72736E-05-7.30278E-07-8.50421E-19 5.43141E-18
 -1      1343 9.47058E-05-2.77662E-05-2.88128E-05-3.12528E-06-1.89127E-18 4.32660E-18
 -1      1344 9.00956E-05-2.69167E-05-2.70298E-05-1.76153E-07-6.07875E-19 4.80707E-18
 -1      1345 9.00208E-05-2.69429E-05-2.69942E-05-1.18215E-07-6.24918E-19 3.95639E-18
 -1      1346 9.25036E-05-2.74949E-05-2.78910E-05-1.05758E-06-1.44825E-18 3.11576E-18
 -1      1347 8.97597E-05-2.68750E-05-2.69195E-05 1.51531E-07-3.87354E-19 3.60611E-18
 -1      1348 8.99714E-05-2.69642E-05-2.69803E-05 1.80065E-07-3.08418E-19 3.11829E-18
 -1      1349 9.15423E-05-2.73508E-05-2.75231E-05-7.50847E-08-9.64373E-19 2.10005E-18
 -1      1350 8.99734E-05-2.69668E-05-2.69863E-05 3.10809E-07-3.47763E-19 2.97961E-18
 -1      1351 9.03124E-05-2.70853E-05-2.70844E-05 3.22463E-07-1.82168E-19 2.64465E-18
 -1      1352 9.12858E-05-2.73377E-05-2.74142E-05 4.11150E-07-6.12618E-19 1.63263E-18
 -1      1353 9.04527E-05-2.71266E-05-2.71311E-05 3.76942E-07 1.62026E-20 2.50710E-18
 -1      1354 9.08368E-05-2.72536E-05-2.72420E-05 3.78610E-07-1.08847E-19 2.31472E-18
 -1      1355 9.14152E-05-2.74101E-05-2.74354E-05 6.38919E-07-2.33795E-19 1.24154E-18
 -1      1356 9.10435E-05-2.73135E-05-2.73080E-05 3.89438E-07-2.35861E-19 2.12013E-18
 -1      1357 9.14274E-05-2.74370E-05-2.74193E-05 3.85312E-07-3.08197E-19 1.60271E-18
 -1      1358 9.17449E-05-2.75280E-05-2.75236E-05 7.21620E-07-4.53008E-19 7.58643E-19
 -1      1359 9.16583E-05-2.75036E-05-2.74921E-05 3.71537E-07-3.03078E-19 1.47980E-18
 -1      1360 9.20171E-05-2.76169E-05-2.75965E-05 3.64355E-07-3.44941E-19 1.10216E-18
 -1      1361 9.21649E-05-2.76643E-05-2.76432E-05 7.21276E-07-5.55742E-19 6.29781E-19
 -1      1362 9.22476E-05-2.76831E-05-2.76689E-05 3.37968E-07-3.04600E-19 9.26988E-19
 -1      1363 9.25695E-05-2.77834E-05-2.77630E-05 3.29570E-07-9.76539E-20 6.62967E-19
 -1      1364 9.26101E-05-2.78026E-05-2.77736E-05 6.75364E-07-5.66973E-19 5.25579E-19
 -1      1365 9.27865E-05-2.78456E-05-2.78309E-05 2.98466E-07-2.93837E-20 3.36072E-19
 -1      1366 9.30677E-05-2.79322E-05-2.79134E-05 2.90113E-07-2.10605E-19 1.97961E-20
 -1      1367 9.30435E-05-2.79338E-05-2.79025E-05 6.07982E-07-2.39634E-19-1.76700E-19
 -1      1368 9.32658E-05-2.79888E-05-2.79753E-05 2.59662E-07-1.00020E-19 1.54137E-20
 -1      1369 9.35083E-05-2.80627E-05-2.80468E-05 2.52231E-07 4.14370E-20-1.37608E-19
 -1      1370 9.34465E-05-2.80533E-05-2.80239E-05 5.35248E-07-3.03750E-19-5.26010E-19
 -1      1371 9.36875E-05-2.81137E-05-2.81027E-05 2.26230E-07 2.51318E-19-2.84633E-20
 -1      1372 9.38973E-05-2.81769E-05-2.81648E-05 2.20360E-07 8.74692E-20 1.49122E-19
 -1      1373 9.38134E-05-2.81603E-05-2.81355E-05 4.68316E-07 1.23244E-19-4.40366E-19
 -1      1374 9.40612E-05-2.82235E-05-2.82159E-05 2.01662E-07-3.10985E-20 2.04677E-19
 -1      1375 9.42474E-05-2.82788E-05-2.82712E-05 1.97865E-07-2.65529E-19-4.14843E-20
 -1      1376 9.41476E-05-2.82561E-05-2.82381E-05 4.15279E-07 4.01288E-20-3.05912E-19
 -1      1377 9.44028E-05-2.83229E-05-2.83196E-05 1.88847E-07-4.42663E-19 2.29824E-19
 -1      1378 9.45769E-05-2.83741E-05-2.83716E-05 1.87585E-07-1.47574E-19-1.12667E-19
 -1      1379 9.44592E-05-2.83440E-05-2.83346E-05 3.82501E-07-2.52779E-19-2.44478E-19
 -1      1380 9.47332E-05-2.84182E-05-2.84203E-05 1.90509E-07 1.00964E-19-4.20426E-19
 -1      1381 9.49092E-05-2.84695E-05-2.84730E-05 1.92271E-07-1.51731E-19-4.44638E-19
 -1      1382 9.47637E-05-2.84287E-05-2.84297E-05 3.75605E-07-3.72430E-19-3.92158E-19
 -1      1383 9.50781E-05-2.85172E-05-2.85256E-05 2.09573E-07-1.87701E-19-4.91149E-19
 -1      1384 9.52729E-05-2.85736E-05-2.85840E-05 2.14932E-07-1.35078E-19-9.59016E-19
 -1      1385 9.50816E-05-2.85161E-05-2.85294E-05 4.00260E-07-1.47164E-19-8.33344E-19
 -1      1386 9.54687E-05-2.86288E-05-2.86450E-05 2.49464E-07-1.17853E-19-9.86536E-19
 -1      1387 9.57023E-05-2.86965E-05-2.87151E-05 2.59130E-07-2.72286E-19-1.28181E-18
 -1      1388 9.54381E-05-2.86136E-05-2.86417E-05 4.62830E-07-2.28222E-19-1.23973E-18
 -1      1389 9.59422E-05-2.87641E-05-2.87899E-05 3.14362E-07-4.23245E-19-1.33421E-18
 -1      1390 9.62388E-05-2.88504E-05-2.88787E-05 3.29227E-07-6.18141E-19-2.00397E-18
 -1      1391 9.58638E-05-2.87300E-05-2.87758E-05 5.70890E-07-6.00012E-19-1.53470E-18
 -1      1392 9.65433E-05-2.89361E-05-2.89737E-05 4.09363E-07-3.38360E-19-1.98057E-18
 -1      1393 9.69320E-05-2.90499E-05-2.90899E-05 4.30531E-07-2.68004E-19-2.42320E-18
 -1      1394 9.63954E-05-2.88756E-05-2.89429E-05 7.33612E-07-6.86051E-19-1.88807E-18
 -1      1395 9.73253E-05-2.91607E-05-2.92128E-05 5.40520E-07-2.03580E-19-2.29062E-18
 -1      1396 9.78414E-05-2.93126E-05-2.93668E-05 5.69309E-07-7.75192E-20-2.22610E-18
 -1      1397 9.70761E-05-2.90631E-05-2.91564E-05 9.61921E-07-2.66040E-19-2.16193E-18
 -1      1398 9.83516E-05-2.94564E-05-2.95263E-05 7.14584E-07 2.43223E-19-2.36329E-18
 -1      1399 9.90368E-05-2.96594E-05-2.97303E-05 7.52461E-07 2.90010E-19-1.93513E-18
 -1      1400 9.79566E-05-2.93072E-05-2.94316E-05 1.26820E-06-7.78245E-20-1.31980E-18
 -1      1401 9.96957E-05-2.98454E-05-2.99366E-05 9.38169E-07-1.44585E-19-1.75308E-18
 -1      1402 1.00599E-04-3.01149E-05-3.02048E-05 9.86538E-07-2.72697E-19-2.40900E-18
 -1      1403 9.90953E-05-2.96254E-05-2.97861E-05 1.66508E-06 3.56962E-20-1.68743E-18
 -1      1404 1.01440E-04-3.03530E-05-3.04682E-05 1.21575E-06-5.75321E-20-2.25064E-18
 -1      1405 1.02613E-04-3.07060E-05-3.08157E-05 1.27545E-06 6.42918E-20-2.23815E-18
 -1      1406 1.00556E-04-3.00379E-05-3.02385E-05 2.16249E-06-2.07599E-19-1.35548E-18
 -1      1407 1.03670E-04-3.10066E-05-3.11462E-05 1.54547E-06 1.13569E-19-2.30720E-18
 -1      1408 1.05162E-04-3.14605E-05-3.15869E-05 1.61569E-06 6.93756E-20-2.06454E-18
 -1      1409 1.02404E-04-3.05673E-05-3.08069E-05 2.76125E-06-1.46428E-20-1.43199E-18
 -1      1410 1.06458E-04-3.18326E-05-3.19905E-05 1.91118E-06-2.23570E-20-1.71212E-18
 -1      1411 1.08301E-04-3.24010E-05-3.25320E-05 1.98732E-06-3.58169E-20-1.85617E-18
 -1      1412 1.04697E-04-3.12383E-05-3.15047E-05 3.44084E-06 1.72341E-19-7.25169E-19
 -1      1413 1.09836E-04-3.28497E-05-3.30062E-05 2.26844E-06 4.55942E-21-1.78960E-18
 -1      1414 1.12011E-04-3.35338E-05-3.36401E-05 2.33838E-06-3.32206E-19-1.77508E-18
 -1      1415 1.07465E-04-3.20743E-05-3.23332E-05 4.13753E-06-9.67768E-20-1.46033E-18
 -1      1416 1.13740E-04-3.40555E-05-3.41652E-05 2.52332E-06 2.25031E-19-2.04545E-18
 -1      1417 1.16126E-04-3.48281E-05-3.48510E-05 2.56158E-06 3.84001E-19-1.36891E-18
 -1      1418 1.10676E-04-3.30925E-05-3.32692E-05 4.71016E-06 2.19975E-19-1.29860E-18
 -1      1419 1.17927E-04-3.54016E-05-3.53789E-05 2.50735E-06 1.86119E-19-7.42054E-19
 -1      1420 1.20223E-04-3.61806E-05-3.60225E-05 2.46847E-06 4.99359E-19-2.27521E-19
 -1      1421 1.14186E-04-3.42895E-05-3.42483E-05 4.89619E-06 6.68474E-19-8.27564E-19
 -1      1422 1.21856E-04-3.67532E-05-3.64659E-05 1.96695E-06 7.32816E-20-4.97870E-19
 -1      1423 1.23502E-04-3.73667E-05-3.69019E-05 1.78461E-06-6.33951E-20-2.66855E-19
 -1      1424 1.17669E-04-3.56106E-05-3.51480E-05 4.28117E-06 2.29903E-19-6.10777E-19
 -1      1425 1.24582E-04-3.78313E-05-3.71360E-05 6.16079E-07 2.31465E-19-6.44056E-19
 -1      1426 1.24756E-04-3.79949E-05-3.71384E-05 2.24730E-07 1.69605E-19-5.54595E-19
 -1      1427 1.20535E-04-3.68887E-05-3.57835E-05 2.34778E-06-2.80765E-19-1.66971E-19
 -1      1428 1.24784E-04-3.81656E-05-3.70323E-05-1.66594E-06 2.03195E-19-6.87050E-19
 -1      1429 1.22626E-04-3.75274E-05-3.63942E-05-2.26036E-06-3.12476E-19-6.32787E-19
 -1      1430 1.21905E-04-3.77516E-05-3.59445E-05-1.26915E-06-1.57283E-19 6.79049E-20
 -1      1431 1.21161E-04-3.71576E-05-3.58867E-05-4.45361E-06 2.88388E-20-7.43113E-19
 -1      1432 1.16366E-04-3.55027E-05-3.45847E-05-5.05905E-06 4.10295E-19-8.48939E-19
 -1      1433 1.20763E-04-3.75833E-05-3.54907E-05-6.20908E-06-9.67338E-20-5.57374E-19
 -1      1434 1.13413E-04-3.44447E-05-3.37778E-05-6.45723E-06-2.87396E-20-5.89747E-19
 -1      1435 1.07024E-04-3.20578E-05-3.21418E-05-6.65879E-06-2.71181E-19-1.30178E-18
 -1      1436 1.16517E-04-3.57781E-05-3.44856E-05-1.07084E-05-4.32516E-20-3.16711E-19
 -1      1437 1.03530E-04-3.06065E-05-3.13271E-05-5.94425E-06-5.50068E-19-1.34466E-18
 -1      1438 9.81178E-05-2.84817E-05-2.99995E-05-5.38669E-06-4.86237E-19-2.48504E-18
 -1      1439 1.09995E-04-3.24818E-05-3.32643E-05-1.17576E-05-6.08064E-19-4.71903E-19
 -1      1440 9.58747E-05-2.74820E-05-2.95245E-05-2.30192E-06-1.81239E-19-3.28596E-18
 -1      1441 9.42364E-05-2.68333E-05-2.91267E-05-1.16167E-06-1.48495E-19-3.38388E-18
 -1      1442 1.04042E-04-2.92556E-05-3.23120E-05-7.19524E-06-1.01342E-18-2.17275E-18
 -1      1443 9.46480E-05-2.70445E-05-2.91980E-05 2.67277E-06-1.00744E-19-4.83105E-18
 -1      1444 9.76558E-05-2.82689E-05-2.99130E-05 3.65901E-06-6.71962E-19-5.01999E-18
 -1      1445 1.02134E-04-2.82362E-05-3.20068E-05 1.39716E-06-7.26278E-19-4.14981E-18
 -1      1446 1.00348E-04-2.94834E-05-3.04772E-05 5.93930E-06-1.15529E-18-4.68049E-18
 -1      1447 1.06185E-04-3.17652E-05-3.19156E-05 6.19323E-06-4.95382E-20-5.50402E-18
 -1      1448 1.05408E-04-3.01487E-05-3.24454E-05 8.94112E-06-1.38786E-18-5.36124E-18
 -1      1449 1.09406E-04-3.30727E-05-3.26901E-05 5.98495E-06 2.36905E-21-4.98913E-18
 -1      1450 1.15109E-04-3.51698E-05-3.41679E-05 5.57223E-06-6.06350E-19-5.71250E-18
 -1      1451 1.11523E-04-3.35197E-05-3.34064E-05 1.13163E-05-1.26717E-19-5.73912E-18
 -1      1452 1.17292E-04-3.58978E-05-3.48029E-05 3.68932E-06 6.72597E-19-4.58435E-18
 -1      1453 1.20788E-04-3.70662E-05-3.57694E-05 3.04283E-06 7.53449E-19-4.03865E-18
 -1      1454 1.16919E-04-3.62137E-05-3.44424E-05 8.56460E-06 5.04964E-19-3.62988E-18
 -1      1455 1.21371E-04-3.71237E-05-3.60374E-05 8.35275E-07-2.70256E-19-3.95953E-18
 -1      1456 1.22184E-04-3.73044E-05-3.63036E-05 2.96519E-07-4.13008E-19-4.47548E-18
 -1      1457 1.19461E-04-3.72093E-05-3.50986E-05 3.52192E-06 4.47445E-19-3.23229E-18
 -1      1458 1.21383E-04-3.69059E-05-3.61697E-05-1.38417E-06 4.75384E-19-3.93421E-18
 -1      1459 1.20106E-04-3.63974E-05-3.58465E-05-1.70457E-06 5.16889E-19-3.76599E-18
 -1      1460 1.18962E-04-3.67379E-05-3.51356E-05-1.13758E-06 1.49448E-19-3.62107E-18
 -1      1461 1.18416E-04-3.57740E-05-3.54092E-05-2.64675E-06-6.05222E-19-2.80738E-18
 -1      1462 1.15944E-04-3.49148E-05-3.47260E-05-2.77874E-06 3.54099E-20-3.59743E-18
 -1      1463 1.16264E-04-3.54658E-05-3.45785E-05-4.21795E-06 4.07787E-19-2.52305E-18
 -1      1464 1.13841E-04-3.42229E-05-3.41244E-05-3.11239E-06 6.20467E-19-3.52633E-18
 -1      1465 1.10927E-04-3.32593E-05-3.32962E-05-3.12189E-06 9.98996E-19-2.91536E-18
 -1      1466 1.12376E-04-3.39218E-05-3.36134E-05-5.68417E-06 5.18550E-19-2.27291E-18
 -1      1467 1.08769E-04-3.25885E-05-3.26529E-05-3.04777E-06 1.11826E-18-3.27521E-18
 -1      1468 1.05923E-04-3.16687E-05-3.18352E-05-2.98600E-06 2.65097E-19-1.70947E-18
 -1      1469 1.08110E-04-3.23943E-05-3.24633E-05-5.95503E-06 1.17963E-18-3.11664E-18
 -1      1470 1.03951E-04-3.10683E-05-3.12404E-05-2.64852E-06 1.24209E-20-1.36730E-18
 -1      1471 1.01504E-04-3.02801E-05-3.05380E-05-2.53930E-06 6.48923E-19-8.56205E-19
 -1      1472 1.04019E-04-3.10096E-05-3.13178E-05-5.44530E-06 9.90148E-19-2.50088E-18
 -1      1473 9.98802E-05-2.97792E-05-3.00542E-05-2.00151E-06 9.05164E-19-1.58157E-18
 -1      1474 9.80872E-05-2.91951E-05-2.95414E-05-1.84168E-06-1.92932E-20-1.57035E-18
 -1      1475 1.00467E-04-2.98185E-05-3.03166E-05-4.39598E-06 3.12509E-19-3.11615E-18
 -1      1476 9.68939E-05-2.87939E-05-2.92016E-05-1.10640E-06-3.73826E-19-1.27378E-18
 -1      1477 9.59817E-05-2.85350E-05-2.89087E-05-8.99601E-07 4.49391E-20-8.50729E-19
 -1      1478 9.76768E-05-2.88405E-05-2.95460E-05-2.90197E-06 1.19547E-19-2.25690E-18
 -1      1479 9.52286E-05-2.84705E-05-2.86066E-05 1.35529E-08-6.39245E-20 2.48773E-19
 -1      1480 9.56527E-05-2.82347E-05-2.89157E-05-8.77671E-07 4.18793E-19-4.36162E-19
 -1      1481 9.65667E-05-2.83604E-05-2.97693E-05 2.99765E-06 1.27894E-18 8.77251E-18
 -1      1482 1.02528E-04-2.93960E-05-3.21533E-05 4.46486E-06 1.13809E-18 1.08490E-17
 -1      1483 1.02318E-04-2.67153E-05-3.27033E-05 1.27868E-05 2.26788E-18 6.74069E-18
 -1      1484 9.20167E-05-2.74251E-05-2.77576E-05 1.15384E-06 9.35548E-19 6.29560E-18
 -1      1485 9.39654E-05-2.75809E-05-2.86724E-05 1.47577E-06 9.02897E-19 7.80635E-18
 -1      1486 9.64759E-05-2.80269E-05-2.95305E-05 4.87120E-06 1.96160E-18 4.98758E-18
 -1      1487 9.01798E-05-2.69990E-05-2.70575E-05 3.33912E-07 6.34163E-19 4.49499E-18
 -1      1488 9.07971E-05-2.70173E-05-2.73308E-05 4.96720E-07 6.59203E-19 5.58216E-18
 -1      1489 9.30281E-05-2.75747E-05-2.80945E-05 1.85565E-06 1.44009E-18 3.55983E-18
 -1      1490 8.96580E-05-2.68796E-05-2.68804E-05-5.27851E-08 5.21044E-19 3.09290E-18
 -1      1491 8.96980E-05-2.68180E-05-2.69093E-05 3.62417E-08 4.77507E-19 3.89916E-18
 -1      1492 9.14712E-05-2.73024E-05-2.75096E-05 5.21951E-07 1.12886E-18 2.26395E-18
 -1      1493 8.97849E-05-2.69305E-05-2.69207E-05-2.39776E-07 4.33929E-19 1.99815E-18
 -1      1494 8.95593E-05-2.68239E-05-2.68564E-05-1.89667E-07 4.17690E-19 2.73650E-18
 -1      1495 9.09357E-05-2.72204E-05-2.73123E-05-1.27450E-07 8.74884E-19 1.39420E-18
 -1      1496 9.02320E-05-2.70712E-05-2.70573E-05-3.22757E-07 7.44041E-20 1.49535E-18
 -1      1497 8.98883E-05-2.69450E-05-2.69567E-05-2.95207E-07 1.63359E-19 1.66754E-18
 -1      1498 9.09490E-05-2.72621E-05-2.73002E-05-4.45810E-07 4.71725E-19 8.06362E-19
 -1      1499 9.08206E-05-2.72516E-05-2.72350E-05-3.47338E-07 3.66682E-19 8.75018E-19
 -1      1500 9.04364E-05-2.71224E-05-2.71224E-05-3.33724E-07 2.14509E-19 1.18255E-18
 -1      1501 9.12493E-05-2.73727E-05-2.73805E-05-5.85986E-07 4.27089E-19 2.55392E-19
 -1      1502 9.14490E-05-2.74422E-05-2.74242E-05-3.38684E-07 3.57942E-19 1.38437E-20
 -1      1503 9.10674E-05-2.73196E-05-2.73122E-05-3.33765E-07 4.02035E-19 6.67601E-19
 -1      1504 9.16863E-05-2.75152E-05-2.75054E-05-6.25088E-07 7.26829E-19-1.01440E-19
 -1      1505 9.20596E-05-2.76262E-05-2.76083E-05-3.12165E-07 3.39620E-19-8.57237E-19
 -1      1506 9.17040E-05-2.75153E-05-2.75036E-05-3.12513E-07 2.14078E-19-4.45764E-19
 -1      1507 9.21720E-05-2.76668E-05-2.76474E-05-6.06935E-07 6.48719E-19-5.48510E-19
 -1      1508 9.26221E-05-2.77947E-05-2.77782E-05-2.77710E-07 2.89472E-19-1.45072E-18
 -1      1509 9.23038E-05-2.76975E-05-2.76841E-05-2.80988E-07 3.77942E-19-1.09652E-18
 -1      1510 9.26555E-05-2.78141E-05-2.77907E-05-5.58616E-07 5.79341E-19-1.32218E-18
 -1      1511 9.31243E-05-2.79445E-05-2.79302E-05-2.41956E-07 3.75462E-19-1.86197E-18
 -1      1512 9.28464E-05-2.78610E-05-2.78478E-05-2.46517E-07 2.44386E-19-1.50574E-18
 -1      1513 9.31098E-05-2.79502E-05-2.79264E-05-4.97774E-07 4.86321E-19-1.64291E-18
 -1      1514 9.35659E-05-2.80757E-05-2.80641E-05-2.09463E-07-1.22838E-19-1.87232E-18
 -1      1515 9.33260E-05-2.80044E-05-2.79927E-05-2.14110E-07-4.70852E-20-2.02776E-18
 -1      1516 9.35234E-05-2.80724E-05-2.80509E-05-4.36302E-07 8.54839E-20-1.73084E-18
 -1      1517 9.39552E-05-2.81908E-05-2.81824E-05-1.83484E-07-9.61633E-20-2.01517E-18
 -1      1518 9.37471E-05-2.81294E-05-2.81202E-05-1.87301E-07-1.45096E-19-2.12050E-18
 -1      1519 9.38959E-05-2.81813E-05-2.81638E-05-3.82479E-07 2.92226E-20-1.90119E-18
 -1      1520 9.43067E-05-2.82943E-05-2.82894E-05-1.66485E-07 2.36721E-19-2.58183E-18
 -1      1521 9.41214E-05-2.82396E-05-2.82337E-05-1.68724E-07 3.16177E-19-1.87186E-18
 -1      1522 9.42347E-05-2.82791E-05-2.82672E-05-3.42327E-07 1.93081E-19-1.91588E-18
 -1      1523 9.46397E-05-2.83919E-05-2.83910E-05-1.60506E-07-1.79931E-19-2.78460E-18
 -1      1524 9.44658E-05-2.83403E-05-2.83385E-05-1.60499E-07 1.13131E-19-2.84453E-18
 -1      1525 9.45530E-05-2.83702E-05-2.83648E-05-3.20526E-07 3.77771E-19-1.93196E-18
 -1      1526 9.49777E-05-2.84908E-05-2.84941E-05-1.67403E-07 9.92824E-21-2.93763E-18
 -1      1527 9.48018E-05-2.84379E-05-2.84408E-05-1.64501E-07-9.63395E-20-3.04664E-18
 -1      1528 9.48683E-05-2.84597E-05-2.84620E-05-3.21041E-07 2.50486E-20-2.23354E-18
 -1      1529 9.53480E-05-2.85991E-05-2.86070E-05-1.88968E-07 7.04527E-19-3.79126E-18
 -1      1530 9.51547E-05-2.85399E-05-2.85484E-05-1.82504E-07 4.47087E-19-2.91409E-18
 -1      1531 9.52022E-05-2.85542E-05-2.85652E-05-3.47499E-07 5.27463E-19-2.89090E-18
 -1      1532 9.57813E-05-2.87261E-05-2.87389E-05-2.26922E-07-4.95850E-19-4.30960E-18
 -1      1533 9.55534E-05-2.86551E-05-2.86699E-05-2.16208E-07 2.83244E-19-4.02211E-18
 -1      1534 9.55796E-05-2.86612E-05-2.86820E-05-4.03325E-07 7.69994E-19-2.71742E-18
 -1      1535 9.63116E-05-2.88819E-05-2.89001E-05-2.82742E-07-4.24992E-19-2.85951E-18
 -1      1536 9.60302E-05-2.87932E-05-2.88150E-05-2.67099E-07-8.04506E-19-4.00377E-18
 -1      1537 9.60285E-05-2.87890E-05-2.88207E-05-4.91595E-07-1.18530E-18-2.72856E-18
 -1      1538 9.69747E-05-2.90776E-05-2.91011E-05-3.57251E-07 9.81243E-20-2.69073E-18
 -1      1539 9.66196E-05-2.89647E-05-2.89941E-05-3.36112E-07 7.88986E-20-2.54416E-18
 -1      1540 9.65788E-05-2.89469E-05-2.89901E-05-6.14511E-07-3.20193E-19-2.48732E-18
 -1      1541 9.78065E-05-2.93242E-05-2.93526E-05-4.49885E-07 2.27058E-19-3.27244E-18
 -1      1542 9.73575E-05-2.91806E-05-2.92178E-05-4.22986E-07 5.59530E-20-3.18328E-18
 -1      1543 9.72608E-05-2.91445E-05-2.91991E-05-7.72364E-07 2.47655E-19-2.59147E-18
 -1      1544 9.88381E-05-2.96316E-05-2.96636E-05-5.57524E-07 7.93877E-19-4.63991E-18
 -1      1545 9.82775E-05-2.94519E-05-2.94959E-05-5.25235E-07 4.88894E-19-3.62235E-18
 -1      1546 9.81031E-05-2.93911E-05-2.94559E-05-9.61799E-07 8.56499E-19-3.36611E-18
 -1      1547 1.00090E-04-3.00070E-05-3.00394E-05-6.72744E-07 8.77287E-20-5.22113E-18
 -1      1548 9.94059E-05-2.97876E-05-2.98359E-05-6.36585E-07 4.08073E-19-4.57043E-18
 -1      1549 9.91272E-05-2.96948E-05-2.97658E-05-1.17315E-06 8.14253E-19-3.73339E-18
 -1      1550 1.01559E-04-3.04511E-05-3.04783E-05-7.81440E-07-8.79133E-19-3.93279E-18
 -1      1551 1.00753E-04-3.01927E-05-3.02399E-05-7.44833E-07-9.71878E-19-5.26237E-18
 -1      1552 1.00341E-04-3.00603E-05-3.01298E-05-1.38672E-06-7.29840E-19-3.19758E-18
 -1      1553 1.03204E-04-3.09537E-05-3.09666E-05-8.59961E-07-5.80385E-19-2.47731E-18
 -1      1554 1.02301E-04-3.06647E-05-3.07013E-05-8.29213E-07-3.43543E-19-3.04489E-18
 -1      1555 1.01726E-04-3.04860E-05-3.05405E-05-1.56797E-06-1.10212E-18-2.63286E-18
 -1      1556 1.04927E-04-3.14873E-05-3.14724E-05-8.72509E-07 1.80701E-19-1.33557E-18
 -1      1557 1.03984E-04-3.11876E-05-3.11985E-05-8.57832E-07-4.19387E-19-1.93325E-18
 -1      1558 1.03228E-04-3.09600E-05-3.09782E-05-1.66258E-06-7.07032E-19-1.81442E-18
 -1      1559 1.06544E-04-3.19996E-05-3.19393E-05-7.70601E-07 1.33442E-19-2.08210E-18
 -1      1560 1.05669E-04-3.17256E-05-3.16896E-05-7.86683E-07 5.37568E-19-1.59368E-18
 -1      1561 1.04736E-04-3.14542E-05-3.14059E-05-1.59343E-06 6.50432E-19-1.02402E-18
 -1      1562 1.07775E-04-3.24063E-05-3.22822E-05-4.98264E-07-9.73476E-20-1.94278E-18
 -1      1563 1.07134E-04-3.22146E-05-3.21063E-05-5.63240E-07-2.96362E-19-2.39291E-18
 -1      1564 1.06065E-04-3.19176E-05-3.17665E-05-1.26436E-06-1.03877E-19-6.60156E-19
 -1      1565 1.08243E-04-3.25900E-05-3.23912E-05-8.43052E-09 2.37063E-19-2.23385E-18
 -1      1566 1.08060E-04-3.25561E-05-3.23530E-05-1.39446E-07 2.37090E-19-1.59945E-18
 -1      1567 1.06958E-04-3.22701E-05-3.19827E-05-5.78854E-07-2.26188E-19-7.00652E-19
 -1      1568 1.07532E-04-3.24123E-05-3.21507E-05 7.04311E-07 2.28917E-19-3.27947E-18
 -1      1569 1.08050E-04-3.26197E-05-3.23172E-05 5.00869E-07 5.07101E-19-2.45789E-18
 -1      1570 1.07096E-04-3.24019E-05-3.19673E-05 5.16727E-07 5.92466E-19-2.55654E-19
 -1      1571 1.05310E-04-3.17514E-05-3.14789E-05 1.55730E-06-7.93048E-19-2.51582E-18
 -1      1572 1.06719E-04-3.22629E-05-3.18959E-05 1.30046E-06-3.94135E-19-3.46436E-18
 -1      1573 1.06164E-04-3.21851E-05-3.16462E-05 1.96174E-06-9.20156E-20-3.80139E-19
 -1      1574 1.01540E-04-3.05704E-05-3.03842E-05 2.34228E-06-1.72477E-19-1.85283E-18
 -1      1575 1.03844E-04-3.13827E-05-3.10425E-05 2.08929E-06-5.12217E-19-2.50319E-18
 -1      1576 1.03976E-04-3.15134E-05-3.09938E-05 3.50205E-06-8.80358E-19-9.53230E-19
 -1      1577 9.66866E-05-2.90001E-05-2.90157E-05 2.74482E-06 3.85973E-19-1.97912E-18
 -1      1578 9.95861E-05-2.99977E-05-2.98221E-05 2.58696E-06 5.42337E-19-1.62771E-18
 -1      1579 1.00645E-04-3.03735E-05-3.00722E-05 4.66437E-06 3.78799E-19-8.40151E-19
 -1      1580 9.17968E-05-2.73825E-05-2.76665E-05 2.46705E-06-1.00811E-18-8.72020E-19
 -1      1581 9.46515E-05-2.83283E-05-2.84435E-05 2.49425E-06-5.73825E-19-1.81937E-18
 -1      1582 9.67256E-05-2.89289E-05-2.90484E-05 4.87429E-06-5.28502E-19-7.45733E-19
 -1      1583 8.82503E-05-2.61982E-05-2.66978E-05 1.43149E-06 6.65040E-19-2.32454E-18
 -1      1584 9.02454E-05-2.68008E-05-2.72326E-05 1.67268E-06 4.66153E-19-1.61159E-18
 -1      1585 9.31866E-05-2.75510E-05-2.81659E-05 3.75162E-06 2.82419E-19-1.87564E-18
 -1      1586 8.71866E-05-2.58562E-05-2.63960E-05-7.97588E-08 5.89297E-19-3.79588E-18
 -1      1587 8.76796E-05-2.59058E-05-2.65278E-05 3.04505E-07 8.06786E-19-2.79492E-18
 -1      1588 9.11040E-05-2.67095E-05-2.76641E-05 1.44431E-06 1.18995E-18-1.79673E-18
 -1      1589 8.89111E-05-2.64634E-05-2.68381E-05-1.51915E-06-3.51929E-19-2.42124E-18
 -1      1590 8.77676E-05-2.59528E-05-2.65353E-05-1.13508E-06-4.10368E-19-3.60068E-18
 -1      1591 9.11536E-05-2.67293E-05-2.76799E-05-1.30064E-06-5.11396E-19-1.53278E-18
 -1      1592 9.27157E-05-2.77579E-05-2.78522E-05-2.37539E-06-4.57140E-19-1.71050E-18
 -1      1593 9.03887E-05-2.68897E-05-2.72292E-05-2.12598E-06-1.35644E-19-1.90754E-18
 -1      1594 9.32357E-05-2.75833E-05-2.81857E-05-3.49086E-06-5.88595E-19-1.67871E-18
 -1      1595 9.72610E-05-2.92629E-05-2.90991E-05-2.44792E-06 5.18031E-19-2.15930E-18
 -1      1596 9.45493E-05-2.83361E-05-2.83614E-05-2.38817E-06 2.23182E-19-1.96218E-18
 -1      1597 9.65262E-05-2.89020E-05-2.90007E-05-4.43320E-06 8.21349E-21-2.43928E-18
 -1      1598 1.01222E-04-3.05316E-05-3.02235E-05-1.88394E-06-4.58913E-19-2.02772E-18
 -1      1599 9.88932E-05-2.97989E-05-2.95760E-05-1.98272E-06 3.28358E-20-2.26761E-18
 -1      1600 9.99149E-05-3.02002E-05-2.98714E-05-4.04584E-06 1.14482E-21-1.30505E-18
 -1      1601 1.03759E-04-3.13062E-05-3.09775E-05-1.00851E-06 5.10476E-19-1.37931E-18
 -1      1602 1.02284E-04-3.08954E-05-3.05554E-05-1.19114E-06-4.48967E-19-1.54877E-18
 -1      1603 1.02493E-04-3.11187E-05-3.05683E-05-2.74754E-06-5.32360E-19-7.58743E-19
 -1      1604 1.04628E-04-3.15354E-05-3.12686E-05-1.29229E-07-3.15387E-20-1.44330E-18
 -1      1605 1.04129E-04-3.14529E-05-3.11152E-05-3.24251E-07 4.12359E-19-1.39156E-18
 -1      1606 1.03804E-04-3.15212E-05-3.09535E-05-1.12241E-06 1.23362E-19 7.80495E-20
 -1      1607 1.04036E-04-3.13073E-05-3.11355E-05 5.62850E-07 1.31291E-18-3.41917E-18
 -1      1608 1.04378E-04-3.14844E-05-3.12207E-05 4.00986E-07 1.30662E-18-1.48677E-18
 -1      1609 1.03826E-04-3.14505E-05-3.09956E-05 3.58215E-07 1.37192E-18-6.91589E-20
 -1      1610 1.02422E-04-3.07701E-05-3.06949E-05 9.92217E-07 5.19139E-20-4.61826E-18
 -1      1611 1.03339E-04-3.11103E-05-3.09479E-05 8.83770E-07 4.74014E-19-3.93534E-18
 -1      1612 1.02819E-04-3.10365E-05-3.07469E-05 1.43417E-06 1.59775E-18-8.89070E-19
 -1      1613 1.00289E-04-3.00816E-05-3.00941E-05 1.15251E-06 2.09026E-19-5.62091E-18
 -1      1614 1.01487E-04-3.04879E-05-3.04298E-05 1.10335E-06 3.06271E-19-4.68326E-18
 -1      1615 1.01163E-04-3.04255E-05-3.03073E-05 2.01906E-06 8.93284E-19-2.65321E-18
 -1      1616 9.81300E-05-2.93887E-05-2.94816E-05 1.06059E-06 1.81735E-19-6.34201E-18
 -1      1617 9.93206E-05-2.97714E-05-2.98154E-05 1.07296E-06 2.30874E-20-5.84968E-18
 -1      1618 9.92595E-05-2.97478E-05-2.97925E-05 2.11790E-06 8.89658E-20-2.55740E-18
 -1      1619 9.63931E-05-2.88290E-05-2.89859E-05 7.32375E-07-3.16779E-19-5.99114E-18
 -1      1620 9.73054E-05-2.91006E-05-2.92448E-05 8.12722E-07-2.35101E-19-6.01080E-18
 -1      1621 9.74728E-05-2.91096E-05-2.93117E-05 1.76442E-06-3.46633E-19-2.14046E-18
 -1      1622 9.54345E-05-2.85327E-05-2.86722E-05 2.42864E-07-9.79806E-19-3.96794E-18
 -1      1623 9.58414E-05-2.86173E-05-2.88213E-05 3.69499E-07-6.04779E-19-5.46454E-18
 -1      1624 9.60953E-05-2.86131E-05-2.89385E-05 1.02016E-06-5.92241E-19-1.72479E-18
 -1      1625 9.52302E-05-2.85242E-05-2.85761E-05-5.94543E-09-1.69206E-18-2.05113E-18
 -1      1626 9.51144E-05-2.76697E-05-2.89187E-05 6.17855E-07-9.10249E-19 1.29102E-18
 -1      1627 9.52592E-05-2.81490E-05-2.87566E-05 4.83820E-07-2.81330E-18 1.69358E-18
 -1      1628 9.45816E-05-2.60059E-05-2.93974E-05 1.13429E-06 1.05814E-18 7.26308E-19
 -1      1629 9.49029E-05-2.69956E-05-2.91131E-05 1.04040E-06-3.38896E-19 2.78118E-19
 -1      1630 9.50938E-05-2.71627E-05-2.91373E-05 1.62139E-06-8.85650E-19 1.55131E-18
 -1      1631 9.38469E-05-2.36988E-05-3.00666E-05 1.52092E-06 8.43936E-19 4.09335E-19
 -1      1632 9.42890E-05-2.50687E-05-2.96739E-05 1.45629E-06 1.15927E-18 4.55360E-19
 -1      1633 9.45286E-05-2.55566E-05-2.95827E-05 2.51379E-06 5.22360E-19 1.26625E-18
 -1      1634 9.29784E-05-2.09624E-05-3.08651E-05 1.74778E-06 1.62000E-18-2.81237E-19
 -1      1635 9.34929E-05-2.25589E-05-3.04061E-05 1.71589E-06 8.96108E-19 1.32494E-18
 -1      1636 9.38300E-05-2.34963E-05-3.01587E-05 3.13440E-06 8.90311E-20 8.45647E-19
 -1      1637 9.20724E-05-1.81287E-05-3.16906E-05 1.78231E-06-1.69665E-18-1.84507E-18
 -1      1638 9.25977E-05-1.97470E-05-3.12261E-05 1.78989E-06 7.62422E-19-2.10356E-18
 -1      1639 9.30378E-05-2.11563E-05-3.08107E-05 3.42046E-06-5.26021E-19-2.00793E-18
 -1      1640 9.12036E-05-1.54464E-05-3.24665E-05 1.58815E-06-3.40518E-18 1.99739E-19
 -1      1641 9.16915E-05-1.69314E-05-3.20423E-05 1.64340E-06-2.90970E-18-1.20100E-18
 -1      1642 9.22142E-05-1.87564E-05-3.14723E-05 3.30987E-06-1.44052E-18-3.85512E-18
 -1      1643 9.05162E-05-1.33570E-05-3.30655E-05 1.14722E-06-3.34916E-19 2.03176E-18
 -1      1644 9.08821E-05-1.44550E-05-3.27539E-05 1.25173E-06-3.05735E-18 2.53237E-18
 -1      1645 9.14449E-05-1.65705E-05-3.20636E-05 2.74116E-06-8.73119E-19 1.77279E-18
 -1      1646 9.01334E-05-1.22244E-05-3.33848E-05 4.89668E-07 1.14489E-18-3.69832E-19
 -1      1647 9.03079E-05-1.27330E-05-3.32425E-05 6.33736E-07 2.59113E-19 1.42671E-18
 -1      1648 9.08561E-05-1.49475E-05-3.24922E-05 1.71735E-06-4.65100E-19 2.41148E-18
 -1      1649 9.01450E-05-1.23038E-05-3.33547E-05-2.99120E-07 5.60372E-19 2.93441E-19
 -1      1650 9.00825E-05-1.20940E-05-3.34170E-05-1.36752E-07 1.13146E-18-1.29314E-18
 -1      1651 9.05603E-05-1.41799E-05-3.26848E-05 3.39433E-07 8.34265E-19-1.65714E-18
 -1      1652 9.05780E-05-1.36636E-05-3.29580E-05-1.09085E-06-7.81454E-19-1.84405E-18
 -1      1653 9.02730E-05-1.27211E-05-3.32283E-05-9.38629E-07 8.70465E-19-1.92544E-19
 -1      1654 9.06330E-05-1.44520E-05-3.25981E-05-1.19331E-06 6.08309E-21-2.99896E-19
 -1      1655 9.13689E-05-1.60979E-05-3.22555E-05-1.73347E-06-1.14825E-18 1.01574E-18
 -1      1656 9.08663E-05-1.45695E-05-3.26909E-05-1.62213E-06-5.53126E-19-1.54189E-18
 -1      1657 9.10859E-05-1.57660E-05-3.22365E-05-2.61030E-06-9.21526E-19-2.57527E-18
 -1      1658 9.24281E-05-1.93249E-05-3.13310E-05-2.12126E-06-3.64648E-19-6.17073E-19
 -1      1659 9.17869E-05-1.73926E-05-3.18780E-05-2.06804E-06-4.11870E-19 2.64942E-18
 -1      1660 9.18583E-05-1.79539E-05-3.16462E-05-3.65950E-06 2.93633E-19 2.13184E-18
 -1      1661 9.35708E-05-2.27700E-05-3.03526E-05-2.14807E-06 6.17474E-19 1.37425E-19
 -1      1662 9.29060E-05-2.07905E-05-3.09079E-05-2.16986E-06 6.27426E-19 3.90454E-20
 -1      1663 9.28551E-05-2.07146E-05-3.09126E-05-4.12955E-06 8.47271E-19 9.01035E-20
 -1      1664 9.45895E-05-2.57643E-05-2.95014E-05-1.73952E-06 9.12671E-19 5.65083E-19
 -1      1665 9.40302E-05-2.41567E-05-2.99583E-05-1.85841E-06 8.15309E-19 5.88575E-19
 -1      1666 9.39257E-05-2.35921E-05-3.01617E-05-3.85166E-06 1.37766E-18 1.62731E-19
 -1      1667 9.53166E-05-2.75543E-05-2.90225E-05-1.32926E-06 6.17598E-20-1.78669E-18
 -1      1668 9.50172E-05-2.66529E-05-2.93095E-05-1.66308E-06 9.49061E-19-1.03971E-18
 -1      1669 9.49893E-05-2.59254E-05-2.96327E-05-3.28495E-06 1.53286E-18-6.20319E-20
 -1      1670 9.61062E-05-2.76354E-05-2.93458E-05-2.58922E-06 6.73963E-19-2.21154E-18
 -1      1671 2.06873E-05-6.86471E-05 1.45175E-05-6.46432E-06 2.22431E-18 1.66188E-18
 -1      1672 2.46187E-05-7.97466E-05 1.67458E-05 2.28704E-06-6.45016E-19 1.94140E-18
 -1      1673 2.24579E-05-3.83646E-05 3.16354E-06 7.94062E-06 3.93023E-18 1.22682E-18
 -1      1674 2.59542E-05-6.11150E-05 9.54019E-06 3.03864E-06 3.19670E-18 1.89291E-18
 -1      1675 3.66360E-05-1.07901E-05-1.26996E-05 3.07905E-05 4.12082E-18 4.17375E-18
 -1      1676 3.04841E-05-3.16786E-05-3.75901E-06 1.27233E-05 4.47572E-18 2.17264E-18
 -1      1677 8.54046E-05-6.10364E-06-3.27757E-05 6.19250E-05 4.81538E-18 7.19385E-18
 -1      1678 5.80590E-05-1.08154E-05-2.21789E-05 3.88589E-05 4.66292E-18 5.22789E-18
 -1      1679 1.44558E-04-1.64732E-05-5.10934E-05 7.92688E-05 5.16097E-18 8.79051E-18
 -1      1680 1.04252E-04-3.59876E-06-4.22474E-05 6.84270E-05 5.52011E-18 8.05274E-18
 -1      1681 2.08568E-04-4.32260E-05-6.53206E-05 6.49741E-05 3.15372E-18 8.27382E-18
 -1      1682 1.67884E-04-2.34737E-05-5.85064E-05 7.43571E-05 4.19070E-18 8.53640E-18
 -1      1683 2.49928E-04-6.27065E-05-7.37826E-05 2.66372E-05 2.69780E-18 6.06687E-18
 -1      1684 2.26247E-04-4.92080E-05-7.04092E-05 5.51836E-05 3.43620E-18 8.63465E-18
 -1      1685 2.45506E-04-5.92395E-05-7.39281E-05-2.52894E-05 2.22452E-18-6.62380E-19
 -1      1686 2.50825E-04-6.22500E-05-7.46799E-05 9.77513E-06 2.44835E-18 3.86183E-18
 -1      1687 2.06356E-04-3.97457E-05-6.66881E-05-6.59116E-05 2.68287E-18-4.42151E-18
 -1      1688 2.39629E-04-5.79322E-05-7.16044E-05-4.23446E-05 1.66114E-18-1.83721E-18
 -1      1689 1.39996E-04-1.37266E-05-5.18911E-05-7.38798E-05 5.73187E-18-7.01174E-18
 -1      1690 1.84969E-04-3.31235E-05-6.01720E-05-7.33611E-05 4.45137E-18-4.80183E-18
 -1      1691 7.83451E-05-7.60296E-07-3.36940E-05-5.74878E-05 4.76625E-18-6.30955E-18
 -1      1692 1.14312E-04-7.14489E-06-4.33054E-05-7.53389E-05 4.78404E-18-8.40595E-18
 -1      1693 3.95475E-05-1.27069E-05-1.45843E-05-2.71488E-05 7.31328E-18-4.13013E-18
 -1      1694 5.72067E-05-6.18788E-07-2.43250E-05-5.01984E-05 5.95210E-18-4.42829E-18
 -1      1695 2.54636E-05-4.07232E-05 1.45034E-06-5.06826E-06 8.87352E-18-3.51307E-18
 -1      1696 2.62244E-05-1.81673E-05-6.21027E-06-1.82250E-05 7.59450E-18-3.61260E-18
 -1      1697 2.43332E-05-6.82063E-05 1.25268E-05 3.46172E-07 7.73426E-18-2.86075E-18
 -1      1698 1.90905E-05-4.76392E-05 7.47781E-06 6.82553E-07 9.14626E-18-3.17727E-18
 -1      1699 2.35916E-05-7.81162E-05 1.67347E-05-5.01847E-06 3.18042E-18-1.85627E-18
 -1      1700 2.19964E-05-7.32966E-05 1.56746E-05 4.98763E-06 7.04308E-18-3.20411E-18
 -1      1701 1.98940E-05-6.18701E-05 1.24550E-05-6.02739E-06-2.53136E-18-2.87229E-18
 -1      1702 2.38061E-05-7.42203E-05 1.53059E-05-5.22986E-07 1.79656E-18-1.97295E-18
 -1      1703 1.98765E-05-3.55296E-05 2.41749E-06 2.92535E-06-7.23027E-18-5.27363E-18
 -1      1704 2.38243E-05-5.81245E-05 8.56488E-06-2.79740E-06-5.17368E-18-3.12259E-18
 -1      1705 4.63212E-05-1.57984E-05-1.47837E-05 3.32797E-05-8.01801E-18-6.28795E-18
 -1      1706 3.61601E-05-3.31468E-05-5.53663E-06 1.43897E-05-6.91009E-18-5.81700E-18
 -1      1707 8.30733E-05-7.46253E-06-3.18991E-05 5.99381E-05-7.15235E-18-6.33411E-18
 -1      1708 5.66050E-05-1.12710E-05-2.19265E-05 3.74921E-05-8.40426E-18-6.00038E-18
 -1      1709 8.18020E-05-4.08109E-05-1.85336E-05 3.85636E-05-4.46725E-18-3.34451E-18
 -1      1710 1.54250E-04-2.27416E-05-5.25399E-05 7.56381E-05-4.78362E-18-6.90501E-18
 -1      1711 1.11015E-04-8.63969E-06-4.31798E-05 6.47287E-05-6.01393E-18-6.93127E-18
 -1      1712 2.21720E-04-4.91186E-05-6.76756E-05 6.18918E-05-2.92878E-18-4.41643E-18
 -1      1713 1.78241E-04-2.80790E-05-6.05990E-05 7.34987E-05-4.01769E-18-6.97955E-18
 -1      1714 2.61003E-04-6.71214E-05-7.58644E-05 1.67358E-05-1.81096E-18 3.40295E-19
 -1      1715 2.38992E-04-5.48956E-05-7.26636E-05 4.92295E-05-2.50711E-18-2.90702E-18
 -1      1716 2.48082E-04-5.92147E-05-7.46389E-05-3.37190E-05-2.12055E-18 4.98775E-18
 -1      1717 2.58935E-04-6.52065E-05-7.61352E-05 3.39509E-08-1.62842E-18 2.07555E-18
 -1      1718 2.05388E-04-3.87105E-05-6.65714E-05-6.89289E-05-5.35971E-18 8.36106E-18
 -1      1719 2.40122E-04-5.70641E-05-7.17889E-05-4.91914E-05-3.14826E-18 5.92076E-18
 -1      1720 1.43658E-04-1.62182E-05-5.23254E-05-7.30679E-05-7.45855E-18 9.34023E-18
 -1      1721 1.85157E-04-3.34567E-05-6.01218E-05-7.37906E-05-5.42694E-18 7.97397E-18
 -1      1722 8.47100E-05-3.84590E-06-3.50578E-05-5.78820E-05-5.74797E-18 9.61467E-18
 -1      1723 1.19718E-04-1.03505E-05-4.42784E-05-7.44615E-05-7.12016E-18 1.05828E-17
 -1      1724 4.76937E-05-1.69451E-05-1.61943E-05-2.89107E-05-4.78404E-18 5.23043E-18
 -1      1725 6.72365E-05-6.91703E-06-2.59371E-05-5.10742E-05-5.49724E-18 8.31786E-18
 -1      1726 2.71739E-05-3.95683E-05 2.26962E-07-5.61609E-06-5.31005E-18 2.86382E-18
 -1      1727 2.91808E-05-1.79906E-05-7.58453E-06-1.97245E-05-4.98394E-18 4.46810E-18
 -1      1728 2.52221E-05-6.42366E-05 1.09496E-05-3.42374E-07-6.82709E-18 1.60132E-18
 -1      1729 2.13367E-05-4.51640E-05 5.84231E-06-2.23209E-06-5.66411E-18 1.51047E-18
 -1      1730 2.42324E-05-7.85815E-05 1.66331E-05-9.50107E-07-1.97390E-18 3.49825E-18
 -1      1731 2.10835E-05-6.97410E-05 1.48276E-05 7.22987E-06-6.35317E-18 3.41015E-18
 -1      1732 1.20031E-04-3.27025E-05-3.64319E-05 4.52087E-05 2.23405E-18 4.76964E-18
 -1      1733 7.91138E-05-3.72855E-05-1.87554E-05 4.14819E-05 1.66781E-18 3.37373E-18
 -1      1734 9.53584E-05-2.84497E-05-2.86834E-05 2.26894E-07-2.81129E-18 1.08543E-19
 -1      1735 9.54643E-05-2.81141E-05-2.88731E-05 8.25470E-07-2.18226E-18 9.73376E-19
 -1      1736 2.04313E-05-4.77118E-05 7.98868E-06 1.86018E-05-4.95514E-20 2.25459E-18
 -1      1737 4.32861E-05-4.25576E-05-3.01726E-06 3.17125E-05 1.92022E-18 1.62064E-18
 -1      1738 1.20398E-05-5.30626E-05 1.27117E-05 8.75646E-07-1.63223E-18 5.08728E-18
 -1      1739 1.60496E-04-3.00908E-05-5.26538E-05 4.35622E-05 2.43554E-18 4.23093E-18
 -1      1740 1.94257E-04-3.28214E-05-6.44815E-05 2.95660E-05 2.69695E-18 3.41015E-18
 -1      1741 2.09464E-04-3.36298E-05-7.02076E-05 9.29638E-06 4.52316E-18 2.53284E-18
 -1      1742 2.05907E-04-3.35621E-05-6.88925E-05-1.62791E-05 3.32376E-18 9.26231E-19
 -1      1743 1.82593E-04-3.19039E-05-6.04218E-05-3.55803E-05 3.82393E-18-1.91345E-18
 -1      1744 1.42732E-04-2.93242E-05-4.61231E-05-4.58553E-05 3.45187E-18-4.25549E-18
 -1      1745 9.75834E-05-2.92398E-05-2.89700E-05-4.59084E-05 3.83282E-18-4.42998E-18
 -1      1746 5.85475E-05-3.48425E-05-1.20402E-05-3.62139E-05 5.75728E-18-2.54618E-18
 -1      1747 3.14047E-05-4.34234E-05 1.70841E-06-2.40916E-05 5.01189E-18-1.60825E-18
 -1      1748 1.56565E-05-5.02283E-05 1.03837E-05-1.14845E-05 3.33307E-18-3.97851E-18
 -1      1749 1.23607E-05-5.09531E-05 1.20017E-05 2.88521E-06 1.49597E-18-4.26608E-18
 -1      1750 2.15056E-05-4.73282E-05 6.97213E-06 1.52985E-05-1.50941E-18-4.99411E-18
 -1      1751 4.79897E-05-4.33752E-05-4.48502E-06 3.08379E-05-3.47622E-18-5.17712E-18
 -1      1752 1.68624E-04-3.44710E-05-5.42481E-05 3.88282E-05-3.41238E-18-3.53975E-18
 -1      1753 2.04577E-04-3.66164E-05-6.67346E-05 2.58674E-05-3.83346E-18-4.51045E-19
 -1      1754 2.16356E-04-3.55926E-05-7.17291E-05 3.79517E-06-3.28945E-18 1.92372E-18
 -1      1755 2.08890E-04-3.46230E-05-6.92695E-05-1.86168E-05-3.45039E-18 3.61641E-18
 -1      1756 1.85286E-04-3.46257E-05-6.03855E-05-3.48679E-05-5.01668E-18 4.86451E-18
 -1      1757 1.47455E-04-3.29701E-05-4.67056E-05-4.42106E-05-4.12082E-18 4.81623E-18
 -1      1758 1.06260E-04-3.54021E-05-3.02657E-05-4.37099E-05-2.61776E-18 6.12913E-18
 -1      1759 6.73608E-05-3.95256E-05-1.36536E-05-3.71471E-05-3.02052E-18 5.11608E-18
 -1      1760 3.66228E-05-4.44001E-05 9.64439E-09-2.61546E-05-3.31783E-18 8.41448E-19
 -1      1761 1.87364E-05-4.86699E-05 8.85077E-06-1.45015E-05-2.23151E-18 2.68467E-18
 -1      1762 1.06043E-04-2.31679E-05-3.56014E-05-1.68565E-05-1.76224E-18 8.97326E-18
 -1      1763 1.21700E-04-3.57384E-05-3.59434E-05 4.24710E-05-4.69383E-18-3.48046E-18
 -1      1764 8.91489E-05-1.05870E-05-3.37948E-05-1.33337E-05-2.64324E-18-1.72202E-18
 -1      1765 9.04778E-05-1.16310E-05-3.39339E-05-1.51428E-05-2.97342E-18-8.16831E-19
 -1      1766 9.24828E-05-1.38734E-05-3.38517E-05-1.60080E-05-2.91418E-18 3.15123E-19
 -1      1767 9.41984E-05-1.58193E-05-3.40953E-05-1.76686E-05-2.97405E-18 1.91345E-18
 -1      1768 9.34113E-05-1.63470E-05-3.30426E-05-1.37766E-05-3.01594E-18-9.91558E-20
 -1      1769 8.62169E-05-7.67724E-06-3.37307E-05-7.87017E-06-1.73458E-18-3.45640E-18
 -1      1770 8.66194E-05-7.97538E-06-3.37643E-05-9.26000E-06-1.99115E-18-3.21367E-18
 -1      1771 8.56026E-05-7.04004E-06-3.37289E-05-5.32506E-06-1.20922E-18-3.76449E-18
 -1      1772 8.58359E-05-7.21858E-06-3.37435E-05-6.63038E-06-1.47500E-18-3.60734E-18
 -1      1773 8.76010E-05-9.87117E-06-3.33444E-05-6.93467E-06-1.72903E-18-3.36514E-18
 -1      1774 8.52701E-05-6.68220E-06-3.37329E-05-2.89186E-06-6.80268E-19-3.92801E-18
 -1      1775 8.53900E-05-6.77667E-06-3.37385E-05-4.13254E-06-9.44824E-19-3.86349E-18
 -1      1776 8.69679E-05-9.16021E-06-3.33786E-05-4.54207E-06-1.14664E-18-3.66441E-18
 -1      1777 8.51405E-05-6.53453E-06-3.37366E-05-5.18138E-07-2.28532E-19-4.05966E-18
 -1      1778 8.51757E-05-6.56293E-06-3.37380E-05-1.72891E-06-4.22971E-19-4.00587E-18
 -1      1779 8.66383E-05-8.78235E-06-3.33992E-05-2.21983E-06-6.16124E-19-3.85662E-18
 -1      1780 8.51855E-05-6.57194E-06-3.37381E-05 1.84702E-06 2.02644E-19-4.07611E-18
 -1      1781 8.51441E-05-6.53907E-06-3.37365E-05 6.35234E-07-2.20876E-20-4.07931E-18
 -1      1782 8.65410E-05-8.66915E-06-3.34060E-05 6.54400E-08-1.23037E-19-3.91405E-18
 -1      1783 8.54150E-05-6.80161E-06-3.37386E-05 4.25525E-06 6.94267E-19-4.02948E-18
 -1      1784 8.52879E-05-6.70117E-06-3.37328E-05 3.01138E-06 4.47252E-19-4.06098E-18
 -1      1785 8.66560E-05-8.80192E-06-3.33985E-05 2.35192E-06 3.53626E-19-3.95597E-18
 -1      1786 8.58692E-05-7.25393E-06-3.37433E-05 6.71833E-06 1.23261E-18-3.72120E-18
 -1      1787 8.56326E-05-7.07208E-06-3.37288E-05 5.43029E-06 9.50579E-19-3.90143E-18
 -1      1788 8.70021E-05-9.19807E-06-3.33771E-05 4.65744E-06 8.90197E-19-3.80438E-18
 -1      1789 8.66790E-05-8.04256E-06-3.37629E-05 9.38136E-06 1.88303E-18-3.19992E-18
 -1      1790 8.62599E-05-7.72646E-06-3.37297E-05 7.95995E-06 1.50256E-18-3.45788E-18
 -1      1791 8.76511E-05-9.92947E-06-3.33420E-05 7.03433E-06 1.51435E-18-3.35888E-18
 -1      1792 8.80871E-05-9.38875E-06-3.38171E-05 1.22612E-05 2.47340E-18-2.60598E-18
 -1      1793 8.73493E-05-8.83156E-06-3.37456E-05 1.06679E-05 2.16135E-18-2.96186E-18
 -1      1794 8.87685E-05-1.11629E-05-3.32904E-05 9.50985E-06 2.19865E-18-2.84315E-18
 -1      1795 9.06270E-05-1.18394E-05-3.39259E-05 1.53092E-05 2.91911E-18-1.28238E-18
 -1      1796 8.92484E-05-1.07406E-05-3.37867E-05 1.35197E-05 2.67914E-18-2.10699E-18
 -1      1797 9.06612E-05-1.32235E-05-3.32062E-05 1.19826E-05 2.76378E-18-2.06123E-18
 -1      1798 9.58681E-05-1.70323E-05-3.39907E-05 1.76964E-05 3.00490E-18 1.47797E-18
 -1      1799 9.28502E-05-1.43416E-05-3.38249E-05 1.62001E-05 2.88035E-18-1.81689E-19
 -1      1800 9.39646E-05-1.68861E-05-3.30223E-05 1.39010E-05 2.99898E-18-5.75903E-19
 -1      1801 1.01915E-04-2.50914E-05-3.33564E-05 1.44270E-05 2.63178E-18 4.94561E-18
 -1      1802 9.80676E-05-1.96139E-05-3.36226E-05 1.69695E-05 2.82925E-18 2.67419E-18
 -1      1803 9.73206E-05-2.18517E-05-3.24250E-05 1.32544E-05 3.06949E-18 1.50944E-18
 -1      1804 9.87414E-05-2.61320E-05-3.13393E-05 9.43948E-06 2.65550E-18 4.14695E-18
 -1      1805 1.00146E-04-1.95603E-05-3.42152E-05-1.88741E-05-2.46149E-18 4.47413E-18
 -1      1806 9.52984E-05-2.72821E-05-2.91814E-05 4.07137E-06 2.07921E-18 2.90138E-18
 -1      1807 9.77300E-05-2.73874E-05-3.01910E-05 6.40534E-06 2.23029E-18 3.68688E-18
 -1      1808 9.75659E-05-2.56118E-05-3.08296E-05 8.76501E-06 2.65918E-18 2.19524E-18
 -1      1809 1.41623E-04-4.58021E-05-4.04234E-05 3.12904E-05-3.42921E-18-1.49544E-18
 -1      1810 1.18095E-04-4.82916E-05-3.06245E-05 3.15063E-05-3.85696E-18-1.71016E-18
 -1      1811 9.98063E-05-2.25393E-05-3.28334E-05-1.44729E-05-2.69536E-18 3.32783E-18
 -1      1812 9.69482E-05-2.69756E-05-2.98737E-05-5.71086E-06-2.15663E-18 2.89247E-18
 -1      1813 9.51386E-05-2.70301E-05-2.91626E-05-3.90424E-06-1.94612E-18 2.37378E-18
 -1      1814 9.43185E-05-2.72312E-05-2.86547E-05-2.42764E-06-1.78962E-18 2.25212E-18
 -1      1815 9.35457E-05-2.73120E-05-2.83491E-05-1.57469E-06-1.61935E-18 1.71021E-18
 -1      1816 9.54950E-05-2.65427E-05-2.95721E-05-4.48099E-06-2.21675E-18 1.03120E-18
 -1      1817 9.30197E-05-2.73625E-05-2.80798E-05-7.49137E-07-1.37805E-18 1.57260E-18
 -1      1818 9.27162E-05-2.74253E-05-2.79572E-05-3.11577E-07-1.06518E-18 1.15286E-18
 -1      1819 9.42840E-05-2.72188E-05-2.87627E-05-1.83772E-06-1.80621E-18 6.45528E-19
 -1      1820 9.24389E-05-2.74521E-05-2.78208E-05 1.42886E-07-8.05012E-19 9.35692E-19
 -1      1821 9.24051E-05-2.75273E-05-2.77902E-05 3.66309E-07-6.82520E-19 7.17766E-19
 -1      1822 9.35797E-05-2.75238E-05-2.83261E-05-3.73921E-07-1.23205E-18 2.64137E-19
 -1      1823 9.23003E-05-2.75580E-05-2.77317E-05 6.05629E-07-5.03201E-19 5.73206E-19
 -1      1824 9.24125E-05-2.76421E-05-2.77502E-05 7.09213E-07-3.11707E-19 2.41667E-19
 -1      1825 9.32556E-05-2.77069E-05-2.81046E-05 4.27335E-07-7.34048E-19-1.21890E-19
 -1      1826 9.24168E-05-2.76795E-05-2.77380E-05 8.20318E-07-4.07032E-19 1.97252E-19
 -1      1827 9.26020E-05-2.77651E-05-2.77821E-05 8.54110E-07-4.62677E-19 1.77550E-19
 -1      1828 9.31894E-05-2.78484E-05-2.80117E-05 8.38370E-07-5.01570E-19-3.46642E-19
 -1      1829 9.26702E-05-2.78059E-05-2.77969E-05 8.88468E-07-5.04309E-19 6.11104E-20
 -1      1830 9.28846E-05-2.78875E-05-2.78528E-05 8.81944E-07-5.18152E-19 6.76293E-20
 -1      1831 9.32825E-05-2.79702E-05-2.79962E-05 1.01512E-06-6.24724E-19-3.65639E-19
 -1      1832 9.29866E-05-2.79285E-05-2.78825E-05 8.71840E-07-6.26566E-19 8.15900E-20
 -1      1833 9.32047E-05-2.80026E-05-2.79419E-05 8.43649E-07-4.87417E-19-5.27825E-20
 -1      1834 9.34647E-05-2.80774E-05-2.80261E-05 1.05246E-06-5.87703E-19-6.51004E-19
 -1      1835 9.33213E-05-2.80414E-05-2.79789E-05 8.10240E-07-4.77292E-19-1.16291E-19
 -1      1836 9.35291E-05-2.81067E-05-2.80371E-05 7.72724E-07-4.24620E-19-4.16126E-19
 -1      1837 9.36899E-05-2.81707E-05-2.80812E-05 1.01116E-06-7.83354E-19-5.76325E-19
 -1      1838 9.36492E-05-2.81420E-05-2.80768E-05 7.30336E-07-3.33068E-19-4.06107E-19
 -1      1839 9.38406E-05-2.81983E-05-2.81316E-05 6.91936E-07-1.35239E-19-5.05501E-19
 -1      1840 9.39296E-05-2.82504E-05-2.81489E-05 9.31696E-07-4.85742E-19-5.70055E-19
 -1      1841 9.39586E-05-2.82298E-05-2.81718E-05 6.50570E-07-4.38718E-20-6.40996E-19
 -1      1842 9.41329E-05-2.82781E-05-2.82227E-05 6.17270E-07-1.00428E-20-6.42852E-19
 -1      1843 9.41681E-05-2.83172E-05-2.82220E-05 8.41893E-07-1.98625E-19-7.31608E-19
 -1      1844 9.42474E-05-2.83062E-05-2.82626E-05 5.84203E-07 1.52973E-19-8.08761E-19
 -1      1845 9.44080E-05-2.83480E-05-2.83103E-05 5.60496E-07 1.70544E-19-3.66007E-19
 -1      1846 9.43992E-05-2.83728E-05-2.82972E-05 7.61535E-07 7.64407E-20-8.55934E-19
 -1      1847 9.45206E-05-2.83735E-05-2.83504E-05 5.41386E-07 3.74158E-20-4.10855E-19
 -1      1848 9.46739E-05-2.84112E-05-2.83966E-05 5.30970E-07-1.55872E-19-7.79522E-20
 -1      1849 9.46234E-05-2.84193E-05-2.83735E-05 7.05429E-07 2.01010E-19-8.38420E-19
 -1      1850 9.47887E-05-2.84355E-05-2.84381E-05 5.30672E-07-6.01577E-19-2.31876E-19
 -1      1851 9.49436E-05-2.84716E-05-2.84854E-05 5.36984E-07-3.26365E-19-4.65046E-19
 -1      1852 9.48469E-05-2.84593E-05-2.84525E-05 6.85582E-07-2.33613E-19-6.57713E-19
 -1      1853 9.50668E-05-2.84964E-05-2.85305E-05 5.60182E-07-4.18425E-19-5.70481E-19
 -1      1854 9.52346E-05-2.85343E-05-2.85821E-05 5.86820E-07-3.65454E-19-8.05450E-19
 -1      1855 9.50800E-05-2.84960E-05-2.85371E-05 7.12831E-07-5.86681E-19-6.44163E-19
 -1      1856 9.53742E-05-2.85616E-05-2.86335E-05 6.38518E-07-3.38655E-19-1.16571E-18
 -1      1857 9.55688E-05-2.86050E-05-2.86934E-05 6.89583E-07-2.44688E-19-1.30459E-18
 -1      1858 9.53366E-05-2.85330E-05-2.86319E-05 7.98104E-07-6.35725E-19-1.13528E-18
 -1      1859 9.57344E-05-2.86372E-05-2.87547E-05 7.75479E-07-3.53281E-19-1.44020E-18
 -1      1860 9.59725E-05-2.86906E-05-2.88278E-05 8.55837E-07-8.26490E-19-1.38339E-18
 -1      1861 9.56344E-05-2.85744E-05-2.87426E-05 9.53387E-07-4.71076E-19-1.14985E-18
 -1      1862 9.61755E-05-2.87305E-05-2.89029E-05 9.82575E-07-1.03586E-18-1.41800E-18
 -1      1863 9.64770E-05-2.87995E-05-2.89950E-05 1.09800E-06-5.31294E-19-1.45863E-18
 -1      1864 9.59942E-05-2.86248E-05-2.88761E-05 1.19241E-06-8.54420E-19-1.27618E-18
 -1      1865 9.67307E-05-2.88504E-05-2.90885E-05 1.27322E-06-2.37634E-19-1.77050E-18
 -1      1866 9.71189E-05-2.89415E-05-2.92064E-05 1.43038E-06-1.68323E-19-1.61209E-18
 -1      1867 9.64407E-05-2.86899E-05-2.90406E-05 1.53096E-06-4.99782E-19-1.28383E-18
 -1      1868 9.74382E-05-2.90074E-05-2.93236E-05 1.66243E-06-4.76191E-20-1.34275E-18
 -1      1869 9.79401E-05-2.91287E-05-2.94749E-05 1.86842E-06 7.37241E-20-1.41238E-18
 -1      1870 9.70018E-05-2.87768E-05-2.92449E-05 1.98660E-06 2.10038E-19-1.60628E-18
 -1      1871 9.83414E-05-2.92146E-05-2.96211E-05 2.16548E-06-7.04179E-20-1.04436E-18
 -1      1872 9.89874E-05-2.93762E-05-2.98143E-05 2.42677E-06 6.47749E-20-1.20771E-18
 -1      1873 9.77091E-05-2.88947E-05-2.94987E-05 2.57736E-06 2.50581E-19-1.42980E-18
 -1      1874 9.94884E-05-2.94889E-05-2.99947E-05 2.79478E-06-2.07068E-19-1.22520E-18
 -1      1875 1.00311E-04-2.97033E-05-3.02382E-05 3.11468E-06-2.58696E-19-1.10272E-18
 -1      1876 9.85974E-05-2.90571E-05-2.98109E-05 3.31848E-06-9.88588E-20-9.70491E-19
 -1      1877 1.00930E-04-2.98524E-05-3.04567E-05 3.55331E-06-4.39961E-20-1.35607E-18
 -1      1878 1.01960E-04-3.01356E-05-3.07578E-05 3.92707E-06 8.91089E-20-1.29935E-18
 -1      1879 9.97045E-05-2.92846E-05-3.01890E-05 4.21579E-06-2.92183E-19-1.54982E-18
 -1      1880 1.02717E-04-3.03363E-05-3.10156E-05 4.42220E-06 4.38439E-19-1.48767E-18
 -1      1881 1.03977E-04-3.07087E-05-3.13773E-05 4.82804E-06 5.93067E-19-8.48276E-19
 -1      1882 1.01071E-04-2.96109E-05-3.06360E-05 5.25326E-06 4.35592E-19-1.63961E-18
 -1      1883 1.04893E-04-3.09856E-05-3.16707E-05 5.33893E-06 1.36013E-19-6.73126E-19
 -1      1884 1.06385E-04-3.14723E-05-3.20880E-05 5.72315E-06-5.47312E-20-8.47748E-19
 -1      1885 1.02741E-04-3.00924E-05-3.11469E-05 6.37139E-06 4.46951E-19-1.55377E-18
 -1      1886 1.07483E-04-3.18645E-05-3.24053E-05 6.16236E-06 1.81810E-19-3.43659E-19
 -1      1887 1.09169E-04-3.24935E-05-3.28581E-05 6.41797E-06 6.14686E-19-4.52776E-19
 -1      1888 1.04767E-04-3.08214E-05-3.17048E-05 7.43258E-06 2.84585E-19 2.02461E-20
 -1      1889 1.10477E-04-3.30582E-05-3.31776E-05 6.62468E-06 7.00657E-19-3.20344E-19
 -1      1890 1.12249E-04-3.38491E-05-3.36232E-05 6.56867E-06 1.21022E-18 1.35022E-19
 -1      1891 1.07209E-04-3.19373E-05-3.22765E-05 8.17229E-06 1.01703E-18-2.00032E-19
 -1      1892 1.13794E-04-3.46516E-05-3.39145E-05 6.28466E-06 4.74547E-19-5.41774E-19
 -1      1893 1.15433E-04-3.55822E-05-3.42832E-05 5.65450E-06-5.62893E-19-7.01029E-19
 -1      1894 1.10132E-04-3.36152E-05-3.28148E-05 8.14576E-06 3.52094E-19-4.79014E-19
 -1      1895 1.17203E-04-3.66474E-05-3.45163E-05 4.53408E-06-8.09691E-19-5.36053E-19
 -1      1896 1.18350E-04-3.75783E-05-3.47197E-05 3.05209E-06-3.45715E-19-5.41158E-19
 -1      1897 1.13561E-04-3.59798E-05-3.32741E-05 6.70973E-06-5.29839E-19-9.31635E-19
 -1      1898 1.20192E-04-3.87645E-05-3.48892E-05 7.79468E-07-2.07980E-19-4.29787E-19
 -1      1899 1.20350E-04-3.93217E-05-3.48540E-05-1.64047E-06-9.35442E-20-1.62134E-19
 -1      1900 1.17330E-04-3.88604E-05-3.36501E-05 3.14017E-06-5.60630E-20-9.66443E-19
 -1      1901 1.21789E-04-4.01265E-05-3.50083E-05-5.00294E-06-1.65105E-19 2.17052E-21
 -1      1902 1.20475E-04-3.96628E-05-3.47339E-05-7.87360E-06 2.36905E-20 2.86535E-20
 -1      1903 1.20776E-04-4.13470E-05-3.40385E-05-2.91723E-06 3.33764E-19-2.76598E-19
 -1      1904 1.20676E-04-3.92186E-05-3.49727E-05-1.13060E-05 1.69407E-21-2.31094E-19
 -1      1905 1.17825E-04-3.71764E-05-3.45720E-05-1.32645E-05-1.33447E-19-2.86403E-19
 -1      1906 1.22475E-04-4.15473E-05-3.46509E-05-1.04733E-05-1.15345E-19 1.53548E-19
 -1      1907 1.16215E-04-3.49415E-05-3.49555E-05-1.45470E-05-8.64917E-19-7.04652E-19
 -1      1908 1.12727E-04-3.18034E-05-3.46094E-05-1.37991E-05-1.12744E-18-1.21016E-18
 -1      1909 1.20829E-04-3.75568E-05-3.56748E-05-1.60868E-05-9.89030E-19-6.35576E-19
 -1      1910 1.10236E-04-2.88687E-05-3.50134E-05-1.09256E-05-1.64414E-18-1.57884E-18
 -1      1911 1.07967E-04-2.66168E-05-3.48370E-05-6.94377E-06-1.87144E-18-2.41347E-18
 -1      1912 1.16163E-04-3.01738E-05-3.69423E-05-1.48324E-05-1.73975E-18-1.53087E-18
 -1      1913 1.07043E-04-2.56188E-05-3.49483E-05-8.16713E-07-1.54790E-18-2.70444E-18
 -1      1914 1.07466E-04-2.61575E-05-3.49490E-05 4.21341E-06-1.28257E-18-3.46901E-18
 -1      1915 1.12284E-04-2.47062E-05-3.77729E-05-4.73827E-06-1.83896E-18-1.13193E-18
 -1      1916 1.09078E-04-2.81232E-05-3.46417E-05 9.48080E-06-9.71679E-19-3.77896E-18
 -1      1917 1.11802E-04-3.09287E-05-3.48192E-05 1.23463E-05-9.38830E-19-2.88192E-18
 -1      1918 1.13094E-04-2.60689E-05-3.75016E-05 8.26530E-06-1.16372E-18-1.79925E-18
 -1      1919 1.14034E-04-3.38127E-05-3.43335E-05 1.35393E-05-2.63176E-19-3.22811E-18
 -1      1920 1.17211E-04-3.66346E-05-3.46455E-05 1.30906E-05 4.03103E-19-3.01398E-18
 -1      1921 1.17521E-04-3.29160E-05-3.63058E-05 1.52817E-05-6.84588E-19-2.54225E-18
 -1      1922 1.17993E-04-3.81819E-05-3.42505E-05 1.06633E-05 1.03539E-18-2.73921E-18
 -1      1923 1.20048E-04-3.95380E-05-3.45460E-05 8.12191E-06 1.20023E-18-1.89962E-18
 -1      1924 1.20988E-04-3.93191E-05-3.49560E-05 1.34050E-05 6.84968E-19-2.39530E-18
 -1      1925 1.19102E-04-3.93645E-05-3.42888E-05 4.46339E-06 6.11875E-19-2.07299E-18
 -1      1926 1.19540E-04-3.92837E-05-3.43984E-05 1.60375E-06 2.34959E-19-2.55429E-18
 -1      1927 1.20922E-04-4.15808E-05-3.39740E-05 6.39680E-06 6.36413E-19-2.32763E-18
 -1      1928 1.17680E-04-3.82005E-05-3.41833E-05-1.46912E-06 2.89619E-19-1.99942E-18
 -1      1929 1.16780E-04-3.73514E-05-3.40350E-05-3.61253E-06 4.66020E-19-1.54893E-18
 -1      1930 1.17995E-04-4.01776E-05-3.33553E-05-9.75217E-07 1.03039E-18-1.97226E-18
 -1      1931 1.14727E-04-3.61153E-05-3.37773E-05-5.49988E-06 1.18211E-18-1.29787E-18
 -1      1932 1.13007E-04-3.50476E-05-3.34073E-05-6.69198E-06 1.15969E-18-3.25764E-19
 -1      1933 1.13911E-04-3.72660E-05-3.28699E-05-6.26607E-06 8.77606E-19 4.33954E-19
 -1      1934 1.11096E-04-3.39989E-05-3.30856E-05-7.50903E-06-1.97134E-19 8.91006E-20
 -1      1935 1.09018E-04-3.29816E-05-3.25833E-05-7.91976E-06 9.06740E-19 3.47062E-19
 -1      1936 1.09800E-04-3.43738E-05-3.23497E-05-9.09464E-06 7.06720E-19 4.52794E-19
 -1      1937 1.07339E-04-3.21745E-05-3.22226E-05-7.98464E-06 4.64175E-19-1.23608E-18
 -1      1938 1.05232E-04-3.12902E-05-3.16815E-05-7.86518E-06 4.11641E-19-2.13714E-18
 -1      1939 1.06104E-04-3.20594E-05-3.17542E-05-9.97425E-06-3.53779E-19-6.80914E-19
 -1      1940 1.03785E-04-3.06676E-05-3.13233E-05-7.44933E-06 2.10177E-19-2.76050E-18
 -1      1941 1.01863E-04-2.99185E-05-3.08188E-05-6.98315E-06-1.69721E-19-3.23039E-18
 -1      1942 1.02907E-04-3.03215E-05-3.11257E-05-9.54038E-06-7.80602E-19-2.06319E-18
 -1      1943 1.00626E-04-2.94030E-05-3.05012E-05-6.25163E-06 1.88594E-19-3.57905E-18
 -1      1944 9.90321E-05-2.87777E-05-3.00878E-05-5.52180E-06 2.39353E-19-3.58909E-18
 -1      1945 1.00183E-04-2.89772E-05-3.05316E-05-8.25187E-06-6.67493E-19-2.69725E-18
 -1      1946 9.81173E-05-2.84033E-05-2.98542E-05-4.59918E-06 1.39069E-18-3.34972E-18
 -1      1947 9.69198E-05-2.79110E-05-2.95460E-05-3.66931E-06 1.20571E-18-2.47288E-18
 -1      1948 9.63689E-05-2.72167E-05-2.96492E-05-4.29155E-06 1.21233E-18-2.03198E-18
 -1      1949 9.80079E-05-2.79324E-05-3.00517E-05-6.42022E-06 1.21088E-18-2.48841E-18
 -1      1950 9.31954E-05-2.73576E-05-2.81883E-05 1.61063E-06 1.56707E-18 1.91024E-18
 -1      1951 9.43919E-05-2.74639E-05-2.86254E-05 2.68155E-06 1.70686E-18 2.59307E-18
 -1      1952 9.52175E-05-2.70427E-05-2.92229E-05 4.06052E-06 2.10085E-18 1.48424E-18
 -1      1953 9.21404E-05-2.73436E-05-2.77455E-05 3.54447E-07 1.26511E-18 1.02756E-18
 -1      1954 9.26366E-05-2.73765E-05-2.79184E-05 9.02109E-07 1.30510E-18 1.56005E-18
 -1      1955 9.36105E-05-2.73635E-05-2.83982E-05 1.59206E-06 1.61953E-18 8.17956E-19
 -1      1956 9.17614E-05-2.73801E-05-2.75763E-05-2.98032E-07 8.06097E-19 5.76227E-19
 -1      1957 9.18786E-05-2.73541E-05-2.76239E-05-6.06151E-09 9.61392E-19 8.89500E-19
 -1      1958 9.27767E-05-2.74784E-05-2.79950E-05 2.80190E-07 1.22138E-18 2.58170E-19
 -1      1959 9.17811E-05-2.74693E-05-2.75521E-05-6.23140E-07 5.10667E-19-1.52294E-19
 -1      1960 9.16956E-05-2.74081E-05-2.75364E-05-4.70762E-07 5.86776E-19 3.03486E-19
 -1      1961 9.24598E-05-2.75703E-05-2.78199E-05-4.12480E-07 8.30217E-19-1.76352E-19
 -1      1962 9.20217E-05-2.75898E-05-2.76066E-05-7.60949E-07 7.02536E-19-3.54578E-19
 -1      1963 9.18332E-05-2.75120E-05-2.75586E-05-6.89874E-07 4.35984E-19-1.33880E-19
 -1      1964 9.24603E-05-2.76742E-05-2.77737E-05-7.57221E-07 5.75111E-19-6.11136E-19
 -1      1965 9.23719E-05-2.77227E-05-2.77017E-05-7.89497E-07 8.27727E-19-4.20196E-19
 -1      1966 9.21386E-05-2.76401E-05-2.76388E-05-7.66888E-07 7.98154E-19-2.42093E-19
 -1      1967 9.26428E-05-2.77882E-05-2.78008E-05-8.99077E-07 8.44110E-19-5.61409E-19
 -1      1968 9.27634E-05-2.78547E-05-2.78141E-05-7.56232E-07 8.47530E-19-9.91567E-19
 -1      1969 9.25193E-05-2.77747E-05-2.77466E-05-7.61866E-07 9.22251E-19-5.35250E-19
 -1      1970 9.29190E-05-2.79038E-05-2.78679E-05-9.22251E-07 1.13066E-18-7.20467E-19
 -1      1971 9.31559E-05-2.79784E-05-2.79303E-05-6.91691E-07 5.25356E-19-1.40824E-18
 -1      1972 9.29204E-05-2.79049E-05-2.78640E-05-7.12352E-07 6.72365E-19-1.19412E-18
 -1      1973 9.32337E-05-2.80141E-05-2.79541E-05-8.79137E-07 9.11225E-19-8.44799E-19
 -1      1974 9.35282E-05-2.80901E-05-2.80426E-05-6.16280E-07 4.07718E-19-1.55409E-18
 -1      1975 9.33105E-05-2.80246E-05-2.79805E-05-6.42985E-07 3.97149E-19-1.70275E-18
 -1      1976 9.35538E-05-2.81149E-05-2.80472E-05-8.03968E-07 6.13648E-19-1.26184E-18
 -1      1977 9.38718E-05-2.81891E-05-2.81478E-05-5.44044E-07 1.15684E-19-1.52306E-18
 -1      1978 9.36749E-05-2.81316E-05-2.80910E-05-5.70482E-07 1.99601E-19-1.46039E-18
 -1      1979 9.38621E-05-2.82045E-05-2.81403E-05-7.19895E-07 1.36630E-19-1.26071E-18
 -1      1980 9.41876E-05-2.82768E-05-2.82458E-05-4.84976E-07 2.23415E-19-1.71805E-18
 -1      1981 9.40096E-05-2.82262E-05-2.81938E-05-5.06545E-07 2.17591E-19-1.53256E-18
 -1      1982 9.41521E-05-2.82833E-05-2.82305E-05-6.43060E-07 3.10701E-19-1.49992E-18
 -1      1983 9.44831E-05-2.83560E-05-2.83386E-05-4.46555E-07 3.51574E-19-1.76497E-18
 -1      1984 9.43189E-05-2.83104E-05-2.82900E-05-4.59702E-07 1.07338E-19-1.74314E-18
 -1      1985 9.44253E-05-2.83530E-05-2.83176E-05-5.85152E-07 2.38599E-19-1.49083E-18
 -1      1986 9.47711E-05-2.84309E-05-2.84297E-05-4.34784E-07 2.03197E-19-1.61802E-18
 -1      1987 9.46127E-05-2.83878E-05-2.83823E-05-4.36560E-07 3.88043E-19-1.67804E-18
 -1      1988 9.46891E-05-2.84168E-05-2.84033E-05-5.55112E-07 4.28212E-19-1.54808E-18
 -1      1989 9.50681E-05-2.85067E-05-2.85242E-05-4.54883E-07 1.50467E-19-2.07157E-18
 -1      1990 9.49058E-05-2.84630E-05-2.84752E-05-4.42636E-07 2.27519E-19-1.61175E-18
 -1      1991 9.49554E-05-2.84784E-05-2.84912E-05-5.60273E-07 3.64459E-19-1.38757E-18
 -1      1992 9.53945E-05-2.85896E-05-2.86281E-05-5.11642E-07 8.97481E-19-2.32583E-18
 -1      1993 9.52166E-05-2.85415E-05-2.85740E-05-4.82859E-07 4.45392E-19-2.24005E-18
 -1      1994 9.52395E-05-2.85428E-05-2.85856E-05-6.07062E-07 7.91564E-19-1.79799E-18
 -1      1995 9.57734E-05-2.86866E-05-2.87483E-05-6.09433E-07-2.70099E-19-1.66905E-18
 -1      1996 9.55665E-05-2.86301E-05-2.86853E-05-5.61736E-07 7.56827E-19-1.85808E-18
 -1      1997 9.55600E-05-2.86157E-05-2.86922E-05-7.01269E-07 5.59274E-19-1.23621E-18
 -1      1998 9.62304E-05-2.88058E-05-2.88924E-05-7.51787E-07-1.02150E-18-2.36592E-18
 -1      1999 9.59800E-05-2.87362E-05-2.88163E-05-6.83125E-07-1.03611E-18-2.33778E-18
 -1      2000 9.59380E-05-2.87039E-05-2.88170E-05-8.47836E-07-5.16664E-19-1.25540E-18
 -1      2001 9.67924E-05-2.89564E-05-2.90680E-05-9.40403E-07 6.18661E-20-2.55459E-18
 -1      2002 9.64833E-05-2.88685E-05-2.89746E-05-8.49517E-07-4.55191E-19-2.57034E-18
 -1      2003 9.63964E-05-2.88150E-05-2.89664E-05-1.05005E-06-4.14489E-19-2.41392E-18
 -1      2004 9.74858E-05-2.91480E-05-2.92825E-05-1.17339E-06 6.80632E-19-2.88704E-18
 -1      2005 9.71032E-05-2.90364E-05-2.91677E-05-1.06065E-06 5.28176E-19-2.56734E-18
 -1      2006 9.69589E-05-2.89583E-05-2.91468E-05-1.30793E-06 4.52814E-19-2.42690E-18
 -1      2007 9.83339E-05-2.93906E-05-2.95417E-05-1.44248E-06 1.18064E-18-3.20599E-18
 -1      2008 9.78651E-05-2.92503E-05-2.94022E-05-1.31124E-06 1.07006E-18-2.85644E-18
 -1      2009 9.76481E-05-2.91440E-05-2.93633E-05-1.61560E-06 1.17674E-18-2.33773E-18
 -1      2010 9.93515E-05-2.96940E-05-2.98482E-05-1.72901E-06-1.83934E-19-3.08697E-18
 -1      2011 9.87894E-05-2.95204E-05-2.96825E-05-1.58759E-06 6.23341E-19-3.37331E-18
 -1      2012 9.84828E-05-2.93836E-05-2.96190E-05-1.95725E-06 7.99315E-19-2.68140E-18
 -1      2013 1.00538E-04-3.00654E-05-3.01991E-05-1.99850E-06-1.31868E-18-2.96255E-18
 -1      2014 9.98852E-05-2.98562E-05-3.00089E-05-1.86290E-06-1.09574E-18-3.12738E-18
 -1      2015 9.94737E-05-2.96892E-05-2.99132E-05-2.30173E-06-8.81506E-19-2.64299E-18
 -1      2016 1.01869E-04-3.05074E-05-3.05827E-05-2.19441E-06-1.10411E-18-1.97730E-18
 -1      2017 1.01143E-04-3.02644E-05-3.03747E-05-2.09155E-06-1.29214E-18-2.51544E-18
 -1      2018 1.00617E-04-3.00726E-05-3.02390E-05-2.59567E-06-1.65818E-18-2.30881E-18
 -1      2019 1.03280E-04-3.10130E-05-3.09753E-05-2.23261E-06-1.32505E-19-1.53421E-18
 -1      2020 1.02524E-04-3.07448E-05-3.07632E-05-2.20330E-06-7.47669E-19-2.00781E-18
 -1      2021 1.01886E-04-3.05419E-05-3.05812E-05-2.75659E-06-8.85788E-19-1.84569E-18
 -1      2022 1.04656E-04-3.15584E-05-3.13378E-05-2.00078E-06 7.29347E-19-1.57287E-19
 -1      2023 1.03944E-04-3.12847E-05-3.11445E-05-2.10040E-06 5.05351E-19-7.22476E-19
 -1      2024 1.03221E-04-3.10956E-05-3.09141E-05-2.66889E-06 1.19747E-19-7.93097E-19
 -1      2025 1.05820E-04-3.20921E-05-3.16149E-05-1.37033E-06-2.30714E-19 1.12947E-19
 -1      2026 1.05263E-04-3.18487E-05-3.14731E-05-1.66332E-06-1.05184E-19 3.68562E-19
 -1      2027 1.04513E-04-3.17117E-05-3.12006E-05-2.18940E-06-2.75765E-19 5.06900E-19
 -1      2028 1.06528E-04-3.25212E-05-3.17402E-05-2.32751E-07-6.44301E-19 8.62042E-19
 -1      2029 1.06272E-04-3.23651E-05-3.16894E-05-7.74774E-07-6.49195E-19 5.30441E-19
 -1      2030 1.05599E-04-3.23295E-05-3.13951E-05-1.17331E-06-4.64925E-19 1.33298E-18
 -1      2031 1.06494E-04-3.27027E-05-3.16489E-05 1.42860E-06 4.95865E-19 4.89132E-19
 -1      2032 1.06697E-04-3.27110E-05-3.17281E-05 6.26451E-07 2.73075E-19 7.45704E-19
 -1      2033 1.06247E-04-3.28273E-05-3.14511E-05 4.65909E-07 2.58679E-19 1.41177E-18
 -1      2034 1.05450E-04-3.24546E-05-3.13023E-05 3.43491E-06-5.46816E-19 1.41752E-19
 -1      2035 1.06241E-04-3.27110E-05-3.15347E-05 2.45788E-06 1.42646E-19 4.43415E-19
 -1      2036 1.06184E-04-3.30098E-05-3.13358E-05 2.65526E-06 1.17274E-19 9.62374E-19
 -1      2037 1.03275E-04-3.16174E-05-3.07160E-05 5.32270E-06-2.27190E-19-1.33780E-18
 -1      2038 1.04675E-04-3.21742E-05-3.10914E-05 4.39609E-06-7.27853E-19-6.85084E-19
 -1      2039 1.05158E-04-3.26385E-05-3.10476E-05 5.04226E-06-1.70925E-19-3.10249E-19
 -1      2040 1.00155E-04-3.01814E-05-2.99812E-05 6.37295E-06 4.73230E-21-5.24558E-19
 -1      2041 1.02003E-04-3.09984E-05-3.04422E-05 5.84444E-06 1.53998E-19-7.72554E-19
 -1      2042 1.03085E-04-3.15428E-05-3.06301E-05 6.93748E-06-1.41342E-19-3.94181E-19
 -1      2043 9.67220E-05-2.84297E-05-2.92559E-05 5.87313E-06-7.47460E-19-5.46012E-19
 -1      2044 9.86375E-05-2.93241E-05-2.97028E-05 6.07986E-06-4.90624E-19-4.57365E-19
 -1      2045 1.00243E-04-2.98107E-05-3.01694E-05 7.45594E-06-5.75357E-19-8.45379E-20
 -1      2046 9.39819E-05-2.69550E-05-2.87212E-05 3.58693E-06 1.21884E-18-4.32768E-19
 -1      2047 9.54361E-05-2.76280E-05-2.90394E-05 4.62693E-06 4.98174E-19-2.18482E-19
 -1      2048 9.73707E-05-2.79287E-05-2.97707E-05 5.94360E-06 3.51347E-19 2.39197E-19
 -1      2049 9.29135E-05-2.63946E-05-2.85165E-05 1.12975E-07 6.78414E-19-6.06661E-19
 -1      2050 9.34387E-05-2.65747E-05-2.86192E-05 1.69010E-06 1.04423E-18-2.62248E-19
 -1      2051 9.54776E-05-2.66558E-05-2.95244E-05 2.52920E-06 1.17552E-18 9.51426E-19
 -1      2052 9.39036E-05-2.70058E-05-2.86846E-05-3.28884E-06-1.14486E-18-9.79885E-19
 -1      2053 9.33378E-05-2.66245E-05-2.85499E-05-1.75701E-06-5.22963E-19-1.50081E-18
 -1      2054 9.53116E-05-2.65937E-05-2.94801E-05-1.68243E-06 3.21978E-19 3.37381E-19
 -1      2055 9.64811E-05-2.84714E-05-2.91543E-05-5.39078E-06-3.23395E-20-1.30642E-18
 -1      2056 9.50674E-05-2.77121E-05-2.88352E-05-4.44516E-06-3.15414E-19-8.05892E-19
 -1      2057 9.68693E-05-2.77541E-05-2.96329E-05-5.12290E-06-2.94986E-19-8.27478E-19
 -1      2058 9.96021E-05-3.01265E-05-2.97689E-05-5.66697E-06-4.05907E-19-1.43404E-18
 -1      2059 9.78573E-05-2.93003E-05-2.93707E-05-5.52116E-06-7.65573E-19-1.82644E-18
 -1      2060 9.93942E-05-2.95499E-05-2.99259E-05-6.65317E-06-4.61665E-19-1.47516E-18
 -1      2061 1.02235E-04-3.13881E-05-3.03468E-05-4.41616E-06-5.94412E-20 2.57055E-19
 -1      2062 1.00692E-04-3.07534E-05-2.99841E-05-4.92958E-06-2.46725E-19-2.95853E-19
 -1      2063 1.01866E-04-3.12086E-05-3.02660E-05-6.10695E-06-1.00444E-18 4.85059E-20
 -1      2064 1.03769E-04-3.19982E-05-3.07411E-05-2.38121E-06-8.89563E-19-1.02817E-18
 -1      2065 1.02778E-04-3.16705E-05-3.04998E-05-3.23378E-06-3.50069E-19-1.07907E-18
 -1      2066 1.03532E-04-3.22177E-05-3.05500E-05-4.12600E-06-3.49401E-20-8.74234E-19
 -1      2067 1.04074E-04-3.19933E-05-3.08780E-05-2.90504E-07 2.67034E-19 4.53096E-20
 -1      2068 1.03747E-04-3.19618E-05-3.07953E-05-1.17460E-06-1.68685E-19-2.09288E-19
 -1      2069 1.04106E-04-3.24671E-05-3.06957E-05-1.61832E-06-5.94392E-19-3.57404E-19
 -1      2070 1.03343E-04-3.15513E-05-3.07599E-05 1.38654E-06 2.47457E-18-7.65870E-19
 -1      2071 1.03609E-04-3.17412E-05-3.08275E-05 6.69312E-07 1.29791E-18-2.02993E-19
 -1      2072 1.03678E-04-3.21202E-05-3.06658E-05 6.81477E-07 1.40872E-18-1.44934E-19
 -1      2073 1.01911E-04-3.08637E-05-3.04447E-05 2.45080E-06 1.02457E-18-5.91669E-19
 -1      2074 1.02599E-04-3.11877E-05-3.06241E-05 1.98804E-06 1.88899E-18-2.61386E-19
 -1      2075 1.02518E-04-3.14191E-05-3.04716E-05 2.36581E-06 1.72715E-18 6.49717E-19
 -1      2076 1.00133E-04-3.00816E-05-3.00193E-05 2.87541E-06 6.87971E-19-9.89291E-19
 -1      2077 1.01043E-04-3.04634E-05-3.02579E-05 2.68528E-06 1.15252E-18-5.32777E-19
 -1      2078 1.00935E-04-3.05654E-05-3.01603E-05 3.29712E-06 1.29382E-18 1.04230E-18
 -1      2079 9.83272E-05-2.93101E-05-2.95763E-05 2.70370E-06-2.85549E-19-3.77787E-19
 -1      2080 9.92658E-05-2.96889E-05-2.98198E-05 2.77846E-06 1.20926E-20-4.62116E-19
 -1      2081 9.92071E-05-2.96885E-05-2.97970E-05 3.48873E-06 1.81546E-19 6.63968E-19
 -1      2082 9.67654E-05-2.86348E-05-2.91928E-05 2.00484E-06-2.36306E-19 1.77042E-19
 -1      2083 9.75598E-05-2.89598E-05-2.93963E-05 2.32876E-06-2.13234E-19 6.83493E-19
 -1      2084 9.75632E-05-2.88730E-05-2.94441E-05 3.01453E-06-3.91569E-19 2.03635E-18
 -1      2085 9.57982E-05-2.82209E-05-2.89493E-05 1.21619E-06-1.79343E-18 8.43980E-19
 -1      2086 9.63628E-05-2.84397E-05-2.91052E-05 1.69452E-06-7.62129E-19 3.89572E-19
 -1      2087 9.63888E-05-2.82850E-05-2.91951E-05 2.26245E-06-1.12624E-18 1.79107E-18
 -1      2088 9.56568E-05-2.78965E-05-2.90378E-05 1.52515E-06-2.08153E-18 2.20082E-18
 -1      2089 9.39733E-05-2.34671E-05-3.02116E-05 4.34725E-06-3.97589E-19 5.83875E-19
 -1      2090 9.44181E-05-2.45788E-05-2.99198E-05 4.07888E-06-4.85434E-19 2.75330E-19
 -1      2091 9.47550E-05-2.53703E-05-2.97258E-05 3.64617E-06 1.58248E-19 5.95697E-19
 -1      2092 9.51252E-05-2.62945E-05-2.94860E-05 3.20505E-06-4.88072E-19 2.13028E-18
 -1      2093 9.49510E-05-2.54613E-05-2.97910E-05 4.86547E-06-1.46777E-18-2.27499E-20
 -1      2094 9.52783E-05-2.67724E-05-2.93486E-05 2.65328E-06-8.91099E-19 1.84970E-18
 -1      2095 9.55454E-05-2.74649E-05-2.91647E-05 2.10904E-06-1.64142E-18 1.91669E-18
 -1      2096 9.58672E-05-2.76292E-05-2.92375E-05 2.53894E-06-1.78856E-18 1.38456E-18
 -1      2097 9.55246E-05-2.67219E-05-2.94902E-05 3.76656E-06-8.40931E-19 2.14832E-18
 -1      2098 9.30932E-05-2.13994E-05-3.07316E-05 4.61809E-06-2.49407E-18-4.53470E-18
 -1      2099 9.35845E-05-2.25816E-05-3.04236E-05 4.55912E-06-1.90707E-18-7.97876E-20
 -1      2100 9.40973E-05-2.37504E-05-3.01554E-05 5.58885E-06-2.57309E-18-9.47625E-19
 -1      2101 9.21415E-05-1.92833E-05-3.12438E-05 4.35043E-06-1.18288E-18-3.14876E-18
 -1      2102 9.26517E-05-2.04443E-05-3.09465E-05 4.54397E-06-7.31277E-19-4.36821E-18
 -1      2103 9.31070E-05-2.18580E-05-3.05357E-05 5.75416E-06-2.38746E-18-3.62071E-18
 -1      2104 9.12498E-05-1.74202E-05-3.16718E-05 3.45957E-06 3.42416E-19 2.72481E-18
 -1      2105 9.17013E-05-1.83833E-05-3.14309E-05 3.92956E-06 5.51121E-19-7.22378E-19
 -1      2106 9.20394E-05-1.99391E-05-3.08911E-05 5.20975E-06 4.71194E-19-1.43651E-18
 -1      2107 9.05728E-05-1.61053E-05-3.19523E-05 1.97079E-06-1.11756E-18 9.66163E-19
 -1      2108 9.08825E-05-1.67126E-05-3.18054E-05 2.68930E-06-1.13364E-18 2.82492E-18
 -1      2109 9.10491E-05-1.82664E-05-3.11724E-05 3.88079E-06 9.52416E-21 1.77571E-18
 -1      2110 9.02640E-05-1.55986E-05-3.20378E-05 4.95028E-08 1.50302E-19-7.85524E-19
 -1      2111 9.03591E-05-1.57277E-05-3.20120E-05 9.26185E-07-9.57639E-19 1.71756E-20
 -1      2112 9.03279E-05-1.71308E-05-3.13407E-05 1.84459E-06-2.11429E-18 9.79081E-19
 -1      2113 9.04224E-05-1.60469E-05-3.19074E-05-2.00937E-06-4.93254E-19-9.65714E-19
 -1      2114 9.02657E-05-1.56453E-05-3.20129E-05-1.11590E-06 6.30694E-20-4.19480E-19
 -1      2115 9.00550E-05-1.67778E-05-3.13707E-05-6.41454E-07-1.36356E-18-1.08868E-18
 -1      2116 9.10406E-05-1.73974E-05-3.15815E-05-3.81683E-06-8.65621E-19-2.42315E-18
 -1      2117 9.06494E-05-1.65222E-05-3.18021E-05-3.07755E-06-7.69290E-19-1.48780E-18
 -1      2118 9.03298E-05-1.73185E-05-3.12587E-05-3.15526E-06-1.34265E-19-1.83421E-18
 -1      2119 9.20548E-05-1.95055E-05-3.10975E-05-5.09457E-06 9.14749E-19 3.57836E-18
 -1      2120 9.14722E-05-1.82510E-05-3.14083E-05-4.62753E-06 2.41294E-19 1.86858E-18
 -1      2121 9.11323E-05-1.86957E-05-3.10208E-05-5.26838E-06 6.73073E-19 6.14370E-19
 -1      2122 9.33115E-05-2.20350E-05-3.05361E-05-5.54643E-06 2.40989E-18 9.29872E-19
 -1      2123 9.26242E-05-2.06038E-05-3.08840E-05-5.47132E-06 1.40174E-18 1.50340E-18
 -1      2124 9.23669E-05-2.07248E-05-3.06916E-05-6.60399E-06 1.26920E-18 2.99803E-18
 -1      2125 9.46714E-05-2.46561E-05-2.99947E-05-5.05245E-06 2.37322E-18-4.27209E-19
 -1      2126 9.39346E-05-2.32242E-05-3.03148E-05-5.40353E-06 2.14418E-18 2.15315E-21
 -1      2127 9.38531E-05-2.30963E-05-3.03233E-05-6.87019E-06 2.51566E-18 9.33891E-20
 -1      2128 6.08645E-05-4.12542E-05-8.96740E-06 4.15386E-05 6.26381E-19 2.20528E-18
 -1      2129 4.62549E-05-4.14089E-05-2.95332E-06 3.68764E-05-1.12232E-19 1.73832E-18
 -1      2130 1.33155E-05-3.39665E-05 7.66735E-06 7.26368E-06-1.30962E-18 4.14157E-18
 -1      2131 1.28878E-05-3.31316E-05 7.62335E-06-2.95442E-06-1.74806E-18 4.98394E-18
 -1      2132 2.84435E-05-3.32285E-05 1.51723E-06 2.91440E-05-1.24556E-18 1.63901E-18
 -1      2133 1.91811E-05-3.64123E-05 5.95757E-06 1.73767E-05-1.78173E-18 3.15477E-18
 -1      2134 1.98453E-05-2.40940E-05 1.53395E-06 1.57207E-05-2.22685E-18 4.26566E-18
 -1      2135 1.00707E-04-4.56416E-05-2.35854E-05 4.33230E-05-7.32683E-20 2.64211E-18
 -1      2136 8.00228E-05-4.65288E-05-1.53091E-05 3.97115E-05-2.24887E-19 2.23807E-18
 -1      2137 1.02431E-04-4.75306E-05-2.35610E-05 3.97276E-05-3.75998E-18-1.47003E-18
 -1      2138 8.73191E-05-4.90198E-05-1.71436E-05 3.72490E-05-2.88415E-18-1.85288E-18
 -1      2139 1.87189E-04-3.12665E-05-6.52415E-05 7.70306E-06-4.17460E-18 8.49574E-19
 -1      2140 1.75721E-04-3.16806E-05-6.08275E-05 1.38786E-05-3.42519E-18-2.67662E-19
 -1      2141 1.38147E-04-4.18561E-05-4.04964E-05 3.49219E-05 7.01979E-19 2.08921E-18
 -1      2142 1.19575E-04-4.54968E-05-3.21759E-05 3.32171E-05 1.38490E-19 1.66400E-18
 -1      2143 8.72486E-05-8.72415E-06-3.37488E-05-1.05487E-05-2.19753E-18-2.85148E-18
 -1      2144 8.79514E-05-9.24085E-06-3.38202E-05-1.21047E-05-2.50360E-18-2.31454E-18
 -1      2145 9.04820E-05-1.30497E-05-3.32344E-05-1.18831E-05-2.67204E-18-1.86985E-18
 -1      2146 8.86886E-05-1.10595E-05-3.32951E-05-9.42192E-06-2.16171E-18-2.86673E-18
 -1      2147 1.78227E-04-2.83412E-05-6.29834E-05 1.11588E-05 2.07057E-18 6.68309E-19
 -1      2148 1.66142E-04-2.83430E-05-5.85415E-05 1.57781E-05 1.36796E-18 2.80368E-19
 -1      2149 1.78191E-04-2.17302E-05-6.60687E-05-9.46459E-08 3.90186E-18 1.77665E-18
 -1      2150 1.79976E-04-2.43601E-05-6.53983E-05 7.59996E-06 3.23355E-18 1.52127E-18
 -1      2151 1.58825E-04-1.72249E-05-5.96789E-05-3.69381E-07 1.55007E-18-2.78250E-19
 -1      2152 1.78870E-04-2.62855E-05-6.40888E-05-1.15704E-05 2.88330E-18 6.43745E-19
 -1      2153 1.80595E-04-2.36833E-05-6.60120E-05-2.54360E-06 4.24448E-18 2.47588E-18
 -1      2154 1.58329E-04-3.14588E-05-5.41556E-05-1.83289E-05 3.82478E-18-6.22146E-19
 -1      2155 1.73507E-04-3.08930E-05-5.98661E-05-1.46035E-05 2.99511E-18-1.65595E-19
 -1      2156 1.33495E-04-4.04868E-05-4.01210E-05-2.96788E-05 1.79571E-18-2.68255E-18
 -1      2157 1.51850E-04-3.93130E-05-4.76097E-05-2.66200E-05 3.02010E-18-1.15451E-18
 -1      2158 9.89084E-05-4.28857E-05-2.48354E-05-3.80830E-05 2.20271E-18-2.87525E-18
 -1      2159 1.19425E-04-4.13627E-05-3.31656E-05-4.04979E-05 1.47341E-18-4.19662E-18
 -1      2160 6.21781E-05-4.24357E-05-9.81928E-06-3.72802E-05 3.69899E-18-1.53313E-18
 -1      2161 7.95787E-05-3.96518E-05-1.73483E-05-4.34294E-05 3.80572E-18-1.82536E-18
 -1      2162 3.28846E-05-3.98666E-05 1.51441E-06-2.91730E-05 1.98460E-18-1.10707E-18
 -1      2163 4.50930E-05-3.79102E-05-3.88068E-06-3.64033E-05 3.13275E-18-1.53138E-18
 -1      2164 1.47574E-05-3.58650E-05 7.60248E-06-1.18202E-05 1.17801E-18-4.17418E-18
 -1      2165 2.01534E-05-3.37972E-05 4.88156E-06-2.17381E-05 1.59496E-18-2.12902E-18
 -1      2166 1.28672E-05-3.29902E-05 7.44571E-06 8.26517E-06-1.75759E-20-4.79887E-18
 -1      2167 1.18498E-05-3.57039E-05 8.69070E-06-1.48432E-06 1.91742E-18-4.75694E-18
 -1      2168 3.38700E-05-3.70538E-05 5.55773E-07 2.91856E-05-1.34848E-18-4.81326E-18
 -1      2169 2.40197E-05-3.58353E-05 4.04241E-06 2.13079E-05 5.71747E-19-5.52901E-18
 -1      2170 6.79451E-05-4.33602E-05-1.07154E-05 4.09897E-05-1.95114E-18-3.86660E-18
 -1      2171 4.93998E-05-4.32830E-05-3.82152E-06 3.32896E-05-1.76733E-18-4.36201E-18
 -1      2172 5.18947E-05-3.84063E-05-5.91202E-06 3.78633E-05-5.08220E-19-4.92063E-18
 -1      2173 1.70694E-04-3.83276E-05-5.54428E-05 1.92951E-05-2.62162E-18-1.63774E-18
 -1      2174 1.52605E-04-3.97911E-05-4.83246E-05 2.13503E-05-2.75159E-18-1.97782E-18
 -1      2175 1.84963E-04-2.45654E-05-6.75987E-05-2.80507E-06-3.53424E-18 1.28378E-18
 -1      2176 1.88005E-04-2.71065E-05-6.73418E-05 4.07700E-06-3.75151E-18 8.74138E-19
 -1      2177 1.79141E-04-2.89339E-05-6.33502E-05-1.02065E-05-3.56389E-18 1.18754E-18
 -1      2178 1.82380E-04-2.60988E-05-6.58706E-05-3.48129E-06-2.49409E-18 8.67997E-19
 -1      2179 1.63878E-04-3.49709E-05-5.48335E-05-1.75847E-05-2.83025E-18 6.53486E-19
 -1      2180 1.78211E-04-3.42786E-05-6.03914E-05-1.44859E-05-3.55330E-18 8.92349E-19
 -1      2181 1.63108E-04-2.59193E-05-5.76944E-05 2.12284E-06-2.43374E-18-2.03457E-18
 -1      2182 1.38527E-04-4.28507E-05-4.12179E-05-2.99705E-05-2.01297E-18 1.73388E-18
 -1      2183 1.56670E-04-4.17972E-05-4.83984E-05-2.71785E-05-2.79119E-18 7.72918E-19
 -1      2184 1.08338E-04-4.75528E-05-2.67531E-05-3.56384E-05-3.54907E-19 3.51434E-18
 -1      2185 1.27415E-04-4.47680E-05-3.48932E-05-3.80147E-05-7.81811E-19 3.25218E-18
 -1      2186 1.41572E-04-5.37344E-05-3.72049E-05-2.23888E-05 3.28225E-20 1.94394E-19
 -1      2187 7.00859E-05-4.68258E-05-1.11554E-05-3.74175E-05-1.09394E-18 3.00421E-18
 -1      2188 8.95222E-05-4.61559E-05-1.86962E-05-4.25586E-05-7.65294E-19 4.53692E-18
 -1      2189 4.23659E-05-4.15614E-05-1.30640E-06-3.28267E-05-1.94436E-18-1.63266E-19
 -1      2190 5.51209E-05-4.19710E-05-6.25693E-06-3.81941E-05-2.50891E-18 1.33106E-18
 -1      2191 7.53789E-05-4.87240E-05-1.16424E-05-4.24157E-05-4.26905E-19 1.42217E-18
 -1      2192 1.70692E-05-3.75224E-05 7.22144E-06-1.37544E-05-1.03296E-18 3.49443E-18
 -1      2193 2.41739E-05-3.51484E-05 3.78189E-06-2.39384E-05-1.97486E-18 6.31887E-19
 -1      2194 1.61475E-04-3.59423E-05-5.29161E-05 2.33283E-05 1.23243E-18 8.59315E-19
 -1      2195 1.45474E-04-3.74296E-05-4.62999E-05 2.76046E-05 8.82291E-19 1.54499E-18
 -1      2196 1.45531E-04-4.73993E-05-4.15127E-05 1.68349E-05-7.76306E-19-8.35174E-19
 -1      2197 1.24315E-04-5.76836E-05-2.85436E-05 2.94380E-05-2.82761E-18-8.47456E-19
 -1      2198 1.50580E-04-5.03307E-05-4.24603E-05 1.23523E-05-2.63988E-18-1.36542E-18
 -1      2199 9.71779E-05-2.43116E-05-3.13019E-05-1.00085E-05-2.58827E-18 2.66248E-18
 -1      2200 9.63387E-05-2.31035E-05-3.14525E-05-1.03925E-05-2.72678E-18 1.04770E-18
 -1      2201 4.23758E-05-3.65977E-05-2.80326E-06 3.56513E-05-1.29088E-18 1.73303E-18
 -1      2202 3.96141E-05-2.85289E-05-4.22690E-06 3.47736E-05-2.64423E-18 2.45512E-18
 -1      2203 5.65838E-05-3.85358E-05-8.04520E-06 4.24115E-05-2.36619E-18 9.49524E-19
 -1      2204 8.29930E-05-4.97238E-05-1.42927E-05 4.39728E-05-1.23752E-18 1.85050E-18
 -1      2205 9.51923E-05-2.55705E-05-2.98232E-05-4.93422E-06 2.14284E-18-6.72094E-19
 -1      2206 1.74806E-05-2.57145E-05 2.97868E-06-9.97824E-06-5.59148E-19 3.76167E-18
 -1      2207 1.21475E-04-5.54110E-05-2.81082E-05 3.30914E-05-7.75882E-19 7.72706E-19
 -1      2208 8.81457E-05-5.19445E-05-1.55844E-05 3.97022E-05-1.60386E-18-1.92348E-18
 -1      2209 1.56580E-04-3.23813E-05-5.24312E-05 5.42162E-06 5.47183E-19-1.86093E-18
 -1      2210 4.00759E-05-3.59564E-05-2.14375E-06-3.36662E-05-1.16425E-18 7.18072E-19
 -1      2211 1.11248E-04-5.64509E-05-2.35245E-05-3.63948E-05 3.83282E-19 2.41870E-18
 -1      2212 1.58965E-04-4.19301E-05-4.93342E-05-7.54585E-06-1.36600E-18-2.03627E-18
 -1      2213 1.65547E-04-1.72867E-05-6.24319E-05 7.34845E-07-2.87229E-18-1.05561E-18
 -1      2214 2.26658E-05-2.75003E-05 1.62273E-06 1.90031E-05 5.62430E-19-5.13937E-18
 -1      2215 1.63865E-04-3.35630E-05-5.48487E-05 5.47833E-07-3.82224E-18-2.60039E-19
 -1      2216 1.49004E-05-2.47627E-05 3.60436E-06-8.71617E-06 3.73542E-19-3.99927E-18
 -1      2217 3.17081E-05-3.24457E-05-3.19413E-07-3.09660E-05 2.19170E-19-1.41772E-18
 -1      2218 6.44058E-05-4.39164E-05-9.25677E-06-4.24509E-05 1.70381E-18-1.25509E-18
 -1      2219 1.02843E-04-5.13408E-05-2.20091E-05-3.97652E-05 1.37473E-18-1.25170E-18
 -1      2220 1.35404E-04-5.11702E-05-3.55801E-05-2.43664E-05 7.86682E-19-9.06325E-19
 -1      2221 1.52308E-04-3.87303E-05-4.80372E-05-6.77386E-06 2.49758E-18 8.97008E-19
 -1      2222 1.67642E-04-2.00525E-05-6.18744E-05-2.29107E-06-4.09032E-18-2.12605E-19
 -1      2223 1.66928E-04-1.76206E-05-6.32138E-05 3.45561E-08 4.36307E-18 1.79545E-18
 -1      2224 1.47684E-04-9.89423E-06-5.92275E-05 4.97994E-07 3.36018E-18 1.73854E-19
 -1      2225 1.49743E-04-1.17101E-05-5.92361E-05 1.68115E-06 3.96496E-18 1.34488E-18
 -1      2226 1.59503E-04-2.21769E-05-5.79280E-05 5.03985E-09 3.54441E-18 1.83891E-18
 -1      2227 9.52043E-05-2.63753E-05-2.94849E-05 4.20712E-06 2.09923E-18 3.16403E-19
 -1      2228 9.61786E-05-2.58625E-05-3.00631E-05 6.00619E-06 2.32692E-18 6.85561E-19
 -1      2229 8.81463E-05-1.11887E-05-3.30211E-05-3.66566E-06-1.00194E-18-3.55093E-18
 -1      2230 8.83787E-05-1.14580E-05-3.30029E-05-4.80762E-06-1.29881E-18-3.44805E-18
 -1      2231 8.87275E-05-1.19393E-05-3.29540E-05-5.82620E-06-1.50580E-18-3.22379E-18
 -1      2232 8.91329E-05-1.24119E-05-3.29251E-05-6.99896E-06-1.86152E-18-3.06984E-18
 -1      2233 8.98981E-05-1.38275E-05-3.26008E-05-4.91050E-06-1.30712E-18-3.13256E-18
 -1      2234 8.78034E-05-1.07313E-05-3.30650E-05 6.16292E-07 9.98872E-21-3.78515E-18
 -1      2235 8.77990E-05-1.07264E-05-3.30652E-05-4.96002E-07-2.62165E-19-3.75031E-18
 -1      2236 8.79831E-05-1.09556E-05-3.30462E-05 2.76109E-06 4.71035E-19-3.76676E-18
 -1      2237 8.78691E-05-1.08229E-05-3.30557E-05 1.64048E-06 2.09015E-19-3.79821E-18
 -1      2238 8.91218E-05-1.27781E-05-3.27219E-05 1.05124E-06 9.47460E-20-3.57018E-18
 -1      2239 8.84145E-05-1.15015E-05-3.30003E-05 4.89268E-06 1.05127E-18-3.54002E-18
 -1      2240 8.81766E-05-1.12254E-05-3.30188E-05 3.76851E-06 6.99770E-19-3.68302E-18
 -1      2241 8.93857E-05-1.31331E-05-3.26815E-05 3.02512E-06 5.33513E-19-3.50397E-18
 -1      2242 8.91900E-05-1.24825E-05-3.29205E-05 7.08177E-06 1.74224E-18-3.00743E-18
 -1      2243 8.87740E-05-1.19968E-05-3.29501E-05 5.90935E-06 1.34704E-18-3.27570E-18
 -1      2244 8.99397E-05-1.38796E-05-3.25962E-05 4.98143E-06 1.18720E-18-3.12355E-18
 -1      2245 9.04552E-05-1.40897E-05-3.27925E-05 9.23173E-06 2.38328E-18-2.57700E-18
 -1      2246 8.97770E-05-1.32795E-05-3.28384E-05 8.05232E-06 2.00398E-18-2.79119E-18
 -1      2247 9.08706E-05-1.51375E-05-3.24503E-05 6.87902E-06 1.79977E-18-2.66435E-18
 -1      2248 9.24464E-05-1.66595E-05-3.25810E-05 1.11156E-05 2.88040E-18-1.74588E-18
 -1      2249 9.13708E-05-1.53199E-05-3.26538E-05 1.00365E-05 2.52057E-18-2.21313E-18
 -1      2250 9.22889E-05-1.70882E-05-3.22080E-05 8.52579E-06 2.33601E-18-2.11551E-18
 -1      2251 9.58995E-05-2.50894E-05-3.03014E-05-6.20327E-06-2.27662E-18 2.34365E-19
 -1      2252 9.52439E-05-2.58445E-05-2.97568E-05-4.28397E-06-2.08814E-18 8.77936E-20
 -1      2253 1.51622E-04-4.89047E-05-4.44744E-05 1.31484E-06-1.46984E-18-3.10014E-19
 -1      2254 1.43429E-04-5.56272E-05-3.77410E-05 8.23765E-06-1.55409E-18 4.50622E-19
 -1      2255 9.42201E-05-2.71136E-05-2.87432E-05 1.77446E-06 1.69010E-18-7.69807E-20
 -1      2256 9.48189E-05-2.68883E-05-2.90423E-05 2.74514E-06 1.90875E-18 2.51635E-19
 -1      2257 9.53292E-05-2.58375E-05-2.97863E-05 4.37683E-06 2.21366E-18-4.73931E-19
 -1      2258 9.50657E-05-2.00226E-05-3.22098E-05-1.17585E-05-2.84648E-18-4.62162E-20
 -1      2259 9.54625E-05-2.33645E-05-3.09249E-05-7.97578E-06-2.57676E-18 7.34776E-20
 -1      2260 9.50666E-05-2.25524E-05-3.10518E-05-7.66683E-06-2.46709E-18-6.31112E-19
 -1      2261 9.32134E-05-1.76213E-05-3.24137E-05-1.14130E-05-2.85715E-18-8.57065E-19
 -1      2262 9.51281E-05-2.65365E-05-2.93394E-05-2.95120E-06-1.90088E-18 1.48221E-19
 -1      2263 9.46563E-05-2.69057E-05-2.90359E-05-1.88942E-06-1.72879E-18-5.02760E-20
 -1      2264 9.53346E-05-2.53691E-05-2.99914E-05-4.30764E-06-2.11911E-18-5.10595E-19
 -1      2265 9.44603E-05-2.72348E-05-2.87724E-05-1.03814E-06-1.47284E-18-4.90105E-21
 -1      2266 9.42004E-05-2.74474E-05-2.86060E-05-4.36809E-07-1.16694E-18-2.65840E-19
 -1      2267 9.50226E-05-2.66968E-05-2.92956E-05-1.93222E-06-1.66613E-18-4.70674E-19
 -1      2268 9.40513E-05-2.76271E-05-2.84449E-05 7.13121E-08-8.93621E-19-2.99745E-19
 -1      2269 9.39519E-05-2.77697E-05-2.83613E-05 4.01462E-07-6.42213E-19-3.12964E-19
 -1      2270 9.47178E-05-2.74244E-05-2.88530E-05-4.53410E-07-1.17933E-18-4.65353E-19
 -1      2271 9.38675E-05-2.78787E-05-2.82682E-05 6.85165E-07-5.39723E-19-6.73068E-19
 -1      2272 9.38727E-05-2.79846E-05-2.82355E-05 8.50441E-07-5.35348E-19-7.69903E-19
 -1      2273 9.45164E-05-2.78509E-05-2.85814E-05 4.18788E-07-8.37550E-19-9.39994E-19
 -1      2274 9.38419E-05-2.80558E-05-2.81874E-05 9.89893E-07-6.51509E-19-7.69281E-19
 -1      2275 9.39094E-05-2.81383E-05-2.81857E-05 1.05464E-06-7.44435E-19-9.46727E-19
 -1      2276 9.44243E-05-2.81179E-05-2.84246E-05 8.93332E-07-6.99971E-19-1.23115E-18
 -1      2277 9.39164E-05-2.81867E-05-2.81671E-05 1.10392E-06-6.16386E-19-9.97206E-19
 -1      2278 9.40172E-05-2.82518E-05-2.81836E-05 1.10904E-06-5.44718E-19-1.00634E-18
 -1      2279 9.44163E-05-2.82913E-05-2.83445E-05 1.11340E-06-7.48046E-19-1.28087E-18
 -1      2280 9.40483E-05-2.82848E-05-2.81838E-05 1.10492E-06-6.67020E-19-1.02343E-18
 -1      2281 9.41636E-05-2.83359E-05-2.82105E-05 1.07749E-06-8.23946E-19-1.00356E-18
 -1      2282 9.44649E-05-2.84046E-05-2.83150E-05 1.17645E-06-5.81485E-19-1.34983E-18
 -1      2283 9.42088E-05-2.83578E-05-2.82226E-05 1.04540E-06-6.69681E-19-8.02228E-19
 -1      2284 9.43275E-05-2.83971E-05-2.82545E-05 1.00387E-06-2.86163E-19-7.90212E-19
 -1      2285 9.45476E-05-2.84765E-05-2.83184E-05 1.14950E-06-6.22113E-19-1.06521E-18
 -1      2286 9.43802E-05-2.84106E-05-2.82742E-05 9.61702E-07-2.73639E-19-6.68398E-19
 -1      2287 9.44969E-05-2.84402E-05-2.83086E-05 9.19046E-07-2.13652E-19-5.97489E-19
 -1      2288 9.46491E-05-2.85185E-05-2.83431E-05 1.07939E-06-3.19487E-19-6.53332E-19
 -1      2289 9.45535E-05-2.84471E-05-2.83331E-05 8.79675E-07 2.46626E-20-6.41093E-19
 -1      2290 9.46667E-05-2.84688E-05-2.83688E-05 8.45345E-07 2.41718E-19-5.51568E-19
 -1      2291 9.47599E-05-2.85380E-05-2.83818E-05 9.99459E-07-1.53005E-19-5.78656E-19
 -1      2292 9.47259E-05-2.84704E-05-2.83971E-05 8.18450E-07 2.47625E-19-7.86996E-19
 -1      2293 9.48373E-05-2.84861E-05-2.84341E-05 7.99771E-07 1.35559E-19-7.01094E-19
 -1      2294 9.48757E-05-2.85399E-05-2.84304E-05 9.34201E-07 1.31063E-19-6.37127E-19
 -1      2295 9.48997E-05-2.84833E-05-2.84659E-05 7.93116E-07-2.03541E-19-1.03058E-18
 -1      2296 9.50132E-05-2.84946E-05-2.85052E-05 7.96292E-07-4.55692E-19-9.10334E-19
 -1      2297 9.49960E-05-2.85277E-05-2.84872E-05 9.02511E-07-3.35052E-19-1.33527E-18
 -1      2298 9.50805E-05-2.84882E-05-2.85411E-05 8.16720E-07-5.65756E-19-6.75443E-19
 -1      2299 9.52023E-05-2.84967E-05-2.85845E-05 8.47607E-07-5.43419E-19-7.53087E-19
 -1      2300 9.51233E-05-2.85037E-05-2.85523E-05 9.20154E-07-5.12110E-19-1.17660E-18
 -1      2301 9.52774E-05-2.84872E-05-2.86257E-05 9.01788E-07-7.90598E-19-6.82245E-19
 -1      2302 9.54153E-05-2.84948E-05-2.86755E-05 9.66482E-07-6.08409E-19-5.66336E-19
 -1      2303 9.52625E-05-2.84689E-05-2.86271E-05 1.00160E-06-5.82429E-19-5.61009E-19
 -1      2304 9.55020E-05-2.84824E-05-2.87238E-05 1.06148E-06-4.62782E-19-8.34425E-19
 -1      2305 9.56655E-05-2.84910E-05-2.87829E-05 1.16674E-06-6.62730E-19-9.85645E-19
 -1      2306 9.54203E-05-2.84241E-05-2.87143E-05 1.16142E-06-8.18165E-19-6.50747E-19
 -1      2307 9.57680E-05-2.84758E-05-2.88405E-05 1.31039E-06-8.44133E-19-1.27935E-18
 -1      2308 9.59685E-05-2.84878E-05-2.89124E-05 1.46393E-06-8.43444E-19-1.24796E-18
 -1      2309 9.56048E-05-2.83691E-05-2.88173E-05 1.41526E-06-9.83485E-19-1.48109E-18
 -1      2310 9.60917E-05-2.84700E-05-2.89816E-05 1.66498E-06-7.06394E-19-1.23590E-18
 -1      2311 9.63421E-05-2.84882E-05-2.90703E-05 1.87544E-06-2.10811E-19-1.24396E-18
 -1      2312 9.58252E-05-2.83040E-05-2.89402E-05 1.78035E-06-9.88906E-19-1.28941E-18
 -1      2313 9.64910E-05-2.84684E-05-2.91535E-05 2.14347E-06 6.99311E-20-1.28789E-18
 -1      2314 9.68061E-05-2.84968E-05-2.92631E-05 2.42004E-06 4.61408E-19-1.57037E-18
 -1      2315 9.60916E-05-2.82290E-05-2.90868E-05 2.27556E-06-7.50154E-20-1.00669E-18
 -1      2316 9.69863E-05-2.84764E-05-2.93625E-05 2.76477E-06 5.49707E-19-1.61056E-18
 -1      2317 9.73824E-05-2.85209E-05-2.94972E-05 3.11608E-06 4.90799E-19-1.14975E-18
 -1      2318 9.64147E-05-2.81464E-05-2.92610E-05 2.92047E-06 5.22783E-19-1.09513E-18
 -1      2319 9.76000E-05-2.85040E-05-2.96140E-05 3.54595E-06-7.37084E-20-9.22730E-19
 -1      2320 9.80952E-05-2.85740E-05-2.97774E-05 3.97770E-06-4.75153E-19-7.12804E-19
 -1      2321 9.68066E-05-2.80628E-05-2.94649E-05 3.73327E-06 2.74326E-19-9.58399E-19
 -1      2322 9.83585E-05-2.85694E-05-2.99112E-05 4.49709E-06-3.85875E-19-7.88841E-19
 -1      2323 9.89720E-05-2.86809E-05-3.01053E-05 5.00752E-06-3.25881E-19-1.14266E-18
 -1      2324 9.72822E-05-2.79942E-05-2.96982E-05 4.72642E-06-5.29388E-19-7.37896E-19
 -1      2325 9.92951E-05-2.87075E-05-3.02533E-05 5.61172E-06-4.35890E-19-1.65816E-18
 -1      2326 1.00048E-04-2.88878E-05-3.04770E-05 6.18362E-06 1.84609E-19-1.53883E-18
 -1      2327 9.78642E-05-2.79748E-05-2.99562E-05 5.89893E-06-4.68906E-19-1.28813E-18
 -1      2328 1.00458E-04-2.89827E-05-3.06327E-05 6.85031E-06 9.18675E-19-1.95165E-18
 -1      2329 1.01375E-04-2.92783E-05-3.08800E-05 7.43790E-06 6.22702E-19-1.43872E-18
 -1      2330 9.85931E-05-2.80732E-05-3.02274E-05 7.22338E-06 1.07929E-19-1.67865E-18
 -1      2331 1.01925E-04-2.95094E-05-3.10325E-05 8.11323E-06 4.93715E-19-1.08196E-18
 -1      2332 1.03037E-04-2.99956E-05-3.12906E-05 8.62256E-06 1.03138E-18-4.21726E-19
 -1      2333 9.95475E-05-2.84161E-05-3.04926E-05 8.62502E-06 8.76044E-19-1.62833E-18
 -1      2334 1.03827E-04-3.04767E-05-3.14260E-05 9.19936E-06 6.39363E-19-1.19847E-18
 -1      2335 1.05171E-04-3.12629E-05-3.16751E-05 9.46333E-06 6.42334E-19-1.69727E-18
 -1      2336 1.00878E-04-2.92203E-05-3.07256E-05 9.94939E-06 3.12403E-19-1.53680E-18
 -1      2337 1.06373E-04-3.21595E-05-3.17824E-05 9.74871E-06 3.23770E-19-1.63942E-18
 -1      2338 1.07987E-04-3.33713E-05-3.20004E-05 9.50567E-06-9.02454E-21-1.64170E-18
 -1      2339 1.02850E-04-3.08174E-05-3.09017E-05 1.09133E-05 8.81888E-20-2.03843E-18
 -1      2340 1.09842E-04-3.48652E-05-3.20880E-05 9.18131E-06 7.52238E-21-1.90161E-18
 -1      2341 1.11716E-04-3.65605E-05-3.22654E-05 8.08412E-06-2.16668E-19-1.08121E-18
 -1      2342 1.05877E-04-3.36210E-05-3.10223E-05 1.10360E-05-1.51903E-20-2.00836E-18
 -1      2343 1.14453E-04-3.87071E-05-3.23931E-05 6.68393E-06-4.50595E-19-6.18344E-19
 -1      2344 1.16410E-04-4.06592E-05-3.25623E-05 4.40183E-06 2.16774E-19-2.77479E-19
 -1      2345 1.10447E-04-3.79249E-05-3.11676E-05 9.56794E-06 2.32416E-19-9.73779E-19
 -1      2346 1.19958E-04-4.30490E-05-3.28894E-05 1.39754E-06 6.27835E-19-1.29633E-18
 -1      2347 1.21454E-04-4.43768E-05-3.31602E-05-2.08685E-06 6.70480E-19-4.37105E-19
 -1      2348 1.16789E-04-4.33439E-05-3.15867E-05 5.49373E-06-7.09919E-20-6.28296E-19
 -1      2349 1.24858E-04-4.56223E-05-3.39593E-05-6.70152E-06 1.28688E-19-1.08301E-18
 -1      2350 1.24962E-04-4.47308E-05-3.44943E-05-1.04281E-05-6.53812E-19-1.24867E-18
 -1      2351 1.23926E-04-4.77283E-05-3.27905E-05-2.07322E-06-2.22579E-19-1.71874E-18
 -1      2352 1.26392E-04-4.27295E-05-3.60190E-05-1.51939E-05-3.34459E-19-1.10130E-18
 -1      2353 1.24300E-04-3.83242E-05-3.68974E-05-1.68358E-05-9.90367E-19-1.42416E-18
 -1      2354 1.29239E-04-4.68974E-05-3.54657E-05-1.21495E-05-9.07728E-19-1.75222E-18
 -1      2355 1.22670E-04-3.28856E-05-3.88418E-05-1.75252E-05-1.96490E-18-1.22937E-18
 -1      2356 1.19595E-04-2.69198E-05-3.97758E-05-1.47496E-05-2.31981E-18-1.78224E-18
 -1      2357 1.28654E-04-3.66767E-05-3.97269E-05-1.87909E-05-1.69814E-18-1.11435E-18
 -1      2358 1.17066E-04-2.20098E-05-4.11476E-05-8.73810E-06-2.40091E-18-1.61963E-18
 -1      2359 1.15920E-04-1.99732E-05-4.14267E-05-2.10184E-06-1.66071E-18-1.77725E-18
 -1      2360 1.24059E-04-2.31150E-05-4.35803E-05-1.33213E-05-2.22918E-18-1.84571E-18
 -1      2361 1.16581E-04-2.12726E-05-4.10481E-05 6.49426E-06-2.06549E-18-1.44099E-18
 -1      2362 1.18586E-04-2.53497E-05-4.03976E-05 1.21037E-05-1.98703E-18-1.80844E-18
 -1      2363 1.21716E-04-1.81076E-05-4.47713E-05 2.54961E-06-2.03627E-18-2.18959E-18
 -1      2364 1.21273E-04-3.12730E-05-3.86111E-05 1.56383E-05-1.36923E-18-2.68253E-18
 -1      2365 1.23964E-04-3.70608E-05-3.75841E-05 1.64939E-05-7.63362E-19-3.25528E-18
 -1      2366 1.25689E-04-2.81589E-05-4.20590E-05 1.52330E-05-2.26168E-18-1.92425E-18
 -1      2367 1.24620E-04-4.15195E-05-3.56618E-05 1.39140E-05 6.51527E-19-3.38664E-18
 -1      2368 1.25639E-04-4.46107E-05-3.48414E-05 1.09287E-05 8.13056E-19-3.18880E-18
 -1      2369 1.29209E-04-4.14589E-05-3.76787E-05 1.52940E-05-2.92359E-19-2.19461E-18
 -1      2370 1.23156E-04-4.50746E-05-3.35729E-05 5.95301E-06 9.12297E-19-2.41447E-18
 -1      2371 1.22228E-04-4.49243E-05-3.30996E-05 2.00305E-06 1.16721E-18-1.73607E-18
 -1      2372 1.27141E-04-4.79883E-05-3.39822E-05 6.52159E-06 1.20241E-18-1.72461E-18
 -1      2373 1.18510E-04-4.29873E-05-3.24776E-05-2.13236E-06 1.24544E-18-1.27813E-18
 -1      2374 1.16549E-04-4.12330E-05-3.22075E-05-5.29189E-06 1.76431E-18-6.22986E-19
 -1      2375 1.20595E-04-4.63524E-05-3.19036E-05-2.83069E-06 1.57499E-18 6.06596E-20
 -1      2376 1.13176E-04-3.88128E-05-3.19472E-05-7.71931E-06 1.11805E-18-6.41070E-19
 -1      2377 1.11002E-04-3.68349E-05-3.17280E-05-9.61040E-06 7.49295E-19-1.82931E-19
 -1      2378 1.13332E-04-4.11786E-05-3.10129E-05-9.14629E-06 1.32647E-18-6.82159E-19
 -1      2379 1.08507E-04-3.48681E-05-3.16000E-05-1.06188E-05 5.52127E-19-6.90825E-19
 -1      2380 1.06504E-04-3.32481E-05-3.13589E-05-1.14055E-05 6.67684E-20-7.75821E-19
 -1      2381 1.07436E-04-3.59855E-05-3.06903E-05-1.22769E-05 2.31841E-19-1.43946E-18
 -1      2382 1.04800E-04-3.19037E-05-3.12541E-05-1.14886E-05-1.09556E-18-1.04849E-18
 -1      2383 1.03065E-04-3.07154E-05-3.09855E-05-1.14950E-05-1.13975E-18-1.48959E-18
 -1      2384 1.03263E-04-3.20898E-05-3.05453E-05-1.31471E-05-8.94582E-19-1.21204E-18
 -1      2385 1.01894E-04-2.98421E-05-3.08751E-05-1.10220E-05-9.00925E-19-7.50108E-19
 -1      2386 1.00416E-04-2.89702E-05-3.06043E-05-1.05177E-05-1.26347E-18-1.35554E-18
 -1      2387 1.00415E-04-2.94922E-05-3.04190E-05-1.26144E-05-1.05377E-18-3.88320E-19
 -1      2388 9.95447E-05-2.83590E-05-3.04954E-05-9.70179E-06-1.90076E-18-1.54521E-18
 -1      2389 9.83153E-05-2.76819E-05-3.02561E-05-8.84691E-06-8.85462E-19-1.64352E-18
 -1      2390 9.83940E-05-2.77622E-05-3.02810E-05-1.12239E-05-1.66899E-18-2.14163E-18
 -1      2391 9.33211E-05-2.76854E-05-2.81223E-05-4.01014E-07 8.24167E-19-7.13450E-19
 -1      2392 9.34004E-05-2.75810E-05-2.81839E-05-1.15127E-07 1.04855E-18-3.63852E-19
 -1      2393 9.32690E-05-2.78487E-05-2.80325E-05-8.09279E-07 5.79959E-19-9.17368E-19
 -1      2394 9.32246E-05-2.77584E-05-2.80439E-05-6.69099E-07 6.09796E-19-8.10396E-19
 -1      2395 9.39978E-05-2.78032E-05-2.83804E-05-4.34281E-07 9.28442E-19-9.40308E-19
 -1      2396 9.33632E-05-2.79830E-05-2.80169E-05-9.89086E-07 8.11279E-19-8.76269E-19
 -1      2397 9.32503E-05-2.79030E-05-2.79995E-05-9.36205E-07 5.89545E-19-1.02998E-18
 -1      2398 9.39112E-05-2.80110E-05-2.82511E-05-8.85055E-07 7.37187E-19-1.25226E-18
 -1      2399 9.35404E-05-2.80963E-05-2.80453E-05-1.03121E-06 1.10808E-18-5.53993E-19
 -1      2400 9.33945E-05-2.80263E-05-2.80123E-05-1.02966E-06 9.95774E-19-5.97536E-19
 -1      2401 9.39413E-05-2.81580E-05-2.81983E-05-1.08763E-06 8.22113E-19-9.92901E-19
 -1      2402 9.37578E-05-2.81916E-05-2.80983E-05-9.94939E-07 8.00724E-19-7.20056E-19
 -1      2403 9.36008E-05-2.81316E-05-2.80579E-05-1.02135E-06 1.10388E-18-4.88174E-19
 -1      2404 9.40433E-05-2.82659E-05-2.81939E-05-1.13928E-06 1.10812E-18-5.92641E-19
 -1      2405 9.39887E-05-2.82707E-05-2.81637E-05-9.20194E-07 5.61821E-19-9.07712E-19
 -1      2406 9.38332E-05-2.82203E-05-2.81208E-05-9.58852E-07 7.71038E-19-6.96914E-19
 -1      2407 9.41847E-05-2.83455E-05-2.82190E-05-1.10501E-06 8.91877E-19-7.89678E-19
 -1      2408 9.42186E-05-2.83353E-05-2.82346E-05-8.34553E-07 2.44410E-19-1.13056E-18
 -1      2409 9.40706E-05-2.82936E-05-2.81917E-05-8.74559E-07 4.09936E-19-9.92197E-19
 -1      2410 9.43442E-05-2.84034E-05-2.82616E-05-1.02927E-06 5.79912E-19-8.02060E-19
 -1      2411 9.44417E-05-2.83878E-05-2.83076E-05-7.57553E-07 2.82086E-19-1.22136E-18
 -1      2412 9.43023E-05-2.83533E-05-2.82656E-05-7.91119E-07 9.29701E-20-1.29624E-18
 -1      2413 9.45095E-05-2.84441E-05-2.83146E-05-9.43155E-07 2.68383E-19-1.02667E-18
 -1      2414 9.46587E-05-2.84307E-05-2.83819E-05-7.03535E-07 5.55073E-20-1.26602E-18
 -1      2415 9.45258E-05-2.84018E-05-2.83405E-05-7.24849E-07 4.01166E-19-1.10974E-18
 -1      2416 9.46754E-05-2.84711E-05-2.83739E-05-8.68921E-07 3.45740E-19-8.14665E-19
 -1      2417 9.48752E-05-2.84673E-05-2.84585E-05-6.83586E-07 3.70976E-19-1.18624E-18
 -1      2418 9.47441E-05-2.84419E-05-2.84167E-05-6.88037E-07 1.56892E-19-1.28427E-18
 -1      2419 9.48418E-05-2.84878E-05-2.84381E-05-8.23101E-07 2.06007E-19-1.12856E-18
 -1      2420 9.51009E-05-2.85011E-05-2.85400E-05-7.06832E-07 4.18251E-19-1.43106E-18
 -1      2421 9.49649E-05-2.84769E-05-2.84959E-05-6.90512E-07 4.05529E-19-1.10753E-18
 -1      2422 9.50127E-05-2.84971E-05-2.85076E-05-8.18603E-07 4.50133E-19-1.08571E-18
 -1      2423 9.53484E-05-2.85365E-05-2.86300E-05-7.81209E-07 7.35219E-19-1.30473E-18
 -1      2424 9.51990E-05-2.85107E-05-2.85813E-05-7.40639E-07 6.08410E-19-1.24806E-18
 -1      2425 9.51952E-05-2.85023E-05-2.85839E-05-8.66107E-07 1.87048E-19-8.03597E-19
 -1      2426 9.56330E-05-2.85786E-05-2.87329E-05-9.13693E-07 1.45723E-19-4.95290E-19
 -1      2427 9.54603E-05-2.85479E-05-2.86769E-05-8.45800E-07 6.89689E-19-8.36109E-19
 -1      2428 9.53991E-05-2.85070E-05-2.86697E-05-9.74824E-07 4.75076E-19-2.52446E-19
 -1      2429 9.59721E-05-2.86336E-05-2.88536E-05-1.10994E-06-4.05666E-19-8.24390E-19
 -1      2430 9.57653E-05-2.85940E-05-2.87873E-05-1.01232E-06 4.27090E-20-3.20997E-19
 -1      2431 9.56365E-05-2.85158E-05-2.87682E-05-1.15263E-06-3.54596E-20-4.41579E-20
 -1      2432 9.63847E-05-2.87094E-05-2.89969E-05-1.37319E-06-7.57747E-20-1.63791E-18
 -1      2433 9.61322E-05-2.86562E-05-2.89173E-05-1.24474E-06-3.78254E-19-1.32982E-18
 -1      2434 9.59214E-05-2.85349E-05-2.88827E-05-1.40548E-06-5.10881E-20-4.00721E-19
 -1      2435 9.68907E-05-2.88161E-05-2.91671E-05-1.70217E-06 5.92241E-19-1.35398E-18
 -1      2436 9.65809E-05-2.87435E-05-2.90717E-05-1.54422E-06 1.34178E-19-1.74718E-18
 -1      2437 9.62699E-05-2.85729E-05-2.90163E-05-1.73591E-06 2.01668E-19-1.00636E-18
 -1      2438 9.75097E-05-2.89668E-05-2.93674E-05-2.08783E-06 1.20523E-18-1.28259E-18
 -1      2439 9.71320E-05-2.88674E-05-2.92543E-05-1.90591E-06 9.88833E-19-1.41190E-18
 -1      2440 9.66998E-05-2.86422E-05-2.91715E-05-2.14046E-06 6.41061E-19-3.83066E-19
 -1      2441 9.82589E-05-2.91780E-05-2.95984E-05-2.50851E-06 4.31006E-19-9.48194E-19
 -1      2442 9.78056E-05-2.90434E-05-2.94671E-05-2.31483E-06 1.09420E-18-7.21623E-19
 -1      2443 9.72305E-05-2.87600E-05-2.93490E-05-2.60562E-06 6.77933E-19-1.56494E-19
 -1      2444 9.91507E-05-2.94706E-05-2.98570E-05-2.92348E-06-1.14607E-18-9.95343E-19
 -1      2445 9.86193E-05-2.92908E-05-2.97093E-05-2.74028E-06-7.82885E-20-8.87940E-19
 -1      2446 9.78827E-05-2.89509E-05-2.95473E-05-3.10217E-06 2.54496E-19 2.98545E-19
 -1      2447 1.00188E-04-2.98692E-05-3.01346E-05-3.26522E-06-1.60844E-18-1.42356E-18
 -1      2448 9.95853E-05-2.96338E-05-2.99758E-05-3.12850E-06-1.77349E-18-1.58093E-18
 -1      2449 9.86781E-05-2.92476E-05-2.97616E-05-3.57774E-06-1.05027E-18-2.66140E-19
 -1      2450 1.01361E-04-3.03992E-05-3.04163E-05-3.43190E-06-8.98699E-19-1.40826E-18
 -1      2451 1.00706E-04-3.01000E-05-3.02559E-05-3.39470E-06-1.32469E-18-1.41016E-18
 -1      2452 9.96376E-05-2.96911E-05-2.99832E-05-3.94830E-06-1.42278E-18-1.27160E-18
 -1      2453 1.02634E-04-3.10786E-05-3.06799E-05-3.28396E-06-3.82476E-19-9.32942E-19
 -1      2454 1.01967E-04-3.07146E-05-3.05323E-05-3.41659E-06-4.38110E-19-1.39669E-18
 -1      2455 1.00778E-04-3.03268E-05-3.02000E-05-4.09028E-06-1.05287E-18-1.31653E-18
 -1      2456 1.03937E-04-3.19001E-05-3.08981E-05-2.65216E-06-6.13938E-19-3.09511E-19
 -1      2457 1.03323E-04-3.14883E-05-3.07818E-05-3.03523E-06-5.27989E-19-7.10536E-19
 -1      2458 1.02103E-04-3.11903E-05-3.03977E-05-3.83808E-06-5.72434E-19-1.82378E-18
 -1      2459 1.05146E-04-3.27985E-05-3.10431E-05-1.36994E-06-1.11171E-18 7.92901E-19
 -1      2460 1.04682E-04-3.23904E-05-3.09782E-05-2.07328E-06-8.09110E-19 7.45262E-19
 -1      2461 1.03583E-04-3.22780E-05-3.05645E-05-2.99568E-06-1.21208E-18-1.66722E-18
 -1      2462 1.06059E-04-3.36072E-05-3.10965E-05 6.53858E-07 4.94601E-19 1.08002E-18
 -1      2463 1.05875E-04-3.33080E-05-3.10993E-05-3.86888E-07-1.93165E-19 1.25955E-18
 -1      2464 1.05120E-04-3.34948E-05-3.06975E-05-1.37786E-06-9.86725E-19-4.91861E-19
 -1      2465 1.06396E-04-3.40237E-05-3.10606E-05 3.31154E-06 4.26369E-19 7.30313E-19
 -1      2466 1.06636E-04-3.39985E-05-3.11357E-05 2.03163E-06 1.14137E-18 1.29059E-18
 -1      2467 1.06497E-04-3.45865E-05-3.08111E-05 1.09823E-06 5.72469E-19 6.81384E-19
 -1      2468 1.05840E-04-3.36457E-05-3.09657E-05 6.14630E-06 4.97400E-20-3.66072E-19
 -1      2469 1.06609E-04-3.40806E-05-3.11000E-05 4.90139E-06 1.67716E-19-1.00105E-20
 -1      2470 1.07345E-04-3.51002E-05-3.09402E-05 4.25688E-06 8.32528E-19 5.69601E-19
 -1      2471 1.04199E-04-3.21586E-05-3.08644E-05 8.27845E-06-8.88840E-19 2.04347E-19
 -1      2472 1.05472E-04-3.31445E-05-3.10265E-05 7.51754E-06-7.03587E-19 7.32104E-20
 -1      2473 1.07198E-04-3.44755E-05-3.11311E-05 7.47789E-06-1.12903E-18-1.07388E-19
 -1      2474 1.01669E-04-2.96789E-05-3.08058E-05 8.59712E-06-1.17137E-19 4.67837E-19
 -1      2475 1.03193E-04-3.10463E-05-3.09566E-05 8.79773E-06-2.69317E-19 5.34107E-19
 -1      2476 1.05743E-04-3.23618E-05-3.14119E-05 9.63202E-06-9.57007E-19 9.00083E-19
 -1      2477 9.90363E-05-2.70286E-05-3.07983E-05 6.34460E-06 4.28771E-19 8.25053E-19
 -1      2478 1.00336E-04-2.82767E-05-3.09082E-05 7.71322E-06 2.47724E-19 5.51498E-19
 -1      2479 1.03229E-04-2.91203E-05-3.17506E-05 9.39410E-06 3.56843E-19 1.64956E-18
 -1      2480 9.74821E-05-2.55004E-05-3.08056E-05 1.87896E-06 9.55566E-19 1.20301E-18
 -1      2481 9.80508E-05-2.60221E-05-3.08601E-05 4.06583E-06 6.04699E-19 1.22811E-18
 -1      2482 1.00714E-04-2.60436E-05-3.20310E-05 6.07429E-06 3.99366E-19 1.23153E-18
 -1      2483 9.78185E-05-2.59661E-05-3.07905E-05-3.17166E-06 4.90439E-19 9.31240E-19
 -1      2484 9.74325E-05-2.54850E-05-3.07861E-05-9.91921E-07 1.20230E-18 1.32838E-18
 -1      2485 9.95812E-05-2.47478E-05-3.21190E-05 5.23913E-07 1.06966E-18 9.13482E-19
 -1      2486 9.98260E-05-2.81545E-05-3.07463E-05-6.79207E-06 1.95565E-19-8.34989E-20
 -1      2487 9.87064E-05-2.69494E-05-3.06882E-05-5.44430E-06-1.71015E-19 3.97030E-19
 -1      2488 1.00492E-04-2.59990E-05-3.19561E-05-5.01758E-06 6.94097E-19 1.14402E-18
 -1      2489 1.02403E-04-3.08641E-05-3.06969E-05-7.82130E-06-7.56611E-19-5.52682E-19
 -1      2490 1.01056E-04-2.95429E-05-3.06009E-05-7.64927E-06 5.49461E-19-2.38784E-19
 -1      2491 1.02791E-04-2.90451E-05-3.15960E-05-8.29853E-06 1.12255E-19 6.27710E-19
 -1      2492 1.04384E-04-3.29022E-05-3.06624E-05-6.44475E-06-5.23132E-19-1.04243E-18
 -1      2493 1.03297E-04-3.19677E-05-3.05588E-05-7.24010E-06-1.66036E-18-1.32666E-18
 -1      2494 1.05092E-04-3.22662E-05-3.11737E-05-8.45639E-06-5.95394E-19-9.92603E-19
 -1      2495 1.05190E-04-3.37563E-05-3.06282E-05-3.69527E-06-5.35662E-19-9.74618E-19
 -1      2496 1.04624E-04-3.33839E-05-3.05554E-05-4.97765E-06 4.52521E-19-1.07185E-18
 -1      2497 1.06319E-04-3.43506E-05-3.08061E-05-6.17232E-06-4.44570E-19-3.01945E-18
 -1      2498 1.04842E-04-3.35521E-05-3.05562E-05-6.86814E-07-1.47844E-19-8.11134E-19
 -1      2499 1.04828E-04-3.36564E-05-3.05446E-05-1.99869E-06-8.68222E-19-6.87719E-19
 -1      2500 1.06206E-04-3.49126E-05-3.05330E-05-2.79238E-06-2.07301E-19-6.31175E-19
 -1      2501 1.03673E-04-3.26944E-05-3.04163E-05 1.82976E-06 9.00932E-19-4.27782E-19
 -1      2502 1.04101E-04-3.30931E-05-3.04762E-05 7.76870E-07 4.91256E-19-8.75289E-19
 -1      2503 1.05059E-04-3.42779E-05-3.03290E-05 5.09588E-07 2.53154E-19-1.70301E-18
 -1      2504 1.02055E-04-3.15578E-05-3.02053E-05 3.51799E-06 1.26697E-18 1.05656E-18
 -1      2505 1.02768E-04-3.20900E-05-3.03263E-05 2.84676E-06 1.31896E-18 7.06479E-19
 -1      2506 1.03350E-04-3.30018E-05-3.01527E-05 3.06289E-06 2.95067E-19-4.80008E-19
 -1      2507 1.00279E-04-3.03786E-05-2.99457E-05 4.31729E-06 1.17518E-18 6.65554E-19
 -1      2508 1.01129E-04-3.09412E-05-3.01037E-05 4.04505E-06 1.20099E-18 1.19774E-18
 -1      2509 1.01456E-04-3.15239E-05-2.99782E-05 4.63060E-06 1.38049E-18 4.11379E-19
 -1      2510 9.85425E-05-2.92678E-05-2.96740E-05 4.29796E-06-2.50748E-19 1.53738E-18
 -1      2511 9.94062E-05-2.98080E-05-2.98400E-05 4.39281E-06 3.91805E-19 1.67427E-18
 -1      2512 9.96029E-05-3.00869E-05-2.98007E-05 5.22351E-06-9.71069E-21 2.23627E-18
 -1      2513 9.69699E-05-2.82861E-05-2.94210E-05 3.56775E-06-1.04124E-18 3.06990E-18
 -1      2514 9.77541E-05-2.87584E-05-2.95729E-05 3.97853E-06-7.05740E-19 2.57908E-18
 -1      2515 9.78987E-05-2.87711E-05-2.96314E-05 4.95357E-06-8.76167E-19 3.57145E-18
 -1      2516 9.62955E-05-2.78776E-05-2.93166E-05 2.89586E-06-1.04441E-18 1.95940E-18
 -1      2517 9.30148E-05-2.22983E-05-3.03255E-05 6.63126E-06-1.30239E-18-1.06157E-18
 -1      2518 9.36717E-05-2.32685E-05-3.01597E-05 6.71254E-06-3.30069E-18-1.00194E-18
 -1      2519 9.16564E-05-2.04649E-05-3.05409E-05 5.85154E-06 1.30453E-18 8.65412E-19
 -1      2520 9.23355E-05-2.13788E-05-3.03992E-05 6.34235E-06 5.33702E-19-1.33594E-18
 -1      2521 9.27668E-05-2.27609E-05-3.00043E-05 7.40979E-06-5.46691E-19 2.49044E-19
 -1      2522 9.52660E-05-2.56752E-05-2.98212E-05 5.83839E-06-1.91581E-18-1.90548E-18
 -1      2523 9.57278E-05-2.64833E-05-2.96636E-05 5.33976E-06-7.28509E-19-4.67018E-19
 -1      2524 9.42526E-05-2.40919E-05-3.00747E-05 6.55942E-06-4.04456E-18-1.85361E-18
 -1      2525 9.48076E-05-2.49914E-05-2.99076E-05 6.30908E-06-2.79655E-18-1.34564E-18
 -1      2526 9.55242E-05-2.60881E-05-2.97632E-05 6.85266E-06-2.00864E-18-2.59619E-18
 -1      2527 9.42915E-05-2.45527E-05-2.98918E-05 7.52413E-06-3.47709E-18-6.35888E-19
 -1      2528 9.03948E-05-1.88647E-05-3.06931E-05 4.14424E-06-3.49748E-19 1.83652E-18
 -1      2529 9.09788E-05-1.95837E-05-3.05942E-05 5.05458E-06 9.61411E-19 5.86963E-19
 -1      2530 9.11375E-05-2.09074E-05-3.00902E-05 6.28438E-06 7.06840E-19 1.51472E-19
 -1      2531 8.95144E-05-1.78144E-05-3.07653E-05 1.62945E-06-1.66395E-18 1.06767E-18
 -1      2532 8.98667E-05-1.81990E-05-3.07223E-05 2.87124E-06-1.91049E-18 2.20847E-18
 -1      2533 8.96861E-05-1.93088E-05-3.01411E-05 4.09493E-06-1.87977E-19 4.12199E-19
 -1      2534 8.92684E-05-1.75779E-05-3.07527E-05-1.34349E-06-1.81038E-18-1.10033E-18
 -1      2535 8.92833E-05-1.75319E-05-3.07710E-05 4.38600E-08-2.09088E-18 5.61884E-19
 -1      2536 8.87696E-05-1.83258E-05-3.01607E-05 1.04743E-06-1.29156E-18 5.59439E-19
 -1      2537 8.97602E-05-1.82433E-05-3.06637E-05-4.21456E-06 1.15187E-19-1.02694E-18
 -1      2538 8.94134E-05-1.77622E-05-3.07387E-05-2.94515E-06-3.22561E-19-1.55011E-18
 -1      2539 8.86679E-05-1.82261E-05-3.01580E-05-2.36001E-06-9.44906E-19 2.53647E-20
 -1      2540 9.09506E-05-1.97457E-05-3.05134E-05-6.54795E-06 1.59460E-18 2.26612E-18
 -1      2541 9.02776E-05-1.88779E-05-3.06354E-05-5.58848E-06 9.15995E-19-6.06179E-19
 -1      2542 8.94624E-05-1.90692E-05-3.01430E-05-5.53984E-06 8.88678E-19-5.10520E-19
 -1      2543 9.26418E-05-2.18345E-05-3.03292E-05-7.85904E-06 1.05570E-18 3.21285E-18
 -1      2544 9.17513E-05-2.07138E-05-3.04777E-05-7.41318E-06 7.32566E-19 3.49908E-18
 -1      2545 9.10527E-05-2.07245E-05-3.01254E-05-7.92713E-06 1.42818E-18 2.01543E-18
 -1      2546 9.45840E-05-2.42024E-05-3.01391E-05-7.90109E-06 1.84755E-18 1.47748E-19
 -1      2547 9.36056E-05-2.29734E-05-3.02936E-05-8.07622E-06 1.55635E-18 1.78307E-18
 -1      2548 9.31571E-05-2.28839E-05-3.01136E-05-9.07095E-06 4.26005E-19 2.96613E-18
 -1      2549 9.56636E-05-5.30285E-05-1.85315E-05 4.28646E-05-1.95707E-18 9.42509E-19
 -1      2550 7.84779E-05-4.73995E-05-1.30291E-05 4.29212E-05-1.33450E-18 5.68571E-19
 -1      2551 9.59246E-05-2.59580E-05-2.99743E-05-6.12857E-06 2.07989E-18-9.47142E-19
 -1      2552 2.04119E-05-1.81234E-05-6.90850E-07-5.60058E-06-1.39223E-18 4.01832E-18
 -1      2553 2.52457E-05-2.23115E-05-1.01926E-06-1.94865E-05-1.48951E-18 3.54017E-18
 -1      2554 9.36058E-05-2.74670E-05-2.83337E-05 3.79917E-07 1.16225E-18-3.38863E-19
 -1      2555 9.38896E-05-2.73316E-05-2.84811E-05 9.13382E-07 1.39174E-18-1.27966E-19
 -1      2556 9.42547E-05-2.74852E-05-2.86292E-05 4.14248E-07 1.26140E-18-9.53068E-19
 -1      2557 2.95185E-05-1.94898E-05-3.79677E-06 2.13535E-05-2.63385E-18 3.51138E-18
 -1      2558 2.39334E-05-1.72629E-05-2.28280E-06 8.39554E-06-2.18924E-18 3.57130E-18
 -1      2559 1.49210E-04-1.54208E-05-5.77471E-05 3.96606E-06-2.23871E-18-1.13037E-18
 -1      2560 1.51146E-04-1.36507E-05-5.92315E-05-4.21137E-07-3.11454E-18-7.76451E-19
 -1      2561 1.48797E-04-2.80563E-05-5.21869E-05-3.50673E-06 5.60948E-19-1.28580E-18
 -1      2562 1.47017E-04-3.73281E-05-4.72741E-05 4.80694E-07 1.46219E-19-1.50666E-18
 -1      2563 1.04445E-04-5.63806E-05-2.06501E-05 3.71731E-05-1.11808E-18 5.55336E-19
 -1      2564 8.51538E-05-4.94629E-05-1.50049E-05 3.92888E-05-2.76768E-19-1.60365E-18
 -1      2565 1.33892E-04-6.05967E-05-3.17717E-05 2.15271E-05-1.64409E-18 1.06684E-18
 -1      2566 1.19587E-04-5.97640E-05-2.56284E-05 2.82369E-05-1.26991E-18 8.98808E-19
 -1      2567 8.78550E-05-1.08057E-05-3.30568E-05-1.52028E-06-4.61255E-19-3.68598E-18
 -1      2568 8.79595E-05-1.09274E-05-3.30479E-05-2.64015E-06-7.95488E-19-3.59728E-18
 -1      2569 8.93589E-05-1.31004E-05-3.26842E-05-2.93418E-06-8.81052E-19-3.31766E-18
 -1      2570 8.91121E-05-1.27661E-05-3.27229E-05-9.42182E-07-3.59514E-19-3.48032E-18
 -1      2571 1.45335E-04-1.36738E-05-5.68695E-05-3.31633E-06 2.09259E-18-1.40184E-18
 -1      2572 1.45154E-04-1.81689E-05-5.47956E-05-5.42257E-06 1.30867E-18-1.07954E-18
 -1      2573 1.52143E-04-1.58395E-05-5.88349E-05-5.05398E-06-3.67909E-18-4.34316E-19
 -1      2574 1.53492E-04-2.10979E-05-5.70035E-05-7.32042E-06-3.38136E-18 9.63500E-20
 -1      2575 1.43510E-04-4.40284E-05-4.28024E-05-1.71376E-06 1.46844E-18 1.50475E-18
 -1      2576 1.46940E-04-3.53939E-05-4.83373E-05 2.89993E-06 2.91686E-18 1.75463E-18
 -1      2577 1.29285E-04-5.65034E-05-3.11653E-05-2.29330E-05-2.03288E-19-1.76183E-19
 -1      2578 1.38963E-04-5.36217E-05-3.71106E-05-1.42914E-05-2.46592E-19 9.51642E-19
 -1      2579 9.79997E-05-5.30317E-05-1.92596E-05-3.93358E-05 1.07743E-18-6.35275E-19
 -1      2580 1.15529E-04-5.58576E-05-2.57993E-05-3.48771E-05 5.14149E-19-9.54500E-19
 -1      2581 6.26153E-05-4.07963E-05-9.22991E-06-4.20558E-05 9.44442E-20-5.66983E-19
 -1      2582 8.03097E-05-4.67423E-05-1.43788E-05-4.46141E-05 5.25160E-19-5.36172E-19
 -1      2583 3.18588E-05-2.50845E-05-2.58294E-06-2.91588E-05-9.55453E-19-9.52277E-19
 -1      2584 4.53232E-05-3.23054E-05-5.45067E-06-3.89272E-05-6.33581E-19-1.09267E-19
 -1      2585 6.19453E-05-3.63539E-05-1.05259E-05-4.05663E-05-1.24577E-18-6.51792E-19
 -1      2586 1.55718E-04-2.95936E-05-5.42906E-05-7.80536E-06-3.99334E-18 3.97258E-19
 -1      2587 1.52312E-04-3.69254E-05-4.96569E-05-6.19650E-06-3.30999E-18 1.00797E-19
 -1      2588 6.33778E-05-3.90283E-05-1.03217E-05 4.05493E-05 3.53001E-19-4.59632E-18
 -1      2589 4.85578E-05-3.20345E-05-6.57451E-06 3.44116E-05 9.28348E-19-4.93397E-18
 -1      2590 1.72826E-05-1.87554E-05 7.27466E-07-1.41667E-06 2.77919E-19-3.76718E-18
 -1      2591 2.02962E-05-1.90306E-05-3.16409E-07-1.46131E-05-3.96094E-19-2.64190E-18
 -1      2592 1.46393E-04-2.30289E-05-5.32177E-05 5.14788E-06 3.33202E-18 1.28495E-18
 -1      2593 1.50180E-04-1.77716E-05-5.69317E-05 3.64537E-06 3.58380E-18 2.18704E-18
 -1      2594 3.68117E-05-2.87458E-05-3.23149E-06-2.98077E-05-8.75620E-19 3.79894E-19
 -1      2595 5.42814E-05-3.59198E-05-7.72601E-06-3.96547E-05-4.22458E-19-1.09881E-18
 -1      2596 3.92104E-05-2.33440E-05-6.23627E-06-2.56963E-05-1.13947E-18 9.88487E-19
 -1      2597 3.13247E-05-2.35423E-05-3.17536E-06 2.55218E-05 9.01984E-19-5.59211E-18
 -1      2598 2.12229E-05-1.99627E-05-2.47601E-07 1.09281E-05 7.56559E-19-4.83910E-18
 -1      2599 1.50634E-04-2.98322E-05-5.21970E-05 8.90478E-06-1.58692E-18-2.15993E-18
 -1      2600 1.49530E-04-2.33846E-05-5.46996E-05 8.03929E-06-2.01213E-18-2.12754E-18
 -1      2601 1.49971E-04-4.79229E-05-4.40240E-05-2.21248E-06-1.11544E-18-1.88592E-18
 -1      2602 1.53597E-04-3.89780E-05-4.95100E-05 3.91435E-06-1.52932E-18-2.45216E-18
 -1      2603 1.45217E-04-3.51714E-05-4.71477E-05 1.14013E-05-1.48135E-18-1.55113E-18
 -1      2604 1.36816E-04-5.91135E-05-3.34413E-05-1.79179E-05 1.36891E-18-1.53313E-19
 -1      2605 1.45807E-04-5.59984E-05-3.88639E-05-1.17030E-05 1.74859E-19-1.09860E-18
 -1      2606 1.07079E-04-5.77064E-05-2.10874E-05-3.56158E-05 6.22569E-19 1.26811E-18
 -1      2607 1.25333E-04-6.02265E-05-2.80365E-05-2.97444E-05 9.05690E-19 5.57030E-19
 -1      2608 1.33282E-04-6.21837E-05-3.03428E-05-1.89993E-05 9.38724E-19-3.82647E-19
 -1      2609 7.39142E-05-4.53138E-05-1.19543E-05-4.13514E-05-5.81488E-19 7.15319E-19
 -1      2610 8.93096E-05-5.15252E-05-1.61886E-05-4.24324E-05-2.71051E-20 1.05225E-18
 -1      2611 1.32283E-04-5.83540E-05-3.19276E-05 2.37533E-05-1.34699E-18-1.05074E-18
 -1      2612 1.16576E-04-5.83732E-05-2.47419E-05 3.18855E-05-2.24951E-18 5.34795E-19
 -1      2613 1.45877E-04-4.72268E-05-4.26182E-05 7.34787E-06-3.77618E-19-7.88376E-19
 -1      2614 1.39773E-04-5.24813E-05-3.75777E-05 1.23408E-05-3.84526E-19-4.20764E-19
 -1      2615 9.63221E-05-2.50909E-05-3.05533E-05 7.60101E-06 2.65021E-18 8.30019E-19
 -1      2616 9.74447E-05-2.37751E-05-3.15940E-05 1.07006E-05 2.83327E-18 1.21071E-18
 -1      2617 9.58808E-05-2.13007E-05-3.20187E-05 1.19032E-05 3.01516E-18 2.31624E-19
 -1      2618 9.58668E-05-2.41556E-05-3.07661E-05 7.69067E-06 2.67268E-18-1.51797E-19
 -1      2619 1.39327E-04-2.31167E-05-5.00397E-05-8.38120E-06 4.90432E-19-1.35208E-18
 -1      2620 9.08033E-05-1.50456E-05-3.24590E-05-6.80875E-06-1.82778E-18-2.72883E-18
 -1      2621 8.97129E-05-1.31937E-05-3.28453E-05-7.95891E-06-1.99269E-18-2.91199E-18
 -1      2622 9.03398E-05-1.39107E-05-3.28172E-05-9.18955E-06-2.36137E-18-2.64089E-18
 -1      2623 2.95670E-05-1.52076E-05-5.54969E-06 6.65176E-07-2.42369E-18 3.60158E-18
 -1      2624 9.42393E-05-1.90799E-05-3.22560E-05 1.16126E-05 2.87561E-18-8.39370E-19
 -1      2625 1.40406E-04-5.97749E-05-3.44703E-05 9.11821E-06-9.10560E-20 2.24273E-18
 -1      2626 1.05678E-04-5.63267E-05-2.08268E-05-3.56288E-05 9.80229E-19 6.02677E-19
 -1      2627 9.20464E-05-1.62341E-05-3.25324E-05-1.03982E-05-2.57938E-18-1.70293E-18
 -1      2628 1.46679E-04-5.35355E-05-3.99552E-05 7.94702E-07-4.55697E-19-1.76882E-18
 -1      2629 7.18151E-05-4.16522E-05-1.24183E-05 4.26291E-05-2.35856E-18 1.06578E-18
 -1      2630 2.58433E-05-1.59971E-05-3.62512E-06 5.33065E-06 2.87382E-19-4.16677E-18
 -1      2631 9.64108E-05-2.76839E-05-2.94520E-05 3.91328E-06-9.51690E-19 2.51086E-18
 -1      2632 9.62065E-05-2.72096E-05-2.95648E-05 4.50259E-06-7.06811E-19 2.63204E-18
 -1      2633 1.40391E-04-2.92079E-05-4.79486E-05 9.26052E-06 2.63999E-18 2.31918E-18
 -1      2634 1.11751E-04-5.72368E-05-2.30175E-05 3.38481E-05-2.76694E-18-2.39181E-19
 -1      2635 9.69608E-05-2.68864E-05-3.00070E-05-7.12040E-06 1.00881E-18-1.04053E-18
 -1      2636 9.55345E-05-2.52912E-05-3.01174E-05-7.79346E-06 2.03650E-18-5.68802E-19
 -1      2637 9.54860E-05-2.51950E-05-3.01169E-05-9.08272E-06 1.27760E-18 5.67829E-19
 -1      2638 9.78806E-05-2.73616E-05-3.01992E-05-8.13314E-06 2.54351E-19-1.38808E-18
 -1      2639 9.47112E-05-2.06036E-05-3.17161E-05 9.68186E-06 2.72967E-18-9.50464E-19
 -1      2640 9.47223E-05-2.69369E-05-2.90634E-05 1.89550E-06 1.75881E-18-7.07618E-19
 -1      2641 3.86226E-05-2.27264E-05-6.22181E-06 2.71450E-05-2.50997E-18 2.10636E-18
 -1      2642 4.05479E-05-1.74502E-05-9.36317E-06 2.08359E-05-2.75233E-18 3.01459E-18
 -1      2643 4.88162E-05-2.59199E-05-9.63457E-06 3.27441E-05-2.69769E-18 1.62990E-18
 -1      2644 8.10321E-05-4.49214E-05-1.51126E-05 3.81531E-05 1.26780E-18-1.78682E-18
 -1      2645 1.40902E-04-1.33251E-05-5.48543E-05-3.63276E-06-2.56715E-18 1.56278E-19
 -1      2646 3.08545E-05-2.07426E-05-3.84879E-06-2.30489E-05-9.02937E-19-1.23137E-18
 -1      2647 4.18659E-05-2.21663E-05-8.20396E-06-3.02308E-05-1.84007E-18 7.19343E-19
 -1      2648 3.07066E-05-1.55105E-05-6.02249E-06-1.65880E-05-1.06493E-18-1.48654E-18
 -1      2649 1.48087E-04-4.34672E-05-4.48869E-05-1.01103E-05-2.10392E-18 9.78535E-19
 -1      2650 1.43125E-04-4.27715E-05-4.31215E-05-2.78768E-06 2.07947E-19-2.73168E-19
 -1      2651 9.56493E-05-5.17486E-05-1.84766E-05-4.00437E-05-3.32884E-19-2.02573E-19
 -1      2652 1.24673E-04-5.86067E-05-2.81065E-05-2.53827E-05-3.00167E-19 1.05816E-18
 -1      2653 1.39815E-04-5.04095E-05-3.83027E-05-2.82683E-06 3.34909E-20 1.97486E-18
 -1      2654 1.16811E-04-5.95870E-05-2.42732E-05 2.87591E-05 7.34801E-20 2.07872E-18
 -1      2655 1.40315E-04-1.85555E-05-5.24486E-05 9.44027E-06-1.88444E-18-1.15440E-18
 -1      2656 1.39977E-04-1.25637E-05-5.48599E-05 6.07826E-06 3.25388E-18 1.09204E-18
 -1      2657 9.70696E-05-2.66867E-05-3.01776E-05-9.58545E-06-8.18596E-19-1.10476E-18
 -1      2658 1.37121E-04-1.01583E-05-5.47634E-05-3.81521E-06 2.24294E-18-1.81948E-18
 -1      2659 1.46058E-04-2.48207E-05-5.20461E-05-1.23769E-05-3.26108E-18 6.40357E-19
 -1      2660 4.43642E-05-2.53565E-05-7.57286E-06 2.87289E-05 9.19243E-19-5.06843E-18
 -1      2661 6.96554E-05-4.00001E-05-1.22446E-05-3.95991E-05 7.43271E-20 3.05461E-19
 -1      2662 1.35946E-04-5.78181E-05-3.35034E-05 1.28910E-05-1.59412E-18-3.23143E-19
 -1      2663 9.66048E-05-2.75033E-05-2.96187E-05 5.49207E-06-1.04204E-18 1.79666E-18
 -1      2664 9.05726E-05-1.51809E-05-3.23330E-05 3.20011E-06 6.53393E-19-3.25105E-18
 -1      2665 9.03837E-05-1.49098E-05-3.23661E-05 2.26511E-06 3.78744E-19-3.33230E-18
 -1      2666 9.02502E-05-1.47074E-05-3.23954E-05 1.42494E-06 1.90233E-19-3.45379E-18
 -1      2667 9.01856E-05-1.46152E-05-3.24065E-05 4.66629E-07-4.82522E-20-3.35862E-18
 -1      2668 9.14365E-05-1.66024E-05-3.20588E-05 1.64457E-06 2.67051E-19-3.28384E-18
 -1      2669 9.21487E-05-1.75565E-05-3.20059E-05 6.48251E-06 1.85496E-18-2.32666E-18
 -1      2670 9.16253E-05-1.67625E-05-3.21065E-05 5.64156E-06 1.54937E-18-2.48685E-18
 -1      2671 9.35655E-05-1.97808E-05-3.16634E-05 7.60745E-06 2.36924E-18-1.84277E-18
 -1      2672 9.27743E-05-1.85246E-05-3.18384E-05 7.03030E-06 2.08507E-18-2.12079E-18
 -1      2673 9.34437E-05-1.98743E-05-3.15071E-05 5.74437E-06 1.85379E-18-2.00404E-18
 -1      2674 9.49702E-05-2.66869E-05-2.92699E-05 1.79125E-06 1.59437E-18-1.10796E-18
 -1      2675 9.52351E-05-2.61892E-05-2.95554E-05 2.80200E-06 1.83773E-18-9.52101E-19
 -1      2676 9.51998E-05-2.39741E-05-3.05164E-05-5.31242E-06-2.04517E-18-8.88459E-19
 -1      2677 9.51528E-05-2.49967E-05-3.00853E-05-3.80216E-06-1.81178E-18-8.10715E-19
 -1      2678 8.22680E-05-4.41533E-05-1.64905E-05 4.11509E-05-2.43289E-18 9.60218E-19
 -1      2679 6.47109E-05-3.46330E-05-1.21898E-05 3.87355E-05-3.18283E-18 1.80884E-18
 -1      2680 9.44669E-05-2.83016E-05-2.83557E-05-1.09859E-06 8.02623E-19-1.02670E-18
 -1      2681 9.44355E-05-2.82139E-05-2.83744E-05-1.02564E-06 6.54554E-19-1.15313E-18
 -1      2682 9.53555E-05-2.59063E-05-2.97349E-05-2.71585E-06-1.72933E-18-7.37735E-19
 -1      2683 9.51899E-05-2.64923E-05-2.94539E-05-1.73444E-06-1.56475E-18-7.78858E-19
 -1      2684 9.52145E-05-2.47062E-05-3.02176E-05-3.54441E-06-1.81560E-18-1.09416E-18
 -1      2685 9.52124E-05-2.70046E-05-2.92085E-05-9.92619E-07-1.35108E-18-6.21576E-19
 -1      2686 9.50774E-05-2.73581E-05-2.90289E-05-3.87118E-07-1.07899E-18-8.05289E-19
 -1      2687 9.54146E-05-2.63305E-05-2.96136E-05-1.63145E-06-1.49083E-18-9.93166E-19
 -1      2688 9.50451E-05-2.76635E-05-2.88619E-05 8.05499E-08-1.04988E-18-8.66460E-19
 -1      2689 9.49675E-05-2.78870E-05-2.87517E-05 4.32464E-07-9.19076E-19-1.19721E-18
 -1      2690 9.54160E-05-2.73238E-05-2.91898E-05-3.51901E-07-1.24199E-18-8.89407E-19
 -1      2691 9.49260E-05-2.80710E-05-2.86419E-05 7.03377E-07-7.18603E-19-1.18329E-18
 -1      2692 9.48984E-05-2.82161E-05-2.85790E-05 8.88742E-07-8.34724E-19-1.37017E-18
 -1      2693 9.53564E-05-2.79365E-05-2.89011E-05 4.40291E-07-9.77451E-19-1.26729E-18
 -1      2694 9.48640E-05-2.83257E-05-2.85103E-05 1.02616E-06-7.99627E-19-1.28123E-18
 -1      2695 9.48723E-05-2.84202E-05-2.84792E-05 1.10528E-06-6.49521E-19-1.17747E-18
 -1      2696 9.52932E-05-2.83128E-05-2.87114E-05 8.87237E-07-8.60668E-19-1.32402E-18
 -1      2697 9.48488E-05-2.84821E-05-2.84397E-05 1.15660E-06-5.48041E-19-1.12927E-18
 -1      2698 9.48802E-05-2.85420E-05-2.84297E-05 1.17121E-06-5.29686E-19-1.19679E-18
 -1      2699 9.52452E-05-2.85374E-05-2.85933E-05 1.10276E-06-5.71341E-19-1.11680E-18
 -1      2700 9.48668E-05-2.85721E-05-2.84107E-05 1.17109E-06-4.33468E-19-1.10522E-18
 -1      2701 9.49117E-05-2.86074E-05-2.84148E-05 1.15041E-06-2.86831E-19-8.25851E-19
 -1      2702 9.52155E-05-2.86613E-05-2.85263E-05 1.17199E-06-3.96699E-19-9.29968E-19
 -1      2703 9.49062E-05-2.86155E-05-2.84103E-05 1.12404E-06-2.85953E-19-6.14028E-19
 -1      2704 9.49583E-05-2.86326E-05-2.84236E-05 1.08882E-06-2.54787E-19-6.22013E-19
 -1      2705 9.52013E-05-2.87162E-05-2.84959E-05 1.15743E-06-2.06859E-19-8.20685E-19
 -1      2706 9.49586E-05-2.86251E-05-2.84295E-05 1.05457E-06-3.49181E-19-5.35313E-19
 -1      2707 9.50145E-05-2.86284E-05-2.84492E-05 1.01982E-06-1.55968E-19-7.03290E-19
 -1      2708 9.51991E-05-2.87225E-05-2.84916E-05 1.10478E-06-2.74078E-19-7.50588E-19
 -1      2709 9.50190E-05-2.86091E-05-2.84628E-05 9.91356E-07-3.94765E-20-9.41900E-19
 -1      2710 9.50774E-05-2.86015E-05-2.84874E-05 9.68378E-07-1.87075E-19-1.11301E-18
 -1      2711 9.52055E-05-2.86930E-05-2.85066E-05 1.04769E-06-3.75210E-19-9.08681E-19
 -1      2712 9.50851E-05-2.85726E-05-2.85070E-05 9.56240E-07-2.57910E-19-1.24498E-18
 -1      2713 9.51464E-05-2.85561E-05-2.85360E-05 9.54037E-07-4.22126E-19-1.25489E-18
 -1      2714 9.52182E-05-2.86358E-05-2.85363E-05 1.01164E-06-2.52010E-19-1.12891E-18
 -1      2715 9.51563E-05-2.85183E-05-2.85611E-05 9.66935E-07-3.94943E-19-8.72894E-19
 -1      2716 9.52224E-05-2.84941E-05-2.85946E-05 9.93318E-07-3.05904E-19-6.60566E-19
 -1      2717 9.52355E-05-2.85550E-05-2.85782E-05 1.01681E-06-3.04726E-19-7.13383E-19
 -1      2718 9.52340E-05-2.84473E-05-2.86251E-05 1.03907E-06-5.71180E-19-7.95266E-19
 -1      2719 9.53077E-05-2.84157E-05-2.86641E-05 1.10147E-06-5.47436E-19-5.64493E-19
 -1      2720 9.52560E-05-2.84516E-05-2.86313E-05 1.08044E-06-4.99392E-19-5.91638E-19
 -1      2721 9.53203E-05-2.83589E-05-2.87002E-05 1.18771E-06-7.51687E-19-7.64409E-19
 -1      2722 9.54052E-05-2.83199E-05-2.87461E-05 1.29380E-06-1.23643E-18-1.15129E-18
 -1      2723 9.52788E-05-2.83247E-05-2.86954E-05 1.21848E-06-7.37370E-19-1.06120E-18
 -1      2724 9.54177E-05-2.82513E-05-2.87885E-05 1.42848E-06-1.27394E-18-8.21875E-19
 -1      2725 9.55181E-05-2.82048E-05-2.88428E-05 1.58650E-06-1.00536E-18-1.18010E-18
 -1      2726 9.53022E-05-2.81714E-05-2.87710E-05 1.44684E-06-1.14338E-18-1.09820E-18
 -1      2727 9.55290E-05-2.81222E-05-2.88921E-05 1.77818E-06-9.27317E-19-1.13685E-18
 -1      2728 9.56497E-05-2.80679E-05-2.89566E-05 1.99710E-06-9.10008E-19-1.06882E-18
 -1      2729 9.53239E-05-2.79873E-05-2.88591E-05 1.78211E-06-9.45030E-19-1.00259E-18
 -1      2730 9.56568E-05-2.79691E-05-2.90132E-05 2.25495E-06-2.98148E-19-7.92635E-19
 -1      2731 9.58026E-05-2.79074E-05-2.90895E-05 2.54424E-06 4.47722E-19-8.05932E-19
 -1      2732 9.53404E-05-2.77679E-05-2.89599E-05 2.24187E-06-4.44801E-19-7.66730E-19
 -1      2733 9.58029E-05-2.77909E-05-2.91531E-05 2.87776E-06 2.90379E-19-1.06598E-18
 -1      2734 9.59794E-05-2.77238E-05-2.92425E-05 3.24669E-06 3.74227E-19-1.21149E-18
 -1      2735 9.53467E-05-2.75093E-05-2.90730E-05 2.84430E-06 2.54268E-20-7.00261E-19
 -1      2736 9.59695E-05-2.75901E-05-2.93117E-05 3.66501E-06 5.82818E-19-1.31221E-18
 -1      2737 9.61829E-05-2.75233E-05-2.94140E-05 4.12110E-06 3.69706E-19-1.25476E-18
 -1      2738 9.53367E-05-2.72109E-05-2.91959E-05 3.60723E-06 5.60666E-19-1.47544E-18
 -1      2739 9.61606E-05-2.73780E-05-2.94856E-05 4.63178E-06-1.66905E-19-7.23974E-19
 -1      2740 9.64197E-05-2.73244E-05-2.95993E-05 5.17810E-06-5.74090E-19-8.72452E-19
 -1      2741 9.53049E-05-2.68807E-05-2.93229E-05 4.54622E-06 2.93839E-19-1.40414E-18
 -1      2742 9.63877E-05-2.71834E-05-2.96673E-05 5.78517E-06-7.74930E-19-9.24303E-19
 -1      2743 9.67074E-05-2.71692E-05-2.97876E-05 6.41579E-06-6.82167E-19-6.87653E-19
 -1      2744 9.52513E-05-2.65433E-05-2.94437E-05 5.67178E-06-7.40030E-19-5.58455E-19
 -1      2745 9.66808E-05-2.70678E-05-2.98426E-05 7.11688E-06-2.18195E-19-4.34278E-19
 -1      2746 9.70898E-05-2.71436E-05-2.99612E-05 7.80969E-06 3.01658E-19-4.33825E-19
 -1      2747 9.51918E-05-2.62554E-05-2.95412E-05 6.98538E-06-2.16062E-19-1.74888E-19
 -1      2748 9.71108E-05-2.71504E-05-2.99897E-05 8.59161E-06 4.62673E-19-6.48568E-19
 -1      2749 9.76656E-05-2.74065E-05-3.00941E-05 9.29747E-06 7.29989E-19-8.45143E-19
 -1      2750 9.51796E-05-2.61305E-05-2.95909E-05 8.47436E-06 2.92294E-19-3.16597E-19
 -1      2751 9.78293E-05-2.76445E-05-3.00802E-05 1.01287E-05 3.08907E-19-1.55246E-18
 -1      2752 9.86360E-05-2.82308E-05-3.01560E-05 1.07554E-05-2.47276E-19-1.67220E-18
 -1      2753 9.53428E-05-2.63760E-05-2.95611E-05 1.01045E-05 2.96853E-19-1.45123E-18
 -1      2754 9.91288E-05-2.88996E-05-3.00863E-05 1.15697E-05 1.76222E-19-1.59862E-18
 -1      2755 1.00368E-04-3.00372E-05-3.01244E-05 1.19581E-05 3.60469E-19-1.41398E-18
 -1      2756 9.59470E-05-2.73413E-05-2.94200E-05 1.18048E-05-6.39243E-20-1.22782E-18
 -1      2757 1.01516E-04-3.14204E-05-3.00028E-05 1.26135E-05-1.30250E-19-1.48711E-18
 -1      2758 1.03443E-04-3.33705E-05-3.00181E-05 1.25045E-05-1.52987E-19-1.18204E-18
 -1      2759 9.74845E-05-2.95611E-05-2.91549E-05 1.34253E-05-9.93216E-20-4.68420E-19
 -1      2760 1.05734E-04-3.57700E-05-2.98986E-05 1.26883E-05 7.78147E-19-8.36399E-19
 -1      2761 1.08588E-04-3.86676E-05-2.99662E-05 1.16869E-05 4.64730E-19-2.38826E-19
 -1      2762 1.00760E-04-3.37209E-05-2.88192E-05 1.46080E-05 4.72646E-19-5.45148E-19
 -1      2763 1.12577E-04-4.21757E-05-3.00201E-05 1.07911E-05-1.68536E-19-3.11939E-19
 -1      2764 1.16332E-04-4.56242E-05-3.03332E-05 8.36851E-06 6.24422E-20-6.03792E-19
 -1      2765 1.06823E-04-4.03412E-05-2.86356E-05 1.45900E-05 6.56633E-20-4.45486E-19
 -1      2766 1.22184E-04-4.94579E-05-3.09727E-05 5.34968E-06-5.26209E-19-4.94760E-19
 -1      2767 1.26030E-04-5.16885E-05-3.18846E-05 1.13813E-06-9.04261E-19-1.20157E-18
 -1      2768 1.16521E-04-4.88737E-05-2.91918E-05 1.17340E-05-2.38420E-19-6.97148E-19
 -1      2769 1.39220E-04-4.89965E-05-3.88675E-05-1.18859E-05-8.86896E-19 8.95526E-19
 -1      2770 1.37704E-04-4.04341E-05-4.19761E-05-1.37689E-05-1.84643E-18 6.00335E-19
 -1      2771 1.28337E-04-1.36945E-05-4.98005E-05-1.19868E-06-1.61635E-18-1.49935E-18
 -1      2772 1.29396E-04-1.61852E-05-4.92512E-05 6.78019E-06-1.47468E-18-1.18082E-18
 -1      2773 1.30472E-04-2.20867E-05-4.68764E-05 1.29983E-05-1.97528E-18-1.48877E-18
 -1      2774 1.34017E-04-3.21636E-05-4.43097E-05 1.59600E-05-1.73726E-18-8.74773E-19
 -1      2775 1.33961E-04-4.23167E-05-3.94538E-05 1.42000E-05-5.81223E-19-9.91664E-19
 -1      2776 1.35074E-04-4.96029E-05-3.68981E-05 1.07548E-05 8.97048E-19-9.97170E-19
 -1      2777 1.30558E-04-5.17504E-05-3.39175E-05 4.22788E-06 1.28936E-18-1.33630E-18
 -1      2778 1.28035E-04-5.22635E-05-3.23861E-05-5.65579E-07 1.80993E-18-4.84807E-19
 -1      2779 1.35545E-04-5.41995E-05-3.51141E-05 3.06469E-06 6.05271E-19-8.23157E-19
 -1      2780 1.21905E-04-4.97104E-05-3.10317E-05-5.54817E-06 1.70531E-18-1.09800E-18
 -1      2781 1.18054E-04-4.68203E-05-3.03637E-05-9.12440E-06 1.15383E-18-1.91641E-18
 -1      2782 1.24435E-04-5.33952E-05-3.05971E-05-8.04688E-06 1.15030E-18-1.47864E-18
 -1      2783 1.12926E-04-4.30516E-05-2.99825E-05-1.14768E-05 9.20367E-19-1.00969E-18
 -1      2784 1.09432E-04-3.97004E-05-2.97673E-05-1.33884E-05 8.38377E-19-1.12352E-18
 -1      2785 1.13086E-04-4.58475E-05-2.89672E-05-1.42750E-05 1.08374E-18-2.18686E-18
 -1      2786 1.06114E-04-3.66229E-05-2.97867E-05-1.39846E-05 5.40371E-19-1.13220E-18
 -1      2787 1.03537E-04-3.40065E-05-2.97354E-05-1.46669E-05 1.07141E-19-7.41543E-19
 -1      2788 1.04764E-04-3.80102E-05-2.87258E-05-1.63027E-05 4.46497E-19-1.38957E-18
 -1      2789 1.01676E-04-3.19726E-05-2.98640E-05-1.43889E-05-4.73781E-19-9.80940E-19
 -1      2790 9.99223E-05-3.02197E-05-2.98432E-05-1.42952E-05-2.15399E-19-4.06185E-19
 -1      2791 9.97574E-05-3.22925E-05-2.89809E-05-1.61000E-05-4.72449E-19-9.74300E-19
 -1      2792 9.89678E-05-2.90033E-05-2.99734E-05-1.36040E-05-9.19175E-19-6.85023E-19
 -1      2793 9.77630E-05-2.78683E-05-2.99439E-05-1.30378E-05-2.20929E-18-1.21819E-18
 -1      2794 9.70541E-05-2.87030E-05-2.93297E-05-1.48820E-05-5.33748E-19-1.70971E-18
 -1      2795 9.72833E-05-2.71432E-05-3.00497E-05-1.21183E-05-2.76918E-18-8.82795E-20
 -1      2796 9.64300E-05-2.63761E-05-3.00153E-05-1.12497E-05-2.02808E-18-1.02840E-18
 -1      2797 9.56686E-05-2.65281E-05-2.96387E-05-1.31766E-05-1.49036E-18 3.28005E-19
 -1      2798 9.44690E-05-2.81222E-05-2.84340E-05-8.86806E-07 7.21993E-19-1.15342E-18
 -1      2799 9.44852E-05-2.79963E-05-2.84840E-05-7.09199E-07 8.87164E-19-9.81176E-19
 -1      2800 9.49276E-05-2.82326E-05-2.85899E-05-9.03323E-07 8.01797E-19-1.05007E-18
 -1      2801 9.46997E-05-2.19079E-05-3.12034E-05 7.84814E-06 2.49241E-18-1.14258E-18
 -1      2802 3.87640E-05-1.78148E-05-8.48582E-06-1.91212E-05-7.82235E-19 9.78747E-19
 -1      2803 4.96259E-05-2.45887E-05-1.03867E-05-3.02838E-05-5.70688E-20-7.93035E-19
 -1      2804 9.45452E-05-2.78464E-05-2.85861E-05-4.31878E-07 9.14626E-19-1.09770E-18
 -1      2805 9.46337E-05-2.76604E-05-2.86845E-05-8.72290E-08 9.99482E-19-1.05442E-18
 -1      2806 9.50043E-05-2.79063E-05-2.87646E-05-4.43541E-07 9.26951E-19-1.21832E-18
 -1      2807 9.45154E-05-2.84179E-05-2.83263E-05-1.15919E-06 9.69103E-19-6.21168E-19
 -1      2808 9.44558E-05-2.83567E-05-2.83251E-05-1.14915E-06 1.00726E-18-6.84064E-19
 -1      2809 9.48953E-05-2.84331E-05-2.84883E-05-1.12122E-06 7.50717E-19-9.36957E-19
 -1      2810 9.45947E-05-2.84905E-05-2.83290E-05-1.13278E-06 7.61185E-19-6.00626E-19
 -1      2811 9.45205E-05-2.84488E-05-2.83154E-05-1.15713E-06 9.41541E-19-4.82901E-19
 -1      2812 9.48977E-05-2.85513E-05-2.84374E-05-1.18752E-06 8.33307E-19-6.23343E-19
 -1      2813 9.46908E-05-2.85315E-05-2.83525E-05-1.06463E-06 5.01195E-19-4.72026E-19
 -1      2814 9.46106E-05-2.85046E-05-2.83314E-05-1.10351E-06 6.44068E-19-4.87514E-19
 -1      2815 9.49242E-05-2.86133E-05-2.84211E-05-1.16684E-06 6.28004E-19-5.21763E-19
 -1      2816 9.47956E-05-2.85489E-05-2.83897E-05-9.87072E-07 3.27002E-19-6.54962E-19
 -1      2817 9.47136E-05-2.85335E-05-2.83640E-05-1.02636E-06 4.09081E-19-4.40314E-19
 -1      2818 9.49660E-05-2.86356E-05-2.84288E-05-1.10550E-06 5.96779E-19-2.80416E-19
 -1      2819 9.49052E-05-2.85486E-05-2.84365E-05-9.23630E-07 3.85315E-19-5.65611E-19
 -1      2820 9.48228E-05-2.85420E-05-2.84076E-05-9.53022E-07 4.32523E-19-4.56483E-19
 -1      2821 9.50174E-05-2.86290E-05-2.84533E-05-1.03696E-06 3.72812E-19-4.05895E-19
 -1      2822 9.50195E-05-2.85349E-05-2.84910E-05-8.92033E-07 2.29654E-19-8.86433E-19
 -1      2823 9.49359E-05-2.85349E-05-2.84593E-05-9.03704E-07 2.51675E-19-6.15265E-19
 -1      2824 9.50755E-05-2.86009E-05-2.84901E-05-9.85882E-07 2.93719E-19-1.16438E-19
 -1      2825 9.51413E-05-2.85110E-05-2.85530E-05-9.06285E-07 1.32601E-19-5.19824E-19
 -1      2826 9.50537E-05-2.85157E-05-2.85180E-05-8.93965E-07 2.66681E-19-7.08951E-19
 -1      2827 9.51396E-05-2.85559E-05-2.85367E-05-9.71044E-07 1.29333E-19-6.12034E-19
 -1      2828 9.52758E-05-2.84800E-05-2.86233E-05-9.78043E-07 3.24341E-19-5.20857E-19
 -1      2829 9.51800E-05-2.84875E-05-2.85842E-05-9.36449E-07 1.17865E-19-3.31912E-19
 -1      2830 9.52109E-05-2.84976E-05-2.85924E-05-1.00742E-06 7.26354E-20-5.61371E-20
 -1      2831 9.54303E-05-2.84454E-05-2.87036E-05-1.11734E-06 2.02278E-19-2.53103E-20
 -1      2832 9.53208E-05-2.84534E-05-2.86592E-05-1.04193E-06 4.11942E-19-3.90153E-19
 -1      2833 9.52924E-05-2.84287E-05-2.86570E-05-1.10756E-06 2.73049E-19-2.49186E-19
 -1      2834 9.56138E-05-2.84114E-05-2.87961E-05-1.33264E-06-7.08103E-20 1.05699E-19
 -1      2835 9.54843E-05-2.84170E-05-2.87447E-05-1.21970E-06 5.59642E-20 7.02032E-20
 -1      2836 9.53889E-05-2.83524E-05-2.87312E-05-1.28219E-06 1.69902E-19-3.98506E-20
 -1      2837 9.58377E-05-2.83847E-05-2.89027E-05-1.63012E-06 3.20730E-19-4.77484E-19
 -1      2838 9.56806E-05-2.83838E-05-2.88430E-05-1.47725E-06 2.00250E-19-2.90183E-19
 -1      2839 9.55069E-05-2.82732E-05-2.88160E-05-1.54025E-06 2.86843E-19-1.84329E-19
 -1      2840 9.61155E-05-2.83752E-05-2.90251E-05-2.01201E-06 4.30090E-19-6.69477E-19
 -1      2841 9.59224E-05-2.83618E-05-2.89559E-05-1.81915E-06 3.57245E-19-7.65068E-19
 -1      2842 9.56553E-05-2.81988E-05-2.89119E-05-1.88794E-06 6.20383E-19-3.71929E-19
 -1      2843 9.64635E-05-2.83984E-05-2.91638E-05-2.47378E-06 1.21193E-19 8.69461E-20
 -1      2844 9.62252E-05-2.83638E-05-2.90846E-05-2.24481E-06 3.71726E-19-7.08302E-20
 -1      2845 9.58467E-05-2.81418E-05-2.90188E-05-2.32696E-06 2.11837E-19-4.39532E-19
 -1      2846 9.69019E-05-2.84775E-05-2.93178E-05-2.99994E-06 5.71419E-19 2.63801E-19
 -1      2847 9.66083E-05-2.84091E-05-2.92288E-05-2.74504E-06 3.52526E-19 4.59284E-19
 -1      2848 9.60984E-05-2.81226E-05-2.91354E-05-2.85147E-06 1.46467E-19 2.80659E-19
 -1      2849 9.74561E-05-2.86463E-05-2.94836E-05-3.55808E-06 1.40978E-19 8.45409E-19
 -1      2850 9.70963E-05-2.85267E-05-2.93866E-05-3.29700E-06 6.71748E-19 7.36540E-19
 -1      2851 9.64349E-05-2.81729E-05-2.92589E-05-3.44362E-06 3.69978E-19 7.17026E-19
 -1      2852 9.81578E-05-2.89520E-05-2.96553E-05-4.09139E-06-6.80624E-19 1.57619E-19
 -1      2853 9.77207E-05-2.87576E-05-2.95535E-05-3.85735E-06-2.22318E-19 8.88884E-19
 -1      2854 9.68916E-05-2.83393E-05-2.93846E-05-4.06747E-06 6.20413E-20 1.58678E-18
 -1      2855 9.90469E-05-2.94550E-05-2.98243E-05-4.50983E-06-1.48826E-18-6.60546E-19
 -1      2856 9.85220E-05-2.91574E-05-2.97229E-05-4.35376E-06-1.01678E-18-2.34914E-19
 -1      2857 9.75183E-05-2.86870E-05-2.95061E-05-4.66108E-06-4.59416E-19 1.29177E-18
 -1      2858 1.00169E-04-3.02245E-05-2.99811E-05-4.68184E-06-9.47696E-19-1.16117E-18
 -1      2859 9.95491E-05-2.97942E-05-2.98861E-05-4.67549E-06-1.22638E-18-1.20763E-18
 -1      2860 9.83826E-05-2.92996E-05-2.96169E-05-5.12695E-06-9.83973E-19 3.42245E-19
 -1      2861 1.01566E-04-3.13198E-05-3.01186E-05-4.43036E-06-5.70081E-19-7.64166E-19
 -1      2862 1.00855E-04-3.07377E-05-3.00358E-05-4.66547E-06-4.46953E-19-5.84774E-19
 -1      2863 9.95694E-05-3.02702E-05-2.97134E-05-5.32195E-06-1.02810E-18 1.23824E-19
 -1      2864 1.03251E-04-3.27493E-05-3.02389E-05-3.54172E-06-1.37846E-18-4.63136E-19
 -1      2865 1.02476E-04-3.20309E-05-3.01703E-05-4.11980E-06-9.87855E-19-6.07471E-19
 -1      2866 1.01167E-04-3.16751E-05-2.98006E-05-5.05000E-06-7.73722E-19 3.62149E-19
 -1      2867 1.05157E-04-3.43963E-05-3.03617E-05-1.80339E-06-8.09548E-19-5.41370E-19
 -1      2868 1.04394E-04-3.36311E-05-3.03015E-05-2.80740E-06-1.16681E-18-5.50448E-19
 -1      2869 1.03231E-04-3.35128E-05-2.99008E-05-4.06630E-06-1.17842E-18 6.73955E-19
 -1      2870 1.07058E-04-3.59168E-05-3.05329E-05 9.02835E-07 7.19002E-19 2.04574E-19
 -1      2871 1.06457E-04-3.53158E-05-3.04636E-05-5.33891E-07 2.62038E-20-2.27094E-19
 -1      2872 1.05702E-04-3.55998E-05-3.00637E-05-2.11405E-06-5.54065E-19-9.88117E-20
 -1      2873 1.08496E-04-3.66647E-05-3.08238E-05 4.42079E-06 5.71540E-19 9.08238E-19
 -1      2874 1.08284E-04-3.65780E-05-3.07170E-05 2.71331E-06 1.14816E-18 1.06904E-18
 -1      2875 1.08282E-04-3.74320E-05-3.03721E-05 9.64884E-07 6.83943E-19 5.20032E-19
 -1      2876 1.08822E-04-3.58000E-05-3.13071E-05 8.06325E-06-1.55367E-18 4.56281E-19
 -1      2877 1.09232E-04-3.66142E-05-3.11361E-05 6.51284E-06-2.84955E-19 6.95686E-19
 -1      2878 1.10317E-04-3.81053E-05-3.09302E-05 4.98669E-06 2.44775E-19 1.11805E-18
 -1      2879 1.07528E-04-3.27817E-05-3.20006E-05 1.04670E-05-4.70091E-19 3.44246E-19
 -1      2880 1.08614E-04-3.46258E-05-3.17625E-05 9.75953E-06-1.47959E-18 2.37923E-19
 -1      2881 1.10892E-04-3.65671E-05-3.18107E-05 9.05487E-06-9.11663E-19-1.26610E-19
 -1      2882 1.04828E-04-2.81539E-05-3.27946E-05 9.95539E-06 3.26829E-19 7.13863E-19
 -1      2883 1.06257E-04-3.05295E-05-3.25428E-05 1.07649E-05 7.89064E-20 5.31512E-19
 -1      2884 1.09372E-04-3.23384E-05-3.29727E-05 1.14342E-05-5.15997E-19-4.32721E-19
 -1      2885 1.02114E-04-2.40350E-05-3.34101E-05 5.67736E-06 6.56001E-19 1.28375E-19
 -1      2886 1.03166E-04-2.57553E-05-3.32517E-05 8.09719E-06 8.13572E-19 4.63076E-19
 -1      2887 1.06274E-04-2.65875E-05-3.41526E-05 1.00619E-05 4.70722E-19-4.69230E-19
 -1      2888 1.01271E-04-2.29784E-05-3.35632E-05-9.83643E-07 1.27883E-18-2.20510E-19
 -1      2889 1.01329E-04-2.29933E-05-3.35801E-05 2.13271E-06 1.14962E-18-1.02934E-19
 -1      2890 1.03671E-04-2.23751E-05-3.48939E-05 4.41481E-06 1.27862E-18-1.09298E-18
 -1      2891 1.02950E-04-2.57304E-05-3.31744E-05-6.93807E-06 8.85037E-19-4.39713E-19
 -1      2892 1.02005E-04-2.40224E-05-3.33688E-05-4.53379E-06 1.44501E-18 2.82464E-19
 -1      2893 1.03617E-04-2.23810E-05-3.48741E-05-3.16288E-06 1.08078E-18-1.01676E-18
 -1      2894 1.05881E-04-3.04976E-05-3.24009E-05-9.56595E-06 3.74284E-19-9.01811E-19
 -1      2895 1.04564E-04-2.81294E-05-3.26910E-05-8.77937E-06 3.27391E-19-1.72758E-19
 -1      2896 1.06126E-04-2.66269E-05-3.40843E-05-8.81010E-06 9.77330E-19-8.46796E-19
 -1      2897 1.08110E-04-3.46245E-05-3.15508E-05-8.46754E-06-4.74597E-19-1.73936E-18
 -1      2898 1.07135E-04-3.27802E-05-3.18301E-05-9.23314E-06 1.92529E-19-6.15724E-19
 -1      2899 1.09147E-04-3.23932E-05-3.28562E-05-1.01383E-05 3.48048E-19-9.09363E-19
 -1      2900 1.08576E-04-3.66175E-05-3.08520E-05-5.07076E-06-7.50246E-19-1.87247E-18
 -1      2901 1.08286E-04-3.58179E-05-3.10632E-05-6.69956E-06-1.11102E-18-2.48923E-18
 -1      2902 1.10613E-04-3.66877E-05-3.16366E-05-7.64052E-06 1.57743E-20-3.04882E-20
 -1      2903 1.07435E-04-3.65230E-05-3.03770E-05-1.09707E-06-3.36914E-19-1.25427E-18
 -1      2904 1.07785E-04-3.66590E-05-3.05185E-05-2.88576E-06-2.27231E-19-1.35715E-18
 -1      2905 1.09949E-04-3.82490E-05-3.07063E-05-3.39009E-06-1.19265E-18-1.64375E-18
 -1      2906 1.05379E-04-3.51337E-05-3.00799E-05 2.29141E-06-1.01639E-19-1.32978E-18
 -1      2907 1.06136E-04-3.58197E-05-3.01792E-05 7.94237E-07-1.17640E-19-1.26260E-18
 -1      2908 1.07786E-04-3.75149E-05-3.01240E-05 8.09140E-07-5.81887E-20-1.02162E-18
 -1      2909 1.03049E-04-3.32349E-05-2.98932E-05 4.62383E-06 4.20324E-19-1.34725E-18
 -1      2910 1.03984E-04-3.41294E-05-2.99743E-05 3.60978E-06-2.39704E-19-1.35692E-18
 -1      2911 1.05037E-04-3.55350E-05-2.98078E-05 4.02062E-06-3.28550E-19-9.02106E-19
 -1      2912 1.00829E-04-3.13167E-05-2.97657E-05 5.84936E-06 9.23007E-19-3.09571E-19
 -1      2913 1.01787E-04-3.22174E-05-2.98412E-05 5.34323E-06 1.11925E-18-5.16835E-19
 -1      2914 1.02349E-04-3.31876E-05-2.96632E-05 6.00458E-06-1.32924E-19-5.84811E-19
 -1      2915 9.88773E-05-2.95961E-05-2.96705E-05 6.08096E-06-1.11805E-18 1.82221E-18
 -1      2916 9.97670E-05-3.04050E-05-2.97424E-05 6.04449E-06-3.33814E-19 1.44843E-18
 -1      2917 1.00012E-04-3.09508E-05-2.96156E-05 6.85459E-06-8.74663E-19 7.02793E-19
 -1      2918 9.72971E-05-2.81928E-05-2.95995E-05 5.72980E-06-1.68899E-18 2.48606E-18
 -1      2919 9.80949E-05-2.89056E-05-2.96606E-05 6.08956E-06-1.47856E-18 1.68964E-18
 -1      2920 9.81651E-05-2.90971E-05-2.96105E-05 6.97356E-06-1.51751E-18 6.44577E-19
 -1      2921 9.66953E-05-2.75049E-05-2.96571E-05 6.65209E-06-1.95281E-18-8.17710E-19
 -1      2922 8.85015E-05-1.95543E-05-2.95876E-05 4.06814E-06 2.06604E-19-3.06479E-20
 -1      2923 8.92934E-05-2.02262E-05-2.95844E-05 5.45342E-06 8.87315E-19 3.16585E-19
 -1      2924 9.23967E-05-2.32224E-05-2.96735E-05 8.11423E-06 2.53221E-20 1.31192E-18
 -1      2925 9.33787E-05-2.41575E-05-2.96458E-05 8.39123E-06-1.73905E-18 2.24112E-18
 -1      2926 8.74726E-05-1.85681E-05-2.95598E-05 4.89802E-07-1.11117E-18 3.52859E-20
 -1      2927 8.78247E-05-1.88521E-05-2.95601E-05 2.23348E-06-5.73386E-19 2.73003E-20
 -1      2928 8.73042E-05-1.96003E-05-2.89912E-05 3.66957E-06 3.26587E-19-9.24930E-19
 -1      2929 9.03107E-05-2.12519E-05-2.96341E-05 6.70308E-06 2.01763E-19 2.51143E-19
 -1      2930 9.13124E-05-2.21437E-05-2.96198E-05 7.55105E-06 7.81112E-19 5.79989E-19
 -1      2931 9.17462E-05-2.35330E-05-2.92401E-05 8.70529E-06-3.37308E-19 1.60732E-18
 -1      2932 8.92891E-05-2.13782E-05-2.90963E-05 6.86974E-06 3.08437E-19 6.11910E-19
 -1      2933 9.47154E-05-2.74112E-05-2.88475E-05 3.97502E-07 1.13304E-18-1.13622E-18
 -1      2934 9.48968E-05-2.71189E-05-2.90200E-05 1.00288E-06 1.29853E-18-1.02011E-18
 -1      2935 9.52494E-05-2.65004E-05-2.94703E-05 1.74536E-06 1.51720E-18-1.13520E-18
 -1      2936 9.51255E-05-2.73789E-05-2.90439E-05 3.84182E-07 1.13367E-18-1.12613E-18
 -1      2937 8.75733E-05-1.85957E-05-2.95732E-05-3.35126E-06-8.03236E-19-4.73405E-19
 -1      2938 8.73625E-05-1.84104E-05-2.95706E-05-1.58927E-06-1.29199E-18 9.64218E-19
 -1      2939 8.63852E-05-1.87189E-05-2.89667E-05-4.32532E-07-5.19331E-19-1.24640E-20
 -1      2940 8.88568E-05-1.96749E-05-2.96406E-05-6.83733E-06 1.66575E-18 9.93471E-19
 -1      2941 8.80895E-05-1.90325E-05-2.96302E-05-5.33204E-06 4.89759E-19 1.06760E-19
 -1      2942 8.68559E-05-1.90041E-05-2.90499E-05-4.69258E-06-2.97213E-19 1.05878E-18
 -1      2943 9.10814E-05-2.15816E-05-2.97614E-05-9.23230E-06 1.02653E-18 1.64038E-18
 -1      2944 8.99048E-05-2.06006E-05-2.97415E-05-8.29522E-06 1.88593E-18 1.21953E-18
 -1      2945 8.86944E-05-2.04103E-05-2.92461E-05-8.28898E-06 1.45653E-18 1.23175E-18
 -1      2946 3.16875E-05-1.40305E-05-7.21418E-06 1.06343E-05 4.97102E-20-4.46979E-18
 -1      2947 2.90831E-05-1.28252E-05-6.29010E-06-2.53060E-06-4.63909E-19-3.28924E-18
 -1      2948 1.29440E-04-8.46664E-06-5.23950E-05 4.23791E-07 1.89799E-18-8.28941E-19
 -1      2949 1.26642E-04-1.07039E-05-5.03193E-05-4.91800E-06 1.09119E-18-1.70336E-18
 -1      2950 1.34267E-04-3.28285E-05-4.38611E-05 1.09162E-05 1.76617E-18 2.56079E-18
 -1      2951 1.33569E-04-2.27418E-05-4.80836E-05 1.13643E-05 3.26849E-18 2.02547E-18
 -1      2952 9.00983E-05-4.77506E-05-1.77197E-05-3.92220E-05-6.77309E-19 1.12391E-19
 -1      2953 1.05390E-04-5.45307E-05-2.19119E-05-3.58606E-05-6.18016E-19 8.90615E-19
 -1      2954 9.96125E-05-5.17118E-05-2.00227E-05-3.52826E-05 9.12996E-19-5.72541E-20
 -1      2955 1.14676E-04-5.84696E-05-2.42716E-05-3.03643E-05 1.29691E-18 4.89420E-19
 -1      2956 1.30229E-04-1.62431E-05-4.95392E-05-8.81119E-06-1.73451E-18-4.81009E-19
 -1      2957 9.34967E-05-4.89531E-05-1.91150E-05 3.58669E-05 1.49724E-18 3.45219E-19
 -1      2958 7.44066E-05-3.81917E-05-1.50287E-05 3.59702E-05 1.69894E-18-2.54290E-18
 -1      2959 1.38129E-04-3.80818E-05-4.35069E-05-7.99109E-06 2.22558E-19-5.99064E-19
 -1      2960 1.38258E-04-4.63211E-05-3.95667E-05-3.44330E-06-7.22625E-20-2.82380E-19
 -1      2961 9.11862E-05-1.60942E-05-3.22102E-05 4.92428E-06 1.34678E-18-2.74032E-18
 -1      2962 9.08457E-05-1.55964E-05-3.22714E-05 4.00125E-06 8.96319E-19-2.99092E-18
 -1      2963 9.18255E-05-1.72081E-05-3.19635E-05 3.20415E-06 7.40875E-19-2.90202E-18
 -1      2964 9.24912E-05-1.82670E-05-3.17902E-05 4.62252E-06 1.29603E-18-2.36948E-18
 -1      2965 9.08122E-05-1.55512E-05-3.22765E-05-3.93784E-06-1.15915E-18-2.96888E-18
 -1      2966 9.11423E-05-1.60326E-05-3.22168E-05-4.86730E-06-1.43988E-18-2.80577E-18
 -1      2967 3.69626E-05-1.32954E-05-9.67683E-06 5.72448E-06-1.62135E-18 3.00061E-18
 -1      2968 3.51493E-05-1.40550E-05-8.40056E-06-8.17556E-06-1.14686E-18 2.39372E-18
 -1      2969 4.55346E-05-1.58452E-05-1.21337E-05-1.29118E-05 4.84238E-19 3.25049E-19
 -1      2970 1.41652E-04-5.47281E-05-3.71708E-05 1.74746E-06 2.96541E-19-1.49184E-18
 -1      2971 1.44097E-04-4.93201E-05-4.14060E-05 8.69902E-06-7.97482E-19-1.94765E-18
 -1      2972 1.30265E-04-1.88571E-05-4.83784E-05-1.05360E-05 8.32422E-19-1.20173E-18
 -1      2973 1.35023E-04-2.82531E-05-4.61145E-05-1.09195E-05 2.39393E-19-1.10707E-18
 -1      2974 1.18038E-04-5.79480E-05-2.59487E-05 2.70192E-05-2.90326E-18-1.03022E-18
 -1      2975 1.02719E-04-5.28830E-05-2.07516E-05 3.60782E-05-2.75370E-18-5.02529E-20
 -1      2976 1.24221E-04-6.11393E-05-2.73600E-05 2.24361E-05-1.63477E-19 2.40970E-18
 -1      2977 1.11328E-04-5.63949E-05-2.30971E-05 2.90169E-05 2.85344E-19 1.47436E-18
 -1      2978 1.35208E-04-5.43167E-05-3.45128E-05-4.51965E-06-2.16761E-19 1.05307E-18
 -1      2979 1.36313E-04-4.61435E-05-3.91931E-05 4.84643E-06 1.14122E-18 2.22717E-18
 -1      2980 1.18436E-04-5.79014E-05-2.55997E-05-2.73589E-05 1.51090E-19 1.25281E-18
 -1      2981 1.28282E-04-5.89647E-05-3.02259E-05-1.79559E-05-2.83915E-19 9.32901E-19
 -1      2982 1.12749E-04-5.53415E-05-2.43923E-05-2.85262E-05-4.89267E-19 1.16295E-18
 -1      2983 5.85055E-05-3.03350E-05-1.13959E-05-3.66353E-05-1.72138E-18-8.37292E-19
 -1      2984 7.34963E-05-3.91099E-05-1.45781E-05-4.10338E-05-1.03952E-18-1.46198E-18
 -1      2985 5.48121E-05-2.71650E-05-1.15531E-05 3.15665E-05 1.26335E-18-4.22521E-18
 -1      2986 4.07842E-05-1.90345E-05-8.63108E-06 2.21238E-05 1.11491E-18-4.87743E-18
 -1      2987 9.61880E-05-2.59665E-05-3.00798E-05-1.05530E-05-1.31241E-18-1.21874E-19
 -1      2988 9.57133E-05-2.55587E-05-3.00594E-05-9.80332E-06 4.06966E-19 8.54196E-19
 -1      2989 9.45203E-05-2.44678E-05-3.00378E-05-9.96702E-06 3.56694E-19 2.24707E-18
 -1      2990 9.49689E-05-2.52847E-05-2.98648E-05-1.14784E-05-1.35100E-18 2.11557E-18
 -1      2991 6.40844E-05-3.33915E-05-1.25802E-05-3.60134E-05 1.98100E-19 1.64642E-19
 -1      2992 8.09447E-05-4.30978E-05-1.62165E-05-3.92304E-05 2.65333E-19 3.41672E-19
 -1      2993 1.30258E-04-1.45555E-05-5.01655E-05 9.74662E-06 2.86509E-18 1.54351E-18
 -1      2994 1.30247E-04-9.80369E-06-5.22456E-05 5.02922E-06 2.40070E-18 1.14058E-19
 -1      2995 1.21933E-04-1.02702E-05-4.82341E-05 3.71188E-06 1.00373E-18-8.07447E-19
 -1      2996 1.26321E-04-1.97253E-05-4.60742E-05 1.16721E-05 2.23098E-18 1.12878E-18
 -1      2997 9.28466E-05-1.80080E-05-3.20735E-05-8.81844E-06-2.41509E-18-1.75767E-18
 -1      2998 1.27268E-04-6.10636E-05-2.80814E-05-2.02819E-05 7.62541E-19-6.57509E-19
 -1      2999 1.36654E-04-6.15236E-05-3.26765E-05-1.11297E-05 8.69797E-19-9.73347E-19
 -1      3000 1.37175E-04-5.45192E-05-3.57989E-05 4.24765E-06-1.91816E-18 2.30605E-19
 -1      3001 1.30578E-04-5.80059E-05-3.10914E-05 1.32364E-05-3.09098E-18-3.74124E-19
 -1      3002 1.41300E-04-5.69605E-05-3.65287E-05-6.86369E-07-7.13890E-20 2.07841E-18
 -1      3003 1.34519E-04-6.07834E-05-3.14062E-05 1.07676E-05-6.68362E-20 1.77496E-18
 -1      3004 9.55575E-05-2.46547E-05-3.03577E-05 5.51607E-06 2.23673E-18-8.71104E-19
 -1      3005 9.43907E-05-2.15372E-05-3.12246E-05 7.13222E-06 2.43706E-18-1.47070E-18
 -1      3006 9.46437E-05-2.25746E-05-3.08807E-05 5.61549E-06 2.25958E-18-1.56124E-18
 -1      3007 9.52059E-05-2.54758E-05-2.98974E-05 3.89447E-06 2.04584E-18-9.46206E-19
 -1      3008 9.15750E-05-1.66924E-05-3.21154E-05-5.58637E-06-1.66534E-18-2.64326E-18
 -1      3009 9.20469E-05-1.74403E-05-3.20210E-05-6.45561E-06-1.94797E-18-2.55968E-18
 -1      3010 9.24320E-05-1.81992E-05-3.18006E-05-4.56531E-06-1.54473E-18-2.46409E-18
 -1      3011 9.13050E-05-1.64000E-05-3.20900E-05 2.88952E-08-1.41266E-19-3.16397E-18
 -1      3012 9.01815E-05-1.46104E-05-3.24071E-05-3.83555E-07-2.27952E-19-3.25620E-18
 -1      3013 9.02377E-05-1.46907E-05-3.23970E-05-1.34256E-06-5.26568E-19-3.22607E-18
 -1      3014 9.52736E-05-2.50891E-05-3.00747E-05 3.74899E-06 2.01719E-18-1.34901E-18
 -1      3015 1.36560E-04-3.12068E-05-4.57098E-05-1.70456E-05-2.92544E-18 2.07523E-20
 -1      3016 6.21141E-05-2.90374E-05-1.35741E-05 3.32361E-05-2.68356E-18 2.14109E-18
 -1      3017 1.29055E-04-5.63801E-05-3.13755E-05 5.94788E-06-5.71681E-19 2.51820E-19
 -1      3018 1.32702E-04-5.40614E-05-3.36632E-05-2.98131E-06-2.58762E-19-5.62695E-19
 -1      3019 1.34869E-04-5.15776E-05-3.58180E-05-7.86514E-06-5.53602E-19 6.59627E-20
 -1      3020 1.31983E-04-3.34606E-05-4.25450E-05-1.12686E-05 6.46498E-19-7.65877E-19
 -1      3021 1.40879E-04-3.92630E-05-4.39160E-05 1.32848E-05-9.56194E-19-9.84358E-19
 -1      3022 9.32772E-05-4.61096E-05-1.98218E-05-3.41839E-05 9.52912E-19-5.75982E-20
 -1      3023 9.61813E-05-2.69834E-05-2.96421E-05 7.28241E-06-1.64912E-18-2.69444E-18
 -1      3024 9.68519E-05-2.78161E-05-2.95893E-05 7.61096E-06-2.48952E-18-1.34604E-18
 -1      3025 9.55521E-05-2.62913E-05-2.96908E-05 7.80071E-06-2.18480E-18-3.05286E-18
 -1      3026 1.33596E-04-4.02479E-05-4.03093E-05 1.03190E-05 1.37590E-18 1.60110E-18
 -1      3027 1.27498E-04-3.30060E-05-4.08343E-05 1.34871E-05 1.95183E-18 8.61909E-19
 -1      3028 1.30143E-04-4.48155E-05-3.67240E-05 7.36336E-06 1.45631E-18 1.20795E-18
 -1      3029 1.34521E-04-4.94784E-05-3.66036E-05-2.61560E-06-1.53956E-18-1.18505E-18
 -1      3030 3.66631E-05-1.39610E-05-9.08152E-06-1.03544E-05-1.50306E-18-1.84272E-18
 -1      3031 4.28642E-05-1.60570E-05-1.08137E-05 1.49716E-05 4.56657E-19-4.49478E-18
 -1      3032 9.38150E-05-2.39385E-05-2.99319E-05-1.01280E-05 1.36542E-19 2.31866E-18
 -1      3033 9.24605E-05-2.27770E-05-2.98965E-05-9.92868E-06 1.13894E-20 2.23536E-18
 -1      3034 1.18074E-04-1.20581E-05-4.59064E-05-5.68464E-06 9.21572E-19-1.08182E-18
 -1      3035 1.24867E-04-1.50175E-05-4.76256E-05-8.85648E-06 1.04577E-18-1.65775E-18
 -1      3036 1.22160E-04-1.93225E-05-4.42664E-05-1.10287E-05 1.26377E-18-1.04802E-18
 -1      3037 9.28652E-05-1.86382E-05-3.18084E-05-7.06824E-06-2.05274E-18-2.16695E-18
 -1      3038 9.42403E-05-2.09671E-05-3.14405E-05-7.73725E-06-2.38046E-18-1.30250E-18
 -1      3039 9.47442E-05-2.27758E-05-3.08482E-05-6.05116E-06-2.18075E-18-1.11850E-18
 -1      3040 9.35142E-05-2.00337E-05-3.14737E-05-5.74893E-06-1.84597E-18-2.14743E-18
 -1      3041 8.57303E-05-4.28521E-05-1.79954E-05-3.69521E-05-8.40892E-19-1.14159E-18
 -1      3042 6.80548E-05-3.22584E-05-1.48630E-05 3.32232E-05 1.34758E-18-3.25991E-18
 -1      3043 6.25898E-05-2.56491E-05-1.54495E-05 2.81374E-05 1.00109E-18-3.69899E-18
 -1      3044 7.97417E-05-3.67222E-05-1.85190E-05 3.15618E-05 1.36960E-18-1.96729E-18
 -1      3045 1.30147E-04-5.56328E-05-3.18897E-05-8.66587E-06 3.92785E-19 6.79691E-19
 -1      3046 1.29555E-04-5.97743E-05-2.97823E-05 1.26229E-05-1.42619E-19 1.55616E-18
 -1      3047 1.25562E-04-5.88130E-05-2.85236E-05 1.87242E-05-2.69272E-18 4.48266E-19
 -1      3048 1.16582E-04-5.52331E-05-2.62708E-05 2.28705E-05-1.56264E-18 1.15739E-19
 -1      3049 1.27634E-04-5.59145E-05-3.07865E-05 9.61386E-06-2.26366E-18 5.35616E-19
 -1      3050 6.26329E-05-2.81526E-05-1.41949E-05-3.07179E-05-2.35581E-20 2.04982E-19
 -1      3051 1.21209E-04-5.83605E-05-2.67999E-05-2.19995E-05 1.02496E-18-5.26722E-19
 -1      3052 1.04308E-04-5.14489E-05-2.23259E-05 2.93297E-05 1.11067E-18 7.99440E-19
 -1      3053 9.45878E-05-2.24156E-05-3.09110E-05-5.48169E-06-1.95182E-18-1.29859E-18
 -1      3054 1.37427E-04-5.69589E-05-3.45719E-05-1.55860E-06 2.26899E-19-1.31280E-18
 -1      3055 9.41523E-05-2.48906E-05-2.96985E-05 8.33983E-06-2.42831E-18 4.23043E-19
 -1      3056 9.49624E-05-2.57263E-05-2.96577E-05 8.15618E-06-2.36709E-18-1.14053E-18
 -1      3057 9.55573E-05-2.67081E-05-2.95090E-05 8.67831E-06-2.11764E-18-1.83387E-18
 -1      3058 9.39352E-05-2.53784E-05-2.93891E-05 9.14879E-06-1.29757E-18 1.72158E-18
 -1      3059 4.69142E-05-1.70899E-05-1.26460E-05 1.82722E-05-2.33363E-18 2.62421E-18
 -1      3060 4.14722E-05-1.46145E-05-1.08168E-05 1.19913E-05-2.26216E-18 3.63441E-18
 -1      3061 4.46813E-05-1.32013E-05-1.31294E-05 4.42319E-06-1.05542E-18 1.74753E-18
 -1      3062 9.03624E-05-1.48818E-05-3.23691E-05-2.18025E-06-6.78932E-19-3.11100E-18
 -1      3063 9.05456E-05-1.51449E-05-3.23365E-05-3.13274E-06-9.50623E-19-3.07925E-18
 -1      3064 9.17959E-05-1.71697E-05-3.19689E-05-3.14255E-06-1.03295E-18-2.78836E-18
 -1      3065 9.14223E-05-1.65832E-05-3.20611E-05-1.58515E-06-5.55108E-19-2.95807E-18
 -1      3066 5.50794E-05-2.56124E-05-1.20719E-05-3.17930E-05-1.41793E-18-3.12238E-19
 -1      3067 9.42745E-05-4.68348E-05-1.99612E-05 3.53467E-05-2.52522E-18 4.10573E-19
 -1      3068 9.15085E-05-2.25714E-05-2.95379E-05-1.05198E-05 1.97790E-19 9.25345E-19
 -1      3069 9.42775E-05-2.18537E-05-3.10602E-05 4.97957E-06 1.86578E-18-1.67979E-18
 -1      3070 9.38208E-05-2.09126E-05-3.12469E-05 4.63429E-06 1.55655E-18-1.83878E-18
 -1      3071 8.83970E-05-2.10362E-05-2.88378E-05-9.80075E-06 5.50810E-19 6.55513E-19
 -1      3072 8.69209E-05-2.00867E-05-2.86867E-05-8.27110E-06 1.07317E-18 1.62600E-18
 -1      3073 1.21940E-04-5.56137E-05-2.80860E-05 1.50354E-05-6.12206E-19 8.31985E-19
 -1      3074 8.09216E-05-3.76610E-05-1.82169E-05-3.44809E-05-1.82387E-18-8.26704E-19
 -1      3075 9.49951E-05-4.62294E-05-2.08719E-05-3.38887E-05-1.24138E-18 2.54957E-19
 -1      3076 1.25788E-04-2.95010E-05-4.18782E-05-1.27249E-05 1.61995E-19-1.38236E-18
 -1      3077 1.29419E-04-3.70931E-05-3.96513E-05-1.14683E-05-6.14099E-20-1.91906E-18
 -1      3078 9.55119E-05-2.55724E-05-2.99560E-05-2.15678E-06-1.44522E-18-1.36037E-18
 -1      3079 9.55366E-05-2.62657E-05-2.97007E-05-1.34495E-06-1.20255E-18-1.25418E-18
 -1      3080 9.56850E-05-2.68773E-05-2.94740E-05-7.52093E-07-1.12521E-18-1.12960E-18
 -1      3081 9.56601E-05-2.73245E-05-2.92949E-05-2.25990E-07-1.06604E-18-1.14579E-18
 -1      3082 9.57097E-05-2.61938E-05-2.97929E-05-1.17747E-06-1.17098E-18-1.43956E-18
 -1      3083 9.57047E-05-2.77083E-05-2.91301E-05 1.56016E-07-1.06422E-18-1.00114E-18
 -1      3084 9.56682E-05-2.79924E-05-2.90084E-05 4.73754E-07-1.04154E-18-1.18280E-18
 -1      3085 9.59045E-05-2.73258E-05-2.93938E-05-1.68384E-07-9.70531E-19-1.19021E-18
 -1      3086 9.56604E-05-2.82274E-05-2.88920E-05 6.98992E-07-1.02042E-18-1.12987E-18
 -1      3087 9.56289E-05-2.84043E-05-2.88126E-05 8.71815E-07-8.07138E-19-1.17010E-18
 -1      3088 9.59459E-05-2.80446E-05-2.91042E-05 4.72507E-07-1.01931E-18-9.08762E-19
 -1      3089 9.55965E-05-2.85407E-05-2.87331E-05 9.87086E-07-5.43916E-19-1.27437E-18
 -1      3090 9.55745E-05-2.86454E-05-2.86843E-05 1.06428E-06-4.57335E-19-1.25139E-18
 -1      3091 9.59114E-05-2.84855E-05-2.89003E-05 8.40487E-07-6.96545E-19-1.25004E-18
 -1      3092 9.55319E-05-2.87154E-05-2.86327E-05 1.10750E-06-3.72425E-19-1.10232E-18
 -1      3093 9.55190E-05-2.87702E-05-2.86060E-05 1.12597E-06-3.70089E-19-1.03657E-18
 -1      3094 9.58418E-05-2.87375E-05-2.87620E-05 1.02042E-06-3.01763E-19-1.24678E-18
 -1      3095 9.54735E-05-2.87947E-05-2.85753E-05 1.12658E-06-3.87369E-19-9.07093E-19
 -1      3096 9.54680E-05-2.88144E-05-2.85645E-05 1.11353E-06-2.70902E-19-9.54029E-19
 -1      3097 9.57581E-05-2.88592E-05-2.86735E-05 1.08066E-06-2.86878E-19-1.25958E-18
 -1      3098 9.54230E-05-2.88070E-05-2.85495E-05 1.09380E-06-2.02087E-19-9.48493E-19
 -1      3099 9.54229E-05-2.88013E-05-2.85503E-05 1.06926E-06-2.59498E-19-1.01087E-18
 -1      3100 9.56709E-05-2.88897E-05-2.86225E-05 1.07397E-06-2.42575E-19-1.12198E-18
 -1      3101 9.53795E-05-2.87708E-05-2.85472E-05 1.04588E-06-3.90057E-19-7.35165E-19
 -1      3102 9.53835E-05-2.87460E-05-2.85568E-05 1.02481E-06-3.32435E-19-8.81275E-19
 -1      3103 9.55849E-05-2.88551E-05-2.86001E-05 1.04030E-06-3.29123E-19-1.03622E-18
 -1      3104 9.53412E-05-2.86976E-05-2.85628E-05 1.01052E-06-2.29969E-19-8.35855E-19
 -1      3105 9.53481E-05-2.86572E-05-2.85793E-05 1.00446E-06-8.76907E-20-6.10836E-19
 -1      3106 9.55009E-05-2.87716E-05-2.85995E-05 1.00987E-06-1.00872E-19-5.23890E-19
 -1      3107 9.53056E-05-2.85935E-05-2.85927E-05 1.00935E-06-1.89202E-19-6.58722E-19
 -1      3108 9.53146E-05-2.85393E-05-2.86152E-05 1.02774E-06-3.96576E-19-6.68980E-19
 -1      3109 9.54173E-05-2.86487E-05-2.86160E-05 1.00611E-06-1.69176E-19-6.36063E-19
 -1      3110 9.52693E-05-2.84605E-05-2.86346E-05 1.06029E-06-7.06117E-19-6.41648E-19
 -1      3111 9.52798E-05-2.83928E-05-2.86627E-05 1.11143E-06-8.08804E-19-7.75408E-19
 -1      3112 9.53304E-05-2.84901E-05-2.86463E-05 1.04800E-06-7.17305E-19-4.89834E-19
 -1      3113 9.52284E-05-2.82977E-05-2.86875E-05 1.17932E-06-8.67559E-19-9.36202E-19
 -1      3114 9.52395E-05-2.82154E-05-2.87210E-05 1.27111E-06-1.05013E-18-1.23086E-18
 -1      3115 9.52345E-05-2.82956E-05-2.86882E-05 1.15192E-06-1.04992E-18-5.57687E-19
 -1      3116 9.51776E-05-2.81014E-05-2.87505E-05 1.38177E-06-8.97701E-19-1.17909E-18
 -1      3117 9.51884E-05-2.80027E-05-2.87897E-05 1.52216E-06-8.49943E-19-9.96972E-19
 -1      3118 9.51219E-05-2.80613E-05-2.87399E-05 1.33296E-06-7.65559E-19-2.04086E-19
 -1      3119 9.51101E-05-2.78661E-05-2.88232E-05 1.68312E-06-8.98344E-19-7.23538E-19
 -1      3120 9.51190E-05-2.77486E-05-2.88683E-05 1.88038E-06-7.00090E-19-5.27856E-19
 -1      3121 9.49826E-05-2.77811E-05-2.87998E-05 1.60582E-06-5.69524E-19-7.36230E-19
 -1      3122 9.50169E-05-2.75853E-05-2.89047E-05 2.09939E-06-4.97631E-19-3.40314E-19
 -1      3123 9.50216E-05-2.74465E-05-2.89554E-05 2.36199E-06-2.18421E-19-3.34361E-19
 -1      3124 9.48039E-05-2.74469E-05-2.88656E-05 1.98518E-06-5.42629E-19-2.38200E-19
 -1      3125 9.48869E-05-2.72525E-05-2.89929E-05 2.64694E-06-2.28119E-19-4.15658E-19
 -1      3126 9.48843E-05-2.70911E-05-2.90482E-05 2.98330E-06 7.08514E-20-4.31554E-19
 -1      3127 9.45697E-05-2.70508E-05-2.89340E-05 2.48571E-06-1.11328E-19-2.75771E-19
 -1      3128 9.47063E-05-2.68638E-05-2.90836E-05 3.34200E-06 2.67805E-19-4.42055E-19
 -1      3129 9.46931E-05-2.66812E-05-2.91412E-05 3.75972E-06 6.70852E-19-9.20271E-19
 -1      3130 9.42609E-05-2.65862E-05-2.89993E-05 3.12170E-06 1.48286E-19-3.34159E-19
 -1      3131 9.44605E-05-2.64217E-05-2.91695E-05 4.19971E-06 8.02511E-19-9.82112E-19
 -1      3132 9.44344E-05-2.62252E-05-2.92250E-05 4.70453E-06 2.57183E-19-5.46375E-19
 -1      3133 9.38556E-05-2.60523E-05-2.90527E-05 3.90660E-06 5.71488E-19-1.68434E-19
 -1      3134 9.41374E-05-2.59426E-05-2.92383E-05 5.23307E-06-5.40619E-19-2.18292E-19
 -1      3135 9.41012E-05-2.57508E-05-2.92845E-05 5.82750E-06-6.91773E-19 2.26317E-19
 -1      3136 9.33325E-05-2.54602E-05-2.90802E-05 4.85308E-06 3.54606E-19-6.91857E-20
 -1      3137 9.37357E-05-2.54692E-05-2.92710E-05 6.45242E-06-5.41376E-19 1.25134E-19
 -1      3138 9.37047E-05-2.53215E-05-2.92968E-05 7.13422E-06-1.70838E-19 3.18951E-20
 -1      3139 9.26765E-05-2.48436E-05-2.90611E-05 5.97434E-06-3.41484E-19-8.83760E-21
 -1      3140 9.32824E-05-2.50910E-05-2.92403E-05 7.86639E-06-1.68303E-19-6.06526E-19
 -1      3141 9.32993E-05-2.50624E-05-2.92307E-05 8.62716E-06-2.46391E-19-1.19568E-18
 -1      3142 9.18918E-05-2.42771E-05-2.89660E-05 7.28884E-06-4.73008E-19-7.63207E-19
 -1      3143 9.28642E-05-2.49771E-05-2.91100E-05 9.48554E-06-2.50619E-20-1.04281E-18
 -1      3144 9.30247E-05-2.52005E-05-2.90471E-05 1.03090E-05 1.85144E-19-7.74192E-19
 -1      3145 9.10266E-05-2.39033E-05-2.87557E-05 8.83072E-06-2.53793E-19-1.31159E-18
 -1      3146 9.26842E-05-2.54232E-05-2.88384E-05 1.13267E-05 2.03899E-19-6.84452E-19
 -1      3147 9.31771E-05-2.61186E-05-2.87070E-05 1.21828E-05 1.35874E-19-6.17659E-19
 -1      3148 9.02172E-05-2.39764E-05-2.83821E-05 1.06675E-05 2.60440E-19-4.25487E-19
 -1      3149 9.31529E-05-2.69109E-05-2.83905E-05 1.34060E-05 1.24999E-19-6.27789E-19
 -1      3150 9.43187E-05-2.84101E-05-2.81920E-05 1.42249E-05 1.37677E-19-1.81513E-19
 -1      3151 8.97643E-05-2.49226E-05-2.77964E-05 1.29168E-05 2.80914E-19-6.92997E-19
 -1      3152 9.50372E-05-3.01722E-05-2.77672E-05 1.56950E-05-1.03886E-19-5.27440E-19
 -1      3153 9.73757E-05-3.29115E-05-2.75510E-05 1.62929E-05 2.35414E-19-7.40310E-20
 -1      3154 9.02461E-05-2.74060E-05-2.69683E-05 1.57503E-05-1.14835E-19 1.61065E-19
 -1      3155 9.96200E-05-3.60592E-05-2.70951E-05 1.77307E-05 4.46223E-20-3.45411E-19
 -1      3156 1.03701E-04-4.03484E-05-2.70304E-05 1.77083E-05-2.39419E-19-6.83910E-19
 -1      3157 9.29302E-05-3.24939E-05-2.59346E-05 1.93422E-05-9.41993E-20-5.47236E-19
 -1      3158 1.08294E-04-4.50919E-05-2.68185E-05 1.84531E-05 2.90383E-19-3.72992E-19
 -1      3159 1.14339E-04-5.02900E-05-2.73328E-05 1.67728E-05-6.81332E-20 1.17413E-19
 -1      3160 1.10773E-04-5.23190E-05-2.52547E-05 2.39590E-05 1.48151E-19 7.36892E-19
 -1      3161 9.90355E-05-4.10215E-05-2.51089E-05 2.27623E-05 3.89569E-19-1.08447E-19
 -1      3162 1.29290E-04-2.48545E-05-4.55267E-05-1.59604E-05-3.01406E-18-1.21120E-18
 -1      3163 1.27450E-04-1.78928E-05-4.73739E-05-1.02041E-05-2.20694E-18-9.38857E-19
 -1      3164 9.52769E-05-2.85493E-05-2.85977E-05-1.09556E-06 5.23923E-19-8.62334E-19
 -1      3165 9.52866E-05-2.84497E-05-2.86388E-05-1.01761E-06 4.74488E-19-9.90157E-19
 -1      3166 1.11128E-04-4.71661E-05-2.73641E-05-1.83902E-05 1.29124E-18-1.27894E-18
 -1      3167 1.05927E-04-4.22317E-05-2.71124E-05-1.95431E-05 1.06071E-18-1.09800E-18
 -1      3168 1.02151E-04-3.80135E-05-2.74097E-05-1.87266E-05 3.20351E-19-1.29069E-18
 -1      3169 9.87694E-05-3.43214E-05-2.75387E-05-1.86652E-05-2.25681E-19-1.12463E-18
 -1      3170 9.84123E-05-3.85902E-05-2.57452E-05-2.25741E-05 8.93626E-19-3.16473E-19
 -1      3171 9.71226E-05-3.16725E-05-2.79875E-05-1.73704E-05-4.73554E-19-1.69151E-18
 -1      3172 9.52324E-05-2.93507E-05-2.82095E-05-1.67752E-05-4.92216E-19-1.35149E-18
 -1      3173 9.34626E-05-3.13619E-05-2.66876E-05-1.96083E-05-6.66751E-19-1.94610E-18
 -1      3174 9.47558E-05-2.78461E-05-2.86309E-05-1.55119E-05-7.88894E-19-6.32428E-19
 -1      3175 9.37709E-05-2.64755E-05-2.88362E-05-1.46835E-05-5.91970E-19-1.25154E-18
 -1      3176 9.16034E-05-2.71154E-05-2.76913E-05-1.66866E-05-5.60978E-19-1.03553E-18
 -1      3177 9.53197E-05-2.83255E-05-2.87134E-05-8.92870E-07 6.63904E-19-1.12810E-18
 -1      3178 9.53502E-05-2.81635E-05-2.87854E-05-7.14454E-07 6.69545E-19-1.15534E-18
 -1      3179 9.56489E-05-2.84125E-05-2.88198E-05-8.74329E-07 4.44486E-19-1.01920E-18
 -1      3180 9.53720E-05-2.79515E-05-2.88983E-05-4.69513E-07 7.31458E-19-1.13954E-18
 -1      3181 9.54258E-05-2.76957E-05-2.90143E-05-1.36500E-07 8.87035E-19-1.04454E-18
 -1      3182 9.56950E-05-2.80014E-05-2.90165E-05-4.72920E-07 6.85670E-19-1.15926E-18
 -1      3183 8.46828E-05-1.86298E-05-2.83287E-05-1.32868E-06 7.25226E-20 1.04102E-18
 -1      3184 8.48456E-05-1.87856E-05-2.83147E-05 8.89524E-07 4.90723E-19-3.64837E-19
 -1      3185 9.52320E-05-2.87257E-05-2.85014E-05-1.14157E-06 4.53554E-19-7.45442E-19
 -1      3186 9.52162E-05-2.86991E-05-2.85059E-05-1.15842E-06 6.24854E-19-7.44576E-19
 -1      3187 9.52261E-05-2.87301E-05-2.84965E-05-1.08865E-06 4.99532E-19-4.36124E-19
 -1      3188 9.52038E-05-2.87254E-05-2.84906E-05-1.11849E-06 5.38347E-19-4.23597E-19
 -1      3189 9.54718E-05-2.88159E-05-2.85689E-05-1.12143E-06 3.32372E-19-9.64205E-19
 -1      3190 9.52282E-05-2.86991E-05-2.85104E-05-1.03206E-06 2.80245E-20-2.56893E-19
 -1      3191 9.52017E-05-2.87105E-05-2.84969E-05-1.06000E-06 1.77258E-19-4.30444E-19
 -1      3192 9.54219E-05-2.88004E-05-2.85537E-05-1.07847E-06 2.63008E-19-3.71709E-19
 -1      3193 9.52367E-05-2.86415E-05-2.85384E-05-9.95949E-07 1.84327E-19-1.57942E-19
 -1      3194 9.52068E-05-2.86652E-05-2.85191E-05-1.01085E-06 3.11986E-19 6.84104E-21
 -1      3195 9.53777E-05-2.87433E-05-2.85588E-05-1.03514E-06 4.12464E-20-4.27083E-19
 -1      3196 9.52507E-05-2.85627E-05-2.85778E-05-9.98995E-07 3.56269E-19-6.28582E-19
 -1      3197 9.52175E-05-2.85962E-05-2.85536E-05-9.92186E-07 3.22795E-19-4.40791E-19
 -1      3198 9.53380E-05-2.86545E-05-2.85796E-05-1.01535E-06 4.27036E-19-5.17672E-19
 -1      3199 9.52705E-05-2.84665E-05-2.86272E-05-1.05630E-06 1.95999E-19-6.90360E-19
 -1      3200 9.52329E-05-2.85079E-05-2.85984E-05-1.02071E-06 2.83547E-19-7.32402E-19
 -1      3201 9.53012E-05-2.85401E-05-2.86127E-05-1.03780E-06 3.86500E-19-7.88038E-19
 -1      3202 9.52971E-05-2.83553E-05-2.86858E-05-1.18066E-06-1.09133E-19-4.26081E-19
 -1      3203 9.52533E-05-2.84030E-05-2.86524E-05-1.11029E-06-1.00860E-19-6.54729E-19
 -1      3204 9.52661E-05-2.84034E-05-2.86561E-05-1.11784E-06-5.13688E-21-1.01505E-18
 -1      3205 9.53331E-05-2.82322E-05-2.87535E-05-1.38311E-06 3.04157E-19-5.94797E-19
 -1      3206 9.52804E-05-2.82842E-05-2.87152E-05-1.27287E-06 2.53820E-19-3.41177E-19
 -1      3207 9.52317E-05-2.82471E-05-2.87083E-05-1.26858E-06-1.14476E-19-8.73006E-19
 -1      3208 9.53826E-05-2.81021E-05-2.88299E-05-1.67287E-06 1.75202E-19-4.97730E-19
 -1      3209 9.53172E-05-2.81551E-05-2.87866E-05-1.51877E-06 2.40574E-19-4.55266E-19
 -1      3210 9.51983E-05-2.80743E-05-2.87679E-05-1.50148E-06 1.08312E-19-1.08317E-18
 -1      3211 9.54526E-05-2.79737E-05-2.89144E-05-2.05645E-06 3.16002E-19-4.75369E-19
 -1      3212 9.53693E-05-2.80222E-05-2.88661E-05-1.85620E-06 4.17242E-19-4.38426E-19
 -1      3213 9.51680E-05-2.78907E-05-2.88336E-05-1.82623E-06 2.87099E-19-1.02061E-18
 -1      3214 9.55545E-05-2.78621E-05-2.90053E-05-2.53588E-06-1.66941E-19-5.93383E-19
 -1      3215 9.54459E-05-2.78974E-05-2.89525E-05-2.29003E-06 1.01742E-19-4.12318E-19
 -1      3216 9.51466E-05-2.77073E-05-2.89032E-05-2.24991E-06 4.57339E-20-6.83010E-19
 -1      3217 9.57065E-05-2.77924E-05-2.90999E-05-3.10581E-06-4.86898E-19 7.33954E-19
 -1      3218 9.55622E-05-2.78003E-05-2.90438E-05-2.81950E-06-2.75930E-19 1.00069E-19
 -1      3219 9.51457E-05-2.75432E-05-2.89735E-05-2.77538E-06-5.18057E-19 4.57982E-19
 -1      3220 9.59371E-05-2.78042E-05-2.91935E-05-3.74943E-06 1.61340E-19 1.28646E-18
 -1      3221 9.57423E-05-2.77632E-05-2.91362E-05-3.43480E-06-1.81387E-19 9.35449E-19
 -1      3222 9.51866E-05-2.74307E-05-2.90399E-05-3.39862E-06-5.19056E-19 1.05896E-18
 -1      3223 9.62906E-05-2.79561E-05-2.92801E-05-4.43272E-06-1.84605E-19 1.48065E-18
 -1      3224 9.60239E-05-2.78352E-05-2.92246E-05-4.11219E-06 3.93800E-19 1.57891E-18
 -1      3225 9.53049E-05-2.74201E-05-2.90966E-05-4.10501E-06-1.76209E-19 1.48070E-18
 -1      3226 9.68330E-05-2.83304E-05-2.93530E-05-5.09701E-06-2.43789E-19 1.01134E-18
 -1      3227 9.64643E-05-2.80872E-05-2.93026E-05-4.80728E-06-1.81927E-19 1.55443E-18
 -1      3228 9.55582E-05-2.75856E-05-2.91366E-05-4.86399E-06-4.35031E-20 1.11293E-18
 -1      3229 9.76575E-05-2.90336E-05-2.94067E-05-5.64924E-06-1.20754E-18 5.48790E-19
 -1      3230 9.71471E-05-2.86156E-05-2.93643E-05-5.44606E-06-2.91715E-19 9.40458E-19
 -1      3231 9.60344E-05-2.80310E-05-2.91537E-05-5.62147E-06-9.12053E-20 1.33259E-18
 -1      3232 9.88853E-05-3.01871E-05-2.94421E-05-5.95010E-06-1.29490E-18 8.20132E-19
 -1      3233 9.81866E-05-2.95385E-05-2.94073E-05-5.91299E-06-1.53988E-18 3.34999E-19
 -1      3234 9.68598E-05-2.88890E-05-2.91459E-05-6.28840E-06-1.07549E-18 8.43773E-19
 -1      3235 1.00652E-04-3.18955E-05-2.94734E-05-5.80106E-06-1.10565E-18 8.02809E-19
 -1      3236 9.97229E-05-3.09779E-05-2.94393E-05-6.03619E-06-7.89924E-19 4.73949E-19
 -1      3237 9.82021E-05-3.03089E-05-2.91214E-05-6.72383E-06-1.15235E-18 5.78602E-19
 -1      3238 1.03062E-04-3.41747E-05-2.95398E-05-4.93662E-06-1.51196E-18 8.01310E-19
 -1      3239 1.01895E-04-3.30098E-05-2.94872E-05-5.57241E-06-1.34137E-18 7.32908E-19
 -1      3240 1.00255E-04-3.24160E-05-2.91091E-05-6.71068E-06-1.20464E-18 8.50104E-19
 -1      3241 1.06088E-04-3.68172E-05-2.97189E-05-3.04272E-06-8.57621E-20 1.36644E-19
 -1      3242 1.04763E-04-3.55624E-05-2.96109E-05-4.20493E-06-4.24940E-19 5.30275E-19
 -1      3243 1.03180E-04-3.52156E-05-2.91734E-05-5.92924E-06-8.93458E-19 9.92815E-19
 -1      3244 1.09403E-04-3.91979E-05-3.01341E-05 1.44323E-07 1.96230E-19 1.14317E-18
 -1      3245 1.08162E-04-3.82422E-05-2.99154E-05-1.59573E-06-7.58798E-20 3.28092E-19
 -1      3246 1.06972E-04-3.84127E-05-2.94312E-05-3.95866E-06-8.22060E-20 2.11202E-19
 -1      3247 1.12204E-04-4.01192E-05-3.09421E-05 4.55583E-06 1.41928E-19 9.31076E-19
 -1      3248 1.11484E-04-4.01228E-05-3.05497E-05 2.41944E-06 7.66888E-19 1.37018E-18
 -1      3249 1.11214E-04-4.11517E-05-3.00601E-05-3.92614E-07-1.35950E-19 7.28063E-19
 -1      3250 1.13249E-04-3.80234E-05-3.22574E-05 9.24341E-06-5.24437E-19-2.17252E-19
 -1      3251 1.13526E-04-3.96775E-05-3.16659E-05 7.36459E-06-1.82833E-19 5.26358E-19
 -1      3252 1.14790E-04-4.18187E-05-3.12753E-05 4.78170E-06 7.08484E-19 1.62670E-19
 -1      3253 1.11583E-04-3.21732E-05-3.40183E-05 1.20495E-05 1.72715E-20-1.12221E-18
 -1      3254 1.13024E-04-3.56010E-05-3.32823E-05 1.14717E-05-1.08396E-19-1.31246E-18
 -1      3255 1.15974E-04-3.84264E-05-3.32150E-05 1.02947E-05 6.82616E-19-3.28066E-19
 -1      3256 1.07914E-04-2.43498E-05-3.57848E-05 1.03202E-05 1.13776E-18-1.98590E-18
 -1      3257 1.09794E-04-2.81897E-05-3.51388E-05 1.19748E-05 3.13578E-19-1.80689E-18
 -1      3258 1.13896E-04-3.08560E-05-3.56018E-05 1.28513E-05 4.50489E-19-2.01506E-18
 -1      3259 1.05140E-04-1.93780E-05-3.67879E-05 3.14162E-06 1.21303E-18-2.23749E-18
 -1      3260 1.05924E-04-2.10218E-05-3.65475E-05 6.75892E-06 1.60578E-18-1.73816E-18
 -1      3261 1.09538E-04-2.14580E-05-3.78288E-05 9.63659E-06 7.43907E-19-3.28813E-18
 -1      3262 1.05915E-04-2.10433E-05-3.65135E-05-5.55656E-06 7.68272E-19-1.16712E-18
 -1      3263 1.05097E-04-1.93513E-05-3.67768E-05-1.87112E-06 5.81263E-19-1.76038E-18
 -1      3264 1.07528E-04-1.76365E-05-3.86542E-05 6.84707E-07 7.68603E-19-2.66148E-18
 -1      3265 1.09603E-04-2.81752E-05-3.50905E-05-1.06775E-05 6.91258E-19-8.86776E-19
 -1      3266 1.07858E-04-2.43654E-05-3.57547E-05-8.94915E-06 7.40532E-19-7.55357E-19
 -1      3267 1.09673E-04-2.20158E-05-3.76799E-05-8.19946E-06 5.52610E-19-1.75471E-18
 -1      3268 1.12919E-04-3.57592E-05-3.31965E-05-1.01637E-05 2.27688E-19-7.03994E-19
 -1      3269 1.11602E-04-3.22786E-05-3.39569E-05-1.07752E-05 3.57567E-19-4.23641E-19
 -1      3270 1.13877E-04-3.09237E-05-3.55421E-05-1.16904E-05 3.68843E-19-8.96392E-19
 -1      3271 1.13485E-04-3.99541E-05-3.15299E-05-5.89512E-06-2.66476E-19-7.97525E-19
 -1      3272 1.13277E-04-3.82588E-05-3.21526E-05-7.84420E-06 8.63047E-20-1.55065E-18
 -1      3273 1.16149E-04-3.87656E-05-3.31184E-05-9.01019E-06 3.75183E-19-1.77800E-18
 -1      3274 1.11386E-04-4.04032E-05-3.03893E-05-7.48516E-07-9.51521E-19-1.93714E-18
 -1      3275 1.12189E-04-4.04219E-05-3.07924E-05-2.96471E-06-6.97819E-19-1.43273E-18
 -1      3276 1.15027E-04-4.21307E-05-3.12098E-05-3.46255E-06-4.25615E-19-1.39217E-18
 -1      3277 1.08017E-04-3.84692E-05-2.97573E-05 3.43428E-06-3.82684E-19-1.03080E-18
 -1      3278 1.09327E-04-3.94771E-05-2.99811E-05 1.61665E-06-4.19458E-19-1.33848E-18
 -1      3279 1.11444E-04-4.15964E-05-2.99879E-05 2.07388E-06-1.03771E-18-2.41219E-18
 -1      3280 1.04500E-04-3.56106E-05-2.94776E-05 6.17669E-06-7.55995E-19-5.89815E-19
 -1      3281 1.05921E-04-3.69835E-05-2.95786E-05 4.97069E-06 9.09022E-20-9.74124E-19
 -1      3282 1.07223E-04-3.87795E-05-2.93866E-05 5.87631E-06-6.51764E-19-1.34549E-18
 -1      3283 1.01459E-04-3.27415E-05-2.94130E-05 7.54769E-06-3.15429E-19-3.39586E-19
 -1      3284 1.02746E-04-3.40889E-05-2.94428E-05 6.93664E-06-8.95021E-19-1.16463E-18
 -1      3285 1.03347E-04-3.53448E-05-2.91928E-05 7.96262E-06-4.69115E-19-9.82911E-19
 -1      3286 9.90644E-05-3.02415E-05-2.94678E-05 7.83308E-06-8.65296E-19-6.65365E-19
 -1      3287 1.00126E-04-3.14122E-05-2.94572E-05 7.73799E-06-7.03551E-19-1.77850E-18
 -1      3288 1.00283E-04-3.21463E-05-2.92343E-05 8.72208E-06-5.99810E-19-1.97819E-18
 -1      3289 9.75033E-05-2.85885E-05-2.95190E-05 7.79460E-06-2.28228E-18-1.19248E-18
 -1      3290 9.82903E-05-2.94614E-05-2.95039E-05 7.85273E-06-1.33399E-18-1.05175E-18
 -1      3291 9.82220E-05-2.98029E-05-2.93416E-05 8.77234E-06-1.13967E-18-3.40544E-18
 -1      3292 9.68127E-05-2.80523E-05-2.94744E-05 8.48157E-06-1.98558E-18-1.81690E-18
 -1      3293 4.95485E-05-1.95234E-05-1.23597E-05-2.54587E-05-1.72538E-18 1.78089E-19
 -1      3294 6.34877E-05-2.73928E-05-1.52465E-05-3.17698E-05-1.50428E-18-9.69217E-19
 -1      3295 8.55266E-05-1.94692E-05-2.83511E-05 3.40918E-06-4.17530E-19-1.23720E-18
 -1      3296 8.64978E-05-2.01757E-05-2.83998E-05 5.35458E-06 7.36914E-19-1.28169E-18
 -1      3297 8.39067E-05-1.91990E-05-2.76970E-05 2.65074E-06 4.96805E-20-8.70252E-19
 -1      3298 1.41707E-04-2.69072E-05-4.96570E-05-1.35274E-05-3.44488E-18 7.57565E-19
 -1      3299 1.06098E-04-5.13373E-05-2.30917E-05-2.95739E-05-7.59365E-19 2.05280E-19
 -1      3300 1.15968E-04-5.54657E-05-2.62262E-05-2.32719E-05-2.11758E-20 2.58345E-19
 -1      3301 1.00856E-04-4.69421E-05-2.28797E-05-2.86569E-05-1.06366E-18 1.53366E-19
 -1      3302 5.09593E-05-1.74902E-05-1.40766E-05 1.89096E-05 1.61148E-19-4.18487E-18
 -1      3303 4.37760E-05-1.27752E-05-1.27838E-05 8.00382E-06-6.85647E-19-3.46415E-18
 -1      3304 8.57085E-05-1.92104E-05-2.84934E-05-6.08286E-06 1.01633E-18 2.22107E-18
 -1      3305 8.49763E-05-1.87576E-05-2.84079E-05-3.97734E-06 3.28528E-19 1.49142E-18
 -1      3306 8.34418E-05-1.86304E-05-2.77401E-05-2.72992E-06 1.46258E-18 1.40816E-18
 -1      3307 8.52157E-05-1.96996E-05-2.80481E-05-7.74508E-06 1.04625E-18 1.93405E-18
 -1      3308 1.32180E-04-5.85876E-05-3.12939E-05-7.57703E-06 6.83450E-19-1.66241E-18
 -1      3309 1.38151E-04-1.86913E-05-5.19084E-05-1.14569E-05-2.67493E-18 3.08214E-19
 -1      3310 8.64038E-05-3.93564E-05-1.97237E-05-3.24255E-05 9.66015E-19-1.06589E-18
 -1      3311 1.01143E-04-4.80416E-05-2.29104E-05-3.02159E-05 1.34546E-18-3.90509E-19
 -1      3312 4.06320E-05-1.17240E-05-1.20947E-05-2.50264E-06-1.65985E-18-2.13177E-18
 -1      3313 4.25340E-05-1.42428E-05-1.17667E-05-1.59370E-05-2.38628E-18-2.82062E-19
 -1      3314 5.23891E-05-1.66850E-05-1.47946E-05-1.75933E-05-2.36207E-18-6.27916E-19
 -1      3315 4.91004E-05-1.43564E-05-1.46041E-05-8.54437E-06 1.02491E-19 1.67310E-18
 -1      3316 5.30659E-05-1.78007E-05-1.47294E-05-1.89429E-05-9.97646E-20 4.39822E-19
 -1      3317 1.25174E-04-5.60350E-05-2.93315E-05-1.29593E-05 1.95545E-19-1.41613E-20
 -1      3318 1.28759E-04-5.26852E-05-3.29095E-05-2.07009E-06 6.83721E-19 4.40801E-19
 -1      3319 9.49297E-05-2.34782E-05-3.06175E-05-4.12943E-06-1.75465E-18-1.70146E-18
 -1      3320 9.51562E-05-2.45935E-05-3.02594E-05-2.97534E-06-1.63625E-18-1.62343E-18
 -1      3321 9.52503E-05-2.44995E-05-3.03275E-05-2.62976E-06-1.44220E-18-1.69445E-18
 -1      3322 9.52480E-05-2.86723E-05-2.85317E-05-1.15851E-06 5.81599E-19-6.30387E-19
 -1      3323 9.52425E-05-2.86155E-05-2.85513E-05-1.14203E-06 6.34088E-19-7.36015E-19
 -1      3324 9.55886E-05-2.86519E-05-2.86906E-05-1.06907E-06 5.07225E-19-8.37549E-19
 -1      3325 9.20934E-05-2.36005E-05-2.93289E-05-1.17947E-05 5.32320E-19 1.41096E-18
 -1      3326 9.02101E-05-2.23667E-05-2.91224E-05-1.10705E-05 6.55745E-19 3.42515E-19
 -1      3327 8.87836E-05-2.20177E-05-2.85901E-05-1.13062E-05 4.04540E-19 7.78365E-19
 -1      3328 9.40600E-05-2.13189E-05-3.11983E-05-5.28578E-06-1.79586E-18-2.12474E-18
 -1      3329 9.45086E-05-2.24343E-05-3.08888E-05-4.62772E-06-1.76857E-18-1.83599E-18
 -1      3330 9.34453E-05-2.01055E-05-3.14274E-05-4.88469E-06-1.65990E-18-2.36540E-18
 -1      3331 1.31178E-04-4.50455E-05-3.73350E-05-7.14594E-06-2.01806E-19-1.81318E-18
 -1      3332 1.30422E-04-5.08047E-05-3.41744E-05-1.04657E-06-1.26617E-18-8.09128E-19
 -1      3333 1.26799E-04-4.05174E-05-3.70304E-05-1.00247E-05-1.45557E-19-2.28222E-18
 -1      3334 1.01053E-04-4.81949E-05-2.27468E-05 3.06775E-05-2.17507E-18-7.64791E-19
 -1      3335 8.61113E-05-3.98324E-05-1.92478E-05 3.43121E-05-2.60987E-18 1.59774E-18
 -1      3336 7.06223E-05-3.19510E-05-1.66632E-05 3.38793E-05-2.73322E-18 2.65990E-18
 -1      3337 5.84942E-05-2.33225E-05-1.44007E-05 2.78053E-05-2.32452E-18 2.10382E-18
 -1      3338 9.71365E-05-4.46644E-05-2.19241E-05 2.89286E-05 1.12992E-18-2.19408E-19
 -1      3339 6.01978E-05-2.31508E-05-1.55308E-05-2.56755E-05-2.40610E-19 2.41404E-20
 -1      3340 7.24023E-05-3.16502E-05-1.74141E-05-3.19658E-05-1.68454E-19-2.74174E-19
 -1      3341 6.33390E-05-2.12203E-05-1.76677E-05-2.07990E-05-3.33705E-19 6.26063E-19
 -1      3342 1.13596E-04-5.39526E-05-2.51637E-05-2.49273E-05 9.72579E-19-5.13924E-19
 -1      3343 1.23623E-04-5.78895E-05-2.84378E-05-1.74158E-05 9.27819E-19-1.42002E-18
 -1      3344 1.24706E-04-5.59032E-05-2.94942E-05-1.22202E-05 8.08864E-19-9.93980E-19
 -1      3345 1.06032E-04-4.81909E-05-2.46539E-05-2.54021E-05 1.10615E-18-5.37204E-19
 -1      3346 9.23884E-05-1.83480E-05-3.17467E-05 1.81492E-06 3.99271E-19-2.99563E-18
 -1      3347 9.22696E-05-1.81461E-05-3.17790E-05 1.06004E-06 7.49233E-20-3.12485E-18
 -1      3348 9.52274E-05-2.43589E-05-3.03733E-05 4.20328E-06 1.98910E-18-1.37876E-18
 -1      3349 9.46396E-05-2.27339E-05-3.08065E-05 4.78492E-06 1.97610E-18-1.52562E-18
 -1      3350 9.49180E-05-2.35889E-05-3.05694E-05 3.68686E-06 1.67997E-18-1.40981E-18
 -1      3351 9.52403E-05-2.52041E-05-3.00297E-05 3.01377E-06 1.70412E-18-1.33654E-18
 -1      3352 9.22096E-05-1.80457E-05-3.17976E-05 4.09454E-07-8.03798E-20-3.05611E-18
 -1      3353 9.22068E-05-1.80413E-05-3.17981E-05-3.59584E-07-2.66538E-19-2.94465E-18
 -1      3354 9.31632E-05-1.96288E-05-3.14971E-05 6.29641E-07-4.29950E-20-2.90427E-18
 -1      3355 9.25612E-05-1.86424E-05-3.16903E-05 2.42656E-06 6.35514E-19-2.80262E-18
 -1      3356 9.33753E-05-2.00173E-05-3.14202E-05 1.80615E-06 4.97724E-19-2.67949E-18
 -1      3357 9.27978E-05-1.90568E-05-3.16223E-05 3.12895E-06 8.98401E-19-2.52298E-18
 -1      3358 1.18752E-04-5.36522E-05-2.78411E-05-1.58742E-05 1.52492E-19 1.75362E-19
 -1      3359 7.41573E-05-3.21411E-05-1.76938E-05-3.25154E-05-1.76013E-18-1.08611E-18
 -1      3360 8.36136E-05-3.55869E-05-2.03414E-05-2.96132E-05-2.19829E-18 7.98858E-20
 -1      3361 6.73431E-05-2.57955E-05-1.76488E-05-2.76392E-05-1.56389E-18-8.13893E-19
 -1      3362 8.13338E-05-3.47757E-05-1.96622E-05 3.04768E-05-2.20530E-18 1.87475E-18
 -1      3363 8.30967E-05-3.43083E-05-2.05717E-05-2.87890E-05 1.37775E-19-1.09299E-18
 -1      3364 9.56973E-05-2.73351E-05-2.93035E-05 2.31372E-07 1.09310E-18-1.00822E-18
 -1      3365 9.54134E-05-2.73455E-05-2.91787E-05 2.80477E-07 1.10472E-18-1.03762E-18
 -1      3366 9.54729E-05-2.69375E-05-2.93570E-05 8.41326E-07 1.29814E-18-1.02060E-18
 -1      3367 5.71747E-05-1.99319E-05-1.55177E-05 2.05643E-05-1.95638E-18 2.58806E-18
 -1      3368 1.18393E-04-5.19085E-05-2.81701E-05-1.60538E-05 1.02365E-18-1.71897E-18
 -1      3369 9.09219E-05-2.44541E-05-2.85284E-05-1.39246E-05 5.74302E-19 7.59359E-19
 -1      3370 9.34377E-05-2.53578E-05-2.91603E-05-1.34018E-05-1.35959E-19-5.44616E-21
 -1      3371 9.30464E-05-2.45383E-05-2.93547E-05-1.24371E-05 1.61831E-19 1.74733E-18
 -1      3372 9.55278E-05-2.87744E-05-2.86114E-05-1.13244E-06 6.36471E-19-7.39987E-19
 -1      3373 9.09725E-05-2.38897E-05-2.87870E-05 9.38179E-06-2.48632E-19 3.13761E-18
 -1      3374 9.24557E-05-2.49778E-05-2.88874E-05 9.89787E-06-1.34660E-18 1.98407E-18
 -1      3375 1.29359E-04-4.95060E-05-3.42562E-05 3.63439E-06 1.45073E-18 1.20972E-18
 -1      3376 1.26059E-04-4.37789E-05-3.54139E-05 8.58083E-06 1.39443E-18 3.90588E-19
 -1      3377 1.25030E-04-5.09283E-05-3.18463E-05-1.24479E-06 1.54884E-18 2.91604E-19
 -1      3378 5.04892E-05-1.38266E-05-1.56929E-05 3.15913E-06-8.10377E-19 9.64029E-19
 -1      3379 4.94180E-05-1.34553E-05-1.49094E-05-3.27513E-06 3.29549E-20 1.06573E-18
 -1      3380 5.56148E-05-1.49601E-05-1.71875E-05-8.71355E-06-1.55225E-19 1.11221E-18
 -1      3381 8.78973E-05-2.14461E-05-2.85263E-05 7.18726E-06 2.07845E-19 5.12853E-19
 -1      3382 8.93331E-05-2.24786E-05-2.86138E-05 8.46910E-06 4.94604E-20 1.67904E-18
 -1      3383 8.98205E-05-2.39609E-05-2.82326E-05 9.92292E-06-5.60481E-19 2.33513E-18
 -1      3384 8.63176E-05-2.12140E-05-2.78877E-05 7.16167E-06-3.33652E-20-5.21362E-19
 -1      3385 1.22206E-04-3.25141E-05-3.85950E-05 1.30943E-05 1.69115E-18-1.05568E-18
 -1      3386 1.22461E-04-2.64956E-05-4.14897E-05 1.43909E-05 1.71349E-18-5.41042E-19
 -1      3387 1.14797E-04-1.15429E-05-4.48007E-05-9.52287E-07 4.33469E-19-1.67432E-18
 -1      3388 1.13211E-04-1.43060E-05-4.26791E-05-3.73986E-06 6.41310E-19-1.62369E-18
 -1      3389 9.43683E-05-2.19931E-05-3.09920E-05 3.64760E-06 1.43926E-18-1.73587E-18
 -1      3390 9.34401E-05-2.02197E-05-3.14065E-05 4.24270E-06 1.39754E-18-2.09104E-18
 -1      3391 9.30787E-05-1.95545E-05-3.15205E-05 3.65875E-06 1.04848E-18-2.25342E-18
 -1      3392 9.39402E-05-2.43080E-05-2.98339E-05-1.09132E-05-3.47183E-19 2.82821E-18
 -1      3393 1.20715E-04-2.44850E-05-4.15246E-05-1.18818E-05 5.00755E-19-1.61233E-18
 -1      3394 1.26578E-04-4.95755E-05-3.29747E-05-1.64855E-06-7.12368E-19-7.21090E-19
 -1      3395 1.28498E-04-5.39524E-05-3.20799E-05 4.17967E-06-1.32647E-18-3.17479E-19
 -1      3396 1.23486E-04-5.37484E-05-2.98915E-05 9.57760E-06-1.02865E-18 8.56350E-19
 -1      3397 9.41251E-05-2.47613E-05-2.97387E-05-1.16056E-05-3.83707E-19 2.19381E-18
 -1      3398 9.02039E-05-3.89673E-05-2.15598E-05 2.74590E-05 9.14849E-19-1.12669E-18
 -1      3399 6.00597E-05-2.11960E-05-1.61566E-05 2.24539E-05 5.16955E-19-4.10477E-18
 -1      3400 5.93967E-05-1.77124E-05-1.76306E-05 1.65178E-05-4.03770E-19-3.44414E-18
 -1      3401 6.93853E-05-2.56467E-05-1.88313E-05 2.47664E-05 7.39751E-19-3.06864E-18
 -1      3402 1.19138E-04-1.91912E-05-4.32062E-05 1.19066E-05 1.40258E-18-9.40260E-19
 -1      3403 1.15645E-04-1.24866E-05-4.46541E-05 4.57102E-06 6.55604E-19-1.38469E-18
 -1      3404 9.44800E-05-2.23606E-05-3.09031E-05-4.01426E-06-1.57141E-18-2.11556E-18
 -1      3405 4.90353E-05-1.29831E-05-1.49803E-05 2.44963E-06-1.29868E-18-1.58459E-18
 -1      3406 9.37125E-05-2.59534E-05-2.90575E-05 9.94779E-06-1.69178E-18 1.66955E-18
 -1      3407 9.47623E-05-2.67185E-05-2.91458E-05 9.84475E-06-1.95857E-18 1.13563E-18
 -1      3408 9.31026E-05-2.63687E-05-2.86223E-05 1.07859E-05-1.61590E-18 1.98084E-18
 -1      3409 1.09059E-04-4.87504E-05-2.59937E-05-2.26705E-05 1.33847E-18-4.15642E-19
 -1      3410 9.25377E-05-1.86081E-05-3.16952E-05-2.38129E-06-8.31134E-19-2.63910E-18
 -1      3411 9.27650E-05-1.89983E-05-3.16287E-05-3.08165E-06-1.20423E-18-2.50127E-18
 -1      3412 1.10067E-04-5.15437E-05-2.48181E-05 2.58409E-05-8.25645E-19-4.38439E-20
 -1      3413 1.01358E-04-4.56432E-05-2.38986E-05 2.66391E-05-1.07976E-18 7.11878E-19
 -1      3414 1.15569E-04-5.24730E-05-2.70636E-05 1.87912E-05-1.01313E-18 1.27205E-18
 -1      3415 9.28718E-05-1.91632E-05-3.15999E-05-3.68114E-06-1.31802E-18-2.40745E-18
 -1      3416 9.32098E-05-1.97758E-05-3.14911E-05-4.29142E-06-1.59228E-18-2.32306E-18
 -1      3417 9.38423E-05-2.09382E-05-3.12322E-05-3.94181E-06-1.48867E-18-2.21864E-18
 -1      3418 9.35858E-05-2.04380E-05-3.13341E-05-2.87026E-06-1.22725E-18-2.26406E-18
 -1      3419 9.53855E-05-2.65024E-05-2.95310E-05 1.38009E-06 1.36990E-18-1.09438E-18
 -1      3420 9.54265E-05-2.58846E-05-2.97904E-05 2.24087E-06 1.48958E-18-1.19699E-18
 -1      3421 9.53449E-05-2.51652E-05-3.00728E-05 2.61938E-06 1.49237E-18-1.25508E-18
 -1      3422 9.55872E-05-2.63987E-05-2.96547E-05 1.24881E-06 1.30053E-18-1.05129E-18
 -1      3423 9.60474E-05-2.69093E-05-2.96208E-05-4.49992E-07-8.04844E-19-1.49957E-18
 -1      3424 9.60956E-05-2.74021E-05-2.94477E-05-3.59172E-08-8.97885E-19-1.31033E-18
 -1      3425 9.61774E-05-2.78189E-05-2.92890E-05 2.45006E-07-9.74014E-19-1.19294E-18
 -1      3426 9.61730E-05-2.81333E-05-2.91643E-05 5.01085E-07-8.89708E-19-1.18794E-18
 -1      3427 9.62839E-05-2.74518E-05-2.95000E-05 1.37437E-08-9.29397E-19-1.48562E-18
 -1      3428 9.61807E-05-2.83904E-05-2.90474E-05 6.67061E-07-8.38844E-19-1.10329E-18
 -1      3429 9.61504E-05-2.85816E-05-2.89602E-05 8.08532E-07-5.53963E-19-1.11861E-18
 -1      3430 9.63729E-05-2.82000E-05-2.92186E-05 4.81674E-07-8.53120E-19-1.13321E-18
 -1      3431 9.61146E-05-2.87270E-05-2.88766E-05 8.92001E-07-3.89622E-19-1.26441E-18
 -1      3432 9.60732E-05-2.88319E-05-2.88182E-05 9.56557E-07-3.08183E-19-1.37774E-18
 -1      3433 9.63467E-05-2.86559E-05-2.90124E-05 7.50292E-07-6.34137E-19-1.21447E-18
 -1      3434 9.60132E-05-2.88991E-05-2.87609E-05 9.86392E-07-1.02059E-19-1.59444E-18
 -1      3435 9.59683E-05-2.89432E-05-2.87245E-05 1.00399E-06-1.13900E-19-1.43889E-18
 -1      3436 9.62533E-05-2.89035E-05-2.88664E-05 8.80572E-07-3.13162E-19-1.54028E-18
 -1      3437 9.58959E-05-2.89554E-05-2.86877E-05 1.00324E-06-1.56967E-19-1.22607E-18
 -1      3438 9.58510E-05-2.89562E-05-2.86679E-05 9.96831E-07-1.25891E-19-1.25914E-18
 -1      3439 9.61235E-05-2.90033E-05-2.87678E-05 9.24087E-07 1.05614E-20-1.62682E-18
 -1      3440 9.57726E-05-2.89291E-05-2.86471E-05 9.83332E-07-1.37325E-19-1.04996E-18
 -1      3441 9.57289E-05-2.88981E-05-2.86401E-05 9.70311E-07-1.26899E-19-7.10966E-19
 -1      3442 9.59752E-05-2.89976E-05-2.87064E-05 9.21716E-07-9.58838E-20-1.08039E-18
 -1      3443 9.56472E-05-2.88417E-05-2.86316E-05 9.57746E-07-1.72145E-19-7.82499E-19
 -1      3444 9.56045E-05-2.87860E-05-2.86345E-05 9.51411E-07-4.79304E-20-7.51225E-19
 -1      3445 9.58173E-05-2.89145E-05-2.86740E-05 9.05105E-07-5.94554E-20-8.89416E-19
 -1      3446 9.55192E-05-2.87059E-05-2.86356E-05 9.50396E-07-2.52886E-20-1.06042E-18
 -1      3447 9.54760E-05-2.86293E-05-2.86463E-05 9.61234E-07-2.84249E-19-9.92087E-19
 -1      3448 9.56523E-05-2.87717E-05-2.86640E-05 8.98674E-07-3.20212E-19-1.23511E-18
 -1      3449 9.53848E-05-2.85277E-05-2.86550E-05 9.80313E-07-4.12969E-19-7.28803E-19
 -1      3450 9.53387E-05-2.84315E-05-2.86721E-05 1.01703E-06-6.10562E-19-5.13282E-19
 -1      3451 9.54777E-05-2.85782E-05-2.86716E-05 9.21633E-07 7.89720E-21-1.29654E-18
 -1      3452 9.52370E-05-2.83080E-05-2.86865E-05 1.06344E-06-8.60141E-19-1.65416E-19
 -1      3453 9.51847E-05-2.81911E-05-2.87089E-05 1.13369E-06-7.98387E-19-1.13529E-19
 -1      3454 9.52868E-05-2.83369E-05-2.86927E-05 9.89705E-07-5.69311E-19-7.41603E-19
 -1      3455 9.50664E-05-2.80433E-05-2.87276E-05 1.21391E-06-7.74423E-19 4.11398E-20
 -1      3456 9.50032E-05-2.79034E-05-2.87543E-05 1.32484E-06-6.43845E-19 6.20033E-20
 -1      3457 9.50692E-05-2.80452E-05-2.87237E-05 1.11634E-06-5.80691E-19-4.99771E-19
 -1      3458 9.48602E-05-2.77271E-05-2.87756E-05 1.44492E-06-6.13738E-19-9.56561E-20
 -1      3459 9.47803E-05-2.75606E-05-2.88055E-05 1.60347E-06-5.34872E-19-3.70242E-19
 -1      3460 9.48107E-05-2.76970E-05-2.87613E-05 1.31354E-06-6.57423E-19-3.63083E-19
 -1      3461 9.46023E-05-2.73509E-05-2.88275E-05 1.76922E-06-3.66559E-19-1.18786E-19
 -1      3462 9.44985E-05-2.71535E-05-2.88591E-05 1.98211E-06-2.48953E-19-2.14045E-20
 -1      3463 9.44934E-05-2.72833E-05-2.88014E-05 1.59238E-06-3.43012E-19 1.18175E-19
 -1      3464 9.42731E-05-2.69049E-05-2.88788E-05 2.19901E-06-2.89287E-19 2.55540E-19
 -1      3465 9.41363E-05-2.66730E-05-2.89098E-05 2.47265E-06 1.24868E-19 8.09297E-20
 -1      3466 9.40949E-05-2.67940E-05-2.88389E-05 1.96291E-06-9.99228E-20 3.10920E-19
 -1      3467 9.38486E-05-2.63807E-05-2.89231E-05 2.74580E-06 5.37776E-19-4.22101E-19
 -1      3468 9.36681E-05-2.61120E-05-2.89497E-05 3.08598E-06 3.41959E-19-4.50765E-19
 -1      3469 9.35883E-05-2.62190E-05-2.88665E-05 2.43397E-06 1.08750E-19-7.38331E-20
 -1      3470 9.33008E-05-2.57735E-05-2.89505E-05 3.42015E-06 4.06305E-19-3.83800E-20
 -1      3471 9.30651E-05-2.54696E-05-2.89667E-05 3.83191E-06 9.96037E-19 4.89798E-20
 -1      3472 9.29419E-05-2.55513E-05-2.88733E-05 3.01306E-06 5.32160E-19-1.07932E-20
 -1      3473 9.25991E-05-2.50873E-05-2.89463E-05 4.23216E-06 8.07668E-19 2.04763E-20
 -1      3474 9.22980E-05-2.47575E-05-2.89432E-05 4.72008E-06 3.63153E-19 2.42662E-19
 -1      3475 9.21197E-05-2.47909E-05-2.88439E-05 3.70702E-06 7.47402E-19 4.32071E-19
 -1      3476 9.17137E-05-2.43429E-05-2.88888E-05 5.19369E-06-5.53296E-19-2.09746E-19
 -1      3477 9.13428E-05-2.40100E-05-2.88535E-05 5.76345E-06-7.53740E-19-7.30288E-19
 -1      3478 9.10829E-05-2.39507E-05-2.87561E-05 4.52461E-06-2.47794E-19-7.71267E-20
 -1      3479 9.06229E-05-2.35907E-05-2.87474E-05 6.32444E-06-7.41084E-19-9.63201E-19
 -1      3480 9.01923E-05-2.33012E-05-2.86623E-05 6.98683E-06-6.15317E-19-9.57503E-19
 -1      3481 8.97939E-05-2.30664E-05-2.85786E-05 5.48329E-06-8.46129E-19-1.00885E-18
 -1      3482 8.93274E-05-2.29302E-05-2.84801E-05 7.66527E-06-4.09206E-19-1.28869E-18
 -1      3483 8.88786E-05-2.27690E-05-2.83221E-05 8.44449E-06 1.08560E-19-1.02271E-18
 -1      3484 8.82233E-05-2.22098E-05-2.82680E-05 6.62372E-06-6.00518E-19-1.10505E-18
 -1      3485 8.78761E-05-2.25401E-05-2.80314E-05 9.30378E-06 3.56967E-19-9.85140E-19
 -1      3486 8.75124E-05-2.26551E-05-2.77734E-05 1.02500E-05 1.35162E-19-9.73812E-19
 -1      3487 8.63626E-05-2.15098E-05-2.77657E-05 8.03818E-06 4.18757E-19-1.55049E-18
 -1      3488 8.64188E-05-2.27288E-05-2.73325E-05 1.14150E-05 2.86701E-21-7.51848E-19
 -1      3489 8.63536E-05-2.33706E-05-2.69492E-05 1.26174E-05 2.09442E-19-7.45446E-19
 -1      3490 8.42479E-05-2.11853E-05-2.69938E-05 9.92046E-06 1.63900E-19-1.31045E-18
 -1      3491 8.53030E-05-2.40017E-05-2.63096E-05 1.42715E-05-7.32171E-20-8.72537E-19
 -1      3492 8.59032E-05-2.55752E-05-2.57851E-05 1.58891E-05-1.91160E-19-1.15517E-18
 -1      3493 8.20437E-05-2.16214E-05-2.58510E-05 1.26443E-05 2.93634E-19-1.77378E-18
 -1      3494 8.61633E-05-3.36238E-05-2.21272E-05 2.51903E-05 6.16958E-19-1.37381E-18
 -1      3495 8.79129E-05-2.25718E-05-2.79847E-05-1.27605E-05 7.73391E-19 5.31837E-19
 -1      3496 8.55558E-05-2.11979E-05-2.76254E-05-1.14504E-05 7.55838E-19-8.65603E-20
 -1      3497 8.81358E-05-2.37329E-05-2.75532E-05-1.43251E-05 5.56726E-19 2.80489E-19
 -1      3498 8.89104E-05-2.96178E-05-2.52997E-05-2.03869E-05-4.86356E-19-2.37796E-18
 -1      3499 8.75089E-05-2.70022E-05-2.59028E-05-1.86570E-05-4.62640E-19-1.76757E-18
 -1      3500 8.78330E-05-2.58156E-05-2.65063E-05-1.69962E-05 2.22928E-19-1.57575E-18
 -1      3501 8.74882E-05-2.43486E-05-2.70437E-05-1.55499E-05 6.50904E-19-2.14226E-19
 -1      3502 8.39278E-05-2.24344E-05-2.63990E-05-1.43693E-05 1.17751E-18-6.89082E-19
 -1      3503 8.28501E-05-2.41760E-05-2.51986E-05-1.73939E-05 5.88776E-19-1.81081E-18
 -1      3504 9.59284E-05-2.85063E-05-2.88973E-05-8.49966E-07 4.17661E-19-1.18045E-18
 -1      3505 9.59591E-05-2.83219E-05-2.89808E-05-6.95417E-07 5.33543E-19-1.10981E-18
 -1      3506 9.59573E-05-2.80749E-05-2.90969E-05-5.04355E-07 6.86056E-19-1.06820E-18
 -1      3507 9.59751E-05-2.77756E-05-2.92194E-05-2.21845E-07 7.78852E-19-8.98294E-19
 -1      3508 9.61902E-05-2.81351E-05-2.91689E-05-4.93636E-07 6.00687E-19-1.09279E-18
 -1      3509 9.56889E-05-2.88965E-05-2.86240E-05-1.05811E-06 2.96003E-19-6.17639E-19
 -1      3510 9.57170E-05-2.88871E-05-2.86402E-05-1.06794E-06 2.92673E-19-6.57111E-19
 -1      3511 9.54285E-05-2.86550E-05-2.86148E-05-9.87035E-07 2.45562E-19-7.26497E-19
 -1      3512 9.54483E-05-2.87121E-05-2.86025E-05-9.84763E-07 2.68269E-19-6.34238E-19
 -1      3513 9.53429E-05-2.85041E-05-2.86426E-05-1.02633E-06 3.46514E-19-5.64467E-19
 -1      3514 9.53615E-05-2.85752E-05-2.86245E-05-9.99722E-07 4.60247E-19-5.64309E-19
 -1      3515 9.54615E-05-2.86262E-05-2.86444E-05-9.66687E-07 2.25877E-19-7.81429E-19
 -1      3516 9.52542E-05-2.83262E-05-2.86805E-05-1.12439E-06-3.10281E-19-7.20863E-19
 -1      3517 9.52722E-05-2.84096E-05-2.86577E-05-1.06630E-06-1.63761E-20-5.89945E-19
 -1      3518 9.53250E-05-2.84362E-05-2.86670E-05-1.02308E-06 1.94174E-19-1.81710E-19
 -1      3519 9.51596E-05-2.81234E-05-2.87265E-05-1.29410E-06-1.33070E-19-3.94735E-19
 -1      3520 9.51774E-05-2.82178E-05-2.86997E-05-1.19833E-06-1.30040E-19-4.04419E-19
 -1      3521 9.51785E-05-2.82137E-05-2.86992E-05-1.13931E-06-3.65632E-19-4.44427E-19
 -1      3522 9.50573E-05-2.78991E-05-2.87785E-05-1.54696E-06 2.08174E-19-8.40890E-19
 -1      3523 9.50743E-05-2.80023E-05-2.87485E-05-1.40815E-06 8.53032E-20-7.35183E-19
 -1      3524 9.50172E-05-2.79611E-05-2.87380E-05-1.32830E-06 1.32075E-19-3.76986E-19
 -1      3525 9.49475E-05-2.76593E-05-2.88337E-05-1.89305E-06 1.15226E-19-1.02988E-18
 -1      3526 9.49620E-05-2.77672E-05-2.88016E-05-1.70684E-06 1.37167E-19-1.14518E-18
 -1      3527 9.48373E-05-2.76818E-05-2.87802E-05-1.60200E-06 3.48003E-19-7.43261E-19
 -1      3528 9.48346E-05-2.74164E-05-2.88889E-05-2.34038E-06-5.28934E-19 1.11999E-19
 -1      3529 9.48424E-05-2.75214E-05-2.88561E-05-2.10394E-06-1.17788E-19-4.45068E-19
 -1      3530 9.46373E-05-2.73834E-05-2.88221E-05-1.97145E-06-5.39036E-19-3.54141E-19
 -1      3531 9.47299E-05-2.71927E-05-2.89393E-05-2.89354E-06-1.03820E-18 2.93469E-19
 -1      3532 9.47231E-05-2.72818E-05-2.89080E-05-2.60649E-06-7.86411E-19-1.59177E-19
 -1      3533 9.44206E-05-2.70808E-05-2.88589E-05-2.44643E-06-7.63294E-19-1.32945E-19
 -1      3534 9.46567E-05-2.70254E-05-2.89789E-05-3.55163E-06-4.64304E-19-3.10980E-20
 -1      3535 9.46213E-05-2.70776E-05-2.89519E-05-3.21746E-06-6.14084E-19-2.50826E-20
 -1      3536 9.41992E-05-2.68009E-05-2.88842E-05-3.03461E-06-6.19194E-19-6.86553E-19
 -1      3537 9.46557E-05-2.69728E-05-2.90001E-05-4.30540E-06-2.10297E-19 2.01756E-19
 -1      3538 9.45686E-05-2.69559E-05-2.89809E-05-3.93333E-06-5.72414E-19 3.71616E-19
 -1      3539 9.39992E-05-2.65883E-05-2.88904E-05-3.74025E-06-6.46910E-19-1.00915E-18
 -1      3540 9.47946E-05-2.71213E-05-2.89949E-05-5.13291E-06-2.73250E-19 2.54907E-19
 -1      3541 9.46194E-05-2.69886E-05-2.89871E-05-4.74060E-06-5.48295E-20 1.05175E-19
 -1      3542 9.38677E-05-2.65122E-05-2.88686E-05-4.56230E-06-2.53256E-19-6.89802E-19
 -1      3543 9.51783E-05-2.75914E-05-2.89566E-05-5.99293E-06-7.58716E-19 1.07359E-18
 -1      3544 9.48607E-05-2.72792E-05-2.89630E-05-5.61040E-06-4.71592E-19 7.56610E-19
 -1      3545 9.38842E-05-2.66742E-05-2.88097E-05-5.49105E-06-7.53204E-19-4.08611E-19
 -1      3546 9.59607E-05-2.85398E-05-2.88843E-05-6.81336E-06-1.09454E-18 9.70810E-19
 -1      3547 9.54247E-05-2.79680E-05-2.89041E-05-6.48928E-06-8.10558E-19 1.17692E-18
 -1      3548 9.41737E-05-2.72162E-05-2.87075E-05-6.50170E-06-8.29756E-19 2.15807E-19
 -1      3549 9.73496E-05-3.01482E-05-2.87904E-05-7.47122E-06-8.42802E-19 6.87037E-19
 -1      3550 9.64996E-05-2.92290E-05-2.88155E-05-7.28260E-06-1.03230E-18 7.03422E-19
 -1      3551 9.49223E-05-2.83232E-05-2.85636E-05-7.54041E-06-8.43188E-19 1.87038E-19
 -1      3552 9.95954E-05-3.25827E-05-2.87133E-05-7.75852E-06-1.56806E-18 6.02219E-19
 -1      3553 9.83316E-05-3.12486E-05-2.87215E-05-7.82520E-06-9.99236E-19 6.75366E-19
 -1      3554 9.63898E-05-3.02120E-05-2.83976E-05-8.49609E-06-8.64454E-19-1.97506E-19
 -1      3555 1.02930E-04-3.58916E-05-2.87356E-05-7.33145E-06-2.00470E-19 4.65471E-20
 -1      3556 1.01197E-04-3.41604E-05-2.86820E-05-7.83139E-06-9.74525E-19 2.82450E-19
 -1      3557 9.89070E-05-3.30901E-05-2.82631E-05-9.14433E-06-6.68173E-19-8.07880E-19
 -1      3558 1.07419E-04-3.97896E-05-2.90104E-05-5.67180E-06-9.75378E-20 3.42617E-19
 -1      3559 1.05298E-04-3.78917E-05-2.88173E-05-6.83540E-06 2.53848E-19 5.78101E-19
 -1      3560 1.02814E-04-3.70232E-05-2.82738E-05-9.06300E-06-4.24098E-19-4.61808E-19
 -1      3561 1.12654E-04-4.32876E-05-2.97787E-05-2.15940E-06-2.82661E-19 3.23054E-19
 -1      3562 1.10511E-04-4.18641E-05-2.93341E-05-4.18564E-06-4.98734E-19 2.27946E-19
 -1      3563 1.08265E-04-4.16545E-05-2.86437E-05-7.50848E-06-2.78404E-19 3.11657E-19
 -1      3564 1.17403E-04-4.43659E-05-3.13567E-05 3.48750E-06 6.85812E-19 1.59034E-19
 -1      3565 1.15985E-04-4.45752E-05-3.05319E-05 6.66533E-07 4.49367E-19 5.34283E-19
 -1      3566 1.14798E-04-4.56595E-05-2.97226E-05-3.54758E-06 1.37535E-19-1.17635E-19
 -1      3567 1.20521E-04-4.12750E-05-3.40161E-05 9.21999E-06 1.21904E-18-1.13889E-18
 -1      3568 1.20510E-04-4.44068E-05-3.26438E-05 6.38571E-06 1.38770E-18 1.06872E-19
 -1      3569 1.12036E-04-2.13859E-05-3.89579E-05 1.00757E-05 8.48648E-19-2.62587E-18
 -1      3570 1.14392E-04-2.61840E-05-3.80222E-05 1.32710E-05 4.43475E-19-2.39448E-18
 -1      3571 1.08711E-04-1.56624E-05-4.00640E-05-1.86420E-06 1.98470E-19-2.05198E-18
 -1      3572 1.08473E-04-1.55573E-05-3.99813E-05 3.33672E-06 2.71474E-19-3.28358E-18
 -1      3573 1.19471E-04-3.50366E-05-3.65175E-05-1.17954E-05-4.18355E-20-2.20635E-18
 -1      3574 1.17343E-04-2.89048E-05-3.79884E-05-1.24145E-05-2.66286E-20-2.17837E-18
 -1      3575 1.21884E-04-4.44021E-05-3.33541E-05-6.09128E-06 5.27563E-19-1.77287E-18
 -1      3576 1.21504E-04-4.06470E-05-3.47197E-05-8.98136E-06 5.47713E-19-1.84938E-18
 -1      3577 1.18747E-04-4.69949E-05-3.07383E-05 1.30983E-06-8.52631E-19-1.11504E-18
 -1      3578 1.20265E-04-4.64100E-05-3.16974E-05-1.79471E-06 8.30357E-20-8.98523E-19
 -1      3579 1.05915E-04-3.83782E-05-2.88744E-05 8.76441E-06-9.87177E-19-4.31411E-19
 -1      3580 1.08075E-04-4.03621E-05-2.90418E-05 7.52474E-06-9.84327E-19-1.09700E-18
 -1      3581 1.01759E-04-3.43359E-05-2.88441E-05 9.83346E-06-2.95717E-20-1.66715E-18
 -1      3582 1.03560E-04-3.62500E-05-2.88501E-05 9.33687E-06-4.50586E-19-1.05049E-18
 -1      3583 1.03801E-04-3.75939E-05-2.84620E-05 1.10157E-05-5.30008E-19-4.10214E-19
 -1      3584 9.88003E-05-3.10027E-05-2.90325E-05 9.82030E-06-2.60710E-19-1.69411E-18
 -1      3585 1.00177E-04-3.26046E-05-2.89538E-05 9.77612E-06 1.96783E-19-9.73958E-19
 -1      3586 9.99355E-05-3.33191E-05-2.85851E-05 1.11979E-05-1.08735E-19-8.60386E-19
 -1      3587 9.57778E-05-2.88693E-05-2.86745E-05-1.06863E-06 4.55499E-19-8.73537E-19
 -1      3588 9.58091E-05-2.88205E-05-2.87068E-05-1.05117E-06 7.41001E-19-8.91920E-19
 -1      3589 9.59691E-05-2.89423E-05-2.87280E-05-1.00319E-06 3.95541E-19-8.02140E-19
 -1      3590 8.14592E-05-1.87105E-05-2.69335E-05 2.00017E-06 1.20157E-18 1.02989E-18
 -1      3591 8.24081E-05-1.93881E-05-2.69859E-05 4.66124E-06-2.28376E-20-1.00269E-18
 -1      3592 6.41171E-05-2.22813E-05-1.80632E-05 2.27072E-05-1.76544E-18 2.56169E-18
 -1      3593 5.57338E-05-1.60044E-05-1.65342E-05 1.37937E-05-1.87133E-18 2.40160E-18
 -1      3594 9.58614E-05-2.87521E-05-2.87616E-05-1.01613E-06 6.02998E-19-1.15892E-18
 -1      3595 9.58945E-05-2.86475E-05-2.88158E-05-9.46585E-07 3.93037E-19-1.24158E-18
 -1      3596 9.60790E-05-2.88328E-05-2.88223E-05-9.53744E-07 4.85329E-19-1.20302E-18
 -1      3597 1.11780E-04-1.66050E-05-4.09646E-05-6.71071E-06 7.56400E-19-1.90365E-18
 -1      3598 1.13726E-04-2.12008E-05-3.99996E-05-1.01565E-05 7.83638E-19-1.89500E-18
 -1      3599 9.62149E-05-4.23429E-05-2.29259E-05-2.69795E-05-1.21054E-18-8.97008E-19
 -1      3600 1.05092E-04-4.76023E-05-2.47718E-05-2.39012E-05-4.19361E-19-5.94591E-19
 -1      3601 8.71054E-05-3.63325E-05-2.18620E-05 2.79766E-05-1.22390E-18 1.50737E-18
 -1      3602 7.59212E-05-2.87677E-05-1.97315E-05 2.71341E-05-1.68851E-18 2.01440E-18
 -1      3603 9.55137E-05-2.87755E-05-2.85999E-05-9.91761E-07 1.90755E-19-7.38986E-19
 -1      3604 9.55356E-05-2.88158E-05-2.85947E-05-1.00528E-06-7.88195E-21-5.91166E-19
 -1      3605 9.55924E-05-2.87806E-05-2.86347E-05-9.55660E-07 1.39516E-19-5.64334E-19
 -1      3606 8.17768E-05-2.89872E-05-2.24312E-05 2.18424E-05 2.72850E-19-1.63817E-18
 -1      3607 9.56003E-05-2.88596E-05-2.86014E-05-1.02285E-06 1.08352E-19-4.15381E-19
 -1      3608 9.56250E-05-2.88786E-05-2.86054E-05-1.04148E-06 3.71507E-19-5.60249E-19
 -1      3609 9.57207E-05-2.88933E-05-2.86418E-05-9.73044E-07 1.72351E-19-8.56171E-19
 -1      3610 5.29098E-05-1.44801E-05-1.63392E-05-1.25133E-05-2.31171E-18-5.91653E-19
 -1      3611 5.87966E-05-1.91733E-05-1.67738E-05-2.14572E-05-2.09895E-18-1.09553E-18
 -1      3612 9.23719E-05-1.83231E-05-3.17500E-05-1.76322E-06-6.40977E-19-2.70565E-18
 -1      3613 9.33618E-05-1.99965E-05-3.14246E-05-1.76657E-06-7.10097E-19-2.49078E-18
 -1      3614 9.22610E-05-1.81334E-05-3.17808E-05-1.01004E-06-3.72139E-19-2.80586E-18
 -1      3615 9.55236E-05-2.71782E-05-2.92977E-05 9.44212E-06-1.62088E-18-9.34895E-19
 -1      3616 9.63182E-05-2.77835E-05-2.93619E-05 9.05997E-06-2.01841E-18-1.54568E-18
 -1      3617 9.69559E-05-2.86314E-05-2.92709E-05 9.31170E-06-1.64191E-18-1.32939E-18
 -1      3618 9.54324E-05-2.78380E-05-2.89759E-05 1.03150E-05-1.17963E-18 8.11544E-19
 -1      3619 9.57185E-05-2.55354E-05-3.00611E-05-1.50720E-06-1.13112E-18-1.61991E-18
 -1      3620 9.58418E-05-2.62684E-05-2.98304E-05-8.85975E-07-9.18183E-19-1.51776E-18
 -1      3621 9.59959E-05-2.62828E-05-2.98738E-05-7.16698E-07-8.45688E-19-1.53971E-18
 -1      3622 9.90511E-05-4.22378E-05-2.40267E-05-2.62403E-05 1.67449E-18 2.43257E-20
 -1      3623 5.38498E-05-1.35693E-05-1.71521E-05 6.43953E-06-1.01158E-18-2.06925E-18
 -1      3624 5.17537E-05-1.24603E-05-1.65338E-05-3.38006E-06-1.60368E-18-4.94667E-19
 -1      3625 9.43040E-05-2.19846E-05-3.10016E-05-3.63045E-06-1.38167E-18-2.23603E-18
 -1      3626 9.47634E-05-2.29695E-05-3.07493E-05-3.20779E-06-1.34257E-18-2.05633E-18
 -1      3627 9.41497E-05-2.16695E-05-3.10735E-05-3.15464E-06-1.18742E-18-2.17710E-18
 -1      3628 6.40556E-05-1.89822E-05-1.91701E-05-1.67429E-05-2.66299E-19 5.71483E-20
 -1      3629 7.05248E-05-2.39117E-05-1.98935E-05-2.30773E-05-4.39835E-19 3.29019E-20
 -1      3630 8.97746E-05-3.68341E-05-2.28116E-05-2.72973E-05 7.07325E-19-1.88822E-18
 -1      3631 9.42654E-05-3.75979E-05-2.41251E-05-2.47743E-05 1.03158E-18-1.35464E-18
 -1      3632 9.07198E-05-3.29867E-05-2.46417E-05-2.29678E-05-1.04561E-19-2.32283E-18
 -1      3633 7.85734E-05-2.93569E-05-2.08619E-05-2.62291E-05-1.99953E-19-1.87073E-18
 -1      3634 9.52806E-05-2.45630E-05-3.03042E-05 2.88350E-06 1.44619E-18-1.33225E-18
 -1      3635 9.49848E-05-2.37236E-05-3.05490E-05 3.10800E-06 1.47397E-18-1.42635E-18
 -1      3636 9.54265E-05-2.52986E-05-3.00639E-05 2.06848E-06 1.28635E-18-1.32208E-18
 -1      3637 9.37841E-05-2.07951E-05-3.12582E-05 2.85323E-06 1.00335E-18-2.12081E-18
 -1      3638 6.78151E-05-2.32058E-05-1.88468E-05-2.27780E-05-2.01165E-18-1.18098E-18
 -1      3639 9.41086E-05-2.15189E-05-3.11242E-05 1.76773E-06 6.36917E-19-2.40743E-18
 -1      3640 9.39713E-05-2.12265E-05-3.11836E-05 1.25110E-06 3.62737E-19-2.58543E-18
 -1      3641 9.59076E-05-2.73695E-05-2.93794E-05 1.01283E-07 8.88473E-19-1.15192E-18
 -1      3642 9.58802E-05-2.68996E-05-2.95542E-05 5.65009E-07 1.15066E-18-1.19730E-18
 -1      3643 9.61204E-05-2.74057E-05-2.94517E-05 4.47260E-08 7.36683E-19-1.18307E-18
 -1      3644 8.50475E-05-2.70536E-05-2.48877E-05 1.81454E-05-9.04572E-20-3.43280E-19
 -1      3645 8.68701E-05-3.04902E-05-2.42483E-05 2.06999E-05 6.70546E-20-9.47972E-19
 -1      3646 9.61616E-05-2.85836E-05-2.89646E-05-8.03486E-07 5.15000E-19-1.51732E-18
 -1      3647 8.37853E-05-2.84375E-05-2.37695E-05-2.21352E-05-3.50423E-19-3.26439E-18
 -1      3648 9.47614E-05-2.30715E-05-3.07224E-05 2.88839E-06 1.25086E-18-1.65017E-18
 -1      3649 8.18460E-05-2.02529E-05-2.63771E-05 7.01951E-06-8.04107E-19-9.68283E-19
 -1      3650 8.41374E-05-2.08975E-05-2.71636E-05 7.40977E-06-4.59617E-19-1.21919E-18
 -1      3651 8.61033E-05-2.21969E-05-2.73347E-05 9.28295E-06-1.35529E-18 2.25843E-19
 -1      3652 1.21727E-04-5.01690E-05-3.05336E-05-3.25477E-06 1.18696E-18 8.95605E-20
 -1      3653 1.21311E-04-4.74313E-05-3.17459E-05 1.78996E-06 1.20136E-18-3.46000E-19
 -1      3654 9.58471E-05-2.89532E-05-2.86707E-05-9.97870E-07 2.66727E-19-5.36284E-19
 -1      3655 8.34184E-05-3.25514E-05-2.17030E-05-2.56637E-05-1.14595E-18-2.65624E-19
 -1      3656 9.03044E-05-3.81999E-05-2.22566E-05-2.73961E-05-1.35774E-18-4.04352E-19
 -1      3657 9.56284E-05-3.92186E-05-2.40533E-05-2.28382E-05-5.92695E-19-1.67296E-18
 -1      3658 1.22767E-04-3.77211E-05-3.65456E-05 1.25662E-05 1.43584E-18-6.35963E-19
 -1      3659 1.17502E-04-3.09686E-05-3.71886E-05 1.34700E-05 1.18913E-18-1.79844E-18
 -1      3660 1.14947E-04-3.08840E-05-3.61286E-05 1.27439E-05 5.62212E-19-1.90915E-18
 -1      3661 1.14258E-04-1.52709E-05-4.27888E-05 7.64950E-06 8.35333E-19-2.20063E-18
 -1      3662 9.51411E-05-2.41622E-05-3.04363E-05-2.35458E-06-1.17513E-18-1.83909E-18
 -1      3663 9.52739E-05-4.03261E-05-2.32740E-05 2.67832E-05-9.04737E-19 1.07398E-18
 -1      3664 8.91576E-05-3.51787E-05-2.31633E-05 2.48815E-05-6.98299E-19 1.88015E-18
 -1      3665 1.02303E-04-4.37738E-05-2.50456E-05 2.27624E-05-2.79389E-19 1.66274E-18
 -1      3666 1.09193E-04-4.23907E-05-2.87248E-05 9.35030E-06-1.64583E-18 3.30429E-19
 -1      3667 1.11168E-04-4.24911E-05-2.93286E-05 5.97493E-06-1.49359E-18-1.18307E-18
 -1      3668 1.13316E-04-4.40116E-05-2.97189E-05 3.85476E-06-1.25860E-18-1.11411E-18
 -1      3669 9.77256E-05-2.95522E-05-2.92102E-05 9.38091E-06-1.08683E-18-9.55576E-19
 -1      3670 8.11422E-05-1.82790E-05-2.69530E-05-1.37094E-06 1.40117E-18 3.43158E-19
 -1      3671 7.94928E-05-1.82734E-05-2.61980E-05 6.58484E-07 1.07146E-18 9.16802E-19
 -1      3672 8.15099E-05-1.84408E-05-2.70509E-05-4.13582E-06 1.30663E-18 1.49797E-18
 -1      3673 9.52585E-05-2.42136E-05-3.04545E-05-1.98638E-06-1.04895E-18-1.94056E-18
 -1      3674 5.82024E-05-1.55326E-05-1.79990E-05 6.83927E-06-5.95702E-19 7.47586E-19
 -1      3675 8.37478E-05-1.98953E-05-2.73695E-05-9.22851E-06 1.16951E-18 3.02373E-18
 -1      3676 8.22021E-05-1.89799E-05-2.71278E-05-6.95936E-06 7.26382E-19 3.96205E-18
 -1      3677 7.99153E-05-1.84395E-05-2.63024E-05-5.69930E-06 1.41908E-18 2.00126E-18
 -1      3678 8.26770E-05-2.03679E-05-2.66549E-05-1.08564E-05 1.07132E-18 1.90658E-18
 -1      3679 7.26775E-05-2.47651E-05-2.03563E-05 2.15676E-05-1.21073E-18 2.70804E-18
 -1      3680 9.46321E-05-2.23915E-05-3.09421E-05 8.30995E-07 3.22044E-19-2.52668E-18
 -1      3681 9.38860E-05-2.10552E-05-3.12249E-05 8.08576E-07 1.16810E-19-2.79737E-18
 -1      3682 9.38369E-05-2.09550E-05-3.12444E-05 2.46567E-07-4.40810E-20-2.76864E-18
 -1      3683 1.17762E-04-4.82180E-05-2.98144E-05 6.04925E-06-9.06398E-19 6.61824E-19
 -1      3684 9.28788E-05-2.71659E-05-2.81924E-05 1.17086E-05-4.94525E-19 1.98743E-18
 -1      3685 9.45121E-05-2.81782E-05-2.84018E-05 1.17128E-05-1.12081E-18 2.12842E-18
 -1      3686 9.31581E-05-1.96202E-05-3.14986E-05-5.87424E-07-2.76387E-19-2.72703E-18
 -1      3687 5.77538E-05-1.45274E-05-1.82401E-05-7.68185E-06-1.81534E-18-5.10602E-19
 -1      3688 9.39529E-05-2.11995E-05-3.11873E-05-1.21900E-06-4.95486E-19-2.32534E-18
 -1      3689 9.40852E-05-2.14731E-05-3.11292E-05-1.72418E-06-7.38438E-19-2.24908E-18
 -1      3690 8.84259E-05-2.40846E-05-2.76342E-05 1.06469E-05-1.52737E-18 1.47885E-18
 -1      3691 9.06098E-05-2.54827E-05-2.78587E-05 1.15294E-05-9.19011E-19 2.00496E-18
 -1      3692 9.17522E-05-2.74228E-05-2.76132E-05 1.27346E-05-2.96825E-19 1.59154E-18
 -1      3693 8.67111E-05-2.38234E-05-2.69304E-05 1.12057E-05-1.69155E-18 1.32884E-18
 -1      3694 1.12569E-04-5.02615E-05-2.64558E-05-1.86972E-05 7.67822E-20-3.92213E-19
 -1      3695 1.18808E-04-5.15437E-05-2.90099E-05-1.01967E-05 5.43638E-19-5.01768E-20
 -1      3696 6.02290E-05-1.56120E-05-1.91588E-05-8.29447E-06 1.50775E-19 1.48908E-18
 -1      3697 6.21229E-05-1.71088E-05-1.90447E-05-1.34084E-05-8.43062E-21 4.04538E-19
 -1      3698 6.89799E-05-1.94359E-05-2.10746E-05-1.55263E-05 3.05559E-19-4.62308E-19
 -1      3699 6.42348E-05-1.81018E-05-1.99338E-05 1.47559E-05-4.48689E-19-2.92210E-18
 -1      3700 5.87862E-05-1.52612E-05-1.83257E-05 1.09541E-05-8.93153E-19-3.01515E-18
 -1      3701 6.02437E-05-1.44138E-05-1.95716E-05 5.68990E-06-1.32539E-18-1.69645E-18
 -1      3702 9.40545E-05-2.14440E-05-3.11338E-05-2.17755E-06-8.98441E-19-2.12423E-18
 -1      3703 9.41198E-05-2.15663E-05-3.10999E-05-2.69044E-06-1.14713E-18-2.12916E-18
 -1      3704 9.46275E-05-2.25233E-05-3.08777E-05-2.44385E-06-1.04766E-18-2.11661E-18
 -1      3705 9.46829E-05-2.25290E-05-3.09011E-05-1.60835E-06-6.64933E-19-2.02750E-18
 -1      3706 7.86401E-05-2.66164E-05-2.20764E-05-2.23238E-05-2.12063E-19-1.12385E-18
 -1      3707 1.16333E-04-4.83832E-05-2.91724E-05-7.13217E-06 6.63889E-19-2.20113E-21
 -1      3708 8.01985E-05-2.36944E-05-2.42386E-05 1.67813E-05-2.03673E-19-1.71296E-18
 -1      3709 9.72716E-05-2.97944E-05-2.89301E-05 1.04617E-05-6.36982E-19-9.18149E-19
 -1      3710 1.07918E-04-4.65304E-05-2.62273E-05-1.82623E-05-7.11375E-20-9.48573E-19
 -1      3711 9.42589E-05-2.18523E-05-3.10376E-05 2.14521E-06 8.68789E-19-2.15032E-18
 -1      3712 9.48360E-05-2.28917E-05-3.08130E-05 1.56470E-06 8.42850E-19-1.96081E-18
 -1      3713 9.44803E-05-2.23503E-05-3.09337E-05 2.56171E-06 1.14799E-18-1.86746E-18
 -1      3714 9.64285E-05-2.93264E-05-2.87502E-05 1.08991E-05-8.51479E-19 3.09251E-19
 -1      3715 9.65310E-05-2.80021E-05-2.93647E-05 2.99526E-07-7.26345E-19-1.61979E-18
 -1      3716 9.65401E-05-2.83168E-05-2.92420E-05 4.86368E-07-8.18804E-19-1.62198E-18
 -1      3717 9.65452E-05-2.85697E-05-2.91287E-05 5.91614E-07-6.57314E-19-1.34527E-18
 -1      3718 9.65107E-05-2.87553E-05-2.90397E-05 6.94547E-07-4.81881E-19-1.31339E-18
 -1      3719 9.66772E-05-2.83966E-05-2.92635E-05 4.39188E-07-5.90814E-19-1.66592E-18
 -1      3720 9.64633E-05-2.88914E-05-2.89568E-05 7.45014E-07-4.45161E-19-1.20902E-18
 -1      3721 9.64042E-05-2.89839E-05-2.88947E-05 7.92330E-07-1.75372E-19-1.25784E-18
 -1      3722 9.66344E-05-2.88221E-05-2.90636E-05 6.09116E-07-4.65487E-19-1.23741E-18
 -1      3723 9.63254E-05-2.90367E-05-2.88365E-05 8.08007E-07 7.26935E-20-1.35846E-18
 -1      3724 9.62535E-05-2.90624E-05-2.87956E-05 8.22255E-07 1.22889E-20-1.24738E-18
 -1      3725 9.65091E-05-2.90350E-05-2.89190E-05 6.89197E-07-1.33469E-19-1.14088E-18
 -1      3726 9.61567E-05-2.90554E-05-2.87570E-05 8.19544E-07-1.17921E-20-1.16488E-18
 -1      3727 9.60784E-05-2.90327E-05-2.87327E-05 8.18388E-07 1.73737E-19-1.05120E-18
 -1      3728 9.63351E-05-2.90940E-05-2.88192E-05 7.14952E-07 2.99324E-20-1.11371E-18
 -1      3729 9.59710E-05-2.89820E-05-2.87096E-05 8.10088E-07 2.56570E-20-1.05720E-18
 -1      3730 9.58891E-05-2.89229E-05-2.86982E-05 8.07176E-07-3.01579E-19-1.08045E-18
 -1      3731 9.61328E-05-2.90411E-05-2.87550E-05 7.14862E-07 5.86350E-21-1.32731E-18
 -1      3732 9.57737E-05-2.88384E-05-2.86873E-05 8.03195E-07-4.87354E-19-1.07906E-18
 -1      3733 9.56881E-05-2.87501E-05-2.86860E-05 8.09129E-07-3.93151E-19-1.21234E-18
 -1      3734 9.59123E-05-2.89041E-05-2.87188E-05 7.11189E-07-3.71126E-19-9.44307E-19
 -1      3735 9.55639E-05-2.86369E-05-2.86843E-05 8.17202E-07 1.58833E-19-9.86426E-19
 -1      3736 9.54721E-05-2.85226E-05-2.86909E-05 8.40422E-07 2.40144E-19-8.04753E-19
 -1      3737 9.56753E-05-2.86995E-05-2.87044E-05 7.21229E-07 4.56368E-20-4.90281E-19
 -1      3738 9.53351E-05-2.83824E-05-2.86961E-05 8.66810E-07-1.64654E-19-8.14820E-19
 -1      3739 9.52328E-05-2.82423E-05-2.87084E-05 9.14328E-07-5.71382E-19-5.74973E-19
 -1      3740 9.54170E-05-2.84351E-05-2.87063E-05 7.58572E-07 8.83420E-20-6.35148E-19
 -1      3741 9.50767E-05-2.80738E-05-2.87184E-05 9.64201E-07-7.70551E-19-1.09809E-19
 -1      3742 9.49576E-05-2.79060E-05-2.87348E-05 1.04198E-06-5.42260E-19-9.31385E-20
 -1      3743 9.51273E-05-2.81120E-05-2.87198E-05 8.34276E-07-3.77840E-19-2.90834E-19
 -1      3744 9.47736E-05-2.77056E-05-2.87471E-05 1.11967E-06-2.77850E-19-2.74287E-19
 -1      3745 9.46295E-05-2.75063E-05-2.87656E-05 1.23302E-06-3.19688E-19 1.13000E-19
 -1      3746 9.47911E-05-2.77257E-05-2.87402E-05 9.57086E-07-4.43748E-19 2.64118E-19
 -1      3747 9.44062E-05-2.72690E-05-2.87778E-05 1.34226E-06-2.75194E-19 2.07658E-19
 -1      3748 9.42270E-05-2.70335E-05-2.87961E-05 1.49584E-06-1.02455E-19 2.95713E-19
 -1      3749 9.43885E-05-2.72682E-05-2.87625E-05 1.13421E-06 5.28856E-20 4.76728E-19
 -1      3750 9.39508E-05-2.67537E-05-2.88046E-05 1.63955E-06 1.52036E-21 6.97025E-19
 -1      3751 9.37239E-05-2.64769E-05-2.88195E-05 1.83718E-06-3.84267E-21 7.55079E-19
 -1      3752 9.38951E-05-2.67294E-05-2.87804E-05 1.37106E-06 1.24535E-19 6.53986E-19
 -1      3753 9.33784E-05-2.61490E-05-2.88199E-05 2.01726E-06-3.36731E-19 8.37284E-19
 -1      3754 9.30890E-05-2.58267E-05-2.88268E-05 2.26181E-06 6.40817E-21 5.58261E-19
 -1      3755 9.32813E-05-2.60986E-05-2.87858E-05 1.67059E-06-1.01164E-19 1.05098E-18
 -1      3756 9.26548E-05-2.54461E-05-2.88127E-05 2.47910E-06 3.07707E-19 4.29235E-19
 -1      3757 9.22853E-05-2.50761E-05-2.88050E-05 2.77244E-06 3.22331E-19 5.41839E-19
 -1      3758 9.25118E-05-2.53663E-05-2.87674E-05 2.03317E-06-1.46231E-19 1.49103E-18
 -1      3759 9.17396E-05-2.46412E-05-2.87676E-05 3.02701E-06 5.28629E-19 3.69416E-19
 -1      3760 9.12707E-05-2.42256E-05-2.87357E-05 3.37059E-06 4.10344E-19-1.51876E-19
 -1      3761 9.15452E-05-2.45268E-05-2.87098E-05 2.45646E-06 6.97530E-20 4.74156E-19
 -1      3762 9.05865E-05-2.37399E-05-2.86626E-05 3.66298E-06-2.57254E-19 3.74922E-20
 -1      3763 8.99979E-05-2.32883E-05-2.85931E-05 4.05982E-06-6.41448E-19-2.01046E-19
 -1      3764 9.03326E-05-2.35815E-05-2.85913E-05 2.93670E-06-7.26575E-20-6.31089E-20
 -1      3765 8.91429E-05-2.27627E-05-2.84668E-05 4.39440E-06-7.38790E-19-4.94986E-19
 -1      3766 8.84159E-05-2.22965E-05-2.83410E-05 4.85387E-06-5.49372E-19-4.55170E-19
 -1      3767 8.88161E-05-2.25422E-05-2.83816E-05 3.47300E-06-7.24227E-19 3.31105E-19
 -1      3768 8.73506E-05-2.17536E-05-2.81372E-05 5.24545E-06-6.68243E-19-7.52889E-19
 -1      3769 8.64724E-05-2.13125E-05-2.79295E-05 5.79278E-06-4.59651E-19-4.84938E-19
 -1      3770 8.69250E-05-2.14355E-05-2.80386E-05 4.07689E-06-7.54941E-19 1.66917E-20
 -1      3771 8.51432E-05-2.07895E-05-2.76140E-05 6.27988E-06-2.76115E-19-5.42182E-19
 -1      3772 8.41143E-05-2.04395E-05-2.72895E-05 6.97425E-06 2.39966E-19-8.34189E-19
 -1      3773 8.45685E-05-2.03061E-05-2.75033E-05 4.79045E-06-4.58905E-19-1.70907E-19
 -1      3774 8.24441E-05-1.99957E-05-2.68130E-05 7.64470E-06 4.79812E-19-1.53434E-18
 -1      3775 8.12872E-05-1.98459E-05-2.63248E-05 8.61062E-06 2.77568E-19-1.26104E-18
 -1      3776 8.16179E-05-1.92160E-05-2.66909E-05 5.72457E-06-4.40838E-20-1.61222E-18
 -1      3777 7.91561E-05-1.95770E-05-2.56124E-05 9.62471E-06-1.08443E-19-1.69589E-18
 -1      3778 7.81146E-05-1.98726E-05-2.49466E-05 1.10737E-05-9.21215E-20-1.96127E-18
 -1      3779 7.79160E-05-1.82632E-05-2.54756E-05 7.12702E-06-2.47234E-19-1.86264E-18
 -1      3780 9.63584E-05-2.86821E-05-2.90060E-05-7.58166E-07 6.08149E-19-1.24833E-18
 -1      3781 9.63906E-05-2.84944E-05-2.90939E-05-6.39560E-07 5.52538E-19-1.16345E-18
 -1      3782 9.63839E-05-2.82402E-05-2.92083E-05-5.09302E-07 6.00715E-19-1.22697E-18
 -1      3783 9.63796E-05-2.79264E-05-2.93313E-05-2.94030E-07 6.42794E-19-1.18347E-18
 -1      3784 9.65492E-05-2.83150E-05-2.92441E-05-4.74657E-07 5.82578E-19-1.08337E-18
 -1      3785 7.35432E-05-2.29794E-05-2.13477E-05 2.00025E-05 4.92206E-20-2.10517E-18
 -1      3786 9.59837E-05-2.90025E-05-2.87050E-05-9.05373E-07 1.44406E-19-6.43927E-19
 -1      3787 9.60476E-05-2.90144E-05-2.87276E-05-9.09336E-07 4.42534E-19-5.49581E-19
 -1      3788 9.54854E-05-2.85881E-05-2.86681E-05-9.03150E-07 1.50574E-19-4.64288E-19
 -1      3789 9.55529E-05-2.86807E-05-2.86608E-05-8.85272E-07 1.20362E-19-5.72126E-19
 -1      3790 9.48762E-05-2.77945E-05-2.87467E-05-1.29739E-06 2.66501E-19-7.81423E-19
 -1      3791 9.49624E-05-2.79397E-05-2.87273E-05-1.18446E-06 2.04101E-19-5.86369E-19
 -1      3792 9.46222E-05-2.74613E-05-2.87803E-05-1.57912E-06 1.47550E-20-6.13173E-19
 -1      3793 9.47185E-05-2.76203E-05-2.87603E-05-1.42245E-06 2.76378E-19-8.00435E-19
 -1      3794 9.46704E-05-2.75871E-05-2.87484E-05-1.26629E-06 1.24024E-19-1.24466E-18
 -1      3795 9.43352E-05-2.71037E-05-2.88102E-05-1.95591E-06-8.30953E-19 1.73977E-19
 -1      3796 9.44414E-05-2.72713E-05-2.87919E-05-1.75021E-06-5.11182E-19-2.05674E-19
 -1      3797 9.43341E-05-2.71963E-05-2.87711E-05-1.55540E-06-4.94815E-19-3.72583E-19
 -1      3798 9.40172E-05-2.67377E-05-2.88301E-05-2.43933E-06-4.78906E-19-3.06253E-19
 -1      3799 9.41297E-05-2.69041E-05-2.88165E-05-2.17996E-06-4.82161E-19 3.95319E-20
 -1      3800 9.39497E-05-2.67768E-05-2.87856E-05-1.94059E-06-4.71659E-19-6.03130E-20
 -1      3801 9.36797E-05-2.63927E-05-2.88325E-05-3.04049E-06-2.71019E-19-1.02557E-18
 -1      3802 9.37895E-05-2.65406E-05-2.88271E-05-2.72380E-06-6.96719E-20-8.47668E-19
 -1      3803 9.35178E-05-2.63469E-05-2.87844E-05-2.43663E-06 7.65073E-20-7.88321E-19
 -1      3804 9.33496E-05-2.61171E-05-2.88078E-05-3.76963E-06-8.67820E-19-9.63540E-19
 -1      3805 9.34388E-05-2.62189E-05-2.88151E-05-3.39351E-06-1.05094E-18-1.37151E-18
 -1      3806 9.30489E-05-2.59396E-05-2.87581E-05-3.06014E-06-3.63471E-19-1.13198E-18
 -1      3807 9.30774E-05-2.59861E-05-2.87453E-05-4.63547E-06-4.68177E-19-7.80869E-19
 -1      3808 9.31148E-05-2.59995E-05-2.87703E-05-4.20014E-06-4.17778E-19-9.44447E-19
 -1      3809 9.25698E-05-2.56088E-05-2.86952E-05-3.83042E-06-9.12377E-19-1.45299E-18
 -1      3810 9.29491E-05-2.61099E-05-2.86343E-05-5.64365E-06-7.66283E-19-6.14480E-19
 -1      3811 9.28837E-05-2.59740E-05-2.86815E-05-5.15321E-06-4.07085E-19-5.17561E-19
 -1      3812 9.21325E-05-2.54375E-05-2.85831E-05-4.77033E-06-6.84847E-19-6.65103E-19
 -1      3813 9.31017E-05-2.66433E-05-2.84669E-05-6.79226E-06-7.68694E-19-1.06412E-18
 -1      3814 9.28551E-05-2.62738E-05-2.85386E-05-6.25818E-06-9.55021E-19-9.41591E-19
 -1      3815 9.18267E-05-2.55470E-05-2.84091E-05-5.90681E-06-7.70856E-19-8.65960E-19
 -1      3816 9.37432E-05-2.77924E-05-2.82442E-05-8.05878E-06-5.16518E-19-1.15584E-18
 -1      3817 9.32012E-05-2.70795E-05-2.83369E-05-7.50843E-06-5.26543E-19-1.03645E-18
 -1      3818 9.17991E-05-2.61092E-05-2.81636E-05-7.26797E-06-7.10866E-19-1.84676E-18
 -1      3819 9.51729E-05-2.98097E-05-2.79869E-05-9.36962E-06-9.18197E-19-1.11809E-18
 -1      3820 9.41808E-05-2.86245E-05-2.80851E-05-8.86364E-06-6.31570E-19-8.71716E-19
 -1      3821 9.22801E-05-2.73583E-05-2.78470E-05-8.86874E-06-6.71045E-19-1.33658E-18
 -1      3822 9.77842E-05-3.29646E-05-2.77542E-05-1.05403E-05-6.64788E-19-1.49801E-18
 -1      3823 9.61612E-05-3.11816E-05-2.78206E-05-1.02055E-05-7.86138E-19-9.37415E-19
 -1      3824 9.36136E-05-2.95884E-05-2.74828E-05-1.06741E-05-9.05090E-19-1.47828E-18
 -1      3825 1.02037E-04-3.74147E-05-2.76767E-05-1.11218E-05-7.73645E-19 2.60653E-20
 -1      3826 9.96331E-05-3.50053E-05-2.76345E-05-1.12118E-05-8.71805E-19-6.74845E-19
 -1      3827 9.63327E-05-3.31819E-05-2.71403E-05-1.25211E-05-1.00011E-18-2.36928E-19
 -1      3828 1.08319E-04-4.29362E-05-2.80174E-05-1.03041E-05-2.03470E-19 4.55734E-19
 -1      3829 1.05088E-04-4.01487E-05-2.77227E-05-1.12705E-05-2.39067E-19 2.32474E-19
 -1      3830 1.00984E-04-3.82555E-05-2.69856E-05-1.38353E-05-1.03303E-18 2.22042E-19
 -1      3831 1.12816E-04-4.62190E-05-2.84070E-05-9.43267E-06 9.23531E-20 5.96827E-20
 -1      3832 1.16640E-04-3.57137E-05-3.49095E-05 1.27703E-05 1.00390E-18-1.78850E-18
 -1      3833 1.06315E-04-4.09655E-05-2.78940E-05 1.29216E-05-1.51064E-18 1.07844E-18
 -1      3834 1.09340E-04-4.39083E-05-2.81027E-05 1.20208E-05-1.43806E-18 7.20306E-19
 -1      3835 1.00948E-04-3.56727E-05-2.79197E-05 1.31730E-05 2.45761E-19 1.32859E-18
 -1      3836 1.03425E-04-3.82309E-05-2.79127E-05 1.29119E-05-5.53554E-19 1.63755E-18
 -1      3837 1.02743E-04-3.93594E-05-2.72538E-05 1.56926E-05-9.26403E-19 2.30416E-18
 -1      3838 1.03053E-04-4.22057E-05-2.59449E-05-1.80930E-05-1.63041E-19-1.05367E-18
 -1      3839 1.08397E-04-4.50001E-05-2.73100E-05-1.38901E-05 4.45460E-19-2.34344E-19
 -1      3840 9.61338E-05-2.90127E-05-2.87656E-05-9.11769E-07 2.93024E-19-7.24139E-19
 -1      3841 9.61942E-05-2.89788E-05-2.88047E-05-8.96757E-07 3.23685E-19-1.02694E-18
 -1      3842 9.62476E-05-2.90573E-05-2.87976E-05-8.15832E-07 2.70274E-19-5.94139E-19
 -1      3843 7.71381E-05-2.34503E-05-2.29392E-05-1.90876E-05-8.19372E-20-1.24336E-18
 -1      3844 6.68082E-05-2.02765E-05-1.99025E-05-1.83982E-05-1.75916E-18-1.40375E-18
 -1      3845 7.50194E-05-2.67524E-05-2.06639E-05-2.40757E-05-1.38780E-18-4.22656E-19
 -1      3846 9.62648E-05-2.89198E-05-2.88625E-05-8.75780E-07 2.43784E-19-8.90518E-19
 -1      3847 9.63162E-05-2.88220E-05-2.89230E-05-8.21825E-07 4.24612E-19-1.00979E-18
 -1      3848 9.64027E-05-2.89804E-05-2.88970E-05-7.83977E-07 2.72583E-19-8.91531E-19
 -1      3849 9.52534E-05-2.41606E-05-3.04878E-05-1.61473E-06-7.93589E-19-1.85450E-18
 -1      3850 9.56582E-05-2.87756E-05-2.86620E-05-8.80041E-07 9.48203E-20-7.80305E-19
 -1      3851 9.57239E-05-2.88470E-05-2.86622E-05-8.79590E-07 1.27193E-19-8.73816E-19
 -1      3852 9.56726E-05-2.87427E-05-2.86850E-05-8.09033E-07 8.53423E-20-4.13859E-19
 -1      3853 9.51007E-05-2.80953E-05-2.87142E-05-1.09888E-06-2.81419E-20-7.03857E-19
 -1      3854 9.51783E-05-2.82242E-05-2.86972E-05-1.02396E-06-1.55410E-19-2.05833E-19
 -1      3855 9.49642E-05-2.79400E-05-2.87237E-05-1.05975E-06 3.28858E-19-5.50126E-19
 -1      3856 9.38340E-05-2.09509E-05-3.12451E-05-2.14947E-07-1.95644E-19-2.62455E-18
 -1      3857 9.38799E-05-2.10437E-05-3.12270E-05-7.75735E-07-3.90514E-19-2.56963E-18
 -1      3858 9.46214E-05-2.23670E-05-3.09447E-05-8.17888E-07-4.65940E-19-2.21990E-18
 -1      3859 9.45576E-05-2.22189E-05-3.09843E-05 1.03990E-08-1.00894E-19-2.55446E-18
 -1      3860 6.00376E-05-1.40782E-05-1.96772E-05-3.61508E-06-1.26641E-18 1.01088E-19
 -1      3861 6.17568E-05-1.59251E-05-1.95144E-05-1.19632E-05-1.89946E-18-5.52027E-19
 -1      3862 9.58240E-05-2.89174E-05-2.86726E-05-8.86968E-07 3.17605E-19-1.04588E-18
 -1      3863 9.58890E-05-2.89629E-05-2.86825E-05-8.94616E-07 2.07544E-19-7.86214E-19
 -1      3864 9.58759E-05-2.89150E-05-2.86987E-05-8.04645E-07 2.93803E-19-1.00790E-18
 -1      3865 1.20096E-04-5.29755E-05-2.86972E-05 1.27505E-05-1.57299E-18 1.53961E-18
 -1      3866 1.13354E-04-4.97682E-05-2.73142E-05 1.65637E-05-1.13242E-18 1.42048E-18
 -1      3867 7.17601E-05-2.03083E-05-2.18429E-05 1.53097E-05-6.08567E-19-2.15592E-18
 -1      3868 9.64458E-05-3.02869E-05-2.83514E-05 1.19713E-05-1.03393E-18 3.23639E-19
 -1      3869 9.79546E-05-3.21866E-05-2.81661E-05 1.23585E-05-2.65457E-19 5.91286E-19
 -1      3870 1.20908E-04-5.13640E-05-2.98763E-05 7.35704E-06-1.09672E-18 5.87126E-19
 -1      3871 1.11251E-04-4.61776E-05-2.79032E-05 1.34718E-05-1.27508E-18 1.18633E-18
 -1      3872 1.07719E-04-4.55915E-05-2.65207E-05 1.89389E-05-8.25281E-19 9.01111E-19
 -1      3873 7.82610E-05-2.67841E-05-2.21797E-05 2.13110E-05-4.47740E-19 3.19206E-18
 -1      3874 6.98560E-05-2.04579E-05-2.08164E-05 1.68120E-05-4.87772E-20 2.98062E-18
 -1      3875 9.57407E-05-2.64545E-05-2.96989E-05 9.50957E-07 1.21899E-18-1.18908E-18
 -1      3876 9.56566E-05-2.59169E-05-2.98798E-05 1.53360E-06 1.19144E-18-1.25060E-18
 -1      3877 9.55584E-05-2.53502E-05-3.01005E-05 1.75230E-06 1.17588E-18-1.42991E-18
 -1      3878 9.58988E-05-2.64478E-05-2.97647E-05 7.94109E-07 1.12173E-18-1.42990E-18
 -1      3879 9.59667E-05-2.57305E-05-3.00839E-05-9.07537E-07-8.07984E-19-1.80470E-18
 -1      3880 9.61462E-05-2.64700E-05-2.98735E-05-4.62703E-07-8.81538E-19-1.77773E-18
 -1      3881 9.66214E-05-3.23152E-05-2.76062E-05 1.41091E-05-3.14712E-19 1.23396E-18
 -1      3882 6.31693E-05-1.68202E-05-2.00381E-05 9.98042E-06 3.92183E-20 2.45904E-20
 -1      3883 6.03451E-05-1.45160E-05-1.93448E-05 1.71690E-07 6.82900E-19-4.90061E-19
 -1      3884 9.53015E-05-2.83604E-05-2.86868E-05-9.71596E-07-2.16628E-19 1.20214E-19
 -1      3885 9.53729E-05-2.84718E-05-2.86738E-05-9.28584E-07 1.26421E-19-2.57677E-19
 -1      3886 9.54570E-05-2.85198E-05-2.86876E-05-8.43764E-07-4.22577E-20-3.22525E-20
 -1      3887 9.52234E-05-2.82515E-05-2.87019E-05-9.23021E-07 3.40273E-20 1.32589E-19
 -1      3888 9.51881E-05-2.39241E-05-3.05207E-05 2.16943E-06 1.08717E-18-1.62369E-18
 -1      3889 7.38225E-05-2.12030E-05-2.25192E-05-1.70135E-05 2.18402E-19 3.93725E-19
 -1      3890 7.94830E-05-2.29687E-05-2.41156E-05-1.70871E-05 2.94537E-19-1.06223E-18
 -1      3891 7.96774E-05-2.18417E-05-2.47902E-05-1.53111E-05 2.05809E-19-1.02685E-19
 -1      3892 7.10947E-05-1.90734E-05-2.23305E-05-1.37270E-05-9.60522E-21 5.38442E-19
 -1      3893 9.63591E-05-2.70936E-05-2.96792E-05-1.84257E-07-8.89737E-19-1.81055E-18
 -1      3894 9.64412E-05-2.75869E-05-2.95149E-05 1.18079E-07-8.75641E-19-1.71868E-18
 -1      3895 9.62867E-05-2.65587E-05-2.98813E-05-3.39294E-07-9.37734E-19-1.95198E-18
 -1      3896 9.62927E-05-2.75084E-05-2.94842E-05-6.75562E-08 5.30114E-19-1.02409E-18
 -1      3897 9.62135E-05-2.70158E-05-2.96522E-05 2.75508E-07 6.43173E-19-1.20318E-18
 -1      3898 9.64560E-05-2.75862E-05-2.95162E-05-1.05584E-07 7.25917E-19-1.13072E-18
 -1      3899 9.65866E-05-2.76769E-05-2.95319E-05 1.37742E-07-8.19074E-19-1.87661E-18
 -1      3900 9.65141E-05-2.87528E-05-2.90421E-05-6.84310E-07 4.59261E-19-9.73546E-19
 -1      3901 7.86625E-05-1.95534E-05-2.54153E-05 7.13265E-06 4.12450E-19 4.93248E-19
 -1      3902 8.11086E-05-2.11542E-05-2.56548E-05 9.81859E-06-4.23239E-19-9.41745E-21
 -1      3903 7.27382E-05-1.90473E-05-2.29908E-05 1.28201E-05-5.41284E-19-2.24206E-18
 -1      3904 8.07896E-05-2.11901E-05-2.54732E-05-1.34883E-05 1.63105E-18 7.55375E-19
 -1      3905 8.14275E-05-2.06624E-05-2.60539E-05-1.21788E-05 2.13329E-18 2.15789E-18
 -1      3906 7.93950E-05-1.93038E-05-2.57741E-05-9.92117E-06 1.95456E-18 4.34921E-18
 -1      3907 7.70305E-05-1.99912E-05-2.44143E-05-1.31043E-05 8.33030E-19 2.43752E-18
 -1      3908 9.60686E-05-2.90260E-05-2.87341E-05-8.13856E-07 2.88640E-19-6.44932E-19
 -1      3909 9.54356E-05-2.46612E-05-3.03301E-05 1.62343E-06 9.74987E-19-1.59765E-18
 -1      3910 8.20338E-05-2.93250E-05-2.24509E-05-2.19948E-05-5.86703E-19-6.56920E-19
 -1      3911 1.22079E-04-4.17377E-05-3.44255E-05 9.29000E-06 1.29421E-18-7.73169E-19
 -1      3912 9.51027E-05-2.34062E-05-3.07340E-05-4.65698E-07-5.27062E-19-2.28757E-18
 -1      3913 9.51719E-05-2.35893E-05-3.06919E-05-8.41506E-07-6.67044E-19-2.11710E-18
 -1      3914 6.53183E-05-1.60198E-05-2.09672E-05-4.40398E-06 5.79275E-19 9.14597E-19
 -1      3915 1.01591E-04-4.10098E-05-2.58884E-05 1.98979E-05-9.82624E-19 1.19717E-18
 -1      3916 9.53275E-05-2.40984E-05-3.05428E-05 1.37244E-06 1.00251E-18-1.70294E-18
 -1      3917 9.52227E-05-2.37719E-05-3.06258E-05 1.07994E-06 7.31516E-19-1.95227E-18
 -1      3918 9.79822E-05-3.94312E-05-2.51396E-05-2.01999E-05-3.65769E-19-2.04359E-18
 -1      3919 1.00154E-04-3.86688E-05-2.63082E-05-1.60235E-05-4.96216E-19-1.27532E-18
 -1      3920 9.70853E-05-3.54506E-05-2.63170E-05-1.53934E-05-8.91083E-19-6.91033E-19
 -1      3921 9.28111E-05-3.52810E-05-2.45514E-05-2.02997E-05-5.18804E-19-1.79095E-18
 -1      3922 9.54042E-05-2.43164E-05-3.04721E-05-1.29642E-06-7.78568E-19-2.02369E-18
 -1      3923 6.87000E-05-1.90623E-05-2.11052E-05-1.40657E-05-1.36230E-18-1.16245E-18
 -1      3924 9.51570E-05-2.35725E-05-3.06905E-05 8.36776E-07 5.06023E-19-2.20909E-18
 -1      3925 9.50987E-05-2.34036E-05-3.07328E-05 4.82801E-07 2.28289E-19-2.47380E-18
 -1      3926 9.56721E-05-2.46342E-05-3.04287E-05 7.03130E-07 6.37196E-19-1.77055E-18
 -1      3927 6.16540E-05-1.38730E-05-2.02338E-05 7.73657E-07-1.12619E-18-7.79932E-19
 -1      3928 6.46725E-05-1.49492E-05-2.12958E-05-3.22770E-06-1.29397E-18 5.03191E-20
 -1      3929 6.45627E-05-1.51218E-05-2.11860E-05 5.12364E-06-1.19282E-18-2.03291E-18
 -1      3930 7.65275E-05-1.75901E-05-2.52735E-05-5.84455E-07 2.32719E-19 6.96382E-19
 -1      3931 7.69925E-05-1.79259E-05-2.52493E-05 2.81345E-06 8.23551E-19 7.58249E-19
 -1      3932 7.52606E-05-1.84723E-05-2.43821E-05 5.98949E-06 9.95694E-19 6.01254E-19
 -1      3933 8.57630E-05-3.06342E-05-2.33543E-05 2.21243E-05-1.33539E-18 2.53872E-18
 -1      3934 8.17492E-05-2.67403E-05-2.36300E-05 1.87969E-05-5.33181E-19 2.58411E-18
 -1      3935 9.16547E-05-3.47992E-05-2.45075E-05 2.20054E-05-1.15605E-18 9.76205E-19
 -1      3936 9.54515E-05-2.43581E-05-3.04781E-05-9.54517E-07-6.97548E-19-1.98616E-18
 -1      3937 6.97272E-05-1.88407E-05-2.17984E-05 1.08943E-05 1.58995E-18 1.09700E-18
 -1      3938 7.05564E-05-1.69712E-05-2.28533E-05 9.16121E-06-6.43143E-19-2.10465E-18
 -1      3939 9.58631E-05-2.51673E-05-3.02922E-05-5.83244E-07-8.22077E-19-2.02324E-18
 -1      3940 9.67876E-05-2.82413E-05-2.93755E-05 2.86974E-07-4.52389E-19-1.72423E-18
 -1      3941 9.67918E-05-2.85285E-05-2.92580E-05 4.07989E-07-4.90470E-19-1.59039E-18
 -1      3942 9.40640E-05-2.69454E-05-2.87632E-05-1.45294E-06-7.35944E-19-1.99735E-19
 -1      3943 9.42458E-05-2.71625E-05-2.87546E-05-1.29266E-06-5.08746E-19-3.95366E-19
 -1      3944 9.59968E-05-2.53742E-05-3.02672E-05-3.26421E-07-7.65069E-19-2.12656E-18
 -1      3945 9.62357E-05-2.60618E-05-3.00727E-05-4.23806E-07-7.85276E-19-1.97732E-18
 -1      3946 9.64518E-05-2.67555E-05-2.98742E-05-1.32736E-07-8.56517E-19-1.96651E-18
 -1      3947 9.67795E-05-2.87545E-05-2.91516E-05 4.60215E-07-5.21630E-19-1.46261E-18
 -1      3948 9.67332E-05-2.89168E-05-2.90651E-05 5.25579E-07-3.47250E-19-1.32600E-18
 -1      3949 9.68706E-05-2.86128E-05-2.92536E-05 3.28218E-07-4.09167E-19-1.52870E-18
 -1      3950 9.66675E-05-2.90284E-05-2.89867E-05 5.47775E-07-1.51860E-19-1.27408E-18
 -1      3951 9.65894E-05-2.90971E-05-2.89252E-05 5.77992E-07-5.22369E-20-1.07189E-18
 -1      3952 9.67912E-05-2.89721E-05-2.90665E-05 4.13903E-07-9.37877E-20-1.14489E-18
 -1      3953 9.64910E-05-2.91261E-05-2.88697E-05 5.82174E-07 1.16482E-20-9.35101E-19
 -1      3954 9.63945E-05-2.91268E-05-2.88283E-05 5.92481E-07 1.93740E-19-1.02950E-18
 -1      3955 9.66275E-05-2.91264E-05-2.89305E-05 4.52359E-07 2.10285E-20-8.17006E-19
 -1      3956 9.62762E-05-2.90956E-05-2.87912E-05 5.88433E-07 2.49309E-19-1.07318E-18
 -1      3957 9.61688E-05-2.90461E-05-2.87658E-05 5.90912E-07-1.51537E-19-1.10126E-18
 -1      3958 9.64120E-05-2.91310E-05-2.88362E-05 4.63849E-07 1.14089E-19-9.40162E-19
 -1      3959 9.60372E-05-2.89697E-05-2.87434E-05 5.86306E-07-2.20770E-19-9.66480E-19
 -1      3960 9.59217E-05-2.88814E-05-2.87304E-05 5.90364E-07-1.42494E-19-6.66566E-19
 -1      3961 9.61640E-05-2.90247E-05-2.87752E-05 4.64815E-07-1.85506E-20-8.59758E-19
 -1      3962 9.57784E-05-2.87687E-05-2.87192E-05 5.91111E-07-1.40389E-19-5.62566E-19
 -1      3963 9.56540E-05-2.86479E-05-2.87158E-05 6.04063E-07 1.09259E-19-5.07496E-19
 -1      3964 9.58917E-05-2.88328E-05-2.87403E-05 4.68058E-07 1.09076E-20-5.52311E-19
 -1      3965 9.54970E-05-2.85033E-05-2.87129E-05 6.14622E-07 8.26935E-20-7.57379E-19
 -1      3966 9.53598E-05-2.83522E-05-2.87165E-05 6.42199E-07 5.10229E-20-7.62721E-19
 -1      3967 9.55946E-05-2.85694E-05-2.87251E-05 4.83362E-07-1.82002E-20-7.85795E-19
 -1      3968 9.51833E-05-2.81760E-05-2.87194E-05 6.66160E-07 1.09442E-19-1.21983E-18
 -1      3969 9.50268E-05-2.79942E-05-2.87276E-05 7.13081E-07-2.56493E-19-9.94616E-19
 -1      3970 9.52650E-05-2.82400E-05-2.87241E-05 5.17812E-07-3.38878E-20-1.55960E-18
 -1      3971 9.48232E-05-2.77848E-05-2.87335E-05 7.52814E-07-2.94088E-19-2.10489E-19
 -1      3972 9.46385E-05-2.75690E-05-2.87438E-05 8.22315E-07-8.27586E-20-6.41715E-20
 -1      3973 9.48893E-05-2.78438E-05-2.87318E-05 5.77604E-07 1.07940E-19-1.20529E-18
 -1      3974 9.43961E-05-2.73217E-05-2.87498E-05 8.79735E-07 1.86360E-19 4.75090E-19
 -1      3975 9.41722E-05-2.70676E-05-2.87594E-05 9.74635E-07 4.28361E-19 3.70815E-19
 -1      3976 9.44485E-05-2.73754E-05-2.87425E-05 6.64411E-07 4.08629E-19 1.88020E-20
 -1      3977 9.38784E-05-2.67779E-05-2.87620E-05 1.05021E-06 4.79765E-19 3.48521E-19
 -1      3978 9.36015E-05-2.64805E-05-2.87673E-05 1.17171E-06 4.04973E-19 7.69416E-19
 -1      3979 9.39191E-05-2.68260E-05-2.87495E-05 7.81084E-07 5.54875E-19 1.43814E-19
 -1      3980 9.32405E-05-2.61429E-05-2.87619E-05 1.26445E-06-1.16255E-19 6.59692E-19
 -1      3981 9.28942E-05-2.57975E-05-2.87580E-05 1.41237E-06-1.18325E-19 7.50949E-19
 -1      3982 9.32727E-05-2.61865E-05-2.87447E-05 9.24666E-07 1.97675E-20 3.42994E-19
 -1      3983 9.24476E-05-2.54076E-05-2.87385E-05 1.51959E-06-1.06914E-19 1.13915E-18
 -1      3984 9.20123E-05-2.50105E-05-2.87189E-05 1.69195E-06 6.15774E-20 1.14110E-18
 -1      3985 9.24757E-05-2.54481E-05-2.87172E-05 1.08960E-06 2.15040E-19 5.72841E-19
 -1      3986 9.14585E-05-2.45658E-05-2.86770E-05 1.80870E-06-3.03680E-19 1.45661E-18
 -1      3987 9.09114E-05-2.41160E-05-2.86324E-05 2.00181E-06-3.86649E-19 7.19867E-19
 -1      3988 9.14888E-05-2.46052E-05-2.86525E-05 1.26540E-06-1.49468E-19 8.11709E-19
 -1      3989 9.02244E-05-2.36170E-05-2.85569E-05 2.12100E-06-9.72210E-20 3.11465E-19
 -1      3990 8.95381E-05-2.31173E-05-2.84744E-05 2.33036E-06-4.55563E-19 1.88292E-19
 -1      3991 9.02657E-05-2.36564E-05-2.85312E-05 1.43605E-06-6.74223E-19 1.01872E-18
 -1      3992 8.86852E-05-2.25683E-05-2.83497E-05 2.44371E-06-8.81224E-19 2.15103E-19
 -1      3993 8.78266E-05-2.20266E-05-2.82114E-05 2.66681E-06-9.10586E-19 3.10585E-19
 -1      3994 8.87496E-05-2.26070E-05-2.83261E-05 1.58053E-06-7.36482E-19 5.00287E-19
 -1      3995 8.67635E-05-2.14363E-05-2.80158E-05 2.76789E-06-1.12178E-18 4.47587E-19
 -1      3996 8.56909E-05-2.08672E-05-2.77971E-05 3.01016E-06-6.76647E-19 2.60113E-19
 -1      3997 8.68662E-05-2.14678E-05-2.80003E-05 1.67556E-06-6.41258E-19 2.10525E-19
 -1      3998 8.43541E-05-2.02486E-05-2.75000E-05 3.09848E-06-6.43124E-19-3.68002E-20
 -1      3999 8.30105E-05-1.96721E-05-2.71654E-05 3.38352E-06-4.77530E-19-2.20142E-19
 -1      4000 8.45126E-05-2.02550E-05-2.75016E-05 1.70290E-06-7.94591E-19 2.26632E-19
 -1      4001 8.12961E-05-1.90348E-05-2.67222E-05 3.46920E-06-5.63870E-19-9.01878E-19
 -1      4002 7.95922E-05-1.84663E-05-2.62209E-05 3.85982E-06-1.35013E-19-1.38502E-18
 -1      4003 8.15361E-05-1.89838E-05-2.67556E-05 1.64884E-06-8.06883E-19-4.64344E-19
 -1      4004 7.73109E-05-1.78287E-05-2.55609E-05 4.00774E-06-9.48727E-20-1.84978E-18
 -1      4005 7.52098E-05-1.73175E-05-2.48412E-05 4.65080E-06-3.76855E-19-1.84716E-18
 -1      4006 7.76551E-05-1.76189E-05-2.56483E-05 1.54585E-06-5.22704E-19-1.08399E-18
 -1      4007 8.48829E-05-2.70520E-05-2.48881E-05 1.69536E-05-9.29208E-19 8.19537E-19
 -1      4008 7.93761E-05-2.32612E-05-2.39402E-05 1.54220E-05 3.08935E-19 1.39496E-18
 -1      4009 9.66407E-05-2.73805E-05-2.96828E-05-1.41724E-08-7.18750E-19-1.82542E-18
 -1      4010 9.67307E-05-2.78413E-05-2.95273E-05 1.83398E-07-5.67968E-19-1.75968E-18
 -1      4011 9.68300E-05-2.79638E-05-2.95128E-05 1.57562E-07-4.24348E-19-1.48461E-18
 -1      4012 9.65787E-05-2.69100E-05-2.98553E-05-6.99811E-08-5.92691E-19-1.85191E-18
 -1      4013 9.50692E-05-2.33329E-05-3.07543E-05-1.77279E-07-4.18386E-19-2.24265E-18
 -1      4014 9.56120E-05-2.43764E-05-3.05153E-05-2.46879E-07-5.74382E-19-2.19775E-18
 -1      4015 9.50712E-05-2.33347E-05-3.07539E-05 1.95926E-07-6.02459E-20-2.46456E-18
 -1      4016 9.44764E-05-2.73900E-05-2.87496E-05-1.17108E-06 1.08058E-21-4.23694E-19
 -1      4017 9.46349E-05-2.75875E-05-2.87382E-05-1.05308E-06 6.83902E-19-1.00224E-19
 -1      4018 9.42284E-05-2.71517E-05-2.87441E-05-1.06450E-06-1.37534E-19 1.77676E-19
 -1      4019 9.30483E-05-2.59691E-05-2.87453E-05-2.31365E-06 4.78875E-19-1.05475E-18
 -1      4020 9.32772E-05-2.62018E-05-2.87535E-05-2.04700E-06 2.57021E-19-7.12232E-19
 -1      4021 9.24512E-05-2.54897E-05-2.86936E-05-2.93109E-06-4.86368E-19-1.21267E-18
 -1      4022 9.26937E-05-2.57044E-05-2.87178E-05-2.59797E-06 3.88614E-19-9.91332E-19
 -1      4023 9.24938E-05-2.55391E-05-2.86889E-05-2.17990E-06 3.02972E-19-9.10500E-19
 -1      4024 9.18218E-05-2.50825E-05-2.85965E-05-3.70749E-06-9.43266E-19-1.58053E-18
 -1      4025 9.20588E-05-2.52471E-05-2.86431E-05-3.29641E-06-1.02949E-18-1.59839E-18
 -1      4026 9.17490E-05-2.49866E-05-2.86058E-05-2.80075E-06-2.27439E-19-1.14523E-18
 -1      4027 9.12097E-05-2.48316E-05-2.84386E-05-4.67827E-06-1.23974E-18-3.85255E-19
 -1      4028 9.14064E-05-2.48979E-05-2.85145E-05-4.17478E-06-1.08925E-18-8.99546E-19
 -1      4029 9.09408E-05-2.45038E-05-2.84661E-05-3.60235E-06-1.34746E-18-1.31890E-18
 -1      4030 9.07021E-05-2.48597E-05-2.82040E-05-5.89000E-06-5.07643E-19-6.62525E-19
 -1      4031 9.08001E-05-2.47579E-05-2.83159E-05-5.27610E-06-6.45550E-19-2.91308E-19
 -1      4032 9.01103E-05-2.41758E-05-2.82513E-05-4.63788E-06-1.08194E-18-7.64262E-19
 -1      4033 9.04438E-05-2.53423E-05-2.78792E-05-7.40178E-06-6.16982E-19-1.00475E-18
 -1      4034 9.03491E-05-2.49728E-05-2.80310E-05-6.65735E-06-6.95665E-19-8.58040E-19
 -1      4035 8.93326E-05-2.41270E-05-2.79410E-05-5.98183E-06-1.40019E-19-7.12087E-19
 -1      4036 9.06683E-05-2.65231E-05-2.74591E-05-9.27568E-06-6.96764E-19-8.97993E-19
 -1      4037 9.02358E-05-2.57492E-05-2.76485E-05-8.38743E-06-5.56734E-19-9.62025E-19
 -1      4038 8.87375E-05-2.45382E-05-2.75157E-05-7.73651E-06-7.47111E-19-1.24888E-18
 -1      4039 9.17457E-05-2.87363E-05-2.69604E-05-1.15391E-05-1.04135E-18-6.89192E-19
 -1      4040 9.07645E-05-2.73772E-05-2.71691E-05-1.05247E-05-7.33463E-19-6.29053E-19
 -1      4041 8.85591E-05-2.56892E-05-2.69608E-05-1.00258E-05-7.46832E-19-9.06044E-19
 -1      4042 9.41380E-05-3.23864E-05-2.64363E-05-1.41624E-05-1.53398E-18-7.24205E-19
 -1      4043 9.23733E-05-3.01863E-05-2.66286E-05-1.30619E-05-1.62682E-18-9.72218E-19
 -1      4044 8.91767E-05-2.79382E-05-2.62859E-05-1.29466E-05-1.50298E-18-4.11084E-19
 -1      4045 9.66420E-05-2.88505E-05-2.90548E-05-6.12194E-07 2.56063E-19-9.22650E-19
 -1      4046 9.66834E-05-2.86785E-05-2.91422E-05-5.32065E-07 4.40325E-19-9.55153E-19
 -1      4047 9.63381E-05-2.91022E-05-2.88147E-05-7.01596E-07 2.41773E-19-6.60702E-19
 -1      4048 9.64241E-05-2.90905E-05-2.88560E-05-6.90372E-07 1.94154E-19-6.16442E-19
 -1      4049 9.57671E-05-2.53586E-05-3.01615E-05 1.11261E-06 9.51423E-19-1.55901E-18
 -1      4050 9.47208E-05-3.37370E-05-2.60839E-05 1.78118E-05-7.82725E-19 1.25833E-18
 -1      4051 9.73607E-05-3.68889E-05-2.58799E-05 1.88049E-05-1.14090E-18 1.33185E-18
 -1      4052 9.66881E-05-2.84418E-05-2.92514E-05-4.57961E-07 5.63138E-19-1.10098E-18
 -1      4053 9.66801E-05-2.81415E-05-2.93705E-05-3.11627E-07 6.70965E-19-1.09763E-18
 -1      4054 9.67932E-05-2.85249E-05-2.92583E-05-3.92392E-07 4.68199E-19-7.94540E-19
 -1      4055 9.65142E-05-2.90513E-05-2.89128E-05-6.82021E-07 8.63044E-20-7.21022E-19
 -1      4056 9.65842E-05-2.89724E-05-2.89745E-05-6.45543E-07 4.51330E-21-8.50496E-19
 -1      4057 9.67296E-05-2.89120E-05-2.90660E-05-5.11606E-07 4.37523E-20-7.24892E-19
 -1      4058 7.76127E-05-1.82369E-05-2.54615E-05-6.95239E-06 2.14126E-18 3.80694E-18
 -1      4059 7.68766E-05-1.76715E-05-2.53811E-05-4.10072E-06 1.27961E-18 9.06490E-19
 -1      4060 7.40477E-05-1.72504E-05-2.43467E-05-1.71623E-06 5.75890E-19 1.41980E-18
 -1      4061 7.62918E-05-1.83447E-05-2.47885E-05-8.34310E-06 2.20526E-18 3.98770E-18
 -1      4062 8.05352E-05-2.22626E-05-2.49187E-05 1.20192E-05 2.77106E-19 1.57363E-19
 -1      4063 8.31695E-05-2.29037E-05-2.58942E-05 1.17732E-05-9.51764E-19 7.47219E-20
 -1      4064 7.35047E-05-1.92929E-05-2.32719E-05 9.15112E-06 1.94804E-18 1.85566E-18
 -1      4065 6.98217E-05-1.61687E-05-2.27898E-05 2.47789E-06 1.60201E-18-4.36045E-19
 -1      4066 9.56767E-05-2.87042E-05-2.87009E-05-7.05363E-07-1.29409E-19 1.24895E-19
 -1      4067 9.57823E-05-2.88076E-05-2.87041E-05-6.94189E-07-2.37639E-19-1.23305E-19
 -1      4068 9.48334E-05-2.77906E-05-2.87310E-05-9.67804E-07 5.43874E-19-2.10417E-19
 -1      4069 9.49724E-05-2.79659E-05-2.87198E-05-8.85835E-07 8.55495E-20-1.29944E-19
 -1      4070 9.46538E-05-2.76042E-05-2.87335E-05-8.67996E-07 6.00042E-19-1.05293E-19
 -1      4071 9.61341E-05-2.90445E-05-2.87515E-05-6.98375E-07 1.81423E-19-4.00460E-19
 -1      4072 9.62288E-05-2.90817E-05-2.87767E-05-6.97803E-07 3.58452E-19-3.43526E-19
 -1      4073 9.63838E-05-2.91191E-05-2.88293E-05-5.81819E-07 3.35898E-20-4.86175E-19
 -1      4074 9.59127E-05-2.89060E-05-2.87157E-05-6.93926E-07 2.74965E-21-2.36206E-19
 -1      4075 9.60130E-05-2.89801E-05-2.87284E-05-6.92580E-07 1.72487E-19-3.23520E-19
 -1      4076 9.59059E-05-2.88709E-05-2.87302E-05-5.84245E-07-1.64928E-19 4.23651E-19
 -1      4077 8.62875E-05-2.48316E-05-2.62614E-05 1.32520E-05-9.17238E-19 1.25158E-18
 -1      4078 6.91268E-05-1.75412E-05-2.20980E-05-1.00669E-05-9.25383E-19-7.32472E-19
 -1      4079 7.37515E-05-2.14432E-05-2.24343E-05-1.58439E-05-1.31655E-18-1.26940E-18
 -1      4080 9.09734E-05-2.80876E-05-2.70168E-05 1.40808E-05-6.69187E-19 1.78283E-18
 -1      4081 9.38071E-05-2.96834E-05-2.73999E-05 1.39444E-05-3.23042E-19 7.47930E-19
 -1      4082 7.89848E-05-2.55311E-05-2.28470E-05-1.88353E-05-9.00370E-19-7.37911E-19
 -1      4083 8.62298E-05-3.11381E-05-2.36964E-05-2.07206E-05-4.43893E-19-1.29071E-18
 -1      4084 8.95938E-05-3.16575E-05-2.47859E-05-1.81539E-05-7.36131E-19-1.93924E-18
 -1      4085 9.64220E-05-3.33134E-05-2.70766E-05 1.53851E-05-6.77292E-19 1.89642E-19
 -1      4086 7.05764E-05-1.62496E-05-2.33298E-05 4.91616E-06-6.83483E-19-1.74214E-18
 -1      4087 9.35886E-05-2.64655E-05-2.87648E-05-1.82804E-06-1.29296E-19-8.53804E-19
 -1      4088 9.37952E-05-2.66963E-05-2.87623E-05-1.61853E-06-4.04562E-19-5.05999E-19
 -1      4089 9.37329E-05-2.66489E-05-2.87463E-05-1.33673E-06-5.27157E-19-6.72094E-19
 -1      4090 9.11743E-05-3.07413E-05-2.58252E-05 1.76188E-05-1.02681E-18 8.90840E-19
 -1      4091 8.79580E-05-2.73460E-05-2.59905E-05 1.51682E-05-8.77850E-19 1.09522E-18
 -1      4092 9.31565E-05-2.61048E-05-2.87314E-05-1.70135E-06-1.29125E-19-1.48605E-18
 -1      4093 9.59961E-05-2.53309E-05-3.02898E-05-1.32161E-07-6.18488E-19-2.08754E-18
 -1      4094 6.82116E-05-1.61135E-05-2.23613E-05-1.55942E-06 1.72917E-18 1.26713E-18
 -1      4095 6.89772E-05-1.68821E-05-2.22083E-05-8.94556E-06 7.70302E-19 2.14794E-18
 -1      4096 9.23742E-05-3.25482E-05-2.57284E-05-1.62806E-05-1.36341E-18-1.50442E-18
 -1      4097 9.55361E-05-2.85774E-05-2.86979E-05-7.18316E-07 1.81448E-19-5.57739E-21
 -1      4098 9.56375E-05-2.86384E-05-2.87142E-05-6.02320E-07 4.43198E-20-1.78156E-20
 -1      4099 9.54232E-05-2.84487E-05-2.87018E-05-7.46771E-07 1.85766E-19-1.27596E-20
 -1      4100 9.65820E-05-2.90910E-05-2.89263E-05-5.65663E-07 6.81501E-20-5.52700E-19
 -1      4101 9.59829E-05-2.63282E-05-2.98604E-05 7.84789E-07 9.51076E-19-1.46646E-18
 -1      4102 9.59968E-05-2.57952E-05-3.00840E-05 7.00879E-07 7.29309E-19-1.45137E-18
 -1      4103 1.14769E-04-4.71405E-05-2.88188E-05 9.17897E-06-1.48433E-18 1.20468E-18
 -1      4104 9.67247E-05-2.78572E-05-2.95145E-05-1.77147E-07 6.77920E-19-1.09279E-18
 -1      4105 9.66029E-05-2.77450E-05-2.95145E-05-1.79878E-07 7.05082E-19-1.26848E-18
 -1      4106 9.65184E-05-2.72789E-05-2.96733E-05 6.16499E-08 7.15598E-19-1.24578E-18
 -1      4107 7.09419E-05-1.58566E-05-2.35002E-05 1.25139E-06-6.82745E-19-1.18087E-18
 -1      4108 9.59911E-05-2.55501E-05-3.02024E-05 5.85837E-07 6.62059E-19-1.64708E-18
 -1      4109 9.59685E-05-2.53588E-05-3.02653E-05 4.15085E-07 4.06548E-19-1.71833E-18
 -1      4110 9.56080E-05-2.43663E-05-3.05147E-05 2.50228E-07 2.04514E-20-2.26344E-18
 -1      4111 9.50218E-05-2.80032E-05-2.87212E-05-7.33296E-07 1.24286E-19-1.59001E-19
 -1      4112 9.51452E-05-2.81435E-05-2.87134E-05-8.30315E-07 4.49813E-20 1.17182E-19
 -1      4113 9.52691E-05-2.82961E-05-2.87047E-05-7.78074E-07 1.50699E-19 1.09116E-19
 -1      4114 9.61553E-05-2.90367E-05-2.87664E-05-5.82159E-07-5.71921E-20 4.65921E-20
 -1      4115 6.85952E-05-1.58050E-05-2.26627E-05-2.85014E-06-1.07225E-18-6.29690E-19
 -1      4116 6.84111E-05-1.62120E-05-2.22504E-05-6.92862E-06-9.21258E-19-1.02666E-19
 -1      4117 7.30083E-05-1.83048E-05-2.34106E-05-8.76091E-06-8.15547E-19-9.83081E-19
 -1      4118 7.87812E-05-2.34014E-05-2.36330E-05-1.50695E-05-1.23336E-18-7.63202E-19
 -1      4119 9.61115E-05-2.67889E-05-2.97111E-05 3.94768E-07 8.47298E-19-1.35249E-18
 -1      4120 7.36872E-05-1.85532E-05-2.35480E-05-1.04709E-05 3.97179E-19 2.52934E-18
 -1      4121 9.62633E-05-2.63941E-05-2.99338E-05 3.92711E-07 5.78938E-19-1.38710E-18
 -1      4122 9.69426E-05-2.84961E-05-2.93342E-05 1.90353E-07-3.05364E-19-1.13132E-18
 -1      4123 9.69323E-05-2.87406E-05-2.92250E-05 2.59786E-07-2.66239E-19-1.09694E-18
 -1      4124 9.68916E-05-2.89236E-05-2.91283E-05 2.66374E-07-1.84726E-19-8.96760E-19
 -1      4125 9.68287E-05-2.90486E-05-2.90478E-05 3.06144E-07 7.34223E-20-8.31285E-19
 -1      4126 9.69502E-05-2.88180E-05-2.92023E-05 1.41507E-07-1.11507E-19-7.55604E-19
 -1      4127 9.67411E-05-2.91264E-05-2.89769E-05 3.03697E-07 1.01010E-19-8.74810E-19
 -1      4128 9.66446E-05-2.91630E-05-2.89195E-05 3.24482E-07 5.24628E-20-8.33159E-19
 -1      4129 9.68248E-05-2.90882E-05-2.90335E-05 1.67132E-07 5.37316E-21-8.14865E-19
 -1      4130 9.65276E-05-2.91636E-05-2.88697E-05 3.17712E-07-6.95026E-20-8.36548E-19
 -1      4131 9.64106E-05-2.91352E-05-2.88310E-05 3.28092E-07-2.49539E-20-9.41823E-19
 -1      4132 9.66234E-05-2.91709E-05-2.89116E-05 1.78012E-07-4.47211E-20-1.05162E-18
 -1      4133 9.62748E-05-2.90786E-05-2.87981E-05 3.20652E-07 1.30717E-19-1.08776E-18
 -1      4134 9.61441E-05-2.90013E-05-2.87743E-05 3.27452E-07-1.13787E-19-8.81907E-19
 -1      4135 9.63742E-05-2.91157E-05-2.88280E-05 1.81383E-07-1.38967E-19-1.04388E-18
 -1      4136 9.59943E-05-2.89005E-05-2.87546E-05 3.22057E-07-3.97093E-20-9.08406E-19
 -1      4137 9.58518E-05-2.87843E-05-2.87422E-05 3.30546E-07 2.10595E-19-8.90949E-19
 -1      4138 9.60927E-05-2.89564E-05-2.87747E-05 1.82688E-07 5.43123E-20-9.96089E-19
 -1      4139 9.56879E-05-2.86468E-05-2.87325E-05 3.29197E-07-1.04463E-19-1.03814E-18
 -1      4140 9.55316E-05-2.84965E-05-2.87286E-05 3.43324E-07-3.88993E-19-1.13225E-18
 -1      4141 9.57834E-05-2.87143E-05-2.87447E-05 1.85835E-07-9.50114E-20-1.05584E-18
 -1      4142 9.53500E-05-2.83256E-05-2.87260E-05 3.47411E-07-1.40954E-19-1.02430E-18
 -1      4143 9.51739E-05-2.81419E-05-2.87278E-05 3.69857E-07 9.01203E-20-1.08418E-18
 -1      4144 9.54426E-05-2.84006E-05-2.87318E-05 1.93241E-07-9.50810E-20-1.04613E-18
 -1      4145 9.49696E-05-2.79380E-05-2.87294E-05 3.79215E-07 4.02485E-19-8.76893E-19
 -1      4146 9.47649E-05-2.77206E-05-2.87341E-05 4.10519E-07 3.74411E-19-3.07753E-19
 -1      4147 9.50645E-05-2.80222E-05-2.87301E-05 2.07152E-07 4.08851E-19-2.92772E-19
 -1      4148 9.45244E-05-2.74779E-05-2.87369E-05 4.27046E-07 3.99501E-19-4.46360E-19
 -1      4149 9.42827E-05-2.72222E-05-2.87415E-05 4.70290E-07 4.99749E-19-2.61820E-19
 -1      4150 9.46199E-05-2.75631E-05-2.87338E-05 2.26399E-07 3.52771E-19-7.12507E-19
 -1      4151 9.39970E-05-2.69412E-05-2.87419E-05 4.90056E-07 2.24587E-19-2.52774E-19
 -1      4152 9.37039E-05-2.66434E-05-2.87426E-05 5.42653E-07 3.02737E-19-2.54167E-19
 -1      4153 9.41037E-05-2.70338E-05-2.87361E-05 2.47723E-07 3.11273E-19-1.42573E-18
 -1      4154 9.33588E-05-2.63181E-05-2.87364E-05 5.64201E-07 2.74080E-19-6.46409E-20
 -1      4155 9.29981E-05-2.59740E-05-2.87286E-05 6.23252E-07 1.15758E-19-1.82008E-20
 -1      4156 9.34820E-05-2.64201E-05-2.87292E-05 2.65650E-07 5.52188E-19-1.38962E-18
 -1      4157 9.25787E-05-2.56014E-05-2.87102E-05 6.41821E-07-1.17534E-20 1.16630E-19
 -1      4158 9.21318E-05-2.52080E-05-2.86877E-05 7.01800E-07 2.79601E-19-1.86587E-19
 -1      4159 9.27279E-05-2.57167E-05-2.87032E-05 2.71031E-07 3.67967E-19-1.12416E-18
 -1      4160 9.16209E-05-2.47871E-05-2.86499E-05 7.09777E-07 1.84545E-19-3.00410E-19
 -1      4161 9.10657E-05-2.43433E-05-2.86042E-05 7.61919E-07-4.01993E-19-2.11882E-19
 -1      4162 9.18092E-05-2.49206E-05-2.86453E-05 2.48272E-07-8.98974E-20-1.26236E-18
 -1      4163 9.04440E-05-2.38758E-05-2.85374E-05 7.48012E-07-9.95932E-19 2.16848E-20
 -1      4164 8.97538E-05-2.33836E-05-2.84571E-05 7.79919E-07-8.82650E-19-1.35189E-19
 -1      4165 9.06893E-05-2.40341E-05-2.85385E-05 1.74221E-07-6.15640E-19-8.92664E-19
 -1      4166 8.89982E-05-2.28752E-05-2.83483E-05 7.28186E-07-8.79439E-19 1.55099E-19
 -1      4167 8.81390E-05-2.23396E-05-2.82179E-05 7.23951E-07-5.73830E-19-4.17259E-20
 -1      4168 8.93261E-05-2.30661E-05-2.83605E-05 1.56201E-08-8.80736E-19-6.67692E-19
 -1      4169 8.72193E-05-2.17992E-05-2.80494E-05 6.12770E-07-2.79102E-19-7.45663E-19
 -1      4170 8.61445E-05-2.12277E-05-2.78472E-05 5.54382E-07-2.29605E-19-6.13784E-19
 -1      4171 8.76673E-05-2.20331E-05-2.80808E-05-2.74226E-07-7.81868E-19-1.07060E-18
 -1      4172 8.50156E-05-2.06646E-05-2.75946E-05 3.56370E-07-5.61651E-19-5.67699E-19
 -1      4173 8.36604E-05-2.00665E-05-2.72904E-05 2.26981E-07-9.03615E-19-4.70718E-19
 -1      4174 8.56404E-05-2.09563E-05-2.76581E-05-7.60897E-07-8.87136E-19-1.56253E-18
 -1      4175 8.22527E-05-1.94966E-05-2.69178E-05-7.92925E-08-1.30919E-18-1.41113E-19
 -1      4176 8.05295E-05-1.88880E-05-2.64655E-05-2.93051E-07-1.09632E-18-2.19185E-19
 -1      4177 8.31167E-05-1.98511E-05-2.70333E-05-1.53424E-06-8.17608E-19-1.00781E-18
 -1      4178 7.87138E-05-1.82770E-05-2.59261E-05-8.06892E-07-7.01489E-19-8.64089E-20
 -1      4179 7.64829E-05-1.76381E-05-2.52685E-05-1.04008E-06-3.36985E-19-5.45743E-19
 -1      4180 7.99749E-05-1.88706E-05-2.61455E-05-2.51748E-06-7.68706E-19 2.31094E-19
 -1      4181 9.27683E-05-2.57857E-05-2.87062E-05-1.47672E-06-3.57965E-19-1.14728E-18
 -1      4182 9.30798E-05-2.60821E-05-2.87207E-05-1.28720E-06-2.27036E-19-1.33807E-18
 -1      4183 9.01309E-05-2.39476E-05-2.83592E-05-3.28016E-06-1.48375E-18-1.07681E-18
 -1      4184 9.05435E-05-2.41993E-05-2.84492E-05-2.86645E-06-1.08229E-18-1.06592E-18
 -1      4185 9.40042E-05-2.69417E-05-2.87408E-05-8.98454E-07 8.52139E-20-1.75067E-19
 -1      4186 9.42355E-05-2.71910E-05-2.87375E-05-7.92067E-07 4.11087E-19 2.12098E-19
 -1      4187 8.68342E-05-2.83601E-05-2.50183E-05-1.61468E-05-1.52563E-18-1.31565E-18
 -1      4188 9.11110E-05-2.45218E-05-2.85355E-05-2.50546E-06-4.78226E-19-9.78771E-19
 -1      4189 9.15019E-05-2.48163E-05-2.85919E-05-2.18589E-06 1.98706E-19-8.33703E-19
 -1      4190 9.03795E-05-2.39615E-05-2.84377E-05-2.19253E-06-5.72435E-19-7.41278E-19
 -1      4191 9.19939E-05-2.51524E-05-2.86451E-05-1.91951E-06 3.86194E-19-1.19036E-18
 -1      4192 9.23480E-05-2.54579E-05-2.86768E-05-1.67267E-06 7.11600E-20-1.43168E-18
 -1      4193 9.23268E-05-2.53983E-05-2.86674E-05-1.22219E-06 1.03767E-19-1.49200E-18
 -1      4194 9.14252E-05-2.46853E-05-2.85817E-05-1.63187E-06 2.27961E-20-1.33210E-18
 -1      4195 8.90836E-05-2.35103E-05-2.80936E-05-4.30796E-06-7.60290E-19-1.35800E-18
 -1      4196 8.94886E-05-2.36722E-05-2.82278E-05-3.76988E-06-1.16198E-18-1.09096E-18
 -1      4197 8.91878E-05-2.32759E-05-2.82132E-05-2.96061E-06-1.22031E-18-1.08766E-18
 -1      4198 8.80268E-05-2.33255E-05-2.77133E-05-5.68031E-06-4.30076E-19-7.80775E-19
 -1      4199 8.83731E-05-2.33298E-05-2.79027E-05-4.97488E-06-5.82180E-19-9.77254E-19
 -1      4200 8.78591E-05-2.27005E-05-2.78807E-05-4.01667E-06-1.13760E-18-1.15849E-18
 -1      4201 8.70675E-05-2.35626E-05-2.71904E-05-7.53091E-06-4.97926E-19-1.10338E-18
 -1      4202 8.72622E-05-2.33052E-05-2.74456E-05-6.59628E-06-4.31250E-19-8.92673E-19
 -1      4203 8.64143E-05-2.23366E-05-2.74062E-05-5.47556E-06-3.31268E-19-1.01707E-18
 -1      4204 8.63812E-05-2.44700E-05-2.64946E-05-1.00893E-05-1.04034E-18-7.85007E-19
 -1      4205 8.62695E-05-2.37716E-05-2.68260E-05-8.80667E-06-6.43508E-19-1.08988E-18
 -1      4206 8.48738E-05-2.23348E-05-2.67502E-05-7.48811E-06-4.49946E-19-1.36163E-18
 -1      4207 8.63539E-05-2.64314E-05-2.56152E-05-1.34371E-05-1.52585E-18-5.57307E-19
 -1      4208 8.57345E-05-2.50915E-05-2.60079E-05-1.17604E-05-1.10096E-18-3.69298E-19
 -1      4209 8.34905E-05-2.31321E-05-2.58770E-05-1.04056E-05-1.15382E-18-1.29330E-18
 -1      4210 9.67933E-05-2.89967E-05-2.90562E-05-4.13975E-07-2.54785E-19-5.96478E-19
 -1      4211 9.68536E-05-2.88561E-05-2.91392E-05-3.62390E-07 9.67038E-20-5.65786E-19
 -1      4212 7.65954E-05-2.12256E-05-2.36209E-05 1.32355E-05 1.28533E-18 1.01147E-18
 -1      4213 9.44889E-05-2.74378E-05-2.87357E-05-7.20774E-07 7.54773E-20 1.74667E-19
 -1      4214 9.46892E-05-2.76592E-05-2.87299E-05-6.44257E-07 2.18975E-19-4.66546E-19
 -1      4215 9.42898E-05-2.72312E-05-2.87337E-05-5.56443E-07 2.02598E-19-2.79629E-19
 -1      4216 9.68773E-05-2.86553E-05-2.92400E-05-3.39947E-07 2.08803E-19-6.62149E-19
 -1      4217 9.68850E-05-2.83901E-05-2.93522E-05-2.49273E-07 3.41549E-19-8.76845E-19
 -1      4218 9.69253E-05-2.87362E-05-2.92266E-05-2.40729E-07 8.94663E-20-6.20506E-19
 -1      4219 9.59577E-05-2.52646E-05-3.03067E-05 2.87721E-07 2.93564E-19-1.92567E-18
 -1      4220 9.59517E-05-2.51962E-05-3.03297E-05 7.65643E-08-1.53290E-19-1.95185E-18
 -1      4221 9.62973E-05-2.60589E-05-3.00904E-05 2.13292E-07 3.42344E-19-1.65096E-18
 -1      4222 9.34353E-05-2.63883E-05-2.87341E-05-1.14436E-06-1.59769E-19-1.01895E-18
 -1      4223 9.37047E-05-2.66640E-05-2.87373E-05-1.00075E-06-9.29071E-21-3.79704E-19
 -1      4224 9.30943E-05-2.60700E-05-2.87125E-05-9.23790E-07 2.60457E-19-1.14800E-18
 -1      4225 9.58869E-05-2.88324E-05-2.87365E-05-4.54949E-07-6.48134E-20-5.46727E-19
 -1      4226 9.60180E-05-2.89354E-05-2.87495E-05-4.45920E-07-1.33850E-20-3.48491E-19
 -1      4227 9.64086E-05-2.91355E-05-2.88304E-05-4.51470E-07-9.79098E-20-3.49407E-19
 -1      4228 9.65190E-05-2.91516E-05-2.88704E-05-4.40194E-07 4.26501E-20-5.09630E-19
 -1      4229 7.85839E-05-2.17375E-05-2.43679E-05-1.21199E-05-1.14894E-18-1.47023E-18
 -1      4230 8.29312E-05-2.53760E-05-2.47083E-05-1.49456E-05-9.41226E-19-1.16976E-18
 -1      4231 9.61593E-05-2.90250E-05-2.87707E-05-4.50676E-07 1.09040E-20-2.79900E-19
 -1      4232 9.62813E-05-2.90900E-05-2.87955E-05-4.44301E-07-8.34590E-20-3.45270E-19
 -1      4233 9.61283E-05-2.89915E-05-2.87757E-05-3.17909E-07 1.00616E-20-9.60659E-19
 -1      4234 9.63295E-05-2.60792E-05-3.00986E-05-3.99724E-08-2.79563E-19-1.63044E-18
 -1      4235 9.66262E-05-2.91388E-05-2.89228E-05-4.44546E-07 5.40149E-20-5.72335E-19
 -1      4236 9.67181E-05-2.90889E-05-2.89820E-05-4.18957E-07-1.14631E-19-5.44487E-19
 -1      4237 9.66323E-05-2.91580E-05-2.89216E-05-3.10920E-07-2.10581E-20-5.27111E-19
 -1      4238 7.33530E-05-1.68273E-05-2.42541E-05-1.95850E-06-4.54489E-19-5.89422E-19
 -1      4239 9.62748E-05-2.68883E-05-2.97403E-05 2.73730E-07 6.56131E-19-1.15206E-18
 -1      4240 7.24720E-05-1.69066E-05-2.38610E-05-1.80137E-06 1.13973E-18 1.93349E-18
 -1      4241 7.53007E-05-1.77172E-05-2.46135E-05-4.56619E-06-6.95814E-19 4.48049E-19
 -1      4242 9.68518E-05-2.77493E-05-2.96173E-05 4.10328E-08-2.81796E-19-1.16567E-18
 -1      4243 9.69141E-05-2.81620E-05-2.94655E-05 1.52244E-07-2.61631E-19-1.15601E-18
 -1      4244 9.69603E-05-2.82930E-05-2.94301E-05 7.43829E-08-1.29842E-19-8.51793E-19
 -1      4245 9.69030E-05-2.81638E-05-2.94607E-05-1.47050E-07 4.11756E-19-8.26195E-19
 -1      4246 9.68294E-05-2.80390E-05-2.94847E-05-1.95757E-07 5.87688E-19-9.83755E-19
 -1      4247 9.67509E-05-2.76043E-05-2.96327E-05-5.58311E-08 5.26126E-19-1.19410E-18
 -1      4248 7.48286E-05-1.82118E-05-2.42999E-05-8.75702E-06 2.21225E-18 4.03108E-18
 -1      4249 7.65724E-05-1.99310E-05-2.42628E-05-1.01406E-05-1.13190E-18-1.39420E-18
 -1      4250 8.08020E-05-2.17769E-05-2.52338E-05-1.01605E-05-1.40724E-18-1.32142E-18
 -1      4251 8.13075E-05-2.12788E-05-2.57549E-05-8.50019E-06-9.39719E-19-1.21111E-18
 -1      4252 7.52457E-05-1.85570E-05-2.43448E-05-7.30502E-06-1.12669E-18-4.25257E-19
 -1      4253 9.68187E-05-2.90448E-05-2.90498E-05-2.90333E-07-1.00580E-19-4.47710E-19
 -1      4254 9.53458E-05-2.83480E-05-2.87130E-05-6.48252E-07 2.44178E-19-4.03754E-19
 -1      4255 9.55918E-05-2.85724E-05-2.87215E-05-4.74881E-07 4.22530E-19-8.44725E-19
 -1      4256 9.57329E-05-2.87073E-05-2.87258E-05-4.56961E-07 2.47204E-19-4.72734E-19
 -1      4257 9.58347E-05-2.87718E-05-2.87429E-05-3.24412E-07 2.42248E-19-1.13741E-18
 -1      4258 9.63964E-05-2.91281E-05-2.88329E-05-3.16422E-07-2.20095E-19-2.66468E-19
 -1      4259 9.47579E-05-2.77213E-05-2.87295E-05-4.47253E-07 2.49662E-19-1.23020E-18
 -1      4260 9.49049E-05-2.78747E-05-2.87267E-05-5.99682E-07 3.12574E-19-7.48172E-19
 -1      4261 9.50791E-05-2.80662E-05-2.87216E-05-5.47161E-07 4.94487E-20-6.68547E-19
 -1      4262 9.37428E-05-2.66834E-05-2.87310E-05-7.08571E-07 4.61559E-19-2.89249E-19
 -1      4263 9.65491E-05-2.66949E-05-2.99416E-05-7.41216E-08-1.78195E-19-1.55846E-18
 -1      4264 9.67413E-05-2.73130E-05-2.97536E-05 2.69494E-08-1.05437E-19-1.36951E-18
 -1      4265 9.68146E-05-2.75261E-05-2.96948E-05 4.28921E-09 1.39754E-19-1.10635E-18
 -1      4266 9.65003E-05-2.65596E-05-2.99776E-05 4.16014E-08 1.79945E-19-1.34789E-18
 -1      4267 9.68601E-05-2.90800E-05-2.90469E-05-6.48800E-08-6.35331E-20-7.60566E-19
 -1      4268 9.67695E-05-2.91513E-05-2.89761E-05-5.47304E-08-1.50732E-19-8.49877E-19
 -1      4269 9.66631E-05-2.91758E-05-2.89211E-05-6.53701E-08-1.35757E-19-6.68210E-19
 -1      4270 9.65432E-05-2.91706E-05-2.88712E-05-5.93571E-08-9.60554E-20-6.71245E-19
 -1      4271 9.64154E-05-2.91314E-05-2.88341E-05-6.52089E-08-2.17280E-19-8.73260E-19
 -1      4272 9.62766E-05-2.90693E-05-2.88010E-05-6.14273E-08-2.24061E-19-9.05577E-19
 -1      4273 9.61340E-05-2.89820E-05-2.87780E-05-6.65421E-08 1.11438E-20-9.50248E-19
 -1      4274 9.59810E-05-2.88758E-05-2.87581E-05-6.36495E-08 5.97788E-20-9.66451E-19
 -1      4275 9.58251E-05-2.87500E-05-2.87458E-05-7.14249E-08 1.86738E-20-7.79441E-19
 -1      4276 9.56580E-05-2.86068E-05-2.87358E-05-6.86148E-08 7.90274E-20-8.07381E-19
 -1      4277 9.51606E-05-2.81299E-05-2.87291E-05 2.48647E-08 2.80102E-19-3.92009E-19
 -1      4278 9.49536E-05-2.79220E-05-2.87295E-05 3.44622E-08 2.48836E-19-7.30139E-19
 -1      4279 9.46774E-05-2.76429E-05-2.87310E-05-1.33492E-07 1.43746E-19-9.03450E-19
 -1      4280 9.44319E-05-2.73966E-05-2.87329E-05-1.33565E-07 2.36406E-19-1.19987E-18
 -1      4281 9.41726E-05-2.71390E-05-2.87335E-05-1.86007E-07 3.89470E-19-1.24475E-18
 -1      4282 9.38803E-05-2.68519E-05-2.87323E-05-1.89435E-07 4.73137E-19-1.13445E-18
 -1      4283 9.35737E-05-2.65594E-05-2.87274E-05-2.65219E-07 4.29935E-19-1.39530E-18
 -1      4284 9.32217E-05-2.62304E-05-2.87191E-05-2.77221E-07 5.78853E-19-1.21162E-18
 -1      4285 9.28569E-05-2.59033E-05-2.87038E-05-3.84419E-07 6.03476E-19-1.48374E-18
 -1      4286 9.24297E-05-2.55312E-05-2.86827E-05-4.12344E-07 3.24584E-19-1.18609E-18
 -1      4287 9.19964E-05-2.51731E-05-2.86508E-05-5.62255E-07 4.15328E-20-1.17682E-18
 -1      4288 9.14769E-05-2.47596E-05-2.86095E-05-6.16765E-07-1.08837E-19-1.10593E-18
 -1      4289 9.09665E-05-2.43793E-05-2.85529E-05-8.25494E-07-2.90531E-19-5.90218E-19
 -1      4290 9.03354E-05-2.39298E-05-2.84817E-05-9.21963E-07-3.59488E-19-3.70311E-19
 -1      4291 8.97413E-05-2.35429E-05-2.83903E-05-1.21246E-06-9.99662E-19-5.11469E-19
 -1      4292 8.89758E-05-2.30678E-05-2.82763E-05-1.37267E-06-1.23426E-18-6.94617E-19
 -1      4293 8.82944E-05-2.26986E-05-2.81371E-05-1.77769E-06-1.28613E-18-7.85180E-19
 -1      4294 8.73657E-05-2.22136E-05-2.79629E-05-2.03245E-06-1.38031E-18-1.39358E-18
 -1      4295 8.65986E-05-2.18972E-05-2.77596E-05-2.59839E-06-1.10561E-18-1.10712E-18
 -1      4296 8.54674E-05-2.14229E-05-2.75019E-05-2.99299E-06-5.92472E-19-1.15030E-18
 -1      4297 8.46281E-05-2.12083E-05-2.72144E-05-3.78341E-06-4.95141E-19-1.28872E-18
 -1      4298 8.32397E-05-2.07584E-05-2.68406E-05-4.40552E-06-4.13787E-19-7.58628E-19
 -1      4299 8.23913E-05-2.06676E-05-2.64581E-05-5.41894E-06-3.42111E-19-5.27205E-19
 -1      4300 9.63518E-05-2.66514E-05-2.98701E-05 2.52531E-07 5.85900E-19-1.36278E-18
 -1      4301 9.64954E-05-2.67303E-05-2.99052E-05 1.39253E-07 3.12645E-19-1.55593E-18
 -1      4302 9.65027E-05-2.66352E-05-2.99465E-05 7.85918E-08 2.18198E-19-1.57887E-18
 -1      4303 9.69758E-05-2.87930E-05-2.92205E-05-6.15417E-08-8.29019E-20-9.29618E-19
 -1      4304 9.69929E-05-2.85616E-05-2.93242E-05-2.72630E-08 4.43901E-20-8.94009E-19
 -1      4305 7.82995E-05-1.91090E-05-2.53627E-05-5.82251E-06-8.90589E-19-2.52158E-20
 -1      4306 7.32242E-05-1.71149E-05-2.39815E-05-5.63581E-06 1.84040E-18 4.29383E-18
 -1      4307 9.69325E-05-2.89685E-05-2.91242E-05-4.44598E-08-7.08289E-21-7.31408E-19
 -1      4308 9.69643E-05-2.82489E-05-2.94505E-05-6.64175E-08 1.71450E-19-1.07494E-18
 -1      4309 9.52678E-05-2.82528E-05-2.87200E-05-5.19990E-07 3.84808E-20-4.94182E-19
 -1      4310 9.54227E-05-2.84164E-05-2.87182E-05-4.87906E-07 2.56914E-19-9.03264E-19
 -1      4311 9.55139E-05-2.84822E-05-2.87282E-05-3.43812E-07 3.09673E-19-9.13838E-19
 -1      4312 9.67061E-05-2.71528E-05-2.98008E-05 1.38844E-08 1.87782E-19-1.42465E-18
 -1      4313 9.64729E-05-2.68194E-05-2.98522E-05 1.49532E-07 5.24874E-19-1.38008E-18
 -1      4314 9.66681E-05-2.73160E-05-2.97189E-05-1.09523E-08 4.08541E-19-1.35501E-18
 -1      4315 9.67634E-05-2.75061E-05-2.96836E-05-3.52325E-08 3.38984E-19-1.41089E-18
 -1      4316 9.51593E-05-2.81318E-05-2.87253E-05-3.82754E-07 9.78812E-20-1.14349E-18
 -1      4317 9.68997E-05-2.78561E-05-2.95860E-05-1.55277E-08 2.20786E-19-1.11571E-18
 -1      4318 9.54865E-05-2.84471E-05-2.87313E-05-8.19243E-08 1.21614E-19-7.53811E-19
 -1      4319 9.53031E-05-2.82698E-05-2.87283E-05-8.03531E-08 2.76957E-19-3.14068E-19
 -1      4320 7.99120E-05-1.94460E-05-2.59059E-05-4.98886E-06-6.51583E-19-4.35394E-19
 -1      4321 9.48026E-05-2.77628E-05-2.87297E-05-3.12712E-07-2.51803E-20-9.74056E-19
 -1      4322 9.67865E-05-2.74576E-05-2.97138E-05-2.30398E-08 2.51505E-19-1.34705E-18
 -1      4323 9.52070E-05-2.81792E-05-2.87267E-05-2.58316E-07 2.17001E-19-7.79501E-19
 -1      4324 9.50206E-05-2.79873E-05-2.87274E-05-2.78730E-07 1.38374E-19-1.16713E-18
 -3
    1PSTEP                         4           1           1          
  100CL  101 1.000000000        4324                     0    1           1
 -4  ERROR       1    1
 -5  STR(%)      1    1    0    0
 -1         1 1.26190E+01
 -1         2 2.45083E+01
 -1         3 7.88975E-02
 -1         4 1.54544E-01
 -1         5 1.40412E+01
 -1         6 1.31453E+01
 -1         7 1.31453E+01
 -1         8 3.66336E+00
 -1         9 1.82296E+00
 -1        10 1.29087E+00
 -1        11 1.04545E+00
 -1        12 8.99054E-01
 -1        13 8.08886E-01
 -1        14 7.54322E-01
 -1        15 7.56268E-01
 -1        16 8.13130E-01
 -1        17 9.00586E-01
 -1        18 1.05214E+00
 -1        19 1.30707E+00
 -1        20 1.83481E+00
 -1        21 3.50511E+00
 -1        22 8.64279E+00
 -1        23 1.31453E+01
 -1        24 4.31940E+00
 -1        25 3.34339E+00
 -1        26 2.11428E+00
 -1        27 1.36591E+00
 -1        28 1.01640E+00
 -1        29 7.78316E-01
 -1        30 5.99826E-01
 -1        31 4.61354E-01
 -1        32 3.55006E-01
 -1        33 2.78506E-01
 -1        34 2.18094E-01
 -1        35 1.71790E-01
 -1        36 1.37677E-01
 -1        37 1.13980E-01
 -1        38 9.93476E-02
 -1        39 1.04605E-01
 -1        40 1.21298E-01
 -1        41 1.55546E-01
 -1        42 2.03600E-01
 -1        43 2.67552E-01
 -1        44 3.49181E-01
 -1        45 4.49183E-01
 -1        46 5.65815E-01
 -1        47 6.92702E-01
 -1        48 8.66631E-01
 -1        49 1.13068E+00
 -1        50 1.41941E+00
 -1        51 1.78123E+00
 -1        52 2.04771E+00
 -1        53 2.04771E+00
 -1        54 2.08352E+00
 -1        55 2.08352E+00
 -1        56 2.75084E+00
 -1        57 5.16601E+00
 -1        58 5.95344E+00
 -1        59 5.95344E+00
 -1        60 5.90079E+00
 -1        61 4.35077E+00
 -1        62 2.41761E+00
 -1        63 1.94069E+00
 -1        64 2.06983E+00
 -1        65 2.06983E+00
 -1        66 1.91054E+00
 -1        67 1.50704E+00
 -1        68 1.22860E+00
 -1        69 1.16521E+00
 -1        70 9.43498E-01
 -1        71 7.32040E-01
 -1        72 1.40412E+01
 -1        73 3.39589E+00
 -1        74 2.41475E+00
 -1        75 1.66789E+00
 -1        76 1.14720E+00
 -1        77 9.07337E-01
 -1        78 7.33414E-01
 -1        79 5.91100E-01
 -1        80 4.73198E-01
 -1        81 3.76025E-01
 -1        82 3.03108E-01
 -1        83 2.44676E-01
 -1        84 1.98042E-01
 -1        85 1.62596E-01
 -1        86 1.37517E-01
 -1        87 1.21902E-01
 -1        88 1.27016E-01
 -1        89 1.40899E-01
 -1        90 1.60009E-01
 -1        91 1.81816E-01
 -1        92 2.25661E-01
 -1        93 2.76401E-01
 -1        94 3.28866E-01
 -1        95 3.75877E-01
 -1        96 4.06504E-01
 -1        97 4.17025E-01
 -1        98 5.11241E-01
 -1        99 6.37090E-01
 -1       100 7.19748E-01
 -1       101 8.76794E-01
 -1       102 1.05644E+00
 -1       103 1.06832E+00
 -1       104 1.34705E+00
 -1       105 1.51415E+00
 -1       106 2.26296E+00
 -1       107 2.58269E+00
 -1       108 2.86328E+00
 -1       109 2.86328E+00
 -1       110 2.73303E+00
 -1       111 2.02836E+00
 -1       112 1.22651E+00
 -1       113 7.72890E-01
 -1       114 6.90624E-01
 -1       115 7.79468E-01
 -1       116 7.79468E-01
 -1       117 6.84658E-01
 -1       118 5.71387E-01
 -1       119 4.92252E-01
 -1       120 2.92918E-01
 -1       121 1.51014E-01
 -1       122 1.51014E-01
 -1       123 1.37252E-01
 -1       124 1.05283E-01
 -1       125 6.41380E-02
 -1       126 6.87273E-02
 -1       127 1.40453E-01
 -1       128 1.97242E-01
 -1       129 2.19986E-01
 -1       130 2.19986E-01
 -1       131 2.01696E-01
 -1       132 1.43569E-01
 -1       133 7.42268E-02
 -1       134 1.84729E-01
 -1       135 3.41912E-01
 -1       136 4.13110E-01
 -1       137 2.48510E+01
 -1       138 4.67953E+01
 -1       139 4.67953E+01
 -1       140 1.93025E+01
 -1       141 1.21084E+01
 -1       142 1.21084E+01
 -1       143 1.22235E+01
 -1       144 1.22235E+01
 -1       145 1.21014E+01
 -1       146 1.25037E+01
 -1       147 2.81310E+01
 -1       148 2.95764E+01
 -1       149 2.87778E+01
 -1       150 2.48121E+01
 -1       151 2.53924E+01
 -1       152 2.53924E+01
 -1       153 4.46843E+01
 -1       154 4.46843E+01
 -1       155 1.82991E+01
 -1       156 1.20006E+01
 -1       157 1.21554E+01
 -1       158 1.26190E+01
 -1       159 1.22996E+01
 -1       160 1.19608E+01
 -1       161 2.61344E+01
 -1       162 2.89039E+01
 -1       163 2.89039E+01
 -1       164 2.53561E+01
 -1       165 6.07786E+00
 -1       166 2.29735E+00
 -1       167 1.50755E+00
 -1       168 1.15688E+00
 -1       169 9.72908E-01
 -1       170 8.64115E-01
 -1       171 7.96305E-01
 -1       172 7.56268E-01
 -1       173 7.99672E-01
 -1       174 8.67203E-01
 -1       175 9.80714E-01
 -1       176 1.17192E+00
 -1       177 1.52682E+00
 -1       178 2.26006E+00
 -1       179 3.93104E+00
 -1       180 1.40412E+01
 -1       181 4.31940E+00
 -1       182 3.34339E+00
 -1       183 2.11428E+00
 -1       184 1.44993E+00
 -1       185 1.02910E+00
 -1       186 7.78316E-01
 -1       187 5.99826E-01
 -1       188 4.73381E-01
 -1       189 3.75082E-01
 -1       190 2.97238E-01
 -1       191 2.42251E-01
 -1       192 1.96097E-01
 -1       193 1.58540E-01
 -1       194 1.28816E-01
 -1       195 1.05853E-01
 -1       196 9.83584E-02
 -1       197 1.04605E-01
 -1       198 1.29247E-01
 -1       199 1.65093E-01
 -1       200 2.12709E-01
 -1       201 2.73366E-01
 -1       202 3.50725E-01
 -1       203 4.86727E-01
 -1       204 6.55361E-01
 -1       205 8.53595E-01
 -1       206 1.06843E+00
 -1       207 1.27065E+00
 -1       208 1.47286E+00
 -1       209 1.78123E+00
 -1       210 2.04771E+00
 -1       211 2.02439E+00
 -1       212 2.08352E+00
 -1       213 1.96194E+00
 -1       214 3.04245E+00
 -1       215 5.16601E+00
 -1       216 5.95344E+00
 -1       217 5.90079E+00
 -1       218 4.35077E+00
 -1       219 2.46049E+00
 -1       220 1.79553E+00
 -1       221 1.94069E+00
 -1       222 2.06983E+00
 -1       223 1.91054E+00
 -1       224 1.50704E+00
 -1       225 1.22860E+00
 -1       226 1.16521E+00
 -1       227 9.43498E-01
 -1       228 7.32040E-01
 -1       229 3.39589E+00
 -1       230 2.41475E+00
 -1       231 1.66789E+00
 -1       232 1.14720E+00
 -1       233 9.07337E-01
 -1       234 7.33414E-01
 -1       235 5.91100E-01
 -1       236 4.73198E-01
 -1       237 3.76025E-01
 -1       238 3.03108E-01
 -1       239 2.44676E-01
 -1       240 1.98291E-01
 -1       241 1.63378E-01
 -1       242 1.37517E-01
 -1       243 1.21902E-01
 -1       244 1.20139E-01
 -1       245 1.27016E-01
 -1       246 1.40899E-01
 -1       247 1.62936E-01
 -1       248 1.99984E-01
 -1       249 2.41187E-01
 -1       250 2.82887E-01
 -1       251 3.28866E-01
 -1       252 3.75877E-01
 -1       253 4.06504E-01
 -1       254 4.38947E-01
 -1       255 5.20380E-01
 -1       256 6.37090E-01
 -1       257 7.19748E-01
 -1       258 8.76794E-01
 -1       259 1.05644E+00
 -1       260 1.06832E+00
 -1       261 1.34705E+00
 -1       262 1.66949E+00
 -1       263 2.26296E+00
 -1       264 2.58269E+00
 -1       265 2.86328E+00
 -1       266 2.73303E+00
 -1       267 2.02836E+00
 -1       268 1.24584E+00
 -1       269 7.72890E-01
 -1       270 5.83532E-01
 -1       271 6.90624E-01
 -1       272 7.79468E-01
 -1       273 6.84658E-01
 -1       274 5.71387E-01
 -1       275 4.92252E-01
 -1       276 3.04743E-01
 -1       277 1.99628E-01
 -1       278 2.24759E-01
 -1       279 2.24759E-01
 -1       280 1.77760E-01
 -1       281 1.07291E-01
 -1       282 2.34518E-01
 -1       283 3.47858E-01
 -1       284 4.14077E-01
 -1       285 4.15923E-01
 -1       286 4.15923E-01
 -1       287 3.61933E-01
 -1       288 2.35170E-01
 -1       289 2.69681E-01
 -1       290 2.69681E-01
 -1       291 4.13110E-01
 -1       292 3.19897E+01
 -1       293 2.61641E+01
 -1       294 4.67953E+01
 -1       295 2.11523E+01
 -1       296 1.04832E+01
 -1       297 1.21084E+01
 -1       298 1.20524E+01
 -1       299 1.22235E+01
 -1       300 1.21014E+01
 -1       301 1.17417E+01
 -1       302 1.25037E+01
 -1       303 2.95764E+01
 -1       304 2.95764E+01
 -1       305 2.50336E+01
 -1       306 2.96952E+01
 -1       307 2.96952E+01
 -1       308 3.90764E+01
 -1       309 4.46843E+01
 -1       310 1.85739E+01
 -1       311 1.07419E+01
 -1       312 1.20006E+01
 -1       313 1.21554E+01
 -1       314 1.26190E+01
 -1       315 1.22996E+01
 -1       316 1.15583E+01
 -1       317 1.19608E+01
 -1       318 2.84183E+01
 -1       319 2.99323E+01
 -1       320 2.99323E+01
 -1       321 3.19897E+01
 -1       322 1.04579E+00
 -1       323 2.47957E+00
 -1       324 7.91014E-01
 -1       325 6.93776E-01
 -1       326 6.31663E-01
 -1       327 5.87707E-01
 -1       328 5.90942E-01
 -1       329 6.34423E-01
 -1       330 7.00952E-01
 -1       331 7.96018E-01
 -1       332 9.31167E-01
 -1       333 1.15909E+00
 -1       334 1.32813E+00
 -1       335 2.20173E+00
 -1       336 1.91536E+00
 -1       337 1.03671E+01
 -1       338 1.73140E+00
 -1       339 1.27013E+00
 -1       340 9.10312E-01
 -1       341 6.59858E-01
 -1       342 5.42212E-01
 -1       343 4.46328E-01
 -1       344 3.62331E-01
 -1       345 2.97238E-01
 -1       346 2.43370E-01
 -1       347 1.97570E-01
 -1       348 1.59745E-01
 -1       349 1.30094E-01
 -1       350 1.05853E-01
 -1       351 9.11102E-02
 -1       352 8.68749E-02
 -1       353 1.03670E-01
 -1       354 1.29247E-01
 -1       355 1.65093E-01
 -1       356 2.36182E-01
 -1       357 3.31232E-01
 -1       358 4.51742E-01
 -1       359 6.00281E-01
 -1       360 7.75977E-01
 -1       361 9.71238E-01
 -1       362 1.16715E+00
 -1       363 1.32847E+00
 -1       364 1.45872E+00
 -1       365 1.60602E+00
 -1       366 1.67116E+00
 -1       367 1.58007E+00
 -1       368 1.76205E+00
 -1       369 2.06749E+00
 -1       370 2.72961E+00
 -1       371 3.74572E+00
 -1       372 4.06158E+00
 -1       373 3.21688E+00
 -1       374 2.42803E+00
 -1       375 1.84821E+00
 -1       376 1.72598E+00
 -1       377 1.48461E+00
 -1       378 1.48025E+00
 -1       379 1.38124E+00
 -1       380 1.15682E+00
 -1       381 9.85173E-01
 -1       382 8.30250E-01
 -1       383 6.48097E-01
 -1       384 1.13204E+00
 -1       385 8.93699E-01
 -1       386 7.06821E-01
 -1       387 5.48560E-01
 -1       388 4.41549E-01
 -1       389 3.76081E-01
 -1       390 3.13572E-01
 -1       391 2.58132E-01
 -1       392 2.13804E-01
 -1       393 1.76297E-01
 -1       394 1.47331E-01
 -1       395 1.24791E-01
 -1       396 1.08479E-01
 -1       397 1.01852E-01
 -1       398 1.02487E-01
 -1       399 1.12099E-01
 -1       400 1.36622E-01
 -1       401 1.73770E-01
 -1       402 2.34911E-01
 -1       403 3.04562E-01
 -1       404 3.78809E-01
 -1       405 4.50046E-01
 -1       406 5.09433E-01
 -1       407 5.64085E-01
 -1       408 5.73599E-01
 -1       409 5.73599E-01
 -1       410 5.08430E-01
 -1       411 4.41826E-01
 -1       412 5.05424E-01
 -1       413 9.09854E-01
 -1       414 1.36613E+00
 -1       415 1.61949E+00
 -1       416 1.61949E+00
 -1       417 1.59996E+00
 -1       418 1.66188E+00
 -1       419 1.75461E+00
 -1       420 1.46904E+00
 -1       421 1.03506E+00
 -1       422 6.08442E-01
 -1       423 3.47939E-01
 -1       424 4.14369E-01
 -1       425 4.88041E-01
 -1       426 4.86408E-01
 -1       427 4.45972E-01
 -1       428 4.20542E-01
 -1       429 3.04743E-01
 -1       430 2.78900E-01
 -1       431 3.27353E-01
 -1       432 3.27353E-01
 -1       433 2.26274E-01
 -1       434 2.73182E-01
 -1       435 4.46572E-01
 -1       436 5.79397E-01
 -1       437 5.91262E-01
 -1       438 6.05231E-01
 -1       439 6.05231E-01
 -1       440 4.93545E-01
 -1       441 3.39173E-01
 -1       442 5.09806E-01
 -1       443 2.61641E+01
 -1       444 3.19897E+01
 -1       445 2.53890E+01
 -1       446 1.58014E+01
 -1       447 1.40330E+01
 -1       448 1.00089E+01
 -1       449 9.01185E+00
 -1       450 9.17635E-01
 -1       451 1.02242E+01
 -1       452 1.03258E+01
 -1       453 9.86871E+00
 -1       454 9.54920E+00
 -1       455 6.76814E+00
 -1       456 1.17486E+01
 -1       457 2.00996E+01
 -1       458 2.45845E+01
 -1       459 3.28378E+01
 -1       460 3.28378E+01
 -1       461 2.65064E+01
 -1       462 2.63765E+01
 -1       463 7.59281E+00
 -1       464 1.04446E+01
 -1       465 1.02855E+01
 -1       466 8.80500E+00
 -1       467 6.54081E+00
 -1       468 1.08314E+01
 -1       469 1.87616E+01
 -1       470 2.99323E+01
 -1       471 3.09155E+01
 -1       472 7.72291E+00
 -1       473 2.16101E+01
 -1       474 9.99193E+00
 -1       475 1.04934E+00
 -1       476 4.85887E-01
 -1       477 5.10344E-01
 -1       478 4.31742E-01
 -1       479 4.57446E-01
 -1       480 4.86827E-01
 -1       481 5.10864E-01
 -1       482 5.10864E-01
 -1       483 6.07805E-01
 -1       484 8.03679E-01
 -1       485 5.33906E+00
 -1       486 8.93699E-01
 -1       487 8.74983E-01
 -1       488 7.05172E-01
 -1       489 5.91728E-01
 -1       490 4.79867E-01
 -1       491 3.81712E-01
 -1       492 3.27922E-01
 -1       493 2.79042E-01
 -1       494 2.33015E-01
 -1       495 1.92747E-01
 -1       496 1.59329E-01
 -1       497 1.30094E-01
 -1       498 1.04838E-01
 -1       499 8.54562E-02
 -1       500 6.94692E-02
 -1       501 7.82097E-02
 -1       502 9.46878E-02
 -1       503 1.38846E-01
 -1       504 2.02257E-01
 -1       505 2.82824E-01
 -1       506 3.84445E-01
 -1       507 5.10792E-01
 -1       508 6.64535E-01
 -1       509 8.45986E-01
 -1       510 1.05086E+00
 -1       511 1.26696E+00
 -1       512 1.46964E+00
 -1       513 1.63874E+00
 -1       514 2.00512E+00
 -1       515 2.41141E+00
 -1       516 2.75963E+00
 -1       517 3.14838E+00
 -1       518 2.95417E+00
 -1       519 5.17984E+00
 -1       520 6.86889E+00
 -1       521 5.76597E+00
 -1       522 3.16745E+00
 -1       523 3.06999E+00
 -1       524 2.94497E+00
 -1       525 2.27337E+00
 -1       526 1.90485E+00
 -1       527 1.50801E+00
 -1       528 1.29182E+00
 -1       529 1.06229E+00
 -1       530 8.20276E-01
 -1       531 5.48560E-01
 -1       532 4.41549E-01
 -1       533 3.76081E-01
 -1       534 3.13572E-01
 -1       535 2.58132E-01
 -1       536 2.13804E-01
 -1       537 1.75218E-01
 -1       538 1.42109E-01
 -1       539 1.14683E-01
 -1       540 9.20269E-02
 -1       541 7.67888E-02
 -1       542 7.89786E-02
 -1       543 9.28780E-02
 -1       544 1.12099E-01
 -1       545 1.57463E-01
 -1       546 2.12988E-01
 -1       547 2.76162E-01
 -1       548 3.44484E-01
 -1       549 4.12705E-01
 -1       550 4.71983E-01
 -1       551 5.27226E-01
 -1       552 5.64085E-01
 -1       553 5.85908E-01
 -1       554 5.60254E-01
 -1       555 5.63515E-01
 -1       556 6.26710E-01
 -1       557 8.14456E-01
 -1       558 1.14520E+00
 -1       559 1.38934E+00
 -1       560 1.61949E+00
 -1       561 1.59996E+00
 -1       562 1.58227E+00
 -1       563 1.60088E+00
 -1       564 1.40870E+00
 -1       565 1.20019E+00
 -1       566 9.55186E-01
 -1       567 6.71320E-01
 -1       568 5.99609E-01
 -1       569 5.09575E-01
 -1       570 4.25182E-01
 -1       571 3.83284E-01
 -1       572 3.64348E-01
 -1       573 4.07684E-01
 -1       574 4.83480E-01
 -1       575 2.90009E-01
 -1       576 3.13719E-01
 -1       577 7.26248E-01
 -1       578 8.32390E-01
 -1       579 8.44594E-01
 -1       580 8.44594E-01
 -1       581 8.12905E-01
 -1       582 5.99302E-01
 -1       583 5.59483E-01
 -1       584 1.41273E+01
 -1       585 3.09155E+01
 -1       586 7.06821E-01
 -1       587 2.53890E+01
 -1       588 8.01243E+00
 -1       589 5.07640E+00
 -1       590 1.22556E+01
 -1       591 7.33275E+00
 -1       592 4.57313E-01
 -1       593 7.23351E+00
 -1       594 7.40202E+00
 -1       595 4.31750E+00
 -1       596 6.80643E+00
 -1       597 9.52319E+00
 -1       598 1.51845E+01
 -1       599 2.45845E+01
 -1       600 5.47680E+00
 -1       601 1.77477E+01
 -1       602 3.28378E+01
 -1       603 6.59302E+00
 -1       604 2.24607E+01
 -1       605 2.65064E+01
 -1       606 6.41239E+00
 -1       607 4.40756E+00
 -1       608 5.88796E+00
 -1       609 9.58511E+00
 -1       610 1.29002E+01
 -1       611 9.54021E+00
 -1       612 4.48146E+00
 -1       613 1.32884E+00
 -1       614 7.18050E-01
 -1       615 5.42949E-01
 -1       616 1.43751E+01
 -1       617 1.94221E+01
 -1       618 3.58501E-01
 -1       619 3.43134E-01
 -1       620 3.61781E-01
 -1       621 3.37761E-01
 -1       622 5.16776E-01
 -1       623 4.07924E-01
 -1       624 1.14178E+01
 -1       625 2.76133E-01
 -1       626 3.99834E-01
 -1       627 3.86508E-01
 -1       628 3.46024E-01
 -1       629 2.96633E-01
 -1       630 2.46967E-01
 -1       631 2.14987E-01
 -1       632 1.81840E-01
 -1       633 1.51545E-01
 -1       634 1.24832E-01
 -1       635 1.00743E-01
 -1       636 7.89152E-02
 -1       637 5.84752E-02
 -1       638 5.00482E-02
 -1       639 6.23640E-02
 -1       640 1.03522E-01
 -1       641 1.54306E-01
 -1       642 2.17691E-01
 -1       643 2.97124E-01
 -1       644 3.96640E-01
 -1       645 5.21092E-01
 -1       646 6.76586E-01
 -1       647 8.76878E-01
 -1       648 1.12397E+00
 -1       649 1.42363E+00
 -1       650 1.80460E+00
 -1       651 2.23653E+00
 -1       652 2.73019E+00
 -1       653 3.78007E+00
 -1       654 4.95092E+00
 -1       655 3.80108E+00
 -1       656 4.17881E+00
 -1       657 4.08330E+00
 -1       658 3.04037E+00
 -1       659 2.19861E+00
 -1       660 1.77204E+00
 -1       661 1.34833E+00
 -1       662 1.16225E+00
 -1       663 3.31154E-01
 -1       664 1.51740E+01
 -1       665 3.99460E-01
 -1       666 2.38871E-01
 -1       667 2.02406E-01
 -1       668 1.68534E-01
 -1       669 1.38373E-01
 -1       670 1.12132E-01
 -1       671 8.94084E-02
 -1       672 6.93776E-02
 -1       673 5.63330E-02
 -1       674 6.52529E-02
 -1       675 8.76036E-02
 -1       676 1.29927E-01
 -1       677 1.79745E-01
 -1       678 2.37559E-01
 -1       679 3.02825E-01
 -1       680 3.73362E-01
 -1       681 4.44613E-01
 -1       682 5.08974E-01
 -1       683 5.71925E-01
 -1       684 6.55206E-01
 -1       685 7.26277E-01
 -1       686 7.54099E-01
 -1       687 9.11395E-01
 -1       688 1.08081E+00
 -1       689 1.20892E+00
 -1       690 1.45017E+00
 -1       691 1.57354E+00
 -1       692 2.13128E+00
 -1       693 1.87939E+00
 -1       694 2.18793E+00
 -1       695 1.61882E+00
 -1       696 1.45179E+00
 -1       697 1.37294E+00
 -1       698 1.02701E+00
 -1       699 9.05178E-01
 -1       700 6.93981E-01
 -1       701 5.09575E-01
 -1       702 4.25182E-01
 -1       703 3.24512E-01
 -1       704 1.08711E+00
 -1       705 6.69987E-01
 -1       706 1.09439E+00
 -1       707 7.90087E-01
 -1       708 4.66679E-01
 -1       709 1.17478E+00
 -1       710 1.17478E+00
 -1       711 9.96661E-01
 -1       712 1.35711E+01
 -1       713 6.11387E+00
 -1       714 3.68951E+00
 -1       715 8.32304E+00
 -1       716 8.76846E+00
 -1       717 1.04742E+01
 -1       718 2.25877E+00
 -1       719 3.61781E-01
 -1       720 3.61712E-01
 -1       721 1.25395E+01
 -1       722 4.18659E+00
 -1       723 9.46777E+00
 -1       724 7.84869E+00
 -1       725 4.52196E+00
 -1       726 6.09062E+00
 -1       727 1.38190E+01
 -1       728 1.44933E+01
 -1       729 5.94054E-01
 -1       730 1.10194E+01
 -1       731 5.95685E+00
 -1       732 5.65748E+00
 -1       733 3.70997E+00
 -1       734 5.09549E+00
 -1       735 5.46260E-01
 -1       736 4.14609E-01
 -1       737 3.42711E-01
 -1       738 3.36116E-01
 -1       739 3.01735E+00
 -1       740 8.68902E-01
 -1       741 4.96740E+00
 -1       742 4.46251E-01
 -1       743 9.43710E+00
 -1       744 4.67973E+00
 -1       745 4.51427E-01
 -1       746 9.80700E+00
 -1       747 3.57813E-01
 -1       748 2.42823E-01
 -1       749 1.84381E+00
 -1       750 7.22067E+00
 -1       751 3.01696E+00
 -1       752 2.35695E-01
 -1       753 2.57167E-01
 -1       754 2.50638E-01
 -1       755 2.28740E-01
 -1       756 1.99956E-01
 -1       757 1.72820E-01
 -1       758 1.50575E-01
 -1       759 1.26538E-01
 -1       760 1.02305E-01
 -1       761 7.85119E-02
 -1       762 5.50825E-02
 -1       763 3.76591E-02
 -1       764 4.11941E-02
 -1       765 7.59105E-02
 -1       766 1.19893E-01
 -1       767 1.78828E-01
 -1       768 2.54354E-01
 -1       769 3.51068E-01
 -1       770 4.74241E-01
 -1       771 6.29680E-01
 -1       772 8.23181E-01
 -1       773 1.05922E+00
 -1       774 1.34054E+00
 -1       775 1.73067E+00
 -1       776 2.36300E+00
 -1       777 3.82979E+00
 -1       778 8.45907E+00
 -1       779 8.62731E+00
 -1       780 5.17984E+00
 -1       781 2.19315E-01
 -1       782 4.08330E+00
 -1       783 3.31349E+00
 -1       784 2.70584E+00
 -1       785 2.23380E+00
 -1       786 2.56371E-01
 -1       787 2.89077E-01
 -1       788 1.58275E+00
 -1       789 1.63598E-01
 -1       790 1.36172E-01
 -1       791 1.09426E-01
 -1       792 8.38505E-02
 -1       793 6.16600E-02
 -1       794 4.06583E-02
 -1       795 3.62686E-02
 -1       796 5.97136E-02
 -1       797 9.56303E-02
 -1       798 1.38252E-01
 -1       799 1.89038E-01
 -1       800 2.49254E-01
 -1       801 3.21273E-01
 -1       802 4.03727E-01
 -1       803 4.92433E-01
 -1       804 5.82908E-01
 -1       805 6.73729E-01
 -1       806 8.20452E-01
 -1       807 9.85639E-01
 -1       808 1.12655E+00
 -1       809 1.35844E+00
 -1       810 1.73493E+00
 -1       811 1.83199E+00
 -1       812 1.70817E+00
 -1       813 2.13128E+00
 -1       814 4.36645E+00
 -1       815 3.13115E+00
 -1       816 3.01696E+00
 -1       817 2.47566E+00
 -1       818 2.84327E+00
 -1       819 2.35150E+00
 -1       820 1.33563E+00
 -1       821 9.46984E-01
 -1       822 7.53939E-01
 -1       823 5.94037E-01
 -1       824 4.43159E-01
 -1       825 9.86998E+00
 -1       826 1.58275E+00
 -1       827 4.94643E+00
 -1       828 1.06036E+01
 -1       829 1.84381E+00
 -1       830 6.82440E+00
 -1       831 1.06036E+01
 -1       832 8.15492E+00
 -1       833 4.51379E+00
 -1       834 1.96277E-01
 -1       835 1.90220E-01
 -1       836 1.76909E+00
 -1       837 2.03411E-01
 -1       838 2.84327E+00
 -1       839 7.88508E+00
 -1       840 9.80700E+00
 -1       841 8.83286E+00
 -1       842 5.14805E+00
 -1       843 2.88806E-01
 -1       844 2.70625E-01
 -1       845 2.82063E-01
 -1       846 2.88806E-01
 -1       847 6.79517E+00
 -1       848 3.07745E-01
 -1       849 1.04558E+00
 -1       850 2.91560E+00
 -1       851 8.11633E+00
 -1       852 1.26545E+00
 -1       853 3.68951E+00
 -1       854 4.88637E+00
 -1       855 2.79264E-01
 -1       856 2.94580E+00
 -1       857 8.45907E+00
 -1       858 7.83743E-01
 -1       859 2.87693E-01
 -1       860 4.39076E+00
 -1       861 2.39320E-01
 -1       862 2.71804E-01
 -1       863 1.75754E-01
 -1       864 1.83909E-01
 -1       865 1.76272E-01
 -1       866 1.59826E-01
 -1       867 1.38929E-01
 -1       868 1.22375E-01
 -1       869 1.04139E-01
 -1       870 8.47710E-02
 -1       871 6.50239E-02
 -1       872 5.37127E-02
 -1       873 5.77005E-02
 -1       874 7.02838E-02
 -1       875 1.10404E-01
 -1       876 1.61930E-01
 -1       877 2.27583E-01
 -1       878 3.11570E-01
 -1       879 4.19334E-01
 -1       880 5.58236E-01
 -1       881 7.38762E-01
 -1       882 9.76382E-01
 -1       883 1.29518E+00
 -1       884 1.73067E+00
 -1       885 2.34102E+00
 -1       886 4.73531E+00
 -1       887 2.23380E+00
 -1       888 3.66233E+00
 -1       889 2.50310E+00
 -1       890 1.97892E-01
 -1       891 2.11273E-01
 -1       892 1.34348E-01
 -1       893 7.05598E-02
 -1       894 4.88661E-02
 -1       895 4.62114E-02
 -1       896 5.14524E-02
 -1       897 8.37943E-02
 -1       898 1.23949E-01
 -1       899 1.71344E-01
 -1       900 2.26294E-01
 -1       901 2.88047E-01
 -1       902 3.55683E-01
 -1       903 4.42139E-01
 -1       904 5.61124E-01
 -1       905 7.06139E-01
 -1       906 8.80824E-01
 -1       907 1.05618E+00
 -1       908 1.38308E+00
 -1       909 1.76193E+00
 -1       910 2.03004E+00
 -1       911 2.82272E+00
 -1       912 1.47418E+00
 -1       913 1.66988E+00
 -1       914 1.32154E+00
 -1       915 1.52632E-01
 -1       916 2.06511E+00
 -1       917 8.11633E+00
 -1       918 1.76537E-01
 -1       919 3.85730E+00
 -1       920 6.77763E+00
 -1       921 9.21721E-02
 -1       922 1.13670E-01
 -1       923 6.60435E+00
 -1       924 2.87693E-01
 -1       925 7.22988E-01
 -1       926 1.78020E-01
 -1       927 6.60435E+00
 -1       928 1.38853E-01
 -1       929 5.25493E+00
 -1       930 5.25114E+00
 -1       931 1.65059E-01
 -1       932 2.17848E-01
 -1       933 2.09471E-01
 -1       934 6.11243E+00
 -1       935 1.96967E+00
 -1       936 4.01374E+00
 -1       937 1.90714E+00
 -1       938 4.17516E+00
 -1       939 2.58449E+00
 -1       940 2.08875E+00
 -1       941 2.08875E+00
 -1       942 2.17848E-01
 -1       943 1.66988E+00
 -1       944 2.16470E-01
 -1       945 1.96967E+00
 -1       946 3.25778E+00
 -1       947 5.29419E+00
 -1       948 6.11243E+00
 -1       949 1.78020E-01
 -1       950 2.04704E-01
 -1       951 1.36961E-01
 -1       952 1.35714E-01
 -1       953 1.26088E-01
 -1       954 1.11565E-01
 -1       955 9.72713E-02
 -1       956 8.34959E-02
 -1       957 6.85986E-02
 -1       958 6.39956E-02
 -1       959 6.74779E-02
 -1       960 7.47402E-02
 -1       961 9.22206E-02
 -1       962 1.33025E-01
 -1       963 1.84611E-01
 -1       964 2.50067E-01
 -1       965 3.33536E-01
 -1       966 4.41029E-01
 -1       967 5.82019E-01
 -1       968 7.72617E-01
 -1       969 1.04096E+00
 -1       970 1.44260E+00
 -1       971 2.05474E+00
 -1       972 4.73531E+00
 -1       973 1.52821E-01
 -1       974 1.56641E-01
 -1       975 1.08194E-01
 -1       976 5.86953E-02
 -1       977 7.82932E-02
 -1       978 1.15274E-01
 -1       979 1.60292E-01
 -1       980 2.14716E-01
 -1       981 2.79667E-01
 -1       982 3.55683E-01
 -1       983 4.42139E-01
 -1       984 5.36109E-01
 -1       985 6.81011E-01
 -1       986 8.73685E-01
 -1       987 1.19507E+00
 -1       988 1.59602E+00
 -1       989 2.01036E+00
 -1       990 2.15987E+00
 -1       991 4.17516E+00
 -1       992 3.12412E+00
 -1       993 1.23290E-01
 -1       994 5.36050E+00
 -1       995 1.40447E-01
 -1       996 7.54912E-02
 -1       997 6.44732E-02
 -1       998 2.16470E-01
 -1       999 5.14973E+00
 -1      1000 9.24552E-02
 -1      1001 3.22532E+00
 -1      1002 5.04965E+00
 -1      1003 1.63231E-01
 -1      1004 1.78020E-01
 -1      1005 5.29318E+00
 -1      1006 6.01133E-02
 -1      1007 3.54512E+00
 -1      1008 1.24456E-01
 -1      1009 1.47757E-01
 -1      1010 2.29795E+00
 -1      1011 2.34440E+00
 -1      1012 1.64029E-01
 -1      1013 1.42415E-01
 -1      1014 2.96329E+00
 -1      1015 1.54746E-01
 -1      1016 4.20491E+00
 -1      1017 2.95253E+00
 -1      1018 4.17516E+00
 -1      1019 1.02290E-01
 -1      1020 1.36640E-01
 -1      1021 9.42985E-02
 -1      1022 1.03395E-01
 -1      1023 9.74192E-02
 -1      1024 8.72165E-02
 -1      1025 7.49520E-02
 -1      1026 7.02930E-02
 -1      1027 6.98898E-02
 -1      1028 7.22099E-02
 -1      1029 7.64767E-02
 -1      1030 8.99308E-02
 -1      1031 1.13094E-01
 -1      1032 1.44808E-01
 -1      1033 1.87073E-01
 -1      1034 2.42788E-01
 -1      1035 3.17781E-01
 -1      1036 4.18416E-01
 -1      1037 5.54574E-01
 -1      1038 7.43843E-01
 -1      1039 1.01847E+00
 -1      1040 1.44397E+00
 -1      1041 3.34881E+00
 -1      1042 2.95668E+00
 -1      1043 9.96373E-02
 -1      1044 1.58083E-01
 -1      1045 9.79072E-02
 -1      1046 2.46483E-01
 -1      1047 3.22908E-01
 -1      1048 4.18083E-01
 -1      1049 5.36030E-01
 -1      1050 6.81011E-01
 -1      1051 8.56441E-01
 -1      1052 1.17277E+00
 -1      1053 1.58315E+00
 -1      1054 2.29443E+00
 -1      1055 1.17447E-01
 -1      1056 9.79012E-02
 -1      1057 1.17415E-01
 -1      1058 1.09964E-01
 -1      1059 2.18804E+00
 -1      1060 6.64976E-02
 -1      1061 7.91132E-02
 -1      1062 8.48885E-02
 -1      1063 7.32642E-02
 -1      1064 3.24647E+00
 -1      1065 2.95668E+00
 -1      1066 3.42068E+00
 -1      1067 1.85357E-01
 -1      1068 3.54512E+00
 -1      1069 6.81093E-02
 -1      1070 1.32485E-01
 -1      1071 1.06811E-01
 -1      1072 1.06834E-01
 -1      1073 7.09120E-02
 -1      1074 3.34881E+00
 -1      1075 8.26621E-02
 -1      1076 8.81797E-02
 -1      1077 8.65942E-02
 -1      1078 8.10223E-02
 -1      1079 7.35583E-02
 -1      1080 7.02930E-02
 -1      1081 7.22099E-02
 -1      1082 7.64767E-02
 -1      1083 9.70586E-02
 -1      1084 1.09905E-01
 -1      1085 1.37597E-01
 -1      1086 1.74046E-01
 -1      1087 2.21071E-01
 -1      1088 2.82759E-01
 -1      1089 3.63339E-01
 -1      1090 4.73571E-01
 -1      1091 6.77462E-01
 -1      1092 9.77675E-01
 -1      1093 1.52818E+00
 -1      1094 2.05123E+00
 -1      1095 1.93817E-01
 -1      1096 4.73571E-01
 -1      1097 1.20870E-01
 -1      1098 3.48077E-01
 -1      1099 2.60165E-01
 -1      1100 6.77462E-01
 -1      1101 9.77675E-01
 -1      1102 1.39606E+00
 -1      1103 1.52818E+00
 -1      1104 2.47763E+00
 -1      1105 8.89014E-02
 -1      1106 9.78584E-02
 -1      1107 8.76589E-02
 -1      1108 9.92780E-02
 -1      1109 1.50950E-01
 -1      1110 7.35583E-02
 -1      1111 8.65942E-02
 -1      1112 8.10223E-02
 -1      1113 8.81797E-02
 -1      1114 6.93607E-02
 -1      1115 7.79159E-02
 -1      1116 2.47763E+00
 -1      1117 6.86812E-02
 -1      1118 9.78584E-02
 -1      1119 6.16286E-02
 -1      1120 9.78584E-02
 -1      1121 6.20023E-02
 -1      1122 7.09651E-02
 -1      1123 1.31453E+01
 -1      1124 8.40435E+00
 -1      1125 2.74316E+00
 -1      1126 1.55692E+00
 -1      1127 1.16816E+00
 -1      1128 9.72251E-01
 -1      1129 8.53970E-01
 -1      1130 7.81604E-01
 -1      1131 7.55295E-01
 -1      1132 7.84699E-01
 -1      1133 8.56858E-01
 -1      1134 9.76362E-01
 -1      1135 1.17960E+00
 -1      1136 1.57094E+00
 -1      1137 2.66996E+00
 -1      1138 6.07395E+00
 -1      1139 1.13420E+01
 -1      1140 1.31453E+01
 -1      1141 8.73237E+00
 -1      1142 3.83139E+00
 -1      1143 2.72883E+00
 -1      1144 1.74009E+00
 -1      1145 1.19115E+00
 -1      1146 8.97358E-01
 -1      1147 6.89071E-01
 -1      1148 5.30590E-01
 -1      1149 4.08180E-01
 -1      1150 3.16756E-01
 -1      1151 2.48300E-01
 -1      1152 1.94942E-01
 -1      1153 1.54733E-01
 -1      1154 1.25828E-01
 -1      1155 1.06664E-01
 -1      1156 1.01976E-01
 -1      1157 1.12951E-01
 -1      1158 1.38422E-01
 -1      1159 1.79573E-01
 -1      1160 2.35576E-01
 -1      1161 3.08367E-01
 -1      1162 3.99182E-01
 -1      1163 5.07499E-01
 -1      1164 6.29258E-01
 -1      1165 7.79666E-01
 -1      1166 9.98653E-01
 -1      1167 1.27504E+00
 -1      1168 1.60032E+00
 -1      1169 1.91447E+00
 -1      1170 2.04771E+00
 -1      1171 2.06562E+00
 -1      1172 2.08352E+00
 -1      1173 2.41718E+00
 -1      1174 3.95843E+00
 -1      1175 5.55973E+00
 -1      1176 5.95344E+00
 -1      1177 5.92711E+00
 -1      1178 5.12578E+00
 -1      1179 3.38419E+00
 -1      1180 2.17915E+00
 -1      1181 2.00526E+00
 -1      1182 2.06983E+00
 -1      1183 1.99019E+00
 -1      1184 1.70879E+00
 -1      1185 1.36782E+00
 -1      1186 1.19690E+00
 -1      1187 1.05435E+00
 -1      1188 8.37769E-01
 -1      1189 4.43292E-01
 -1      1190 1.40412E+01
 -1      1191 8.71853E+00
 -1      1192 2.90532E+00
 -1      1193 2.04132E+00
 -1      1194 1.40754E+00
 -1      1195 1.02727E+00
 -1      1196 8.20376E-01
 -1      1197 6.62257E-01
 -1      1198 5.32149E-01
 -1      1199 4.24612E-01
 -1      1200 3.39566E-01
 -1      1201 2.73892E-01
 -1      1202 2.21359E-01
 -1      1203 1.80319E-01
 -1      1204 1.50057E-01
 -1      1205 1.29710E-01
 -1      1206 1.24459E-01
 -1      1207 1.33957E-01
 -1      1208 1.50454E-01
 -1      1209 1.70912E-01
 -1      1210 2.03738E-01
 -1      1211 2.51031E-01
 -1      1212 3.02633E-01
 -1      1213 3.52371E-01
 -1      1214 3.91191E-01
 -1      1215 4.11765E-01
 -1      1216 4.64133E-01
 -1      1217 5.74166E-01
 -1      1218 6.78419E-01
 -1      1219 7.98271E-01
 -1      1220 9.66616E-01
 -1      1221 1.06238E+00
 -1      1222 1.20769E+00
 -1      1223 1.43060E+00
 -1      1224 1.88856E+00
 -1      1225 2.42282E+00
 -1      1226 2.72298E+00
 -1      1227 2.86328E+00
 -1      1228 2.79816E+00
 -1      1229 2.38069E+00
 -1      1230 1.62743E+00
 -1      1231 9.99701E-01
 -1      1232 7.31757E-01
 -1      1233 7.35046E-01
 -1      1234 7.79468E-01
 -1      1235 7.32063E-01
 -1      1236 6.28023E-01
 -1      1237 5.31819E-01
 -1      1238 3.92585E-01
 -1      1239 1.85908E-01
 -1      1240 1.14956E-01
 -1      1241 1.51014E-01
 -1      1242 1.44133E-01
 -1      1243 1.21268E-01
 -1      1244 8.47105E-02
 -1      1245 6.64327E-02
 -1      1246 1.04590E-01
 -1      1247 1.68848E-01
 -1      1248 2.08614E-01
 -1      1249 2.19986E-01
 -1      1250 2.10841E-01
 -1      1251 1.72633E-01
 -1      1252 1.08898E-01
 -1      1253 1.29478E-01
 -1      1254 2.63321E-01
 -1      1255 3.77511E-01
 -1      1256 2.83827E-01
 -1      1257 2.46797E+01
 -1      1258 3.58232E+01
 -1      1259 4.67953E+01
 -1      1260 3.30489E+01
 -1      1261 1.57055E+01
 -1      1262 1.21084E+01
 -1      1263 1.21659E+01
 -1      1264 1.22235E+01
 -1      1265 1.21625E+01
 -1      1266 1.23025E+01
 -1      1267 2.03173E+01
 -1      1268 2.88537E+01
 -1      1269 2.91771E+01
 -1      1270 2.67950E+01
 -1      1271 2.51022E+01
 -1      1272 2.53924E+01
 -1      1273 3.50383E+01
 -1      1274 4.46843E+01
 -1      1275 3.14917E+01
 -1      1276 1.51498E+01
 -1      1277 1.20780E+01
 -1      1278 1.23872E+01
 -1      1279 1.26190E+01
 -1      1280 1.24593E+01
 -1      1281 1.21302E+01
 -1      1282 1.90476E+01
 -1      1283 2.75192E+01
 -1      1284 2.89039E+01
 -1      1285 2.71300E+01
 -1      1286 2.49322E+01
 -1      1287 1.31453E+01
 -1      1288 4.87061E+00
 -1      1289 9.61160E+00
 -1      1290 2.06015E+00
 -1      1291 2.98035E+00
 -1      1292 4.18761E+00
 -1      1293 1.39921E+00
 -1      1294 1.66526E+00
 -1      1295 1.90245E+00
 -1      1296 1.10116E+00
 -1      1297 1.22388E+00
 -1      1298 1.33221E+00
 -1      1299 9.35981E-01
 -1      1300 1.00918E+00
 -1      1301 1.06489E+00
 -1      1302 8.36501E-01
 -1      1303 8.81585E-01
 -1      1304 9.18512E-01
 -1      1305 7.75313E-01
 -1      1306 8.02595E-01
 -1      1307 8.30210E-01
 -1      1308 7.56268E-01
 -1      1309 7.55295E-01
 -1      1310 7.76286E-01
 -1      1311 8.06401E-01
 -1      1312 7.77970E-01
 -1      1313 7.77970E-01
 -1      1314 8.83895E-01
 -1      1315 8.40167E-01
 -1      1316 8.33437E-01
 -1      1317 1.01643E+00
 -1      1318 9.40650E-01
 -1      1319 9.23958E-01
 -1      1320 1.23950E+00
 -1      1321 1.11203E+00
 -1      1322 1.07632E+00
 -1      1323 1.68081E+00
 -1      1324 1.41695E+00
 -1      1325 1.34937E+00
 -1      1326 2.88258E+00
 -1      1327 2.04743E+00
 -1      1328 1.89344E+00
 -1      1329 6.28691E+00
 -1      1330 3.71808E+00
 -1      1331 3.09555E+00
 -1      1332 1.40412E+01
 -1      1333 1.13420E+01
 -1      1334 8.98611E+00
 -1      1335 1.40412E+01
 -1      1336 8.73237E+00
 -1      1337 4.31940E+00
 -1      1338 3.83139E+00
 -1      1339 3.34339E+00
 -1      1340 3.83139E+00
 -1      1341 2.72883E+00
 -1      1342 2.11428E+00
 -1      1343 2.72883E+00
 -1      1344 1.78210E+00
 -1      1345 1.40792E+00
 -1      1346 1.78210E+00
 -1      1347 1.19750E+00
 -1      1348 1.02275E+00
 -1      1349 1.23951E+00
 -1      1350 8.97358E-01
 -1      1351 7.78316E-01
 -1      1352 9.03709E-01
 -1      1353 6.89071E-01
 -1      1354 5.99826E-01
 -1      1355 6.89071E-01
 -1      1356 5.36604E-01
 -1      1357 4.67368E-01
 -1      1358 5.36604E-01
 -1      1359 4.18218E-01
 -1      1360 3.65044E-01
 -1      1361 4.24232E-01
 -1      1362 3.26122E-01
 -1      1363 2.87872E-01
 -1      1364 3.36160E-01
 -1      1365 2.60379E-01
 -1      1366 2.30172E-01
 -1      1367 2.69744E-01
 -1      1368 2.07096E-01
 -1      1369 1.83944E-01
 -1      1370 2.19174E-01
 -1      1371 1.65165E-01
 -1      1372 1.48108E-01
 -1      1373 1.77319E-01
 -1      1374 1.33246E-01
 -1      1375 1.21398E-01
 -1      1376 1.43678E-01
 -1      1377 1.09916E-01
 -1      1378 1.02600E-01
 -1      1379 1.17334E-01
 -1      1380 9.88530E-02
 -1      1381 1.01481E-01
 -1      1382 1.02106E-01
 -1      1383 1.04605E-01
 -1      1384 1.12951E-01
 -1      1385 1.01481E-01
 -1      1386 1.25273E-01
 -1      1387 1.42397E-01
 -1      1388 1.16926E-01
 -1      1389 1.60319E-01
 -1      1390 1.84346E-01
 -1      1391 1.47170E-01
 -1      1392 2.08154E-01
 -1      1393 2.40131E-01
 -1      1394 1.88901E-01
 -1      1395 2.70459E-01
 -1      1396 3.11274E-01
 -1      1397 2.43037E-01
 -1      1398 3.49953E-01
 -1      1399 3.99954E-01
 -1      1400 3.12045E-01
 -1      1401 4.67955E-01
 -1      1402 5.26271E-01
 -1      1403 4.18726E-01
 -1      1404 6.10588E-01
 -1      1405 6.74032E-01
 -1      1406 5.71044E-01
 -1      1407 7.73148E-01
 -1      1408 8.60113E-01
 -1      1409 7.54478E-01
 -1      1410 9.67529E-01
 -1      1411 1.09955E+00
 -1      1412 9.61011E-01
 -1      1413 1.20066E+00
 -1      1414 1.34503E+00
 -1      1415 1.16954E+00
 -1      1416 1.44613E+00
 -1      1417 1.62704E+00
 -1      1418 1.37175E+00
 -1      1419 1.78123E+00
 -1      1420 1.91447E+00
 -1      1421 1.62704E+00
 -1      1422 2.04771E+00
 -1      1423 2.04771E+00
 -1      1424 1.91447E+00
 -1      1425 2.03605E+00
 -1      1426 2.05396E+00
 -1      1427 2.03605E+00
 -1      1428 2.08352E+00
 -1      1429 2.08352E+00
 -1      1430 2.05396E+00
 -1      1431 2.02273E+00
 -1      1432 2.35639E+00
 -1      1433 2.02273E+00
 -1      1434 2.89665E+00
 -1      1435 4.10423E+00
 -1      1436 2.50219E+00
 -1      1437 5.16601E+00
 -1      1438 5.55973E+00
 -1      1439 4.10423E+00
 -1      1440 5.95344E+00
 -1      1441 5.95344E+00
 -1      1442 5.55973E+00
 -1      1443 5.92711E+00
 -1      1444 5.90079E+00
 -1      1445 5.92711E+00
 -1      1446 5.12578E+00
 -1      1447 4.35077E+00
 -1      1448 5.12578E+00
 -1      1449 3.40563E+00
 -1      1450 2.43905E+00
 -1      1451 3.40563E+00
 -1      1452 2.10657E+00
 -1      1453 1.86811E+00
 -1      1454 2.12801E+00
 -1      1455 1.94069E+00
 -1      1456 2.00526E+00
 -1      1457 1.86811E+00
 -1      1458 2.06983E+00
 -1      1459 2.06983E+00
 -1      1460 2.00526E+00
 -1      1461 1.99019E+00
 -1      1462 1.91054E+00
 -1      1463 1.99019E+00
 -1      1464 1.70879E+00
 -1      1465 1.50704E+00
 -1      1466 1.70879E+00
 -1      1467 1.36782E+00
 -1      1468 1.22860E+00
 -1      1469 1.36782E+00
 -1      1470 1.19690E+00
 -1      1471 1.16521E+00
 -1      1472 1.19690E+00
 -1      1473 1.05435E+00
 -1      1474 9.43498E-01
 -1      1475 1.05435E+00
 -1      1476 8.37769E-01
 -1      1477 7.32040E-01
 -1      1478 8.37769E-01
 -1      1479 5.72575E-01
 -1      1480 5.72575E-01
 -1      1481 3.39589E+00
 -1      1482 8.71853E+00
 -1      1483 8.71853E+00
 -1      1484 2.41475E+00
 -1      1485 2.90532E+00
 -1      1486 2.90532E+00
 -1      1487 1.66789E+00
 -1      1488 2.04132E+00
 -1      1489 2.04132E+00
 -1      1490 1.14720E+00
 -1      1491 1.40754E+00
 -1      1492 1.40754E+00
 -1      1493 9.07337E-01
 -1      1494 1.02727E+00
 -1      1495 1.02727E+00
 -1      1496 7.33414E-01
 -1      1497 8.20376E-01
 -1      1498 8.20376E-01
 -1      1499 5.91100E-01
 -1      1500 6.62257E-01
 -1      1501 6.62257E-01
 -1      1502 4.73198E-01
 -1      1503 5.32149E-01
 -1      1504 5.32149E-01
 -1      1505 3.76025E-01
 -1      1506 4.24612E-01
 -1      1507 4.24612E-01
 -1      1508 3.03108E-01
 -1      1509 3.39566E-01
 -1      1510 3.39566E-01
 -1      1511 2.44676E-01
 -1      1512 2.73892E-01
 -1      1513 2.73892E-01
 -1      1514 1.98167E-01
 -1      1515 2.21484E-01
 -1      1516 2.21484E-01
 -1      1517 1.62987E-01
 -1      1518 1.80710E-01
 -1      1519 1.80835E-01
 -1      1520 1.37517E-01
 -1      1521 1.50057E-01
 -1      1522 1.50448E-01
 -1      1523 1.21902E-01
 -1      1524 1.29710E-01
 -1      1525 1.29710E-01
 -1      1526 1.23577E-01
 -1      1527 1.21021E-01
 -1      1528 1.21021E-01
 -1      1529 1.33957E-01
 -1      1530 1.27016E-01
 -1      1531 1.23577E-01
 -1      1532 1.50454E-01
 -1      1533 1.40899E-01
 -1      1534 1.33957E-01
 -1      1535 1.72376E-01
 -1      1536 1.61472E-01
 -1      1537 1.51917E-01
 -1      1538 2.12822E-01
 -1      1539 1.90900E-01
 -1      1540 1.81460E-01
 -1      1541 2.58794E-01
 -1      1542 2.33424E-01
 -1      1543 2.20585E-01
 -1      1544 3.05877E-01
 -1      1545 2.79644E-01
 -1      1546 2.62037E-01
 -1      1547 3.52371E-01
 -1      1548 3.28866E-01
 -1      1549 3.05877E-01
 -1      1550 3.91191E-01
 -1      1551 3.75877E-01
 -1      1552 3.52371E-01
 -1      1553 4.11765E-01
 -1      1554 4.06504E-01
 -1      1555 3.91191E-01
 -1      1556 4.75094E-01
 -1      1557 4.27986E-01
 -1      1558 4.22726E-01
 -1      1559 5.78735E-01
 -1      1560 5.15811E-01
 -1      1561 4.79664E-01
 -1      1562 6.78419E-01
 -1      1563 6.37090E-01
 -1      1564 5.78735E-01
 -1      1565 7.98271E-01
 -1      1566 7.19748E-01
 -1      1567 6.78419E-01
 -1      1568 9.66616E-01
 -1      1569 8.76794E-01
 -1      1570 7.98271E-01
 -1      1571 1.06238E+00
 -1      1572 1.05644E+00
 -1      1573 9.66616E-01
 -1      1574 1.20769E+00
 -1      1575 1.06832E+00
 -1      1576 1.06238E+00
 -1      1577 1.43060E+00
 -1      1578 1.34705E+00
 -1      1579 1.20769E+00
 -1      1580 1.96622E+00
 -1      1581 1.59182E+00
 -1      1582 1.50827E+00
 -1      1583 2.42282E+00
 -1      1584 2.26296E+00
 -1      1585 1.96622E+00
 -1      1586 2.72298E+00
 -1      1587 2.58269E+00
 -1      1588 2.42282E+00
 -1      1589 2.86328E+00
 -1      1590 2.86328E+00
 -1      1591 2.72298E+00
 -1      1592 2.73303E+00
 -1      1593 2.79816E+00
 -1      1594 2.79816E+00
 -1      1595 2.02836E+00
 -1      1596 2.38069E+00
 -1      1597 2.38069E+00
 -1      1598 1.23618E+00
 -1      1599 1.63710E+00
 -1      1600 1.63710E+00
 -1      1601 7.72890E-01
 -1      1602 9.99701E-01
 -1      1603 1.00937E+00
 -1      1604 6.37078E-01
 -1      1605 6.78211E-01
 -1      1606 6.78211E-01
 -1      1607 7.35046E-01
 -1      1608 6.90624E-01
 -1      1609 6.37078E-01
 -1      1610 7.79468E-01
 -1      1611 7.79468E-01
 -1      1612 7.35046E-01
 -1      1613 6.84658E-01
 -1      1614 7.32063E-01
 -1      1615 7.32063E-01
 -1      1616 5.71387E-01
 -1      1617 6.28023E-01
 -1      1618 6.28023E-01
 -1      1619 4.92252E-01
 -1      1620 5.31819E-01
 -1      1621 5.31819E-01
 -1      1622 2.98831E-01
 -1      1623 3.98498E-01
 -1      1624 3.98498E-01
 -1      1625 2.21966E-01
 -1      1626 1.75321E-01
 -1      1627 1.75321E-01
 -1      1628 1.81006E-01
 -1      1629 1.87886E-01
 -1      1630 2.12194E-01
 -1      1631 1.65021E-01
 -1      1632 1.81006E-01
 -1      1633 2.24759E-01
 -1      1634 1.20949E-01
 -1      1635 1.41522E-01
 -1      1636 2.01260E-01
 -1      1637 8.80090E-02
 -1      1638 8.57144E-02
 -1      1639 1.42525E-01
 -1      1640 1.87486E-01
 -1      1641 1.51623E-01
 -1      1642 1.70904E-01
 -1      1643 2.72550E-01
 -1      1644 2.44156E-01
 -1      1645 2.91188E-01
 -1      1646 3.17032E-01
 -1      1647 3.05660E-01
 -1      1648 3.80968E-01
 -1      1649 3.17955E-01
 -1      1650 3.17955E-01
 -1      1651 4.15000E-01
 -1      1652 3.08810E-01
 -1      1653 3.17955E-01
 -1      1654 4.15923E-01
 -1      1655 2.52751E-01
 -1      1656 2.81814E-01
 -1      1657 3.88928E-01
 -1      1658 1.54698E-01
 -1      1659 1.89370E-01
 -1      1660 2.98551E-01
 -1      1661 2.27205E-01
 -1      1662 1.71954E-01
 -1      1663 2.52425E-01
 -1      1664 3.05797E-01
 -1      1665 2.27205E-01
 -1      1666 2.69681E-01
 -1      1667 4.13110E-01
 -1      1668 3.77511E-01
 -1      1669 3.41395E-01
 -1      1670 5.72575E-01
 -1      1671 2.84204E+01
 -1      1672 2.82490E+01
 -1      1673 3.64797E+01
 -1      1674 2.55076E+01
 -1      1675 4.67953E+01
 -1      1676 4.67953E+01
 -1      1677 2.02274E+01
 -1      1678 3.39738E+01
 -1      1679 1.12958E+01
 -1      1680 1.48929E+01
 -1      1681 1.21084E+01
 -1      1682 1.21084E+01
 -1      1683 1.21379E+01
 -1      1684 1.20804E+01
 -1      1685 1.22235E+01
 -1      1686 1.22235E+01
 -1      1687 1.21014E+01
 -1      1688 1.21625E+01
 -1      1689 1.21227E+01
 -1      1690 1.19215E+01
 -1      1691 2.03173E+01
 -1      1692 1.25037E+01
 -1      1693 2.95764E+01
 -1      1694 2.88537E+01
 -1      1695 2.91771E+01
 -1      1696 2.95764E+01
 -1      1697 2.49228E+01
 -1      1698 2.69057E+01
 -1      1699 2.75438E+01
 -1      1700 2.72536E+01
 -1      1701 2.75438E+01
 -1      1702 2.75438E+01
 -1      1703 4.18803E+01
 -1      1704 3.22344E+01
 -1      1705 4.46843E+01
 -1      1706 4.46843E+01
 -1      1707 1.84365E+01
 -1      1708 3.16291E+01
 -1      1709 3.16291E+01
 -1      1710 1.13712E+01
 -1      1711 1.45205E+01
 -1      1712 1.20780E+01
 -1      1713 1.20006E+01
 -1      1714 1.23872E+01
 -1      1715 1.21554E+01
 -1      1716 1.26190E+01
 -1      1717 1.26190E+01
 -1      1718 1.22996E+01
 -1      1719 1.24593E+01
 -1      1720 1.17595E+01
 -1      1721 1.19290E+01
 -1      1722 1.90476E+01
 -1      1723 1.19608E+01
 -1      1724 2.86611E+01
 -1      1725 2.72764E+01
 -1      1726 2.94181E+01
 -1      1727 2.94181E+01
 -1      1728 2.76442E+01
 -1      1729 2.94181E+01
 -1      1730 2.82490E+01
 -1      1731 2.86729E+01
 -1      1732 1.58177E+01
 -1      1733 3.39738E+01
 -1      1734 2.27879E-01
 -1      1735 2.52186E-01
 -1      1736 2.90769E+01
 -1      1737 3.64797E+01
 -1      1738 3.19897E+01
 -1      1739 1.12958E+01
 -1      1740 1.20804E+01
 -1      1741 1.21379E+01
 -1      1742 1.21625E+01
 -1      1743 1.19215E+01
 -1      1744 1.21227E+01
 -1      1745 2.10400E+01
 -1      1746 2.95764E+01
 -1      1747 2.73050E+01
 -1      1748 2.73644E+01
 -1      1749 2.96952E+01
 -1      1750 3.43858E+01
 -1      1751 4.18803E+01
 -1      1752 1.13712E+01
 -1      1753 1.20780E+01
 -1      1754 1.23872E+01
 -1      1755 1.24593E+01
 -1      1756 1.19290E+01
 -1      1757 1.17595E+01
 -1      1758 2.01895E+01
 -1      1759 2.91753E+01
 -1      1760 2.99323E+01
 -1      1761 3.09610E+01
 -1      1762 9.61160E+00
 -1      1763 1.46579E+01
 -1      1764 1.27667E+00
 -1      1765 1.67157E+00
 -1      1766 2.38846E+00
 -1      1767 4.27871E+00
 -1      1768 1.76268E+00
 -1      1769 8.81961E-01
 -1      1770 9.73945E-01
 -1      1771 7.78946E-01
 -1      1772 8.33342E-01
 -1      1773 7.42395E-01
 -1      1774 7.13984E-01
 -1      1775 7.47889E-01
 -1      1776 6.62720E-01
 -1      1777 6.71988E-01
 -1      1778 6.92006E-01
 -1      1779 6.09685E-01
 -1      1780 6.95307E-01
 -1      1781 6.73605E-01
 -1      1782 5.89325E-01
 -1      1783 7.50813E-01
 -1      1784 7.17047E-01
 -1      1785 6.12683E-01
 -1      1786 8.40833E-01
 -1      1787 7.84077E-01
 -1      1788 6.67688E-01
 -1      1789 9.83968E-01
 -1      1790 8.88366E-01
 -1      1791 7.48485E-01
 -1      1792 1.22899E+00
 -1      1793 1.05154E+00
 -1      1794 8.63592E-01
 -1      1795 1.70957E+00
 -1      1796 1.34296E+00
 -1      1797 1.04513E+00
 -1      1798 2.62959E+00
 -1      1799 1.79410E+00
 -1      1800 1.24361E+00
 -1      1801 8.12145E+00
 -1      1802 3.06638E+00
 -1      1803 1.76493E+00
 -1      1804 2.79881E+00
 -1      1805 5.19863E+00
 -1      1806 2.16506E+00
 -1      1807 2.65563E+00
 -1      1808 2.05855E+00
 -1      1809 1.05545E+01
 -1      1810 1.44705E+01
 -1      1811 3.39948E+00
 -1      1812 2.53739E+00
 -1      1813 1.92284E+00
 -1      1814 1.69220E+00
 -1      1815 1.36003E+00
 -1      1816 1.50077E+00
 -1      1817 1.18012E+00
 -1      1818 9.69706E-01
 -1      1819 1.09022E+00
 -1      1820 8.44480E-01
 -1      1821 7.19087E-01
 -1      1822 7.85085E-01
 -1      1823 6.60264E-01
 -1      1824 5.71019E-01
 -1      1825 6.01035E-01
 -1      1826 5.23077E-01
 -1      1827 4.59855E-01
 -1      1828 4.94270E-01
 -1      1829 4.17856E-01
 -1      1830 3.68707E-01
 -1      1831 4.04330E-01
 -1      1832 3.36160E-01
 -1      1833 2.97238E-01
 -1      1834 3.29785E-01
 -1      1835 2.70304E-01
 -1      1836 2.42810E-01
 -1      1837 2.70304E-01
 -1      1838 2.19910E-01
 -1      1839 1.96833E-01
 -1      1840 2.20470E-01
 -1      1841 1.77921E-01
 -1      1842 1.59142E-01
 -1      1843 1.78657E-01
 -1      1844 1.44317E-01
 -1      1845 1.29455E-01
 -1      1846 1.44920E-01
 -1      1847 1.17334E-01
 -1      1848 1.05853E-01
 -1      1849 1.17974E-01
 -1      1850 9.84815E-02
 -1      1851 9.47343E-02
 -1      1852 9.84815E-02
 -1      1853 9.26166E-02
 -1      1854 9.57398E-02
 -1      1855 8.89925E-02
 -1      1856 1.04137E-01
 -1      1857 1.16459E-01
 -1      1858 9.52723E-02
 -1      1859 1.29247E-01
 -1      1860 1.47170E-01
 -1      1861 1.16459E-01
 -1      1862 1.65093E-01
 -1      1863 1.88901E-01
 -1      1864 1.47170E-01
 -1      1865 2.24445E-01
 -1      1866 2.54774E-01
 -1      1867 2.00637E-01
 -1      1868 3.02299E-01
 -1      1869 3.40978E-01
 -1      1870 2.83707E-01
 -1      1871 4.01234E-01
 -1      1872 4.69235E-01
 -1      1873 3.91487E-01
 -1      1874 5.43504E-01
 -1      1875 6.27821E-01
 -1      1876 5.26012E-01
 -1      1877 7.15669E-01
 -1      1878 8.14786E-01
 -1      1879 6.88129E-01
 -1      1880 9.12417E-01
 -1      1881 1.01983E+00
 -1      1882 8.73608E-01
 -1      1883 1.11779E+00
 -1      1884 1.21890E+00
 -1      1885 1.06919E+00
 -1      1886 1.29956E+00
 -1      1887 1.40066E+00
 -1      1888 1.24781E+00
 -1      1889 1.46579E+00
 -1      1890 1.61997E+00
 -1      1891 1.39359E+00
 -1      1892 1.69362E+00
 -1      1893 1.82687E+00
 -1      1894 1.53237E+00
 -1      1895 1.85944E+00
 -1      1896 1.84777E+00
 -1      1897 1.63859E+00
 -1      1898 1.80223E+00
 -1      1899 1.83180E+00
 -1      1900 1.62562E+00
 -1      1901 1.92279E+00
 -1      1902 1.86199E+00
 -1      1903 1.67106E+00
 -1      1904 2.01471E+00
 -1      1905 2.55497E+00
 -1      1906 1.91477E+00
 -1      1907 2.88603E+00
 -1      1908 3.94781E+00
 -1      1909 2.39855E+00
 -1      1910 4.45587E+00
 -1      1911 4.84958E+00
 -1      1912 3.23767E+00
 -1      1913 5.00751E+00
 -1      1914 4.98118E+00
 -1      1915 3.90365E+00
 -1      1916 4.55883E+00
 -1      1917 3.78383E+00
 -1      1918 3.63923E+00
 -1      1919 3.38940E+00
 -1      1920 2.44426E+00
 -1      1921 2.82245E+00
 -1      1922 2.15435E+00
 -1      1923 1.82187E+00
 -1      1924 2.13812E+00
 -1      1925 1.76076E+00
 -1      1926 1.83334E+00
 -1      1927 1.78709E+00
 -1      1928 1.71265E+00
 -1      1929 1.77722E+00
 -1      1930 1.60529E+00
 -1      1931 1.77504E+00
 -1      1932 1.69539E+00
 -1      1933 1.48243E+00
 -1      1934 1.64589E+00
 -1      1935 1.44414E+00
 -1      1936 1.43074E+00
 -1      1937 1.33193E+00
 -1      1938 1.19271E+00
 -1      1939 1.26903E+00
 -1      1940 1.10689E+00
 -1      1941 1.07519E+00
 -1      1942 1.07100E+00
 -1      1943 9.97729E-01
 -1      1944 8.86874E-01
 -1      1945 9.07712E-01
 -1      1946 7.95798E-01
 -1      1947 6.90069E-01
 -1      1948 5.30603E-01
 -1      1949 7.39174E-01
 -1      1950 1.39996E+00
 -1      1951 1.77339E+00
 -1      1952 1.52370E+00
 -1      1953 1.02045E+00
 -1      1954 1.28079E+00
 -1      1955 1.01287E+00
 -1      1956 8.07079E-01
 -1      1957 9.27012E-01
 -1      1958 8.00260E-01
 -1      1959 6.40987E-01
 -1      1960 7.27949E-01
 -1      1961 6.27691E-01
 -1      1962 5.16325E-01
 -1      1963 5.87481E-01
 -1      1964 4.95055E-01
 -1      1965 4.24640E-01
 -1      1966 4.83591E-01
 -1      1967 4.08815E-01
 -1      1968 3.44799E-01
 -1      1969 3.93385E-01
 -1      1970 3.44827E-01
 -1      1971 2.80620E-01
 -1      1972 3.17078E-01
 -1      1973 2.85852E-01
 -1      1974 2.29240E-01
 -1      1975 2.58456E-01
 -1      1976 2.35968E-01
 -1      1977 1.87294E-01
 -1      1978 2.10487E-01
 -1      1979 1.95051E-01
 -1      1980 1.55354E-01
 -1      1981 1.72811E-01
 -1      1982 1.61814E-01
 -1      1983 1.31154E-01
 -1      1984 1.44084E-01
 -1      1985 1.36061E-01
 -1      1986 1.15191E-01
 -1      1987 1.22998E-01
 -1      1988 1.16635E-01
 -1      1989 1.10995E-01
 -1      1990 1.11877E-01
 -1      1991 1.05165E-01
 -1      1992 1.14752E-01
 -1      1993 1.11313E-01
 -1      1994 1.02170E-01
 -1      1995 1.26499E-01
 -1      1996 1.19557E-01
 -1      1997 1.07293E-01
 -1      1998 1.49779E-01
 -1      1999 1.38761E-01
 -1      2000 1.24361E-01
 -1      2001 1.86877E-01
 -1      2002 1.68353E-01
 -1      2003 1.55196E-01
 -1      2004 2.38049E-01
 -1      2005 2.17448E-01
 -1      2006 2.04341E-01
 -1      2007 2.93725E-01
 -1      2008 2.72874E-01
 -1      2009 2.69736E-01
 -1      2010 3.53837E-01
 -1      2011 3.30848E-01
 -1      2012 3.41685E-01
 -1      2013 4.12961E-01
 -1      2014 3.89456E-01
 -1      2015 4.14427E-01
 -1      2016 4.57969E-01
 -1      2017 4.42655E-01
 -1      2018 4.79739E-01
 -1      2019 5.01516E-01
 -1      2020 4.85295E-01
 -1      2021 5.36759E-01
 -1      2022 5.46990E-01
 -1      2023 5.06273E-01
 -1      2024 5.68842E-01
 -1      2025 6.05345E-01
 -1      2026 5.46990E-01
 -1      2027 5.73599E-01
 -1      2028 6.14089E-01
 -1      2029 5.72760E-01
 -1      2030 5.41015E-01
 -1      2031 6.59310E-01
 -1      2032 5.80787E-01
 -1      2033 4.75128E-01
 -1      2034 7.80932E-01
 -1      2035 6.91109E-01
 -1      2036 4.73625E-01
 -1      2037 9.89087E-01
 -1      2038 9.83147E-01
 -1      2039 7.07639E-01
 -1      2040 1.35659E+00
 -1      2041 1.21722E+00
 -1      2042 1.13799E+00
 -1      2043 1.64449E+00
 -1      2044 1.48327E+00
 -1      2045 1.49281E+00
 -1      2046 1.94122E+00
 -1      2047 1.64449E+00
 -1      2048 1.61949E+00
 -1      2049 2.09132E+00
 -1      2050 1.93146E+00
 -1      2051 1.60973E+00
 -1      2052 2.26258E+00
 -1      2053 2.12228E+00
 -1      2054 1.63092E+00
 -1      2055 2.24382E+00
 -1      2056 2.30895E+00
 -1      2057 1.70825E+00
 -1      2058 1.74870E+00
 -1      2059 2.10103E+00
 -1      2060 1.61182E+00
 -1      2061 1.14045E+00
 -1      2062 1.53171E+00
 -1      2063 1.25205E+00
 -1      2064 6.90666E-01
 -1      2065 9.27141E-01
 -1      2066 8.21754E-01
 -1      2067 4.65735E-01
 -1      2068 5.60415E-01
 -1      2069 4.78191E-01
 -1      2070 5.52497E-01
 -1      2071 4.98950E-01
 -1      2072 3.81154E-01
 -1      2073 6.33755E-01
 -1      2074 5.89333E-01
 -1      2075 4.51205E-01
 -1      2076 5.85533E-01
 -1      2077 6.32938E-01
 -1      2078 4.87225E-01
 -1      2079 5.08680E-01
 -1      2080 5.65315E-01
 -1      2081 4.66190E-01
 -1      2082 4.56397E-01
 -1      2083 4.95964E-01
 -1      2084 4.33257E-01
 -1      2085 3.04743E-01
 -1      2086 3.98498E-01
 -1      2087 3.62642E-01
 -1      2088 2.52186E-01
 -1      2089 2.28330E-01
 -1      2090 2.51829E-01
 -1      2091 2.76056E-01
 -1      2092 2.76056E-01
 -1      2093 3.03127E-01
 -1      2094 2.76056E-01
 -1      2095 2.63491E-01
 -1      2096 3.16048E-01
 -1      2097 3.27353E-01
 -1      2098 1.66782E-01
 -1      2099 2.02017E-01
 -1      2100 2.52587E-01
 -1      2101 2.53850E-01
 -1      2102 1.90237E-01
 -1      2103 2.49728E-01
 -1      2104 3.97215E-01
 -1      2105 3.40545E-01
 -1      2106 3.59877E-01
 -1      2107 4.96737E-01
 -1      2108 4.63627E-01
 -1      2109 5.12985E-01
 -1      2110 5.03593E-01
 -1      2111 5.02670E-01
 -1      2112 5.85330E-01
 -1      2113 5.10577E-01
 -1      2114 5.10577E-01
 -1      2115 5.98247E-01
 -1      2116 4.83582E-01
 -1      2117 5.10577E-01
 -1      2118 6.05231E-01
 -1      2119 3.64357E-01
 -1      2120 4.27739E-01
 -1      2121 5.49388E-01
 -1      2122 3.04427E-01
 -1      2123 2.87171E-01
 -1      2124 4.16359E-01
 -1      2125 3.89743E-01
 -1      2126 3.89743E-01
 -1      2127 4.24490E-01
 -1      2128 3.64797E+01
 -1      2129 2.61641E+01
 -1      2130 3.19897E+01
 -1      2131 3.19897E+01
 -1      2132 2.57766E+01
 -1      2133 2.86893E+01
 -1      2134 2.86893E+01
 -1      2135 1.84769E+01
 -1      2136 3.12984E+01
 -1      2137 1.63035E+01
 -1      2138 2.93587E+01
 -1      2139 1.10822E+01
 -1      2140 1.10048E+01
 -1      2141 9.74751E+00
 -1      2142 1.50821E+01
 -1      2143 1.03726E+00
 -1      2144 1.21259E+00
 -1      2145 9.81713E-01
 -1      2146 8.54324E-01
 -1      2147 1.11383E+01
 -1      2148 1.11663E+01
 -1      2149 1.12747E+01
 -1      2150 1.11891E+01
 -1      2151 1.02750E+01
 -1      2152 1.09851E+01
 -1      2153 1.10461E+01
 -1      2154 1.06455E+01
 -1      2155 1.08253E+01
 -1      2156 9.63589E+00
 -1      2157 9.25492E+00
 -1      2158 2.06625E+01
 -1      2159 1.21261E+01
 -1      2160 2.48380E+01
 -1      2161 2.48380E+01
 -1      2162 2.48090E+01
 -1      2163 2.70805E+01
 -1      2164 3.12665E+01
 -1      2165 2.89357E+01
 -1      2166 3.12665E+01
 -1      2167 3.12665E+01
 -1      2168 3.27914E+01
 -1      2169 2.81008E+01
 -1      2170 3.55304E+01
 -1      2171 3.27264E+01
 -1      2172 2.64415E+01
 -1      2173 9.79672E+00
 -1      2174 9.16733E+00
 -1      2175 1.15318E+01
 -1      2176 1.13000E+01
 -1      2177 1.12926E+01
 -1      2178 1.14522E+01
 -1      2179 1.01817E+01
 -1      2180 1.05523E+01
 -1      2181 9.54525E+00
 -1      2182 9.25080E+00
 -1      2183 9.04956E+00
 -1      2184 1.96248E+01
 -1      2185 1.13961E+01
 -1      2186 8.68609E+00
 -1      2187 2.43470E+01
 -1      2188 2.35899E+01
 -1      2189 2.99323E+01
 -1      2190 2.99323E+01
 -1      2191 2.43470E+01
 -1      2192 3.14526E+01
 -1      2193 3.04239E+01
 -1      2194 9.91564E+00
 -1      2195 9.10304E+00
 -1      2196 8.36738E+00
 -1      2197 1.22001E+01
 -1      2198 8.97997E+00
 -1      2199 2.91148E+00
 -1      2200 2.10548E+00
 -1      2201 2.38871E+01
 -1      2202 2.34996E+01
 -1      2203 2.38871E+01
 -1      2204 2.09828E+01
 -1      2205 4.61458E-01
 -1      2206 3.14526E+01
 -1      2207 1.24066E+01
 -1      2208 2.02048E+01
 -1      2209 8.97358E+00
 -1      2210 3.04239E+01
 -1      2211 1.47965E+01
 -1      2212 7.67290E+00
 -1      2213 1.03651E+01
 -1      2214 2.96721E+01
 -1      2215 8.80087E+00
 -1      2216 3.28378E+01
 -1      2217 2.87111E+01
 -1      2218 2.23420E+01
 -1      2219 1.59241E+01
 -1      2220 9.25835E+00
 -1      2221 8.15867E+00
 -1      2222 1.02268E+01
 -1      2223 1.11077E+01
 -1      2224 1.01589E+01
 -1      2225 9.93032E+00
 -1      2226 9.70895E+00
 -1      2227 1.09069E+00
 -1      2228 1.48235E+00
 -1      2229 5.58775E-01
 -1      2230 5.89831E-01
 -1      2231 6.02060E-01
 -1      2232 6.50679E-01
 -1      2233 4.98115E-01
 -1      2234 5.11342E-01
 -1      2235 5.09724E-01
 -1      2236 5.45935E-01
 -1      2237 5.24194E-01
 -1      2238 4.44594E-01
 -1      2239 5.93890E-01
 -1      2240 5.60625E-01
 -1      2241 4.72137E-01
 -1      2242 6.53441E-01
 -1      2243 6.05908E-01
 -1      2244 4.98846E-01
 -1      2245 7.21016E-01
 -1      2246 6.53441E-01
 -1      2247 5.10864E-01
 -1      2248 8.83449E-01
 -1      2249 7.69486E-01
 -1      2250 5.59335E-01
 -1      2251 1.26754E+00
 -1      2252 1.03690E+00
 -1      2253 6.46593E+00
 -1      2254 7.85309E+00
 -1      2255 8.93699E-01
 -1      2256 1.01287E+00
 -1      2257 9.71520E-01
 -1      2258 1.67728E+00
 -1      2259 1.30319E+00
 -1      2260 8.39331E-01
 -1      2261 9.60388E-01
 -1      2262 9.87651E-01
 -1      2263 8.07742E-01
 -1      2264 7.54425E-01
 -1      2265 7.51020E-01
 -1      2266 6.25793E-01
 -1      2267 6.48450E-01
 -1      2268 5.69862E-01
 -1      2269 5.11040E-01
 -1      2270 5.35797E-01
 -1      2271 4.61962E-01
 -1      2272 4.14020E-01
 -1      2273 4.30790E-01
 -1      2274 3.87125E-01
 -1      2275 3.45127E-01
 -1      2276 3.54817E-01
 -1      2277 3.20686E-01
 -1      2278 2.88140E-01
 -1      2279 3.03482E-01
 -1      2280 2.65127E-01
 -1      2281 2.38192E-01
 -1      2282 2.56028E-01
 -1      2283 2.18058E-01
 -1      2284 1.95158E-01
 -1      2285 2.12881E-01
 -1      2286 1.78449E-01
 -1      2287 1.59537E-01
 -1      2288 1.76038E-01
 -1      2289 1.44920E-01
 -1      2290 1.30094E-01
 -1      2291 1.44712E-01
 -1      2292 1.17466E-01
 -1      2293 1.05345E-01
 -1      2294 1.17466E-01
 -1      2295 9.56545E-02
 -1      2296 8.82832E-02
 -1      2297 9.51470E-02
 -1      2298 8.02897E-02
 -1      2299 7.81720E-02
 -1      2300 7.74627E-02
 -1      2301 8.25423E-02
 -1      2302 9.09398E-02
 -1      2303 7.38395E-02
 -1      2304 9.91788E-02
 -1      2305 1.11968E-01
 -1      2306 8.64488E-02
 -1      2307 1.34047E-01
 -1      2308 1.51969E-01
 -1      2309 1.16767E-01
 -1      2310 1.83675E-01
 -1      2311 2.19219E-01
 -1      2312 1.70551E-01
 -1      2313 2.59503E-01
 -1      2314 3.07028E-01
 -1      2315 2.42541E-01
 -1      2316 3.57838E-01
 -1      2317 4.18094E-01
 -1      2318 3.33635E-01
 -1      2319 4.81267E-01
 -1      2320 5.55537E-01
 -1      2321 4.47619E-01
 -1      2322 6.32408E-01
 -1      2323 7.20256E-01
 -1      2324 5.87664E-01
 -1      2325 8.10982E-01
 -1      2326 9.08612E-01
 -1      2327 7.55261E-01
 -1      2328 1.01105E+00
 -1      2329 1.10901E+00
 -1      2330 9.48424E-01
 -1      2331 1.21706E+00
 -1      2332 1.29772E+00
 -1      2333 1.15891E+00
 -1      2334 1.39905E+00
 -1      2335 1.46418E+00
 -1      2336 1.36830E+00
 -1      2337 1.54873E+00
 -1      2338 1.62238E+00
 -1      2339 1.55419E+00
 -1      2340 1.80557E+00
 -1      2341 1.83814E+00
 -1      2342 1.82193E+00
 -1      2343 2.04128E+00
 -1      2344 1.99574E+00
 -1      2345 2.20826E+00
 -1      2346 2.16985E+00
 -1      2347 2.26084E+00
 -1      2348 2.58552E+00
 -1      2349 2.45521E+00
 -1      2350 2.60794E+00
 -1      2351 2.95400E+00
 -1      2352 2.51083E+00
 -1      2353 2.84189E+00
 -1      2354 3.05127E+00
 -1      2355 3.95472E+00
 -1      2356 4.46278E+00
 -1      2357 4.06700E+00
 -1      2358 5.30730E+00
 -1      2359 5.46523E+00
 -1      2360 6.02436E+00
 -1      2361 4.91377E+00
 -1      2362 4.49142E+00
 -1      2363 6.31743E+00
 -1      2364 3.19217E+00
 -1      2365 2.79774E+00
 -1      2366 4.46671E+00
 -1      2367 2.74901E+00
 -1      2368 2.45910E+00
 -1      2369 3.11872E+00
 -1      2370 2.39659E+00
 -1      2371 2.33547E+00
 -1      2372 3.00748E+00
 -1      2373 1.99968E+00
 -1      2374 1.87899E+00
 -1      2375 2.60917E+00
 -1      2376 1.69473E+00
 -1      2377 1.69255E+00
 -1      2378 2.08911E+00
 -1      2379 1.49413E+00
 -1      2380 1.44463E+00
 -1      2381 1.70643E+00
 -1      2382 1.33653E+00
 -1      2383 1.22432E+00
 -1      2384 1.39991E+00
 -1      2385 1.10956E+00
 -1      2386 1.02373E+00
 -1      2387 1.17705E+00
 -1      2388 9.02725E-01
 -1      2389 8.25263E-01
 -1      2390 9.41284E-01
 -1      2391 5.48560E-01
 -1      2392 6.27691E-01
 -1      2393 4.41549E-01
 -1      2394 4.95055E-01
 -1      2395 4.95055E-01
 -1      2396 3.76081E-01
 -1      2397 4.08815E-01
 -1      2398 4.08815E-01
 -1      2399 3.13572E-01
 -1      2400 3.44827E-01
 -1      2401 3.44827E-01
 -1      2402 2.58132E-01
 -1      2403 2.85852E-01
 -1      2404 2.85852E-01
 -1      2405 2.13804E-01
 -1      2406 2.35968E-01
 -1      2407 2.35968E-01
 -1      2408 1.75758E-01
 -1      2409 1.94511E-01
 -1      2410 1.94511E-01
 -1      2411 1.44720E-01
 -1      2412 1.59203E-01
 -1      2413 1.58663E-01
 -1      2414 1.19737E-01
 -1      2415 1.31007E-01
 -1      2416 1.28396E-01
 -1      2417 1.00253E-01
 -1      2418 1.08409E-01
 -1      2419 1.03355E-01
 -1      2420 8.93203E-02
 -1      2421 9.26339E-02
 -1      2422 8.44079E-02
 -1      2423 9.07330E-02
 -1      2424 9.04152E-02
 -1      2425 7.78837E-02
 -1      2426 1.02488E-01
 -1      2427 9.76827E-02
 -1      2428 8.59283E-02
 -1      2429 1.24361E-01
 -1      2430 1.12099E-01
 -1      2431 1.02488E-01
 -1      2432 1.65617E-01
 -1      2433 1.47043E-01
 -1      2434 1.34781E-01
 -1      2435 2.23950E-01
 -1      2436 1.93379E-01
 -1      2437 1.85226E-01
 -1      2438 2.90362E-01
 -1      2439 2.55537E-01
 -1      2440 2.44575E-01
 -1      2441 3.61647E-01
 -1      2442 3.24523E-01
 -1      2443 3.10323E-01
 -1      2444 4.31375E-01
 -1      2445 3.95757E-01
 -1      2446 3.78594E-01
 -1      2447 4.90708E-01
 -1      2448 4.61014E-01
 -1      2449 4.42344E-01
 -1      2450 5.45656E-01
 -1      2451 5.18329E-01
 -1      2452 4.99604E-01
 -1      2453 5.68842E-01
 -1      2454 5.64085E-01
 -1      2455 5.45656E-01
 -1      2456 5.79754E-01
 -1      2457 5.79754E-01
 -1      2458 5.74997E-01
 -1      2459 5.34342E-01
 -1      2460 5.66927E-01
 -1      2461 5.73081E-01
 -1      2462 5.02670E-01
 -1      2463 5.35972E-01
 -1      2464 5.61884E-01
 -1      2465 5.66067E-01
 -1      2466 5.34268E-01
 -1      2467 5.95112E-01
 -1      2468 8.62155E-01
 -1      2469 6.59940E-01
 -1      2470 7.20583E-01
 -1      2471 1.25566E+00
 -1      2472 1.02753E+00
 -1      2473 9.79826E-01
 -1      2474 1.50441E+00
 -1      2475 1.37773E+00
 -1      2476 1.26727E+00
 -1      2477 1.61949E+00
 -1      2478 1.61949E+00
 -1      2479 1.50441E+00
 -1      2480 1.59996E+00
 -1      2481 1.60973E+00
 -1      2482 1.60973E+00
 -1      2483 1.62208E+00
 -1      2484 1.59111E+00
 -1      2485 1.59111E+00
 -1      2486 1.67775E+00
 -1      2487 1.63138E+00
 -1      2488 1.59157E+00
 -1      2489 1.43887E+00
 -1      2490 1.58166E+00
 -1      2491 1.50479E+00
 -1      2492 1.11763E+00
 -1      2493 1.33461E+00
 -1      2494 1.30445E+00
 -1      2495 7.81814E-01
 -1      2496 9.95125E-01
 -1      2497 1.07769E+00
 -1      2498 5.09630E-01
 -1      2499 6.39881E-01
 -1      2500 8.13253E-01
 -1      2501 5.06989E-01
 -1      2502 4.73774E-01
 -1      2503 6.35465E-01
 -1      2504 4.98808E-01
 -1      2505 4.61972E-01
 -1      2506 5.54592E-01
 -1      2507 4.55795E-01
 -1      2508 4.56612E-01
 -1      2509 4.67378E-01
 -1      2510 4.14628E-01
 -1      2511 4.34846E-01
 -1      2512 4.04233E-01
 -1      2513 3.92445E-01
 -1      2514 4.05160E-01
 -1      2515 3.73816E-01
 -1      2516 3.73947E-01
 -1      2517 3.40433E-01
 -1      2518 3.16979E-01
 -1      2519 4.65026E-01
 -1      2520 3.78331E-01
 -1      2521 4.45582E-01
 -1      2522 2.84454E-01
 -1      2523 3.08681E-01
 -1      2524 2.69997E-01
 -1      2525 2.96309E-01
 -1      2526 3.01864E-01
 -1      2527 3.60702E-01
 -1      2528 6.52822E-01
 -1      2529 5.86410E-01
 -1      2530 6.04864E-01
 -1      2531 7.11826E-01
 -1      2532 7.05894E-01
 -1      2533 7.79319E-01
 -1      2534 7.24913E-01
 -1      2535 7.17928E-01
 -1      2536 8.38492E-01
 -1      2537 7.24913E-01
 -1      2538 7.24913E-01
 -1      2539 8.44594E-01
 -1      2540 6.53225E-01
 -1      2541 7.09068E-01
 -1      2542 8.28749E-01
 -1      2543 4.69238E-01
 -1      2544 5.46423E-01
 -1      2545 7.06103E-01
 -1      2546 5.34645E-01
 -1      2547 4.49328E-01
 -1      2548 5.79393E-01
 -1      2549 1.49644E+01
 -1      2550 2.01457E+01
 -1      2551 5.78952E-01
 -1      2552 3.14526E+01
 -1      2553 3.09155E+01
 -1      2554 7.06821E-01
 -1      2555 8.00260E-01
 -1      2556 6.27691E-01
 -1      2557 2.53890E+01
 -1      2558 2.86893E+01
 -1      2559 9.14897E+00
 -1      2560 9.22853E+00
 -1      2561 7.65033E+00
 -1      2562 6.39966E+00
 -1      2563 1.31443E+01
 -1      2564 1.93160E+01
 -1      2565 8.84994E+00
 -1      2566 1.06829E+01
 -1      2567 5.22510E-01
 -1      2568 5.44488E-01
 -1      2569 4.71600E-01
 -1      2570 4.44527E-01
 -1      2571 8.77967E+00
 -1      2572 8.72888E+00
 -1      2573 8.92332E+00
 -1      2574 8.70548E+00
 -1      2575 5.54282E+00
 -1      2576 6.93335E+00
 -1      2577 9.27750E+00
 -1      2578 6.78729E+00
 -1      2579 1.48114E+01
 -1      2580 1.06359E+01
 -1      2581 1.98845E+01
 -1      2582 1.76420E+01
 -1      2583 2.87111E+01
 -1      2584 2.45845E+01
 -1      2585 1.98845E+01
 -1      2586 7.74287E+00
 -1      2587 6.53481E+00
 -1      2588 2.20621E+01
 -1      2589 2.21270E+01
 -1      2590 3.28378E+01
 -1      2591 3.28378E+01
 -1      2592 8.07111E+00
 -1      2593 8.23087E+00
 -1      2594 2.66881E+01
 -1      2595 2.61965E+01
 -1      2596 2.66881E+01
 -1      2597 2.65064E+01
 -1      2598 2.96721E+01
 -1      2599 7.60869E+00
 -1      2600 8.34894E+00
 -1      2601 5.47418E+00
 -1      2602 6.60628E+00
 -1      2603 5.40997E+00
 -1      2604 8.35966E+00
 -1      2605 6.21439E+00
 -1      2606 1.41734E+01
 -1      2607 1.02082E+01
 -1      2608 7.73654E+00
 -1      2609 2.14163E+01
 -1      2610 1.58309E+01
 -1      2611 9.27602E+00
 -1      2612 1.26708E+01
 -1      2613 6.10218E+00
 -1      2614 6.74665E+00
 -1      2615 1.62210E+00
 -1      2616 1.76529E+00
 -1      2617 1.32849E+00
 -1      2618 1.18909E+00
 -1      2619 6.15496E+00
 -1      2620 6.14197E-01
 -1      2621 7.54532E-01
 -1      2622 8.17842E-01
 -1      2623 2.81522E+01
 -1      2624 1.24397E+00
 -1      2625 6.33590E+00
 -1      2626 1.12427E+01
 -1      2627 8.96309E-01
 -1      2628 5.14776E+00
 -1      2629 1.78687E+01
 -1      2630 2.96721E+01
 -1      2631 3.45851E-01
 -1      2632 3.45851E-01
 -1      2633 5.45526E+00
 -1      2634 1.18338E+01
 -1      2635 5.95523E-01
 -1      2636 5.26377E-01
 -1      2637 5.51216E-01
 -1      2638 6.86599E-01
 -1      2639 9.68324E-01
 -1      2640 8.00260E-01
 -1      2641 1.98820E+01
 -1      2642 1.98820E+01
 -1      2643 1.79926E+01
 -1      2644 1.50016E+01
 -1      2645 7.70723E+00
 -1      2646 2.61299E+01
 -1      2647 2.20033E+01
 -1      2648 2.61299E+01
 -1      2649 5.40793E+00
 -1      2650 4.77893E+00
 -1      2651 1.23538E+01
 -1      2652 8.16481E+00
 -1      2653 5.56197E+00
 -1      2654 9.79415E+00
 -1      2655 7.21241E+00
 -1      2656 8.29248E+00
 -1      2657 6.81612E-01
 -1      2658 8.61272E+00
 -1      2659 6.43941E+00
 -1      2660 2.21270E+01
 -1      2661 1.76805E+01
 -1      2662 7.01083E+00
 -1      2663 3.27178E-01
 -1      2664 4.22664E-01
 -1      2665 4.07974E-01
 -1      2666 4.00290E-01
 -1      2667 3.87438E-01
 -1      2668 3.50818E-01
 -1      2669 4.36323E-01
 -1      2670 4.36323E-01
 -1      2671 4.72783E-01
 -1      2672 4.24313E-01
 -1      2673 3.49771E-01
 -1      2674 6.11798E-01
 -1      2675 7.05237E-01
 -1      2676 6.05802E-01
 -1      2677 5.56548E-01
 -1      2678 1.27726E+01
 -1      2679 1.65140E+01
 -1      2680 2.94853E-01
 -1      2681 3.26107E-01
 -1      2682 5.52503E-01
 -1      2683 4.95781E-01
 -1      2684 4.03879E-01
 -1      2685 4.89118E-01
 -1      2686 4.33187E-01
 -1      2687 3.93171E-01
 -1      2688 4.12946E-01
 -1      2689 3.63868E-01
 -1      2690 3.66266E-01
 -1      2691 3.39173E-01
 -1      2692 3.12278E-01
 -1      2693 3.21329E-01
 -1      2694 2.87445E-01
 -1      2695 2.63004E-01
 -1      2696 2.71800E-01
 -1      2697 2.47015E-01
 -1      2698 2.24001E-01
 -1      2699 2.30977E-01
 -1      2700 2.07428E-01
 -1      2701 1.87294E-01
 -1      2702 1.98414E-01
 -1      2703 1.72146E-01
 -1      2704 1.55437E-01
 -1      2705 1.66693E-01
 -1      2706 1.42081E-01
 -1      2707 1.27463E-01
 -1      2708 1.38189E-01
 -1      2709 1.15419E-01
 -1      2710 1.02791E-01
 -1      2711 1.12788E-01
 -1      2712 9.18764E-02
 -1      2713 8.21857E-02
 -1      2714 8.98293E-02
 -1      2715 7.19657E-02
 -1      2716 6.39722E-02
 -1      2717 6.86952E-02
 -1      2718 5.97587E-02
 -1      2719 6.41290E-02
 -1      2720 5.42617E-02
 -1      2721 7.02869E-02
 -1      2722 7.85259E-02
 -1      2723 5.62061E-02
 -1      2724 9.91048E-02
 -1      2725 1.21184E-01
 -1      2726 8.29429E-02
 -1      2727 1.46576E-01
 -1      2728 1.78282E-01
 -1      2729 1.28914E-01
 -1      2730 2.09974E-01
 -1      2731 2.50258E-01
 -1      2732 1.85999E-01
 -1      2733 2.89974E-01
 -1      2734 3.40785E-01
 -1      2735 2.57408E-01
 -1      2736 3.90543E-01
 -1      2737 4.53716E-01
 -1      2738 3.46882E-01
 -1      2739 5.15942E-01
 -1      2740 5.92814E-01
 -1      2741 4.58866E-01
 -1      2742 6.70561E-01
 -1      2743 7.61286E-01
 -1      2744 5.98839E-01
 -1      2745 8.61432E-01
 -1      2746 9.63870E-01
 -1      2747 7.76732E-01
 -1      2748 1.08742E+00
 -1      2749 1.19547E+00
 -1      2750 1.00043E+00
 -1      2751 1.34530E+00
 -1      2752 1.44664E+00
 -1      2753 1.27380E+00
 -1      2754 1.63712E+00
 -1      2755 1.72167E+00
 -1      2756 1.61412E+00
 -1      2757 1.93763E+00
 -1      2758 2.12082E+00
 -1      2759 2.02056E+00
 -1      2760 2.36765E+00
 -1      2761 2.57080E+00
 -1      2762 2.48336E+00
 -1      2763 3.09574E+00
 -1      2764 3.26985E+00
 -1      2765 3.25513E+00
 -1      2766 3.85528E+00
 -1      2767 4.04965E+00
 -1      2768 4.36550E+00
 -1      2769 4.14661E+00
 -1      2770 5.25945E+00
 -1      2771 7.44066E+00
 -1      2772 6.88920E+00
 -1      2773 6.08918E+00
 -1      2774 4.78992E+00
 -1      2775 3.48427E+00
 -1      2776 3.43554E+00
 -1      2777 3.62440E+00
 -1      2778 3.56189E+00
 -1      2779 3.98995E+00
 -1      2780 3.51413E+00
 -1      2781 3.17833E+00
 -1      2782 4.13105E+00
 -1      2783 2.65687E+00
 -1      2784 2.47261E+00
 -1      2785 3.56183E+00
 -1      2786 2.05173E+00
 -1      2787 1.85331E+00
 -1      2788 2.61949E+00
 -1      2789 1.64003E+00
 -1      2790 1.53193E+00
 -1      2791 1.98533E+00
 -1      2792 1.32007E+00
 -1      2793 1.20531E+00
 -1      2794 1.56019E+00
 -1      2795 1.11227E+00
 -1      2796 9.91262E-01
 -1      2797 1.25529E+00
 -1      2798 3.53617E-01
 -1      2799 3.86351E-01
 -1      2800 3.03643E-01
 -1      2801 8.28573E-01
 -1      2802 2.30447E+01
 -1      2803 1.88174E+01
 -1      2804 4.20504E-01
 -1      2805 4.74010E-01
 -1      2806 3.65307E-01
 -1      2807 2.48501E-01
 -1      2808 2.76222E-01
 -1      2809 2.57502E-01
 -1      2810 2.08105E-01
 -1      2811 2.30269E-01
 -1      2812 2.20639E-01
 -1      2813 1.71876E-01
 -1      2814 1.91169E-01
 -1      2815 1.85470E-01
 -1      2816 1.40241E-01
 -1      2817 1.56796E-01
 -1      2818 1.53453E-01
 -1      2819 1.13408E-01
 -1      2820 1.27120E-01
 -1      2821 1.25253E-01
 -1      2822 9.07177E-02
 -1      2823 1.02046E-01
 -1      2824 1.00770E-01
 -1      2825 7.30832E-02
 -1      2826 8.07022E-02
 -1      2827 7.93930E-02
 -1      2828 6.76558E-02
 -1      2829 6.65609E-02
 -1      2830 6.28553E-02
 -1      2831 7.90654E-02
 -1      2832 7.21157E-02
 -1      2833 6.07929E-02
 -1      2834 9.98511E-02
 -1      2835 9.02408E-02
 -1      2836 7.64282E-02
 -1      2837 1.43695E-01
 -1      2838 1.21013E-01
 -1      2839 1.08765E-01
 -1      2840 1.96367E-01
 -1      2841 1.68604E-01
 -1      2842 1.54836E-01
 -1      2843 2.56861E-01
 -1      2844 2.25274E-01
 -1      2845 2.08652E-01
 -1      2846 3.23655E-01
 -1      2847 2.89494E-01
 -1      2848 2.70192E-01
 -1      2849 3.93033E-01
 -1      2850 3.58923E-01
 -1      2851 3.38094E-01
 -1      2852 4.58298E-01
 -1      2853 4.28659E-01
 -1      2854 4.08987E-01
 -1      2855 5.18100E-01
 -1      2856 4.90478E-01
 -1      2857 4.76793E-01
 -1      2858 5.68005E-01
 -1      2859 5.49575E-01
 -1      2860 5.40449E-01
 -1      2861 6.20557E-01
 -1      2862 6.09646E-01
 -1      2863 6.13566E-01
 -1      2864 6.43265E-01
 -1      2865 6.56092E-01
 -1      2866 6.90742E-01
 -1      2867 6.58807E-01
 -1      2868 6.57177E-01
 -1      2869 7.40188E-01
 -1      2870 7.69052E-01
 -1      2871 7.37455E-01
 -1      2872 8.32747E-01
 -1      2873 9.47632E-01
 -1      2874 8.53759E-01
 -1      2875 9.96101E-01
 -1      2876 1.17706E+00
 -1      2877 1.01169E+00
 -1      2878 1.14486E+00
 -1      2879 1.41976E+00
 -1      2880 1.29768E+00
 -1      2881 1.32955E+00
 -1      2882 1.59652E+00
 -1      2883 1.48144E+00
 -1      2884 1.51186E+00
 -1      2885 1.86562E+00
 -1      2886 1.87539E+00
 -1      2887 1.85241E+00
 -1      2888 1.73083E+00
 -1      2889 1.73968E+00
 -1      2890 2.00534E+00
 -1      2891 1.89441E+00
 -1      2892 1.88510E+00
 -1      2893 2.03366E+00
 -1      2894 1.51376E+00
 -1      2895 1.60985E+00
 -1      2896 1.90338E+00
 -1      2897 1.32599E+00
 -1      2898 1.43024E+00
 -1      2899 1.53530E+00
 -1      2900 1.16406E+00
 -1      2901 1.28657E+00
 -1      2902 1.41236E+00
 -1      2903 8.49166E-01
 -1      2904 9.91099E-01
 -1      2905 1.19998E+00
 -1      2906 7.52394E-01
 -1      2907 7.88249E-01
 -1      2908 9.66095E-01
 -1      2909 6.01778E-01
 -1      2910 6.46795E-01
 -1      2911 7.99580E-01
 -1      2912 4.67378E-01
 -1      2913 5.09575E-01
 -1      2914 6.01778E-01
 -1      2915 4.04233E-01
 -1      2916 4.25182E-01
 -1      2917 4.67378E-01
 -1      2918 3.44430E-01
 -1      2919 3.53898E-01
 -1      2920 3.74847E-01
 -1      2921 3.07261E-01
 -1      2922 9.59748E-01
 -1      2923 9.06677E-01
 -1      2924 5.76733E-01
 -1      2925 5.38836E-01
 -1      2926 9.69494E-01
 -1      2927 9.63392E-01
 -1      2928 1.09075E+00
 -1      2929 7.58168E-01
 -1      2930 6.36783E-01
 -1      2931 7.30037E-01
 -1      2932 9.38597E-01
 -1      2933 5.07620E-01
 -1      2934 5.86750E-01
 -1      2935 4.91727E-01
 -1      2936 4.33069E-01
 -1      2937 1.00969E+00
 -1      2938 1.00969E+00
 -1      2939 1.13459E+00
 -1      2940 9.93841E-01
 -1      2941 1.00969E+00
 -1      2942 1.17478E+00
 -1      2943 7.97982E-01
 -1      2944 9.04783E-01
 -1      2945 1.08572E+00
 -1      2946 2.00388E+01
 -1      2947 2.32044E+01
 -1      2948 8.05290E+00
 -1      2949 6.67369E+00
 -1      2950 4.00350E+00
 -1      2951 5.14127E+00
 -1      2952 1.17538E+01
 -1      2953 8.92312E+00
 -1      2954 1.08343E+01
 -1      2955 9.17679E+00
 -1      2956 7.13545E+00
 -1      2957 1.13649E+01
 -1      2958 1.41110E+01
 -1      2959 3.66759E+00
 -1      2960 3.37012E+00
 -1      2961 4.36323E-01
 -1      2962 4.24304E-01
 -1      2963 3.60141E-01
 -1      2964 3.61781E-01
 -1      2965 4.23799E-01
 -1      2966 4.36028E-01
 -1      2967 1.89643E+01
 -1      2968 2.17275E+01
 -1      2969 1.38567E+01
 -1      2970 4.84452E+00
 -1      2971 4.10432E+00
 -1      2972 5.71005E+00
 -1      2973 4.63150E+00
 -1      2974 9.50399E+00
 -1      2975 1.17975E+01
 -1      2976 7.59072E+00
 -1      2977 1.00521E+01
 -1      2978 5.66420E+00
 -1      2979 4.41973E+00
 -1      2980 7.80691E+00
 -1      2981 6.44853E+00
 -1      2982 7.20683E+00
 -1      2983 1.92018E+01
 -1      2984 1.45017E+01
 -1      2985 1.61205E+01
 -1      2986 2.04998E+01
 -1      2987 7.07165E-01
 -1      2988 5.68501E-01
 -1      2989 5.76769E-01
 -1      2990 8.78151E-01
 -1      2991 1.67401E+01
 -1      2992 1.19598E+01
 -1      2993 6.27493E+00
 -1      2994 7.97439E+00
 -1      2995 6.03536E+00
 -1      2996 4.82318E+00
 -1      2997 7.96517E-01
 -1      2998 7.62130E+00
 -1      2999 5.77272E+00
 -1      3000 4.09572E+00
 -1      3001 6.62509E+00
 -1      3002 5.21727E+00
 -1      3003 6.21412E+00
 -1      3004 7.97801E-01
 -1      3005 5.77033E-01
 -1      3006 4.42010E-01
 -1      3007 7.19980E-01
 -1      3008 4.62477E-01
 -1      3009 5.66329E-01
 -1      3010 3.88161E-01
 -1      3011 3.42923E-01
 -1      3012 3.87226E-01
 -1      3013 4.00012E-01
 -1      3014 5.31518E-01
 -1      3015 5.32832E+00
 -1      3016 1.28965E+01
 -1      3017 5.02321E+00
 -1      3018 4.12193E+00
 -1      3019 4.02483E+00
 -1      3020 3.22268E+00
 -1      3021 5.10673E+00
 -1      3022 9.89394E+00
 -1      3023 3.13063E-01
 -1      3024 3.30314E-01
 -1      3025 3.24918E-01
 -1      3026 3.66742E+00
 -1      3027 3.35343E+00
 -1      3028 3.76965E+00
 -1      3029 2.98437E+00
 -1      3030 1.64966E+01
 -1      3031 1.40322E+01
 -1      3032 7.14193E-01
 -1      3033 7.34102E-01
 -1      3034 5.54064E+00
 -1      3035 6.10046E+00
 -1      3036 4.57700E+00
 -1      3037 5.82151E-01
 -1      3038 6.60617E-01
 -1      3039 6.24965E-01
 -1      3040 4.30430E-01
 -1      3041 1.10710E+01
 -1      3042 1.35924E+01
 -1      3043 1.19652E+01
 -1      3044 9.95567E+00
 -1      3045 5.30629E+00
 -1      3046 6.47209E+00
 -1      3047 7.10997E+00
 -1      3048 7.07375E+00
 -1      3049 4.19485E+00
 -1      3050 1.30967E+01
 -1      3051 7.21297E+00
 -1      3052 9.16147E+00
 -1      3053 4.27088E-01
 -1      3054 4.72928E+00
 -1      3055 4.29556E-01
 -1      3056 3.82573E-01
 -1      3057 3.93771E-01
 -1      3058 5.60707E-01
 -1      3059 1.20910E+01
 -1      3060 1.75980E+01
 -1      3061 1.11732E+01
 -1      3062 4.07563E-01
 -1      3063 4.21850E-01
 -1      3064 3.59763E-01
 -1      3065 3.50262E-01
 -1      3066 1.66206E+01
 -1      3067 1.04428E+01
 -1      3068 9.32782E-01
 -1      3069 2.90292E-01
 -1      3070 3.02302E-01
 -1      3071 1.42024E+00
 -1      3072 1.50929E+00
 -1      3073 6.39981E+00
 -1      3074 1.05198E+01
 -1      3075 7.77185E+00
 -1      3076 3.60178E+00
 -1      3077 2.63787E+00
 -1      3078 3.17764E-01
 -1      3079 3.11101E-01
 -1      3080 3.21837E-01
 -1      3081 3.01595E-01
 -1      3082 2.46431E-01
 -1      3083 2.98331E-01
 -1      3084 2.73636E-01
 -1      3085 2.53902E-01
 -1      3086 2.62686E-01
 -1      3087 2.37853E-01
 -1      3088 2.39689E-01
 -1      3089 2.23461E-01
 -1      3090 2.07472E-01
 -1      3091 2.14348E-01
 -1      3092 1.93904E-01
 -1      3093 1.77330E-01
 -1      3094 1.86388E-01
 -1      3095 1.66208E-01
 -1      3096 1.51060E-01
 -1      3097 1.61698E-01
 -1      3098 1.39041E-01
 -1      3099 1.25685E-01
 -1      3100 1.38557E-01
 -1      3101 1.13569E-01
 -1      3102 1.01524E-01
 -1      3103 1.14421E-01
 -1      3104 8.96277E-02
 -1      3105 7.87136E-02
 -1      3106 9.04083E-02
 -1      3107 6.69989E-02
 -1      3108 5.67789E-02
 -1      3109 6.67972E-02
 -1      3110 4.80672E-02
 -1      3111 4.38537E-02
 -1      3112 4.63708E-02
 -1      3113 4.56212E-02
 -1      3114 5.17790E-02
 -1      3115 3.94266E-02
 -1      3116 6.91373E-02
 -1      3117 8.97162E-02
 -1      3118 5.85523E-02
 -1      3119 1.11707E-01
 -1      3120 1.37100E-01
 -1      3121 9.79018E-02
 -1      3122 1.66567E-01
 -1      3123 1.98260E-01
 -1      3124 1.49360E-01
 -1      3125 2.36023E-01
 -1      3126 2.75739E-01
 -1      3127 2.16591E-01
 -1      3128 3.24096E-01
 -1      3129 3.73854E-01
 -1      3130 3.02711E-01
 -1      3131 4.35440E-01
 -1      3132 4.97666E-01
 -1      3133 4.12654E-01
 -1      3134 5.75386E-01
 -1      3135 6.53133E-01
 -1      3136 5.51960E-01
 -1      3137 7.49884E-01
 -1      3138 8.50030E-01
 -1      3139 7.26431E-01
 -1      3140 9.68050E-01
 -1      3141 1.09160E+00
 -1      3142 9.41201E-01
 -1      3143 1.23226E+00
 -1      3144 1.38209E+00
 -1      3145 1.19988E+00
 -1      3146 1.57715E+00
 -1      3147 1.76763E+00
 -1      3148 1.53560E+00
 -1      3149 2.08380E+00
 -1      3150 2.29976E+00
 -1      3151 2.04683E+00
 -1      3152 3.03316E+00
 -1      3153 3.27999E+00
 -1      3154 3.09640E+00
 -1      3155 5.59463E+00
 -1      3156 6.11957E+00
 -1      3157 6.14443E+00
 -1      3158 6.20369E+00
 -1      3159 6.78912E+00
 -1      3160 8.23800E+00
 -1      3161 8.54319E+00
 -1      3162 5.17984E+00
 -1      3163 6.02436E+00
 -1      3164 2.29093E-01
 -1      3165 2.47724E-01
 -1      3166 4.08330E+00
 -1      3167 3.56183E+00
 -1      3168 3.17693E+00
 -1      3169 2.75605E+00
 -1      3170 3.69839E+00
 -1      3171 2.45222E+00
 -1      3172 2.23894E+00
 -1      3173 3.00967E+00
 -1      3174 2.00292E+00
 -1      3175 1.79107E+00
 -1      3176 2.46982E+00
 -1      3177 2.66252E-01
 -1      3178 2.93763E-01
 -1      3179 2.37843E-01
 -1      3180 3.10115E-01
 -1      3181 3.44268E-01
 -1      3182 2.72724E-01
 -1      3183 1.37876E+00
 -1      3184 1.33857E+00
 -1      3185 1.66066E-01
 -1      3186 1.83002E-01
 -1      3187 1.37273E-01
 -1      3188 1.52353E-01
 -1      3189 1.49885E-01
 -1      3190 1.10779E-01
 -1      3191 1.23899E-01
 -1      3192 1.22799E-01
 -1      3193 8.66295E-02
 -1      3194 9.79915E-02
 -1      3195 9.66381E-02
 -1      3196 6.55188E-02
 -1      3197 7.55342E-02
 -1      3198 7.27553E-02
 -1      3199 4.84957E-02
 -1      3200 5.50179E-02
 -1      3201 5.11591E-02
 -1      3202 5.07607E-02
 -1      3203 4.63008E-02
 -1      3204 3.84634E-02
 -1      3205 7.36586E-02
 -1      3206 6.24832E-02
 -1      3207 4.79911E-02
 -1      3208 1.12779E-01
 -1      3209 9.16170E-02
 -1      3210 7.76719E-02
 -1      3211 1.58998E-01
 -1      3212 1.34089E-01
 -1      3213 1.16941E-01
 -1      3214 2.13298E-01
 -1      3215 1.84391E-01
 -1      3216 1.63645E-01
 -1      3217 2.76039E-01
 -1      3218 2.43406E-01
 -1      3219 2.19146E-01
 -1      3220 3.47317E-01
 -1      3221 3.12049E-01
 -1      3222 2.85263E-01
 -1      3223 4.24170E-01
 -1      3224 3.88545E-01
 -1      3225 3.62500E-01
 -1      3226 5.00703E-01
 -1      3227 4.68523E-01
 -1      3228 4.48080E-01
 -1      3229 5.77416E-01
 -1      3230 5.45941E-01
 -1      3231 5.37670E-01
 -1      3232 6.64468E-01
 -1      3233 6.22827E-01
 -1      3234 6.28319E-01
 -1      3235 7.73365E-01
 -1      3236 7.37829E-01
 -1      3237 7.47091E-01
 -1      3238 8.69869E-01
 -1      3239 8.55958E-01
 -1      3240 9.03046E-01
 -1      3241 1.01897E+00
 -1      3242 9.40322E-01
 -1      3243 1.05609E+00
 -1      3244 1.21962E+00
 -1      3245 1.13492E+00
 -1      3246 1.24249E+00
 -1      3247 1.47193E+00
 -1      3248 1.40787E+00
 -1      3249 1.54669E+00
 -1      3250 1.64108E+00
 -1      3251 1.52046E+00
 -1      3252 1.78346E+00
 -1      3253 1.64086E+00
 -1      3254 1.57917E+00
 -1      3255 1.77008E+00
 -1      3256 2.13128E+00
 -1      3257 1.85241E+00
 -1      3258 1.91972E+00
 -1      3259 3.12292E+00
 -1      3260 3.24887E+00
 -1      3261 3.24887E+00
 -1      3262 2.65954E+00
 -1      3263 2.50527E+00
 -1      3264 3.74880E+00
 -1      3265 2.31789E+00
 -1      3266 2.60245E+00
 -1      3267 3.07406E+00
 -1      3268 1.96372E+00
 -1      3269 2.04724E+00
 -1      3270 2.74631E+00
 -1      3271 2.10810E+00
 -1      3272 2.14753E+00
 -1      3273 2.65946E+00
 -1      3274 1.68926E+00
 -1      3275 1.86222E+00
 -1      3276 2.59739E+00
 -1      3277 1.12040E+00
 -1      3278 1.18132E+00
 -1      3279 1.84357E+00
 -1      3280 8.20482E-01
 -1      3281 9.26081E-01
 -1      3282 1.14131E+00
 -1      3283 6.31757E-01
 -1      3284 7.23960E-01
 -1      3285 8.50462E-01
 -1      3286 5.09610E-01
 -1      3287 5.51806E-01
 -1      3288 6.73988E-01
 -1      3289 3.83836E-01
 -1      3290 4.34170E-01
 -1      3291 5.18598E-01
 -1      3292 3.89638E-01
 -1      3293 1.46461E+01
 -1      3294 1.18445E+01
 -1      3295 1.33857E+00
 -1      3296 1.33493E+00
 -1      3297 1.58275E+00
 -1      3298 5.32832E+00
 -1      3299 6.63474E+00
 -1      3300 5.51853E+00
 -1      3301 6.08355E+00
 -1      3302 1.25484E+01
 -1      3303 1.20874E+01
 -1      3304 1.50929E+00
 -1      3305 1.50929E+00
 -1      3306 1.71328E+00
 -1      3307 1.84381E+00
 -1      3308 4.91815E+00
 -1      3309 6.29093E+00
 -1      3310 8.92191E+00
 -1      3311 7.79643E+00
 -1      3312 1.20874E+01
 -1      3313 1.50129E+01
 -1      3314 1.02368E+01
 -1      3315 1.03472E+01
 -1      3316 1.16645E+01
 -1      3317 5.30220E+00
 -1      3318 4.51787E+00
 -1      3319 3.02101E-01
 -1      3320 2.98056E-01
 -1      3321 2.15986E-01
 -1      3322 1.96313E-01
 -1      3323 2.14546E-01
 -1      3324 2.04768E-01
 -1      3325 1.31900E+00
 -1      3326 1.38287E+00
 -1      3327 1.80645E+00
 -1      3328 3.24831E-01
 -1      3329 3.05668E-01
 -1      3330 3.09010E-01
 -1      3331 2.55102E+00
 -1      3332 3.27662E+00
 -1      3333 2.93012E+00
 -1      3334 8.67643E+00
 -1      3335 9.65146E+00
 -1      3336 1.06124E+01
 -1      3337 1.20910E+01
 -1      3338 9.55078E+00
 -1      3339 1.20034E+01
 -1      3340 9.92614E+00
 -1      3341 8.49389E+00
 -1      3342 6.95825E+00
 -1      3343 5.40276E+00
 -1      3344 4.66343E+00
 -1      3345 5.98622E+00
 -1      3346 3.23654E-01
 -1      3347 3.15970E-01
 -1      3348 4.08443E-01
 -1      3349 3.04193E-01
 -1      3350 2.56724E-01
 -1      3351 3.93700E-01
 -1      3352 3.12599E-01
 -1      3353 3.12387E-01
 -1      3354 2.85434E-01
 -1      3355 3.23654E-01
 -1      3356 2.88806E-01
 -1      3357 3.25294E-01
 -1      3358 4.73011E+00
 -1      3359 1.03071E+01
 -1      3360 7.00792E+00
 -1      3361 8.33258E+00
 -1      3362 8.84604E+00
 -1      3363 7.82863E+00
 -1      3364 2.98411E-01
 -1      3365 3.53602E-01
 -1      3366 3.87212E-01
 -1      3367 9.80700E+00
 -1      3368 4.61567E+00
 -1      3369 2.00145E+00
 -1      3370 1.55871E+00
 -1      3371 1.46567E+00
 -1      3372 1.76909E-01
 -1      3373 9.17832E-01
 -1      3374 8.57782E-01
 -1      3375 3.71878E+00
 -1      3376 2.96647E+00
 -1      3377 3.71469E+00
 -1      3378 8.96167E+00
 -1      3379 1.03279E+01
 -1      3380 8.13563E+00
 -1      3381 1.17628E+00
 -1      3382 1.02777E+00
 -1      3383 1.15551E+00
 -1      3384 1.42410E+00
 -1      3385 3.35343E+00
 -1      3386 3.68951E+00
 -1      3387 5.50012E+00
 -1      3388 4.92689E+00
 -1      3389 2.61044E-01
 -1      3390 3.20523E-01
 -1      3391 3.20523E-01
 -1      3392 7.31478E-01
 -1      3393 3.99218E+00
 -1      3394 2.89453E+00
 -1      3395 3.32788E+00
 -1      3396 3.81276E+00
 -1      3397 1.01558E+00
 -1      3398 9.03220E+00
 -1      3399 1.14762E+01
 -1      3400 9.53135E+00
 -1      3401 8.94808E+00
 -1      3402 4.82318E+00
 -1      3403 5.42161E+00
 -1      3404 1.99844E-01
 -1      3405 1.06036E+01
 -1      3406 7.26865E-01
 -1      3407 6.17585E-01
 -1      3408 9.14660E-01
 -1      3409 4.61567E+00
 -1      3410 3.22753E-01
 -1      3411 3.24703E-01
 -1      3412 6.92927E+00
 -1      3413 6.13792E+00
 -1      3414 4.53525E+00
 -1      3415 3.00516E-01
 -1      3416 3.26964E-01
 -1      3417 2.21365E-01
 -1      3418 2.63506E-01
 -1      3419 3.69242E-01
 -1      3420 3.94290E-01
 -1      3421 2.71215E-01
 -1      3422 2.89775E-01
 -1      3423 2.16460E-01
 -1      3424 2.13196E-01
 -1      3425 2.17274E-01
 -1      3426 2.06324E-01
 -1      3427 1.79831E-01
 -1      3428 2.02506E-01
 -1      3429 1.88114E-01
 -1      3430 1.80091E-01
 -1      3431 1.79891E-01
 -1      3432 1.66323E-01
 -1      3433 1.68049E-01
 -1      3434 1.55874E-01
 -1      3435 1.44752E-01
 -1      3436 1.49377E-01
 -1      3437 1.36475E-01
 -1      3438 1.24456E-01
 -1      3439 1.30652E-01
 -1      3440 1.15338E-01
 -1      3441 1.03222E-01
 -1      3442 1.13257E-01
 -1      3443 9.35379E-02
 -1      3444 8.16415E-02
 -1      3445 9.44549E-02
 -1      3446 7.17679E-02
 -1      3447 6.00532E-02
 -1      3448 7.48975E-02
 -1      3449 5.43976E-02
 -1      3450 4.56859E-02
 -1      3451 5.93683E-02
 -1      3452 4.76798E-02
 -1      3453 4.94473E-02
 -1      3454 5.57066E-02
 -1      3455 5.57390E-02
 -1      3456 7.30972E-02
 -1      3457 6.39922E-02
 -1      3458 9.31574E-02
 -1      3459 1.15149E-01
 -1      3460 9.03440E-02
 -1      3461 1.40911E-01
 -1      3462 1.70379E-01
 -1      3463 1.36167E-01
 -1      3464 2.03206E-01
 -1      3465 2.40969E-01
 -1      3466 1.94757E-01
 -1      3467 2.82962E-01
 -1      3468 3.31319E-01
 -1      3469 2.69577E-01
 -1      3470 3.85201E-01
 -1      3471 4.46787E-01
 -1      3472 3.65452E-01
 -1      3473 5.16238E-01
 -1      3474 5.93958E-01
 -1      3475 4.88785E-01
 -1      3476 6.84221E-01
 -1      3477 7.80972E-01
 -1      3478 6.48499E-01
 -1      3479 8.99782E-01
 -1      3480 1.01780E+00
 -1      3481 8.57572E-01
 -1      3482 1.17720E+00
 -1      3483 1.31786E+00
 -1      3484 1.13578E+00
 -1      3485 1.53560E+00
 -1      3486 1.73067E+00
 -1      3487 1.51292E+00
 -1      3488 2.03584E+00
 -1      3489 2.35201E+00
 -1      3490 2.03584E+00
 -1      3491 3.54916E+00
 -1      3492 4.28255E+00
 -1      3493 3.53816E+00
 -1      3494 8.94808E+00
 -1      3495 2.00145E+00
 -1      3496 2.03881E+00
 -1      3497 2.23380E+00
 -1      3498 3.48791E+00
 -1      3499 3.18408E+00
 -1      3500 2.60447E+00
 -1      3501 2.36845E+00
 -1      3502 2.36845E+00
 -1      3503 3.08271E+00
 -1      3504 2.08603E-01
 -1      3505 2.27132E-01
 -1      3506 2.33822E-01
 -1      3507 2.50175E-01
 -1      3508 2.04582E-01
 -1      3509 1.35260E-01
 -1      3510 1.48973E-01
 -1      3511 6.61099E-02
 -1      3512 7.72051E-02
 -1      3513 4.47622E-02
 -1      3514 5.52631E-02
 -1      3515 5.97129E-02
 -1      3516 4.12400E-02
 -1      3517 4.34349E-02
 -1      3518 4.75388E-02
 -1      3519 5.55830E-02
 -1      3520 4.38605E-02
 -1      3521 4.88319E-02
 -1      3522 8.97123E-02
 -1      3523 7.17539E-02
 -1      3524 6.76233E-02
 -1      3525 1.31100E-01
 -1      3526 1.09790E-01
 -1      3527 1.03872E-01
 -1      3528 1.80191E-01
 -1      3529 1.54798E-01
 -1      3530 1.47646E-01
 -1      3531 2.37774E-01
 -1      3532 2.07666E-01
 -1      3533 1.98819E-01
 -1      3534 3.04660E-01
 -1      3535 2.68651E-01
 -1      3536 2.57171E-01
 -1      3537 3.79705E-01
 -1      3538 3.38478E-01
 -1      3539 3.21865E-01
 -1      3540 4.67286E-01
 -1      3541 4.22933E-01
 -1      3542 3.98911E-01
 -1      3543 5.72016E-01
 -1      3544 5.26779E-01
 -1      3545 5.01632E-01
 -1      3546 6.89934E-01
 -1      3547 6.44523E-01
 -1      3548 6.33632E-01
 -1      3549 8.50638E-01
 -1      3550 7.77277E-01
 -1      3551 7.93481E-01
 -1      3552 1.02091E+00
 -1      3553 9.38318E-01
 -1      3554 9.68504E-01
 -1      3555 1.25481E+00
 -1      3556 1.18436E+00
 -1      3557 1.21963E+00
 -1      3558 1.56018E+00
 -1      3559 1.44424E+00
 -1      3560 1.57250E+00
 -1      3561 1.88249E+00
 -1      3562 1.69424E+00
 -1      3563 1.89598E+00
 -1      3564 2.32736E+00
 -1      3565 2.27883E+00
 -1      3566 2.42638E+00
 -1      3567 2.31188E+00
 -1      3568 2.37380E+00
 -1      3569 4.02798E+00
 -1      3570 2.91040E+00
 -1      3571 4.00876E+00
 -1      3572 4.62641E+00
 -1      3573 2.74631E+00
 -1      3574 3.01696E+00
 -1      3575 2.84327E+00
 -1      3576 2.65946E+00
 -1      3577 2.64865E+00
 -1      3578 2.89453E+00
 -1      3579 1.21058E+00
 -1      3580 1.40491E+00
 -1      3581 1.21191E+00
 -1      3582 1.30843E+00
 -1      3583 1.57203E+00
 -1      3584 9.57791E-01
 -1      3585 1.03774E+00
 -1      3586 1.49571E+00
 -1      3587 1.58115E-01
 -1      3588 1.71426E-01
 -1      3589 1.43490E-01
 -1      3590 1.82393E+00
 -1      3591 1.82393E+00
 -1      3592 8.96167E+00
 -1      3593 8.96167E+00
 -1      3594 1.83379E-01
 -1      3595 1.97926E-01
 -1      3596 1.64584E-01
 -1      3597 4.04928E+00
 -1      3598 3.99218E+00
 -1      3599 5.53898E+00
 -1      3600 4.40187E+00
 -1      3601 7.33136E+00
 -1      3602 8.29231E+00
 -1      3603 8.80113E-02
 -1      3604 1.00799E-01
 -1      3605 8.13659E-02
 -1      3606 8.45907E+00
 -1      3607 1.11548E-01
 -1      3608 1.24921E-01
 -1      3609 1.02921E-01
 -1      3610 8.60400E+00
 -1      3611 8.23717E+00
 -1      3612 3.22753E-01
 -1      3613 2.87693E-01
 -1      3614 3.15202E-01
 -1      3615 5.87207E-01
 -1      3616 5.29552E-01
 -1      3617 5.83073E-01
 -1      3618 7.53365E-01
 -1      3619 2.06857E-01
 -1      3620 2.17594E-01
 -1      3621 1.76887E-01
 -1      3622 5.45385E+00
 -1      3623 8.60400E+00
 -1      3624 8.60400E+00
 -1      3625 1.71132E-01
 -1      3626 1.67565E-01
 -1      3627 1.89086E-01
 -1      3628 6.70492E+00
 -1      3629 7.04389E+00
 -1      3630 6.03777E+00
 -1      3631 4.66722E+00
 -1      3632 4.28232E+00
 -1      3633 7.04200E+00
 -1      3634 2.17842E-01
 -1      3635 2.03941E-01
 -1      3636 2.18431E-01
 -1      3637 2.84035E-01
 -1      3638 6.69976E+00
 -1      3639 2.53327E-01
 -1      3640 2.53327E-01
 -1      3641 2.49274E-01
 -1      3642 2.58608E-01
 -1      3643 2.10372E-01
 -1      3644 4.97111E+00
 -1      3645 7.28575E+00
 -1      3646 1.87214E-01
 -1      3647 4.45674E+00
 -1      3648 2.22161E-01
 -1      3649 2.01739E+00
 -1      3650 1.77621E+00
 -1      3651 1.61756E+00
 -1      3652 3.66825E+00
 -1      3653 2.86916E+00
 -1      3654 1.24009E-01
 -1      3655 5.40445E+00
 -1      3656 5.61720E+00
 -1      3657 3.93552E+00
 -1      3658 2.46224E+00
 -1      3659 2.79832E+00
 -1      3660 2.01921E+00
 -1      3661 5.16165E+00
 -1      3662 1.87274E-01
 -1      3663 6.03012E+00
 -1      3664 5.47639E+00
 -1      3665 4.28296E+00
 -1      3666 2.02934E+00
 -1      3667 1.96006E+00
 -1      3668 2.46800E+00
 -1      3669 6.58513E-01
 -1      3670 1.83575E+00
 -1      3671 2.07693E+00
 -1      3672 1.96628E+00
 -1      3673 1.58437E-01
 -1      3674 8.11633E+00
 -1      3675 1.96628E+00
 -1      3676 1.96628E+00
 -1      3677 2.08875E+00
 -1      3678 2.16128E+00
 -1      3679 7.44698E+00
 -1      3680 2.17848E-01
 -1      3681 2.53327E-01
 -1      3682 2.49956E-01
 -1      3683 2.76514E+00
 -1      3684 1.35773E+00
 -1      3685 1.22681E+00
 -1      3686 2.84878E-01
 -1      3687 6.60435E+00
 -1      3688 2.52082E-01
 -1      3689 2.52082E-01
 -1      3690 1.61756E+00
 -1      3691 1.50762E+00
 -1      3692 1.81977E+00
 -1      3693 1.96967E+00
 -1      3694 4.10211E+00
 -1      3695 3.88578E+00
 -1      3696 6.70526E+00
 -1      3697 6.72455E+00
 -1      3698 5.27456E+00
 -1      3699 7.28575E+00
 -1      3700 8.35804E+00
 -1      3701 6.35839E+00
 -1      3702 2.32857E-01
 -1      3703 2.08670E-01
 -1      3704 1.58437E-01
 -1      3705 1.97245E-01
 -1      3706 5.25303E+00
 -1      3707 3.04025E+00
 -1      3708 5.42387E+00
 -1      3709 1.02227E+00
 -1      3710 3.55754E+00
 -1      3711 2.46755E-01
 -1      3712 2.11276E-01
 -1      3713 2.41984E-01
 -1      3714 1.05264E+00
 -1      3715 1.60435E-01
 -1      3716 1.56616E-01
 -1      3717 1.55993E-01
 -1      3718 1.47770E-01
 -1      3719 1.36337E-01
 -1      3720 1.42957E-01
 -1      3721 1.32508E-01
 -1      3722 1.30901E-01
 -1      3723 1.25247E-01
 -1      3724 1.16970E-01
 -1      3725 1.18826E-01
 -1      3726 1.09823E-01
 -1      3727 1.00705E-01
 -1      3728 1.04418E-01
 -1      3729 9.38173E-02
 -1      3730 8.41335E-02
 -1      3731 9.03836E-02
 -1      3732 7.66848E-02
 -1      3733 6.68113E-02
 -1      3734 7.60472E-02
 -1      3735 6.45097E-02
 -1      3736 5.88541E-02
 -1      3737 6.62971E-02
 -1      3738 6.05953E-02
 -1      3739 6.25892E-02
 -1      3740 6.57367E-02
 -1      3741 6.62203E-02
 -1      3742 7.25120E-02
 -1      3743 7.11090E-02
 -1      3744 8.12522E-02
 -1      3745 1.01312E-01
 -1      3746 8.34804E-02
 -1      3747 1.21715E-01
 -1      3748 1.47477E-01
 -1      3749 1.12623E-01
 -1      3750 1.73270E-01
 -1      3751 2.06097E-01
 -1      3752 1.58818E-01
 -1      3753 2.38825E-01
 -1      3754 2.80818E-01
 -1      3755 2.17339E-01
 -1      3756 3.22553E-01
 -1      3757 3.76435E-01
 -1      3758 2.91802E-01
 -1      3759 4.30182E-01
 -1      3760 4.99633E-01
 -1      3761 3.87283E-01
 -1      3762 5.70128E-01
 -1      3763 6.60391E-01
 -1      3764 5.11524E-01
 -1      3765 7.55690E-01
 -1      3766 8.74500E-01
 -1      3767 6.77318E-01
 -1      3768 1.00867E+00
 -1      3769 1.16807E+00
 -1      3770 9.06791E-01
 -1      3771 1.36889E+00
 -1      3772 1.58663E+00
 -1      3773 1.24178E+00
 -1      3774 1.89270E+00
 -1      3775 2.19788E+00
 -1      3776 1.74867E+00
 -1      3777 3.53816E+00
 -1      3778 4.73531E+00
 -1      3779 3.39502E+00
 -1      3780 1.64679E-01
 -1      3781 1.75356E-01
 -1      3782 1.77266E-01
 -1      3783 1.83957E-01
 -1      3784 1.54731E-01
 -1      3785 7.28575E+00
 -1      3786 1.10932E-01
 -1      3787 1.21271E-01
 -1      3788 5.37807E-02
 -1      3789 6.46275E-02
 -1      3790 8.10437E-02
 -1      3791 6.48728E-02
 -1      3792 1.19612E-01
 -1      3793 9.95343E-02
 -1      3794 9.67837E-02
 -1      3795 1.65818E-01
 -1      3796 1.42120E-01
 -1      3797 1.37783E-01
 -1      3798 2.20505E-01
 -1      3799 1.93030E-01
 -1      3800 1.87504E-01
 -1      3801 2.83857E-01
 -1      3802 2.52981E-01
 -1      3803 2.47191E-01
 -1      3804 3.55683E-01
 -1      3805 3.21865E-01
 -1      3806 3.17675E-01
 -1      3807 4.42139E-01
 -1      3808 3.98911E-01
 -1      3809 3.98911E-01
 -1      3810 5.48617E-01
 -1      3811 4.89124E-01
 -1      3812 4.89124E-01
 -1      3813 6.93575E-01
 -1      3814 6.21068E-01
 -1      3815 6.08560E-01
 -1      3816 8.77254E-01
 -1      3817 7.89912E-01
 -1      3818 7.77348E-01
 -1      3819 1.12563E+00
 -1      3820 1.03795E+00
 -1      3821 1.03438E+00
 -1      3822 1.48955E+00
 -1      3823 1.32610E+00
 -1      3824 1.39554E+00
 -1      3825 1.88615E+00
 -1      3826 1.69672E+00
 -1      3827 1.80319E+00
 -1      3828 2.09496E+00
 -1      3829 1.96090E+00
 -1      3830 2.08512E+00
 -1      3831 2.64391E+00
 -1      3832 1.80765E+00
 -1      3833 2.82467E+00
 -1      3834 3.37983E+00
 -1      3835 2.39700E+00
 -1      3836 2.29915E+00
 -1      3837 3.64964E+00
 -1      3838 3.00859E+00
 -1      3839 2.70883E+00
 -1      3840 1.28819E-01
 -1      3841 1.37961E-01
 -1      3842 1.15742E-01
 -1      3843 4.45863E+00
 -1      3844 5.98243E+00
 -1      3845 6.07784E+00
 -1      3846 1.46539E-01
 -1      3847 1.58492E-01
 -1      3848 1.31869E-01
 -1      3849 1.78020E-01
 -1      3850 7.30255E-02
 -1      3851 8.38317E-02
 -1      3852 6.70933E-02
 -1      3853 5.79628E-02
 -1      3854 5.53423E-02
 -1      3855 7.13832E-02
 -1      3856 2.49266E-01
 -1      3857 2.52082E-01
 -1      3858 2.16470E-01
 -1      3859 2.17159E-01
 -1      3860 5.87704E+00
 -1      3861 5.87704E+00
 -1      3862 9.23137E-02
 -1      3863 1.03062E-01
 -1      3864 8.39732E-02
 -1      3865 3.95253E+00
 -1      3866 3.80804E+00
 -1      3867 6.11243E+00
 -1      3868 1.49571E+00
 -1      3869 1.66988E+00
 -1      3870 3.08556E+00
 -1      3871 3.70024E+00
 -1      3872 4.28296E+00
 -1      3873 5.91364E+00
 -1      3874 6.58299E+00
 -1      3875 2.35488E-01
 -1      3876 2.17517E-01
 -1      3877 1.64145E-01
 -1      3878 1.86351E-01
 -1      3879 1.78020E-01
 -1      3880 1.76887E-01
 -1      3881 2.39700E+00
 -1      3882 6.70476E+00
 -1      3883 6.70476E+00
 -1      3884 5.31624E-02
 -1      3885 5.44897E-02
 -1      3886 5.94043E-02
 -1      3887 6.22932E-02
 -1      3888 1.84881E-01
 -1      3889 4.40002E+00
 -1      3890 3.60372E+00
 -1      3891 3.02411E+00
 -1      3892 4.41965E+00
 -1      3893 1.50105E-01
 -1      3894 1.54182E-01
 -1      3895 1.51238E-01
 -1      3896 1.79515E-01
 -1      3897 1.78614E-01
 -1      3898 1.52199E-01
 -1      3899 1.30708E-01
 -1      3900 1.46634E-01
 -1      3901 2.18153E+00
 -1      3902 2.13381E+00
 -1      3903 5.42387E+00
 -1      3904 2.42375E+00
 -1      3905 2.28910E+00
 -1      3906 2.21657E+00
 -1      3907 2.94476E+00
 -1      3908 1.00325E-01
 -1      3909 1.83967E-01
 -1      3910 4.68712E+00
 -1      3911 2.41137E+00
 -1      3912 1.90250E-01
 -1      3913 1.90250E-01
 -1      3914 5.29368E+00
 -1      3915 4.17516E+00
 -1      3916 1.73559E-01
 -1      3917 1.80132E-01
 -1      3918 3.41030E+00
 -1      3919 2.56158E+00
 -1      3920 2.48683E+00
 -1      3921 3.48851E+00
 -1      3922 1.78020E-01
 -1      3923 5.25512E+00
 -1      3924 1.86297E-01
 -1      3925 1.86297E-01
 -1      3926 1.48580E-01
 -1      3927 5.40463E+00
 -1      3928 4.67732E+00
 -1      3929 5.15867E+00
 -1      3930 2.52064E+00
 -1      3931 2.50882E+00
 -1      3932 2.62524E+00
 -1      3933 5.47639E+00
 -1      3934 4.61241E+00
 -1      3935 4.17516E+00
 -1      3936 1.97245E-01
 -1      3937 5.17142E+00
 -1      3938 5.42387E+00
 -1      3939 1.71025E-01
 -1      3940 1.19625E-01
 -1      3941 1.19002E-01
 -1      3942 1.48466E-01
 -1      3943 1.25957E-01
 -1      3944 1.29164E-01
 -1      3945 1.36159E-01
 -1      3946 1.09377E-01
 -1      3947 1.19554E-01
 -1      3948 1.14741E-01
 -1      3949 1.02843E-01
 -1      3950 1.11753E-01
 -1      3951 1.04492E-01
 -1      3952 1.00407E-01
 -1      3953 9.93906E-02
 -1      3954 9.22439E-02
 -1      3955 9.23178E-02
 -1      3956 8.61116E-02
 -1      3957 7.92239E-02
 -1      3958 8.10842E-02
 -1      3959 7.68944E-02
 -1      3960 6.94458E-02
 -1      3961 7.26225E-02
 -1      3962 6.92442E-02
 -1      3963 6.69427E-02
 -1      3964 7.00914E-02
 -1      3965 6.81027E-02
 -1      3966 6.98439E-02
 -1      3967 7.10499E-02
 -1      3968 7.19773E-02
 -1      3969 7.56084E-02
 -1      3970 7.43433E-02
 -1      3971 8.23355E-02
 -1      3972 9.10757E-02
 -1      3973 8.32037E-02
 -1      3974 1.02657E-01
 -1      3975 1.23060E-01
 -1      3976 1.01513E-01
 -1      3977 1.38917E-01
 -1      3978 1.64710E-01
 -1      3979 1.28951E-01
 -1      3980 1.85842E-01
 -1      3981 2.18570E-01
 -1      3982 1.65941E-01
 -1      3983 2.46427E-01
 -1      3984 2.88162E-01
 -1      3985 2.14931E-01
 -1      3986 3.25658E-01
 -1      3987 3.79405E-01
 -1      3988 2.80284E-01
 -1      3989 4.29723E-01
 -1      3990 5.00218E-01
 -1      3991 3.68098E-01
 -1      3992 5.68296E-01
 -1      3993 6.63595E-01
 -1      3994 4.86495E-01
 -1      3995 7.58230E-01
 -1      3996 8.92404E-01
 -1      3997 6.49208E-01
 -1      3998 1.02972E+00
 -1      3999 1.23053E+00
 -1      4000 8.81157E-01
 -1      4001 1.44329E+00
 -1      4002 1.74936E+00
 -1      4003 1.23122E+00
 -1      4004 2.70177E+00
 -1      4005 4.04206E+00
 -1      4006 2.39639E+00
 -1      4007 3.56592E+00
 -1      4008 4.00317E+00
 -1      4009 1.12047E-01
 -1      4010 1.18299E-01
 -1      4011 1.00964E-01
 -1      4012 9.69679E-02
 -1      4013 1.87277E-01
 -1      4014 1.61056E-01
 -1      4015 1.87966E-01
 -1      4016 1.06591E-01
 -1      4017 8.81002E-02
 -1      4018 1.17274E-01
 -1      4019 2.63075E-01
 -1      4020 2.30599E-01
 -1      4021 3.39295E-01
 -1      4022 3.01288E-01
 -1      4023 2.84695E-01
 -1      4024 4.30111E-01
 -1      4025 3.86883E-01
 -1      4026 3.70495E-01
 -1      4027 5.36070E-01
 -1      4028 4.89085E-01
 -1      4029 4.77056E-01
 -1      4030 6.81011E-01
 -1      4031 6.08560E-01
 -1      4032 6.08521E-01
 -1      4033 8.65063E-01
 -1      4034 7.68726E-01
 -1      4035 7.68726E-01
 -1      4036 1.18392E+00
 -1      4037 1.02323E+00
 -1      4038 1.01460E+00
 -1      4039 1.58958E+00
 -1      4040 1.38911E+00
 -1      4041 1.37796E+00
 -1      4042 2.15240E+00
 -1      4043 1.94522E+00
 -1      4044 1.93879E+00
 -1      4045 1.28947E-01
 -1      4046 1.35134E-01
 -1      4047 1.03048E-01
 -1      4048 1.10596E-01
 -1      4049 1.52823E-01
 -1      4050 3.64964E+00
 -1      4051 4.17516E+00
 -1      4052 1.35118E-01
 -1      4053 1.37028E-01
 -1      4054 1.17431E-01
 -1      4055 1.16627E-01
 -1      4056 1.25205E-01
 -1      4057 1.13706E-01
 -1      4058 2.13839E+00
 -1      4059 2.13839E+00
 -1      4060 2.57028E+00
 -1      4061 2.26622E+00
 -1      4062 2.62732E+00
 -1      4063 2.46317E+00
 -1      4064 4.00109E+00
 -1      4065 4.12286E+00
 -1      4066 6.25965E-02
 -1      4067 7.09944E-02
 -1      4068 7.87032E-02
 -1      4069 7.17932E-02
 -1      4070 8.85102E-02
 -1      4071 8.86719E-02
 -1      4072 9.65414E-02
 -1      4073 9.13949E-02
 -1      4074 7.43777E-02
 -1      4075 8.28597E-02
 -1      4076 6.98809E-02
 -1      4077 2.46317E+00
 -1      4078 4.19810E+00
 -1      4079 4.30349E+00
 -1      4080 2.46317E+00
 -1      4081 2.31328E+00
 -1      4082 4.39059E+00
 -1      4083 3.71721E+00
 -1      4084 3.19198E+00
 -1      4085 3.04040E+00
 -1      4086 4.47011E+00
 -1      4087 2.00036E-01
 -1      4088 1.72825E-01
 -1      4089 1.60999E-01
 -1      4090 3.56592E+00
 -1      4091 2.95668E+00
 -1      4092 2.15920E-01
 -1      4093 1.26191E-01
 -1      4094 4.41915E+00
 -1      4095 4.41965E+00
 -1      4096 2.62886E+00
 -1      4097 6.34023E-02
 -1      4098 6.73034E-02
 -1      4099 6.41113E-02
 -1      4100 1.03932E-01
 -1      4101 1.47858E-01
 -1      4102 1.37450E-01
 -1      4103 2.90491E+00
 -1      4104 1.12113E-01
 -1      4105 1.31726E-01
 -1      4106 1.27284E-01
 -1      4107 3.77686E+00
 -1      4108 1.24624E-01
 -1      4109 1.30790E-01
 -1      4110 1.56415E-01
 -1      4111 7.50126E-02
 -1      4112 6.76926E-02
 -1      4113 6.55127E-02
 -1      4114 7.90764E-02
 -1      4115 3.77686E+00
 -1      4116 4.24927E+00
 -1      4117 3.29764E+00
 -1      4118 3.33357E+00
 -1      4119 1.70978E-01
 -1      4120 3.54512E+00
 -1      4121 1.19660E-01
 -1      4122 9.24760E-02
 -1      4123 9.30286E-02
 -1      4124 9.57874E-02
 -1      4125 9.27994E-02
 -1      4126 8.54209E-02
 -1      4127 9.20067E-02
 -1      4128 8.69054E-02
 -1      4129 8.73870E-02
 -1      4130 8.41194E-02
 -1      4131 7.79871E-02
 -1      4132 8.38083E-02
 -1      4133 7.42552E-02
 -1      4134 7.19257E-02
 -1      4135 7.72903E-02
 -1      4136 7.02930E-02
 -1      4137 7.00914E-02
 -1      4138 7.19257E-02
 -1      4139 7.10499E-02
 -1      4140 7.22099E-02
 -1      4141 7.12514E-02
 -1      4142 7.43433E-02
 -1      4143 7.64767E-02
 -1      4144 7.43433E-02
 -1      4145 8.67677E-02
 -1      4146 9.34947E-02
 -1      4147 8.67677E-02
 -1      4148 9.99181E-02
 -1      4149 1.11500E-01
 -1      4150 1.03482E-01
 -1      4151 1.25346E-01
 -1      4152 1.41203E-01
 -1      4153 1.23751E-01
 -1      4154 1.59427E-01
 -1      4155 1.80559E-01
 -1      4156 1.55821E-01
 -1      4157 2.04072E-01
 -1      4158 2.31929E-01
 -1      4159 1.97558E-01
 -1      4160 2.62774E-01
 -1      4161 3.00270E-01
 -1      4162 2.51915E-01
 -1      4163 3.40560E-01
 -1      4164 3.90878E-01
 -1      4165 3.23049E-01
 -1      4166 4.45994E-01
 -1      4167 5.14072E-01
 -1      4168 4.18455E-01
 -1      4169 6.16018E-01
 -1      4170 7.10653E-01
 -1      4171 5.75516E-01
 -1      4172 8.60759E-01
 -1      4173 9.98073E-01
 -1      4174 8.27569E-01
 -1      4175 1.27332E+00
 -1      4176 1.48608E+00
 -1      4177 1.25293E+00
 -1      4178 1.74760E+00
 -1      4179 2.70002E+00
 -1      4180 1.78970E+00
 -1      4181 2.20150E-01
 -1      4182 1.89587E-01
 -1      4183 5.04801E-01
 -1      4184 4.45827E-01
 -1      4185 1.28755E-01
 -1      4186 1.09389E-01
 -1      4187 2.85755E+00
 -1      4188 3.83080E-01
 -1      4189 3.35492E-01
 -1      4190 4.10824E-01
 -1      4191 2.91536E-01
 -1      4192 2.53324E-01
 -1      4193 2.26991E-01
 -1      4194 3.04121E-01
 -1      4195 6.79237E-01
 -1      4196 6.06746E-01
 -1      4197 5.75516E-01
 -1      4198 9.17058E-01
 -1      4199 8.29343E-01
 -1      4200 8.27569E-01
 -1      4201 1.28441E+00
 -1      4202 1.12625E+00
 -1      4203 1.18687E+00
 -1      4204 1.55566E+00
 -1      4205 1.35047E+00
 -1      4206 1.46212E+00
 -1      4207 2.38603E+00
 -1      4208 2.03039E+00
 -1      4209 2.00290E+00
 -1      4210 9.94325E-02
 -1      4211 1.03174E-01
 -1      4212 3.67380E+00
 -1      4213 9.78828E-02
 -1      4214 8.84858E-02
 -1      4215 1.09364E-01
 -1      4216 1.02553E-01
 -1      4217 1.02537E-01
 -1      4218 8.82801E-02
 -1      4219 1.27012E-01
 -1      4220 1.28681E-01
 -1      4221 1.03056E-01
 -1      4222 1.68153E-01
 -1      4223 1.43795E-01
 -1      4224 1.72383E-01
 -1      4225 7.00280E-02
 -1      4226 7.34113E-02
 -1      4227 8.57414E-02
 -1      4228 9.22477E-02
 -1      4229 2.86205E+00
 -1      4230 2.94915E+00
 -1      4231 7.71433E-02
 -1      4232 8.29554E-02
 -1      4233 7.72903E-02
 -1      4234 9.67882E-02
 -1      4235 9.30405E-02
 -1      4236 9.90717E-02
 -1      4237 8.73870E-02
 -1      4238 3.34881E+00
 -1      4239 1.40121E-01
 -1      4240 3.24882E+00
 -1      4241 2.70002E+00
 -1      4242 8.44990E-02
 -1      4243 8.58253E-02
 -1      4244 7.60114E-02
 -1      4245 8.27874E-02
 -1      4246 9.76652E-02
 -1      4247 9.23633E-02
 -1      4248 2.94476E+00
 -1      4249 2.86205E+00
 -1      4250 2.47763E+00
 -1      4251 2.00290E+00
 -1      4252 2.91322E+00
 -1      4253 8.85405E-02
 -1      4254 6.95106E-02
 -1      4255 6.83952E-02
 -1      4256 6.75894E-02
 -1      4257 7.11198E-02
 -1      4258 8.38083E-02
 -1      4259 9.78584E-02
 -1      4260 8.84858E-02
 -1      4261 8.43852E-02
 -1      4262 1.35910E-01
 -1      4263 7.79636E-02
 -1      4264 8.06329E-02
 -1      4265 6.54947E-02
 -1      4266 8.04533E-02
 -1      4267 8.81797E-02
 -1      4268 8.73870E-02
 -1      4269 8.65942E-02
 -1      4270 8.38083E-02
 -1      4271 8.10223E-02
 -1      4272 7.72903E-02
 -1      4273 7.35583E-02
 -1      4274 7.19257E-02
 -1      4275 6.94871E-02
 -1      4276 7.04456E-02
 -1      4277 8.71676E-02
 -1      4278 9.74585E-02
 -1      4279 9.74585E-02
 -1      4280 1.03882E-01
 -1      4281 1.15388E-01
 -1      4282 1.29234E-01
 -1      4283 1.44273E-01
 -1      4284 1.62498E-01
 -1      4285 1.83931E-01
 -1      4286 2.07444E-01
 -1      4287 2.40618E-01
 -1      4288 2.71462E-01
 -1      4289 3.15418E-01
 -1      4290 3.55708E-01
 -1      4291 4.18455E-01
 -1      4292 4.73571E-01
 -1      4293 5.75516E-01
 -1      4294 6.77462E-01
 -1      4295 8.27569E-01
 -1      4296 9.77675E-01
 -1      4297 1.18687E+00
 -1      4298 1.46212E+00
 -1      4299 1.52818E+00
 -1      4300 1.27295E-01
 -1      4301 8.44181E-02
 -1      4302 8.06401E-02
 -1      4303 8.57817E-02
 -1      4304 8.51605E-02
 -1      4305 2.26443E+00
 -1      4306 2.86658E+00
 -1      4307 8.85405E-02
 -1      4308 7.85098E-02
 -1      4309 7.09385E-02
 -1      4310 6.95372E-02
 -1      4311 6.98231E-02
 -1      4312 6.18154E-02
 -1      4313 1.06822E-01
 -1      4314 8.44065E-02
 -1      4315 6.99591E-02
 -1      4316 8.44117E-02
 -1      4317 7.36383E-02
 -1      4318 7.15875E-02
 -1      4319 7.37209E-02
 -1      4320 2.00290E+00
 -1      4321 9.78584E-02
 -1      4322 6.97723E-02
 -1      4323 8.44117E-02
 -1      4324 9.78584E-02
 -3
 9999
