    1C
    1UUSER                                                              
    1UDATE              27.october.2022                                 
    1UTIME              01:07:02                                        
    1UHOST                                                              
    1UPGM               CalculiX                                        
    1UVERSION           Version 2.17                             
    1UCOMPILETIME       Thu Jul 23 21:43:50 CEST 2020                    
    1UDIR                                                               
    1UDBN                                                               
    1UMAT    1SOLIDMATERIAL                                             
    2C                          4239                                     1
 -1         1 3.22454E+01 1.97183E+01 0.00000E+00
 -1         2 3.92454E+01 1.27183E+01 0.00000E+00
 -1         3 1.50000E+02 0.00000E+00 0.00000E+00
 -1         4 1.50000E+02 5.00000E+01 0.00000E+00
 -1         5 0.00000E+00 0.00000E+00 0.00000E+00
 -1         6 0.00000E+00 5.00000E+01 0.00000E+00
 -1         7 0.00000E+00 4.70500E+01 0.00000E+00
 -1         8 0.00000E+00 4.41000E+01 0.00000E+00
 -1         9 0.00000E+00 4.11500E+01 0.00000E+00
 -1        10 0.00000E+00 3.82000E+01 0.00000E+00
 -1        11 0.00000E+00 3.52500E+01 0.00000E+00
 -1        12 0.00000E+00 3.23500E+01 0.00000E+00
 -1        13 0.00000E+00 2.94000E+01 0.00000E+00
 -1        14 0.00000E+00 2.64500E+01 0.00000E+00
 -1        15 0.00000E+00 2.35000E+01 0.00000E+00
 -1        16 0.00000E+00 2.05500E+01 0.00000E+00
 -1        17 0.00000E+00 1.76000E+01 0.00000E+00
 -1        18 0.00000E+00 1.47000E+01 0.00000E+00
 -1        19 0.00000E+00 1.17500E+01 0.00000E+00
 -1        20 0.00000E+00 8.80000E+00 0.00000E+00
 -1        21 0.00000E+00 5.85000E+00 0.00000E+00
 -1        22 0.00000E+00 2.90000E+00 0.00000E+00
 -1        23 3.15000E+00 5.00000E+01 0.00000E+00
 -1        24 6.15000E+00 5.00000E+01 0.00000E+00
 -1        25 9.15000E+00 5.00000E+01 0.00000E+00
 -1        26 1.21500E+01 5.00000E+01 0.00000E+00
 -1        27 1.51500E+01 5.00000E+01 0.00000E+00
 -1        28 1.81500E+01 5.00000E+01 0.00000E+00
 -1        29 2.11500E+01 5.00000E+01 0.00000E+00
 -1        30 2.41500E+01 5.00000E+01 0.00000E+00
 -1        31 2.71500E+01 5.00000E+01 0.00000E+00
 -1        32 3.01500E+01 5.00000E+01 0.00000E+00
 -1        33 3.31500E+01 5.00000E+01 0.00000E+00
 -1        34 3.61500E+01 5.00000E+01 0.00000E+00
 -1        35 3.91500E+01 5.00000E+01 0.00000E+00
 -1        36 4.21500E+01 5.00000E+01 0.00000E+00
 -1        37 4.51500E+01 5.00000E+01 0.00000E+00
 -1        38 4.81500E+01 5.00000E+01 0.00000E+00
 -1        39 5.11500E+01 5.00000E+01 0.00000E+00
 -1        40 5.41500E+01 5.00000E+01 0.00000E+00
 -1        41 5.71500E+01 5.00000E+01 0.00000E+00
 -1        42 6.01500E+01 5.00000E+01 0.00000E+00
 -1        43 6.31500E+01 5.00000E+01 0.00000E+00
 -1        44 6.61500E+01 5.00000E+01 0.00000E+00
 -1        45 6.91500E+01 5.00000E+01 0.00000E+00
 -1        46 7.21500E+01 5.00000E+01 0.00000E+00
 -1        47 7.51500E+01 5.00000E+01 0.00000E+00
 -1        48 7.81500E+01 5.00000E+01 0.00000E+00
 -1        49 8.11500E+01 5.00000E+01 0.00000E+00
 -1        50 8.41500E+01 5.00000E+01 0.00000E+00
 -1        51 8.71500E+01 5.00000E+01 0.00000E+00
 -1        52 9.01500E+01 5.00000E+01 0.00000E+00
 -1        53 9.31500E+01 5.00000E+01 0.00000E+00
 -1        54 9.61500E+01 5.00000E+01 0.00000E+00
 -1        55 9.91500E+01 5.00000E+01 0.00000E+00
 -1        56 1.02150E+02 5.00000E+01 0.00000E+00
 -1        57 1.05150E+02 5.00000E+01 0.00000E+00
 -1        58 1.08150E+02 5.00000E+01 0.00000E+00
 -1        59 1.11150E+02 5.00000E+01 0.00000E+00
 -1        60 1.14150E+02 5.00000E+01 0.00000E+00
 -1        61 1.17150E+02 5.00000E+01 0.00000E+00
 -1        62 1.20150E+02 5.00000E+01 0.00000E+00
 -1        63 1.23150E+02 5.00000E+01 0.00000E+00
 -1        64 1.26150E+02 5.00000E+01 0.00000E+00
 -1        65 1.29150E+02 5.00000E+01 0.00000E+00
 -1        66 1.32150E+02 5.00000E+01 0.00000E+00
 -1        67 1.35150E+02 5.00000E+01 0.00000E+00
 -1        68 1.38150E+02 5.00000E+01 0.00000E+00
 -1        69 1.41150E+02 5.00000E+01 0.00000E+00
 -1        70 1.44150E+02 5.00000E+01 0.00000E+00
 -1        71 1.47150E+02 5.00000E+01 0.00000E+00
 -1        72 3.15000E+00 0.00000E+00 0.00000E+00
 -1        73 6.15000E+00 0.00000E+00 0.00000E+00
 -1        74 9.15000E+00 0.00000E+00 0.00000E+00
 -1        75 1.21500E+01 0.00000E+00 0.00000E+00
 -1        76 1.51500E+01 0.00000E+00 0.00000E+00
 -1        77 1.81500E+01 0.00000E+00 0.00000E+00
 -1        78 2.11500E+01 0.00000E+00 0.00000E+00
 -1        79 2.41500E+01 0.00000E+00 0.00000E+00
 -1        80 2.67000E+01 0.00000E+00 0.00000E+00
 -1        81 2.91000E+01 0.00000E+00 0.00000E+00
 -1        82 3.15000E+01 0.00000E+00 0.00000E+00
 -1        83 3.36000E+01 0.00000E+00 0.00000E+00
 -1        84 3.61500E+01 0.00000E+00 0.00000E+00
 -1        85 3.88500E+01 0.00000E+00 0.00000E+00
 -1        86 4.18500E+01 0.00000E+00 0.00000E+00
 -1        87 4.48500E+01 0.00000E+00 0.00000E+00
 -1        88 4.78500E+01 0.00000E+00 0.00000E+00
 -1        89 5.08500E+01 0.00000E+00 0.00000E+00
 -1        90 5.38500E+01 0.00000E+00 0.00000E+00
 -1        91 5.68500E+01 0.00000E+00 0.00000E+00
 -1        92 5.98500E+01 0.00000E+00 0.00000E+00
 -1        93 6.28500E+01 0.00000E+00 0.00000E+00
 -1        94 6.58500E+01 0.00000E+00 0.00000E+00
 -1        95 6.88500E+01 0.00000E+00 0.00000E+00
 -1        96 7.18500E+01 0.00000E+00 0.00000E+00
 -1        97 7.48500E+01 0.00000E+00 0.00000E+00
 -1        98 7.78500E+01 0.00000E+00 0.00000E+00
 -1        99 8.08500E+01 0.00000E+00 0.00000E+00
 -1       100 8.38500E+01 0.00000E+00 0.00000E+00
 -1       101 8.68500E+01 0.00000E+00 0.00000E+00
 -1       102 8.98500E+01 0.00000E+00 0.00000E+00
 -1       103 9.30000E+01 0.00000E+00 0.00000E+00
 -1       104 9.60000E+01 0.00000E+00 0.00000E+00
 -1       105 9.90000E+01 0.00000E+00 0.00000E+00
 -1       106 1.02000E+02 0.00000E+00 0.00000E+00
 -1       107 1.05000E+02 0.00000E+00 0.00000E+00
 -1       108 1.08000E+02 0.00000E+00 0.00000E+00
 -1       109 1.11000E+02 0.00000E+00 0.00000E+00
 -1       110 1.14000E+02 0.00000E+00 0.00000E+00
 -1       111 1.17000E+02 0.00000E+00 0.00000E+00
 -1       112 1.20000E+02 0.00000E+00 0.00000E+00
 -1       113 1.23000E+02 0.00000E+00 0.00000E+00
 -1       114 1.26000E+02 0.00000E+00 0.00000E+00
 -1       115 1.29000E+02 0.00000E+00 0.00000E+00
 -1       116 1.32000E+02 0.00000E+00 0.00000E+00
 -1       117 1.35000E+02 0.00000E+00 0.00000E+00
 -1       118 1.38000E+02 0.00000E+00 0.00000E+00
 -1       119 1.41000E+02 0.00000E+00 0.00000E+00
 -1       120 1.44000E+02 0.00000E+00 0.00000E+00
 -1       121 1.47000E+02 0.00000E+00 0.00000E+00
 -1       122 1.50000E+02 2.95000E+00 0.00000E+00
 -1       123 1.50000E+02 5.90000E+00 0.00000E+00
 -1       124 1.50000E+02 8.85000E+00 0.00000E+00
 -1       125 1.50000E+02 1.18000E+01 0.00000E+00
 -1       126 1.50000E+02 1.47500E+01 0.00000E+00
 -1       127 1.50000E+02 1.76500E+01 0.00000E+00
 -1       128 1.50000E+02 2.06000E+01 0.00000E+00
 -1       129 1.50000E+02 2.35500E+01 0.00000E+00
 -1       130 1.50000E+02 2.65000E+01 0.00000E+00
 -1       131 1.50000E+02 2.94500E+01 0.00000E+00
 -1       132 1.50000E+02 3.24000E+01 0.00000E+00
 -1       133 1.50000E+02 3.53000E+01 0.00000E+00
 -1       134 1.50000E+02 3.82500E+01 0.00000E+00
 -1       135 1.50000E+02 4.12000E+01 0.00000E+00
 -1       136 1.50000E+02 4.41500E+01 0.00000E+00
 -1       137 1.50000E+02 4.71000E+01 0.00000E+00
 -1       138 3.90890E+01 1.12466E+01 0.00000E+00
 -1       139 3.86128E+01 9.81020E+00 0.00000E+00
 -1       140 3.78156E+01 8.47886E+00 0.00000E+00
 -1       141 3.67663E+01 7.37398E+00 0.00000E+00
 -1       142 3.56509E+01 6.60254E+00 0.00000E+00
 -1       143 3.42452E+01 6.01003E+00 0.00000E+00
 -1       144 3.28189E+01 5.74185E+00 0.00000E+00
 -1       145 3.13447E+01 5.77651E+00 0.00000E+00
 -1       146 2.98735E+01 6.13244E+00 0.00000E+00
 -1       147 2.85245E+01 6.78916E+00 0.00000E+00
 -1       148 2.74203E+01 7.64706E+00 0.00000E+00
 -1       149 2.65050E+01 8.71246E+00 0.00000E+00
 -1       150 2.58033E+01 9.97995E+00 0.00000E+00
 -1       151 2.53664E+01 1.14226E+01 0.00000E+00
 -1       152 2.52494E+01 1.29528E+01 0.00000E+00
 -1       153 2.54628E+01 1.44492E+01 0.00000E+00
 -1       154 2.59841E+01 1.58482E+01 0.00000E+00
 -1       155 2.68570E+01 1.71865E+01 0.00000E+00
 -1       156 2.79147E+01 1.82178E+01 0.00000E+00
 -1       157 2.92371E+01 1.90389E+01 0.00000E+00
 -1       158 3.07851E+01 1.95643E+01 0.00000E+00
 -1       159 3.36022E+01 1.95856E+01 0.00000E+00
 -1       160 3.49470E+01 1.91760E+01 0.00000E+00
 -1       161 3.61159E+01 1.85510E+01 0.00000E+00
 -1       162 3.71588E+01 1.77042E+01 0.00000E+00
 -1       163 3.80106E+01 1.66886E+01 0.00000E+00
 -1       164 3.87112E+01 1.54005E+01 0.00000E+00
 -1       165 3.91084E+01 1.40965E+01 0.00000E+00
 -1       166 2.59800E+00 4.55750E+01 0.00000E+00
 -1       167 2.59800E+00 4.26250E+01 0.00000E+00
 -1       168 2.59800E+00 3.96750E+01 0.00000E+00
 -1       169 2.59800E+00 3.67250E+01 0.00000E+00
 -1       170 2.59800E+00 3.38250E+01 0.00000E+00
 -1       171 2.59800E+00 3.08750E+01 0.00000E+00
 -1       172 2.59800E+00 2.79250E+01 0.00000E+00
 -1       173 2.59800E+00 2.49750E+01 0.00000E+00
 -1       174 2.59800E+00 2.20250E+01 0.00000E+00
 -1       175 2.59800E+00 1.90750E+01 0.00000E+00
 -1       176 2.59800E+00 1.61750E+01 0.00000E+00
 -1       177 2.59800E+00 1.32250E+01 0.00000E+00
 -1       178 2.59800E+00 1.02750E+01 0.00000E+00
 -1       179 2.59800E+00 7.32500E+00 0.00000E+00
 -1       180 2.59800E+00 4.37500E+00 0.00000E+00
 -1       181 2.87400E+00 2.18750E+00 0.00000E+00
 -1       182 4.65000E+00 4.74020E+01 0.00000E+00
 -1       183 7.65000E+00 4.74020E+01 0.00000E+00
 -1       184 1.06500E+01 4.74020E+01 0.00000E+00
 -1       185 1.36500E+01 4.74020E+01 0.00000E+00
 -1       186 1.66500E+01 4.74020E+01 0.00000E+00
 -1       187 1.96500E+01 4.74020E+01 0.00000E+00
 -1       188 2.26500E+01 4.74020E+01 0.00000E+00
 -1       189 2.56500E+01 4.74020E+01 0.00000E+00
 -1       190 2.86500E+01 4.74020E+01 0.00000E+00
 -1       191 3.16500E+01 4.74020E+01 0.00000E+00
 -1       192 3.46500E+01 4.74020E+01 0.00000E+00
 -1       193 3.76500E+01 4.74020E+01 0.00000E+00
 -1       194 4.06500E+01 4.74020E+01 0.00000E+00
 -1       195 4.36500E+01 4.74020E+01 0.00000E+00
 -1       196 4.66500E+01 4.74020E+01 0.00000E+00
 -1       197 4.96500E+01 4.74020E+01 0.00000E+00
 -1       198 5.26500E+01 4.74020E+01 0.00000E+00
 -1       199 5.56500E+01 4.74020E+01 0.00000E+00
 -1       200 5.86500E+01 4.74020E+01 0.00000E+00
 -1       201 6.16500E+01 4.74020E+01 0.00000E+00
 -1       202 6.46500E+01 4.74020E+01 0.00000E+00
 -1       203 6.76500E+01 4.74020E+01 0.00000E+00
 -1       204 7.06500E+01 4.74020E+01 0.00000E+00
 -1       205 7.36500E+01 4.74020E+01 0.00000E+00
 -1       206 7.66500E+01 4.74020E+01 0.00000E+00
 -1       207 7.96500E+01 4.74020E+01 0.00000E+00
 -1       208 8.26500E+01 4.74020E+01 0.00000E+00
 -1       209 8.56500E+01 4.74020E+01 0.00000E+00
 -1       210 8.86500E+01 4.74020E+01 0.00000E+00
 -1       211 9.16500E+01 4.74020E+01 0.00000E+00
 -1       212 9.46500E+01 4.74020E+01 0.00000E+00
 -1       213 9.76500E+01 4.74020E+01 0.00000E+00
 -1       214 1.00650E+02 4.74020E+01 0.00000E+00
 -1       215 1.03650E+02 4.74020E+01 0.00000E+00
 -1       216 1.06650E+02 4.74020E+01 0.00000E+00
 -1       217 1.09650E+02 4.74020E+01 0.00000E+00
 -1       218 1.12650E+02 4.74020E+01 0.00000E+00
 -1       219 1.15650E+02 4.74020E+01 0.00000E+00
 -1       220 1.18650E+02 4.74020E+01 0.00000E+00
 -1       221 1.21650E+02 4.74020E+01 0.00000E+00
 -1       222 1.24650E+02 4.74020E+01 0.00000E+00
 -1       223 1.27650E+02 4.74020E+01 0.00000E+00
 -1       224 1.30650E+02 4.74020E+01 0.00000E+00
 -1       225 1.33650E+02 4.74020E+01 0.00000E+00
 -1       226 1.36650E+02 4.74020E+01 0.00000E+00
 -1       227 1.39650E+02 4.74020E+01 0.00000E+00
 -1       228 1.42650E+02 4.74020E+01 0.00000E+00
 -1       229 1.45650E+02 4.74020E+01 0.00000E+00
 -1       230 5.87400E+00 2.18750E+00 0.00000E+00
 -1       231 8.87400E+00 2.18750E+00 0.00000E+00
 -1       232 1.18740E+01 2.18750E+00 0.00000E+00
 -1       233 1.48740E+01 2.18750E+00 0.00000E+00
 -1       234 1.78740E+01 2.18750E+00 0.00000E+00
 -1       235 2.08740E+01 2.18750E+00 0.00000E+00
 -1       236 2.38740E+01 2.18750E+00 0.00000E+00
 -1       237 2.64240E+01 2.18750E+00 0.00000E+00
 -1       238 2.88240E+01 2.18750E+00 0.00000E+00
 -1       239 3.12240E+01 2.18750E+00 0.00000E+00
 -1       240 3.33240E+01 2.18750E+00 0.00000E+00
 -1       241 3.58740E+01 2.18750E+00 0.00000E+00
 -1       242 3.85740E+01 2.18750E+00 0.00000E+00
 -1       243 4.15740E+01 2.18750E+00 0.00000E+00
 -1       244 4.45740E+01 2.18750E+00 0.00000E+00
 -1       245 4.75740E+01 2.18750E+00 0.00000E+00
 -1       246 5.05740E+01 2.18750E+00 0.00000E+00
 -1       247 5.35740E+01 2.18750E+00 0.00000E+00
 -1       248 5.65740E+01 2.18750E+00 0.00000E+00
 -1       249 5.95740E+01 2.18750E+00 0.00000E+00
 -1       250 6.25740E+01 2.18750E+00 0.00000E+00
 -1       251 6.55740E+01 2.18750E+00 0.00000E+00
 -1       252 6.85740E+01 2.18750E+00 0.00000E+00
 -1       253 7.15740E+01 2.18750E+00 0.00000E+00
 -1       254 7.45740E+01 2.18750E+00 0.00000E+00
 -1       255 7.75740E+01 2.18750E+00 0.00000E+00
 -1       256 8.05740E+01 2.18750E+00 0.00000E+00
 -1       257 8.35740E+01 2.18750E+00 0.00000E+00
 -1       258 8.65740E+01 2.18750E+00 0.00000E+00
 -1       259 8.95740E+01 2.18750E+00 0.00000E+00
 -1       260 9.27240E+01 2.18750E+00 0.00000E+00
 -1       261 9.57240E+01 2.18750E+00 0.00000E+00
 -1       262 9.87240E+01 2.18750E+00 0.00000E+00
 -1       263 1.01724E+02 2.18750E+00 0.00000E+00
 -1       264 1.04724E+02 2.18750E+00 0.00000E+00
 -1       265 1.07724E+02 2.18750E+00 0.00000E+00
 -1       266 1.10724E+02 2.18750E+00 0.00000E+00
 -1       267 1.13724E+02 2.18750E+00 0.00000E+00
 -1       268 1.16724E+02 2.18750E+00 0.00000E+00
 -1       269 1.19724E+02 2.18750E+00 0.00000E+00
 -1       270 1.22724E+02 2.18750E+00 0.00000E+00
 -1       271 1.25724E+02 2.18750E+00 0.00000E+00
 -1       272 1.28724E+02 2.18750E+00 0.00000E+00
 -1       273 1.31724E+02 2.18750E+00 0.00000E+00
 -1       274 1.34724E+02 2.18750E+00 0.00000E+00
 -1       275 1.37724E+02 2.18750E+00 0.00000E+00
 -1       276 1.40724E+02 2.18750E+00 0.00000E+00
 -1       277 1.43724E+02 2.18750E+00 0.00000E+00
 -1       278 1.46724E+02 2.18750E+00 0.00000E+00
 -1       279 1.47402E+02 4.42500E+00 0.00000E+00
 -1       280 1.47402E+02 7.37500E+00 0.00000E+00
 -1       281 1.47402E+02 1.03250E+01 0.00000E+00
 -1       282 1.47402E+02 1.32750E+01 0.00000E+00
 -1       283 1.47402E+02 1.61750E+01 0.00000E+00
 -1       284 1.47402E+02 1.91250E+01 0.00000E+00
 -1       285 1.47402E+02 2.20750E+01 0.00000E+00
 -1       286 1.47402E+02 2.50250E+01 0.00000E+00
 -1       287 1.47402E+02 2.79750E+01 0.00000E+00
 -1       288 1.47402E+02 3.09250E+01 0.00000E+00
 -1       289 1.47402E+02 3.38250E+01 0.00000E+00
 -1       290 1.47402E+02 3.67750E+01 0.00000E+00
 -1       291 1.47402E+02 3.97250E+01 0.00000E+00
 -1       292 1.47402E+02 4.26750E+01 0.00000E+00
 -1       293 1.46526E+02 4.50385E+01 0.00000E+00
 -1       294 4.04561E+01 1.18454E+01 0.00000E+00
 -1       295 4.00017E+01 1.01469E+01 0.00000E+00
 -1       296 3.94701E+01 8.39259E+00 0.00000E+00
 -1       297 3.82308E+01 7.03381E+00 0.00000E+00
 -1       298 3.68983E+01 5.99113E+00 0.00000E+00
 -1       299 3.55166E+01 4.95745E+00 0.00000E+00
 -1       300 3.37561E+01 4.68443E+00 0.00000E+00
 -1       301 3.20494E+01 4.37960E+00 0.00000E+00
 -1       302 3.02846E+01 4.61320E+00 0.00000E+00
 -1       303 2.86683E+01 5.37072E+00 0.00000E+00
 -1       304 2.72286E+01 6.26069E+00 0.00000E+00
 -1       305 2.60430E+01 7.38970E+00 0.00000E+00
 -1       306 2.50934E+01 8.75901E+00 0.00000E+00
 -1       307 2.44245E+01 1.03499E+01 0.00000E+00
 -1       308 2.40155E+01 1.20888E+01 0.00000E+00
 -1       309 2.41558E+01 1.38722E+01 0.00000E+00
 -1       310 2.45089E+01 1.56013E+01 0.00000E+00
 -1       311 2.51945E+01 1.73170E+01 0.00000E+00
 -1       312 2.65394E+01 1.85702E+01 0.00000E+00
 -1       313 2.78480E+01 1.98007E+01 0.00000E+00
 -1       314 2.95137E+01 2.07670E+01 0.00000E+00
 -1       315 3.13793E+01 2.09303E+01 0.00000E+00
 -1       316 3.30419E+01 2.08586E+01 0.00000E+00
 -1       317 3.46767E+01 2.07009E+01 0.00000E+00
 -1       318 3.61031E+01 1.99326E+01 0.00000E+00
 -1       319 3.74015E+01 1.90688E+01 0.00000E+00
 -1       320 3.85136E+01 1.79755E+01 0.00000E+00
 -1       321 3.95732E+01 1.67039E+01 0.00000E+00
 -1       322 4.00696E+01 1.51018E+01 0.00000E+00
 -1       323 4.03834E+01 1.35273E+01 0.00000E+00
 -1       324 5.19600E+00 4.11500E+01 0.00000E+00
 -1       325 5.19600E+00 4.41000E+01 0.00000E+00
 -1       326 5.19600E+00 3.52750E+01 0.00000E+00
 -1       327 5.19600E+00 3.23250E+01 0.00000E+00
 -1       328 5.19600E+00 2.93750E+01 0.00000E+00
 -1       329 5.19600E+00 2.64250E+01 0.00000E+00
 -1       330 5.19600E+00 2.34750E+01 0.00000E+00
 -1       331 5.19600E+00 2.05250E+01 0.00000E+00
 -1       332 5.19600E+00 1.76250E+01 0.00000E+00
 -1       333 5.19600E+00 1.46750E+01 0.00000E+00
 -1       334 5.19600E+00 1.17250E+01 0.00000E+00
 -1       335 5.19600E+00 8.77500E+00 0.00000E+00
 -1       336 5.19600E+00 5.82500E+00 0.00000E+00
 -1       337 5.53500E+00 4.00625E+00 0.00000E+00
 -1       338 8.53500E+00 4.00625E+00 0.00000E+00
 -1       339 9.15000E+00 4.48040E+01 0.00000E+00
 -1       340 1.21500E+01 4.48040E+01 0.00000E+00
 -1       341 1.51500E+01 4.48040E+01 0.00000E+00
 -1       342 1.81500E+01 4.48040E+01 0.00000E+00
 -1       343 2.11500E+01 4.48040E+01 0.00000E+00
 -1       344 2.41500E+01 4.48040E+01 0.00000E+00
 -1       345 2.71500E+01 4.48040E+01 0.00000E+00
 -1       346 3.01500E+01 4.48040E+01 0.00000E+00
 -1       347 3.31500E+01 4.48040E+01 0.00000E+00
 -1       348 3.61500E+01 4.48040E+01 0.00000E+00
 -1       349 3.91500E+01 4.48040E+01 0.00000E+00
 -1       350 4.21500E+01 4.48040E+01 0.00000E+00
 -1       351 4.51500E+01 4.48040E+01 0.00000E+00
 -1       352 4.81500E+01 4.48040E+01 0.00000E+00
 -1       353 5.11500E+01 4.48040E+01 0.00000E+00
 -1       354 5.41500E+01 4.48040E+01 0.00000E+00
 -1       355 5.71500E+01 4.48040E+01 0.00000E+00
 -1       356 6.01500E+01 4.48040E+01 0.00000E+00
 -1       357 6.31500E+01 4.48040E+01 0.00000E+00
 -1       358 6.61500E+01 4.48040E+01 0.00000E+00
 -1       359 6.91500E+01 4.48040E+01 0.00000E+00
 -1       360 7.21500E+01 4.48040E+01 0.00000E+00
 -1       361 7.51500E+01 4.48040E+01 0.00000E+00
 -1       362 7.81500E+01 4.48040E+01 0.00000E+00
 -1       363 8.11500E+01 4.48040E+01 0.00000E+00
 -1       364 8.41500E+01 4.48040E+01 0.00000E+00
 -1       365 8.71500E+01 4.48040E+01 0.00000E+00
 -1       366 9.01500E+01 4.48040E+01 0.00000E+00
 -1       367 9.31500E+01 4.48040E+01 0.00000E+00
 -1       368 9.61500E+01 4.48040E+01 0.00000E+00
 -1       369 9.91500E+01 4.48040E+01 0.00000E+00
 -1       370 1.02150E+02 4.48040E+01 0.00000E+00
 -1       371 1.05150E+02 4.48040E+01 0.00000E+00
 -1       372 1.08150E+02 4.48040E+01 0.00000E+00
 -1       373 1.11150E+02 4.48040E+01 0.00000E+00
 -1       374 1.14150E+02 4.48040E+01 0.00000E+00
 -1       375 1.17150E+02 4.48040E+01 0.00000E+00
 -1       376 1.20150E+02 4.48040E+01 0.00000E+00
 -1       377 1.23150E+02 4.48040E+01 0.00000E+00
 -1       378 1.26150E+02 4.48040E+01 0.00000E+00
 -1       379 1.29150E+02 4.48040E+01 0.00000E+00
 -1       380 1.32150E+02 4.48040E+01 0.00000E+00
 -1       381 1.35150E+02 4.48040E+01 0.00000E+00
 -1       382 1.38150E+02 4.48040E+01 0.00000E+00
 -1       383 1.41150E+02 4.48040E+01 0.00000E+00
 -1       384 1.43838E+02 4.49212E+01 0.00000E+00
 -1       385 1.15350E+01 4.00625E+00 0.00000E+00
 -1       386 1.45350E+01 4.00625E+00 0.00000E+00
 -1       387 1.75350E+01 4.00625E+00 0.00000E+00
 -1       388 2.05350E+01 4.00625E+00 0.00000E+00
 -1       389 2.35350E+01 4.00625E+00 0.00000E+00
 -1       390 2.76240E+01 4.07019E+00 0.00000E+00
 -1       391 3.72240E+01 3.90261E+00 0.00000E+00
 -1       392 4.00740E+01 4.40532E+00 0.00000E+00
 -1       393 4.30740E+01 4.57289E+00 0.00000E+00
 -1       394 4.60740E+01 4.57289E+00 0.00000E+00
 -1       395 4.90740E+01 4.57289E+00 0.00000E+00
 -1       396 5.20740E+01 4.57289E+00 0.00000E+00
 -1       397 5.50740E+01 4.57289E+00 0.00000E+00
 -1       398 5.80740E+01 4.57289E+00 0.00000E+00
 -1       399 6.10740E+01 4.57289E+00 0.00000E+00
 -1       400 6.40740E+01 4.57289E+00 0.00000E+00
 -1       401 6.70740E+01 4.57289E+00 0.00000E+00
 -1       402 7.00740E+01 4.57289E+00 0.00000E+00
 -1       403 7.30740E+01 4.57289E+00 0.00000E+00
 -1       404 7.60740E+01 4.57289E+00 0.00000E+00
 -1       405 7.90740E+01 4.57289E+00 0.00000E+00
 -1       406 8.20740E+01 4.57289E+00 0.00000E+00
 -1       407 8.50740E+01 4.57289E+00 0.00000E+00
 -1       408 8.80740E+01 4.57289E+00 0.00000E+00
 -1       409 9.12240E+01 4.57289E+00 0.00000E+00
 -1       410 9.42240E+01 4.57289E+00 0.00000E+00
 -1       411 9.72240E+01 4.57289E+00 0.00000E+00
 -1       412 1.00224E+02 4.57289E+00 0.00000E+00
 -1       413 1.03224E+02 4.57289E+00 0.00000E+00
 -1       414 1.06224E+02 4.57289E+00 0.00000E+00
 -1       415 1.09224E+02 4.57289E+00 0.00000E+00
 -1       416 1.12224E+02 4.57289E+00 0.00000E+00
 -1       417 1.15224E+02 4.57289E+00 0.00000E+00
 -1       418 1.18224E+02 4.57289E+00 0.00000E+00
 -1       419 1.21224E+02 4.57289E+00 0.00000E+00
 -1       420 1.24224E+02 4.57289E+00 0.00000E+00
 -1       421 1.27224E+02 4.57289E+00 0.00000E+00
 -1       422 1.30224E+02 4.57289E+00 0.00000E+00
 -1       423 1.33224E+02 4.57289E+00 0.00000E+00
 -1       424 1.36224E+02 4.57289E+00 0.00000E+00
 -1       425 1.39224E+02 4.57289E+00 0.00000E+00
 -1       426 1.42224E+02 4.57289E+00 0.00000E+00
 -1       427 1.44813E+02 4.49895E+00 0.00000E+00
 -1       428 1.44804E+02 1.18000E+01 0.00000E+00
 -1       429 1.44804E+02 8.85000E+00 0.00000E+00
 -1       430 1.44804E+02 1.47000E+01 0.00000E+00
 -1       431 1.44804E+02 1.76500E+01 0.00000E+00
 -1       432 1.44804E+02 2.06000E+01 0.00000E+00
 -1       433 1.44804E+02 2.35500E+01 0.00000E+00
 -1       434 1.44804E+02 2.65000E+01 0.00000E+00
 -1       435 1.44804E+02 2.94500E+01 0.00000E+00
 -1       436 1.44804E+02 3.23500E+01 0.00000E+00
 -1       437 1.44804E+02 3.53000E+01 0.00000E+00
 -1       438 1.44804E+02 3.82500E+01 0.00000E+00
 -1       439 1.44804E+02 4.12000E+01 0.00000E+00
 -1       440 4.12169E+01 8.82090E+00 0.00000E+00
 -1       441 4.19659E+01 1.27532E+01 0.00000E+00
 -1       442 4.16714E+01 1.05195E+01 0.00000E+00
 -1       443 3.99320E+01 6.72684E+00 0.00000E+00
 -1       444 3.84149E+01 5.42566E+00 0.00000E+00
 -1       445 5.19600E+00 3.82125E+01 0.00000E+00
 -1       446 2.57419E+01 5.88653E+00 0.00000E+00
 -1       447 2.45031E+01 7.33572E+00 0.00000E+00
 -1       448 2.34096E+01 8.98706E+00 0.00000E+00
 -1       449 2.28767E+01 1.09034E+01 0.00000E+00
 -1       450 2.23758E+01 1.31151E+01 0.00000E+00
 -1       451 2.28982E+01 1.50296E+01 0.00000E+00
 -1       452 2.32591E+01 1.70956E+01 0.00000E+00
 -1       453 2.46977E+01 1.91984E+01 0.00000E+00
 -1       454 2.60063E+01 2.04289E+01 0.00000E+00
 -1       455 2.79043E+01 2.16225E+01 0.00000E+00
 -1       456 3.02969E+01 2.25573E+01 0.00000E+00
 -1       457 3.22665E+01 2.21894E+01 0.00000E+00
 -1       458 3.39918E+01 2.21533E+01 0.00000E+00
 -1       459 3.62032E+01 2.18268E+01 0.00000E+00
 -1       460 3.75016E+01 2.09630E+01 0.00000E+00
 -1       461 3.91600E+01 1.97452E+01 0.00000E+00
 -1       462 4.02195E+01 1.84736E+01 0.00000E+00
 -1       463 4.12996E+01 1.63609E+01 0.00000E+00
 -1       464 4.16134E+01 1.47864E+01 0.00000E+00
 -1       465 3.52300E+01 3.14352E+00 0.00000E+00
 -1       466 2.51490E+01 4.23776E+00 0.00000E+00
 -1       467 1.00350E+01 6.60425E+00 0.00000E+00
 -1       468 7.79400E+00 3.08500E+01 0.00000E+00
 -1       469 7.79400E+00 3.38000E+01 0.00000E+00
 -1       470 7.79400E+00 2.49500E+01 0.00000E+00
 -1       471 7.79400E+00 2.20000E+01 0.00000E+00
 -1       472 7.79400E+00 1.91000E+01 0.00000E+00
 -1       473 7.79400E+00 1.61500E+01 0.00000E+00
 -1       474 7.79400E+00 1.32000E+01 0.00000E+00
 -1       475 7.79400E+00 1.02500E+01 0.00000E+00
 -1       476 1.30350E+01 6.60425E+00 0.00000E+00
 -1       477 1.06500E+01 4.22060E+01 0.00000E+00
 -1       478 7.92300E+00 4.16780E+01 0.00000E+00
 -1       479 1.36500E+01 4.22060E+01 0.00000E+00
 -1       480 1.66500E+01 4.22060E+01 0.00000E+00
 -1       481 1.96500E+01 4.22060E+01 0.00000E+00
 -1       482 2.26500E+01 4.22060E+01 0.00000E+00
 -1       483 2.56500E+01 4.22060E+01 0.00000E+00
 -1       484 2.86500E+01 4.22060E+01 0.00000E+00
 -1       485 3.16500E+01 4.22060E+01 0.00000E+00
 -1       486 3.46500E+01 4.22060E+01 0.00000E+00
 -1       487 3.76500E+01 4.22060E+01 0.00000E+00
 -1       488 4.06500E+01 4.22060E+01 0.00000E+00
 -1       489 4.36500E+01 4.22060E+01 0.00000E+00
 -1       490 4.66500E+01 4.22060E+01 0.00000E+00
 -1       491 4.96500E+01 4.22060E+01 0.00000E+00
 -1       492 5.26500E+01 4.22060E+01 0.00000E+00
 -1       493 5.56500E+01 4.22060E+01 0.00000E+00
 -1       494 5.86500E+01 4.22060E+01 0.00000E+00
 -1       495 6.16500E+01 4.22060E+01 0.00000E+00
 -1       496 6.46500E+01 4.22060E+01 0.00000E+00
 -1       497 6.76500E+01 4.22060E+01 0.00000E+00
 -1       498 7.06500E+01 4.22060E+01 0.00000E+00
 -1       499 7.36500E+01 4.22060E+01 0.00000E+00
 -1       500 7.66500E+01 4.22060E+01 0.00000E+00
 -1       501 7.96500E+01 4.22060E+01 0.00000E+00
 -1       502 8.26500E+01 4.22060E+01 0.00000E+00
 -1       503 8.56500E+01 4.22060E+01 0.00000E+00
 -1       504 8.86500E+01 4.22060E+01 0.00000E+00
 -1       505 9.16500E+01 4.22060E+01 0.00000E+00
 -1       506 9.46500E+01 4.22060E+01 0.00000E+00
 -1       507 9.76500E+01 4.22060E+01 0.00000E+00
 -1       508 1.00650E+02 4.22060E+01 0.00000E+00
 -1       509 1.03650E+02 4.22060E+01 0.00000E+00
 -1       510 1.06650E+02 4.22060E+01 0.00000E+00
 -1       511 1.09650E+02 4.22060E+01 0.00000E+00
 -1       512 1.12650E+02 4.22060E+01 0.00000E+00
 -1       513 1.15650E+02 4.22060E+01 0.00000E+00
 -1       514 1.18650E+02 4.22060E+01 0.00000E+00
 -1       515 1.21650E+02 4.22060E+01 0.00000E+00
 -1       516 1.24650E+02 4.22060E+01 0.00000E+00
 -1       517 1.27650E+02 4.22060E+01 0.00000E+00
 -1       518 1.30650E+02 4.22060E+01 0.00000E+00
 -1       519 1.33650E+02 4.22060E+01 0.00000E+00
 -1       520 1.36650E+02 4.22060E+01 0.00000E+00
 -1       521 1.39650E+02 4.22060E+01 0.00000E+00
 -1       522 1.90350E+01 6.39165E+00 0.00000E+00
 -1       523 2.20350E+01 6.39165E+00 0.00000E+00
 -1       524 2.83545E+01 2.39996E+01 0.00000E+00
 -1       525 4.45740E+01 7.17089E+00 0.00000E+00
 -1       526 5.35740E+01 7.17089E+00 0.00000E+00
 -1       527 5.65740E+01 7.17089E+00 0.00000E+00
 -1       528 5.95740E+01 7.17089E+00 0.00000E+00
 -1       529 6.25740E+01 7.17089E+00 0.00000E+00
 -1       530 6.55740E+01 7.17089E+00 0.00000E+00
 -1       531 6.85740E+01 7.17089E+00 0.00000E+00
 -1       532 7.15740E+01 7.17089E+00 0.00000E+00
 -1       533 7.45740E+01 7.17089E+00 0.00000E+00
 -1       534 7.75740E+01 7.17089E+00 0.00000E+00
 -1       535 8.05740E+01 7.17089E+00 0.00000E+00
 -1       536 8.35740E+01 7.17089E+00 0.00000E+00
 -1       537 8.65740E+01 7.17089E+00 0.00000E+00
 -1       538 8.97240E+01 7.17089E+00 0.00000E+00
 -1       539 9.27240E+01 7.17089E+00 0.00000E+00
 -1       540 9.57240E+01 7.17089E+00 0.00000E+00
 -1       541 9.87240E+01 7.17089E+00 0.00000E+00
 -1       542 1.01724E+02 7.17089E+00 0.00000E+00
 -1       543 1.04724E+02 7.17089E+00 0.00000E+00
 -1       544 1.07724E+02 7.17089E+00 0.00000E+00
 -1       545 1.10724E+02 7.17089E+00 0.00000E+00
 -1       546 1.13724E+02 7.17089E+00 0.00000E+00
 -1       547 1.16724E+02 7.17089E+00 0.00000E+00
 -1       548 1.19724E+02 7.17089E+00 0.00000E+00
 -1       549 1.22724E+02 7.17089E+00 0.00000E+00
 -1       550 1.25724E+02 7.17089E+00 0.00000E+00
 -1       551 1.28724E+02 7.17089E+00 0.00000E+00
 -1       552 1.31724E+02 7.17089E+00 0.00000E+00
 -1       553 1.34724E+02 7.17089E+00 0.00000E+00
 -1       554 1.37724E+02 7.17089E+00 0.00000E+00
 -1       555 1.40724E+02 7.17089E+00 0.00000E+00
 -1       556 1.42206E+02 1.61750E+01 0.00000E+00
 -1       557 1.42206E+02 1.32750E+01 0.00000E+00
 -1       558 1.42206E+02 1.03250E+01 0.00000E+00
 -1       559 4.33529E+01 1.14341E+01 0.00000E+00
 -1       560 1.42206E+02 1.91250E+01 0.00000E+00
 -1       561 1.42206E+02 2.20750E+01 0.00000E+00
 -1       562 1.42206E+02 2.50250E+01 0.00000E+00
 -1       563 1.42206E+02 2.79750E+01 0.00000E+00
 -1       564 1.42206E+02 3.08750E+01 0.00000E+00
 -1       565 1.42206E+02 3.38250E+01 0.00000E+00
 -1       566 1.42206E+02 3.67750E+01 0.00000E+00
 -1       567 1.42206E+02 3.97250E+01 0.00000E+00
 -1       568 4.33970E+01 1.40485E+01 0.00000E+00
 -1       569 1.60350E+01 6.60425E+00 0.00000E+00
 -1       570 4.17506E+01 7.05214E+00 0.00000E+00
 -1       571 4.22867E+01 1.81979E+01 0.00000E+00
 -1       572 3.53480E+01 2.36868E+01 0.00000E+00
 -1       573 2.22863E+01 1.93047E+01 0.00000E+00
 -1       574 4.30200E+01 9.24855E+00 0.00000E+00
 -1       575 5.05740E+01 7.17089E+00 0.00000E+00
 -1       576 4.75740E+01 7.17089E+00 0.00000E+00
 -1       577 7.79400E+00 2.79000E+01 0.00000E+00
 -1       578 2.09824E+01 1.45238E+01 0.00000E+00
 -1       579 2.11679E+01 9.39584E+00 0.00000E+00
 -1       580 2.06670E+01 1.16075E+01 0.00000E+00
 -1       581 2.13433E+01 1.65898E+01 0.00000E+00
 -1       582 2.41771E+01 2.10631E+01 0.00000E+00
 -1       583 2.60423E+01 2.24776E+01 0.00000E+00
 -1       584 3.15658E+01 2.38946E+01 0.00000E+00
 -1       585 3.32911E+01 2.38585E+01 0.00000E+00
 -1       586 3.79880E+01 2.31019E+01 0.00000E+00
 -1       587 3.96464E+01 2.18841E+01 0.00000E+00
 -1       588 4.09665E+01 2.00410E+01 0.00000E+00
 -1       589 4.30832E+01 1.56229E+01 0.00000E+00
 -1       590 7.61550E+00 6.21462E+00 0.00000E+00
 -1       591 2.27359E+01 7.35327E+00 0.00000E+00
 -1       592 2.40190E+01 5.67099E+00 0.00000E+00
 -1       593 7.79400E+00 3.67375E+01 0.00000E+00
 -1       594 2.96234E+01 2.53369E+01 0.00000E+00
 -1       595 1.41678E+02 4.22645E+01 0.00000E+00
 -1       596 1.03920E+01 2.05500E+01 0.00000E+00
 -1       597 1.03920E+01 2.35000E+01 0.00000E+00
 -1       598 1.03920E+01 1.46750E+01 0.00000E+00
 -1       599 1.03920E+01 1.17250E+01 0.00000E+00
 -1       600 5.80740E+01 9.76889E+00 0.00000E+00
 -1       601 1.21500E+01 3.96080E+01 0.00000E+00
 -1       602 2.61633E+01 2.48112E+01 0.00000E+00
 -1       603 1.51500E+01 3.96080E+01 0.00000E+00
 -1       604 1.81500E+01 3.96080E+01 0.00000E+00
 -1       605 2.11500E+01 3.96080E+01 0.00000E+00
 -1       606 2.41500E+01 3.96080E+01 0.00000E+00
 -1       607 2.71500E+01 3.96080E+01 0.00000E+00
 -1       608 3.01500E+01 3.96080E+01 0.00000E+00
 -1       609 3.31500E+01 3.96080E+01 0.00000E+00
 -1       610 3.61500E+01 3.96080E+01 0.00000E+00
 -1       611 3.91500E+01 3.96080E+01 0.00000E+00
 -1       612 4.21500E+01 3.96080E+01 0.00000E+00
 -1       613 4.51500E+01 3.96080E+01 0.00000E+00
 -1       614 4.81500E+01 3.96080E+01 0.00000E+00
 -1       615 5.11500E+01 3.96080E+01 0.00000E+00
 -1       616 5.41500E+01 3.96080E+01 0.00000E+00
 -1       617 5.71500E+01 3.96080E+01 0.00000E+00
 -1       618 6.01500E+01 3.96080E+01 0.00000E+00
 -1       619 6.31500E+01 3.96080E+01 0.00000E+00
 -1       620 6.61500E+01 3.96080E+01 0.00000E+00
 -1       621 6.91500E+01 3.96080E+01 0.00000E+00
 -1       622 7.21500E+01 3.96080E+01 0.00000E+00
 -1       623 7.51500E+01 3.96080E+01 0.00000E+00
 -1       624 7.81500E+01 3.96080E+01 0.00000E+00
 -1       625 8.11500E+01 3.96080E+01 0.00000E+00
 -1       626 8.41500E+01 3.96080E+01 0.00000E+00
 -1       627 8.71500E+01 3.96080E+01 0.00000E+00
 -1       628 9.01500E+01 3.96080E+01 0.00000E+00
 -1       629 9.31500E+01 3.96080E+01 0.00000E+00
 -1       630 9.61500E+01 3.96080E+01 0.00000E+00
 -1       631 9.91500E+01 3.96080E+01 0.00000E+00
 -1       632 1.02150E+02 3.96080E+01 0.00000E+00
 -1       633 1.05150E+02 3.96080E+01 0.00000E+00
 -1       634 1.08150E+02 3.96080E+01 0.00000E+00
 -1       635 1.11150E+02 3.96080E+01 0.00000E+00
 -1       636 1.14150E+02 3.96080E+01 0.00000E+00
 -1       637 1.17150E+02 3.96080E+01 0.00000E+00
 -1       638 1.20150E+02 3.96080E+01 0.00000E+00
 -1       639 1.23150E+02 3.96080E+01 0.00000E+00
 -1       640 1.26150E+02 3.96080E+01 0.00000E+00
 -1       641 1.29150E+02 3.96080E+01 0.00000E+00
 -1       642 1.32150E+02 3.96080E+01 0.00000E+00
 -1       643 1.35150E+02 3.96080E+01 0.00000E+00
 -1       644 1.38150E+02 3.96080E+01 0.00000E+00
 -1       645 4.42434E+01 1.73925E+01 0.00000E+00
 -1       646 6.10740E+01 9.76889E+00 0.00000E+00
 -1       647 1.39206E+02 1.03250E+01 0.00000E+00
 -1       648 5.50740E+01 9.76889E+00 0.00000E+00
 -1       649 6.40740E+01 9.76889E+00 0.00000E+00
 -1       650 6.70740E+01 9.76889E+00 0.00000E+00
 -1       651 7.00740E+01 9.76889E+00 0.00000E+00
 -1       652 7.30740E+01 9.76889E+00 0.00000E+00
 -1       653 7.60740E+01 9.76889E+00 0.00000E+00
 -1       654 7.90740E+01 9.76889E+00 0.00000E+00
 -1       655 8.20740E+01 9.76889E+00 0.00000E+00
 -1       656 8.50740E+01 9.76889E+00 0.00000E+00
 -1       657 8.82240E+01 9.76889E+00 0.00000E+00
 -1       658 9.12240E+01 9.76889E+00 0.00000E+00
 -1       659 9.42240E+01 9.76889E+00 0.00000E+00
 -1       660 9.72240E+01 9.76889E+00 0.00000E+00
 -1       661 1.00224E+02 9.76889E+00 0.00000E+00
 -1       662 1.03224E+02 9.76889E+00 0.00000E+00
 -1       663 1.06224E+02 9.76889E+00 0.00000E+00
 -1       664 1.09224E+02 9.76889E+00 0.00000E+00
 -1       665 1.12224E+02 9.76889E+00 0.00000E+00
 -1       666 1.15224E+02 9.76889E+00 0.00000E+00
 -1       667 1.18224E+02 9.76889E+00 0.00000E+00
 -1       668 1.21224E+02 9.76889E+00 0.00000E+00
 -1       669 1.24224E+02 9.76889E+00 0.00000E+00
 -1       670 1.27224E+02 9.76889E+00 0.00000E+00
 -1       671 1.30224E+02 9.76889E+00 0.00000E+00
 -1       672 1.33224E+02 9.76889E+00 0.00000E+00
 -1       673 1.36215E+02 1.00469E+01 0.00000E+00
 -1       674 1.39608E+02 2.06000E+01 0.00000E+00
 -1       675 2.19496E+01 2.15625E+01 0.00000E+00
 -1       676 1.39608E+02 1.76500E+01 0.00000E+00
 -1       677 1.39608E+02 2.65000E+01 0.00000E+00
 -1       678 1.39608E+02 2.94000E+01 0.00000E+00
 -1       679 1.39608E+02 3.23500E+01 0.00000E+00
 -1       680 1.39608E+02 3.53000E+01 0.00000E+00
 -1       681 4.48820E+01 1.00831E+01 0.00000E+00
 -1       682 1.45350E+01 9.20225E+00 0.00000E+00
 -1       683 4.49221E+01 1.51709E+01 0.00000E+00
 -1       684 1.97197E+01 1.86750E+01 0.00000E+00
 -1       685 4.60740E+01 9.38872E+00 0.00000E+00
 -1       686 1.77036E+01 8.87738E+00 0.00000E+00
 -1       687 4.90740E+01 9.55629E+00 0.00000E+00
 -1       688 4.50898E+01 1.27124E+01 0.00000E+00
 -1       689 1.91431E+01 1.59096E+01 0.00000E+00
 -1       690 5.20740E+01 9.76889E+00 0.00000E+00
 -1       691 1.88278E+01 1.29933E+01 0.00000E+00
 -1       692 3.44762E+01 2.56488E+01 0.00000E+00
 -1       693 1.39608E+02 1.47500E+01 0.00000E+00
 -1       694 1.03920E+01 1.76125E+01 0.00000E+00
 -1       695 1.39608E+02 2.35500E+01 0.00000E+00
 -1       696 2.39720E+01 2.32704E+01 0.00000E+00
 -1       697 1.92447E+01 1.01229E+01 0.00000E+00
 -1       698 3.71115E+01 2.53960E+01 0.00000E+00
 -1       699 1.03920E+01 3.23250E+01 0.00000E+00
 -1       700 1.40178E+02 3.96665E+01 0.00000E+00
 -1       701 3.27509E+01 2.56849E+01 0.00000E+00
 -1       702 4.00307E+01 2.41456E+01 0.00000E+00
 -1       703 1.17135E+01 9.16463E+00 0.00000E+00
 -1       704 1.03920E+01 3.52625E+01 0.00000E+00
 -1       705 1.03920E+01 2.64500E+01 0.00000E+00
 -1       706 9.78035E+00 3.93914E+01 0.00000E+00
 -1       707 4.39179E+01 1.93812E+01 0.00000E+00
 -1       708 2.06579E+01 7.38119E+00 0.00000E+00
 -1       709 2.74322E+01 2.61485E+01 0.00000E+00
 -1       710 1.93830E+01 2.09328E+01 0.00000E+00
 -1       711 1.38879E+02 3.74540E+01 0.00000E+00
 -1       712 1.03920E+01 2.93875E+01 0.00000E+00
 -1       713 4.23554E+01 2.25872E+01 0.00000E+00
 -1       714 6.25740E+01 1.23669E+01 0.00000E+00
 -1       715 1.29900E+01 1.32000E+01 0.00000E+00
 -1       716 4.62693E+01 1.87451E+01 0.00000E+00
 -1       717 1.37010E+02 2.50250E+01 0.00000E+00
 -1       718 3.07980E+01 2.56902E+01 0.00000E+00
 -1       719 3.59896E+01 2.75633E+01 0.00000E+00
 -1       720 4.69480E+01 1.65236E+01 0.00000E+00
 -1       721 1.66500E+01 3.70100E+01 0.00000E+00
 -1       722 1.96500E+01 3.70100E+01 0.00000E+00
 -1       723 2.26500E+01 3.70100E+01 0.00000E+00
 -1       724 2.56500E+01 3.70100E+01 0.00000E+00
 -1       725 2.86500E+01 3.70100E+01 0.00000E+00
 -1       726 3.16500E+01 3.70100E+01 0.00000E+00
 -1       727 3.46500E+01 3.70100E+01 0.00000E+00
 -1       728 3.76500E+01 3.70100E+01 0.00000E+00
 -1       729 4.06500E+01 3.70100E+01 0.00000E+00
 -1       730 4.36500E+01 3.70100E+01 0.00000E+00
 -1       731 4.66500E+01 3.70100E+01 0.00000E+00
 -1       732 4.96500E+01 3.70100E+01 0.00000E+00
 -1       733 5.26500E+01 3.70100E+01 0.00000E+00
 -1       734 5.56500E+01 3.70100E+01 0.00000E+00
 -1       735 5.86500E+01 3.70100E+01 0.00000E+00
 -1       736 6.16500E+01 3.70100E+01 0.00000E+00
 -1       737 6.46500E+01 3.70100E+01 0.00000E+00
 -1       738 6.76500E+01 3.70100E+01 0.00000E+00
 -1       739 7.06500E+01 3.70100E+01 0.00000E+00
 -1       740 7.36500E+01 3.70100E+01 0.00000E+00
 -1       741 7.66500E+01 3.70100E+01 0.00000E+00
 -1       742 7.96500E+01 3.70100E+01 0.00000E+00
 -1       743 8.26500E+01 3.70100E+01 0.00000E+00
 -1       744 8.56500E+01 3.70100E+01 0.00000E+00
 -1       745 8.86500E+01 3.70100E+01 0.00000E+00
 -1       746 9.16500E+01 3.70100E+01 0.00000E+00
 -1       747 9.46500E+01 3.70100E+01 0.00000E+00
 -1       748 9.76500E+01 3.70100E+01 0.00000E+00
 -1       749 1.00650E+02 3.70100E+01 0.00000E+00
 -1       750 1.03650E+02 3.70100E+01 0.00000E+00
 -1       751 1.06650E+02 3.70100E+01 0.00000E+00
 -1       752 1.09650E+02 3.70100E+01 0.00000E+00
 -1       753 1.12650E+02 3.70100E+01 0.00000E+00
 -1       754 1.15650E+02 3.70100E+01 0.00000E+00
 -1       755 1.18650E+02 3.70100E+01 0.00000E+00
 -1       756 1.21650E+02 3.70100E+01 0.00000E+00
 -1       757 1.24650E+02 3.70100E+01 0.00000E+00
 -1       758 1.27650E+02 3.70100E+01 0.00000E+00
 -1       759 1.30650E+02 3.70100E+01 0.00000E+00
 -1       760 1.33650E+02 3.70100E+01 0.00000E+00
 -1       761 1.36264E+02 3.72320E+01 0.00000E+00
 -1       762 5.95740E+01 1.23669E+01 0.00000E+00
 -1       763 1.37010E+02 3.38250E+01 0.00000E+00
 -1       764 5.65740E+01 1.23669E+01 0.00000E+00
 -1       765 6.85740E+01 1.23669E+01 0.00000E+00
 -1       766 7.15740E+01 1.23669E+01 0.00000E+00
 -1       767 7.45740E+01 1.23669E+01 0.00000E+00
 -1       768 7.75740E+01 1.23669E+01 0.00000E+00
 -1       769 8.05740E+01 1.23669E+01 0.00000E+00
 -1       770 8.35740E+01 1.23669E+01 0.00000E+00
 -1       771 8.67240E+01 1.23669E+01 0.00000E+00
 -1       772 8.97240E+01 1.23669E+01 0.00000E+00
 -1       773 9.27240E+01 1.23669E+01 0.00000E+00
 -1       774 9.57240E+01 1.23669E+01 0.00000E+00
 -1       775 9.87240E+01 1.23669E+01 0.00000E+00
 -1       776 1.01724E+02 1.23669E+01 0.00000E+00
 -1       777 1.04724E+02 1.23669E+01 0.00000E+00
 -1       778 1.07724E+02 1.23669E+01 0.00000E+00
 -1       779 1.10724E+02 1.23669E+01 0.00000E+00
 -1       780 1.13724E+02 1.23669E+01 0.00000E+00
 -1       781 1.16724E+02 1.23669E+01 0.00000E+00
 -1       782 1.19724E+02 1.23669E+01 0.00000E+00
 -1       783 1.22724E+02 1.23669E+01 0.00000E+00
 -1       784 1.25724E+02 1.23669E+01 0.00000E+00
 -1       785 1.28724E+02 1.23669E+01 0.00000E+00
 -1       786 1.31724E+02 1.23669E+01 0.00000E+00
 -1       787 1.37010E+02 1.91250E+01 0.00000E+00
 -1       788 1.29900E+01 2.20250E+01 0.00000E+00
 -1       789 1.70073E+01 1.12634E+01 0.00000E+00
 -1       790 3.17791E+01 2.74026E+01 0.00000E+00
 -1       791 1.37010E+02 1.62250E+01 0.00000E+00
 -1       792 1.37010E+02 3.08750E+01 0.00000E+00
 -1       793 1.37010E+02 2.79500E+01 0.00000E+00
 -1       794 2.36956E+01 2.59921E+01 0.00000E+00
 -1       795 1.37010E+02 2.20750E+01 0.00000E+00
 -1       796 6.55740E+01 1.23669E+01 0.00000E+00
 -1       797 5.04054E+01 1.20420E+01 0.00000E+00
 -1       798 1.36500E+01 3.70100E+01 0.00000E+00
 -1       799 5.35740E+01 1.23669E+01 0.00000E+00
 -1       800 1.67805E+01 1.46899E+01 0.00000E+00
 -1       801 2.16732E+01 2.42842E+01 0.00000E+00
 -1       802 2.97167E+01 2.71560E+01 0.00000E+00
 -1       803 1.36613E+02 1.31360E+01 0.00000E+00
 -1       804 3.94444E+01 2.68095E+01 0.00000E+00
 -1       805 4.26146E+01 2.54869E+01 0.00000E+00
 -1       806 1.37625E+01 1.12011E+01 0.00000E+00
 -1       807 3.35044E+01 2.73665E+01 0.00000E+00
 -1       808 4.71157E+01 1.40650E+01 0.00000E+00
 -1       809 1.70963E+01 1.77792E+01 0.00000E+00
 -1       810 4.51303E+01 2.19558E+01 0.00000E+00
 -1       811 1.29900E+01 2.49750E+01 0.00000E+00
 -1       812 1.29900E+01 1.61375E+01 0.00000E+00
 -1       813 1.29900E+01 1.90875E+01 0.00000E+00
 -1       814 1.91066E+01 2.36545E+01 0.00000E+00
 -1       815 1.29900E+01 3.08563E+01 0.00000E+00
 -1       816 1.34168E+02 1.27514E+01 0.00000E+00
 -1       817 2.49645E+01 2.73294E+01 0.00000E+00
 -1       818 4.66957E+01 1.12626E+01 0.00000E+00
 -1       819 1.36637E+02 3.55285E+01 0.00000E+00
 -1       820 1.29900E+01 3.37938E+01 0.00000E+00
 -1       821 1.67595E+01 2.00370E+01 0.00000E+00
 -1       822 4.53895E+01 2.48556E+01 0.00000E+00
 -1       823 4.85695E+01 1.82334E+01 0.00000E+00
 -1       824 4.77846E+01 1.18463E+01 0.00000E+00
 -1       825 2.11500E+01 3.44120E+01 0.00000E+00
 -1       826 2.41500E+01 3.44120E+01 0.00000E+00
 -1       827 2.71500E+01 3.44120E+01 0.00000E+00
 -1       828 3.01500E+01 3.44120E+01 0.00000E+00
 -1       829 3.31500E+01 3.44120E+01 0.00000E+00
 -1       830 3.61500E+01 3.44120E+01 0.00000E+00
 -1       831 3.91500E+01 3.44120E+01 0.00000E+00
 -1       832 4.21500E+01 3.44120E+01 0.00000E+00
 -1       833 4.51500E+01 3.44120E+01 0.00000E+00
 -1       834 4.81500E+01 3.44120E+01 0.00000E+00
 -1       835 5.11500E+01 3.44120E+01 0.00000E+00
 -1       836 5.41500E+01 3.44120E+01 0.00000E+00
 -1       837 5.71500E+01 3.44120E+01 0.00000E+00
 -1       838 6.01500E+01 3.44120E+01 0.00000E+00
 -1       839 6.31500E+01 3.44120E+01 0.00000E+00
 -1       840 6.61500E+01 3.44120E+01 0.00000E+00
 -1       841 6.91500E+01 3.44120E+01 0.00000E+00
 -1       842 7.21500E+01 3.44120E+01 0.00000E+00
 -1       843 7.51500E+01 3.44120E+01 0.00000E+00
 -1       844 7.81500E+01 3.44120E+01 0.00000E+00
 -1       845 8.11500E+01 3.44120E+01 0.00000E+00
 -1       846 8.41500E+01 3.44120E+01 0.00000E+00
 -1       847 8.71500E+01 3.44120E+01 0.00000E+00
 -1       848 9.01500E+01 3.44120E+01 0.00000E+00
 -1       849 9.31500E+01 3.44120E+01 0.00000E+00
 -1       850 9.61500E+01 3.44120E+01 0.00000E+00
 -1       851 9.91500E+01 3.44120E+01 0.00000E+00
 -1       852 1.02150E+02 3.44120E+01 0.00000E+00
 -1       853 1.05150E+02 3.44120E+01 0.00000E+00
 -1       854 1.08150E+02 3.44120E+01 0.00000E+00
 -1       855 1.11150E+02 3.44120E+01 0.00000E+00
 -1       856 1.14150E+02 3.44120E+01 0.00000E+00
 -1       857 1.17150E+02 3.44120E+01 0.00000E+00
 -1       858 1.20150E+02 3.44120E+01 0.00000E+00
 -1       859 1.23150E+02 3.44120E+01 0.00000E+00
 -1       860 1.26150E+02 3.44120E+01 0.00000E+00
 -1       861 1.29150E+02 3.44120E+01 0.00000E+00
 -1       862 1.32150E+02 3.44120E+01 0.00000E+00
 -1       863 7.60740E+01 1.49649E+01 0.00000E+00
 -1       864 5.80740E+01 1.49649E+01 0.00000E+00
 -1       865 1.29900E+01 2.79188E+01 0.00000E+00
 -1       866 7.30740E+01 1.49649E+01 0.00000E+00
 -1       867 7.00740E+01 1.49649E+01 0.00000E+00
 -1       868 7.90740E+01 1.49649E+01 0.00000E+00
 -1       869 8.20740E+01 1.49649E+01 0.00000E+00
 -1       870 8.52240E+01 1.49649E+01 0.00000E+00
 -1       871 8.82240E+01 1.49649E+01 0.00000E+00
 -1       872 9.12240E+01 1.49649E+01 0.00000E+00
 -1       873 9.42240E+01 1.49649E+01 0.00000E+00
 -1       874 9.72240E+01 1.49649E+01 0.00000E+00
 -1       875 1.00224E+02 1.49649E+01 0.00000E+00
 -1       876 1.03224E+02 1.49649E+01 0.00000E+00
 -1       877 1.06224E+02 1.49649E+01 0.00000E+00
 -1       878 1.09224E+02 1.49649E+01 0.00000E+00
 -1       879 1.12224E+02 1.49649E+01 0.00000E+00
 -1       880 1.15224E+02 1.49649E+01 0.00000E+00
 -1       881 1.18224E+02 1.49649E+01 0.00000E+00
 -1       882 1.21224E+02 1.49649E+01 0.00000E+00
 -1       883 1.24224E+02 1.49649E+01 0.00000E+00
 -1       884 1.27224E+02 1.49649E+01 0.00000E+00
 -1       885 1.30224E+02 1.49649E+01 0.00000E+00
 -1       886 5.17464E+01 1.45774E+01 0.00000E+00
 -1       887 1.34412E+02 3.23500E+01 0.00000E+00
 -1       888 2.77472E+01 2.85282E+01 0.00000E+00
 -1       889 2.10082E+01 2.71231E+01 0.00000E+00
 -1       890 1.34412E+02 1.76750E+01 0.00000E+00
 -1       891 4.92446E+01 1.54452E+01 0.00000E+00
 -1       892 6.10740E+01 1.49649E+01 0.00000E+00
 -1       893 1.81500E+01 3.44120E+01 0.00000E+00
 -1       894 1.55700E+01 3.41029E+01 0.00000E+00
 -1       895 5.50740E+01 1.49649E+01 0.00000E+00
 -1       896 3.82612E+01 2.96807E+01 0.00000E+00
 -1       897 4.81059E+01 2.12040E+01 0.00000E+00
 -1       898 3.05243E+01 2.91487E+01 0.00000E+00
 -1       899 3.45719E+01 2.96758E+01 0.00000E+00
 -1       900 4.20298E+01 2.85459E+01 0.00000E+00
 -1       901 3.25481E+01 2.94122E+01 0.00000E+00
 -1       902 6.40740E+01 1.49649E+01 0.00000E+00
 -1       903 1.34412E+02 2.06250E+01 0.00000E+00
 -1       904 6.70740E+01 1.49649E+01 0.00000E+00
 -1       905 1.34394E+02 3.49702E+01 0.00000E+00
 -1       906 4.48046E+01 2.79146E+01 0.00000E+00
 -1       907 1.84417E+01 2.64934E+01 0.00000E+00
 -1       908 1.55880E+01 2.93875E+01 0.00000E+00
 -1       909 1.32668E+02 1.53494E+01 0.00000E+00
 -1       910 1.64831E+01 2.27587E+01 0.00000E+00
 -1       911 1.34412E+02 2.94250E+01 0.00000E+00
 -1       912 2.22771E+01 2.84604E+01 0.00000E+00
 -1       913 1.34412E+02 2.35750E+01 0.00000E+00
 -1       914 1.55790E+01 3.17452E+01 0.00000E+00
 -1       915 4.83650E+01 2.41038E+01 0.00000E+00
 -1       916 1.34412E+02 2.65000E+01 0.00000E+00
 -1       917 2.56500E+01 3.18140E+01 0.00000E+00
 -1       918 2.86500E+01 3.18140E+01 0.00000E+00
 -1       919 3.46500E+01 3.18140E+01 0.00000E+00
 -1       920 4.36500E+01 3.18140E+01 0.00000E+00
 -1       921 4.66500E+01 3.18140E+01 0.00000E+00
 -1       922 4.96500E+01 3.18140E+01 0.00000E+00
 -1       923 5.26500E+01 3.18140E+01 0.00000E+00
 -1       924 5.56500E+01 3.18140E+01 0.00000E+00
 -1       925 5.86500E+01 3.18140E+01 0.00000E+00
 -1       926 6.16500E+01 3.18140E+01 0.00000E+00
 -1       927 6.46500E+01 3.18140E+01 0.00000E+00
 -1       928 6.76500E+01 3.18140E+01 0.00000E+00
 -1       929 7.06500E+01 3.18140E+01 0.00000E+00
 -1       930 7.36500E+01 3.18140E+01 0.00000E+00
 -1       931 7.66500E+01 3.18140E+01 0.00000E+00
 -1       932 7.96500E+01 3.18140E+01 0.00000E+00
 -1       933 8.26500E+01 3.18140E+01 0.00000E+00
 -1       934 8.56500E+01 3.18140E+01 0.00000E+00
 -1       935 8.86500E+01 3.18140E+01 0.00000E+00
 -1       936 9.16500E+01 3.18140E+01 0.00000E+00
 -1       937 9.46500E+01 3.18140E+01 0.00000E+00
 -1       938 9.76500E+01 3.18140E+01 0.00000E+00
 -1       939 1.00650E+02 3.18140E+01 0.00000E+00
 -1       940 1.03650E+02 3.18140E+01 0.00000E+00
 -1       941 1.06650E+02 3.18140E+01 0.00000E+00
 -1       942 1.09650E+02 3.18140E+01 0.00000E+00
 -1       943 1.12650E+02 3.18140E+01 0.00000E+00
 -1       944 1.15650E+02 3.18140E+01 0.00000E+00
 -1       945 1.18650E+02 3.18140E+01 0.00000E+00
 -1       946 1.21650E+02 3.18140E+01 0.00000E+00
 -1       947 1.24650E+02 3.18140E+01 0.00000E+00
 -1       948 1.27650E+02 3.18140E+01 0.00000E+00
 -1       949 1.30650E+02 3.18140E+01 0.00000E+00
 -1       950 8.05740E+01 1.75629E+01 0.00000E+00
 -1       951 5.10713E+01 1.73656E+01 0.00000E+00
 -1       952 1.55880E+01 2.64438E+01 0.00000E+00
 -1       953 1.96500E+01 3.18140E+01 0.00000E+00
 -1       954 7.45740E+01 1.75629E+01 0.00000E+00
 -1       955 7.15740E+01 1.75629E+01 0.00000E+00
 -1       956 8.37240E+01 1.75629E+01 0.00000E+00
 -1       957 8.67240E+01 1.75629E+01 0.00000E+00
 -1       958 8.97240E+01 1.75629E+01 0.00000E+00
 -1       959 9.27240E+01 1.75629E+01 0.00000E+00
 -1       960 9.57240E+01 1.75629E+01 0.00000E+00
 -1       961 9.87240E+01 1.75629E+01 0.00000E+00
 -1       962 1.01724E+02 1.75629E+01 0.00000E+00
 -1       963 1.04724E+02 1.75629E+01 0.00000E+00
 -1       964 1.07724E+02 1.75629E+01 0.00000E+00
 -1       965 1.10724E+02 1.75629E+01 0.00000E+00
 -1       966 1.13724E+02 1.75629E+01 0.00000E+00
 -1       967 1.16724E+02 1.75629E+01 0.00000E+00
 -1       968 1.19724E+02 1.75629E+01 0.00000E+00
 -1       969 1.22724E+02 1.75629E+01 0.00000E+00
 -1       970 1.25724E+02 1.75629E+01 0.00000E+00
 -1       971 1.28724E+02 1.75629E+01 0.00000E+00
 -1       972 1.31568E+02 1.76189E+01 0.00000E+00
 -1       973 5.06077E+01 2.03362E+01 0.00000E+00
 -1       974 5.95740E+01 1.75629E+01 0.00000E+00
 -1       975 5.65740E+01 1.75629E+01 0.00000E+00
 -1       976 5.38226E+01 1.74642E+01 0.00000E+00
 -1       977 2.54784E+01 2.99657E+01 0.00000E+00
 -1       978 2.26500E+01 3.18140E+01 0.00000E+00
 -1       979 7.75740E+01 1.75629E+01 0.00000E+00
 -1       980 1.31814E+02 2.50375E+01 0.00000E+00
 -1       981 1.76145E+01 3.17796E+01 0.00000E+00
 -1       982 6.85740E+01 1.75629E+01 0.00000E+00
 -1       983 3.18372E+01 3.17803E+01 0.00000E+00
 -1       984 4.12590E+01 3.15667E+01 0.00000E+00
 -1       985 1.91059E+01 2.93314E+01 0.00000E+00
 -1       986 1.31814E+02 2.20875E+01 0.00000E+00
 -1       987 6.25740E+01 1.75629E+01 0.00000E+00
 -1       988 1.31814E+02 2.79625E+01 0.00000E+00
 -1       989 5.08669E+01 2.32360E+01 0.00000E+00
 -1       990 4.77802E+01 2.71628E+01 0.00000E+00
 -1       991 6.55740E+01 1.75629E+01 0.00000E+00
 -1       992 5.41500E+01 2.92160E+01 0.00000E+00
 -1       993 5.71500E+01 2.92160E+01 0.00000E+00
 -1       994 6.01500E+01 2.92160E+01 0.00000E+00
 -1       995 6.31500E+01 2.92160E+01 0.00000E+00
 -1       996 6.61500E+01 2.92160E+01 0.00000E+00
 -1       997 6.91500E+01 2.92160E+01 0.00000E+00
 -1       998 7.21500E+01 2.92160E+01 0.00000E+00
 -1       999 7.51500E+01 2.92160E+01 0.00000E+00
 -1      1000 7.81500E+01 2.92160E+01 0.00000E+00
 -1      1001 8.11500E+01 2.92160E+01 0.00000E+00
 -1      1002 8.41500E+01 2.92160E+01 0.00000E+00
 -1      1003 8.71500E+01 2.92160E+01 0.00000E+00
 -1      1004 9.01500E+01 2.92160E+01 0.00000E+00
 -1      1005 9.31500E+01 2.92160E+01 0.00000E+00
 -1      1006 9.61500E+01 2.92160E+01 0.00000E+00
 -1      1007 9.91500E+01 2.92160E+01 0.00000E+00
 -1      1008 1.02150E+02 2.92160E+01 0.00000E+00
 -1      1009 1.05150E+02 2.92160E+01 0.00000E+00
 -1      1010 1.08150E+02 2.92160E+01 0.00000E+00
 -1      1011 1.11150E+02 2.92160E+01 0.00000E+00
 -1      1012 1.14150E+02 2.92160E+01 0.00000E+00
 -1      1013 1.17150E+02 2.92160E+01 0.00000E+00
 -1      1014 1.20150E+02 2.92160E+01 0.00000E+00
 -1      1015 1.23150E+02 2.92160E+01 0.00000E+00
 -1      1016 1.26150E+02 2.92160E+01 0.00000E+00
 -1      1017 1.28982E+02 2.85893E+01 0.00000E+00
 -1      1018 8.52240E+01 2.01609E+01 0.00000E+00
 -1      1019 8.20740E+01 2.01609E+01 0.00000E+00
 -1      1020 8.82240E+01 2.01609E+01 0.00000E+00
 -1      1021 9.12240E+01 2.01609E+01 0.00000E+00
 -1      1022 9.42240E+01 2.01609E+01 0.00000E+00
 -1      1023 9.72240E+01 2.01609E+01 0.00000E+00
 -1      1024 1.00224E+02 2.01609E+01 0.00000E+00
 -1      1025 1.03224E+02 2.01609E+01 0.00000E+00
 -1      1026 1.06224E+02 2.01609E+01 0.00000E+00
 -1      1027 1.09224E+02 2.01609E+01 0.00000E+00
 -1      1028 1.12224E+02 2.01609E+01 0.00000E+00
 -1      1029 1.15224E+02 2.01609E+01 0.00000E+00
 -1      1030 1.18224E+02 2.01609E+01 0.00000E+00
 -1      1031 1.21224E+02 2.01609E+01 0.00000E+00
 -1      1032 1.24224E+02 2.01609E+01 0.00000E+00
 -1      1033 1.27224E+02 2.01609E+01 0.00000E+00
 -1      1034 5.80740E+01 2.01609E+01 0.00000E+00
 -1      1035 5.33591E+01 2.04349E+01 0.00000E+00
 -1      1036 7.60740E+01 2.01609E+01 0.00000E+00
 -1      1037 7.90740E+01 2.01609E+01 0.00000E+00
 -1      1038 7.30740E+01 2.01609E+01 0.00000E+00
 -1      1039 1.29216E+02 2.35625E+01 0.00000E+00
 -1      1040 6.10740E+01 2.01609E+01 0.00000E+00
 -1      1041 5.11500E+01 2.92160E+01 0.00000E+00
 -1      1042 1.28970E+02 2.05627E+01 0.00000E+00
 -1      1043 7.00740E+01 2.01609E+01 0.00000E+00
 -1      1044 5.02820E+01 2.62950E+01 0.00000E+00
 -1      1045 5.57165E+01 2.02979E+01 0.00000E+00
 -1      1046 1.29099E+02 2.60759E+01 0.00000E+00
 -1      1047 5.32820E+01 2.62950E+01 0.00000E+00
 -1      1048 5.86500E+01 2.66180E+01 0.00000E+00
 -1      1049 6.16500E+01 2.66180E+01 0.00000E+00
 -1      1050 6.46500E+01 2.66180E+01 0.00000E+00
 -1      1051 6.76500E+01 2.66180E+01 0.00000E+00
 -1      1052 7.06500E+01 2.66180E+01 0.00000E+00
 -1      1053 7.36500E+01 2.66180E+01 0.00000E+00
 -1      1054 7.66500E+01 2.66180E+01 0.00000E+00
 -1      1055 7.96500E+01 2.66180E+01 0.00000E+00
 -1      1056 8.26500E+01 2.66180E+01 0.00000E+00
 -1      1057 8.56500E+01 2.66180E+01 0.00000E+00
 -1      1058 8.86500E+01 2.66180E+01 0.00000E+00
 -1      1059 9.16500E+01 2.66180E+01 0.00000E+00
 -1      1060 9.46500E+01 2.66180E+01 0.00000E+00
 -1      1061 9.76500E+01 2.66180E+01 0.00000E+00
 -1      1062 1.00650E+02 2.66180E+01 0.00000E+00
 -1      1063 1.03650E+02 2.66180E+01 0.00000E+00
 -1      1064 1.06650E+02 2.66180E+01 0.00000E+00
 -1      1065 1.09650E+02 2.66180E+01 0.00000E+00
 -1      1066 1.12650E+02 2.66180E+01 0.00000E+00
 -1      1067 1.15650E+02 2.66180E+01 0.00000E+00
 -1      1068 1.18650E+02 2.66180E+01 0.00000E+00
 -1      1069 1.21650E+02 2.66180E+01 0.00000E+00
 -1      1070 1.24650E+02 2.66180E+01 0.00000E+00
 -1      1071 9.27240E+01 2.27589E+01 0.00000E+00
 -1      1072 1.27470E+02 2.31607E+01 0.00000E+00
 -1      1073 8.97240E+01 2.27589E+01 0.00000E+00
 -1      1074 8.67240E+01 2.27589E+01 0.00000E+00
 -1      1075 8.35740E+01 2.27589E+01 0.00000E+00
 -1      1076 9.57240E+01 2.27589E+01 0.00000E+00
 -1      1077 9.87240E+01 2.27589E+01 0.00000E+00
 -1      1078 1.01724E+02 2.27589E+01 0.00000E+00
 -1      1079 1.04724E+02 2.27589E+01 0.00000E+00
 -1      1080 1.07724E+02 2.27589E+01 0.00000E+00
 -1      1081 1.10724E+02 2.27589E+01 0.00000E+00
 -1      1082 1.13724E+02 2.27589E+01 0.00000E+00
 -1      1083 1.16724E+02 2.27589E+01 0.00000E+00
 -1      1084 1.19724E+02 2.27589E+01 0.00000E+00
 -1      1085 1.22724E+02 2.27589E+01 0.00000E+00
 -1      1086 1.25097E+02 2.29598E+01 0.00000E+00
 -1      1087 7.45740E+01 2.27589E+01 0.00000E+00
 -1      1088 5.40539E+01 2.35623E+01 0.00000E+00
 -1      1089 5.59660E+01 2.64565E+01 0.00000E+00
 -1      1090 6.40740E+01 2.01609E+01 0.00000E+00
 -1      1091 6.70740E+01 2.01609E+01 0.00000E+00
 -1      1092 5.95740E+01 2.27589E+01 0.00000E+00
 -1      1093 1.26874E+02 2.63469E+01 0.00000E+00
 -1      1094 7.15740E+01 2.27589E+01 0.00000E+00
 -1      1095 7.75740E+01 2.27589E+01 0.00000E+00
 -1      1096 5.72165E+01 2.28959E+01 0.00000E+00
 -1      1097 1.27172E+02 2.47538E+01 0.00000E+00
 -1      1098 8.05740E+01 2.27589E+01 0.00000E+00
 -1      1099 6.25740E+01 2.27589E+01 0.00000E+00
 -1      1100 6.91500E+01 2.40200E+01 0.00000E+00
 -1      1101 6.59000E+01 2.34576E+01 0.00000E+00
 -1      1102 0.00000E+00 4.85250E+01 0.00000E+00
 -1      1103 0.00000E+00 4.55750E+01 0.00000E+00
 -1      1104 0.00000E+00 4.26250E+01 0.00000E+00
 -1      1105 0.00000E+00 3.96750E+01 0.00000E+00
 -1      1106 0.00000E+00 3.67250E+01 0.00000E+00
 -1      1107 0.00000E+00 3.38000E+01 0.00000E+00
 -1      1108 0.00000E+00 3.08750E+01 0.00000E+00
 -1      1109 0.00000E+00 2.79250E+01 0.00000E+00
 -1      1110 0.00000E+00 2.49750E+01 0.00000E+00
 -1      1111 0.00000E+00 2.20250E+01 0.00000E+00
 -1      1112 0.00000E+00 1.90750E+01 0.00000E+00
 -1      1113 0.00000E+00 1.61500E+01 0.00000E+00
 -1      1114 0.00000E+00 1.32250E+01 0.00000E+00
 -1      1115 0.00000E+00 1.02750E+01 0.00000E+00
 -1      1116 0.00000E+00 7.32500E+00 0.00000E+00
 -1      1117 0.00000E+00 4.37500E+00 0.00000E+00
 -1      1118 0.00000E+00 1.45000E+00 0.00000E+00
 -1      1119 1.57500E+00 5.00000E+01 0.00000E+00
 -1      1120 4.65000E+00 5.00000E+01 0.00000E+00
 -1      1121 7.65000E+00 5.00000E+01 0.00000E+00
 -1      1122 1.06500E+01 5.00000E+01 0.00000E+00
 -1      1123 1.36500E+01 5.00000E+01 0.00000E+00
 -1      1124 1.66500E+01 5.00000E+01 0.00000E+00
 -1      1125 1.96500E+01 5.00000E+01 0.00000E+00
 -1      1126 2.26500E+01 5.00000E+01 0.00000E+00
 -1      1127 2.56500E+01 5.00000E+01 0.00000E+00
 -1      1128 2.86500E+01 5.00000E+01 0.00000E+00
 -1      1129 3.16500E+01 5.00000E+01 0.00000E+00
 -1      1130 3.46500E+01 5.00000E+01 0.00000E+00
 -1      1131 3.76500E+01 5.00000E+01 0.00000E+00
 -1      1132 4.06500E+01 5.00000E+01 0.00000E+00
 -1      1133 4.36500E+01 5.00000E+01 0.00000E+00
 -1      1134 4.66500E+01 5.00000E+01 0.00000E+00
 -1      1135 4.96500E+01 5.00000E+01 0.00000E+00
 -1      1136 5.26500E+01 5.00000E+01 0.00000E+00
 -1      1137 5.56500E+01 5.00000E+01 0.00000E+00
 -1      1138 5.86500E+01 5.00000E+01 0.00000E+00
 -1      1139 6.16500E+01 5.00000E+01 0.00000E+00
 -1      1140 6.46500E+01 5.00000E+01 0.00000E+00
 -1      1141 6.76500E+01 5.00000E+01 0.00000E+00
 -1      1142 7.06500E+01 5.00000E+01 0.00000E+00
 -1      1143 7.36500E+01 5.00000E+01 0.00000E+00
 -1      1144 7.66500E+01 5.00000E+01 0.00000E+00
 -1      1145 7.96500E+01 5.00000E+01 0.00000E+00
 -1      1146 8.26500E+01 5.00000E+01 0.00000E+00
 -1      1147 8.56500E+01 5.00000E+01 0.00000E+00
 -1      1148 8.86500E+01 5.00000E+01 0.00000E+00
 -1      1149 9.16500E+01 5.00000E+01 0.00000E+00
 -1      1150 9.46500E+01 5.00000E+01 0.00000E+00
 -1      1151 9.76500E+01 5.00000E+01 0.00000E+00
 -1      1152 1.00650E+02 5.00000E+01 0.00000E+00
 -1      1153 1.03650E+02 5.00000E+01 0.00000E+00
 -1      1154 1.06650E+02 5.00000E+01 0.00000E+00
 -1      1155 1.09650E+02 5.00000E+01 0.00000E+00
 -1      1156 1.12650E+02 5.00000E+01 0.00000E+00
 -1      1157 1.15650E+02 5.00000E+01 0.00000E+00
 -1      1158 1.18650E+02 5.00000E+01 0.00000E+00
 -1      1159 1.21650E+02 5.00000E+01 0.00000E+00
 -1      1160 1.24650E+02 5.00000E+01 0.00000E+00
 -1      1161 1.27650E+02 5.00000E+01 0.00000E+00
 -1      1162 1.30650E+02 5.00000E+01 0.00000E+00
 -1      1163 1.33650E+02 5.00000E+01 0.00000E+00
 -1      1164 1.36650E+02 5.00000E+01 0.00000E+00
 -1      1165 1.39650E+02 5.00000E+01 0.00000E+00
 -1      1166 1.42650E+02 5.00000E+01 0.00000E+00
 -1      1167 1.45650E+02 5.00000E+01 0.00000E+00
 -1      1168 1.48575E+02 5.00000E+01 0.00000E+00
 -1      1169 1.57500E+00 0.00000E+00 0.00000E+00
 -1      1170 4.65000E+00 0.00000E+00 0.00000E+00
 -1      1171 7.65000E+00 0.00000E+00 0.00000E+00
 -1      1172 1.06500E+01 0.00000E+00 0.00000E+00
 -1      1173 1.36500E+01 0.00000E+00 0.00000E+00
 -1      1174 1.66500E+01 0.00000E+00 0.00000E+00
 -1      1175 1.96500E+01 0.00000E+00 0.00000E+00
 -1      1176 2.26500E+01 0.00000E+00 0.00000E+00
 -1      1177 2.54250E+01 0.00000E+00 0.00000E+00
 -1      1178 2.79000E+01 0.00000E+00 0.00000E+00
 -1      1179 3.03000E+01 0.00000E+00 0.00000E+00
 -1      1180 3.25500E+01 0.00000E+00 0.00000E+00
 -1      1181 3.48750E+01 0.00000E+00 0.00000E+00
 -1      1182 3.75000E+01 0.00000E+00 0.00000E+00
 -1      1183 4.03500E+01 0.00000E+00 0.00000E+00
 -1      1184 4.33500E+01 0.00000E+00 0.00000E+00
 -1      1185 4.63500E+01 0.00000E+00 0.00000E+00
 -1      1186 4.93500E+01 0.00000E+00 0.00000E+00
 -1      1187 5.23500E+01 0.00000E+00 0.00000E+00
 -1      1188 5.53500E+01 0.00000E+00 0.00000E+00
 -1      1189 5.83500E+01 0.00000E+00 0.00000E+00
 -1      1190 6.13500E+01 0.00000E+00 0.00000E+00
 -1      1191 6.43500E+01 0.00000E+00 0.00000E+00
 -1      1192 6.73500E+01 0.00000E+00 0.00000E+00
 -1      1193 7.03500E+01 0.00000E+00 0.00000E+00
 -1      1194 7.33500E+01 0.00000E+00 0.00000E+00
 -1      1195 7.63500E+01 0.00000E+00 0.00000E+00
 -1      1196 7.93500E+01 0.00000E+00 0.00000E+00
 -1      1197 8.23500E+01 0.00000E+00 0.00000E+00
 -1      1198 8.53500E+01 0.00000E+00 0.00000E+00
 -1      1199 8.83500E+01 0.00000E+00 0.00000E+00
 -1      1200 9.14250E+01 0.00000E+00 0.00000E+00
 -1      1201 9.45000E+01 0.00000E+00 0.00000E+00
 -1      1202 9.75000E+01 0.00000E+00 0.00000E+00
 -1      1203 1.00500E+02 0.00000E+00 0.00000E+00
 -1      1204 1.03500E+02 0.00000E+00 0.00000E+00
 -1      1205 1.06500E+02 0.00000E+00 0.00000E+00
 -1      1206 1.09500E+02 0.00000E+00 0.00000E+00
 -1      1207 1.12500E+02 0.00000E+00 0.00000E+00
 -1      1208 1.15500E+02 0.00000E+00 0.00000E+00
 -1      1209 1.18500E+02 0.00000E+00 0.00000E+00
 -1      1210 1.21500E+02 0.00000E+00 0.00000E+00
 -1      1211 1.24500E+02 0.00000E+00 0.00000E+00
 -1      1212 1.27500E+02 0.00000E+00 0.00000E+00
 -1      1213 1.30500E+02 0.00000E+00 0.00000E+00
 -1      1214 1.33500E+02 0.00000E+00 0.00000E+00
 -1      1215 1.36500E+02 0.00000E+00 0.00000E+00
 -1      1216 1.39500E+02 0.00000E+00 0.00000E+00
 -1      1217 1.42500E+02 0.00000E+00 0.00000E+00
 -1      1218 1.45500E+02 0.00000E+00 0.00000E+00
 -1      1219 1.48500E+02 0.00000E+00 0.00000E+00
 -1      1220 1.50000E+02 1.47500E+00 0.00000E+00
 -1      1221 1.50000E+02 4.42500E+00 0.00000E+00
 -1      1222 1.50000E+02 7.37500E+00 0.00000E+00
 -1      1223 1.50000E+02 1.03250E+01 0.00000E+00
 -1      1224 1.50000E+02 1.32750E+01 0.00000E+00
 -1      1225 1.50000E+02 1.62000E+01 0.00000E+00
 -1      1226 1.50000E+02 1.91250E+01 0.00000E+00
 -1      1227 1.50000E+02 2.20750E+01 0.00000E+00
 -1      1228 1.50000E+02 2.50250E+01 0.00000E+00
 -1      1229 1.50000E+02 2.79750E+01 0.00000E+00
 -1      1230 1.50000E+02 3.09250E+01 0.00000E+00
 -1      1231 1.50000E+02 3.38500E+01 0.00000E+00
 -1      1232 1.50000E+02 3.67750E+01 0.00000E+00
 -1      1233 1.50000E+02 3.97250E+01 0.00000E+00
 -1      1234 1.50000E+02 4.26750E+01 0.00000E+00
 -1      1235 1.50000E+02 4.56250E+01 0.00000E+00
 -1      1236 1.50000E+02 4.85500E+01 0.00000E+00
 -1      1237 3.92062E+01 1.19783E+01 0.00000E+00
 -1      1238 3.88898E+01 1.05155E+01 0.00000E+00
 -1      1239 3.82512E+01 9.12238E+00 0.00000E+00
 -1      1240 3.73211E+01 7.89779E+00 0.00000E+00
 -1      1241 3.62273E+01 6.96119E+00 0.00000E+00
 -1      1242 3.49642E+01 6.26788E+00 0.00000E+00
 -1      1243 3.35390E+01 5.83888E+00 0.00000E+00
 -1      1244 3.20809E+01 5.72026E+00 0.00000E+00
 -1      1245 3.05995E+01 5.91459E+00 0.00000E+00
 -1      1246 2.91814E+01 6.42456E+00 0.00000E+00
 -1      1247 2.79509E+01 7.19047E+00 0.00000E+00
 -1      1248 2.69358E+01 8.15675E+00 0.00000E+00
 -1      1249 2.61213E+01 9.32801E+00 0.00000E+00
 -1      1250 2.55459E+01 1.06895E+01 0.00000E+00
 -1      1251 2.52658E+01 1.21844E+01 0.00000E+00
 -1      1252 2.53156E+01 1.37068E+01 0.00000E+00
 -1      1253 2.56861E+01 1.51626E+01 0.00000E+00
 -1      1254 2.63823E+01 1.65423E+01 0.00000E+00
 -1      1255 2.73586E+01 1.77301E+01 0.00000E+00
 -1      1256 2.85530E+01 1.86652E+01 0.00000E+00
 -1      1257 2.99957E+01 1.93469E+01 0.00000E+00
 -1      1258 3.15112E+01 1.96797E+01 0.00000E+00
 -1      1259 3.29271E+01 1.96851E+01 0.00000E+00
 -1      1260 3.42849E+01 1.94146E+01 0.00000E+00
 -1      1261 3.55463E+01 1.88912E+01 0.00000E+00
 -1      1262 3.66577E+01 1.81527E+01 0.00000E+00
 -1      1263 3.76088E+01 1.72166E+01 0.00000E+00
 -1      1264 3.83947E+01 1.60629E+01 0.00000E+00
 -1      1265 3.89416E+01 1.47582E+01 0.00000E+00
 -1      1266 3.92111E+01 1.34108E+01 0.00000E+00
 -1      1267 1.57500E+00 4.85250E+01 0.00000E+00
 -1      1268 1.29900E+00 4.48375E+01 0.00000E+00
 -1      1269 1.29900E+00 4.63125E+01 0.00000E+00
 -1      1270 1.29900E+00 4.18875E+01 0.00000E+00
 -1      1271 1.29900E+00 4.33625E+01 0.00000E+00
 -1      1272 2.59800E+00 4.41000E+01 0.00000E+00
 -1      1273 1.29900E+00 3.89375E+01 0.00000E+00
 -1      1274 1.29900E+00 4.04125E+01 0.00000E+00
 -1      1275 2.59800E+00 4.11500E+01 0.00000E+00
 -1      1276 1.29900E+00 3.59875E+01 0.00000E+00
 -1      1277 1.29900E+00 3.74625E+01 0.00000E+00
 -1      1278 2.59800E+00 3.82000E+01 0.00000E+00
 -1      1279 1.29900E+00 3.30875E+01 0.00000E+00
 -1      1280 1.29900E+00 3.45375E+01 0.00000E+00
 -1      1281 2.59800E+00 3.52750E+01 0.00000E+00
 -1      1282 1.29900E+00 3.01375E+01 0.00000E+00
 -1      1283 1.29900E+00 3.16125E+01 0.00000E+00
 -1      1284 2.59800E+00 3.23500E+01 0.00000E+00
 -1      1285 1.29900E+00 2.71875E+01 0.00000E+00
 -1      1286 1.29900E+00 2.86625E+01 0.00000E+00
 -1      1287 2.59800E+00 2.94000E+01 0.00000E+00
 -1      1288 1.29900E+00 2.42375E+01 0.00000E+00
 -1      1289 1.29900E+00 2.57125E+01 0.00000E+00
 -1      1290 2.59800E+00 2.64500E+01 0.00000E+00
 -1      1291 1.29900E+00 2.12875E+01 0.00000E+00
 -1      1292 1.29900E+00 2.27625E+01 0.00000E+00
 -1      1293 2.59800E+00 2.35000E+01 0.00000E+00
 -1      1294 1.29900E+00 1.83375E+01 0.00000E+00
 -1      1295 1.29900E+00 1.98125E+01 0.00000E+00
 -1      1296 2.59800E+00 2.05500E+01 0.00000E+00
 -1      1297 1.29900E+00 1.54375E+01 0.00000E+00
 -1      1298 1.29900E+00 1.68875E+01 0.00000E+00
 -1      1299 2.59800E+00 1.76250E+01 0.00000E+00
 -1      1300 1.29900E+00 1.24875E+01 0.00000E+00
 -1      1301 1.29900E+00 1.39625E+01 0.00000E+00
 -1      1302 2.59800E+00 1.47000E+01 0.00000E+00
 -1      1303 1.29900E+00 9.53750E+00 0.00000E+00
 -1      1304 1.29900E+00 1.10125E+01 0.00000E+00
 -1      1305 2.59800E+00 1.17500E+01 0.00000E+00
 -1      1306 1.29900E+00 6.58750E+00 0.00000E+00
 -1      1307 1.29900E+00 8.06250E+00 0.00000E+00
 -1      1308 2.59800E+00 8.80000E+00 0.00000E+00
 -1      1309 1.29900E+00 3.63750E+00 0.00000E+00
 -1      1310 1.29900E+00 5.11250E+00 0.00000E+00
 -1      1311 2.59800E+00 5.85000E+00 0.00000E+00
 -1      1312 1.43700E+00 1.09375E+00 0.00000E+00
 -1      1313 1.43700E+00 2.54375E+00 0.00000E+00
 -1      1314 2.73600E+00 3.28125E+00 0.00000E+00
 -1      1315 3.01200E+00 1.09375E+00 0.00000E+00
 -1      1316 3.90000E+00 4.87010E+01 0.00000E+00
 -1      1317 5.40000E+00 4.87010E+01 0.00000E+00
 -1      1318 6.90000E+00 4.87010E+01 0.00000E+00
 -1      1319 8.40000E+00 4.87010E+01 0.00000E+00
 -1      1320 6.15000E+00 4.74020E+01 0.00000E+00
 -1      1321 9.90000E+00 4.87010E+01 0.00000E+00
 -1      1322 1.14000E+01 4.87010E+01 0.00000E+00
 -1      1323 9.15000E+00 4.74020E+01 0.00000E+00
 -1      1324 1.29000E+01 4.87010E+01 0.00000E+00
 -1      1325 1.44000E+01 4.87010E+01 0.00000E+00
 -1      1326 1.21500E+01 4.74020E+01 0.00000E+00
 -1      1327 1.59000E+01 4.87010E+01 0.00000E+00
 -1      1328 1.74000E+01 4.87010E+01 0.00000E+00
 -1      1329 1.51500E+01 4.74020E+01 0.00000E+00
 -1      1330 1.89000E+01 4.87010E+01 0.00000E+00
 -1      1331 2.04000E+01 4.87010E+01 0.00000E+00
 -1      1332 1.81500E+01 4.74020E+01 0.00000E+00
 -1      1333 2.19000E+01 4.87010E+01 0.00000E+00
 -1      1334 2.34000E+01 4.87010E+01 0.00000E+00
 -1      1335 2.11500E+01 4.74020E+01 0.00000E+00
 -1      1336 2.49000E+01 4.87010E+01 0.00000E+00
 -1      1337 2.64000E+01 4.87010E+01 0.00000E+00
 -1      1338 2.41500E+01 4.74020E+01 0.00000E+00
 -1      1339 2.79000E+01 4.87010E+01 0.00000E+00
 -1      1340 2.94000E+01 4.87010E+01 0.00000E+00
 -1      1341 2.71500E+01 4.74020E+01 0.00000E+00
 -1      1342 3.09000E+01 4.87010E+01 0.00000E+00
 -1      1343 3.24000E+01 4.87010E+01 0.00000E+00
 -1      1344 3.01500E+01 4.74020E+01 0.00000E+00
 -1      1345 3.39000E+01 4.87010E+01 0.00000E+00
 -1      1346 3.54000E+01 4.87010E+01 0.00000E+00
 -1      1347 3.31500E+01 4.74020E+01 0.00000E+00
 -1      1348 3.69000E+01 4.87010E+01 0.00000E+00
 -1      1349 3.84000E+01 4.87010E+01 0.00000E+00
 -1      1350 3.61500E+01 4.74020E+01 0.00000E+00
 -1      1351 3.99000E+01 4.87010E+01 0.00000E+00
 -1      1352 4.14000E+01 4.87010E+01 0.00000E+00
 -1      1353 3.91500E+01 4.74020E+01 0.00000E+00
 -1      1354 4.29000E+01 4.87010E+01 0.00000E+00
 -1      1355 4.44000E+01 4.87010E+01 0.00000E+00
 -1      1356 4.21500E+01 4.74020E+01 0.00000E+00
 -1      1357 4.59000E+01 4.87010E+01 0.00000E+00
 -1      1358 4.74000E+01 4.87010E+01 0.00000E+00
 -1      1359 4.51500E+01 4.74020E+01 0.00000E+00
 -1      1360 4.89000E+01 4.87010E+01 0.00000E+00
 -1      1361 5.04000E+01 4.87010E+01 0.00000E+00
 -1      1362 4.81500E+01 4.74020E+01 0.00000E+00
 -1      1363 5.19000E+01 4.87010E+01 0.00000E+00
 -1      1364 5.34000E+01 4.87010E+01 0.00000E+00
 -1      1365 5.11500E+01 4.74020E+01 0.00000E+00
 -1      1366 5.49000E+01 4.87010E+01 0.00000E+00
 -1      1367 5.64000E+01 4.87010E+01 0.00000E+00
 -1      1368 5.41500E+01 4.74020E+01 0.00000E+00
 -1      1369 5.79000E+01 4.87010E+01 0.00000E+00
 -1      1370 5.94000E+01 4.87010E+01 0.00000E+00
 -1      1371 5.71500E+01 4.74020E+01 0.00000E+00
 -1      1372 6.09000E+01 4.87010E+01 0.00000E+00
 -1      1373 6.24000E+01 4.87010E+01 0.00000E+00
 -1      1374 6.01500E+01 4.74020E+01 0.00000E+00
 -1      1375 6.39000E+01 4.87010E+01 0.00000E+00
 -1      1376 6.54000E+01 4.87010E+01 0.00000E+00
 -1      1377 6.31500E+01 4.74020E+01 0.00000E+00
 -1      1378 6.69000E+01 4.87010E+01 0.00000E+00
 -1      1379 6.84000E+01 4.87010E+01 0.00000E+00
 -1      1380 6.61500E+01 4.74020E+01 0.00000E+00
 -1      1381 6.99000E+01 4.87010E+01 0.00000E+00
 -1      1382 7.14000E+01 4.87010E+01 0.00000E+00
 -1      1383 6.91500E+01 4.74020E+01 0.00000E+00
 -1      1384 7.29000E+01 4.87010E+01 0.00000E+00
 -1      1385 7.44000E+01 4.87010E+01 0.00000E+00
 -1      1386 7.21500E+01 4.74020E+01 0.00000E+00
 -1      1387 7.59000E+01 4.87010E+01 0.00000E+00
 -1      1388 7.74000E+01 4.87010E+01 0.00000E+00
 -1      1389 7.51500E+01 4.74020E+01 0.00000E+00
 -1      1390 7.89000E+01 4.87010E+01 0.00000E+00
 -1      1391 8.04000E+01 4.87010E+01 0.00000E+00
 -1      1392 7.81500E+01 4.74020E+01 0.00000E+00
 -1      1393 8.19000E+01 4.87010E+01 0.00000E+00
 -1      1394 8.34000E+01 4.87010E+01 0.00000E+00
 -1      1395 8.11500E+01 4.74020E+01 0.00000E+00
 -1      1396 8.49000E+01 4.87010E+01 0.00000E+00
 -1      1397 8.64000E+01 4.87010E+01 0.00000E+00
 -1      1398 8.41500E+01 4.74020E+01 0.00000E+00
 -1      1399 8.79000E+01 4.87010E+01 0.00000E+00
 -1      1400 8.94000E+01 4.87010E+01 0.00000E+00
 -1      1401 8.71500E+01 4.74020E+01 0.00000E+00
 -1      1402 9.09000E+01 4.87010E+01 0.00000E+00
 -1      1403 9.24000E+01 4.87010E+01 0.00000E+00
 -1      1404 9.01500E+01 4.74020E+01 0.00000E+00
 -1      1405 9.39000E+01 4.87010E+01 0.00000E+00
 -1      1406 9.54000E+01 4.87010E+01 0.00000E+00
 -1      1407 9.31500E+01 4.74020E+01 0.00000E+00
 -1      1408 9.69000E+01 4.87010E+01 0.00000E+00
 -1      1409 9.84000E+01 4.87010E+01 0.00000E+00
 -1      1410 9.61500E+01 4.74020E+01 0.00000E+00
 -1      1411 9.99000E+01 4.87010E+01 0.00000E+00
 -1      1412 1.01400E+02 4.87010E+01 0.00000E+00
 -1      1413 9.91500E+01 4.74020E+01 0.00000E+00
 -1      1414 1.02900E+02 4.87010E+01 0.00000E+00
 -1      1415 1.04400E+02 4.87010E+01 0.00000E+00
 -1      1416 1.02150E+02 4.74020E+01 0.00000E+00
 -1      1417 1.05900E+02 4.87010E+01 0.00000E+00
 -1      1418 1.07400E+02 4.87010E+01 0.00000E+00
 -1      1419 1.05150E+02 4.74020E+01 0.00000E+00
 -1      1420 1.08900E+02 4.87010E+01 0.00000E+00
 -1      1421 1.10400E+02 4.87010E+01 0.00000E+00
 -1      1422 1.08150E+02 4.74020E+01 0.00000E+00
 -1      1423 1.11900E+02 4.87010E+01 0.00000E+00
 -1      1424 1.13400E+02 4.87010E+01 0.00000E+00
 -1      1425 1.11150E+02 4.74020E+01 0.00000E+00
 -1      1426 1.14900E+02 4.87010E+01 0.00000E+00
 -1      1427 1.16400E+02 4.87010E+01 0.00000E+00
 -1      1428 1.14150E+02 4.74020E+01 0.00000E+00
 -1      1429 1.17900E+02 4.87010E+01 0.00000E+00
 -1      1430 1.19400E+02 4.87010E+01 0.00000E+00
 -1      1431 1.17150E+02 4.74020E+01 0.00000E+00
 -1      1432 1.20900E+02 4.87010E+01 0.00000E+00
 -1      1433 1.22400E+02 4.87010E+01 0.00000E+00
 -1      1434 1.20150E+02 4.74020E+01 0.00000E+00
 -1      1435 1.23900E+02 4.87010E+01 0.00000E+00
 -1      1436 1.25400E+02 4.87010E+01 0.00000E+00
 -1      1437 1.23150E+02 4.74020E+01 0.00000E+00
 -1      1438 1.26900E+02 4.87010E+01 0.00000E+00
 -1      1439 1.28400E+02 4.87010E+01 0.00000E+00
 -1      1440 1.26150E+02 4.74020E+01 0.00000E+00
 -1      1441 1.29900E+02 4.87010E+01 0.00000E+00
 -1      1442 1.31400E+02 4.87010E+01 0.00000E+00
 -1      1443 1.29150E+02 4.74020E+01 0.00000E+00
 -1      1444 1.32900E+02 4.87010E+01 0.00000E+00
 -1      1445 1.34400E+02 4.87010E+01 0.00000E+00
 -1      1446 1.32150E+02 4.74020E+01 0.00000E+00
 -1      1447 1.35900E+02 4.87010E+01 0.00000E+00
 -1      1448 1.37400E+02 4.87010E+01 0.00000E+00
 -1      1449 1.35150E+02 4.74020E+01 0.00000E+00
 -1      1450 1.38900E+02 4.87010E+01 0.00000E+00
 -1      1451 1.40400E+02 4.87010E+01 0.00000E+00
 -1      1452 1.38150E+02 4.74020E+01 0.00000E+00
 -1      1453 1.41900E+02 4.87010E+01 0.00000E+00
 -1      1454 1.43400E+02 4.87010E+01 0.00000E+00
 -1      1455 1.41150E+02 4.74020E+01 0.00000E+00
 -1      1456 1.44900E+02 4.87010E+01 0.00000E+00
 -1      1457 1.46400E+02 4.87010E+01 0.00000E+00
 -1      1458 1.44150E+02 4.74020E+01 0.00000E+00
 -1      1459 1.48575E+02 4.85500E+01 0.00000E+00
 -1      1460 1.47825E+02 4.72510E+01 0.00000E+00
 -1      1461 6.01200E+00 1.09375E+00 0.00000E+00
 -1      1462 4.51200E+00 1.09375E+00 0.00000E+00
 -1      1463 4.37400E+00 2.18750E+00 0.00000E+00
 -1      1464 9.01200E+00 1.09375E+00 0.00000E+00
 -1      1465 7.51200E+00 1.09375E+00 0.00000E+00
 -1      1466 7.37400E+00 2.18750E+00 0.00000E+00
 -1      1467 1.20120E+01 1.09375E+00 0.00000E+00
 -1      1468 1.05120E+01 1.09375E+00 0.00000E+00
 -1      1469 1.03740E+01 2.18750E+00 0.00000E+00
 -1      1470 1.50120E+01 1.09375E+00 0.00000E+00
 -1      1471 1.35120E+01 1.09375E+00 0.00000E+00
 -1      1472 1.33740E+01 2.18750E+00 0.00000E+00
 -1      1473 1.80120E+01 1.09375E+00 0.00000E+00
 -1      1474 1.65120E+01 1.09375E+00 0.00000E+00
 -1      1475 1.63740E+01 2.18750E+00 0.00000E+00
 -1      1476 2.10120E+01 1.09375E+00 0.00000E+00
 -1      1477 1.95120E+01 1.09375E+00 0.00000E+00
 -1      1478 1.93740E+01 2.18750E+00 0.00000E+00
 -1      1479 2.40120E+01 1.09375E+00 0.00000E+00
 -1      1480 2.25120E+01 1.09375E+00 0.00000E+00
 -1      1481 2.23740E+01 2.18750E+00 0.00000E+00
 -1      1482 2.65620E+01 1.09375E+00 0.00000E+00
 -1      1483 2.52870E+01 1.09375E+00 0.00000E+00
 -1      1484 2.51490E+01 2.18750E+00 0.00000E+00
 -1      1485 2.89620E+01 1.09375E+00 0.00000E+00
 -1      1486 2.77620E+01 1.09375E+00 0.00000E+00
 -1      1487 2.76240E+01 2.18750E+00 0.00000E+00
 -1      1488 3.13620E+01 1.09375E+00 0.00000E+00
 -1      1489 3.01620E+01 1.09375E+00 0.00000E+00
 -1      1490 3.00240E+01 2.18750E+00 0.00000E+00
 -1      1491 3.34620E+01 1.09375E+00 0.00000E+00
 -1      1492 3.24120E+01 1.09375E+00 0.00000E+00
 -1      1493 3.22740E+01 2.18750E+00 0.00000E+00
 -1      1494 3.60120E+01 1.09375E+00 0.00000E+00
 -1      1495 3.47370E+01 1.09375E+00 0.00000E+00
 -1      1496 3.45990E+01 2.18750E+00 0.00000E+00
 -1      1497 3.87120E+01 1.09375E+00 0.00000E+00
 -1      1498 3.73620E+01 1.09375E+00 0.00000E+00
 -1      1499 3.72240E+01 2.18750E+00 0.00000E+00
 -1      1500 4.17120E+01 1.09375E+00 0.00000E+00
 -1      1501 4.02120E+01 1.09375E+00 0.00000E+00
 -1      1502 4.00740E+01 2.18750E+00 0.00000E+00
 -1      1503 4.47120E+01 1.09375E+00 0.00000E+00
 -1      1504 4.32120E+01 1.09375E+00 0.00000E+00
 -1      1505 4.30740E+01 2.18750E+00 0.00000E+00
 -1      1506 4.77120E+01 1.09375E+00 0.00000E+00
 -1      1507 4.62120E+01 1.09375E+00 0.00000E+00
 -1      1508 4.60740E+01 2.18750E+00 0.00000E+00
 -1      1509 5.07120E+01 1.09375E+00 0.00000E+00
 -1      1510 4.92120E+01 1.09375E+00 0.00000E+00
 -1      1511 4.90740E+01 2.18750E+00 0.00000E+00
 -1      1512 5.37120E+01 1.09375E+00 0.00000E+00
 -1      1513 5.22120E+01 1.09375E+00 0.00000E+00
 -1      1514 5.20740E+01 2.18750E+00 0.00000E+00
 -1      1515 5.67120E+01 1.09375E+00 0.00000E+00
 -1      1516 5.52120E+01 1.09375E+00 0.00000E+00
 -1      1517 5.50740E+01 2.18750E+00 0.00000E+00
 -1      1518 5.97120E+01 1.09375E+00 0.00000E+00
 -1      1519 5.82120E+01 1.09375E+00 0.00000E+00
 -1      1520 5.80740E+01 2.18750E+00 0.00000E+00
 -1      1521 6.27120E+01 1.09375E+00 0.00000E+00
 -1      1522 6.12120E+01 1.09375E+00 0.00000E+00
 -1      1523 6.10740E+01 2.18750E+00 0.00000E+00
 -1      1524 6.57120E+01 1.09375E+00 0.00000E+00
 -1      1525 6.42120E+01 1.09375E+00 0.00000E+00
 -1      1526 6.40740E+01 2.18750E+00 0.00000E+00
 -1      1527 6.87120E+01 1.09375E+00 0.00000E+00
 -1      1528 6.72120E+01 1.09375E+00 0.00000E+00
 -1      1529 6.70740E+01 2.18750E+00 0.00000E+00
 -1      1530 7.17120E+01 1.09375E+00 0.00000E+00
 -1      1531 7.02120E+01 1.09375E+00 0.00000E+00
 -1      1532 7.00740E+01 2.18750E+00 0.00000E+00
 -1      1533 7.47120E+01 1.09375E+00 0.00000E+00
 -1      1534 7.32120E+01 1.09375E+00 0.00000E+00
 -1      1535 7.30740E+01 2.18750E+00 0.00000E+00
 -1      1536 7.77120E+01 1.09375E+00 0.00000E+00
 -1      1537 7.62120E+01 1.09375E+00 0.00000E+00
 -1      1538 7.60740E+01 2.18750E+00 0.00000E+00
 -1      1539 8.07120E+01 1.09375E+00 0.00000E+00
 -1      1540 7.92120E+01 1.09375E+00 0.00000E+00
 -1      1541 7.90740E+01 2.18750E+00 0.00000E+00
 -1      1542 8.37120E+01 1.09375E+00 0.00000E+00
 -1      1543 8.22120E+01 1.09375E+00 0.00000E+00
 -1      1544 8.20740E+01 2.18750E+00 0.00000E+00
 -1      1545 8.67120E+01 1.09375E+00 0.00000E+00
 -1      1546 8.52120E+01 1.09375E+00 0.00000E+00
 -1      1547 8.50740E+01 2.18750E+00 0.00000E+00
 -1      1548 8.97120E+01 1.09375E+00 0.00000E+00
 -1      1549 8.82120E+01 1.09375E+00 0.00000E+00
 -1      1550 8.80740E+01 2.18750E+00 0.00000E+00
 -1      1551 9.28620E+01 1.09375E+00 0.00000E+00
 -1      1552 9.12870E+01 1.09375E+00 0.00000E+00
 -1      1553 9.11490E+01 2.18750E+00 0.00000E+00
 -1      1554 9.58620E+01 1.09375E+00 0.00000E+00
 -1      1555 9.43620E+01 1.09375E+00 0.00000E+00
 -1      1556 9.42240E+01 2.18750E+00 0.00000E+00
 -1      1557 9.88620E+01 1.09375E+00 0.00000E+00
 -1      1558 9.73620E+01 1.09375E+00 0.00000E+00
 -1      1559 9.72240E+01 2.18750E+00 0.00000E+00
 -1      1560 1.01862E+02 1.09375E+00 0.00000E+00
 -1      1561 1.00362E+02 1.09375E+00 0.00000E+00
 -1      1562 1.00224E+02 2.18750E+00 0.00000E+00
 -1      1563 1.04862E+02 1.09375E+00 0.00000E+00
 -1      1564 1.03362E+02 1.09375E+00 0.00000E+00
 -1      1565 1.03224E+02 2.18750E+00 0.00000E+00
 -1      1566 1.07862E+02 1.09375E+00 0.00000E+00
 -1      1567 1.06362E+02 1.09375E+00 0.00000E+00
 -1      1568 1.06224E+02 2.18750E+00 0.00000E+00
 -1      1569 1.10862E+02 1.09375E+00 0.00000E+00
 -1      1570 1.09362E+02 1.09375E+00 0.00000E+00
 -1      1571 1.09224E+02 2.18750E+00 0.00000E+00
 -1      1572 1.13862E+02 1.09375E+00 0.00000E+00
 -1      1573 1.12362E+02 1.09375E+00 0.00000E+00
 -1      1574 1.12224E+02 2.18750E+00 0.00000E+00
 -1      1575 1.16862E+02 1.09375E+00 0.00000E+00
 -1      1576 1.15362E+02 1.09375E+00 0.00000E+00
 -1      1577 1.15224E+02 2.18750E+00 0.00000E+00
 -1      1578 1.19862E+02 1.09375E+00 0.00000E+00
 -1      1579 1.18362E+02 1.09375E+00 0.00000E+00
 -1      1580 1.18224E+02 2.18750E+00 0.00000E+00
 -1      1581 1.22862E+02 1.09375E+00 0.00000E+00
 -1      1582 1.21362E+02 1.09375E+00 0.00000E+00
 -1      1583 1.21224E+02 2.18750E+00 0.00000E+00
 -1      1584 1.25862E+02 1.09375E+00 0.00000E+00
 -1      1585 1.24362E+02 1.09375E+00 0.00000E+00
 -1      1586 1.24224E+02 2.18750E+00 0.00000E+00
 -1      1587 1.28862E+02 1.09375E+00 0.00000E+00
 -1      1588 1.27362E+02 1.09375E+00 0.00000E+00
 -1      1589 1.27224E+02 2.18750E+00 0.00000E+00
 -1      1590 1.31862E+02 1.09375E+00 0.00000E+00
 -1      1591 1.30362E+02 1.09375E+00 0.00000E+00
 -1      1592 1.30224E+02 2.18750E+00 0.00000E+00
 -1      1593 1.34862E+02 1.09375E+00 0.00000E+00
 -1      1594 1.33362E+02 1.09375E+00 0.00000E+00
 -1      1595 1.33224E+02 2.18750E+00 0.00000E+00
 -1      1596 1.37862E+02 1.09375E+00 0.00000E+00
 -1      1597 1.36362E+02 1.09375E+00 0.00000E+00
 -1      1598 1.36224E+02 2.18750E+00 0.00000E+00
 -1      1599 1.40862E+02 1.09375E+00 0.00000E+00
 -1      1600 1.39362E+02 1.09375E+00 0.00000E+00
 -1      1601 1.39224E+02 2.18750E+00 0.00000E+00
 -1      1602 1.43862E+02 1.09375E+00 0.00000E+00
 -1      1603 1.42362E+02 1.09375E+00 0.00000E+00
 -1      1604 1.42224E+02 2.18750E+00 0.00000E+00
 -1      1605 1.46862E+02 1.09375E+00 0.00000E+00
 -1      1606 1.45362E+02 1.09375E+00 0.00000E+00
 -1      1607 1.45224E+02 2.18750E+00 0.00000E+00
 -1      1608 1.48500E+02 1.47500E+00 0.00000E+00
 -1      1609 1.48701E+02 5.16250E+00 0.00000E+00
 -1      1610 1.48701E+02 3.68750E+00 0.00000E+00
 -1      1611 1.48701E+02 8.11250E+00 0.00000E+00
 -1      1612 1.48701E+02 6.63750E+00 0.00000E+00
 -1      1613 1.47402E+02 5.90000E+00 0.00000E+00
 -1      1614 1.48701E+02 1.10625E+01 0.00000E+00
 -1      1615 1.48701E+02 9.58750E+00 0.00000E+00
 -1      1616 1.47402E+02 8.85000E+00 0.00000E+00
 -1      1617 1.48701E+02 1.40125E+01 0.00000E+00
 -1      1618 1.48701E+02 1.25375E+01 0.00000E+00
 -1      1619 1.47402E+02 1.18000E+01 0.00000E+00
 -1      1620 1.48701E+02 1.69125E+01 0.00000E+00
 -1      1621 1.48701E+02 1.54625E+01 0.00000E+00
 -1      1622 1.47402E+02 1.47250E+01 0.00000E+00
 -1      1623 1.48701E+02 1.98625E+01 0.00000E+00
 -1      1624 1.48701E+02 1.83875E+01 0.00000E+00
 -1      1625 1.47402E+02 1.76500E+01 0.00000E+00
 -1      1626 1.48701E+02 2.28125E+01 0.00000E+00
 -1      1627 1.48701E+02 2.13375E+01 0.00000E+00
 -1      1628 1.47402E+02 2.06000E+01 0.00000E+00
 -1      1629 1.48701E+02 2.57625E+01 0.00000E+00
 -1      1630 1.48701E+02 2.42875E+01 0.00000E+00
 -1      1631 1.47402E+02 2.35500E+01 0.00000E+00
 -1      1632 1.48701E+02 2.87125E+01 0.00000E+00
 -1      1633 1.48701E+02 2.72375E+01 0.00000E+00
 -1      1634 1.47402E+02 2.65000E+01 0.00000E+00
 -1      1635 1.48701E+02 3.16625E+01 0.00000E+00
 -1      1636 1.48701E+02 3.01875E+01 0.00000E+00
 -1      1637 1.47402E+02 2.94500E+01 0.00000E+00
 -1      1638 1.48701E+02 3.45625E+01 0.00000E+00
 -1      1639 1.48701E+02 3.31125E+01 0.00000E+00
 -1      1640 1.47402E+02 3.23750E+01 0.00000E+00
 -1      1641 1.48701E+02 3.75125E+01 0.00000E+00
 -1      1642 1.48701E+02 3.60375E+01 0.00000E+00
 -1      1643 1.47402E+02 3.53000E+01 0.00000E+00
 -1      1644 1.48701E+02 4.04625E+01 0.00000E+00
 -1      1645 1.48701E+02 3.89875E+01 0.00000E+00
 -1      1646 1.47402E+02 3.82500E+01 0.00000E+00
 -1      1647 1.48701E+02 4.34125E+01 0.00000E+00
 -1      1648 1.48701E+02 4.19375E+01 0.00000E+00
 -1      1649 1.47402E+02 4.12000E+01 0.00000E+00
 -1      1650 1.48263E+02 4.60692E+01 0.00000E+00
 -1      1651 1.48263E+02 4.45942E+01 0.00000E+00
 -1      1652 1.46964E+02 4.38568E+01 0.00000E+00
 -1      1653 1.46088E+02 4.62202E+01 0.00000E+00
 -1      1654 3.97726E+01 1.15460E+01 0.00000E+00
 -1      1655 3.98508E+01 1.22819E+01 0.00000E+00
 -1      1656 3.93072E+01 9.97853E+00 0.00000E+00
 -1      1657 3.95453E+01 1.06967E+01 0.00000E+00
 -1      1658 3.86428E+01 8.43573E+00 0.00000E+00
 -1      1659 3.90414E+01 9.10140E+00 0.00000E+00
 -1      1660 3.74986E+01 7.20389E+00 0.00000E+00
 -1      1661 3.80232E+01 7.75634E+00 0.00000E+00
 -1      1662 3.62746E+01 6.29684E+00 0.00000E+00
 -1      1663 3.68323E+01 6.68256E+00 0.00000E+00
 -1      1664 3.48809E+01 5.48374E+00 0.00000E+00
 -1      1665 3.55837E+01 5.78000E+00 0.00000E+00
 -1      1666 3.32875E+01 5.21314E+00 0.00000E+00
 -1      1667 3.40006E+01 5.34723E+00 0.00000E+00
 -1      1668 3.16971E+01 5.07806E+00 0.00000E+00
 -1      1669 3.24341E+01 5.06073E+00 0.00000E+00
 -1      1670 3.00791E+01 5.37282E+00 0.00000E+00
 -1      1671 3.08147E+01 5.19486E+00 0.00000E+00
 -1      1672 2.85964E+01 6.07994E+00 0.00000E+00
 -1      1673 2.92709E+01 5.75158E+00 0.00000E+00
 -1      1674 2.73244E+01 6.95388E+00 0.00000E+00
 -1      1675 2.78766E+01 6.52493E+00 0.00000E+00
 -1      1676 2.62740E+01 8.05108E+00 0.00000E+00
 -1      1677 2.67316E+01 7.51838E+00 0.00000E+00
 -1      1678 2.54484E+01 9.36948E+00 0.00000E+00
 -1      1679 2.57992E+01 8.73574E+00 0.00000E+00
 -1      1680 2.48955E+01 1.08862E+01 0.00000E+00
 -1      1681 2.51139E+01 1.01649E+01 0.00000E+00
 -1      1682 2.46324E+01 1.25208E+01 0.00000E+00
 -1      1683 2.46910E+01 1.17557E+01 0.00000E+00
 -1      1684 2.48093E+01 1.41607E+01 0.00000E+00
 -1      1685 2.47026E+01 1.34125E+01 0.00000E+00
 -1      1686 2.52465E+01 1.57248E+01 0.00000E+00
 -1      1687 2.49859E+01 1.50253E+01 0.00000E+00
 -1      1688 2.60257E+01 1.72517E+01 0.00000E+00
 -1      1689 2.55893E+01 1.65826E+01 0.00000E+00
 -1      1690 2.72271E+01 1.83940E+01 0.00000E+00
 -1      1691 2.66982E+01 1.78783E+01 0.00000E+00
 -1      1692 2.85425E+01 1.94198E+01 0.00000E+00
 -1      1693 2.78813E+01 1.90093E+01 0.00000E+00
 -1      1694 3.01494E+01 2.01657E+01 0.00000E+00
 -1      1695 2.93754E+01 1.99030E+01 0.00000E+00
 -1      1696 3.18123E+01 2.03243E+01 0.00000E+00
 -1      1697 3.10822E+01 2.02473E+01 0.00000E+00
 -1      1698 3.33221E+01 2.02221E+01 0.00000E+00
 -1      1699 3.26436E+01 2.02885E+01 0.00000E+00
 -1      1700 3.48118E+01 1.99385E+01 0.00000E+00
 -1      1701 3.41395E+01 2.01432E+01 0.00000E+00
 -1      1702 3.61095E+01 1.92418E+01 0.00000E+00
 -1      1703 3.55251E+01 1.95543E+01 0.00000E+00
 -1      1704 3.72802E+01 1.83865E+01 0.00000E+00
 -1      1705 3.67587E+01 1.88099E+01 0.00000E+00
 -1      1706 3.82621E+01 1.73321E+01 0.00000E+00
 -1      1707 3.78362E+01 1.78399E+01 0.00000E+00
 -1      1708 3.91422E+01 1.60522E+01 0.00000E+00
 -1      1709 3.87919E+01 1.66962E+01 0.00000E+00
 -1      1710 3.95890E+01 1.45991E+01 0.00000E+00
 -1      1711 3.93904E+01 1.52511E+01 0.00000E+00
 -1      1712 3.98144E+01 1.31228E+01 0.00000E+00
 -1      1713 3.97459E+01 1.38119E+01 0.00000E+00
 -1      1714 3.75645E+01 6.51247E+00 0.00000E+00
 -1      1715 3.88504E+01 7.71320E+00 0.00000E+00
 -1      1716 1.48362E+02 2.56875E+00 0.00000E+00
 -1      1717 1.47063E+02 3.30625E+00 0.00000E+00
 -1      1718 4.02289E+01 1.09961E+01 0.00000E+00
 -1      1719 3.97359E+01 9.26972E+00 0.00000E+00
 -1      1720 4.04198E+01 1.26864E+01 0.00000E+00
 -1      1721 3.62074E+01 5.47429E+00 0.00000E+00
 -1      1722 3.46363E+01 4.82094E+00 0.00000E+00
 -1      1723 3.29027E+01 4.53201E+00 0.00000E+00
 -1      1724 3.11670E+01 4.49640E+00 0.00000E+00
 -1      1725 2.94765E+01 4.99196E+00 0.00000E+00
 -1      1726 2.79485E+01 5.81570E+00 0.00000E+00
 -1      1727 2.66358E+01 6.82520E+00 0.00000E+00
 -1      1728 2.55682E+01 8.07436E+00 0.00000E+00
 -1      1729 2.47590E+01 9.55443E+00 0.00000E+00
 -1      1730 2.42200E+01 1.12193E+01 0.00000E+00
 -1      1731 2.40857E+01 1.29805E+01 0.00000E+00
 -1      1732 2.43324E+01 1.47367E+01 0.00000E+00
 -1      1733 2.48517E+01 1.64591E+01 0.00000E+00
 -1      1734 2.58670E+01 1.79436E+01 0.00000E+00
 -1      1735 2.71937E+01 1.91855E+01 0.00000E+00
 -1      1736 2.86809E+01 2.02839E+01 0.00000E+00
 -1      1737 3.04465E+01 2.08487E+01 0.00000E+00
 -1      1738 3.22106E+01 2.08945E+01 0.00000E+00
 -1      1739 3.38593E+01 2.07797E+01 0.00000E+00
 -1      1740 3.53899E+01 2.03168E+01 0.00000E+00
 -1      1741 3.67523E+01 1.95007E+01 0.00000E+00
 -1      1742 3.79576E+01 1.85222E+01 0.00000E+00
 -1      1743 3.90434E+01 1.73397E+01 0.00000E+00
 -1      1744 3.98214E+01 1.59028E+01 0.00000E+00
 -1      1745 4.02265E+01 1.43145E+01 0.00000E+00
 -1      1746 2.87400E+00 4.77875E+01 0.00000E+00
 -1      1747 3.89700E+00 4.04125E+01 0.00000E+00
 -1      1748 3.89700E+00 4.18875E+01 0.00000E+00
 -1      1749 3.89700E+00 4.33625E+01 0.00000E+00
 -1      1750 3.89700E+00 4.48375E+01 0.00000E+00
 -1      1751 5.19600E+00 4.26250E+01 0.00000E+00
 -1      1752 3.89700E+00 3.45500E+01 0.00000E+00
 -1      1753 3.89700E+00 3.60000E+01 0.00000E+00
 -1      1754 3.89700E+00 3.16000E+01 0.00000E+00
 -1      1755 3.89700E+00 3.30750E+01 0.00000E+00
 -1      1756 5.19600E+00 3.38000E+01 0.00000E+00
 -1      1757 3.89700E+00 2.86500E+01 0.00000E+00
 -1      1758 3.89700E+00 3.01250E+01 0.00000E+00
 -1      1759 5.19600E+00 3.08500E+01 0.00000E+00
 -1      1760 3.89700E+00 2.57000E+01 0.00000E+00
 -1      1761 3.89700E+00 2.71750E+01 0.00000E+00
 -1      1762 5.19600E+00 2.79000E+01 0.00000E+00
 -1      1763 3.89700E+00 2.27500E+01 0.00000E+00
 -1      1764 3.89700E+00 2.42250E+01 0.00000E+00
 -1      1765 5.19600E+00 2.49500E+01 0.00000E+00
 -1      1766 3.89700E+00 1.98000E+01 0.00000E+00
 -1      1767 3.89700E+00 2.12750E+01 0.00000E+00
 -1      1768 5.19600E+00 2.20000E+01 0.00000E+00
 -1      1769 3.89700E+00 1.69000E+01 0.00000E+00
 -1      1770 3.89700E+00 1.83500E+01 0.00000E+00
 -1      1771 5.19600E+00 1.90750E+01 0.00000E+00
 -1      1772 3.89700E+00 1.39500E+01 0.00000E+00
 -1      1773 3.89700E+00 1.54250E+01 0.00000E+00
 -1      1774 5.19600E+00 1.61500E+01 0.00000E+00
 -1      1775 3.89700E+00 1.10000E+01 0.00000E+00
 -1      1776 3.89700E+00 1.24750E+01 0.00000E+00
 -1      1777 5.19600E+00 1.32000E+01 0.00000E+00
 -1      1778 3.89700E+00 8.05000E+00 0.00000E+00
 -1      1779 3.89700E+00 9.52500E+00 0.00000E+00
 -1      1780 5.19600E+00 1.02500E+01 0.00000E+00
 -1      1781 3.89700E+00 5.10000E+00 0.00000E+00
 -1      1782 3.89700E+00 6.57500E+00 0.00000E+00
 -1      1783 5.19600E+00 7.30000E+00 0.00000E+00
 -1      1784 4.20450E+00 3.09687E+00 0.00000E+00
 -1      1785 4.06650E+00 4.19063E+00 0.00000E+00
 -1      1786 5.36550E+00 4.91563E+00 0.00000E+00
 -1      1787 5.70450E+00 3.09687E+00 0.00000E+00
 -1      1788 3.62400E+00 4.64885E+01 0.00000E+00
 -1      1789 8.70450E+00 3.09687E+00 0.00000E+00
 -1      1790 7.20450E+00 3.09687E+00 0.00000E+00
 -1      1791 7.03500E+00 4.00625E+00 0.00000E+00
 -1      1792 4.92300E+00 4.57510E+01 0.00000E+00
 -1      1793 8.40000E+00 4.61030E+01 0.00000E+00
 -1      1794 9.90000E+00 4.61030E+01 0.00000E+00
 -1      1795 1.14000E+01 4.61030E+01 0.00000E+00
 -1      1796 1.29000E+01 4.61030E+01 0.00000E+00
 -1      1797 1.06500E+01 4.48040E+01 0.00000E+00
 -1      1798 1.44000E+01 4.61030E+01 0.00000E+00
 -1      1799 1.59000E+01 4.61030E+01 0.00000E+00
 -1      1800 1.36500E+01 4.48040E+01 0.00000E+00
 -1      1801 1.74000E+01 4.61030E+01 0.00000E+00
 -1      1802 1.89000E+01 4.61030E+01 0.00000E+00
 -1      1803 1.66500E+01 4.48040E+01 0.00000E+00
 -1      1804 2.04000E+01 4.61030E+01 0.00000E+00
 -1      1805 2.19000E+01 4.61030E+01 0.00000E+00
 -1      1806 1.96500E+01 4.48040E+01 0.00000E+00
 -1      1807 2.34000E+01 4.61030E+01 0.00000E+00
 -1      1808 2.49000E+01 4.61030E+01 0.00000E+00
 -1      1809 2.26500E+01 4.48040E+01 0.00000E+00
 -1      1810 2.64000E+01 4.61030E+01 0.00000E+00
 -1      1811 2.79000E+01 4.61030E+01 0.00000E+00
 -1      1812 2.56500E+01 4.48040E+01 0.00000E+00
 -1      1813 2.94000E+01 4.61030E+01 0.00000E+00
 -1      1814 3.09000E+01 4.61030E+01 0.00000E+00
 -1      1815 2.86500E+01 4.48040E+01 0.00000E+00
 -1      1816 3.24000E+01 4.61030E+01 0.00000E+00
 -1      1817 3.39000E+01 4.61030E+01 0.00000E+00
 -1      1818 3.16500E+01 4.48040E+01 0.00000E+00
 -1      1819 3.54000E+01 4.61030E+01 0.00000E+00
 -1      1820 3.69000E+01 4.61030E+01 0.00000E+00
 -1      1821 3.46500E+01 4.48040E+01 0.00000E+00
 -1      1822 3.84000E+01 4.61030E+01 0.00000E+00
 -1      1823 3.99000E+01 4.61030E+01 0.00000E+00
 -1      1824 3.76500E+01 4.48040E+01 0.00000E+00
 -1      1825 4.14000E+01 4.61030E+01 0.00000E+00
 -1      1826 4.29000E+01 4.61030E+01 0.00000E+00
 -1      1827 4.06500E+01 4.48040E+01 0.00000E+00
 -1      1828 4.44000E+01 4.61030E+01 0.00000E+00
 -1      1829 4.59000E+01 4.61030E+01 0.00000E+00
 -1      1830 4.36500E+01 4.48040E+01 0.00000E+00
 -1      1831 4.74000E+01 4.61030E+01 0.00000E+00
 -1      1832 4.89000E+01 4.61030E+01 0.00000E+00
 -1      1833 4.66500E+01 4.48040E+01 0.00000E+00
 -1      1834 5.04000E+01 4.61030E+01 0.00000E+00
 -1      1835 5.19000E+01 4.61030E+01 0.00000E+00
 -1      1836 4.96500E+01 4.48040E+01 0.00000E+00
 -1      1837 5.34000E+01 4.61030E+01 0.00000E+00
 -1      1838 5.49000E+01 4.61030E+01 0.00000E+00
 -1      1839 5.26500E+01 4.48040E+01 0.00000E+00
 -1      1840 5.64000E+01 4.61030E+01 0.00000E+00
 -1      1841 5.79000E+01 4.61030E+01 0.00000E+00
 -1      1842 5.56500E+01 4.48040E+01 0.00000E+00
 -1      1843 5.94000E+01 4.61030E+01 0.00000E+00
 -1      1844 6.09000E+01 4.61030E+01 0.00000E+00
 -1      1845 5.86500E+01 4.48040E+01 0.00000E+00
 -1      1846 6.24000E+01 4.61030E+01 0.00000E+00
 -1      1847 6.39000E+01 4.61030E+01 0.00000E+00
 -1      1848 6.16500E+01 4.48040E+01 0.00000E+00
 -1      1849 6.54000E+01 4.61030E+01 0.00000E+00
 -1      1850 6.69000E+01 4.61030E+01 0.00000E+00
 -1      1851 6.46500E+01 4.48040E+01 0.00000E+00
 -1      1852 6.84000E+01 4.61030E+01 0.00000E+00
 -1      1853 6.99000E+01 4.61030E+01 0.00000E+00
 -1      1854 6.76500E+01 4.48040E+01 0.00000E+00
 -1      1855 7.14000E+01 4.61030E+01 0.00000E+00
 -1      1856 7.29000E+01 4.61030E+01 0.00000E+00
 -1      1857 7.06500E+01 4.48040E+01 0.00000E+00
 -1      1858 7.44000E+01 4.61030E+01 0.00000E+00
 -1      1859 7.59000E+01 4.61030E+01 0.00000E+00
 -1      1860 7.36500E+01 4.48040E+01 0.00000E+00
 -1      1861 7.74000E+01 4.61030E+01 0.00000E+00
 -1      1862 7.89000E+01 4.61030E+01 0.00000E+00
 -1      1863 7.66500E+01 4.48040E+01 0.00000E+00
 -1      1864 8.04000E+01 4.61030E+01 0.00000E+00
 -1      1865 8.19000E+01 4.61030E+01 0.00000E+00
 -1      1866 7.96500E+01 4.48040E+01 0.00000E+00
 -1      1867 8.34000E+01 4.61030E+01 0.00000E+00
 -1      1868 8.49000E+01 4.61030E+01 0.00000E+00
 -1      1869 8.26500E+01 4.48040E+01 0.00000E+00
 -1      1870 8.64000E+01 4.61030E+01 0.00000E+00
 -1      1871 8.79000E+01 4.61030E+01 0.00000E+00
 -1      1872 8.56500E+01 4.48040E+01 0.00000E+00
 -1      1873 8.94000E+01 4.61030E+01 0.00000E+00
 -1      1874 9.09000E+01 4.61030E+01 0.00000E+00
 -1      1875 8.86500E+01 4.48040E+01 0.00000E+00
 -1      1876 9.24000E+01 4.61030E+01 0.00000E+00
 -1      1877 9.39000E+01 4.61030E+01 0.00000E+00
 -1      1878 9.16500E+01 4.48040E+01 0.00000E+00
 -1      1879 9.54000E+01 4.61030E+01 0.00000E+00
 -1      1880 9.69000E+01 4.61030E+01 0.00000E+00
 -1      1881 9.46500E+01 4.48040E+01 0.00000E+00
 -1      1882 9.84000E+01 4.61030E+01 0.00000E+00
 -1      1883 9.99000E+01 4.61030E+01 0.00000E+00
 -1      1884 9.76500E+01 4.48040E+01 0.00000E+00
 -1      1885 1.01400E+02 4.61030E+01 0.00000E+00
 -1      1886 1.02900E+02 4.61030E+01 0.00000E+00
 -1      1887 1.00650E+02 4.48040E+01 0.00000E+00
 -1      1888 1.04400E+02 4.61030E+01 0.00000E+00
 -1      1889 1.05900E+02 4.61030E+01 0.00000E+00
 -1      1890 1.03650E+02 4.48040E+01 0.00000E+00
 -1      1891 1.07400E+02 4.61030E+01 0.00000E+00
 -1      1892 1.08900E+02 4.61030E+01 0.00000E+00
 -1      1893 1.06650E+02 4.48040E+01 0.00000E+00
 -1      1894 1.10400E+02 4.61030E+01 0.00000E+00
 -1      1895 1.11900E+02 4.61030E+01 0.00000E+00
 -1      1896 1.09650E+02 4.48040E+01 0.00000E+00
 -1      1897 1.13400E+02 4.61030E+01 0.00000E+00
 -1      1898 1.14900E+02 4.61030E+01 0.00000E+00
 -1      1899 1.12650E+02 4.48040E+01 0.00000E+00
 -1      1900 1.16400E+02 4.61030E+01 0.00000E+00
 -1      1901 1.17900E+02 4.61030E+01 0.00000E+00
 -1      1902 1.15650E+02 4.48040E+01 0.00000E+00
 -1      1903 1.19400E+02 4.61030E+01 0.00000E+00
 -1      1904 1.20900E+02 4.61030E+01 0.00000E+00
 -1      1905 1.18650E+02 4.48040E+01 0.00000E+00
 -1      1906 1.22400E+02 4.61030E+01 0.00000E+00
 -1      1907 1.23900E+02 4.61030E+01 0.00000E+00
 -1      1908 1.21650E+02 4.48040E+01 0.00000E+00
 -1      1909 1.25400E+02 4.61030E+01 0.00000E+00
 -1      1910 1.26900E+02 4.61030E+01 0.00000E+00
 -1      1911 1.24650E+02 4.48040E+01 0.00000E+00
 -1      1912 1.28400E+02 4.61030E+01 0.00000E+00
 -1      1913 1.29900E+02 4.61030E+01 0.00000E+00
 -1      1914 1.27650E+02 4.48040E+01 0.00000E+00
 -1      1915 1.31400E+02 4.61030E+01 0.00000E+00
 -1      1916 1.32900E+02 4.61030E+01 0.00000E+00
 -1      1917 1.30650E+02 4.48040E+01 0.00000E+00
 -1      1918 1.34400E+02 4.61030E+01 0.00000E+00
 -1      1919 1.35900E+02 4.61030E+01 0.00000E+00
 -1      1920 1.33650E+02 4.48040E+01 0.00000E+00
 -1      1921 1.37400E+02 4.61030E+01 0.00000E+00
 -1      1922 1.38900E+02 4.61030E+01 0.00000E+00
 -1      1923 1.36650E+02 4.48040E+01 0.00000E+00
 -1      1924 1.40400E+02 4.61030E+01 0.00000E+00
 -1      1925 1.41900E+02 4.61030E+01 0.00000E+00
 -1      1926 1.39650E+02 4.48040E+01 0.00000E+00
 -1      1927 1.43244E+02 4.61616E+01 0.00000E+00
 -1      1928 1.44744E+02 4.61616E+01 0.00000E+00
 -1      1929 1.45182E+02 4.49799E+01 0.00000E+00
 -1      1930 1.42494E+02 4.48626E+01 0.00000E+00
 -1      1931 1.17045E+01 3.09687E+00 0.00000E+00
 -1      1932 1.02045E+01 3.09687E+00 0.00000E+00
 -1      1933 1.00350E+01 4.00625E+00 0.00000E+00
 -1      1934 1.47045E+01 3.09687E+00 0.00000E+00
 -1      1935 1.32045E+01 3.09687E+00 0.00000E+00
 -1      1936 1.30350E+01 4.00625E+00 0.00000E+00
 -1      1937 1.77045E+01 3.09687E+00 0.00000E+00
 -1      1938 1.62045E+01 3.09687E+00 0.00000E+00
 -1      1939 1.60350E+01 4.00625E+00 0.00000E+00
 -1      1940 2.07045E+01 3.09687E+00 0.00000E+00
 -1      1941 1.92045E+01 3.09687E+00 0.00000E+00
 -1      1942 1.90350E+01 4.00625E+00 0.00000E+00
 -1      1943 2.37045E+01 3.09687E+00 0.00000E+00
 -1      1944 2.22045E+01 3.09687E+00 0.00000E+00
 -1      1945 2.20350E+01 4.00625E+00 0.00000E+00
 -1      1946 2.82240E+01 3.12884E+00 0.00000E+00
 -1      1947 2.70240E+01 3.12884E+00 0.00000E+00
 -1      1948 3.07543E+01 3.40035E+00 0.00000E+00
 -1      1949 2.95543E+01 3.40035E+00 0.00000E+00
 -1      1950 3.26867E+01 3.28355E+00 0.00000E+00
 -1      1951 3.16367E+01 3.28355E+00 0.00000E+00
 -1      1952 3.78990E+01 3.04506E+00 0.00000E+00
 -1      1953 3.65490E+01 3.04506E+00 0.00000E+00
 -1      1954 4.08240E+01 3.29641E+00 0.00000E+00
 -1      1955 3.93240E+01 3.29641E+00 0.00000E+00
 -1      1956 4.38240E+01 3.38020E+00 0.00000E+00
 -1      1957 4.23240E+01 3.38020E+00 0.00000E+00
 -1      1958 4.68240E+01 3.38020E+00 0.00000E+00
 -1      1959 4.53240E+01 3.38020E+00 0.00000E+00
 -1      1960 4.45740E+01 4.57289E+00 0.00000E+00
 -1      1961 4.98240E+01 3.38020E+00 0.00000E+00
 -1      1962 4.83240E+01 3.38020E+00 0.00000E+00
 -1      1963 4.75740E+01 4.57289E+00 0.00000E+00
 -1      1964 5.28240E+01 3.38020E+00 0.00000E+00
 -1      1965 5.13240E+01 3.38020E+00 0.00000E+00
 -1      1966 5.05740E+01 4.57289E+00 0.00000E+00
 -1      1967 5.58240E+01 3.38020E+00 0.00000E+00
 -1      1968 5.43240E+01 3.38020E+00 0.00000E+00
 -1      1969 5.35740E+01 4.57289E+00 0.00000E+00
 -1      1970 5.88240E+01 3.38020E+00 0.00000E+00
 -1      1971 5.73240E+01 3.38020E+00 0.00000E+00
 -1      1972 5.65740E+01 4.57289E+00 0.00000E+00
 -1      1973 6.18240E+01 3.38020E+00 0.00000E+00
 -1      1974 6.03240E+01 3.38020E+00 0.00000E+00
 -1      1975 5.95740E+01 4.57289E+00 0.00000E+00
 -1      1976 6.48240E+01 3.38020E+00 0.00000E+00
 -1      1977 6.33240E+01 3.38020E+00 0.00000E+00
 -1      1978 6.25740E+01 4.57289E+00 0.00000E+00
 -1      1979 6.78240E+01 3.38020E+00 0.00000E+00
 -1      1980 6.63240E+01 3.38020E+00 0.00000E+00
 -1      1981 6.55740E+01 4.57289E+00 0.00000E+00
 -1      1982 7.08240E+01 3.38020E+00 0.00000E+00
 -1      1983 6.93240E+01 3.38020E+00 0.00000E+00
 -1      1984 6.85740E+01 4.57289E+00 0.00000E+00
 -1      1985 7.38240E+01 3.38020E+00 0.00000E+00
 -1      1986 7.23240E+01 3.38020E+00 0.00000E+00
 -1      1987 7.15740E+01 4.57289E+00 0.00000E+00
 -1      1988 7.68240E+01 3.38020E+00 0.00000E+00
 -1      1989 7.53240E+01 3.38020E+00 0.00000E+00
 -1      1990 7.45740E+01 4.57289E+00 0.00000E+00
 -1      1991 7.98240E+01 3.38020E+00 0.00000E+00
 -1      1992 7.83240E+01 3.38020E+00 0.00000E+00
 -1      1993 7.75740E+01 4.57289E+00 0.00000E+00
 -1      1994 8.28240E+01 3.38020E+00 0.00000E+00
 -1      1995 8.13240E+01 3.38020E+00 0.00000E+00
 -1      1996 8.05740E+01 4.57289E+00 0.00000E+00
 -1      1997 8.58240E+01 3.38020E+00 0.00000E+00
 -1      1998 8.43240E+01 3.38020E+00 0.00000E+00
 -1      1999 8.35740E+01 4.57289E+00 0.00000E+00
 -1      2000 8.88240E+01 3.38020E+00 0.00000E+00
 -1      2001 8.73240E+01 3.38020E+00 0.00000E+00
 -1      2002 8.65740E+01 4.57289E+00 0.00000E+00
 -1      2003 9.19740E+01 3.38020E+00 0.00000E+00
 -1      2004 9.03990E+01 3.38020E+00 0.00000E+00
 -1      2005 8.96490E+01 4.57289E+00 0.00000E+00
 -1      2006 9.49740E+01 3.38020E+00 0.00000E+00
 -1      2007 9.34740E+01 3.38020E+00 0.00000E+00
 -1      2008 9.27240E+01 4.57289E+00 0.00000E+00
 -1      2009 9.79740E+01 3.38020E+00 0.00000E+00
 -1      2010 9.64740E+01 3.38020E+00 0.00000E+00
 -1      2011 9.57240E+01 4.57289E+00 0.00000E+00
 -1      2012 1.00974E+02 3.38020E+00 0.00000E+00
 -1      2013 9.94740E+01 3.38020E+00 0.00000E+00
 -1      2014 9.87240E+01 4.57289E+00 0.00000E+00
 -1      2015 1.03974E+02 3.38020E+00 0.00000E+00
 -1      2016 1.02474E+02 3.38020E+00 0.00000E+00
 -1      2017 1.01724E+02 4.57289E+00 0.00000E+00
 -1      2018 1.06974E+02 3.38020E+00 0.00000E+00
 -1      2019 1.05474E+02 3.38020E+00 0.00000E+00
 -1      2020 1.04724E+02 4.57289E+00 0.00000E+00
 -1      2021 1.09974E+02 3.38020E+00 0.00000E+00
 -1      2022 1.08474E+02 3.38020E+00 0.00000E+00
 -1      2023 1.07724E+02 4.57289E+00 0.00000E+00
 -1      2024 1.12974E+02 3.38020E+00 0.00000E+00
 -1      2025 1.11474E+02 3.38020E+00 0.00000E+00
 -1      2026 1.10724E+02 4.57289E+00 0.00000E+00
 -1      2027 1.15974E+02 3.38020E+00 0.00000E+00
 -1      2028 1.14474E+02 3.38020E+00 0.00000E+00
 -1      2029 1.13724E+02 4.57289E+00 0.00000E+00
 -1      2030 1.18974E+02 3.38020E+00 0.00000E+00
 -1      2031 1.17474E+02 3.38020E+00 0.00000E+00
 -1      2032 1.16724E+02 4.57289E+00 0.00000E+00
 -1      2033 1.21974E+02 3.38020E+00 0.00000E+00
 -1      2034 1.20474E+02 3.38020E+00 0.00000E+00
 -1      2035 1.19724E+02 4.57289E+00 0.00000E+00
 -1      2036 1.24974E+02 3.38020E+00 0.00000E+00
 -1      2037 1.23474E+02 3.38020E+00 0.00000E+00
 -1      2038 1.22724E+02 4.57289E+00 0.00000E+00
 -1      2039 1.27974E+02 3.38020E+00 0.00000E+00
 -1      2040 1.26474E+02 3.38020E+00 0.00000E+00
 -1      2041 1.25724E+02 4.57289E+00 0.00000E+00
 -1      2042 1.30974E+02 3.38020E+00 0.00000E+00
 -1      2043 1.29474E+02 3.38020E+00 0.00000E+00
 -1      2044 1.28724E+02 4.57289E+00 0.00000E+00
 -1      2045 1.33974E+02 3.38020E+00 0.00000E+00
 -1      2046 1.32474E+02 3.38020E+00 0.00000E+00
 -1      2047 1.31724E+02 4.57289E+00 0.00000E+00
 -1      2048 1.36974E+02 3.38020E+00 0.00000E+00
 -1      2049 1.35474E+02 3.38020E+00 0.00000E+00
 -1      2050 1.34724E+02 4.57289E+00 0.00000E+00
 -1      2051 1.39974E+02 3.38020E+00 0.00000E+00
 -1      2052 1.38474E+02 3.38020E+00 0.00000E+00
 -1      2053 1.37724E+02 4.57289E+00 0.00000E+00
 -1      2054 1.42974E+02 3.38020E+00 0.00000E+00
 -1      2055 1.41474E+02 3.38020E+00 0.00000E+00
 -1      2056 1.40724E+02 4.57289E+00 0.00000E+00
 -1      2057 1.45768E+02 3.34322E+00 0.00000E+00
 -1      2058 1.44268E+02 3.34322E+00 0.00000E+00
 -1      2059 1.43518E+02 4.53592E+00 0.00000E+00
 -1      2060 1.46107E+02 4.46197E+00 0.00000E+00
 -1      2061 1.46103E+02 1.25375E+01 0.00000E+00
 -1      2062 1.46103E+02 1.10625E+01 0.00000E+00
 -1      2063 1.46103E+02 9.58750E+00 0.00000E+00
 -1      2064 1.46103E+02 8.11250E+00 0.00000E+00
 -1      2065 1.44804E+02 1.03250E+01 0.00000E+00
 -1      2066 1.46107E+02 5.93697E+00 0.00000E+00
 -1      2067 1.46103E+02 1.54375E+01 0.00000E+00
 -1      2068 1.46103E+02 1.39875E+01 0.00000E+00
 -1      2069 1.44804E+02 1.32500E+01 0.00000E+00
 -1      2070 1.46103E+02 1.83875E+01 0.00000E+00
 -1      2071 1.46103E+02 1.69125E+01 0.00000E+00
 -1      2072 1.44804E+02 1.61750E+01 0.00000E+00
 -1      2073 1.46103E+02 2.13375E+01 0.00000E+00
 -1      2074 1.46103E+02 1.98625E+01 0.00000E+00
 -1      2075 1.44804E+02 1.91250E+01 0.00000E+00
 -1      2076 1.46103E+02 2.42875E+01 0.00000E+00
 -1      2077 1.46103E+02 2.28125E+01 0.00000E+00
 -1      2078 1.44804E+02 2.20750E+01 0.00000E+00
 -1      2079 1.46103E+02 2.72375E+01 0.00000E+00
 -1      2080 1.46103E+02 2.57625E+01 0.00000E+00
 -1      2081 1.44804E+02 2.50250E+01 0.00000E+00
 -1      2082 1.46103E+02 3.01875E+01 0.00000E+00
 -1      2083 1.46103E+02 2.87125E+01 0.00000E+00
 -1      2084 1.44804E+02 2.79750E+01 0.00000E+00
 -1      2085 1.46103E+02 3.30875E+01 0.00000E+00
 -1      2086 1.46103E+02 3.16375E+01 0.00000E+00
 -1      2087 1.44804E+02 3.09000E+01 0.00000E+00
 -1      2088 1.46103E+02 3.60375E+01 0.00000E+00
 -1      2089 1.46103E+02 3.45625E+01 0.00000E+00
 -1      2090 1.44804E+02 3.38250E+01 0.00000E+00
 -1      2091 1.46103E+02 3.89875E+01 0.00000E+00
 -1      2092 1.46103E+02 3.75125E+01 0.00000E+00
 -1      2093 1.44804E+02 3.67750E+01 0.00000E+00
 -1      2094 1.46103E+02 4.19375E+01 0.00000E+00
 -1      2095 1.46103E+02 4.04625E+01 0.00000E+00
 -1      2096 1.44804E+02 3.97250E+01 0.00000E+00
 -1      2097 4.03435E+01 8.60675E+00 0.00000E+00
 -1      2098 4.06093E+01 9.48388E+00 0.00000E+00
 -1      2099 4.12110E+01 1.22993E+01 0.00000E+00
 -1      2100 4.11746E+01 1.31403E+01 0.00000E+00
 -1      2101 4.08365E+01 1.03332E+01 0.00000E+00
 -1      2102 4.10637E+01 1.11824E+01 0.00000E+00
 -1      2103 4.14441E+01 9.67018E+00 0.00000E+00
 -1      2104 3.90814E+01 6.88032E+00 0.00000E+00
 -1      2105 3.97010E+01 7.55972E+00 0.00000E+00
 -1      2106 3.76566E+01 5.70839E+00 0.00000E+00
 -1      2107 3.83229E+01 6.22973E+00 0.00000E+00
 -1      2108 3.89700E+00 3.74688E+01 0.00000E+00
 -1      2109 3.89700E+00 3.89437E+01 0.00000E+00
 -1      2110 5.19600E+00 3.96813E+01 0.00000E+00
 -1      2111 5.19600E+00 3.67438E+01 0.00000E+00
 -1      2112 3.35400E+01 3.43596E+00 0.00000E+00
 -1      2113 2.74263E+01 5.16544E+00 0.00000E+00
 -1      2114 2.81462E+01 4.72045E+00 0.00000E+00
 -1      2115 2.58925E+01 6.63812E+00 0.00000E+00
 -1      2116 2.64853E+01 6.07361E+00 0.00000E+00
 -1      2117 2.47983E+01 8.04737E+00 0.00000E+00
 -1      2118 2.52730E+01 7.36271E+00 0.00000E+00
 -1      2119 2.39171E+01 9.66846E+00 0.00000E+00
 -1      2120 2.42515E+01 8.87304E+00 0.00000E+00
 -1      2121 2.34461E+01 1.14961E+01 0.00000E+00
 -1      2122 2.36506E+01 1.06266E+01 0.00000E+00
 -1      2123 2.32658E+01 1.34936E+01 0.00000E+00
 -1      2124 2.31957E+01 1.26019E+01 0.00000E+00
 -1      2125 2.37035E+01 1.53154E+01 0.00000E+00
 -1      2126 2.35270E+01 1.44509E+01 0.00000E+00
 -1      2127 2.42268E+01 1.72063E+01 0.00000E+00
 -1      2128 2.38840E+01 1.63485E+01 0.00000E+00
 -1      2129 2.56186E+01 1.88843E+01 0.00000E+00
 -1      2130 2.49461E+01 1.82577E+01 0.00000E+00
 -1      2131 2.69271E+01 2.01148E+01 0.00000E+00
 -1      2132 2.62729E+01 1.94995E+01 0.00000E+00
 -1      2133 2.53520E+01 1.98136E+01 0.00000E+00
 -1      2134 2.87090E+01 2.11948E+01 0.00000E+00
 -1      2135 2.78762E+01 2.07116E+01 0.00000E+00
 -1      2136 3.08381E+01 2.17438E+01 0.00000E+00
 -1      2137 2.99053E+01 2.16622E+01 0.00000E+00
 -1      2138 3.26542E+01 2.15240E+01 0.00000E+00
 -1      2139 3.18229E+01 2.15599E+01 0.00000E+00
 -1      2140 3.43342E+01 2.14271E+01 0.00000E+00
 -1      2141 3.35168E+01 2.15060E+01 0.00000E+00
 -1      2142 3.61531E+01 2.08797E+01 0.00000E+00
 -1      2143 3.54399E+01 2.12638E+01 0.00000E+00
 -1      2144 3.74515E+01 2.00159E+01 0.00000E+00
 -1      2145 3.68023E+01 2.04478E+01 0.00000E+00
 -1      2146 3.68524E+01 2.13949E+01 0.00000E+00
 -1      2147 3.88368E+01 1.88604E+01 0.00000E+00
 -1      2148 3.82808E+01 1.94070E+01 0.00000E+00
 -1      2149 3.98963E+01 1.75887E+01 0.00000E+00
 -1      2150 3.93666E+01 1.82245E+01 0.00000E+00
 -1      2151 3.96897E+01 1.91094E+01 0.00000E+00
 -1      2152 4.06846E+01 1.57313E+01 0.00000E+00
 -1      2153 4.04364E+01 1.65324E+01 0.00000E+00
 -1      2154 4.09984E+01 1.41569E+01 0.00000E+00
 -1      2155 4.08415E+01 1.49441E+01 0.00000E+00
 -1      2156 4.14565E+01 1.55736E+01 0.00000E+00
 -1      2157 3.63703E+01 4.43003E+00 0.00000E+00
 -1      2158 3.70611E+01 4.94687E+00 0.00000E+00
 -1      2159 2.39564E+01 8.16139E+00 0.00000E+00
 -1      2160 6.42300E+00 4.57510E+01 0.00000E+00
 -1      2161 3.86490E+01 4.15397E+00 0.00000E+00
 -1      2162 3.42770E+01 2.66551E+00 0.00000E+00
 -1      2163 3.44931E+01 3.91398E+00 0.00000E+00
 -1      2164 7.17300E+00 4.44520E+01 0.00000E+00
 -1      2165 2.66830E+01 4.97836E+00 0.00000E+00
 -1      2166 2.57865E+01 3.21263E+00 0.00000E+00
 -1      2167 2.45115E+01 3.21263E+00 0.00000E+00
 -1      2168 2.89543E+01 4.34169E+00 0.00000E+00
 -1      2169 3.55520E+01 2.66551E+00 0.00000E+00
 -1      2170 3.53733E+01 4.05049E+00 0.00000E+00
 -1      2171 4.15740E+01 4.48911E+00 0.00000E+00
 -1      2172 1.44809E+02 6.67447E+00 0.00000E+00
 -1      2173 4.18186E+01 1.16363E+01 0.00000E+00
 -1      2174 4.05744E+01 7.77387E+00 0.00000E+00
 -1      2175 1.45665E+02 4.31193E+01 0.00000E+00
 -1      2176 4.17896E+01 1.37698E+01 0.00000E+00
 -1      2177 3.91734E+01 6.07625E+00 0.00000E+00
 -1      2178 4.07596E+01 1.74172E+01 0.00000E+00
 -1      2179 3.83308E+01 2.03541E+01 0.00000E+00
 -1      2180 3.50975E+01 2.19901E+01 0.00000E+00
 -1      2181 3.31291E+01 2.21714E+01 0.00000E+00
 -1      2182 3.12817E+01 2.23734E+01 0.00000E+00
 -1      2183 2.69553E+01 2.10257E+01 0.00000E+00
 -1      2184 2.39784E+01 1.81470E+01 0.00000E+00
 -1      2185 2.30786E+01 1.60626E+01 0.00000E+00
 -1      2186 2.26263E+01 1.20092E+01 0.00000E+00
 -1      2187 2.26370E+01 1.40723E+01 0.00000E+00
 -1      2188 2.31432E+01 9.94521E+00 0.00000E+00
 -1      2189 2.51225E+01 6.61113E+00 0.00000E+00
 -1      2190 2.43420E+01 4.12200E+00 0.00000E+00
 -1      2191 2.91006E+01 2.20899E+01 0.00000E+00
 -1      2192 2.63865E+01 4.15397E+00 0.00000E+00
 -1      2193 3.62270E+01 3.52307E+00 0.00000E+00
 -1      2194 1.07850E+01 5.30525E+00 0.00000E+00
 -1      2195 9.28500E+00 5.30525E+00 0.00000E+00
 -1      2196 6.49500E+00 3.01125E+01 0.00000E+00
 -1      2197 6.49500E+00 3.15875E+01 0.00000E+00
 -1      2198 6.49500E+00 3.30625E+01 0.00000E+00
 -1      2199 6.49500E+00 3.45375E+01 0.00000E+00
 -1      2200 7.79400E+00 3.23250E+01 0.00000E+00
 -1      2201 6.49500E+00 2.42125E+01 0.00000E+00
 -1      2202 6.49500E+00 2.56875E+01 0.00000E+00
 -1      2203 6.49500E+00 2.12625E+01 0.00000E+00
 -1      2204 6.49500E+00 2.27375E+01 0.00000E+00
 -1      2205 7.79400E+00 2.34750E+01 0.00000E+00
 -1      2206 6.49500E+00 1.83625E+01 0.00000E+00
 -1      2207 6.49500E+00 1.98125E+01 0.00000E+00
 -1      2208 7.79400E+00 2.05500E+01 0.00000E+00
 -1      2209 6.49500E+00 1.54125E+01 0.00000E+00
 -1      2210 6.49500E+00 1.68875E+01 0.00000E+00
 -1      2211 7.79400E+00 1.76250E+01 0.00000E+00
 -1      2212 6.49500E+00 1.24625E+01 0.00000E+00
 -1      2213 6.49500E+00 1.39375E+01 0.00000E+00
 -1      2214 7.79400E+00 1.46750E+01 0.00000E+00
 -1      2215 6.49500E+00 9.51250E+00 0.00000E+00
 -1      2216 6.49500E+00 1.09875E+01 0.00000E+00
 -1      2217 7.79400E+00 1.17250E+01 0.00000E+00
 -1      2218 1.37850E+01 5.30525E+00 0.00000E+00
 -1      2219 1.22850E+01 5.30525E+00 0.00000E+00
 -1      2220 1.15350E+01 6.60425E+00 0.00000E+00
 -1      2221 9.90000E+00 4.35050E+01 0.00000E+00
 -1      2222 1.14000E+01 4.35050E+01 0.00000E+00
 -1      2223 6.55950E+00 4.28890E+01 0.00000E+00
 -1      2224 8.53650E+00 4.32410E+01 0.00000E+00
 -1      2225 9.28650E+00 4.19420E+01 0.00000E+00
 -1      2226 6.55950E+00 4.14140E+01 0.00000E+00
 -1      2227 1.29000E+01 4.35050E+01 0.00000E+00
 -1      2228 1.44000E+01 4.35050E+01 0.00000E+00
 -1      2229 1.21500E+01 4.22060E+01 0.00000E+00
 -1      2230 1.59000E+01 4.35050E+01 0.00000E+00
 -1      2231 1.74000E+01 4.35050E+01 0.00000E+00
 -1      2232 1.51500E+01 4.22060E+01 0.00000E+00
 -1      2233 1.89000E+01 4.35050E+01 0.00000E+00
 -1      2234 2.04000E+01 4.35050E+01 0.00000E+00
 -1      2235 1.81500E+01 4.22060E+01 0.00000E+00
 -1      2236 2.19000E+01 4.35050E+01 0.00000E+00
 -1      2237 2.34000E+01 4.35050E+01 0.00000E+00
 -1      2238 2.11500E+01 4.22060E+01 0.00000E+00
 -1      2239 2.49000E+01 4.35050E+01 0.00000E+00
 -1      2240 2.64000E+01 4.35050E+01 0.00000E+00
 -1      2241 2.41500E+01 4.22060E+01 0.00000E+00
 -1      2242 2.79000E+01 4.35050E+01 0.00000E+00
 -1      2243 2.94000E+01 4.35050E+01 0.00000E+00
 -1      2244 2.71500E+01 4.22060E+01 0.00000E+00
 -1      2245 3.09000E+01 4.35050E+01 0.00000E+00
 -1      2246 3.24000E+01 4.35050E+01 0.00000E+00
 -1      2247 3.01500E+01 4.22060E+01 0.00000E+00
 -1      2248 3.39000E+01 4.35050E+01 0.00000E+00
 -1      2249 3.54000E+01 4.35050E+01 0.00000E+00
 -1      2250 3.31500E+01 4.22060E+01 0.00000E+00
 -1      2251 3.69000E+01 4.35050E+01 0.00000E+00
 -1      2252 3.84000E+01 4.35050E+01 0.00000E+00
 -1      2253 3.61500E+01 4.22060E+01 0.00000E+00
 -1      2254 3.99000E+01 4.35050E+01 0.00000E+00
 -1      2255 4.14000E+01 4.35050E+01 0.00000E+00
 -1      2256 3.91500E+01 4.22060E+01 0.00000E+00
 -1      2257 4.29000E+01 4.35050E+01 0.00000E+00
 -1      2258 4.44000E+01 4.35050E+01 0.00000E+00
 -1      2259 4.21500E+01 4.22060E+01 0.00000E+00
 -1      2260 4.59000E+01 4.35050E+01 0.00000E+00
 -1      2261 4.74000E+01 4.35050E+01 0.00000E+00
 -1      2262 4.51500E+01 4.22060E+01 0.00000E+00
 -1      2263 4.89000E+01 4.35050E+01 0.00000E+00
 -1      2264 5.04000E+01 4.35050E+01 0.00000E+00
 -1      2265 4.81500E+01 4.22060E+01 0.00000E+00
 -1      2266 5.19000E+01 4.35050E+01 0.00000E+00
 -1      2267 5.34000E+01 4.35050E+01 0.00000E+00
 -1      2268 5.11500E+01 4.22060E+01 0.00000E+00
 -1      2269 5.49000E+01 4.35050E+01 0.00000E+00
 -1      2270 5.64000E+01 4.35050E+01 0.00000E+00
 -1      2271 5.41500E+01 4.22060E+01 0.00000E+00
 -1      2272 5.79000E+01 4.35050E+01 0.00000E+00
 -1      2273 5.94000E+01 4.35050E+01 0.00000E+00
 -1      2274 5.71500E+01 4.22060E+01 0.00000E+00
 -1      2275 6.09000E+01 4.35050E+01 0.00000E+00
 -1      2276 6.24000E+01 4.35050E+01 0.00000E+00
 -1      2277 6.01500E+01 4.22060E+01 0.00000E+00
 -1      2278 6.39000E+01 4.35050E+01 0.00000E+00
 -1      2279 6.54000E+01 4.35050E+01 0.00000E+00
 -1      2280 6.31500E+01 4.22060E+01 0.00000E+00
 -1      2281 6.69000E+01 4.35050E+01 0.00000E+00
 -1      2282 6.84000E+01 4.35050E+01 0.00000E+00
 -1      2283 6.61500E+01 4.22060E+01 0.00000E+00
 -1      2284 6.99000E+01 4.35050E+01 0.00000E+00
 -1      2285 7.14000E+01 4.35050E+01 0.00000E+00
 -1      2286 6.91500E+01 4.22060E+01 0.00000E+00
 -1      2287 7.29000E+01 4.35050E+01 0.00000E+00
 -1      2288 7.44000E+01 4.35050E+01 0.00000E+00
 -1      2289 7.21500E+01 4.22060E+01 0.00000E+00
 -1      2290 7.59000E+01 4.35050E+01 0.00000E+00
 -1      2291 7.74000E+01 4.35050E+01 0.00000E+00
 -1      2292 7.51500E+01 4.22060E+01 0.00000E+00
 -1      2293 7.89000E+01 4.35050E+01 0.00000E+00
 -1      2294 8.04000E+01 4.35050E+01 0.00000E+00
 -1      2295 7.81500E+01 4.22060E+01 0.00000E+00
 -1      2296 8.19000E+01 4.35050E+01 0.00000E+00
 -1      2297 8.34000E+01 4.35050E+01 0.00000E+00
 -1      2298 8.11500E+01 4.22060E+01 0.00000E+00
 -1      2299 8.49000E+01 4.35050E+01 0.00000E+00
 -1      2300 8.64000E+01 4.35050E+01 0.00000E+00
 -1      2301 8.41500E+01 4.22060E+01 0.00000E+00
 -1      2302 8.79000E+01 4.35050E+01 0.00000E+00
 -1      2303 8.94000E+01 4.35050E+01 0.00000E+00
 -1      2304 8.71500E+01 4.22060E+01 0.00000E+00
 -1      2305 9.09000E+01 4.35050E+01 0.00000E+00
 -1      2306 9.24000E+01 4.35050E+01 0.00000E+00
 -1      2307 9.01500E+01 4.22060E+01 0.00000E+00
 -1      2308 9.39000E+01 4.35050E+01 0.00000E+00
 -1      2309 9.54000E+01 4.35050E+01 0.00000E+00
 -1      2310 9.31500E+01 4.22060E+01 0.00000E+00
 -1      2311 9.69000E+01 4.35050E+01 0.00000E+00
 -1      2312 9.84000E+01 4.35050E+01 0.00000E+00
 -1      2313 9.61500E+01 4.22060E+01 0.00000E+00
 -1      2314 9.99000E+01 4.35050E+01 0.00000E+00
 -1      2315 1.01400E+02 4.35050E+01 0.00000E+00
 -1      2316 9.91500E+01 4.22060E+01 0.00000E+00
 -1      2317 1.02900E+02 4.35050E+01 0.00000E+00
 -1      2318 1.04400E+02 4.35050E+01 0.00000E+00
 -1      2319 1.02150E+02 4.22060E+01 0.00000E+00
 -1      2320 1.05900E+02 4.35050E+01 0.00000E+00
 -1      2321 1.07400E+02 4.35050E+01 0.00000E+00
 -1      2322 1.05150E+02 4.22060E+01 0.00000E+00
 -1      2323 1.08900E+02 4.35050E+01 0.00000E+00
 -1      2324 1.10400E+02 4.35050E+01 0.00000E+00
 -1      2325 1.08150E+02 4.22060E+01 0.00000E+00
 -1      2326 1.11900E+02 4.35050E+01 0.00000E+00
 -1      2327 1.13400E+02 4.35050E+01 0.00000E+00
 -1      2328 1.11150E+02 4.22060E+01 0.00000E+00
 -1      2329 1.14900E+02 4.35050E+01 0.00000E+00
 -1      2330 1.16400E+02 4.35050E+01 0.00000E+00
 -1      2331 1.14150E+02 4.22060E+01 0.00000E+00
 -1      2332 1.17900E+02 4.35050E+01 0.00000E+00
 -1      2333 1.19400E+02 4.35050E+01 0.00000E+00
 -1      2334 1.17150E+02 4.22060E+01 0.00000E+00
 -1      2335 1.20900E+02 4.35050E+01 0.00000E+00
 -1      2336 1.22400E+02 4.35050E+01 0.00000E+00
 -1      2337 1.20150E+02 4.22060E+01 0.00000E+00
 -1      2338 1.23900E+02 4.35050E+01 0.00000E+00
 -1      2339 1.25400E+02 4.35050E+01 0.00000E+00
 -1      2340 1.23150E+02 4.22060E+01 0.00000E+00
 -1      2341 1.26900E+02 4.35050E+01 0.00000E+00
 -1      2342 1.28400E+02 4.35050E+01 0.00000E+00
 -1      2343 1.26150E+02 4.22060E+01 0.00000E+00
 -1      2344 1.29900E+02 4.35050E+01 0.00000E+00
 -1      2345 1.31400E+02 4.35050E+01 0.00000E+00
 -1      2346 1.29150E+02 4.22060E+01 0.00000E+00
 -1      2347 1.32900E+02 4.35050E+01 0.00000E+00
 -1      2348 1.34400E+02 4.35050E+01 0.00000E+00
 -1      2349 1.32150E+02 4.22060E+01 0.00000E+00
 -1      2350 1.35900E+02 4.35050E+01 0.00000E+00
 -1      2351 1.37400E+02 4.35050E+01 0.00000E+00
 -1      2352 1.35150E+02 4.22060E+01 0.00000E+00
 -1      2353 1.38900E+02 4.35050E+01 0.00000E+00
 -1      2354 1.40400E+02 4.35050E+01 0.00000E+00
 -1      2355 1.38150E+02 4.22060E+01 0.00000E+00
 -1      2356 1.97850E+01 5.19895E+00 0.00000E+00
 -1      2357 1.82850E+01 5.19895E+00 0.00000E+00
 -1      2358 2.27850E+01 5.19895E+00 0.00000E+00
 -1      2359 2.12850E+01 5.19895E+00 0.00000E+00
 -1      2360 2.05350E+01 6.39165E+00 0.00000E+00
 -1      2361 2.93257E+01 2.32784E+01 0.00000E+00
 -1      2362 2.81294E+01 2.28110E+01 0.00000E+00
 -1      2363 4.53240E+01 5.87189E+00 0.00000E+00
 -1      2364 4.38240E+01 5.87189E+00 0.00000E+00
 -1      2365 5.43240E+01 5.87189E+00 0.00000E+00
 -1      2366 5.28240E+01 5.87189E+00 0.00000E+00
 -1      2367 5.73240E+01 5.87189E+00 0.00000E+00
 -1      2368 5.58240E+01 5.87189E+00 0.00000E+00
 -1      2369 5.50740E+01 7.17089E+00 0.00000E+00
 -1      2370 6.03240E+01 5.87189E+00 0.00000E+00
 -1      2371 5.88240E+01 5.87189E+00 0.00000E+00
 -1      2372 5.80740E+01 7.17089E+00 0.00000E+00
 -1      2373 6.33240E+01 5.87189E+00 0.00000E+00
 -1      2374 6.18240E+01 5.87189E+00 0.00000E+00
 -1      2375 6.10740E+01 7.17089E+00 0.00000E+00
 -1      2376 6.63240E+01 5.87189E+00 0.00000E+00
 -1      2377 6.48240E+01 5.87189E+00 0.00000E+00
 -1      2378 6.40740E+01 7.17089E+00 0.00000E+00
 -1      2379 6.93240E+01 5.87189E+00 0.00000E+00
 -1      2380 6.78240E+01 5.87189E+00 0.00000E+00
 -1      2381 6.70740E+01 7.17089E+00 0.00000E+00
 -1      2382 7.23240E+01 5.87189E+00 0.00000E+00
 -1      2383 7.08240E+01 5.87189E+00 0.00000E+00
 -1      2384 7.00740E+01 7.17089E+00 0.00000E+00
 -1      2385 7.53240E+01 5.87189E+00 0.00000E+00
 -1      2386 7.38240E+01 5.87189E+00 0.00000E+00
 -1      2387 7.30740E+01 7.17089E+00 0.00000E+00
 -1      2388 7.83240E+01 5.87189E+00 0.00000E+00
 -1      2389 7.68240E+01 5.87189E+00 0.00000E+00
 -1      2390 7.60740E+01 7.17089E+00 0.00000E+00
 -1      2391 8.13240E+01 5.87189E+00 0.00000E+00
 -1      2392 7.98240E+01 5.87189E+00 0.00000E+00
 -1      2393 7.90740E+01 7.17089E+00 0.00000E+00
 -1      2394 8.43240E+01 5.87189E+00 0.00000E+00
 -1      2395 8.28240E+01 5.87189E+00 0.00000E+00
 -1      2396 8.20740E+01 7.17089E+00 0.00000E+00
 -1      2397 8.73240E+01 5.87189E+00 0.00000E+00
 -1      2398 8.58240E+01 5.87189E+00 0.00000E+00
 -1      2399 8.50740E+01 7.17089E+00 0.00000E+00
 -1      2400 9.04740E+01 5.87189E+00 0.00000E+00
 -1      2401 8.88990E+01 5.87189E+00 0.00000E+00
 -1      2402 8.81490E+01 7.17089E+00 0.00000E+00
 -1      2403 9.34740E+01 5.87189E+00 0.00000E+00
 -1      2404 9.19740E+01 5.87189E+00 0.00000E+00
 -1      2405 9.12240E+01 7.17089E+00 0.00000E+00
 -1      2406 9.64740E+01 5.87189E+00 0.00000E+00
 -1      2407 9.49740E+01 5.87189E+00 0.00000E+00
 -1      2408 9.42240E+01 7.17089E+00 0.00000E+00
 -1      2409 9.94740E+01 5.87189E+00 0.00000E+00
 -1      2410 9.79740E+01 5.87189E+00 0.00000E+00
 -1      2411 9.72240E+01 7.17089E+00 0.00000E+00
 -1      2412 1.02474E+02 5.87189E+00 0.00000E+00
 -1      2413 1.00974E+02 5.87189E+00 0.00000E+00
 -1      2414 1.00224E+02 7.17089E+00 0.00000E+00
 -1      2415 1.05474E+02 5.87189E+00 0.00000E+00
 -1      2416 1.03974E+02 5.87189E+00 0.00000E+00
 -1      2417 1.03224E+02 7.17089E+00 0.00000E+00
 -1      2418 1.08474E+02 5.87189E+00 0.00000E+00
 -1      2419 1.06974E+02 5.87189E+00 0.00000E+00
 -1      2420 1.06224E+02 7.17089E+00 0.00000E+00
 -1      2421 1.11474E+02 5.87189E+00 0.00000E+00
 -1      2422 1.09974E+02 5.87189E+00 0.00000E+00
 -1      2423 1.09224E+02 7.17089E+00 0.00000E+00
 -1      2424 1.14474E+02 5.87189E+00 0.00000E+00
 -1      2425 1.12974E+02 5.87189E+00 0.00000E+00
 -1      2426 1.12224E+02 7.17089E+00 0.00000E+00
 -1      2427 1.17474E+02 5.87189E+00 0.00000E+00
 -1      2428 1.15974E+02 5.87189E+00 0.00000E+00
 -1      2429 1.15224E+02 7.17089E+00 0.00000E+00
 -1      2430 1.20474E+02 5.87189E+00 0.00000E+00
 -1      2431 1.18974E+02 5.87189E+00 0.00000E+00
 -1      2432 1.18224E+02 7.17089E+00 0.00000E+00
 -1      2433 1.23474E+02 5.87189E+00 0.00000E+00
 -1      2434 1.21974E+02 5.87189E+00 0.00000E+00
 -1      2435 1.21224E+02 7.17089E+00 0.00000E+00
 -1      2436 1.26474E+02 5.87189E+00 0.00000E+00
 -1      2437 1.24974E+02 5.87189E+00 0.00000E+00
 -1      2438 1.24224E+02 7.17089E+00 0.00000E+00
 -1      2439 1.29474E+02 5.87189E+00 0.00000E+00
 -1      2440 1.27974E+02 5.87189E+00 0.00000E+00
 -1      2441 1.27224E+02 7.17089E+00 0.00000E+00
 -1      2442 1.32474E+02 5.87189E+00 0.00000E+00
 -1      2443 1.30974E+02 5.87189E+00 0.00000E+00
 -1      2444 1.30224E+02 7.17089E+00 0.00000E+00
 -1      2445 1.35474E+02 5.87189E+00 0.00000E+00
 -1      2446 1.33974E+02 5.87189E+00 0.00000E+00
 -1      2447 1.33224E+02 7.17089E+00 0.00000E+00
 -1      2448 1.38474E+02 5.87189E+00 0.00000E+00
 -1      2449 1.36974E+02 5.87189E+00 0.00000E+00
 -1      2450 1.36224E+02 7.17089E+00 0.00000E+00
 -1      2451 1.41474E+02 5.87189E+00 0.00000E+00
 -1      2452 1.39974E+02 5.87189E+00 0.00000E+00
 -1      2453 1.39224E+02 7.17089E+00 0.00000E+00
 -1      2454 1.43505E+02 1.69125E+01 0.00000E+00
 -1      2455 1.43505E+02 1.54375E+01 0.00000E+00
 -1      2456 1.43505E+02 1.39875E+01 0.00000E+00
 -1      2457 1.43505E+02 1.25375E+01 0.00000E+00
 -1      2458 1.42206E+02 1.47250E+01 0.00000E+00
 -1      2459 1.43505E+02 1.10625E+01 0.00000E+00
 -1      2460 1.43505E+02 9.58750E+00 0.00000E+00
 -1      2461 1.42206E+02 1.18000E+01 0.00000E+00
 -1      2462 4.25121E+01 1.09768E+01 0.00000E+00
 -1      2463 4.26594E+01 1.20936E+01 0.00000E+00
 -1      2464 1.43505E+02 1.98625E+01 0.00000E+00
 -1      2465 1.43505E+02 1.83875E+01 0.00000E+00
 -1      2466 1.42206E+02 1.76500E+01 0.00000E+00
 -1      2467 1.43505E+02 2.28125E+01 0.00000E+00
 -1      2468 1.43505E+02 2.13375E+01 0.00000E+00
 -1      2469 1.42206E+02 2.06000E+01 0.00000E+00
 -1      2470 1.43505E+02 2.57625E+01 0.00000E+00
 -1      2471 1.43505E+02 2.42875E+01 0.00000E+00
 -1      2472 1.42206E+02 2.35500E+01 0.00000E+00
 -1      2473 1.43505E+02 2.87125E+01 0.00000E+00
 -1      2474 1.43505E+02 2.72375E+01 0.00000E+00
 -1      2475 1.42206E+02 2.65000E+01 0.00000E+00
 -1      2476 1.43505E+02 3.16125E+01 0.00000E+00
 -1      2477 1.43505E+02 3.01625E+01 0.00000E+00
 -1      2478 1.42206E+02 2.94250E+01 0.00000E+00
 -1      2479 1.43505E+02 3.45625E+01 0.00000E+00
 -1      2480 1.43505E+02 3.30875E+01 0.00000E+00
 -1      2481 1.42206E+02 3.23500E+01 0.00000E+00
 -1      2482 1.43505E+02 3.75125E+01 0.00000E+00
 -1      2483 1.43505E+02 3.60375E+01 0.00000E+00
 -1      2484 1.42206E+02 3.53000E+01 0.00000E+00
 -1      2485 1.43505E+02 4.04625E+01 0.00000E+00
 -1      2486 1.43505E+02 3.89875E+01 0.00000E+00
 -1      2487 1.42206E+02 3.82500E+01 0.00000E+00
 -1      2488 1.44321E+02 4.30606E+01 0.00000E+00
 -1      2489 4.26814E+01 1.34009E+01 0.00000E+00
 -1      2490 4.25052E+01 1.44175E+01 0.00000E+00
 -1      2491 1.67850E+01 5.30525E+00 0.00000E+00
 -1      2492 1.52850E+01 5.30525E+00 0.00000E+00
 -1      2493 1.45350E+01 6.60425E+00 0.00000E+00
 -1      2494 4.08413E+01 6.88949E+00 0.00000E+00
 -1      2495 4.14838E+01 7.93652E+00 0.00000E+00
 -1      2496 4.17931E+01 1.72794E+01 0.00000E+00
 -1      2497 4.12531E+01 1.83357E+01 0.00000E+00
 -1      2498 3.57756E+01 2.27568E+01 0.00000E+00
 -1      2499 3.46699E+01 2.29201E+01 0.00000E+00
 -1      2500 2.34920E+01 1.92515E+01 0.00000E+00
 -1      2501 2.27727E+01 1.82002E+01 0.00000E+00
 -1      2502 3.78195E+01 4.66413E+00 0.00000E+00
 -1      2503 4.21185E+01 9.03472E+00 0.00000E+00
 -1      2504 4.23457E+01 9.88400E+00 0.00000E+00
 -1      2505 5.13240E+01 5.87189E+00 0.00000E+00
 -1      2506 4.98240E+01 5.87189E+00 0.00000E+00
 -1      2507 5.20740E+01 7.17089E+00 0.00000E+00
 -1      2508 4.83240E+01 5.87189E+00 0.00000E+00
 -1      2509 4.68240E+01 5.87189E+00 0.00000E+00
 -1      2510 4.90740E+01 7.17089E+00 0.00000E+00
 -1      2511 6.49500E+00 2.71625E+01 0.00000E+00
 -1      2512 6.49500E+00 2.86375E+01 0.00000E+00
 -1      2513 7.79400E+00 2.93750E+01 0.00000E+00
 -1      2514 7.79400E+00 2.64250E+01 0.00000E+00
 -1      2515 4.24123E+01 5.81252E+00 0.00000E+00
 -1      2516 4.09123E+01 5.72873E+00 0.00000E+00
 -1      2517 2.54455E+01 5.06214E+00 0.00000E+00
 -1      2518 2.19403E+01 1.47767E+01 0.00000E+00
 -1      2519 2.16791E+01 1.38194E+01 0.00000E+00
 -1      2520 2.20223E+01 1.01496E+01 0.00000E+00
 -1      2521 2.22888E+01 9.19145E+00 0.00000E+00
 -1      2522 2.15214E+01 1.23613E+01 0.00000E+00
 -1      2523 2.17719E+01 1.12554E+01 0.00000E+00
 -1      2524 2.09175E+01 1.05017E+01 0.00000E+00
 -1      2525 2.23012E+01 1.68427E+01 0.00000E+00
 -1      2526 2.21207E+01 1.58097E+01 0.00000E+00
 -1      2527 2.11628E+01 1.55568E+01 0.00000E+00
 -1      2528 2.50917E+01 2.07460E+01 0.00000E+00
 -1      2529 2.44374E+01 2.01307E+01 0.00000E+00
 -1      2530 2.69733E+01 2.20500E+01 0.00000E+00
 -1      2531 2.60243E+01 2.14532E+01 0.00000E+00
 -1      2532 3.19161E+01 2.30420E+01 0.00000E+00
 -1      2533 3.09314E+01 2.32259E+01 0.00000E+00
 -1      2534 3.36414E+01 2.30059E+01 0.00000E+00
 -1      2535 3.27788E+01 2.30240E+01 0.00000E+00
 -1      2536 3.24285E+01 2.38765E+01 0.00000E+00
 -1      2537 3.77448E+01 2.20324E+01 0.00000E+00
 -1      2538 3.70956E+01 2.24643E+01 0.00000E+00
 -1      2539 3.94032E+01 2.08147E+01 0.00000E+00
 -1      2540 3.85740E+01 2.14235E+01 0.00000E+00
 -1      2541 3.88172E+01 2.24930E+01 0.00000E+00
 -1      2542 4.05930E+01 1.92573E+01 0.00000E+00
 -1      2543 4.00633E+01 1.98931E+01 0.00000E+00
 -1      2544 4.03065E+01 2.09626E+01 0.00000E+00
 -1      2545 4.16266E+01 1.91195E+01 0.00000E+00
 -1      2546 4.23483E+01 1.52047E+01 0.00000E+00
 -1      2547 4.21914E+01 1.59919E+01 0.00000E+00
 -1      2548 4.32401E+01 1.48357E+01 0.00000E+00
 -1      2549 8.07525E+00 5.11044E+00 0.00000E+00
 -1      2550 6.57525E+00 5.11044E+00 0.00000E+00
 -1      2551 6.40575E+00 6.01981E+00 0.00000E+00
 -1      2552 8.82525E+00 6.40944E+00 0.00000E+00
 -1      2553 2.30728E+01 8.17017E+00 0.00000E+00
 -1      2554 2.36195E+01 7.34450E+00 0.00000E+00
 -1      2555 3.92445E+01 4.91549E+00 0.00000E+00
 -1      2556 2.48805E+01 5.77876E+00 0.00000E+00
 -1      2557 2.45840E+01 4.95437E+00 0.00000E+00
 -1      2558 2.37770E+01 4.83862E+00 0.00000E+00
 -1      2559 2.42611E+01 6.50336E+00 0.00000E+00
 -1      2560 4.00030E+01 5.56608E+00 0.00000E+00
 -1      2561 7.79400E+00 3.52687E+01 0.00000E+00
 -1      2562 6.49500E+00 3.60062E+01 0.00000E+00
 -1      2563 6.49500E+00 3.74750E+01 0.00000E+00
 -1      2564 4.60740E+01 7.17089E+00 0.00000E+00
 -1      2565 6.40575E+00 7.49481E+00 0.00000E+00
 -1      2566 2.19519E+01 8.37455E+00 0.00000E+00
 -1      2567 6.55950E+00 3.99453E+01 0.00000E+00
 -1      2568 2.30270E+01 6.03132E+00 0.00000E+00
 -1      2569 2.71984E+01 2.32386E+01 0.00000E+00
 -1      2570 4.31623E+01 7.11152E+00 0.00000E+00
 -1      2571 2.99602E+01 2.39471E+01 0.00000E+00
 -1      2572 2.89890E+01 2.46682E+01 0.00000E+00
 -1      2573 3.05946E+01 2.46157E+01 0.00000E+00
 -1      2574 4.23853E+01 8.15034E+00 0.00000E+00
 -1      2575 1.75350E+01 6.49795E+00 0.00000E+00
 -1      2576 7.70475E+00 8.23231E+00 0.00000E+00
 -1      2577 1.41465E+02 8.74795E+00 0.00000E+00
 -1      2578 1.42764E+02 8.01045E+00 0.00000E+00
 -1      2579 1.43514E+02 6.71145E+00 0.00000E+00
 -1      2580 4.33749E+01 1.27413E+01 0.00000E+00
 -1      2581 4.31864E+01 1.03413E+01 0.00000E+00
 -1      2582 1.42758E+02 4.35929E+01 0.00000E+00
 -1      2583 1.43241E+02 4.17323E+01 0.00000E+00
 -1      2584 1.41942E+02 4.09948E+01 0.00000E+00
 -1      2585 1.41414E+02 4.35342E+01 0.00000E+00
 -1      2586 4.26849E+01 1.69104E+01 0.00000E+00
 -1      2587 3.43196E+01 2.37726E+01 0.00000E+00
 -1      2588 2.18148E+01 1.79473E+01 0.00000E+00
 -1      2589 3.66680E+01 2.33943E+01 0.00000E+00
 -1      2590 2.08247E+01 1.30656E+01 0.00000E+00
 -1      2591 1.40664E+02 4.22352E+01 0.00000E+00
 -1      2592 2.32317E+01 2.01839E+01 0.00000E+00
 -1      2593 2.51097E+01 2.17703E+01 0.00000E+00
 -1      2594 9.09300E+00 1.98250E+01 0.00000E+00
 -1      2595 9.09300E+00 2.12750E+01 0.00000E+00
 -1      2596 9.09300E+00 2.27500E+01 0.00000E+00
 -1      2597 9.09300E+00 2.42250E+01 0.00000E+00
 -1      2598 1.03920E+01 2.20250E+01 0.00000E+00
 -1      2599 9.09300E+00 1.39375E+01 0.00000E+00
 -1      2600 9.09300E+00 1.54125E+01 0.00000E+00
 -1      2601 9.09300E+00 1.09875E+01 0.00000E+00
 -1      2602 9.09300E+00 1.24625E+01 0.00000E+00
 -1      2603 1.03920E+01 1.32000E+01 0.00000E+00
 -1      2604 5.88240E+01 8.46989E+00 0.00000E+00
 -1      2605 5.73240E+01 8.46989E+00 0.00000E+00
 -1      2606 1.14000E+01 4.09070E+01 0.00000E+00
 -1      2607 1.29000E+01 4.09070E+01 0.00000E+00
 -1      2608 2.72589E+01 2.44054E+01 0.00000E+00
 -1      2609 2.61028E+01 2.36444E+01 0.00000E+00
 -1      2610 1.44000E+01 4.09070E+01 0.00000E+00
 -1      2611 1.59000E+01 4.09070E+01 0.00000E+00
 -1      2612 1.36500E+01 3.96080E+01 0.00000E+00
 -1      2613 1.74000E+01 4.09070E+01 0.00000E+00
 -1      2614 1.89000E+01 4.09070E+01 0.00000E+00
 -1      2615 1.66500E+01 3.96080E+01 0.00000E+00
 -1      2616 2.04000E+01 4.09070E+01 0.00000E+00
 -1      2617 2.19000E+01 4.09070E+01 0.00000E+00
 -1      2618 1.96500E+01 3.96080E+01 0.00000E+00
 -1      2619 2.34000E+01 4.09070E+01 0.00000E+00
 -1      2620 2.49000E+01 4.09070E+01 0.00000E+00
 -1      2621 2.26500E+01 3.96080E+01 0.00000E+00
 -1      2622 2.64000E+01 4.09070E+01 0.00000E+00
 -1      2623 2.79000E+01 4.09070E+01 0.00000E+00
 -1      2624 2.56500E+01 3.96080E+01 0.00000E+00
 -1      2625 2.94000E+01 4.09070E+01 0.00000E+00
 -1      2626 3.09000E+01 4.09070E+01 0.00000E+00
 -1      2627 2.86500E+01 3.96080E+01 0.00000E+00
 -1      2628 3.24000E+01 4.09070E+01 0.00000E+00
 -1      2629 3.39000E+01 4.09070E+01 0.00000E+00
 -1      2630 3.16500E+01 3.96080E+01 0.00000E+00
 -1      2631 3.54000E+01 4.09070E+01 0.00000E+00
 -1      2632 3.69000E+01 4.09070E+01 0.00000E+00
 -1      2633 3.46500E+01 3.96080E+01 0.00000E+00
 -1      2634 3.84000E+01 4.09070E+01 0.00000E+00
 -1      2635 3.99000E+01 4.09070E+01 0.00000E+00
 -1      2636 3.76500E+01 3.96080E+01 0.00000E+00
 -1      2637 4.14000E+01 4.09070E+01 0.00000E+00
 -1      2638 4.29000E+01 4.09070E+01 0.00000E+00
 -1      2639 4.06500E+01 3.96080E+01 0.00000E+00
 -1      2640 4.44000E+01 4.09070E+01 0.00000E+00
 -1      2641 4.59000E+01 4.09070E+01 0.00000E+00
 -1      2642 4.36500E+01 3.96080E+01 0.00000E+00
 -1      2643 4.74000E+01 4.09070E+01 0.00000E+00
 -1      2644 4.89000E+01 4.09070E+01 0.00000E+00
 -1      2645 4.66500E+01 3.96080E+01 0.00000E+00
 -1      2646 5.04000E+01 4.09070E+01 0.00000E+00
 -1      2647 5.19000E+01 4.09070E+01 0.00000E+00
 -1      2648 4.96500E+01 3.96080E+01 0.00000E+00
 -1      2649 5.34000E+01 4.09070E+01 0.00000E+00
 -1      2650 5.49000E+01 4.09070E+01 0.00000E+00
 -1      2651 5.26500E+01 3.96080E+01 0.00000E+00
 -1      2652 5.64000E+01 4.09070E+01 0.00000E+00
 -1      2653 5.79000E+01 4.09070E+01 0.00000E+00
 -1      2654 5.56500E+01 3.96080E+01 0.00000E+00
 -1      2655 5.94000E+01 4.09070E+01 0.00000E+00
 -1      2656 6.09000E+01 4.09070E+01 0.00000E+00
 -1      2657 5.86500E+01 3.96080E+01 0.00000E+00
 -1      2658 6.24000E+01 4.09070E+01 0.00000E+00
 -1      2659 6.39000E+01 4.09070E+01 0.00000E+00
 -1      2660 6.16500E+01 3.96080E+01 0.00000E+00
 -1      2661 6.54000E+01 4.09070E+01 0.00000E+00
 -1      2662 6.69000E+01 4.09070E+01 0.00000E+00
 -1      2663 6.46500E+01 3.96080E+01 0.00000E+00
 -1      2664 6.84000E+01 4.09070E+01 0.00000E+00
 -1      2665 6.99000E+01 4.09070E+01 0.00000E+00
 -1      2666 6.76500E+01 3.96080E+01 0.00000E+00
 -1      2667 7.14000E+01 4.09070E+01 0.00000E+00
 -1      2668 7.29000E+01 4.09070E+01 0.00000E+00
 -1      2669 7.06500E+01 3.96080E+01 0.00000E+00
 -1      2670 7.44000E+01 4.09070E+01 0.00000E+00
 -1      2671 7.59000E+01 4.09070E+01 0.00000E+00
 -1      2672 7.36500E+01 3.96080E+01 0.00000E+00
 -1      2673 7.74000E+01 4.09070E+01 0.00000E+00
 -1      2674 7.89000E+01 4.09070E+01 0.00000E+00
 -1      2675 7.66500E+01 3.96080E+01 0.00000E+00
 -1      2676 8.04000E+01 4.09070E+01 0.00000E+00
 -1      2677 8.19000E+01 4.09070E+01 0.00000E+00
 -1      2678 7.96500E+01 3.96080E+01 0.00000E+00
 -1      2679 8.34000E+01 4.09070E+01 0.00000E+00
 -1      2680 8.49000E+01 4.09070E+01 0.00000E+00
 -1      2681 8.26500E+01 3.96080E+01 0.00000E+00
 -1      2682 8.64000E+01 4.09070E+01 0.00000E+00
 -1      2683 8.79000E+01 4.09070E+01 0.00000E+00
 -1      2684 8.56500E+01 3.96080E+01 0.00000E+00
 -1      2685 8.94000E+01 4.09070E+01 0.00000E+00
 -1      2686 9.09000E+01 4.09070E+01 0.00000E+00
 -1      2687 8.86500E+01 3.96080E+01 0.00000E+00
 -1      2688 9.24000E+01 4.09070E+01 0.00000E+00
 -1      2689 9.39000E+01 4.09070E+01 0.00000E+00
 -1      2690 9.16500E+01 3.96080E+01 0.00000E+00
 -1      2691 9.54000E+01 4.09070E+01 0.00000E+00
 -1      2692 9.69000E+01 4.09070E+01 0.00000E+00
 -1      2693 9.46500E+01 3.96080E+01 0.00000E+00
 -1      2694 9.84000E+01 4.09070E+01 0.00000E+00
 -1      2695 9.99000E+01 4.09070E+01 0.00000E+00
 -1      2696 9.76500E+01 3.96080E+01 0.00000E+00
 -1      2697 1.01400E+02 4.09070E+01 0.00000E+00
 -1      2698 1.02900E+02 4.09070E+01 0.00000E+00
 -1      2699 1.00650E+02 3.96080E+01 0.00000E+00
 -1      2700 1.04400E+02 4.09070E+01 0.00000E+00
 -1      2701 1.05900E+02 4.09070E+01 0.00000E+00
 -1      2702 1.03650E+02 3.96080E+01 0.00000E+00
 -1      2703 1.07400E+02 4.09070E+01 0.00000E+00
 -1      2704 1.08900E+02 4.09070E+01 0.00000E+00
 -1      2705 1.06650E+02 3.96080E+01 0.00000E+00
 -1      2706 1.10400E+02 4.09070E+01 0.00000E+00
 -1      2707 1.11900E+02 4.09070E+01 0.00000E+00
 -1      2708 1.09650E+02 3.96080E+01 0.00000E+00
 -1      2709 1.13400E+02 4.09070E+01 0.00000E+00
 -1      2710 1.14900E+02 4.09070E+01 0.00000E+00
 -1      2711 1.12650E+02 3.96080E+01 0.00000E+00
 -1      2712 1.16400E+02 4.09070E+01 0.00000E+00
 -1      2713 1.17900E+02 4.09070E+01 0.00000E+00
 -1      2714 1.15650E+02 3.96080E+01 0.00000E+00
 -1      2715 1.19400E+02 4.09070E+01 0.00000E+00
 -1      2716 1.20900E+02 4.09070E+01 0.00000E+00
 -1      2717 1.18650E+02 3.96080E+01 0.00000E+00
 -1      2718 1.22400E+02 4.09070E+01 0.00000E+00
 -1      2719 1.23900E+02 4.09070E+01 0.00000E+00
 -1      2720 1.21650E+02 3.96080E+01 0.00000E+00
 -1      2721 1.25400E+02 4.09070E+01 0.00000E+00
 -1      2722 1.26900E+02 4.09070E+01 0.00000E+00
 -1      2723 1.24650E+02 3.96080E+01 0.00000E+00
 -1      2724 1.28400E+02 4.09070E+01 0.00000E+00
 -1      2725 1.29900E+02 4.09070E+01 0.00000E+00
 -1      2726 1.27650E+02 3.96080E+01 0.00000E+00
 -1      2727 1.31400E+02 4.09070E+01 0.00000E+00
 -1      2728 1.32900E+02 4.09070E+01 0.00000E+00
 -1      2729 1.30650E+02 3.96080E+01 0.00000E+00
 -1      2730 1.34400E+02 4.09070E+01 0.00000E+00
 -1      2731 1.35900E+02 4.09070E+01 0.00000E+00
 -1      2732 1.33650E+02 3.96080E+01 0.00000E+00
 -1      2733 1.37400E+02 4.09070E+01 0.00000E+00
 -1      2734 1.38900E+02 4.09070E+01 0.00000E+00
 -1      2735 1.36650E+02 3.96080E+01 0.00000E+00
 -1      2736 4.36633E+01 1.65077E+01 0.00000E+00
 -1      2737 4.32650E+01 1.77952E+01 0.00000E+00
 -1      2738 6.18240E+01 8.46989E+00 0.00000E+00
 -1      2739 6.03240E+01 8.46989E+00 0.00000E+00
 -1      2740 5.95740E+01 9.76889E+00 0.00000E+00
 -1      2741 2.33775E+01 6.51213E+00 0.00000E+00
 -1      2742 1.40706E+02 1.03250E+01 0.00000E+00
 -1      2743 1.39965E+02 8.74795E+00 0.00000E+00
 -1      2744 1.38465E+02 8.74795E+00 0.00000E+00
 -1      2745 5.58240E+01 8.46989E+00 0.00000E+00
 -1      2746 5.43240E+01 8.46989E+00 0.00000E+00
 -1      2747 5.65740E+01 9.76889E+00 0.00000E+00
 -1      2748 6.48240E+01 8.46989E+00 0.00000E+00
 -1      2749 6.33240E+01 8.46989E+00 0.00000E+00
 -1      2750 6.25740E+01 9.76889E+00 0.00000E+00
 -1      2751 6.78240E+01 8.46989E+00 0.00000E+00
 -1      2752 6.63240E+01 8.46989E+00 0.00000E+00
 -1      2753 6.55740E+01 9.76889E+00 0.00000E+00
 -1      2754 7.08240E+01 8.46989E+00 0.00000E+00
 -1      2755 6.93240E+01 8.46989E+00 0.00000E+00
 -1      2756 6.85740E+01 9.76889E+00 0.00000E+00
 -1      2757 7.38240E+01 8.46989E+00 0.00000E+00
 -1      2758 7.23240E+01 8.46989E+00 0.00000E+00
 -1      2759 7.15740E+01 9.76889E+00 0.00000E+00
 -1      2760 7.68240E+01 8.46989E+00 0.00000E+00
 -1      2761 7.53240E+01 8.46989E+00 0.00000E+00
 -1      2762 7.45740E+01 9.76889E+00 0.00000E+00
 -1      2763 7.98240E+01 8.46989E+00 0.00000E+00
 -1      2764 7.83240E+01 8.46989E+00 0.00000E+00
 -1      2765 7.75740E+01 9.76889E+00 0.00000E+00
 -1      2766 8.28240E+01 8.46989E+00 0.00000E+00
 -1      2767 8.13240E+01 8.46989E+00 0.00000E+00
 -1      2768 8.05740E+01 9.76889E+00 0.00000E+00
 -1      2769 8.58240E+01 8.46989E+00 0.00000E+00
 -1      2770 8.43240E+01 8.46989E+00 0.00000E+00
 -1      2771 8.35740E+01 9.76889E+00 0.00000E+00
 -1      2772 8.89740E+01 8.46989E+00 0.00000E+00
 -1      2773 8.73990E+01 8.46989E+00 0.00000E+00
 -1      2774 8.66490E+01 9.76889E+00 0.00000E+00
 -1      2775 9.19740E+01 8.46989E+00 0.00000E+00
 -1      2776 9.04740E+01 8.46989E+00 0.00000E+00
 -1      2777 8.97240E+01 9.76889E+00 0.00000E+00
 -1      2778 9.49740E+01 8.46989E+00 0.00000E+00
 -1      2779 9.34740E+01 8.46989E+00 0.00000E+00
 -1      2780 9.27240E+01 9.76889E+00 0.00000E+00
 -1      2781 9.79740E+01 8.46989E+00 0.00000E+00
 -1      2782 9.64740E+01 8.46989E+00 0.00000E+00
 -1      2783 9.57240E+01 9.76889E+00 0.00000E+00
 -1      2784 1.00974E+02 8.46989E+00 0.00000E+00
 -1      2785 9.94740E+01 8.46989E+00 0.00000E+00
 -1      2786 9.87240E+01 9.76889E+00 0.00000E+00
 -1      2787 1.03974E+02 8.46989E+00 0.00000E+00
 -1      2788 1.02474E+02 8.46989E+00 0.00000E+00
 -1      2789 1.01724E+02 9.76889E+00 0.00000E+00
 -1      2790 1.06974E+02 8.46989E+00 0.00000E+00
 -1      2791 1.05474E+02 8.46989E+00 0.00000E+00
 -1      2792 1.04724E+02 9.76889E+00 0.00000E+00
 -1      2793 1.09974E+02 8.46989E+00 0.00000E+00
 -1      2794 1.08474E+02 8.46989E+00 0.00000E+00
 -1      2795 1.07724E+02 9.76889E+00 0.00000E+00
 -1      2796 1.12974E+02 8.46989E+00 0.00000E+00
 -1      2797 1.11474E+02 8.46989E+00 0.00000E+00
 -1      2798 1.10724E+02 9.76889E+00 0.00000E+00
 -1      2799 1.15974E+02 8.46989E+00 0.00000E+00
 -1      2800 1.14474E+02 8.46989E+00 0.00000E+00
 -1      2801 1.13724E+02 9.76889E+00 0.00000E+00
 -1      2802 1.18974E+02 8.46989E+00 0.00000E+00
 -1      2803 1.17474E+02 8.46989E+00 0.00000E+00
 -1      2804 1.16724E+02 9.76889E+00 0.00000E+00
 -1      2805 1.21974E+02 8.46989E+00 0.00000E+00
 -1      2806 1.20474E+02 8.46989E+00 0.00000E+00
 -1      2807 1.19724E+02 9.76889E+00 0.00000E+00
 -1      2808 1.24974E+02 8.46989E+00 0.00000E+00
 -1      2809 1.23474E+02 8.46989E+00 0.00000E+00
 -1      2810 1.22724E+02 9.76889E+00 0.00000E+00
 -1      2811 1.27974E+02 8.46989E+00 0.00000E+00
 -1      2812 1.26474E+02 8.46989E+00 0.00000E+00
 -1      2813 1.25724E+02 9.76889E+00 0.00000E+00
 -1      2814 1.30974E+02 8.46989E+00 0.00000E+00
 -1      2815 1.29474E+02 8.46989E+00 0.00000E+00
 -1      2816 1.28724E+02 9.76889E+00 0.00000E+00
 -1      2817 1.33974E+02 8.46989E+00 0.00000E+00
 -1      2818 1.32474E+02 8.46989E+00 0.00000E+00
 -1      2819 1.31724E+02 9.76889E+00 0.00000E+00
 -1      2820 1.36969E+02 8.60892E+00 0.00000E+00
 -1      2821 1.35469E+02 8.60892E+00 0.00000E+00
 -1      2822 1.34719E+02 9.90792E+00 0.00000E+00
 -1      2823 1.37710E+02 1.01860E+01 0.00000E+00
 -1      2824 1.40907E+02 2.13375E+01 0.00000E+00
 -1      2825 1.40907E+02 1.98625E+01 0.00000E+00
 -1      2826 1.40706E+02 1.18000E+01 0.00000E+00
 -1      2827 2.30633E+01 2.13128E+01 0.00000E+00
 -1      2828 2.21179E+01 2.04336E+01 0.00000E+00
 -1      2829 1.40907E+02 1.83875E+01 0.00000E+00
 -1      2830 1.40907E+02 1.69125E+01 0.00000E+00
 -1      2831 1.39608E+02 1.91250E+01 0.00000E+00
 -1      2832 1.40907E+02 2.72375E+01 0.00000E+00
 -1      2833 1.40907E+02 2.57625E+01 0.00000E+00
 -1      2834 1.40907E+02 3.01375E+01 0.00000E+00
 -1      2835 1.40907E+02 2.86875E+01 0.00000E+00
 -1      2836 1.39608E+02 2.79500E+01 0.00000E+00
 -1      2837 1.40907E+02 3.30875E+01 0.00000E+00
 -1      2838 1.40907E+02 3.16125E+01 0.00000E+00
 -1      2839 1.39608E+02 3.08750E+01 0.00000E+00
 -1      2840 1.40907E+02 3.60375E+01 0.00000E+00
 -1      2841 1.40907E+02 3.45625E+01 0.00000E+00
 -1      2842 1.39608E+02 3.38250E+01 0.00000E+00
 -1      2843 8.91450E+00 8.42712E+00 0.00000E+00
 -1      2844 4.39510E+01 9.66581E+00 0.00000E+00
 -1      2845 4.41174E+01 1.07586E+01 0.00000E+00
 -1      2846 1.52850E+01 7.90325E+00 0.00000E+00
 -1      2847 1.37850E+01 7.90325E+00 0.00000E+00
 -1      2848 4.41595E+01 1.46097E+01 0.00000E+00
 -1      2849 4.40026E+01 1.53969E+01 0.00000E+00
 -1      2850 2.10030E+01 1.89898E+01 0.00000E+00
 -1      2851 2.05315E+01 1.76324E+01 0.00000E+00
 -1      2852 4.37970E+01 8.20972E+00 0.00000E+00
 -1      2853 4.68240E+01 8.27981E+00 0.00000E+00
 -1      2854 4.53240E+01 8.27981E+00 0.00000E+00
 -1      2855 1.83693E+01 7.63451E+00 0.00000E+00
 -1      2856 1.68693E+01 7.74081E+00 0.00000E+00
 -1      2857 4.98240E+01 8.36359E+00 0.00000E+00
 -1      2858 4.83240E+01 8.36359E+00 0.00000E+00
 -1      2859 4.42213E+01 1.20732E+01 0.00000E+00
 -1      2860 4.42434E+01 1.33804E+01 0.00000E+00
 -1      2861 2.02432E+01 1.62497E+01 0.00000E+00
 -1      2862 2.00628E+01 1.52167E+01 0.00000E+00
 -1      2863 2.23855E+01 6.87246E+00 0.00000E+00
 -1      2864 5.28240E+01 8.46989E+00 0.00000E+00
 -1      2865 5.13240E+01 8.46989E+00 0.00000E+00
 -1      2866 5.35740E+01 9.76889E+00 0.00000E+00
 -1      2867 1.99051E+01 1.37585E+01 0.00000E+00
 -1      2868 1.97474E+01 1.23004E+01 0.00000E+00
 -1      2869 1.89855E+01 1.44514E+01 0.00000E+00
 -1      2870 3.49121E+01 2.46678E+01 0.00000E+00
 -1      2871 3.38836E+01 2.47536E+01 0.00000E+00
 -1      2872 1.40907E+02 1.54625E+01 0.00000E+00
 -1      2873 1.40907E+02 1.40125E+01 0.00000E+00
 -1      2874 1.39608E+02 1.62000E+01 0.00000E+00
 -1      2875 9.09300E+00 1.68813E+01 0.00000E+00
 -1      2876 9.09300E+00 1.83563E+01 0.00000E+00
 -1      2877 1.03920E+01 1.90812E+01 0.00000E+00
 -1      2878 1.03920E+01 1.61437E+01 0.00000E+00
 -1      2879 1.40907E+02 2.42875E+01 0.00000E+00
 -1      2880 1.40907E+02 2.28125E+01 0.00000E+00
 -1      2881 1.39608E+02 2.50250E+01 0.00000E+00
 -1      2882 2.50072E+01 2.28740E+01 0.00000E+00
 -1      2883 2.40745E+01 2.21667E+01 0.00000E+00
 -1      2884 7.85850E+00 3.92077E+01 0.00000E+00
 -1      2885 1.99559E+01 1.08652E+01 0.00000E+00
 -1      2886 2.02063E+01 9.75936E+00 0.00000E+00
 -1      2887 3.75498E+01 2.42490E+01 0.00000E+00
 -1      2888 3.62297E+01 2.45414E+01 0.00000E+00
 -1      2889 9.09300E+00 3.15875E+01 0.00000E+00
 -1      2890 9.09300E+00 3.30625E+01 0.00000E+00
 -1      2891 1.39914E+02 4.09362E+01 0.00000E+00
 -1      2892 1.40928E+02 4.09655E+01 0.00000E+00
 -1      2893 1.39164E+02 3.96372E+01 0.00000E+00
 -1      2894 3.30210E+01 2.47717E+01 0.00000E+00
 -1      2895 3.21583E+01 2.47897E+01 0.00000E+00
 -1      2896 3.36135E+01 2.56668E+01 0.00000E+00
 -1      2897 3.98386E+01 2.30148E+01 0.00000E+00
 -1      2898 3.90094E+01 2.36237E+01 0.00000E+00
 -1      2899 1.41192E+02 3.96958E+01 0.00000E+00
 -1      2900 1.08743E+01 7.88444E+00 0.00000E+00
 -1      2901 9.75375E+00 9.70731E+00 0.00000E+00
 -1      2902 1.10527E+01 1.04448E+01 0.00000E+00
 -1      2903 1.23743E+01 7.88444E+00 0.00000E+00
 -1      2904 9.09300E+00 3.45313E+01 0.00000E+00
 -1      2905 9.09300E+00 3.60000E+01 0.00000E+00
 -1      2906 1.03920E+01 3.37938E+01 0.00000E+00
 -1      2907 1.03920E+01 2.49750E+01 0.00000E+00
 -1      2908 9.09300E+00 2.57000E+01 0.00000E+00
 -1      2909 9.09300E+00 2.71750E+01 0.00000E+00
 -1      2910 5.05740E+01 9.66259E+00 0.00000E+00
 -1      2911 2.50677E+01 2.40408E+01 0.00000E+00
 -1      2912 8.85168E+00 4.05347E+01 0.00000E+00
 -1      2913 1.02152E+01 4.07987E+01 0.00000E+00
 -1      2914 4.40806E+01 1.83869E+01 0.00000E+00
 -1      2915 4.31023E+01 1.87896E+01 0.00000E+00
 -1      2916 2.09129E+01 8.38851E+00 0.00000E+00
 -1      2917 2.16969E+01 7.36723E+00 0.00000E+00
 -1      2918 4.45828E+01 1.62817E+01 0.00000E+00
 -1      2919 2.85278E+01 2.57427E+01 0.00000E+00
 -1      2920 2.78934E+01 2.50740E+01 0.00000E+00
 -1      2921 2.67977E+01 2.54798E+01 0.00000E+00
 -1      2922 2.06663E+01 2.12477E+01 0.00000E+00
 -1      2923 2.08347E+01 2.01188E+01 0.00000E+00
 -1      2924 1.95514E+01 1.98039E+01 0.00000E+00
 -1      2925 1.39608E+02 2.20750E+01 0.00000E+00
 -1      2926 1.90363E+01 1.15581E+01 0.00000E+00
 -1      2927 1.39407E+02 1.25375E+01 0.00000E+00
 -1      2928 2.29608E+01 2.24165E+01 0.00000E+00
 -1      2929 1.61193E+01 9.03981E+00 0.00000E+00
 -1      2930 1.41192E+02 3.82207E+01 0.00000E+00
 -1      2931 1.94314E+01 1.72923E+01 0.00000E+00
 -1      2932 4.49859E+01 1.13977E+01 0.00000E+00
 -1      2933 1.31243E+01 9.18344E+00 0.00000E+00
 -1      2934 1.99513E+01 8.75204E+00 0.00000E+00
 -1      2935 4.45470E+01 9.31863E+00 0.00000E+00
 -1      2936 4.50060E+01 1.39417E+01 0.00000E+00
 -1      2937 4.75740E+01 9.47250E+00 0.00000E+00
 -1      2938 1.39529E+02 3.85602E+01 0.00000E+00
 -1      2939 1.40542E+02 3.71145E+01 0.00000E+00
 -1      2940 1.39243E+02 3.63770E+01 0.00000E+00
 -1      2941 1.38514E+02 3.85310E+01 0.00000E+00
 -1      2942 9.09300E+00 2.86437E+01 0.00000E+00
 -1      2943 9.09300E+00 3.01187E+01 0.00000E+00
 -1      2944 1.03920E+01 3.08563E+01 0.00000E+00
 -1      2945 1.03920E+01 2.79188E+01 0.00000E+00
 -1      2946 3.85711E+01 2.47708E+01 0.00000E+00
 -1      2947 2.13465E+01 6.88642E+00 0.00000E+00
 -1      2948 3.57938E+01 2.55224E+01 0.00000E+00
 -1      2949 1.09652E+01 3.94997E+01 0.00000E+00
 -1      2950 4.10009E+01 2.22356E+01 0.00000E+00
 -1      2951 4.11931E+01 2.33664E+01 0.00000E+00
 -1      2952 4.16610E+01 2.13141E+01 0.00000E+00
 -1      2953 6.33240E+01 1.10679E+01 0.00000E+00
 -1      2954 6.18240E+01 1.10679E+01 0.00000E+00
 -1      2955 1.16910E+01 1.24625E+01 0.00000E+00
 -1      2956 1.16910E+01 1.39375E+01 0.00000E+00
 -1      2957 4.52564E+01 1.80688E+01 0.00000E+00
 -1      2958 4.50936E+01 1.90632E+01 0.00000E+00
 -1      2959 1.38309E+02 2.57625E+01 0.00000E+00
 -1      2960 1.38309E+02 2.42875E+01 0.00000E+00
 -1      2961 3.17745E+01 2.56875E+01 0.00000E+00
 -1      2962 3.11819E+01 2.47924E+01 0.00000E+00
 -1      2963 8.78718E+00 3.80644E+01 0.00000E+00
 -1      2964 4.24422E+01 1.97111E+01 0.00000E+00
 -1      2965 3.65505E+01 2.64797E+01 0.00000E+00
 -1      2966 3.52329E+01 2.66060E+01 0.00000E+00
 -1      2967 4.59351E+01 1.58473E+01 0.00000E+00
 -1      2968 4.55957E+01 1.69580E+01 0.00000E+00
 -1      2969 4.66087E+01 1.76343E+01 0.00000E+00
 -1      2970 1.59000E+01 3.83090E+01 0.00000E+00
 -1      2971 1.74000E+01 3.83090E+01 0.00000E+00
 -1      2972 1.89000E+01 3.83090E+01 0.00000E+00
 -1      2973 2.04000E+01 3.83090E+01 0.00000E+00
 -1      2974 1.81500E+01 3.70100E+01 0.00000E+00
 -1      2975 2.19000E+01 3.83090E+01 0.00000E+00
 -1      2976 2.34000E+01 3.83090E+01 0.00000E+00
 -1      2977 2.11500E+01 3.70100E+01 0.00000E+00
 -1      2978 2.49000E+01 3.83090E+01 0.00000E+00
 -1      2979 2.64000E+01 3.83090E+01 0.00000E+00
 -1      2980 2.41500E+01 3.70100E+01 0.00000E+00
 -1      2981 2.79000E+01 3.83090E+01 0.00000E+00
 -1      2982 2.94000E+01 3.83090E+01 0.00000E+00
 -1      2983 2.71500E+01 3.70100E+01 0.00000E+00
 -1      2984 3.09000E+01 3.83090E+01 0.00000E+00
 -1      2985 3.24000E+01 3.83090E+01 0.00000E+00
 -1      2986 3.01500E+01 3.70100E+01 0.00000E+00
 -1      2987 3.39000E+01 3.83090E+01 0.00000E+00
 -1      2988 3.54000E+01 3.83090E+01 0.00000E+00
 -1      2989 3.31500E+01 3.70100E+01 0.00000E+00
 -1      2990 3.69000E+01 3.83090E+01 0.00000E+00
 -1      2991 3.84000E+01 3.83090E+01 0.00000E+00
 -1      2992 3.61500E+01 3.70100E+01 0.00000E+00
 -1      2993 3.99000E+01 3.83090E+01 0.00000E+00
 -1      2994 4.14000E+01 3.83090E+01 0.00000E+00
 -1      2995 3.91500E+01 3.70100E+01 0.00000E+00
 -1      2996 4.29000E+01 3.83090E+01 0.00000E+00
 -1      2997 4.44000E+01 3.83090E+01 0.00000E+00
 -1      2998 4.21500E+01 3.70100E+01 0.00000E+00
 -1      2999 4.59000E+01 3.83090E+01 0.00000E+00
 -1      3000 4.74000E+01 3.83090E+01 0.00000E+00
 -1      3001 4.51500E+01 3.70100E+01 0.00000E+00
 -1      3002 4.89000E+01 3.83090E+01 0.00000E+00
 -1      3003 5.04000E+01 3.83090E+01 0.00000E+00
 -1      3004 4.81500E+01 3.70100E+01 0.00000E+00
 -1      3005 5.19000E+01 3.83090E+01 0.00000E+00
 -1      3006 5.34000E+01 3.83090E+01 0.00000E+00
 -1      3007 5.11500E+01 3.70100E+01 0.00000E+00
 -1      3008 5.49000E+01 3.83090E+01 0.00000E+00
 -1      3009 5.64000E+01 3.83090E+01 0.00000E+00
 -1      3010 5.41500E+01 3.70100E+01 0.00000E+00
 -1      3011 5.79000E+01 3.83090E+01 0.00000E+00
 -1      3012 5.94000E+01 3.83090E+01 0.00000E+00
 -1      3013 5.71500E+01 3.70100E+01 0.00000E+00
 -1      3014 6.09000E+01 3.83090E+01 0.00000E+00
 -1      3015 6.24000E+01 3.83090E+01 0.00000E+00
 -1      3016 6.01500E+01 3.70100E+01 0.00000E+00
 -1      3017 6.39000E+01 3.83090E+01 0.00000E+00
 -1      3018 6.54000E+01 3.83090E+01 0.00000E+00
 -1      3019 6.31500E+01 3.70100E+01 0.00000E+00
 -1      3020 6.69000E+01 3.83090E+01 0.00000E+00
 -1      3021 6.84000E+01 3.83090E+01 0.00000E+00
 -1      3022 6.61500E+01 3.70100E+01 0.00000E+00
 -1      3023 6.99000E+01 3.83090E+01 0.00000E+00
 -1      3024 7.14000E+01 3.83090E+01 0.00000E+00
 -1      3025 6.91500E+01 3.70100E+01 0.00000E+00
 -1      3026 7.29000E+01 3.83090E+01 0.00000E+00
 -1      3027 7.44000E+01 3.83090E+01 0.00000E+00
 -1      3028 7.21500E+01 3.70100E+01 0.00000E+00
 -1      3029 7.59000E+01 3.83090E+01 0.00000E+00
 -1      3030 7.74000E+01 3.83090E+01 0.00000E+00
 -1      3031 7.51500E+01 3.70100E+01 0.00000E+00
 -1      3032 7.89000E+01 3.83090E+01 0.00000E+00
 -1      3033 8.04000E+01 3.83090E+01 0.00000E+00
 -1      3034 7.81500E+01 3.70100E+01 0.00000E+00
 -1      3035 8.19000E+01 3.83090E+01 0.00000E+00
 -1      3036 8.34000E+01 3.83090E+01 0.00000E+00
 -1      3037 8.11500E+01 3.70100E+01 0.00000E+00
 -1      3038 8.49000E+01 3.83090E+01 0.00000E+00
 -1      3039 8.64000E+01 3.83090E+01 0.00000E+00
 -1      3040 8.41500E+01 3.70100E+01 0.00000E+00
 -1      3041 8.79000E+01 3.83090E+01 0.00000E+00
 -1      3042 8.94000E+01 3.83090E+01 0.00000E+00
 -1      3043 8.71500E+01 3.70100E+01 0.00000E+00
 -1      3044 9.09000E+01 3.83090E+01 0.00000E+00
 -1      3045 9.24000E+01 3.83090E+01 0.00000E+00
 -1      3046 9.01500E+01 3.70100E+01 0.00000E+00
 -1      3047 9.39000E+01 3.83090E+01 0.00000E+00
 -1      3048 9.54000E+01 3.83090E+01 0.00000E+00
 -1      3049 9.31500E+01 3.70100E+01 0.00000E+00
 -1      3050 9.69000E+01 3.83090E+01 0.00000E+00
 -1      3051 9.84000E+01 3.83090E+01 0.00000E+00
 -1      3052 9.61500E+01 3.70100E+01 0.00000E+00
 -1      3053 9.99000E+01 3.83090E+01 0.00000E+00
 -1      3054 1.01400E+02 3.83090E+01 0.00000E+00
 -1      3055 9.91500E+01 3.70100E+01 0.00000E+00
 -1      3056 1.02900E+02 3.83090E+01 0.00000E+00
 -1      3057 1.04400E+02 3.83090E+01 0.00000E+00
 -1      3058 1.02150E+02 3.70100E+01 0.00000E+00
 -1      3059 1.05900E+02 3.83090E+01 0.00000E+00
 -1      3060 1.07400E+02 3.83090E+01 0.00000E+00
 -1      3061 1.05150E+02 3.70100E+01 0.00000E+00
 -1      3062 1.08900E+02 3.83090E+01 0.00000E+00
 -1      3063 1.10400E+02 3.83090E+01 0.00000E+00
 -1      3064 1.08150E+02 3.70100E+01 0.00000E+00
 -1      3065 1.11900E+02 3.83090E+01 0.00000E+00
 -1      3066 1.13400E+02 3.83090E+01 0.00000E+00
 -1      3067 1.11150E+02 3.70100E+01 0.00000E+00
 -1      3068 1.14900E+02 3.83090E+01 0.00000E+00
 -1      3069 1.16400E+02 3.83090E+01 0.00000E+00
 -1      3070 1.14150E+02 3.70100E+01 0.00000E+00
 -1      3071 1.17900E+02 3.83090E+01 0.00000E+00
 -1      3072 1.19400E+02 3.83090E+01 0.00000E+00
 -1      3073 1.17150E+02 3.70100E+01 0.00000E+00
 -1      3074 1.20900E+02 3.83090E+01 0.00000E+00
 -1      3075 1.22400E+02 3.83090E+01 0.00000E+00
 -1      3076 1.20150E+02 3.70100E+01 0.00000E+00
 -1      3077 1.23900E+02 3.83090E+01 0.00000E+00
 -1      3078 1.25400E+02 3.83090E+01 0.00000E+00
 -1      3079 1.23150E+02 3.70100E+01 0.00000E+00
 -1      3080 1.26900E+02 3.83090E+01 0.00000E+00
 -1      3081 1.28400E+02 3.83090E+01 0.00000E+00
 -1      3082 1.26150E+02 3.70100E+01 0.00000E+00
 -1      3083 1.29900E+02 3.83090E+01 0.00000E+00
 -1      3084 1.31400E+02 3.83090E+01 0.00000E+00
 -1      3085 1.29150E+02 3.70100E+01 0.00000E+00
 -1      3086 1.32900E+02 3.83090E+01 0.00000E+00
 -1      3087 1.34400E+02 3.83090E+01 0.00000E+00
 -1      3088 1.32150E+02 3.70100E+01 0.00000E+00
 -1      3089 1.35707E+02 3.84200E+01 0.00000E+00
 -1      3090 1.37207E+02 3.84200E+01 0.00000E+00
 -1      3091 1.37572E+02 3.73430E+01 0.00000E+00
 -1      3092 1.34957E+02 3.71210E+01 0.00000E+00
 -1      3093 6.03240E+01 1.10679E+01 0.00000E+00
 -1      3094 5.88240E+01 1.10679E+01 0.00000E+00
 -1      3095 6.10740E+01 1.23669E+01 0.00000E+00
 -1      3096 3.02107E+01 2.55135E+01 0.00000E+00
 -1      3097 1.98465E+01 6.88642E+00 0.00000E+00
 -1      3098 1.38309E+02 3.45625E+01 0.00000E+00
 -1      3099 1.38309E+02 3.30875E+01 0.00000E+00
 -1      3100 5.73240E+01 1.10679E+01 0.00000E+00
 -1      3101 5.58240E+01 1.10679E+01 0.00000E+00
 -1      3102 5.80740E+01 1.23669E+01 0.00000E+00
 -1      3103 6.93240E+01 1.10679E+01 0.00000E+00
 -1      3104 6.78240E+01 1.10679E+01 0.00000E+00
 -1      3105 7.23240E+01 1.10679E+01 0.00000E+00
 -1      3106 7.08240E+01 1.10679E+01 0.00000E+00
 -1      3107 7.00740E+01 1.23669E+01 0.00000E+00
 -1      3108 7.53240E+01 1.10679E+01 0.00000E+00
 -1      3109 7.38240E+01 1.10679E+01 0.00000E+00
 -1      3110 7.30740E+01 1.23669E+01 0.00000E+00
 -1      3111 7.83240E+01 1.10679E+01 0.00000E+00
 -1      3112 7.68240E+01 1.10679E+01 0.00000E+00
 -1      3113 7.60740E+01 1.23669E+01 0.00000E+00
 -1      3114 8.13240E+01 1.10679E+01 0.00000E+00
 -1      3115 7.98240E+01 1.10679E+01 0.00000E+00
 -1      3116 7.90740E+01 1.23669E+01 0.00000E+00
 -1      3117 8.43240E+01 1.10679E+01 0.00000E+00
 -1      3118 8.28240E+01 1.10679E+01 0.00000E+00
 -1      3119 8.20740E+01 1.23669E+01 0.00000E+00
 -1      3120 8.74740E+01 1.10679E+01 0.00000E+00
 -1      3121 8.58990E+01 1.10679E+01 0.00000E+00
 -1      3122 8.51490E+01 1.23669E+01 0.00000E+00
 -1      3123 9.04740E+01 1.10679E+01 0.00000E+00
 -1      3124 8.89740E+01 1.10679E+01 0.00000E+00
 -1      3125 8.82240E+01 1.23669E+01 0.00000E+00
 -1      3126 9.34740E+01 1.10679E+01 0.00000E+00
 -1      3127 9.19740E+01 1.10679E+01 0.00000E+00
 -1      3128 9.12240E+01 1.23669E+01 0.00000E+00
 -1      3129 9.64740E+01 1.10679E+01 0.00000E+00
 -1      3130 9.49740E+01 1.10679E+01 0.00000E+00
 -1      3131 9.42240E+01 1.23669E+01 0.00000E+00
 -1      3132 9.94740E+01 1.10679E+01 0.00000E+00
 -1      3133 9.79740E+01 1.10679E+01 0.00000E+00
 -1      3134 9.72240E+01 1.23669E+01 0.00000E+00
 -1      3135 1.02474E+02 1.10679E+01 0.00000E+00
 -1      3136 1.00974E+02 1.10679E+01 0.00000E+00
 -1      3137 1.00224E+02 1.23669E+01 0.00000E+00
 -1      3138 1.05474E+02 1.10679E+01 0.00000E+00
 -1      3139 1.03974E+02 1.10679E+01 0.00000E+00
 -1      3140 1.03224E+02 1.23669E+01 0.00000E+00
 -1      3141 1.08474E+02 1.10679E+01 0.00000E+00
 -1      3142 1.06974E+02 1.10679E+01 0.00000E+00
 -1      3143 1.06224E+02 1.23669E+01 0.00000E+00
 -1      3144 1.11474E+02 1.10679E+01 0.00000E+00
 -1      3145 1.09974E+02 1.10679E+01 0.00000E+00
 -1      3146 1.09224E+02 1.23669E+01 0.00000E+00
 -1      3147 1.14474E+02 1.10679E+01 0.00000E+00
 -1      3148 1.12974E+02 1.10679E+01 0.00000E+00
 -1      3149 1.12224E+02 1.23669E+01 0.00000E+00
 -1      3150 1.17474E+02 1.10679E+01 0.00000E+00
 -1      3151 1.15974E+02 1.10679E+01 0.00000E+00
 -1      3152 1.15224E+02 1.23669E+01 0.00000E+00
 -1      3153 1.20474E+02 1.10679E+01 0.00000E+00
 -1      3154 1.18974E+02 1.10679E+01 0.00000E+00
 -1      3155 1.18224E+02 1.23669E+01 0.00000E+00
 -1      3156 1.23474E+02 1.10679E+01 0.00000E+00
 -1      3157 1.21974E+02 1.10679E+01 0.00000E+00
 -1      3158 1.21224E+02 1.23669E+01 0.00000E+00
 -1      3159 1.26474E+02 1.10679E+01 0.00000E+00
 -1      3160 1.24974E+02 1.10679E+01 0.00000E+00
 -1      3161 1.24224E+02 1.23669E+01 0.00000E+00
 -1      3162 1.29474E+02 1.10679E+01 0.00000E+00
 -1      3163 1.27974E+02 1.10679E+01 0.00000E+00
 -1      3164 1.27224E+02 1.23669E+01 0.00000E+00
 -1      3165 1.32474E+02 1.10679E+01 0.00000E+00
 -1      3166 1.30974E+02 1.10679E+01 0.00000E+00
 -1      3167 1.30224E+02 1.23669E+01 0.00000E+00
 -1      3168 1.38309E+02 1.98625E+01 0.00000E+00
 -1      3169 1.38309E+02 1.83875E+01 0.00000E+00
 -1      3170 1.16910E+01 2.12875E+01 0.00000E+00
 -1      3171 1.16910E+01 2.27625E+01 0.00000E+00
 -1      3172 1.79176E+01 1.21284E+01 0.00000E+00
 -1      3173 1.81260E+01 1.06931E+01 0.00000E+00
 -1      3174 3.22650E+01 2.65438E+01 0.00000E+00
 -1      3175 3.12886E+01 2.65464E+01 0.00000E+00
 -1      3176 1.38309E+02 1.69375E+01 0.00000E+00
 -1      3177 1.38309E+02 1.54875E+01 0.00000E+00
 -1      3178 1.37010E+02 1.76750E+01 0.00000E+00
 -1      3179 1.38309E+02 3.16125E+01 0.00000E+00
 -1      3180 1.38309E+02 3.01375E+01 0.00000E+00
 -1      3181 1.37010E+02 3.23500E+01 0.00000E+00
 -1      3182 1.38309E+02 2.86750E+01 0.00000E+00
 -1      3183 1.38309E+02 2.72250E+01 0.00000E+00
 -1      3184 1.37010E+02 2.64875E+01 0.00000E+00
 -1      3185 1.37010E+02 2.94125E+01 0.00000E+00
 -1      3186 2.49295E+01 2.54016E+01 0.00000E+00
 -1      3187 2.38338E+01 2.46313E+01 0.00000E+00
 -1      3188 1.91808E+01 8.12928E+00 0.00000E+00
 -1      3189 1.38309E+02 2.28125E+01 0.00000E+00
 -1      3190 1.38309E+02 2.13375E+01 0.00000E+00
 -1      3191 1.37010E+02 2.06000E+01 0.00000E+00
 -1      3192 1.37010E+02 2.35500E+01 0.00000E+00
 -1      3193 6.63240E+01 1.10679E+01 0.00000E+00
 -1      3194 6.48240E+01 1.10679E+01 0.00000E+00
 -1      3195 6.40740E+01 1.23669E+01 0.00000E+00
 -1      3196 6.70740E+01 1.23669E+01 0.00000E+00
 -1      3197 5.12397E+01 1.09055E+01 0.00000E+00
 -1      3198 4.97397E+01 1.07992E+01 0.00000E+00
 -1      3199 1.29000E+01 3.83090E+01 0.00000E+00
 -1      3200 1.44000E+01 3.83090E+01 0.00000E+00
 -1      3201 1.51500E+01 3.70100E+01 0.00000E+00
 -1      3202 5.43240E+01 1.10679E+01 0.00000E+00
 -1      3203 5.28240E+01 1.10679E+01 0.00000E+00
 -1      3204 5.50740E+01 1.23669E+01 0.00000E+00
 -1      3205 1.79618E+01 1.52997E+01 0.00000E+00
 -1      3206 1.78042E+01 1.38416E+01 0.00000E+00
 -1      3207 2.28226E+01 2.37773E+01 0.00000E+00
 -1      3208 2.18114E+01 2.29234E+01 0.00000E+00
 -1      3209 2.26844E+01 2.51382E+01 0.00000E+00
 -1      3210 3.02574E+01 2.64231E+01 0.00000E+00
 -1      3211 2.96701E+01 2.62464E+01 0.00000E+00
 -1      3212 4.31367E+01 2.09842E+01 0.00000E+00
 -1      3213 1.38110E+02 1.39430E+01 0.00000E+00
 -1      3214 1.37909E+02 1.17305E+01 0.00000E+00
 -1      3215 1.36414E+02 1.15915E+01 0.00000E+00
 -1      3216 1.36811E+02 1.46805E+01 0.00000E+00
 -1      3217 3.97375E+01 2.54775E+01 0.00000E+00
 -1      3218 3.82779E+01 2.61027E+01 0.00000E+00
 -1      3219 4.24850E+01 2.40370E+01 0.00000E+00
 -1      3220 4.13227E+01 2.48162E+01 0.00000E+00
 -1      3221 1.27380E+01 1.01829E+01 0.00000E+00
 -1      3222 1.20772E+01 1.14631E+01 0.00000E+00
 -1      3223 1.33763E+01 1.22006E+01 0.00000E+00
 -1      3224 1.41488E+01 1.02017E+01 0.00000E+00
 -1      3225 3.39903E+01 2.65077E+01 0.00000E+00
 -1      3226 3.31276E+01 2.65257E+01 0.00000E+00
 -1      3227 3.26418E+01 2.73846E+01 0.00000E+00
 -1      3228 4.61028E+01 1.33887E+01 0.00000E+00
 -1      3229 4.60189E+01 1.46180E+01 0.00000E+00
 -1      3230 4.70319E+01 1.52943E+01 0.00000E+00
 -1      3231 1.84080E+01 1.82271E+01 0.00000E+00
 -1      3232 1.81197E+01 1.68444E+01 0.00000E+00
 -1      3233 1.84742E+01 9.50013E+00 0.00000E+00
 -1      3234 1.00862E+01 3.73269E+01 0.00000E+00
 -1      3235 4.45241E+01 2.06685E+01 0.00000E+00
 -1      3236 4.37429E+01 2.22715E+01 0.00000E+00
 -1      3237 1.73555E+01 1.00704E+01 0.00000E+00
 -1      3238 1.16910E+01 2.42375E+01 0.00000E+00
 -1      3239 1.16910E+01 2.57125E+01 0.00000E+00
 -1      3240 1.29900E+01 2.35000E+01 0.00000E+00
 -1      3241 1.29900E+01 1.46687E+01 0.00000E+00
 -1      3242 1.16910E+01 1.54063E+01 0.00000E+00
 -1      3243 1.16910E+01 1.68750E+01 0.00000E+00
 -1      3244 4.56998E+01 2.03505E+01 0.00000E+00
 -1      3245 1.69384E+01 1.62345E+01 0.00000E+00
 -1      3246 3.77170E+01 2.71864E+01 0.00000E+00
 -1      3247 5.19897E+01 1.22045E+01 0.00000E+00
 -1      3248 1.16910E+01 1.98188E+01 0.00000E+00
 -1      3249 1.29900E+01 2.05562E+01 0.00000E+00
 -1      3250 1.16910E+01 1.83500E+01 0.00000E+00
 -1      3251 2.85745E+01 2.66522E+01 0.00000E+00
 -1      3252 2.05281E+01 2.26085E+01 0.00000E+00
 -1      3253 1.92448E+01 2.22937E+01 0.00000E+00
 -1      3254 2.03899E+01 2.39694E+01 0.00000E+00
 -1      3255 1.16910E+01 3.01219E+01 0.00000E+00
 -1      3256 1.16910E+01 3.15906E+01 0.00000E+00
 -1      3257 1.68939E+01 1.29766E+01 0.00000E+00
 -1      3258 1.35192E+02 1.13992E+01 0.00000E+00
 -1      3259 1.33696E+02 1.12602E+01 0.00000E+00
 -1      3260 1.32946E+02 1.25592E+01 0.00000E+00
 -1      3261 1.35390E+02 1.29437E+01 0.00000E+00
 -1      3262 4.10295E+01 2.61482E+01 0.00000E+00
 -1      3263 3.07479E+01 2.72793E+01 0.00000E+00
 -1      3264 1.57712E+01 1.02328E+01 0.00000E+00
 -1      3265 1.53849E+01 1.12323E+01 0.00000E+00
 -1      3266 2.61983E+01 2.67390E+01 0.00000E+00
 -1      3267 2.55639E+01 2.60703E+01 0.00000E+00
 -1      3268 2.43301E+01 2.66608E+01 0.00000E+00
 -1      3269 4.57888E+01 1.06728E+01 0.00000E+00
 -1      3270 4.58927E+01 1.19875E+01 0.00000E+00
 -1      3271 1.37758E+02 3.64912E+01 0.00000E+00
 -1      3272 1.38123E+02 3.54142E+01 0.00000E+00
 -1      3273 1.36824E+02 3.46768E+01 0.00000E+00
 -1      3274 1.36451E+02 3.63802E+01 0.00000E+00
 -1      3275 4.69057E+01 1.26638E+01 0.00000E+00
 -1      3276 1.29900E+01 3.23250E+01 0.00000E+00
 -1      3277 1.16910E+01 3.30594E+01 0.00000E+00
 -1      3278 1.16910E+01 3.45281E+01 0.00000E+00
 -1      3279 1.80713E+01 2.04849E+01 0.00000E+00
 -1      3280 1.82396E+01 1.93560E+01 0.00000E+00
 -1      3281 1.69279E+01 1.89081E+01 0.00000E+00
 -1      3282 3.47470E+01 2.74649E+01 0.00000E+00
 -1      3283 4.38725E+01 2.37214E+01 0.00000E+00
 -1      3284 4.40021E+01 2.51713E+01 0.00000E+00
 -1      3285 4.52599E+01 2.34057E+01 0.00000E+00
 -1      3286 1.12710E+01 3.74352E+01 0.00000E+00
 -1      3287 1.20210E+01 3.61362E+01 0.00000E+00
 -1      3288 4.54780E+01 9.73589E+00 0.00000E+00
 -1      3289 1.50431E+01 1.69583E+01 0.00000E+00
 -1      3290 1.48853E+01 1.54137E+01 0.00000E+00
 -1      3291 4.77587E+01 1.73785E+01 0.00000E+00
 -1      3292 4.74194E+01 1.84893E+01 0.00000E+00
 -1      3293 4.90950E+01 1.19442E+01 0.00000E+00
 -1      3294 4.84293E+01 1.07013E+01 0.00000E+00
 -1      3295 2.04000E+01 3.57110E+01 0.00000E+00
 -1      3296 2.19000E+01 3.57110E+01 0.00000E+00
 -1      3297 2.34000E+01 3.57110E+01 0.00000E+00
 -1      3298 2.49000E+01 3.57110E+01 0.00000E+00
 -1      3299 2.26500E+01 3.44120E+01 0.00000E+00
 -1      3300 2.64000E+01 3.57110E+01 0.00000E+00
 -1      3301 2.79000E+01 3.57110E+01 0.00000E+00
 -1      3302 2.56500E+01 3.44120E+01 0.00000E+00
 -1      3303 2.94000E+01 3.57110E+01 0.00000E+00
 -1      3304 3.09000E+01 3.57110E+01 0.00000E+00
 -1      3305 2.86500E+01 3.44120E+01 0.00000E+00
 -1      3306 3.24000E+01 3.57110E+01 0.00000E+00
 -1      3307 3.39000E+01 3.57110E+01 0.00000E+00
 -1      3308 3.16500E+01 3.44120E+01 0.00000E+00
 -1      3309 3.54000E+01 3.57110E+01 0.00000E+00
 -1      3310 3.69000E+01 3.57110E+01 0.00000E+00
 -1      3311 3.46500E+01 3.44120E+01 0.00000E+00
 -1      3312 3.84000E+01 3.57110E+01 0.00000E+00
 -1      3313 3.99000E+01 3.57110E+01 0.00000E+00
 -1      3314 3.76500E+01 3.44120E+01 0.00000E+00
 -1      3315 4.14000E+01 3.57110E+01 0.00000E+00
 -1      3316 4.29000E+01 3.57110E+01 0.00000E+00
 -1      3317 4.06500E+01 3.44120E+01 0.00000E+00
 -1      3318 4.44000E+01 3.57110E+01 0.00000E+00
 -1      3319 4.59000E+01 3.57110E+01 0.00000E+00
 -1      3320 4.36500E+01 3.44120E+01 0.00000E+00
 -1      3321 4.74000E+01 3.57110E+01 0.00000E+00
 -1      3322 4.89000E+01 3.57110E+01 0.00000E+00
 -1      3323 4.66500E+01 3.44120E+01 0.00000E+00
 -1      3324 5.04000E+01 3.57110E+01 0.00000E+00
 -1      3325 5.19000E+01 3.57110E+01 0.00000E+00
 -1      3326 4.96500E+01 3.44120E+01 0.00000E+00
 -1      3327 5.34000E+01 3.57110E+01 0.00000E+00
 -1      3328 5.49000E+01 3.57110E+01 0.00000E+00
 -1      3329 5.26500E+01 3.44120E+01 0.00000E+00
 -1      3330 5.64000E+01 3.57110E+01 0.00000E+00
 -1      3331 5.79000E+01 3.57110E+01 0.00000E+00
 -1      3332 5.56500E+01 3.44120E+01 0.00000E+00
 -1      3333 5.94000E+01 3.57110E+01 0.00000E+00
 -1      3334 6.09000E+01 3.57110E+01 0.00000E+00
 -1      3335 5.86500E+01 3.44120E+01 0.00000E+00
 -1      3336 6.24000E+01 3.57110E+01 0.00000E+00
 -1      3337 6.39000E+01 3.57110E+01 0.00000E+00
 -1      3338 6.16500E+01 3.44120E+01 0.00000E+00
 -1      3339 6.54000E+01 3.57110E+01 0.00000E+00
 -1      3340 6.69000E+01 3.57110E+01 0.00000E+00
 -1      3341 6.46500E+01 3.44120E+01 0.00000E+00
 -1      3342 6.84000E+01 3.57110E+01 0.00000E+00
 -1      3343 6.99000E+01 3.57110E+01 0.00000E+00
 -1      3344 6.76500E+01 3.44120E+01 0.00000E+00
 -1      3345 7.14000E+01 3.57110E+01 0.00000E+00
 -1      3346 7.29000E+01 3.57110E+01 0.00000E+00
 -1      3347 7.06500E+01 3.44120E+01 0.00000E+00
 -1      3348 7.44000E+01 3.57110E+01 0.00000E+00
 -1      3349 7.59000E+01 3.57110E+01 0.00000E+00
 -1      3350 7.36500E+01 3.44120E+01 0.00000E+00
 -1      3351 7.74000E+01 3.57110E+01 0.00000E+00
 -1      3352 7.89000E+01 3.57110E+01 0.00000E+00
 -1      3353 7.66500E+01 3.44120E+01 0.00000E+00
 -1      3354 8.04000E+01 3.57110E+01 0.00000E+00
 -1      3355 8.19000E+01 3.57110E+01 0.00000E+00
 -1      3356 7.96500E+01 3.44120E+01 0.00000E+00
 -1      3357 8.34000E+01 3.57110E+01 0.00000E+00
 -1      3358 8.49000E+01 3.57110E+01 0.00000E+00
 -1      3359 8.26500E+01 3.44120E+01 0.00000E+00
 -1      3360 8.64000E+01 3.57110E+01 0.00000E+00
 -1      3361 8.79000E+01 3.57110E+01 0.00000E+00
 -1      3362 8.56500E+01 3.44120E+01 0.00000E+00
 -1      3363 8.94000E+01 3.57110E+01 0.00000E+00
 -1      3364 9.09000E+01 3.57110E+01 0.00000E+00
 -1      3365 8.86500E+01 3.44120E+01 0.00000E+00
 -1      3366 9.24000E+01 3.57110E+01 0.00000E+00
 -1      3367 9.39000E+01 3.57110E+01 0.00000E+00
 -1      3368 9.16500E+01 3.44120E+01 0.00000E+00
 -1      3369 9.54000E+01 3.57110E+01 0.00000E+00
 -1      3370 9.69000E+01 3.57110E+01 0.00000E+00
 -1      3371 9.46500E+01 3.44120E+01 0.00000E+00
 -1      3372 9.84000E+01 3.57110E+01 0.00000E+00
 -1      3373 9.99000E+01 3.57110E+01 0.00000E+00
 -1      3374 9.76500E+01 3.44120E+01 0.00000E+00
 -1      3375 1.01400E+02 3.57110E+01 0.00000E+00
 -1      3376 1.02900E+02 3.57110E+01 0.00000E+00
 -1      3377 1.00650E+02 3.44120E+01 0.00000E+00
 -1      3378 1.04400E+02 3.57110E+01 0.00000E+00
 -1      3379 1.05900E+02 3.57110E+01 0.00000E+00
 -1      3380 1.03650E+02 3.44120E+01 0.00000E+00
 -1      3381 1.07400E+02 3.57110E+01 0.00000E+00
 -1      3382 1.08900E+02 3.57110E+01 0.00000E+00
 -1      3383 1.06650E+02 3.44120E+01 0.00000E+00
 -1      3384 1.10400E+02 3.57110E+01 0.00000E+00
 -1      3385 1.11900E+02 3.57110E+01 0.00000E+00
 -1      3386 1.09650E+02 3.44120E+01 0.00000E+00
 -1      3387 1.13400E+02 3.57110E+01 0.00000E+00
 -1      3388 1.14900E+02 3.57110E+01 0.00000E+00
 -1      3389 1.12650E+02 3.44120E+01 0.00000E+00
 -1      3390 1.16400E+02 3.57110E+01 0.00000E+00
 -1      3391 1.17900E+02 3.57110E+01 0.00000E+00
 -1      3392 1.15650E+02 3.44120E+01 0.00000E+00
 -1      3393 1.19400E+02 3.57110E+01 0.00000E+00
 -1      3394 1.20900E+02 3.57110E+01 0.00000E+00
 -1      3395 1.18650E+02 3.44120E+01 0.00000E+00
 -1      3396 1.22400E+02 3.57110E+01 0.00000E+00
 -1      3397 1.23900E+02 3.57110E+01 0.00000E+00
 -1      3398 1.21650E+02 3.44120E+01 0.00000E+00
 -1      3399 1.25400E+02 3.57110E+01 0.00000E+00
 -1      3400 1.26900E+02 3.57110E+01 0.00000E+00
 -1      3401 1.24650E+02 3.44120E+01 0.00000E+00
 -1      3402 1.28400E+02 3.57110E+01 0.00000E+00
 -1      3403 1.29900E+02 3.57110E+01 0.00000E+00
 -1      3404 1.27650E+02 3.44120E+01 0.00000E+00
 -1      3405 1.31400E+02 3.57110E+01 0.00000E+00
 -1      3406 1.32900E+02 3.57110E+01 0.00000E+00
 -1      3407 1.30650E+02 3.44120E+01 0.00000E+00
 -1      3408 7.68240E+01 1.36659E+01 0.00000E+00
 -1      3409 7.53240E+01 1.36659E+01 0.00000E+00
 -1      3410 5.88240E+01 1.36659E+01 0.00000E+00
 -1      3411 5.73240E+01 1.36659E+01 0.00000E+00
 -1      3412 1.16910E+01 2.86531E+01 0.00000E+00
 -1      3413 1.29900E+01 2.93875E+01 0.00000E+00
 -1      3414 1.16910E+01 2.71844E+01 0.00000E+00
 -1      3415 1.52715E+01 1.29455E+01 0.00000E+00
 -1      3416 7.38240E+01 1.36659E+01 0.00000E+00
 -1      3417 7.23240E+01 1.36659E+01 0.00000E+00
 -1      3418 7.45740E+01 1.49649E+01 0.00000E+00
 -1      3419 7.08240E+01 1.36659E+01 0.00000E+00
 -1      3420 6.93240E+01 1.36659E+01 0.00000E+00
 -1      3421 7.15740E+01 1.49649E+01 0.00000E+00
 -1      3422 7.98240E+01 1.36659E+01 0.00000E+00
 -1      3423 7.83240E+01 1.36659E+01 0.00000E+00
 -1      3424 7.75740E+01 1.49649E+01 0.00000E+00
 -1      3425 8.28240E+01 1.36659E+01 0.00000E+00
 -1      3426 8.13240E+01 1.36659E+01 0.00000E+00
 -1      3427 8.05740E+01 1.49649E+01 0.00000E+00
 -1      3428 8.59740E+01 1.36659E+01 0.00000E+00
 -1      3429 8.43990E+01 1.36659E+01 0.00000E+00
 -1      3430 8.36490E+01 1.49649E+01 0.00000E+00
 -1      3431 8.89740E+01 1.36659E+01 0.00000E+00
 -1      3432 8.74740E+01 1.36659E+01 0.00000E+00
 -1      3433 8.67240E+01 1.49649E+01 0.00000E+00
 -1      3434 9.19740E+01 1.36659E+01 0.00000E+00
 -1      3435 9.04740E+01 1.36659E+01 0.00000E+00
 -1      3436 8.97240E+01 1.49649E+01 0.00000E+00
 -1      3437 9.49740E+01 1.36659E+01 0.00000E+00
 -1      3438 9.34740E+01 1.36659E+01 0.00000E+00
 -1      3439 9.27240E+01 1.49649E+01 0.00000E+00
 -1      3440 9.79740E+01 1.36659E+01 0.00000E+00
 -1      3441 9.64740E+01 1.36659E+01 0.00000E+00
 -1      3442 9.57240E+01 1.49649E+01 0.00000E+00
 -1      3443 1.00974E+02 1.36659E+01 0.00000E+00
 -1      3444 9.94740E+01 1.36659E+01 0.00000E+00
 -1      3445 9.87240E+01 1.49649E+01 0.00000E+00
 -1      3446 1.03974E+02 1.36659E+01 0.00000E+00
 -1      3447 1.02474E+02 1.36659E+01 0.00000E+00
 -1      3448 1.01724E+02 1.49649E+01 0.00000E+00
 -1      3449 1.06974E+02 1.36659E+01 0.00000E+00
 -1      3450 1.05474E+02 1.36659E+01 0.00000E+00
 -1      3451 1.04724E+02 1.49649E+01 0.00000E+00
 -1      3452 1.09974E+02 1.36659E+01 0.00000E+00
 -1      3453 1.08474E+02 1.36659E+01 0.00000E+00
 -1      3454 1.07724E+02 1.49649E+01 0.00000E+00
 -1      3455 1.12974E+02 1.36659E+01 0.00000E+00
 -1      3456 1.11474E+02 1.36659E+01 0.00000E+00
 -1      3457 1.10724E+02 1.49649E+01 0.00000E+00
 -1      3458 1.15974E+02 1.36659E+01 0.00000E+00
 -1      3459 1.14474E+02 1.36659E+01 0.00000E+00
 -1      3460 1.13724E+02 1.49649E+01 0.00000E+00
 -1      3461 1.18974E+02 1.36659E+01 0.00000E+00
 -1      3462 1.17474E+02 1.36659E+01 0.00000E+00
 -1      3463 1.16724E+02 1.49649E+01 0.00000E+00
 -1      3464 1.21974E+02 1.36659E+01 0.00000E+00
 -1      3465 1.20474E+02 1.36659E+01 0.00000E+00
 -1      3466 1.19724E+02 1.49649E+01 0.00000E+00
 -1      3467 1.24974E+02 1.36659E+01 0.00000E+00
 -1      3468 1.23474E+02 1.36659E+01 0.00000E+00
 -1      3469 1.22724E+02 1.49649E+01 0.00000E+00
 -1      3470 1.27974E+02 1.36659E+01 0.00000E+00
 -1      3471 1.26474E+02 1.36659E+01 0.00000E+00
 -1      3472 1.25724E+02 1.49649E+01 0.00000E+00
 -1      3473 1.30974E+02 1.36659E+01 0.00000E+00
 -1      3474 1.29474E+02 1.36659E+01 0.00000E+00
 -1      3475 1.28724E+02 1.49649E+01 0.00000E+00
 -1      3476 5.26602E+01 1.34722E+01 0.00000E+00
 -1      3477 5.10759E+01 1.33097E+01 0.00000E+00
 -1      3478 1.35711E+02 3.30875E+01 0.00000E+00
 -1      3479 1.35711E+02 3.16125E+01 0.00000E+00
 -1      3480 2.87320E+01 2.78421E+01 0.00000E+00
 -1      3481 2.75897E+01 2.73383E+01 0.00000E+00
 -1      3482 4.63848E+01 1.03257E+01 0.00000E+00
 -1      3483 1.33200E+01 3.54019E+01 0.00000E+00
 -1      3484 2.23519E+01 2.65576E+01 0.00000E+00
 -1      3485 2.13407E+01 2.57037E+01 0.00000E+00
 -1      3486 1.35711E+02 1.84000E+01 0.00000E+00
 -1      3487 1.35711E+02 1.69500E+01 0.00000E+00
 -1      3488 4.81801E+01 1.47551E+01 0.00000E+00
 -1      3489 4.80963E+01 1.59844E+01 0.00000E+00
 -1      3490 6.18240E+01 1.36659E+01 0.00000E+00
 -1      3491 6.03240E+01 1.36659E+01 0.00000E+00
 -1      3492 5.95740E+01 1.49649E+01 0.00000E+00
 -1      3493 1.74000E+01 3.57110E+01 0.00000E+00
 -1      3494 1.89000E+01 3.57110E+01 0.00000E+00
 -1      3495 1.96500E+01 3.44120E+01 0.00000E+00
 -1      3496 4.69293E+01 1.06175E+01 0.00000E+00
 -1      3497 1.46100E+01 3.55564E+01 0.00000E+00
 -1      3498 1.61100E+01 3.55564E+01 0.00000E+00
 -1      3499 1.68600E+01 3.42574E+01 0.00000E+00
 -1      3500 1.42800E+01 3.39483E+01 0.00000E+00
 -1      3501 5.58240E+01 1.36659E+01 0.00000E+00
 -1      3502 5.43240E+01 1.36659E+01 0.00000E+00
 -1      3503 5.65740E+01 1.49649E+01 0.00000E+00
 -1      3504 3.88528E+01 2.82451E+01 0.00000E+00
 -1      3505 3.71254E+01 2.86220E+01 0.00000E+00
 -1      3506 4.71876E+01 1.99746E+01 0.00000E+00
 -1      3507 4.66181E+01 2.15799E+01 0.00000E+00
 -1      3508 3.11517E+01 2.82757E+01 0.00000E+00
 -1      3509 3.01205E+01 2.81523E+01 0.00000E+00
 -1      3510 3.52808E+01 2.86196E+01 0.00000E+00
 -1      3511 3.40382E+01 2.85212E+01 0.00000E+00
 -1      3512 4.23222E+01 2.70164E+01 0.00000E+00
 -1      3513 4.07371E+01 2.76777E+01 0.00000E+00
 -1      3514 3.30263E+01 2.83894E+01 0.00000E+00
 -1      3515 3.21636E+01 2.84074E+01 0.00000E+00
 -1      3516 3.15362E+01 2.92805E+01 0.00000E+00
 -1      3517 3.35600E+01 2.95440E+01 0.00000E+00
 -1      3518 6.48240E+01 1.36659E+01 0.00000E+00
 -1      3519 6.33240E+01 1.36659E+01 0.00000E+00
 -1      3520 6.25740E+01 1.49649E+01 0.00000E+00
 -1      3521 1.35711E+02 2.13500E+01 0.00000E+00
 -1      3522 1.35711E+02 1.98750E+01 0.00000E+00
 -1      3523 1.34412E+02 1.91500E+01 0.00000E+00
 -1      3524 4.83377E+01 1.97187E+01 0.00000E+00
 -1      3525 1.29900E+01 1.76125E+01 0.00000E+00
 -1      3526 6.85740E+01 1.49649E+01 0.00000E+00
 -1      3527 6.78240E+01 1.36659E+01 0.00000E+00
 -1      3528 6.63240E+01 1.36659E+01 0.00000E+00
 -1      3529 1.34022E+02 3.59901E+01 0.00000E+00
 -1      3530 1.35329E+02 3.61011E+01 0.00000E+00
 -1      3531 1.35515E+02 3.52494E+01 0.00000E+00
 -1      3532 1.33272E+02 3.46911E+01 0.00000E+00
 -1      3533 4.37096E+01 2.67007E+01 0.00000E+00
 -1      3534 4.34172E+01 2.82302E+01 0.00000E+00
 -1      3535 4.50971E+01 2.63851E+01 0.00000E+00
 -1      3536 2.00574E+01 2.53888E+01 0.00000E+00
 -1      3537 1.87741E+01 2.50739E+01 0.00000E+00
 -1      3538 1.97249E+01 2.68082E+01 0.00000E+00
 -1      3539 3.64166E+01 2.96782E+01 0.00000E+00
 -1      3540 1.42890E+01 2.86531E+01 0.00000E+00
 -1      3541 1.42890E+01 3.01219E+01 0.00000E+00
 -1      3542 5.04955E+01 1.50113E+01 0.00000E+00
 -1      3543 4.98250E+01 1.37436E+01 0.00000E+00
 -1      3544 1.32196E+02 1.38582E+01 0.00000E+00
 -1      3545 1.31446E+02 1.51572E+01 0.00000E+00
 -1      3546 1.33418E+02 1.40504E+01 0.00000E+00
 -1      3547 5.34102E+01 1.47712E+01 0.00000E+00
 -1      3548 1.77949E+01 2.32066E+01 0.00000E+00
 -1      3549 1.79331E+01 2.18457E+01 0.00000E+00
 -1      3550 1.66213E+01 2.13978E+01 0.00000E+00
 -1      3551 2.63558E+01 2.79288E+01 0.00000E+00
 -1      3552 1.29900E+01 2.64469E+01 0.00000E+00
 -1      3553 1.35702E+02 3.43976E+01 0.00000E+00
 -1      3554 1.34412E+02 3.08875E+01 0.00000E+00
 -1      3555 1.35711E+02 3.01500E+01 0.00000E+00
 -1      3556 1.35711E+02 2.86875E+01 0.00000E+00
 -1      3557 2.36208E+01 2.78949E+01 0.00000E+00
 -1      3558 2.29864E+01 2.72263E+01 0.00000E+00
 -1      3559 2.16426E+01 2.77918E+01 0.00000E+00
 -1      3560 1.48853E+01 1.39449E+01 0.00000E+00
 -1      3561 1.35711E+02 2.43000E+01 0.00000E+00
 -1      3562 1.35711E+02 2.28250E+01 0.00000E+00
 -1      3563 1.34412E+02 2.21000E+01 0.00000E+00
 -1      3564 1.33540E+02 1.65122E+01 0.00000E+00
 -1      3565 1.34839E+02 1.57872E+01 0.00000E+00
 -1      3566 4.89070E+01 1.68393E+01 0.00000E+00
 -1      3567 2.91358E+01 2.88384E+01 0.00000E+00
 -1      3568 1.34403E+02 3.36601E+01 0.00000E+00
 -1      3569 1.42845E+01 3.13007E+01 0.00000E+00
 -1      3570 1.42845E+01 3.27695E+01 0.00000E+00
 -1      3571 1.55745E+01 3.29240E+01 0.00000E+00
 -1      3572 1.55835E+01 3.05663E+01 0.00000E+00
 -1      3573 4.01455E+01 2.91133E+01 0.00000E+00
 -1      3574 4.82355E+01 2.26539E+01 0.00000E+00
 -1      3575 4.67477E+01 2.30298E+01 0.00000E+00
 -1      3576 4.68773E+01 2.44797E+01 0.00000E+00
 -1      3577 1.35711E+02 2.72250E+01 0.00000E+00
 -1      3578 1.35711E+02 2.57625E+01 0.00000E+00
 -1      3579 1.34412E+02 2.79625E+01 0.00000E+00
 -1      3580 4.85146E+01 1.36457E+01 0.00000E+00
 -1      3581 1.48748E+01 1.95622E+01 0.00000E+00
 -1      3582 1.50431E+01 1.84333E+01 0.00000E+00
 -1      3583 1.48748E+01 2.10310E+01 0.00000E+00
 -1      3584 1.47366E+01 2.23918E+01 0.00000E+00
 -1      3585 1.47366E+01 2.38668E+01 0.00000E+00
 -1      3586 1.34412E+02 2.50375E+01 0.00000E+00
 -1      3587 1.34640E+02 1.42427E+01 0.00000E+00
 -1      3588 1.33281E+02 3.33810E+01 0.00000E+00
 -1      3589 2.49000E+01 3.31130E+01 0.00000E+00
 -1      3590 2.64000E+01 3.31130E+01 0.00000E+00
 -1      3591 2.79000E+01 3.31130E+01 0.00000E+00
 -1      3592 2.94000E+01 3.31130E+01 0.00000E+00
 -1      3593 2.71500E+01 3.18140E+01 0.00000E+00
 -1      3594 3.39000E+01 3.31130E+01 0.00000E+00
 -1      3595 3.54000E+01 3.31130E+01 0.00000E+00
 -1      3596 3.72056E+01 3.20463E+01 0.00000E+00
 -1      3597 3.87056E+01 3.20463E+01 0.00000E+00
 -1      3598 4.29000E+01 3.31130E+01 0.00000E+00
 -1      3599 4.44000E+01 3.31130E+01 0.00000E+00
 -1      3600 4.59000E+01 3.31130E+01 0.00000E+00
 -1      3601 4.74000E+01 3.31130E+01 0.00000E+00
 -1      3602 4.51500E+01 3.18140E+01 0.00000E+00
 -1      3603 4.89000E+01 3.31130E+01 0.00000E+00
 -1      3604 5.04000E+01 3.31130E+01 0.00000E+00
 -1      3605 4.81500E+01 3.18140E+01 0.00000E+00
 -1      3606 5.19000E+01 3.31130E+01 0.00000E+00
 -1      3607 5.34000E+01 3.31130E+01 0.00000E+00
 -1      3608 5.11500E+01 3.18140E+01 0.00000E+00
 -1      3609 5.49000E+01 3.31130E+01 0.00000E+00
 -1      3610 5.64000E+01 3.31130E+01 0.00000E+00
 -1      3611 5.41500E+01 3.18140E+01 0.00000E+00
 -1      3612 5.79000E+01 3.31130E+01 0.00000E+00
 -1      3613 5.94000E+01 3.31130E+01 0.00000E+00
 -1      3614 5.71500E+01 3.18140E+01 0.00000E+00
 -1      3615 6.09000E+01 3.31130E+01 0.00000E+00
 -1      3616 6.24000E+01 3.31130E+01 0.00000E+00
 -1      3617 6.01500E+01 3.18140E+01 0.00000E+00
 -1      3618 6.39000E+01 3.31130E+01 0.00000E+00
 -1      3619 6.54000E+01 3.31130E+01 0.00000E+00
 -1      3620 6.31500E+01 3.18140E+01 0.00000E+00
 -1      3621 6.69000E+01 3.31130E+01 0.00000E+00
 -1      3622 6.84000E+01 3.31130E+01 0.00000E+00
 -1      3623 6.61500E+01 3.18140E+01 0.00000E+00
 -1      3624 6.99000E+01 3.31130E+01 0.00000E+00
 -1      3625 7.14000E+01 3.31130E+01 0.00000E+00
 -1      3626 6.91500E+01 3.18140E+01 0.00000E+00
 -1      3627 7.29000E+01 3.31130E+01 0.00000E+00
 -1      3628 7.44000E+01 3.31130E+01 0.00000E+00
 -1      3629 7.21500E+01 3.18140E+01 0.00000E+00
 -1      3630 7.59000E+01 3.31130E+01 0.00000E+00
 -1      3631 7.74000E+01 3.31130E+01 0.00000E+00
 -1      3632 7.51500E+01 3.18140E+01 0.00000E+00
 -1      3633 7.89000E+01 3.31130E+01 0.00000E+00
 -1      3634 8.04000E+01 3.31130E+01 0.00000E+00
 -1      3635 7.81500E+01 3.18140E+01 0.00000E+00
 -1      3636 8.19000E+01 3.31130E+01 0.00000E+00
 -1      3637 8.34000E+01 3.31130E+01 0.00000E+00
 -1      3638 8.11500E+01 3.18140E+01 0.00000E+00
 -1      3639 8.49000E+01 3.31130E+01 0.00000E+00
 -1      3640 8.64000E+01 3.31130E+01 0.00000E+00
 -1      3641 8.41500E+01 3.18140E+01 0.00000E+00
 -1      3642 8.79000E+01 3.31130E+01 0.00000E+00
 -1      3643 8.94000E+01 3.31130E+01 0.00000E+00
 -1      3644 8.71500E+01 3.18140E+01 0.00000E+00
 -1      3645 9.09000E+01 3.31130E+01 0.00000E+00
 -1      3646 9.24000E+01 3.31130E+01 0.00000E+00
 -1      3647 9.01500E+01 3.18140E+01 0.00000E+00
 -1      3648 9.39000E+01 3.31130E+01 0.00000E+00
 -1      3649 9.54000E+01 3.31130E+01 0.00000E+00
 -1      3650 9.31500E+01 3.18140E+01 0.00000E+00
 -1      3651 9.69000E+01 3.31130E+01 0.00000E+00
 -1      3652 9.84000E+01 3.31130E+01 0.00000E+00
 -1      3653 9.61500E+01 3.18140E+01 0.00000E+00
 -1      3654 9.99000E+01 3.31130E+01 0.00000E+00
 -1      3655 1.01400E+02 3.31130E+01 0.00000E+00
 -1      3656 9.91500E+01 3.18140E+01 0.00000E+00
 -1      3657 1.02900E+02 3.31130E+01 0.00000E+00
 -1      3658 1.04400E+02 3.31130E+01 0.00000E+00
 -1      3659 1.02150E+02 3.18140E+01 0.00000E+00
 -1      3660 1.05900E+02 3.31130E+01 0.00000E+00
 -1      3661 1.07400E+02 3.31130E+01 0.00000E+00
 -1      3662 1.05150E+02 3.18140E+01 0.00000E+00
 -1      3663 1.08900E+02 3.31130E+01 0.00000E+00
 -1      3664 1.10400E+02 3.31130E+01 0.00000E+00
 -1      3665 1.08150E+02 3.18140E+01 0.00000E+00
 -1      3666 1.11900E+02 3.31130E+01 0.00000E+00
 -1      3667 1.13400E+02 3.31130E+01 0.00000E+00
 -1      3668 1.11150E+02 3.18140E+01 0.00000E+00
 -1      3669 1.14900E+02 3.31130E+01 0.00000E+00
 -1      3670 1.16400E+02 3.31130E+01 0.00000E+00
 -1      3671 1.14150E+02 3.18140E+01 0.00000E+00
 -1      3672 1.17900E+02 3.31130E+01 0.00000E+00
 -1      3673 1.19400E+02 3.31130E+01 0.00000E+00
 -1      3674 1.17150E+02 3.18140E+01 0.00000E+00
 -1      3675 1.20900E+02 3.31130E+01 0.00000E+00
 -1      3676 1.22400E+02 3.31130E+01 0.00000E+00
 -1      3677 1.20150E+02 3.18140E+01 0.00000E+00
 -1      3678 1.23900E+02 3.31130E+01 0.00000E+00
 -1      3679 1.25400E+02 3.31130E+01 0.00000E+00
 -1      3680 1.23150E+02 3.18140E+01 0.00000E+00
 -1      3681 1.26900E+02 3.31130E+01 0.00000E+00
 -1      3682 1.28400E+02 3.31130E+01 0.00000E+00
 -1      3683 1.26150E+02 3.18140E+01 0.00000E+00
 -1      3684 1.29900E+02 3.31130E+01 0.00000E+00
 -1      3685 1.31400E+02 3.31130E+01 0.00000E+00
 -1      3686 1.29150E+02 3.18140E+01 0.00000E+00
 -1      3687 8.13240E+01 1.62639E+01 0.00000E+00
 -1      3688 7.98240E+01 1.62639E+01 0.00000E+00
 -1      3689 5.14088E+01 1.59715E+01 0.00000E+00
 -1      3690 5.01579E+01 1.64054E+01 0.00000E+00
 -1      3691 4.98204E+01 1.77995E+01 0.00000E+00
 -1      3692 1.42890E+01 2.71812E+01 0.00000E+00
 -1      3693 1.55880E+01 2.79156E+01 0.00000E+00
 -1      3694 1.42890E+01 2.57094E+01 0.00000E+00
 -1      3695 1.89000E+01 3.31130E+01 0.00000E+00
 -1      3696 2.04000E+01 3.31130E+01 0.00000E+00
 -1      3697 7.53240E+01 1.62639E+01 0.00000E+00
 -1      3698 7.38240E+01 1.62639E+01 0.00000E+00
 -1      3699 7.23240E+01 1.62639E+01 0.00000E+00
 -1      3700 7.08240E+01 1.62639E+01 0.00000E+00
 -1      3701 7.30740E+01 1.75629E+01 0.00000E+00
 -1      3702 8.44740E+01 1.62639E+01 0.00000E+00
 -1      3703 8.28990E+01 1.62639E+01 0.00000E+00
 -1      3704 8.21490E+01 1.75629E+01 0.00000E+00
 -1      3705 8.74740E+01 1.62639E+01 0.00000E+00
 -1      3706 8.59740E+01 1.62639E+01 0.00000E+00
 -1      3707 8.52240E+01 1.75629E+01 0.00000E+00
 -1      3708 9.04740E+01 1.62639E+01 0.00000E+00
 -1      3709 8.89740E+01 1.62639E+01 0.00000E+00
 -1      3710 8.82240E+01 1.75629E+01 0.00000E+00
 -1      3711 9.34740E+01 1.62639E+01 0.00000E+00
 -1      3712 9.19740E+01 1.62639E+01 0.00000E+00
 -1      3713 9.12240E+01 1.75629E+01 0.00000E+00
 -1      3714 9.64740E+01 1.62639E+01 0.00000E+00
 -1      3715 9.49740E+01 1.62639E+01 0.00000E+00
 -1      3716 9.42240E+01 1.75629E+01 0.00000E+00
 -1      3717 9.94740E+01 1.62639E+01 0.00000E+00
 -1      3718 9.79740E+01 1.62639E+01 0.00000E+00
 -1      3719 9.72240E+01 1.75629E+01 0.00000E+00
 -1      3720 1.02474E+02 1.62639E+01 0.00000E+00
 -1      3721 1.00974E+02 1.62639E+01 0.00000E+00
 -1      3722 1.00224E+02 1.75629E+01 0.00000E+00
 -1      3723 1.05474E+02 1.62639E+01 0.00000E+00
 -1      3724 1.03974E+02 1.62639E+01 0.00000E+00
 -1      3725 1.03224E+02 1.75629E+01 0.00000E+00
 -1      3726 1.08474E+02 1.62639E+01 0.00000E+00
 -1      3727 1.06974E+02 1.62639E+01 0.00000E+00
 -1      3728 1.06224E+02 1.75629E+01 0.00000E+00
 -1      3729 1.11474E+02 1.62639E+01 0.00000E+00
 -1      3730 1.09974E+02 1.62639E+01 0.00000E+00
 -1      3731 1.09224E+02 1.75629E+01 0.00000E+00
 -1      3732 1.14474E+02 1.62639E+01 0.00000E+00
 -1      3733 1.12974E+02 1.62639E+01 0.00000E+00
 -1      3734 1.12224E+02 1.75629E+01 0.00000E+00
 -1      3735 1.17474E+02 1.62639E+01 0.00000E+00
 -1      3736 1.15974E+02 1.62639E+01 0.00000E+00
 -1      3737 1.15224E+02 1.75629E+01 0.00000E+00
 -1      3738 1.20474E+02 1.62639E+01 0.00000E+00
 -1      3739 1.18974E+02 1.62639E+01 0.00000E+00
 -1      3740 1.18224E+02 1.75629E+01 0.00000E+00
 -1      3741 1.23474E+02 1.62639E+01 0.00000E+00
 -1      3742 1.21974E+02 1.62639E+01 0.00000E+00
 -1      3743 1.21224E+02 1.75629E+01 0.00000E+00
 -1      3744 1.26474E+02 1.62639E+01 0.00000E+00
 -1      3745 1.24974E+02 1.62639E+01 0.00000E+00
 -1      3746 1.24224E+02 1.75629E+01 0.00000E+00
 -1      3747 1.29474E+02 1.62639E+01 0.00000E+00
 -1      3748 1.27974E+02 1.62639E+01 0.00000E+00
 -1      3749 1.27224E+02 1.75629E+01 0.00000E+00
 -1      3750 1.32118E+02 1.64842E+01 0.00000E+00
 -1      3751 1.30896E+02 1.62919E+01 0.00000E+00
 -1      3752 1.30146E+02 1.75909E+01 0.00000E+00
 -1      3753 1.32990E+02 1.76470E+01 0.00000E+00
 -1      3754 1.73473E+01 2.50491E+01 0.00000E+00
 -1      3755 1.60356E+01 2.46012E+01 0.00000E+00
 -1      3756 4.74502E+01 1.29556E+01 0.00000E+00
 -1      3757 4.95886E+01 1.92848E+01 0.00000E+00
 -1      3758 4.93568E+01 2.07701E+01 0.00000E+00
 -1      3759 5.08395E+01 1.88509E+01 0.00000E+00
 -1      3760 6.03240E+01 1.62639E+01 0.00000E+00
 -1      3761 5.88240E+01 1.62639E+01 0.00000E+00
 -1      3762 5.73240E+01 1.62639E+01 0.00000E+00
 -1      3763 5.58240E+01 1.62639E+01 0.00000E+00
 -1      3764 5.80740E+01 1.75629E+01 0.00000E+00
 -1      3765 5.44483E+01 1.62146E+01 0.00000E+00
 -1      3766 5.27845E+01 1.60208E+01 0.00000E+00
 -1      3767 5.24470E+01 1.74149E+01 0.00000E+00
 -1      3768 5.51983E+01 1.75136E+01 0.00000E+00
 -1      3769 4.72402E+01 1.15544E+01 0.00000E+00
 -1      3770 2.66128E+01 2.92469E+01 0.00000E+00
 -1      3771 2.52215E+01 2.86476E+01 0.00000E+00
 -1      3772 2.19000E+01 3.31130E+01 0.00000E+00
 -1      3773 2.34000E+01 3.31130E+01 0.00000E+00
 -1      3774 2.11500E+01 3.18140E+01 0.00000E+00
 -1      3775 7.83240E+01 1.62639E+01 0.00000E+00
 -1      3776 7.68240E+01 1.62639E+01 0.00000E+00
 -1      3777 7.90740E+01 1.75629E+01 0.00000E+00
 -1      3778 1.32531E+02 3.20820E+01 0.00000E+00
 -1      3779 1.33113E+02 2.57687E+01 0.00000E+00
 -1      3780 1.33113E+02 2.43062E+01 0.00000E+00
 -1      3781 2.95872E+01 3.04813E+01 0.00000E+00
 -1      3782 2.81986E+01 3.01711E+01 0.00000E+00
 -1      3783 3.46110E+01 3.07449E+01 0.00000E+00
 -1      3784 3.35991E+01 3.06131E+01 0.00000E+00
 -1      3785 1.65923E+01 3.29412E+01 0.00000E+00
 -1      3786 1.78822E+01 3.30958E+01 0.00000E+00
 -1      3787 1.86322E+01 3.17968E+01 0.00000E+00
 -1      3788 1.65968E+01 3.17624E+01 0.00000E+00
 -1      3789 6.93240E+01 1.62639E+01 0.00000E+00
 -1      3790 6.78240E+01 1.62639E+01 0.00000E+00
 -1      3791 7.00740E+01 1.75629E+01 0.00000E+00
 -1      3792 2.41500E+01 3.18140E+01 0.00000E+00
 -1      3793 4.42273E+01 2.98643E+01 0.00000E+00
 -1      3794 4.28399E+01 3.01800E+01 0.00000E+00
 -1      3795 3.02436E+01 3.17972E+01 0.00000E+00
 -1      3796 3.09936E+01 3.30962E+01 0.00000E+00
 -1      3797 3.24936E+01 3.30962E+01 0.00000E+00
 -1      3798 3.11807E+01 3.04645E+01 0.00000E+00
 -1      3799 3.32436E+01 3.17972E+01 0.00000E+00
 -1      3800 3.97601E+01 3.06237E+01 0.00000E+00
 -1      3801 4.02045E+01 3.29893E+01 0.00000E+00
 -1      3802 1.32531E+02 3.06195E+01 0.00000E+00
 -1      3803 4.17045E+01 3.29893E+01 0.00000E+00
 -1      3804 2.00570E+01 2.82273E+01 0.00000E+00
 -1      3805 1.87738E+01 2.79124E+01 0.00000E+00
 -1      3806 1.31814E+02 2.35625E+01 0.00000E+00
 -1      3807 1.33113E+02 2.28312E+01 0.00000E+00
 -1      3808 1.33113E+02 2.13563E+01 0.00000E+00
 -1      3809 7.60740E+01 1.75629E+01 0.00000E+00
 -1      3810 1.32990E+02 1.91220E+01 0.00000E+00
 -1      3811 2.38777E+01 2.92130E+01 0.00000E+00
 -1      3812 4.16444E+01 3.00563E+01 0.00000E+00
 -1      3813 6.55740E+01 1.49649E+01 0.00000E+00
 -1      3814 4.24545E+01 3.16903E+01 0.00000E+00
 -1      3815 2.06915E+01 2.88959E+01 0.00000E+00
 -1      3816 6.18240E+01 1.62639E+01 0.00000E+00
 -1      3817 6.10740E+01 1.75629E+01 0.00000E+00
 -1      3818 6.33240E+01 1.62639E+01 0.00000E+00
 -1      3819 1.33113E+02 2.72313E+01 0.00000E+00
 -1      3820 1.31814E+02 2.65000E+01 0.00000E+00
 -1      3821 1.33113E+02 2.86938E+01 0.00000E+00
 -1      3822 1.70148E+01 2.64686E+01 0.00000E+00
 -1      3823 1.70148E+01 2.79404E+01 0.00000E+00
 -1      3824 5.07373E+01 2.17861E+01 0.00000E+00
 -1      3825 4.94864E+01 2.22200E+01 0.00000E+00
 -1      3826 4.96160E+01 2.36699E+01 0.00000E+00
 -1      3827 3.64556E+01 3.07473E+01 0.00000E+00
 -1      3828 1.66012E+01 3.05835E+01 0.00000E+00
 -1      3829 1.73469E+01 2.93595E+01 0.00000E+00
 -1      3830 1.83602E+01 3.05555E+01 0.00000E+00
 -1      3831 4.65848E+01 2.60092E+01 0.00000E+00
 -1      3832 4.62924E+01 2.75387E+01 0.00000E+00
 -1      3833 4.80726E+01 2.56333E+01 0.00000E+00
 -1      3834 3.21926E+01 3.05963E+01 0.00000E+00
 -1      3835 4.57273E+01 2.98643E+01 0.00000E+00
 -1      3836 1.93779E+01 3.05727E+01 0.00000E+00
 -1      3837 4.72151E+01 2.94884E+01 0.00000E+00
 -1      3838 2.09635E+01 3.01372E+01 0.00000E+00
 -1      3839 6.63240E+01 1.62639E+01 0.00000E+00
 -1      3840 6.48240E+01 1.62639E+01 0.00000E+00
 -1      3841 6.40740E+01 1.75629E+01 0.00000E+00
 -1      3842 6.70740E+01 1.75629E+01 0.00000E+00
 -1      3843 1.31232E+02 2.98883E+01 0.00000E+00
 -1      3844 4.87151E+01 2.94884E+01 0.00000E+00
 -1      3845 5.34000E+01 3.05150E+01 0.00000E+00
 -1      3846 5.49000E+01 3.05150E+01 0.00000E+00
 -1      3847 5.64000E+01 3.05150E+01 0.00000E+00
 -1      3848 5.79000E+01 3.05150E+01 0.00000E+00
 -1      3849 5.56500E+01 2.92160E+01 0.00000E+00
 -1      3850 5.94000E+01 3.05150E+01 0.00000E+00
 -1      3851 6.09000E+01 3.05150E+01 0.00000E+00
 -1      3852 5.86500E+01 2.92160E+01 0.00000E+00
 -1      3853 6.24000E+01 3.05150E+01 0.00000E+00
 -1      3854 6.39000E+01 3.05150E+01 0.00000E+00
 -1      3855 6.16500E+01 2.92160E+01 0.00000E+00
 -1      3856 6.54000E+01 3.05150E+01 0.00000E+00
 -1      3857 6.69000E+01 3.05150E+01 0.00000E+00
 -1      3858 6.46500E+01 2.92160E+01 0.00000E+00
 -1      3859 6.84000E+01 3.05150E+01 0.00000E+00
 -1      3860 6.99000E+01 3.05150E+01 0.00000E+00
 -1      3861 6.76500E+01 2.92160E+01 0.00000E+00
 -1      3862 7.14000E+01 3.05150E+01 0.00000E+00
 -1      3863 7.29000E+01 3.05150E+01 0.00000E+00
 -1      3864 7.06500E+01 2.92160E+01 0.00000E+00
 -1      3865 7.44000E+01 3.05150E+01 0.00000E+00
 -1      3866 7.59000E+01 3.05150E+01 0.00000E+00
 -1      3867 7.36500E+01 2.92160E+01 0.00000E+00
 -1      3868 7.74000E+01 3.05150E+01 0.00000E+00
 -1      3869 7.89000E+01 3.05150E+01 0.00000E+00
 -1      3870 7.66500E+01 2.92160E+01 0.00000E+00
 -1      3871 8.04000E+01 3.05150E+01 0.00000E+00
 -1      3872 8.19000E+01 3.05150E+01 0.00000E+00
 -1      3873 7.96500E+01 2.92160E+01 0.00000E+00
 -1      3874 8.34000E+01 3.05150E+01 0.00000E+00
 -1      3875 8.49000E+01 3.05150E+01 0.00000E+00
 -1      3876 8.26500E+01 2.92160E+01 0.00000E+00
 -1      3877 8.64000E+01 3.05150E+01 0.00000E+00
 -1      3878 8.79000E+01 3.05150E+01 0.00000E+00
 -1      3879 8.56500E+01 2.92160E+01 0.00000E+00
 -1      3880 8.94000E+01 3.05150E+01 0.00000E+00
 -1      3881 9.09000E+01 3.05150E+01 0.00000E+00
 -1      3882 8.86500E+01 2.92160E+01 0.00000E+00
 -1      3883 9.24000E+01 3.05150E+01 0.00000E+00
 -1      3884 9.39000E+01 3.05150E+01 0.00000E+00
 -1      3885 9.16500E+01 2.92160E+01 0.00000E+00
 -1      3886 9.54000E+01 3.05150E+01 0.00000E+00
 -1      3887 9.69000E+01 3.05150E+01 0.00000E+00
 -1      3888 9.46500E+01 2.92160E+01 0.00000E+00
 -1      3889 9.84000E+01 3.05150E+01 0.00000E+00
 -1      3890 9.99000E+01 3.05150E+01 0.00000E+00
 -1      3891 9.76500E+01 2.92160E+01 0.00000E+00
 -1      3892 1.01400E+02 3.05150E+01 0.00000E+00
 -1      3893 1.02900E+02 3.05150E+01 0.00000E+00
 -1      3894 1.00650E+02 2.92160E+01 0.00000E+00
 -1      3895 1.04400E+02 3.05150E+01 0.00000E+00
 -1      3896 1.05900E+02 3.05150E+01 0.00000E+00
 -1      3897 1.03650E+02 2.92160E+01 0.00000E+00
 -1      3898 1.07400E+02 3.05150E+01 0.00000E+00
 -1      3899 1.08900E+02 3.05150E+01 0.00000E+00
 -1      3900 1.06650E+02 2.92160E+01 0.00000E+00
 -1      3901 1.10400E+02 3.05150E+01 0.00000E+00
 -1      3902 1.11900E+02 3.05150E+01 0.00000E+00
 -1      3903 1.09650E+02 2.92160E+01 0.00000E+00
 -1      3904 1.13400E+02 3.05150E+01 0.00000E+00
 -1      3905 1.14900E+02 3.05150E+01 0.00000E+00
 -1      3906 1.12650E+02 2.92160E+01 0.00000E+00
 -1      3907 1.16400E+02 3.05150E+01 0.00000E+00
 -1      3908 1.17900E+02 3.05150E+01 0.00000E+00
 -1      3909 1.15650E+02 2.92160E+01 0.00000E+00
 -1      3910 1.19400E+02 3.05150E+01 0.00000E+00
 -1      3911 1.20900E+02 3.05150E+01 0.00000E+00
 -1      3912 1.18650E+02 2.92160E+01 0.00000E+00
 -1      3913 1.22400E+02 3.05150E+01 0.00000E+00
 -1      3914 1.23900E+02 3.05150E+01 0.00000E+00
 -1      3915 1.21650E+02 2.92160E+01 0.00000E+00
 -1      3916 1.25400E+02 3.05150E+01 0.00000E+00
 -1      3917 1.26900E+02 3.05150E+01 0.00000E+00
 -1      3918 1.24650E+02 2.92160E+01 0.00000E+00
 -1      3919 1.28316E+02 3.02016E+01 0.00000E+00
 -1      3920 1.29816E+02 3.02016E+01 0.00000E+00
 -1      3921 1.30398E+02 2.82759E+01 0.00000E+00
 -1      3922 1.27566E+02 2.89026E+01 0.00000E+00
 -1      3923 8.59740E+01 1.88619E+01 0.00000E+00
 -1      3924 8.44740E+01 1.88619E+01 0.00000E+00
 -1      3925 8.28990E+01 1.88619E+01 0.00000E+00
 -1      3926 8.13240E+01 1.88619E+01 0.00000E+00
 -1      3927 8.36490E+01 2.01609E+01 0.00000E+00
 -1      3928 2.40642E+01 3.08898E+01 0.00000E+00
 -1      3929 2.55642E+01 3.08898E+01 0.00000E+00
 -1      3930 8.89740E+01 1.88619E+01 0.00000E+00
 -1      3931 8.74740E+01 1.88619E+01 0.00000E+00
 -1      3932 8.67240E+01 2.01609E+01 0.00000E+00
 -1      3933 9.19740E+01 1.88619E+01 0.00000E+00
 -1      3934 9.04740E+01 1.88619E+01 0.00000E+00
 -1      3935 8.97240E+01 2.01609E+01 0.00000E+00
 -1      3936 9.49740E+01 1.88619E+01 0.00000E+00
 -1      3937 9.34740E+01 1.88619E+01 0.00000E+00
 -1      3938 9.27240E+01 2.01609E+01 0.00000E+00
 -1      3939 9.79740E+01 1.88619E+01 0.00000E+00
 -1      3940 9.64740E+01 1.88619E+01 0.00000E+00
 -1      3941 9.57240E+01 2.01609E+01 0.00000E+00
 -1      3942 1.00974E+02 1.88619E+01 0.00000E+00
 -1      3943 9.94740E+01 1.88619E+01 0.00000E+00
 -1      3944 9.87240E+01 2.01609E+01 0.00000E+00
 -1      3945 1.03974E+02 1.88619E+01 0.00000E+00
 -1      3946 1.02474E+02 1.88619E+01 0.00000E+00
 -1      3947 1.01724E+02 2.01609E+01 0.00000E+00
 -1      3948 1.06974E+02 1.88619E+01 0.00000E+00
 -1      3949 1.05474E+02 1.88619E+01 0.00000E+00
 -1      3950 1.04724E+02 2.01609E+01 0.00000E+00
 -1      3951 1.09974E+02 1.88619E+01 0.00000E+00
 -1      3952 1.08474E+02 1.88619E+01 0.00000E+00
 -1      3953 1.07724E+02 2.01609E+01 0.00000E+00
 -1      3954 1.12974E+02 1.88619E+01 0.00000E+00
 -1      3955 1.11474E+02 1.88619E+01 0.00000E+00
 -1      3956 1.10724E+02 2.01609E+01 0.00000E+00
 -1      3957 1.15974E+02 1.88619E+01 0.00000E+00
 -1      3958 1.14474E+02 1.88619E+01 0.00000E+00
 -1      3959 1.13724E+02 2.01609E+01 0.00000E+00
 -1      3960 1.18974E+02 1.88619E+01 0.00000E+00
 -1      3961 1.17474E+02 1.88619E+01 0.00000E+00
 -1      3962 1.16724E+02 2.01609E+01 0.00000E+00
 -1      3963 1.21974E+02 1.88619E+01 0.00000E+00
 -1      3964 1.20474E+02 1.88619E+01 0.00000E+00
 -1      3965 1.19724E+02 2.01609E+01 0.00000E+00
 -1      3966 1.24974E+02 1.88619E+01 0.00000E+00
 -1      3967 1.23474E+02 1.88619E+01 0.00000E+00
 -1      3968 1.22724E+02 2.01609E+01 0.00000E+00
 -1      3969 1.27974E+02 1.88619E+01 0.00000E+00
 -1      3970 1.26474E+02 1.88619E+01 0.00000E+00
 -1      3971 1.25724E+02 2.01609E+01 0.00000E+00
 -1      3972 5.88240E+01 1.88619E+01 0.00000E+00
 -1      3973 5.73240E+01 1.88619E+01 0.00000E+00
 -1      3974 2.24635E+01 3.01372E+01 0.00000E+00
 -1      3975 5.22152E+01 1.89002E+01 0.00000E+00
 -1      3976 5.19834E+01 2.03856E+01 0.00000E+00
 -1      3977 5.35909E+01 1.89496E+01 0.00000E+00
 -1      3978 1.31691E+02 1.98532E+01 0.00000E+00
 -1      3979 7.68240E+01 1.88619E+01 0.00000E+00
 -1      3980 7.53240E+01 1.88619E+01 0.00000E+00
 -1      3981 2.70642E+01 3.08898E+01 0.00000E+00
 -1      3982 7.98240E+01 1.88619E+01 0.00000E+00
 -1      3983 7.83240E+01 1.88619E+01 0.00000E+00
 -1      3984 7.75740E+01 2.01609E+01 0.00000E+00
 -1      3985 8.05740E+01 2.01609E+01 0.00000E+00
 -1      3986 7.38240E+01 1.88619E+01 0.00000E+00
 -1      3987 7.23240E+01 1.88619E+01 0.00000E+00
 -1      3988 7.45740E+01 2.01609E+01 0.00000E+00
 -1      3989 1.30515E+02 2.43000E+01 0.00000E+00
 -1      3990 1.30515E+02 2.28250E+01 0.00000E+00
 -1      3991 6.18240E+01 1.88619E+01 0.00000E+00
 -1      3992 6.03240E+01 1.88619E+01 0.00000E+00
 -1      3993 5.95740E+01 2.01609E+01 0.00000E+00
 -1      3994 5.04000E+01 3.05150E+01 0.00000E+00
 -1      3995 5.19000E+01 3.05150E+01 0.00000E+00
 -1      3996 1.30392E+02 2.13251E+01 0.00000E+00
 -1      3997 1.30269E+02 1.90908E+01 0.00000E+00
 -1      3998 1.28847E+02 1.90628E+01 0.00000E+00
 -1      3999 1.29093E+02 2.20626E+01 0.00000E+00
 -1      4000 7.08240E+01 1.88619E+01 0.00000E+00
 -1      4001 6.93240E+01 1.88619E+01 0.00000E+00
 -1      4002 7.15740E+01 2.01609E+01 0.00000E+00
 -1      4003 5.21130E+01 2.18354E+01 0.00000E+00
 -1      4004 1.28097E+02 2.03618E+01 0.00000E+00
 -1      4005 5.05744E+01 2.47655E+01 0.00000E+00
 -1      4006 4.93235E+01 2.51994E+01 0.00000E+00
 -1      4007 4.90311E+01 2.67289E+01 0.00000E+00
 -1      4008 5.61453E+01 1.89304E+01 0.00000E+00
 -1      4009 5.47696E+01 1.88811E+01 0.00000E+00
 -1      4010 5.45378E+01 2.03664E+01 0.00000E+00
 -1      4011 5.68953E+01 2.02294E+01 0.00000E+00
 -1      4012 1.30456E+02 2.70192E+01 0.00000E+00
 -1      4013 1.30456E+02 2.55567E+01 0.00000E+00
 -1      4014 1.29158E+02 2.48192E+01 0.00000E+00
 -1      4015 1.29040E+02 2.73326E+01 0.00000E+00
 -1      4016 5.26500E+01 2.92160E+01 0.00000E+00
 -1      4017 4.94651E+01 2.81894E+01 0.00000E+00
 -1      4018 5.07160E+01 2.77555E+01 0.00000E+00
 -1      4019 5.22160E+01 2.77555E+01 0.00000E+00
 -1      4020 5.37160E+01 2.77555E+01 0.00000E+00
 -1      4021 5.17820E+01 2.62950E+01 0.00000E+00
 -1      4022 5.79000E+01 2.79170E+01 0.00000E+00
 -1      4023 5.94000E+01 2.79170E+01 0.00000E+00
 -1      4024 6.09000E+01 2.79170E+01 0.00000E+00
 -1      4025 6.24000E+01 2.79170E+01 0.00000E+00
 -1      4026 6.01500E+01 2.66180E+01 0.00000E+00
 -1      4027 6.39000E+01 2.79170E+01 0.00000E+00
 -1      4028 6.54000E+01 2.79170E+01 0.00000E+00
 -1      4029 6.31500E+01 2.66180E+01 0.00000E+00
 -1      4030 6.69000E+01 2.79170E+01 0.00000E+00
 -1      4031 6.84000E+01 2.79170E+01 0.00000E+00
 -1      4032 6.61500E+01 2.66180E+01 0.00000E+00
 -1      4033 6.99000E+01 2.79170E+01 0.00000E+00
 -1      4034 7.14000E+01 2.79170E+01 0.00000E+00
 -1      4035 6.91500E+01 2.66180E+01 0.00000E+00
 -1      4036 7.29000E+01 2.79170E+01 0.00000E+00
 -1      4037 7.44000E+01 2.79170E+01 0.00000E+00
 -1      4038 7.21500E+01 2.66180E+01 0.00000E+00
 -1      4039 7.59000E+01 2.79170E+01 0.00000E+00
 -1      4040 7.74000E+01 2.79170E+01 0.00000E+00
 -1      4041 7.51500E+01 2.66180E+01 0.00000E+00
 -1      4042 7.89000E+01 2.79170E+01 0.00000E+00
 -1      4043 8.04000E+01 2.79170E+01 0.00000E+00
 -1      4044 7.81500E+01 2.66180E+01 0.00000E+00
 -1      4045 8.19000E+01 2.79170E+01 0.00000E+00
 -1      4046 8.34000E+01 2.79170E+01 0.00000E+00
 -1      4047 8.11500E+01 2.66180E+01 0.00000E+00
 -1      4048 8.49000E+01 2.79170E+01 0.00000E+00
 -1      4049 8.64000E+01 2.79170E+01 0.00000E+00
 -1      4050 8.41500E+01 2.66180E+01 0.00000E+00
 -1      4051 8.79000E+01 2.79170E+01 0.00000E+00
 -1      4052 8.94000E+01 2.79170E+01 0.00000E+00
 -1      4053 8.71500E+01 2.66180E+01 0.00000E+00
 -1      4054 9.09000E+01 2.79170E+01 0.00000E+00
 -1      4055 9.24000E+01 2.79170E+01 0.00000E+00
 -1      4056 9.01500E+01 2.66180E+01 0.00000E+00
 -1      4057 9.39000E+01 2.79170E+01 0.00000E+00
 -1      4058 9.54000E+01 2.79170E+01 0.00000E+00
 -1      4059 9.31500E+01 2.66180E+01 0.00000E+00
 -1      4060 9.69000E+01 2.79170E+01 0.00000E+00
 -1      4061 9.84000E+01 2.79170E+01 0.00000E+00
 -1      4062 9.61500E+01 2.66180E+01 0.00000E+00
 -1      4063 9.99000E+01 2.79170E+01 0.00000E+00
 -1      4064 1.01400E+02 2.79170E+01 0.00000E+00
 -1      4065 9.91500E+01 2.66180E+01 0.00000E+00
 -1      4066 1.02900E+02 2.79170E+01 0.00000E+00
 -1      4067 1.04400E+02 2.79170E+01 0.00000E+00
 -1      4068 1.02150E+02 2.66180E+01 0.00000E+00
 -1      4069 1.05900E+02 2.79170E+01 0.00000E+00
 -1      4070 1.07400E+02 2.79170E+01 0.00000E+00
 -1      4071 1.05150E+02 2.66180E+01 0.00000E+00
 -1      4072 1.08900E+02 2.79170E+01 0.00000E+00
 -1      4073 1.10400E+02 2.79170E+01 0.00000E+00
 -1      4074 1.08150E+02 2.66180E+01 0.00000E+00
 -1      4075 1.11900E+02 2.79170E+01 0.00000E+00
 -1      4076 1.13400E+02 2.79170E+01 0.00000E+00
 -1      4077 1.11150E+02 2.66180E+01 0.00000E+00
 -1      4078 1.14900E+02 2.79170E+01 0.00000E+00
 -1      4079 1.16400E+02 2.79170E+01 0.00000E+00
 -1      4080 1.14150E+02 2.66180E+01 0.00000E+00
 -1      4081 1.17900E+02 2.79170E+01 0.00000E+00
 -1      4082 1.19400E+02 2.79170E+01 0.00000E+00
 -1      4083 1.17150E+02 2.66180E+01 0.00000E+00
 -1      4084 1.20900E+02 2.79170E+01 0.00000E+00
 -1      4085 1.22400E+02 2.79170E+01 0.00000E+00
 -1      4086 1.20150E+02 2.66180E+01 0.00000E+00
 -1      4087 1.23900E+02 2.79170E+01 0.00000E+00
 -1      4088 1.25400E+02 2.79170E+01 0.00000E+00
 -1      4089 1.23150E+02 2.66180E+01 0.00000E+00
 -1      4090 9.34740E+01 2.14599E+01 0.00000E+00
 -1      4091 9.19740E+01 2.14599E+01 0.00000E+00
 -1      4092 1.28343E+02 2.33616E+01 0.00000E+00
 -1      4093 1.28220E+02 2.18617E+01 0.00000E+00
 -1      4094 1.27347E+02 2.16608E+01 0.00000E+00
 -1      4095 9.04740E+01 2.14599E+01 0.00000E+00
 -1      4096 8.89740E+01 2.14599E+01 0.00000E+00
 -1      4097 9.12240E+01 2.27589E+01 0.00000E+00
 -1      4098 8.74740E+01 2.14599E+01 0.00000E+00
 -1      4099 8.59740E+01 2.14599E+01 0.00000E+00
 -1      4100 8.82240E+01 2.27589E+01 0.00000E+00
 -1      4101 8.43990E+01 2.14599E+01 0.00000E+00
 -1      4102 8.28240E+01 2.14599E+01 0.00000E+00
 -1      4103 8.51490E+01 2.27589E+01 0.00000E+00
 -1      4104 9.64740E+01 2.14599E+01 0.00000E+00
 -1      4105 9.49740E+01 2.14599E+01 0.00000E+00
 -1      4106 9.42240E+01 2.27589E+01 0.00000E+00
 -1      4107 9.94740E+01 2.14599E+01 0.00000E+00
 -1      4108 9.79740E+01 2.14599E+01 0.00000E+00
 -1      4109 9.72240E+01 2.27589E+01 0.00000E+00
 -1      4110 1.02474E+02 2.14599E+01 0.00000E+00
 -1      4111 1.00974E+02 2.14599E+01 0.00000E+00
 -1      4112 1.00224E+02 2.27589E+01 0.00000E+00
 -1      4113 1.05474E+02 2.14599E+01 0.00000E+00
 -1      4114 1.03974E+02 2.14599E+01 0.00000E+00
 -1      4115 1.03224E+02 2.27589E+01 0.00000E+00
 -1      4116 1.08474E+02 2.14599E+01 0.00000E+00
 -1      4117 1.06974E+02 2.14599E+01 0.00000E+00
 -1      4118 1.06224E+02 2.27589E+01 0.00000E+00
 -1      4119 1.11474E+02 2.14599E+01 0.00000E+00
 -1      4120 1.09974E+02 2.14599E+01 0.00000E+00
 -1      4121 1.09224E+02 2.27589E+01 0.00000E+00
 -1      4122 1.14474E+02 2.14599E+01 0.00000E+00
 -1      4123 1.12974E+02 2.14599E+01 0.00000E+00
 -1      4124 1.12224E+02 2.27589E+01 0.00000E+00
 -1      4125 1.17474E+02 2.14599E+01 0.00000E+00
 -1      4126 1.15974E+02 2.14599E+01 0.00000E+00
 -1      4127 1.15224E+02 2.27589E+01 0.00000E+00
 -1      4128 1.20474E+02 2.14599E+01 0.00000E+00
 -1      4129 1.18974E+02 2.14599E+01 0.00000E+00
 -1      4130 1.18224E+02 2.27589E+01 0.00000E+00
 -1      4131 1.23474E+02 2.14599E+01 0.00000E+00
 -1      4132 1.21974E+02 2.14599E+01 0.00000E+00
 -1      4133 1.21224E+02 2.27589E+01 0.00000E+00
 -1      4134 1.26160E+02 2.15603E+01 0.00000E+00
 -1      4135 1.24660E+02 2.15603E+01 0.00000E+00
 -1      4136 1.23910E+02 2.28593E+01 0.00000E+00
 -1      4137 1.26284E+02 2.30602E+01 0.00000E+00
 -1      4138 7.53240E+01 2.14599E+01 0.00000E+00
 -1      4139 7.38240E+01 2.14599E+01 0.00000E+00
 -1      4140 5.37065E+01 2.19986E+01 0.00000E+00
 -1      4141 5.24604E+01 2.33992E+01 0.00000E+00
 -1      4142 5.50580E+01 2.78362E+01 0.00000E+00
 -1      4143 5.65580E+01 2.78362E+01 0.00000E+00
 -1      4144 5.73080E+01 2.65372E+01 0.00000E+00
 -1      4145 5.46240E+01 2.63757E+01 0.00000E+00
 -1      4146 6.33240E+01 1.88619E+01 0.00000E+00
 -1      4147 6.25740E+01 2.01609E+01 0.00000E+00
 -1      4148 6.48240E+01 1.88619E+01 0.00000E+00
 -1      4149 6.78240E+01 1.88619E+01 0.00000E+00
 -1      4150 6.63240E+01 1.88619E+01 0.00000E+00
 -1      4151 6.55740E+01 2.01609E+01 0.00000E+00
 -1      4152 6.85740E+01 2.01609E+01 0.00000E+00
 -1      4153 6.03240E+01 2.14599E+01 0.00000E+00
 -1      4154 5.88240E+01 2.14599E+01 0.00000E+00
 -1      4155 1.26512E+02 2.77815E+01 0.00000E+00
 -1      4156 1.27928E+02 2.74681E+01 0.00000E+00
 -1      4157 1.27987E+02 2.62114E+01 0.00000E+00
 -1      4158 1.25762E+02 2.64825E+01 0.00000E+00
 -1      4159 7.30740E+01 2.27589E+01 0.00000E+00
 -1      4160 7.23240E+01 2.14599E+01 0.00000E+00
 -1      4161 7.08240E+01 2.14599E+01 0.00000E+00
 -1      4162 7.68240E+01 2.14599E+01 0.00000E+00
 -1      4163 7.60740E+01 2.27589E+01 0.00000E+00
 -1      4164 7.83240E+01 2.14599E+01 0.00000E+00
 -1      4165 5.48852E+01 2.19301E+01 0.00000E+00
 -1      4166 5.20744E+01 2.47655E+01 0.00000E+00
 -1      4167 5.83953E+01 2.28274E+01 0.00000E+00
 -1      4168 5.76453E+01 2.15284E+01 0.00000E+00
 -1      4169 5.64665E+01 2.15969E+01 0.00000E+00
 -1      4170 5.36680E+01 2.49287E+01 0.00000E+00
 -1      4171 1.28136E+02 2.54148E+01 0.00000E+00
 -1      4172 1.28194E+02 2.41582E+01 0.00000E+00
 -1      4173 1.27321E+02 2.39573E+01 0.00000E+00
 -1      4174 1.27023E+02 2.55504E+01 0.00000E+00
 -1      4175 8.13240E+01 2.14599E+01 0.00000E+00
 -1      4176 7.98240E+01 2.14599E+01 0.00000E+00
 -1      4177 8.20740E+01 2.27589E+01 0.00000E+00
 -1      4178 5.91120E+01 2.46884E+01 0.00000E+00
 -1      4179 6.06120E+01 2.46884E+01 0.00000E+00
 -1      4180 6.18240E+01 2.14599E+01 0.00000E+00
 -1      4181 6.10740E+01 2.27589E+01 0.00000E+00
 -1      4182 6.33240E+01 2.14599E+01 0.00000E+00
 -1      4183 9.51870E+01 2.46884E+01 0.00000E+00
 -1      4184 9.36870E+01 2.46884E+01 0.00000E+00
 -1      4185 6.21120E+01 2.46884E+01 0.00000E+00
 -1      4186 6.36120E+01 2.46884E+01 0.00000E+00
 -1      4187 6.84000E+01 2.53190E+01 0.00000E+00
 -1      4188 6.99000E+01 2.53190E+01 0.00000E+00
 -1      4189 7.11120E+01 2.46884E+01 0.00000E+00
 -1      4190 7.26120E+01 2.46884E+01 0.00000E+00
 -1      4191 7.41120E+01 2.46884E+01 0.00000E+00
 -1      4192 7.56120E+01 2.46884E+01 0.00000E+00
 -1      4193 7.71120E+01 2.46884E+01 0.00000E+00
 -1      4194 7.86120E+01 2.46884E+01 0.00000E+00
 -1      4195 8.01120E+01 2.46884E+01 0.00000E+00
 -1      4196 8.16120E+01 2.46884E+01 0.00000E+00
 -1      4197 8.31120E+01 2.46884E+01 0.00000E+00
 -1      4198 8.46120E+01 2.46884E+01 0.00000E+00
 -1      4199 8.61870E+01 2.46884E+01 0.00000E+00
 -1      4200 8.76870E+01 2.46884E+01 0.00000E+00
 -1      4201 8.91870E+01 2.46884E+01 0.00000E+00
 -1      4202 9.06870E+01 2.46884E+01 0.00000E+00
 -1      4203 9.21870E+01 2.46884E+01 0.00000E+00
 -1      4204 9.66870E+01 2.46884E+01 0.00000E+00
 -1      4205 9.81870E+01 2.46884E+01 0.00000E+00
 -1      4206 9.96870E+01 2.46884E+01 0.00000E+00
 -1      4207 1.01187E+02 2.46884E+01 0.00000E+00
 -1      4208 1.02687E+02 2.46884E+01 0.00000E+00
 -1      4209 1.04187E+02 2.46884E+01 0.00000E+00
 -1      4210 1.05687E+02 2.46884E+01 0.00000E+00
 -1      4211 1.07187E+02 2.46884E+01 0.00000E+00
 -1      4212 1.08687E+02 2.46884E+01 0.00000E+00
 -1      4213 1.10187E+02 2.46884E+01 0.00000E+00
 -1      4214 1.11687E+02 2.46884E+01 0.00000E+00
 -1      4215 1.13187E+02 2.46884E+01 0.00000E+00
 -1      4216 1.14687E+02 2.46884E+01 0.00000E+00
 -1      4217 1.16187E+02 2.46884E+01 0.00000E+00
 -1      4218 1.17687E+02 2.46884E+01 0.00000E+00
 -1      4219 1.19187E+02 2.46884E+01 0.00000E+00
 -1      4220 1.20687E+02 2.46884E+01 0.00000E+00
 -1      4221 1.22187E+02 2.46884E+01 0.00000E+00
 -1      4222 1.23687E+02 2.46884E+01 0.00000E+00
 -1      4223 5.50100E+01 2.50094E+01 0.00000E+00
 -1      4224 5.79333E+01 2.47569E+01 0.00000E+00
 -1      4225 5.56352E+01 2.32291E+01 0.00000E+00
 -1      4226 1.24873E+02 2.47889E+01 0.00000E+00
 -1      4227 6.96120E+01 2.20904E+01 0.00000E+00
 -1      4228 6.81120E+01 2.20904E+01 0.00000E+00
 -1      4229 1.25986E+02 2.46534E+01 0.00000E+00
 -1      4230 7.90740E+01 2.27589E+01 0.00000E+00
 -1      4231 6.42370E+01 2.31083E+01 0.00000E+00
 -1      4232 6.52750E+01 2.50378E+01 0.00000E+00
 -1      4233 7.03620E+01 2.33894E+01 0.00000E+00
 -1      4234 6.67750E+01 2.50378E+01 0.00000E+00
 -1      4235 5.65913E+01 2.46762E+01 0.00000E+00
 -1      4236 6.75250E+01 2.37388E+01 0.00000E+00
 -1      4237 6.49870E+01 2.18093E+01 0.00000E+00
 -1      4238 6.64870E+01 2.18093E+01 0.00000E+00
 -1      4239 1.26135E+02 2.38568E+01 0.00000E+00
 -3
    3C                          2037                                     1
 -1       166    8    0    1
 -2         6         7        23      1102      1267      1119
 -1       167    8    0    1
 -2         7         8       166      1103      1268      1269
 -1       168    8    0    1
 -2         8         9       167      1104      1270      1271
 -1       169    8    0    1
 -2         8       167       166      1271      1272      1268
 -1       170    8    0    1
 -2         9        10       168      1105      1273      1274
 -1       171    8    0    1
 -2         9       168       167      1274      1275      1270
 -1       172    8    0    1
 -2        10        11       169      1106      1276      1277
 -1       173    8    0    1
 -2        10       169       168      1277      1278      1273
 -1       174    8    0    1
 -2        11        12       170      1107      1279      1280
 -1       175    8    0    1
 -2        11       170       169      1280      1281      1276
 -1       176    8    0    1
 -2        12        13       171      1108      1282      1283
 -1       177    8    0    1
 -2        12       171       170      1283      1284      1279
 -1       178    8    0    1
 -2        13        14       172      1109      1285      1286
 -1       179    8    0    1
 -2        13       172       171      1286      1287      1282
 -1       180    8    0    1
 -2        14        15       173      1110      1288      1289
 -1       181    8    0    1
 -2        14       173       172      1289      1290      1285
 -1       182    8    0    1
 -2        15        16       174      1111      1291      1292
 -1       183    8    0    1
 -2        15       174       173      1292      1293      1288
 -1       184    8    0    1
 -2        16        17       175      1112      1294      1295
 -1       185    8    0    1
 -2        16       175       174      1295      1296      1291
 -1       186    8    0    1
 -2        17        18       176      1113      1297      1298
 -1       187    8    0    1
 -2        17       176       175      1298      1299      1294
 -1       188    8    0    1
 -2        18        19       177      1114      1300      1301
 -1       189    8    0    1
 -2        18       177       176      1301      1302      1297
 -1       190    8    0    1
 -2        19        20       178      1115      1303      1304
 -1       191    8    0    1
 -2        19       178       177      1304      1305      1300
 -1       192    8    0    1
 -2        20        21       179      1116      1306      1307
 -1       193    8    0    1
 -2        20       179       178      1307      1308      1303
 -1       194    8    0    1
 -2        21        22       180      1117      1309      1310
 -1       195    8    0    1
 -2        21       180       179      1310      1311      1306
 -1       196    8    0    1
 -2        22         5       181      1118      1312      1313
 -1       197    8    0    1
 -2       180        22       181      1309      1313      1314
 -1       198    8    0    1
 -2         5        72       181      1169      1315      1312
 -1       199    8    0    1
 -2        24        23       182      1120      1316      1317
 -1       200    8    0    1
 -2        25        24       183      1121      1318      1319
 -1       201    8    0    1
 -2        24       182       183      1317      1320      1318
 -1       202    8    0    1
 -2        26        25       184      1122      1321      1322
 -1       203    8    0    1
 -2        25       183       184      1319      1323      1321
 -1       204    8    0    1
 -2        27        26       185      1123      1324      1325
 -1       205    8    0    1
 -2        26       184       185      1322      1326      1324
 -1       206    8    0    1
 -2        28        27       186      1124      1327      1328
 -1       207    8    0    1
 -2        27       185       186      1325      1329      1327
 -1       208    8    0    1
 -2        29        28       187      1125      1330      1331
 -1       209    8    0    1
 -2        28       186       187      1328      1332      1330
 -1       210    8    0    1
 -2        30        29       188      1126      1333      1334
 -1       211    8    0    1
 -2        29       187       188      1331      1335      1333
 -1       212    8    0    1
 -2        31        30       189      1127      1336      1337
 -1       213    8    0    1
 -2        30       188       189      1334      1338      1336
 -1       214    8    0    1
 -2        32        31       190      1128      1339      1340
 -1       215    8    0    1
 -2        31       189       190      1337      1341      1339
 -1       216    8    0    1
 -2        33        32       191      1129      1342      1343
 -1       217    8    0    1
 -2        32       190       191      1340      1344      1342
 -1       218    8    0    1
 -2        34        33       192      1130      1345      1346
 -1       219    8    0    1
 -2        33       191       192      1343      1347      1345
 -1       220    8    0    1
 -2        35        34       193      1131      1348      1349
 -1       221    8    0    1
 -2        34       192       193      1346      1350      1348
 -1       222    8    0    1
 -2        36        35       194      1132      1351      1352
 -1       223    8    0    1
 -2        35       193       194      1349      1353      1351
 -1       224    8    0    1
 -2        37        36       195      1133      1354      1355
 -1       225    8    0    1
 -2        36       194       195      1352      1356      1354
 -1       226    8    0    1
 -2        38        37       196      1134      1357      1358
 -1       227    8    0    1
 -2        37       195       196      1355      1359      1357
 -1       228    8    0    1
 -2        39        38       197      1135      1360      1361
 -1       229    8    0    1
 -2        38       196       197      1358      1362      1360
 -1       230    8    0    1
 -2        40        39       198      1136      1363      1364
 -1       231    8    0    1
 -2        39       197       198      1361      1365      1363
 -1       232    8    0    1
 -2        41        40       199      1137      1366      1367
 -1       233    8    0    1
 -2        40       198       199      1364      1368      1366
 -1       234    8    0    1
 -2        42        41       200      1138      1369      1370
 -1       235    8    0    1
 -2        41       199       200      1367      1371      1369
 -1       236    8    0    1
 -2        43        42       201      1139      1372      1373
 -1       237    8    0    1
 -2        42       200       201      1370      1374      1372
 -1       238    8    0    1
 -2        44        43       202      1140      1375      1376
 -1       239    8    0    1
 -2        43       201       202      1373      1377      1375
 -1       240    8    0    1
 -2        45        44       203      1141      1378      1379
 -1       241    8    0    1
 -2        44       202       203      1376      1380      1378
 -1       242    8    0    1
 -2        46        45       204      1142      1381      1382
 -1       243    8    0    1
 -2        45       203       204      1379      1383      1381
 -1       244    8    0    1
 -2        47        46       205      1143      1384      1385
 -1       245    8    0    1
 -2        46       204       205      1382      1386      1384
 -1       246    8    0    1
 -2        48        47       206      1144      1387      1388
 -1       247    8    0    1
 -2        47       205       206      1385      1389      1387
 -1       248    8    0    1
 -2        49        48       207      1145      1390      1391
 -1       249    8    0    1
 -2        48       206       207      1388      1392      1390
 -1       250    8    0    1
 -2        50        49       208      1146      1393      1394
 -1       251    8    0    1
 -2        49       207       208      1391      1395      1393
 -1       252    8    0    1
 -2        51        50       209      1147      1396      1397
 -1       253    8    0    1
 -2        50       208       209      1394      1398      1396
 -1       254    8    0    1
 -2        52        51       210      1148      1399      1400
 -1       255    8    0    1
 -2        51       209       210      1397      1401      1399
 -1       256    8    0    1
 -2        53        52       211      1149      1402      1403
 -1       257    8    0    1
 -2        52       210       211      1400      1404      1402
 -1       258    8    0    1
 -2        54        53       212      1150      1405      1406
 -1       259    8    0    1
 -2        53       211       212      1403      1407      1405
 -1       260    8    0    1
 -2        55        54       213      1151      1408      1409
 -1       261    8    0    1
 -2        54       212       213      1406      1410      1408
 -1       262    8    0    1
 -2        56        55       214      1152      1411      1412
 -1       263    8    0    1
 -2        55       213       214      1409      1413      1411
 -1       264    8    0    1
 -2        57        56       215      1153      1414      1415
 -1       265    8    0    1
 -2        56       214       215      1412      1416      1414
 -1       266    8    0    1
 -2        58        57       216      1154      1417      1418
 -1       267    8    0    1
 -2        57       215       216      1415      1419      1417
 -1       268    8    0    1
 -2        59        58       217      1155      1420      1421
 -1       269    8    0    1
 -2        58       216       217      1418      1422      1420
 -1       270    8    0    1
 -2        60        59       218      1156      1423      1424
 -1       271    8    0    1
 -2        59       217       218      1421      1425      1423
 -1       272    8    0    1
 -2        61        60       219      1157      1426      1427
 -1       273    8    0    1
 -2        60       218       219      1424      1428      1426
 -1       274    8    0    1
 -2        62        61       220      1158      1429      1430
 -1       275    8    0    1
 -2        61       219       220      1427      1431      1429
 -1       276    8    0    1
 -2        63        62       221      1159      1432      1433
 -1       277    8    0    1
 -2        62       220       221      1430      1434      1432
 -1       278    8    0    1
 -2        64        63       222      1160      1435      1436
 -1       279    8    0    1
 -2        63       221       222      1433      1437      1435
 -1       280    8    0    1
 -2        65        64       223      1161      1438      1439
 -1       281    8    0    1
 -2        64       222       223      1436      1440      1438
 -1       282    8    0    1
 -2        66        65       224      1162      1441      1442
 -1       283    8    0    1
 -2        65       223       224      1439      1443      1441
 -1       284    8    0    1
 -2        67        66       225      1163      1444      1445
 -1       285    8    0    1
 -2        66       224       225      1442      1446      1444
 -1       286    8    0    1
 -2        68        67       226      1164      1447      1448
 -1       287    8    0    1
 -2        67       225       226      1445      1449      1447
 -1       288    8    0    1
 -2        69        68       227      1165      1450      1451
 -1       289    8    0    1
 -2        68       226       227      1448      1452      1450
 -1       290    8    0    1
 -2        70        69       228      1166      1453      1454
 -1       291    8    0    1
 -2        69       227       228      1451      1455      1453
 -1       292    8    0    1
 -2        71        70       229      1167      1456      1457
 -1       293    8    0    1
 -2        70       228       229      1454      1458      1456
 -1       294    8    0    1
 -2         4        71       137      1168      1459      1236
 -1       295    8    0    1
 -2       137        71       229      1459      1457      1460
 -1       296    8    0    1
 -2        72        73       230      1170      1461      1462
 -1       297    8    0    1
 -2        72       230       181      1462      1463      1315
 -1       298    8    0    1
 -2        73        74       231      1171      1464      1465
 -1       299    8    0    1
 -2        73       231       230      1465      1466      1461
 -1       300    8    0    1
 -2        74        75       232      1172      1467      1468
 -1       301    8    0    1
 -2        74       232       231      1468      1469      1464
 -1       302    8    0    1
 -2        75        76       233      1173      1470      1471
 -1       303    8    0    1
 -2        75       233       232      1471      1472      1467
 -1       304    8    0    1
 -2        76        77       234      1174      1473      1474
 -1       305    8    0    1
 -2        76       234       233      1474      1475      1470
 -1       306    8    0    1
 -2        77        78       235      1175      1476      1477
 -1       307    8    0    1
 -2        77       235       234      1477      1478      1473
 -1       308    8    0    1
 -2        78        79       236      1176      1479      1480
 -1       309    8    0    1
 -2        78       236       235      1480      1481      1476
 -1       310    8    0    1
 -2        79        80       237      1177      1482      1483
 -1       311    8    0    1
 -2        79       237       236      1483      1484      1479
 -1       312    8    0    1
 -2        80        81       238      1178      1485      1486
 -1       313    8    0    1
 -2        80       238       237      1486      1487      1482
 -1       314    8    0    1
 -2        81        82       239      1179      1488      1489
 -1       315    8    0    1
 -2        81       239       238      1489      1490      1485
 -1       316    8    0    1
 -2        82        83       240      1180      1491      1492
 -1       317    8    0    1
 -2        82       240       239      1492      1493      1488
 -1       318    8    0    1
 -2        83        84       241      1181      1494      1495
 -1       319    8    0    1
 -2        83       241       240      1495      1496      1491
 -1       320    8    0    1
 -2        84        85       242      1182      1497      1498
 -1       321    8    0    1
 -2        84       242       241      1498      1499      1494
 -1       322    8    0    1
 -2        85        86       243      1183      1500      1501
 -1       323    8    0    1
 -2        85       243       242      1501      1502      1497
 -1       324    8    0    1
 -2        86        87       244      1184      1503      1504
 -1       325    8    0    1
 -2        86       244       243      1504      1505      1500
 -1       326    8    0    1
 -2        87        88       245      1185      1506      1507
 -1       327    8    0    1
 -2        87       245       244      1507      1508      1503
 -1       328    8    0    1
 -2        88        89       246      1186      1509      1510
 -1       329    8    0    1
 -2        88       246       245      1510      1511      1506
 -1       330    8    0    1
 -2        89        90       247      1187      1512      1513
 -1       331    8    0    1
 -2        89       247       246      1513      1514      1509
 -1       332    8    0    1
 -2        90        91       248      1188      1515      1516
 -1       333    8    0    1
 -2        90       248       247      1516      1517      1512
 -1       334    8    0    1
 -2        91        92       249      1189      1518      1519
 -1       335    8    0    1
 -2        91       249       248      1519      1520      1515
 -1       336    8    0    1
 -2        92        93       250      1190      1521      1522
 -1       337    8    0    1
 -2        92       250       249      1522      1523      1518
 -1       338    8    0    1
 -2        93        94       251      1191      1524      1525
 -1       339    8    0    1
 -2        93       251       250      1525      1526      1521
 -1       340    8    0    1
 -2        94        95       252      1192      1527      1528
 -1       341    8    0    1
 -2        94       252       251      1528      1529      1524
 -1       342    8    0    1
 -2        95        96       253      1193      1530      1531
 -1       343    8    0    1
 -2        95       253       252      1531      1532      1527
 -1       344    8    0    1
 -2        96        97       254      1194      1533      1534
 -1       345    8    0    1
 -2        96       254       253      1534      1535      1530
 -1       346    8    0    1
 -2        97        98       255      1195      1536      1537
 -1       347    8    0    1
 -2        97       255       254      1537      1538      1533
 -1       348    8    0    1
 -2        98        99       256      1196      1539      1540
 -1       349    8    0    1
 -2        98       256       255      1540      1541      1536
 -1       350    8    0    1
 -2        99       100       257      1197      1542      1543
 -1       351    8    0    1
 -2        99       257       256      1543      1544      1539
 -1       352    8    0    1
 -2       100       101       258      1198      1545      1546
 -1       353    8    0    1
 -2       100       258       257      1546      1547      1542
 -1       354    8    0    1
 -2       101       102       259      1199      1548      1549
 -1       355    8    0    1
 -2       101       259       258      1549      1550      1545
 -1       356    8    0    1
 -2       102       103       260      1200      1551      1552
 -1       357    8    0    1
 -2       102       260       259      1552      1553      1548
 -1       358    8    0    1
 -2       103       104       261      1201      1554      1555
 -1       359    8    0    1
 -2       103       261       260      1555      1556      1551
 -1       360    8    0    1
 -2       104       105       262      1202      1557      1558
 -1       361    8    0    1
 -2       104       262       261      1558      1559      1554
 -1       362    8    0    1
 -2       105       106       263      1203      1560      1561
 -1       363    8    0    1
 -2       105       263       262      1561      1562      1557
 -1       364    8    0    1
 -2       106       107       264      1204      1563      1564
 -1       365    8    0    1
 -2       106       264       263      1564      1565      1560
 -1       366    8    0    1
 -2       107       108       265      1205      1566      1567
 -1       367    8    0    1
 -2       107       265       264      1567      1568      1563
 -1       368    8    0    1
 -2       108       109       266      1206      1569      1570
 -1       369    8    0    1
 -2       108       266       265      1570      1571      1566
 -1       370    8    0    1
 -2       109       110       267      1207      1572      1573
 -1       371    8    0    1
 -2       109       267       266      1573      1574      1569
 -1       372    8    0    1
 -2       110       111       268      1208      1575      1576
 -1       373    8    0    1
 -2       110       268       267      1576      1577      1572
 -1       374    8    0    1
 -2       111       112       269      1209      1578      1579
 -1       375    8    0    1
 -2       111       269       268      1579      1580      1575
 -1       376    8    0    1
 -2       112       113       270      1210      1581      1582
 -1       377    8    0    1
 -2       112       270       269      1582      1583      1578
 -1       378    8    0    1
 -2       113       114       271      1211      1584      1585
 -1       379    8    0    1
 -2       113       271       270      1585      1586      1581
 -1       380    8    0    1
 -2       114       115       272      1212      1587      1588
 -1       381    8    0    1
 -2       114       272       271      1588      1589      1584
 -1       382    8    0    1
 -2       115       116       273      1213      1590      1591
 -1       383    8    0    1
 -2       115       273       272      1591      1592      1587
 -1       384    8    0    1
 -2       116       117       274      1214      1593      1594
 -1       385    8    0    1
 -2       116       274       273      1594      1595      1590
 -1       386    8    0    1
 -2       117       118       275      1215      1596      1597
 -1       387    8    0    1
 -2       117       275       274      1597      1598      1593
 -1       388    8    0    1
 -2       118       119       276      1216      1599      1600
 -1       389    8    0    1
 -2       118       276       275      1600      1601      1596
 -1       390    8    0    1
 -2       119       120       277      1217      1602      1603
 -1       391    8    0    1
 -2       119       277       276      1603      1604      1599
 -1       392    8    0    1
 -2       120       121       278      1218      1605      1606
 -1       393    8    0    1
 -2       120       278       277      1606      1607      1602
 -1       394    8    0    1
 -2       121         3       122      1219      1220      1608
 -1       395    8    0    1
 -2       122       123       279      1221      1609      1610
 -1       396    8    0    1
 -2       123       124       280      1222      1611      1612
 -1       397    8    0    1
 -2       123       280       279      1612      1613      1609
 -1       398    8    0    1
 -2       124       125       281      1223      1614      1615
 -1       399    8    0    1
 -2       124       281       280      1615      1616      1611
 -1       400    8    0    1
 -2       125       126       282      1224      1617      1618
 -1       401    8    0    1
 -2       125       282       281      1618      1619      1614
 -1       402    8    0    1
 -2       126       127       283      1225      1620      1621
 -1       403    8    0    1
 -2       126       283       282      1621      1622      1617
 -1       404    8    0    1
 -2       127       128       284      1226      1623      1624
 -1       405    8    0    1
 -2       127       284       283      1624      1625      1620
 -1       406    8    0    1
 -2       128       129       285      1227      1626      1627
 -1       407    8    0    1
 -2       128       285       284      1627      1628      1623
 -1       408    8    0    1
 -2       129       130       286      1228      1629      1630
 -1       409    8    0    1
 -2       129       286       285      1630      1631      1626
 -1       410    8    0    1
 -2       130       131       287      1229      1632      1633
 -1       411    8    0    1
 -2       130       287       286      1633      1634      1629
 -1       412    8    0    1
 -2       131       132       288      1230      1635      1636
 -1       413    8    0    1
 -2       131       288       287      1636      1637      1632
 -1       414    8    0    1
 -2       132       133       289      1231      1638      1639
 -1       415    8    0    1
 -2       132       289       288      1639      1640      1635
 -1       416    8    0    1
 -2       133       134       290      1232      1641      1642
 -1       417    8    0    1
 -2       133       290       289      1642      1643      1638
 -1       418    8    0    1
 -2       134       135       291      1233      1644      1645
 -1       419    8    0    1
 -2       134       291       290      1645      1646      1641
 -1       420    8    0    1
 -2       135       136       292      1234      1647      1648
 -1       421    8    0    1
 -2       135       292       291      1648      1649      1644
 -1       422    8    0    1
 -2       136       137       293      1235      1650      1651
 -1       423    8    0    1
 -2       292       136       293      1647      1651      1652
 -1       424    8    0    1
 -2       137       229       293      1460      1653      1650
 -1       425    8    0    1
 -2         2       138       294      1237      1654      1655
 -1       426    8    0    1
 -2       138       139       295      1238      1656      1657
 -1       427    8    0    1
 -2       139       140       296      1239      1658      1659
 -1       428    8    0    1
 -2       140       141       297      1240      1660      1661
 -1       429    8    0    1
 -2       141       142       298      1241      1662      1663
 -1       430    8    0    1
 -2       142       143       299      1242      1664      1665
 -1       431    8    0    1
 -2       143       144       300      1243      1666      1667
 -1       432    8    0    1
 -2       144       145       301      1244      1668      1669
 -1       433    8    0    1
 -2       145       146       302      1245      1670      1671
 -1       434    8    0    1
 -2       146       147       303      1246      1672      1673
 -1       435    8    0    1
 -2       147       148       304      1247      1674      1675
 -1       436    8    0    1
 -2       148       149       305      1248      1676      1677
 -1       437    8    0    1
 -2       149       150       306      1249      1678      1679
 -1       438    8    0    1
 -2       150       151       307      1250      1680      1681
 -1       439    8    0    1
 -2       151       152       308      1251      1682      1683
 -1       440    8    0    1
 -2       152       153       309      1252      1684      1685
 -1       441    8    0    1
 -2       153       154       310      1253      1686      1687
 -1       442    8    0    1
 -2       154       155       311      1254      1688      1689
 -1       443    8    0    1
 -2       155       156       312      1255      1690      1691
 -1       444    8    0    1
 -2       156       157       313      1256      1692      1693
 -1       445    8    0    1
 -2       157       158       314      1257      1694      1695
 -1       446    8    0    1
 -2       158         1       315      1258      1696      1697
 -1       447    8    0    1
 -2         1       159       316      1259      1698      1699
 -1       448    8    0    1
 -2       159       160       317      1260      1700      1701
 -1       449    8    0    1
 -2       160       161       318      1261      1702      1703
 -1       450    8    0    1
 -2       161       162       319      1262      1704      1705
 -1       451    8    0    1
 -2       162       163       320      1263      1706      1707
 -1       452    8    0    1
 -2       163       164       321      1264      1708      1709
 -1       453    8    0    1
 -2       164       165       322      1265      1710      1711
 -1       454    8    0    1
 -2       165         2       323      1266      1712      1713
 -1       455    8    0    1
 -2       297       141       298      1660      1663      1714
 -1       456    8    0    1
 -2       296       140       297      1658      1661      1715
 -1       457    8    0    1
 -2       121       122       278      1608      1716      1605
 -1       458    8    0    1
 -2       122       279       278      1610      1717      1716
 -1       459    8    0    1
 -2       294       138       295      1654      1657      1718
 -1       460    8    0    1
 -2       295       139       296      1656      1659      1719
 -1       461    8    0    1
 -2         2       294       323      1655      1720      1712
 -1       462    8    0    1
 -2       142       299       298      1665      1721      1662
 -1       463    8    0    1
 -2       143       300       299      1667      1722      1664
 -1       464    8    0    1
 -2       144       301       300      1669      1723      1666
 -1       465    8    0    1
 -2       145       302       301      1671      1724      1668
 -1       466    8    0    1
 -2       146       303       302      1673      1725      1670
 -1       467    8    0    1
 -2       147       304       303      1675      1726      1672
 -1       468    8    0    1
 -2       148       305       304      1677      1727      1674
 -1       469    8    0    1
 -2       149       306       305      1679      1728      1676
 -1       470    8    0    1
 -2       150       307       306      1681      1729      1678
 -1       471    8    0    1
 -2       151       308       307      1683      1730      1680
 -1       472    8    0    1
 -2       152       309       308      1685      1731      1682
 -1       473    8    0    1
 -2       153       310       309      1687      1732      1684
 -1       474    8    0    1
 -2       154       311       310      1689      1733      1686
 -1       475    8    0    1
 -2       155       312       311      1691      1734      1688
 -1       476    8    0    1
 -2       156       313       312      1693      1735      1690
 -1       477    8    0    1
 -2       157       314       313      1695      1736      1692
 -1       478    8    0    1
 -2       158       315       314      1697      1737      1694
 -1       479    8    0    1
 -2         1       316       315      1699      1738      1696
 -1       480    8    0    1
 -2       159       317       316      1701      1739      1698
 -1       481    8    0    1
 -2       160       318       317      1703      1740      1700
 -1       482    8    0    1
 -2       161       319       318      1705      1741      1702
 -1       483    8    0    1
 -2       162       320       319      1707      1742      1704
 -1       484    8    0    1
 -2       163       321       320      1709      1743      1706
 -1       485    8    0    1
 -2       164       322       321      1711      1744      1708
 -1       486    8    0    1
 -2       165       323       322      1713      1745      1710
 -1       487    8    0    1
 -2        23         7       166      1267      1269      1746
 -1       488    8    0    1
 -2       167       168       324      1275      1747      1748
 -1       489    8    0    1
 -2       166       167       325      1272      1749      1750
 -1       490    8    0    1
 -2       167       324       325      1748      1751      1749
 -1       491    8    0    1
 -2       169       170       326      1281      1752      1753
 -1       492    8    0    1
 -2       170       171       327      1284      1754      1755
 -1       493    8    0    1
 -2       170       327       326      1755      1756      1752
 -1       494    8    0    1
 -2       171       172       328      1287      1757      1758
 -1       495    8    0    1
 -2       171       328       327      1758      1759      1754
 -1       496    8    0    1
 -2       172       173       329      1290      1760      1761
 -1       497    8    0    1
 -2       172       329       328      1761      1762      1757
 -1       498    8    0    1
 -2       173       174       330      1293      1763      1764
 -1       499    8    0    1
 -2       173       330       329      1764      1765      1760
 -1       500    8    0    1
 -2       174       175       331      1296      1766      1767
 -1       501    8    0    1
 -2       174       331       330      1767      1768      1763
 -1       502    8    0    1
 -2       175       176       332      1299      1769      1770
 -1       503    8    0    1
 -2       175       332       331      1770      1771      1766
 -1       504    8    0    1
 -2       176       177       333      1302      1772      1773
 -1       505    8    0    1
 -2       176       333       332      1773      1774      1769
 -1       506    8    0    1
 -2       177       178       334      1305      1775      1776
 -1       507    8    0    1
 -2       177       334       333      1776      1777      1772
 -1       508    8    0    1
 -2       178       179       335      1308      1778      1779
 -1       509    8    0    1
 -2       178       335       334      1779      1780      1775
 -1       510    8    0    1
 -2       179       180       336      1311      1781      1782
 -1       511    8    0    1
 -2       179       336       335      1782      1783      1778
 -1       512    8    0    1
 -2       180       181       337      1314      1784      1785
 -1       513    8    0    1
 -2       336       180       337      1781      1785      1786
 -1       514    8    0    1
 -2       181       230       337      1463      1787      1784
 -1       515    8    0    1
 -2       182        23       166      1316      1746      1788
 -1       516    8    0    1
 -2       230       231       338      1466      1789      1790
 -1       517    8    0    1
 -2       230       338       337      1790      1791      1787
 -1       518    8    0    1
 -2       182       166       325      1788      1750      1792
 -1       519    8    0    1
 -2       184       183       339      1323      1793      1794
 -1       520    8    0    1
 -2       185       184       340      1326      1795      1796
 -1       521    8    0    1
 -2       184       339       340      1794      1797      1795
 -1       522    8    0    1
 -2       186       185       341      1329      1798      1799
 -1       523    8    0    1
 -2       185       340       341      1796      1800      1798
 -1       524    8    0    1
 -2       187       186       342      1332      1801      1802
 -1       525    8    0    1
 -2       186       341       342      1799      1803      1801
 -1       526    8    0    1
 -2       188       187       343      1335      1804      1805
 -1       527    8    0    1
 -2       187       342       343      1802      1806      1804
 -1       528    8    0    1
 -2       189       188       344      1338      1807      1808
 -1       529    8    0    1
 -2       188       343       344      1805      1809      1807
 -1       530    8    0    1
 -2       190       189       345      1341      1810      1811
 -1       531    8    0    1
 -2       189       344       345      1808      1812      1810
 -1       532    8    0    1
 -2       191       190       346      1344      1813      1814
 -1       533    8    0    1
 -2       190       345       346      1811      1815      1813
 -1       534    8    0    1
 -2       192       191       347      1347      1816      1817
 -1       535    8    0    1
 -2       191       346       347      1814      1818      1816
 -1       536    8    0    1
 -2       193       192       348      1350      1819      1820
 -1       537    8    0    1
 -2       192       347       348      1817      1821      1819
 -1       538    8    0    1
 -2       194       193       349      1353      1822      1823
 -1       539    8    0    1
 -2       193       348       349      1820      1824      1822
 -1       540    8    0    1
 -2       195       194       350      1356      1825      1826
 -1       541    8    0    1
 -2       194       349       350      1823      1827      1825
 -1       542    8    0    1
 -2       196       195       351      1359      1828      1829
 -1       543    8    0    1
 -2       195       350       351      1826      1830      1828
 -1       544    8    0    1
 -2       197       196       352      1362      1831      1832
 -1       545    8    0    1
 -2       196       351       352      1829      1833      1831
 -1       546    8    0    1
 -2       198       197       353      1365      1834      1835
 -1       547    8    0    1
 -2       197       352       353      1832      1836      1834
 -1       548    8    0    1
 -2       199       198       354      1368      1837      1838
 -1       549    8    0    1
 -2       198       353       354      1835      1839      1837
 -1       550    8    0    1
 -2       200       199       355      1371      1840      1841
 -1       551    8    0    1
 -2       199       354       355      1838      1842      1840
 -1       552    8    0    1
 -2       201       200       356      1374      1843      1844
 -1       553    8    0    1
 -2       200       355       356      1841      1845      1843
 -1       554    8    0    1
 -2       202       201       357      1377      1846      1847
 -1       555    8    0    1
 -2       201       356       357      1844      1848      1846
 -1       556    8    0    1
 -2       203       202       358      1380      1849      1850
 -1       557    8    0    1
 -2       202       357       358      1847      1851      1849
 -1       558    8    0    1
 -2       204       203       359      1383      1852      1853
 -1       559    8    0    1
 -2       203       358       359      1850      1854      1852
 -1       560    8    0    1
 -2       205       204       360      1386      1855      1856
 -1       561    8    0    1
 -2       204       359       360      1853      1857      1855
 -1       562    8    0    1
 -2       206       205       361      1389      1858      1859
 -1       563    8    0    1
 -2       205       360       361      1856      1860      1858
 -1       564    8    0    1
 -2       207       206       362      1392      1861      1862
 -1       565    8    0    1
 -2       206       361       362      1859      1863      1861
 -1       566    8    0    1
 -2       208       207       363      1395      1864      1865
 -1       567    8    0    1
 -2       207       362       363      1862      1866      1864
 -1       568    8    0    1
 -2       209       208       364      1398      1867      1868
 -1       569    8    0    1
 -2       208       363       364      1865      1869      1867
 -1       570    8    0    1
 -2       210       209       365      1401      1870      1871
 -1       571    8    0    1
 -2       209       364       365      1868      1872      1870
 -1       572    8    0    1
 -2       211       210       366      1404      1873      1874
 -1       573    8    0    1
 -2       210       365       366      1871      1875      1873
 -1       574    8    0    1
 -2       212       211       367      1407      1876      1877
 -1       575    8    0    1
 -2       211       366       367      1874      1878      1876
 -1       576    8    0    1
 -2       213       212       368      1410      1879      1880
 -1       577    8    0    1
 -2       212       367       368      1877      1881      1879
 -1       578    8    0    1
 -2       214       213       369      1413      1882      1883
 -1       579    8    0    1
 -2       213       368       369      1880      1884      1882
 -1       580    8    0    1
 -2       215       214       370      1416      1885      1886
 -1       581    8    0    1
 -2       214       369       370      1883      1887      1885
 -1       582    8    0    1
 -2       216       215       371      1419      1888      1889
 -1       583    8    0    1
 -2       215       370       371      1886      1890      1888
 -1       584    8    0    1
 -2       217       216       372      1422      1891      1892
 -1       585    8    0    1
 -2       216       371       372      1889      1893      1891
 -1       586    8    0    1
 -2       218       217       373      1425      1894      1895
 -1       587    8    0    1
 -2       217       372       373      1892      1896      1894
 -1       588    8    0    1
 -2       219       218       374      1428      1897      1898
 -1       589    8    0    1
 -2       218       373       374      1895      1899      1897
 -1       590    8    0    1
 -2       220       219       375      1431      1900      1901
 -1       591    8    0    1
 -2       219       374       375      1898      1902      1900
 -1       592    8    0    1
 -2       221       220       376      1434      1903      1904
 -1       593    8    0    1
 -2       220       375       376      1901      1905      1903
 -1       594    8    0    1
 -2       222       221       377      1437      1906      1907
 -1       595    8    0    1
 -2       221       376       377      1904      1908      1906
 -1       596    8    0    1
 -2       223       222       378      1440      1909      1910
 -1       597    8    0    1
 -2       222       377       378      1907      1911      1909
 -1       598    8    0    1
 -2       224       223       379      1443      1912      1913
 -1       599    8    0    1
 -2       223       378       379      1910      1914      1912
 -1       600    8    0    1
 -2       225       224       380      1446      1915      1916
 -1       601    8    0    1
 -2       224       379       380      1913      1917      1915
 -1       602    8    0    1
 -2       226       225       381      1449      1918      1919
 -1       603    8    0    1
 -2       225       380       381      1916      1920      1918
 -1       604    8    0    1
 -2       227       226       382      1452      1921      1922
 -1       605    8    0    1
 -2       226       381       382      1919      1923      1921
 -1       606    8    0    1
 -2       228       227       383      1455      1924      1925
 -1       607    8    0    1
 -2       227       382       383      1922      1926      1924
 -1       608    8    0    1
 -2       229       228       384      1458      1927      1928
 -1       609    8    0    1
 -2       293       229       384      1653      1928      1929
 -1       610    8    0    1
 -2       228       383       384      1925      1930      1927
 -1       611    8    0    1
 -2       231       232       385      1469      1931      1932
 -1       612    8    0    1
 -2       231       385       338      1932      1933      1789
 -1       613    8    0    1
 -2       232       233       386      1472      1934      1935
 -1       614    8    0    1
 -2       232       386       385      1935      1936      1931
 -1       615    8    0    1
 -2       233       234       387      1475      1937      1938
 -1       616    8    0    1
 -2       233       387       386      1938      1939      1934
 -1       617    8    0    1
 -2       234       235       388      1478      1940      1941
 -1       618    8    0    1
 -2       234       388       387      1941      1942      1937
 -1       619    8    0    1
 -2       235       236       389      1481      1943      1944
 -1       620    8    0    1
 -2       235       389       388      1944      1945      1940
 -1       621    8    0    1
 -2       237       238       390      1487      1946      1947
 -1       622    8    0    1
 -2       238       239       302      1490      1948      1949
 -1       623    8    0    1
 -2       239       240       301      1493      1950      1951
 -1       624    8    0    1
 -2       241       242       391      1499      1952      1953
 -1       625    8    0    1
 -2       242       243       392      1502      1954      1955
 -1       626    8    0    1
 -2       243       244       393      1505      1956      1957
 -1       627    8    0    1
 -2       244       245       394      1508      1958      1959
 -1       628    8    0    1
 -2       244       394       393      1959      1960      1956
 -1       629    8    0    1
 -2       245       246       395      1511      1961      1962
 -1       630    8    0    1
 -2       245       395       394      1962      1963      1958
 -1       631    8    0    1
 -2       246       247       396      1514      1964      1965
 -1       632    8    0    1
 -2       246       396       395      1965      1966      1961
 -1       633    8    0    1
 -2       247       248       397      1517      1967      1968
 -1       634    8    0    1
 -2       247       397       396      1968      1969      1964
 -1       635    8    0    1
 -2       248       249       398      1520      1970      1971
 -1       636    8    0    1
 -2       248       398       397      1971      1972      1967
 -1       637    8    0    1
 -2       249       250       399      1523      1973      1974
 -1       638    8    0    1
 -2       249       399       398      1974      1975      1970
 -1       639    8    0    1
 -2       250       251       400      1526      1976      1977
 -1       640    8    0    1
 -2       250       400       399      1977      1978      1973
 -1       641    8    0    1
 -2       251       252       401      1529      1979      1980
 -1       642    8    0    1
 -2       251       401       400      1980      1981      1976
 -1       643    8    0    1
 -2       252       253       402      1532      1982      1983
 -1       644    8    0    1
 -2       252       402       401      1983      1984      1979
 -1       645    8    0    1
 -2       253       254       403      1535      1985      1986
 -1       646    8    0    1
 -2       253       403       402      1986      1987      1982
 -1       647    8    0    1
 -2       254       255       404      1538      1988      1989
 -1       648    8    0    1
 -2       254       404       403      1989      1990      1985
 -1       649    8    0    1
 -2       255       256       405      1541      1991      1992
 -1       650    8    0    1
 -2       255       405       404      1992      1993      1988
 -1       651    8    0    1
 -2       256       257       406      1544      1994      1995
 -1       652    8    0    1
 -2       256       406       405      1995      1996      1991
 -1       653    8    0    1
 -2       257       258       407      1547      1997      1998
 -1       654    8    0    1
 -2       257       407       406      1998      1999      1994
 -1       655    8    0    1
 -2       258       259       408      1550      2000      2001
 -1       656    8    0    1
 -2       258       408       407      2001      2002      1997
 -1       657    8    0    1
 -2       259       260       409      1553      2003      2004
 -1       658    8    0    1
 -2       259       409       408      2004      2005      2000
 -1       659    8    0    1
 -2       260       261       410      1556      2006      2007
 -1       660    8    0    1
 -2       260       410       409      2007      2008      2003
 -1       661    8    0    1
 -2       261       262       411      1559      2009      2010
 -1       662    8    0    1
 -2       261       411       410      2010      2011      2006
 -1       663    8    0    1
 -2       262       263       412      1562      2012      2013
 -1       664    8    0    1
 -2       262       412       411      2013      2014      2009
 -1       665    8    0    1
 -2       263       264       413      1565      2015      2016
 -1       666    8    0    1
 -2       263       413       412      2016      2017      2012
 -1       667    8    0    1
 -2       264       265       414      1568      2018      2019
 -1       668    8    0    1
 -2       264       414       413      2019      2020      2015
 -1       669    8    0    1
 -2       265       266       415      1571      2021      2022
 -1       670    8    0    1
 -2       265       415       414      2022      2023      2018
 -1       671    8    0    1
 -2       266       267       416      1574      2024      2025
 -1       672    8    0    1
 -2       266       416       415      2025      2026      2021
 -1       673    8    0    1
 -2       267       268       417      1577      2027      2028
 -1       674    8    0    1
 -2       267       417       416      2028      2029      2024
 -1       675    8    0    1
 -2       268       269       418      1580      2030      2031
 -1       676    8    0    1
 -2       268       418       417      2031      2032      2027
 -1       677    8    0    1
 -2       269       270       419      1583      2033      2034
 -1       678    8    0    1
 -2       269       419       418      2034      2035      2030
 -1       679    8    0    1
 -2       270       271       420      1586      2036      2037
 -1       680    8    0    1
 -2       270       420       419      2037      2038      2033
 -1       681    8    0    1
 -2       271       272       421      1589      2039      2040
 -1       682    8    0    1
 -2       271       421       420      2040      2041      2036
 -1       683    8    0    1
 -2       272       273       422      1592      2042      2043
 -1       684    8    0    1
 -2       272       422       421      2043      2044      2039
 -1       685    8    0    1
 -2       273       274       423      1595      2045      2046
 -1       686    8    0    1
 -2       273       423       422      2046      2047      2042
 -1       687    8    0    1
 -2       274       275       424      1598      2048      2049
 -1       688    8    0    1
 -2       274       424       423      2049      2050      2045
 -1       689    8    0    1
 -2       275       276       425      1601      2051      2052
 -1       690    8    0    1
 -2       275       425       424      2052      2053      2048
 -1       691    8    0    1
 -2       276       277       426      1604      2054      2055
 -1       692    8    0    1
 -2       276       426       425      2055      2056      2051
 -1       693    8    0    1
 -2       277       278       427      1607      2057      2058
 -1       694    8    0    1
 -2       426       277       427      2054      2058      2059
 -1       695    8    0    1
 -2       278       279       427      1717      2060      2057
 -1       696    8    0    1
 -2       281       282       428      1619      2061      2062
 -1       697    8    0    1
 -2       280       281       429      1616      2063      2064
 -1       698    8    0    1
 -2       281       428       429      2062      2065      2063
 -1       699    8    0    1
 -2       279       280       427      1613      2066      2060
 -1       700    8    0    1
 -2       282       283       430      1622      2067      2068
 -1       701    8    0    1
 -2       282       430       428      2068      2069      2061
 -1       702    8    0    1
 -2       283       284       431      1625      2070      2071
 -1       703    8    0    1
 -2       283       431       430      2071      2072      2067
 -1       704    8    0    1
 -2       284       285       432      1628      2073      2074
 -1       705    8    0    1
 -2       284       432       431      2074      2075      2070
 -1       706    8    0    1
 -2       285       286       433      1631      2076      2077
 -1       707    8    0    1
 -2       285       433       432      2077      2078      2073
 -1       708    8    0    1
 -2       286       287       434      1634      2079      2080
 -1       709    8    0    1
 -2       286       434       433      2080      2081      2076
 -1       710    8    0    1
 -2       287       288       435      1637      2082      2083
 -1       711    8    0    1
 -2       287       435       434      2083      2084      2079
 -1       712    8    0    1
 -2       288       289       436      1640      2085      2086
 -1       713    8    0    1
 -2       288       436       435      2086      2087      2082
 -1       714    8    0    1
 -2       289       290       437      1643      2088      2089
 -1       715    8    0    1
 -2       289       437       436      2089      2090      2085
 -1       716    8    0    1
 -2       290       291       438      1646      2091      2092
 -1       717    8    0    1
 -2       290       438       437      2092      2093      2088
 -1       718    8    0    1
 -2       291       292       439      1649      2094      2095
 -1       719    8    0    1
 -2       291       439       438      2095      2096      2091
 -1       720    8    0    1
 -2       295       296       440      1719      2097      2098
 -1       721    8    0    1
 -2       323       294       441      1720      2099      2100
 -1       722    8    0    1
 -2       294       295       442      1718      2101      2102
 -1       723    8    0    1
 -2       295       440       442      2098      2103      2101
 -1       724    8    0    1
 -2       296       297       443      1715      2104      2105
 -1       725    8    0    1
 -2       297       298       444      1714      2106      2107
 -1       726    8    0    1
 -2       168       169       445      1278      2108      2109
 -1       727    8    0    1
 -2       324       168       445      1747      2109      2110
 -1       728    8    0    1
 -2       169       326       445      1753      2111      2108
 -1       729    8    0    1
 -2       300       301       240      1723      1950      2112
 -1       730    8    0    1
 -2       301       302       239      1724      1948      1951
 -1       731    8    0    1
 -2       303       304       390      1726      2113      2114
 -1       732    8    0    1
 -2       304       305       446      1727      2115      2116
 -1       733    8    0    1
 -2       305       306       447      1728      2117      2118
 -1       734    8    0    1
 -2       306       307       448      1729      2119      2120
 -1       735    8    0    1
 -2       307       308       449      1730      2121      2122
 -1       736    8    0    1
 -2       308       309       450      1731      2123      2124
 -1       737    8    0    1
 -2       309       310       451      1732      2125      2126
 -1       738    8    0    1
 -2       310       311       452      1733      2127      2128
 -1       739    8    0    1
 -2       311       312       453      1734      2129      2130
 -1       740    8    0    1
 -2       312       313       454      1735      2131      2132
 -1       741    8    0    1
 -2       312       454       453      2132      2133      2129
 -1       742    8    0    1
 -2       313       314       455      1736      2134      2135
 -1       743    8    0    1
 -2       314       315       456      1737      2136      2137
 -1       744    8    0    1
 -2       315       316       457      1738      2138      2139
 -1       745    8    0    1
 -2       316       317       458      1739      2140      2141
 -1       746    8    0    1
 -2       317       318       459      1740      2142      2143
 -1       747    8    0    1
 -2       318       319       460      1741      2144      2145
 -1       748    8    0    1
 -2       318       460       459      2145      2146      2142
 -1       749    8    0    1
 -2       319       320       461      1742      2147      2148
 -1       750    8    0    1
 -2       320       321       462      1743      2149      2150
 -1       751    8    0    1
 -2       320       462       461      2150      2151      2147
 -1       752    8    0    1
 -2       321       322       463      1744      2152      2153
 -1       753    8    0    1
 -2       322       323       464      1745      2154      2155
 -1       754    8    0    1
 -2       322       464       463      2155      2156      2152
 -1       755    8    0    1
 -2       298       299       391      1721      2157      2158
 -1       756    8    0    1
 -2       447       306       448      2117      2120      2159
 -1       757    8    0    1
 -2       182       325       183      1792      2160      1320
 -1       758    8    0    1
 -2       391       242       392      1952      1955      2161
 -1       759    8    0    1
 -2       300       240       465      2112      2162      2163
 -1       760    8    0    1
 -2       339       183       325      1793      2160      2164
 -1       761    8    0    1
 -2       390       304       446      2113      2116      2165
 -1       762    8    0    1
 -2       236       237       466      1484      2166      2167
 -1       763    8    0    1
 -2       238       302       390      1949      2168      1946
 -1       764    8    0    1
 -2       240       241       465      1496      2169      2162
 -1       765    8    0    1
 -2       300       465       299      2163      2170      1722
 -1       766    8    0    1
 -2       243       393       392      1957      2171      1954
 -1       767    8    0    1
 -2       427       280       429      2066      2064      2172
 -1       768    8    0    1
 -2       441       294       442      2099      2102      2173
 -1       769    8    0    1
 -2       296       443       440      2105      2174      2097
 -1       770    8    0    1
 -2       439       292       293      2094      1652      2175
 -1       771    8    0    1
 -2       323       441       464      2100      2176      2154
 -1       772    8    0    1
 -2       443       297       444      2104      2107      2177
 -1       773    8    0    1
 -2       462       321       463      2149      2153      2178
 -1       774    8    0    1
 -2       460       319       461      2144      2148      2179
 -1       775    8    0    1
 -2       458       317       459      2140      2143      2180
 -1       776    8    0    1
 -2       457       316       458      2138      2141      2181
 -1       777    8    0    1
 -2       456       315       457      2136      2139      2182
 -1       778    8    0    1
 -2       454       313       455      2131      2135      2183
 -1       779    8    0    1
 -2       452       311       453      2127      2130      2184
 -1       780    8    0    1
 -2       451       310       452      2125      2128      2185
 -1       781    8    0    1
 -2       449       308       450      2121      2124      2186
 -1       782    8    0    1
 -2       450       309       451      2123      2126      2187
 -1       783    8    0    1
 -2       448       307       449      2119      2122      2188
 -1       784    8    0    1
 -2       446       305       447      2115      2118      2189
 -1       785    8    0    1
 -2       302       303       390      1725      2114      2168
 -1       786    8    0    1
 -2       236       466       389      2167      2190      1943
 -1       787    8    0    1
 -2       455       314       456      2134      2137      2191
 -1       788    8    0    1
 -2       466       237       390      2166      1947      2192
 -1       789    8    0    1
 -2       465       241       391      2169      1953      2193
 -1       790    8    0    1
 -2       338       385       467      1933      2194      2195
 -1       791    8    0    1
 -2       327       328       468      1759      2196      2197
 -1       792    8    0    1
 -2       326       327       469      1756      2198      2199
 -1       793    8    0    1
 -2       327       468       469      2197      2200      2198
 -1       794    8    0    1
 -2       329       330       470      1765      2201      2202
 -1       795    8    0    1
 -2       330       331       471      1768      2203      2204
 -1       796    8    0    1
 -2       330       471       470      2204      2205      2201
 -1       797    8    0    1
 -2       331       332       472      1771      2206      2207
 -1       798    8    0    1
 -2       331       472       471      2207      2208      2203
 -1       799    8    0    1
 -2       332       333       473      1774      2209      2210
 -1       800    8    0    1
 -2       332       473       472      2210      2211      2206
 -1       801    8    0    1
 -2       333       334       474      1777      2212      2213
 -1       802    8    0    1
 -2       333       474       473      2213      2214      2209
 -1       803    8    0    1
 -2       334       335       475      1780      2215      2216
 -1       804    8    0    1
 -2       334       475       474      2216      2217      2212
 -1       805    8    0    1
 -2       299       465       391      2170      2193      2157
 -1       806    8    0    1
 -2       385       386       476      1936      2218      2219
 -1       807    8    0    1
 -2       385       476       467      2219      2220      2194
 -1       808    8    0    1
 -2       340       339       477      1797      2221      2222
 -1       809    8    0    1
 -2       339       325       478      2164      2223      2224
 -1       810    8    0    1
 -2       477       339       478      2221      2224      2225
 -1       811    8    0    1
 -2       325       324       478      1751      2226      2223
 -1       812    8    0    1
 -2       341       340       479      1800      2227      2228
 -1       813    8    0    1
 -2       340       477       479      2222      2229      2227
 -1       814    8    0    1
 -2       342       341       480      1803      2230      2231
 -1       815    8    0    1
 -2       341       479       480      2228      2232      2230
 -1       816    8    0    1
 -2       343       342       481      1806      2233      2234
 -1       817    8    0    1
 -2       342       480       481      2231      2235      2233
 -1       818    8    0    1
 -2       344       343       482      1809      2236      2237
 -1       819    8    0    1
 -2       343       481       482      2234      2238      2236
 -1       820    8    0    1
 -2       345       344       483      1812      2239      2240
 -1       821    8    0    1
 -2       344       482       483      2237      2241      2239
 -1       822    8    0    1
 -2       346       345       484      1815      2242      2243
 -1       823    8    0    1
 -2       345       483       484      2240      2244      2242
 -1       824    8    0    1
 -2       347       346       485      1818      2245      2246
 -1       825    8    0    1
 -2       346       484       485      2243      2247      2245
 -1       826    8    0    1
 -2       348       347       486      1821      2248      2249
 -1       827    8    0    1
 -2       347       485       486      2246      2250      2248
 -1       828    8    0    1
 -2       349       348       487      1824      2251      2252
 -1       829    8    0    1
 -2       348       486       487      2249      2253      2251
 -1       830    8    0    1
 -2       350       349       488      1827      2254      2255
 -1       831    8    0    1
 -2       349       487       488      2252      2256      2254
 -1       832    8    0    1
 -2       351       350       489      1830      2257      2258
 -1       833    8    0    1
 -2       350       488       489      2255      2259      2257
 -1       834    8    0    1
 -2       352       351       490      1833      2260      2261
 -1       835    8    0    1
 -2       351       489       490      2258      2262      2260
 -1       836    8    0    1
 -2       353       352       491      1836      2263      2264
 -1       837    8    0    1
 -2       352       490       491      2261      2265      2263
 -1       838    8    0    1
 -2       354       353       492      1839      2266      2267
 -1       839    8    0    1
 -2       353       491       492      2264      2268      2266
 -1       840    8    0    1
 -2       355       354       493      1842      2269      2270
 -1       841    8    0    1
 -2       354       492       493      2267      2271      2269
 -1       842    8    0    1
 -2       356       355       494      1845      2272      2273
 -1       843    8    0    1
 -2       355       493       494      2270      2274      2272
 -1       844    8    0    1
 -2       357       356       495      1848      2275      2276
 -1       845    8    0    1
 -2       356       494       495      2273      2277      2275
 -1       846    8    0    1
 -2       358       357       496      1851      2278      2279
 -1       847    8    0    1
 -2       357       495       496      2276      2280      2278
 -1       848    8    0    1
 -2       359       358       497      1854      2281      2282
 -1       849    8    0    1
 -2       358       496       497      2279      2283      2281
 -1       850    8    0    1
 -2       360       359       498      1857      2284      2285
 -1       851    8    0    1
 -2       359       497       498      2282      2286      2284
 -1       852    8    0    1
 -2       361       360       499      1860      2287      2288
 -1       853    8    0    1
 -2       360       498       499      2285      2289      2287
 -1       854    8    0    1
 -2       362       361       500      1863      2290      2291
 -1       855    8    0    1
 -2       361       499       500      2288      2292      2290
 -1       856    8    0    1
 -2       363       362       501      1866      2293      2294
 -1       857    8    0    1
 -2       362       500       501      2291      2295      2293
 -1       858    8    0    1
 -2       364       363       502      1869      2296      2297
 -1       859    8    0    1
 -2       363       501       502      2294      2298      2296
 -1       860    8    0    1
 -2       365       364       503      1872      2299      2300
 -1       861    8    0    1
 -2       364       502       503      2297      2301      2299
 -1       862    8    0    1
 -2       366       365       504      1875      2302      2303
 -1       863    8    0    1
 -2       365       503       504      2300      2304      2302
 -1       864    8    0    1
 -2       367       366       505      1878      2305      2306
 -1       865    8    0    1
 -2       366       504       505      2303      2307      2305
 -1       866    8    0    1
 -2       368       367       506      1881      2308      2309
 -1       867    8    0    1
 -2       367       505       506      2306      2310      2308
 -1       868    8    0    1
 -2       369       368       507      1884      2311      2312
 -1       869    8    0    1
 -2       368       506       507      2309      2313      2311
 -1       870    8    0    1
 -2       370       369       508      1887      2314      2315
 -1       871    8    0    1
 -2       369       507       508      2312      2316      2314
 -1       872    8    0    1
 -2       371       370       509      1890      2317      2318
 -1       873    8    0    1
 -2       370       508       509      2315      2319      2317
 -1       874    8    0    1
 -2       372       371       510      1893      2320      2321
 -1       875    8    0    1
 -2       371       509       510      2318      2322      2320
 -1       876    8    0    1
 -2       373       372       511      1896      2323      2324
 -1       877    8    0    1
 -2       372       510       511      2321      2325      2323
 -1       878    8    0    1
 -2       374       373       512      1899      2326      2327
 -1       879    8    0    1
 -2       373       511       512      2324      2328      2326
 -1       880    8    0    1
 -2       375       374       513      1902      2329      2330
 -1       881    8    0    1
 -2       374       512       513      2327      2331      2329
 -1       882    8    0    1
 -2       376       375       514      1905      2332      2333
 -1       883    8    0    1
 -2       375       513       514      2330      2334      2332
 -1       884    8    0    1
 -2       377       376       515      1908      2335      2336
 -1       885    8    0    1
 -2       376       514       515      2333      2337      2335
 -1       886    8    0    1
 -2       378       377       516      1911      2338      2339
 -1       887    8    0    1
 -2       377       515       516      2336      2340      2338
 -1       888    8    0    1
 -2       379       378       517      1914      2341      2342
 -1       889    8    0    1
 -2       378       516       517      2339      2343      2341
 -1       890    8    0    1
 -2       380       379       518      1917      2344      2345
 -1       891    8    0    1
 -2       379       517       518      2342      2346      2344
 -1       892    8    0    1
 -2       381       380       519      1920      2347      2348
 -1       893    8    0    1
 -2       380       518       519      2345      2349      2347
 -1       894    8    0    1
 -2       382       381       520      1923      2350      2351
 -1       895    8    0    1
 -2       381       519       520      2348      2352      2350
 -1       896    8    0    1
 -2       383       382       521      1926      2353      2354
 -1       897    8    0    1
 -2       382       520       521      2351      2355      2353
 -1       898    8    0    1
 -2       387       388       522      1942      2356      2357
 -1       899    8    0    1
 -2       388       389       523      1945      2358      2359
 -1       900    8    0    1
 -2       388       523       522      2359      2360      2356
 -1       901    8    0    1
 -2       455       456       524      2191      2361      2362
 -1       902    8    0    1
 -2       393       394       525      1960      2363      2364
 -1       903    8    0    1
 -2       396       397       526      1969      2365      2366
 -1       904    8    0    1
 -2       397       398       527      1972      2367      2368
 -1       905    8    0    1
 -2       397       527       526      2368      2369      2365
 -1       906    8    0    1
 -2       398       399       528      1975      2370      2371
 -1       907    8    0    1
 -2       398       528       527      2371      2372      2367
 -1       908    8    0    1
 -2       399       400       529      1978      2373      2374
 -1       909    8    0    1
 -2       399       529       528      2374      2375      2370
 -1       910    8    0    1
 -2       400       401       530      1981      2376      2377
 -1       911    8    0    1
 -2       400       530       529      2377      2378      2373
 -1       912    8    0    1
 -2       401       402       531      1984      2379      2380
 -1       913    8    0    1
 -2       401       531       530      2380      2381      2376
 -1       914    8    0    1
 -2       402       403       532      1987      2382      2383
 -1       915    8    0    1
 -2       402       532       531      2383      2384      2379
 -1       916    8    0    1
 -2       403       404       533      1990      2385      2386
 -1       917    8    0    1
 -2       403       533       532      2386      2387      2382
 -1       918    8    0    1
 -2       404       405       534      1993      2388      2389
 -1       919    8    0    1
 -2       404       534       533      2389      2390      2385
 -1       920    8    0    1
 -2       405       406       535      1996      2391      2392
 -1       921    8    0    1
 -2       405       535       534      2392      2393      2388
 -1       922    8    0    1
 -2       406       407       536      1999      2394      2395
 -1       923    8    0    1
 -2       406       536       535      2395      2396      2391
 -1       924    8    0    1
 -2       407       408       537      2002      2397      2398
 -1       925    8    0    1
 -2       407       537       536      2398      2399      2394
 -1       926    8    0    1
 -2       408       409       538      2005      2400      2401
 -1       927    8    0    1
 -2       408       538       537      2401      2402      2397
 -1       928    8    0    1
 -2       409       410       539      2008      2403      2404
 -1       929    8    0    1
 -2       409       539       538      2404      2405      2400
 -1       930    8    0    1
 -2       410       411       540      2011      2406      2407
 -1       931    8    0    1
 -2       410       540       539      2407      2408      2403
 -1       932    8    0    1
 -2       411       412       541      2014      2409      2410
 -1       933    8    0    1
 -2       411       541       540      2410      2411      2406
 -1       934    8    0    1
 -2       412       413       542      2017      2412      2413
 -1       935    8    0    1
 -2       412       542       541      2413      2414      2409
 -1       936    8    0    1
 -2       413       414       543      2020      2415      2416
 -1       937    8    0    1
 -2       413       543       542      2416      2417      2412
 -1       938    8    0    1
 -2       414       415       544      2023      2418      2419
 -1       939    8    0    1
 -2       414       544       543      2419      2420      2415
 -1       940    8    0    1
 -2       415       416       545      2026      2421      2422
 -1       941    8    0    1
 -2       415       545       544      2422      2423      2418
 -1       942    8    0    1
 -2       416       417       546      2029      2424      2425
 -1       943    8    0    1
 -2       416       546       545      2425      2426      2421
 -1       944    8    0    1
 -2       417       418       547      2032      2427      2428
 -1       945    8    0    1
 -2       417       547       546      2428      2429      2424
 -1       946    8    0    1
 -2       418       419       548      2035      2430      2431
 -1       947    8    0    1
 -2       418       548       547      2431      2432      2427
 -1       948    8    0    1
 -2       419       420       549      2038      2433      2434
 -1       949    8    0    1
 -2       419       549       548      2434      2435      2430
 -1       950    8    0    1
 -2       420       421       550      2041      2436      2437
 -1       951    8    0    1
 -2       420       550       549      2437      2438      2433
 -1       952    8    0    1
 -2       421       422       551      2044      2439      2440
 -1       953    8    0    1
 -2       421       551       550      2440      2441      2436
 -1       954    8    0    1
 -2       422       423       552      2047      2442      2443
 -1       955    8    0    1
 -2       422       552       551      2443      2444      2439
 -1       956    8    0    1
 -2       423       424       553      2050      2445      2446
 -1       957    8    0    1
 -2       423       553       552      2446      2447      2442
 -1       958    8    0    1
 -2       424       425       554      2053      2448      2449
 -1       959    8    0    1
 -2       424       554       553      2449      2450      2445
 -1       960    8    0    1
 -2       425       426       555      2056      2451      2452
 -1       961    8    0    1
 -2       425       555       554      2452      2453      2448
 -1       962    8    0    1
 -2       430       431       556      2072      2454      2455
 -1       963    8    0    1
 -2       428       430       557      2069      2456      2457
 -1       964    8    0    1
 -2       430       556       557      2455      2458      2456
 -1       965    8    0    1
 -2       429       428       558      2065      2459      2460
 -1       966    8    0    1
 -2       428       557       558      2457      2461      2459
 -1       967    8    0    1
 -2       441       442       559      2173      2462      2463
 -1       968    8    0    1
 -2       431       432       560      2075      2464      2465
 -1       969    8    0    1
 -2       431       560       556      2465      2466      2454
 -1       970    8    0    1
 -2       432       433       561      2078      2467      2468
 -1       971    8    0    1
 -2       432       561       560      2468      2469      2464
 -1       972    8    0    1
 -2       433       434       562      2081      2470      2471
 -1       973    8    0    1
 -2       433       562       561      2471      2472      2467
 -1       974    8    0    1
 -2       434       435       563      2084      2473      2474
 -1       975    8    0    1
 -2       434       563       562      2474      2475      2470
 -1       976    8    0    1
 -2       435       436       564      2087      2476      2477
 -1       977    8    0    1
 -2       435       564       563      2477      2478      2473
 -1       978    8    0    1
 -2       436       437       565      2090      2479      2480
 -1       979    8    0    1
 -2       436       565       564      2480      2481      2476
 -1       980    8    0    1
 -2       437       438       566      2093      2482      2483
 -1       981    8    0    1
 -2       437       566       565      2483      2484      2479
 -1       982    8    0    1
 -2       438       439       567      2096      2485      2486
 -1       983    8    0    1
 -2       438       567       566      2486      2487      2482
 -1       984    8    0    1
 -2       439       293       384      2175      1929      2488
 -1       985    8    0    1
 -2       464       441       568      2176      2489      2490
 -1       986    8    0    1
 -2       386       387       569      1939      2491      2492
 -1       987    8    0    1
 -2       386       569       476      2492      2493      2218
 -1       988    8    0    1
 -2       440       443       570      2174      2494      2495
 -1       989    8    0    1
 -2       462       463       571      2178      2496      2497
 -1       990    8    0    1
 -2       458       459       572      2180      2498      2499
 -1       991    8    0    1
 -2       452       453       573      2184      2500      2501
 -1       992    8    0    1
 -2       444       298       391      2106      2158      2502
 -1       993    8    0    1
 -2       442       440       574      2103      2503      2504
 -1       994    8    0    1
 -2       395       396       575      1966      2505      2506
 -1       995    8    0    1
 -2       396       526       575      2366      2507      2505
 -1       996    8    0    1
 -2       394       395       576      1963      2508      2509
 -1       997    8    0    1
 -2       395       575       576      2506      2510      2508
 -1       998    8    0    1
 -2       328       329       577      1762      2511      2512
 -1       999    8    0    1
 -2       468       328       577      2196      2512      2513
 -1      1000    8    0    1
 -2       329       470       577      2202      2514      2511
 -1      1001    8    0    1
 -2       392       393       570      2171      2515      2516
 -1      1002    8    0    1
 -2       390       446       466      2165      2517      2192
 -1      1003    8    0    1
 -2       450       451       578      2187      2518      2519
 -1      1004    8    0    1
 -2       448       449       579      2188      2520      2521
 -1      1005    8    0    1
 -2       449       450       580      2186      2522      2523
 -1      1006    8    0    1
 -2       449       580       579      2523      2524      2520
 -1      1007    8    0    1
 -2       451       452       581      2185      2525      2526
 -1      1008    8    0    1
 -2       451       581       578      2526      2527      2518
 -1      1009    8    0    1
 -2       453       454       582      2133      2528      2529
 -1      1010    8    0    1
 -2       454       455       583      2183      2530      2531
 -1      1011    8    0    1
 -2       456       457       584      2182      2532      2533
 -1      1012    8    0    1
 -2       457       458       585      2181      2534      2535
 -1      1013    8    0    1
 -2       457       585       584      2535      2536      2532
 -1      1014    8    0    1
 -2       459       460       586      2146      2537      2538
 -1      1015    8    0    1
 -2       460       461       587      2179      2539      2540
 -1      1016    8    0    1
 -2       460       587       586      2540      2541      2537
 -1      1017    8    0    1
 -2       461       462       588      2151      2542      2543
 -1      1018    8    0    1
 -2       587       461       588      2539      2543      2544
 -1      1019    8    0    1
 -2       462       571       588      2497      2545      2542
 -1      1020    8    0    1
 -2       463       464       589      2156      2546      2547
 -1      1021    8    0    1
 -2       464       568       589      2490      2548      2546
 -1      1022    8    0    1
 -2       337       338       590      1791      2549      2550
 -1      1023    8    0    1
 -2       336       337       590      1786      2550      2551
 -1      1024    8    0    1
 -2       338       467       590      2195      2552      2549
 -1      1025    8    0    1
 -2       447       448       591      2159      2553      2554
 -1      1026    8    0    1
 -2       444       391       392      2502      2161      2555
 -1      1027    8    0    1
 -2       466       446       592      2517      2556      2557
 -1      1028    8    0    1
 -2       389       466       592      2190      2557      2558
 -1      1029    8    0    1
 -2       446       447       592      2189      2559      2556
 -1      1030    8    0    1
 -2       444       392       443      2555      2560      2177
 -1      1031    8    0    1
 -2       443       392       570      2560      2516      2494
 -1      1032    8    0    1
 -2       326       469       593      2199      2561      2562
 -1      1033    8    0    1
 -2       326       593       445      2562      2563      2111
 -1      1034    8    0    1
 -2       525       394       576      2363      2509      2564
 -1      1035    8    0    1
 -2       335       336       590      1783      2551      2565
 -1      1036    8    0    1
 -2       591       448       579      2553      2521      2566
 -1      1037    8    0    1
 -2       478       324       445      2226      2110      2567
 -1      1038    8    0    1
 -2       389       592       523      2558      2568      2358
 -1      1039    8    0    1
 -2       455       524       583      2362      2569      2530
 -1      1040    8    0    1
 -2       570       393       525      2515      2364      2570
 -1      1041    8    0    1
 -2       524       456       594      2361      2571      2572
 -1      1042    8    0    1
 -2       456       584       594      2533      2573      2571
 -1      1043    8    0    1
 -2       440       570       574      2495      2574      2503
 -1      1044    8    0    1
 -2       387       522       569      2357      2575      2491
 -1      1045    8    0    1
 -2       335       590       475      2565      2576      2215
 -1      1046    8    0    1
 -2       429       558       555      2460      2577      2578
 -1      1047    8    0    1
 -2       426       427       429      2059      2172      2579
 -1      1048    8    0    1
 -2       441       559       568      2463      2580      2489
 -1      1049    8    0    1
 -2       559       442       574      2462      2504      2581
 -1      1050    8    0    1
 -2       439       384       595      2488      2582      2583
 -1      1051    8    0    1
 -2       567       439       595      2485      2583      2584
 -1      1052    8    0    1
 -2       384       383       595      1930      2585      2582
 -1      1053    8    0    1
 -2       463       589       571      2547      2586      2496
 -1      1054    8    0    1
 -2       458       572       585      2499      2587      2534
 -1      1055    8    0    1
 -2       452       573       581      2501      2588      2525
 -1      1056    8    0    1
 -2       459       586       572      2538      2589      2498
 -1      1057    8    0    1
 -2       580       450       578      2522      2519      2590
 -1      1058    8    0    1
 -2       383       521       595      2354      2591      2585
 -1      1059    8    0    1
 -2       573       453       582      2500      2529      2592
 -1      1060    8    0    1
 -2       582       454       583      2528      2531      2593
 -1      1061    8    0    1
 -2       426       429       555      2579      2578      2451
 -1      1062    8    0    1
 -2       471       472       596      2208      2594      2595
 -1      1063    8    0    1
 -2       470       471       597      2205      2596      2597
 -1      1064    8    0    1
 -2       471       596       597      2595      2598      2596
 -1      1065    8    0    1
 -2       473       474       598      2214      2599      2600
 -1      1066    8    0    1
 -2       474       475       599      2217      2601      2602
 -1      1067    8    0    1
 -2       474       599       598      2602      2603      2599
 -1      1068    8    0    1
 -2       527       528       600      2372      2604      2605
 -1      1069    8    0    1
 -2       479       477       601      2229      2606      2607
 -1      1070    8    0    1
 -2       583       524       602      2569      2608      2609
 -1      1071    8    0    1
 -2       480       479       603      2232      2610      2611
 -1      1072    8    0    1
 -2       479       601       603      2607      2612      2610
 -1      1073    8    0    1
 -2       481       480       604      2235      2613      2614
 -1      1074    8    0    1
 -2       480       603       604      2611      2615      2613
 -1      1075    8    0    1
 -2       482       481       605      2238      2616      2617
 -1      1076    8    0    1
 -2       481       604       605      2614      2618      2616
 -1      1077    8    0    1
 -2       483       482       606      2241      2619      2620
 -1      1078    8    0    1
 -2       482       605       606      2617      2621      2619
 -1      1079    8    0    1
 -2       484       483       607      2244      2622      2623
 -1      1080    8    0    1
 -2       483       606       607      2620      2624      2622
 -1      1081    8    0    1
 -2       485       484       608      2247      2625      2626
 -1      1082    8    0    1
 -2       484       607       608      2623      2627      2625
 -1      1083    8    0    1
 -2       486       485       609      2250      2628      2629
 -1      1084    8    0    1
 -2       485       608       609      2626      2630      2628
 -1      1085    8    0    1
 -2       487       486       610      2253      2631      2632
 -1      1086    8    0    1
 -2       486       609       610      2629      2633      2631
 -1      1087    8    0    1
 -2       488       487       611      2256      2634      2635
 -1      1088    8    0    1
 -2       487       610       611      2632      2636      2634
 -1      1089    8    0    1
 -2       489       488       612      2259      2637      2638
 -1      1090    8    0    1
 -2       488       611       612      2635      2639      2637
 -1      1091    8    0    1
 -2       490       489       613      2262      2640      2641
 -1      1092    8    0    1
 -2       489       612       613      2638      2642      2640
 -1      1093    8    0    1
 -2       491       490       614      2265      2643      2644
 -1      1094    8    0    1
 -2       490       613       614      2641      2645      2643
 -1      1095    8    0    1
 -2       492       491       615      2268      2646      2647
 -1      1096    8    0    1
 -2       491       614       615      2644      2648      2646
 -1      1097    8    0    1
 -2       493       492       616      2271      2649      2650
 -1      1098    8    0    1
 -2       492       615       616      2647      2651      2649
 -1      1099    8    0    1
 -2       494       493       617      2274      2652      2653
 -1      1100    8    0    1
 -2       493       616       617      2650      2654      2652
 -1      1101    8    0    1
 -2       495       494       618      2277      2655      2656
 -1      1102    8    0    1
 -2       494       617       618      2653      2657      2655
 -1      1103    8    0    1
 -2       496       495       619      2280      2658      2659
 -1      1104    8    0    1
 -2       495       618       619      2656      2660      2658
 -1      1105    8    0    1
 -2       497       496       620      2283      2661      2662
 -1      1106    8    0    1
 -2       496       619       620      2659      2663      2661
 -1      1107    8    0    1
 -2       498       497       621      2286      2664      2665
 -1      1108    8    0    1
 -2       497       620       621      2662      2666      2664
 -1      1109    8    0    1
 -2       499       498       622      2289      2667      2668
 -1      1110    8    0    1
 -2       498       621       622      2665      2669      2667
 -1      1111    8    0    1
 -2       500       499       623      2292      2670      2671
 -1      1112    8    0    1
 -2       499       622       623      2668      2672      2670
 -1      1113    8    0    1
 -2       501       500       624      2295      2673      2674
 -1      1114    8    0    1
 -2       500       623       624      2671      2675      2673
 -1      1115    8    0    1
 -2       502       501       625      2298      2676      2677
 -1      1116    8    0    1
 -2       501       624       625      2674      2678      2676
 -1      1117    8    0    1
 -2       503       502       626      2301      2679      2680
 -1      1118    8    0    1
 -2       502       625       626      2677      2681      2679
 -1      1119    8    0    1
 -2       504       503       627      2304      2682      2683
 -1      1120    8    0    1
 -2       503       626       627      2680      2684      2682
 -1      1121    8    0    1
 -2       505       504       628      2307      2685      2686
 -1      1122    8    0    1
 -2       504       627       628      2683      2687      2685
 -1      1123    8    0    1
 -2       506       505       629      2310      2688      2689
 -1      1124    8    0    1
 -2       505       628       629      2686      2690      2688
 -1      1125    8    0    1
 -2       507       506       630      2313      2691      2692
 -1      1126    8    0    1
 -2       506       629       630      2689      2693      2691
 -1      1127    8    0    1
 -2       508       507       631      2316      2694      2695
 -1      1128    8    0    1
 -2       507       630       631      2692      2696      2694
 -1      1129    8    0    1
 -2       509       508       632      2319      2697      2698
 -1      1130    8    0    1
 -2       508       631       632      2695      2699      2697
 -1      1131    8    0    1
 -2       510       509       633      2322      2700      2701
 -1      1132    8    0    1
 -2       509       632       633      2698      2702      2700
 -1      1133    8    0    1
 -2       511       510       634      2325      2703      2704
 -1      1134    8    0    1
 -2       510       633       634      2701      2705      2703
 -1      1135    8    0    1
 -2       512       511       635      2328      2706      2707
 -1      1136    8    0    1
 -2       511       634       635      2704      2708      2706
 -1      1137    8    0    1
 -2       513       512       636      2331      2709      2710
 -1      1138    8    0    1
 -2       512       635       636      2707      2711      2709
 -1      1139    8    0    1
 -2       514       513       637      2334      2712      2713
 -1      1140    8    0    1
 -2       513       636       637      2710      2714      2712
 -1      1141    8    0    1
 -2       515       514       638      2337      2715      2716
 -1      1142    8    0    1
 -2       514       637       638      2713      2717      2715
 -1      1143    8    0    1
 -2       516       515       639      2340      2718      2719
 -1      1144    8    0    1
 -2       515       638       639      2716      2720      2718
 -1      1145    8    0    1
 -2       517       516       640      2343      2721      2722
 -1      1146    8    0    1
 -2       516       639       640      2719      2723      2721
 -1      1147    8    0    1
 -2       518       517       641      2346      2724      2725
 -1      1148    8    0    1
 -2       517       640       641      2722      2726      2724
 -1      1149    8    0    1
 -2       519       518       642      2349      2727      2728
 -1      1150    8    0    1
 -2       518       641       642      2725      2729      2727
 -1      1151    8    0    1
 -2       520       519       643      2352      2730      2731
 -1      1152    8    0    1
 -2       519       642       643      2728      2732      2730
 -1      1153    8    0    1
 -2       521       520       644      2355      2733      2734
 -1      1154    8    0    1
 -2       520       643       644      2731      2735      2733
 -1      1155    8    0    1
 -2       571       589       645      2586      2736      2737
 -1      1156    8    0    1
 -2       528       529       646      2375      2738      2739
 -1      1157    8    0    1
 -2       528       646       600      2739      2740      2604
 -1      1158    8    0    1
 -2       447       591       592      2554      2741      2559
 -1      1159    8    0    1
 -2       555       558       647      2577      2742      2743
 -1      1160    8    0    1
 -2       555       647       554      2743      2744      2453
 -1      1161    8    0    1
 -2       526       527       648      2369      2745      2746
 -1      1162    8    0    1
 -2       527       600       648      2605      2747      2745
 -1      1163    8    0    1
 -2       529       530       649      2378      2748      2749
 -1      1164    8    0    1
 -2       529       649       646      2749      2750      2738
 -1      1165    8    0    1
 -2       530       531       650      2381      2751      2752
 -1      1166    8    0    1
 -2       530       650       649      2752      2753      2748
 -1      1167    8    0    1
 -2       531       532       651      2384      2754      2755
 -1      1168    8    0    1
 -2       531       651       650      2755      2756      2751
 -1      1169    8    0    1
 -2       532       533       652      2387      2757      2758
 -1      1170    8    0    1
 -2       532       652       651      2758      2759      2754
 -1      1171    8    0    1
 -2       533       534       653      2390      2760      2761
 -1      1172    8    0    1
 -2       533       653       652      2761      2762      2757
 -1      1173    8    0    1
 -2       534       535       654      2393      2763      2764
 -1      1174    8    0    1
 -2       534       654       653      2764      2765      2760
 -1      1175    8    0    1
 -2       535       536       655      2396      2766      2767
 -1      1176    8    0    1
 -2       535       655       654      2767      2768      2763
 -1      1177    8    0    1
 -2       536       537       656      2399      2769      2770
 -1      1178    8    0    1
 -2       536       656       655      2770      2771      2766
 -1      1179    8    0    1
 -2       537       538       657      2402      2772      2773
 -1      1180    8    0    1
 -2       537       657       656      2773      2774      2769
 -1      1181    8    0    1
 -2       538       539       658      2405      2775      2776
 -1      1182    8    0    1
 -2       538       658       657      2776      2777      2772
 -1      1183    8    0    1
 -2       539       540       659      2408      2778      2779
 -1      1184    8    0    1
 -2       539       659       658      2779      2780      2775
 -1      1185    8    0    1
 -2       540       541       660      2411      2781      2782
 -1      1186    8    0    1
 -2       540       660       659      2782      2783      2778
 -1      1187    8    0    1
 -2       541       542       661      2414      2784      2785
 -1      1188    8    0    1
 -2       541       661       660      2785      2786      2781
 -1      1189    8    0    1
 -2       542       543       662      2417      2787      2788
 -1      1190    8    0    1
 -2       542       662       661      2788      2789      2784
 -1      1191    8    0    1
 -2       543       544       663      2420      2790      2791
 -1      1192    8    0    1
 -2       543       663       662      2791      2792      2787
 -1      1193    8    0    1
 -2       544       545       664      2423      2793      2794
 -1      1194    8    0    1
 -2       544       664       663      2794      2795      2790
 -1      1195    8    0    1
 -2       545       546       665      2426      2796      2797
 -1      1196    8    0    1
 -2       545       665       664      2797      2798      2793
 -1      1197    8    0    1
 -2       546       547       666      2429      2799      2800
 -1      1198    8    0    1
 -2       546       666       665      2800      2801      2796
 -1      1199    8    0    1
 -2       547       548       667      2432      2802      2803
 -1      1200    8    0    1
 -2       547       667       666      2803      2804      2799
 -1      1201    8    0    1
 -2       548       549       668      2435      2805      2806
 -1      1202    8    0    1
 -2       548       668       667      2806      2807      2802
 -1      1203    8    0    1
 -2       549       550       669      2438      2808      2809
 -1      1204    8    0    1
 -2       549       669       668      2809      2810      2805
 -1      1205    8    0    1
 -2       550       551       670      2441      2811      2812
 -1      1206    8    0    1
 -2       550       670       669      2812      2813      2808
 -1      1207    8    0    1
 -2       551       552       671      2444      2814      2815
 -1      1208    8    0    1
 -2       551       671       670      2815      2816      2811
 -1      1209    8    0    1
 -2       552       553       672      2447      2817      2818
 -1      1210    8    0    1
 -2       552       672       671      2818      2819      2814
 -1      1211    8    0    1
 -2       553       554       673      2450      2820      2821
 -1      1212    8    0    1
 -2       672       553       673      2817      2821      2822
 -1      1213    8    0    1
 -2       554       647       673      2744      2823      2820
 -1      1214    8    0    1
 -2       560       561       674      2469      2824      2825
 -1      1215    8    0    1
 -2       558       557       647      2461      2826      2742
 -1      1216    8    0    1
 -2       573       582       675      2592      2827      2828
 -1      1217    8    0    1
 -2       556       560       676      2466      2829      2830
 -1      1218    8    0    1
 -2       560       674       676      2825      2831      2829
 -1      1219    8    0    1
 -2       562       563       677      2475      2832      2833
 -1      1220    8    0    1
 -2       563       564       678      2478      2834      2835
 -1      1221    8    0    1
 -2       563       678       677      2835      2836      2832
 -1      1222    8    0    1
 -2       564       565       679      2481      2837      2838
 -1      1223    8    0    1
 -2       564       679       678      2838      2839      2834
 -1      1224    8    0    1
 -2       565       566       680      2484      2840      2841
 -1      1225    8    0    1
 -2       565       680       679      2841      2842      2837
 -1      1226    8    0    1
 -2       475       590       467      2576      2552      2843
 -1      1227    8    0    1
 -2       559       574       681      2581      2844      2845
 -1      1228    8    0    1
 -2       476       569       682      2493      2846      2847
 -1      1229    8    0    1
 -2       589       568       683      2548      2848      2849
 -1      1230    8    0    1
 -2       581       573       684      2588      2850      2851
 -1      1231    8    0    1
 -2       570       525       574      2570      2852      2574
 -1      1232    8    0    1
 -2       525       576       685      2564      2853      2854
 -1      1233    8    0    1
 -2       569       522       686      2575      2855      2856
 -1      1234    8    0    1
 -2       576       575       687      2510      2857      2858
 -1      1235    8    0    1
 -2       568       559       688      2580      2859      2860
 -1      1236    8    0    1
 -2       578       581       689      2527      2861      2862
 -1      1237    8    0    1
 -2       523       592       591      2568      2741      2863
 -1      1238    8    0    1
 -2       575       526       690      2507      2864      2865
 -1      1239    8    0    1
 -2       526       648       690      2746      2866      2864
 -1      1240    8    0    1
 -2       580       578       691      2590      2867      2868
 -1      1241    8    0    1
 -2       578       689       691      2862      2869      2867
 -1      1242    8    0    1
 -2       585       572       692      2587      2870      2871
 -1      1243    8    0    1
 -2       557       556       693      2458      2872      2873
 -1      1244    8    0    1
 -2       556       676       693      2830      2874      2872
 -1      1245    8    0    1
 -2       472       473       694      2211      2875      2876
 -1      1246    8    0    1
 -2       596       472       694      2594      2876      2877
 -1      1247    8    0    1
 -2       473       598       694      2600      2878      2875
 -1      1248    8    0    1
 -2       561       562       695      2472      2879      2880
 -1      1249    8    0    1
 -2       562       677       695      2833      2881      2879
 -1      1250    8    0    1
 -2       582       583       696      2593      2882      2883
 -1      1251    8    0    1
 -2       478       445       593      2567      2563      2884
 -1      1252    8    0    1
 -2       579       580       697      2524      2885      2886
 -1      1253    8    0    1
 -2       572       586       698      2589      2887      2888
 -1      1254    8    0    1
 -2       469       468       699      2200      2889      2890
 -1      1255    8    0    1
 -2       595       521       700      2591      2891      2892
 -1      1256    8    0    1
 -2       521       644       700      2734      2893      2891
 -1      1257    8    0    1
 -2       584       585       701      2536      2894      2895
 -1      1258    8    0    1
 -2       585       692       701      2871      2896      2894
 -1      1259    8    0    1
 -2       586       587       702      2541      2897      2898
 -1      1260    8    0    1
 -2       567       595       700      2584      2892      2899
 -1      1261    8    0    1
 -2       475       467       703      2843      2900      2901
 -1      1262    8    0    1
 -2       599       475       703      2601      2901      2902
 -1      1263    8    0    1
 -2       467       476       703      2220      2903      2900
 -1      1264    8    0    1
 -2       593       469       704      2561      2904      2905
 -1      1265    8    0    1
 -2       469       699       704      2890      2906      2904
 -1      1266    8    0    1
 -2       470       597       705      2597      2907      2908
 -1      1267    8    0    1
 -2       470       705       577      2908      2909      2514
 -1      1268    8    0    1
 -2       575       690       687      2865      2910      2857
 -1      1269    8    0    1
 -2       583       602       696      2609      2911      2882
 -1      1270    8    0    1
 -2       477       478       706      2225      2912      2913
 -1      1271    8    0    1
 -2       571       645       707      2737      2914      2915
 -1      1272    8    0    1
 -2       591       579       708      2566      2916      2917
 -1      1273    8    0    1
 -2       645       589       683      2736      2849      2918
 -1      1274    8    0    1
 -2       524       594       709      2572      2919      2920
 -1      1275    8    0    1
 -2       524       709       602      2920      2921      2608
 -1      1276    8    0    1
 -2       573       675       710      2828      2922      2923
 -1      1277    8    0    1
 -2       573       710       684      2923      2924      2850
 -1      1278    8    0    1
 -2       674       561       695      2824      2880      2925
 -1      1279    8    0    1
 -2       580       691       697      2868      2926      2885
 -1      1280    8    0    1
 -2       647       557       693      2826      2873      2927
 -1      1281    8    0    1
 -2       675       582       696      2827      2883      2928
 -1      1282    8    0    1
 -2       682       569       686      2846      2856      2929
 -1      1283    8    0    1
 -2       566       567       700      2487      2899      2930
 -1      1284    8    0    1
 -2       689       581       684      2861      2851      2931
 -1      1285    8    0    1
 -2       688       559       681      2859      2845      2932
 -1      1286    8    0    1
 -2       476       682       703      2847      2933      2903
 -1      1287    8    0    1
 -2       579       697       708      2886      2934      2916
 -1      1288    8    0    1
 -2       574       525       685      2852      2854      2935
 -1      1289    8    0    1
 -2       683       568       688      2848      2860      2936
 -1      1290    8    0    1
 -2       685       576       687      2853      2858      2937
 -1      1291    8    0    1
 -2       566       700       711      2930      2938      2939
 -1      1292    8    0    1
 -2       680       566       711      2840      2939      2940
 -1      1293    8    0    1
 -2       700       644       711      2893      2941      2938
 -1      1294    8    0    1
 -2       468       577       712      2513      2942      2943
 -1      1295    8    0    1
 -2       699       468       712      2889      2943      2944
 -1      1296    8    0    1
 -2       577       705       712      2909      2945      2942
 -1      1297    8    0    1
 -2       586       702       698      2898      2946      2887
 -1      1298    8    0    1
 -2       523       591       708      2863      2917      2947
 -1      1299    8    0    1
 -2       692       572       698      2870      2888      2948
 -1      1300    8    0    1
 -2       477       706       601      2913      2949      2606
 -1      1301    8    0    1
 -2       702       587       713      2897      2950      2951
 -1      1302    8    0    1
 -2       587       588       713      2544      2952      2950
 -1      1303    8    0    1
 -2       646       649       714      2750      2953      2954
 -1      1304    8    0    1
 -2       598       599       715      2603      2955      2956
 -1      1305    8    0    1
 -2       707       645       716      2914      2957      2958
 -1      1306    8    0    1
 -2       695       677       717      2881      2959      2960
 -1      1307    8    0    1
 -2       584       701       718      2895      2961      2962
 -1      1308    8    0    1
 -2       706       478       593      2912      2884      2963
 -1      1309    8    0    1
 -2       571       707       588      2915      2964      2545
 -1      1310    8    0    1
 -2       692       698       719      2948      2965      2966
 -1      1311    8    0    1
 -2       645       683       720      2918      2967      2968
 -1      1312    8    0    1
 -2       645       720       716      2968      2969      2957
 -1      1313    8    0    1
 -2       604       603       721      2615      2970      2971
 -1      1314    8    0    1
 -2       605       604       722      2618      2972      2973
 -1      1315    8    0    1
 -2       604       721       722      2971      2974      2972
 -1      1316    8    0    1
 -2       606       605       723      2621      2975      2976
 -1      1317    8    0    1
 -2       605       722       723      2973      2977      2975
 -1      1318    8    0    1
 -2       607       606       724      2624      2978      2979
 -1      1319    8    0    1
 -2       606       723       724      2976      2980      2978
 -1      1320    8    0    1
 -2       608       607       725      2627      2981      2982
 -1      1321    8    0    1
 -2       607       724       725      2979      2983      2981
 -1      1322    8    0    1
 -2       609       608       726      2630      2984      2985
 -1      1323    8    0    1
 -2       608       725       726      2982      2986      2984
 -1      1324    8    0    1
 -2       610       609       727      2633      2987      2988
 -1      1325    8    0    1
 -2       609       726       727      2985      2989      2987
 -1      1326    8    0    1
 -2       611       610       728      2636      2990      2991
 -1      1327    8    0    1
 -2       610       727       728      2988      2992      2990
 -1      1328    8    0    1
 -2       612       611       729      2639      2993      2994
 -1      1329    8    0    1
 -2       611       728       729      2991      2995      2993
 -1      1330    8    0    1
 -2       613       612       730      2642      2996      2997
 -1      1331    8    0    1
 -2       612       729       730      2994      2998      2996
 -1      1332    8    0    1
 -2       614       613       731      2645      2999      3000
 -1      1333    8    0    1
 -2       613       730       731      2997      3001      2999
 -1      1334    8    0    1
 -2       615       614       732      2648      3002      3003
 -1      1335    8    0    1
 -2       614       731       732      3000      3004      3002
 -1      1336    8    0    1
 -2       616       615       733      2651      3005      3006
 -1      1337    8    0    1
 -2       615       732       733      3003      3007      3005
 -1      1338    8    0    1
 -2       617       616       734      2654      3008      3009
 -1      1339    8    0    1
 -2       616       733       734      3006      3010      3008
 -1      1340    8    0    1
 -2       618       617       735      2657      3011      3012
 -1      1341    8    0    1
 -2       617       734       735      3009      3013      3011
 -1      1342    8    0    1
 -2       619       618       736      2660      3014      3015
 -1      1343    8    0    1
 -2       618       735       736      3012      3016      3014
 -1      1344    8    0    1
 -2       620       619       737      2663      3017      3018
 -1      1345    8    0    1
 -2       619       736       737      3015      3019      3017
 -1      1346    8    0    1
 -2       621       620       738      2666      3020      3021
 -1      1347    8    0    1
 -2       620       737       738      3018      3022      3020
 -1      1348    8    0    1
 -2       622       621       739      2669      3023      3024
 -1      1349    8    0    1
 -2       621       738       739      3021      3025      3023
 -1      1350    8    0    1
 -2       623       622       740      2672      3026      3027
 -1      1351    8    0    1
 -2       622       739       740      3024      3028      3026
 -1      1352    8    0    1
 -2       624       623       741      2675      3029      3030
 -1      1353    8    0    1
 -2       623       740       741      3027      3031      3029
 -1      1354    8    0    1
 -2       625       624       742      2678      3032      3033
 -1      1355    8    0    1
 -2       624       741       742      3030      3034      3032
 -1      1356    8    0    1
 -2       626       625       743      2681      3035      3036
 -1      1357    8    0    1
 -2       625       742       743      3033      3037      3035
 -1      1358    8    0    1
 -2       627       626       744      2684      3038      3039
 -1      1359    8    0    1
 -2       626       743       744      3036      3040      3038
 -1      1360    8    0    1
 -2       628       627       745      2687      3041      3042
 -1      1361    8    0    1
 -2       627       744       745      3039      3043      3041
 -1      1362    8    0    1
 -2       629       628       746      2690      3044      3045
 -1      1363    8    0    1
 -2       628       745       746      3042      3046      3044
 -1      1364    8    0    1
 -2       630       629       747      2693      3047      3048
 -1      1365    8    0    1
 -2       629       746       747      3045      3049      3047
 -1      1366    8    0    1
 -2       631       630       748      2696      3050      3051
 -1      1367    8    0    1
 -2       630       747       748      3048      3052      3050
 -1      1368    8    0    1
 -2       632       631       749      2699      3053      3054
 -1      1369    8    0    1
 -2       631       748       749      3051      3055      3053
 -1      1370    8    0    1
 -2       633       632       750      2702      3056      3057
 -1      1371    8    0    1
 -2       632       749       750      3054      3058      3056
 -1      1372    8    0    1
 -2       634       633       751      2705      3059      3060
 -1      1373    8    0    1
 -2       633       750       751      3057      3061      3059
 -1      1374    8    0    1
 -2       635       634       752      2708      3062      3063
 -1      1375    8    0    1
 -2       634       751       752      3060      3064      3062
 -1      1376    8    0    1
 -2       636       635       753      2711      3065      3066
 -1      1377    8    0    1
 -2       635       752       753      3063      3067      3065
 -1      1378    8    0    1
 -2       637       636       754      2714      3068      3069
 -1      1379    8    0    1
 -2       636       753       754      3066      3070      3068
 -1      1380    8    0    1
 -2       638       637       755      2717      3071      3072
 -1      1381    8    0    1
 -2       637       754       755      3069      3073      3071
 -1      1382    8    0    1
 -2       639       638       756      2720      3074      3075
 -1      1383    8    0    1
 -2       638       755       756      3072      3076      3074
 -1      1384    8    0    1
 -2       640       639       757      2723      3077      3078
 -1      1385    8    0    1
 -2       639       756       757      3075      3079      3077
 -1      1386    8    0    1
 -2       641       640       758      2726      3080      3081
 -1      1387    8    0    1
 -2       640       757       758      3078      3082      3080
 -1      1388    8    0    1
 -2       642       641       759      2729      3083      3084
 -1      1389    8    0    1
 -2       641       758       759      3081      3085      3083
 -1      1390    8    0    1
 -2       643       642       760      2732      3086      3087
 -1      1391    8    0    1
 -2       642       759       760      3084      3088      3086
 -1      1392    8    0    1
 -2       644       643       761      2735      3089      3090
 -1      1393    8    0    1
 -2       711       644       761      2941      3090      3091
 -1      1394    8    0    1
 -2       643       760       761      3087      3092      3089
 -1      1395    8    0    1
 -2       600       646       762      2740      3093      3094
 -1      1396    8    0    1
 -2       646       714       762      2954      3095      3093
 -1      1397    8    0    1
 -2       594       584       718      2573      2962      3096
 -1      1398    8    0    1
 -2       522       523       708      2360      2947      3097
 -1      1399    8    0    1
 -2       679       680       763      2842      3098      3099
 -1      1400    8    0    1
 -2       648       600       764      2747      3100      3101
 -1      1401    8    0    1
 -2       600       762       764      3094      3102      3100
 -1      1402    8    0    1
 -2       650       651       765      2756      3103      3104
 -1      1403    8    0    1
 -2       651       652       766      2759      3105      3106
 -1      1404    8    0    1
 -2       651       766       765      3106      3107      3103
 -1      1405    8    0    1
 -2       652       653       767      2762      3108      3109
 -1      1406    8    0    1
 -2       652       767       766      3109      3110      3105
 -1      1407    8    0    1
 -2       653       654       768      2765      3111      3112
 -1      1408    8    0    1
 -2       653       768       767      3112      3113      3108
 -1      1409    8    0    1
 -2       654       655       769      2768      3114      3115
 -1      1410    8    0    1
 -2       654       769       768      3115      3116      3111
 -1      1411    8    0    1
 -2       655       656       770      2771      3117      3118
 -1      1412    8    0    1
 -2       655       770       769      3118      3119      3114
 -1      1413    8    0    1
 -2       656       657       771      2774      3120      3121
 -1      1414    8    0    1
 -2       656       771       770      3121      3122      3117
 -1      1415    8    0    1
 -2       657       658       772      2777      3123      3124
 -1      1416    8    0    1
 -2       657       772       771      3124      3125      3120
 -1      1417    8    0    1
 -2       658       659       773      2780      3126      3127
 -1      1418    8    0    1
 -2       658       773       772      3127      3128      3123
 -1      1419    8    0    1
 -2       659       660       774      2783      3129      3130
 -1      1420    8    0    1
 -2       659       774       773      3130      3131      3126
 -1      1421    8    0    1
 -2       660       661       775      2786      3132      3133
 -1      1422    8    0    1
 -2       660       775       774      3133      3134      3129
 -1      1423    8    0    1
 -2       661       662       776      2789      3135      3136
 -1      1424    8    0    1
 -2       661       776       775      3136      3137      3132
 -1      1425    8    0    1
 -2       662       663       777      2792      3138      3139
 -1      1426    8    0    1
 -2       662       777       776      3139      3140      3135
 -1      1427    8    0    1
 -2       663       664       778      2795      3141      3142
 -1      1428    8    0    1
 -2       663       778       777      3142      3143      3138
 -1      1429    8    0    1
 -2       664       665       779      2798      3144      3145
 -1      1430    8    0    1
 -2       664       779       778      3145      3146      3141
 -1      1431    8    0    1
 -2       665       666       780      2801      3147      3148
 -1      1432    8    0    1
 -2       665       780       779      3148      3149      3144
 -1      1433    8    0    1
 -2       666       667       781      2804      3150      3151
 -1      1434    8    0    1
 -2       666       781       780      3151      3152      3147
 -1      1435    8    0    1
 -2       667       668       782      2807      3153      3154
 -1      1436    8    0    1
 -2       667       782       781      3154      3155      3150
 -1      1437    8    0    1
 -2       668       669       783      2810      3156      3157
 -1      1438    8    0    1
 -2       668       783       782      3157      3158      3153
 -1      1439    8    0    1
 -2       669       670       784      2813      3159      3160
 -1      1440    8    0    1
 -2       669       784       783      3160      3161      3156
 -1      1441    8    0    1
 -2       670       671       785      2816      3162      3163
 -1      1442    8    0    1
 -2       670       785       784      3163      3164      3159
 -1      1443    8    0    1
 -2       671       672       786      2819      3165      3166
 -1      1444    8    0    1
 -2       671       786       785      3166      3167      3162
 -1      1445    8    0    1
 -2       676       674       787      2831      3168      3169
 -1      1446    8    0    1
 -2       597       596       788      2598      3170      3171
 -1      1447    8    0    1
 -2       697       691       789      2926      3172      3173
 -1      1448    8    0    1
 -2       718       701       790      2961      3174      3175
 -1      1449    8    0    1
 -2       693       676       791      2874      3176      3177
 -1      1450    8    0    1
 -2       676       787       791      3169      3178      3176
 -1      1451    8    0    1
 -2       678       679       792      2839      3179      3180
 -1      1452    8    0    1
 -2       679       763       792      3099      3181      3179
 -1      1453    8    0    1
 -2       677       678       793      2836      3182      3183
 -1      1454    8    0    1
 -2       717       677       793      2959      3183      3184
 -1      1455    8    0    1
 -2       678       792       793      3180      3185      3182
 -1      1456    8    0    1
 -2       696       602       794      2911      3186      3187
 -1      1457    8    0    1
 -2       686       522       708      2855      3097      3188
 -1      1458    8    0    1
 -2       674       695       795      2925      3189      3190
 -1      1459    8    0    1
 -2       787       674       795      3168      3190      3191
 -1      1460    8    0    1
 -2       695       717       795      2960      3192      3189
 -1      1461    8    0    1
 -2       649       650       796      2753      3193      3194
 -1      1462    8    0    1
 -2       714       649       796      2953      3194      3195
 -1      1463    8    0    1
 -2       650       765       796      3104      3196      3193
 -1      1464    8    0    1
 -2       687       690       797      2910      3197      3198
 -1      1465    8    0    1
 -2       603       601       798      2612      3199      3200
 -1      1466    8    0    1
 -2       603       798       721      3200      3201      2970
 -1      1467    8    0    1
 -2       690       648       799      2866      3202      3203
 -1      1468    8    0    1
 -2       648       764       799      3101      3204      3202
 -1      1469    8    0    1
 -2       691       689       800      2869      3205      3206
 -1      1470    8    0    1
 -2       675       696       801      2928      3207      3208
 -1      1471    8    0    1
 -2       696       794       801      3187      3209      3207
 -1      1472    8    0    1
 -2       594       718       802      3096      3210      3211
 -1      1473    8    0    1
 -2       588       707       713      2964      3212      2952
 -1      1474    8    0    1
 -2       647       693       803      2927      3213      3214
 -1      1475    8    0    1
 -2       673       647       803      2823      3214      3215
 -1      1476    8    0    1
 -2       693       791       803      3177      3216      3213
 -1      1477    8    0    1
 -2       698       702       804      2946      3217      3218
 -1      1478    8    0    1
 -2       702       713       805      2951      3219      3220
 -1      1479    8    0    1
 -2       599       703       806      2902      3221      3222
 -1      1480    8    0    1
 -2       715       599       806      2955      3222      3223
 -1      1481    8    0    1
 -2       703       682       806      2933      3224      3221
 -1      1482    8    0    1
 -2       701       692       807      2896      3225      3226
 -1      1483    8    0    1
 -2       701       807       790      3226      3227      3174
 -1      1484    8    0    1
 -2       683       688       808      2936      3228      3229
 -1      1485    8    0    1
 -2       683       808       720      3229      3230      2967
 -1      1486    8    0    1
 -2       689       684       809      2931      3231      3232
 -1      1487    8    0    1
 -2       708       697       686      2934      3233      3188
 -1      1488    8    0    1
 -2       706       593       704      2963      2905      3234
 -1      1489    8    0    1
 -2       713       707       810      3212      3235      3236
 -1      1490    8    0    1
 -2       686       697       789      3233      3173      3237
 -1      1491    8    0    1
 -2       705       597       811      2907      3238      3239
 -1      1492    8    0    1
 -2       597       788       811      3171      3240      3238
 -1      1493    8    0    1
 -2       598       715       812      2956      3241      3242
 -1      1494    8    0    1
 -2       598       812       694      3242      3243      2878
 -1      1495    8    0    1
 -2       707       716       810      2958      3244      3235
 -1      1496    8    0    1
 -2       689       809       800      3232      3245      3205
 -1      1497    8    0    1
 -2       719       698       804      2965      3218      3246
 -1      1498    8    0    1
 -2       690       799       797      3203      3247      3197
 -1      1499    8    0    1
 -2       788       596       813      3170      3248      3249
 -1      1500    8    0    1
 -2       596       694       813      2877      3250      3248
 -1      1501    8    0    1
 -2       709       594       802      2919      3211      3251
 -1      1502    8    0    1
 -2       710       675       814      2922      3252      3253
 -1      1503    8    0    1
 -2       675       801       814      3208      3254      3252
 -1      1504    8    0    1
 -2       699       712       815      2944      3255      3256
 -1      1505    8    0    1
 -2       691       800       789      3206      3257      3172
 -1      1506    8    0    1
 -2       672       673       816      2822      3258      3259
 -1      1507    8    0    1
 -2       786       672       816      3165      3259      3260
 -1      1508    8    0    1
 -2       673       803       816      3215      3261      3258
 -1      1509    8    0    1
 -2       804       702       805      3217      3220      3262
 -1      1510    8    0    1
 -2       718       790       802      3175      3263      3210
 -1      1511    8    0    1
 -2       806       682       789      3224      3264      3265
 -1      1512    8    0    1
 -2       602       709       817      2921      3266      3267
 -1      1513    8    0    1
 -2       602       817       794      3267      3268      3186
 -1      1514    8    0    1
 -2       688       681       818      2932      3269      3270
 -1      1515    8    0    1
 -2       682       686       789      2929      3237      3264
 -1      1516    8    0    1
 -2       680       711       819      2940      3271      3272
 -1      1517    8    0    1
 -2       763       680       819      3098      3272      3273
 -1      1518    8    0    1
 -2       711       761       819      3091      3274      3271
 -1      1519    8    0    1
 -2       688       818       808      3270      3275      3228
 -1      1520    8    0    1
 -2       699       815       820      3256      3276      3277
 -1      1521    8    0    1
 -2       699       820       704      3277      3278      2906
 -1      1522    8    0    1
 -2       684       710       821      2924      3279      3280
 -1      1523    8    0    1
 -2       684       821       809      3280      3281      3231
 -1      1524    8    0    1
 -2       807       692       719      3225      2966      3282
 -1      1525    8    0    1
 -2       805       713       822      3219      3283      3284
 -1      1526    8    0    1
 -2       713       810       822      3236      3285      3283
 -1      1527    8    0    1
 -2       601       706       704      2949      3234      3286
 -1      1528    8    0    1
 -2       601       704       798      3286      3287      3199
 -1      1529    8    0    1
 -2       574       685       681      2935      3288      2844
 -1      1530    8    0    1
 -2       800       809       812      3245      3289      3290
 -1      1531    8    0    1
 -2       716       720       823      2969      3291      3292
 -1      1532    8    0    1
 -2       687       797       824      3198      3293      3294
 -1      1533    8    0    1
 -2       723       722       825      2977      3295      3296
 -1      1534    8    0    1
 -2       724       723       826      2980      3297      3298
 -1      1535    8    0    1
 -2       723       825       826      3296      3299      3297
 -1      1536    8    0    1
 -2       725       724       827      2983      3300      3301
 -1      1537    8    0    1
 -2       724       826       827      3298      3302      3300
 -1      1538    8    0    1
 -2       726       725       828      2986      3303      3304
 -1      1539    8    0    1
 -2       725       827       828      3301      3305      3303
 -1      1540    8    0    1
 -2       727       726       829      2989      3306      3307
 -1      1541    8    0    1
 -2       726       828       829      3304      3308      3306
 -1      1542    8    0    1
 -2       728       727       830      2992      3309      3310
 -1      1543    8    0    1
 -2       727       829       830      3307      3311      3309
 -1      1544    8    0    1
 -2       729       728       831      2995      3312      3313
 -1      1545    8    0    1
 -2       728       830       831      3310      3314      3312
 -1      1546    8    0    1
 -2       730       729       832      2998      3315      3316
 -1      1547    8    0    1
 -2       729       831       832      3313      3317      3315
 -1      1548    8    0    1
 -2       731       730       833      3001      3318      3319
 -1      1549    8    0    1
 -2       730       832       833      3316      3320      3318
 -1      1550    8    0    1
 -2       732       731       834      3004      3321      3322
 -1      1551    8    0    1
 -2       731       833       834      3319      3323      3321
 -1      1552    8    0    1
 -2       733       732       835      3007      3324      3325
 -1      1553    8    0    1
 -2       732       834       835      3322      3326      3324
 -1      1554    8    0    1
 -2       734       733       836      3010      3327      3328
 -1      1555    8    0    1
 -2       733       835       836      3325      3329      3327
 -1      1556    8    0    1
 -2       735       734       837      3013      3330      3331
 -1      1557    8    0    1
 -2       734       836       837      3328      3332      3330
 -1      1558    8    0    1
 -2       736       735       838      3016      3333      3334
 -1      1559    8    0    1
 -2       735       837       838      3331      3335      3333
 -1      1560    8    0    1
 -2       737       736       839      3019      3336      3337
 -1      1561    8    0    1
 -2       736       838       839      3334      3338      3336
 -1      1562    8    0    1
 -2       738       737       840      3022      3339      3340
 -1      1563    8    0    1
 -2       737       839       840      3337      3341      3339
 -1      1564    8    0    1
 -2       739       738       841      3025      3342      3343
 -1      1565    8    0    1
 -2       738       840       841      3340      3344      3342
 -1      1566    8    0    1
 -2       740       739       842      3028      3345      3346
 -1      1567    8    0    1
 -2       739       841       842      3343      3347      3345
 -1      1568    8    0    1
 -2       741       740       843      3031      3348      3349
 -1      1569    8    0    1
 -2       740       842       843      3346      3350      3348
 -1      1570    8    0    1
 -2       742       741       844      3034      3351      3352
 -1      1571    8    0    1
 -2       741       843       844      3349      3353      3351
 -1      1572    8    0    1
 -2       743       742       845      3037      3354      3355
 -1      1573    8    0    1
 -2       742       844       845      3352      3356      3354
 -1      1574    8    0    1
 -2       744       743       846      3040      3357      3358
 -1      1575    8    0    1
 -2       743       845       846      3355      3359      3357
 -1      1576    8    0    1
 -2       745       744       847      3043      3360      3361
 -1      1577    8    0    1
 -2       744       846       847      3358      3362      3360
 -1      1578    8    0    1
 -2       746       745       848      3046      3363      3364
 -1      1579    8    0    1
 -2       745       847       848      3361      3365      3363
 -1      1580    8    0    1
 -2       747       746       849      3049      3366      3367
 -1      1581    8    0    1
 -2       746       848       849      3364      3368      3366
 -1      1582    8    0    1
 -2       748       747       850      3052      3369      3370
 -1      1583    8    0    1
 -2       747       849       850      3367      3371      3369
 -1      1584    8    0    1
 -2       749       748       851      3055      3372      3373
 -1      1585    8    0    1
 -2       748       850       851      3370      3374      3372
 -1      1586    8    0    1
 -2       750       749       852      3058      3375      3376
 -1      1587    8    0    1
 -2       749       851       852      3373      3377      3375
 -1      1588    8    0    1
 -2       751       750       853      3061      3378      3379
 -1      1589    8    0    1
 -2       750       852       853      3376      3380      3378
 -1      1590    8    0    1
 -2       752       751       854      3064      3381      3382
 -1      1591    8    0    1
 -2       751       853       854      3379      3383      3381
 -1      1592    8    0    1
 -2       753       752       855      3067      3384      3385
 -1      1593    8    0    1
 -2       752       854       855      3382      3386      3384
 -1      1594    8    0    1
 -2       754       753       856      3070      3387      3388
 -1      1595    8    0    1
 -2       753       855       856      3385      3389      3387
 -1      1596    8    0    1
 -2       755       754       857      3073      3390      3391
 -1      1597    8    0    1
 -2       754       856       857      3388      3392      3390
 -1      1598    8    0    1
 -2       756       755       858      3076      3393      3394
 -1      1599    8    0    1
 -2       755       857       858      3391      3395      3393
 -1      1600    8    0    1
 -2       757       756       859      3079      3396      3397
 -1      1601    8    0    1
 -2       756       858       859      3394      3398      3396
 -1      1602    8    0    1
 -2       758       757       860      3082      3399      3400
 -1      1603    8    0    1
 -2       757       859       860      3397      3401      3399
 -1      1604    8    0    1
 -2       759       758       861      3085      3402      3403
 -1      1605    8    0    1
 -2       758       860       861      3400      3404      3402
 -1      1606    8    0    1
 -2       760       759       862      3088      3405      3406
 -1      1607    8    0    1
 -2       759       861       862      3403      3407      3405
 -1      1608    8    0    1
 -2       767       768       863      3113      3408      3409
 -1      1609    8    0    1
 -2       764       762       864      3102      3410      3411
 -1      1610    8    0    1
 -2       815       712       865      3255      3412      3413
 -1      1611    8    0    1
 -2       712       705       865      2945      3414      3412
 -1      1612    8    0    1
 -2       789       800       806      3257      3415      3265
 -1      1613    8    0    1
 -2       766       767       866      3110      3416      3417
 -1      1614    8    0    1
 -2       767       863       866      3409      3418      3416
 -1      1615    8    0    1
 -2       765       766       867      3107      3419      3420
 -1      1616    8    0    1
 -2       766       866       867      3417      3421      3419
 -1      1617    8    0    1
 -2       768       769       868      3116      3422      3423
 -1      1618    8    0    1
 -2       768       868       863      3423      3424      3408
 -1      1619    8    0    1
 -2       769       770       869      3119      3425      3426
 -1      1620    8    0    1
 -2       769       869       868      3426      3427      3422
 -1      1621    8    0    1
 -2       770       771       870      3122      3428      3429
 -1      1622    8    0    1
 -2       770       870       869      3429      3430      3425
 -1      1623    8    0    1
 -2       771       772       871      3125      3431      3432
 -1      1624    8    0    1
 -2       771       871       870      3432      3433      3428
 -1      1625    8    0    1
 -2       772       773       872      3128      3434      3435
 -1      1626    8    0    1
 -2       772       872       871      3435      3436      3431
 -1      1627    8    0    1
 -2       773       774       873      3131      3437      3438
 -1      1628    8    0    1
 -2       773       873       872      3438      3439      3434
 -1      1629    8    0    1
 -2       774       775       874      3134      3440      3441
 -1      1630    8    0    1
 -2       774       874       873      3441      3442      3437
 -1      1631    8    0    1
 -2       775       776       875      3137      3443      3444
 -1      1632    8    0    1
 -2       775       875       874      3444      3445      3440
 -1      1633    8    0    1
 -2       776       777       876      3140      3446      3447
 -1      1634    8    0    1
 -2       776       876       875      3447      3448      3443
 -1      1635    8    0    1
 -2       777       778       877      3143      3449      3450
 -1      1636    8    0    1
 -2       777       877       876      3450      3451      3446
 -1      1637    8    0    1
 -2       778       779       878      3146      3452      3453
 -1      1638    8    0    1
 -2       778       878       877      3453      3454      3449
 -1      1639    8    0    1
 -2       779       780       879      3149      3455      3456
 -1      1640    8    0    1
 -2       779       879       878      3456      3457      3452
 -1      1641    8    0    1
 -2       780       781       880      3152      3458      3459
 -1      1642    8    0    1
 -2       780       880       879      3459      3460      3455
 -1      1643    8    0    1
 -2       781       782       881      3155      3461      3462
 -1      1644    8    0    1
 -2       781       881       880      3462      3463      3458
 -1      1645    8    0    1
 -2       782       783       882      3158      3464      3465
 -1      1646    8    0    1
 -2       782       882       881      3465      3466      3461
 -1      1647    8    0    1
 -2       783       784       883      3161      3467      3468
 -1      1648    8    0    1
 -2       783       883       882      3468      3469      3464
 -1      1649    8    0    1
 -2       784       785       884      3164      3470      3471
 -1      1650    8    0    1
 -2       784       884       883      3471      3472      3467
 -1      1651    8    0    1
 -2       785       786       885      3167      3473      3474
 -1      1652    8    0    1
 -2       785       885       884      3474      3475      3470
 -1      1653    8    0    1
 -2       797       799       886      3247      3476      3477
 -1      1654    8    0    1
 -2       792       763       887      3181      3478      3479
 -1      1655    8    0    1
 -2       709       802       888      3251      3480      3481
 -1      1656    8    0    1
 -2       818       681       685      3269      3288      3482
 -1      1657    8    0    1
 -2       798       704       820      3287      3278      3483
 -1      1658    8    0    1
 -2       801       794       889      3209      3484      3485
 -1      1659    8    0    1
 -2       791       787       890      3178      3486      3487
 -1      1660    8    0    1
 -2       720       808       891      3230      3488      3489
 -1      1661    8    0    1
 -2       762       714       892      3095      3490      3491
 -1      1662    8    0    1
 -2       762       892       864      3491      3492      3410
 -1      1663    8    0    1
 -2       722       721       893      2974      3493      3494
 -1      1664    8    0    1
 -2       722       893       825      3494      3495      3295
 -1      1665    8    0    1
 -2       685       687       824      2937      3294      3496
 -1      1666    8    0    1
 -2       721       798       894      3201      3497      3498
 -1      1667    8    0    1
 -2       893       721       894      3493      3498      3499
 -1      1668    8    0    1
 -2       798       820       894      3483      3500      3497
 -1      1669    8    0    1
 -2       799       764       895      3204      3501      3502
 -1      1670    8    0    1
 -2       764       864       895      3411      3503      3501
 -1      1671    8    0    1
 -2       719       804       896      3246      3504      3505
 -1      1672    8    0    1
 -2       810       716       897      3244      3506      3507
 -1      1673    8    0    1
 -2       802       790       898      3263      3508      3509
 -1      1674    8    0    1
 -2       807       719       899      3282      3510      3511
 -1      1675    8    0    1
 -2       804       805       900      3262      3512      3513
 -1      1676    8    0    1
 -2       790       807       901      3227      3514      3515
 -1      1677    8    0    1
 -2       898       790       901      3508      3515      3516
 -1      1678    8    0    1
 -2       807       899       901      3511      3517      3514
 -1      1679    8    0    1
 -2       714       796       902      3195      3518      3519
 -1      1680    8    0    1
 -2       714       902       892      3519      3520      3490
 -1      1681    8    0    1
 -2       787       795       903      3191      3521      3522
 -1      1682    8    0    1
 -2       787       903       890      3522      3523      3486
 -1      1683    8    0    1
 -2       716       823       897      3292      3524      3506
 -1      1684    8    0    1
 -2       813       694       812      3250      3243      3525
 -1      1685    8    0    1
 -2       765       867       904      3420      3526      3527
 -1      1686    8    0    1
 -2       765       904       796      3527      3528      3196
 -1      1687    8    0    1
 -2       761       760       905      3092      3529      3530
 -1      1688    8    0    1
 -2       819       761       905      3274      3530      3531
 -1      1689    8    0    1
 -2       760       862       905      3406      3532      3529
 -1      1690    8    0    1
 -2       900       805       906      3512      3533      3534
 -1      1691    8    0    1
 -2       805       822       906      3284      3535      3533
 -1      1692    8    0    1
 -2       814       801       907      3254      3536      3537
 -1      1693    8    0    1
 -2       801       889       907      3485      3538      3536
 -1      1694    8    0    1
 -2       719       896       899      3505      3539      3510
 -1      1695    8    0    1
 -2       815       865       908      3413      3540      3541
 -1      1696    8    0    1
 -2       797       886       891      3477      3542      3543
 -1      1697    8    0    1
 -2       885       786       909      3473      3544      3545
 -1      1698    8    0    1
 -2       786       816       909      3260      3546      3544
 -1      1699    8    0    1
 -2       886       799       895      3476      3502      3547
 -1      1700    8    0    1
 -2       710       814       910      3253      3548      3549
 -1      1701    8    0    1
 -2       710       910       821      3549      3550      3279
 -1      1702    8    0    1
 -2       817       709       888      3266      3481      3551
 -1      1703    8    0    1
 -2       705       811       865      3239      3552      3414
 -1      1704    8    0    1
 -2       763       819       905      3273      3531      3553
 -1      1705    8    0    1
 -2       792       887       911      3479      3554      3555
 -1      1706    8    0    1
 -2       792       911       793      3555      3556      3185
 -1      1707    8    0    1
 -2       794       817       912      3268      3557      3558
 -1      1708    8    0    1
 -2       794       912       889      3558      3559      3484
 -1      1709    8    0    1
 -2       806       800       715      3415      3560      3223
 -1      1710    8    0    1
 -2       800       812       715      3290      3241      3560
 -1      1711    8    0    1
 -2       795       717       913      3192      3561      3562
 -1      1712    8    0    1
 -2       795       913       903      3562      3563      3521
 -1      1713    8    0    1
 -2       791       890       909      3487      3564      3565
 -1      1714    8    0    1
 -2       720       891       823      3489      3566      3291
 -1      1715    8    0    1
 -2       888       802       898      3480      3509      3567
 -1      1716    8    0    1
 -2       763       905       887      3553      3568      3478
 -1      1717    8    0    1
 -2       820       815       914      3276      3569      3570
 -1      1718    8    0    1
 -2       894       820       914      3500      3570      3571
 -1      1719    8    0    1
 -2       815       908       914      3541      3572      3569
 -1      1720    8    0    1
 -2       896       804       900      3504      3513      3573
 -1      1721    8    0    1
 -2       810       897       915      3507      3574      3575
 -1      1722    8    0    1
 -2       810       915       822      3575      3576      3285
 -1      1723    8    0    1
 -2       717       793       916      3184      3577      3578
 -1      1724    8    0    1
 -2       793       911       916      3556      3579      3577
 -1      1725    8    0    1
 -2       824       797       891      3293      3543      3580
 -1      1726    8    0    1
 -2       809       821       813      3281      3581      3582
 -1      1727    8    0    1
 -2       788       813       821      3249      3581      3583
 -1      1728    8    0    1
 -2       811       788       910      3240      3584      3585
 -1      1729    8    0    1
 -2       913       717       916      3561      3578      3586
 -1      1730    8    0    1
 -2       809       813       812      3582      3525      3289
 -1      1731    8    0    1
 -2       788       821       910      3583      3550      3584
 -1      1732    8    0    1
 -2       791       909       803      3565      3587      3216
 -1      1733    8    0    1
 -2       905       862       887      3532      3588      3568
 -1      1734    8    0    1
 -2       827       826       917      3302      3589      3590
 -1      1735    8    0    1
 -2       828       827       918      3305      3591      3592
 -1      1736    8    0    1
 -2       827       917       918      3590      3593      3591
 -1      1737    8    0    1
 -2       830       829       919      3311      3594      3595
 -1      1738    8    0    1
 -2       831       830       896      3314      3596      3597
 -1      1739    8    0    1
 -2       833       832       920      3320      3598      3599
 -1      1740    8    0    1
 -2       834       833       921      3323      3600      3601
 -1      1741    8    0    1
 -2       833       920       921      3599      3602      3600
 -1      1742    8    0    1
 -2       835       834       922      3326      3603      3604
 -1      1743    8    0    1
 -2       834       921       922      3601      3605      3603
 -1      1744    8    0    1
 -2       836       835       923      3329      3606      3607
 -1      1745    8    0    1
 -2       835       922       923      3604      3608      3606
 -1      1746    8    0    1
 -2       837       836       924      3332      3609      3610
 -1      1747    8    0    1
 -2       836       923       924      3607      3611      3609
 -1      1748    8    0    1
 -2       838       837       925      3335      3612      3613
 -1      1749    8    0    1
 -2       837       924       925      3610      3614      3612
 -1      1750    8    0    1
 -2       839       838       926      3338      3615      3616
 -1      1751    8    0    1
 -2       838       925       926      3613      3617      3615
 -1      1752    8    0    1
 -2       840       839       927      3341      3618      3619
 -1      1753    8    0    1
 -2       839       926       927      3616      3620      3618
 -1      1754    8    0    1
 -2       841       840       928      3344      3621      3622
 -1      1755    8    0    1
 -2       840       927       928      3619      3623      3621
 -1      1756    8    0    1
 -2       842       841       929      3347      3624      3625
 -1      1757    8    0    1
 -2       841       928       929      3622      3626      3624
 -1      1758    8    0    1
 -2       843       842       930      3350      3627      3628
 -1      1759    8    0    1
 -2       842       929       930      3625      3629      3627
 -1      1760    8    0    1
 -2       844       843       931      3353      3630      3631
 -1      1761    8    0    1
 -2       843       930       931      3628      3632      3630
 -1      1762    8    0    1
 -2       845       844       932      3356      3633      3634
 -1      1763    8    0    1
 -2       844       931       932      3631      3635      3633
 -1      1764    8    0    1
 -2       846       845       933      3359      3636      3637
 -1      1765    8    0    1
 -2       845       932       933      3634      3638      3636
 -1      1766    8    0    1
 -2       847       846       934      3362      3639      3640
 -1      1767    8    0    1
 -2       846       933       934      3637      3641      3639
 -1      1768    8    0    1
 -2       848       847       935      3365      3642      3643
 -1      1769    8    0    1
 -2       847       934       935      3640      3644      3642
 -1      1770    8    0    1
 -2       849       848       936      3368      3645      3646
 -1      1771    8    0    1
 -2       848       935       936      3643      3647      3645
 -1      1772    8    0    1
 -2       850       849       937      3371      3648      3649
 -1      1773    8    0    1
 -2       849       936       937      3646      3650      3648
 -1      1774    8    0    1
 -2       851       850       938      3374      3651      3652
 -1      1775    8    0    1
 -2       850       937       938      3649      3653      3651
 -1      1776    8    0    1
 -2       852       851       939      3377      3654      3655
 -1      1777    8    0    1
 -2       851       938       939      3652      3656      3654
 -1      1778    8    0    1
 -2       853       852       940      3380      3657      3658
 -1      1779    8    0    1
 -2       852       939       940      3655      3659      3657
 -1      1780    8    0    1
 -2       854       853       941      3383      3660      3661
 -1      1781    8    0    1
 -2       853       940       941      3658      3662      3660
 -1      1782    8    0    1
 -2       855       854       942      3386      3663      3664
 -1      1783    8    0    1
 -2       854       941       942      3661      3665      3663
 -1      1784    8    0    1
 -2       856       855       943      3389      3666      3667
 -1      1785    8    0    1
 -2       855       942       943      3664      3668      3666
 -1      1786    8    0    1
 -2       857       856       944      3392      3669      3670
 -1      1787    8    0    1
 -2       856       943       944      3667      3671      3669
 -1      1788    8    0    1
 -2       858       857       945      3395      3672      3673
 -1      1789    8    0    1
 -2       857       944       945      3670      3674      3672
 -1      1790    8    0    1
 -2       859       858       946      3398      3675      3676
 -1      1791    8    0    1
 -2       858       945       946      3673      3677      3675
 -1      1792    8    0    1
 -2       860       859       947      3401      3678      3679
 -1      1793    8    0    1
 -2       859       946       947      3676      3680      3678
 -1      1794    8    0    1
 -2       861       860       948      3404      3681      3682
 -1      1795    8    0    1
 -2       860       947       948      3679      3683      3681
 -1      1796    8    0    1
 -2       862       861       949      3407      3684      3685
 -1      1797    8    0    1
 -2       861       948       949      3682      3686      3684
 -1      1798    8    0    1
 -2       868       869       950      3427      3687      3688
 -1      1799    8    0    1
 -2       891       886       951      3542      3689      3690
 -1      1800    8    0    1
 -2       891       951       823      3690      3691      3566
 -1      1801    8    0    1
 -2       908       865       952      3540      3692      3693
 -1      1802    8    0    1
 -2       865       811       952      3552      3694      3692
 -1      1803    8    0    1
 -2       825       893       953      3495      3695      3696
 -1      1804    8    0    1
 -2       866       863       954      3418      3697      3698
 -1      1805    8    0    1
 -2       867       866       955      3421      3699      3700
 -1      1806    8    0    1
 -2       866       954       955      3698      3701      3699
 -1      1807    8    0    1
 -2       869       870       956      3430      3702      3703
 -1      1808    8    0    1
 -2       869       956       950      3703      3704      3687
 -1      1809    8    0    1
 -2       870       871       957      3433      3705      3706
 -1      1810    8    0    1
 -2       870       957       956      3706      3707      3702
 -1      1811    8    0    1
 -2       871       872       958      3436      3708      3709
 -1      1812    8    0    1
 -2       871       958       957      3709      3710      3705
 -1      1813    8    0    1
 -2       872       873       959      3439      3711      3712
 -1      1814    8    0    1
 -2       872       959       958      3712      3713      3708
 -1      1815    8    0    1
 -2       873       874       960      3442      3714      3715
 -1      1816    8    0    1
 -2       873       960       959      3715      3716      3711
 -1      1817    8    0    1
 -2       874       875       961      3445      3717      3718
 -1      1818    8    0    1
 -2       874       961       960      3718      3719      3714
 -1      1819    8    0    1
 -2       875       876       962      3448      3720      3721
 -1      1820    8    0    1
 -2       875       962       961      3721      3722      3717
 -1      1821    8    0    1
 -2       876       877       963      3451      3723      3724
 -1      1822    8    0    1
 -2       876       963       962      3724      3725      3720
 -1      1823    8    0    1
 -2       877       878       964      3454      3726      3727
 -1      1824    8    0    1
 -2       877       964       963      3727      3728      3723
 -1      1825    8    0    1
 -2       878       879       965      3457      3729      3730
 -1      1826    8    0    1
 -2       878       965       964      3730      3731      3726
 -1      1827    8    0    1
 -2       879       880       966      3460      3732      3733
 -1      1828    8    0    1
 -2       879       966       965      3733      3734      3729
 -1      1829    8    0    1
 -2       880       881       967      3463      3735      3736
 -1      1830    8    0    1
 -2       880       967       966      3736      3737      3732
 -1      1831    8    0    1
 -2       881       882       968      3466      3738      3739
 -1      1832    8    0    1
 -2       881       968       967      3739      3740      3735
 -1      1833    8    0    1
 -2       882       883       969      3469      3741      3742
 -1      1834    8    0    1
 -2       882       969       968      3742      3743      3738
 -1      1835    8    0    1
 -2       883       884       970      3472      3744      3745
 -1      1836    8    0    1
 -2       883       970       969      3745      3746      3741
 -1      1837    8    0    1
 -2       884       885       971      3475      3747      3748
 -1      1838    8    0    1
 -2       884       971       970      3748      3749      3744
 -1      1839    8    0    1
 -2       885       909       972      3545      3750      3751
 -1      1840    8    0    1
 -2       971       885       972      3747      3751      3752
 -1      1841    8    0    1
 -2       909       890       972      3564      3753      3750
 -1      1842    8    0    1
 -2       910       814       952      3548      3754      3755
 -1      1843    8    0    1
 -2       824       891       808      3580      3488      3756
 -1      1844    8    0    1
 -2       897       823       973      3524      3757      3758
 -1      1845    8    0    1
 -2       823       951       973      3691      3759      3757
 -1      1846    8    0    1
 -2       864       892       974      3492      3760      3761
 -1      1847    8    0    1
 -2       895       864       975      3503      3762      3763
 -1      1848    8    0    1
 -2       864       974       975      3761      3764      3762
 -1      1849    8    0    1
 -2       886       895       976      3547      3765      3766
 -1      1850    8    0    1
 -2       951       886       976      3689      3766      3767
 -1      1851    8    0    1
 -2       895       975       976      3763      3768      3765
 -1      1852    8    0    1
 -2       808       818       824      3275      3769      3756
 -1      1853    8    0    1
 -2       817       888       977      3551      3770      3771
 -1      1854    8    0    1
 -2       826       825       978      3299      3772      3773
 -1      1855    8    0    1
 -2       825       953       978      3696      3774      3772
 -1      1856    8    0    1
 -2       863       868       979      3424      3775      3776
 -1      1857    8    0    1
 -2       868       950       979      3688      3777      3775
 -1      1858    8    0    1
 -2       887       862       949      3588      3685      3778
 -1      1859    8    0    1
 -2       811       910       952      3585      3755      3694
 -1      1860    8    0    1
 -2       913       916       980      3586      3779      3780
 -1      1861    8    0    1
 -2       888       898       918      3567      3781      3782
 -1      1862    8    0    1
 -2       901       899       919      3517      3783      3784
 -1      1863    8    0    1
 -2       893       894       981      3499      3785      3786
 -1      1864    8    0    1
 -2       953       893       981      3695      3786      3787
 -1      1865    8    0    1
 -2       894       914       981      3571      3788      3785
 -1      1866    8    0    1
 -2       904       867       982      3526      3789      3790
 -1      1867    8    0    1
 -2       867       955       982      3700      3791      3789
 -1      1868    8    0    1
 -2       917       826       978      3589      3773      3792
 -1      1869    8    0    1
 -2       900       906       920      3534      3793      3794
 -1      1870    8    0    1
 -2       828       918       983      3592      3795      3796
 -1      1871    8    0    1
 -2       829       828       983      3308      3796      3797
 -1      1872    8    0    1
 -2       918       898       983      3781      3798      3795
 -1      1873    8    0    1
 -2       919       829       983      3594      3797      3799
 -1      1874    8    0    1
 -2       831       896       984      3597      3800      3801
 -1      1875    8    0    1
 -2       887       949       911      3778      3802      3554
 -1      1876    8    0    1
 -2       832       831       984      3317      3801      3803
 -1      1877    8    0    1
 -2       907       889       985      3538      3804      3805
 -1      1878    8    0    1
 -2       913       980       986      3780      3806      3807
 -1      1879    8    0    1
 -2       913       986       903      3807      3808      3563
 -1      1880    8    0    1
 -2       954       863       979      3697      3776      3809
 -1      1881    8    0    1
 -2       972       890       903      3753      3523      3810
 -1      1882    8    0    1
 -2       817       977       912      3771      3811      3557
 -1      1883    8    0    1
 -2       896       900       984      3573      3812      3800
 -1      1884    8    0    1
 -2       796       904       902      3528      3813      3518
 -1      1885    8    0    1
 -2       832       984       920      3803      3814      3598
 -1      1886    8    0    1
 -2       984       900       920      3812      3794      3814
 -1      1887    8    0    1
 -2       818       685       824      3482      3496      3769
 -1      1888    8    0    1
 -2       889       912       985      3559      3815      3804
 -1      1889    8    0    1
 -2       974       892       987      3760      3816      3817
 -1      1890    8    0    1
 -2       892       902       987      3520      3818      3816
 -1      1891    8    0    1
 -2       980       916       988      3779      3819      3820
 -1      1892    8    0    1
 -2       916       911       988      3579      3821      3819
 -1      1893    8    0    1
 -2       908       952       907      3693      3822      3823
 -1      1894    8    0    1
 -2       897       973       989      3758      3824      3825
 -1      1895    8    0    1
 -2       897       989       915      3825      3826      3574
 -1      1896    8    0    1
 -2       896       830       919      3596      3595      3827
 -1      1897    8    0    1
 -2       914       908       981      3572      3828      3788
 -1      1898    8    0    1
 -2       908       907       985      3823      3805      3829
 -1      1899    8    0    1
 -2       981       908       985      3828      3829      3830
 -1      1900    8    0    1
 -2       906       822       990      3535      3831      3832
 -1      1901    8    0    1
 -2       822       915       990      3576      3833      3831
 -1      1902    8    0    1
 -2       899       896       919      3539      3827      3783
 -1      1903    8    0    1
 -2       898       901       983      3516      3834      3798
 -1      1904    8    0    1
 -2       921       920       906      3602      3793      3835
 -1      1905    8    0    1
 -2       953       981       985      3787      3830      3836
 -1      1906    8    0    1
 -2       921       906       990      3835      3832      3837
 -1      1907    8    0    1
 -2       953       985       912      3836      3815      3838
 -1      1908    8    0    1
 -2       902       904       991      3813      3839      3840
 -1      1909    8    0    1
 -2       987       902       991      3818      3840      3841
 -1      1910    8    0    1
 -2       904       982       991      3790      3842      3839
 -1      1911    8    0    1
 -2       911       949       988      3802      3843      3821
 -1      1912    8    0    1
 -2       983       901       919      3834      3784      3799
 -1      1913    8    0    1
 -2       922       921       990      3605      3837      3844
 -1      1914    8    0    1
 -2       924       923       992      3611      3845      3846
 -1      1915    8    0    1
 -2       925       924       993      3614      3847      3848
 -1      1916    8    0    1
 -2       924       992       993      3846      3849      3847
 -1      1917    8    0    1
 -2       926       925       994      3617      3850      3851
 -1      1918    8    0    1
 -2       925       993       994      3848      3852      3850
 -1      1919    8    0    1
 -2       927       926       995      3620      3853      3854
 -1      1920    8    0    1
 -2       926       994       995      3851      3855      3853
 -1      1921    8    0    1
 -2       928       927       996      3623      3856      3857
 -1      1922    8    0    1
 -2       927       995       996      3854      3858      3856
 -1      1923    8    0    1
 -2       929       928       997      3626      3859      3860
 -1      1924    8    0    1
 -2       928       996       997      3857      3861      3859
 -1      1925    8    0    1
 -2       930       929       998      3629      3862      3863
 -1      1926    8    0    1
 -2       929       997       998      3860      3864      3862
 -1      1927    8    0    1
 -2       931       930       999      3632      3865      3866
 -1      1928    8    0    1
 -2       930       998       999      3863      3867      3865
 -1      1929    8    0    1
 -2       932       931      1000      3635      3868      3869
 -1      1930    8    0    1
 -2       931       999      1000      3866      3870      3868
 -1      1931    8    0    1
 -2       933       932      1001      3638      3871      3872
 -1      1932    8    0    1
 -2       932      1000      1001      3869      3873      3871
 -1      1933    8    0    1
 -2       934       933      1002      3641      3874      3875
 -1      1934    8    0    1
 -2       933      1001      1002      3872      3876      3874
 -1      1935    8    0    1
 -2       935       934      1003      3644      3877      3878
 -1      1936    8    0    1
 -2       934      1002      1003      3875      3879      3877
 -1      1937    8    0    1
 -2       936       935      1004      3647      3880      3881
 -1      1938    8    0    1
 -2       935      1003      1004      3878      3882      3880
 -1      1939    8    0    1
 -2       937       936      1005      3650      3883      3884
 -1      1940    8    0    1
 -2       936      1004      1005      3881      3885      3883
 -1      1941    8    0    1
 -2       938       937      1006      3653      3886      3887
 -1      1942    8    0    1
 -2       937      1005      1006      3884      3888      3886
 -1      1943    8    0    1
 -2       939       938      1007      3656      3889      3890
 -1      1944    8    0    1
 -2       938      1006      1007      3887      3891      3889
 -1      1945    8    0    1
 -2       940       939      1008      3659      3892      3893
 -1      1946    8    0    1
 -2       939      1007      1008      3890      3894      3892
 -1      1947    8    0    1
 -2       941       940      1009      3662      3895      3896
 -1      1948    8    0    1
 -2       940      1008      1009      3893      3897      3895
 -1      1949    8    0    1
 -2       942       941      1010      3665      3898      3899
 -1      1950    8    0    1
 -2       941      1009      1010      3896      3900      3898
 -1      1951    8    0    1
 -2       943       942      1011      3668      3901      3902
 -1      1952    8    0    1
 -2       942      1010      1011      3899      3903      3901
 -1      1953    8    0    1
 -2       944       943      1012      3671      3904      3905
 -1      1954    8    0    1
 -2       943      1011      1012      3902      3906      3904
 -1      1955    8    0    1
 -2       945       944      1013      3674      3907      3908
 -1      1956    8    0    1
 -2       944      1012      1013      3905      3909      3907
 -1      1957    8    0    1
 -2       946       945      1014      3677      3910      3911
 -1      1958    8    0    1
 -2       945      1013      1014      3908      3912      3910
 -1      1959    8    0    1
 -2       947       946      1015      3680      3913      3914
 -1      1960    8    0    1
 -2       946      1014      1015      3911      3915      3913
 -1      1961    8    0    1
 -2       948       947      1016      3683      3916      3917
 -1      1962    8    0    1
 -2       947      1015      1016      3914      3918      3916
 -1      1963    8    0    1
 -2       949       948      1017      3686      3919      3920
 -1      1964    8    0    1
 -2       988       949      1017      3843      3920      3921
 -1      1965    8    0    1
 -2       948      1016      1017      3917      3922      3919
 -1      1966    8    0    1
 -2       956       957      1018      3707      3923      3924
 -1      1967    8    0    1
 -2       909       816       803      3546      3261      3587
 -1      1968    8    0    1
 -2       950       956      1019      3704      3925      3926
 -1      1969    8    0    1
 -2       956      1018      1019      3924      3927      3925
 -1      1970    8    0    1
 -2       917       978       977      3792      3928      3929
 -1      1971    8    0    1
 -2       957       958      1020      3710      3930      3931
 -1      1972    8    0    1
 -2       957      1020      1018      3931      3932      3923
 -1      1973    8    0    1
 -2       958       959      1021      3713      3933      3934
 -1      1974    8    0    1
 -2       958      1021      1020      3934      3935      3930
 -1      1975    8    0    1
 -2       959       960      1022      3716      3936      3937
 -1      1976    8    0    1
 -2       959      1022      1021      3937      3938      3933
 -1      1977    8    0    1
 -2       960       961      1023      3719      3939      3940
 -1      1978    8    0    1
 -2       960      1023      1022      3940      3941      3936
 -1      1979    8    0    1
 -2       961       962      1024      3722      3942      3943
 -1      1980    8    0    1
 -2       961      1024      1023      3943      3944      3939
 -1      1981    8    0    1
 -2       962       963      1025      3725      3945      3946
 -1      1982    8    0    1
 -2       962      1025      1024      3946      3947      3942
 -1      1983    8    0    1
 -2       963       964      1026      3728      3948      3949
 -1      1984    8    0    1
 -2       963      1026      1025      3949      3950      3945
 -1      1985    8    0    1
 -2       964       965      1027      3731      3951      3952
 -1      1986    8    0    1
 -2       964      1027      1026      3952      3953      3948
 -1      1987    8    0    1
 -2       965       966      1028      3734      3954      3955
 -1      1988    8    0    1
 -2       965      1028      1027      3955      3956      3951
 -1      1989    8    0    1
 -2       966       967      1029      3737      3957      3958
 -1      1990    8    0    1
 -2       966      1029      1028      3958      3959      3954
 -1      1991    8    0    1
 -2       967       968      1030      3740      3960      3961
 -1      1992    8    0    1
 -2       967      1030      1029      3961      3962      3957
 -1      1993    8    0    1
 -2       968       969      1031      3743      3963      3964
 -1      1994    8    0    1
 -2       968      1031      1030      3964      3965      3960
 -1      1995    8    0    1
 -2       969       970      1032      3746      3966      3967
 -1      1996    8    0    1
 -2       969      1032      1031      3967      3968      3963
 -1      1997    8    0    1
 -2       970       971      1033      3749      3969      3970
 -1      1998    8    0    1
 -2       970      1033      1032      3970      3971      3966
 -1      1999    8    0    1
 -2       952       814       907      3754      3537      3822
 -1      2000    8    0    1
 -2       975       974      1034      3764      3972      3973
 -1      2001    8    0    1
 -2       912       977       978      3811      3928      3974
 -1      2002    8    0    1
 -2       973       951      1035      3759      3975      3976
 -1      2003    8    0    1
 -2       951       976      1035      3767      3977      3975
 -1      2004    8    0    1
 -2       972       903       986      3810      3808      3978
 -1      2005    8    0    1
 -2       954       979      1036      3809      3979      3980
 -1      2006    8    0    1
 -2       978       953       912      3774      3838      3974
 -1      2007    8    0    1
 -2       977       888       918      3770      3782      3981
 -1      2008    8    0    1
 -2       979       950      1037      3777      3982      3983
 -1      2009    8    0    1
 -2      1036       979      1037      3979      3983      3984
 -1      2010    8    0    1
 -2       950      1019      1037      3926      3985      3982
 -1      2011    8    0    1
 -2       955       954      1038      3701      3986      3987
 -1      2012    8    0    1
 -2       954      1036      1038      3980      3988      3986
 -1      2013    8    0    1
 -2       918       917       977      3593      3929      3981
 -1      2014    8    0    1
 -2       986       980      1039      3806      3989      3990
 -1      2015    8    0    1
 -2       974       987      1040      3817      3991      3992
 -1      2016    8    0    1
 -2       974      1040      1034      3992      3993      3972
 -1      2017    8    0    1
 -2       923       922      1041      3608      3994      3995
 -1      2018    8    0    1
 -2       972       986      1042      3978      3996      3997
 -1      2019    8    0    1
 -2       971       972      1042      3752      3997      3998
 -1      2020    8    0    1
 -2       986      1039      1042      3990      3999      3996
 -1      2021    8    0    1
 -2       982       955      1043      3791      4000      4001
 -1      2022    8    0    1
 -2       955      1038      1043      3987      4002      4000
 -1      2023    8    0    1
 -2       973      1035       989      3976      4003      3824
 -1      2024    8    0    1
 -2      1033       971      1042      3969      3998      4004
 -1      2025    8    0    1
 -2       915       989      1044      3826      4005      4006
 -1      2026    8    0    1
 -2       915      1044       990      4006      4007      3833
 -1      2027    8    0    1
 -2       976       975      1045      3768      4008      4009
 -1      2028    8    0    1
 -2      1035       976      1045      3977      4009      4010
 -1      2029    8    0    1
 -2       975      1034      1045      3973      4011      4008
 -1      2030    8    0    1
 -2       980       988      1046      3820      4012      4013
 -1      2031    8    0    1
 -2      1039       980      1046      3989      4013      4014
 -1      2032    8    0    1
 -2       988      1017      1046      3921      4015      4012
 -1      2033    8    0    1
 -2       923      1041       992      3995      4016      3845
 -1      2034    8    0    1
 -2      1041       922       990      3994      3844      4017
 -1      2035    8    0    1
 -2      1041       990      1044      4017      4007      4018
 -1      2036    8    0    1
 -2       992      1041      1047      4016      4019      4020
 -1      2037    8    0    1
 -2      1041      1044      1047      4018      4021      4019
 -1      2038    8    0    1
 -2       994       993      1048      3852      4022      4023
 -1      2039    8    0    1
 -2       995       994      1049      3855      4024      4025
 -1      2040    8    0    1
 -2       994      1048      1049      4023      4026      4024
 -1      2041    8    0    1
 -2       996       995      1050      3858      4027      4028
 -1      2042    8    0    1
 -2       995      1049      1050      4025      4029      4027
 -1      2043    8    0    1
 -2       997       996      1051      3861      4030      4031
 -1      2044    8    0    1
 -2       996      1050      1051      4028      4032      4030
 -1      2045    8    0    1
 -2       998       997      1052      3864      4033      4034
 -1      2046    8    0    1
 -2       997      1051      1052      4031      4035      4033
 -1      2047    8    0    1
 -2       999       998      1053      3867      4036      4037
 -1      2048    8    0    1
 -2       998      1052      1053      4034      4038      4036
 -1      2049    8    0    1
 -2      1000       999      1054      3870      4039      4040
 -1      2050    8    0    1
 -2       999      1053      1054      4037      4041      4039
 -1      2051    8    0    1
 -2      1001      1000      1055      3873      4042      4043
 -1      2052    8    0    1
 -2      1000      1054      1055      4040      4044      4042
 -1      2053    8    0    1
 -2      1002      1001      1056      3876      4045      4046
 -1      2054    8    0    1
 -2      1001      1055      1056      4043      4047      4045
 -1      2055    8    0    1
 -2      1003      1002      1057      3879      4048      4049
 -1      2056    8    0    1
 -2      1002      1056      1057      4046      4050      4048
 -1      2057    8    0    1
 -2      1004      1003      1058      3882      4051      4052
 -1      2058    8    0    1
 -2      1003      1057      1058      4049      4053      4051
 -1      2059    8    0    1
 -2      1005      1004      1059      3885      4054      4055
 -1      2060    8    0    1
 -2      1004      1058      1059      4052      4056      4054
 -1      2061    8    0    1
 -2      1006      1005      1060      3888      4057      4058
 -1      2062    8    0    1
 -2      1005      1059      1060      4055      4059      4057
 -1      2063    8    0    1
 -2      1007      1006      1061      3891      4060      4061
 -1      2064    8    0    1
 -2      1006      1060      1061      4058      4062      4060
 -1      2065    8    0    1
 -2      1008      1007      1062      3894      4063      4064
 -1      2066    8    0    1
 -2      1007      1061      1062      4061      4065      4063
 -1      2067    8    0    1
 -2      1009      1008      1063      3897      4066      4067
 -1      2068    8    0    1
 -2      1008      1062      1063      4064      4068      4066
 -1      2069    8    0    1
 -2      1010      1009      1064      3900      4069      4070
 -1      2070    8    0    1
 -2      1009      1063      1064      4067      4071      4069
 -1      2071    8    0    1
 -2      1011      1010      1065      3903      4072      4073
 -1      2072    8    0    1
 -2      1010      1064      1065      4070      4074      4072
 -1      2073    8    0    1
 -2      1012      1011      1066      3906      4075      4076
 -1      2074    8    0    1
 -2      1011      1065      1066      4073      4077      4075
 -1      2075    8    0    1
 -2      1013      1012      1067      3909      4078      4079
 -1      2076    8    0    1
 -2      1012      1066      1067      4076      4080      4078
 -1      2077    8    0    1
 -2      1014      1013      1068      3912      4081      4082
 -1      2078    8    0    1
 -2      1013      1067      1068      4079      4083      4081
 -1      2079    8    0    1
 -2      1015      1014      1069      3915      4084      4085
 -1      2080    8    0    1
 -2      1014      1068      1069      4082      4086      4084
 -1      2081    8    0    1
 -2      1016      1015      1070      3918      4087      4088
 -1      2082    8    0    1
 -2      1015      1069      1070      4085      4089      4087
 -1      2083    8    0    1
 -2      1021      1022      1071      3938      4090      4091
 -1      2084    8    0    1
 -2      1042      1039      1072      3999      4092      4093
 -1      2085    8    0    1
 -2      1042      1072      1033      4093      4094      4004
 -1      2086    8    0    1
 -2      1020      1021      1073      3935      4095      4096
 -1      2087    8    0    1
 -2      1021      1071      1073      4091      4097      4095
 -1      2088    8    0    1
 -2      1018      1020      1074      3932      4098      4099
 -1      2089    8    0    1
 -2      1020      1073      1074      4096      4100      4098
 -1      2090    8    0    1
 -2      1019      1018      1075      3927      4101      4102
 -1      2091    8    0    1
 -2      1018      1074      1075      4099      4103      4101
 -1      2092    8    0    1
 -2      1022      1023      1076      3941      4104      4105
 -1      2093    8    0    1
 -2      1022      1076      1071      4105      4106      4090
 -1      2094    8    0    1
 -2      1023      1024      1077      3944      4107      4108
 -1      2095    8    0    1
 -2      1023      1077      1076      4108      4109      4104
 -1      2096    8    0    1
 -2      1024      1025      1078      3947      4110      4111
 -1      2097    8    0    1
 -2      1024      1078      1077      4111      4112      4107
 -1      2098    8    0    1
 -2      1025      1026      1079      3950      4113      4114
 -1      2099    8    0    1
 -2      1025      1079      1078      4114      4115      4110
 -1      2100    8    0    1
 -2      1026      1027      1080      3953      4116      4117
 -1      2101    8    0    1
 -2      1026      1080      1079      4117      4118      4113
 -1      2102    8    0    1
 -2      1027      1028      1081      3956      4119      4120
 -1      2103    8    0    1
 -2      1027      1081      1080      4120      4121      4116
 -1      2104    8    0    1
 -2      1028      1029      1082      3959      4122      4123
 -1      2105    8    0    1
 -2      1028      1082      1081      4123      4124      4119
 -1      2106    8    0    1
 -2      1029      1030      1083      3962      4125      4126
 -1      2107    8    0    1
 -2      1029      1083      1082      4126      4127      4122
 -1      2108    8    0    1
 -2      1030      1031      1084      3965      4128      4129
 -1      2109    8    0    1
 -2      1030      1084      1083      4129      4130      4125
 -1      2110    8    0    1
 -2      1031      1032      1085      3968      4131      4132
 -1      2111    8    0    1
 -2      1031      1085      1084      4132      4133      4128
 -1      2112    8    0    1
 -2      1032      1033      1086      3971      4134      4135
 -1      2113    8    0    1
 -2      1085      1032      1086      4131      4135      4136
 -1      2114    8    0    1
 -2      1033      1072      1086      4094      4137      4134
 -1      2115    8    0    1
 -2      1038      1036      1087      3988      4138      4139
 -1      2116    8    0    1
 -2       989      1035      1088      4003      4140      4141
 -1      2117    8    0    1
 -2       993       992      1089      3849      4142      4143
 -1      2118    8    0    1
 -2      1048       993      1089      4022      4143      4144
 -1      2119    8    0    1
 -2       992      1047      1089      4020      4145      4142
 -1      2120    8    0    1
 -2      1040       987      1090      3991      4146      4147
 -1      2121    8    0    1
 -2       987       991      1090      3841      4148      4146
 -1      2122    8    0    1
 -2       991       982      1091      3842      4149      4150
 -1      2123    8    0    1
 -2      1090       991      1091      4148      4150      4151
 -1      2124    8    0    1
 -2       982      1043      1091      4001      4152      4149
 -1      2125    8    0    1
 -2      1034      1040      1092      3993      4153      4154
 -1      2126    8    0    1
 -2      1017      1016      1093      3922      4155      4156
 -1      2127    8    0    1
 -2      1046      1017      1093      4015      4156      4157
 -1      2128    8    0    1
 -2      1016      1070      1093      4088      4158      4155
 -1      2129    8    0    1
 -2      1038      1087      1094      4139      4159      4160
 -1      2130    8    0    1
 -2      1038      1094      1043      4160      4161      4002
 -1      2131    8    0    1
 -2      1087      1036      1095      4138      4162      4163
 -1      2132    8    0    1
 -2      1036      1037      1095      3984      4164      4162
 -1      2133    8    0    1
 -2      1088      1035      1045      4140      4010      4165
 -1      2134    8    0    1
 -2      1044       989      1047      4005      4166      4021
 -1      2135    8    0    1
 -2      1034      1092      1096      4154      4167      4168
 -1      2136    8    0    1
 -2      1034      1096      1045      4168      4169      4011
 -1      2137    8    0    1
 -2       989      1088      1047      4141      4170      4166
 -1      2138    8    0    1
 -2      1039      1046      1097      4014      4171      4172
 -1      2139    8    0    1
 -2      1072      1039      1097      4092      4172      4173
 -1      2140    8    0    1
 -2      1046      1093      1097      4157      4174      4171
 -1      2141    8    0    1
 -2      1037      1019      1098      3985      4175      4176
 -1      2142    8    0    1
 -2      1019      1075      1098      4102      4177      4175
 -1      2143    8    0    1
 -2      1049      1048      1092      4026      4178      4179
 -1      2144    8    0    1
 -2      1092      1040      1099      4153      4180      4181
 -1      2145    8    0    1
 -2      1040      1090      1099      4147      4182      4180
 -1      2146    8    0    1
 -2      1071      1076      1060      4106      4183      4184
 -1      2147    8    0    1
 -2      1050      1049      1099      4029      4185      4186
 -1      2148    8    0    1
 -2      1052      1051      1100      4035      4187      4188
 -1      2149    8    0    1
 -2      1053      1052      1094      4038      4189      4190
 -1      2150    8    0    1
 -2      1054      1053      1087      4041      4191      4192
 -1      2151    8    0    1
 -2      1055      1054      1095      4044      4193      4194
 -1      2152    8    0    1
 -2      1056      1055      1098      4047      4195      4196
 -1      2153    8    0    1
 -2      1057      1056      1075      4050      4197      4198
 -1      2154    8    0    1
 -2      1058      1057      1074      4053      4199      4200
 -1      2155    8    0    1
 -2      1059      1058      1073      4056      4201      4202
 -1      2156    8    0    1
 -2      1060      1059      1071      4059      4203      4184
 -1      2157    8    0    1
 -2      1061      1060      1076      4062      4183      4204
 -1      2158    8    0    1
 -2      1062      1061      1077      4065      4205      4206
 -1      2159    8    0    1
 -2      1063      1062      1078      4068      4207      4208
 -1      2160    8    0    1
 -2      1064      1063      1079      4071      4209      4210
 -1      2161    8    0    1
 -2      1065      1064      1080      4074      4211      4212
 -1      2162    8    0    1
 -2      1066      1065      1081      4077      4213      4214
 -1      2163    8    0    1
 -2      1067      1066      1082      4080      4215      4216
 -1      2164    8    0    1
 -2      1068      1067      1083      4083      4217      4218
 -1      2165    8    0    1
 -2      1069      1068      1084      4086      4219      4220
 -1      2166    8    0    1
 -2      1070      1069      1085      4089      4221      4222
 -1      2167    8    0    1
 -2      1076      1077      1061      4109      4205      4204
 -1      2168    8    0    1
 -2      1087      1053      1094      4191      4190      4159
 -1      2169    8    0    1
 -2      1079      1063      1078      4209      4208      4115
 -1      2170    8    0    1
 -2      1073      1071      1059      4097      4203      4202
 -1      2171    8    0    1
 -2      1073      1058      1074      4201      4200      4100
 -1      2172    8    0    1
 -2      1074      1057      1075      4199      4198      4103
 -1      2173    8    0    1
 -2      1077      1078      1062      4112      4207      4206
 -1      2174    8    0    1
 -2      1079      1080      1064      4118      4211      4210
 -1      2175    8    0    1
 -2      1080      1081      1065      4121      4213      4212
 -1      2176    8    0    1
 -2      1081      1082      1066      4124      4215      4214
 -1      2177    8    0    1
 -2      1082      1083      1067      4127      4217      4216
 -1      2178    8    0    1
 -2      1083      1084      1068      4130      4219      4218
 -1      2179    8    0    1
 -2      1084      1085      1069      4133      4221      4220
 -1      2180    8    0    1
 -2      1047      1088      1089      4170      4223      4145
 -1      2181    8    0    1
 -2      1075      1056      1098      4197      4196      4177
 -1      2182    8    0    1
 -2      1092      1048      1096      4178      4224      4167
 -1      2183    8    0    1
 -2      1049      1092      1099      4179      4181      4185
 -1      2184    8    0    1
 -2      1088      1045      1096      4165      4169      4225
 -1      2185    8    0    1
 -2      1054      1087      1095      4192      4163      4193
 -1      2186    8    0    1
 -2      1070      1085      1086      4222      4136      4226
 -1      2187    8    0    1
 -2      1091      1043      1100      4152      4227      4228
 -1      2188    8    0    1
 -2      1093      1070      1086      4158      4226      4229
 -1      2189    8    0    1
 -2      1037      1098      1095      4176      4230      4164
 -1      2190    8    0    1
 -2      1050      1099      1101      4186      4231      4232
 -1      2191    8    0    1
 -2      1052      1100      1094      4188      4233      4189
 -1      2192    8    0    1
 -2      1051      1050      1101      4032      4232      4234
 -1      2193    8    0    1
 -2      1055      1095      1098      4194      4230      4195
 -1      2194    8    0    1
 -2      1089      1088      1096      4223      4225      4235
 -1      2195    8    0    1
 -2      1100      1043      1094      4227      4161      4233
 -1      2196    8    0    1
 -2      1051      1101      1100      4234      4236      4187
 -1      2197    8    0    1
 -2      1048      1089      1096      4144      4235      4224
 -1      2198    8    0    1
 -2      1101      1099      1090      4231      4182      4237
 -1      2199    8    0    1
 -2      1100      1101      1091      4236      4238      4228
 -1      2200    8    0    1
 -2      1086      1072      1097      4137      4173      4239
 -1      2201    8    0    1
 -2      1091      1101      1090      4238      4237      4151
 -1      2202    8    0    1
 -2      1093      1086      1097      4229      4239      4174
 -3
    1PSTEP                         1           1           1          
  100CL  101 1.000000000        4239                     0    1           1
 -4  DISP        4    1
 -5  D1          1    2    1    0
 -5  D2          1    2    2    0
 -5  D3          1    2    3    0
 -5  ALL         1    2    0    0    1ALL
 -1         1 3.72768E-03 5.94493E-05-8.02449E-15
 -1         2 6.52950E-03 1.14040E-03-1.08552E-14
 -1         3 1.70519E-02 8.66426E-03-1.44095E-13
 -1         4 1.36674E-02 7.23556E-03-1.64724E-13
 -1         5 0.00000E+00 0.00000E+00 0.00000E+00
 -1         6 0.00000E+00 0.00000E+00 0.00000E+00
 -1         7 0.00000E+00 0.00000E+00 0.00000E+00
 -1         8 0.00000E+00 0.00000E+00 0.00000E+00
 -1         9 0.00000E+00 0.00000E+00 0.00000E+00
 -1        10 0.00000E+00 0.00000E+00 0.00000E+00
 -1        11 0.00000E+00 0.00000E+00 0.00000E+00
 -1        12 0.00000E+00 0.00000E+00 0.00000E+00
 -1        13 0.00000E+00 0.00000E+00 0.00000E+00
 -1        14 0.00000E+00 0.00000E+00 0.00000E+00
 -1        15 0.00000E+00 0.00000E+00 0.00000E+00
 -1        16 0.00000E+00 0.00000E+00 0.00000E+00
 -1        17 0.00000E+00 0.00000E+00 0.00000E+00
 -1        18 0.00000E+00 0.00000E+00 0.00000E+00
 -1        19 0.00000E+00 0.00000E+00 0.00000E+00
 -1        20 0.00000E+00 0.00000E+00 0.00000E+00
 -1        21 0.00000E+00 0.00000E+00 0.00000E+00
 -1        22 0.00000E+00 0.00000E+00 0.00000E+00
 -1        23 4.16590E-04-2.67285E-04-1.79605E-17
 -1        24 7.09826E-04-4.13563E-04-2.62882E-16
 -1        25 9.77871E-04-5.17060E-04-7.19534E-16
 -1        26 1.23580E-03-5.91591E-04-1.37715E-15
 -1        27 1.48617E-03-6.44864E-04-2.22768E-15
 -1        28 1.72890E-03-6.79450E-04-3.26495E-15
 -1        29 1.96328E-03-6.94913E-04-4.48246E-15
 -1        30 2.18903E-03-6.88799E-04-5.87697E-15
 -1        31 2.40710E-03-6.57671E-04-7.44491E-15
 -1        32 2.61993E-03-5.98275E-04-9.18314E-15
 -1        33 2.83129E-03-5.08689E-04-1.10867E-14
 -1        34 3.04559E-03-3.89132E-04-1.31452E-14
 -1        35 3.26698E-03-2.42177E-04-1.53559E-14
 -1        36 3.49851E-03-7.23165E-05-1.77128E-14
 -1        37 3.74167E-03 1.14924E-04-2.02073E-14
 -1        38 3.99639E-03 3.13964E-04-2.28332E-14
 -1        39 4.26138E-03 5.19947E-04-2.55838E-14
 -1        40 4.53468E-03 7.29160E-04-2.84567E-14
 -1        41 4.81411E-03 9.39107E-04-3.14425E-14
 -1        42 5.09769E-03 1.14835E-03-3.45429E-14
 -1        43 5.38379E-03 1.35624E-03-3.77621E-14
 -1        44 5.67120E-03 1.56265E-03-4.10993E-14
 -1        45 5.95912E-03 1.76772E-03-4.45559E-14
 -1        46 6.24705E-03 1.97173E-03-4.81282E-14
 -1        47 6.53472E-03 2.17497E-03-5.18021E-14
 -1        48 6.82202E-03 2.37772E-03-5.55748E-14
 -1        49 7.10894E-03 2.58018E-03-5.94474E-14
 -1        50 7.39551E-03 2.78252E-03-6.34110E-14
 -1        51 7.68179E-03 2.98483E-03-6.74603E-14
 -1        52 7.96785E-03 3.18719E-03-7.15953E-14
 -1        53 8.25375E-03 3.38963E-03-7.58023E-14
 -1        54 8.53953E-03 3.59217E-03-8.00776E-14
 -1        55 8.82523E-03 3.79480E-03-8.44170E-14
 -1        56 9.11089E-03 3.99752E-03-8.88061E-14
 -1        57 9.39652E-03 4.20032E-03-9.32377E-14
 -1        58 9.68215E-03 4.40318E-03-9.77144E-14
 -1        59 9.96777E-03 4.60610E-03-1.02235E-13
 -1        60 1.02534E-02 4.80906E-03-1.06810E-13
 -1        61 1.05390E-02 5.01206E-03-1.11433E-13
 -1        62 1.08247E-02 5.21508E-03-1.16112E-13
 -1        63 1.11104E-02 5.41812E-03-1.20859E-13
 -1        64 1.13960E-02 5.62117E-03-1.25656E-13
 -1        65 1.16817E-02 5.82423E-03-1.30485E-13
 -1        66 1.19674E-02 6.02730E-03-1.35360E-13
 -1        67 1.22531E-02 6.23037E-03-1.40266E-13
 -1        68 1.25388E-02 6.43344E-03-1.45173E-13
 -1        69 1.28245E-02 6.63651E-03-1.50090E-13
 -1        70 1.31102E-02 6.83958E-03-1.55031E-13
 -1        71 1.33959E-02 7.04265E-03-1.60001E-13
 -1        72 4.33713E-04 2.44546E-04 1.13604E-16
 -1        73 7.63228E-04 3.67954E-04 1.28613E-16
 -1        74 1.09475E-03 4.55202E-04 3.92820E-17
 -1        75 1.44913E-03 5.31608E-04-1.62007E-16
 -1        76 1.84532E-03 6.20497E-04-4.76073E-16
 -1        77 2.30209E-03 7.56698E-04-9.04279E-16
 -1        78 2.82859E-03 9.92857E-04-1.44155E-15
 -1        79 3.39943E-03 1.38786E-03-2.08527E-15
 -1        80 3.85479E-03 1.85154E-03-2.73246E-15
 -1        81 4.18572E-03 2.30640E-03-3.44699E-15
 -1        82 4.40279E-03 2.60992E-03-4.29344E-15
 -1        83 4.55917E-03 2.64404E-03-5.16589E-15
 -1        84 4.82605E-03 2.42475E-03-6.40788E-15
 -1        85 5.25638E-03 2.08958E-03-7.91900E-15
 -1        86 5.83410E-03 1.82495E-03-9.79616E-15
 -1        87 6.40273E-03 1.74180E-03-1.18313E-14
 -1        88 6.90720E-03 1.79855E-03-1.40104E-14
 -1        89 7.34415E-03 1.93694E-03-1.63126E-14
 -1        90 7.72871E-03 2.11666E-03-1.87289E-14
 -1        91 8.07729E-03 2.31532E-03-2.12543E-14
 -1        92 8.40254E-03 2.52174E-03-2.38944E-14
 -1        93 8.71301E-03 2.73072E-03-2.66339E-14
 -1        94 9.01422E-03 2.93999E-03-2.94795E-14
 -1        95 9.30962E-03 3.14865E-03-3.24289E-14
 -1        96 9.60139E-03 3.35645E-03-3.54878E-14
 -1        97 9.89085E-03 3.56340E-03-3.86516E-14
 -1        98 1.01789E-02 3.76958E-03-4.19157E-14
 -1        99 1.04659E-02 3.97512E-03-4.52755E-14
 -1       100 1.07524E-02 4.18014E-03-4.87204E-14
 -1       101 1.10385E-02 4.38475E-03-5.22442E-14
 -1       102 1.13244E-02 4.58901E-03-5.58647E-14
 -1       103 1.16244E-02 4.80320E-03-5.97664E-14
 -1       104 1.19101E-02 5.00698E-03-6.35754E-14
 -1       105 1.21957E-02 5.21058E-03-6.74606E-14
 -1       106 1.24813E-02 5.41406E-03-7.14501E-14
 -1       107 1.27669E-02 5.61744E-03-7.55253E-14
 -1       108 1.30525E-02 5.82073E-03-7.96671E-14
 -1       109 1.33381E-02 6.02396E-03-8.38909E-14
 -1       110 1.36237E-02 6.22715E-03-8.81886E-14
 -1       111 1.39093E-02 6.43030E-03-9.25468E-14
 -1       112 1.41950E-02 6.63343E-03-9.69882E-14
 -1       113 1.44806E-02 6.83653E-03-1.01487E-13
 -1       114 1.47663E-02 7.03963E-03-1.06047E-13
 -1       115 1.50520E-02 7.24271E-03-1.10653E-13
 -1       116 1.53377E-02 7.44579E-03-1.15316E-13
 -1       117 1.56234E-02 7.64887E-03-1.20044E-13
 -1       118 1.59091E-02 7.85194E-03-1.24812E-13
 -1       119 1.61948E-02 8.05502E-03-1.29609E-13
 -1       120 1.64805E-02 8.25810E-03-1.34427E-13
 -1       121 1.67662E-02 8.46118E-03-1.39236E-13
 -1       122 1.68522E-02 8.57998E-03-1.45328E-13
 -1       123 1.66525E-02 8.49569E-03-1.46553E-13
 -1       124 1.64528E-02 8.41140E-03-1.47794E-13
 -1       125 1.62531E-02 8.32711E-03-1.49058E-13
 -1       126 1.60534E-02 8.24282E-03-1.50302E-13
 -1       127 1.58571E-02 8.15995E-03-1.51512E-13
 -1       128 1.56574E-02 8.07565E-03-1.52729E-13
 -1       129 1.54577E-02 7.99135E-03-1.53975E-13
 -1       130 1.52580E-02 7.90704E-03-1.55233E-13
 -1       131 1.50583E-02 7.82274E-03-1.56483E-13
 -1       132 1.48587E-02 7.73844E-03-1.57709E-13
 -1       133 1.46624E-02 7.65557E-03-1.58919E-13
 -1       134 1.44627E-02 7.57128E-03-1.60112E-13
 -1       135 1.42630E-02 7.48699E-03-1.61284E-13
 -1       136 1.40633E-02 7.40270E-03-1.62449E-13
 -1       137 1.38637E-02 7.31841E-03-1.63596E-13
 -1       138 6.57836E-03 1.33710E-03-1.04771E-14
 -1       139 6.51410E-03 1.54568E-03-9.90876E-15
 -1       140 6.32181E-03 1.76507E-03-9.17654E-15
 -1       141 6.00730E-03 1.98725E-03-8.35943E-15
 -1       142 5.62294E-03 2.17486E-03-7.60000E-15
 -1       143 5.09084E-03 2.34022E-03-6.75642E-15
 -1       144 4.50616E-03 2.40535E-03-6.00786E-15
 -1       145 3.88623E-03 2.34501E-03-5.33449E-15
 -1       146 3.26660E-03 2.15668E-03-4.75725E-15
 -1       147 2.71292E-03 1.89230E-03-4.31029E-15
 -1       148 2.27661E-03 1.62109E-03-4.00742E-15
 -1       149 1.92788E-03 1.35501E-03-3.81025E-15
 -1       150 1.66682E-03 1.10187E-03-3.72143E-15
 -1       151 1.50363E-03 8.65405E-04-3.74738E-15
 -1       152 1.45125E-03 6.54174E-04-3.89821E-15
 -1       153 1.50991E-03 4.72412E-04-4.16897E-15
 -1       154 1.67075E-03 3.20749E-04-4.55345E-15
 -1       155 1.94707E-03 1.90731E-04-5.08965E-15
 -1       156 2.28806E-03 1.02097E-04-5.69111E-15
 -1       157 2.72058E-03 4.62695E-05-6.41446E-15
 -1       158 3.23240E-03 3.16294E-05-7.24666E-15
 -1       159 4.19836E-03 1.18752E-04-8.73955E-15
 -1       160 4.67444E-03 2.11665E-04-9.43154E-15
 -1       161 5.10435E-03 3.24196E-04-1.00080E-14
 -1       162 5.50476E-03 4.59484E-04-1.04837E-14
 -1       163 5.85260E-03 6.08872E-04-1.08220E-14
 -1       164 6.16972E-03 7.86164E-04-1.10211E-14
 -1       165 6.38941E-03 9.59461E-04-1.10269E-14
 -1       166 2.42350E-04-1.30307E-04-7.54944E-17
 -1       167 2.28236E-04-9.84422E-05-9.05953E-17
 -1       168 2.24040E-04-7.40983E-05-9.48711E-17
 -1       169 2.22398E-04-5.22474E-05-9.40816E-17
 -1       170 2.21006E-04-3.16887E-05-9.07443E-17
 -1       171 2.18604E-04-1.16010E-05-8.62991E-17
 -1       172 2.14669E-04 6.94274E-06-8.11051E-17
 -1       173 2.09327E-04 2.27602E-05-7.59585E-17
 -1       174 2.03500E-04 3.46649E-05-7.04223E-17
 -1       175 1.98914E-04 4.21327E-05-6.41814E-17
 -1       176 1.97754E-04 4.59724E-05-5.67309E-17
 -1       177 2.01993E-04 4.89558E-05-4.64818E-17
 -1       178 2.12800E-04 5.54013E-05-3.21398E-17
 -1       179 2.30209E-04 7.09504E-05-1.11097E-17
 -1       180 2.55652E-04 1.03109E-04 2.04033E-17
 -1       181 3.21023E-04 1.63728E-04 5.63650E-17
 -1       182 4.71865E-04-2.72872E-04-1.96197E-16
 -1       183 7.70323E-04-3.98083E-04-5.65611E-16
 -1       184 1.05173E-03-4.88001E-04-1.12685E-15
 -1       185 1.32263E-03-5.53405E-04-1.87634E-15
 -1       186 1.58532E-03-5.99210E-04-2.80913E-15
 -1       187 1.84061E-03-6.26503E-04-3.92060E-15
 -1       188 2.08889E-03-6.33645E-04-5.20720E-15
 -1       189 2.33087E-03-6.17304E-04-6.66542E-15
 -1       190 2.56800E-03-5.73648E-04-8.29307E-15
 -1       191 2.80260E-03-4.99657E-04-1.00865E-14
 -1       192 3.03758E-03-3.94260E-04-1.20387E-14
 -1       193 3.27596E-03-2.58939E-04-1.41442E-14
 -1       194 3.52024E-03-9.75799E-05-1.63996E-14
 -1       195 3.77201E-03 8.43151E-05-1.87957E-14
 -1       196 4.03177E-03 2.80715E-04-2.13276E-14
 -1       197 4.29907E-03 4.86055E-04-2.39855E-14
 -1       198 4.57282E-03 6.95874E-04-2.67675E-14
 -1       199 4.85164E-03 9.07042E-04-2.96698E-14
 -1       200 5.13413E-03 1.11767E-03-3.26862E-14
 -1       201 5.41904E-03 1.32683E-03-3.58195E-14
 -1       202 5.70540E-03 1.53426E-03-3.90711E-14
 -1       203 5.99250E-03 1.74008E-03-4.24382E-14
 -1       204 6.27985E-03 1.94458E-03-4.59233E-14
 -1       205 6.56716E-03 2.14811E-03-4.95176E-14
 -1       206 6.85428E-03 2.35099E-03-5.32118E-14
 -1       207 7.14114E-03 2.55349E-03-5.70036E-14
 -1       208 7.42773E-03 2.75579E-03-6.08863E-14
 -1       209 7.71409E-03 2.95804E-03-6.48637E-14
 -1       210 8.00025E-03 3.16032E-03-6.89218E-14
 -1       211 8.28625E-03 3.36268E-03-7.30574E-14
 -1       212 8.57212E-03 3.56514E-03-7.72650E-14
 -1       213 8.85792E-03 3.76770E-03-8.15383E-14
 -1       214 9.14365E-03 3.97037E-03-8.58736E-14
 -1       215 9.42935E-03 4.17312E-03-9.02615E-14
 -1       216 9.71502E-03 4.37595E-03-9.46967E-14
 -1       217 1.00007E-02 4.57884E-03-9.91789E-14
 -1       218 1.02863E-02 4.78179E-03-1.03711E-13
 -1       219 1.05720E-02 4.98477E-03-1.08294E-13
 -1       220 1.08577E-02 5.18778E-03-1.12928E-13
 -1       221 1.11434E-02 5.39081E-03-1.17622E-13
 -1       222 1.14290E-02 5.59386E-03-1.22370E-13
 -1       223 1.17147E-02 5.79692E-03-1.27156E-13
 -1       224 1.20004E-02 5.99999E-03-1.31983E-13
 -1       225 1.22861E-02 6.20306E-03-1.36850E-13
 -1       226 1.25718E-02 6.40613E-03-1.41743E-13
 -1       227 1.28575E-02 6.60920E-03-1.46648E-13
 -1       228 1.31432E-02 6.81227E-03-1.51571E-13
 -1       229 1.34289E-02 7.01534E-03-1.56515E-13
 -1       230 6.60856E-04 2.87292E-04 3.66189E-17
 -1       231 9.95612E-04 3.74712E-04-8.16472E-17
 -1       232 1.33848E-03 4.46254E-04-3.08418E-16
 -1       233 1.70247E-03 5.24262E-04-6.46184E-16
 -1       234 2.09898E-03 6.42043E-04-1.09561E-15
 -1       235 2.53622E-03 8.52458E-04-1.65487E-15
 -1       236 3.01430E-03 1.22286E-03-2.32754E-15
 -1       237 3.44050E-03 1.68476E-03-3.00457E-15
 -1       238 3.83939E-03 2.17116E-03-3.75290E-15
 -1       239 4.22402E-03 2.52509E-03-4.63589E-15
 -1       240 4.55439E-03 2.58750E-03-5.53326E-15
 -1       241 4.96605E-03 2.36115E-03-6.78740E-15
 -1       242 5.42162E-03 1.99944E-03-8.30238E-15
 -1       243 5.92456E-03 1.71793E-03-1.01805E-14
 -1       244 6.39681E-03 1.63266E-03-1.22228E-14
 -1       245 6.82704E-03 1.69348E-03-1.44046E-14
 -1       246 7.21764E-03 1.83739E-03-1.67117E-14
 -1       247 7.57633E-03 2.02211E-03-1.91352E-14
 -1       248 7.91150E-03 2.22471E-03-2.16691E-14
 -1       249 8.23021E-03 2.43404E-03-2.43106E-14
 -1       250 8.53774E-03 2.64506E-03-2.70570E-14
 -1       251 8.83781E-03 2.85574E-03-2.99104E-14
 -1       252 9.13294E-03 3.06538E-03-3.28684E-14
 -1       253 9.42482E-03 3.27384E-03-3.59313E-14
 -1       254 9.71455E-03 3.48124E-03-3.91015E-14
 -1       255 1.00029E-02 3.68773E-03-4.23751E-14
 -1       256 1.02902E-02 3.89349E-03-4.57440E-14
 -1       257 1.05770E-02 4.09866E-03-4.91957E-14
 -1       258 1.08633E-02 4.30336E-03-5.27362E-14
 -1       259 1.11494E-02 4.50770E-03-5.63680E-14
 -1       260 1.14495E-02 4.72194E-03-6.02791E-14
 -1       261 1.17353E-02 4.92575E-03-6.40948E-14
 -1       262 1.20210E-02 5.12938E-03-6.79988E-14
 -1       263 1.23067E-02 5.33287E-03-7.19941E-14
 -1       264 1.25923E-02 5.53625E-03-7.60722E-14
 -1       265 1.28780E-02 5.73955E-03-8.02271E-14
 -1       266 1.31636E-02 5.94279E-03-8.44547E-14
 -1       267 1.34493E-02 6.14597E-03-8.87490E-14
 -1       268 1.37349E-02 6.34913E-03-9.31096E-14
 -1       269 1.40206E-02 6.55225E-03-9.75380E-14
 -1       270 1.43063E-02 6.75536E-03-1.02031E-13
 -1       271 1.45919E-02 6.95845E-03-1.06583E-13
 -1       272 1.48776E-02 7.16153E-03-1.11191E-13
 -1       273 1.51633E-02 7.36461E-03-1.15850E-13
 -1       274 1.54490E-02 7.56769E-03-1.20567E-13
 -1       275 1.57347E-02 7.77076E-03-1.25325E-13
 -1       276 1.60204E-02 7.97384E-03-1.30104E-13
 -1       277 1.63061E-02 8.17692E-03-1.34902E-13
 -1       278 1.65919E-02 8.38000E-03-1.39719E-13
 -1       279 1.65050E-02 8.36196E-03-1.41754E-13
 -1       280 1.63053E-02 8.27768E-03-1.43001E-13
 -1       281 1.61056E-02 8.19339E-03-1.44256E-13
 -1       282 1.59058E-02 8.10909E-03-1.45509E-13
 -1       283 1.57095E-02 8.02623E-03-1.46724E-13
 -1       284 1.55098E-02 7.94193E-03-1.47951E-13
 -1       285 1.53101E-02 7.85763E-03-1.49183E-13
 -1       286 1.51104E-02 7.77333E-03-1.50410E-13
 -1       287 1.49108E-02 7.68903E-03-1.51642E-13
 -1       288 1.47111E-02 7.60474E-03-1.52859E-13
 -1       289 1.45148E-02 7.52187E-03-1.54051E-13
 -1       290 1.43151E-02 7.43757E-03-1.55243E-13
 -1       291 1.41154E-02 7.35328E-03-1.56412E-13
 -1       292 1.39158E-02 7.26899E-03-1.57570E-13
 -1       293 1.36723E-02 7.14217E-03-1.57048E-13
 -1       294 6.60188E-03 1.25983E-03-1.15606E-14
 -1       295 6.56516E-03 1.37024E-03-1.09138E-14
 -1       296 6.36225E-03 1.50614E-03-1.02191E-14
 -1       297 6.02870E-03 1.72929E-03-9.16610E-15
 -1       298 5.62846E-03 1.98943E-03-8.16832E-15
 -1       299 5.16146E-03 2.25918E-03-7.19610E-15
 -1       300 4.70881E-03 2.46288E-03-6.24591E-15
 -1       301 4.26029E-03 2.50077E-03-5.39500E-15
 -1       302 3.79004E-03 2.31068E-03-4.69348E-15
 -1       303 3.24957E-03 1.96447E-03-4.19179E-15
 -1       304 2.73993E-03 1.59600E-03-3.80928E-15
 -1       305 2.27623E-03 1.27645E-03-3.56340E-15
 -1       306 1.88007E-03 1.02248E-03-3.42857E-15
 -1       307 1.58756E-03 8.34907E-04-3.40544E-15
 -1       308 1.43604E-03 6.96176E-04-3.47916E-15
 -1       309 1.44655E-03 5.95755E-04-3.72022E-15
 -1       310 1.60278E-03 4.96755E-04-4.04101E-15
 -1       311 1.89151E-03 3.83575E-04-4.49301E-15
 -1       312 2.24250E-03 2.32386E-04-5.16645E-15
 -1       313 2.64891E-03 9.91323E-05-5.88349E-15
 -1       314 3.08004E-03-1.42368E-05-6.78285E-15
 -1       315 3.48795E-03-4.11160E-05-7.74238E-15
 -1       316 3.87947E-03 1.29235E-05-8.62609E-15
 -1       317 4.26062E-03 1.33188E-04-9.53470E-15
 -1       318 4.68706E-03 3.09114E-04-1.02622E-14
 -1       319 5.10231E-03 5.06173E-04-1.09221E-14
 -1       320 5.51475E-03 7.04747E-04-1.14407E-14
 -1       321 5.90562E-03 9.08233E-04-1.19127E-14
 -1       322 6.25501E-03 1.04168E-03-1.19345E-14
 -1       323 6.48713E-03 1.15696E-03-1.18409E-14
 -1       324 4.64281E-04-1.70595E-04-3.19630E-16
 -1       325 4.79280E-04-2.22145E-04-3.02367E-16
 -1       326 4.55594E-04-8.46207E-05-3.15245E-16
 -1       327 4.51693E-04-4.46821E-05-3.03997E-16
 -1       328 4.44661E-04-6.74158E-06-2.90031E-16
 -1       329 4.33746E-04 2.76485E-05-2.74415E-16
 -1       330 4.19901E-04 5.63260E-05-2.57583E-16
 -1       331 4.06147E-04 7.75026E-05-2.38894E-16
 -1       332 3.97466E-04 9.09196E-05-2.17643E-16
 -1       333 3.99117E-04 9.98558E-05-1.91687E-16
 -1       334 4.15747E-04 1.10240E-04-1.58524E-16
 -1       335 4.48841E-04 1.31068E-04-1.14322E-16
 -1       336 4.97971E-04 1.72269E-04-5.47929E-17
 -1       337 5.72887E-04 2.23723E-04-1.70491E-17
 -1       338 8.94385E-04 3.11256E-04-1.55380E-16
 -1       339 8.70297E-04-3.75975E-04-8.82273E-16
 -1       340 1.15687E-03-4.52372E-04-1.53753E-15
 -1       341 1.43702E-03-5.08529E-04-2.37155E-15
 -1       342 1.71111E-03-5.46736E-04-3.38079E-15
 -1       343 1.97926E-03-5.66368E-04-4.56231E-15
 -1       344 2.24166E-03-5.64512E-04-5.91380E-15
 -1       345 2.49900E-03-5.36971E-04-7.43272E-15
 -1       346 2.75274E-03-4.79644E-04-9.11746E-15
 -1       347 3.00512E-03-3.89989E-04-1.09641E-14
 -1       348 3.25875E-03-2.68106E-04-1.29662E-14
 -1       349 3.51600E-03-1.17016E-04-1.51192E-14
 -1       350 3.77848E-03 5.79729E-05-1.74179E-14
 -1       351 4.04677E-03 2.50445E-04-1.98538E-14
 -1       352 4.32061E-03 4.54128E-04-2.24200E-14
 -1       353 4.59910E-03 6.63790E-04-2.51122E-14
 -1       354 4.88112E-03 8.75634E-04-2.79255E-14
 -1       355 5.16560E-03 1.08728E-03-3.08574E-14
 -1       356 5.45162E-03 1.29748E-03-3.39052E-14
 -1       357 5.73849E-03 1.50582E-03-3.70732E-14
 -1       358 6.02572E-03 1.71234E-03-4.03556E-14
 -1       359 6.31301E-03 1.91733E-03-4.37524E-14
 -1       360 6.60019E-03 2.12116E-03-4.72643E-14
 -1       361 6.88717E-03 2.32421E-03-5.08790E-14
 -1       362 7.17391E-03 2.52677E-03-5.45928E-14
 -1       363 7.46043E-03 2.72906E-03-5.83991E-14
 -1       364 7.74675E-03 2.93126E-03-6.22985E-14
 -1       365 8.03290E-03 3.13347E-03-6.62830E-14
 -1       366 8.31892E-03 3.33576E-03-7.03473E-14
 -1       367 8.60482E-03 3.53814E-03-7.44869E-14
 -1       368 8.89065E-03 3.74064E-03-7.86989E-14
 -1       369 9.17643E-03 3.94324E-03-8.29750E-14
 -1       370 9.46217E-03 4.14595E-03-8.73119E-14
 -1       371 9.74788E-03 4.34874E-03-9.17027E-14
 -1       372 1.00336E-02 4.55160E-03-9.61399E-14
 -1       373 1.03193E-02 4.75452E-03-1.00629E-13
 -1       374 1.06049E-02 4.95749E-03-1.05171E-13
 -1       375 1.08906E-02 5.16049E-03-1.09763E-13
 -1       376 1.11763E-02 5.36351E-03-1.14406E-13
 -1       377 1.14620E-02 5.56656E-03-1.19108E-13
 -1       378 1.17477E-02 5.76961E-03-1.23857E-13
 -1       379 1.20334E-02 5.97268E-03-1.28644E-13
 -1       380 1.23191E-02 6.17575E-03-1.33467E-13
 -1       381 1.26048E-02 6.37882E-03-1.38328E-13
 -1       382 1.28905E-02 6.58190E-03-1.43213E-13
 -1       383 1.31762E-02 6.78497E-03-1.48115E-13
 -1       384 1.34243E-02 6.96357E-03-1.52572E-13
 -1       385 1.21697E-03 3.81619E-04-3.99972E-16
 -1       386 1.54634E-03 4.53935E-04-7.54899E-16
 -1       387 1.89004E-03 5.57389E-04-1.22049E-15
 -1       388 2.25942E-03 7.38789E-04-1.79548E-15
 -1       389 2.67404E-03 1.06509E-03-2.48225E-15
 -1       390 3.33857E-03 1.81748E-03-3.65279E-15
 -1       391 5.34892E-03 2.07398E-03-7.91207E-15
 -1       392 5.87989E-03 1.69534E-03-9.75077E-15
 -1       393 6.31094E-03 1.53487E-03-1.17813E-14
 -1       394 6.67085E-03 1.55615E-03-1.39209E-14
 -1       395 7.00398E-03 1.67789E-03-1.61854E-14
 -1       396 7.32350E-03 1.85166E-03-1.85693E-14
 -1       397 7.63460E-03 2.04980E-03-2.10652E-14
 -1       398 7.93943E-03 2.25798E-03-2.36705E-14
 -1       399 8.23935E-03 2.46936E-03-2.63810E-14
 -1       400 8.53543E-03 2.68093E-03-2.92001E-14
 -1       401 8.82859E-03 2.89154E-03-3.21227E-14
 -1       402 9.11958E-03 3.10088E-03-3.51518E-14
 -1       403 9.40900E-03 3.30901E-03-3.82909E-14
 -1       404 9.69728E-03 3.51609E-03-4.15346E-14
 -1       405 9.98476E-03 3.72231E-03-4.48744E-14
 -1       406 1.02717E-02 3.92784E-03-4.83044E-14
 -1       407 1.05582E-02 4.13282E-03-5.18200E-14
 -1       408 1.08444E-02 4.33737E-03-5.54286E-14
 -1       409 1.11447E-02 4.55178E-03-5.93162E-14
 -1       410 1.14306E-02 4.75571E-03-6.31084E-14
 -1       411 1.17164E-02 4.95943E-03-6.69886E-14
 -1       412 1.20021E-02 5.16299E-03-7.09564E-14
 -1       413 1.22878E-02 5.36643E-03-7.50104E-14
 -1       414 1.25735E-02 5.56977E-03-7.91442E-14
 -1       415 1.28592E-02 5.77304E-03-8.33481E-14
 -1       416 1.31449E-02 5.97624E-03-8.76176E-14
 -1       417 1.34305E-02 6.17941E-03-9.19516E-14
 -1       418 1.37162E-02 6.38255E-03-9.63512E-14
 -1       419 1.40019E-02 6.58566E-03-1.00813E-13
 -1       420 1.42876E-02 6.78876E-03-1.05336E-13
 -1       421 1.45733E-02 6.99184E-03-1.09923E-13
 -1       422 1.48590E-02 7.19492E-03-1.14558E-13
 -1       423 1.51447E-02 7.39800E-03-1.19245E-13
 -1       424 1.54304E-02 7.60107E-03-1.23978E-13
 -1       425 1.57161E-02 7.80415E-03-1.28737E-13
 -1       426 1.60018E-02 8.00722E-03-1.33518E-13
 -1       427 1.62534E-02 8.18459E-03-1.37626E-13
 -1       428 1.57583E-02 7.97537E-03-1.40716E-13
 -1       429 1.59580E-02 8.05966E-03-1.39463E-13
 -1       430 1.55619E-02 7.89251E-03-1.41935E-13
 -1       431 1.53622E-02 7.80821E-03-1.43163E-13
 -1       432 1.51625E-02 7.72392E-03-1.44388E-13
 -1       433 1.49629E-02 7.63962E-03-1.45605E-13
 -1       434 1.47632E-02 7.55532E-03-1.46824E-13
 -1       435 1.45635E-02 7.47103E-03-1.48033E-13
 -1       436 1.43672E-02 7.38816E-03-1.49210E-13
 -1       437 1.41675E-02 7.30386E-03-1.50395E-13
 -1       438 1.39678E-02 7.21957E-03-1.51558E-13
 -1       439 1.37682E-02 7.13528E-03-1.52714E-13
 -1       440 6.50390E-03 1.38302E-03-1.14809E-14
 -1       441 6.57508E-03 1.27015E-03-1.28262E-14
 -1       442 6.61780E-03 1.32092E-03-1.21534E-14
 -1       443 6.15315E-03 1.55686E-03-1.01787E-14
 -1       444 5.75735E-03 1.80254E-03-8.94622E-15
 -1       445 4.58387E-04-1.26017E-04-3.21676E-16
 -1       446 2.62958E-03 1.30194E-03-3.31125E-15
 -1       447 2.15241E-03 1.00018E-03-3.12691E-15
 -1       448 1.75861E-03 7.83017E-04-3.01067E-15
 -1       449 1.49776E-03 6.73769E-04-3.06491E-15
 -1       450 1.40082E-03 5.96985E-04-3.15374E-15
 -1       451 1.49113E-03 5.57362E-04-3.49304E-15
 -1       452 1.71916E-03 4.79868E-04-3.82157E-15
 -1       453 2.13160E-03 3.29811E-04-4.54332E-15
 -1       454 2.45945E-03 1.95005E-04-5.18809E-15
 -1       455 2.86946E-03 3.22082E-05-6.14350E-15
 -1       456 3.30724E-03-7.76866E-05-7.41024E-15
 -1       457 3.65130E-03-5.50216E-05-8.39549E-15
 -1       458 3.96045E-03 3.84306E-05-9.36219E-15
 -1       459 4.37296E-03 2.59936E-04-1.06471E-14
 -1       460 4.71121E-03 4.50536E-04-1.13309E-14
 -1       461 5.17938E-03 7.21316E-04-1.22201E-14
 -1       462 5.56575E-03 9.13086E-04-1.27165E-14
 -1       463 6.07662E-03 1.11715E-03-1.30743E-14
 -1       464 6.35124E-03 1.19623E-03-1.29853E-14
 -1       465 4.91254E-03 2.39528E-03-6.66391E-15
 -1       466 2.88169E-03 1.30762E-03-2.93563E-15
 -1       467 9.50393E-04 2.85449E-04-3.97191E-16
 -1       468 6.90202E-04-4.03248E-05-6.30101E-16
 -1       469 6.98206E-04-9.73082E-05-6.54668E-16
 -1       470 6.54175E-04 6.25908E-05-5.67898E-16
 -1       471 6.28561E-04 1.02520E-04-5.32177E-16
 -1       472 6.05950E-04 1.30887E-04-4.92878E-16
 -1       473 5.95351E-04 1.49422E-04-4.46861E-16
 -1       474 6.07264E-04 1.63113E-04-3.91641E-16
 -1       475 6.47774E-04 1.82216E-04-3.23174E-16
 -1       476 1.23273E-03 3.53525E-04-7.39128E-16
 -1       477 9.94355E-04-3.47370E-04-1.21557E-15
 -1       478 7.26593E-04-2.63209E-04-6.96519E-16
 -1       479 1.28590E-03-4.10247E-04-1.95446E-15
 -1       480 1.57501E-03-4.57104E-04-2.86466E-15
 -1       481 1.86041E-03-4.87810E-04-3.94430E-15
 -1       482 2.14112E-03-4.99930E-04-5.19114E-15
 -1       483 2.41665E-03-4.89015E-04-6.60330E-15
 -1       484 2.68745E-03-4.49750E-04-8.18057E-15
 -1       485 2.95516E-03-3.77691E-04-9.92005E-15
 -1       486 3.22234E-03-2.71019E-04-1.18193E-14
 -1       487 3.49172E-03-1.31510E-04-1.38712E-14
 -1       488 3.76527E-03 3.57832E-05-1.60719E-14
 -1       489 4.04376E-03 2.23889E-04-1.84128E-14
 -1       490 4.32675E-03 4.25584E-04-2.08857E-14
 -1       491 4.61311E-03 6.34700E-04-2.34878E-14
 -1       492 4.90152E-03 8.46730E-04-2.62127E-14
 -1       493 5.19083E-03 1.05884E-03-2.90584E-14
 -1       494 5.48026E-03 1.26956E-03-3.20227E-14
 -1       495 5.76936E-03 1.47834E-03-3.51057E-14
 -1       496 6.05793E-03 1.68519E-03-3.83065E-14
 -1       497 6.34593E-03 1.89041E-03-4.16187E-14
 -1       498 6.63342E-03 2.09438E-03-4.50469E-14
 -1       499 6.92046E-03 2.29749E-03-4.85811E-14
 -1       500 7.20715E-03 2.50005E-03-5.22157E-14
 -1       501 7.49358E-03 2.70231E-03-5.59467E-14
 -1       502 7.77979E-03 2.90445E-03-5.97698E-14
 -1       503 8.06586E-03 3.10660E-03-6.36782E-14
 -1       504 8.35181E-03 3.30881E-03-6.76701E-14
 -1       505 8.63769E-03 3.51113E-03-7.17428E-14
 -1       506 8.92350E-03 3.71357E-03-7.58902E-14
 -1       507 9.20927E-03 3.91612E-03-8.01064E-14
 -1       508 9.49502E-03 4.11878E-03-8.43857E-14
 -1       509 9.78074E-03 4.32154E-03-8.87267E-14
 -1       510 1.00665E-02 4.52437E-03-9.31219E-14
 -1       511 1.03522E-02 4.72727E-03-9.75686E-14
 -1       512 1.06379E-02 4.93022E-03-1.02068E-13
 -1       513 1.09236E-02 5.13320E-03-1.06619E-13
 -1       514 1.12093E-02 5.33622E-03-1.11216E-13
 -1       515 1.14950E-02 5.53926E-03-1.15868E-13
 -1       516 1.17807E-02 5.74231E-03-1.20578E-13
 -1       517 1.20664E-02 5.94537E-03-1.25327E-13
 -1       518 1.23521E-02 6.14844E-03-1.30111E-13
 -1       519 1.26378E-02 6.35151E-03-1.34935E-13
 -1       520 1.29235E-02 6.55459E-03-1.39794E-13
 -1       521 1.32092E-02 6.75766E-03-1.44666E-13
 -1       522 1.79885E-03 5.55209E-04-1.73386E-15
 -1       523 2.08718E-03 7.60490E-04-2.39655E-15
 -1       524 3.02733E-03-5.91704E-05-6.63872E-15
 -1       525 6.62214E-03 1.44051E-03-1.34711E-14
 -1       526 7.38933E-03 1.88654E-03-2.05011E-14
 -1       527 7.66522E-03 2.08742E-03-2.30739E-14
 -1       528 7.94694E-03 2.29478E-03-2.57495E-14
 -1       529 8.23188E-03 2.50437E-03-2.85355E-14
 -1       530 8.51835E-03 2.71416E-03-3.14266E-14
 -1       531 8.80540E-03 2.92331E-03-3.44263E-14
 -1       532 9.09252E-03 3.13153E-03-3.75343E-14
 -1       533 9.37951E-03 3.33883E-03-4.07490E-14
 -1       534 9.66627E-03 3.54529E-03-4.40633E-14
 -1       535 9.95279E-03 3.75106E-03-4.74690E-14
 -1       536 1.02391E-02 3.95624E-03-5.09648E-14
 -1       537 1.05253E-02 4.16097E-03-5.45515E-14
 -1       538 1.08256E-02 4.37553E-03-5.84138E-14
 -1       539 1.11115E-02 4.57958E-03-6.21861E-14
 -1       540 1.13973E-02 4.78339E-03-6.60467E-14
 -1       541 1.16831E-02 4.98702E-03-6.99907E-14
 -1       542 1.19689E-02 5.19052E-03-7.40184E-14
 -1       543 1.22546E-02 5.39390E-03-7.81304E-14
 -1       544 1.25403E-02 5.59720E-03-8.23168E-14
 -1       545 1.28260E-02 5.80043E-03-8.65652E-14
 -1       546 1.31117E-02 6.00361E-03-9.08763E-14
 -1       547 1.33974E-02 6.20676E-03-9.52511E-14
 -1       548 1.36831E-02 6.40988E-03-9.96902E-14
 -1       549 1.39688E-02 6.61299E-03-1.04187E-13
 -1       550 1.42545E-02 6.81608E-03-1.08746E-13
 -1       551 1.45402E-02 7.01916E-03-1.13361E-13
 -1       552 1.48259E-02 7.22223E-03-1.18022E-13
 -1       553 1.51117E-02 7.42531E-03-1.22732E-13
 -1       554 1.53974E-02 7.62838E-03-1.27474E-13
 -1       555 1.56831E-02 7.83146E-03-1.32234E-13
 -1       556 1.52147E-02 7.67450E-03-1.38386E-13
 -1       557 1.54110E-02 7.75736E-03-1.37178E-13
 -1       558 1.56107E-02 7.84165E-03-1.35937E-13
 -1       559 6.65495E-03 1.33587E-03-1.35512E-14
 -1       560 1.50150E-02 7.59020E-03-1.39606E-13
 -1       561 1.48153E-02 7.50591E-03-1.40820E-13
 -1       562 1.46156E-02 7.42161E-03-1.42027E-13
 -1       563 1.44159E-02 7.33731E-03-1.43226E-13
 -1       564 1.42196E-02 7.25445E-03-1.44395E-13
 -1       565 1.40199E-02 7.17015E-03-1.45567E-13
 -1       566 1.38202E-02 7.08586E-03-1.46727E-13
 -1       567 1.36206E-02 7.00157E-03-1.47881E-13
 -1       568 6.49288E-03 1.30658E-03-1.41347E-14
 -1       569 1.50618E-03 4.32340E-04-1.19251E-15
 -1       570 6.37315E-03 1.44455E-03-1.14602E-14
 -1       571 5.82162E-03 1.11449E-03-1.41431E-14
 -1       572 4.05428E-03 1.25209E-04-1.04041E-14
 -1       573 1.86892E-03 3.86393E-04-3.72508E-15
 -1       574 6.61777E-03 1.36344E-03-1.28349E-14
 -1       575 7.12271E-03 1.70022E-03-1.80431E-14
 -1       576 6.86794E-03 1.54297E-03-1.56993E-14
 -1       577 6.75668E-04 1.38657E-05-6.00790E-16
 -1       578 1.39955E-03 5.32338E-04-2.91321E-15
 -1       579 1.59963E-03 6.01126E-04-2.49566E-15
 -1       580 1.40421E-03 5.48527E-04-2.57729E-15
 -1       581 1.54071E-03 4.94892E-04-3.19443E-15
 -1       582 2.26408E-03 2.46307E-04-4.55059E-15
 -1       583 2.63445E-03 9.12931E-05-5.43535E-15
 -1       584 3.49208E-03-8.93573E-05-8.25097E-15
 -1       585 3.74320E-03-2.69865E-05-9.20599E-15
 -1       586 4.49909E-03 4.15307E-04-1.20021E-14
 -1       587 4.89317E-03 6.59480E-04-1.29264E-14
 -1       588 5.35875E-03 9.03674E-04-1.35323E-14
 -1       589 6.28962E-03 1.25977E-03-1.42247E-14
 -1       590 7.28975E-04 2.34367E-04-1.87218E-16
 -1       591 1.99241E-03 7.83833E-04-2.67134E-15
 -1       592 2.44362E-03 1.02945E-03-2.81017E-15
 -1       593 7.02424E-04-1.55620E-04-6.72453E-16
 -1       594 3.19972E-03-1.09129E-04-7.41575E-15
 -1       595 1.33984E-02 6.89327E-03-1.48001E-13
 -1       596 8.31780E-04 1.62582E-04-8.86969E-16
 -1       597 8.73120E-04 1.12525E-04-9.48995E-16
 -1       598 7.91635E-04 2.16921E-04-7.38762E-16
 -1       599 8.25189E-04 2.32953E-04-6.44389E-16
 -1       600 7.67071E-03 2.13311E-03-2.50944E-14
 -1       601 1.13423E-03-3.09743E-04-1.56373E-15
 -1       602 2.72916E-03-1.32885E-05-5.73082E-15
 -1       603 1.43306E-03-3.60577E-04-2.37697E-15
 -1       604 1.73225E-03-3.99131E-04-3.35575E-15
 -1       605 2.02931E-03-4.23438E-04-4.49912E-15
 -1       606 2.32210E-03-4.29054E-04-5.80563E-15
 -1       607 2.60944E-03-4.09435E-04-7.27608E-15
 -1       608 2.89181E-03-3.57636E-04-8.90902E-15
 -1       609 3.17157E-03-2.68869E-04-1.07026E-14
 -1       610 3.45210E-03-1.42727E-04-1.26530E-14
 -1       611 3.73635E-03 1.62916E-05-1.47561E-14
 -1       612 4.02562E-03 2.00344E-04-1.70033E-14
 -1       613 4.31938E-03 4.00647E-04-1.93840E-14
 -1       614 4.61591E-03 6.09595E-04-2.18949E-14
 -1       615 4.91323E-03 8.21769E-04-2.45311E-14
 -1       616 5.20981E-03 1.03393E-03-2.72894E-14
 -1       617 5.50474E-03 1.24451E-03-3.01692E-14
 -1       618 5.79771E-03 1.45302E-03-3.31688E-14
 -1       619 6.08881E-03 1.65955E-03-3.62865E-14
 -1       620 6.37832E-03 1.86446E-03-3.95186E-14
 -1       621 6.66661E-03 2.06816E-03-4.28617E-14
 -1       622 6.95400E-03 2.27105E-03-4.63159E-14
 -1       623 7.24076E-03 2.47344E-03-4.98712E-14
 -1       624 7.52712E-03 2.67557E-03-5.35249E-14
 -1       625 7.81321E-03 2.87761E-03-5.72737E-14
 -1       626 8.09914E-03 3.07967E-03-6.11082E-14
 -1       627 8.38497E-03 3.28181E-03-6.50283E-14
 -1       628 8.67074E-03 3.48407E-03-6.90313E-14
 -1       629 8.95649E-03 3.68646E-03-7.31134E-14
 -1       630 9.24221E-03 3.88897E-03-7.72662E-14
 -1       631 9.52793E-03 4.09160E-03-8.14876E-14
 -1       632 9.81365E-03 4.29433E-03-8.57736E-14
 -1       633 1.00994E-02 4.49714E-03-9.01227E-14
 -1       634 1.03851E-02 4.70002E-03-9.45270E-14
 -1       635 1.06708E-02 4.90295E-03-9.89836E-14
 -1       636 1.09565E-02 5.10592E-03-1.03491E-13
 -1       637 1.12422E-02 5.30893E-03-1.08046E-13
 -1       638 1.15279E-02 5.51196E-03-1.12656E-13
 -1       639 1.18136E-02 5.71501E-03-1.17318E-13
 -1       640 1.20993E-02 5.91807E-03-1.22028E-13
 -1       641 1.23851E-02 6.12113E-03-1.26774E-13
 -1       642 1.26708E-02 6.32421E-03-1.31561E-13
 -1       643 1.29565E-02 6.52728E-03-1.36385E-13
 -1       644 1.32422E-02 6.73036E-03-1.41238E-13
 -1       645 6.10974E-03 1.26776E-03-1.54339E-14
 -1       646 7.94005E-03 2.33635E-03-2.78499E-14
 -1       647 1.53250E-02 7.63858E-03-1.31164E-13
 -1       648 7.41261E-03 1.93571E-03-2.24498E-14
 -1       649 8.21640E-03 2.54231E-03-3.07113E-14
 -1       650 8.49698E-03 2.74924E-03-3.36826E-14
 -1       651 8.78001E-03 2.95626E-03-3.67591E-14
 -1       652 9.06443E-03 3.16293E-03-3.99465E-14
 -1       653 9.34961E-03 3.36912E-03-4.32326E-14
 -1       654 9.63517E-03 3.57479E-03-4.66166E-14
 -1       655 9.92091E-03 3.77998E-03-5.00912E-14
 -1       656 1.02067E-02 3.98475E-03-5.36548E-14
 -1       657 1.05068E-02 4.19938E-03-5.74931E-14
 -1       658 1.07927E-02 4.40350E-03-6.12405E-14
 -1       659 1.10785E-02 4.60738E-03-6.50833E-14
 -1       660 1.13642E-02 4.81106E-03-6.90034E-14
 -1       661 1.16500E-02 5.01460E-03-7.30077E-14
 -1       662 1.19357E-02 5.21802E-03-7.70922E-14
 -1       663 1.22215E-02 5.42135E-03-8.12574E-14
 -1       664 1.25072E-02 5.62460E-03-8.54906E-14
 -1       665 1.27929E-02 5.82781E-03-8.97845E-14
 -1       666 1.30786E-02 6.03097E-03-9.41376E-14
 -1       667 1.33644E-02 6.23410E-03-9.85534E-14
 -1       668 1.36501E-02 6.43721E-03-1.03032E-13
 -1       669 1.39358E-02 6.64030E-03-1.07569E-13
 -1       670 1.42215E-02 6.84339E-03-1.12163E-13
 -1       671 1.45072E-02 7.04647E-03-1.16803E-13
 -1       672 1.47929E-02 7.24954E-03-1.21487E-13
 -1       673 1.50589E-02 7.44406E-03-1.26313E-13
 -1       674 1.46677E-02 7.37219E-03-1.36060E-13
 -1       675 2.00949E-03 2.69376E-04-3.80770E-15
 -1       676 1.48674E-02 7.45649E-03-1.34851E-13
 -1       677 1.42683E-02 7.20360E-03-1.38451E-13
 -1       678 1.40720E-02 7.12073E-03-1.39606E-13
 -1       679 1.38723E-02 7.03644E-03-1.40771E-13
 -1       680 1.36726E-02 6.95214E-03-1.41929E-13
 -1       681 6.71798E-03 1.39647E-03-1.43719E-14
 -1       682 1.21518E-03 3.54046E-04-1.12603E-15
 -1       683 6.43371E-03 1.35471E-03-1.54993E-14
 -1       684 1.56933E-03 3.97689E-04-2.89579E-15
 -1       685 6.77700E-03 1.44721E-03-1.50990E-14
 -1       686 1.45412E-03 4.52844E-04-1.68398E-15
 -1       687 6.96175E-03 1.58357E-03-1.74429E-14
 -1       688 6.65071E-03 1.38660E-03-1.51069E-14
 -1       689 1.37144E-03 4.56344E-04-2.54160E-15
 -1       690 7.17196E-03 1.74926E-03-1.99151E-14
 -1       691 1.30687E-03 4.71588E-04-2.24880E-15
 -1       692 3.81659E-03 2.86401E-05-1.01496E-14
 -1       693 1.50637E-02 7.53935E-03-1.33658E-13
 -1       694 7.98915E-04 1.96603E-04-8.17953E-16
 -1       695 1.44680E-02 7.28790E-03-1.37260E-13
 -1       696 2.37557E-03 1.30747E-04-4.68465E-15
 -1       697 1.44456E-03 4.99190E-04-2.11517E-15
 -1       698 4.17794E-03 2.46362E-04-1.17701E-14
 -1       699 9.49436E-04-9.22232E-05-1.10091E-15
 -1       700 1.34314E-02 6.86596E-03-1.44553E-13
 -1       701 3.59466E-03-6.39909E-05-9.14207E-15
 -1       702 4.68448E-03 5.80681E-04-1.35573E-14
 -1       703 9.99462E-04 2.85520E-04-7.07893E-16
 -1       704 9.55409E-04-1.65400E-04-1.13615E-15
 -1       705 9.09712E-04 4.99443E-05-1.00558E-15
 -1       706 8.99918E-04-2.55940E-04-1.03841E-15
 -1       707 5.79402E-03 1.16882E-03-1.55664E-14
 -1       708 1.81717E-03 6.18421E-04-2.18025E-15
 -1       709 2.90626E-03-9.03507E-05-6.43893E-15
 -1       710 1.67422E-03 3.03365E-04-2.95330E-15
 -1       711 1.34574E-02 6.84125E-03-1.41589E-13
 -1       712 9.35252E-04-1.96434E-05-1.05668E-15
 -1       713 5.17319E-03 8.80191E-04-1.49721E-14
 -1       714 7.91947E-03 2.37802E-03-2.99726E-14
 -1       715 9.84799E-04 2.91089E-04-1.08234E-15
 -1       716 6.09724E-03 1.32531E-03-1.72384E-14
 -1       717 1.41207E-02 7.06989E-03-1.33711E-13
 -1       718 3.34593E-03-1.12337E-04-8.06674E-15
 -1       719 3.91075E-03 1.04354E-04-1.13406E-14
 -1       720 6.40513E-03 1.41758E-03-1.73254E-14
 -1       721 1.59395E-03-3.02760E-04-2.80296E-15
 -1       722 1.90475E-03-3.35193E-04-3.84306E-15
 -1       723 2.21413E-03-3.55435E-04-5.04331E-15
 -1       724 2.51867E-03-3.56338E-04-6.40636E-15
 -1       725 2.81667E-03-3.28166E-04-7.93130E-15
 -1       726 3.10934E-03-2.61667E-04-9.61898E-15
 -1       727 3.40062E-03-1.52281E-04-1.14661E-14
 -1       728 3.69504E-03-2.77176E-06-1.34698E-14
 -1       729 3.99521E-03 1.77936E-04-1.56225E-14
 -1       730 4.30085E-03 3.78447E-04-1.79136E-14
 -1       731 4.60942E-03 5.88655E-04-2.03351E-14
 -1       732 4.91784E-03 8.01674E-04-2.28833E-14
 -1       733 5.22376E-03 1.01381E-03-2.55522E-14
 -1       734 5.52592E-03 1.22365E-03-2.83466E-14
 -1       735 5.82410E-03 1.43103E-03-3.12605E-14
 -1       736 6.11868E-03 1.63635E-03-3.42951E-14
 -1       737 6.41035E-03 1.84017E-03-3.74476E-14
 -1       738 6.69983E-03 2.04298E-03-4.07111E-14
 -1       739 6.98779E-03 2.24520E-03-4.40824E-14
 -1       740 7.27473E-03 2.44711E-03-4.75587E-14
 -1       741 7.56104E-03 2.64892E-03-5.11353E-14
 -1       742 7.84698E-03 2.85074E-03-5.48086E-14
 -1       743 8.13273E-03 3.05267E-03-5.85712E-14
 -1       744 8.41838E-03 3.25472E-03-6.24188E-14
 -1       745 8.70401E-03 3.45693E-03-6.63518E-14
 -1       746 8.98963E-03 3.65928E-03-7.03668E-14
 -1       747 9.27527E-03 3.86176E-03-7.44569E-14
 -1       748 9.56093E-03 4.06437E-03-7.86217E-14
 -1       749 9.84661E-03 4.26708E-03-8.28511E-14
 -1       750 1.01323E-02 4.46988E-03-8.71472E-14
 -1       751 1.04180E-02 4.67275E-03-9.15052E-14
 -1       752 1.07037E-02 4.87567E-03-9.59190E-14
 -1       753 1.09894E-02 5.07864E-03-1.00382E-13
 -1       754 1.12751E-02 5.28164E-03-1.04894E-13
 -1       755 1.15609E-02 5.48467E-03-1.09462E-13
 -1       756 1.18466E-02 5.68771E-03-1.14078E-13
 -1       757 1.21323E-02 5.89077E-03-1.18745E-13
 -1       758 1.24180E-02 6.09383E-03-1.23456E-13
 -1       759 1.27038E-02 6.29690E-03-1.28202E-13
 -1       760 1.29895E-02 6.49998E-03-1.32990E-13
 -1       761 1.32234E-02 6.67061E-03-1.37278E-13
 -1       762 7.65381E-03 2.17924E-03-2.71391E-14
 -1       763 1.35250E-02 6.81843E-03-1.37162E-13
 -1       764 7.39969E-03 1.98669E-03-2.44169E-14
 -1       765 8.47069E-03 2.78440E-03-3.59625E-14
 -1       766 8.75176E-03 2.98930E-03-3.91198E-14
 -1       767 9.03471E-03 3.19442E-03-4.23822E-14
 -1       768 9.31881E-03 3.39948E-03-4.57421E-14
 -1       769 9.60361E-03 3.60434E-03-4.91919E-14
 -1       770 9.88881E-03 3.80894E-03-5.27339E-14
 -1       771 1.01885E-02 4.02349E-03-5.65515E-14
 -1       772 1.04741E-02 4.22758E-03-6.02761E-14
 -1       773 1.07598E-02 4.43146E-03-6.40924E-14
 -1       774 1.10455E-02 4.63517E-03-6.79932E-14
 -1       775 1.13312E-02 4.83872E-03-7.19758E-14
 -1       776 1.16169E-02 5.04216E-03-7.60368E-14
 -1       777 1.19026E-02 5.24551E-03-8.01769E-14
 -1       778 1.21884E-02 5.44878E-03-8.43909E-14
 -1       779 1.24741E-02 5.65200E-03-8.86691E-14
 -1       780 1.27598E-02 5.85517E-03-9.30079E-14
 -1       781 1.30456E-02 6.05831E-03-9.74061E-14
 -1       782 1.33313E-02 6.26143E-03-1.01864E-13
 -1       783 1.36170E-02 6.46453E-03-1.06383E-13
 -1       784 1.39027E-02 6.66762E-03-1.10963E-13
 -1       785 1.41884E-02 6.87070E-03-1.15582E-13
 -1       786 1.44742E-02 7.07377E-03-1.20243E-13
 -1       787 1.45201E-02 7.23848E-03-1.31335E-13
 -1       788 1.08555E-03 1.78782E-04-1.40524E-15
 -1       789 1.27134E-03 4.14066E-04-1.72159E-15
 -1       790 3.41875E-03-1.08415E-04-8.80319E-15
 -1       791 1.47164E-02 7.32135E-03-1.30147E-13
 -1       792 1.37247E-02 6.90272E-03-1.36016E-13
 -1       793 1.39227E-02 6.98630E-03-1.34867E-13
 -1       794 2.41339E-03 6.88181E-06-4.81134E-15
 -1       795 1.43204E-02 7.15418E-03-1.32530E-13
 -1       796 8.19266E-03 2.58031E-03-3.29140E-14
 -1       797 6.95667E-03 1.63145E-03-1.90947E-14
 -1       798 1.28541E-03-2.61861E-04-1.92397E-15
 -1       799 7.16291E-03 1.80426E-03-2.18049E-14
 -1       800 1.21010E-03 3.95139E-04-1.89567E-15
 -1       801 2.10674E-03 1.29552E-04-3.92354E-15
 -1       802 3.17964E-03-1.34115E-04-7.66790E-15
 -1       803 1.48877E-02 7.38270E-03-1.28239E-13
 -1       804 4.38714E-03 4.10336E-04-1.35419E-14
 -1       805 4.90426E-03 7.47608E-04-1.56260E-14
 -1       806 1.07989E-03 3.19873E-04-1.11370E-15
 -1       807 3.62309E-03-4.39994E-05-9.78982E-15
 -1       808 6.64385E-03 1.45999E-03-1.69405E-14
 -1       809 1.31078E-03 3.62962E-04-2.14942E-15
 -1       810 5.58848E-03 1.12128E-03-1.69483E-14
 -1       811 1.14415E-03 1.02307E-04-1.49277E-15
 -1       812 9.80203E-04 2.72641E-04-1.20334E-15
 -1       813 1.02311E-03 2.37236E-04-1.30989E-15
 -1       814 1.76773E-03 1.80249E-04-3.03979E-15
 -1       815 1.20923E-03-7.19075E-05-1.64324E-15
 -1       816 1.46809E-02 7.22824E-03-1.24229E-13
 -1       817 2.58622E-03-7.43224E-05-5.44456E-15
 -1       818 6.78084E-03 1.45862E-03-1.59986E-14
 -1       819 1.33742E-02 6.74452E-03-1.37222E-13
 -1       820 1.21799E-03-1.59068E-04-1.70321E-15
 -1       821 1.37303E-03 2.97852E-04-2.18788E-15
 -1       822 5.30951E-03 9.95112E-04-1.76367E-14
 -1       823 6.34597E-03 1.45287E-03-1.89532E-14
 -1       824 6.81237E-03 1.50387E-03-1.69689E-14
 -1       825 2.08896E-03-2.66666E-04-4.32291E-15
 -1       826 2.41179E-03-2.86523E-04-5.57636E-15
 -1       827 2.72811E-03-2.84955E-04-6.99180E-15
 -1       828 3.03617E-03-2.47041E-04-8.57050E-15
 -1       829 3.33925E-03-1.60733E-04-1.03115E-14
 -1       830 3.64407E-03-2.39326E-05-1.22134E-14
 -1       831 3.95491E-03 1.53763E-04-1.42703E-14
 -1       832 4.27364E-03 3.57076E-04-1.64704E-14
 -1       833 4.59621E-03 5.71354E-04-1.88060E-14
 -1       834 4.91789E-03 7.86944E-04-2.12671E-14
 -1       835 5.23503E-03 9.99524E-04-2.38492E-14
 -1       836 5.54581E-03 1.20815E-03-2.65543E-14
 -1       837 5.85010E-03 1.41344E-03-2.93826E-14
 -1       838 6.14868E-03 1.61646E-03-3.23335E-14
 -1       839 6.44276E-03 1.81818E-03-3.54039E-14
 -1       840 6.73356E-03 2.01929E-03-3.85892E-14
 -1       841 7.02209E-03 2.22023E-03-4.18819E-14
 -1       842 7.30918E-03 2.42124E-03-4.52775E-14
 -1       843 7.59540E-03 2.62244E-03-4.87738E-14
 -1       844 7.88113E-03 2.82389E-03-5.23725E-14
 -1       845 8.16663E-03 3.02558E-03-5.60628E-14
 -1       846 8.45205E-03 3.22752E-03-5.98403E-14
 -1       847 8.73747E-03 3.42966E-03-6.37018E-14
 -1       848 9.02293E-03 3.63198E-03-6.76493E-14
 -1       849 9.30845E-03 3.83446E-03-7.16772E-14
 -1       850 9.59401E-03 4.03707E-03-7.57797E-14
 -1       851 9.87963E-03 4.23978E-03-7.99537E-14
 -1       852 1.01653E-02 4.44258E-03-8.41959E-14
 -1       853 1.04510E-02 4.64546E-03-8.85035E-14
 -1       854 1.07367E-02 4.84838E-03-9.28685E-14
 -1       855 1.10224E-02 5.05135E-03-9.72909E-14
 -1       856 1.13081E-02 5.25435E-03-1.01759E-13
 -1       857 1.15938E-02 5.45737E-03-1.06285E-13
 -1       858 1.18795E-02 5.66041E-03-1.10859E-13
 -1       859 1.21653E-02 5.86347E-03-1.15483E-13
 -1       860 1.24510E-02 6.06653E-03-1.20154E-13
 -1       861 1.27367E-02 6.26960E-03-1.24862E-13
 -1       862 1.30224E-02 6.47267E-03-1.29613E-13
 -1       863 9.00341E-03 3.22551E-03-4.48405E-14
 -1       864 7.36319E-03 2.03213E-03-2.64028E-14
 -1       865 1.18591E-03 1.64171E-05-1.57248E-15
 -1       866 8.72095E-03 3.02168E-03-4.15027E-14
 -1       867 8.44033E-03 2.81848E-03-3.82694E-14
 -1       868 9.28706E-03 3.42961E-03-4.82695E-14
 -1       869 9.57148E-03 3.63374E-03-5.17871E-14
 -1       870 9.87065E-03 3.84800E-03-5.55810E-14
 -1       871 1.01559E-02 4.05194E-03-5.92857E-14
 -1       872 1.04413E-02 4.25573E-03-6.30784E-14
 -1       873 1.07269E-02 4.45939E-03-6.69590E-14
 -1       874 1.10125E-02 4.66293E-03-7.09214E-14
 -1       875 1.12982E-02 4.86636E-03-7.49626E-14
 -1       876 1.15839E-02 5.06970E-03-7.90796E-14
 -1       877 1.18696E-02 5.27298E-03-8.32734E-14
 -1       878 1.21553E-02 5.47620E-03-8.75337E-14
 -1       879 1.24410E-02 5.67938E-03-9.18587E-14
 -1       880 1.27268E-02 5.88252E-03-9.62416E-14
 -1       881 1.30125E-02 6.08564E-03-1.00680E-13
 -1       882 1.32982E-02 6.28875E-03-1.05181E-13
 -1       883 1.35840E-02 6.49184E-03-1.09744E-13
 -1       884 1.38697E-02 6.69492E-03-1.14350E-13
 -1       885 1.41554E-02 6.89800E-03-1.18996E-13
 -1       886 6.89383E-03 1.67482E-03-2.07792E-14
 -1       887 1.33774E-02 6.68471E-03-1.32436E-13
 -1       888 2.91787E-03-1.51854E-04-6.82048E-15
 -1       889 2.08573E-03 5.32516E-06-3.88126E-15
 -1       890 1.43708E-02 7.10405E-03-1.26649E-13
 -1       891 6.65743E-03 1.53957E-03-1.89186E-14
 -1       892 7.62153E-03 2.22138E-03-2.92061E-14
 -1       893 1.76462E-03-2.36857E-04-3.22841E-15
 -1       894 1.48908E-03-1.97934E-04-2.40581E-15
 -1       895 7.11765E-03 1.85253E-03-2.37127E-14
 -1       896 4.07508E-03 2.21317E-04-1.31074E-14
 -1       897 5.98882E-03 1.33210E-03-1.91525E-14
 -1       898 3.22413E-03-1.53161E-04-8.30405E-15
 -1       899 3.65612E-03-1.89981E-05-1.07074E-14
 -1       900 4.59352E-03 5.59838E-04-1.56392E-14
 -1       901 3.44132E-03-1.05005E-04-9.46552E-15
 -1       902 7.88890E-03 2.41700E-03-3.21194E-14
 -1       903 1.41711E-02 7.01975E-03-1.27845E-13
 -1       904 8.16251E-03 2.61657E-03-3.51401E-14
 -1       905 1.31983E-02 6.60860E-03-1.33408E-13
 -1       906 4.97571E-03 8.05925E-04-1.76556E-14
 -1       907 1.76566E-03 5.73381E-05-2.99053E-15
 -1       908 1.47803E-03-3.94771E-05-2.27240E-15
 -1       909 1.43622E-02 7.05247E-03-1.22961E-13
 -1       910 1.44651E-03 2.03765E-04-2.24948E-15
 -1       911 1.35754E-02 6.76829E-03-1.31307E-13
 -1       912 2.25221E-03-6.91916E-05-4.43713E-15
 -1       913 1.39714E-02 6.93546E-03-1.29017E-13
 -1       914 1.48892E-03-1.20542E-04-2.34396E-15
 -1       915 5.72279E-03 1.22841E-03-1.98805E-14
 -1       916 1.37734E-02 6.85188E-03-1.30167E-13
 -1       917 2.61986E-03-2.20802E-04-6.09472E-15
 -1       918 2.94864E-03-2.18373E-04-7.56093E-15
 -1       919 3.58377E-03-4.97597E-05-1.09884E-14
 -1       920 4.57951E-03 5.56400E-04-1.73015E-14
 -1       921 4.91690E-03 7.77767E-04-1.96797E-14
 -1       922 5.24736E-03 9.91879E-04-2.21787E-14
 -1       923 5.56765E-03 1.19902E-03-2.47964E-14
 -1       924 5.87834E-03 1.40113E-03-2.75385E-14
 -1       925 6.18078E-03 1.60055E-03-3.04030E-14
 -1       926 6.47695E-03 1.79896E-03-3.33891E-14
 -1       927 6.76868E-03 1.99738E-03-3.64928E-14
 -1       928 7.05747E-03 2.19630E-03-3.97087E-14
 -1       929 7.34443E-03 2.39589E-03-4.30267E-14
 -1       930 7.63035E-03 2.59616E-03-4.64456E-14
 -1       931 7.91572E-03 2.79703E-03-4.99654E-14
 -1       932 8.20087E-03 2.99840E-03-5.35830E-14
 -1       933 8.48597E-03 3.20016E-03-5.72877E-14
 -1       934 8.77113E-03 3.40223E-03-6.10789E-14
 -1       935 9.05638E-03 3.60454E-03-6.49576E-14
 -1       936 9.34173E-03 3.80703E-03-6.89195E-14
 -1       937 9.62718E-03 4.00966E-03-7.29621E-14
 -1       938 9.91271E-03 4.21240E-03-7.70769E-14
 -1       939 1.01983E-02 4.41523E-03-8.12667E-14
 -1       940 1.04839E-02 4.61812E-03-8.55232E-14
 -1       941 1.07696E-02 4.82106E-03-8.98376E-14
 -1       942 1.10553E-02 5.02403E-03-9.42125E-14
 -1       943 1.13410E-02 5.22704E-03-9.86397E-14
 -1       944 1.16268E-02 5.43007E-03-1.03118E-13
 -1       945 1.19125E-02 5.63311E-03-1.07651E-13
 -1       946 1.21982E-02 5.83617E-03-1.12238E-13
 -1       947 1.24840E-02 6.03923E-03-1.16868E-13
 -1       948 1.27697E-02 6.24230E-03-1.21540E-13
 -1       949 1.30554E-02 6.44537E-03-1.26256E-13
 -1       950 9.25452E-03 3.45931E-03-5.08155E-14
 -1       951 6.62516E-03 1.59467E-03-2.08217E-14
 -1       952 1.44142E-03 6.55027E-05-2.16816E-15
 -1       953 1.94092E-03-1.63398E-04-3.64856E-15
 -1       954 8.68830E-03 3.05304E-03-4.39086E-14
 -1       955 8.40721E-03 2.85098E-03-4.05978E-14
 -1       956 9.55309E-03 3.67306E-03-5.45849E-14
 -1       957 9.83791E-03 3.87667E-03-5.82672E-14
 -1       958 1.01231E-02 4.08026E-03-6.20413E-14
 -1       959 1.04084E-02 4.28380E-03-6.58992E-14
 -1       960 1.06939E-02 4.48725E-03-6.98409E-14
 -1       961 1.09795E-02 4.69064E-03-7.38653E-14
 -1       962 1.12651E-02 4.89395E-03-7.79673E-14
 -1       963 1.15508E-02 5.09721E-03-8.21395E-14
 -1       964 1.18365E-02 5.30042E-03-8.63819E-14
 -1       965 1.21223E-02 5.50360E-03-9.06896E-14
 -1       966 1.24080E-02 5.70674E-03-9.50535E-14
 -1       967 1.26937E-02 5.90986E-03-9.94786E-14
 -1       968 1.29795E-02 6.11297E-03-1.03965E-13
 -1       969 1.32652E-02 6.31606E-03-1.08506E-13
 -1       970 1.35509E-02 6.51915E-03-1.13098E-13
 -1       971 1.38367E-02 6.72222E-03-1.17729E-13
 -1       972 1.41037E-02 6.91314E-03-1.22174E-13
 -1       973 6.31294E-03 1.49571E-03-2.10365E-14
 -1       974 7.31527E-03 2.06976E-03-2.84122E-14
 -1       975 7.05705E-03 1.88986E-03-2.56412E-14
 -1       976 6.83595E-03 1.73671E-03-2.31824E-14
 -1       977 2.62877E-03-1.67672E-04-5.88102E-15
 -1       978 2.28140E-03-1.96000E-04-4.79191E-15
 -1       979 8.97089E-03 3.25595E-03-4.73185E-14
 -1       980 1.36250E-02 6.71780E-03-1.25495E-13
 -1       981 1.71275E-03-1.40978E-04-2.96071E-15
 -1       982 8.12831E-03 2.65041E-03-3.73917E-14
 -1       983 3.28837E-03-1.60028E-04-9.29561E-15
 -1       984 4.32238E-03 3.86624E-04-1.54672E-14
 -1       985 1.87636E-03-6.42161E-05-3.34539E-15
 -1       986 1.38247E-02 6.80210E-03-1.24341E-13
 -1       987 7.58098E-03 2.25809E-03-3.12957E-14
 -1       988 1.34270E-02 6.63422E-03-1.26628E-13
 -1       989 6.06601E-03 1.41248E-03-2.18023E-14
 -1       990 5.38469E-03 1.05516E-03-1.99114E-14
 -1       991 7.85249E-03 2.45230E-03-3.42881E-14
 -1       992 5.91278E-03 1.39477E-03-2.57247E-14
 -1       993 6.21789E-03 1.58896E-03-2.85050E-14
 -1       994 6.51491E-03 1.78264E-03-3.14052E-14
 -1       995 6.80652E-03 1.97725E-03-3.44248E-14
 -1       996 7.09472E-03 2.17336E-03-3.75594E-14
 -1       997 7.38094E-03 2.37101E-03-4.08014E-14
 -1       998 7.66613E-03 2.57001E-03-4.41454E-14
 -1       999 7.95086E-03 2.77011E-03-4.75881E-14
 -1      1000 8.23547E-03 2.97105E-03-5.11290E-14
 -1      1001 8.52014E-03 3.17260E-03-5.47642E-14
 -1      1002 8.80496E-03 3.37459E-03-5.84853E-14
 -1      1003 9.08995E-03 3.57690E-03-6.22912E-14
 -1      1004 9.37511E-03 3.77943E-03-6.61845E-14
 -1      1005 9.66042E-03 3.98211E-03-7.01631E-14
 -1      1006 9.94585E-03 4.18491E-03-7.42215E-14
 -1      1007 1.02314E-02 4.38779E-03-7.83533E-14
 -1      1008 1.05170E-02 4.59072E-03-8.25576E-14
 -1      1009 1.08026E-02 4.79369E-03-8.68253E-14
 -1      1010 1.10883E-02 4.99669E-03-9.11534E-14
 -1      1011 1.13740E-02 5.19972E-03-9.55342E-14
 -1      1012 1.16597E-02 5.40275E-03-9.99669E-14
 -1      1013 1.19455E-02 5.60581E-03-1.04458E-13
 -1      1014 1.22312E-02 5.80887E-03-1.09006E-13
 -1      1015 1.25169E-02 6.01193E-03-1.13599E-13
 -1      1016 1.28027E-02 6.21500E-03-1.18233E-13
 -1      1017 1.31148E-02 6.42461E-03-1.22411E-13
 -1      1018 9.52008E-03 3.70184E-03-5.72212E-14
 -1      1019 9.22142E-03 3.48854E-03-5.33803E-14
 -1      1020 9.80494E-03 3.90512E-03-6.09721E-14
 -1      1021 1.00901E-02 4.10844E-03-6.48129E-14
 -1      1022 1.03754E-02 4.31175E-03-6.87347E-14
 -1      1023 1.06609E-02 4.51504E-03-7.27409E-14
 -1      1024 1.09465E-02 4.71829E-03-7.68274E-14
 -1      1025 1.12321E-02 4.92150E-03-8.09854E-14
 -1      1026 1.15178E-02 5.12469E-03-8.52112E-14
 -1      1027 1.18035E-02 5.32784E-03-8.95005E-14
 -1      1028 1.20892E-02 5.53098E-03-9.38468E-14
 -1      1029 1.23750E-02 5.73409E-03-9.82528E-14
 -1      1030 1.26607E-02 5.93719E-03-1.02722E-13
 -1      1031 1.29464E-02 6.14028E-03-1.07249E-13
 -1      1032 1.32322E-02 6.34337E-03-1.11820E-13
 -1      1033 1.35179E-02 6.54645E-03-1.16439E-13
 -1      1034 6.99456E-03 1.91785E-03-2.75924E-14
 -1      1035 6.55180E-03 1.64084E-03-2.33998E-14
 -1      1036 8.65451E-03 3.08333E-03-4.63358E-14
 -1      1037 8.93756E-03 3.28568E-03-4.98144E-14
 -1      1038 8.37255E-03 2.88187E-03-4.29473E-14
 -1      1039 1.34774E-02 6.58409E-03-1.20853E-13
 -1      1040 7.26443E-03 2.10050E-03-3.04429E-14
 -1      1041 5.59638E-03 1.19730E-03-2.30694E-14
 -1      1042 1.36570E-02 6.65316E-03-1.19304E-13
 -1      1043 8.09207E-03 2.68188E-03-3.96624E-14
 -1      1044 5.73495E-03 1.25766E-03-2.18463E-14
 -1      1045 6.77362E-03 1.77670E-03-2.54605E-14
 -1      1046 1.32961E-02 6.50435E-03-1.21637E-13
 -1      1047 6.05018E-03 1.44581E-03-2.44420E-14
 -1      1048 6.55923E-03 1.76885E-03-2.94521E-14
 -1      1049 6.84868E-03 1.95847E-03-3.23869E-14
 -1      1050 7.13481E-03 2.15100E-03-3.54396E-14
 -1      1051 7.41924E-03 2.34625E-03-3.86018E-14
 -1      1052 7.70300E-03 2.54373E-03-4.18680E-14
 -1      1053 7.98664E-03 2.74293E-03-4.52377E-14
 -1      1054 8.27044E-03 2.94339E-03-4.87036E-14
 -1      1055 8.55452E-03 3.14473E-03-5.22639E-14
 -1      1056 8.83891E-03 3.34667E-03-5.59151E-14
 -1      1057 9.12359E-03 3.54902E-03-5.96524E-14
 -1      1058 9.40854E-03 3.75163E-03-6.34736E-14
 -1      1059 9.69369E-03 3.95440E-03-6.73865E-14
 -1      1060 9.97901E-03 4.15729E-03-7.13816E-14
 -1      1061 1.02645E-02 4.36024E-03-7.54561E-14
 -1      1062 1.05500E-02 4.56324E-03-7.96026E-14
 -1      1063 1.08356E-02 4.76627E-03-8.38228E-14
 -1      1064 1.11213E-02 4.96931E-03-8.81043E-14
 -1      1065 1.14070E-02 5.17236E-03-9.24418E-14
 -1      1066 1.16927E-02 5.37542E-03-9.68290E-14
 -1      1067 1.19784E-02 5.57849E-03-1.01273E-13
 -1      1068 1.22642E-02 5.78156E-03-1.05781E-13
 -1      1069 1.25499E-02 5.98463E-03-1.10340E-13
 -1      1070 1.28357E-02 6.18770E-03-1.14938E-13
 -1      1071 1.00570E-02 4.13644E-03-6.76042E-14
 -1      1072 1.33383E-02 6.47738E-03-1.17982E-13
 -1      1073 9.77180E-03 3.93333E-03-6.36963E-14
 -1      1074 9.48684E-03 3.73031E-03-5.98777E-14
 -1      1075 9.18797E-03 3.51730E-03-5.59648E-14
 -1      1076 1.03424E-02 4.33958E-03-7.15900E-14
 -1      1077 1.06279E-02 4.54273E-03-7.56584E-14
 -1      1078 1.09135E-02 4.74587E-03-7.98029E-14
 -1      1079 1.11991E-02 4.94900E-03-8.40179E-14
 -1      1080 1.14848E-02 5.15212E-03-8.82939E-14
 -1      1081 1.17705E-02 5.35523E-03-9.26254E-14
 -1      1082 1.20562E-02 5.55833E-03-9.70106E-14
 -1      1083 1.23420E-02 5.76143E-03-1.01459E-13
 -1      1084 1.26277E-02 5.96451E-03-1.05967E-13
 -1      1085 1.29134E-02 6.16759E-03-1.10528E-13
 -1      1086 1.31259E-02 6.32249E-03-1.14241E-13
 -1      1087 8.33726E-03 2.91143E-03-4.53192E-14
 -1      1088 6.35208E-03 1.58660E-03-2.46242E-14
 -1      1089 6.30784E-03 1.60655E-03-2.68980E-14
 -1      1090 7.53751E-03 2.28986E-03-3.34061E-14
 -1      1091 7.81355E-03 2.48416E-03-3.64829E-14
 -1      1092 6.93673E-03 1.93991E-03-2.95637E-14
 -1      1093 1.30659E-02 6.34603E-03-1.18276E-13
 -1      1094 8.05525E-03 2.71144E-03-4.19569E-14
 -1      1095 8.62016E-03 3.11268E-03-4.87776E-14
 -1      1096 6.70646E-03 1.79344E-03-2.73673E-14
 -1      1097 1.32021E-02 6.41170E-03-1.18131E-13
 -1      1098 8.90379E-03 3.31474E-03-5.23270E-14
 -1      1099 7.21537E-03 2.12651E-03-3.24969E-14
 -1      1100 7.74108E-03 2.51685E-03-3.96181E-14
 -1      1101 7.47572E-03 2.32017E-03-3.60420E-14
 -1      1102 0.00000E+00 0.00000E+00 0.00000E+00
 -1      1103 0.00000E+00 0.00000E+00 0.00000E+00
 -1      1104 0.00000E+00 0.00000E+00 0.00000E+00
 -1      1105 0.00000E+00 0.00000E+00 0.00000E+00
 -1      1106 0.00000E+00 0.00000E+00 0.00000E+00
 -1      1107 0.00000E+00 0.00000E+00 0.00000E+00
 -1      1108 0.00000E+00 0.00000E+00 0.00000E+00
 -1      1109 0.00000E+00 0.00000E+00 0.00000E+00
 -1      1110 0.00000E+00 0.00000E+00 0.00000E+00
 -1      1111 0.00000E+00 0.00000E+00 0.00000E+00
 -1      1112 0.00000E+00 0.00000E+00 0.00000E+00
 -1      1113 0.00000E+00 0.00000E+00 0.00000E+00
 -1      1114 0.00000E+00 0.00000E+00 0.00000E+00
 -1      1115 0.00000E+00 0.00000E+00 0.00000E+00
 -1      1116 0.00000E+00 0.00000E+00 0.00000E+00
 -1      1117 0.00000E+00 0.00000E+00 0.00000E+00
 -1      1118 0.00000E+00 0.00000E+00 0.00000E+00
 -1      1119 2.14462E-04-1.51502E-04-1.24819E-17
 -1      1120 5.57137E-04-3.47041E-04-1.70884E-16
 -1      1121 8.38384E-04-4.74946E-04-5.15796E-16
 -1      1122 1.10359E-03-5.63083E-04-1.07373E-15
 -1      1123 1.35909E-03-6.26103E-04-1.82822E-15
 -1      1124 1.60632E-03-6.69831E-04-2.77243E-15
 -1      1125 1.84525E-03-6.95367E-04-3.89969E-15
 -1      1126 2.07557E-03-7.01001E-04-5.20468E-15
 -1      1127 2.29771E-03-6.83440E-04-6.68522E-15
 -1      1128 2.51338E-03-6.38972E-04-8.33796E-15
 -1      1129 2.72568E-03-5.64703E-04-1.01581E-14
 -1      1130 2.93871E-03-4.59622E-04-1.21392E-14
 -1      1131 3.15673E-03-3.25158E-04-1.42731E-14
 -1      1132 3.38333E-03-1.65041E-04-1.65559E-14
 -1      1133 3.62077E-03 1.54329E-05-1.89812E-14
 -1      1134 3.86975E-03 2.10427E-04-2.15408E-14
 -1      1135 4.12958E-03 4.14516E-04-2.42276E-14
 -1      1136 4.39865E-03 6.23316E-04-2.70382E-14
 -1      1137 4.67491E-03 8.33714E-04-2.99669E-14
 -1      1138 4.95629E-03 1.04380E-03-3.30101E-14
 -1      1139 5.24101E-03 1.25261E-03-3.61706E-14
 -1      1140 5.52767E-03 1.45984E-03-3.94502E-14
 -1      1141 5.81526E-03 1.66555E-03-4.28452E-14
 -1      1142 6.10313E-03 1.87003E-03-4.63602E-14
 -1      1143 6.39089E-03 2.07357E-03-4.99829E-14
 -1      1144 6.67835E-03 2.27649E-03-5.37042E-14
 -1      1145 6.96545E-03 2.47904E-03-5.75250E-14
 -1      1146 7.25220E-03 2.68139E-03-6.14433E-14
 -1      1147 7.53863E-03 2.88368E-03-6.54472E-14
 -1      1148 7.82480E-03 3.08600E-03-6.95379E-14
 -1      1149 8.11078E-03 3.28839E-03-7.37075E-14
 -1      1150 8.39662E-03 3.49087E-03-7.79492E-14
 -1      1151 8.68237E-03 3.69345E-03-8.22586E-14
 -1      1152 8.96805E-03 3.89613E-03-8.66251E-14
 -1      1153 9.25370E-03 4.09889E-03-9.10289E-14
 -1      1154 9.53933E-03 4.30173E-03-9.54810E-14
 -1      1155 9.82496E-03 4.50462E-03-9.99823E-14
 -1      1156 1.01106E-02 4.70757E-03-1.04532E-13
 -1      1157 1.03962E-02 4.91055E-03-1.09130E-13
 -1      1158 1.06819E-02 5.11356E-03-1.13776E-13
 -1      1159 1.09675E-02 5.31659E-03-1.18490E-13
 -1      1160 1.12532E-02 5.51964E-03-1.23266E-13
 -1      1161 1.15389E-02 5.72270E-03-1.28080E-13
 -1      1162 1.18246E-02 5.92576E-03-1.32933E-13
 -1      1163 1.21103E-02 6.12883E-03-1.37820E-13
 -1      1164 1.23960E-02 6.33190E-03-1.42724E-13
 -1      1165 1.26817E-02 6.53498E-03-1.47634E-13
 -1      1166 1.29674E-02 6.73805E-03-1.52560E-13
 -1      1167 1.32531E-02 6.94111E-03-1.57517E-13
 -1      1168 1.35317E-02 7.13910E-03-1.62368E-13
 -1      1169 2.37051E-04 1.53310E-04 5.66631E-17
 -1      1170 5.94804E-04 3.12108E-04 1.09748E-16
 -1      1171 9.26856E-04 4.13692E-04 7.15844E-17
 -1      1172 1.27178E-03 4.88705E-04-7.59890E-17
 -1      1173 1.64754E-03 5.60497E-04-3.35466E-16
 -1      1174 2.07286E-03 6.58209E-04-7.08391E-16
 -1      1175 2.56351E-03 8.28756E-04-1.19506E-15
 -1      1176 3.11723E-03 1.13921E-03-1.78828E-15
 -1      1177 3.64103E-03 1.59661E-03-2.44154E-15
 -1      1178 4.04107E-03 2.10393E-03-3.12635E-15
 -1      1179 4.30908E-03 2.53372E-03-3.90791E-15
 -1      1180 4.47820E-03 2.71081E-03-4.77004E-15
 -1      1181 4.67311E-03 2.59595E-03-5.81928E-15
 -1      1182 5.02137E-03 2.25561E-03-7.19538E-15
 -1      1183 5.53639E-03 1.90791E-03-8.88479E-15
 -1      1184 6.11819E-03 1.72755E-03-1.08387E-14
 -1      1185 6.65560E-03 1.72836E-03-1.29416E-14
 -1      1186 7.12478E-03 1.84176E-03-1.51822E-14
 -1      1187 7.53449E-03 2.01232E-03-1.75383E-14
 -1      1188 7.90088E-03 2.20852E-03-2.00081E-14
 -1      1189 8.23810E-03 2.41493E-03-2.25901E-14
 -1      1190 8.55639E-03 2.62464E-03-2.52815E-14
 -1      1191 8.86262E-03 2.83476E-03-2.80720E-14
 -1      1192 9.16123E-03 3.04419E-03-3.09670E-14
 -1      1193 9.45503E-03 3.25263E-03-3.39695E-14
 -1      1194 9.74580E-03 3.46008E-03-3.70862E-14
 -1      1195 1.00346E-02 3.66666E-03-4.02996E-14
 -1      1196 1.03223E-02 3.87251E-03-4.36076E-14
 -1      1197 1.06091E-02 4.07778E-03-4.70111E-14
 -1      1198 1.08954E-02 4.28257E-03-5.04954E-14
 -1      1199 1.11814E-02 4.48698E-03-5.40623E-14
 -1      1200 1.14744E-02 4.69619E-03-5.78266E-14
 -1      1201 1.17672E-02 4.90516E-03-6.16925E-14
 -1      1202 1.20529E-02 5.10884E-03-6.55365E-14
 -1      1203 1.23385E-02 5.31237E-03-6.94659E-14
 -1      1204 1.26241E-02 5.51578E-03-7.34984E-14
 -1      1205 1.29097E-02 5.71911E-03-7.76054E-14
 -1      1206 1.31953E-02 5.92237E-03-8.17835E-14
 -1      1207 1.34809E-02 6.12557E-03-8.60491E-14
 -1      1208 1.37665E-02 6.32874E-03-9.03756E-14
 -1      1209 1.40522E-02 6.53187E-03-9.47744E-14
 -1      1210 1.43378E-02 6.73499E-03-9.92443E-14
 -1      1211 1.46235E-02 6.93808E-03-1.03777E-13
 -1      1212 1.49092E-02 7.14117E-03-1.08361E-13
 -1      1213 1.51948E-02 7.34425E-03-1.12992E-13
 -1      1214 1.54805E-02 7.54733E-03-1.17686E-13
 -1      1215 1.57662E-02 7.75041E-03-1.22433E-13
 -1      1216 1.60519E-02 7.95348E-03-1.27212E-13
 -1      1217 1.63376E-02 8.15656E-03-1.32028E-13
 -1      1218 1.66234E-02 8.35964E-03-1.36840E-13
 -1      1219 1.69091E-02 8.56272E-03-1.41671E-13
 -1      1220 1.69521E-02 8.62212E-03-1.44720E-13
 -1      1221 1.67524E-02 8.53783E-03-1.45942E-13
 -1      1222 1.65527E-02 8.45355E-03-1.47173E-13
 -1      1223 1.63530E-02 8.36926E-03-1.48424E-13
 -1      1224 1.61533E-02 8.28497E-03-1.49682E-13
 -1      1225 1.59553E-02 8.20138E-03-1.50911E-13
 -1      1226 1.57573E-02 8.11780E-03-1.52120E-13
 -1      1227 1.55576E-02 8.03350E-03-1.53347E-13
 -1      1228 1.53579E-02 7.94920E-03-1.54603E-13
 -1      1229 1.51582E-02 7.86489E-03-1.55861E-13
 -1      1230 1.49585E-02 7.78059E-03-1.57094E-13
 -1      1231 1.47605E-02 7.69701E-03-1.58315E-13
 -1      1232 1.45625E-02 7.61343E-03-1.59517E-13
 -1      1233 1.43629E-02 7.52913E-03-1.60698E-13
 -1      1234 1.41632E-02 7.44484E-03-1.61866E-13
 -1      1235 1.39635E-02 7.36056E-03-1.63023E-13
 -1      1236 1.37655E-02 7.27699E-03-1.64165E-13
 -1      1237 6.61814E-03 1.22592E-03-1.06919E-14
 -1      1238 6.60046E-03 1.39982E-03-1.02263E-14
 -1      1239 6.44610E-03 1.59897E-03-9.58744E-15
 -1      1240 6.16161E-03 1.82827E-03-8.82345E-15
 -1      1241 5.78746E-03 2.06410E-03-8.04607E-15
 -1      1242 5.32553E-03 2.28657E-03-7.25353E-15
 -1      1243 4.77925E-03 2.44411E-03-6.46087E-15
 -1      1244 4.20087E-03 2.45958E-03-5.74299E-15
 -1      1245 3.60255E-03 2.31451E-03-5.09998E-15
 -1      1246 3.02447E-03 2.04305E-03-4.56628E-15
 -1      1247 2.52043E-03 1.73139E-03-4.17551E-15
 -1      1248 2.10286E-03 1.43547E-03-3.90902E-15
 -1      1249 1.76743E-03 1.17130E-03-3.75521E-15
 -1      1250 1.52982E-03 9.42820E-04-3.71997E-15
 -1      1251 1.41197E-03 7.48324E-04-3.81130E-15
 -1      1252 1.42355E-03 5.82245E-04-4.03281E-15
 -1      1253 1.55741E-03 4.35429E-04-4.37526E-15
 -1      1254 1.80614E-03 2.96708E-04-4.85012E-15
 -1      1255 2.14281E-03 1.72290E-04-5.43779E-15
 -1      1256 2.54136E-03 7.31711E-05-6.11105E-15
 -1      1257 3.00797E-03 9.19847E-06-6.89628E-15
 -1      1258 3.49222E-03-2.74383E-06-7.70727E-15
 -1      1259 3.94999E-03 4.00099E-05-8.45271E-15
 -1      1260 4.40298E-03 1.31277E-04-9.15235E-15
 -1      1261 4.84673E-03 2.58074E-04-9.77847E-15
 -1      1262 5.26714E-03 4.07935E-04-1.02953E-14
 -1      1263 5.65918E-03 5.70732E-04-1.06907E-14
 -1      1264 6.02044E-03 7.42250E-04-1.09547E-14
 -1      1265 6.31641E-03 9.10412E-04-1.10455E-14
 -1      1266 6.51627E-03 1.06660E-03-1.09602E-14
 -1      1267 1.68190E-04-1.13154E-04-3.83401E-17
 -1      1268 1.13409E-04-5.93429E-05-5.89670E-17
 -1      1269 1.18430E-04-6.99956E-05-5.27735E-17
 -1      1270 1.09822E-04-4.53361E-05-6.76407E-17
 -1      1271 1.11391E-04-5.18425E-05-6.57162E-17
 -1      1272 2.28380E-04-1.12222E-04-1.56206E-16
 -1      1273 1.08867E-04-3.39293E-05-6.99310E-17
 -1      1274 1.09419E-04-3.95241E-05-6.96600E-17
 -1      1275 2.22613E-04-8.54172E-05-1.69027E-16
 -1      1276 1.08438E-04-2.31590E-05-6.95922E-17
 -1      1277 1.08744E-04-2.84970E-05-7.01072E-17
 -1      1278 2.20816E-04-6.27409E-05-1.71765E-16
 -1      1279 1.07835E-04-1.27191E-05-6.75729E-17
 -1      1280 1.08254E-04-1.78438E-05-6.83183E-17
 -1      1281 2.19867E-04-4.14932E-05-1.69285E-16
 -1      1282 1.06630E-04-2.47294E-06-6.48353E-17
 -1      1283 1.07359E-04-7.42821E-06-6.57569E-17
 -1      1284 2.18291E-04-2.08088E-05-1.63877E-16
 -1      1285 1.04718E-04 6.80803E-06-6.14065E-17
 -1      1286 1.05789E-04 2.40581E-06-6.23552E-17
 -1      1287 2.15294E-04-1.01524E-06-1.56640E-16
 -1      1288 1.02277E-04 1.43345E-05-5.77880E-17
 -1      1289 1.03560E-04 1.08467E-05-5.87773E-17
 -1      1290 2.10708E-04 1.65535E-05-1.48278E-16
 -1      1291 9.98298E-05 1.94115E-05-5.36138E-17
 -1      1292 1.01017E-04 1.71134E-05-5.46438E-17
 -1      1293 2.05048E-04 3.04709E-05-1.39049E-16
 -1      1294 9.82123E-05 2.18471E-05-4.89246E-17
 -1      1295 9.88505E-05 2.07294E-05-5.01850E-17
 -1      1296 1.99639E-04 3.96571E-05-1.28613E-16
 -1      1297 9.83561E-05 2.23557E-05-4.33952E-17
 -1      1298 9.79842E-05 2.19546E-05-4.49537E-17
 -1      1299 1.96491E-04 4.41490E-05-1.16891E-16
 -1      1300 1.01016E-04 2.27327E-05-3.60226E-17
 -1      1301 9.92759E-05 2.20818E-05-3.83943E-17
 -1      1302 1.97681E-04 4.58697E-05-1.02552E-16
 -1      1303 1.06466E-04 2.56990E-05-2.61564E-17
 -1      1304 1.03279E-04 2.34422E-05-2.98156E-17
 -1      1305 2.04843E-04 4.86662E-05-8.42290E-17
 -1      1306 1.14521E-04 3.46130E-05-1.22650E-17
 -1      1307 1.09934E-04 2.91026E-05-1.80520E-17
 -1      1308 2.18329E-04 5.80326E-05-6.00241E-17
 -1      1309 1.26006E-04 5.44341E-05 7.35902E-18
 -1      1310 1.19299E-04 4.28448E-05-1.82959E-18
 -1      1311 2.37966E-04 8.07305E-05-2.75523E-17
 -1      1312 1.68287E-04 1.01093E-04 3.52230E-17
 -1      1313 1.47068E-04 7.40937E-05 1.93395E-17
 -1      1314 2.77908E-04 1.26223E-04 9.79848E-18
 -1      1315 3.60900E-04 1.99718E-04 5.80590E-17
 -1      1316 4.24799E-04-2.69530E-04-1.63172E-16
 -1      1317 5.78299E-04-3.47908E-04-2.85132E-16
 -1      1318 7.25272E-04-4.11875E-04-4.64445E-16
 -1      1319 8.67468E-04-4.64590E-04-6.95489E-16
 -1      1320 6.14967E-04-3.43649E-04-4.11373E-16
 -1      1321 1.00559E-03-5.09174E-04-9.74454E-16
 -1      1322 1.14042E-03-5.46634E-04-1.30221E-15
 -1      1323 9.07028E-04-4.51552E-04-8.75073E-16
 -1      1324 1.27258E-03-5.78733E-04-1.67765E-15
 -1      1325 1.40238E-03-6.05640E-04-2.10067E-15
 -1      1326 1.18488E-03-5.28460E-04-1.52985E-15
 -1      1327 1.53005E-03-6.28098E-04-2.56942E-15
 -1      1328 1.65566E-03-6.45972E-04-3.08403E-15
 -1      1329 1.45253E-03-5.83683E-04-2.37043E-15
 -1      1330 1.77931E-03-6.59348E-04-3.64320E-15
 -1      1331 1.90098E-03-6.67907E-04-4.24683E-15
 -1      1332 1.71192E-03-6.20529E-04-3.39190E-15
 -1      1333 2.02077E-03-6.71331E-04-4.89458E-15
 -1      1334 2.13872E-03-6.69182E-04-5.58580E-15
 -1      1335 1.96395E-03-6.38590E-04-4.59009E-15
 -1      1336 2.25501E-03-6.60939E-04-6.32051E-15
 -1      1337 2.36980E-03-6.46145E-04-7.09766E-15
 -1      1338 2.20931E-03-6.35096E-04-5.96209E-15
 -1      1339 2.48339E-03-6.24280E-04-7.91760E-15
 -1      1340 2.59608E-03-5.94998E-04-8.77945E-15
 -1      1341 2.44912E-03-6.06109E-04-7.50441E-15
 -1      1342 2.70829E-03-5.57972E-04-9.68182E-15
 -1      1343 2.82041E-03-5.13090E-04-1.06252E-14
 -1      1344 2.68525E-03-5.47852E-04-9.21371E-15
 -1      1345 2.93291E-03-4.60354E-04-1.16082E-14
 -1      1346 3.04620E-03-3.99945E-04-1.26306E-14
 -1      1347 2.92031E-03-4.58034E-04-1.10860E-14
 -1      1348 3.16072E-03-3.32231E-04-1.36903E-14
 -1      1349 3.27681E-03-2.57673E-04-1.47871E-14
 -1      1350 3.15725E-03-3.36794E-04-1.31144E-14
 -1      1351 3.39481E-03-1.76925E-04-1.59209E-14
 -1      1352 3.51493E-03-9.06406E-05-1.70909E-14
 -1      1353 3.39879E-03-1.86945E-04-1.52946E-14
 -1      1354 3.63733E-03 3.83028E-07-1.82958E-14
 -1      1355 3.76209E-03 9.54214E-05-1.95350E-14
 -1      1356 3.64697E-03-1.34475E-05-1.76188E-14
 -1      1357 3.88922E-03 1.93695E-04-2.08074E-14
 -1      1358 4.01865E-03 2.94519E-04-2.21118E-14
 -1      1359 3.90280E-03 1.77627E-04-2.00820E-14
 -1      1360 4.15026E-03 3.97249E-04-2.34478E-14
 -1      1361 4.28390E-03 5.01316E-04-2.48147E-14
 -1      1362 4.16631E-03 3.80228E-04-2.26759E-14
 -1      1363 4.41937E-03 6.06266E-04-2.62126E-14
 -1      1364 4.55648E-03 7.11677E-04-2.76404E-14
 -1      1365 4.43675E-03 5.89192E-04-2.53953E-14
 -1      1366 4.69501E-03 8.17282E-04-2.90979E-14
 -1      1367 4.83475E-03 9.22800E-04-3.05838E-14
 -1      1368 4.71290E-03 8.00678E-04-2.82363E-14
 -1      1369 4.97550E-03 1.02812E-03-3.20994E-14
 -1      1370 5.11708E-03 1.13307E-03-3.36436E-14
 -1      1371 4.99339E-03 1.01221E-03-3.11954E-14
 -1      1372 5.25931E-03 1.23764E-03-3.52170E-14
 -1      1373 5.40206E-03 1.34176E-03-3.68211E-14
 -1      1374 5.27694E-03 1.22245E-03-3.42710E-14
 -1      1375 5.54518E-03 1.44546E-03-3.84535E-14
 -1      1376 5.68858E-03 1.54872E-03-4.01143E-14
 -1      1377 5.56245E-03 1.43089E-03-3.74640E-14
 -1      1378 5.83216E-03 1.65162E-03-4.18056E-14
 -1      1379 5.97586E-03 1.75415E-03-4.35264E-14
 -1      1380 5.84908E-03 1.63754E-03-4.07736E-14
 -1      1381 6.11961E-03 1.85639E-03-4.52755E-14
 -1      1382 6.26337E-03 1.95835E-03-4.70519E-14
 -1      1383 6.13624E-03 1.84265E-03-4.41990E-14
 -1      1384 6.40710E-03 2.06011E-03-4.88554E-14
 -1      1385 6.55080E-03 2.16169E-03-5.06853E-14
 -1      1386 6.42352E-03 2.04660E-03-4.77379E-14
 -1      1387 6.69443E-03 2.26313E-03-5.25391E-14
 -1      1388 6.83799E-03 2.36445E-03-5.44152E-14
 -1      1389 6.71070E-03 2.24973E-03-5.13803E-14
 -1      1390 6.98148E-03 2.46570E-03-5.63182E-14
 -1      1391 7.12489E-03 2.56689E-03-5.82460E-14
 -1      1392 6.99768E-03 2.45235E-03-5.51214E-14
 -1      1393 7.26823E-03 2.66804E-03-6.01970E-14
 -1      1394 7.41150E-03 2.76918E-03-6.21702E-14
 -1      1395 7.28440E-03 2.65470E-03-5.89590E-14
 -1      1396 7.55470E-03 2.87031E-03-6.41642E-14
 -1      1397 7.69785E-03 2.97144E-03-6.61794E-14
 -1      1398 7.57088E-03 2.85694E-03-6.28889E-14
 -1      1399 7.84094E-03 3.07258E-03-6.82165E-14
 -1      1400 7.98398E-03 3.17374E-03-7.02727E-14
 -1      1401 7.85714E-03 3.05918E-03-6.69039E-14
 -1      1402 8.12698E-03 3.27493E-03-7.23494E-14
 -1      1403 8.26995E-03 3.37614E-03-7.44448E-14
 -1      1404 8.14322E-03 3.26148E-03-7.10000E-14
 -1      1405 8.41288E-03 3.47737E-03-7.65570E-14
 -1      1406 8.55579E-03 3.57863E-03-7.86851E-14
 -1      1407 8.42917E-03 3.46388E-03-7.51722E-14
 -1      1408 8.69868E-03 3.67991E-03-8.08293E-14
 -1      1409 8.84155E-03 3.78123E-03-8.29917E-14
 -1      1410 8.71501E-03 3.66639E-03-7.94134E-14
 -1      1411 8.98441E-03 3.88256E-03-8.51673E-14
 -1      1412 9.12726E-03 3.98392E-03-8.73533E-14
 -1      1413 9.00077E-03 3.86901E-03-8.37173E-14
 -1      1414 9.27010E-03 4.08530E-03-8.95514E-14
 -1      1415 9.41293E-03 4.18670E-03-9.17599E-14
 -1      1416 9.28649E-03 4.07172E-03-8.80783E-14
 -1      1417 9.55576E-03 4.28812E-03-9.39802E-14
 -1      1418 9.69858E-03 4.38955E-03-9.62135E-14
 -1      1419 9.57218E-03 4.27451E-03-9.24868E-14
 -1      1420 9.84141E-03 4.49100E-03-9.84605E-14
 -1      1421 9.98423E-03 4.59246E-03-1.00720E-13
 -1      1422 9.85785E-03 4.47738E-03-9.69441E-14
 -1      1423 1.01271E-02 4.69393E-03-1.02991E-13
 -1      1424 1.02699E-02 4.79541E-03-1.05274E-13
 -1      1425 1.01435E-02 4.68030E-03-1.01452E-13
 -1      1426 1.04127E-02 4.89690E-03-1.07568E-13
 -1      1427 1.05555E-02 4.99840E-03-1.09875E-13
 -1      1428 1.04292E-02 4.88326E-03-1.06010E-13
 -1      1429 1.06984E-02 5.09991E-03-1.12198E-13
 -1      1430 1.08412E-02 5.20142E-03-1.14533E-13
 -1      1431 1.07148E-02 5.08626E-03-1.10620E-13
 -1      1432 1.09840E-02 5.30294E-03-1.16883E-13
 -1      1433 1.11269E-02 5.40446E-03-1.19250E-13
 -1      1434 1.10005E-02 5.28929E-03-1.15282E-13
 -1      1435 1.12697E-02 5.50598E-03-1.21630E-13
 -1      1436 1.14125E-02 5.60751E-03-1.24021E-13
 -1      1437 1.12862E-02 5.49233E-03-1.20002E-13
 -1      1438 1.15554E-02 5.70904E-03-1.26422E-13
 -1      1439 1.16982E-02 5.81057E-03-1.28833E-13
 -1      1440 1.15719E-02 5.69539E-03-1.24772E-13
 -1      1441 1.18411E-02 5.91211E-03-1.31254E-13
 -1      1442 1.19839E-02 6.01364E-03-1.33681E-13
 -1      1443 1.18576E-02 5.89845E-03-1.29580E-13
 -1      1444 1.21268E-02 6.11518E-03-1.36118E-13
 -1      1445 1.22696E-02 6.21671E-03-1.38563E-13
 -1      1446 1.21433E-02 6.10152E-03-1.34427E-13
 -1      1447 1.24125E-02 6.31825E-03-1.41011E-13
 -1      1448 1.25553E-02 6.41979E-03-1.43461E-13
 -1      1449 1.24290E-02 6.30459E-03-1.39303E-13
 -1      1450 1.26982E-02 6.52132E-03-1.45915E-13
 -1      1451 1.28410E-02 6.62286E-03-1.48373E-13
 -1      1452 1.27147E-02 6.50767E-03-1.44198E-13
 -1      1453 1.29839E-02 6.72439E-03-1.50837E-13
 -1      1454 1.31267E-02 6.82593E-03-1.53304E-13
 -1      1455 1.30004E-02 6.71074E-03-1.49113E-13
 -1      1456 1.32696E-02 6.92746E-03-1.55778E-13
 -1      1457 1.34124E-02 7.02900E-03-1.58260E-13
 -1      1458 1.32861E-02 6.91381E-03-1.54045E-13
 -1      1459 1.36298E-02 7.18053E-03-1.61802E-13
 -1      1460 1.36463E-02 7.16688E-03-1.60056E-13
 -1      1461 7.07636E-04 3.27966E-04 5.40881E-17
 -1      1462 5.36375E-04 2.70308E-04 6.82776E-17
 -1      1463 4.86325E-04 2.29522E-04 3.25667E-17
 -1      1464 1.04883E-03 4.12837E-04-5.26651E-17
 -1      1465 8.77669E-04 3.73393E-04 1.41895E-17
 -1      1466 8.26552E-04 3.33100E-04-3.64563E-17
 -1      1467 1.40324E-03 4.80703E-04-2.68259E-16
 -1      1468 1.22322E-03 4.47171E-04-1.46340E-16
 -1      1469 1.16802E-03 4.06521E-04-2.10471E-16
 -1      1470 1.78685E-03 5.55149E-04-5.95322E-16
 -1      1471 1.59028E-03 5.14966E-04-4.17838E-16
 -1      1472 1.52270E-03 4.71555E-04-4.94125E-16
 -1      1473 2.21345E-03 6.71455E-04-1.03533E-15
 -1      1474 1.99388E-03 6.04904E-04-8.00954E-16
 -1      1475 1.90240E-03 5.55443E-04-8.88978E-16
 -1      1476 2.69057E-03 8.87348E-04-1.58562E-15
 -1      1477 2.44590E-03 7.62985E-04-1.29654E-15
 -1      1478 2.31762E-03 7.02749E-04-1.39477E-15
 -1      1479 3.20814E-03 1.27544E-03-2.24964E-15
 -1      1480 2.94677E-03 1.05747E-03-1.90259E-15
 -1      1481 2.77545E-03 9.81543E-04-2.01248E-15
 -1      1482 3.64678E-03 1.76611E-03-2.91936E-15
 -1      1483 3.43144E-03 1.50739E-03-2.57116E-15
 -1      1484 3.23390E-03 1.41795E-03-2.69416E-15
 -1      1485 4.01520E-03 2.27360E-03-3.66004E-15
 -1      1486 3.83876E-03 2.02639E-03-3.27490E-15
 -1      1487 3.65422E-03 1.93987E-03-3.41207E-15
 -1      1488 4.31923E-03 2.63120E-03-4.53144E-15
 -1      1489 4.17207E-03 2.48475E-03-4.07928E-15
 -1      1490 4.04429E-03 2.42184E-03-4.23346E-15
 -1      1491 4.56306E-03 2.67588E-03-5.41909E-15
 -1      1492 4.43896E-03 2.68573E-03-4.96063E-15
 -1      1493 4.38878E-03 2.64987E-03-5.13259E-15
 -1      1494 4.90179E-03 2.41763E-03-6.66443E-15
 -1      1495 4.72376E-03 2.57473E-03-6.01746E-15
 -1      1496 4.74621E-03 2.54743E-03-6.20158E-15
 -1      1497 5.33936E-03 2.02905E-03-8.16944E-15
 -1      1498 5.11338E-03 2.22062E-03-7.39278E-15
 -1      1499 5.17994E-03 2.18278E-03-7.57990E-15
 -1      1500 5.87088E-03 1.73422E-03-1.00369E-14
 -1      1501 5.60462E-03 1.85749E-03-9.07941E-15
 -1      1502 5.66908E-03 1.80858E-03-9.26800E-15
 -1      1503 6.38440E-03 1.65117E-03-1.20693E-14
 -1      1504 6.13247E-03 1.67043E-03-1.10351E-14
 -1      1505 6.16180E-03 1.61757E-03-1.12243E-14
 -1      1506 6.85004E-03 1.71999E-03-1.42443E-14
 -1      1507 6.62359E-03 1.67181E-03-1.31403E-14
 -1      1508 6.61144E-03 1.61944E-03-1.33338E-14
 -1      1509 7.26591E-03 1.87100E-03-1.65493E-14
 -1      1510 7.06373E-03 1.78838E-03-1.53823E-14
 -1      1511 7.01962E-03 1.73793E-03-1.55774E-14
 -1      1512 7.64102E-03 2.06020E-03-1.89633E-14
 -1      1513 7.45788E-03 1.96235E-03-1.77413E-14
 -1      1514 7.39350E-03 1.91406E-03-1.79406E-14
 -1      1515 7.98625E-03 2.26510E-03-2.14939E-14
 -1      1516 7.81673E-03 2.16135E-03-2.02155E-14
 -1      1517 7.74077E-03 2.11504E-03-2.04168E-14
 -1      1518 8.31085E-03 2.47539E-03-2.41320E-14
 -1      1519 8.15061E-03 2.36984E-03-2.27993E-14
 -1      1520 8.06843E-03 2.32514E-03-2.30035E-14
 -1      1521 8.62173E-03 2.68669E-03-2.68784E-14
 -1      1522 8.46763E-03 2.58101E-03-2.54931E-14
 -1      1523 8.38226E-03 2.53754E-03-2.56993E-14
 -1      1524 8.92363E-03 2.89733E-03-2.97248E-14
 -1      1525 8.77354E-03 2.79212E-03-2.82881E-14
 -1      1526 8.68661E-03 2.74954E-03-2.84994E-14
 -1      1527 9.21973E-03 3.10682E-03-3.26759E-14
 -1      1528 9.07224E-03 3.00222E-03-3.11882E-14
 -1      1529 8.98460E-03 2.96026E-03-3.14032E-14
 -1      1530 9.51210E-03 3.31512E-03-3.57419E-14
 -1      1531 9.36627E-03 3.21111E-03-3.41952E-14
 -1      1532 9.27837E-03 3.16958E-03-3.44149E-14
 -1      1533 9.80204E-03 3.52237E-03-3.89106E-14
 -1      1534 9.65730E-03 3.41886E-03-3.73128E-14
 -1      1535 9.56935E-03 3.37763E-03-3.75354E-14
 -1      1536 1.00904E-02 3.72873E-03-4.21734E-14
 -1      1537 9.94639E-03 3.62565E-03-4.05284E-14
 -1      1538 9.85848E-03 3.58462E-03-4.07551E-14
 -1      1539 1.03778E-02 3.93439E-03-4.55337E-14
 -1      1540 1.02342E-02 3.83164E-03-4.38426E-14
 -1      1541 1.01464E-02 3.79075E-03-4.40718E-14
 -1      1542 1.06645E-02 4.13948E-03-4.89848E-14
 -1      1543 1.05212E-02 4.03700E-03-4.72484E-14
 -1      1544 1.04335E-02 3.99620E-03-4.74828E-14
 -1      1545 1.09508E-02 4.34412E-03-5.25168E-14
 -1      1546 1.08077E-02 4.24185E-03-5.07404E-14
 -1      1547 1.07201E-02 4.20112E-03-5.09796E-14
 -1      1548 1.12368E-02 4.54841E-03-5.61396E-14
 -1      1549 1.10938E-02 4.44631E-03-5.43163E-14
 -1      1550 1.10063E-02 4.40562E-03-5.45642E-14
 -1      1551 1.15369E-02 4.76262E-03-6.00519E-14
 -1      1552 1.13869E-02 4.65555E-03-5.80820E-14
 -1      1553 1.12994E-02 4.61490E-03-5.83359E-14
 -1      1554 1.18227E-02 4.96640E-03-6.38671E-14
 -1      1555 1.16798E-02 4.86454E-03-6.19489E-14
 -1      1556 1.15924E-02 4.82391E-03-6.22035E-14
 -1      1557 1.21084E-02 5.17001E-03-6.77586E-14
 -1      1558 1.19655E-02 5.06823E-03-6.58019E-14
 -1      1559 1.18782E-02 5.02761E-03-6.60624E-14
 -1      1560 1.23940E-02 5.37349E-03-7.17420E-14
 -1      1561 1.22512E-02 5.27177E-03-6.97404E-14
 -1      1562 1.21639E-02 5.23116E-03-7.00081E-14
 -1      1563 1.26796E-02 5.57686E-03-7.58232E-14
 -1      1564 1.25368E-02 5.47519E-03-7.37722E-14
 -1      1565 1.24495E-02 5.43459E-03-7.40441E-14
 -1      1566 1.29652E-02 5.78016E-03-7.99671E-14
 -1      1567 1.28224E-02 5.67852E-03-7.78856E-14
 -1      1568 1.27352E-02 5.63793E-03-7.81607E-14
 -1      1569 1.32509E-02 5.98339E-03-8.41870E-14
 -1      1570 1.31080E-02 5.88178E-03-8.20682E-14
 -1      1571 1.30208E-02 5.84119E-03-8.23473E-14
 -1      1572 1.35365E-02 6.18657E-03-8.84884E-14
 -1      1573 1.33937E-02 6.08499E-03-8.63278E-14
 -1      1574 1.33064E-02 6.04440E-03-8.66075E-14
 -1      1575 1.38221E-02 6.38972E-03-9.28457E-14
 -1      1576 1.36793E-02 6.28815E-03-9.06585E-14
 -1      1577 1.35921E-02 6.24756E-03-9.09346E-14
 -1      1578 1.41078E-02 6.59284E-03-9.72795E-14
 -1      1579 1.39650E-02 6.49129E-03-9.50549E-14
 -1      1580 1.38778E-02 6.45070E-03-9.53318E-14
 -1      1581 1.43935E-02 6.79595E-03-1.01776E-13
 -1      1582 1.42506E-02 6.69440E-03-9.95205E-14
 -1      1583 1.41634E-02 6.65381E-03-9.97925E-14
 -1      1584 1.46791E-02 6.99904E-03-1.06334E-13
 -1      1585 1.45363E-02 6.89750E-03-1.04048E-13
 -1      1586 1.44491E-02 6.85691E-03-1.04319E-13
 -1      1587 1.49648E-02 7.20212E-03-1.10938E-13
 -1      1588 1.48220E-02 7.10058E-03-1.08627E-13
 -1      1589 1.47348E-02 7.06000E-03-1.08896E-13
 -1      1590 1.52505E-02 7.40520E-03-1.15597E-13
 -1      1591 1.51077E-02 7.30366E-03-1.13262E-13
 -1      1592 1.50205E-02 7.26308E-03-1.13526E-13
 -1      1593 1.55362E-02 7.60828E-03-1.20317E-13
 -1      1594 1.53934E-02 7.50674E-03-1.17950E-13
 -1      1595 1.53062E-02 7.46615E-03-1.18215E-13
 -1      1596 1.58219E-02 7.81135E-03-1.25074E-13
 -1      1597 1.56791E-02 7.70982E-03-1.22693E-13
 -1      1598 1.55919E-02 7.66923E-03-1.22951E-13
 -1      1599 1.61076E-02 8.01443E-03-1.29865E-13
 -1      1600 1.59648E-02 7.91289E-03-1.27466E-13
 -1      1601 1.58776E-02 7.87230E-03-1.27719E-13
 -1      1602 1.63933E-02 8.21751E-03-1.34671E-13
 -1      1603 1.62505E-02 8.11597E-03-1.32265E-13
 -1      1604 1.61633E-02 8.07538E-03-1.32511E-13
 -1      1605 1.66790E-02 8.42059E-03-1.39491E-13
 -1      1606 1.65362E-02 8.31905E-03-1.37079E-13
 -1      1607 1.64490E-02 8.27846E-03-1.37317E-13
 -1      1608 1.68092E-02 8.52058E-03-1.42291E-13
 -1      1609 1.65787E-02 8.42883E-03-1.44163E-13
 -1      1610 1.66786E-02 8.47097E-03-1.43541E-13
 -1      1611 1.63790E-02 8.34454E-03-1.45401E-13
 -1      1612 1.64789E-02 8.38668E-03-1.44781E-13
 -1      1613 1.64051E-02 8.31982E-03-1.42384E-13
 -1      1614 1.61793E-02 8.26025E-03-1.46654E-13
 -1      1615 1.62792E-02 8.30239E-03-1.46025E-13
 -1      1616 1.62054E-02 8.23553E-03-1.43631E-13
 -1      1617 1.59796E-02 8.17596E-03-1.47901E-13
 -1      1618 1.60795E-02 8.21810E-03-1.47281E-13
 -1      1619 1.60057E-02 8.15124E-03-1.44880E-13
 -1      1620 1.57833E-02 8.09309E-03-1.49118E-13
 -1      1621 1.58815E-02 8.13452E-03-1.48511E-13
 -1      1622 1.58077E-02 8.06766E-03-1.46115E-13
 -1      1623 1.55836E-02 8.00879E-03-1.50340E-13
 -1      1624 1.56835E-02 8.05094E-03-1.49729E-13
 -1      1625 1.56097E-02 7.98408E-03-1.47334E-13
 -1      1626 1.53839E-02 7.92449E-03-1.51572E-13
 -1      1627 1.54838E-02 7.96664E-03-1.50954E-13
 -1      1628 1.54100E-02 7.89978E-03-1.48561E-13
 -1      1629 1.51842E-02 7.84019E-03-1.52819E-13
 -1      1630 1.52841E-02 7.88234E-03-1.52196E-13
 -1      1631 1.52103E-02 7.81548E-03-1.49792E-13
 -1      1632 1.49845E-02 7.75589E-03-1.54057E-13
 -1      1633 1.50844E-02 7.79804E-03-1.53440E-13
 -1      1634 1.50106E-02 7.73118E-03-1.51027E-13
 -1      1635 1.47849E-02 7.67159E-03-1.55283E-13
 -1      1636 1.48847E-02 7.71374E-03-1.54672E-13
 -1      1637 1.48109E-02 7.64689E-03-1.52252E-13
 -1      1638 1.45886E-02 7.58872E-03-1.56477E-13
 -1      1639 1.46867E-02 7.63016E-03-1.55881E-13
 -1      1640 1.46129E-02 7.56330E-03-1.53456E-13
 -1      1641 1.43889E-02 7.50443E-03-1.57670E-13
 -1      1642 1.44887E-02 7.54657E-03-1.57078E-13
 -1      1643 1.44149E-02 7.47972E-03-1.54646E-13
 -1      1644 1.41892E-02 7.42014E-03-1.58847E-13
 -1      1645 1.42891E-02 7.46228E-03-1.58261E-13
 -1      1646 1.42153E-02 7.39543E-03-1.55828E-13
 -1      1647 1.39896E-02 7.33585E-03-1.60009E-13
 -1      1648 1.40894E-02 7.37799E-03-1.59430E-13
 -1      1649 1.40156E-02 7.31114E-03-1.56995E-13
 -1      1650 1.37680E-02 7.23029E-03-1.60323E-13
 -1      1651 1.38678E-02 7.27243E-03-1.59747E-13
 -1      1652 1.37941E-02 7.20558E-03-1.57315E-13
 -1      1653 1.35506E-02 7.07875E-03-1.56786E-13
 -1      1654 6.64458E-03 1.26050E-03-1.10219E-14
 -1      1655 6.62483E-03 1.21151E-03-1.12126E-14
 -1      1656 6.57261E-03 1.38808E-03-1.04240E-14
 -1      1657 6.62582E-03 1.32541E-03-1.07102E-14
 -1      1658 6.33352E-03 1.54990E-03-9.72335E-15
 -1      1659 6.46159E-03 1.46339E-03-1.00949E-14
 -1      1660 5.97625E-03 1.79747E-03-8.80757E-15
 -1      1661 6.15664E-03 1.67971E-03-9.21791E-15
 -1      1662 5.56928E-03 2.06664E-03-7.94693E-15
 -1      1663 5.76043E-03 1.94324E-03-8.32818E-15
 -1      1664 5.07788E-03 2.34176E-03-7.05105E-15
 -1      1665 5.30272E-03 2.21336E-03-7.47259E-15
 -1      1666 4.60625E-03 2.51760E-03-6.21120E-15
 -1      1667 4.82811E-03 2.45652E-03-6.58401E-15
 -1      1668 4.12291E-03 2.50737E-03-5.44622E-15
 -1      1669 4.34493E-03 2.54135E-03-5.77931E-15
 -1      1670 3.61164E-03 2.27622E-03-4.79212E-15
 -1      1671 3.85053E-03 2.40656E-03-5.07859E-15
 -1      1672 3.05781E-03 1.91820E-03-4.29986E-15
 -1      1673 3.30594E-03 2.09167E-03-4.51990E-15
 -1      1674 2.55843E-03 1.55647E-03-3.93981E-15
 -1      1675 2.78259E-03 1.71840E-03-4.08861E-15
 -1      1676 2.11227E-03 1.24818E-03-3.70281E-15
 -1      1677 2.31024E-03 1.38343E-03-3.79903E-15
 -1      1678 1.74440E-03 1.00565E-03-3.58214E-15
 -1      1679 1.90259E-03 1.10978E-03-3.62405E-15
 -1      1680 1.49028E-03 8.26033E-04-3.57971E-15
 -1      1681 1.59131E-03 9.01968E-04-3.56606E-15
 -1      1682 1.38447E-03 6.92597E-04-3.69476E-15
 -1      1683 1.41348E-03 7.47211E-04-3.62004E-15
 -1      1684 1.43699E-03 5.84211E-04-3.95957E-15
 -1      1685 1.39380E-03 6.33108E-04-3.82610E-15
 -1      1686 1.62891E-03 4.76421E-04-4.32460E-15
 -1      1687 1.52468E-03 5.28352E-04-4.13611E-15
 -1      1688 1.95067E-03 3.49488E-04-4.83170E-15
 -1      1689 1.79005E-03 4.14601E-04-4.56994E-15
 -1      1690 2.31460E-03 1.96023E-04-5.48427E-15
 -1      1691 2.13948E-03 2.61034E-04-5.18749E-15
 -1      1692 2.73642E-03 6.32370E-05-6.21207E-15
 -1      1693 2.54250E-03 1.24905E-04-5.85561E-15
 -1      1694 3.18307E-03-3.70297E-05-7.08212E-15
 -1      1695 2.98168E-03 1.95171E-06-6.66860E-15
 -1      1696 3.59747E-03-4.93978E-05-7.95341E-15
 -1      1697 3.41044E-03-5.23606E-05-7.56440E-15
 -1      1698 3.99445E-03 1.65751E-05-8.74854E-15
 -1      1699 3.81429E-03-2.16444E-05-8.39045E-15
 -1      1700 4.39474E-03 1.49238E-04-9.54055E-15
 -1      1701 4.20445E-03 7.83143E-05-9.19081E-15
 -1      1702 4.82236E-03 3.25014E-04-1.01817E-14
 -1      1703 4.63229E-03 2.40472E-04-9.89145E-15
 -1      1704 5.24340E-03 5.21486E-04-1.07390E-14
 -1      1705 5.04809E-03 4.28959E-04-1.04978E-14
 -1      1706 5.65152E-03 7.13148E-04-1.11540E-14
 -1      1707 5.46636E-03 6.26582E-04-1.09832E-14
 -1      1708 6.04123E-03 9.06164E-04-1.14789E-14
 -1      1709 5.85962E-03 8.25069E-04-1.13766E-14
 -1      1710 6.35970E-03 1.03748E-03-1.14820E-14
 -1      1711 6.22989E-03 9.76791E-04-1.14795E-14
 -1      1712 6.56345E-03 1.15175E-03-1.13461E-14
 -1      1713 6.48310E-03 1.10183E-03-1.14330E-14
 -1      1714 5.80650E-03 1.81508E-03-8.71529E-15
 -1      1715 6.20464E-03 1.55273E-03-9.72391E-15
 -1      1716 1.67220E-02 8.47999E-03-1.42526E-13
 -1      1717 1.65484E-02 8.37098E-03-1.40747E-13
 -1      1718 6.64389E-03 1.28402E-03-1.12450E-14
 -1      1719 6.50583E-03 1.38511E-03-1.05871E-14
 -1      1720 6.60532E-03 1.21279E-03-1.17023E-14
 -1      1721 5.35036E-03 2.11980E-03-7.74375E-15
 -1      1722 4.90500E-03 2.41268E-03-6.78819E-15
 -1      1723 4.46753E-03 2.56844E-03-5.89044E-15
 -1      1724 4.04477E-03 2.48813E-03-5.10600E-15
 -1      1725 3.56408E-03 2.17627E-03-4.49361E-15
 -1      1726 3.03318E-03 1.76894E-03-4.03554E-15
 -1      1727 2.52620E-03 1.38688E-03-3.70720E-15
 -1      1728 2.06516E-03 1.08712E-03-3.50573E-15
 -1      1729 1.69030E-03 8.76041E-04-3.42155E-15
 -1      1730 1.44940E-03 7.38605E-04-3.44685E-15
 -1      1731 1.37857E-03 6.55530E-04-3.60942E-15
 -1      1732 1.47977E-03 5.81189E-04-3.90146E-15
 -1      1733 1.73292E-03 4.88472E-04-4.30031E-15
 -1      1734 2.08409E-03 3.50467E-04-4.87173E-15
 -1      1735 2.48734E-03 1.84729E-04-5.58020E-15
 -1      1736 2.91077E-03 2.98050E-05-6.39080E-15
 -1      1737 3.30630E-03-6.88520E-05-7.32164E-15
 -1      1738 3.68269E-03-6.44848E-05-8.24495E-15
 -1      1739 4.04792E-03 3.10223E-05-9.13337E-15
 -1      1740 4.42777E-03 2.02063E-04-9.94455E-15
 -1      1741 4.84876E-03 4.14569E-04-1.06289E-14
 -1      1742 5.27460E-03 6.37393E-04-1.12079E-14
 -1      1743 5.70086E-03 8.53968E-04-1.16914E-14
 -1      1744 6.10117E-03 1.02078E-03-1.19301E-14
 -1      1745 6.41731E-03 1.13017E-03-1.18875E-14
 -1      1746 2.87182E-04-1.81694E-04-1.29196E-16
 -1      1747 3.38769E-04-1.20159E-04-2.60710E-16
 -1      1748 3.41503E-04-1.38270E-04-2.56482E-16
 -1      1749 3.46029E-04-1.58526E-04-2.48770E-16
 -1      1750 3.54584E-04-1.81249E-04-2.34540E-16
 -1      1751 4.64725E-04-1.96139E-04-3.74904E-16
 -1      1752 3.34538E-04-5.54056E-05-2.56292E-16
 -1      1753 3.35462E-04-7.07706E-05-2.59829E-16
 -1      1754 3.31502E-04-2.48948E-05-2.47185E-16
 -1      1755 3.33303E-04-3.99488E-05-2.52158E-16
 -1      1756 4.51592E-04-6.41745E-05-3.73914E-16
 -1      1757 3.25978E-04 3.71551E-06-2.35665E-16
 -1      1758 3.29084E-04-1.02414E-05-2.41886E-16
 -1      1759 4.46565E-04-2.46055E-05-3.59765E-16
 -1      1760 3.17806E-04 2.88065E-05-2.22831E-16
 -1      1761 3.22157E-04 1.68398E-05-2.29512E-16
 -1      1762 4.37690E-04 1.22412E-05-3.42798E-16
 -1      1763 3.08073E-04 4.84950E-05-2.08641E-16
 -1      1764 3.12955E-04 3.94446E-05-2.16217E-16
 -1      1765 4.25020E-04 4.42546E-05-3.23865E-16
 -1      1766 2.99269E-04 6.15605E-05-1.92554E-16
 -1      1767 3.03277E-04 5.58828E-05-2.01052E-16
 -1      1768 4.10528E-04 6.91390E-05-3.02831E-16
 -1      1769 2.94989E-04 6.85000E-05-1.74204E-16
 -1      1770 2.96291E-04 6.56374E-05-1.83989E-16
 -1      1771 3.98375E-04 8.55677E-05-2.79019E-16
 -1      1772 2.98724E-04 7.27435E-05-1.51504E-16
 -1      1773 2.95611E-04 7.06709E-05-1.63796E-16
 -1      1774 3.93842E-04 9.50555E-05-2.51426E-16
 -1      1775 3.13069E-04 8.01564E-05-1.22339E-16
 -1      1776 3.04529E-04 7.56107E-05-1.38331E-16
 -1      1777 4.02271E-04 1.02382E-04-2.17532E-16
 -1      1778 3.38317E-04 9.88515E-05-8.38088E-17
 -1      1779 3.24475E-04 8.76181E-05-1.04964E-16
 -1      1780 4.26848E-04 1.15664E-04-1.74245E-16
 -1      1781 3.74698E-04 1.38483E-04-3.26887E-17
 -1      1782 3.55250E-04 1.15566E-04-6.07153E-17
 -1      1783 4.67336E-04 1.45299E-04-1.18246E-16
 -1      1784 4.44049E-04 1.95894E-04 8.42967E-18
 -1      1785 4.07588E-04 1.63308E-04-1.63986E-17
 -1      1786 5.29451E-04 1.93806E-04-6.57704E-17
 -1      1787 6.11128E-04 2.52982E-04-1.86754E-17
 -1      1788 3.42031E-04-1.97911E-04-1.91768E-16
 -1      1789 9.44885E-04 3.39389E-04-1.49769E-16
 -1      1790 7.77590E-04 2.99672E-04-7.11914E-17
 -1      1791 7.31043E-04 2.68130E-04-1.01644E-16
 -1      1792 4.61886E-04-2.46335E-04-3.11410E-16
 -1      1793 8.10851E-04-3.92036E-04-7.76031E-16
 -1      1794 9.55578E-04-4.37061E-04-1.05722E-15
 -1      1795 1.09725E-03-4.75714E-04-1.38415E-15
 -1      1796 1.23680E-03-5.08520E-04-1.75723E-15
 -1      1797 1.01059E-03-4.21095E-04-1.24167E-15
 -1      1798 1.37416E-03-5.36596E-04-2.17528E-15
 -1      1799 1.50955E-03-5.59908E-04-2.63850E-15
 -1      1800 1.29510E-03-4.87222E-04-1.98471E-15
 -1      1801 1.64320E-03-5.78870E-04-3.14596E-15
 -1      1802 1.77505E-03-5.93221E-04-3.69703E-15
 -1      1803 1.57296E-03-5.34645E-04-2.90498E-15
 -1      1804 1.90531E-03-6.02845E-04-4.29149E-15
 -1      1805 2.03392E-03-6.07309E-04-4.92928E-15
 -1      1806 1.84456E-03-5.64295E-04-3.99927E-15
 -1      1807 2.16105E-03-6.06161E-04-5.61018E-15
 -1      1808 2.28682E-03-5.98880E-04-6.33314E-15
 -1      1809 2.11018E-03-5.74267E-04-5.26486E-15
 -1      1810 2.41129E-03-5.84895E-04-7.09814E-15
 -1      1811 2.53485E-03-5.63722E-04-7.90526E-15
 -1      1812 2.37026E-03-5.60720E-04-6.69958E-15
 -1      1813 2.65752E-03-5.34894E-04-8.75378E-15
 -1      1814 2.77989E-03-4.98114E-04-9.64243E-15
 -1      1815 2.62591E-03-5.19152E-04-8.30068E-15
 -1      1816 2.90195E-03-4.53211E-04-1.05717E-14
 -1      1817 3.02440E-03-4.00184E-04-1.15405E-14
 -1      1818 2.87899E-03-4.45929E-04-1.00657E-14
 -1      1819 3.14723E-03-3.39259E-04-1.25476E-14
 -1      1820 3.27107E-03-2.70760E-04-1.35933E-14
 -1      1821 3.13199E-03-3.39664E-04-1.19891E-14
 -1      1822 3.39592E-03-1.95285E-04-1.46763E-14
 -1      1823 3.52222E-03-1.13413E-04-1.57957E-14
 -1      1824 3.38745E-03-2.01960E-04-1.40659E-14
 -1      1825 3.64997E-03-2.59859E-05-1.69507E-14
 -1      1826 3.77939E-03 6.62931E-05-1.81410E-14
 -1      1827 3.64737E-03-3.72018E-05-1.62909E-14
 -1      1828 3.91045E-03 1.62513E-04-1.93651E-14
 -1      1829 4.04313E-03 2.61981E-04-2.06228E-14
 -1      1830 3.91287E-03 1.48439E-04-1.86571E-14
 -1      1831 4.17744E-03 3.63876E-04-2.19125E-14
 -1      1832 4.31317E-03 4.67612E-04-2.32334E-14
 -1      1833 4.18405E-03 3.48331E-04-2.11571E-14
 -1      1834 4.45034E-03 5.72554E-04-2.45866E-14
 -1      1835 4.58864E-03 6.78269E-04-2.59696E-14
 -1      1836 4.46028E-03 5.56527E-04-2.37852E-14
 -1      1837 4.72810E-03 7.84333E-04-2.73822E-14
 -1      1838 4.86838E-03 8.90464E-04-2.88253E-14
 -1      1839 4.74056E-03 7.68428E-04-2.65370E-14
 -1      1840 5.00954E-03 9.96431E-04-3.02989E-14
 -1      1841 5.15125E-03 1.10207E-03-3.18007E-14
 -1      1842 5.02378E-03 9.80951E-04-2.94094E-14
 -1      1843 5.29356E-03 1.20731E-03-3.33323E-14
 -1      1844 5.43621E-03 1.31205E-03-3.48932E-14
 -1      1845 5.30896E-03 1.19235E-03-3.24007E-14
 -1      1846 5.57923E-03 1.41633E-03-3.64817E-14
 -1      1847 5.72243E-03 1.52010E-03-3.81009E-14
 -1      1848 5.59532E-03 1.40186E-03-3.55077E-14
 -1      1849 5.86584E-03 1.62343E-03-3.97494E-14
 -1      1850 6.00933E-03 1.72634E-03-4.14267E-14
 -1      1851 5.88229E-03 1.60938E-03-3.87330E-14
 -1      1852 6.15290E-03 1.82888E-03-4.31325E-14
 -1      1853 6.29648E-03 1.93110E-03-4.48659E-14
 -1      1854 6.16948E-03 1.81513E-03-4.20733E-14
 -1      1855 6.44006E-03 2.03305E-03-4.66275E-14
 -1      1856 6.58362E-03 2.13477E-03-4.84162E-14
 -1      1857 6.45666E-03 2.01950E-03-4.55270E-14
 -1      1858 6.72714E-03 2.23631E-03-5.02301E-14
 -1      1859 6.87062E-03 2.33770E-03-5.20685E-14
 -1      1860 6.74370E-03 2.22288E-03-4.90877E-14
 -1      1861 7.01404E-03 2.43899E-03-5.39323E-14
 -1      1862 7.15741E-03 2.54020E-03-5.58189E-14
 -1      1863 7.03054E-03 2.42562E-03-5.27510E-14
 -1      1864 7.30072E-03 2.64135E-03-5.77307E-14
 -1      1865 7.44397E-03 2.74247E-03-5.96655E-14
 -1      1866 7.31716E-03 2.62799E-03-5.65106E-14
 -1      1867 7.58717E-03 2.84357E-03-6.16211E-14
 -1      1868 7.73032E-03 2.94467E-03-6.35993E-14
 -1      1869 7.60357E-03 2.83020E-03-6.03627E-14
 -1      1870 7.87343E-03 3.04578E-03-6.55998E-14
 -1      1871 8.01650E-03 3.14690E-03-6.76194E-14
 -1      1872 7.88980E-03 3.03238E-03-6.43035E-14
 -1      1873 8.15952E-03 3.24804E-03-6.96595E-14
 -1      1874 8.30252E-03 3.34921E-03-7.17189E-14
 -1      1875 8.17589E-03 3.23461E-03-6.83273E-14
 -1      1876 8.44549E-03 3.45040E-03-7.37960E-14
 -1      1877 8.58843E-03 3.55162E-03-7.58923E-14
 -1      1878 8.46185E-03 3.43693E-03-7.24291E-14
 -1      1879 8.73135E-03 3.65287E-03-7.80050E-14
 -1      1880 8.87426E-03 3.75415E-03-8.01337E-14
 -1      1881 8.74772E-03 3.63936E-03-7.66053E-14
 -1      1882 9.01714E-03 3.85546E-03-8.22769E-14
 -1      1883 9.16002E-03 3.95679E-03-8.44378E-14
 -1      1884 9.03353E-03 3.84191E-03-8.08470E-14
 -1      1885 9.30289E-03 4.05814E-03-8.66125E-14
 -1      1886 9.44575E-03 4.15952E-03-8.87990E-14
 -1      1887 9.31929E-03 4.04457E-03-8.51522E-14
 -1      1888 9.58860E-03 4.26091E-03-9.09977E-14
 -1      1889 9.73144E-03 4.36233E-03-9.32080E-14
 -1      1890 9.60502E-03 4.24732E-03-8.95140E-14
 -1      1891 9.87429E-03 4.46376E-03-9.54333E-14
 -1      1892 1.00171E-02 4.56521E-03-9.76713E-14
 -1      1893 9.89072E-03 4.45015E-03-9.39285E-14
 -1      1894 1.01600E-02 4.66667E-03-9.99197E-14
 -1      1895 1.03028E-02 4.76814E-03-1.02183E-13
 -1      1896 1.01764E-02 4.65305E-03-9.83939E-14
 -1      1897 1.04456E-02 4.86963E-03-1.04459E-13
 -1      1898 1.05885E-02 4.97112E-03-1.06745E-13
 -1      1899 1.04621E-02 4.85599E-03-1.02910E-13
 -1      1900 1.07313E-02 5.07262E-03-1.09044E-13
 -1      1901 1.08742E-02 5.17413E-03-1.11359E-13
 -1      1902 1.07478E-02 5.05898E-03-1.07477E-13
 -1      1903 1.10170E-02 5.27564E-03-1.13686E-13
 -1      1904 1.11598E-02 5.37716E-03-1.16026E-13
 -1      1905 1.10335E-02 5.26199E-03-1.12093E-13
 -1      1906 1.13027E-02 5.47868E-03-1.18382E-13
 -1      1907 1.14455E-02 5.58020E-03-1.20750E-13
 -1      1908 1.13192E-02 5.46503E-03-1.16766E-13
 -1      1909 1.15884E-02 5.68173E-03-1.23127E-13
 -1      1910 1.17312E-02 5.78326E-03-1.25518E-13
 -1      1911 1.16049E-02 5.66808E-03-1.21492E-13
 -1      1912 1.18741E-02 5.88480E-03-1.27915E-13
 -1      1913 1.20169E-02 5.98633E-03-1.30324E-13
 -1      1914 1.18906E-02 5.87114E-03-1.26258E-13
 -1      1915 1.21598E-02 6.08787E-03-1.32744E-13
 -1      1916 1.23026E-02 6.18940E-03-1.35169E-13
 -1      1917 1.21763E-02 6.07421E-03-1.31064E-13
 -1      1918 1.24455E-02 6.29094E-03-1.37600E-13
 -1      1919 1.25883E-02 6.39248E-03-1.40039E-13
 -1      1920 1.24620E-02 6.27728E-03-1.35905E-13
 -1      1921 1.27312E-02 6.49401E-03-1.42484E-13
 -1      1922 1.28740E-02 6.59555E-03-1.44933E-13
 -1      1923 1.27477E-02 6.48036E-03-1.40773E-13
 -1      1924 1.30169E-02 6.69709E-03-1.47390E-13
 -1      1925 1.31597E-02 6.79862E-03-1.49849E-13
 -1      1926 1.30334E-02 6.68343E-03-1.45667E-13
 -1      1927 1.32838E-02 6.88792E-03-1.52079E-13
 -1      1928 1.34266E-02 6.98946E-03-1.54546E-13
 -1      1929 1.35483E-02 7.05287E-03-1.54812E-13
 -1      1930 1.33003E-02 6.87427E-03-1.50347E-13
 -1      1931 1.28150E-03 4.05419E-04-3.86667E-16
 -1      1932 1.11174E-03 3.73646E-04-2.54381E-16
 -1      1933 1.05545E-03 3.42522E-04-2.93981E-16
 -1      1934 1.62986E-03 4.72742E-04-7.34140E-16
 -1      1935 1.45311E-03 4.37294E-04-5.46343E-16
 -1      1936 1.38228E-03 4.05494E-04-5.94400E-16
 -1      1937 1.99936E-03 5.73364E-04-1.19199E-15
 -1      1938 1.81104E-03 5.16193E-04-9.49097E-16
 -1      1939 1.71775E-03 4.80444E-04-1.00548E-15
 -1      1940 2.40176E-03 7.60584E-04-1.75973E-15
 -1      1941 2.19608E-03 6.51712E-04-1.46176E-15
 -1      1942 2.07184E-03 6.05419E-04-1.52574E-15
 -1      1943 2.85330E-03 1.10969E-03-2.44352E-15
 -1      1944 2.62312E-03 9.10313E-04-2.08613E-15
 -1      1945 2.46430E-03 8.42997E-04-2.15657E-15
 -1      1946 3.63168E-03 2.01422E-03-3.75649E-15
 -1      1947 3.41674E-03 1.74453E-03-3.36981E-15
 -1      1948 4.06574E-03 2.48566E-03-4.73650E-15
 -1      1949 3.83712E-03 2.28485E-03-4.27390E-15
 -1      1950 4.43174E-03 2.62480E-03-5.54044E-15
 -1      1951 4.23296E-03 2.58706E-03-5.08263E-15
 -1      1952 5.36252E-03 2.02166E-03-8.16595E-15
 -1      1953 5.12235E-03 2.23028E-03-7.40675E-15
 -1      1954 5.88232E-03 1.66689E-03-1.00126E-14
 -1      1955 5.63740E-03 1.81481E-03-9.07073E-15
 -1      1956 6.33600E-03 1.54445E-03-1.20437E-14
 -1      1957 6.12270E-03 1.57865E-03-1.10189E-14
 -1      1958 6.73179E-03 1.59459E-03-1.41984E-14
 -1      1959 6.53947E-03 1.55413E-03-1.31045E-14
 -1      1960 6.49509E-03 1.49536E-03-1.28719E-14
 -1      1961 7.09556E-03 1.73738E-03-1.64827E-14
 -1      1962 6.91669E-03 1.65792E-03-1.53241E-14
 -1      1963 6.83875E-03 1.58455E-03-1.50708E-14
 -1      1964 7.43777E-03 1.92441E-03-1.88827E-14
 -1      1965 7.26857E-03 1.82723E-03-1.76699E-14
 -1      1966 7.16269E-03 1.74536E-03-1.73931E-14
 -1      1967 7.76414E-03 2.13001E-03-2.13968E-14
 -1      1968 7.60233E-03 2.02581E-03-2.01257E-14
 -1      1969 7.47709E-03 1.93973E-03-1.98325E-14
 -1      1970 8.07862E-03 2.34197E-03-2.40189E-14
 -1      1971 7.92241E-03 2.23563E-03-2.26951E-14
 -1      1972 7.78506E-03 2.14792E-03-2.23819E-14
 -1      1973 8.38436E-03 2.55503E-03-2.67496E-14
 -1      1974 8.23226E-03 2.44856E-03-2.53698E-14
 -1      1975 8.08780E-03 2.36057E-03-2.50399E-14
 -1      1976 8.68385E-03 2.76721E-03-2.95847E-14
 -1      1977 8.53467E-03 2.66132E-03-2.81549E-14
 -1      1978 8.38620E-03 2.57361E-03-2.78046E-14
 -1      1979 8.97895E-03 2.97791E-03-3.25247E-14
 -1      1980 8.83180E-03 2.87277E-03-3.10432E-14
 -1      1981 8.68116E-03 2.78554E-03-3.06772E-14
 -1      1982 9.27101E-03 3.18712E-03-3.55752E-14
 -1      1983 9.12526E-03 3.08271E-03-3.40357E-14
 -1      1984 8.97350E-03 2.99595E-03-3.36552E-14
 -1      1985 9.56100E-03 3.39505E-03-3.87303E-14
 -1      1986 9.41620E-03 3.29125E-03-3.71389E-14
 -1      1987 9.26389E-03 3.20490E-03-3.67408E-14
 -1      1988 9.84956E-03 3.60192E-03-4.19826E-14
 -1      1989 9.70542E-03 3.49861E-03-4.03451E-14
 -1      1990 9.55287E-03 3.41260E-03-3.99295E-14
 -1      1991 1.01372E-02 3.80794E-03-4.53333E-14
 -1      1992 9.99346E-03 3.70503E-03-4.36468E-14
 -1      1993 9.84083E-03 3.61929E-03-4.32188E-14
 -1      1994 1.04241E-02 4.01330E-03-4.87771E-14
 -1      1995 1.02807E-02 3.91070E-03-4.70449E-14
 -1      1996 1.01281E-02 3.82518E-03-4.66026E-14
 -1      1997 1.07106E-02 4.21815E-03-5.23069E-14
 -1      1998 1.05674E-02 4.11579E-03-5.05306E-14
 -1      1999 1.04148E-02 4.03043E-03-5.00780E-14
 -1      2000 1.09968E-02 4.42259E-03-5.59248E-14
 -1      2001 1.08537E-02 4.32041E-03-5.41040E-14
 -1      2002 1.07012E-02 4.23518E-03-5.36399E-14
 -1      2003 1.12971E-02 4.63691E-03-5.98242E-14
 -1      2004 1.11469E-02 4.52979E-03-5.78613E-14
 -1      2005 1.09945E-02 4.44465E-03-5.73844E-14
 -1      2006 1.15829E-02 4.84077E-03-6.36293E-14
 -1      2007 1.14400E-02 4.73887E-03-6.17149E-14
 -1      2008 1.12876E-02 4.65381E-03-6.12244E-14
 -1      2009 1.18687E-02 5.04444E-03-6.75200E-14
 -1      2010 1.17258E-02 4.94263E-03-6.55644E-14
 -1      2011 1.15735E-02 4.85762E-03-6.50609E-14
 -1      2012 1.21544E-02 5.24796E-03-7.14982E-14
 -1      2013 1.20115E-02 5.14622E-03-6.94999E-14
 -1      2014 1.18592E-02 5.06126E-03-6.89854E-14
 -1      2015 1.24401E-02 5.45136E-03-7.55649E-14
 -1      2016 1.22972E-02 5.34967E-03-7.35206E-14
 -1      2017 1.21450E-02 5.26475E-03-7.29956E-14
 -1      2018 1.27257E-02 5.65468E-03-7.97052E-14
 -1      2019 1.25829E-02 5.55303E-03-7.76266E-14
 -1      2020 1.24307E-02 5.46813E-03-7.70871E-14
 -1      2021 1.30114E-02 5.85793E-03-8.39157E-14
 -1      2022 1.28686E-02 5.75631E-03-8.18016E-14
 -1      2023 1.27164E-02 5.67143E-03-8.12538E-14
 -1      2024 1.32971E-02 6.06112E-03-8.81972E-14
 -1      2025 1.31542E-02 5.95953E-03-8.60471E-14
 -1      2026 1.30020E-02 5.87466E-03-8.54859E-14
 -1      2027 1.35827E-02 6.26428E-03-9.25471E-14
 -1      2028 1.34399E-02 6.16270E-03-9.03658E-14
 -1      2029 1.32877E-02 6.07784E-03-8.97902E-14
 -1      2030 1.38684E-02 6.46741E-03-9.69598E-14
 -1      2031 1.37256E-02 6.36584E-03-9.47449E-14
 -1      2032 1.35734E-02 6.28099E-03-9.41591E-14
 -1      2033 1.41541E-02 6.67051E-03-1.01438E-13
 -1      2034 1.40112E-02 6.56896E-03-9.91907E-14
 -1      2035 1.38591E-02 6.48411E-03-9.85903E-14
 -1      2036 1.44398E-02 6.87361E-03-1.05978E-13
 -1      2037 1.42969E-02 6.77206E-03-1.03700E-13
 -1      2038 1.41447E-02 6.68721E-03-1.03085E-13
 -1      2039 1.47255E-02 7.07669E-03-1.10571E-13
 -1      2040 1.45826E-02 6.97515E-03-1.08269E-13
 -1      2041 1.44304E-02 6.89030E-03-1.07640E-13
 -1      2042 1.50112E-02 7.27977E-03-1.15219E-13
 -1      2043 1.48683E-02 7.17823E-03-1.12888E-13
 -1      2044 1.47161E-02 7.09339E-03-1.12250E-13
 -1      2045 1.52969E-02 7.48284E-03-1.19917E-13
 -1      2046 1.51540E-02 7.38131E-03-1.17560E-13
 -1      2047 1.50018E-02 7.29646E-03-1.16909E-13
 -1      2048 1.55826E-02 7.68592E-03-1.24658E-13
 -1      2049 1.54397E-02 7.58438E-03-1.22283E-13
 -1      2050 1.52875E-02 7.49954E-03-1.21617E-13
 -1      2051 1.58683E-02 7.88899E-03-1.29428E-13
 -1      2052 1.57254E-02 7.78745E-03-1.27039E-13
 -1      2053 1.55732E-02 7.70261E-03-1.26364E-13
 -1      2054 1.61540E-02 8.09207E-03-1.34216E-13
 -1      2055 1.60111E-02 7.99053E-03-1.31821E-13
 -1      2056 1.58590E-02 7.90568E-03-1.31131E-13
 -1      2057 1.64226E-02 8.28229E-03-1.38680E-13
 -1      2058 1.62798E-02 8.18075E-03-1.36272E-13
 -1      2059 1.61276E-02 8.09591E-03-1.35580E-13
 -1      2060 1.63792E-02 8.27328E-03-1.39696E-13
 -1      2061 1.58321E-02 8.04223E-03-1.43111E-13
 -1      2062 1.59319E-02 8.08438E-03-1.42487E-13
 -1      2063 1.60318E-02 8.12652E-03-1.41861E-13
 -1      2064 1.61316E-02 8.16867E-03-1.41236E-13
 -1      2065 1.58581E-02 8.01752E-03-1.40095E-13
 -1      2066 1.62793E-02 8.23113E-03-1.40321E-13
 -1      2067 1.56357E-02 7.95937E-03-1.44329E-13
 -1      2068 1.57339E-02 8.00080E-03-1.43719E-13
 -1      2069 1.56601E-02 7.93394E-03-1.41330E-13
 -1      2070 1.54360E-02 7.87507E-03-1.45557E-13
 -1      2071 1.55359E-02 7.91722E-03-1.44943E-13
 -1      2072 1.54621E-02 7.85036E-03-1.42552E-13
 -1      2073 1.52363E-02 7.79078E-03-1.46780E-13
 -1      2074 1.53362E-02 7.83292E-03-1.46169E-13
 -1      2075 1.52624E-02 7.76607E-03-1.43777E-13
 -1      2076 1.50366E-02 7.70648E-03-1.48009E-13
 -1      2077 1.51365E-02 7.74863E-03-1.47393E-13
 -1      2078 1.50627E-02 7.68177E-03-1.44997E-13
 -1      2079 1.48370E-02 7.62218E-03-1.49230E-13
 -1      2080 1.49368E-02 7.66433E-03-1.48620E-13
 -1      2081 1.48630E-02 7.59747E-03-1.46217E-13
 -1      2082 1.46373E-02 7.53788E-03-1.50446E-13
 -1      2083 1.47371E-02 7.58003E-03-1.49839E-13
 -1      2084 1.46633E-02 7.51317E-03-1.47431E-13
 -1      2085 1.44410E-02 7.45501E-03-1.51628E-13
 -1      2086 1.45391E-02 7.49645E-03-1.51038E-13
 -1      2087 1.44653E-02 7.42959E-03-1.48624E-13
 -1      2088 1.42413E-02 7.37072E-03-1.52816E-13
 -1      2089 1.43411E-02 7.41287E-03-1.52226E-13
 -1      2090 1.42673E-02 7.34601E-03-1.49809E-13
 -1      2091 1.40416E-02 7.28643E-03-1.53986E-13
 -1      2092 1.41415E-02 7.32857E-03-1.53401E-13
 -1      2093 1.40677E-02 7.26172E-03-1.50983E-13
 -1      2094 1.38420E-02 7.20214E-03-1.55145E-13
 -1      2095 1.39418E-02 7.24428E-03-1.54566E-13
 -1      2096 1.38680E-02 7.17743E-03-1.52144E-13
 -1      2097 6.45024E-03 1.37468E-03-1.08699E-14
 -1      2098 6.56272E-03 1.33069E-03-1.12215E-14
 -1      2099 6.63530E-03 1.25286E-03-1.21989E-14
 -1      2100 6.57548E-03 1.23582E-03-1.23393E-14
 -1      2101 6.62907E-03 1.29705E-03-1.15457E-14
 -1      2102 6.65783E-03 1.27697E-03-1.18721E-14
 -1      2103 6.60376E-03 1.31145E-03-1.18385E-14
 -1      2104 6.07052E-03 1.57354E-03-9.70780E-15
 -1      2105 6.25413E-03 1.47035E-03-1.02368E-14
 -1      2106 5.65201E-03 1.85606E-03-8.60954E-15
 -1      2107 5.85486E-03 1.71471E-03-9.10928E-15
 -1      2108 3.36129E-04-8.67502E-05-2.61808E-16
 -1      2109 3.37164E-04-1.03002E-04-2.62269E-16
 -1      2110 4.57057E-04-1.48318E-04-3.85434E-16
 -1      2111 4.54124E-04-1.05267E-04-3.83509E-16
 -1      2112 4.58555E-03 2.59210E-03-5.96552E-15
 -1      2113 3.10847E-03 1.68288E-03-3.77785E-15
 -1      2114 3.34828E-03 1.89320E-03-3.96571E-15
 -1      2115 2.48486E-03 1.23294E-03-3.46301E-15
 -1      2116 2.72241E-03 1.40165E-03-3.58417E-15
 -1      2117 2.01370E-03 9.50694E-04-3.29325E-15
 -1      2118 2.22643E-03 1.06870E-03-3.35814E-15
 -1      2119 1.64102E-03 7.66788E-04-3.21815E-15
 -1      2120 1.80187E-03 8.34498E-04-3.22795E-15
 -1      2121 1.41784E-03 6.76158E-04-3.28120E-15
 -1      2122 1.50150E-03 7.10326E-04-3.24449E-15
 -1      2123 1.38049E-03 6.25666E-04-3.45145E-15
 -1      2124 1.37132E-03 6.38665E-04-3.33351E-15
 -1      2125 1.52250E-03 5.79192E-04-3.79034E-15
 -1      2126 1.43424E-03 6.03800E-04-3.63348E-15
 -1      2127 1.81122E-03 4.91744E-04-4.19000E-15
 -1      2128 1.65789E-03 5.38903E-04-3.97134E-15
 -1      2129 2.22736E-03 3.27697E-04-4.90257E-15
 -1      2130 2.04342E-03 4.06081E-04-4.57024E-15
 -1      2131 2.60043E-03 1.64405E-04-5.58917E-15
 -1      2132 2.41223E-03 2.48550E-04-5.23888E-15
 -1      2133 2.32544E-03 2.91194E-04-4.91238E-15
 -1      2134 3.01125E-03-7.35919E-06-6.52210E-15
 -1      2135 2.82602E-03 6.84570E-05-6.07850E-15
 -1      2136 3.41020E-03-1.02070E-04-7.64119E-15
 -1      2137 3.24656E-03-7.54768E-05-7.15869E-15
 -1      2138 3.74503E-03-6.69922E-05-8.57458E-15
 -1      2139 3.59075E-03-9.34938E-05-8.13135E-15
 -1      2140 4.06364E-03 5.35526E-05-9.50539E-15
 -1      2141 3.90889E-03-1.76126E-05-9.05171E-15
 -1      2142 4.46062E-03 2.78652E-04-1.05038E-14
 -1      2143 4.28045E-03 1.74380E-04-1.01339E-14
 -1      2144 4.83821E-03 4.98592E-04-1.11701E-14
 -1      2145 4.64683E-03 3.82933E-04-1.08354E-14
 -1      2146 4.49822E-03 3.50031E-04-1.10298E-14
 -1      2147 5.29608E-03 7.57889E-04-1.18625E-14
 -1      2148 5.09327E-03 6.47772E-04-1.15982E-14
 -1      2149 5.71462E-03 9.62715E-04-1.23350E-14
 -1      2150 5.50831E-03 8.62566E-04-1.20965E-14
 -1      2151 5.34902E-03 8.53179E-04-1.24936E-14
 -1      2152 6.17803E-03 1.12559E-03-1.25134E-14
 -1      2153 5.99351E-03 1.07108E-03-1.25024E-14
 -1      2154 6.45685E-03 1.19851E-03-1.24169E-14
 -1      2155 6.32909E-03 1.16612E-03-1.24650E-14
 -1      2156 6.24046E-03 1.19302E-03-1.30412E-14
 -1      2157 5.21460E-03 2.16735E-03-7.61568E-15
 -1      2158 5.41958E-03 2.00824E-03-8.10852E-15
 -1      2159 1.92835E-03 8.31614E-04-3.08448E-15
 -1      2160 6.11534E-04-3.11159E-04-4.84964E-16
 -1      2161 5.60306E-03 1.83825E-03-8.86143E-15
 -1      2162 4.70169E-03 2.55922E-03-6.15046E-15
 -1      2163 4.79428E-03 2.48402E-03-6.52774E-15
 -1      2164 6.69512E-04-3.06433E-04-6.11720E-16
 -1      2165 3.01578E-03 1.53074E-03-3.51684E-15
 -1      2166 3.18074E-03 1.47465E-03-3.01323E-15
 -1      2167 2.96788E-03 1.23214E-03-2.66426E-15
 -1      2168 3.58056E-03 2.10572E-03-4.20215E-15
 -1      2169 4.92107E-03 2.40517E-03-6.79117E-15
 -1      2170 4.97704E-03 2.35147E-03-7.00180E-15
 -1      2171 6.09873E-03 1.54868E-03-1.07889E-14
 -1      2172 1.61057E-02 8.12213E-03-1.38552E-13
 -1      2173 6.65944E-03 1.28101E-03-1.25039E-14
 -1      2174 6.35910E-03 1.40551E-03-1.08564E-14
 -1      2175 1.37203E-02 7.13872E-03-1.54885E-13
 -1      2176 6.51610E-03 1.25266E-03-1.29162E-14
 -1      2177 5.94840E-03 1.62254E-03-9.60018E-15
 -1      2178 5.82892E-03 1.06124E-03-1.29120E-14
 -1      2179 4.90760E-03 6.02936E-04-1.18075E-14
 -1      2180 4.13746E-03 1.17160E-04-1.00437E-14
 -1      2181 3.79540E-03-5.16769E-05-8.92981E-15
 -1      2182 3.48410E-03-1.10651E-04-7.95452E-15
 -1      2183 2.70543E-03 1.16931E-04-5.71213E-15
 -1      2184 1.92449E-03 4.50984E-04-4.21683E-15
 -1      2185 1.57847E-03 5.58133E-04-3.68984E-15
 -1      2186 1.38627E-03 6.23349E-04-3.12743E-15
 -1      2187 1.39622E-03 6.00757E-04-3.34511E-15
 -1      2188 1.57844E-03 6.89323E-04-3.05226E-15
 -1      2189 2.39436E-03 1.09285E-03-3.24123E-15
 -1      2190 2.78905E-03 1.14399E-03-2.73753E-15
 -1      2191 3.12552E-03-5.35289E-05-6.82012E-15
 -1      2192 3.12878E-03 1.53228E-03-3.31954E-15
 -1      2193 5.09917E-03 2.25143E-03-7.33924E-15
 -1      2194 1.07766E-03 3.24431E-04-4.34630E-16
 -1      2195 9.23919E-04 2.91924E-04-3.01124E-16
 -1      2196 5.63645E-04-2.03016E-05-5.04642E-16
 -1      2197 5.68066E-04-4.40715E-05-5.15538E-16
 -1      2198 5.71264E-04-6.85292E-05-5.25160E-16
 -1      2199 5.73475E-04-9.33382E-05-5.33699E-16
 -1      2200 6.92930E-04-6.83025E-05-7.03756E-16
 -1      2201 5.32462E-04 6.31327E-05-4.53075E-16
 -1      2202 5.41945E-04 4.47966E-05-4.67061E-16
 -1      2203 5.12510E-04 9.29113E-05-4.22947E-16
 -1      2204 5.22293E-04 7.93009E-05-4.38587E-16
 -1      2205 6.39131E-04 8.55758E-05-6.04741E-16
 -1      2206 4.97041E-04 1.12333E-04-3.89269E-16
 -1      2207 5.03699E-04 1.03823E-04-4.06725E-16
 -1      2208 6.13297E-04 1.19543E-04-5.63975E-16
 -1      2209 4.93337E-04 1.24156E-04-3.49289E-16
 -1      2210 4.93116E-04 1.18919E-04-3.70147E-16
 -1      2211 5.94603E-04 1.41739E-04-5.17639E-16
 -1      2212 5.08849E-04 1.34537E-04-3.00703E-16
 -1      2213 4.98387E-04 1.28904E-04-3.26372E-16
 -1      2214 5.93607E-04 1.55360E-04-4.63036E-16
 -1      2215 5.47001E-04 1.53843E-04-2.39853E-16
 -1      2216 5.25222E-04 1.42279E-04-2.72338E-16
 -1      2217 6.19301E-04 1.68698E-04-3.97414E-16
 -1      2218 1.38183E-03 3.87644E-04-7.83472E-16
 -1      2219 1.22947E-03 3.56002E-04-5.94888E-16
 -1      2220 1.08951E-03 3.11968E-04-5.86255E-16
 -1      2221 9.26246E-04-3.66128E-04-1.10239E-15
 -1      2222 1.07178E-03-4.03568E-04-1.42873E-15
 -1      2223 5.96666E-04-2.48956E-04-5.41681E-16
 -1      2224 7.91505E-04-3.20730E-04-8.47561E-16
 -1      2225 8.56643E-04-3.09089E-04-9.95745E-16
 -1      2226 5.90121E-04-2.18822E-04-5.51005E-16
 -1      2227 1.21617E-03-4.36198E-04-1.79868E-15
 -1      2228 1.35949E-03-4.64200E-04-2.21261E-15
 -1      2229 1.13764E-03-3.84286E-04-1.61824E-15
 -1      2230 1.50158E-03-4.88062E-04-2.66990E-15
 -1      2231 1.64237E-03-5.07628E-04-3.17045E-15
 -1      2232 1.42907E-03-4.39618E-04-2.44112E-15
 -1      2233 1.78188E-03-5.22976E-04-3.71349E-15
 -1      2234 1.92001E-03-5.33677E-04-4.29906E-15
 -1      2235 1.71716E-03-4.79148E-04-3.43443E-15
 -1      2236 2.05679E-03-5.39436E-04-4.92685E-15
 -1      2237 2.19219E-03-5.39617E-04-5.59695E-15
 -1      2238 2.00082E-03-5.01699E-04-4.59630E-15
 -1      2239 2.32622E-03-5.33694E-04-6.30812E-15
 -1      2240 2.45908E-03-5.20965E-04-7.06122E-15
 -1      2241 2.27928E-03-5.03664E-04-5.92447E-15
 -1      2242 2.59077E-03-5.00880E-04-7.85561E-15
 -1      2243 2.72173E-03-4.72865E-04-8.69106E-15
 -1      2244 2.55251E-03-4.79826E-04-7.41844E-15
 -1      2245 2.85196E-03-4.36574E-04-9.56700E-15
 -1      2246 2.98211E-03-3.91759E-04-1.04829E-14
 -1      2247 2.82154E-03-4.24914E-04-9.07622E-15
 -1      2248 3.11217E-03-3.38448E-04-1.14379E-14
 -1      2249 3.24282E-03-2.76830E-04-1.24317E-14
 -1      2250 3.08860E-03-3.35493E-04-1.08946E-14
 -1      2251 3.37404E-03-2.07349E-04-1.34637E-14
 -1      2252 3.50637E-03-1.30591E-04-1.45331E-14
 -1      2253 3.35653E-03-2.11470E-04-1.28691E-14
 -1      2254 3.63976E-03-4.73205E-05-1.56387E-14
 -1      2255 3.77451E-03 4.16393E-05-1.67804E-14
 -1      2256 3.62782E-03-5.64470E-05-1.49946E-14
 -1      2257 3.91053E-03 1.35379E-04-1.79562E-14
 -1      2258 4.04786E-03 2.33040E-04-1.91661E-14
 -1      2259 3.90388E-03 1.23217E-04-1.72639E-14
 -1      2260 4.18643E-03 3.33749E-04-2.04097E-14
 -1      2261 4.32607E-03 4.36771E-04-2.16850E-14
 -1      2262 4.18484E-03 3.20066E-04-1.96697E-14
 -1      2263 4.46674E-03 5.41388E-04-2.29920E-14
 -1      2264 4.60816E-03 6.47065E-04-2.43310E-14
 -1      2265 4.46978E-03 5.27147E-04-2.22070E-14
 -1      2266 4.75034E-03 7.53295E-04-2.57004E-14
 -1      2267 4.89297E-03 8.59740E-04-2.70984E-14
 -1      2268 4.75739E-03 7.39007E-04-2.48698E-14
 -1      2269 5.03610E-03 9.66095E-04-2.85276E-14
 -1      2270 5.17945E-03 1.07218E-03-2.99875E-14
 -1      2271 5.04639E-03 9.51974E-04-2.76548E-14
 -1      2272 5.32310E-03 1.17785E-03-3.14763E-14
 -1      2273 5.46680E-03 1.28305E-03-3.29951E-14
 -1      2274 5.33583E-03 1.16395E-03-3.05597E-14
 -1      2275 5.61065E-03 1.38772E-03-3.45428E-14
 -1      2276 5.75447E-03 1.49187E-03-3.61189E-14
 -1      2277 5.62509E-03 1.37401E-03-3.35837E-14
 -1      2278 5.89834E-03 1.59552E-03-3.77242E-14
 -1      2279 6.04213E-03 1.69871E-03-3.93592E-14
 -1      2280 5.91389E-03 1.58197E-03-3.67244E-14
 -1      2281 6.18591E-03 1.80149E-03-4.10239E-14
 -1      2282 6.32961E-03 1.90390E-03-4.27154E-14
 -1      2283 6.20212E-03 1.78805E-03-3.99812E-14
 -1      2284 6.47326E-03 2.00601E-03-4.44356E-14
 -1      2285 6.61683E-03 2.10784E-03-4.61822E-14
 -1      2286 6.48980E-03 1.99262E-03-4.33517E-14
 -1      2287 6.76034E-03 2.20947E-03-4.79545E-14
 -1      2288 6.90377E-03 2.31092E-03-4.97535E-14
 -1      2289 6.77702E-03 2.19612E-03-4.68312E-14
 -1      2290 7.04715E-03 2.41225E-03-5.15779E-14
 -1      2291 7.19046E-03 2.51347E-03-5.34268E-14
 -1      2292 7.06385E-03 2.39890E-03-5.04135E-14
 -1      2293 7.33371E-03 2.61463E-03-5.52989E-14
 -1      2294 7.47692E-03 2.71574E-03-5.71955E-14
 -1      2295 7.35038E-03 2.60126E-03-5.40961E-14
 -1      2296 7.62007E-03 2.81682E-03-5.91131E-14
 -1      2297 7.76319E-03 2.91789E-03-6.10525E-14
 -1      2298 7.63668E-03 2.80343E-03-5.78716E-14
 -1      2299 7.90626E-03 3.01897E-03-6.30147E-14
 -1      2300 8.04931E-03 3.12005E-03-6.49983E-14
 -1      2301 7.92282E-03 3.00555E-03-6.17354E-14
 -1      2302 8.19232E-03 3.22116E-03-6.70032E-14
 -1      2303 8.33530E-03 3.32229E-03-6.90271E-14
 -1      2304 8.20882E-03 3.20770E-03-6.56871E-14
 -1      2305 8.47826E-03 3.42345E-03-7.10700E-14
 -1      2306 8.62121E-03 3.52463E-03-7.31320E-14
 -1      2307 8.49473E-03 3.40996E-03-6.97188E-14
 -1      2308 8.76413E-03 3.62585E-03-7.52119E-14
 -1      2309 8.90704E-03 3.72709E-03-7.73103E-14
 -1      2310 8.78058E-03 3.61233E-03-7.38272E-14
 -1      2311 9.04994E-03 3.82837E-03-7.94245E-14
 -1      2312 9.19283E-03 3.92967E-03-8.15537E-14
 -1      2313 9.06637E-03 3.81482E-03-7.80080E-14
 -1      2314 9.33570E-03 4.03100E-03-8.37021E-14
 -1      2315 9.47857E-03 4.13236E-03-8.58634E-14
 -1      2316 9.35213E-03 4.01743E-03-8.22568E-14
 -1      2317 9.62144E-03 4.23373E-03-8.80377E-14
 -1      2318 9.76430E-03 4.33513E-03-9.02254E-14
 -1      2319 9.63787E-03 4.22014E-03-8.65663E-14
 -1      2320 9.90716E-03 4.43654E-03-9.24279E-14
 -1      2321 1.00500E-02 4.53798E-03-9.46438E-14
 -1      2322 9.92360E-03 4.42294E-03-9.09339E-14
 -1      2323 1.01929E-02 4.63943E-03-9.68709E-14
 -1      2324 1.03357E-02 4.74089E-03-9.91124E-14
 -1      2325 1.02093E-02 4.62581E-03-9.53532E-14
 -1      2326 1.04786E-02 4.84236E-03-1.01365E-13
 -1      2327 1.06214E-02 4.94384E-03-1.03633E-13
 -1      2328 1.04950E-02 4.82873E-03-9.98266E-14
 -1      2329 1.07643E-02 5.04534E-03-1.05911E-13
 -1      2330 1.09071E-02 5.14684E-03-1.08202E-13
 -1      2331 1.07807E-02 5.03170E-03-1.04349E-13
 -1      2332 1.10499E-02 5.24835E-03-1.10507E-13
 -1      2333 1.11928E-02 5.34986E-03-1.12825E-13
 -1      2334 1.10664E-02 5.23470E-03-1.08924E-13
 -1      2335 1.13356E-02 5.45138E-03-1.15157E-13
 -1      2336 1.14785E-02 5.55290E-03-1.17502E-13
 -1      2337 1.13521E-02 5.43773E-03-1.13553E-13
 -1      2338 1.16213E-02 5.65443E-03-1.19859E-13
 -1      2339 1.17642E-02 5.75596E-03-1.22228E-13
 -1      2340 1.16378E-02 5.64078E-03-1.18232E-13
 -1      2341 1.19070E-02 5.85749E-03-1.24606E-13
 -1      2342 1.20499E-02 5.95902E-03-1.26994E-13
 -1      2343 1.19235E-02 5.84384E-03-1.22959E-13
 -1      2344 1.21927E-02 6.06056E-03-1.29390E-13
 -1      2345 1.23356E-02 6.16209E-03-1.31799E-13
 -1      2346 1.22092E-02 6.04690E-03-1.27724E-13
 -1      2347 1.24784E-02 6.26363E-03-1.34216E-13
 -1      2348 1.26213E-02 6.36517E-03-1.36637E-13
 -1      2349 1.24949E-02 6.24997E-03-1.32527E-13
 -1      2350 1.27642E-02 6.46670E-03-1.39068E-13
 -1      2351 1.29070E-02 6.56824E-03-1.41504E-13
 -1      2352 1.27806E-02 6.45305E-03-1.37368E-13
 -1      2353 1.30499E-02 6.66978E-03-1.43950E-13
 -1      2354 1.31927E-02 6.77131E-03-1.46399E-13
 -1      2355 1.30664E-02 6.65612E-03-1.42235E-13
 -1      2356 2.01392E-03 6.05744E-04-1.79804E-15
 -1      2357 1.85177E-03 5.27739E-04-1.50153E-15
 -1      2358 2.37206E-03 8.60232E-04-2.47240E-15
 -1      2359 2.18588E-03 7.10620E-04-2.12040E-15
 -1      2360 1.93304E-03 6.09040E-04-2.07962E-15
 -1      2361 3.18558E-03-9.22787E-05-7.07767E-15
 -1      2362 2.99916E-03-2.79165E-05-6.45062E-15
 -1      2363 6.64009E-03 1.46505E-03-1.37325E-14
 -1      2364 6.48756E-03 1.43917E-03-1.26588E-14
 -1      2365 7.50613E-03 1.95796E-03-2.08146E-14
 -1      2366 7.36063E-03 1.85676E-03-1.95626E-14
 -1      2367 7.79752E-03 2.16639E-03-2.34006E-14
 -1      2368 7.65132E-03 2.06128E-03-2.20934E-14
 -1      2369 7.52662E-03 1.97950E-03-2.18006E-14
 -1      2370 8.08947E-03 2.37827E-03-2.60962E-14
 -1      2371 7.94327E-03 2.27210E-03-2.47366E-14
 -1      2372 7.80505E-03 2.18683E-03-2.44247E-14
 -1      2373 8.38096E-03 2.59042E-03-2.88981E-14
 -1      2374 8.23517E-03 2.48440E-03-2.74830E-14
 -1      2375 8.08843E-03 2.39721E-03-2.71573E-14
 -1      2376 8.67156E-03 2.80157E-03-3.18076E-14
 -1      2377 8.52630E-03 2.69615E-03-3.03393E-14
 -1      2378 8.37431E-03 2.60801E-03-2.99965E-14
 -1      2379 8.96116E-03 3.01138E-03-3.48233E-14
 -1      2380 8.81643E-03 2.90665E-03-3.33019E-14
 -1      2381 8.66126E-03 2.81810E-03-3.29446E-14
 -1      2382 9.24984E-03 3.21988E-03-3.79462E-14
 -1      2383 9.10557E-03 3.11579E-03-3.63712E-14
 -1      2384 8.94851E-03 3.02713E-03-3.59979E-14
 -1      2385 9.53776E-03 3.42726E-03-4.11713E-14
 -1      2386 9.39387E-03 3.32371E-03-3.95465E-14
 -1      2387 9.23569E-03 3.23508E-03-3.91586E-14
 -1      2388 9.82508E-03 3.63371E-03-4.44955E-14
 -1      2389 9.68148E-03 3.53060E-03-4.28218E-14
 -1      2390 9.52266E-03 3.44206E-03-4.24202E-14
 -1      2391 1.01119E-02 3.83942E-03-4.79137E-14
 -1      2392 9.96855E-03 3.73665E-03-4.61933E-14
 -1      2393 9.80937E-03 3.64822E-03-4.57803E-14
 -1      2394 1.03984E-02 4.04454E-03-5.14218E-14
 -1      2395 1.02552E-02 3.94205E-03-4.96565E-14
 -1      2396 1.00958E-02 3.85371E-03-4.92307E-14
 -1      2397 1.06847E-02 4.24919E-03-5.50167E-14
 -1      2398 1.05416E-02 4.14691E-03-5.32088E-14
 -1      2399 1.03821E-02 4.05867E-03-5.27723E-14
 -1      2400 1.09851E-02 4.46368E-03-5.88928E-14
 -1      2401 1.08349E-02 4.35648E-03-5.69429E-14
 -1      2402 1.06754E-02 4.26832E-03-5.64958E-14
 -1      2403 1.12710E-02 4.66767E-03-6.26749E-14
 -1      2404 1.11280E-02 4.56571E-03-6.07715E-14
 -1      2405 1.09685E-02 4.47761E-03-6.03143E-14
 -1      2406 1.15568E-02 4.87144E-03-6.65406E-14
 -1      2407 1.14139E-02 4.76958E-03-6.45961E-14
 -1      2408 1.12544E-02 4.68153E-03-6.41282E-14
 -1      2409 1.18426E-02 5.07503E-03-7.04980E-14
 -1      2410 1.16997E-02 4.97326E-03-6.85096E-14
 -1      2411 1.15402E-02 4.88525E-03-6.80279E-14
 -1      2412 1.21283E-02 5.27849E-03-7.45384E-14
 -1      2413 1.19855E-02 5.17678E-03-7.25072E-14
 -1      2414 1.18260E-02 5.08881E-03-7.20147E-14
 -1      2415 1.24141E-02 5.48185E-03-7.86568E-14
 -1      2416 1.22712E-02 5.38018E-03-7.65879E-14
 -1      2417 1.21117E-02 5.29224E-03-7.60829E-14
 -1      2418 1.26998E-02 5.68513E-03-8.28462E-14
 -1      2419 1.25569E-02 5.58350E-03-8.07435E-14
 -1      2420 1.23975E-02 5.49557E-03-8.02270E-14
 -1      2421 1.29855E-02 5.88835E-03-8.71040E-14
 -1      2422 1.28426E-02 5.78675E-03-8.49677E-14
 -1      2423 1.26832E-02 5.69883E-03-8.44433E-14
 -1      2424 1.32711E-02 6.09152E-03-9.14296E-14
 -1      2425 1.31283E-02 5.98994E-03-8.92573E-14
 -1      2426 1.29689E-02 5.90204E-03-8.87234E-14
 -1      2427 1.35568E-02 6.29466E-03-9.58175E-14
 -1      2428 1.34140E-02 6.19310E-03-9.36184E-14
 -1      2429 1.32546E-02 6.10520E-03-9.30698E-14
 -1      2430 1.38425E-02 6.49778E-03-1.00268E-13
 -1      2431 1.36997E-02 6.39622E-03-9.80333E-14
 -1      2432 1.35403E-02 6.30833E-03-9.74779E-14
 -1      2433 1.41282E-02 6.70088E-03-1.04780E-13
 -1      2434 1.39854E-02 6.59933E-03-1.02517E-13
 -1      2435 1.38260E-02 6.51144E-03-1.01947E-13
 -1      2436 1.44139E-02 6.90396E-03-1.09352E-13
 -1      2437 1.42711E-02 6.80242E-03-1.07058E-13
 -1      2438 1.41117E-02 6.71454E-03-1.06477E-13
 -1      2439 1.46996E-02 7.10704E-03-1.13975E-13
 -1      2440 1.45568E-02 7.00550E-03-1.11657E-13
 -1      2441 1.43974E-02 6.91762E-03-1.11065E-13
 -1      2442 1.49853E-02 7.31012E-03-1.18644E-13
 -1      2443 1.48425E-02 7.20858E-03-1.16303E-13
 -1      2444 1.46831E-02 7.12070E-03-1.15699E-13
 -1      2445 1.52710E-02 7.51319E-03-1.23362E-13
 -1      2446 1.51282E-02 7.41165E-03-1.20998E-13
 -1      2447 1.49688E-02 7.32377E-03-1.20381E-13
 -1      2448 1.55567E-02 7.71626E-03-1.28110E-13
 -1      2449 1.54139E-02 7.61473E-03-1.25733E-13
 -1      2450 1.52545E-02 7.52684E-03-1.25105E-13
 -1      2451 1.58424E-02 7.91934E-03-1.32882E-13
 -1      2452 1.56996E-02 7.81780E-03-1.30494E-13
 -1      2453 1.55402E-02 7.72992E-03-1.29856E-13
 -1      2454 1.52885E-02 7.74136E-03-1.40777E-13
 -1      2455 1.53883E-02 7.78350E-03-1.40165E-13
 -1      2456 1.54865E-02 7.82494E-03-1.39558E-13
 -1      2457 1.55846E-02 7.86637E-03-1.38951E-13
 -1      2458 1.53128E-02 7.71593E-03-1.37792E-13
 -1      2459 1.56845E-02 7.90851E-03-1.38328E-13
 -1      2460 1.57843E-02 7.95066E-03-1.37704E-13
 -1      2461 1.55108E-02 7.79951E-03-1.36565E-13
 -1      2462 6.67459E-03 1.30196E-03-1.28669E-14
 -1      2463 6.65540E-03 1.30250E-03-1.32054E-14
 -1      2464 1.50888E-02 7.65706E-03-1.41999E-13
 -1      2465 1.51886E-02 7.69921E-03-1.41391E-13
 -1      2466 1.51148E-02 7.63235E-03-1.39007E-13
 -1      2467 1.48891E-02 7.57276E-03-1.43215E-13
 -1      2468 1.49889E-02 7.61491E-03-1.42606E-13
 -1      2469 1.49151E-02 7.54806E-03-1.40224E-13
 -1      2470 1.46894E-02 7.48847E-03-1.44426E-13
 -1      2471 1.47892E-02 7.53062E-03-1.43822E-13
 -1      2472 1.47154E-02 7.46376E-03-1.41433E-13
 -1      2473 1.44897E-02 7.40417E-03-1.45631E-13
 -1      2474 1.45895E-02 7.44632E-03-1.45028E-13
 -1      2475 1.45157E-02 7.37946E-03-1.42635E-13
 -1      2476 1.42934E-02 7.32130E-03-1.46802E-13
 -1      2477 1.43915E-02 7.36274E-03-1.46217E-13
 -1      2478 1.43177E-02 7.29588E-03-1.43817E-13
 -1      2479 1.40937E-02 7.23701E-03-1.47985E-13
 -1      2480 1.41935E-02 7.27916E-03-1.47396E-13
 -1      2481 1.41197E-02 7.21230E-03-1.44990E-13
 -1      2482 1.38940E-02 7.15272E-03-1.49148E-13
 -1      2483 1.39939E-02 7.19486E-03-1.48569E-13
 -1      2484 1.39201E-02 7.12800E-03-1.46161E-13
 -1      2485 1.36944E-02 7.06842E-03-1.50302E-13
 -1      2486 1.37942E-02 7.11057E-03-1.49723E-13
 -1      2487 1.37204E-02 7.04371E-03-1.47316E-13
 -1      2488 1.35962E-02 7.04942E-03-1.52651E-13
 -1      2489 6.56924E-03 1.29438E-03-1.34925E-14
 -1      2490 6.45298E-03 1.27896E-03-1.35717E-14
 -1      2491 1.68588E-03 4.67429E-04-1.24221E-15
 -1      2492 1.53288E-03 4.23795E-04-9.98821E-16
 -1      2493 1.36613E-03 3.77079E-04-9.83222E-16
 -1      2494 6.26805E-03 1.43840E-03-1.08480E-14
 -1      2495 6.45124E-03 1.36655E-03-1.15045E-14
 -1      2496 5.94499E-03 1.15424E-03-1.36274E-14
 -1      2497 5.68757E-03 1.05859E-03-1.34449E-14
 -1      2498 4.16810E-03 1.72152E-04-1.05750E-14
 -1      2499 3.98802E-03 5.42557E-05-9.93116E-15
 -1      2500 2.01307E-03 4.01022E-04-4.17029E-15
 -1      2501 1.80743E-03 4.70656E-04-3.82088E-15
 -1      2502 5.51862E-03 1.91171E-03-8.48297E-15
 -1      2503 6.58636E-03 1.32531E-03-1.21784E-14
 -1      2504 6.64624E-03 1.31252E-03-1.25180E-14
 -1      2505 7.21679E-03 1.76004E-03-1.83378E-14
 -1      2506 7.07257E-03 1.66874E-03-1.71422E-14
 -1      2507 7.25670E-03 1.78069E-03-1.92863E-14
 -1      2508 6.92999E-03 1.58684E-03-1.59757E-14
 -1      2509 6.78566E-03 1.51716E-03-1.48397E-14
 -1      2510 6.99908E-03 1.60059E-03-1.68856E-14
 -1      2511 5.50569E-04 2.44734E-05-4.80247E-16
 -1      2512 5.57782E-04 2.71069E-06-4.92933E-16
 -1      2513 6.82019E-04-1.17888E-05-6.75092E-16
 -1      2514 6.63734E-04 4.06142E-05-6.41685E-16
 -1      2515 6.32934E-03 1.44598E-03-1.16630E-14
 -1      2516 6.13914E-03 1.50823E-03-1.06387E-14
 -1      2517 2.78994E-03 1.26535E-03-3.15649E-15
 -1      2518 1.41746E-03 5.74949E-04-3.22606E-15
 -1      2519 1.36613E-03 5.74533E-04-3.06096E-15
 -1      2520 1.51927E-03 6.11701E-04-2.79400E-15
 -1      2521 1.65286E-03 6.42273E-04-2.76663E-15
 -1      2522 1.36140E-03 5.76554E-04-2.88123E-15
 -1      2523 1.41548E-03 5.87455E-04-2.83783E-15
 -1      2524 1.45465E-03 5.52288E-04-2.56100E-15
 -1      2525 1.61773E-03 5.29217E-04-3.53785E-15
 -1      2526 1.50217E-03 5.57220E-04-3.37966E-15
 -1      2527 1.43846E-03 5.38964E-04-3.08587E-15
 -1      2528 2.39310E-03 2.46200E-04-4.91829E-15
 -1      2529 2.23376E-03 3.17348E-04-4.60146E-15
 -1      2530 2.78588E-03 6.36689E-05-5.84172E-15
 -1      2531 2.59664E-03 1.54144E-04-5.37055E-15
 -1      2532 3.56891E-03-1.08116E-04-8.38354E-15
 -1      2533 3.42248E-03-1.18499E-04-7.88402E-15
 -1      2534 3.82668E-03-2.82693E-05-9.34100E-15
 -1      2535 3.69953E-03-7.84248E-05-8.85528E-15
 -1      2536 3.61609E-03-9.47958E-05-8.77602E-15
 -1      2537 4.55352E-03 4.35898E-04-1.17120E-14
 -1      2538 4.40145E-03 3.33715E-04-1.13613E-14
 -1      2539 4.98881E-03 7.12457E-04-1.26110E-14
 -1      2540 4.76643E-03 5.71002E-04-1.21579E-14
 -1      2541 4.66328E-03 5.40472E-04-1.24997E-14
 -1      2542 5.43440E-03 9.43955E-04-1.31503E-14
 -1      2543 5.24344E-03 8.46058E-04-1.29001E-14
 -1      2544 5.09824E-03 8.02215E-04-1.32610E-14
 -1      2545 5.58396E-03 1.04340E-03-1.38622E-14
 -1      2546 6.33915E-03 1.25645E-03-1.36164E-14
 -1      2547 6.20243E-03 1.22838E-03-1.36615E-14
 -1      2548 6.42253E-03 1.30404E-03-1.41987E-14
 -1      2549 8.06692E-04 2.67476E-04-2.05063E-16
 -1      2550 6.50457E-04 2.26664E-04-1.20617E-16
 -1      2551 6.10475E-04 2.01755E-04-1.41732E-16
 -1      2552 8.37969E-04 2.56451E-04-3.13795E-16
 -1      2553 1.86151E-03 7.37307E-04-2.85968E-15
 -1      2554 2.06769E-03 8.30965E-04-2.91474E-15
 -1      2555 5.79224E-03 1.70265E-03-9.39395E-15
 -1      2556 2.55297E-03 1.11086E-03-3.08323E-15
 -1      2557 2.67344E-03 1.12349E-03-2.90519E-15
 -1      2558 2.57420E-03 1.00650E-03-2.67826E-15
 -1      2559 2.31115E-03 9.62660E-04-2.99432E-15
 -1      2560 5.99598E-03 1.57681E-03-1.00120E-14
 -1      2561 6.98187E-04-1.26692E-04-7.25873E-16
 -1      2562 5.75065E-04-1.18540E-04-5.40299E-16
 -1      2563 5.76376E-04-1.44104E-04-5.44852E-16
 -1      2564 6.75370E-03 1.45725E-03-1.46009E-14
 -1      2565 5.77545E-04 1.75916E-04-1.84355E-16
 -1      2566 1.75574E-03 6.41444E-04-2.60612E-15
 -1      2567 5.86131E-04-1.90616E-04-5.54976E-16
 -1      2568 2.25794E-03 8.38247E-04-2.62595E-15
 -1      2569 2.86847E-03 1.80888E-06-6.07525E-15
 -1      2570 6.51030E-03 1.38808E-03-1.24841E-14
 -1      2571 3.27667E-03-1.17426E-04-7.47639E-15
 -1      2572 3.13832E-03-1.06560E-04-7.07740E-15
 -1      2573 3.35061E-03-1.28016E-04-7.88378E-15
 -1      2574 6.53288E-03 1.35301E-03-1.21748E-14
 -1      2575 1.64386E-03 4.64210E-04-1.47998E-15
 -1      2576 6.79610E-04 1.99127E-04-2.92762E-16
 -1      2577 1.56469E-02 7.83655E-03-1.34092E-13
 -1      2578 1.58205E-02 7.94556E-03-1.35850E-13
 -1      2579 1.59799E-02 8.03344E-03-1.36496E-13
 -1      2580 6.62955E-03 1.32296E-03-1.38658E-14
 -1      2581 6.68286E-03 1.32477E-03-1.32187E-14
 -1      2582 1.34113E-02 6.92842E-03-1.50292E-13
 -1      2583 1.35833E-02 7.01427E-03-1.50364E-13
 -1      2584 1.35095E-02 6.94742E-03-1.47950E-13
 -1      2585 1.32873E-02 6.83912E-03-1.48067E-13
 -1      2586 6.07794E-03 1.22342E-03-1.42068E-14
 -1      2587 3.88178E-03 1.52487E-05-9.84605E-15
 -1      2588 1.69145E-03 4.77366E-04-3.49543E-15
 -1      2589 4.24763E-03 2.50954E-04-1.12340E-14
 -1      2590 1.34169E-03 5.46858E-04-2.77124E-15
 -1      2591 1.33038E-02 6.82546E-03-1.46342E-13
 -1      2592 2.07669E-03 3.47951E-04-4.17295E-15
 -1      2593 2.47887E-03 1.81502E-04-5.03471E-15
 -1      2594 7.12504E-04 1.49967E-04-7.23624E-16
 -1      2595 7.28007E-04 1.32887E-04-7.51068E-16
 -1      2596 7.45191E-04 1.11862E-04-7.77319E-16
 -1      2597 7.61861E-04 8.76982E-05-8.02255E-16
 -1      2598 8.49370E-04 1.41943E-04-9.69263E-16
 -1      2599 6.94452E-04 1.88565E-04-5.91243E-16
 -1      2600 6.88633E-04 1.81909E-04-6.28553E-16
 -1      2601 7.33522E-04 2.03866E-04-5.06092E-16
 -1      2602 7.09298E-04 1.94953E-04-5.50775E-16
 -1      2603 7.96359E-04 2.22758E-04-7.32826E-16
 -1      2604 7.80746E-03 2.20913E-03-2.54544E-14
 -1      2605 7.67141E-03 2.10587E-03-2.41088E-14
 -1      2606 1.06000E-03-3.32577E-04-1.44376E-15
 -1      2607 1.20790E-03-3.63004E-04-1.81006E-15
 -1      2608 2.89833E-03-4.45105E-05-6.23048E-15
 -1      2609 2.71908E-03 3.57471E-05-5.64003E-15
 -1      2610 1.35581E-03-3.89886E-04-2.21883E-15
 -1      2611 1.50344E-03-4.13196E-04-2.66974E-15
 -1      2612 1.28176E-03-3.39571E-04-2.00438E-15
 -1      2613 1.65057E-03-4.33041E-04-3.16241E-15
 -1      2614 1.79692E-03-4.49070E-04-3.69687E-15
 -1      2615 1.58195E-03-3.85095E-04-2.89836E-15
 -1      2616 1.94233E-03-4.61100E-04-4.27318E-15
 -1      2617 2.08658E-03-4.68441E-04-4.89043E-15
 -1      2618 1.88105E-03-4.17738E-04-3.95803E-15
 -1      2619 2.22951E-03-4.70624E-04-5.54903E-15
 -1      2620 2.37111E-03-4.66706E-04-6.24873E-15
 -1      2621 2.17667E-03-4.34323E-04-5.18170E-15
 -1      2622 2.51125E-03-4.56065E-04-6.98923E-15
 -1      2623 2.65022E-03-4.37740E-04-7.77106E-15
 -1      2624 2.46696E-03-4.29093E-04-6.56879E-15
 -1      2625 2.78795E-03-4.11186E-04-8.59381E-15
 -1      2626 2.92509E-03-3.75741E-04-9.45664E-15
 -1      2627 2.75148E-03-3.94827E-04-8.11940E-15
 -1      2628 3.06161E-03-3.31189E-04-1.03592E-14
 -1      2629 3.19834E-03-2.77446E-04-1.13011E-14
 -1      2630 3.03177E-03-3.25141E-04-9.83188E-15
 -1      2631 3.33528E-03-2.14769E-04-1.22823E-14
 -1      2632 3.47315E-03-1.43710E-04-1.33018E-14
 -1      2633 3.31101E-03-2.17142E-04-1.17031E-14
 -1      2634 3.61192E-03-6.49485E-05-1.43573E-14
 -1      2635 3.75202E-03 2.05120E-05-1.54505E-14
 -1      2636 3.59276E-03-7.29864E-05-1.37280E-14
 -1      2637 3.89332E-03 1.11758E-04-1.65793E-14
 -1      2638 4.03590E-03 2.07657E-04-1.77416E-14
 -1      2639 3.87934E-03 1.00718E-04-1.59014E-14
 -1      2640 4.17961E-03 3.07284E-04-1.89385E-14
 -1      2641 4.32426E-03 4.09647E-04-2.01682E-14
 -1      2642 4.17109E-03 2.95140E-04-1.82153E-14
 -1      2643 4.46971E-03 5.13970E-04-2.14300E-14
 -1      2644 4.61562E-03 6.19550E-04-2.27233E-14
 -1      2645 4.46669E-03 5.01699E-04-2.06609E-14
 -1      2646 4.76195E-03 7.25829E-04-2.40474E-14
 -1      2647 4.90835E-03 8.32389E-04-2.54028E-14
 -1      2648 4.76410E-03 7.13717E-04-2.32339E-14
 -1      2649 5.05483E-03 9.38884E-04-2.67882E-14
 -1      2650 5.20111E-03 1.04512E-03-2.82039E-14
 -1      2651 5.06143E-03 9.26872E-04-2.59295E-14
 -1      2652 5.34727E-03 1.15092E-03-2.96507E-14
 -1      2653 5.49310E-03 1.25623E-03-3.11269E-14
 -1      2654 5.35742E-03 1.13885E-03-2.87489E-14
 -1      2655 5.63871E-03 1.36098E-03-3.26314E-14
 -1      2656 5.78396E-03 1.46521E-03-3.41673E-14
 -1      2657 5.65148E-03 1.34873E-03-3.16878E-14
 -1      2658 5.92896E-03 1.56890E-03-3.57321E-14
 -1      2659 6.07364E-03 1.67213E-03-3.73240E-14
 -1      2660 5.94353E-03 1.55641E-03-3.47458E-14
 -1      2661 6.21809E-03 1.77492E-03-3.89465E-14
 -1      2662 6.36227E-03 1.87734E-03-4.05983E-14
 -1      2663 6.23381E-03 1.76219E-03-3.79208E-14
 -1      2664 6.50627E-03 1.97943E-03-4.22765E-14
 -1      2665 6.65007E-03 2.08126E-03-4.39821E-14
 -1      2666 6.52265E-03 1.96650E-03-4.12090E-14
 -1      2667 6.79372E-03 2.18287E-03-4.57149E-14
 -1      2668 6.93722E-03 2.28430E-03-4.74725E-14
 -1      2669 6.81044E-03 2.16976E-03-4.46057E-14
 -1      2670 7.08062E-03 2.38559E-03-4.92568E-14
 -1      2671 7.22392E-03 2.48679E-03-5.10663E-14
 -1      2672 7.09746E-03 2.37236E-03-4.81084E-14
 -1      2673 7.36714E-03 2.58791E-03-5.28999E-14
 -1      2674 7.51029E-03 2.68898E-03-5.47581E-14
 -1      2675 7.38399E-03 2.57458E-03-5.17129E-14
 -1      2676 7.65338E-03 2.79003E-03-5.66394E-14
 -1      2677 7.79644E-03 2.89107E-03-5.85420E-14
 -1      2678 7.67018E-03 2.77664E-03-5.54141E-14
 -1      2679 7.93945E-03 2.99211E-03-6.04666E-14
 -1      2680 8.08244E-03 3.09316E-03-6.24120E-14
 -1      2681 7.95617E-03 2.97866E-03-5.92055E-14
 -1      2682 8.22539E-03 3.19423E-03-6.43801E-14
 -1      2683 8.36833E-03 3.29533E-03-6.63698E-14
 -1      2684 8.24204E-03 3.18074E-03-6.30823E-14
 -1      2685 8.51126E-03 3.39645E-03-6.83780E-14
 -1      2686 8.65417E-03 3.49761E-03-7.04056E-14
 -1      2687 8.52784E-03 3.38293E-03-6.70446E-14
 -1      2688 8.79707E-03 3.59880E-03-7.24522E-14
 -1      2689 8.93996E-03 3.70002E-03-7.45174E-14
 -1      2690 8.81360E-03 3.58525E-03-7.10853E-14
 -1      2691 9.08284E-03 3.80127E-03-7.66004E-14
 -1      2692 9.22571E-03 3.90255E-03-7.86998E-14
 -1      2693 9.09934E-03 3.78770E-03-7.52013E-14
 -1      2694 9.36859E-03 4.00385E-03-8.08191E-14
 -1      2695 9.51145E-03 4.10519E-03-8.29536E-14
 -1      2696 9.38506E-03 3.99027E-03-7.93893E-14
 -1      2697 9.65432E-03 4.20655E-03-8.51018E-14
 -1      2698 9.79718E-03 4.30793E-03-8.72648E-14
 -1      2699 9.67078E-03 4.19294E-03-8.36427E-14
 -1      2700 9.94004E-03 4.40933E-03-8.94436E-14
 -1      2701 1.00829E-02 4.51075E-03-9.16360E-14
 -1      2702 9.95650E-03 4.39571E-03-8.79603E-14
 -1      2703 1.02258E-02 4.61218E-03-9.38418E-14
 -1      2704 1.03686E-02 4.71364E-03-9.60616E-14
 -1      2705 1.02422E-02 4.59856E-03-9.23345E-14
 -1      2706 1.05115E-02 4.81510E-03-9.82923E-14
 -1      2707 1.06543E-02 4.91658E-03-1.00537E-13
 -1      2708 1.05279E-02 4.80147E-03-9.67647E-14
 -1      2709 1.07972E-02 5.01806E-03-1.02796E-13
 -1      2710 1.09400E-02 5.11956E-03-1.05064E-13
 -1      2711 1.08136E-02 5.00443E-03-1.01244E-13
 -1      2712 1.10829E-02 5.22106E-03-1.07347E-13
 -1      2713 1.12257E-02 5.32257E-03-1.09644E-13
 -1      2714 1.10994E-02 5.20742E-03-1.05777E-13
 -1      2715 1.13686E-02 5.42408E-03-1.11953E-13
 -1      2716 1.15114E-02 5.52560E-03-1.14277E-13
 -1      2717 1.13851E-02 5.41044E-03-1.10360E-13
 -1      2718 1.16543E-02 5.62713E-03-1.16611E-13
 -1      2719 1.17972E-02 5.72866E-03-1.18957E-13
 -1      2720 1.16708E-02 5.61348E-03-1.14993E-13
 -1      2721 1.19400E-02 5.83019E-03-1.21316E-13
 -1      2722 1.20829E-02 5.93172E-03-1.23684E-13
 -1      2723 1.19565E-02 5.81653E-03-1.19677E-13
 -1      2724 1.22257E-02 6.03325E-03-1.26061E-13
 -1      2725 1.23686E-02 6.13479E-03-1.28450E-13
 -1      2726 1.22422E-02 6.01960E-03-1.24404E-13
 -1      2727 1.25114E-02 6.23632E-03-1.30849E-13
 -1      2728 1.26543E-02 6.33786E-03-1.33256E-13
 -1      2729 1.25279E-02 6.22267E-03-1.29173E-13
 -1      2730 1.27971E-02 6.43940E-03-1.35670E-13
 -1      2731 1.29400E-02 6.54093E-03-1.38092E-13
 -1      2732 1.28136E-02 6.42574E-03-1.33975E-13
 -1      2733 1.30829E-02 6.64247E-03-1.40519E-13
 -1      2734 1.32257E-02 6.74401E-03-1.42958E-13
 -1      2735 1.30993E-02 6.62882E-03-1.38811E-13
 -1      2736 6.20842E-03 1.28811E-03-1.48492E-14
 -1      2737 5.97551E-03 1.22365E-03-1.48066E-14
 -1      2738 8.08452E-03 2.41728E-03-2.82230E-14
 -1      2739 7.94512E-03 2.31289E-03-2.68253E-14
 -1      2740 7.80482E-03 2.23174E-03-2.64872E-14
 -1      2741 2.20675E-03 8.51189E-04-2.76644E-15
 -1      2742 1.54678E-02 7.74012E-03-1.33550E-13
 -1      2743 1.55040E-02 7.73502E-03-1.31703E-13
 -1      2744 1.53612E-02 7.63348E-03-1.29321E-13
 -1      2745 7.53825E-03 2.00423E-03-2.27895E-14
 -1      2746 7.40778E-03 1.90394E-03-2.15011E-14
 -1      2747 7.54157E-03 2.02954E-03-2.37866E-14
 -1      2748 8.36610E-03 2.62630E-03-3.10999E-14
 -1      2749 8.22481E-03 2.52172E-03-2.96473E-14
 -1      2750 8.07759E-03 2.43755E-03-2.92943E-14
 -1      2751 8.65016E-03 2.83508E-03-3.40867E-14
 -1      2752 8.50786E-03 2.73074E-03-3.25799E-14
 -1      2753 8.35612E-03 2.64475E-03-3.22108E-14
 -1      2754 8.93548E-03 3.04317E-03-3.71804E-14
 -1      2755 8.79268E-03 2.93922E-03-3.56205E-14
 -1      2756 8.63803E-03 2.85218E-03-3.52362E-14
 -1      2757 9.22138E-03 3.25045E-03-4.03765E-14
 -1      2758 9.07836E-03 3.14691E-03-3.87651E-14
 -1      2759 8.92187E-03 3.05930E-03-3.83682E-14
 -1      2760 9.50750E-03 3.45696E-03-4.36761E-14
 -1      2761 9.36441E-03 3.35380E-03-4.20155E-14
 -1      2762 9.20676E-03 3.26589E-03-4.16038E-14
 -1      2763 9.79367E-03 3.66278E-03-4.70701E-14
 -1      2764 9.65058E-03 3.55995E-03-4.53615E-14
 -1      2765 9.49220E-03 3.47191E-03-4.49392E-14
 -1      2766 1.00798E-02 3.86804E-03-5.05551E-14
 -1      2767 9.93673E-03 3.76548E-03-4.87998E-14
 -1      2768 9.77790E-03 3.67738E-03-4.83661E-14
 -1      2769 1.03658E-02 4.07283E-03-5.41292E-14
 -1      2770 1.02228E-02 3.97049E-03-5.23310E-14
 -1      2771 1.00637E-02 3.88239E-03-5.18850E-14
 -1      2772 1.06661E-02 4.28745E-03-5.79813E-14
 -1      2773 1.05160E-02 4.18019E-03-5.60431E-14
 -1      2774 1.03567E-02 4.09211E-03-5.55850E-14
 -1      2775 1.09520E-02 4.49154E-03-6.17427E-14
 -1      2776 1.08091E-02 4.38953E-03-5.98511E-14
 -1      2777 1.06497E-02 4.30148E-03-5.93810E-14
 -1      2778 1.12379E-02 4.69539E-03-6.55857E-14
 -1      2779 1.10949E-02 4.59350E-03-6.36530E-14
 -1      2780 1.09355E-02 4.50548E-03-6.31735E-14
 -1      2781 1.15237E-02 4.89906E-03-6.95202E-14
 -1      2782 1.13808E-02 4.79725E-03-6.75426E-14
 -1      2783 1.12213E-02 4.70926E-03-6.70513E-14
 -1      2784 1.18094E-02 5.10257E-03-7.35346E-14
 -1      2785 1.16665E-02 5.00083E-03-7.15161E-14
 -1      2786 1.15071E-02 4.91286E-03-7.10134E-14
 -1      2787 1.20952E-02 5.30597E-03-7.76324E-14
 -1      2788 1.19523E-02 5.20429E-03-7.55753E-14
 -1      2789 1.17929E-02 5.11634E-03-7.50582E-14
 -1      2790 1.23809E-02 5.50928E-03-8.18016E-14
 -1      2791 1.22380E-02 5.40764E-03-7.97079E-14
 -1      2792 1.20786E-02 5.31971E-03-7.91836E-14
 -1      2793 1.26666E-02 5.71253E-03-8.60416E-14
 -1      2794 1.25238E-02 5.61091E-03-8.39126E-14
 -1      2795 1.23643E-02 5.52299E-03-8.33782E-14
 -1      2796 1.29523E-02 5.91572E-03-9.03435E-14
 -1      2797 1.28095E-02 5.81413E-03-8.81854E-14
 -1      2798 1.26501E-02 5.72622E-03-8.76412E-14
 -1      2799 1.32380E-02 6.11887E-03-9.47128E-14
 -1      2800 1.30952E-02 6.01730E-03-9.25193E-14
 -1      2801 1.29358E-02 5.92940E-03-9.19663E-14
 -1      2802 1.35237E-02 6.32200E-03-9.91401E-14
 -1      2803 1.33809E-02 6.22044E-03-9.69195E-14
 -1      2804 1.32215E-02 6.13254E-03-9.63549E-14
 -1      2805 1.38095E-02 6.52510E-03-1.03626E-13
 -1      2806 1.36666E-02 6.42355E-03-1.01373E-13
 -1      2807 1.35072E-02 6.33566E-03-1.00801E-13
 -1      2808 1.40952E-02 6.72819E-03-1.08177E-13
 -1      2809 1.39523E-02 6.62665E-03-1.05895E-13
 -1      2810 1.37929E-02 6.53876E-03-1.05309E-13
 -1      2811 1.43809E-02 6.93128E-03-1.12775E-13
 -1      2812 1.42380E-02 6.82974E-03-1.10468E-13
 -1      2813 1.40786E-02 6.74185E-03-1.09875E-13
 -1      2814 1.46666E-02 7.13435E-03-1.17423E-13
 -1      2815 1.45237E-02 7.03281E-03-1.15095E-13
 -1      2816 1.43643E-02 6.94493E-03-1.14488E-13
 -1      2817 1.49523E-02 7.33743E-03-1.22117E-13
 -1      2818 1.48094E-02 7.23589E-03-1.19764E-13
 -1      2819 1.46501E-02 7.14801E-03-1.19148E-13
 -1      2820 1.52282E-02 7.53622E-03-1.26895E-13
 -1      2821 1.50853E-02 7.43468E-03-1.24528E-13
 -1      2822 1.49259E-02 7.34680E-03-1.23901E-13
 -1      2823 1.51920E-02 7.54132E-03-1.28735E-13
 -1      2824 1.47415E-02 7.43905E-03-1.38446E-13
 -1      2825 1.48413E-02 7.48120E-03-1.37841E-13
 -1      2826 1.53680E-02 7.69797E-03-1.34173E-13
 -1      2827 2.15227E-03 2.82167E-04-4.22103E-15
 -1      2828 1.95744E-03 3.50059E-04-3.81611E-15
 -1      2829 1.49412E-02 7.52335E-03-1.37235E-13
 -1      2830 1.50410E-02 7.56549E-03-1.36625E-13
 -1      2831 1.47675E-02 7.41434E-03-1.35465E-13
 -1      2832 1.43421E-02 7.27046E-03-1.40841E-13
 -1      2833 1.44419E-02 7.31260E-03-1.40247E-13
 -1      2834 1.41458E-02 7.18759E-03-1.42003E-13
 -1      2835 1.42439E-02 7.22902E-03-1.41423E-13
 -1      2836 1.41701E-02 7.16217E-03-1.39040E-13
 -1      2837 1.39461E-02 7.10329E-03-1.43175E-13
 -1      2838 1.40460E-02 7.14544E-03-1.42589E-13
 -1      2839 1.39722E-02 7.07858E-03-1.40200E-13
 -1      2840 1.37464E-02 7.01900E-03-1.44337E-13
 -1      2841 1.38463E-02 7.06115E-03-1.43756E-13
 -1      2842 1.37725E-02 6.99429E-03-1.41362E-13
 -1      2843 7.82741E-04 2.25036E-04-4.01290E-16
 -1      2844 6.69594E-03 1.34950E-03-1.36235E-14
 -1      2845 6.71339E-03 1.35063E-03-1.39846E-14
 -1      2846 1.34126E-03 3.75731E-04-1.19562E-15
 -1      2847 1.22015E-03 3.40498E-04-9.59126E-16
 -1      2848 6.48416E-03 1.34343E-03-1.48346E-14
 -1      2849 6.38182E-03 1.32823E-03-1.48784E-14
 -1      2850 1.71172E-03 4.24186E-04-3.33925E-15
 -1      2851 1.55539E-03 4.70633E-04-3.08772E-15
 -1      2852 6.63108E-03 1.36829E-03-1.31848E-14
 -1      2853 6.83143E-03 1.47287E-03-1.54290E-14
 -1      2854 6.73075E-03 1.41133E-03-1.43107E-14
 -1      2855 1.59923E-03 4.73992E-04-1.74193E-15
 -1      2856 1.47519E-03 4.22282E-04-1.46092E-15
 -1      2857 7.04654E-03 1.62643E-03-1.77738E-14
 -1      2858 6.93531E-03 1.54402E-03-1.65981E-14
 -1      2859 6.68413E-03 1.35238E-03-1.43465E-14
 -1      2860 6.60333E-03 1.35481E-03-1.46407E-14
 -1      2861 1.43670E-03 5.00456E-04-2.89437E-15
 -1      2862 1.36802E-03 5.09209E-04-2.76038E-15
 -1      2863 2.03580E-03 7.28999E-04-2.55736E-15
 -1      2864 7.28185E-03 1.80700E-03-2.02408E-14
 -1      2865 7.15998E-03 1.71297E-03-1.90062E-14
 -1      2866 7.29348E-03 1.83482E-03-2.11965E-14
 -1      2867 1.32072E-03 5.13393E-04-2.60029E-15
 -1      2868 1.32503E-03 5.03507E-04-2.43978E-15
 -1      2869 1.29878E-03 4.75909E-04-2.42842E-15
 -1      2870 3.90998E-03 5.24920E-05-1.03286E-14
 -1      2871 3.77242E-03-2.48081E-05-9.72668E-15
 -1      2872 1.51392E-02 7.60693E-03-1.36025E-13
 -1      2873 1.52373E-02 7.64836E-03-1.35421E-13
 -1      2874 1.49655E-02 7.49792E-03-1.34262E-13
 -1      2875 6.90842E-04 1.74184E-04-6.62542E-16
 -1      2876 6.99244E-04 1.63663E-04-6.94269E-16
 -1      2877 8.08842E-04 1.83674E-04-9.00538E-16
 -1      2878 7.85371E-04 2.08607E-04-8.22977E-16
 -1      2879 1.45418E-02 7.35475E-03-1.39649E-13
 -1      2880 1.46416E-02 7.39690E-03-1.39048E-13
 -1      2881 1.43681E-02 7.24575E-03-1.37866E-13
 -1      2882 2.52879E-03 1.21373E-04-5.10741E-15
 -1      2883 2.35254E-03 2.01003E-04-4.67287E-15
 -1      2884 7.09037E-04-2.09087E-04-7.50038E-16
 -1      2885 1.39605E-03 5.10916E-04-2.36646E-15
 -1      2886 1.49499E-03 5.23009E-04-2.32641E-15
 -1      2887 4.30176E-03 3.18321E-04-1.19332E-14
 -1      2888 4.09628E-03 1.72046E-04-1.11270E-14
 -1      2889 8.16768E-04-6.38146E-05-9.08168E-16
 -1      2890 8.21067E-04-9.68859E-05-9.24675E-16
 -1      2891 1.33203E-02 6.81181E-03-1.44620E-13
 -1      2892 1.34149E-02 6.87961E-03-1.46282E-13
 -1      2893 1.33368E-02 6.79816E-03-1.42898E-13
 -1      2894 3.65949E-03-7.29807E-05-9.22924E-15
 -1      2895 3.55040E-03-1.06121E-04-8.74691E-15
 -1      2896 3.69820E-03-4.53909E-05-9.68968E-15
 -1      2897 4.75376E-03 6.26048E-04-1.32825E-14
 -1      2898 4.56794E-03 5.01534E-04-1.28118E-14
 -1      2899 1.35260E-02 6.93376E-03-1.46222E-13
 -1      2900 9.73214E-04 2.76934E-04-5.78083E-16
 -1      2901 8.16895E-04 2.29346E-04-5.32628E-16
 -1      2902 8.99258E-04 2.53283E-04-7.15492E-16
 -1      2903 1.10361E-03 3.09097E-04-7.60934E-16
 -1      2904 8.23827E-04-1.30184E-04-9.38906E-16
 -1      2905 8.25592E-04-1.63616E-04-9.50615E-16
 -1      2906 9.51668E-04-1.29226E-04-1.17797E-15
 -1      2907 8.90667E-04 8.46616E-05-1.03147E-15
 -1      2908 7.77432E-04 6.06165E-05-8.26013E-16
 -1      2909 7.90811E-04 3.14925E-05-8.48727E-16
 -1      2910 7.07161E-03 1.65467E-03-1.86939E-14
 -1      2911 2.57825E-03 5.80262E-05-5.24502E-15
 -1      2912 8.08807E-04-2.63470E-04-9.20000E-16
 -1      2913 9.43143E-04-3.03156E-04-1.18464E-15
 -1      2914 5.95615E-03 1.24266E-03-1.55282E-14
 -1      2915 5.79966E-03 1.16927E-03-1.48758E-14
 -1      2916 1.68699E-03 5.77168E-04-2.36179E-15
 -1      2917 1.89294E-03 6.53828E-04-2.44368E-15
 -1      2918 6.29576E-03 1.33350E-03-1.54925E-14
 -1      2919 3.06603E-03-1.17397E-04-6.97166E-15
 -1      2920 2.98899E-03-8.59326E-05-6.59584E-15
 -1      2921 2.84000E-03-6.32807E-05-6.13222E-15
 -1      2922 1.84193E-03 3.08877E-04-3.41278E-15
 -1      2923 1.78331E-03 3.69263E-04-3.37877E-15
 -1      2924 1.62426E-03 3.68647E-04-2.97103E-15
 -1      2925 1.45678E-02 7.33004E-03-1.36672E-13
 -1      2926 1.32991E-03 4.75494E-04-2.21386E-15
 -1      2927 1.51943E-02 7.58897E-03-1.32418E-13
 -1      2928 2.20910E-03 2.16315E-04-4.28296E-15
 -1      2929 1.32480E-03 3.86611E-04-1.42232E-15
 -1      2930 1.36258E-02 6.97591E-03-1.45653E-13
 -1      2931 1.44951E-03 4.50954E-04-2.75591E-15
 -1      2932 6.72764E-03 1.38047E-03-1.47667E-14
 -1      2933 1.10249E-03 3.10998E-04-9.38079E-16
 -1      2934 1.58740E-03 5.23593E-04-2.17824E-15
 -1      2935 6.71516E-03 1.37094E-03-1.39792E-14
 -1      2936 6.57968E-03 1.37975E-03-1.53292E-14
 -1      2937 6.87951E-03 1.49629E-03-1.62844E-14
 -1      2938 1.34444E-02 6.85360E-03-1.43076E-13
 -1      2939 1.36388E-02 6.96355E-03-1.44162E-13
 -1      2940 1.35650E-02 6.89670E-03-1.41767E-13
 -1      2941 1.33498E-02 6.78580E-03-1.41417E-13
 -1      2942 8.01893E-04 7.05206E-07-8.69788E-16
 -1      2943 8.10483E-04-3.11940E-05-8.89845E-16
 -1      2944 9.42415E-04-5.52621E-05-1.13692E-15
 -1      2945 9.22676E-04 1.71702E-05-1.08747E-15
 -1      2946 4.40514E-03 4.03223E-04-1.26902E-14
 -1      2947 1.93658E-03 6.46601E-04-2.31343E-15
 -1      2948 3.97968E-03 1.12774E-04-1.09918E-14
 -1      2949 1.01421E-03-2.85732E-04-1.34494E-15
 -1      2950 5.01506E-03 7.90030E-04-1.39695E-14
 -1      2951 4.90960E-03 7.39938E-04-1.42931E-14
 -1      2952 5.23408E-03 9.12110E-04-1.42826E-14
 -1      2953 8.06784E-03 2.45795E-03-3.03720E-14
 -1      2954 7.93164E-03 2.35581E-03-2.89356E-14
 -1      2955 8.98719E-04 2.57900E-04-8.86186E-16
 -1      2956 8.80913E-04 2.51989E-04-9.43988E-16
 -1      2957 6.10316E-03 1.31404E-03-1.63547E-14
 -1      2958 5.95222E-03 1.26807E-03-1.64221E-14
 -1      2959 1.41945E-02 7.13674E-03-1.36083E-13
 -1      2960 1.42943E-02 7.17889E-03-1.35493E-13
 -1      2961 3.47294E-03-1.18701E-04-8.64825E-15
 -1      2962 3.42402E-03-1.26334E-04-8.21633E-15
 -1      2963 7.97576E-04-2.04809E-04-9.06339E-16
 -1      2964 5.57628E-03 1.07243E-03-1.45637E-14
 -1      2965 4.02253E-03 1.57835E-04-1.16027E-14
 -1      2966 3.85405E-03 5.02120E-05-1.07887E-14
 -1      2967 6.42915E-03 1.39754E-03-1.64314E-14
 -1      2968 6.27310E-03 1.36200E-03-1.63965E-14
 -1      2969 6.26487E-03 1.38736E-03-1.73121E-14
 -1      2970 1.51138E-03-3.35758E-04-2.64338E-15
 -1      2971 1.66418E-03-3.55122E-04-3.12716E-15
 -1      2972 1.81697E-03-3.71779E-04-3.65188E-15
 -1      2973 1.96923E-03-3.85114E-04-4.21732E-15
 -1      2974 1.74961E-03-3.23565E-04-3.35552E-15
 -1      2975 2.12067E-03-3.94727E-04-4.82307E-15
 -1      2976 2.27089E-03-3.99526E-04-5.46971E-15
 -1      2977 2.06088E-03-3.51697E-04-4.47423E-15
 -1      2978 2.41960E-03-3.98832E-04-6.15733E-15
 -1      2979 2.56675E-03-3.91209E-04-6.88519E-15
 -1      2980 2.36855E-03-3.64614E-04-5.75447E-15
 -1      2981 2.71215E-03-3.75890E-04-7.65405E-15
 -1      2982 2.85630E-03-3.51543E-04-8.46359E-15
 -1      2983 2.66969E-03-3.53407E-04-7.19787E-15
 -1      2984 2.99914E-03-3.17620E-04-9.31309E-15
 -1      2985 3.14164E-03-2.73457E-04-1.02026E-14
 -1      2986 2.96395E-03-3.07755E-04-8.80280E-15
 -1      2987 3.28381E-03-2.19040E-04-1.11321E-14
 -1      2988 3.42675E-03-1.54692E-04-1.21007E-14
 -1      2989 3.25431E-03-2.20020E-04-1.05691E-14
 -1      2990 3.57045E-03-8.10043E-05-1.31071E-14
 -1      2991 3.71562E-03 8.11468E-07-1.41504E-14
 -1      2992 3.54572E-03-8.90988E-05-1.24931E-14
 -1      2993 3.86212E-03 8.98046E-05-1.52312E-14
 -1      2994 4.01017E-03 1.84395E-04-1.63477E-14
 -1      2995 3.84231E-03 7.85664E-05-1.45691E-14
 -1      2996 4.15953E-03 2.83555E-04-1.74978E-14
 -1      2997 4.30991E-03 3.85857E-04-1.86822E-14
 -1      2998 4.14535E-03 2.72030E-04-1.67889E-14
 -1      2999 4.46108E-03 4.90429E-04-1.98993E-14
 -1      3000 4.61256E-03 5.96306E-04-2.11479E-14
 -1      3001 4.45313E-03 4.79819E-04-1.91448E-14
 -1      3002 4.76421E-03 7.02887E-04-2.24274E-14
 -1      3003 4.91554E-03 8.09635E-04-2.37371E-14
 -1      3004 4.76242E-03 6.93167E-04-2.16292E-14
 -1      3005 5.06655E-03 9.16198E-04-2.50805E-14
 -1      3006 5.21686E-03 1.02238E-03-2.64523E-14
 -1      3007 5.07028E-03 9.06840E-04-2.42381E-14
 -1      3008 5.36656E-03 1.12800E-03-2.78548E-14
 -1      3009 5.51544E-03 1.23306E-03-2.92889E-14
 -1      3010 5.37479E-03 1.11843E-03-2.69701E-14
 -1      3011 5.66362E-03 1.33748E-03-3.07523E-14
 -1      3012 5.81101E-03 1.44136E-03-3.22447E-14
 -1      3013 5.67522E-03 1.32734E-03-2.98233E-14
 -1      3014 5.95776E-03 1.54468E-03-3.37681E-14
 -1      3015 6.10383E-03 1.64756E-03-3.53204E-14
 -1      3016 5.97169E-03 1.53381E-03-3.27971E-14
 -1      3017 6.24937E-03 1.75000E-03-3.69006E-14
 -1      3018 6.39439E-03 1.85210E-03-3.85112E-14
 -1      3019 6.26482E-03 1.73842E-03-3.58894E-14
 -1      3020 6.53900E-03 1.95390E-03-4.01487E-14
 -1      3021 6.68324E-03 2.05548E-03-4.18135E-14
 -1      3022 6.55535E-03 1.94172E-03-3.90957E-14
 -1      3023 6.82719E-03 2.15686E-03-4.35063E-14
 -1      3024 6.97088E-03 2.25810E-03-4.52238E-14
 -1      3025 6.84400E-03 2.14421E-03-4.24129E-14
 -1      3026 7.11438E-03 2.35924E-03-4.69679E-14
 -1      3027 7.25772E-03 2.46029E-03-4.87377E-14
 -1      3028 7.13139E-03 2.34624E-03-4.58355E-14
 -1      3029 7.40093E-03 2.56130E-03-5.05331E-14
 -1      3030 7.54404E-03 2.66228E-03-5.23525E-14
 -1      3031 7.41796E-03 2.54807E-03-4.93610E-14
 -1      3032 7.68707E-03 2.76324E-03-5.41948E-14
 -1      3033 7.83005E-03 2.86421E-03-5.60617E-14
 -1      3034 7.70405E-03 2.74986E-03-5.29846E-14
 -1      3035 7.97298E-03 2.96519E-03-5.79513E-14
 -1      3036 8.11588E-03 3.06620E-03-5.98600E-14
 -1      3037 7.98987E-03 2.95172E-03-5.67027E-14
 -1      3038 8.25876E-03 3.16723E-03-6.17903E-14
 -1      3039 8.40163E-03 3.26829E-03-6.37431E-14
 -1      3040 8.27555E-03 3.15369E-03-6.05076E-14
 -1      3041 8.54448E-03 3.36939E-03-6.57175E-14
 -1      3042 8.68733E-03 3.47052E-03-6.77117E-14
 -1      3043 8.56118E-03 3.35581E-03-6.43979E-14
 -1      3044 8.83018E-03 3.57168E-03-6.97249E-14
 -1      3045 8.97302E-03 3.67288E-03-7.17576E-14
 -1      3046 8.84680E-03 3.55809E-03-6.83718E-14
 -1      3047 9.11587E-03 3.77411E-03-7.38088E-14
 -1      3048 9.25871E-03 3.87537E-03-7.58783E-14
 -1      3049 9.13243E-03 3.76050E-03-7.24237E-14
 -1      3050 9.40156E-03 3.97667E-03-7.79647E-14
 -1      3051 9.54441E-03 4.07799E-03-8.00709E-14
 -1      3052 9.41808E-03 3.96305E-03-7.65501E-14
 -1      3053 9.68726E-03 4.17933E-03-8.21918E-14
 -1      3054 9.83011E-03 4.28070E-03-8.43283E-14
 -1      3055 9.70375E-03 4.16571E-03-8.07469E-14
 -1      3056 9.97296E-03 4.38210E-03-8.64817E-14
 -1      3057 1.01158E-02 4.48351E-03-8.86500E-14
 -1      3058 9.98944E-03 4.36847E-03-8.50096E-14
 -1      3059 1.02587E-02 4.58493E-03-9.08322E-14
 -1      3060 1.04015E-02 4.68638E-03-9.30295E-14
 -1      3061 1.02751E-02 4.57130E-03-8.93363E-14
 -1      3062 1.05444E-02 4.78784E-03-9.52398E-14
 -1      3063 1.06872E-02 4.88931E-03-9.74612E-14
 -1      3064 1.05608E-02 4.77420E-03-9.37192E-14
 -1      3065 1.08301E-02 4.99079E-03-9.96965E-14
 -1      3066 1.09730E-02 5.09228E-03-1.01946E-13
 -1      3067 1.08466E-02 4.97715E-03-9.81557E-14
 -1      3068 1.11158E-02 5.19378E-03-1.04208E-13
 -1      3069 1.12587E-02 5.29528E-03-1.06483E-13
 -1      3070 1.11323E-02 5.18013E-03-1.02643E-13
 -1      3071 1.14015E-02 5.39679E-03-1.08770E-13
 -1      3072 1.15444E-02 5.49831E-03-1.11069E-13
 -1      3073 1.14180E-02 5.38315E-03-1.07184E-13
 -1      3074 1.16873E-02 5.59983E-03-1.13383E-13
 -1      3075 1.18301E-02 5.70136E-03-1.15707E-13
 -1      3076 1.17037E-02 5.58618E-03-1.11775E-13
 -1      3077 1.19730E-02 5.80288E-03-1.18044E-13
 -1      3078 1.21158E-02 5.90441E-03-1.20393E-13
 -1      3079 1.19895E-02 5.78924E-03-1.16416E-13
 -1      3080 1.22587E-02 6.00595E-03-1.22751E-13
 -1      3081 1.24015E-02 6.10748E-03-1.25120E-13
 -1      3082 1.22752E-02 5.99230E-03-1.21103E-13
 -1      3083 1.25444E-02 6.20902E-03-1.27501E-13
 -1      3084 1.26873E-02 6.31055E-03-1.29890E-13
 -1      3085 1.25609E-02 6.19537E-03-1.25832E-13
 -1      3086 1.28301E-02 6.41209E-03-1.32289E-13
 -1      3087 1.29730E-02 6.51363E-03-1.34693E-13
 -1      3088 1.28466E-02 6.39844E-03-1.30603E-13
 -1      3089 1.30900E-02 6.59895E-03-1.36837E-13
 -1      3090 1.32328E-02 6.70048E-03-1.39258E-13
 -1      3091 1.33404E-02 6.75593E-03-1.39435E-13
 -1      3092 1.31065E-02 6.58529E-03-1.35139E-13
 -1      3093 7.79751E-03 2.25456E-03-2.75259E-14
 -1      3094 7.66574E-03 2.15406E-03-2.61431E-14
 -1      3095 7.78635E-03 2.27657E-03-2.85705E-14
 -1      3096 3.28415E-03-1.34659E-04-7.79184E-15
 -1      3097 1.80272E-03 5.54691E-04-1.97882E-15
 -1      3098 1.35988E-02 6.88529E-03-1.39551E-13
 -1      3099 1.36987E-02 6.92743E-03-1.38975E-13
 -1      3100 7.53723E-03 2.05531E-03-2.47878E-14
 -1      3101 7.41245E-03 1.95798E-03-2.34579E-14
 -1      3102 7.52689E-03 2.07989E-03-2.57923E-14
 -1      3103 8.62493E-03 2.86936E-03-3.63936E-14
 -1      3104 8.48430E-03 2.76626E-03-3.48474E-14
 -1      3105 8.90771E-03 3.07549E-03-3.95632E-14
 -1      3106 8.76608E-03 2.97243E-03-3.79658E-14
 -1      3107 8.61089E-03 2.88636E-03-3.75557E-14
 -1      3108 9.19183E-03 3.28137E-03-4.28373E-14
 -1      3109 9.04963E-03 3.17847E-03-4.11866E-14
 -1      3110 8.89297E-03 3.09158E-03-4.07649E-14
 -1      3111 9.47673E-03 3.48689E-03-4.62056E-14
 -1      3112 9.33420E-03 3.38418E-03-4.45097E-14
 -1      3113 9.17655E-03 3.29680E-03-4.40742E-14
 -1      3114 9.76205E-03 3.69201E-03-4.96667E-14
 -1      3115 9.61934E-03 3.58949E-03-4.79248E-14
 -1      3116 9.46105E-03 3.50184E-03-4.74773E-14
 -1      3117 1.00476E-02 3.89676E-03-5.32192E-14
 -1      3118 9.90481E-03 3.79443E-03-5.14324E-14
 -1      3119 9.74609E-03 3.70662E-03-5.09722E-14
 -1      3120 1.03476E-02 4.11139E-03-5.70491E-14
 -1      3121 1.01976E-02 4.00412E-03-5.51224E-14
 -1      3122 1.00386E-02 3.91622E-03-5.46523E-14
 -1      3123 1.06333E-02 4.31552E-03-6.07874E-14
 -1      3124 1.04904E-02 4.21348E-03-5.89063E-14
 -1      3125 1.03313E-02 4.12555E-03-5.84260E-14
 -1      3126 1.09191E-02 4.51941E-03-6.46087E-14
 -1      3127 1.07762E-02 4.41749E-03-6.26881E-14
 -1      3128 1.06169E-02 4.32954E-03-6.21948E-14
 -1      3129 1.12048E-02 4.72312E-03-6.85206E-14
 -1      3130 1.10619E-02 4.62128E-03-6.65536E-14
 -1      3131 1.09026E-02 4.53334E-03-6.60521E-14
 -1      3132 1.14906E-02 4.92667E-03-7.25131E-14
 -1      3133 1.13477E-02 4.82491E-03-7.05082E-14
 -1      3134 1.11883E-02 4.73697E-03-6.99940E-14
 -1      3135 1.17763E-02 5.13010E-03-7.65859E-14
 -1      3136 1.16334E-02 5.02840E-03-7.45380E-14
 -1      3137 1.14740E-02 4.94047E-03-7.40159E-14
 -1      3138 1.20620E-02 5.33344E-03-8.07360E-14
 -1      3139 1.19192E-02 5.23178E-03-7.86532E-14
 -1      3140 1.17598E-02 5.14386E-03-7.81156E-14
 -1      3141 1.23478E-02 5.53670E-03-8.49541E-14
 -1      3142 1.22049E-02 5.43508E-03-8.28367E-14
 -1      3143 1.20455E-02 5.34716E-03-8.22909E-14
 -1      3144 1.26335E-02 5.73991E-03-8.92419E-14
 -1      3145 1.24906E-02 5.63831E-03-8.70899E-14
 -1      3146 1.23312E-02 5.55040E-03-8.65335E-14
 -1      3147 1.29192E-02 5.94308E-03-9.35881E-14
 -1      3148 1.27764E-02 5.84150E-03-9.14071E-14
 -1      3149 1.26170E-02 5.75360E-03-9.08438E-14
 -1      3150 1.32050E-02 6.14621E-03-9.79963E-14
 -1      3151 1.30621E-02 6.04465E-03-9.57841E-14
 -1      3152 1.29027E-02 5.95675E-03-9.52115E-14
 -1      3153 1.34907E-02 6.34932E-03-1.02465E-13
 -1      3154 1.33478E-02 6.24777E-03-1.00225E-13
 -1      3155 1.31884E-02 6.15988E-03-9.96418E-14
 -1      3156 1.37764E-02 6.55242E-03-1.06994E-13
 -1      3157 1.36335E-02 6.45087E-03-1.04720E-13
 -1      3158 1.34741E-02 6.36298E-03-1.04131E-13
 -1      3159 1.40621E-02 6.75550E-03-1.11571E-13
 -1      3160 1.39193E-02 6.65396E-03-1.09276E-13
 -1      3161 1.37599E-02 6.56608E-03-1.08675E-13
 -1      3162 1.43478E-02 6.95858E-03-1.16202E-13
 -1      3163 1.42050E-02 6.85704E-03-1.13882E-13
 -1      3164 1.40456E-02 6.76916E-03-1.13272E-13
 -1      3165 1.46335E-02 7.16166E-03-1.20871E-13
 -1      3166 1.44907E-02 7.06012E-03-1.18531E-13
 -1      3167 1.43313E-02 6.97224E-03-1.17915E-13
 -1      3168 1.45939E-02 7.30534E-03-1.33703E-13
 -1      3169 1.46937E-02 7.34748E-03-1.33100E-13
 -1      3170 9.51385E-04 1.76529E-04-1.17911E-15
 -1      3171 9.78017E-04 1.46982E-04-1.21886E-15
 -1      3172 1.26607E-03 4.38254E-04-2.00819E-15
 -1      3173 1.33520E-03 4.42055E-04-1.94402E-15
 -1      3174 3.50369E-03-1.08595E-04-9.02598E-15
 -1      3175 3.38967E-03-1.33090E-04-8.48597E-15
 -1      3176 1.47919E-02 7.38892E-03-1.32505E-13
 -1      3177 1.48901E-02 7.43035E-03-1.31906E-13
 -1      3178 1.46183E-02 7.27991E-03-1.30751E-13
 -1      3179 1.37985E-02 6.96958E-03-1.38397E-13
 -1      3180 1.38984E-02 7.01173E-03-1.37817E-13
 -1      3181 1.36249E-02 6.86057E-03-1.36599E-13
 -1      3182 1.39973E-02 7.05352E-03-1.37243E-13
 -1      3183 1.40955E-02 7.09495E-03-1.36668E-13
 -1      3184 1.40217E-02 7.02809E-03-1.34299E-13
 -1      3185 1.38237E-02 6.94451E-03-1.35452E-13
 -1      3186 2.58591E-03-1.27672E-06-5.31506E-15
 -1      3187 2.42107E-03 6.98678E-05-4.80480E-15
 -1      3188 1.60675E-03 4.97432E-04-1.95370E-15
 -1      3189 1.43942E-02 7.22104E-03-1.34898E-13
 -1      3190 1.44940E-02 7.26319E-03-1.34301E-13
 -1      3191 1.44202E-02 7.19633E-03-1.31940E-13
 -1      3192 1.42205E-02 7.11203E-03-1.33127E-13
 -1      3193 8.34447E-03 2.66329E-03-3.33287E-14
 -1      3194 8.20551E-03 2.56042E-03-3.18363E-14
 -1      3195 8.05566E-03 2.47784E-03-3.14564E-14
 -1      3196 8.33128E-03 2.68153E-03-3.44529E-14
 -1      3197 7.07290E-03 1.68192E-03-1.95354E-14
 -1      3198 6.97827E-03 1.59931E-03-1.82962E-14
 -1      3199 1.20713E-03-2.89463E-04-1.79831E-15
 -1      3200 1.35886E-03-3.13818E-04-2.20048E-15
 -1      3201 1.43860E-03-2.85712E-04-2.39798E-15
 -1      3202 7.29261E-03 1.86377E-03-2.21576E-14
 -1      3203 7.17843E-03 1.77196E-03-2.08875E-14
 -1      3204 7.28245E-03 1.89116E-03-2.31258E-14
 -1      3205 1.27004E-03 4.36195E-04-2.24227E-15
 -1      3206 1.23934E-03 4.35043E-04-2.10491E-15
 -1      3207 2.25499E-03 1.41275E-04-4.34849E-15
 -1      3208 2.08037E-03 2.09340E-04-3.91856E-15
 -1      3209 2.27598E-03 7.21373E-05-4.40602E-15
 -1      3210 3.26942E-03-1.43157E-04-7.92113E-15
 -1      3211 3.20251E-03-1.40166E-04-7.59741E-15
 -1      3212 5.47211E-03 1.04890E-03-1.53036E-14
 -1      3213 1.49757E-02 7.46103E-03-1.30949E-13
 -1      3214 1.51063E-02 7.51064E-03-1.29704E-13
 -1      3215 1.49733E-02 7.41338E-03-1.27280E-13
 -1      3216 1.48020E-02 7.35203E-03-1.29201E-13
 -1      3217 4.50796E-03 4.89655E-04-1.35947E-14
 -1      3218 4.26750E-03 3.22930E-04-1.26872E-14
 -1      3219 5.01424E-03 8.18886E-04-1.53374E-14
 -1      3220 4.78001E-03 6.71552E-04-1.46157E-14
 -1      3221 1.03329E-03 2.95042E-04-9.35084E-16
 -1      3222 9.46750E-04 2.71421E-04-8.99793E-16
 -1      3223 1.01750E-03 3.01750E-04-1.13679E-15
 -1      3224 1.13202E-03 3.28655E-04-1.15657E-15
 -1      3225 3.70835E-03-2.97645E-05-1.00209E-14
 -1      3226 3.60642E-03-7.50463E-05-9.51631E-15
 -1      3227 3.51922E-03-9.95568E-05-9.34058E-15
 -1      3228 6.66635E-03 1.42350E-03-1.60421E-14
 -1      3229 6.55988E-03 1.41585E-03-1.62397E-14
 -1      3230 6.54741E-03 1.44842E-03-1.71641E-14
 -1      3231 1.42625E-03 3.99624E-04-2.54916E-15
 -1      3232 1.33422E-03 4.21730E-04-2.38383E-15
 -1      3233 1.43364E-03 4.57844E-04-1.92190E-15
 -1      3234 9.24695E-04-2.12793E-04-1.14950E-15
 -1      3235 5.67704E-03 1.16149E-03-1.62852E-14
 -1      3236 5.37790E-03 1.02006E-03-1.59788E-14
 -1      3237 1.33472E-03 4.18697E-04-1.73674E-15
 -1      3238 1.00345E-03 1.13140E-04-1.25675E-15
 -1      3239 1.02576E-03 7.65787E-05-1.29283E-15
 -1      3240 1.11460E-03 1.45845E-04-1.50032E-15
 -1      3241 9.66375E-04 2.83377E-04-1.18448E-15
 -1      3242 8.77265E-04 2.45638E-04-9.97141E-16
 -1      3243 8.84974E-04 2.35414E-04-1.04699E-15
 -1      3244 5.84451E-03 1.24405E-03-1.71264E-14
 -1      3245 1.23705E-03 3.91292E-04-2.06164E-15
 -1      3246 4.13135E-03 2.39262E-04-1.24617E-14
 -1      3247 7.06325E-03 1.71188E-03-2.04628E-14
 -1      3248 9.24987E-04 2.01451E-04-1.13754E-15
 -1      3249 1.04972E-03 2.14861E-04-1.40568E-15
 -1      3250 9.02112E-04 2.21069E-04-1.09374E-15
 -1      3251 3.05945E-03-1.34651E-04-7.09099E-15
 -1      3252 1.90130E-03 2.38355E-04-3.46775E-15
 -1      3253 1.73093E-03 2.52989E-04-3.04730E-15
 -1      3254 1.94137E-03 1.66987E-04-3.51623E-15
 -1      3255 1.07010E-03-4.28708E-05-1.38922E-15
 -1      3256 1.07751E-03-8.36526E-05-1.41720E-15
 -1      3257 1.20440E-03 4.03788E-04-1.84691E-15
 -1      3258 1.48699E-02 7.33615E-03-1.25275E-13
 -1      3259 1.47369E-02 7.23889E-03-1.22869E-13
 -1      3260 1.45775E-02 7.15101E-03-1.22240E-13
 -1      3261 1.47843E-02 7.30547E-03-1.26238E-13
 -1      3262 4.62888E-03 5.78056E-04-1.46062E-14
 -1      3263 3.30524E-03-1.45827E-04-8.27704E-15
 -1      3264 1.23396E-03 3.72333E-04-1.44171E-15
 -1      3265 1.16788E-03 3.58899E-04-1.43487E-15
 -1      3266 2.75828E-03-8.88648E-05-5.98431E-15
 -1      3267 2.67679E-03-4.73002E-05-5.64448E-15
 -1      3268 2.51546E-03-3.78988E-05-5.17518E-15
 -1      3269 6.77324E-03 1.41140E-03-1.52061E-14
 -1      3270 6.73875E-03 1.41681E-03-1.55771E-14
 -1      3271 1.34158E-02 6.79288E-03-1.39409E-13
 -1      3272 1.35234E-02 6.84833E-03-1.39582E-13
 -1      3273 1.34496E-02 6.78147E-03-1.37203E-13
 -1      3274 1.32988E-02 6.70757E-03-1.37257E-13
 -1      3275 6.74453E-03 1.45730E-03-1.64997E-14
 -1      3276 1.21465E-03-1.15995E-04-1.73035E-15
 -1      3277 1.08197E-03-1.24475E-04-1.44250E-15
 -1      3278 1.08428E-03-1.64936E-04-1.46462E-15
 -1      3279 1.51578E-03 3.17397E-04-2.60069E-15
 -1      3280 1.47248E-03 3.61660E-04-2.57678E-15
 -1      3281 1.33578E-03 3.42109E-04-2.21330E-15
 -1      3282 3.75882E-03 6.95696E-06-1.05990E-14
 -1      3283 5.22784E-03 9.49003E-04-1.63200E-14
 -1      3284 5.10000E-03 8.79931E-04-1.66526E-14
 -1      3285 5.43515E-03 1.06653E-03-1.73259E-14
 -1      3286 1.04304E-03-2.37077E-04-1.40195E-15
 -1      3287 1.11862E-03-2.14022E-04-1.56148E-15
 -1      3288 6.76561E-03 1.40262E-03-1.47605E-14
 -1      3289 1.12858E-03 3.26395E-04-1.68171E-15
 -1      3290 1.09122E-03 3.34673E-04-1.57250E-15
 -1      3291 6.38040E-03 1.44424E-03-1.81637E-14
 -1      3292 6.22947E-03 1.40056E-03-1.81159E-14
 -1      3293 6.89299E-03 1.56062E-03-1.80504E-14
 -1      3294 6.90332E-03 1.53306E-03-1.72384E-14
 -1      3295 1.99710E-03-3.05261E-04-4.13582E-15
 -1      3296 2.15582E-03-3.17471E-04-4.72879E-15
 -1      3297 2.31360E-03-3.26233E-04-5.36233E-15
 -1      3298 2.46977E-03-3.29803E-04-6.03627E-15
 -1      3299 2.25346E-03-2.83212E-04-4.98081E-15
 -1      3300 2.62390E-03-3.27222E-04-6.75111E-15
 -1      3301 2.77607E-03-3.16152E-04-7.50657E-15
 -1      3302 2.57366E-03-2.95946E-04-6.31447E-15
 -1      3303 2.92602E-03-2.95633E-04-8.30184E-15
 -1      3304 3.07477E-03-2.63907E-04-9.13798E-15
 -1      3305 2.88490E-03-2.79645E-04-7.81055E-15
 -1      3306 3.22227E-03-2.20490E-04-1.00147E-14
 -1      3307 3.37014E-03-1.65015E-04-1.09314E-14
 -1      3308 3.18807E-03-2.19302E-04-9.46914E-15
 -1      3309 3.51843E-03-9.77986E-05-1.18873E-14
 -1      3310 3.66837E-03-2.01851E-05-1.28817E-14
 -1      3311 3.48931E-03-1.06874E-04-1.12886E-14
 -1      3312 3.81978E-03 6.66396E-05-1.39141E-14
 -1      3313 3.97334E-03 1.60624E-04-1.49828E-14
 -1      3314 3.79537E-03 5.33844E-05-1.32663E-14
 -1      3315 4.12867E-03 2.60484E-04-1.60865E-14
 -1      3316 4.28540E-03 3.63930E-04-1.72252E-14
 -1      3317 4.11006E-03 2.48066E-04-1.53916E-14
 -1      3318 4.44314E-03 4.69955E-04-1.83980E-14
 -1      3319 4.60117E-03 5.77125E-04-1.96032E-14
 -1      3320 4.43150E-03 4.60253E-04-1.76583E-14
 -1      3321 4.75923E-03 6.84780E-04-2.08389E-14
 -1      3322 4.91658E-03 7.92198E-04-2.21052E-14
 -1      3323 4.75486E-03 6.77394E-04-2.00557E-14
 -1      3324 5.07317E-03 8.99056E-04-2.34037E-14
 -1      3325 5.22847E-03 1.00516E-03-2.47327E-14
 -1      3326 5.07539E-03 8.92740E-04-2.25778E-14
 -1      3327 5.38258E-03 1.11038E-03-2.60926E-14
 -1      3328 5.53525E-03 1.21484E-03-2.74819E-14
 -1      3329 5.39013E-03 1.10390E-03-2.52225E-14
 -1      3330 5.68665E-03 1.31848E-03-2.89025E-14
 -1      3331 5.83671E-03 1.42152E-03-3.03532E-14
 -1      3332 5.69810E-03 1.31102E-03-2.79893E-14
 -1      3333 5.98563E-03 1.52394E-03-3.18340E-14
 -1      3334 6.13345E-03 1.62595E-03-3.33455E-14
 -1      3335 5.99972E-03 1.51518E-03-3.08784E-14
 -1      3336 6.28035E-03 1.72756E-03-3.48849E-14
 -1      3337 6.42642E-03 1.82891E-03-3.64536E-14
 -1      3338 6.29609E-03 1.71750E-03-3.38878E-14
 -1      3339 6.57181E-03 1.93002E-03-3.80510E-14
 -1      3340 6.71661E-03 2.03100E-03-3.96766E-14
 -1      3341 6.58849E-03 1.91886E-03-3.70136E-14
 -1      3342 6.86095E-03 2.13186E-03-4.13281E-14
 -1      3343 7.00489E-03 2.23266E-03-4.30071E-14
 -1      3344 6.87808E-03 2.11984E-03-4.02512E-14
 -1      3345 7.14852E-03 2.33341E-03-4.47121E-14
 -1      3346 7.29191E-03 2.43417E-03-4.64408E-14
 -1      3347 7.16582E-03 2.32077E-03-4.35951E-14
 -1      3348 7.43512E-03 2.53492E-03-4.81971E-14
 -1      3349 7.57818E-03 2.63570E-03-4.99780E-14
 -1      3350 7.45241E-03 2.52186E-03-4.70403E-14
 -1      3351 7.72113E-03 2.73650E-03-5.17821E-14
 -1      3352 7.86402E-03 2.83735E-03-5.36103E-14
 -1      3353 7.73833E-03 2.72317E-03-5.05871E-14
 -1      3354 8.00684E-03 2.93823E-03-5.54621E-14
 -1      3355 8.14964E-03 3.03916E-03-5.73366E-14
 -1      3356 8.02391E-03 2.92473E-03-5.42295E-14
 -1      3357 8.29241E-03 3.14013E-03-5.92326E-14
 -1      3358 8.43518E-03 3.24115E-03-6.11479E-14
 -1      3359 8.30935E-03 3.12654E-03-5.79627E-14
 -1      3360 8.57794E-03 3.34221E-03-6.30855E-14
 -1      3361 8.72070E-03 3.44331E-03-6.50459E-14
 -1      3362 8.59476E-03 3.32857E-03-6.17808E-14
 -1      3363 8.86347E-03 3.54446E-03-6.70266E-14
 -1      3364 9.00625E-03 3.64565E-03-6.90268E-14
 -1      3365 8.88019E-03 3.53080E-03-6.56867E-14
 -1      3366 9.14904E-03 3.74687E-03-7.10457E-14
 -1      3367 9.29183E-03 3.84812E-03-7.30839E-14
 -1      3368 9.16567E-03 3.73320E-03-6.96745E-14
 -1      3369 9.43463E-03 3.94941E-03-7.51412E-14
 -1      3370 9.57745E-03 4.05073E-03-7.72159E-14
 -1      3371 9.45121E-03 3.93575E-03-7.37386E-14
 -1      3372 9.72027E-03 4.15207E-03-7.93083E-14
 -1      3373 9.86310E-03 4.25344E-03-8.14190E-14
 -1      3374 9.73680E-03 4.13841E-03-7.78765E-14
 -1      3375 1.00059E-02 4.35483E-03-8.35445E-14
 -1      3376 1.01488E-02 4.45623E-03-8.56864E-14
 -1      3377 1.00224E-02 4.34117E-03-8.20843E-14
 -1      3378 1.02916E-02 4.55766E-03-8.78451E-14
 -1      3379 1.04345E-02 4.65910E-03-9.00173E-14
 -1      3380 1.03081E-02 4.54401E-03-8.63590E-14
 -1      3381 1.05773E-02 4.76056E-03-9.22041E-14
 -1      3382 1.07202E-02 4.86202E-03-9.44050E-14
 -1      3383 1.05938E-02 4.74691E-03-9.06937E-14
 -1      3384 1.08630E-02 4.96350E-03-9.66194E-14
 -1      3385 1.10059E-02 5.06499E-03-9.88452E-14
 -1      3386 1.08795E-02 4.94985E-03-9.50864E-14
 -1      3387 1.11488E-02 5.16649E-03-1.01085E-13
 -1      3388 1.12916E-02 5.26799E-03-1.03339E-13
 -1      3389 1.11652E-02 5.15284E-03-9.95311E-14
 -1      3390 1.14345E-02 5.36950E-03-1.05604E-13
 -1      3391 1.15773E-02 5.47102E-03-1.07882E-13
 -1      3392 1.14510E-02 5.35585E-03-1.04028E-13
 -1      3393 1.17202E-02 5.57254E-03-1.10174E-13
 -1      3394 1.18631E-02 5.67406E-03-1.12479E-13
 -1      3395 1.17367E-02 5.55889E-03-1.08577E-13
 -1      3396 1.20059E-02 5.77559E-03-1.14794E-13
 -1      3397 1.21488E-02 5.87712E-03-1.17121E-13
 -1      3398 1.20224E-02 5.76194E-03-1.13176E-13
 -1      3399 1.22917E-02 5.97865E-03-1.19462E-13
 -1      3400 1.24345E-02 6.08018E-03-1.21810E-13
 -1      3401 1.23081E-02 5.96500E-03-1.17823E-13
 -1      3402 1.25774E-02 6.18171E-03-1.24170E-13
 -1      3403 1.27202E-02 6.28325E-03-1.26541E-13
 -1      3404 1.25939E-02 6.16806E-03-1.22513E-13
 -1      3405 1.28631E-02 6.38479E-03-1.28920E-13
 -1      3406 1.30060E-02 6.48632E-03-1.31311E-13
 -1      3407 1.28796E-02 6.37114E-03-1.27242E-13
 -1      3408 9.16096E-03 3.31217E-03-4.53165E-14
 -1      3409 9.01918E-03 3.20985E-03-4.36318E-14
 -1      3410 7.51142E-03 2.10330E-03-2.68031E-14
 -1      3411 7.38589E-03 2.00863E-03-2.54358E-14
 -1      3412 1.05923E-03-2.12961E-06-1.35925E-15
 -1      3413 1.19953E-03-2.67504E-05-1.66379E-15
 -1      3414 1.04454E-03 3.77337E-05-1.32713E-15
 -1      3415 1.11912E-03 3.55176E-04-1.51612E-15
 -1      3416 8.87771E-03 3.10757E-03-4.19719E-14
 -1      3417 8.73660E-03 3.00531E-03-4.03360E-14
 -1      3418 8.86199E-03 3.12335E-03-4.31831E-14
 -1      3419 8.59600E-03 2.90318E-03-3.87246E-14
 -1      3420 8.45599E-03 2.80118E-03-3.71403E-14
 -1      3421 8.58041E-03 2.91967E-03-3.99000E-14
 -1      3422 9.44519E-03 3.51676E-03-4.87541E-14
 -1      3423 9.30298E-03 3.41447E-03-4.70241E-14
 -1      3424 9.14508E-03 3.32742E-03-4.65644E-14
 -1      3425 9.73002E-03 3.72120E-03-5.22864E-14
 -1      3426 9.58755E-03 3.61900E-03-5.05098E-14
 -1      3427 9.42915E-03 3.53160E-03-5.00391E-14
 -1      3428 1.00295E-02 3.93566E-03-5.60923E-14
 -1      3429 9.87971E-03 3.82846E-03-5.41745E-14
 -1      3430 9.72097E-03 3.74084E-03-5.36950E-14
 -1      3431 1.03149E-02 4.13971E-03-5.98070E-14
 -1      3432 1.01722E-02 4.03771E-03-5.79372E-14
 -1      3433 1.00132E-02 3.94996E-03-5.74435E-14
 -1      3434 1.06005E-02 4.34357E-03-6.36081E-14
 -1      3435 1.04577E-02 4.24166E-03-6.16969E-14
 -1      3436 1.02985E-02 4.15384E-03-6.11909E-14
 -1      3437 1.08861E-02 4.54726E-03-6.74981E-14
 -1      3438 1.07433E-02 4.44543E-03-6.55437E-14
 -1      3439 1.05840E-02 4.35757E-03-6.50275E-14
 -1      3440 1.11718E-02 4.75082E-03-7.14718E-14
 -1      3441 1.10290E-02 4.64906E-03-6.94748E-14
 -1      3442 1.08696E-02 4.56117E-03-6.89492E-14
 -1      3443 1.14575E-02 4.95426E-03-7.55195E-14
 -1      3444 1.13147E-02 4.85255E-03-7.34855E-14
 -1      3445 1.11553E-02 4.76466E-03-7.29507E-14
 -1      3446 1.17432E-02 5.15761E-03-7.96491E-14
 -1      3447 1.16004E-02 5.05595E-03-7.75741E-14
 -1      3448 1.14410E-02 4.96805E-03-7.70288E-14
 -1      3449 1.20290E-02 5.36089E-03-8.38480E-14
 -1      3450 1.18861E-02 5.25926E-03-8.17417E-14
 -1      3451 1.17267E-02 5.17136E-03-8.11856E-14
 -1      3452 1.23147E-02 5.56410E-03-8.81171E-14
 -1      3453 1.21718E-02 5.46250E-03-8.59738E-14
 -1      3454 1.20124E-02 5.37460E-03-8.54113E-14
 -1      3455 1.26004E-02 5.76728E-03-9.24501E-14
 -1      3456 1.24576E-02 5.66570E-03-9.02763E-14
 -1      3457 1.22982E-02 5.57780E-03-8.97047E-14
 -1      3458 1.28862E-02 5.97042E-03-9.68374E-14
 -1      3459 1.27433E-02 5.86885E-03-9.46347E-14
 -1      3460 1.25839E-02 5.78096E-03-9.40559E-14
 -1      3461 1.31719E-02 6.17354E-03-1.01289E-13
 -1      3462 1.30290E-02 6.07198E-03-9.90553E-14
 -1      3463 1.28696E-02 5.98409E-03-9.84644E-14
 -1      3464 1.34576E-02 6.37664E-03-1.05797E-13
 -1      3465 1.33148E-02 6.27509E-03-1.03536E-13
 -1      3466 1.31554E-02 6.18720E-03-1.02935E-13
 -1      3467 1.37433E-02 6.57973E-03-1.10359E-13
 -1      3468 1.36005E-02 6.47819E-03-1.08072E-13
 -1      3469 1.34411E-02 6.39030E-03-1.07464E-13
 -1      3470 1.40291E-02 6.78281E-03-1.14972E-13
 -1      3471 1.38862E-02 6.68127E-03-1.12659E-13
 -1      3472 1.37268E-02 6.59338E-03-1.12045E-13
 -1      3473 1.43148E-02 6.98589E-03-1.19623E-13
 -1      3474 1.41719E-02 6.88435E-03-1.17293E-13
 -1      3475 1.40126E-02 6.79646E-03-1.16668E-13
 -1      3476 7.03703E-03 1.73621E-03-2.13203E-14
 -1      3477 6.93890E-03 1.65193E-03-1.99641E-14
 -1      3478 1.34512E-02 6.75157E-03-1.34803E-13
 -1      3479 1.35511E-02 6.79372E-03-1.34232E-13
 -1      3480 3.05589E-03-1.58025E-04-7.29076E-15
 -1      3481 2.92804E-03-1.34057E-04-6.68285E-15
 -1      3482 6.80470E-03 1.43825E-03-1.55763E-14
 -1      3483 1.25184E-03-2.11612E-04-1.86987E-15
 -1      3484 2.25749E-03 1.03093E-05-4.38760E-15
 -1      3485 2.11268E-03 6.93041E-05-3.95770E-15
 -1      3486 1.44455E-02 7.17127E-03-1.28995E-13
 -1      3487 1.45436E-02 7.21270E-03-1.28403E-13
 -1      3488 6.66135E-03 1.50209E-03-1.79498E-14
 -1      3489 6.54511E-03 1.48502E-03-1.81451E-14
 -1      3490 7.77190E-03 2.29781E-03-2.96204E-14
 -1      3491 7.64030E-03 2.19965E-03-2.81984E-14
 -1      3492 7.49260E-03 2.12484E-03-2.78190E-14
 -1      3493 1.67889E-03-2.73447E-04-3.06911E-15
 -1      3494 1.83782E-03-2.90267E-04-3.58239E-15
 -1      3495 1.92837E-03-2.55687E-04-3.80811E-15
 -1      3496 6.82582E-03 1.46065E-03-1.60588E-14
 -1      3497 1.38583E-03-2.33589E-04-2.21775E-15
 -1      3498 1.54319E-03-2.52814E-04-2.65619E-15
 -1      3499 1.62734E-03-2.19498E-04-2.85537E-15
 -1      3500 1.35264E-03-1.79537E-04-2.09473E-15
 -1      3501 7.26431E-03 1.91689E-03-2.40974E-14
 -1      3502 7.14770E-03 1.82770E-03-2.27866E-14
 -1      3503 7.24143E-03 1.93993E-03-2.50734E-14
 -1      3504 4.21156E-03 3.03719E-04-1.33713E-14
 -1      3505 3.98506E-03 1.53594E-04-1.22575E-14
 -1      3506 6.03731E-03 1.33953E-03-1.82191E-14
 -1      3507 5.79311E-03 1.24185E-03-1.80668E-14
 -1      3508 3.32235E-03-1.48234E-04-8.60514E-15
 -1      3509 3.21017E-03-1.60985E-04-8.03693E-15
 -1      3510 3.77169E-03 2.49540E-05-1.10710E-14
 -1      3511 3.63596E-03-4.64010E-05-1.02953E-14
 -1      3512 4.72891E-03 6.50548E-04-1.56752E-14
 -1      3513 4.48044E-03 4.84757E-04-1.46168E-14
 -1      3514 3.52736E-03-9.21741E-05-9.67958E-15
 -1      3515 3.43157E-03-1.23625E-04-9.18467E-15
 -1      3516 3.33467E-03-1.48768E-04-8.92457E-15
 -1      3517 3.54601E-03-8.04070E-05-1.01245E-14
 -1      3518 8.04136E-03 2.49724E-03-3.25466E-14
 -1      3519 7.90571E-03 2.39699E-03-3.10699E-14
 -1      3520 7.75511E-03 2.31779E-03-3.06766E-14
 -1      3521 1.42458E-02 7.08697E-03-1.30187E-13
 -1      3522 1.43456E-02 7.12912E-03-1.29594E-13
 -1      3523 1.42710E-02 7.06190E-03-1.27254E-13
 -1      3524 6.17245E-03 1.40532E-03-1.90872E-14
 -1      3525 9.90513E-04 2.61127E-04-1.30141E-15
 -1      3526 8.30117E-03 2.71689E-03-3.67187E-14
 -1      3527 8.31676E-03 2.69947E-03-3.55833E-14
 -1      3528 8.17845E-03 2.59806E-03-3.40510E-14
 -1      3529 1.30939E-02 6.55429E-03-1.33210E-13
 -1      3530 1.32109E-02 6.63960E-03-1.35345E-13
 -1      3531 1.32863E-02 6.67656E-03-1.35321E-13
 -1      3532 1.31104E-02 6.54063E-03-1.31515E-13
 -1      3533 4.92913E-03 7.79564E-04-1.66671E-14
 -1      3534 4.77662E-03 6.83539E-04-1.66711E-14
 -1      3535 5.12848E-03 9.02365E-04-1.76837E-14
 -1      3536 1.94335E-03 9.99665E-05-3.49821E-15
 -1      3537 1.77728E-03 1.22648E-04-3.06931E-15
 -1      3538 1.93005E-03 3.66098E-05-3.47213E-15
 -1      3539 3.85683E-03 8.10455E-05-1.19226E-14
 -1      3540 1.33103E-03-7.65384E-06-1.95944E-15
 -1      3541 1.34302E-03-5.63716E-05-2.00190E-15
 -1      3542 6.78368E-03 1.60656E-03-1.98692E-14
 -1      3543 6.83186E-03 1.58598E-03-1.90431E-14
 -1      3544 1.44182E-02 7.06312E-03-1.21611E-13
 -1      3545 1.42588E-02 6.97523E-03-1.20979E-13
 -1      3546 1.45215E-02 7.14035E-03-1.23603E-13
 -1      3547 7.00737E-03 1.76077E-03-2.22564E-14
 -1      3548 1.60463E-03 2.03898E-04-2.67764E-15
 -1      3549 1.56519E-03 2.62833E-04-2.64150E-15
 -1      3550 1.41074E-03 2.60619E-04-2.26739E-15
 -1      3551 2.76751E-03-1.27902E-04-6.16265E-15
 -1      3552 1.16671E-03 6.23422E-05-1.58659E-15
 -1      3553 1.33617E-02 6.71351E-03-1.35294E-13
 -1      3554 1.34764E-02 6.72650E-03-1.31880E-13
 -1      3555 1.36501E-02 6.83551E-03-1.33664E-13
 -1      3556 1.37491E-02 6.87730E-03-1.33095E-13
 -1      3557 2.42705E-03-7.30156E-05-4.98138E-15
 -1      3558 2.34513E-03-3.18687E-05-4.67954E-15
 -1      3559 2.17847E-03-3.22812E-05-4.20612E-15
 -1      3560 1.08741E-03 3.41017E-04-1.49659E-15
 -1      3561 1.40461E-02 7.00267E-03-1.31367E-13
 -1      3562 1.41459E-02 7.04482E-03-1.30780E-13
 -1      3563 1.40713E-02 6.97761E-03-1.28438E-13
 -1      3564 1.43665E-02 7.07826E-03-1.24811E-13
 -1      3565 1.45393E-02 7.18691E-03-1.26551E-13
 -1      3566 6.51778E-03 1.50589E-03-1.89704E-14
 -1      3567 3.07996E-03-1.74141E-04-7.59307E-15
 -1      3568 1.32879E-02 6.64665E-03-1.32931E-13
 -1      3569 1.34847E-03-9.50794E-05-2.03224E-15
 -1      3570 1.35237E-03-1.42329E-04-2.06905E-15
 -1      3571 1.49066E-03-1.60646E-04-2.43021E-15
 -1      3572 1.48625E-03-8.02470E-05-2.36306E-15
 -1      3573 4.32033E-03 3.80462E-04-1.43894E-14
 -1      3574 5.85045E-03 1.28823E-03-1.95510E-14
 -1      3575 5.64801E-03 1.18292E-03-1.84258E-14
 -1      3576 5.51585E-03 1.12107E-03-1.87768E-14
 -1      3577 1.38481E-02 6.91909E-03-1.32522E-13
 -1      3578 1.39471E-02 6.96088E-03-1.31945E-13
 -1      3579 1.36744E-02 6.81008E-03-1.30746E-13
 -1      3580 6.76228E-03 1.52402E-03-1.79747E-14
 -1      3581 1.18647E-03 2.76997E-04-1.76503E-15
 -1      3582 1.16589E-03 3.04071E-04-1.75122E-15
 -1      3583 1.23095E-03 2.41464E-04-1.82746E-15
 -1      3584 1.25844E-03 2.00115E-04-1.85073E-15
 -1      3585 1.29698E-03 1.54425E-04-1.90750E-15
 -1      3586 1.38724E-02 6.89367E-03-1.29602E-13
 -1      3587 1.46249E-02 7.21759E-03-1.25598E-13
 -1      3588 1.31999E-02 6.57869E-03-1.31033E-13
 -1      3589 2.51846E-03-2.59198E-04-5.88864E-15
 -1      3590 2.68070E-03-2.63253E-04-6.58857E-15
 -1      3591 2.84007E-03-2.59615E-04-7.32902E-15
 -1      3592 2.99697E-03-2.44489E-04-8.11020E-15
 -1      3593 2.78968E-03-2.32832E-04-6.85807E-15
 -1      3594 3.45722E-03-1.17007E-04-1.06988E-14
 -1      3595 3.61188E-03-4.56374E-05-1.16427E-14
 -1      3596 3.84340E-03 8.16951E-05-1.27156E-14
 -1      3597 4.00703E-03 1.81433E-04-1.37390E-14
 -1      3598 4.41835E-03 4.50881E-04-1.69240E-14
 -1      3599 4.58402E-03 5.61116E-04-1.80864E-14
 -1      3600 4.74985E-03 6.71369E-04-1.92795E-14
 -1      3601 4.91439E-03 7.80460E-04-2.05038E-14
 -1      3602 4.74451E-03 6.66061E-04-1.85095E-14
 -1      3603 5.07777E-03 8.88211E-04-2.17589E-14
 -1      3604 5.23892E-03 9.94466E-04-2.30447E-14
 -1      3605 5.08043E-03 8.85375E-04-2.09477E-14
 -1      3606 5.39815E-03 1.09920E-03-2.43615E-14
 -1      3607 5.55514E-03 1.20272E-03-2.57084E-14
 -1      3608 5.40696E-03 1.09631E-03-2.35071E-14
 -1      3609 5.71016E-03 1.30509E-03-2.70847E-14
 -1      3610 5.86315E-03 1.40671E-03-2.84926E-14
 -1      3611 5.72312E-03 1.30082E-03-2.61879E-14
 -1      3612 6.01442E-03 1.50760E-03-2.99314E-14
 -1      3613 6.16406E-03 1.60813E-03-3.14000E-14
 -1      3614 6.02996E-03 1.50134E-03-2.89917E-14
 -1      3615 6.31235E-03 1.70830E-03-3.28986E-14
 -1      3616 6.45945E-03 1.80835E-03-3.44259E-14
 -1      3617 6.32932E-03 1.70003E-03-3.19161E-14
 -1      3618 6.60557E-03 1.90827E-03-3.59832E-14
 -1      3619 6.75088E-03 2.00821E-03-3.75686E-14
 -1      3620 6.62322E-03 1.89829E-03-3.49596E-14
 -1      3621 6.89553E-03 2.10816E-03-3.91799E-14
 -1      3622 7.03965E-03 2.20821E-03-4.08188E-14
 -1      3623 6.91339E-03 2.09687E-03-3.81167E-14
 -1      3624 7.18335E-03 2.30832E-03-4.24856E-14
 -1      3625 7.32673E-03 2.40855E-03-4.41766E-14
 -1      3626 7.20118E-03 2.29608E-03-4.13823E-14
 -1      3627 7.46987E-03 2.50888E-03-4.58920E-14
 -1      3628 7.61282E-03 2.60932E-03-4.76336E-14
 -1      3629 7.48754E-03 2.49599E-03-4.47508E-14
 -1      3630 7.75565E-03 2.70985E-03-4.93997E-14
 -1      3631 7.89839E-03 2.81049E-03-5.11900E-14
 -1      3632 7.77312E-03 2.69656E-03-4.82198E-14
 -1      3633 8.04107E-03 2.91121E-03-5.30043E-14
 -1      3634 8.18372E-03 3.01202E-03-5.48413E-14
 -1      3635 8.05834E-03 2.89768E-03-5.17861E-14
 -1      3636 8.32635E-03 3.11291E-03-5.67005E-14
 -1      3637 8.46899E-03 3.21387E-03-5.85822E-14
 -1      3638 8.34343E-03 3.09925E-03-5.54464E-14
 -1      3639 8.61162E-03 3.31489E-03-6.04855E-14
 -1      3640 8.75428E-03 3.41597E-03-6.24090E-14
 -1      3641 8.62855E-03 3.30116E-03-5.91953E-14
 -1      3642 8.89694E-03 3.51710E-03-6.43535E-14
 -1      3643 9.03963E-03 3.61828E-03-6.63212E-14
 -1      3644 8.91374E-03 3.50336E-03-6.30294E-14
 -1      3645 9.18234E-03 3.71950E-03-6.83095E-14
 -1      3646 9.32507E-03 3.82076E-03-7.03159E-14
 -1      3647 9.19904E-03 3.70576E-03-6.69489E-14
 -1      3648 9.46781E-03 3.92205E-03-7.23415E-14
 -1      3649 9.61058E-03 4.02337E-03-7.43864E-14
 -1      3650 9.48444E-03 3.90832E-03-7.09508E-14
 -1      3651 9.75336E-03 4.12472E-03-7.64505E-14
 -1      3652 9.89615E-03 4.22610E-03-7.85311E-14
 -1      3653 9.76993E-03 4.11101E-03-7.50293E-14
 -1      3654 1.00390E-02 4.32749E-03-8.06286E-14
 -1      3655 1.01818E-02 4.42891E-03-8.27453E-14
 -1      3656 1.00555E-02 4.31380E-03-7.91797E-14
 -1      3657 1.03246E-02 4.53034E-03-8.48771E-14
 -1      3658 1.04674E-02 4.63179E-03-8.70237E-14
 -1      3659 1.03411E-02 4.51666E-03-8.34007E-14
 -1      3660 1.06103E-02 4.73325E-03-8.91889E-14
 -1      3661 1.07531E-02 4.83472E-03-9.13661E-14
 -1      3662 1.06268E-02 4.71958E-03-8.76870E-14
 -1      3663 1.08960E-02 4.93620E-03-9.35572E-14
 -1      3664 1.10388E-02 5.03769E-03-9.57624E-14
 -1      3665 1.09125E-02 4.92254E-03-9.20329E-14
 -1      3666 1.11817E-02 5.13919E-03-9.79799E-14
 -1      3667 1.13246E-02 5.24069E-03-1.00211E-13
 -1      3668 1.11982E-02 5.12553E-03-9.64339E-14
 -1      3669 1.14674E-02 5.34220E-03-1.02456E-13
 -1      3670 1.16103E-02 5.44372E-03-1.04712E-13
 -1      3671 1.14839E-02 5.32855E-03-1.00886E-13
 -1      3672 1.17532E-02 5.54524E-03-1.06981E-13
 -1      3673 1.18960E-02 5.64676E-03-1.09266E-13
 -1      3674 1.17696E-02 5.53159E-03-1.05391E-13
 -1      3675 1.20389E-02 5.74829E-03-1.11562E-13
 -1      3676 1.21818E-02 5.84982E-03-1.13868E-13
 -1      3677 1.20554E-02 5.73464E-03-1.09950E-13
 -1      3678 1.23246E-02 5.95135E-03-1.16190E-13
 -1      3679 1.24675E-02 6.05288E-03-1.18519E-13
 -1      3680 1.23411E-02 5.93770E-03-1.14558E-13
 -1      3681 1.26103E-02 6.15441E-03-1.20859E-13
 -1      3682 1.27532E-02 6.25595E-03-1.23211E-13
 -1      3683 1.26268E-02 6.14076E-03-1.19211E-13
 -1      3684 1.28961E-02 6.35749E-03-1.25572E-13
 -1      3685 1.30389E-02 6.45902E-03-1.27944E-13
 -1      3686 1.29126E-02 6.34384E-03-1.23904E-13
 -1      3687 9.41294E-03 3.54636E-03-5.13273E-14
 -1      3688 9.27085E-03 3.44443E-03-4.95611E-14
 -1      3689 6.77192E-03 1.63846E-03-2.08327E-14
 -1      3690 6.64699E-03 1.57104E-03-1.98938E-14
 -1      3691 6.49378E-03 1.52916E-03-1.99076E-14
 -1      3692 1.31360E-03 4.18290E-05-1.91400E-15
 -1      3693 1.46444E-03 1.46504E-05-2.27463E-15
 -1      3694 1.28982E-03 9.04616E-05-1.86567E-15
 -1      3695 1.85448E-03-2.03219E-04-3.49227E-15
 -1      3696 2.02081E-03-2.19596E-04-4.03181E-15
 -1      3697 8.84588E-03 3.13894E-03-4.44012E-14
 -1      3698 8.70484E-03 3.03730E-03-4.27292E-14
 -1      3699 8.56423E-03 2.93586E-03-4.10799E-14
 -1      3700 8.42414E-03 2.83465E-03-3.94572E-14
 -1      3701 8.54761E-03 2.95168E-03-4.22655E-14
 -1      3702 9.71180E-03 3.76042E-03-5.51086E-14
 -1      3703 9.56230E-03 3.65339E-03-5.32063E-14
 -1      3704 9.40370E-03 3.56611E-03-5.27091E-14
 -1      3705 9.99684E-03 3.96423E-03-5.88016E-14
 -1      3706 9.85428E-03 3.86233E-03-5.69434E-14
 -1      3707 9.69542E-03 3.77483E-03-5.64365E-14
 -1      3708 1.02821E-02 4.16795E-03-6.25827E-14
 -1      3709 1.01395E-02 4.06610E-03-6.06819E-14
 -1      3710 9.98043E-03 3.97845E-03-6.01641E-14
 -1      3711 1.05676E-02 4.37156E-03-6.64511E-14
 -1      3712 1.04248E-02 4.26977E-03-6.45063E-14
 -1      3713 1.02657E-02 4.18203E-03-6.39800E-14
 -1      3714 1.08532E-02 4.57507E-03-7.04048E-14
 -1      3715 1.07104E-02 4.47333E-03-6.84175E-14
 -1      3716 1.05511E-02 4.38553E-03-6.78794E-14
 -1      3717 1.11388E-02 4.77849E-03-7.44341E-14
 -1      3718 1.09960E-02 4.67679E-03-7.24097E-14
 -1      3719 1.08367E-02 4.58895E-03-7.18622E-14
 -1      3720 1.14245E-02 4.98182E-03-7.85435E-14
 -1      3721 1.12816E-02 4.88017E-03-7.64793E-14
 -1      3722 1.11223E-02 4.79231E-03-7.59239E-14
 -1      3723 1.17102E-02 5.18510E-03-8.27250E-14
 -1      3724 1.15673E-02 5.08347E-03-8.06247E-14
 -1      3725 1.14080E-02 4.99559E-03-8.00605E-14
 -1      3726 1.19959E-02 5.38831E-03-8.69760E-14
 -1      3727 1.18530E-02 5.28671E-03-8.48424E-14
 -1      3728 1.16937E-02 5.19883E-03-8.42681E-14
 -1      3729 1.22816E-02 5.59149E-03-9.12895E-14
 -1      3730 1.21388E-02 5.48991E-03-8.91247E-14
 -1      3731 1.19794E-02 5.40202E-03-8.85428E-14
 -1      3732 1.25674E-02 5.79464E-03-9.56629E-14
 -1      3733 1.24245E-02 5.69307E-03-9.34713E-14
 -1      3734 1.22651E-02 5.60518E-03-9.28769E-14
 -1      3735 1.28531E-02 5.99776E-03-1.00094E-13
 -1      3736 1.27102E-02 5.89620E-03-9.78707E-14
 -1      3737 1.25509E-02 5.80831E-03-9.72728E-14
 -1      3738 1.31388E-02 6.20086E-03-1.04588E-13
 -1      3739 1.29960E-02 6.09931E-03-1.02333E-13
 -1      3740 1.28366E-02 6.01142E-03-1.01726E-13
 -1      3741 1.34246E-02 6.40395E-03-1.09132E-13
 -1      3742 1.32817E-02 6.30241E-03-1.06853E-13
 -1      3743 1.31223E-02 6.21452E-03-1.06237E-13
 -1      3744 1.37103E-02 6.60704E-03-1.13728E-13
 -1      3745 1.35674E-02 6.50549E-03-1.11425E-13
 -1      3746 1.34081E-02 6.41761E-03-1.10799E-13
 -1      3747 1.39960E-02 6.81011E-03-1.18364E-13
 -1      3748 1.38532E-02 6.70858E-03-1.16042E-13
 -1      3749 1.36938E-02 6.62069E-03-1.15409E-13
 -1      3750 1.42330E-02 6.98280E-03-1.22575E-13
 -1      3751 1.41296E-02 6.90557E-03-1.20588E-13
 -1      3752 1.39702E-02 6.81768E-03-1.19950E-13
 -1      3753 1.42373E-02 7.00860E-03-1.24412E-13
 -1      3754 1.61046E-03 1.25429E-04-2.64430E-15
 -1      3755 1.45225E-03 1.38542E-04-2.26350E-15
 -1      3756 6.75229E-03 1.48112E-03-1.69863E-14
 -1      3757 6.32868E-03 1.48052E-03-2.00170E-14
 -1      3758 6.15612E-03 1.42226E-03-2.01150E-14
 -1      3759 6.47679E-03 1.55332E-03-2.09631E-14
 -1      3760 7.47115E-03 2.14469E-03-2.88402E-14
 -1      3761 7.34179E-03 2.05130E-03-2.74328E-14
 -1      3762 7.21490E-03 1.96048E-03-2.60551E-14
 -1      3763 7.09131E-03 1.87218E-03-2.47049E-14
 -1      3764 7.18700E-03 1.97855E-03-2.70415E-14
 -1      3765 6.98430E-03 1.79528E-03-2.34804E-14
 -1      3766 6.87031E-03 1.70804E-03-2.20025E-14
 -1      3767 6.73374E-03 1.66637E-03-2.20181E-14
 -1      3768 6.94832E-03 1.81263E-03-2.44291E-14
 -1      3769 6.81355E-03 1.47333E-03-1.65110E-14
 -1      3770 2.78019E-03-1.68399E-04-6.39502E-15
 -1      3771 2.62184E-03-1.29598E-04-5.71579E-15
 -1      3772 2.18779E-03-2.35304E-04-4.61052E-15
 -1      3773 2.35384E-03-2.48818E-04-5.22938E-15
 -1      3774 2.11475E-03-1.82746E-04-4.25267E-15
 -1      3775 9.12894E-03 3.34254E-03-4.78173E-14
 -1      3776 8.98726E-03 3.24069E-03-4.60972E-14
 -1      3777 9.11259E-03 3.35751E-03-4.90764E-14
 -1      3778 1.32164E-02 6.56504E-03-1.29348E-13
 -1      3779 1.36992E-02 6.78484E-03-1.27835E-13
 -1      3780 1.37982E-02 6.82663E-03-1.27262E-13
 -1      3781 3.08791E-03-1.97670E-04-7.98402E-15
 -1      3782 2.94355E-03-1.98471E-04-7.24174E-15
 -1      3783 3.61550E-03-4.59185E-05-1.08969E-14
 -1      3784 3.51267E-03-9.23043E-05-1.02643E-14
 -1      3785 1.60115E-03-1.72070E-04-2.73342E-15
 -1      3786 1.74213E-03-1.91408E-04-3.14766E-15
 -1      3787 1.82886E-03-1.53534E-04-3.34871E-15
 -1      3788 1.60152E-03-1.31184E-04-2.69695E-15
 -1      3789 8.28470E-03 2.73382E-03-3.78606E-14
 -1      3790 8.14603E-03 2.63341E-03-3.62901E-14
 -1      3791 8.26761E-03 2.75020E-03-3.90078E-14
 -1      3792 2.45608E-03-2.15544E-04-5.47437E-15
 -1      3793 4.76200E-03 6.76189E-04-1.75216E-14
 -1      3794 4.57765E-03 5.55456E-04-1.65049E-14
 -1      3795 3.12124E-03-2.08506E-04-8.45497E-15
 -1      3796 3.16108E-03-2.14270E-04-8.98375E-15
 -1      3797 3.31463E-03-1.71016E-04-9.84927E-15
 -1      3798 3.26032E-03-1.71217E-04-8.84672E-15
 -1      3799 3.43426E-03-1.23251E-04-1.01719E-14
 -1      3800 4.19343E-03 2.99599E-04-1.43094E-14
 -1      3801 4.12809E-03 2.59972E-04-1.49092E-14
 -1      3802 1.33154E-02 6.60683E-03-1.28790E-13
 -1      3803 4.29262E-03 3.67576E-04-1.60087E-14
 -1      3804 1.98730E-03-2.89291E-05-3.66439E-15
 -1      3805 1.82994E-03-2.44548E-06-3.21905E-15
 -1      3806 1.37248E-02 6.75995E-03-1.24926E-13
 -1      3807 1.38980E-02 6.86878E-03-1.26683E-13
 -1      3808 1.39979E-02 6.91093E-03-1.26097E-13
 -1      3809 8.82946E-03 3.15429E-03-4.56247E-14
 -1      3810 1.41374E-02 6.96645E-03-1.25008E-13
 -1      3811 2.45314E-03-1.26578E-04-5.18292E-15
 -1      3812 4.44403E-03 4.66443E-04-1.55979E-14
 -1      3813 8.02547E-03 2.51582E-03-3.36437E-14
 -1      3814 4.44548E-03 4.68200E-04-1.64114E-14
 -1      3815 2.06757E-03-6.54692E-05-3.92568E-15
 -1      3816 7.60288E-03 2.23981E-03-3.02758E-14
 -1      3817 7.44842E-03 2.16275E-03-2.98673E-14
 -1      3818 7.73646E-03 2.33664E-03-3.17383E-14
 -1      3819 1.36002E-02 6.74305E-03-1.28405E-13
 -1      3820 1.35260E-02 6.67601E-03-1.26070E-13
 -1      3821 1.35012E-02 6.70126E-03-1.28970E-13
 -1      3822 1.60323E-03 6.67704E-05-2.61499E-15
 -1      3823 1.62557E-03 8.36114E-06-2.67840E-15
 -1      3824 6.18886E-03 1.46080E-03-2.14535E-14
 -1      3825 6.02326E-03 1.37697E-03-2.04937E-14
 -1      3826 5.89628E-03 1.32687E-03-2.08642E-14
 -1      3827 3.81601E-03 6.22069E-05-1.20733E-14
 -1      3828 1.59895E-03-8.91047E-05-2.65799E-15
 -1      3829 1.67692E-03-4.94358E-05-2.83635E-15
 -1      3830 1.79808E-03-1.04300E-04-3.20657E-15
 -1      3831 5.33980E-03 1.02834E-03-1.87948E-14
 -1      3832 5.17645E-03 9.34781E-04-1.88032E-14
 -1      3833 5.54612E-03 1.14630E-03-1.99322E-14
 -1      3834 3.36338E-03-1.45282E-04-9.43341E-15
 -1      3835 4.93736E-03 7.89655E-04-1.86985E-14
 -1      3836 1.91511E-03-1.15789E-04-3.54933E-15
 -1      3837 5.13635E-03 9.14780E-04-1.98408E-14
 -1      3838 2.10103E-03-1.18330E-04-4.09438E-15
 -1      3839 8.00830E-03 2.53366E-03-3.47464E-14
 -1      3840 7.87171E-03 2.43461E-03-3.32289E-14
 -1      3841 7.71676E-03 2.35425E-03-3.28065E-14
 -1      3842 7.99030E-03 2.55066E-03-3.58543E-14
 -1      3843 1.32412E-02 6.53980E-03-1.26455E-13
 -1      3844 5.30605E-03 1.02133E-03-2.10759E-14
 -1      3845 5.73784E-03 1.29829E-03-2.52997E-14
 -1      3846 5.89364E-03 1.39778E-03-2.66641E-14
 -1      3847 6.04699E-03 1.49636E-03-2.80600E-14
 -1      3848 6.19813E-03 1.59466E-03-2.94865E-14
 -1      3849 6.06586E-03 1.49283E-03-2.71364E-14
 -1      3850 6.34744E-03 1.69266E-03-3.09423E-14
 -1      3851 6.49521E-03 1.79075E-03-3.24278E-14
 -1      3852 6.36699E-03 1.68626E-03-2.99759E-14
 -1      3853 6.64170E-03 1.88889E-03-3.39428E-14
 -1      3854 6.78718E-03 1.98730E-03-3.54873E-14
 -1      3855 6.66122E-03 1.88010E-03-3.29341E-14
 -1      3856 6.93184E-03 2.08591E-03-3.70595E-14
 -1      3857 7.07587E-03 2.18483E-03-3.86586E-14
 -1      3858 6.95101E-03 2.07529E-03-3.60090E-14
 -1      3859 7.21940E-03 2.28401E-03-4.02849E-14
 -1      3860 7.36257E-03 2.38347E-03-4.19379E-14
 -1      3861 7.23810E-03 2.27210E-03-3.91957E-14
 -1      3862 7.50547E-03 2.48317E-03-4.36154E-14
 -1      3863 7.64818E-03 2.58312E-03-4.53188E-14
 -1      3864 7.52371E-03 2.47041E-03-4.24868E-14
 -1      3865 7.79076E-03 2.68327E-03-4.70466E-14
 -1      3866 7.93326E-03 2.78361E-03-4.87985E-14
 -1      3867 7.80859E-03 2.66996E-03-4.58802E-14
 -1      3868 8.07571E-03 2.88411E-03-5.05761E-14
 -1      3869 8.21815E-03 2.98476E-03-5.23761E-14
 -1      3870 8.09321E-03 2.87050E-03-4.93713E-14
 -1      3871 8.36059E-03 3.08553E-03-5.41993E-14
 -1      3872 8.50304E-03 3.18641E-03-5.60445E-14
 -1      3873 8.37781E-03 3.07176E-03-5.29593E-14
 -1      3874 8.64552E-03 3.28738E-03-5.79106E-14
 -1      3875 8.78803E-03 3.38844E-03-5.98001E-14
 -1      3876 8.66254E-03 3.27354E-03-5.66346E-14
 -1      3877 8.93057E-03 3.48956E-03-6.17122E-14
 -1      3878 9.07315E-03 3.59074E-03-6.36427E-14
 -1      3879 8.94743E-03 3.47571E-03-6.03992E-14
 -1      3880 9.21576E-03 3.69197E-03-6.55954E-14
 -1      3881 9.35840E-03 3.79325E-03-6.75706E-14
 -1      3882 9.23250E-03 3.67813E-03-6.42489E-14
 -1      3883 9.50108E-03 3.89456E-03-6.95658E-14
 -1      3884 9.64378E-03 3.99590E-03-7.15793E-14
 -1      3885 9.51774E-03 3.88075E-03-6.81844E-14
 -1      3886 9.78651E-03 4.09727E-03-7.36126E-14
 -1      3887 9.92926E-03 4.19867E-03-7.56661E-14
 -1      3888 9.80311E-03 4.08350E-03-7.22010E-14
 -1      3889 1.00720E-02 4.30008E-03-7.77365E-14
 -1      3890 1.02148E-02 4.40151E-03-7.98236E-14
 -1      3891 1.00886E-02 4.28633E-03-7.62956E-14
 -1      3892 1.03576E-02 4.50296E-03-8.19284E-14
 -1      3893 1.05004E-02 4.60442E-03-8.40506E-14
 -1      3894 1.03742E-02 4.48924E-03-8.04604E-14
 -1      3895 1.06433E-02 4.70589E-03-8.61893E-14
 -1      3896 1.07861E-02 4.80738E-03-8.83443E-14
 -1      3897 1.06598E-02 4.69219E-03-8.46962E-14
 -1      3898 1.09290E-02 4.90887E-03-9.05114E-14
 -1      3899 1.10718E-02 5.01036E-03-9.26925E-14
 -1      3900 1.09454E-02 4.89518E-03-8.89935E-14
 -1      3901 1.12147E-02 5.11187E-03-9.48886E-14
 -1      3902 1.13575E-02 5.21338E-03-9.70967E-14
 -1      3903 1.12311E-02 5.09820E-03-9.33476E-14
 -1      3904 1.15004E-02 5.31489E-03-9.93200E-14
 -1      3905 1.16432E-02 5.41641E-03-1.01555E-13
 -1      3906 1.15169E-02 5.30123E-03-9.77558E-14
 -1      3907 1.17861E-02 5.51793E-03-1.03803E-13
 -1      3908 1.19290E-02 5.61946E-03-1.06065E-13
 -1      3909 1.18026E-02 5.50428E-03-1.02217E-13
 -1      3910 1.20718E-02 5.72099E-03-1.08342E-13
 -1      3911 1.22147E-02 5.82252E-03-1.10631E-13
 -1      3912 1.20883E-02 5.70733E-03-1.06736E-13
 -1      3913 1.23576E-02 5.92405E-03-1.12930E-13
 -1      3914 1.25005E-02 6.02558E-03-1.15242E-13
 -1      3915 1.23741E-02 5.91040E-03-1.11306E-13
 -1      3916 1.26433E-02 6.12711E-03-1.17565E-13
 -1      3917 1.27862E-02 6.22865E-03-1.19895E-13
 -1      3918 1.26598E-02 6.11347E-03-1.15920E-13
 -1      3919 1.29423E-02 6.33345E-03-1.21989E-13
 -1      3920 1.30851E-02 6.43499E-03-1.24345E-13
 -1      3921 1.32709E-02 6.52942E-03-1.24526E-13
 -1      3922 1.29588E-02 6.31981E-03-1.20329E-13
 -1      3923 9.67897E-03 3.78917E-03-5.77698E-14
 -1      3924 9.53660E-03 3.68745E-03-5.59227E-14
 -1      3925 9.38724E-03 3.58067E-03-5.40071E-14
 -1      3926 9.23801E-03 3.47393E-03-5.21164E-14
 -1      3927 9.37067E-03 3.59512E-03-5.53098E-14
 -1      3928 2.45911E-03-1.85944E-04-5.37733E-15
 -1      3929 2.63137E-03-2.01657E-04-6.04048E-15
 -1      3930 9.96396E-03 3.99263E-03-6.15325E-14
 -1      3931 9.82143E-03 3.89090E-03-5.96400E-14
 -1      3932 9.66245E-03 3.80344E-03-5.91087E-14
 -1      3933 1.02492E-02 4.19608E-03-6.53793E-14
 -1      3934 1.01066E-02 4.09436E-03-6.34444E-14
 -1      3935 9.94746E-03 4.00676E-03-6.29032E-14
 -1      3936 1.05346E-02 4.39947E-03-6.93121E-14
 -1      3937 1.03919E-02 4.29778E-03-6.73350E-14
 -1      3938 1.02327E-02 4.21009E-03-6.67839E-14
 -1      3939 1.08202E-02 4.60282E-03-7.33251E-14
 -1      3940 1.06774E-02 4.50115E-03-7.13085E-14
 -1      3941 1.05181E-02 4.41339E-03-7.07474E-14
 -1      3942 1.11058E-02 4.80611E-03-7.74161E-14
 -1      3943 1.09630E-02 4.70447E-03-7.53598E-14
 -1      3944 1.08037E-02 4.61667E-03-7.47910E-14
 -1      3945 1.13915E-02 5.00935E-03-8.15814E-14
 -1      3946 1.12486E-02 4.90774E-03-7.94909E-14
 -1      3947 1.10893E-02 4.81990E-03-7.89128E-14
 -1      3948 1.16772E-02 5.21255E-03-8.58147E-14
 -1      3949 1.15343E-02 5.11096E-03-8.36887E-14
 -1      3950 1.13749E-02 5.02310E-03-8.31056E-14
 -1      3951 1.19629E-02 5.41572E-03-9.01092E-14
 -1      3952 1.18200E-02 5.31414E-03-8.79547E-14
 -1      3953 1.16606E-02 5.22627E-03-8.73621E-14
 -1      3954 1.22486E-02 5.61886E-03-9.44671E-14
 -1      3955 1.21057E-02 5.51729E-03-9.22802E-14
 -1      3956 1.19464E-02 5.42941E-03-9.16806E-14
 -1      3957 1.25343E-02 5.82198E-03-9.88829E-14
 -1      3958 1.23915E-02 5.72042E-03-9.66687E-14
 -1      3959 1.22321E-02 5.63254E-03-9.60571E-14
 -1      3960 1.28201E-02 6.02508E-03-1.03357E-13
 -1      3961 1.26772E-02 5.92353E-03-1.01111E-13
 -1      3962 1.25178E-02 5.83565E-03-1.00492E-13
 -1      3963 1.31058E-02 6.22817E-03-1.07886E-13
 -1      3964 1.29630E-02 6.12663E-03-1.05616E-13
 -1      3965 1.28036E-02 6.03874E-03-1.04986E-13
 -1      3966 1.33916E-02 6.43126E-03-1.12463E-13
 -1      3967 1.32487E-02 6.32972E-03-1.10169E-13
 -1      3968 1.30893E-02 6.24183E-03-1.09534E-13
 -1      3969 1.36773E-02 6.63434E-03-1.17089E-13
 -1      3970 1.35344E-02 6.53280E-03-1.14772E-13
 -1      3971 1.33751E-02 6.44491E-03-1.14128E-13
 -1      3972 7.15834E-03 1.99442E-03-2.80331E-14
 -1      3973 7.02731E-03 1.90522E-03-2.66435E-14
 -1      3974 2.27843E-03-1.38406E-04-4.66878E-15
 -1      3975 6.58813E-03 1.62210E-03-2.21334E-14
 -1      3976 6.43482E-03 1.57151E-03-2.22364E-14
 -1      3977 6.69979E-03 1.69335E-03-2.33275E-14
 -1      3978 1.39642E-02 6.85762E-03-1.23269E-13
 -1      3979 8.81279E-03 3.16942E-03-4.68514E-14
 -1      3980 8.67155E-03 3.06819E-03-4.51426E-14
 -1      3981 2.80061E-03-2.11024E-04-6.74435E-15
 -1      3982 9.09607E-03 3.37233E-03-5.03382E-14
 -1      3983 8.95431E-03 3.27081E-03-4.85824E-14
 -1      3984 8.79595E-03 3.18433E-03-4.80827E-14
 -1      3985 9.07941E-03 3.38700E-03-5.16047E-14
 -1      3986 8.53063E-03 2.96718E-03-4.34570E-14
 -1      3987 8.39012E-03 2.86645E-03-4.17949E-14
 -1      3988 8.51344E-03 2.98235E-03-4.46519E-14
 -1      3989 1.35512E-02 6.65095E-03-1.23178E-13
 -1      3990 1.36510E-02 6.69310E-03-1.22605E-13
 -1      3991 7.42486E-03 2.17927E-03-3.09004E-14
 -1      3992 7.29100E-03 2.08582E-03-2.94524E-14
 -1      3993 7.13019E-03 2.00857E-03-2.90316E-14
 -1      3994 5.41741E-03 1.09553E-03-2.26596E-14
 -1      3995 5.57911E-03 1.19780E-03-2.39641E-14
 -1      3996 1.37408E-02 6.72763E-03-1.21821E-13
 -1      3997 1.38804E-02 6.78315E-03-1.20745E-13
 -1      3998 1.37468E-02 6.68769E-03-1.18521E-13
 -1      3999 1.35672E-02 6.61862E-03-1.20088E-13
 -1      4000 8.25006E-03 2.76610E-03-4.01595E-14
 -1      4001 8.11056E-03 2.66620E-03-3.85501E-14
 -1      4002 8.23225E-03 2.78151E-03-4.13170E-14
 -1      4003 6.31559E-03 1.53422E-03-2.26317E-14
 -1      4004 1.35875E-02 6.59980E-03-1.17874E-13
 -1      4005 5.89744E-03 1.34031E-03-2.18615E-14
 -1      4006 5.72417E-03 1.24578E-03-2.08887E-14
 -1      4007 5.55880E-03 1.16086E-03-2.09018E-14
 -1      4008 6.91991E-03 1.83547E-03-2.55870E-14
 -1      4009 6.80591E-03 1.75920E-03-2.43465E-14
 -1      4010 6.66482E-03 1.71020E-03-2.44529E-14
 -1      4011 6.88557E-03 1.84758E-03-2.65481E-14
 -1      4012 1.33615E-02 6.56929E-03-1.24137E-13
 -1      4013 1.34605E-02 6.61108E-03-1.23573E-13
 -1      4014 1.33867E-02 6.54422E-03-1.21260E-13
 -1      4015 1.32055E-02 6.46448E-03-1.22040E-13
 -1      4016 5.75476E-03 1.29767E-03-2.44169E-14
 -1      4017 5.48873E-03 1.12739E-03-2.15012E-14
 -1      4018 5.66081E-03 1.22854E-03-2.24917E-14
 -1      4019 5.82145E-03 1.32546E-03-2.37907E-14
 -1      4020 5.97833E-03 1.42134E-03-2.51204E-14
 -1      4021 5.89333E-03 1.35464E-03-2.31627E-14
 -1      4022 6.38850E-03 1.68065E-03-2.90169E-14
 -1      4023 6.53607E-03 1.77604E-03-3.04602E-14
 -1      4024 6.68211E-03 1.87175E-03-3.19327E-14
 -1      4025 6.82704E-03 1.96807E-03-3.34351E-14
 -1      4026 6.70459E-03 1.86387E-03-3.09391E-14
 -1      4027 6.97107E-03 2.06489E-03-3.49668E-14
 -1      4028 7.11447E-03 2.16232E-03-3.65254E-14
 -1      4029 6.99219E-03 2.05468E-03-3.39307E-14
 -1      4030 7.25737E-03 2.26026E-03-3.81129E-14
 -1      4031 7.39996E-03 2.35872E-03-3.97261E-14
 -1      4032 7.27731E-03 2.24846E-03-3.70371E-14
 -1      4033 7.54230E-03 2.45762E-03-4.13648E-14
 -1      4034 7.68451E-03 2.55694E-03-4.30299E-14
 -1      4035 7.56130E-03 2.44479E-03-4.02500E-14
 -1      4036 7.82663E-03 2.65660E-03-4.47200E-14
 -1      4037 7.96873E-03 2.75658E-03-4.64348E-14
 -1      4038 7.84491E-03 2.64316E-03-4.35657E-14
 -1      4039 8.11083E-03 2.85681E-03-4.81736E-14
 -1      4040 8.25295E-03 2.95726E-03-4.99378E-14
 -1      4041 8.12858E-03 2.84302E-03-4.69832E-14
 -1      4042 8.39511E-03 3.05790E-03-5.17247E-14
 -1      4043 8.53733E-03 3.15870E-03-5.35333E-14
 -1      4044 8.41248E-03 3.04395E-03-5.04965E-14
 -1      4045 8.67960E-03 3.25963E-03-5.53647E-14
 -1      4046 8.82193E-03 3.36066E-03-5.72177E-14
 -1      4047 8.69669E-03 3.24562E-03-5.41011E-14
 -1      4048 8.96432E-03 3.46179E-03-5.90933E-14
 -1      4049 9.10676E-03 3.56298E-03-6.09905E-14
 -1      4050 8.98122E-03 3.44779E-03-5.77949E-14
 -1      4051 9.24926E-03 3.66424E-03-6.29110E-14
 -1      4052 9.39181E-03 3.76555E-03-6.48502E-14
 -1      4053 9.26603E-03 3.65028E-03-6.15769E-14
 -1      4054 9.53441E-03 3.86690E-03-6.68107E-14
 -1      4055 9.67704E-03 3.96828E-03-6.87939E-14
 -1      4056 9.55108E-03 3.85299E-03-6.54447E-14
 -1      4057 9.81971E-03 4.06968E-03-7.07959E-14
 -1      4058 9.96242E-03 4.17111E-03-7.28181E-14
 -1      4059 9.83632E-03 4.05583E-03-6.93964E-14
 -1      4060 1.01051E-02 4.27256E-03-7.48598E-14
 -1      4061 1.02479E-02 4.37402E-03-7.69203E-14
 -1      4062 1.01217E-02 4.25876E-03-7.34292E-14
 -1      4063 1.03907E-02 4.47550E-03-7.89987E-14
 -1      4064 1.05335E-02 4.57699E-03-8.10934E-14
 -1      4065 1.04072E-02 4.46174E-03-7.75384E-14
 -1      4066 1.06763E-02 4.67848E-03-8.32055E-14
 -1      4067 1.08191E-02 4.77998E-03-8.53361E-14
 -1      4068 1.06928E-02 4.66475E-03-8.17210E-14
 -1      4069 1.09619E-02 4.88149E-03-8.74802E-14
 -1      4070 1.11048E-02 4.98300E-03-8.96382E-14
 -1      4071 1.09784E-02 4.86778E-03-8.59692E-14
 -1      4072 1.12476E-02 5.08452E-03-9.18103E-14
 -1      4073 1.13905E-02 5.18604E-03-9.39964E-14
 -1      4074 1.12641E-02 5.07083E-03-9.02766E-14
 -1      4075 1.15334E-02 5.28756E-03-9.61957E-14
 -1      4076 1.16762E-02 5.38909E-03-9.84086E-14
 -1      4077 1.15498E-02 5.27389E-03-9.46396E-14
 -1      4078 1.18191E-02 5.49062E-03-1.00635E-13
 -1      4079 1.19619E-02 5.59215E-03-1.02875E-13
 -1      4080 1.18356E-02 5.47695E-03-9.90552E-14
 -1      4081 1.21048E-02 5.69368E-03-1.05133E-13
 -1      4082 1.22477E-02 5.79521E-03-1.07403E-13
 -1      4083 1.21213E-02 5.68002E-03-1.03531E-13
 -1      4084 1.23906E-02 5.89675E-03-1.09684E-13
 -1      4085 1.25334E-02 5.99828E-03-1.11977E-13
 -1      4086 1.24070E-02 5.88309E-03-1.08065E-13
 -1      4087 1.26763E-02 6.09982E-03-1.14282E-13
 -1      4088 1.28192E-02 6.20135E-03-1.16596E-13
 -1      4089 1.26928E-02 6.08616E-03-1.12646E-13
 -1      4090 1.02162E-02 4.22406E-03-6.81930E-14
 -1      4091 1.00735E-02 4.12245E-03-6.62252E-14
 -1      4092 1.34078E-02 6.53074E-03-1.19427E-13
 -1      4093 1.34976E-02 6.56527E-03-1.18653E-13
 -1      4094 1.34281E-02 6.51192E-03-1.17223E-13
 -1      4095 9.93092E-03 4.02084E-03-6.42798E-14
 -1      4096 9.78837E-03 3.91924E-03-6.23560E-14
 -1      4097 9.91436E-03 4.03487E-03-6.56622E-14
 -1      4098 9.64588E-03 3.81765E-03-6.04518E-14
 -1      4099 9.50347E-03 3.71609E-03-5.85698E-14
 -1      4100 9.62927E-03 3.83179E-03-6.17994E-14
 -1      4101 9.35404E-03 3.60948E-03-5.66180E-14
 -1      4102 9.20473E-03 3.50293E-03-5.46904E-14
 -1      4103 9.33735E-03 3.62375E-03-5.79317E-14
 -1      4104 1.05016E-02 4.42728E-03-7.21882E-14
 -1      4105 1.03589E-02 4.32567E-03-7.01804E-14
 -1      4106 1.01997E-02 4.23800E-03-6.96083E-14
 -1      4107 1.07872E-02 4.63049E-03-7.62627E-14
 -1      4108 1.06444E-02 4.52889E-03-7.42169E-14
 -1      4109 1.04851E-02 4.44115E-03-7.36346E-14
 -1      4110 1.10728E-02 4.83368E-03-8.04149E-14
 -1      4111 1.09300E-02 4.73209E-03-7.83291E-14
 -1      4112 1.07706E-02 4.64430E-03-7.77410E-14
 -1      4113 1.13584E-02 5.03684E-03-8.46302E-14
 -1      4114 1.12156E-02 4.93526E-03-8.25134E-14
 -1      4115 1.10563E-02 4.84744E-03-8.19162E-14
 -1      4116 1.16441E-02 5.23998E-03-8.89099E-14
 -1      4117 1.15013E-02 5.13841E-03-8.67617E-14
 -1      4118 1.13419E-02 5.05057E-03-8.61570E-14
 -1      4119 1.19299E-02 5.44310E-03-9.32481E-14
 -1      4120 1.17870E-02 5.34154E-03-9.10719E-14
 -1      4121 1.16276E-02 5.25368E-03-9.04599E-14
 -1      4122 1.22156E-02 5.64621E-03-9.76500E-14
 -1      4123 1.20727E-02 5.54466E-03-9.54434E-14
 -1      4124 1.19134E-02 5.45679E-03-9.48224E-14
 -1      4125 1.25013E-02 5.84931E-03-1.02104E-13
 -1      4126 1.23585E-02 5.74776E-03-9.98711E-14
 -1      4127 1.21991E-02 5.65988E-03-9.92429E-14
 -1      4128 1.27871E-02 6.05240E-03-1.06618E-13
 -1      4129 1.26442E-02 5.95086E-03-1.04354E-13
 -1      4130 1.24848E-02 5.86297E-03-1.03719E-13
 -1      4131 1.30728E-02 6.25548E-03-1.11182E-13
 -1      4132 1.29299E-02 6.15394E-03-1.08896E-13
 -1      4133 1.27706E-02 6.06605E-03-1.08252E-13
 -1      4134 1.33219E-02 6.43447E-03-1.15350E-13
 -1      4135 1.31790E-02 6.33293E-03-1.13040E-13
 -1      4136 1.30196E-02 6.24504E-03-1.12390E-13
 -1      4137 1.32321E-02 6.39994E-03-1.16121E-13
 -1      4138 8.49609E-03 2.99724E-03-4.58524E-14
 -1      4139 8.35503E-03 2.89670E-03-4.41549E-14
 -1      4140 6.45169E-03 1.61773E-03-2.40470E-14
 -1      4141 6.21035E-03 1.50196E-03-2.32275E-14
 -1      4142 6.10973E-03 1.50341E-03-2.63487E-14
 -1      4143 6.26108E-03 1.59839E-03-2.77350E-14
 -1      4144 6.43410E-03 1.68838E-03-2.81976E-14
 -1      4145 6.17959E-03 1.52763E-03-2.56921E-14
 -1      4146 7.56006E-03 2.27431E-03-3.23764E-14
 -1      4147 7.40129E-03 2.19447E-03-3.19390E-14
 -1      4148 7.69630E-03 2.37080E-03-3.38801E-14
 -1      4149 7.97169E-03 2.56694E-03-3.69668E-14
 -1      4150 7.83359E-03 2.46838E-03-3.54100E-14
 -1      4151 7.67564E-03 2.38638E-03-3.49584E-14
 -1      4152 7.95281E-03 2.58252E-03-3.80854E-14
 -1      4153 7.10276E-03 2.02122E-03-3.00356E-14
 -1      4154 6.96580E-03 1.93002E-03-2.86049E-14
 -1      4155 1.29343E-02 6.28051E-03-1.18267E-13
 -1      4156 1.30904E-02 6.38532E-03-1.20354E-13
 -1      4157 1.31810E-02 6.42519E-03-1.19968E-13
 -1      4158 1.29508E-02 6.26686E-03-1.16616E-13
 -1      4159 8.19625E-03 2.81117E-03-4.36507E-14
 -1      4160 8.21426E-03 2.79652E-03-4.24819E-14
 -1      4161 8.07383E-03 2.69676E-03-4.08328E-14
 -1      4162 8.63742E-03 3.09803E-03-4.75760E-14
 -1      4163 8.47868E-03 3.01186E-03-4.70603E-14
 -1      4164 8.77898E-03 3.19905E-03-4.93198E-14
 -1      4165 6.56713E-03 1.68634E-03-2.50790E-14
 -1      4166 6.05320E-03 1.43066E-03-2.31454E-14
 -1      4167 6.82255E-03 1.86709E-03-2.84883E-14
 -1      4168 6.85287E-03 1.85782E-03-2.75151E-14
 -1      4169 6.73982E-03 1.78683E-03-2.64436E-14
 -1      4170 6.20062E-03 1.51983E-03-2.45714E-14
 -1      4171 1.32491E-02 6.45803E-03-1.19895E-13
 -1      4172 1.33397E-02 6.49790E-03-1.19502E-13
 -1      4173 1.32702E-02 6.44454E-03-1.18070E-13
 -1      4174 1.31340E-02 6.37886E-03-1.18216E-13
 -1      4175 9.06265E-03 3.40154E-03-5.28779E-14
 -1      4176 8.92073E-03 3.30023E-03-5.10868E-14
 -1      4177 9.04583E-03 3.41593E-03-5.41555E-14
 -1      4178 6.74889E-03 1.85698E-03-2.95491E-14
 -1      4179 6.89131E-03 1.95006E-03-3.10009E-14
 -1      4180 7.24019E-03 2.11412E-03-3.14959E-14
 -1      4181 7.07667E-03 2.03290E-03-3.10458E-14
 -1      4182 7.37791E-03 2.20857E-03-3.29849E-14
 -1      4183 1.01607E-02 4.24841E-03-7.15158E-14
 -1      4184 1.00180E-02 4.14690E-03-6.95101E-14
 -1      4185 7.03298E-03 2.04416E-03-3.24825E-14
 -1      4186 7.17434E-03 2.13937E-03-3.39919E-14
 -1      4187 7.58071E-03 2.43180E-03-3.91415E-14
 -1      4188 7.72206E-03 2.53041E-03-4.07661E-14
 -1      4189 7.87964E-03 2.62790E-03-4.19480E-14
 -1      4190 8.02092E-03 2.72742E-03-4.36175E-14
 -1      4191 8.16233E-03 2.82733E-03-4.53110E-14
 -1      4192 8.30388E-03 2.92758E-03-4.70307E-14
 -1      4193 8.44556E-03 3.02809E-03-4.87733E-14
 -1      4194 8.58738E-03 3.12883E-03-5.05381E-14
 -1      4195 8.72932E-03 3.22975E-03-5.23258E-14
 -1      4196 8.87138E-03 3.33080E-03-5.41361E-14
 -1      4197 9.01355E-03 3.43197E-03-5.59703E-14
 -1      4198 9.15581E-03 3.53323E-03-5.78254E-14
 -1      4199 9.30527E-03 3.63963E-03-5.97958E-14
 -1      4200 9.44770E-03 3.74102E-03-6.16974E-14
 -1      4201 9.59020E-03 3.84245E-03-6.36187E-14
 -1      4202 9.73275E-03 3.94391E-03-6.55608E-14
 -1      4203 9.87535E-03 4.04539E-03-6.75252E-14
 -1      4204 1.03034E-02 4.34994E-03-7.35393E-14
 -1      4205 1.04462E-02 4.45147E-03-7.55830E-14
 -1      4206 1.05889E-02 4.55300E-03-7.76476E-14
 -1      4207 1.07317E-02 4.65454E-03-7.97288E-14
 -1      4208 1.08745E-02 4.75608E-03-8.18271E-14
 -1      4209 1.10174E-02 4.85762E-03-8.39407E-14
 -1      4210 1.11602E-02 4.95917E-03-8.60722E-14
 -1      4211 1.13030E-02 5.06071E-03-8.82163E-14
 -1      4212 1.14459E-02 5.16225E-03-9.03754E-14
 -1      4213 1.15887E-02 5.26379E-03-9.25488E-14
 -1      4214 1.17316E-02 5.36533E-03-9.47354E-14
 -1      4215 1.18745E-02 5.46688E-03-9.69401E-14
 -1      4216 1.20173E-02 5.56842E-03-9.91550E-14
 -1      4217 1.21602E-02 5.66996E-03-1.01385E-13
 -1      4218 1.23031E-02 5.77149E-03-1.03632E-13
 -1      4219 1.24459E-02 5.87303E-03-1.05891E-13
 -1      4220 1.25888E-02 5.97457E-03-1.08165E-13
 -1      4221 1.27317E-02 6.07611E-03-1.10448E-13
 -1      4222 1.28745E-02 6.17765E-03-1.12743E-13
 -1      4223 6.32750E-03 1.59774E-03-2.57886E-14
 -1      4224 6.63117E-03 1.78267E-03-2.84432E-14
 -1      4225 6.53155E-03 1.69140E-03-2.60131E-14
 -1      4226 1.29808E-02 6.25509E-03-1.14605E-13
 -1      4227 7.91743E-03 2.59961E-03-3.96759E-14
 -1      4228 7.77748E-03 2.50099E-03-3.80719E-14
 -1      4229 1.30959E-02 6.33426E-03-1.16268E-13
 -1      4230 8.76193E-03 3.21358E-03-5.05622E-14
 -1      4231 7.34557E-03 2.22282E-03-3.42786E-14
 -1      4232 7.30605E-03 2.23630E-03-3.57751E-14
 -1      4233 7.89845E-03 2.61394E-03-4.08097E-14
 -1      4234 7.44730E-03 2.33350E-03-3.73449E-14
 -1      4235 6.50821E-03 1.70362E-03-2.71725E-14
 -1      4236 7.60841E-03 2.41811E-03-3.78404E-14
 -1      4237 7.50680E-03 2.30555E-03-3.47479E-14
 -1      4238 7.64577E-03 2.40250E-03-3.62956E-14
 -1      4239 1.31640E-02 6.36710E-03-1.16195E-13
 -3
    1PSTEP                         2           1           1          
  100CL  101 1.000000000        4239                     0    1           1
 -4  STRESS      6    1
 -5  SXX         1    4    1    1
 -5  SYY         1    4    2    2
 -5  SZZ         1    4    3    3
 -5  SXY         1    4    1    2
 -5  SYZ         1    4    2    3
 -5  SZX         1    4    3    1
 -1         1 7.18832E+01 8.34247E-01 3.60815E+00 1.26408E-01-5.24927E-14 1.02940E-12
 -1         2-7.20076E-01-2.76366E+01-3.50337E+00-2.70619E-01 1.87630E-12 4.31842E-14
 -1         3 1.99998E+01 7.80291E-06-1.90430E-05 8.17682E-06 8.03689E-13 5.96906E-13
 -1         4 1.99998E+01 6.92810E-06-1.95376E-05-7.03926E-06 2.15228E-13-6.90477E-14
 -1         5 3.37046E+01 6.36389E+00 2.60637E+00 6.08389E+00-6.01602E-14 3.86095E-12
 -1         6 3.63171E+01 1.24686E+01 5.24467E+00-8.81305E+00-2.99871E-13 2.38032E-12
 -1         7 2.09633E+01 6.14644E+00-1.49810E-01-4.86712E+00-3.80390E-14-4.24993E-13
 -1         8 1.98511E+01 5.99255E+00 4.67943E-02-3.41747E+00-2.32418E-14-1.04916E-12
 -1         9 1.94047E+01 5.85432E+00 5.82708E-02-2.62279E+00-1.07726E-14-1.26467E-12
 -1        10 1.92490E+01 5.79945E+00 7.28656E-02-1.93540E+00 3.35149E-15-1.29293E-12
 -1        11 1.91572E+01 5.76657E+00 8.22711E-02-1.26905E+00 7.78978E-15-1.23122E-12
 -1        12 1.90211E+01 5.72318E+00 8.55608E-02-6.23080E-01 1.59664E-14-1.15031E-12
 -1        13 1.87819E+01 5.65068E+00 8.04018E-02 2.79603E-03 2.07386E-14-1.05436E-12
 -1        14 1.84340E+01 5.54705E+00 6.48942E-02 5.55427E-01 2.72612E-14-9.67833E-13
 -1        15 1.80229E+01 5.42554E+00 3.90226E-02 9.84928E-01 2.97522E-14-8.82309E-13
 -1        16 1.76508E+01 5.31625E+00 7.02555E-03 1.25382E+00 3.50518E-14-7.97577E-13
 -1        17 1.74635E+01 5.26236E+00-2.17383E-02 1.36335E+00 3.66765E-14-6.87221E-13
 -1        18 1.76031E+01 5.30538E+00-3.54777E-02 1.37640E+00 4.00981E-14-5.40620E-13
 -1        19 1.81767E+01 5.47794E+00-2.37764E-02 1.42059E+00 5.19966E-14-3.04121E-13
 -1        20 1.91964E+01 5.78431E+00 1.63265E-02 1.67543E+00 5.76206E-14 7.78448E-14
 -1        21 2.06230E+01 6.21332E+00 8.54013E-02 2.35882E+00 5.35058E-14 7.26297E-13
 -1        22 2.27458E+01 6.77724E+00 2.32734E-01 3.86800E+00 3.66374E-15 1.82934E-12
 -1        23 2.32212E+01-1.38636E+00-9.45792E-01-7.41890E-01-2.13534E-13 1.40854E-12
 -1        24 1.93396E+01-9.55081E-02-3.08320E-01 6.21951E-02-5.26992E-14 5.77396E-13
 -1        25 1.83929E+01-4.93052E-02-5.84977E-02 5.62172E-02-2.60621E-14-1.35350E-13
 -1        26 1.78046E+01-1.39320E-02 7.35294E-03 2.17535E-02 3.10776E-15-6.05178E-13
 -1        27 1.72766E+01-4.59046E-03 1.46886E-02 4.14539E-03-1.89208E-14-9.42571E-13
 -1        28 1.67119E+01-2.19183E-03 1.02984E-02-8.52763E-03-9.04428E-15-1.14968E-12
 -1        29 1.61070E+01-4.17092E-03 2.07617E-03-1.63817E-02 2.79949E-15-1.33901E-12
 -1        30 1.55222E+01-8.60021E-03-8.25147E-03-1.85302E-02-2.22972E-15-1.47485E-12
 -1        31 1.50556E+01-1.35026E-02-1.84636E-02-1.44130E-02-1.76388E-14-1.67445E-12
 -1        32 1.48106E+01-1.69193E-02-2.55577E-02-4.89264E-03-2.47699E-14-1.83179E-12
 -1        33 1.48596E+01-1.74374E-02-2.71218E-02 7.46438E-03 1.55683E-14-1.94361E-12
 -1        34 1.52170E+01-1.47010E-02-2.26390E-02 1.91534E-02-1.11037E-14-2.00385E-12
 -1        35 1.58327E+01-9.50013E-03-1.37726E-02 2.71255E-02 1.63048E-14-2.04861E-12
 -1        36 1.66095E+01-3.34387E-03-3.47680E-03 2.99191E-02-1.30219E-14-2.02268E-12
 -1        37 1.74337E+01 2.22061E-03 5.39155E-03 2.79085E-02-2.45497E-14-2.06262E-12
 -1        38 1.82057E+01 6.15876E-03 1.11206E-02 2.27174E-02 4.18936E-15-1.99504E-12
 -1        39 1.88587E+01 8.14429E-03 1.34034E-02 1.62976E-02-5.96468E-15-2.01612E-12
 -1        40 1.93632E+01 8.42656E-03 1.29490E-02 1.02107E-02-4.61182E-15-2.01046E-12
 -1        41 1.97201E+01 7.54714E-03 1.08619E-02 5.33735E-03 1.68970E-14-1.95662E-12
 -1        42 1.99496E+01 6.08060E-03 8.16183E-03 1.93970E-03-1.53635E-14-2.06346E-12
 -1        43 2.00803E+01 4.48004E-03 5.55231E-03-1.20511E-04-2.31078E-14-2.05340E-12
 -1        44 2.01411E+01 3.02897E-03 3.39847E-03-1.15971E-03-2.36290E-14-2.04844E-12
 -1        45 2.01568E+01 1.86022E-03 1.81020E-03-1.51796E-03-5.08223E-14-2.10642E-12
 -1        46 2.01466E+01 1.00136E-03 7.46978E-04-1.47989E-03 4.81174E-14-2.13337E-12
 -1        47 2.01239E+01 4.20471E-04 1.02685E-04-1.25008E-03 3.76510E-14-1.69100E-12
 -1        48 2.00972E+01 6.07306E-05-2.40868E-04-9.58488E-04-6.74637E-14-1.55594E-12
 -1        49 2.00714E+01-1.38031E-04-3.87045E-04-6.77596E-04 8.39849E-14-1.66836E-12
 -1        50 2.00492E+01-2.28393E-04-4.15059E-04-4.40931E-04-7.78196E-15-1.74325E-12
 -1        51 2.00313E+01-2.51389E-04-3.80161E-04-2.58386E-04 1.08048E-14-1.87570E-12
 -1        52 2.00178E+01-2.36495E-04-3.17888E-04-1.27221E-04 1.32147E-14-1.99210E-12
 -1        53 2.00080E+01-2.03424E-04-2.49260E-04-3.91221E-05-2.11178E-14-2.30666E-12
 -1        54 2.00014E+01-1.64435E-04-1.85443E-04 1.56865E-05 2.54884E-16-2.20462E-12
 -1        55 1.99973E+01-1.26515E-04-1.31384E-04 4.63373E-05 4.82931E-14-1.90961E-12
 -1        56 1.99949E+01-9.31503E-05-8.83933E-05 6.04358E-05-2.34489E-14-1.29967E-12
 -1        57 1.99938E+01-6.56513E-05-5.58505E-05 6.38633E-05 8.48534E-14-1.15969E-12
 -1        58 1.99935E+01-4.40754E-05-3.22675E-05 6.09178E-05 1.29166E-14-1.12799E-12
 -1        59 1.99938E+01-2.78357E-05-1.59033E-05 5.45892E-05 1.13228E-14-1.11932E-12
 -1        60 1.99943E+01-1.60776E-05-5.08902E-06 4.68579E-05-3.86112E-14-8.54173E-13
 -1        61 1.99951E+01-7.89735E-06 1.62427E-06 3.89645E-05-1.02328E-14-7.50166E-13
 -1        62 1.99958E+01-2.45564E-06 5.42099E-06 3.16300E-05-1.64401E-13-1.35044E-12
 -1        63 1.99966E+01 9.72992E-07 7.23158E-06 2.52255E-05-4.93460E-14-2.05886E-12
 -1        64 1.99973E+01 2.98939E-06 7.77088E-06 1.98935E-05 1.20651E-13-1.84125E-12
 -1        65 1.99979E+01 4.07950E-06 7.59106E-06 1.56301E-05-8.07234E-14-1.59950E-12
 -1        66 1.99984E+01 4.63323E-06 7.14669E-06 1.23287E-05 4.89854E-14-1.45161E-12
 -1        67 1.99989E+01 4.96251E-06 6.87293E-06 9.78535E-06 1.04055E-13-8.57711E-13
 -1        68 1.99993E+01 5.30240E-06 7.24351E-06 7.63968E-06 3.40321E-14-1.02678E-13
 -1        69 1.99996E+01 5.71255E-06 8.57398E-06 5.18623E-06-1.39404E-14-1.47870E-13
 -1        70 1.99997E+01 5.20508E-06 9.38948E-06 4.95052E-07-5.70869E-14-5.60796E-13
 -1        71 1.99998E+01-9.79243E-07 1.45908E-06-6.14811E-06-3.55728E-15-4.97710E-13
 -1        72 2.32150E+01-4.36235E-01-1.01915E+00-3.80698E-01 2.14134E-14 3.77864E-12
 -1        73 2.28486E+01-8.87863E-02-3.19132E-01-5.41608E-02 1.60887E-14 3.27603E-12
 -1        74 2.38648E+01-5.33012E-02-1.43485E-01-2.69371E-02 2.55551E-14 2.82634E-12
 -1        75 2.61421E+01-4.30293E-02-1.31141E-01-6.06376E-02 7.48967E-15 2.57239E-12
 -1        76 2.97806E+01-1.33047E-02-1.03589E-01-1.45714E-01 2.06085E-14 2.43991E-12
 -1        77 3.45829E+01 6.19814E-02 8.75641E-02-2.85920E-01 1.03370E-14 2.49860E-12
 -1        78 3.91252E+01 1.58984E-01 5.14076E-01-3.66652E-01-3.30673E-14 3.10909E-12
 -1        79 3.96300E+01 1.04669E-01 7.65579E-01 8.88729E-02-3.99524E-14 3.92728E-12
 -1        80 3.33169E+01-7.13963E-02 1.25017E-01 9.41607E-01-6.08905E-14 4.58444E-12
 -1        81 2.25220E+01-2.65253E-01-1.55952E+00 1.47600E+00-2.13302E-14 4.65405E-12
 -1        82 1.50142E+01-2.14114E-01-2.84702E+00 6.72149E-01-9.99201E-15 4.17520E-12
 -1        83 1.71939E+01-8.38282E-02-2.52191E+00-6.47746E-01 1.83180E-13 2.72027E-12
 -1        84 2.83211E+01 9.75856E-02-7.22565E-01-1.45975E+00 8.80337E-14 9.28591E-13
 -1        85 3.87558E+01 1.08463E-01 6.60297E-01-8.91079E-01 5.75096E-14 8.08520E-14
 -1        86 4.12949E+01 6.13794E-02 6.93258E-01-6.12164E-02 1.77792E-14 6.09096E-14
 -1        87 3.76963E+01 8.73987E-03 2.28059E-01 2.41535E-01-2.74376E-14 3.96787E-13
 -1        88 3.26732E+01-2.65406E-02-5.83744E-02 2.32671E-01 3.25978E-14 4.51472E-13
 -1        89 2.84381E+01-3.49304E-02-1.29186E-01 1.56084E-01-1.82489E-14 8.57703E-13
 -1        90 2.54235E+01-3.02624E-02-1.08650E-01 9.20949E-02 2.39875E-14 8.72684E-13
 -1        91 2.34304E+01-2.24539E-02-7.21360E-02 5.14912E-02 1.01013E-14 7.48034E-13
 -1        92 2.21560E+01-1.54965E-02-4.37063E-02 2.81332E-02 2.29894E-15 6.06315E-13
 -1        93 2.13525E+01-1.03150E-02-2.56656E-02 1.52157E-02 6.50521E-17 8.52452E-13
 -1        94 2.08481E+01-6.74430E-03-1.50125E-02 8.17901E-03-3.52611E-14 9.21828E-13
 -1        95 2.05310E+01-4.37645E-03-8.84582E-03 4.36579E-03 3.98863E-14 8.11751E-13
 -1        96 2.03310E+01-2.83604E-03-5.27010E-03 2.30302E-03 1.77638E-14 3.11245E-13
 -1        97 2.02042E+01-1.84250E-03-3.17748E-03 1.18844E-03-9.72730E-14 5.47103E-13
 -1        98 2.01235E+01-1.20295E-03-1.93898E-03 5.87433E-04-8.73257E-16 6.01282E-13
 -1        99 2.00721E+01-7.90221E-04-1.19709E-03 2.64739E-04 1.22122E-14 3.77945E-13
 -1       100 2.00394E+01-5.22450E-04-7.46784E-04 9.30141E-05-2.17800E-14 7.54196E-13
 -1       101 2.00187E+01-3.49183E-04-4.70258E-04 4.03661E-06-2.66420E-14 9.85340E-13
 -1       102 2.00059E+01-2.34912E-04-3.00247E-04-2.47841E-05-3.54093E-14 4.35361E-13
 -1       103 1.99980E+01-1.45643E-04-1.79227E-04-7.16177E-05 8.65039E-15 2.27596E-13
 -1       104 1.99938E+01-9.95383E-05-1.11295E-04-7.07164E-05-1.86695E-13 1.25577E-12
 -1       105 1.99917E+01-6.46392E-05-6.58981E-05-7.03488E-05 1.71622E-14 1.59941E-12
 -1       106 1.99910E+01-4.09453E-05-3.59453E-05-6.63792E-05-8.99930E-14 1.06050E-12
 -1       107 1.99912E+01-2.48034E-05-1.63271E-05-6.03825E-05-5.14132E-14 1.28177E-12
 -1       108 1.99918E+01-1.38953E-05-3.74006E-06-5.35024E-05 1.41035E-13 9.99157E-13
 -1       109 1.99927E+01-6.63998E-06 4.02985E-06-4.64253E-05-2.63798E-14 4.50060E-14
 -1       110 1.99936E+01-1.94209E-06 8.48802E-06-3.95791E-05-1.59071E-13 8.51281E-14
 -1       111 1.99946E+01 9.71830E-07 1.06842E-05-3.32309E-05 1.46667E-13-1.23850E-13
 -1       112 1.99956E+01 2.65780E-06 1.13679E-05-2.75417E-05-2.26892E-14-4.22722E-13
 -1       113 1.99964E+01 3.52231E-06 1.10858E-05-2.26003E-05 5.80130E-14-6.53468E-13
 -1       114 1.99972E+01 3.86801E-06 1.02464E-05-1.84463E-05 1.81804E-14-5.33304E-13
 -1       115 1.99978E+01 3.92511E-06 9.17214E-06-1.50836E-05-2.64515E-14-7.42536E-13
 -1       116 1.99984E+01 3.87264E-06 8.15127E-06-1.24852E-05 8.06429E-14-6.12410E-13
 -1       117 1.99989E+01 3.85404E-06 7.51078E-06-1.05899E-05 6.51429E-15-9.05602E-13
 -1       118 1.99993E+01 3.96162E-06 7.68382E-06-9.21412E-06-8.18953E-15-4.06734E-13
 -1       119 1.99995E+01 4.13833E-06 9.04381E-06-7.93269E-06 1.11408E-13-9.32062E-13
 -1       120 1.99997E+01 3.82381E-06 1.00698E-05-5.01647E-06 5.31864E-14 3.92003E-13
 -1       121 1.99998E+01-3.51182E-06 1.15847E-06 3.19230E-06-2.90084E-13 1.52699E-12
 -1       122 1.99998E+01 1.04756E-05 5.97751E-07 6.54303E-06 1.51039E-12-1.29346E-13
 -1       123 1.99998E+01-5.85169E-05 9.44002E-06-2.08153E-06 1.46572E-12-2.87543E-13
 -1       124 1.99998E+01-2.39784E-04 6.32299E-06-7.69241E-06 5.13657E-13-1.75511E-13
 -1       125 1.99998E+01-4.80741E-04 1.42216E-06-9.05294E-06-6.60723E-15 3.50379E-13
 -1       126 1.99998E+01-7.33320E-04-2.40345E-06-8.60690E-06 3.36333E-13-1.16101E-13
 -1       127 1.99998E+01-9.54969E-04-5.21833E-06-6.98828E-06 3.60806E-13 1.74670E-13
 -1       128 1.99998E+01-1.12213E-03-7.01980E-06-4.46581E-06-1.23330E-13-8.57300E-14
 -1       129 1.99998E+01-1.21004E-03-7.89205E-06-1.50299E-06-1.63263E-12-6.18554E-14
 -1       130 1.99998E+01-1.20854E-03-7.85304E-06 1.58367E-06-1.74438E-12 1.84042E-13
 -1       131 1.99998E+01-1.11803E-03-6.91941E-06 4.50154E-06-9.07622E-13 4.02590E-14
 -1       132 1.99998E+01-9.49474E-04-5.05586E-06 7.03126E-06-1.00969E-12-2.07039E-13
 -1       133 1.99998E+01-7.27828E-04-2.31834E-06 8.56289E-06-8.46332E-13 2.90187E-13
 -1       134 1.99998E+01-4.76173E-04 1.47951E-06 8.96368E-06-3.43751E-13 3.31367E-14
 -1       135 1.99998E+01-2.36407E-04 6.43297E-06 7.99165E-06-3.65261E-13 2.80727E-13
 -1       136 1.99998E+01-6.04102E-05 8.00718E-06 3.46312E-06-1.59380E-14 9.64520E-15
 -1       137 1.99998E+01 8.13836E-06 6.20145E-07-1.18721E-05 1.46145E-13-1.24928E-13
 -1       138-1.86302E+00-2.64456E+01-3.67064E+00-5.36826E+00 3.36633E-12 7.32094E-13
 -1       139-3.71099E+00-1.64675E+01-3.42433E+00-6.86570E+00 4.39010E-12 2.01580E-12
 -1       140-6.40485E-01-3.23605E+00-2.66573E+00-9.96591E-01 4.04210E-12 3.08475E-12
 -1       141 1.26504E+01 6.95941E+00-1.03127E+00 9.59643E+00 3.06188E-12 3.60567E-12
 -1       142 3.60224E+01 9.39194E+00 1.45902E+00 1.79844E+01 1.78080E-12 3.14393E-12
 -1       143 6.64745E+01 6.19201E+00 4.68128E+00 1.82681E+01 4.64073E-13 1.20359E-12
 -1       144 8.68988E+01 2.01217E+00 6.90730E+00 6.24506E+00-1.63966E-14-1.50094E-12
 -1       145 8.41994E+01 2.87341E+00 6.64834E+00-9.96646E+00 5.56645E-13-3.85458E-12
 -1       146 6.00896E+01 7.45771E+00 4.03846E+00-1.95274E+01 1.79085E-12-5.14067E-12
 -1       147 2.95224E+01 1.00579E+01 8.08104E-01-1.72020E+01 3.05073E-12-4.87277E-12
 -1       148 8.49538E+00 5.70434E+00-1.43900E+00-7.28297E+00 3.71592E-12-3.91687E-12
 -1       149-1.62093E+00-4.75368E+00-2.77302E+00 2.28756E+00 3.16991E-12-2.34884E-12
 -1       150-3.37257E+00-1.75553E+01-3.45309E+00 6.81517E+00 1.57568E-12-7.01134E-13
 -1       151-1.61587E+00-2.67891E+01-3.68229E+00 4.74638E+00-5.71695E-13 2.33511E-14
 -1       152-7.27211E-01-2.70136E+01-3.47989E+00-6.12409E-01-2.88880E-12-1.51445E-13
 -1       153-1.44816E+00-1.78151E+01-2.84381E+00-3.93936E+00-4.41841E-12-1.16356E-12
 -1       154-4.87117E-01-3.92203E+00-1.82254E+00-9.51614E-01-4.80743E-12-2.45318E-12
 -1       155 7.32583E+00 8.39427E+00-4.72198E-01 7.99714E+00-4.22651E-12-3.46073E-12
 -1       156 2.31720E+01 1.29109E+01 9.78372E-01 1.70314E+01-2.74569E-12-3.45390E-12
 -1       157 4.51432E+01 9.83047E+00 2.33881E+00 2.00764E+01-1.26249E-12-2.36061E-12
 -1       158 6.45772E+01 3.78103E+00 3.29915E+00 1.34193E+01-2.36595E-13-7.53564E-13
 -1       159 6.59749E+01 3.30302E+00 3.35855E+00-1.26863E+01-5.07563E-13 2.45742E-12
 -1       160 5.03030E+01 8.65617E+00 2.62191E+00-1.99165E+01-1.54302E-12 3.41632E-12
 -1       161 3.12375E+01 1.29255E+01 1.56526E+00-1.96866E+01-2.58193E-12 3.82688E-12
 -1       162 1.42647E+01 1.21234E+01 3.17426E-01-1.30829E+01-3.28843E-12 3.37097E-12
 -1       163 3.48154E+00 4.79486E+00-9.42118E-01-4.36452E+00-3.07554E-12 2.20862E-12
 -1       164-1.19851E+00-8.09360E+00-2.12666E+00 2.50191E+00-2.10754E-12 8.69443E-13
 -1       165-1.18813E+00-2.04391E+01-2.98293E+00 3.53521E+00-1.44662E-13 1.40700E-13
 -1       166 2.11622E+01 3.72294E+00-6.20606E-02-3.78509E+00-4.76168E-13-6.42538E-13
 -1       167 2.02511E+01 4.16928E+00-4.97113E-02-2.96418E+00-3.14922E-13-9.72250E-13
 -1       168 1.99216E+01 4.35600E+00-3.47436E-02-2.27223E+00-1.42807E-13-1.06546E-12
 -1       169 1.97946E+01 4.41104E+00-2.69361E-02-1.61555E+00-2.69262E-15-1.06610E-12
 -1       170 1.96811E+01 4.42282E+00-2.25667E-02-9.71377E-01 1.13738E-13-9.93526E-13
 -1       171 1.94706E+01 4.43573E+00-1.98852E-02-3.27096E-01 2.06632E-13-9.22125E-13
 -1       172 1.91148E+01 4.48158E+00-1.78606E-02 2.78241E-01 2.92024E-13-8.33310E-13
 -1       173 1.86230E+01 4.58316E+00-1.62504E-02 7.97841E-01 3.67688E-13-7.69620E-13
 -1       174 1.80779E+01 4.74313E+00-1.52365E-02 1.17990E+00 4.28106E-13-6.96251E-13
 -1       175 1.76386E+01 4.93221E+00-1.52113E-02 1.39176E+00 4.84508E-13-6.21674E-13
 -1       176 1.75101E+01 5.08535E+00-1.66607E-02 1.45086E+00 5.33161E-13-5.01651E-13
 -1       177 1.78780E+01 5.12598E+00-2.06109E-02 1.44492E+00 5.83898E-13-3.30715E-13
 -1       178 1.88550E+01 4.97019E+00-2.76161E-02 1.52656E+00 6.04676E-13-5.63135E-14
 -1       179 2.04313E+01 4.53680E+00-3.72377E-02 1.87593E+00 5.74429E-13 3.80000E-13
 -1       180 2.26508E+01 3.55872E+00-4.08115E-02 2.58332E+00 4.45513E-13 1.09890E-12
 -1       181 2.45028E+01 1.05631E+00-3.20736E-01 2.29736E+00 2.39728E-13 1.97717E-12
 -1       182 2.20595E+01 8.56150E-01-1.65095E-03-2.10992E+00-4.65575E-13-3.25399E-14
 -1       183 2.03702E+01 1.58383E-01-1.18972E-02-9.71006E-01-3.87038E-13-1.91087E-13
 -1       184 1.93525E+01 5.78219E-02 1.21233E-02-5.85985E-01-2.71705E-13-3.42149E-13
 -1       185 1.86817E+01 1.72303E-03 8.98850E-03-4.79944E-01-1.97774E-13-4.93397E-13
 -1       186 1.81299E+01-1.30733E-02 4.65377E-03-4.73759E-01-1.32444E-13-5.80181E-13
 -1       187 1.76260E+01-4.25776E-03 2.69136E-03-4.82234E-01-1.33752E-13-6.48673E-13
 -1       188 1.71628E+01 2.03096E-02 2.30083E-03-4.53173E-01-9.61391E-14-7.22845E-13
 -1       189 1.67758E+01 5.19746E-02 2.53585E-03-3.56158E-01-1.07670E-13-7.61271E-13
 -1       190 1.65201E+01 7.98744E-02 2.84706E-03-1.85980E-01-9.62496E-14-8.00229E-13
 -1       191 1.64463E+01 9.36859E-02 2.96297E-03 3.55348E-02-7.45914E-14-8.76066E-13
 -1       192 1.65782E+01 8.78951E-02 2.76794E-03 2.66370E-01-5.64360E-14-9.50457E-13
 -1       193 1.69016E+01 6.43477E-02 2.24523E-03 4.59744E-01-2.60287E-14-9.67884E-13
 -1       194 1.73669E+01 3.09958E-02 1.46184E-03 5.81139E-01-6.57829E-15-9.68975E-13
 -1       195 1.79044E+01-2.21355E-03 5.51931E-04 6.18488E-01-2.26280E-14-9.62058E-13
 -1       196 1.84444E+01-2.75572E-02-3.16848E-04 5.81864E-01-6.37028E-15-8.64756E-13
 -1       197 1.89317E+01-4.17031E-02-1.00009E-03 4.95166E-01-2.32998E-14-9.32538E-13
 -1       198 1.93338E+01-4.53725E-02-1.41503E-03 3.85569E-01 7.62335E-15-9.15273E-13
 -1       199 1.96394E+01-4.15842E-02-1.55735E-03 2.75618E-01-3.26223E-14-9.73290E-13
 -1       200 1.98535E+01-3.38419E-02-1.47946E-03 1.79764E-01-1.34606E-13-1.17046E-12
 -1       201 1.99904E+01-2.49999E-02-1.26173E-03 1.04533E-01-3.72964E-14-1.14838E-12
 -1       202 2.00679E+01-1.68689E-02-9.83514E-04 5.06045E-02 3.46913E-14-1.01573E-12
 -1       203 2.01035E+01-1.03071E-02-7.05117E-04 1.52629E-02 1.59267E-14-9.62500E-13
 -1       204 2.01118E+01-5.50701E-03-4.63069E-04-5.58619E-03 1.42893E-14-8.42790E-13
 -1       205 2.01042E+01-2.28909E-03-2.73046E-04-1.61125E-02 2.01436E-13-7.80781E-13
 -1       206 2.00888E+01-3.21354E-04-1.36209E-04-1.98867E-02 7.21817E-14-7.37325E-13
 -1       207 2.00708E+01 7.46559E-04-4.56224E-05-1.96475E-02-4.29984E-14-6.84332E-13
 -1       208 2.00533E+01 1.21739E-03 8.83156E-06-1.73226E-02-5.50847E-14-7.25964E-13
 -1       209 2.00380E+01 1.32401E-03 3.73635E-05-1.41656E-02-6.38260E-14-6.73888E-13
 -1       210 2.00254E+01 1.23088E-03 4.87138E-05-1.09243E-02-1.03201E-13-7.42508E-13
 -1       211 2.00156E+01 1.04587E-03 4.96214E-05-7.99544E-03-2.23466E-13-9.34450E-13
 -1       212 2.00084E+01 8.34520E-04 4.48781E-05-5.54894E-03 9.98517E-14-8.05459E-13
 -1       213 2.00033E+01 6.33068E-04 3.76511E-05-3.61951E-03 1.35096E-13-7.45498E-13
 -1       214 1.99999E+01 4.58734E-04 2.98774E-05-2.16887E-03 3.58542E-13-7.56270E-13
 -1       215 1.99978E+01 3.17231E-04 2.26295E-05-1.12581E-03 8.27207E-14-5.43494E-13
 -1       216 1.99967E+01 2.07875E-04 1.64105E-05-4.10031E-04 4.32327E-14-7.00643E-13
 -1       217 1.99962E+01 1.26855E-04 1.13745E-05 5.47831E-05 9.10973E-14-6.06218E-13
 -1       218 1.99962E+01 6.92151E-05 7.47826E-06 3.34841E-04 1.46630E-13-5.20968E-13
 -1       219 1.99964E+01 2.99494E-05 4.58154E-06 4.84224E-04-1.44999E-13-5.95074E-13
 -1       220 1.99967E+01 4.55041E-06 2.50761E-06 5.45122E-04-4.03801E-13-8.40920E-13
 -1       221 1.99972E+01-1.07823E-05 1.07802E-06 5.49168E-04-3.15598E-13-8.83848E-13
 -1       222 1.99976E+01-1.91241E-05 1.29884E-07 5.19144E-04-6.10090E-14-7.87647E-13
 -1       223 1.99981E+01-2.29094E-05-4.76816E-07 4.70670E-04 2.88077E-13-8.95327E-13
 -1       224 1.99985E+01-2.40659E-05-8.55461E-07 4.13659E-04 2.60419E-13-3.23102E-13
 -1       225 1.99988E+01-2.41656E-05-1.08487E-06 3.53459E-04 4.57896E-13-5.15827E-14
 -1       226 1.99991E+01-2.45786E-05-1.19389E-06 2.91663E-04 3.66642E-13-6.03569E-14
 -1       227 1.99994E+01-2.65849E-05-1.14186E-06 2.26680E-04-1.05040E-14-3.04604E-13
 -1       228 1.99996E+01-3.11949E-05-1.02730E-06 1.54786E-04-1.09138E-13-2.10101E-13
 -1       229 1.99997E+01-3.70227E-05-7.16117E-07 7.41862E-05 8.11811E-15-4.97903E-14
 -1       230 2.37248E+01 3.46897E-01-4.18218E-02 3.10917E-01 2.98709E-13 1.71428E-12
 -1       231 2.37315E+01 2.85525E-01 6.10950E-03-7.53915E-01 2.38160E-13 1.46713E-12
 -1       232 2.47828E+01 2.93343E-01 3.67857E-04-1.60551E+00 1.24584E-13 1.25922E-12
 -1       233 2.66786E+01 2.86805E-01-6.04639E-03-2.42757E+00 4.51609E-14 1.17608E-12
 -1       234 2.92244E+01 1.01693E-01 2.28279E-02-2.97160E+00-1.54572E-13 1.27165E-12
 -1       235 3.19650E+01-5.35983E-01 1.10059E-01-2.44223E+00-3.81351E-13 1.54532E-12
 -1       236 3.40882E+01-1.62807E+00 1.15246E-01 3.65280E-01-4.37080E-13 1.89384E-12
 -1       237 3.46787E+01-1.84368E+00-5.60077E-02 4.18529E+00-2.49432E-13 2.10979E-12
 -1       238 3.39901E+01 1.18400E-01-3.51965E-01 6.05196E+00 1.60677E-13 2.03015E-12
 -1       239 3.30261E+01 2.98646E+00-5.85703E-01 2.82628E+00 6.98080E-13 1.56397E-12
 -1       240 3.34978E+01 3.28086E+00-4.40789E-01-3.11902E+00 1.23682E-12 9.67853E-13
 -1       241 3.51846E+01 4.92193E-02-1.73863E-01-6.19337E+00 9.58969E-13 1.59998E-13
 -1       242 3.56078E+01-2.02164E+00 4.93473E-02-3.71206E+00 3.53552E-13-3.23394E-13
 -1       243 3.41371E+01-1.39400E+00 1.12410E-01 6.15149E-01-1.18856E-13-2.79690E-13
 -1       244 3.14212E+01-3.21411E-01 3.43116E-02 2.75088E+00-6.50955E-14-2.21444E-13
 -1       245 2.85976E+01 1.60471E-01-1.09192E-02 2.92993E+00-1.13346E-13-1.33393E-13
 -1       246 2.61495E+01 2.58953E-01-1.38430E-02 2.33872E+00-2.16138E-13 8.38635E-14
 -1       247 2.42465E+01 2.19272E-01-4.82371E-03 1.65409E+00 4.31270E-14 2.80298E-13
 -1       248 2.28666E+01 1.55213E-01 1.62276E-03 1.10405E+00 1.61342E-13 7.65131E-14
 -1       249 2.19088E+01 1.01987E-01 3.85324E-03 7.16561E-01 7.30297E-14 3.49663E-14
 -1       250 2.12611E+01 6.48206E-02 3.76477E-03 4.59335E-01-1.91398E-13-8.88552E-14
 -1       251 2.08294E+01 4.06360E-02 2.93603E-03 2.93300E-01-9.46175E-14 1.84729E-13
 -1       252 2.05438E+01 2.53837E-02 2.08220E-03 1.87428E-01 2.52654E-13 1.34337E-14
 -1       253 2.03552E+01 1.58909E-02 1.41420E-03 1.20150E-01-6.82688E-14-1.10383E-13
 -1       254 2.02306E+01 1.00048E-02 9.42751E-04 7.73207E-02-1.84683E-13 2.61050E-13
 -1       255 2.01482E+01 6.34834E-03 6.24516E-04 4.99168E-02-9.88013E-14 4.54208E-13
 -1       256 2.00936E+01 4.06421E-03 4.13770E-04 3.22588E-02 2.21485E-13 5.95415E-13
 -1       257 2.00575E+01 2.62524E-03 2.75185E-04 2.07901E-02-1.89709E-13 4.36527E-13
 -1       258 2.00336E+01 1.70983E-03 1.83688E-04 1.32829E-02-6.20909E-14 4.41170E-13
 -1       259 2.00181E+01 1.12048E-03 1.22376E-04 8.34229E-03 2.07569E-13 4.77577E-13
 -1       260 2.00077E+01 7.16388E-04 8.38736E-05 4.94307E-03-4.25973E-14 3.41673E-13
 -1       261 2.00015E+01 4.66012E-04 5.54571E-05 2.82723E-03-5.04883E-13 4.77758E-13
 -1       262 1.99979E+01 2.98824E-04 3.77813E-05 1.44299E-03 6.61574E-14 6.93018E-13
 -1       263 1.99959E+01 1.85853E-04 2.56501E-05 5.51265E-04 7.30479E-14 5.91873E-13
 -1       264 1.99950E+01 1.09710E-04 1.72978E-05-6.04339E-06-2.02362E-14 3.35744E-13
 -1       265 1.99947E+01 5.87071E-05 1.15083E-05-3.36621E-04 3.41335E-13 2.78827E-13
 -1       266 1.99949E+01 2.51010E-05 7.48651E-06-5.14769E-04 2.04265E-13 1.51436E-13
 -1       267 1.99953E+01 3.61588E-06 4.69825E-06-5.92255E-04 2.57661E-15-1.64285E-13
 -1       268 1.99959E+01-9.42876E-06 2.77759E-06-6.05291E-04 3.51167E-13-5.02238E-13
 -1       269 1.99965E+01-1.66560E-05 1.46920E-06-5.79123E-04 1.45223E-13-6.55812E-13
 -1       270 1.99971E+01-1.99708E-05 5.91525E-07-5.31109E-04 4.73906E-14-8.40557E-13
 -1       271 1.99976E+01-2.07848E-05 1.28438E-08-4.72836E-04-2.71257E-14-4.39499E-13
 -1       272 1.99981E+01-2.01774E-05-3.63078E-07-4.11570E-04-3.29465E-16-1.97340E-13
 -1       273 1.99986E+01-1.90119E-05-5.97222E-07-3.51234E-04-1.11853E-13-9.27732E-14
 -1       274 1.99989E+01-1.80418E-05-7.05576E-07-2.93048E-04 5.00357E-14-1.41405E-13
 -1       275 1.99992E+01-1.80696E-05-6.35278E-07-2.35820E-04-3.17035E-13-1.18829E-13
 -1       276 1.99995E+01-1.96090E-05-2.56759E-07-1.76301E-04 3.36602E-14 3.66170E-13
 -1       277 1.99996E+01-2.39958E-05 8.14104E-09-1.09456E-04-5.79050E-13 3.61511E-13
 -1       278 1.99998E+01-2.53120E-05-1.01511E-06-3.78694E-05-2.90462E-13 1.00606E-13
 -1       279 1.99998E+01-8.67932E-05-8.14170E-07-7.85190E-05-1.49824E-13-8.22177E-15
 -1       280 1.99998E+01-2.08381E-04-2.76473E-07-1.46798E-04 1.64126E-13-3.83567E-13
 -1       281 1.99998E+01-3.69304E-04-1.77087E-07-1.87293E-04 3.97821E-13-2.18811E-13
 -1       282 1.99998E+01-5.45255E-04 9.59537E-08-1.95182E-04-7.97234E-14 8.81736E-14
 -1       283 1.99998E+01-7.10129E-04 4.64392E-07-1.73938E-04-9.21319E-14-9.53568E-14
 -1       284 1.99998E+01-8.47311E-04 7.81600E-07-1.28889E-04-2.77784E-13-3.75326E-13
 -1       285 1.99998E+01-9.36160E-04 9.97256E-07-6.77699E-05-1.94310E-13-8.19069E-13
 -1       286 1.99998E+01-9.66078E-04 1.06926E-06 1.25241E-06-3.76172E-13-1.02103E-13
 -1       287 1.99998E+01-9.33636E-04 9.92141E-07 6.99361E-05-2.45614E-13 3.32069E-13
 -1       288 1.99998E+01-8.42827E-04 7.74240E-07 1.30181E-04-3.68412E-13-8.23471E-14
 -1       289 1.99998E+01-7.07479E-04 4.42600E-07 1.73604E-04-1.31845E-13 3.01869E-13
 -1       290 1.99998E+01-5.39984E-04 1.06726E-07 1.94502E-04 1.32877E-13 2.11195E-13
 -1       291 1.99998E+01-3.64762E-04-1.45394E-07 1.85972E-04 3.29665E-14-2.88885E-14
 -1       292 1.99998E+01-2.07193E-04-7.06662E-07 1.43676E-04-5.95499E-14 4.15276E-13
 -1       293 1.99997E+01-1.14852E-04-8.47675E-07 1.23439E-04-1.47031E-13 4.89631E-14
 -1       294-1.83222E+00-1.22123E+01-9.97127E-01-9.28322E-01 9.42760E-13 8.35360E-13
 -1       295 5.12365E-01-1.15642E+01-1.08850E+00 9.85299E-01 1.45589E-12 1.18630E-12
 -1       296 8.73110E+00-8.23118E+00-7.52655E-01 4.21836E+00 1.40102E-12 9.24015E-13
 -1       297 1.93783E+01-5.21354E+00-6.06260E-01 5.16253E+00 1.50824E-12 1.18011E-12
 -1       298 3.30484E+01-1.71488E+00 5.53339E-02 5.08411E+00 1.41334E-12 1.09168E-12
 -1       299 4.52579E+01 1.15355E+00 7.22292E-01 1.02984E+00 1.45289E-12 4.46476E-13
 -1       300 5.49403E+01 5.89738E+00 1.81481E+00 6.24873E-01 1.37698E-12-9.90874E-14
 -1       301 5.49673E+01 7.47676E+00 1.79571E+00-6.67230E-02 1.15313E-12-4.72719E-13
 -1       302 5.16233E+01 5.14695E+00 1.40738E+00-1.47107E-01 9.73721E-13-8.42881E-13
 -1       303 4.38091E+01 1.27536E+00 8.36148E-01-4.59709E+00 1.09718E-12-1.73028E-12
 -1       304 2.96018E+01-2.16260E+00-1.55988E-01-5.80861E+00 1.17914E-12-1.75937E-12
 -1       305 1.62765E+01-5.32808E+00-7.16516E-01-5.21907E+00 1.01358E-12-1.72554E-12
 -1       306 6.22296E+00-8.75315E+00-1.01274E+00-3.23058E+00 6.50147E-13-1.56735E-12
 -1       307 1.86737E-01-1.16856E+01-1.12475E+00-9.21039E-01 4.68514E-14-1.12878E-12
 -1       308-1.81172E+00-1.20759E+01-1.00508E+00 1.00166E+00-6.40406E-13-1.04650E-12
 -1       309-3.14054E-01-1.12007E+01-9.52423E-01 2.95843E+00-1.38278E-12-1.00703E-12
 -1       310 4.90470E+00-7.29910E+00-6.17300E-01 5.46053E+00-1.68748E-12-1.10904E-12
 -1       311 1.41421E+01-3.48424E+00-2.56282E-01 7.77110E+00-1.58393E-12-1.08126E-12
 -1       312 2.35397E+01 1.44384E+00 7.18448E-02 8.91008E+00-1.86270E-12-1.22832E-12
 -1       313 3.48316E+01 4.00400E+00 4.05061E-01 7.94353E+00-1.46504E-12-9.28119E-13
 -1       314 4.28915E+01 6.41013E+00 5.56478E-01 4.60014E+00-1.18285E-12-6.02574E-13
 -1       315 4.95636E+01 7.51126E+00 9.19396E-01 2.02788E+00-9.41830E-13-3.27072E-13
 -1       316 5.06581E+01 7.34028E+00 1.02852E+00-2.26267E+00-7.88120E-13 3.16830E-13
 -1       317 4.48909E+01 6.89877E+00 7.32155E-01-5.21174E+00-9.12215E-13 5.60302E-13
 -1       318 3.82110E+01 5.44784E+00 6.09085E-01-8.53448E+00-9.76962E-13 1.03850E-12
 -1       319 2.86319E+01 3.13542E+00 2.87104E-01-9.26833E+00-1.00617E-12 1.18988E-12
 -1       320 1.88231E+01-2.50924E-01-8.06633E-02-8.51858E+00-8.45685E-13 1.32003E-12
 -1       321 1.05738E+01-4.63356E+00-3.71760E-01-7.20836E+00-4.37594E-13 1.13364E-12
 -1       322 3.07181E+00-8.62982E+00-7.35792E-01-4.65187E+00-6.27831E-14 1.11954E-12
 -1       323-8.44107E-01-1.17130E+01-9.69027E-01-2.73614E+00 4.33653E-13 9.15185E-13
 -1       324 2.05453E+01 2.79463E+00-1.98649E-02-2.33942E+00-2.98109E-13-7.42192E-13
 -1       325 2.09492E+01 2.11704E+00-2.08280E-02-2.61147E+00-4.53357E-13-5.99559E-13
 -1       326 2.03196E+01 3.17932E+00-1.89176E-02-1.25259E+00 4.34078E-14-7.73792E-13
 -1       327 2.01764E+01 3.24840E+00-1.73995E-02-6.03819E-01 1.80338E-13-7.38116E-13
 -1       328 1.98754E+01 3.34612E+00-1.57119E-02 6.80186E-02 3.05748E-13-6.67438E-13
 -1       329 1.93754E+01 3.52997E+00-1.36530E-02 7.08128E-01 4.19803E-13-6.05693E-13
 -1       330 1.87100E+01 3.82453E+00-1.13030E-02 1.23604E+00 5.13879E-13-5.55633E-13
 -1       331 1.80150E+01 4.19742E+00-9.02265E-03 1.56170E+00 5.78060E-13-5.14306E-13
 -1       332 1.75326E+01 4.53919E+00-7.61059E-03 1.62983E+00 6.53022E-13-4.23223E-13
 -1       333 1.75266E+01 4.70240E+00-8.52371E-03 1.46905E+00 7.08112E-13-3.00048E-13
 -1       334 1.82377E+01 4.51140E+00-1.21741E-02 1.20401E+00 7.01132E-13-1.30354E-13
 -1       335 1.97169E+01 3.83886E+00-1.63391E-02 1.03828E+00 6.68554E-13 1.49228E-13
 -1       336 2.17755E+01 2.59163E+00-1.83054E-02 1.00746E+00 5.62814E-13 6.23551E-13
 -1       337 2.30321E+01 1.42450E+00-1.15368E-02 7.00501E-01 4.44459E-13 1.04182E-12
 -1       338 2.28454E+01 9.68166E-01 1.62852E-02-8.15637E-01 3.58647E-13 8.43371E-13
 -1       339 2.04967E+01 5.24045E-01 1.05585E-02-1.43807E+00-3.55964E-13-4.47653E-13
 -1       340 1.99085E+01 1.62808E-01 5.60900E-03-1.04375E+00-2.90421E-13-4.40814E-13
 -1       341 1.94213E+01 1.87077E-02 2.96215E-03-9.12404E-01-2.00502E-13-4.36513E-13
 -1       342 1.89886E+01-6.51521E-03 1.37933E-03-8.79581E-01-1.54847E-13-4.51675E-13
 -1       343 1.85903E+01 4.89859E-02 1.25626E-03-8.39877E-01-1.33905E-13-4.46206E-13
 -1       344 1.82346E+01 1.53444E-01 1.85390E-03-7.20387E-01-1.38209E-13-4.75033E-13
 -1       345 1.79559E+01 2.67596E-01 2.58837E-03-4.85610E-01-1.11109E-13-5.09910E-13
 -1       346 1.77993E+01 3.48140E-01 3.09445E-03-1.46031E-01-1.27059E-13-5.20805E-13
 -1       347 1.77981E+01 3.62260E-01 3.17120E-03 2.44203E-01-1.09709E-13-5.56713E-13
 -1       348 1.79556E+01 3.02168E-01 2.75097E-03 6.07239E-01-5.82379E-14-6.12226E-13
 -1       349 1.82399E+01 1.87896E-01 1.91629E-03 8.72348E-01-2.94586E-14-6.52369E-13
 -1       350 1.85960E+01 5.56273E-02 8.56441E-04 1.00112E+00 6.23588E-14-5.46391E-13
 -1       351 1.89650E+01-5.95377E-02-1.79513E-04 9.95181E-01-1.79931E-14-5.62293E-13
 -1       352 1.93005E+01-1.36359E-01-9.91524E-04 8.86695E-01-4.37850E-15-5.50203E-13
 -1       353 1.95760E+01-1.70536E-01-1.47221E-03 7.20466E-01 3.99713E-14-5.10057E-13
 -1       354 1.97834E+01-1.69952E-01-1.63042E-03 5.38047E-01-1.03657E-13-5.69977E-13
 -1       355 1.99271E+01-1.47478E-01-1.53680E-03 3.69099E-01-1.77749E-13-5.86252E-13
 -1       356 2.00181E+01-1.15377E-01-1.29201E-03 2.29696E-01-7.38244E-14-4.96967E-13
 -1       357 2.00690E+01-8.25377E-02-9.90117E-04 1.24843E-01 6.97114E-14-5.10759E-13
 -1       358 2.00918E+01-5.40273E-02-6.96609E-04 5.24006E-02 8.41258E-14-4.94052E-13
 -1       359 2.00962E+01-3.18557E-02-4.47925E-04 6.68089E-03 1.06910E-13-4.27730E-13
 -1       360 2.00897E+01-1.60783E-02-2.57360E-04-1.90014E-02 1.33458E-13-4.72989E-13
 -1       361 2.00777E+01-5.75452E-03-1.23374E-04-3.08435E-02 1.23363E-13-4.52012E-13
 -1       362 2.00637E+01 3.91633E-04-3.69048E-05-3.38899E-02-2.60666E-16-5.05417E-13
 -1       363 2.00499E+01 3.59592E-03 1.35110E-05-3.18865E-02 8.67712E-14-4.45399E-13
 -1       364 2.00374E+01 4.88330E-03 3.87568E-05-2.74084E-02 5.91528E-14-2.48659E-13
 -1       365 2.00268E+01 5.02355E-03 4.77817E-05-2.20963E-02-2.21854E-13-2.85970E-13
 -1       366 2.00183E+01 4.55178E-03 4.72689E-05-1.69060E-02-3.01096E-13-3.30565E-13
 -1       367 2.00117E+01 3.81457E-03 4.18338E-05-1.23263E-02 1.49066E-14-2.71562E-13
 -1       368 2.00068E+01 3.01993E-03 3.44375E-05-8.54805E-03 1.17266E-13-1.45943E-13
 -1       369 2.00033E+01 2.28082E-03 2.68299E-05-5.58676E-03 3.69607E-13-5.76444E-14
 -1       370 2.00009E+01 1.64899E-03 1.99342E-05-3.36549E-03 3.11552E-13-1.15736E-13
 -1       371 1.99994E+01 1.13944E-03 1.41469E-05-1.76754E-03 3.39360E-14-4.35616E-14
 -1       372 1.99985E+01 7.46909E-04 9.55153E-06-6.67806E-04 3.15407E-13 4.69384E-15
 -1       373 1.99980E+01 4.56437E-04 6.06391E-06 5.02999E-05 1.33135E-14-1.38683E-13
 -1       374 1.99978E+01 2.49740E-04 3.52353E-06 4.87060E-04-1.23213E-13-3.46920E-13
 -1       375 1.99979E+01 1.08715E-04 1.74780E-06 7.24115E-04-3.51935E-13-3.97481E-13
 -1       376 1.99980E+01 1.71740E-05 5.61370E-07 8.25115E-04-2.59070E-13-1.14603E-13
 -1       377 1.99982E+01-3.85261E-05-1.90356E-07 8.37793E-04-3.07560E-13-9.18418E-14
 -1       378 1.99985E+01-6.94707E-05-6.37329E-07 7.96520E-04 1.91995E-13 1.73854E-13
 -1       379 1.99987E+01-8.45049E-05-8.85797E-07 7.24803E-04 5.78598E-13 2.07489E-13
 -1       380 1.99990E+01-9.06891E-05-1.01886E-06 6.37469E-04 4.87448E-13 3.72643E-13
 -1       381 1.99992E+01-9.37402E-05-1.09313E-06 5.42464E-04 2.30671E-13 3.75838E-14
 -1       382 1.99994E+01-9.82865E-05-1.13646E-06 4.42467E-04-8.68298E-14 6.39119E-15
 -1       383 1.99995E+01-1.07880E-04-1.37872E-06 3.36620E-04-1.88666E-13-2.22453E-13
 -1       384 1.99996E+01-1.12950E-04-1.15531E-06 2.31260E-04 8.72580E-14-9.42093E-14
 -1       385 2.30658E+01 9.20689E-01 1.57027E-02-2.10507E+00 2.33002E-13 7.15469E-13
 -1       386 2.37355E+01 8.68905E-01 1.18847E-02-3.31227E+00 9.07325E-14 5.93208E-13
 -1       387 2.48878E+01 3.88934E-01 2.51490E-02-4.23474E+00-1.88397E-13 5.97483E-13
 -1       388 2.68332E+01-1.15583E+00 6.47328E-02-4.18464E+00-4.84876E-13 6.19061E-13
 -1       389 3.01884E+01-3.77104E+00 5.62843E-02-2.08286E+00-6.20747E-13 7.50071E-13
 -1       390 3.83052E+01-2.70453E+00-7.33185E-02 3.25887E+00 1.49381E-13 5.40734E-13
 -1       391 3.75600E+01-3.39718E+00-1.34581E-02-3.48087E+00 8.28837E-13-2.37324E-13
 -1       392 3.08906E+01-5.18838E+00 3.57030E-02 1.55249E+00-1.93942E-14-2.77459E-13
 -1       393 2.60917E+01-2.18838E+00 7.22049E-02 4.37904E+00-2.36495E-13-1.14452E-13
 -1       394 2.40046E+01 9.26827E-02 3.54020E-02 4.72160E+00-2.32958E-13 2.51626E-13
 -1       395 2.29717E+01 8.82849E-01 1.49416E-02 3.97787E+00-2.75745E-13 3.03478E-13
 -1       396 2.23010E+01 9.22416E-01 1.05824E-02 2.98561E+00-2.08605E-14 3.11453E-14
 -1       397 2.17641E+01 7.26663E-01 9.96836E-03 2.10530E+00 2.00543E-13-3.08866E-14
 -1       398 2.13197E+01 5.12180E-01 8.61970E-03 1.43322E+00 1.12293E-13 3.15522E-14
 -1       399 2.09644E+01 3.42542E-01 6.55841E-03 9.56919E-01 9.84497E-14-7.89147E-14
 -1       400 2.06918E+01 2.23271E-01 4.58545E-03 6.32669E-01-8.47840E-14-3.02401E-13
 -1       401 2.04894E+01 1.43839E-01 3.05224E-03 4.16689E-01 1.13107E-13-4.52160E-13
 -1       402 2.03423E+01 9.23350E-02 1.98169E-03 2.74373E-01 7.61189E-14 5.75356E-15
 -1       403 2.02371E+01 5.93559E-02 1.27386E-03 1.80957E-01-2.00511E-13 5.37449E-14
 -1       404 2.01625E+01 3.83312E-02 8.17693E-04 1.19599E-01-2.10972E-13 2.15534E-13
 -1       405 2.01101E+01 2.49161E-02 5.26621E-04 7.91493E-02-8.92088E-14 6.17237E-14
 -1       406 2.00733E+01 1.63167E-02 3.41176E-04 5.23394E-02-9.50807E-15 4.36419E-13
 -1       407 2.00478E+01 1.07625E-02 2.22143E-04 3.44602E-02-1.24002E-13 4.82889E-13
 -1       408 2.00301E+01 7.14470E-03 1.43767E-04 2.24703E-02-8.23761E-14 4.72163E-13
 -1       409 2.00176E+01 4.65898E-03 9.64794E-05 1.40732E-02 1.83334E-13 8.50413E-13
 -1       410 2.00096E+01 3.09496E-03 6.18209E-05 8.73568E-03-3.78777E-13 7.14982E-13
 -1       411 2.00044E+01 2.04201E-03 4.06696E-05 5.15188E-03-2.43276E-13 4.06458E-13
 -1       412 2.00010E+01 1.32604E-03 2.64498E-05 2.76453E-03 1.23705E-13 2.51358E-13
 -1       413 1.99990E+01 8.37336E-04 1.68631E-05 1.20148E-03 9.20440E-14 3.15715E-13
 -1       414 1.99978E+01 5.04228E-04 1.03793E-05 2.06656E-04 1.62679E-13 1.09402E-13
 -1       415 1.99973E+01 2.79024E-04 6.01073E-06-3.97804E-04 5.44651E-13 2.09432E-13
 -1       416 1.99971E+01 1.29326E-04 3.10025E-06-7.36744E-04 2.35376E-13-6.79743E-14
 -1       417 1.99972E+01 3.26471E-05 1.20096E-06-8.98302E-04 1.54437E-13-2.32227E-13
 -1       418 1.99974E+01-2.69386E-05 2.80760E-09-9.44736E-04 4.91465E-13-2.16396E-13
 -1       419 1.99977E+01-6.09171E-05-7.13869E-07-9.19726E-04 1.55483E-13-2.78424E-14
 -1       420 1.99981E+01-7.77133E-05-1.10787E-06-8.53405E-04-2.63742E-13-7.41240E-14
 -1       421 1.99984E+01-8.36318E-05-1.29849E-06-7.65875E-04-2.29501E-13 1.02754E-14
 -1       422 1.99987E+01-8.35330E-05-1.37856E-06-6.69668E-04-2.00737E-13 3.65063E-13
 -1       423 1.99990E+01-8.12854E-05-1.39960E-06-5.71460E-04-4.19659E-14 2.39784E-13
 -1       424 1.99992E+01-8.01794E-05-1.39236E-06-4.73397E-04-7.62684E-14 2.67728E-13
 -1       425 1.99994E+01-8.31030E-05-1.45726E-06-3.74191E-04-3.56893E-13 9.86444E-14
 -1       426 1.99996E+01-9.05449E-05-1.53879E-06-2.71925E-04-1.40124E-13 2.64024E-13
 -1       427 1.99997E+01-9.52088E-05-1.08773E-06-1.75345E-04-4.89343E-13-1.77315E-14
 -1       428 1.99998E+01-4.25098E-04-1.60984E-07-3.34394E-04-2.55618E-13 2.27457E-14
 -1       429 1.99997E+01-2.81336E-04-6.88371E-07-3.06239E-04-3.93923E-13-2.69985E-13
 -1       430 1.99998E+01-5.59643E-04 2.79687E-07-3.18174E-04-2.94982E-14-7.31438E-14
 -1       431 1.99999E+01-6.77273E-04 6.60008E-07-2.58980E-04-1.04588E-13-5.62331E-14
 -1       432 1.99999E+01-7.62652E-04 9.25094E-07-1.67465E-04-2.10527E-13-5.06289E-13
 -1       433 1.99999E+01-8.06811E-04 1.05889E-06-5.62761E-05 3.47684E-14-4.57745E-13
 -1       434 1.99999E+01-8.05235E-04 1.05574E-06 6.11175E-05 2.92059E-15 1.71222E-13
 -1       435 1.99999E+01-7.58239E-04 9.12962E-07 1.71142E-04 3.94986E-14 1.93854E-13
 -1       436 1.99999E+01-6.72759E-04 6.42087E-07 2.59411E-04 3.69935E-13 1.74955E-13
 -1       437 1.99998E+01-5.54954E-04 2.88448E-07 3.17121E-04 5.16470E-13 6.44774E-13
 -1       438 1.99998E+01-4.18597E-04-1.51682E-07 3.32555E-04 4.81495E-13-1.48561E-13
 -1       439 1.99997E+01-2.77757E-04-7.71309E-07 3.00864E-04 2.72284E-13-9.95052E-14
 -1       440 8.69492E+00-5.52054E+00-5.94606E-02 5.52724E+00 1.08344E-13 5.48797E-13
 -1       441 8.73378E-01-3.95570E+00 1.30527E-02-2.42465E+00 1.97696E-13 1.00564E-12
 -1       442 2.66923E+00-4.59378E+00-1.74598E-02 2.65294E+00 2.53478E-14 8.31973E-13
 -1       443 2.08131E+01-6.85237E+00-1.12053E-01 5.47440E+00 3.95101E-13 1.55369E-13
 -1       444 3.10204E+01-6.07915E+00-9.49381E-02 2.26920E+00 6.63691E-13 2.71588E-13
 -1       445 2.03933E+01 3.06400E+00-2.46001E-02-1.84722E+00-1.10108E-13-8.03815E-13
 -1       446 2.82761E+01-6.39745E+00-1.46092E-01-3.66669E+00 6.82787E-15-5.11383E-13
 -1       447 1.73073E+01-6.86246E+00-1.80144E-01-5.96938E+00-1.38695E-13-1.03336E-12
 -1       448 8.04858E+00-5.73145E+00-1.00406E-01-5.46499E+00-1.72279E-13-1.30618E-12
 -1       449 1.80320E+00-4.69343E+00-6.07152E-02-2.05622E+00-1.29945E-13-1.34079E-12
 -1       450 1.49814E+00-3.13605E+00 6.05629E-02 3.09874E+00 4.51236E-14-1.15299E-12
 -1       451 5.31757E+00-4.48108E+00 1.30549E-03 6.86026E+00-1.11494E-13-8.70595E-13
 -1       452 1.39653E+01-4.84073E+00 4.02043E-02 8.78223E+00-5.13478E-14-4.69676E-13
 -1       453 2.44698E+01-4.34840E+00 4.40283E-02 7.04615E+00-4.86777E-13-8.96852E-14
 -1       454 3.03971E+01-1.99217E+00-3.22198E-02 4.24424E+00-8.21912E-13-6.34770E-14
 -1       455 3.51622E+01 2.78713E+00-4.18817E-02 1.15194E+00-1.04140E-12-1.70988E-13
 -1       456 3.65763E+01 7.84302E+00-6.96176E-02-5.55065E-01-1.06265E-12-3.07004E-13
 -1       457 3.98493E+01 9.24413E+00 8.88854E-02-1.63502E-01-9.73138E-13-4.10935E-13
 -1       458 3.87144E+01 8.16436E+00 5.00773E-02-3.19050E-01-8.43478E-13-4.49640E-13
 -1       459 3.55124E+01 3.93521E+00-5.16329E-02-7.91393E-01-4.78173E-13-6.22710E-13
 -1       460 3.33780E+01 4.65870E-01-3.50853E-03-2.93140E+00-1.95689E-13-3.07504E-13
 -1       461 2.75159E+01-3.42359E+00-1.35763E-02-5.89526E+00 1.87045E-13 1.26357E-13
 -1       462 2.10376E+01-4.84233E+00 4.27599E-02-8.11052E+00 3.18093E-13 4.24556E-13
 -1       463 1.06607E+01-5.05004E+00-6.96485E-03-8.48728E+00 4.49210E-13 1.00778E-12
 -1       464 4.59431E+00-4.73941E+00 2.96029E-03-6.55591E+00 3.25642E-13 1.11551E-12
 -1       465 3.88736E+01 9.63495E-01-1.43168E-01-5.41840E+00 1.32494E-12 6.64468E-14
 -1       466 3.24755E+01-4.95467E+00-4.79727E-03-1.21525E-01-4.81802E-13 6.62123E-13
 -1       467 2.06736E+01 2.11528E+00 9.75340E-03-1.33342E+00 4.01926E-13 2.43413E-13
 -1       468 2.06735E+01 2.19954E+00-6.79561E-03-1.72902E-01 2.39268E-13-5.97758E-13
 -1       469 2.08363E+01 2.11180E+00-7.34788E-03-8.64882E-01 1.09744E-13-6.46061E-13
 -1       470 1.95788E+01 2.66950E+00-5.40835E-03 1.30009E+00 4.69543E-13-5.01500E-13
 -1       471 1.86660E+01 3.14524E+00-4.54348E-03 1.83360E+00 5.62718E-13-4.68146E-13
 -1       472 1.77594E+01 3.69729E+00-3.25461E-03 2.01971E+00 6.44433E-13-4.27424E-13
 -1       473 1.71856E+01 4.14883E+00-2.06839E-03 1.77551E+00 7.00931E-13-3.45151E-13
 -1       474 1.73553E+01 4.23079E+00-3.28495E-03 1.16305E+00 6.90354E-13-2.60941E-13
 -1       475 1.84901E+01 3.74251E+00-5.19564E-03 4.27531E-01 6.40330E-13-7.57109E-14
 -1       476 2.00440E+01 2.05025E+00 1.55275E-02-2.72277E+00 2.54397E-13 1.04347E-13
 -1       477 2.06630E+01 6.29319E-01 1.51960E-03-1.52955E+00-2.59950E-13-5.07351E-13
 -1       478 2.07902E+01 1.45858E+00-7.15554E-03-1.94967E+00-3.14037E-13-6.27280E-13
 -1       479 2.04225E+01 1.93272E-01 1.43831E-03-1.28684E+00-2.05953E-13-4.25941E-13
 -1       480 2.01477E+01 2.61228E-02 7.11483E-04-1.20504E+00-1.76075E-13-4.04235E-13
 -1       481 1.98524E+01 5.12993E-02 4.72032E-04-1.17178E+00-1.54809E-13-3.87305E-13
 -1       482 1.95436E+01 2.15171E-01 7.08824E-04-1.08108E+00-1.66846E-13-4.10026E-13
 -1       483 1.92492E+01 4.48608E-01 1.03029E-03-8.55145E-01-1.54327E-13-3.95662E-13
 -1       484 1.90215E+01 6.61274E-01 1.27492E-03-4.69164E-01-1.20106E-13-4.55378E-13
 -1       485 1.89162E+01 7.64937E-01 1.40978E-03 3.32432E-02-1.20066E-13-4.27446E-13
 -1       486 1.89619E+01 7.11140E-01 1.37823E-03 5.52415E-01-1.43052E-13-3.87100E-13
 -1       487 1.91406E+01 5.15228E-01 1.13457E-03 9.75096E-01-3.25982E-14-3.76022E-13
 -1       488 1.93955E+01 2.44003E-01 7.01146E-04 1.22346E+00 5.29642E-14-3.78272E-13
 -1       489 1.96591E+01-2.11876E-02 2.11612E-04 1.27927E+00 8.63845E-15-4.38232E-13
 -1       490 1.98799E+01-2.19813E-01-2.40100E-04 1.17743E+00-3.29503E-14-3.80665E-13
 -1       491 2.00348E+01-3.28515E-01-5.50180E-04 9.79335E-01-4.25880E-15-3.48557E-13
 -1       492 2.01250E+01-3.55666E-01-7.16147E-04 7.45810E-01-7.14140E-14-3.58849E-13
 -1       493 2.01645E+01-3.25929E-01-7.32797E-04 5.21778E-01-1.29154E-13-3.85386E-13
 -1       494 2.01707E+01-2.66385E-01-6.43287E-04 3.32627E-01-7.24688E-14-3.23773E-13
 -1       495 2.01581E+01-1.98519E-01-5.08268E-04 1.87550E-01-1.25164E-14-2.16851E-13
 -1       496 2.01372E+01-1.35814E-01-3.67237E-04 8.52160E-02 1.33694E-14-3.89055E-13
 -1       497 2.01141E+01-8.47128E-02-2.43113E-04 1.89141E-02 1.29415E-13-5.10753E-13
 -1       498 2.00920E+01-4.67858E-02-1.45428E-04-1.98172E-02 7.79944E-14-3.77867E-13
 -1       499 2.00726E+01-2.08515E-02-7.51404E-05-3.90703E-02 1.03969E-13-4.22139E-13
 -1       500 2.00562E+01-4.55470E-03-2.86406E-05-4.55855E-02 2.02184E-14-5.58204E-13
 -1       501 2.00427E+01 4.66121E-03-6.07971E-07-4.44819E-02 7.10299E-14-4.22415E-13
 -1       502 2.00318E+01 9.05798E-03 1.42700E-05-3.93682E-02 1.88962E-13-3.83682E-13
 -1       503 2.00232E+01 1.04171E-02 2.04761E-05-3.26160E-02-1.03262E-13-4.52997E-13
 -1       504 2.00165E+01 1.00302E-02 2.14371E-05-2.56670E-02-1.67066E-13-2.79153E-13
 -1       505 2.00113E+01 8.77032E-03 1.95640E-05-1.93109E-02-1.42726E-13-2.55757E-14
 -1       506 2.00075E+01 7.18809E-03 1.64332E-05-1.39071E-02 1.79457E-13 4.09038E-14
 -1       507 2.00046E+01 5.60396E-03 1.29983E-05-9.55060E-03 1.91512E-13-1.55758E-14
 -1       508 2.00026E+01 4.18379E-03 9.78199E-06-6.18740E-03 2.58992E-13-2.43971E-14
 -1       509 2.00011E+01 2.99597E-03 7.02725E-06-3.69043E-03 1.60745E-13-4.36612E-14
 -1       510 2.00002E+01 2.05168E-03 4.80770E-06-1.90702E-03 6.03848E-14-2.04923E-13
 -1       511 1.99995E+01 1.33166E-03 3.10328E-06-6.86110E-04 1.26498E-13-2.62319E-13
 -1       512 1.99992E+01 8.03069E-04 1.84871E-06 1.07715E-04-1.99629E-13-3.24378E-13
 -1       513 1.99990E+01 4.29466E-04 9.62782E-07 5.88427E-04-3.58179E-13-2.40163E-13
 -1       514 1.99990E+01 1.76163E-04 3.64577E-07 8.47607E-04-3.91200E-14-1.85944E-13
 -1       515 1.99990E+01 1.27400E-05-1.85116E-08 9.56047E-04-9.54364E-14 1.84507E-13
 -1       516 1.99991E+01-8.61909E-05-2.47871E-07 9.66500E-04 1.21881E-13 5.10588E-13
 -1       517 1.99992E+01-1.41178E-04-3.74305E-07 9.16731E-04 2.48483E-13 4.41778E-13
 -1       518 1.99993E+01-1.68608E-04-4.40448E-07 8.32402E-04 4.17542E-13 7.93836E-14
 -1       519 1.99994E+01-1.81519E-04-4.79683E-07 7.29607E-04-3.98530E-14-9.47049E-14
 -1       520 1.99995E+01-1.90051E-04-4.89456E-07 6.17018E-04-1.62140E-14-4.10604E-13
 -1       521 1.99996E+01-2.01991E-04-5.59488E-07 4.97939E-04-1.91211E-13-4.29737E-13
 -1       522 1.94531E+01 2.16912E-01 1.03875E-01-5.30713E+00-2.81355E-13-1.68936E-13
 -1       523 2.04543E+01-3.34537E+00 8.13412E-02-5.81300E+00-5.92366E-13-3.04808E-13
 -1       524 3.13712E+01 4.16482E+00-1.65886E-01-1.90013E+00-7.80369E-13 7.14012E-14
 -1       525 1.69781E+01-4.01798E-01 1.22917E-01 5.60658E+00-3.94320E-13 9.22526E-14
 -1       526 1.94622E+01 1.57718E+00 6.88438E-03 2.49959E+00 2.15167E-13 7.35119E-14
 -1       527 1.98919E+01 1.18387E+00 4.80976E-03 1.79833E+00 1.37093E-13-4.07166E-14
 -1       528 2.01040E+01 8.31370E-01 3.62810E-03 1.26727E+00 2.26938E-13 2.76338E-14
 -1       529 2.01850E+01 5.63522E-01 2.59238E-03 8.80076E-01 1.41518E-13-5.76715E-14
 -1       530 2.01970E+01 3.74823E-01 1.75183E-03 6.05546E-01 5.65586E-14-3.50628E-14
 -1       531 2.01775E+01 2.47067E-01 1.14408E-03 4.14496E-01-5.04588E-14 1.35739E-13
 -1       532 2.01471E+01 1.62400E-01 7.35745E-04 2.83030E-01-1.04156E-13 6.17647E-14
 -1       533 2.01158E+01 1.06889E-01 4.71245E-04 1.93075E-01-3.88741E-13 2.39016E-13
 -1       534 2.00879E+01 7.06359E-02 3.02533E-04 1.31623E-01-9.20679E-14 9.49515E-14
 -1       535 2.00648E+01 4.69417E-02 1.95403E-04 8.95953E-02-9.04621E-14 2.82730E-14
 -1       536 2.00466E+01 3.13876E-02 1.27125E-04 6.07723E-02-1.36234E-13-3.38932E-14
 -1       537 2.00326E+01 2.11084E-02 8.13888E-05 4.09319E-02-2.87025E-13 1.07538E-13
 -1       538 2.00217E+01 1.39679E-02 5.49833E-05 2.67012E-02-9.23663E-14 2.99351E-13
 -1       539 2.00142E+01 9.43835E-03 3.47086E-05 1.74372E-02-1.77445E-13 4.46136E-13
 -1       540 2.00089E+01 6.35392E-03 2.30026E-05 1.10520E-02-4.54660E-14 4.49261E-13
 -1       541 2.00051E+01 4.23726E-03 1.50093E-05 6.67839E-03 7.77469E-14 3.91987E-13
 -1       542 2.00025E+01 2.77698E-03 9.64894E-06 3.71624E-03 1.95545E-13 3.57060E-13
 -1       543 2.00009E+01 1.76823E-03 6.02347E-06 1.74579E-03 3.04389E-13 1.22656E-13
 -1       544 1.99998E+01 1.07412E-03 3.57602E-06 4.70916E-04 4.15555E-13-1.38491E-13
 -1       545 1.99992E+01 6.01439E-04 1.93825E-06-3.19146E-04 1.74686E-13 2.36625E-13
 -1       546 1.99988E+01 2.85450E-04 8.61068E-07-7.75316E-04 3.02080E-13 4.55201E-13
 -1       547 1.99987E+01 8.03468E-05 1.72942E-07-1.00583E-03 3.35674E-13 3.20461E-13
 -1       548 1.99987E+01-4.68471E-05-2.46473E-07-1.08802E-03 2.35554E-13 4.13790E-13
 -1       549 1.99988E+01-1.20236E-04-4.83800E-07-1.07658E-03-6.45601E-14 4.11099E-13
 -1       550 1.99989E+01-1.57695E-04-6.01644E-07-1.00944E-03-2.89040E-13 6.66760E-13
 -1       551 1.99991E+01-1.72725E-04-6.53361E-07-9.11965E-04-3.15258E-13 6.93138E-13
 -1       552 1.99992E+01-1.75785E-04-6.97024E-07-8.00045E-04-4.59489E-14 7.17497E-13
 -1       553 1.99993E+01-1.74861E-04-6.81634E-07-6.82601E-04-1.18255E-13 5.70441E-13
 -1       554 1.99995E+01-1.76859E-04-7.37130E-07-5.62777E-04 1.92222E-13 3.61042E-13
 -1       555 1.99996E+01-1.87228E-04-6.43807E-07-4.39759E-04-8.50342E-14 2.41275E-14
 -1       556 1.99999E+01-5.66590E-04 2.18904E-07-3.88117E-04-5.83374E-14-9.69972E-14
 -1       557 1.99998E+01-4.57755E-04-2.87989E-07-4.43702E-04-1.09871E-13 5.46268E-14
 -1       558 1.99997E+01-3.30738E-04-3.11577E-07-4.45048E-04-6.95303E-14-9.42687E-14
 -1       559 4.34957E+00-4.85709E-01 2.01827E-01 7.14579E-01-1.24692E-14 6.89088E-13
 -1       560 2.00000E+01-6.51625E-04 3.83452E-07-2.84415E-04-2.15548E-13-5.50496E-13
 -1       561 2.00000E+01-7.04573E-04 4.54338E-07-1.48188E-04-7.15259E-14-4.83097E-13
 -1       562 2.00000E+01-7.21111E-04 4.80806E-07 4.16111E-06-1.09970E-13-1.15049E-13
 -1       563 2.00000E+01-7.00180E-04 4.47856E-07 1.55558E-04 4.01995E-14 2.48344E-13
 -1       564 2.00000E+01-6.45068E-04 3.47022E-07 2.87201E-04 1.95350E-13 1.90956E-13
 -1       565 1.99999E+01-5.58422E-04 2.37797E-07 3.88163E-04 3.72781E-13 4.85900E-13
 -1       566 1.99998E+01-4.47852E-04 1.31615E-07 4.42806E-04 2.03249E-13 6.82393E-14
 -1       567 1.99997E+01-3.23820E-04-2.99022E-07 4.39694E-04 1.18923E-13-3.28799E-13
 -1       568 5.58445E+00-9.98269E-01 2.00521E-01-4.88100E+00 3.61808E-13 8.61408E-13
 -1       569 1.92968E+01 1.71865E+00 2.85215E-02-4.07872E+00 4.19014E-14-5.00589E-14
 -1       570 1.78463E+01-4.51383E+00 8.49941E-02 6.21528E+00-1.67602E-13 2.99968E-14
 -1       571 1.81364E+01-4.71274E+00 9.46745E-02-8.26372E+00 7.72910E-13 3.05374E-13
 -1       572 3.22997E+01 5.76366E+00-1.63908E-01 1.49121E+00-4.31821E-13-7.63514E-13
 -1       573 2.15966E+01-4.58849E+00 8.13065E-02 7.26107E+00 3.68976E-13 4.76383E-14
 -1       574 9.07386E+00-1.57047E+00 1.85192E-01 4.81964E+00-2.99122E-13 6.07209E-13
 -1       575 1.87360E+01 1.83436E+00 1.53385E-02 3.38105E+00 5.37784E-14 1.10516E-13
 -1       576 1.77594E+01 1.49130E+00 4.75648E-02 4.44375E+00-2.56805E-13 1.51774E-13
 -1       577 2.02679E+01 2.36081E+00-6.15431E-03 5.81537E-01 3.60872E-13-5.44827E-13
 -1       578 6.70276E+00-6.14608E-01 2.02146E-01 5.59286E+00 5.28771E-13-8.47294E-13
 -1       579 9.09650E+00-8.48679E-01 1.97352E-01-4.73001E+00-1.98952E-13-1.02719E-12
 -1       580 5.29556E+00 6.28939E-01 2.29601E-01-4.63510E-01 2.18164E-13-1.09149E-12
 -1       581 1.23906E+01-2.50580E+00 1.40391E-01 8.06083E+00 5.47215E-13-4.65628E-13
 -1       582 2.79529E+01-4.12795E+00-1.33918E-02 3.97568E+00-1.12330E-13 2.09430E-13
 -1       583 3.13506E+01-8.53429E-01-8.68299E-02 4.47146E-01-5.37331E-13 2.33320E-13
 -1       584 3.24199E+01 8.61221E+00-1.94019E-01-5.57454E-01-8.93591E-13-3.10942E-13
 -1       585 3.25117E+01 8.39478E+00-2.00594E-01 5.97905E-01-7.76462E-13-5.47205E-13
 -1       586 3.12253E+01 2.99514E-01-1.41161E-01 5.58229E-01-6.41848E-15-9.43357E-13
 -1       587 2.96804E+01-3.12494E+00-4.53033E-02-2.20790E+00 3.71729E-13-7.33177E-13
 -1       588 2.50949E+01-5.06070E+00 1.43468E-02-5.96078E+00 6.16333E-13-8.78256E-14
 -1       589 9.29903E+00-2.47730E+00 1.52097E-01-7.42622E+00 5.14325E-13 9.35696E-13
 -1       590 2.13556E+01 2.15669E+00 9.47131E-03-2.05200E-01 5.02731E-13 4.22332E-13
 -1       591 1.66528E+01-4.35956E+00 1.07322E-01-6.37137E+00-5.65714E-13-7.06622E-13
 -1       592 2.57220E+01-5.74117E+00 2.56253E-02-4.31961E+00-5.83214E-13-7.81077E-14
 -1       593 2.08453E+01 2.02328E+00-6.91233E-03-1.44644E+00-3.48730E-14-6.74471E-13
 -1       594 2.91617E+01 5.95073E+00-1.51534E-01-1.87993E+00-6.84328E-13-1.02994E-13
 -1       595 1.99996E+01-2.11734E-04-6.80228E-07 4.11760E-04-2.95636E-14 1.39713E-13
 -1       596 1.83845E+01 2.51053E+00-5.09293E-04 2.56702E+00 6.09877E-13-3.71060E-13
 -1       597 1.97032E+01 1.82718E+00-1.97192E-03 2.05922E+00 5.08611E-13-3.98837E-13
 -1       598 1.63936E+01 3.85681E+00 4.21104E-03 1.67364E+00 6.62101E-13-3.32562E-13
 -1       599 1.69098E+01 3.79782E+00 1.00086E-04 3.86425E-01 6.05556E-13-2.46665E-13
 -1       600 1.89024E+01 1.36674E+00 1.19437E-03 1.11978E+00 1.59929E-13 3.54698E-13
 -1       601 2.10338E+01 5.40989E-01-1.02743E-03-1.46993E+00-1.57451E-13-4.80447E-13
 -1       602 2.93635E+01 7.29232E-01-8.62317E-02-1.60238E+00-4.37948E-13 2.20882E-13
 -1       603 2.10216E+01 1.30470E-01 1.10947E-04-1.37762E+00-1.52865E-13-3.98359E-13
 -1       604 2.09233E+01 2.64467E-02 1.53038E-04-1.38205E+00-1.53854E-13-3.59887E-13
 -1       605 2.07350E+01 1.84754E-01 2.82900E-04-1.37452E+00-1.58173E-13-3.54655E-13
 -1       606 2.04746E+01 5.30275E-01 4.27226E-04-1.23802E+00-1.69295E-13-3.42756E-13
 -1       607 2.01977E+01 9.32698E-01 4.10872E-04-8.90464E-01-1.56146E-13-3.33103E-13
 -1       608 1.99928E+01 1.22508E+00 4.25506E-04-3.33300E-01-1.20593E-13-3.27908E-13
 -1       609 1.99358E+01 1.27099E+00 5.28953E-04 3.29488E-01-1.19409E-13-3.46998E-13
 -1       610 2.00414E+01 1.03675E+00 5.38125E-04 9.31896E-01-1.18319E-13-3.46583E-13
 -1       611 2.02490E+01 6.10979E-01 3.79827E-04 1.33148E+00-4.75179E-14-3.89561E-13
 -1       612 2.04659E+01 1.38748E-01 2.34232E-04 1.47118E+00 8.29442E-16-4.32786E-13
 -1       613 2.06153E+01-2.49143E-01 9.58283E-05 1.38442E+00 5.15096E-14-3.37391E-13
 -1       614 2.06674E+01-4.87288E-01-3.26521E-06 1.15632E+00 5.15798E-14-2.26773E-13
 -1       615 2.06343E+01-5.76281E-01-1.74997E-04 8.74823E-01-8.47006E-14-1.54563E-13
 -1       616 2.05473E+01-5.54075E-01-2.64789E-04 6.03636E-01-1.50955E-13-2.34656E-13
 -1       617 2.04391E+01-4.68341E-01-2.49696E-04 3.76916E-01-5.13040E-14-1.71589E-13
 -1       618 2.03329E+01-3.59162E-01-2.00876E-04 2.05584E-01-5.36204E-14-2.76180E-13
 -1       619 2.02415E+01-2.52925E-01-1.45342E-04 8.66755E-02-1.07071E-13-3.73857E-13
 -1       620 2.01693E+01-1.63302E-01-9.63759E-05 1.09168E-02 8.13422E-14-3.29992E-13
 -1       621 2.01158E+01-9.48239E-02-5.81165E-05-3.24960E-02 1.81830E-13-2.40939E-13
 -1       622 2.00779E+01-4.66139E-02-3.08448E-05-5.34254E-02 1.30219E-14-2.39103E-13
 -1       623 2.00520E+01-1.52692E-02-1.29537E-05-5.98293E-02 1.38298E-14-2.54089E-13
 -1       624 2.00346E+01 3.31251E-03-2.12690E-06-5.76238E-02 1.24606E-13-2.27403E-13
 -1       625 2.00232E+01 1.29483E-02 3.77818E-06-5.09249E-02 1.20153E-13-1.00806E-13
 -1       626 2.00157E+01 1.67521E-02 6.40960E-06-4.24196E-02 6.77640E-14-1.44485E-13
 -1       627 2.00107E+01 1.70496E-02 7.04240E-06-3.37404E-02-7.13865E-14-5.93684E-14
 -1       628 2.00074E+01 1.54600E-02 6.57686E-06-2.57865E-02-8.10586E-14 2.25540E-14
 -1       629 2.00051E+01 1.30397E-02 5.60240E-06-1.89739E-02 1.19111E-13-1.40622E-14
 -1       630 2.00036E+01 1.04303E-02 4.47621E-06-1.34187E-02 1.29825E-13-2.68152E-13
 -1       631 2.00024E+01 7.98650E-03 3.39705E-06-9.06584E-03 3.01526E-13-1.03894E-13
 -1       632 2.00016E+01 5.87643E-03 2.46014E-06-5.77331E-03 1.14132E-13-1.39232E-13
 -1       633 2.00010E+01 4.15370E-03 1.69794E-06-3.36626E-03-4.70714E-14-3.36668E-13
 -1       634 2.00006E+01 2.80730E-03 1.10799E-06-1.66840E-03 2.50310E-14-2.14277E-13
 -1       635 2.00002E+01 1.79398E-03 6.70576E-07-5.18951E-04-8.69916E-14-4.57065E-13
 -1       636 2.00000E+01 1.05816E-03 3.59432E-07 2.19760E-04-1.74583E-13-3.85549E-13
 -1       637 1.99999E+01 5.43253E-04 1.47700E-07 6.60399E-04 1.91783E-14 8.36527E-15
 -1       638 1.99998E+01 1.97630E-04 1.08461E-08 8.91812E-04 1.62331E-13 1.40541E-13
 -1       639 1.99997E+01-2.29944E-05-7.17452E-08 9.81769E-04-3.20606E-14-9.65540E-14
 -1       640 1.99997E+01-1.55096E-04-1.16328E-07 9.80243E-04-4.78306E-14-3.06219E-13
 -1       641 1.99997E+01-2.27984E-04-1.38871E-07 9.22689E-04 4.44447E-13-1.92984E-13
 -1       642 1.99997E+01-2.64914E-04-1.49320E-07 8.32985E-04-7.51475E-14-2.52559E-13
 -1       643 1.99997E+01-2.84076E-04-1.40942E-07 7.25991E-04-2.95999E-13-5.65969E-13
 -1       644 1.99997E+01-2.99389E-04-2.13827E-07 6.09325E-04 4.91178E-14-3.14130E-13
 -1       645 1.49837E+01-2.46647E+00 1.14536E-01-7.41511E+00 5.93144E-13 4.52090E-13
 -1       646 1.94170E+01 9.67048E-01 8.57130E-04 8.46084E-01 1.77662E-13 5.10511E-13
 -1       647 1.99997E+01-3.13383E-04-3.82603E-08-5.77494E-04 1.50492E-13-6.57813E-14
 -1       648 1.80447E+01 1.85130E+00 2.86784E-03 1.44457E+00 2.33817E-13 3.39621E-13
 -1       649 1.97133E+01 6.67190E-01 6.17377E-04 6.26266E-01 4.50161E-14 4.77236E-13
 -1       650 1.98769E+01 4.53722E-01 4.19713E-04 4.56417E-01-5.18979E-14 3.00329E-13
 -1       651 1.99626E+01 3.06322E-01 2.75356E-04 3.28963E-01-3.63548E-14 2.49203E-13
 -1       652 2.00041E+01 2.06331E-01 1.77948E-04 2.35226E-01-3.70219E-13 1.71471E-13
 -1       653 2.00215E+01 1.39130E-01 1.14978E-04 1.67177E-01-1.90395E-13 8.46996E-14
 -1       654 2.00263E+01 9.41266E-02 7.50091E-05 1.18164E-01 6.79312E-14 1.34568E-13
 -1       655 2.00251E+01 6.39651E-02 4.97900E-05 8.30156E-02-1.31944E-13 1.36733E-13
 -1       656 2.00214E+01 4.36628E-02 3.12119E-05 5.78499E-02-2.02635E-13 1.16689E-13
 -1       657 2.00169E+01 2.93496E-02 2.17371E-05 3.91577E-02-2.01379E-13-2.03813E-13
 -1       658 2.00129E+01 2.01445E-02 1.35422E-05 2.65966E-02-6.30016E-14-2.18391E-13
 -1       659 2.00094E+01 1.37957E-02 8.96690E-06 1.76748E-02-2.71524E-14-3.35324E-13
 -1       660 2.00066E+01 9.38904E-03 5.89170E-06 1.13850E-02-2.91577E-13-2.70400E-13
 -1       661 2.00045E+01 6.31341E-03 3.82094E-06 6.99414E-03 6.66345E-14-9.79570E-14
 -1       662 2.00029E+01 4.16183E-03 2.41155E-06 3.97241E-03 4.31789E-13 1.24570E-13
 -1       663 2.00017E+01 2.65940E-03 1.45475E-06 1.93475E-03 5.14815E-13 2.41458E-13
 -1       664 2.00009E+01 1.61744E-03 8.11474E-07 5.99979E-04 1.31840E-13 2.86364E-13
 -1       665 2.00004E+01 9.04209E-04 3.86093E-07-2.37828E-04-1.40356E-13 3.58160E-13
 -1       666 2.00000E+01 4.26053E-04 1.12218E-07-7.29447E-04 5.41732E-13 4.90191E-13
 -1       667 1.99998E+01 1.15359E-04-5.67152E-08-9.84859E-04 3.42866E-13 5.74083E-13
 -1       668 1.99997E+01-7.73641E-05-1.53628E-07-1.08361E-03 2.63032E-13 5.55978E-13
 -1       669 1.99996E+01-1.88771E-04-2.04001E-07-1.08239E-03-2.59109E-13 6.67120E-13
 -1       670 1.99996E+01-2.46310E-04-2.20391E-07-1.02072E-03-4.27729E-13 8.09032E-13
 -1       671 1.99996E+01-2.70876E-04-2.29418E-07-9.25144E-04 3.21310E-14 6.74028E-13
 -1       672 1.99996E+01-2.78835E-04-2.90827E-07-8.12801E-04-9.43746E-15 1.75785E-13
 -1       673 1.99997E+01-2.93961E-04-3.98123E-07-6.97151E-04 2.13998E-13 5.87140E-14
 -1       674 2.00001E+01-6.36654E-04 1.43609E-07-2.62674E-04 3.86661E-14-2.91091E-13
 -1       675 2.52829E+01-4.06551E+00 4.21649E-03 4.31860E+00 3.00872E-13 1.74738E-13
 -1       676 2.00001E+01-5.75372E-04 1.56109E-07-4.12423E-04-2.11537E-13-3.30169E-13
 -1       677 2.00002E+01-6.62743E-04 1.59173E-07 9.88412E-05 1.75952E-13 2.64995E-13
 -1       678 2.00001E+01-6.28075E-04 1.16288E-07 2.69909E-04 4.24048E-13 4.77386E-13
 -1       679 2.00000E+01-5.63288E-04 8.70662E-08 4.15020E-04 5.91265E-13 3.26928E-13
 -1       680 1.99999E+01-4.72583E-04 1.15603E-07 5.13793E-04 2.95189E-13-1.64168E-13
 -1       681 9.30361E+00 1.19315E+00 1.85566E-01 2.84490E+00-1.95614E-13 3.99202E-13
 -1       682 1.61590E+01 3.05432E+00 2.37973E-02-2.13148E+00 3.08827E-13-2.80534E-13
 -1       683 1.00485E+01-1.35398E-01 1.55244E-01-5.58509E+00 3.49991E-13 6.57890E-13
 -1       684 1.79580E+01-2.09286E+00 9.04410E-02 6.85606E+00 6.58617E-13-1.60526E-13
 -1       685 1.21773E+01 1.70276E+00 9.90927E-02 3.39487E+00-2.75368E-13 3.57183E-13
 -1       686 1.40432E+01 2.15650E+00 8.42113E-02-3.62800E+00 4.79556E-14-4.91607E-13
 -1       687 1.47955E+01 2.48911E+00 3.42661E-02 2.47164E+00-4.09972E-14 4.90424E-14
 -1       688 7.31472E+00 1.36006E+00 1.75781E-01-1.68906E+00 8.40456E-14 6.38115E-13
 -1       689 1.18269E+01 3.49794E-01 1.24780E-01 6.05376E+00 7.07618E-13-5.59643E-13
 -1       690 1.66630E+01 2.33556E+00 8.59425E-03 1.81864E+00 1.15203E-13 2.46909E-13
 -1       691 8.38686E+00 2.24267E+00 1.47602E-01 2.03422E+00 5.04736E-13-7.58248E-13
 -1       692 2.86579E+01 6.29717E+00-1.50291E-01 1.51534E+00-4.38302E-13-6.52124E-13
 -1       693 1.99999E+01-4.88165E-04 3.59980E-08-5.16890E-04-3.09326E-14-4.61811E-14
 -1       694 1.70880E+01 3.29347E+00 7.08566E-04 2.46692E+00 6.69749E-13-3.27266E-13
 -1       695 2.00002E+01-6.66143E-04 1.58287E-07-8.59815E-05 2.82535E-14-5.22669E-13
 -1       696 2.86954E+01-2.71799E+00-3.88205E-02 1.03027E+00-8.04360E-14 2.77146E-13
 -1       697 9.94956E+00 1.73487E+00 1.70370E-01-2.79156E+00 8.65124E-14-8.45962E-13
 -1       698 2.89561E+01 2.70964E+00-9.99708E-02 2.11044E+00-1.15071E-13-7.60225E-13
 -1       699 2.14020E+01 1.16823E+00-2.00169E-03-4.78719E-01 1.51181E-13-5.05433E-13
 -1       700 1.99997E+01-3.10051E-04-2.96213E-07 5.26290E-04 1.19162E-13-2.70883E-13
 -1       701 2.85632E+01 7.39318E+00-1.75275E-01 2.91715E-01-6.15792E-13-5.67481E-13
 -1       702 2.87679E+01-1.96153E+00-6.42911E-02 1.79461E-01 2.27656E-13-7.17277E-13
 -1       703 1.78351E+01 3.13988E+00 8.10940E-03-1.18975E+00 4.48183E-13-1.25604E-13
 -1       704 2.13444E+01 1.13933E+00-2.35748E-03-1.11088E+00 1.44910E-14-5.42053E-13
 -1       705 2.06795E+01 1.40464E+00-2.02023E-03 1.21763E+00 3.93577E-13-4.12225E-13
 -1       706 2.09684E+01 1.14763E+00-1.97341E-03-1.61776E+00-1.61491E-13-5.51872E-13
 -1       707 2.01797E+01-3.96584E+00 6.67172E-02-6.79027E+00 6.14120E-13 2.05046E-13
 -1       708 1.62309E+01-1.11887E+00 1.34914E-01-5.85653E+00-3.83735E-13-5.19314E-13
 -1       709 2.81203E+01 2.88844E+00-8.95887E-02-2.24421E+00-4.70415E-13 3.76661E-14
 -1       710 2.17792E+01-2.67539E+00 2.98579E-02 5.18688E+00 5.48267E-13 3.55879E-15
 -1       711 1.99998E+01-3.88347E-04-1.47691E-09 5.77747E-04 9.78564E-14-2.43388E-13
 -1       712 2.12247E+01 1.21852E+00-1.68927E-03 3.18489E-01 2.61501E-13-4.52031E-13
 -1       713 2.64644E+01-4.28746E+00-1.05091E-02-2.99556E+00 4.46853E-13-5.74893E-13
 -1       714 1.91619E+01 9.25122E-01 3.26184E-05 4.04509E-01 7.89411E-14 4.13267E-13
 -1       715 1.50046E+01 3.66119E+00-1.84816E-05 1.18423E+00 5.55989E-13-3.78652E-13
 -1       716 1.77127E+01-1.94063E+00 4.13026E-02-5.92709E+00 3.77105E-13 2.53141E-13
 -1       717 2.00004E+01-6.33976E-04 8.17405E-08 1.03269E-05 3.25623E-13 2.41974E-13
 -1       718 2.87254E+01 6.88104E+00-1.37590E-01-1.10451E+00-6.54532E-13-2.75788E-13
 -1       719 2.64563E+01 3.98817E+00-6.38979E-02 2.01243E+00-2.08149E-13-5.82904E-13
 -1       720 1.39705E+01 8.38322E-02 7.81279E-02-5.14560E+00 2.91924E-13 5.40014E-13
 -1       721 2.17375E+01-5.88716E-03-4.58484E-04-1.36970E+00-1.03550E-13-3.60079E-13
 -1       722 2.17814E+01 3.56358E-02 4.28733E-05-1.48918E+00-1.38648E-13-2.92126E-13
 -1       723 2.16597E+01 4.24969E-01 6.56850E-05-1.53164E+00-1.54516E-13-2.32424E-13
 -1       724 2.14001E+01 1.03777E+00 3.70813E-05-1.34347E+00-1.86549E-13-2.47263E-13
 -1       725 2.11083E+01 1.63396E+00-7.28181E-05-8.34184E-01-1.43762E-13-2.51073E-13
 -1       726 2.09309E+01 1.93349E+00 9.37761E-05-6.56027E-02-1.29756E-13-3.10291E-13
 -1       727 2.09535E+01 1.77333E+00 4.66399E-04 7.47613E-01-1.28859E-13-2.97253E-13
 -1       728 2.11441E+01 1.20603E+00-5.94373E-05 1.35000E+00-5.76175E-14-2.63765E-13
 -1       729 2.13632E+01 4.68760E-01-4.06537E-04 1.60936E+00-2.06918E-14-2.41482E-13
 -1       730 2.14850E+01-1.93163E-01-9.17991E-05 1.53833E+00 7.40428E-14-2.53611E-13
 -1       731 2.14527E+01-6.30051E-01 4.75825E-04 1.26120E+00 9.45728E-14-2.60846E-13
 -1       732 2.12895E+01-8.21782E-01 1.98267E-04 9.13999E-01 5.61563E-14-2.37656E-13
 -1       733 2.10541E+01-8.23260E-01-9.50354E-05 5.89435E-01-1.08028E-13-1.48431E-13
 -1       734 2.08037E+01-7.11935E-01-1.17098E-04 3.31329E-01-1.22561E-13-9.54518E-14
 -1       735 2.05773E+01-5.54988E-01-8.99605E-05 1.48102E-01-9.94194E-14-1.80085E-13
 -1       736 2.03930E+01-3.96761E-01-5.78957E-05 3.00654E-02-9.81581E-14-1.60682E-13
 -1       737 2.02546E+01-2.60668E-01-3.36726E-05-3.83827E-02 8.34249E-14-1.06910E-13
 -1       738 2.01569E+01-1.55123E-01-1.73348E-05-7.24408E-02 1.93283E-13-7.63693E-14
 -1       739 2.00918E+01-7.96993E-02-7.37496E-06-8.44031E-02 1.89633E-13-4.00912E-14
 -1       740 2.00507E+01-2.97710E-02-2.26358E-06-8.32539E-02 4.13993E-14 5.44483E-14
 -1       741 2.00260E+01 5.73042E-04 1.79416E-07-7.51256E-02 5.64319E-14 5.47045E-14
 -1       742 2.00122E+01 1.69726E-02 1.47157E-06-6.39695E-02 1.02574E-13-1.03189E-13
 -1       743 2.00050E+01 2.41095E-02 1.96346E-06-5.21759E-02 8.85787E-14-8.02576E-14
 -1       744 2.00016E+01 2.55345E-02 1.96782E-06-4.10815E-02 7.75866E-14 6.97040E-14
 -1       745 2.00004E+01 2.37617E-02 1.73100E-06-3.13419E-02-7.40264E-14 6.04960E-14
 -1       746 2.00001E+01 2.04641E-02 1.40799E-06-2.31917E-02-1.41419E-13 9.09078E-14
 -1       747 2.00003E+01 1.66845E-02 1.08098E-06-1.66198E-02-8.16768E-14-3.36054E-14
 -1       748 2.00005E+01 1.30220E-02 7.91592E-07-1.14841E-02 2.31609E-13-1.67562E-13
 -1       749 2.00007E+01 9.78070E-03 5.54380E-07-7.58393E-03 1.33146E-13-3.60367E-13
 -1       750 2.00009E+01 7.07875E-03 3.69586E-07-4.70411E-03 7.14702E-14-1.97329E-13
 -1       751 2.00009E+01 4.92565E-03 2.31418E-07-2.63954E-03 5.62764E-14-5.50295E-14
 -1       752 2.00008E+01 3.27316E-03 1.31976E-07-1.20798E-03-6.48403E-15 3.34372E-14
 -1       753 2.00007E+01 2.04765E-03 6.32050E-08-2.54939E-04-1.68705E-13 6.29491E-14
 -1       754 2.00006E+01 1.16921E-03 1.77858E-08 3.45858E-04 3.67146E-14-4.61816E-15
 -1       755 2.00005E+01 5.62185E-04-1.06725E-08 6.94567E-04 2.64509E-13 5.86586E-14
 -1       756 2.00003E+01 1.60079E-04-2.78835E-08 8.68443E-04 4.73269E-14 1.02619E-13
 -1       757 2.00002E+01-9.28410E-05-3.67110E-08 9.25441E-04-6.90301E-14 1.77057E-13
 -1       758 2.00001E+01-2.41834E-04-3.56992E-08 9.07728E-04 1.80899E-13-3.67483E-14
 -1       759 2.00000E+01-3.22912E-04-2.40030E-08 8.44821E-04 8.65032E-14-5.15150E-13
 -1       760 2.00000E+01-3.64362E-04 1.71055E-08 7.56417E-04-2.32850E-13-6.72772E-13
 -1       761 1.99999E+01-3.78130E-04-1.38421E-07 6.70995E-04 5.96883E-14-3.60384E-13
 -1       762 1.86060E+01 1.28004E+00 7.86961E-06 4.39066E-01 7.89903E-14 3.27289E-13
 -1       763 2.00001E+01-4.93983E-04 1.59634E-07 5.47459E-04 2.71617E-13 9.93221E-15
 -1       764 1.77292E+01 1.71431E+00 5.22461E-04 4.10677E-01 9.48072E-14 3.13034E-13
 -1       765 1.97190E+01 4.57355E-01 4.32319E-05 2.78027E-01 1.89169E-13 1.52958E-13
 -1       766 1.98452E+01 3.17340E-01 2.95543E-05 2.17512E-01-6.53609E-14 8.45182E-14
 -1       767 1.99191E+01 2.19612E-01 1.93988E-05 1.66213E-01-1.54178E-13-8.40322E-14
 -1       768 1.99611E+01 1.52019E-01 1.44306E-05 1.24763E-01-1.23801E-13-1.48556E-13
 -1       769 1.99842E+01 1.05451E-01 1.14875E-05 9.22604E-02 2.77118E-14-7.45141E-14
 -1       770 1.99963E+01 7.33322E-02 6.83385E-06 6.72469E-02 5.41081E-14-3.23270E-13
 -1       771 2.00023E+01 5.02129E-02 4.85719E-06 4.75271E-02-7.72569E-14-3.36109E-13
 -1       772 2.00046E+01 3.50576E-02 3.60908E-06 3.35939E-02-1.17493E-13-3.18630E-13
 -1       773 2.00051E+01 2.44290E-02 2.26619E-06 2.32683E-02-8.26745E-14-1.99408E-13
 -1       774 2.00048E+01 1.69391E-02 1.54980E-06 1.57137E-02-2.48786E-13-9.09069E-14
 -1       775 2.00041E+01 1.16364E-02 1.04704E-06 1.02556E-02-8.31844E-14-1.28793E-13
 -1       776 2.00034E+01 7.87392E-03 6.80539E-07 6.37097E-03 7.67807E-14-2.16595E-13
 -1       777 2.00027E+01 5.20742E-03 4.20016E-07 3.65695E-03 2.32203E-13 6.97791E-14
 -1       778 2.00020E+01 3.32751E-03 2.39532E-07 1.80518E-03 2.74024E-13 2.70931E-13
 -1       779 2.00015E+01 2.01552E-03 1.17913E-07 5.80868E-04 2.40454E-14 2.33664E-13
 -1       780 2.00011E+01 1.11445E-03 3.85842E-08-1.93626E-04 1.68984E-13-5.67800E-14
 -1       781 2.00008E+01 5.09998E-04-1.09622E-08-6.51573E-04 2.55316E-13 1.71490E-13
 -1       782 2.00005E+01 1.17956E-04-3.97753E-08-8.91907E-04 2.87215E-13 2.77795E-13
 -1       783 2.00003E+01-1.24326E-04-5.33114E-08-9.87046E-04-1.97176E-13 6.88240E-13
 -1       784 2.00001E+01-2.63824E-04-6.12994E-08-9.88983E-04-2.72540E-13 5.67546E-13
 -1       785 2.00000E+01-3.35985E-04-3.54434E-08-9.34025E-04 1.21835E-13 1.24388E-13
 -1       786 1.99999E+01-3.68029E-04-7.97209E-08-8.47608E-04-1.55786E-13 1.22304E-13
 -1       787 2.00002E+01-5.84422E-04 7.62364E-08-3.93076E-04-2.82831E-13-1.20134E-13
 -1       788 1.96432E+01 9.72053E-01-1.18029E-03 3.01311E+00 5.46134E-13-2.78919E-13
 -1       789 1.17271E+01 3.12675E+00 9.15363E-02-7.30642E-01 3.40654E-13-5.85650E-13
 -1       790 2.63588E+01 6.19402E+00-9.78820E-02-3.84754E-01-4.11303E-13-3.49046E-13
 -1       791 2.00001E+01-5.16932E-04-1.57596E-07-5.45760E-04 2.16994E-14-5.39749E-13
 -1       792 2.00002E+01-5.67596E-04 9.77474E-10 4.02334E-04 5.75284E-13 5.16257E-13
 -1       793 2.00003E+01-6.14579E-04 3.18939E-08 2.17241E-04 5.16454E-13 4.64690E-13
 -1       794 2.73243E+01-1.15474E+00-3.25679E-02-8.22726E-01-7.79351E-14 2.28146E-13
 -1       795 2.00003E+01-6.24261E-04 1.58640E-08-2.00564E-04-2.55646E-13-4.11353E-13
 -1       796 1.95079E+01 6.54651E-01 5.01683E-05 3.43807E-01 2.75694E-14 3.69441E-13
 -1       797 1.42377E+01 2.58249E+00 3.08382E-02 2.07773E-01-5.97494E-14 3.88233E-13
 -1       798 2.15668E+01 3.20982E-01 1.01570E-03-1.30510E+00-7.24397E-14-4.33784E-13
 -1       799 1.63801E+01 2.17207E+00 2.28178E-03 2.73422E-01 1.55695E-13 3.02846E-13
 -1       800 1.22044E+01 2.59676E+00 7.19222E-02 3.34668E+00 6.22041E-13-5.47520E-13
 -1       801 2.63877E+01-2.83055E+00-1.77528E-02 1.47714E+00 1.70689E-13 2.24228E-13
 -1       802 2.68234E+01 5.26827E+00-9.22519E-02-1.66483E+00-5.06539E-13-2.00666E-13
 -1       803 1.99999E+01-4.14285E-04 5.27101E-07-6.60749E-04 3.76630E-13 1.25000E-13
 -1       804 2.70958E+01 9.75510E-02-4.62971E-02 1.77776E+00 5.21128E-14-6.17244E-13
 -1       805 2.63657E+01-2.74958E+00-2.12738E-02-4.06111E-01 2.59231E-13-5.32278E-13
 -1       806 1.50480E+01 3.61073E+00 2.47234E-02-4.60797E-01 4.56298E-13-3.34141E-13
 -1       807 2.63998E+01 5.95889E+00-9.82341E-02 8.13386E-01-3.94504E-13-4.76960E-13
 -1       808 1.10228E+01 1.70999E+00 6.87191E-02-2.84445E+00 2.09963E-13 4.29962E-13
 -1       809 1.59505E+01 5.46288E-01 5.16038E-02 5.34202E+00 6.99678E-13-3.38120E-13
 -1       810 2.30120E+01-3.59231E+00 2.87512E-02-4.28457E+00 4.85660E-13-3.22469E-13
 -1       811 2.11261E+01 4.06814E-01-1.10070E-03 2.00139E+00 4.39784E-13-3.11136E-13
 -1       812 1.57471E+01 3.08710E+00 1.81072E-02 2.78739E+00 6.44038E-13-3.66655E-13
 -1       813 1.76387E+01 1.94932E+00 3.28541E-03 3.43312E+00 6.61855E-13-3.09785E-13
 -1       814 2.40153E+01-2.46423E+00 1.11389E-02 2.85737E+00 4.07050E-13 3.66794E-14
 -1       815 2.20841E+01 2.95523E-01-2.67219E-05-1.16549E-01 1.73656E-13-3.86565E-13
 -1       816 1.99999E+01-3.93801E-04 2.60192E-07-7.54677E-04 1.50419E-13 3.15970E-13
 -1       817 2.67871E+01 4.32238E-01-3.68138E-02-1.82489E+00-1.95768E-13 1.93247E-13
 -1       818 1.05236E+01 2.30969E+00 1.45520E-01 8.24035E-01-1.10238E-13 2.05572E-13
 -1       819 2.00000E+01-4.37740E-04-1.79335E-07 6.18400E-04 9.06717E-14-3.32909E-13
 -1       820 2.19139E+01 3.99727E-01-1.21731E-03-8.32367E-01 4.13128E-14-3.92556E-13
 -1       821 1.90564E+01-4.82484E-01 1.76077E-02 4.87114E+00 6.44429E-13-1.73241E-13
 -1       822 2.44073E+01-3.16326E+00-2.47817E-03-1.95653E+00 3.24417E-13-4.48541E-13
 -1       823 1.68095E+01-3.91066E-01 2.40126E-02-4.55721E+00 3.52106E-13 2.19965E-13
 -1       824 1.15065E+01 2.60252E+00 9.49496E-02 8.38607E-02 5.29893E-15 2.68202E-13
 -1       825 2.27642E+01 7.09575E-02-5.26722E-04-1.57218E+00-1.12866E-13-1.83028E-13
 -1       826 2.26686E+01 8.19647E-01-2.45355E-03-1.68790E+00-1.26329E-13-1.58821E-13
 -1       827 2.23638E+01 1.80738E+00-1.45156E-03-1.40796E+00-2.03267E-13-9.70481E-14
 -1       828 2.20461E+01 2.58638E+00-1.22294E-03-6.51189E-01-1.96560E-13-1.21652E-13
 -1       829 2.19459E+01 2.71133E+00-8.61300E-04 3.82206E-01-1.56540E-13-2.40509E-13
 -1       830 2.20791E+01 2.12691E+00-4.80993E-03 1.28385E+00-6.98093E-14-2.41531E-13
 -1       831 2.23808E+01 1.03136E+00 2.67402E-03 1.73846E+00-8.83974E-14-2.87105E-13
 -1       832 2.25046E+01-1.69264E-02-1.12651E-03 1.67526E+00 2.06725E-14-3.69910E-13
 -1       833 2.23972E+01-7.55098E-01 5.74553E-04 1.31015E+00 1.21854E-13-3.97957E-13
 -1       834 2.20837E+01-1.09850E+00 7.89973E-04 8.55860E-01 1.16180E-13-3.44134E-13
 -1       835 2.16650E+01-1.13655E+00-1.62168E-04 4.55708E-01 2.31276E-14-2.28637E-13
 -1       836 2.12373E+01-9.91985E-01-1.73369E-04 1.65742E-01-2.57898E-14-2.15406E-13
 -1       837 2.08633E+01-7.75193E-01-8.74589E-05-1.44495E-02-7.48711E-14-4.91127E-15
 -1       838 2.05671E+01-5.54174E-01-4.28602E-05-1.09884E-01-2.51106E-14 1.55132E-13
 -1       839 2.03503E+01-3.64134E-01-1.94275E-05-1.48738E-01-3.28530E-14 1.55166E-13
 -1       840 2.02015E+01-2.17059E-01-4.55283E-06-1.54094E-01 2.01307E-13-4.58030E-14
 -1       841 2.01053E+01-1.12060E-01 2.47163E-06-1.41956E-01 3.10463E-13-1.95448E-14
 -1       842 2.00469E+01-4.24487E-02 2.81010E-06-1.22314E-01 1.52900E-13 3.81013E-14
 -1       843 2.00141E+01 7.15595E-05 1.18438E-06-1.00871E-01 1.75619E-14 2.75566E-14
 -1       844 1.99975E+01 2.32931E-02 7.32443E-07-8.05955E-02 1.38078E-14-1.89987E-14
 -1       845 1.99907E+01 3.36558E-02 6.18925E-07-6.28006E-02 2.65619E-14-2.04046E-13
 -1       846 1.99892E+01 3.60267E-02 4.79892E-07-4.78786E-02 1.58091E-13-2.69973E-13
 -1       847 1.99904E+01 3.38578E-02 3.20867E-07-3.57548E-02 6.37482E-15-2.74349E-13
 -1       848 1.99926E+01 2.94599E-02 1.83556E-07-2.61396E-02-1.00137E-13-1.65364E-13
 -1       849 1.99949E+01 2.42890E-02 7.99520E-08-1.86677E-02-1.40159E-13-1.43689E-13
 -1       850 1.99970E+01 1.91967E-02 1.50873E-08-1.29692E-02-6.62688E-14-2.03230E-14
 -1       851 1.99986E+01 1.46283E-02-1.88970E-08-8.70293E-03 1.26622E-15-3.18562E-13
 -1       852 1.99997E+01 1.07704E-02-3.33084E-08-5.57110E-03 2.93233E-13-2.11512E-13
 -1       853 2.00005E+01 7.65514E-03-3.65263E-08-3.32186E-03 1.54388E-13-2.17300E-13
 -1       854 2.00009E+01 5.23007E-03-3.39618E-08-1.74752E-03 1.28209E-13-7.13565E-14
 -1       855 2.00011E+01 3.40298E-03-2.88941E-08-6.80075E-04-2.25981E-14 2.02367E-13
 -1       856 2.00011E+01 2.06924E-03-2.32167E-08 1.39090E-05-2.19384E-13 3.13041E-13
 -1       857 2.00011E+01 1.12721E-03-1.80684E-08 4.38646E-04 5.98730E-14 1.81086E-13
 -1       858 2.00009E+01 4.85933E-04-1.49585E-08 6.74082E-04 2.67417E-13 2.07402E-13
 -1       859 2.00008E+01 6.81233E-05-1.81995E-08 7.80388E-04 1.00328E-13 1.66718E-13
 -1       860 2.00006E+01-1.89691E-04-1.33025E-08 8.01827E-04-6.75188E-14 9.57391E-14
 -1       861 2.00004E+01-3.38257E-04-2.10283E-08 7.70030E-04 3.52179E-14 2.18621E-14
 -1       862 2.00003E+01-4.18760E-04-2.68035E-07 7.06604E-04-2.42886E-13-9.93068E-14
 -1       863 1.98816E+01 2.08618E-01-7.86746E-06 9.86124E-02-4.61774E-14 1.96495E-13
 -1       864 1.80497E+01 1.32728E+00-1.30110E-04-3.11923E-01 1.55289E-13 1.52926E-13
 -1       865 2.18865E+01 2.42220E-01 3.20085E-04 8.66143E-01 2.84526E-13-2.92211E-13
 -1       866 1.98029E+01 2.92372E-01-1.73696E-05 1.14689E-01-4.69466E-14 2.23996E-13
 -1       867 1.96781E+01 4.08003E-01-1.73588E-05 1.22709E-01 1.02124E-13 2.71663E-13
 -1       868 1.99306E+01 1.48647E-01-2.48548E-06 8.05371E-02-1.65179E-14-1.59294E-13
 -1       869 1.99607E+01 1.05886E-01-1.31600E-06 6.33569E-02-1.87380E-14 9.11047E-14
 -1       870 1.99795E+01 7.41807E-02-2.21313E-06 4.77698E-02 6.24222E-14 1.84731E-13
 -1       871 1.99900E+01 5.28476E-02 2.62216E-07 3.55708E-02-3.68356E-14 6.88881E-14
 -1       872 1.99961E+01 3.75429E-02-1.98304E-07 2.58237E-02-1.85615E-13 2.79506E-14
 -1       873 1.99995E+01 2.65374E-02-6.86740E-08 1.82591E-02-1.31998E-13-7.52418E-14
 -1       874 2.00013E+01 1.86009E-02-3.62687E-10 1.25214E-02-1.68514E-13-1.56165E-13
 -1       875 2.00021E+01 1.28724E-02 1.90426E-08 8.26262E-03-9.43595E-14-4.88726E-14
 -1       876 2.00024E+01 8.74469E-03 1.56940E-08 5.17046E-03-1.30506E-13 1.05997E-13
 -1       877 2.00023E+01 5.78545E-03 6.09057E-09 2.97863E-03 1.92252E-13 1.86491E-13
 -1       878 2.00021E+01 3.68279E-03-3.11867E-09 1.46785E-03-8.17417E-14 3.61940E-13
 -1       879 2.00018E+01 2.20892E-03-9.88787E-09 4.62214E-04 2.11954E-13 4.66958E-13
 -1       880 2.00015E+01 1.19552E-03-1.42185E-08-1.76452E-04 2.78964E-13 2.59399E-13
 -1       881 2.00012E+01 5.17020E-04-1.71260E-08-5.54578E-04 2.48171E-13 3.89224E-14
 -1       882 2.00010E+01 7.91068E-05-1.83785E-08-7.52607E-04-1.60448E-13 3.68833E-13
 -1       883 2.00007E+01-1.89429E-04-1.40921E-08-8.30100E-04-3.03200E-13 3.33990E-13
 -1       884 2.00005E+01-3.42660E-04-1.53913E-08-8.30138E-04 2.45540E-13-1.01674E-13
 -1       885 2.00003E+01-4.21223E-04 9.03040E-08-7.82282E-04 8.17172E-14-1.92241E-13
 -1       886 1.53366E+01 1.93209E+00 9.78608E-03-1.44072E+00 1.50262E-13 2.65398E-13
 -1       887 2.00003E+01-5.02026E-04 3.74625E-07 5.43502E-04-4.73425E-14-2.37228E-15
 -1       888 2.57934E+01 3.15063E+00-4.28397E-02-2.10116E+00-2.97796E-13-4.57186E-15
 -1       889 2.55398E+01-1.60704E+00-8.06743E-03-1.11286E-01 1.01476E-13 1.22729E-13
 -1       890 2.00003E+01-5.30442E-04-9.06540E-08-5.30875E-04 1.39652E-13-6.82543E-13
 -1       891 1.40553E+01 1.50918E+00 4.12163E-02-3.06567E+00 9.27405E-14 4.17427E-13
 -1       892 1.87270E+01 1.02922E+00-1.03647E-04-6.29003E-02 1.65255E-13 1.35634E-13
 -1       893 2.25883E+01-2.02911E-01 4.58717E-04-1.29089E+00-6.04927E-14-2.08115E-13
 -1       894 2.23267E+01-6.99236E-02-2.18743E-04-1.02536E+00-1.37067E-14-2.70320E-13
 -1       895 1.70713E+01 1.61625E+00 5.59844E-04-7.66463E-01 1.81278E-13 2.75917E-13
 -1       896 2.48943E+01 1.75397E+00-1.72136E-02 2.11163E+00-1.17884E-13-4.15052E-13
 -1       897 2.03279E+01-1.99617E+00 1.91940E-02-4.18532E+00 4.00666E-13-1.98600E-13
 -1       898 2.49008E+01 4.79352E+00-4.30962E-02-1.00580E+00-3.65354E-13-1.60741E-13
 -1       899 2.45523E+01 4.23755E+00-3.03518E-02 1.24107E+00-2.09746E-13-3.91380E-13
 -1       900 2.53613E+01-1.14002E+00-1.40336E-02 1.20531E+00 8.44559E-14-3.34293E-13
 -1       901 2.45880E+01 4.95642E+00-4.46416E-02 1.62718E-01-2.81693E-13-2.95363E-13
 -1       902 1.91823E+01 7.71006E-01-4.72246E-05 6.05740E-02-2.00133E-14 1.60084E-13
 -1       903 2.00005E+01-5.80562E-04 4.52198E-10-3.30062E-04-5.82597E-14-2.57907E-13
 -1       904 1.94829E+01 5.64810E-01-1.47451E-05 1.11306E-01 1.33229E-13 2.13898E-13
 -1       905 2.00001E+01-4.34128E-04-1.77857E-07 6.68727E-04 1.00602E-13-2.66176E-13
 -1       906 2.46460E+01-2.21035E+00 1.03679E-03 1.01532E-02 2.20220E-13-3.16506E-13
 -1       907 2.42320E+01-1.67705E+00 1.48294E-03 1.04268E+00 2.39405E-13 3.46706E-14
 -1       908 2.29616E+01-5.41832E-01 2.79359E-03 1.88301E-01 1.82570E-13-2.39256E-13
 -1       909 2.00002E+01-4.62812E-04-3.51097E-07-7.05989E-04 6.68856E-14-6.49080E-13
 -1       910 2.15978E+01-1.07873E+00 6.04399E-03 3.47849E+00 5.17367E-13-1.38714E-13
 -1       911 2.00005E+01-5.60492E-04-2.98857E-08 3.55193E-04 2.78687E-13 6.13622E-13
 -1       912 2.55104E+01-8.00843E-01-1.40702E-02-1.11583E+00-2.39287E-14 1.17488E-13
 -1       913 2.00005E+01-5.99446E-04 8.58221E-08-1.01067E-04 2.94749E-13 4.94674E-13
 -1       914 2.27247E+01-2.67123E-01 1.19680E-03-5.36207E-01 1.02535E-13-2.92937E-13
 -1       915 2.22704E+01-2.42887E+00-1.31667E-03-2.68927E+00 3.32555E-13-2.42754E-13
 -1       916 2.00005E+01-5.91579E-04 1.07475E-07 1.34108E-04 3.70838E-13 4.34241E-13
 -1       917 2.38513E+01 1.49132E+00 1.22190E-04-1.87741E+00-1.45176E-13-1.16225E-13
 -1       918 2.34503E+01 2.97378E+00-9.98349E-03-1.42752E+00-2.36927E-13-1.14650E-13
 -1       919 2.31853E+01 3.36387E+00-2.69157E-02 1.03877E+00-9.00195E-14-2.06020E-13
 -1       920 2.35355E+01-8.44519E-01 9.67597E-05 1.33572E+00 1.06567E-13-2.24052E-13
 -1       921 2.30445E+01-1.42928E+00-1.01703E-04 7.12139E-01 1.47036E-13-1.73769E-13
 -1       922 2.23686E+01-1.50424E+00-8.37931E-04 1.86307E-01 1.30491E-13-1.54382E-13
 -1       923 2.17053E+01-1.30987E+00 3.07313E-06-1.54499E-01 2.75357E-14-5.88452E-14
 -1       924 2.11481E+01-1.00832E+00-1.18458E-04-3.13898E-01 7.49610E-14 1.48509E-14
 -1       925 2.07238E+01-7.07591E-01-4.24477E-05-3.57185E-01 4.90549E-14 3.84389E-14
 -1       926 2.04240E+01-4.55281E-01-1.11293E-05-3.36897E-01 1.62910E-14 1.55350E-13
 -1       927 2.02253E+01-2.64433E-01 4.17690E-06-2.88571E-01-1.38616E-14 1.92153E-13
 -1       928 2.01016E+01-1.30907E-01 1.50945E-05-2.33133E-01 1.56069E-13 1.21116E-13
 -1       929 2.00299E+01-4.39968E-02 8.85029E-06-1.81250E-01 1.64723E-13-1.01543E-13
 -1       930 1.99923E+01 8.15215E-03 2.33203E-06-1.37249E-01 1.15179E-13-9.41259E-14
 -1       931 1.99757E+01 3.59462E-02 1.64356E-08-1.01981E-01-2.06992E-14-9.65048E-14
 -1       932 1.99711E+01 4.77802E-02-1.84872E-07-7.47128E-02 4.21225E-14-1.90388E-13
 -1       933 1.99729E+01 4.98139E-02-2.62071E-07-5.40923E-02-2.06683E-14-9.21351E-14
 -1       934 1.99775E+01 4.63441E-02-3.76785E-07-3.87307E-02 1.48582E-13-2.17626E-13
 -1       935 1.99829E+01 4.02216E-02-3.94169E-07-2.74026E-02 1.75915E-14-3.12386E-13
 -1       936 1.99879E+01 3.32274E-02-3.91340E-07-1.91127E-02-6.50380E-14-2.13383E-13
 -1       937 1.99921E+01 2.64011E-02-3.47781E-07-1.30881E-02 4.34542E-14-6.61426E-14
 -1       938 1.99954E+01 2.02846E-02-2.82874E-07-8.74239E-03-9.80240E-15 1.05291E-13
 -1       939 1.99978E+01 1.51039E-02-2.13953E-07-5.63688E-03 8.64161E-14 4.63378E-14
 -1       940 1.99995E+01 1.08957E-02-1.51165E-07-3.44505E-03 1.65373E-13-2.39163E-13
 -1       941 2.00005E+01 7.59271E-03-9.88770E-08-1.92374E-03 2.59631E-13-1.75392E-13
 -1       942 2.00011E+01 5.07780E-03-5.80634E-08-8.91665E-04 3.24371E-13 1.69300E-13
 -1       943 2.00014E+01 3.21782E-03-2.79610E-08-2.13405E-04-1.21770E-13 1.57210E-13
 -1       944 2.00015E+01 1.88264E-03-7.07599E-09 2.12126E-04-2.85513E-13 7.30370E-14
 -1       945 2.00014E+01 9.55022E-04 5.98497E-09 4.60160E-04 2.24419E-13 1.53865E-14
 -1       946 2.00012E+01 3.34632E-04 9.07892E-09 5.86290E-04 1.97853E-13-2.28313E-13
 -1       947 2.00010E+01-6.13193E-05-1.85595E-09 6.31140E-04-5.32239E-14-2.67295E-13
 -1       948 2.00008E+01-2.99371E-04-3.44953E-08 6.24245E-04-4.50496E-15-5.59961E-14
 -1       949 2.00006E+01-4.35076E-04 5.44330E-08 5.86410E-04-1.16081E-13-1.53962E-13
 -1       950 1.99217E+01 1.34594E-01-8.92383E-06 4.25629E-02-1.63759E-13-4.09880E-14
 -1       951 1.65270E+01 7.56563E-01 1.14362E-02-3.02599E+00 3.11377E-13 1.83143E-13
 -1       952 2.27306E+01-7.73765E-01 1.26716E-03 1.44071E+00 3.08198E-13-1.34762E-13
 -1       953 2.36118E+01-4.82405E-01 8.95978E-04-1.15222E+00-3.82839E-14-1.43981E-13
 -1       954 1.98080E+01 2.47586E-01-1.17308E-05 3.60392E-02 1.15475E-13-3.76218E-14
 -1       955 1.97056E+01 3.32625E-01-4.36447E-05 1.11108E-02 9.33609E-14 5.15662E-14
 -1       956 1.99526E+01 9.71410E-02-2.03704E-06 3.68922E-02-5.56768E-14-1.41510E-14
 -1       957 1.99715E+01 7.09515E-02-5.66290E-08 3.01512E-02 1.67834E-13 2.27209E-13
 -1       958 1.99836E+01 5.15693E-02-1.28087E-06 2.35224E-02-6.94517E-15-1.96199E-15
 -1       959 1.99914E+01 3.72411E-02-8.93269E-07 1.76554E-02-9.44189E-14-2.71853E-13
 -1       960 1.99962E+01 2.66538E-02-5.96321E-07 1.27806E-02-1.52847E-13-1.16304E-13
 -1       961 1.99991E+01 1.88443E-02-3.88200E-07 8.90801E-03-1.67874E-13-2.70449E-14
 -1       962 2.00008E+01 1.31048E-02-2.51097E-07 5.94027E-03-1.69760E-13-2.16287E-13
 -1       963 2.00016E+01 8.91263E-03-1.61082E-07 3.73741E-03-1.24069E-13-1.95259E-13
 -1       964 2.00020E+01 5.87886E-03-1.01441E-07 2.15250E-03-7.85751E-14-7.30078E-14
 -1       965 2.00021E+01 3.71131E-03-6.18359E-08 1.04966E-03 1.77734E-13-2.54047E-13
 -1       966 2.00020E+01 2.18900E-03-3.59261E-08 3.11749E-04 2.77099E-13 6.23619E-14
 -1       967 2.00018E+01 1.14380E-03-2.01597E-08-1.57516E-04 3.19226E-13 3.94691E-13
 -1       968 2.00015E+01 4.47398E-04-1.41049E-08-4.34527E-04-1.10492E-13 5.54888E-13
 -1       969 2.00012E+01 1.71601E-06-2.20092E-08-5.78140E-04-2.04053E-13 4.02028E-13
 -1       970 2.00010E+01-2.68412E-04 2.66974E-08-6.32214E-04 4.77404E-13-2.20452E-13
 -1       971 2.00007E+01-4.18758E-04 4.57074E-08-6.30069E-04 3.33544E-13-4.08839E-13
 -1       972 2.00005E+01-4.96990E-04-6.32062E-08-5.90711E-04 2.47845E-13-7.17185E-13
 -1       973 1.88646E+01-7.01864E-01 4.31477E-03-3.49663E+00 4.20010E-13-5.82204E-14
 -1       974 1.86014E+01 8.78079E-01 1.35952E-04-6.81444E-01 1.86717E-13-8.22692E-15
 -1       975 1.80413E+01 9.75825E-01 7.80453E-04-1.22671E+00 1.18850E-13-1.34100E-13
 -1       976 1.73696E+01 9.76441E-01 4.31042E-03-1.96817E+00 2.31178E-13-6.01255E-15
 -1       977 2.49776E+01 1.34588E+00-1.28299E-02-2.02457E+00-1.63838E-13-1.20632E-14
 -1       978 2.39208E+01 1.63122E-01-6.07286E-03-1.66603E+00-9.03251E-14-5.09037E-14
 -1       979 1.98764E+01 1.83001E-01-6.34761E-06 4.37987E-02 3.78457E-14 9.89891E-15
 -1       980 2.00008E+01-5.42841E-04 2.47161E-09 2.53704E-05 3.63043E-13 5.08390E-13
 -1       981 2.32260E+01-5.22230E-01 2.53771E-05-8.08436E-01 3.12435E-14-2.29780E-13
 -1       982 1.95550E+01 4.41200E-01-1.88382E-05-4.47908E-02 2.03634E-13 1.97966E-14
 -1       983 2.31616E+01 3.78791E+00-1.41308E-02-1.72221E-01-2.76512E-13-1.82203E-13
 -1       984 2.37964E+01 4.78587E-02-3.28495E-03 1.73992E+00-2.87223E-14-2.43701E-13
 -1       985 2.42062E+01-1.04735E+00-1.58970E-03-4.10015E-01 1.03149E-13-6.16798E-14
 -1       986 2.00007E+01-5.44744E-04-2.09734E-07-2.33269E-04 3.57133E-13 2.99979E-13
 -1       987 1.90273E+01 7.27359E-01 3.91902E-05-3.49004E-01-9.15914E-15-5.13893E-14
 -1       988 2.00007E+01-5.22825E-04-4.71411E-07 2.75184E-04 3.03879E-13 3.09451E-13
 -1       989 2.07671E+01-1.49552E+00-2.59392E-04-2.73225E+00 2.64310E-13-2.04792E-13
 -1       990 2.33528E+01-2.35548E+00 2.06690E-03-1.06600E+00 1.45294E-13-2.82812E-13
 -1       991 1.93369E+01 5.74726E-01 2.90190E-05-1.53530E-01 8.79211E-14-1.09024E-13
 -1       992 2.13650E+01-1.23945E+00 1.58070E-04-7.91611E-01 1.55024E-13-2.15610E-13
 -1       993 2.08020E+01-8.31528E-01 1.66687E-04-7.33662E-01 3.62481E-14-2.10222E-14
 -1       994 2.04276E+01-5.09038E-01 1.36481E-04-6.14178E-01 8.92666E-15-1.06632E-13
 -1       995 2.01929E+01-2.75324E-01 3.40062E-05-4.80719E-01 1.49148E-13-9.20490E-14
 -1       996 2.00565E+01-1.19098E-01 3.40106E-05-3.59206E-01 1.16217E-13 1.10349E-13
 -1       997 1.99839E+01-2.16680E-02 3.53095E-05-2.59738E-01 8.50768E-14 1.35799E-13
 -1       998 1.99511E+01 3.34696E-02-4.66139E-06-1.83357E-01 4.88623E-14 1.15558E-13
 -1       999 1.99413E+01 6.04942E-02-1.83470E-06-1.27072E-01 5.93104E-14-4.22824E-14
 -1      1000 1.99437E+01 6.98647E-02-3.70276E-06-8.69449E-02-6.89956E-14-2.61442E-14
 -1      1001 1.99517E+01 6.87956E-02-3.64786E-06-5.88787E-02 2.18553E-14-3.94044E-14
 -1      1002 1.99615E+01 6.21663E-02-3.48164E-06-3.95497E-02 1.31260E-13-1.23906E-13
 -1      1003 1.99711E+01 5.31181E-02-2.80621E-06-2.63752E-02-6.95166E-14-6.47400E-14
 -1      1004 1.99795E+01 4.35442E-02-2.61414E-06-1.74442E-02 6.09150E-15-1.30012E-13
 -1      1005 1.99863E+01 3.45189E-02-2.21997E-06-1.14122E-02 2.42030E-14-1.56176E-13
 -1      1006 1.99915E+01 2.65717E-02-1.81481E-06-7.34457E-03 1.88163E-14-4.84706E-15
 -1      1007 1.99953E+01 1.98950E-02-1.42971E-06-4.60605E-03 4.22042E-15-6.36215E-14
 -1      1008 1.99980E+01 1.44844E-02-1.09235E-06-2.76848E-03 1.45332E-13-5.19579E-14
 -1      1009 1.99998E+01 1.02300E-02-8.11172E-07-1.54385E-03 2.61554E-13 6.86079E-14
 -1      1010 2.00008E+01 6.97419E-03-5.85136E-07-7.37963E-04 2.94103E-13-1.33785E-13
 -1      1011 2.00014E+01 4.54667E-03-4.08635E-07-2.18949E-04-9.61081E-15-2.96633E-13
 -1      1012 2.00017E+01 2.78442E-03-2.74135E-07 1.03579E-04-1.80887E-13-1.93498E-13
 -1      1013 2.00017E+01 1.54180E-03-1.73187E-07 2.92213E-04-9.23706E-14 1.21531E-13
 -1      1014 2.00016E+01 6.94421E-04-9.54240E-08 3.90651E-04 1.11528E-13 2.32991E-14
 -1      1015 2.00014E+01 1.39477E-04-2.44393E-08 4.29467E-04-1.74331E-13 5.78080E-14
 -1      1016 2.00011E+01-2.03985E-04 3.07764E-07 4.30505E-04 1.01849E-13 3.28302E-14
 -1      1017 2.00009E+01-4.04259E-04 2.99463E-07 3.58385E-04 1.01303E-13 1.19677E-13
 -1      1018 1.99529E+01 8.58694E-02-9.74528E-06 1.62722E-02-1.20035E-13-6.41392E-14
 -1      1019 1.99263E+01 1.15417E-01-8.54491E-06 1.38591E-02-1.38945E-13-3.83462E-14
 -1      1020 1.99701E+01 6.42273E-02-5.24292E-06 1.52657E-02 1.61506E-13 7.42619E-14
 -1      1021 1.99818E+01 4.75683E-02-3.93137E-06 1.29270E-02 2.42433E-13 5.53383E-14
 -1      1022 1.99896E+01 3.48427E-02-2.86268E-06 1.02205E-02-2.25403E-13-3.01263E-13
 -1      1023 1.99948E+01 2.51846E-02-2.04746E-06 7.65703E-03-2.33953E-13-2.69904E-13
 -1      1024 1.99981E+01 1.79090E-02-1.45637E-06 5.46097E-03-1.22275E-13-3.43138E-13
 -1      1025 2.00001E+01 1.24774E-02-1.03046E-06 3.69711E-03-4.84015E-14-2.60286E-13
 -1      1026 2.00013E+01 8.46666E-03-7.23276E-07 2.34777E-03-1.80475E-13-3.06749E-13
 -1      1027 2.00019E+01 5.54503E-03-5.01445E-07 1.35796E-03 7.74842E-14-1.78493E-13
 -1      1028 2.00021E+01 3.45201E-03-3.41509E-07 6.60877E-04 6.70710E-15 1.51343E-13
 -1      1029 2.00020E+01 1.98346E-03-2.27110E-07 1.91333E-04 2.08809E-13 1.67685E-13
 -1      1030 2.00019E+01 9.79730E-04-1.48600E-07-1.08025E-04 2.28597E-14 3.28265E-13
 -1      1031 2.00016E+01 3.16418E-04-7.16890E-08-2.84397E-04-8.71722E-15 3.33501E-13
 -1      1032 2.00013E+01-1.01009E-04 2.40648E-07-3.74822E-04 4.29136E-13 1.36204E-13
 -1      1033 2.00011E+01-3.53021E-04-7.35424E-08-4.08279E-04 5.56671E-13-3.51361E-14
 -1      1034 1.89062E+01 4.40715E-01 1.46649E-04-1.26962E+00 1.70457E-13-6.85522E-15
 -1      1035 1.87881E+01-8.84215E-02-5.94778E-04-2.51857E+00 2.91166E-13-5.49758E-14
 -1      1036 1.98372E+01 1.96890E-01-1.93933E-05-1.54918E-02 8.93682E-14 3.16045E-13
 -1      1037 1.98895E+01 1.51562E-01-1.30875E-05 4.96687E-03 1.71871E-13 9.20389E-14
 -1      1038 1.97643E+01 2.52144E-01 5.54368E-06-5.60822E-02-4.15192E-14 1.25968E-13
 -1      1039 2.00010E+01-4.48837E-04-5.39914E-07-9.87060E-05 4.45784E-13 5.15418E-13
 -1      1040 1.91394E+01 4.84822E-01 2.64512E-04-7.80424E-01 1.57566E-13-2.04682E-13
 -1      1041 2.21444E+01-1.67143E+00 8.45432E-04-7.03421E-01 1.33388E-13-3.09559E-13
 -1      1042 2.00009E+01-4.42845E-04 3.12639E-07-3.75276E-04 5.68208E-13-3.76609E-15
 -1      1043 1.96619E+01 3.17750E-01-5.15176E-05-1.30313E-01 1.23403E-13-4.30872E-14
 -1      1044 2.21165E+01-1.92869E+00 2.55826E-03-1.65037E+00 1.66041E-13-1.51027E-13
 -1      1045 1.87889E+01 2.62099E-01-5.73113E-04-1.82036E+00 1.97887E-13 6.39580E-14
 -1      1046 2.00010E+01-4.29477E-04-2.65251E-07 1.34081E-04 1.31414E-13 2.41470E-13
 -1      1047 2.11639E+01-1.29497E+00-2.01645E-03-1.52297E+00 2.39084E-13-9.07033E-14
 -1      1048 2.02991E+01-4.95590E-01 2.53287E-04-9.88529E-01 3.81135E-14-4.76539E-14
 -1      1049 2.00618E+01-2.24491E-01 1.29006E-04-7.26382E-01 8.36452E-14 1.59051E-13
 -1      1050 1.99403E+01-5.66604E-02-1.31409E-04-5.12746E-01 2.68404E-13 1.12451E-13
 -1      1051 1.98904E+01 3.90658E-02 9.54655E-05-3.50365E-01 8.23030E-14 8.06384E-14
 -1      1052 1.98790E+01 8.64042E-02 5.70211E-05-2.33725E-01-4.54625E-14-2.76277E-14
 -1      1053 1.98887E+01 1.02889E-01 7.99911E-05-1.52417E-01-7.02166E-14-1.60608E-13
 -1      1054 1.99052E+01 1.03646E-01 3.52174E-05-9.70045E-02 3.05609E-14-2.76808E-13
 -1      1055 1.99241E+01 9.51223E-02 2.52129E-05-6.05241E-02-3.80723E-14-2.50475E-13
 -1      1056 1.99420E+01 8.24418E-02 1.73909E-05-3.70718E-02 6.08704E-14-2.49079E-13
 -1      1057 1.99575E+01 6.86420E-02 1.20656E-05-2.22797E-02 5.91961E-14-3.35515E-13
 -1      1058 1.99700E+01 5.53661E-02 5.68552E-06-1.31251E-02-5.78334E-15-2.62891E-13
 -1      1059 1.99799E+01 4.34800E-02 2.93041E-06-7.56481E-03 9.10829E-14-3.50213E-14
 -1      1060 1.99872E+01 3.33326E-02 1.67684E-06-4.23301E-03 1.34572E-13 1.05925E-13
 -1      1061 1.99926E+01 2.49629E-02 9.36695E-07-2.26761E-03-1.83760E-14 1.67040E-13
 -1      1062 1.99963E+01 1.82504E-02 5.13852E-07-1.12608E-03 1.88659E-13 2.61542E-13
 -1      1063 1.99988E+01 1.29969E-02 2.73133E-07-4.74576E-04 2.03937E-13 5.09956E-14
 -1      1064 2.00004E+01 8.97749E-03 1.34863E-07-1.11211E-04 9.18308E-14 8.45084E-15
 -1      1065 2.00013E+01 5.97040E-03 5.41911E-08 8.42904E-05-5.53203E-14-2.10518E-13
 -1      1066 2.00018E+01 3.77251E-03 6.55652E-09 1.82734E-04-4.97282E-14-8.25490E-14
 -1      1067 2.00019E+01 2.20665E-03-2.02589E-08 2.25475E-04 1.71935E-14-3.59652E-13
 -1      1068 2.00018E+01 1.12348E-03-2.81768E-08 2.36598E-04 1.27553E-13-3.74402E-13
 -1      1069 2.00016E+01 4.00303E-04-1.81976E-08 2.30235E-04 9.64966E-14-4.38863E-13
 -1      1070 2.00014E+01-6.01771E-05-5.43238E-08 2.14726E-04-2.34773E-14-3.09569E-13
 -1      1071 1.99830E+01 4.20242E-02 5.32702E-07 4.41955E-03 2.04117E-13 3.34070E-13
 -1      1072 2.00012E+01-3.44317E-04 2.93652E-07-1.28875E-04 7.63846E-13 2.52773E-13
 -1      1073 1.99728E+01 5.58231E-02-1.14832E-06 3.74391E-03 2.49813E-13 1.61400E-13
 -1      1074 1.99584E+01 7.30126E-02-8.54230E-06 1.01966E-03-5.75666E-14 1.25620E-14
 -1      1075 1.99375E+01 9.51952E-02-7.58207E-06-6.03784E-03-1.01520E-13 3.38647E-14
 -1      1076 1.99900E+01 3.11305E-02 1.13158E-06 4.09169E-03-1.05770E-13 2.33764E-13
 -1      1077 1.99949E+01 2.26543E-02 1.30195E-06 3.36059E-03-6.63598E-14 2.94985E-14
 -1      1078 1.99980E+01 1.61519E-02 1.26039E-06 2.54641E-03-1.34080E-13-5.23462E-14
 -1      1079 2.00000E+01 1.12364E-02 1.12319E-06 1.80332E-03-3.66824E-14-7.60380E-14
 -1      1080 2.00012E+01 7.57902E-03 9.53529E-07 1.19159E-03-1.47460E-13-1.82585E-13
 -1      1081 2.00018E+01 4.90575E-03 7.84081E-07 7.21701E-04 5.66159E-14-4.03511E-13
 -1      1082 2.00020E+01 2.99145E-03 6.30524E-07 3.80293E-04-3.27810E-14-3.38472E-13
 -1      1083 2.00020E+01 1.65373E-03 5.00720E-07 1.44872E-04 1.26258E-13-1.17341E-13
 -1      1084 2.00018E+01 7.46566E-04 4.06764E-07-8.45809E-06-2.44140E-14-2.21335E-13
 -1      1085 2.00016E+01 1.54351E-04 1.07225E-07-1.01373E-04 1.26373E-13-1.63960E-13
 -1      1086 2.00014E+01-1.47832E-04-2.97754E-07-1.24262E-04 6.06569E-13 1.44187E-13
 -1      1087 1.98272E+01 1.81117E-01-1.12787E-05-8.87844E-02-8.79754E-14-8.27548E-14
 -1      1088 2.01481E+01-7.55571E-01 1.60786E-04-2.02881E+00 1.74880E-13-1.23982E-13
 -1      1089 2.06306E+01-8.34609E-01-1.24363E-03-1.26224E+00 1.53818E-13-1.38363E-13
 -1      1090 1.93531E+01 4.50604E-01 2.00102E-04-4.59853E-01 1.10565E-13-2.69241E-13
 -1      1091 1.95268E+01 3.86752E-01-9.26949E-05-2.56604E-01 9.71790E-14-2.25774E-13
 -1      1092 1.95436E+01 6.11079E-02-7.62915E-04-1.09755E+00 2.98059E-13-3.66646E-14
 -1      1093 2.00012E+01-2.81817E-04-5.12134E-07 1.75825E-04 2.68669E-13 6.88185E-14
 -1      1094 1.97678E+01 2.11402E-01-1.91936E-04-1.61696E-01-7.99109E-14-7.29013E-14
 -1      1095 1.98741E+01 1.49567E-01-2.18045E-05-4.50421E-02 1.59635E-13 7.80284E-14
 -1      1096 1.96274E+01-1.55899E-01 5.52637E-05-1.48454E+00 2.56812E-13-1.52224E-13
 -1      1097 2.00012E+01-3.14758E-04 9.94813E-07 2.05197E-05 4.57718E-13-3.15934E-14
 -1      1098 1.99102E+01 1.20507E-01-1.50021E-05-1.97958E-02 2.65457E-14 1.40977E-13
 -1      1099 1.95652E+01 1.89490E-01-3.53364E-04-7.19774E-01 1.47015E-13-1.17023E-13
 -1      1100 1.97670E+01 1.75548E-01 7.68956E-05-2.75464E-01-2.90867E-14-2.21412E-13
 -1      1101 1.96883E+01 1.87841E-01 1.87666E-04-4.46352E-01 8.56597E-14-1.49317E-13
 -1      1102 2.83032E+01 9.20058E+00 2.36519E+00-6.84649E+00-9.49241E-14 9.45216E-13
 -1      1103 2.07220E+01 6.27775E+00 2.03777E-01-4.04805E+00-3.45557E-14-6.50334E-13
 -1      1104 1.96592E+01 5.92141E+00 7.88162E-02-3.01150E+00-1.61884E-14-1.13200E-12
 -1      1105 1.93380E+01 5.82482E+00 7.80281E-02-2.27929E+00-5.58928E-15-1.25855E-12
 -1      1106 1.92104E+01 5.78953E+00 8.79762E-02-1.60329E+00 2.46331E-16-1.24318E-12
 -1      1107 1.90945E+01 5.75647E+00 9.37275E-02-9.45970E-01 4.25007E-15-1.16995E-12
 -1      1108 1.89045E+01 5.69875E+00 9.12943E-02-3.07647E-01 6.76195E-15-1.08388E-12
 -1      1109 1.86078E+01 5.60581E+00 7.82485E-02 2.84703E-01 9.06220E-15-9.92172E-13
 -1      1110 1.82252E+01 5.48375E+00 5.39501E-02 7.78736E-01 1.14561E-14-9.07275E-13
 -1      1111 1.78320E+01 5.35606E+00 2.14592E-02 1.12938E+00 1.30521E-14-8.23854E-13
 -1      1112 1.75530E+01 5.26250E+00-1.13010E-02 1.31703E+00 1.52083E-14-7.27354E-13
 -1      1113 1.75335E+01 5.25034E+00-3.24141E-02 1.37306E+00 1.72883E-14-6.00099E-13
 -1      1114 1.78965E+01 5.36009E+00-2.94980E-02 1.39251E+00 2.01505E-14-4.04135E-13
 -1      1115 1.87026E+01 5.61228E+00 5.00835E-03 1.53129E+00 2.49661E-14-9.81420E-14
 -1      1116 1.99480E+01 6.00840E+00 7.99288E-02 1.98742E+00 2.65343E-14 4.16386E-13
 -1      1117 2.17400E+01 6.59559E+00 2.45210E-01 3.04960E+00 2.14273E-14 1.28636E-12
 -1      1118 2.66214E+01 8.43342E+00 1.48990E+00 5.39722E+00 2.25930E-14 2.79513E-12
 -1      1119 2.91919E+01 3.69301E+00 1.31697E+00-4.31288E+00-3.32179E-13 1.89299E-12
 -1      1120 2.03149E+01-1.71823E-01-6.14316E-01-1.19356E-01-1.18849E-13 1.12688E-12
 -1      1121 1.86961E+01-8.48843E-02-2.24009E-01 5.93419E-02-4.94813E-14 1.82118E-13
 -1      1122 1.80479E+01-3.32610E-02-3.90619E-02 3.22153E-02-2.00309E-14-3.89001E-13
 -1      1123 1.75309E+01-9.53160E-03 6.87839E-03 1.15881E-02-1.83164E-14-8.05501E-13
 -1      1124 1.69972E+01-1.50738E-03 1.24585E-02-2.85259E-03-1.32018E-14-1.07612E-12
 -1      1125 1.64085E+01-2.61308E-03 5.31781E-03-1.27394E-02-1.41876E-14-1.25617E-12
 -1      1126 1.57996E+01-9.69314E-03-8.13458E-03-1.75249E-02-4.03106E-16-1.41938E-12
 -1      1127 1.52553E+01-1.95115E-02-2.41101E-02-1.64220E-02-1.34153E-14-1.59494E-12
 -1      1128 1.48831E+01-2.82887E-02-3.78489E-02-9.55713E-03-8.85923E-15-1.78954E-12
 -1      1129 1.47771E+01-3.25411E-02-4.46602E-02 1.38070E-03-8.35183E-15-1.94281E-12
 -1      1130 1.49839E+01-3.04068E-02-4.20230E-02 1.33889E-02 2.12417E-15-2.00249E-12
 -1      1131 1.54846E+01-2.24369E-02-3.08333E-02 2.32232E-02-4.74165E-15-2.05897E-12
 -1      1132 1.62011E+01-1.11856E-02-1.48676E-02 2.86475E-02 8.14073E-15-2.07198E-12
 -1      1133 1.70219E+01 1.06488E-04 1.11183E-03 2.91147E-02-2.29875E-14-2.05592E-12
 -1      1134 1.78359E+01 8.87985E-03 1.33598E-02 2.56012E-02-1.24144E-14-2.08602E-12
 -1      1135 1.85576E+01 1.39714E-02 2.02106E-02 1.98662E-02 5.09705E-15-2.01024E-12
 -1      1136 1.91391E+01 1.55399E-02 2.19669E-02 1.36459E-02-1.25670E-14-2.05602E-12
 -1      1137 1.95679E+01 1.45219E-02 2.00792E-02 8.15619E-03 1.46107E-15-1.99282E-12
 -1      1138 1.98565E+01 1.20564E-02 1.62632E-02 3.97637E-03-1.06305E-14-2.01888E-12
 -1      1139 2.00312E+01 9.10496E-03 1.19271E-02 1.18322E-03-2.93356E-14-2.14104E-12
 -1      1140 2.01219E+01 6.30526E-03 7.96365E-03-4.35756E-04-2.01049E-14-2.02853E-12
 -1      1141 2.01559E+01 3.98370E-03 4.79025E-03-1.19796E-03-1.47760E-14-2.13383E-12
 -1      1142 2.01556E+01 2.23868E-03 2.49242E-03-1.40993E-03-3.58953E-14-2.13768E-12
 -1      1143 2.01370E+01 1.03326E-03 9.72272E-04-1.31462E-03 3.62248E-14-1.93569E-12
 -1      1144 2.01109E+01 2.68638E-04 5.94883E-05-1.08037E-03-3.50944E-14-1.55809E-12
 -1      1145 2.00839E+01-1.68655E-04-4.21908E-04-8.10718E-04 2.49304E-14-1.68107E-12
 -1      1146 2.00596E+01-3.81457E-04-6.21547E-04-5.61271E-04 3.17584E-14-1.72150E-12
 -1      1147 2.00394E+01-4.51877E-04-6.52778E-04-3.56091E-04-4.55805E-14-1.81287E-12
 -1      1148 2.00238E+01-4.39925E-04-5.94404E-04-2.00611E-04 3.89259E-14-1.96215E-12
 -1      1149 2.00122E+01-3.86365E-04-4.97189E-04-9.06474E-05-1.24502E-14-2.21652E-12
 -1      1150 2.00042E+01-3.16996E-04-3.91311E-04-1.80484E-05-1.07725E-14-2.26033E-12
 -1      1151 1.99989E+01-2.46864E-04-2.92934E-04 2.60899E-05 3.14734E-14-2.15427E-12
 -1      1152 1.99958E+01-1.83785E-04-2.09310E-04 4.98295E-05 3.65586E-14-1.58388E-12
 -1      1153 1.99941E+01-1.31015E-04-1.42421E-04 5.97665E-05 2.13651E-14-1.21989E-12
 -1      1154 1.99935E+01-8.91314E-05-9.14116E-05 6.09408E-05 6.40369E-14-1.17090E-12
 -1      1155 1.99935E+01-5.72901E-05-5.41156E-05 5.70006E-05-1.92167E-14-1.10436E-12
 -1      1156 1.99940E+01-3.40139E-05-2.79566E-05 5.04615E-05-2.68780E-15-1.01648E-12
 -1      1157 1.99947E+01-1.76564E-05-1.04332E-05 4.29737E-05-3.32296E-14-8.63720E-13
 -1      1158 1.99954E+01-6.65132E-06 6.54148E-07 3.55573E-05-1.97819E-14-9.34309E-13
 -1      1159 1.99962E+01 3.72378E-07 7.12729E-06 2.87930E-05-8.06868E-14-1.66776E-12
 -1      1160 1.99969E+01 4.55661E-06 1.04405E-05 2.29651E-05 2.36859E-14-2.12214E-12
 -1      1161 1.99976E+01 6.82476E-06 1.17349E-05 1.81637E-05-5.58275E-16-1.66013E-12
 -1      1162 1.99982E+01 7.91457E-06 1.19182E-05 1.43478E-05-2.40231E-14-1.45866E-12
 -1      1163 1.99987E+01 8.41737E-06 1.17596E-05 1.13708E-05 2.37322E-14-1.24479E-12
 -1      1164 1.99991E+01 8.80751E-06 1.19792E-05 8.95784E-06 5.63355E-14-4.27217E-13
 -1      1165 1.99994E+01 9.42991E-06 1.31818E-05 6.60012E-06 3.65391E-14-7.04303E-14
 -1      1166 1.99997E+01 1.02007E-05 1.50000E-05 3.23289E-06-3.73673E-14-3.06869E-13
 -1      1167 1.99998E+01 1.15983E-05 1.27165E-05-3.26106E-06-2.18688E-14-8.35524E-13
 -1      1168 1.99998E+01-4.84342E-06-9.98078E-06-5.00366E-06 9.19158E-14-1.69727E-13
 -1      1169 2.90676E+01 4.98361E-01 1.86371E-01 1.91306E+00-4.92661E-14 3.94551E-12
 -1      1170 2.28747E+01-1.20239E-01-6.27337E-01 1.19161E-01 1.73472E-16 3.57579E-12
 -1      1171 2.31171E+01-1.18464E-01-2.92873E-01 3.27347E-02 1.74756E-14 3.07188E-12
 -1      1172 2.47292E+01-1.23214E-01-2.17680E-01 6.84105E-03 1.67505E-14 2.71674E-12
 -1      1173 2.76520E+01-1.09244E-01-2.05612E-01-4.53970E-02 7.42115E-15 2.54266E-12
 -1      1174 3.19457E+01-1.25571E-02-6.80669E-02-1.55008E-01 3.00133E-14 2.45207E-12
 -1      1175 3.70205E+01 2.40613E-01 3.66848E-01-3.01896E-01-5.10009E-15 2.77733E-12
 -1      1176 4.03824E+01 4.69310E-01 9.41490E-01-2.70137E-01-3.69149E-14 3.55352E-12
 -1      1177 3.79253E+01 4.36354E-01 9.01357E-01 3.10435E-01-7.32192E-14 4.25526E-12
 -1      1178 2.87894E+01-1.04842E-01-4.85499E-01 1.02978E+00-5.51711E-14 4.68225E-12
 -1      1179 1.80128E+01-6.13068E-01-2.49533E+00 1.08554E+00-6.34076E-14 4.58711E-12
 -1      1180 1.43709E+01-7.05507E-01-3.28052E+00 1.28998E-01 3.88856E-14 3.56704E-12
 -1      1181 2.13305E+01-7.00627E-02-2.00619E+00-8.30595E-01 1.41817E-13 1.80378E-12
 -1      1182 3.35631E+01 2.64418E-01 1.60693E-02-1.05373E+00 8.62713E-14 5.30354E-13
 -1      1183 4.07615E+01 1.95965E-01 8.68807E-01-5.35447E-01 9.16003E-14-2.61458E-14
 -1      1184 3.99763E+01 5.30229E-02 5.60445E-01-1.83626E-02-1.97412E-14 3.21763E-13
 -1      1185 3.53311E+01-2.06056E-02 1.05544E-01 1.72045E-01 4.56445E-14 4.06203E-13
 -1      1186 3.05455E+01-4.36657E-02-1.02200E-01 1.76283E-01-2.92301E-15 6.58501E-13
 -1      1187 2.68751E+01-4.25178E-02-1.33946E-01 1.28451E-01 2.80288E-14 8.98837E-13
 -1      1188 2.43706E+01-3.36470E-02-1.04371E-01 8.23739E-02-2.94335E-14 9.32379E-13
 -1      1189 2.27487E+01-2.43045E-02-6.89200E-02 4.99188E-02 2.58188E-14 6.73225E-13
 -1      1190 2.17223E+01-1.67751E-02-4.27286E-02 2.95032E-02-2.86117E-14 7.33677E-13
 -1      1191 2.10784E+01-1.13122E-02-2.59980E-02 1.72677E-02 4.20590E-14 8.94326E-13
 -1      1192 2.06748E+01-7.54524E-03-1.58286E-02 1.00821E-02-3.86690E-14 9.67272E-13
 -1      1193 2.04211E+01-5.01447E-03-9.71810E-03 5.89284E-03 6.34346E-14 5.02590E-13
 -1      1194 2.02610E+01-3.33618E-03-6.03311E-03 3.45210E-03-1.79871E-14 4.30246E-13
 -1      1195 2.01594E+01-2.22894E-03-3.79117E-03 2.02597E-03-1.40169E-14 6.09475E-13
 -1      1196 2.00948E+01-1.49833E-03-2.41250E-03 1.18840E-03 2.02475E-15 6.22765E-13
 -1      1197 2.00537E+01-1.01430E-03-1.55439E-03 6.93227E-04 5.85035E-16 4.99237E-13
 -1      1198 2.00276E+01-6.91868E-04-1.01327E-03 3.98528E-04-6.23533E-14 9.82375E-13
 -1      1199 2.00113E+01-4.86031E-04-6.73230E-04 2.24165E-04 2.62820E-14 7.70457E-13
 -1      1200 2.00012E+01-3.04592E-04-4.28456E-04 1.29819E-04-1.79961E-14 3.21706E-13
 -1      1201 1.99954E+01-2.19616E-04-2.84359E-04 4.71642E-05-1.12297E-13 6.91023E-13
 -1      1202 1.99924E+01-1.49982E-04-1.86444E-04 9.91448E-06-7.91239E-14 1.59153E-12
 -1      1203 1.99911E+01-1.01326E-04-1.19796E-04-1.19337E-05-2.07366E-15 1.39918E-12
 -1      1204 1.99909E+01-6.71840E-05-7.41807E-05-2.38798E-05-1.14396E-13 1.05843E-12
 -1      1205 1.99914E+01-4.32483E-05-4.30887E-05-2.95294E-05-1.79535E-14 1.17361E-12
 -1      1206 1.99921E+01-2.65829E-05-2.21381E-05-3.12102E-05 7.95369E-14 6.29706E-13
 -1      1207 1.99931E+01-1.51332E-05-8.33227E-06-3.04454E-05-2.97889E-14-8.10525E-14
 -1      1208 1.99941E+01-7.43242E-06 4.22406E-07-2.82544E-05-2.02090E-14 1.54408E-13
 -1      1209 1.99951E+01-2.41353E-06 5.62439E-06-2.53297E-05 4.38421E-14-4.46615E-13
 -1      1210 1.99960E+01 7.14809E-07 8.37072E-06-2.21444E-05 9.87897E-15-5.62081E-13
 -1      1211 1.99968E+01 2.55240E-06 9.48396E-06-1.90229E-05 3.38881E-14-5.77714E-13
 -1      1212 1.99975E+01 3.56761E-06 9.60396E-06-1.61866E-05 4.69834E-14-5.81396E-13
 -1      1213 1.99981E+01 4.14368E-06 9.26616E-06-1.37835E-05-2.22831E-14-6.47620E-13
 -1      1214 1.99986E+01 4.61675E-06 8.98524E-06-1.19070E-05 8.72225E-14-7.27936E-13
 -1      1215 1.99991E+01 5.30040E-06 9.35034E-06-1.05717E-05-3.59033E-14-5.65978E-13
 -1      1216 1.99994E+01 6.42832E-06 1.09595E-05-9.63159E-06 1.16688E-13-6.30038E-13
 -1      1217 1.99997E+01 7.78724E-06 1.34856E-05-8.26257E-06 6.44851E-14-6.51402E-13
 -1      1218 1.99998E+01 6.98429E-06 1.17628E-05-4.03415E-06-5.24785E-14 1.23621E-12
 -1      1219 1.99998E+01-4.54828E-06-9.94829E-06 4.19115E-06 8.35906E-14 1.17689E-12
 -1      1220 1.99998E+01 1.27944E-05-9.90682E-06 4.67808E-06 1.35243E-12 3.95241E-14
 -1      1221 1.99998E+01-2.30981E-06 1.15706E-05 2.95646E-06 1.43968E-12-1.27357E-13
 -1      1222 1.99998E+01-1.34061E-04 1.25902E-05-5.00328E-06 1.06250E-12-2.59042E-13
 -1      1223 1.99998E+01-3.53874E-04 5.68772E-06-8.27748E-06 7.20181E-14 4.43653E-16
 -1      1224 1.99998E+01-6.08917E-04-1.16199E-06-8.80107E-06 4.56941E-13 4.14850E-15
 -1      1225 1.99998E+01-8.52776E-04-6.62042E-06-7.70778E-06 1.68319E-13-3.13987E-15
 -1      1226 1.99998E+01-1.05220E-03-1.04603E-05-5.72080E-06 3.21682E-13-6.03619E-14
 -1      1227 1.99998E+01-1.18283E-03-1.27770E-05-2.98077E-06-1.06318E-12-1.53320E-13
 -1      1228 1.99998E+01-1.22700E-03-1.34968E-05 3.80296E-08-1.70024E-12 1.29971E-13
 -1      1229 1.99998E+01-1.17987E-03-1.26522E-05 3.04027E-06-1.44787E-12 1.29707E-13
 -1      1230 1.99998E+01-1.04715E-03-1.02447E-05 5.72682E-06-6.69534E-13-7.32619E-14
 -1      1231 1.99998E+01-8.46892E-04-6.38530E-06 7.78031E-06-1.25182E-12 3.34272E-14
 -1      1232 1.99998E+01-6.03669E-04-1.02527E-06 8.74714E-06-4.30844E-13 3.88797E-14
 -1      1233 1.99998E+01-3.49986E-04 5.74659E-06 8.27725E-06-3.03793E-13 1.54983E-13
 -1      1234 1.99998E+01-1.29337E-04 1.29248E-05 5.99830E-06-3.59091E-13 1.39187E-13
 -1      1235 1.99998E+01-6.70193E-06 1.07134E-05-5.85958E-06 1.72687E-13-1.26367E-13
 -1      1236 1.99998E+01 1.42874E-05-9.73525E-06-4.73866E-06 1.66187E-13-3.31123E-15
 -1      1237-1.36104E+00-2.88447E+01-4.09200E+00-2.99357E+00 2.68960E-12 3.89265E-13
 -1      1238-2.98690E+00-2.31490E+01-4.04972E+00-6.95734E+00 4.00602E-12 1.46000E-12
 -1      1239-3.00105E+00-1.05858E+01-3.45269E+00-4.79057E+00 4.38471E-12 2.67342E-12
 -1      1240 4.84717E+00 1.92745E+00-2.15104E+00 3.78008E+00 3.66485E-12 3.51497E-12
 -1      1241 2.39882E+01 8.97152E+00 3.63062E-01 1.41819E+01 2.53308E-12 3.55183E-12
 -1      1242 5.22586E+01 8.75675E+00 3.61587E+00 1.91579E+01 1.13654E-12 2.31548E-12
 -1      1243 8.06943E+01 4.39318E+00 6.99097E+00 1.33968E+01 1.42053E-13-1.45439E-13
 -1      1244 9.00787E+01 2.95265E+00 8.17652E+00-2.03449E+00 2.53811E-13-2.77373E-12
 -1      1245 7.55407E+01 5.89025E+00 6.49363E+00-1.59054E+01 1.18550E-12-4.72555E-12
 -1      1246 4.54763E+01 9.62479E+00 2.85942E+00-1.94943E+01 2.48535E-12-5.23315E-12
 -1      1247 1.83679E+01 8.46427E+00-3.17982E-01-1.22870E+01 3.47145E-12-4.55680E-12
 -1      1248 2.51984E+00 4.28284E-01-2.36138E+00-1.94697E+00 3.60956E-12-3.27671E-12
 -1      1249-3.14911E+00-1.19498E+01-3.49993E+00 5.37208E+00 2.40696E-12-1.54832E-12
 -1      1250-2.69334E+00-2.37577E+01-4.04397E+00 6.48648E+00 5.60552E-13-3.45252E-13
 -1      1251-1.18909E+00-2.87456E+01-4.07822E+00 2.19328E+00-1.80392E-12-4.70457E-14
 -1      1252-1.11559E+00-2.40758E+01-3.61619E+00-2.74788E+00-3.81417E-12-6.77861E-13
 -1      1253-1.33272E+00-1.16759E+01-2.64082E+00-3.17582E+00-4.79528E-12-1.87161E-12
 -1      1254 2.78487E+00 2.38223E+00-1.27326E+00 3.07938E+00-4.66693E-12-3.09908E-12
 -1      1255 1.49254E+01 1.14552E+01 3.89086E-01 1.27537E+01-3.61844E-12-3.61444E-12
 -1      1256 3.48963E+01 1.23903E+01 2.16578E+00 1.94537E+01-2.00229E-12-2.99605E-12
 -1      1257 5.67184E+01 7.47620E+00 3.51040E+00 1.76562E+01-7.19369E-13-1.62093E-12
 -1      1258 7.09296E+01 2.43973E+00 4.24083E+00 7.15605E+00-8.96401E-14 1.68254E-13
 -1      1259 7.14791E+01 2.23383E+00 4.25072E+00-6.63573E+00-2.71845E-13 1.81993E-12
 -1      1260 5.98307E+01 6.58970E+00 3.63530E+00-1.69931E+01-1.01136E-12 3.06333E-12
 -1      1261 4.17644E+01 1.15809E+01 2.60713E+00-2.06356E+01-2.12919E-12 3.78786E-12
 -1      1262 2.28212E+01 1.33370E+01 1.19377E+00-1.68233E+01-3.01204E-12 3.71658E-12
 -1      1263 8.41689E+00 8.93611E+00-3.10041E-01-8.63872E+00-3.28537E-12 2.88769E-12
 -1      1264 5.90030E-01-1.79256E+00-1.71771E+00-4.23367E-01-2.70539E-12 1.62625E-12
 -1      1265-1.47916E+00-1.53002E+01-2.91315E+00 3.66238E+00-1.21858E-12 5.30631E-13
 -1      1266-1.04808E+00-2.56910E+01-3.72731E+00 1.97081E+00 9.71889E-13 5.81826E-14
 -1      1267 2.24459E+01 1.85724E+00-7.40950E-01-2.87946E+00-1.29702E-13 4.71345E-13
 -1      1268 2.05329E+01 4.73678E+00-4.99903E-02-3.45896E+00-2.18534E-13-8.97352E-13
 -1      1269 2.10125E+01 4.85363E+00-1.24702E-01-4.32184E+00-3.27294E-13-6.31897E-13
 -1      1270 1.98031E+01 5.01881E+00-1.44080E-02-2.77855E+00-1.55903E-13-1.20081E-12
 -1      1271 2.00421E+01 5.09947E+00-6.75247E-03-3.19376E+00-2.03233E-13-1.09800E-12
 -1      1272 2.07322E+01 3.94587E+00-2.93305E-02-3.23788E+00-3.64209E-13-7.71133E-13
 -1      1273 1.95732E+01 5.07724E+00 6.70880E-03-2.10115E+00-5.99347E-14-1.26232E-12
 -1      1274 1.96638E+01 5.11556E+00 8.54115E-03-2.44890E+00-9.50177E-14-1.24692E-12
 -1      1275 2.00919E+01 4.28834E+00-2.65405E-02-2.60918E+00-2.22655E-13-1.00852E-12
 -1      1276 1.94674E+01 5.08278E+00 1.65748E-02-1.44180E+00 1.25941E-14-1.22758E-12
 -1      1277 1.95177E+01 5.10517E+00 1.59645E-02-1.77385E+00-6.92849E-15-1.25853E-12
 -1      1278 1.98649E+01 4.39774E+00-2.08448E-02-1.94292E+00-6.95685E-14-1.05890E-12
 -1      1279 1.93416E+01 5.06337E+00 1.98811E-02-7.98345E-01 7.99239E-14-1.15050E-12
 -1      1280 1.94147E+01 5.08904E+00 2.16017E-02-1.11783E+00 6.00908E-14-1.19229E-12
 -1      1281 1.97436E+01 4.42721E+00-1.76469E-02-1.29315E+00 4.72497E-14-1.02162E-12
 -1      1282 1.91132E+01 5.03166E+00 1.75719E-02-1.63672E-01 1.28227E-13-1.06323E-12
 -1      1283 1.92449E+01 5.07289E+00 2.57714E-02-4.73089E-01 1.17160E-13-1.11824E-12
 -1      1284 1.95804E+01 4.43668E+00-1.61600E-02-6.48393E-01 1.53026E-13-9.56103E-13
 -1      1285 1.87568E+01 5.00330E+00 1.01293E-02 4.15610E-01 1.78899E-13-9.71381E-13
 -1      1286 1.89540E+01 5.06265E+00 2.75610E-02 1.40534E-01 1.64112E-13-1.01948E-12
 -1      1287 1.92952E+01 4.46131E+00-1.60553E-02-2.18852E-02 2.30944E-13-8.68302E-13
 -1      1288 1.83022E+01 4.99699E+00-1.33353E-03 8.90984E-01 2.16580E-13-8.90213E-13
 -1      1289 1.85423E+01 5.06813E+00 2.55151E-02 6.73348E-01 2.05967E-13-9.39731E-13
 -1      1290 1.88685E+01 4.52873E+00-1.66258E-02 5.42979E-01 3.14113E-13-7.94823E-13
 -1      1291 1.78446E+01 5.02948E+00-1.38262E-02 1.21773E+00 2.54165E-13-8.04868E-13
 -1      1292 1.80711E+01 5.09578E+00 1.80879E-02 1.07539E+00 2.40804E-13-8.56523E-13
 -1      1293 1.83471E+01 4.65342E+00-1.71020E-02 9.96056E-01 3.76303E-13-7.27963E-13
 -1      1294 1.75388E+01 5.10688E+00-2.24753E-02 1.38006E+00 2.85312E-13-7.10495E-13
 -1      1295 1.76666E+01 5.14322E+00 4.98161E-03 1.31315E+00 2.74190E-13-7.72644E-13
 -1      1296 1.78530E+01 4.82447E+00-1.68724E-02 1.29382E+00 4.35381E-13-6.51345E-13
 -1      1297 1.75593E+01 5.21565E+00-2.22058E-02 1.41776E+00 3.15682E-13-5.72406E-13
 -1      1298 1.75013E+01 5.19616E+00-1.16936E-02 1.39683E+00 3.02819E-13-6.56131E-13
 -1      1299 1.75696E+01 4.99628E+00-1.61034E-02 1.42719E+00 4.86443E-13-5.57415E-13
 -1      1300 1.80498E+01 5.33043E+00-1.02848E-02 1.43854E+00 3.51288E-13-3.60378E-13
 -1      1301 1.77361E+01 5.23374E+00-2.82685E-02 1.40333E+00 3.28446E-13-4.88751E-13
 -1      1302 1.76916E+01 5.10041E+00-1.47542E-02 1.44811E+00 5.28364E-13-4.07651E-13
 -1      1303 1.90666E+01 5.40982E+00 1.21043E-02 1.60725E+00 3.69732E-13-2.94365E-14
 -1      1304 1.84835E+01 5.23044E+00-3.98161E-02 1.47098E+00 3.47444E-13-2.29003E-13
 -1      1305 1.83694E+01 5.05615E+00-1.43525E-02 1.47701E+00 5.63116E-13-1.84561E-13
 -1      1306 2.05761E+01 5.40497E+00 4.13534E-02 2.12163E+00 3.53537E-13 5.16885E-13
 -1      1307 1.97458E+01 5.15048E+00-4.47520E-02 1.77671E+00 3.34344E-13 1.89709E-13
 -1      1308 1.96511E+01 4.78847E+00-1.33289E-02 1.68221E+00 5.59754E-13 1.73275E-13
 -1      1309 2.26661E+01 5.10782E+00 6.10414E-02 3.23783E+00 2.48246E-13 1.42375E-12
 -1      1310 2.15292E+01 4.86370E+00-4.38252E-02 2.48022E+00 2.58529E-13 8.85195E-13
 -1      1311 2.15413E+01 4.16985E+00-1.01120E-03 2.20099E+00 4.86299E-13 7.51038E-13
 -1      1312 2.87874E+01 3.24185E+00 8.84826E-01 4.15496E+00 6.92502E-14 2.86948E-12
 -1      1313 2.37664E+01 3.58451E+00-1.66825E-01 3.23295E+00 9.14269E-14 1.90739E-12
 -1      1314 2.39381E+01 2.62870E+00 7.43247E-03 2.59338E+00 3.59129E-13 1.55778E-12
 -1      1315 2.36061E+01 3.24618E-01-7.50880E-01 7.46648E-01 1.52808E-13 2.84736E-12
 -1      1316 2.21166E+01 1.26626E-01-4.10159E-01-1.37272E+00-3.12361E-13 6.55226E-13
 -1      1317 2.06974E+01 3.03496E-01-1.69997E-01-8.81930E-01-2.64663E-13 2.73497E-13
 -1      1318 2.00208E+01 1.39986E-01-7.49221E-02-5.02954E-01-2.18509E-13 1.66431E-13
 -1      1319 1.94185E+01 7.48102E-02-1.57102E-02-4.38408E-01-1.95868E-13-1.48468E-13
 -1      1320 2.09864E+01 3.52174E-01-1.04211E-01-1.44991E+00-4.59854E-13-1.15220E-13
 -1      1321 1.89380E+01 4.43689E-02 4.23204E-03-2.83433E-01-1.55979E-13-2.34996E-13
 -1      1322 1.85921E+01 2.07186E-02 1.38205E-02-2.77365E-01-1.29194E-13-4.55014E-13
 -1      1323 1.97401E+01 1.04742E-01-2.97556E-02-7.56141E-01-3.34600E-13-2.62155E-13
 -1      1324 1.82612E+01 9.10422E-03 1.54844E-02-2.34471E-01-1.02657E-13-5.43831E-13
 -1      1325 1.79795E+01-9.70779E-05 1.21281E-02-2.37218E-01-1.04524E-13-7.02752E-13
 -1      1326 1.89782E+01 1.95504E-02-2.27908E-03-5.26315E-01-2.43090E-13-4.25691E-13
 -1      1327 1.77050E+01-3.45998E-03 1.12672E-02-2.35725E-01-7.84112E-14-7.38638E-13
 -1      1328 1.74213E+01-3.99927E-03 7.47819E-03-2.40773E-01-6.22943E-14-8.47473E-13
 -1      1329 1.83902E+01-8.20561E-03 2.37331E-03-4.75354E-01-1.71506E-13-5.47744E-13
 -1      1330 1.71665E+01-2.90162E-03 6.83778E-03-2.45002E-01-7.86147E-14-8.82319E-13
 -1      1331 1.68730E+01 2.22430E-03 4.25674E-03-2.47166E-01-6.80450E-14-9.84460E-13
 -1      1332 1.78698E+01-9.50663E-03 1.61344E-03-4.79277E-01-1.34055E-13-6.24908E-13
 -1      1333 1.66358E+01 6.42342E-03 3.71777E-03-2.35461E-01-3.75412E-14-1.01244E-12
 -1      1334 1.63577E+01 1.47716E-02 1.99925E-03-2.30846E-01-4.32818E-14-1.08109E-12
 -1      1335 1.73829E+01 4.78168E-03-1.20805E-03-4.70913E-01-1.10578E-13-7.03800E-13
 -1      1336 1.61579E+01 2.05928E-02 1.30206E-03-1.90676E-01-5.56005E-14-1.09440E-12
 -1      1337 1.59390E+01 2.92207E-02 1.82452E-04-1.77434E-01-6.41631E-14-1.17881E-12
 -1      1338 1.69481E+01 2.78604E-02-5.31669E-03-4.08726E-01-1.06419E-13-7.58720E-13
 -1      1339 1.58063E+01 3.46380E-02-6.12857E-04-1.06744E-01-5.17394E-14-1.22183E-12
 -1      1340 1.56932E+01 4.04288E-02-1.15345E-03-8.58840E-02-4.45347E-14-1.29244E-12
 -1      1341 1.66155E+01 5.19507E-02-9.63893E-03-2.74603E-01-1.09460E-13-8.04463E-13
 -1      1342 1.56548E+01 4.34168E-02-1.81443E-03 6.19305E-03-6.01724E-14-1.32521E-12
 -1      1343 1.56797E+01 4.40696E-02-1.72340E-03 3.08452E-02-2.22899E-14-1.39737E-12
 -1      1344 1.64429E+01 6.87511E-02-1.26742E-02-7.69140E-02-8.83963E-14-8.54699E-13
 -1      1345 1.57487E+01 4.35339E-02-2.10565E-03 1.26847E-01-2.37948E-14-1.41225E-12
 -1      1346 1.59178E+01 3.84937E-02-1.39046E-03 1.49947E-01-3.56906E-14-1.47170E-12
 -1      1347 1.64709E+01 7.21296E-02-1.31842E-02 1.51809E-01-5.70672E-14-9.31026E-13
 -1      1348 1.60867E+01 3.48404E-02-1.59307E-03 2.30449E-01-3.75112E-14-1.44529E-12
 -1      1349 1.63772E+01 2.54731E-02-3.66403E-04 2.47186E-01-2.15531E-14-1.47851E-12
 -1      1350 1.67053E+01 6.06816E-02-1.08804E-02 3.66227E-01-4.61584E-14-9.98688E-13
 -1      1351 1.66200E+01 2.03300E-02-6.75865E-04 2.97820E-01 1.58666E-14-1.46851E-12
 -1      1352 1.69874E+01 9.19002E-03 8.73294E-04 3.05609E-01 1.66577E-15-1.47431E-12
 -1      1353 1.71120E+01 3.82167E-02-6.56785E-03 5.24910E-01-1.02297E-14-9.81382E-13
 -1      1354 1.72675E+01 4.50624E-03 1.76637E-04 3.21298E-01-3.21685E-14-1.47239E-12
 -1      1355 1.76595E+01-5.80866E-03 1.84071E-03 3.20291E-01-3.43612E-14-1.49143E-12
 -1      1356 1.76280E+01 1.17504E-02-1.66933E-03 6.04313E-01-2.26464E-14-9.94058E-13
 -1      1357 1.79402E+01-8.64538E-03 6.53067E-04 3.05150E-01-5.04826E-15-1.44840E-12
 -1      1358 1.83101E+01-1.63982E-02 2.26046E-03 2.97570E-01 1.58539E-14-1.41142E-12
 -1      1359 1.81798E+01-1.16994E-02 2.48181E-03 6.03718E-01-2.19978E-14-9.52459E-13
 -1      1360 1.85627E+01-1.69623E-02 6.92197E-04 2.61499E-01-9.36317E-15-1.42788E-12
 -1      1361 1.88784E+01-2.15765E-02 2.13168E-03 2.50395E-01 2.02312E-16-1.45678E-12
 -1      1362 1.87025E+01-2.76454E-02 5.13043E-03 5.40660E-01-1.81877E-14-9.12119E-13
 -1      1363 1.90861E+01-2.02519E-02 4.23917E-04 2.04706E-01-7.13058E-15-1.44151E-12
 -1      1364 1.93326E+01-2.20744E-02 1.64360E-03 1.92850E-01-8.74452E-15-1.45647E-12
 -1      1365 1.91517E+01-3.49268E-02 6.18717E-03 4.41184E-01-2.90349E-15-9.52904E-13
 -1      1366 1.94898E+01-1.96304E-02 4.31117E-05 1.46961E-01-1.37021E-14-1.47046E-12
 -1      1367 1.96665E+01-1.94707E-02 1.03152E-03 1.36264E-01 5.79745E-15-1.43762E-12
 -1      1368 1.95061E+01-3.49664E-02 6.00388E-03 3.30438E-01-3.02553E-14-9.77203E-13
 -1      1369 1.97761E+01-1.66712E-02-2.92612E-04 9.62321E-02-4.38219E-14-1.52994E-12
 -1      1370 1.98915E+01-1.53969E-02 4.77259E-04 8.76554E-02-7.82967E-14-1.58817E-12
 -1      1371 1.97639E+01-3.03604E-02 5.08666E-03 2.26985E-01-8.11790E-14-1.07533E-12
 -1      1372 1.99611E+01-1.27897E-02-5.03276E-04 5.62268E-02-1.06629E-14-1.58976E-12
 -1      1373 2.00284E+01-1.10943E-02 7.24210E-05 4.99868E-02-2.65165E-14-1.58108E-12
 -1      1374 1.99360E+01-2.36789E-02 3.88747E-03 1.41244E-01-8.85258E-14-1.20410E-12
 -1      1375 2.00674E+01-8.96757E-03-5.79050E-04 2.74569E-02 2.31837E-14-1.50022E-12
 -1      1376 2.01001E+01-7.29969E-03-1.68053E-04 2.33173E-02-3.82474E-15-1.47190E-12
 -1      1377 2.00396E+01-1.68244E-02 2.71381E-03 7.66934E-02 7.47774E-15-1.12422E-12
 -1      1378 2.01176E+01-5.73407E-03-5.50765E-04 8.55666E-03 2.95879E-15-1.51198E-12
 -1      1379 2.01277E+01-4.32452E-03-2.73153E-04 6.08104E-03-1.42540E-15-1.53727E-12
 -1      1380 2.00928E+01-1.08905E-02 1.72718E-03 3.22037E-02 1.53762E-15-9.77103E-13
 -1      1381 2.01314E+01-3.27356E-03-4.61642E-04-2.62161E-03-4.70513E-14-1.44611E-12
 -1      1382 2.01281E+01-2.19926E-03-2.86841E-04-3.90053E-03 2.29018E-14-1.47268E-12
 -1      1383 2.01120E+01-6.30890E-03 9.80615E-04 4.28970E-03 1.97878E-15-9.11991E-13
 -1      1384 2.01238E+01-1.55930E-03-3.49812E-04-8.28967E-03 1.50754E-13-1.44384E-12
 -1      1385 2.01138E+01-8.07186E-04-2.50000E-04-8.78035E-03 1.37321E-13-1.23804E-12
 -1      1386 2.01104E+01-3.08522E-03 4.62751E-04-1.12274E-02 1.17651E-13-8.37059E-13
 -1      1387 2.01056E+01-4.63786E-04-2.41330E-04-1.03500E-02 8.02152E-14-1.22419E-12
 -1      1388 2.00932E+01 2.09151E-05-1.92885E-04-1.03687E-02 1.48935E-15-1.10448E-12
 -1      1389 2.00976E+01-1.00969E-03 1.32724E-04-1.82385E-02 1.32975E-13-7.91675E-13
 -1      1390 2.00838E+01 1.68515E-04-1.50105E-04-1.02642E-02-1.68556E-14-1.11889E-12
 -1      1391 2.00715E+01 4.51840E-04-1.34303E-04-1.00346E-02 8.26766E-14-1.14593E-12
 -1      1392 2.00800E+01 1.97030E-04-5.75820E-05-1.99032E-02-1.08329E-14-6.99910E-13
 -1      1393 2.00625E+01 4.81632E-04-8.09044E-05-9.06179E-03-1.91567E-14-1.16371E-12
 -1      1394 2.00517E+01 6.24687E-04-8.38791E-05-8.72954E-03-4.96160E-14-1.23555E-12
 -1      1395 2.00618E+01 8.01571E-04-1.51948E-04-1.85509E-02-4.37846E-15-6.96849E-13
 -1      1396 2.00439E+01 5.91614E-04-3.28880E-05-7.41185E-03-2.39607E-14-1.20060E-12
 -1      1397 2.00351E+01 6.43915E-04-4.50669E-05-7.06415E-03-2.50365E-14-1.25189E-12
 -1      1398 2.00451E+01 1.02175E-03-1.85285E-04-1.57656E-02-6.21712E-14-7.60699E-13
 -1      1399 2.00287E+01 5.83605E-04-2.50022E-06-5.71327E-03-3.15201E-14-1.31063E-12
 -1      1400 2.00220E+01 5.81882E-04-1.77688E-05-5.39658E-03-1.60196E-14-1.35832E-12
 -1      1401 2.00311E+01 1.01840E-03-1.83062E-04-1.25409E-02-9.57715E-14-7.09899E-13
 -1      1402 2.00170E+01 5.15520E-04 1.46090E-05-4.17746E-03-1.02513E-13-1.46555E-12
 -1      1403 2.00121E+01 4.85166E-04-2.07705E-07-3.91200E-03-1.08440E-13-1.59159E-12
 -1      1404 2.00199E+01 9.01101E-04-1.62570E-04-9.44300E-03-1.59908E-13-8.76189E-13
 -1      1405 2.00085E+01 4.24005E-04 2.25112E-05-2.89498E-03 4.89276E-14-1.48024E-12
 -1      1406 2.00052E+01 3.81465E-04 9.91103E-06-2.68534E-03 5.66472E-14-1.44714E-12
 -1      1407 2.00115E+01 7.39111E-04-1.34778E-04-6.75042E-03-4.46962E-14-8.69388E-13
 -1      1408 2.00026E+01 3.30433E-04 2.45319E-05-1.88436E-03 3.57121E-14-1.43728E-12
 -1      1409 2.00005E+01 2.85618E-04 1.47775E-05-1.72671E-03 1.10335E-13-1.35003E-12
 -1      1410 2.00055E+01 5.72661E-04-1.06128E-04-4.56221E-03 4.58547E-14-7.80649E-13
 -1      1411 1.99988E+01 2.45922E-04 2.31472E-05-1.12543E-03 2.37196E-13-1.26117E-12
 -1      1412 1.99975E+01 2.04263E-04 1.62073E-05-1.01212E-03 1.86834E-13-1.03384E-12
 -1      1413 2.00013E+01 4.22542E-04-8.00216E-05-2.87434E-03 3.15006E-13-8.00548E-13
 -1      1414 1.99965E+01 1.75137E-04 2.00669E-05-5.80554E-04-9.15101E-15-9.22010E-13
 -1      1415 1.99959E+01 1.39165E-04 1.55759E-05-5.02858E-04 6.77697E-14-8.77322E-13
 -1      1416 1.99987E+01 2.97372E-04-5.79367E-05-1.63066E-03 1.86492E-13-6.75090E-13
 -1      1417 1.99953E+01 1.18973E-04 1.63880E-05-2.07375E-04 2.76070E-14-8.77268E-13
 -1      1418 1.99951E+01 8.94543E-05 1.38538E-05-1.56967E-04 8.77840E-15-9.39863E-13
 -1      1419 1.99971E+01 1.98712E-04-4.02140E-05-7.54584E-04 9.32368E-14-5.80393E-13
 -1      1420 1.99949E+01 7.63280E-05 1.27574E-05 3.43250E-05 4.13143E-14-8.89648E-13
 -1      1421 1.99950E+01 5.30370E-05 1.16821E-05 6.46679E-05 2.67062E-14-8.78665E-13
 -1      1422 1.99963E+01 1.24434E-04-2.65799E-05-1.67386E-04 7.87448E-14-7.36361E-13
 -1      1423 1.99950E+01 4.52127E-05 9.51267E-06 1.79386E-04 1.35128E-13-8.21246E-13
 -1      1424 1.99953E+01 2.74316E-05 9.45484E-06 1.95559E-04 7.30703E-14-6.72550E-13
 -1      1425 1.99961E+01 7.08122E-05-1.64768E-05 2.02396E-04 1.47133E-13-6.11830E-13
 -1      1426 1.99954E+01 2.34026E-05 6.79180E-06 2.56224E-04-5.06273E-14-7.10264E-13
 -1      1427 1.99957E+01 1.02251E-05 7.39133E-06 2.62821E-04-6.44713E-14-7.28691E-13
 -1      1428 1.99962E+01 3.37306E-05-9.25981E-06 4.14960E-04-6.62770E-15-5.33237E-13
 -1      1429 1.99959E+01 8.78376E-06 4.61345E-06 2.86974E-04-2.09264E-13-7.59226E-13
 -1      1430 1.99963E+01-7.11373E-07 5.59421E-06 2.87439E-04-3.15126E-13-1.14492E-12
 -1      1431 1.99965E+01 9.32087E-06-4.30349E-06 5.18419E-04-2.90111E-13-7.15174E-13
 -1      1432 1.99965E+01-4.89436E-07 2.93135E-06 2.88210E-04-2.65815E-13-1.19637E-12
 -1      1433 1.99969E+01-7.14957E-06 4.09265E-06 2.85027E-04-1.96204E-13-1.46781E-12
 -1      1434 1.99969E+01-5.75891E-06-1.05392E-06 5.49628E-04-3.80096E-13-9.04675E-13
 -1      1435 1.99971E+01-5.94788E-06 1.66997E-06 2.71858E-04-1.01299E-13-1.43349E-12
 -1      1436 1.99974E+01-1.05110E-05 2.87344E-06 2.66742E-04 7.54417E-14-1.35209E-12
 -1      1437 1.99974E+01-1.42501E-05 9.53481E-07 5.35726E-04-2.22125E-13-8.54703E-13
 -1      1438 1.99977E+01-8.82505E-06 7.47717E-07 2.46088E-04 1.93410E-13-1.33096E-12
 -1      1439 1.99980E+01-1.19151E-05 1.90440E-06 2.40150E-04 6.98268E-14-1.28622E-12
 -1      1440 1.99979E+01-1.83341E-05 2.09523E-06 4.95850E-04 1.79482E-13-8.37037E-13
 -1      1441 1.99982E+01-1.01070E-05 9.46846E-08 2.16097E-04 3.49495E-14-9.49369E-13
 -1      1442 1.99984E+01-1.22453E-05 1.15724E-06 2.09972E-04 1.34921E-13-8.27633E-13
 -1      1443 1.99983E+01-1.97303E-05 2.67202E-06 4.42713E-04 2.56760E-13-6.23744E-13
 -1      1444 1.99986E+01-1.05966E-05-3.25829E-07 1.84701E-04 2.37125E-13-8.10584E-13
 -1      1445 1.99989E+01-1.22181E-05 6.37473E-07 1.78634E-04 2.58385E-13-4.90546E-13
 -1      1446 1.99987E+01-1.98207E-05 2.92849E-06 3.83905E-04 3.44395E-13-1.68087E-13
 -1      1447 1.99990E+01-1.09815E-05-4.84502E-07 1.52757E-04 3.18303E-13-4.76959E-13
 -1      1448 1.99992E+01-1.24472E-05 4.14190E-07 1.46648E-04 2.10665E-13-8.82446E-14
 -1      1449 1.99990E+01-1.97826E-05 3.07616E-06 3.22868E-04 4.36278E-13-1.17491E-13
 -1      1450 1.99993E+01-1.18807E-05-2.56062E-07 1.19435E-04 3.35742E-14-2.62346E-13
 -1      1451 1.99995E+01-1.34194E-05 5.91824E-07 1.12828E-04-1.42501E-15-2.35010E-13
 -1      1452 1.99993E+01-2.07260E-05 3.29715E-06 2.59597E-04 1.61022E-13-1.58379E-13
 -1      1453 1.99996E+01-1.37037E-05 4.64702E-07 8.27163E-05-6.71492E-14-2.22079E-13
 -1      1454 1.99997E+01-1.51693E-05 8.47326E-07 7.47927E-05-3.99969E-14-2.95300E-13
 -1      1455 1.99995E+01-2.36093E-05 3.59502E-06 1.91310E-04-8.39639E-14-3.45628E-13
 -1      1456 1.99997E+01-1.75099E-05 7.64006E-07 4.03780E-05-8.30148E-14-2.42355E-13
 -1      1457 1.99998E+01-1.53551E-05-6.27958E-07 3.10315E-05 8.25141E-15-2.63892E-13
 -1      1458 1.99997E+01-2.87063E-05 3.60691E-06 1.15352E-04-6.55270E-14-3.93198E-14
 -1      1459 1.99998E+01-3.17719E-06-2.23850E-06-3.89191E-06 6.33880E-14-1.28970E-13
 -1      1460 1.99998E+01-2.21939E-05 1.10100E-06 2.84354E-05 1.41774E-13-1.45199E-13
 -1      1461 2.34415E+01 1.06005E-01-1.45839E-01 2.68632E-02 1.65895E-13 2.47406E-12
 -1      1462 2.40807E+01 2.69435E-01-2.15552E-01 2.75352E-01 1.46966E-13 2.68760E-12
 -1      1463 2.40319E+01 8.50975E-01-1.10898E-01 1.29897E+00 2.72810E-13 1.89064E-12
 -1      1464 2.39110E+01 9.45653E-02-4.13181E-02-4.61092E-01 1.34098E-13 2.12444E-12
 -1      1465 2.35079E+01 2.06018E-01-5.67075E-02-3.42956E-01 1.25625E-13 2.31714E-12
 -1      1466 2.35233E+01 2.65242E-01-8.39351E-02-2.17558E-01 2.63831E-13 1.61319E-12
 -1      1467 2.55666E+01 1.00941E-01-3.44166E-02-9.06697E-01 5.63959E-14 1.89460E-12
 -1      1468 2.44966E+01 1.93214E-01-8.39130E-03-7.70546E-01 7.10890E-14 2.01247E-12
 -1      1469 2.40748E+01 2.22019E-01-6.11313E-02-1.15241E+00 1.84321E-13 1.38762E-12
 -1      1470 2.83131E+01 9.09378E-02-2.72398E-02-1.35254E+00 2.88762E-14 1.79828E-12
 -1      1471 2.66060E+01 1.95571E-01-6.97932E-03-1.19501E+00 2.90185E-14 1.85370E-12
 -1      1472 2.55397E+01 2.23886E-01-6.60727E-02-1.98918E+00 7.99256E-14 1.23113E-12
 -1      1473 3.18932E+01 2.71074E-03 5.13173E-02-1.64084E+00-8.74118E-14 1.86690E-12
 -1      1474 2.97025E+01 1.19099E-01 1.07622E-02-1.51720E+00-5.23982E-14 1.82199E-12
 -1      1475 2.77847E+01 1.48394E-01-4.40784E-02-2.69416E+00-3.61195E-14 1.22107E-12
 -1      1476 3.53204E+01-2.53450E-01 2.33014E-01-1.28738E+00-1.95802E-13 2.30655E-12
 -1      1477 3.33536E+01-1.77911E-01 9.29011E-02-1.37684E+00-1.76643E-13 2.02936E-12
 -1      1478 3.05573E+01-1.85608E-01 5.88923E-02-2.76454E+00-2.82448E-13 1.42647E-12
 -1      1479 3.63934E+01-6.53303E-01 3.08325E-01 4.10878E-01-2.08600E-13 2.89080E-12
 -1      1480 3.62999E+01-7.27459E-01 2.14049E-01-1.67647E-01-2.38198E-13 2.48534E-12
 -1      1481 3.32367E+01-9.74411E-01 2.06314E-01-1.19728E+00-4.31516E-13 1.71670E-12
 -1      1482 3.35584E+01-6.54197E-01-4.77264E-02 2.73291E+00-1.28009E-13 3.29209E-12
 -1      1483 3.62893E+01-1.05319E+00 1.41697E-01 1.96518E+00-1.76642E-13 2.97606E-12
 -1      1484 3.47187E+01-1.58945E+00 1.80024E-01 2.20828E+00-3.57211E-13 2.02090E-12
 -1      1485 2.83084E+01 1.64189E-01-8.91333E-01 3.75669E+00 1.13576E-13 3.26061E-12
 -1      1486 3.27585E+01-3.62001E-01-3.07429E-01 3.41201E+00 3.00038E-14 3.24818E-12
 -1      1487 3.46933E+01-7.47065E-01-7.70017E-02 5.29883E+00-7.69662E-14 2.09846E-12
 -1      1488 2.47917E+01 1.16083E+00-1.47900E+00 1.59189E+00 3.64264E-13 2.78601E-12
 -1      1489 2.77326E+01 9.93477E-01-9.91589E-01 2.25132E+00 2.86327E-13 3.02602E-12
 -1      1490 3.40084E+01 1.72092E+00-2.96976E-01 4.79437E+00 3.97349E-13 1.83965E-12
 -1      1491 2.60840E+01 1.05675E+00-1.29520E+00-1.96037E+00 7.16815E-13 1.78069E-12
 -1      1492 2.51487E+01 1.61516E+00-1.28248E+00-9.04404E-01 5.98466E-13 2.41186E-12
 -1      1493 3.38385E+01 3.39634E+00-2.84965E-01-3.02298E-02 9.55014E-13 1.27517E-12
 -1      1494 3.18553E+01-1.44722E-01-3.85050E-01-3.95614E+00 4.94244E-13 5.17031E-13
 -1      1495 2.72800E+01 5.81400E-01-9.44483E-01-3.41636E+00 5.99187E-13 1.32055E-12
 -1      1496 3.41583E+01 1.47097E+00-4.29127E-01-4.79729E+00 1.13887E-12 6.12357E-13
 -1      1497 3.70231E+01-7.65178E-01 3.84704E-01-2.26196E+00 1.70280E-13-1.28564E-13
 -1      1498 3.27598E+01-5.49144E-01-1.41321E-01-2.77562E+00 2.62443E-13 2.75779E-13
 -1      1499 3.50484E+01-1.22670E+00-1.84222E-01-5.13637E+00 6.47871E-13-5.77802E-14
 -1      1500 3.75667E+01-4.61531E-01 4.08017E-01 3.58499E-01-5.62744E-14-1.51705E-13
 -1      1501 3.65443E+01-6.63822E-01 3.07317E-01-3.32595E-01-1.41276E-14-1.11355E-13
 -1      1502 3.47470E+01-1.70946E+00 5.90889E-02-1.47292E+00 1.17510E-13-2.82330E-13
 -1      1503 3.44801E+01-7.27932E-02 1.22895E-01 1.54133E+00-7.48568E-14 5.87030E-14
 -1      1504 3.60596E+01-3.13880E-01 2.12464E-01 1.25552E+00-5.47964E-14-2.94903E-14
 -1      1505 3.28281E+01-8.32437E-01 9.92276E-02 1.80647E+00-1.01127E-13-2.13156E-13
 -1      1506 3.06163E+01 8.22040E-02-4.31493E-02 1.58485E+00-3.81438E-14 1.21958E-13
 -1      1507 3.28886E+01-3.79380E-02 3.19638E-02 1.57038E+00-3.89159E-14 1.01974E-13
 -1      1508 3.00926E+01-6.56388E-02 4.29170E-02 2.88799E+00-4.39510E-14-1.81896E-13
 -1      1509 2.73040E+01 1.05229E-01-7.62338E-02 1.23287E+00-1.05578E-13 4.02650E-13
 -1      1510 2.92845E+01 7.46690E-02-4.46230E-02 1.30578E+00-9.82322E-14 2.64941E-13
 -1      1511 2.74014E+01 2.10640E-01-2.35797E-03 2.64016E+00-1.78068E-13-2.49523E-14
 -1      1512 2.48537E+01 8.49122E-02-5.83176E-02 8.55569E-01 6.71459E-14 5.21291E-13
 -1      1513 2.63008E+01 9.26692E-02-4.80230E-02 9.33019E-01 1.45804E-14 5.63743E-13
 -1      1514 2.51804E+01 2.30634E-01-1.65003E-02 1.98998E+00-1.00432E-13 2.30312E-13
 -1      1515 2.31662E+01 5.91087E-02-3.51175E-02 5.63058E-01 7.12572E-14 3.96485E-13
 -1      1516 2.41416E+01 7.67339E-02-3.06133E-02 6.22566E-01 4.82843E-14 4.62977E-13
 -1      1517 2.35207E+01 1.75446E-01-1.54788E-02 1.37184E+00 8.10949E-14 1.71943E-13
 -1      1518 2.20463E+01 3.86246E-02-1.90940E-02 3.61538E-01 3.04808E-14 2.92112E-13
 -1      1519 2.26787E+01 5.52211E-02-1.54228E-02 4.02440E-01 4.90085E-14 3.36085E-13
 -1      1520 2.23511E+01 1.17337E-01-1.11570E-02 9.04997E-01 1.27520E-13 1.00294E-13
 -1      1521 2.13169E+01 2.45320E-02-9.97661E-03 2.29805E-01-1.34821E-13 3.53198E-13
 -1      1522 2.17197E+01 3.73247E-02-6.56777E-03 2.56632E-01-8.84093E-14 2.00666E-13
 -1      1523 2.15545E+01 7.42015E-02-7.52210E-03 5.84555E-01-2.85978E-14-8.13802E-14
 -1      1524 2.08458E+01 1.54030E-02-5.16250E-03 1.45726E-01-8.40192E-14 5.38720E-13
 -1      1525 2.11006E+01 2.44998E-02-2.29416E-03 1.62974E-01-2.71397E-14 4.58902E-13
 -1      1526 2.10224E+01 4.57920E-02-5.05313E-03 3.74277E-01-1.16482E-13 7.60737E-14
 -1      1527 2.05422E+01 9.64599E-03-2.67603E-03 9.25757E-02 1.13741E-13 4.06159E-13
 -1      1528 2.07034E+01 1.58806E-02-4.75710E-04 1.03587E-01 4.93479E-14 4.62897E-13
 -1      1529 2.06702E+01 2.80054E-02-3.43112E-03 2.39174E-01 4.22969E-14 1.85983E-13
 -1      1530 2.03463E+01 6.05593E-03-1.38992E-03 5.90344E-02-6.04360E-14 6.36071E-14
 -1      1531 2.04485E+01 1.02587E-02 2.01364E-04 6.60634E-02-3.71599E-15 2.43169E-13
 -1      1532 2.04381E+01 1.71125E-02-2.34959E-03 1.53108E-01 1.32516E-13-1.16671E-13
 -1      1533 2.02196E+01 3.82339E-03-7.19178E-04 3.78051E-02-1.40170E-13 3.73608E-13
 -1      1534 2.02846E+01 6.64053E-03 3.94020E-04 4.23116E-02-6.41572E-14 2.80282E-13
 -1      1535 2.02850E+01 1.04958E-02-1.61626E-03 9.83506E-02-1.33526E-13 1.07462E-13
 -1      1536 2.01373E+01 2.43194E-03-3.66980E-04 2.42887E-02 5.85485E-15 4.27175E-13
 -1      1537 2.01789E+01 4.32207E-03 3.98611E-04 2.71988E-02-4.65650E-14 4.60193E-13
 -1      1538 2.01840E+01 6.47949E-03-1.11518E-03 6.34041E-02-1.28319E-13 3.84376E-13
 -1      1539 2.00838E+01 1.55976E-03-1.81488E-04 1.56169E-02 1.10827E-13 4.96153E-13
 -1      1540 2.01105E+01 2.83455E-03 3.41063E-04 1.75130E-02 5.54234E-14 5.74266E-13
 -1      1541 2.01172E+01 4.03229E-03-7.72059E-04 4.09699E-02 2.29392E-14 5.43364E-13
 -1      1542 2.00491E+01 1.00848E-03-8.38460E-05 1.00063E-02-8.65085E-14 5.14181E-13
 -1      1543 2.00661E+01 1.87521E-03 2.71964E-04 1.12540E-02-1.07492E-13 3.46658E-13
 -1      1544 2.00730E+01 2.53064E-03-5.36795E-04 2.64610E-02 2.59577E-14 5.58555E-13
 -1      1545 2.00267E+01 6.55857E-04-3.33388E-05 6.34640E-03-1.99852E-14 6.84222E-13
 -1      1546 2.00375E+01 1.25159E-03 2.09679E-04 7.17609E-03-5.73199E-14 5.66111E-13
 -1      1547 2.00438E+01 1.60001E-03-3.75251E-04 1.70039E-02-1.56219E-13 4.31320E-13
 -1      1548 2.00123E+01 4.25897E-04-1.23053E-05 3.94243E-03 1.11384E-13 4.38628E-13
 -1      1549 2.00191E+01 8.47390E-04 1.62003E-04 4.50272E-03 9.64602E-14 6.91224E-13
 -1      1550 2.00247E+01 1.00772E-03-2.66842E-04 1.07951E-02 1.11114E-13 5.40487E-13
 -1      1551 2.00030E+01 2.63513E-04 3.88107E-06 2.29506E-03-2.21032E-14 2.81569E-13
 -1      1552 2.00073E+01 5.61460E-04 1.19544E-04 2.69086E-03-3.82077E-14 3.36995E-13
 -1      1553 2.00120E+01 6.69989E-04-1.72980E-04 6.64124E-03 1.33814E-13 4.11955E-13
 -1      1554 1.99978E+01 1.76871E-04 1.37588E-05 1.28449E-03-3.55796E-13 8.38684E-13
 -1      1555 2.00001E+01 3.82619E-04 9.13832E-05 1.53090E-03-2.80014E-13 4.40768E-13
 -1      1556 2.00040E+01 3.93570E-04-1.30461E-04 3.88242E-03-3.29089E-13 4.81679E-13
 -1      1557 1.99949E+01 1.12402E-04 1.61235E-05 6.22052E-04 8.59676E-14 1.11333E-12
 -1      1558 1.99961E+01 2.54523E-04 6.70121E-05 7.87944E-04-2.97940E-14 9.67175E-13
 -1      1559 1.99993E+01 2.47606E-04-9.04882E-05 2.13485E-03-2.48727E-13 5.53735E-13
 -1      1560 1.99935E+01 6.88836E-05 1.67088E-05 1.98888E-04 7.37251E-15 8.47057E-13
 -1      1561 1.99940E+01 1.69786E-04 5.06124E-05 3.08990E-04 8.11812E-14 1.03550E-12
 -1      1562 1.99966E+01 1.48102E-04-6.31993E-05 9.97779E-04 1.31311E-13 7.12718E-13
 -1      1563 1.99931E+01 3.96673E-05 1.62146E-05-6.22028E-05-4.87809E-15 8.43778E-13
 -1      1564 1.99931E+01 1.11142E-04 3.84625E-05 9.25479E-06-1.00167E-13 6.85997E-13
 -1      1565 1.99952E+01 8.24905E-05-4.36991E-05 2.73669E-04-5.46520E-14 4.42242E-13
 -1      1566 1.99933E+01 2.02205E-05 1.50985E-05-2.13827E-04 2.03219E-13 5.64533E-13
 -1      1567 1.99930E+01 7.04857E-05 2.93060E-05-1.69098E-04 1.42302E-13 7.01590E-13
 -1      1568 1.99947E+01 3.96000E-05-2.97083E-05-1.70180E-04 1.95226E-13 3.23900E-13
 -1      1569 1.99938E+01 7.52536E-06 1.36525E-05-2.92228E-04 3.97654E-14 1.08145E-13
 -1      1570 1.99934E+01 4.24444E-05 2.23379E-05-2.65877E-04 2.53191E-13 5.53002E-13
 -1      1571 1.99947E+01 1.20612E-05-1.97051E-05-4.24593E-04 3.30095E-13 2.64822E-13
 -1      1572 1.99945E+01-4.79780E-07 1.20592E-05-3.22633E-04-6.83729E-14-6.88560E-14
 -1      1573 1.99941E+01 2.33438E-05 1.69954E-05-3.08739E-04-2.92091E-14-6.66355E-14
 -1      1574 1.99951E+01-5.00248E-06-1.26086E-05-5.52516E-04 2.80430E-14 1.61954E-14
 -1      1575 1.99953E+01-5.23601E-06 1.04366E-05-3.22659E-04 2.56492E-13-2.83378E-13
 -1      1576 1.99948E+01 1.06128E-05 1.28763E-05-3.17004E-04 5.44229E-14-2.27058E-13
 -1      1577 1.99956E+01-1.49046E-05-7.64067E-06-5.97897E-04 8.65293E-14-3.62386E-13
 -1      1578 1.99960E+01-7.77047E-06 8.86357E-06-3.04558E-04 1.81084E-14-5.09025E-13
 -1      1579 1.99956E+01 2.41289E-06 9.68947E-06-3.04141E-04 1.35785E-13-3.90057E-13
 -1      1580 1.99962E+01-1.99526E-05-4.23185E-06-5.91447E-04 3.57593E-13-4.89771E-13
 -1      1581 1.99968E+01-8.82789E-06 7.39319E-06-2.76717E-04-3.62774E-14-7.38429E-13
 -1      1582 1.99963E+01-2.59781E-06 7.22073E-06-2.79428E-04 2.61542E-14-5.75541E-13
 -1      1583 1.99968E+01-2.17881E-05-1.95867E-06-5.54463E-04 1.43032E-13-8.10054E-13
 -1      1584 1.99974E+01-8.95814E-06 6.06131E-06-2.44694E-04-1.90661E-14-5.06924E-13
 -1      1585 1.99970E+01-5.41981E-06 5.30951E-06-2.49087E-04 1.12639E-14-5.25685E-13
 -1      1586 1.99973E+01-2.16039E-05-5.01381E-07-5.01420E-04-5.10064E-14-6.07910E-13
 -1      1587 1.99980E+01-8.57851E-06 4.89669E-06-2.11924E-04 3.25354E-15-4.19445E-13
 -1      1588 1.99977E+01-6.82140E-06 3.83357E-06-2.17060E-04 6.28537E-14-3.76689E-13
 -1      1589 1.99979E+01-2.02911E-05 3.86268E-07-4.41754E-04 1.83726E-14-3.82208E-13
 -1      1590 1.99985E+01-8.01726E-06 3.93860E-06-1.80188E-04 3.15666E-14-3.78226E-13
 -1      1591 1.99982E+01-7.41826E-06 2.70534E-06-1.85542E-04-4.30443E-14-3.48095E-13
 -1      1592 1.99983E+01-1.85449E-05 9.04126E-07-3.81076E-04-1.51915E-13-4.79496E-15
 -1      1593 1.99989E+01-7.55313E-06 3.26765E-06-1.49916E-04 1.70218E-14-4.93583E-13
 -1      1594 1.99987E+01-7.74286E-06 1.87890E-06-1.55316E-04 8.26875E-14-3.38185E-13
 -1      1595 1.99987E+01-1.69475E-05 1.23558E-06-3.21981E-04 1.00674E-14-1.75099E-13
 -1      1596 1.99992E+01-7.45888E-06 3.05110E-06-1.20271E-04-1.90824E-13-2.28024E-13
 -1      1597 1.99991E+01-8.33107E-06 1.37604E-06-1.25926E-04-2.25848E-13-4.60577E-13
 -1      1598 1.99991E+01-1.60825E-05 1.57738E-06-2.64538E-04-2.04735E-13-1.15003E-13
 -1      1599 1.99995E+01-7.94012E-06 3.44726E-06-8.93055E-05 5.56404E-14-1.74280E-13
 -1      1600 1.99994E+01-9.67442E-06 1.29968E-06-9.57771E-05 3.31214E-14-5.71224E-14
 -1      1601 1.99994E+01-1.64776E-05 2.17135E-06-2.06495E-04-9.56522E-14 1.40034E-13
 -1      1602 1.99997E+01-9.00626E-06 3.70878E-06-5.40026E-05-2.31037E-13 2.19785E-13
 -1      1603 1.99996E+01-1.22004E-05 1.56153E-06-6.25269E-05-1.89288E-13-2.39187E-13
 -1      1604 1.99996E+01-1.85965E-05 3.00610E-06-1.44066E-04-2.37807E-13 4.36921E-13
 -1      1605 1.99998E+01-1.00003E-05-3.53852E-07-1.57080E-05-2.31066E-13 8.03096E-13
 -1      1606 1.99997E+01-1.42595E-05 9.04095E-07-2.56870E-05-2.10313E-13 3.64858E-13
 -1      1607 1.99997E+01-2.16629E-05 2.85598E-06-7.44975E-05-5.17241E-13 7.21555E-14
 -1      1608 1.99998E+01-4.12315E-06-2.53688E-06 1.70528E-06 6.15860E-13 5.77328E-13
 -1      1609 1.99998E+01-8.02390E-05 2.11617E-06-4.24418E-05 6.49832E-13-1.44473E-13
 -1      1610 1.99998E+01-4.04497E-05-1.10229E-06-3.27190E-05 6.09156E-13 5.21667E-14
 -1      1611 1.99998E+01-2.28575E-04 1.31985E-06-7.84358E-05 4.22812E-13-2.68691E-13
 -1      1612 1.99998E+01-1.42408E-04 1.40632E-06-7.11598E-05 8.72053E-13-3.31421E-13
 -1      1613 1.99998E+01-1.39247E-04 2.79844E-06-1.12754E-04-1.37598E-14-2.16519E-13
 -1      1614 1.99998E+01-4.24636E-04 3.67597E-07-9.80623E-05 1.78321E-13 8.24227E-14
 -1      1615 1.99998E+01-3.11156E-04 1.00637E-06-9.55300E-05 5.05002E-13-2.75182E-13
 -1      1616 1.99998E+01-2.83061E-04 2.25952E-06-1.69073E-04 3.46557E-13-4.02513E-13
 -1      1617 1.99998E+01-6.35151E-04-1.53912E-07-1.00597E-04 1.77335E-13 6.30177E-15
 -1      1618 1.99998E+01-5.15750E-04 3.09789E-07-1.01487E-04-4.25600E-15 2.76091E-13
 -1      1619 1.99998E+01-4.56375E-04 3.01105E-07-1.92941E-04 1.10128E-13 3.94341E-14
 -1      1620 1.99998E+01-8.25613E-04-3.33881E-07-8.82675E-05 1.16958E-13 8.60943E-14
 -1      1621 1.99998E+01-7.20527E-04 1.71185E-08-9.17879E-05 3.55054E-15-5.78514E-14
 -1      1622 1.99998E+01-6.31925E-04-1.37557E-06-1.85892E-04-1.22698E-13-1.27046E-13
 -1      1623 1.99998E+01-9.76243E-04-3.59506E-07-6.39302E-05-2.08999E-13-3.69728E-13
 -1      1624 1.99998E+01-8.96811E-04-1.37095E-07-6.95186E-05-6.41719E-15-4.04464E-14
 -1      1625 1.99998E+01-7.87244E-04-2.65332E-06-1.52468E-04-1.32657E-13-4.11579E-14
 -1      1626 1.99998E+01-1.06416E-03-3.07198E-07-3.16981E-05-9.08819E-13-4.00098E-13
 -1      1627 1.99998E+01-1.02231E-03-1.91772E-07-3.84604E-05-2.65777E-13-3.16137E-13
 -1      1628 1.99998E+01-9.03248E-04-3.53289E-06-9.89553E-05-2.72766E-13-7.42578E-13
 -1      1629 1.99998E+01-1.07897E-03-2.44358E-07 4.20117E-06-1.03471E-12 2.46638E-14
 -1      1630 1.99998E+01-1.07967E-03-2.40473E-07-2.92711E-06-8.72723E-13-5.13643E-14
 -1      1631 1.99998E+01-9.64150E-04-3.96096E-06-3.34567E-05-2.46650E-13-4.36644E-13
 -1      1632 1.99998E+01-1.01911E-03-1.83157E-07 3.95212E-05-6.85060E-13 2.58210E-13
 -1      1633 1.99998E+01-1.06217E-03-2.98289E-07 3.28336E-05-9.61508E-13 2.78380E-13
 -1      1634 1.99998E+01-9.62825E-04-3.93797E-06 3.58267E-05-4.05813E-13 7.39222E-14
 -1      1635 1.99998E+01-8.91938E-04-1.07588E-07 7.00839E-05-6.57542E-13-2.35296E-13
 -1      1636 1.99998E+01-9.72072E-04-3.64259E-07 6.46333E-05-5.46337E-13 3.01560E-14
 -1      1637 1.99998E+01-8.99596E-04-3.46398E-06 1.00708E-04-2.53732E-13 2.37930E-13
 -1      1638 1.99998E+01-7.16712E-04 4.36661E-09 9.16003E-05-5.44934E-13 3.83287E-13
 -1      1639 1.99998E+01-8.21777E-04-3.41548E-07 8.81994E-05-5.92261E-13-4.64432E-14
 -1      1640 1.99998E+01-7.83333E-04-2.59625E-06 1.52898E-04-3.43219E-13-1.84304E-13
 -1      1641 1.99998E+01-5.10861E-04 3.11905E-07 1.01064E-04-1.07774E-13-3.95933E-14
 -1      1642 1.99998E+01-6.29881E-04-1.53670E-07 1.00252E-04-2.75766E-13 2.82951E-13
 -1      1643 1.99998E+01-6.27780E-04-1.28961E-06 1.85431E-04-8.17766E-14 5.98288E-13
 -1      1644 1.99998E+01-3.07442E-04 9.60788E-07 9.49851E-05-2.51612E-13 1.12171E-13
 -1      1645 1.99998E+01-4.20224E-04 3.71969E-07 9.73655E-05-2.40962E-13 7.98956E-14
 -1      1646 1.99998E+01-4.51341E-04 3.64138E-07 1.91904E-04 1.02961E-13-5.10402E-14
 -1      1647 1.99998E+01-1.42800E-04 3.78657E-07 7.14661E-05-9.13365E-14 2.14847E-13
 -1      1648 1.99998E+01-2.26591E-04 1.29504E-06 7.77685E-05-2.20418E-13 2.99191E-13
 -1      1649 1.99998E+01-2.79957E-04 2.04765E-06 1.66937E-04-5.12317E-14 1.19181E-13
 -1      1650 1.99998E+01-5.70881E-05-1.78646E-06 4.97555E-05 1.86632E-14-1.24984E-13
 -1      1651 1.99998E+01-9.82052E-05 1.11463E-06 6.40886E-05-3.47698E-14 7.92665E-14
 -1      1652 1.99998E+01-1.55349E-04 2.04419E-06 1.33711E-04-1.42387E-13 3.54454E-13
 -1      1653 1.99997E+01-7.45899E-05-6.12327E-07 9.94817E-05 1.98938E-14-1.50324E-13
 -1      1654-1.32426E+00-1.86479E+01-1.96719E+00-2.73045E+00 2.11636E-12 6.95499E-13
 -1      1655-9.80568E-01-1.91272E+01-1.91406E+00-9.19336E-01 1.41634E-12 4.55747E-13
 -1      1656-8.43448E-01-1.36035E+01-1.87308E+00-2.72679E+00 2.87204E-12 1.49696E-12
 -1      1657-7.85633E-01-1.81165E+01-2.15100E+00-2.33643E+00 2.40113E-12 9.83380E-13
 -1      1658 5.08062E+00-5.64191E+00-1.30482E+00 1.58691E+00 2.70051E-12 1.88560E-12
 -1      1659 2.43142E+00-1.14828E+01-1.90040E+00-8.59829E-01 2.77467E-12 1.45939E-12
 -1      1660 1.64119E+01 1.06984E+00-5.69102E-01 7.00321E+00 2.29905E-12 2.33502E-12
 -1      1661 9.29057E+00-3.77177E+00-1.58367E+00 2.70072E+00 2.67075E-12 2.11609E-12
 -1      1662 3.36557E+01 4.07724E+00 6.42736E-01 1.11649E+01 1.60927E-12 2.07878E-12
 -1      1663 2.26335E+01 2.38617E+00-6.82192E-01 7.92376E+00 2.13696E-12 2.28750E-12
 -1      1664 5.42141E+01 3.68739E+00 2.28283E+00 9.34584E+00 9.98146E-13 8.60645E-13
 -1      1665 4.09174E+01 4.15556E+00 7.25951E-01 9.47223E+00 1.51690E-12 1.67644E-12
 -1      1666 6.89082E+01 3.65683E+00 3.66897E+00 4.20491E+00 6.06959E-13-7.11431E-13
 -1      1667 6.01300E+01 4.99362E+00 2.68029E+00 9.18560E+00 8.51083E-13 4.75620E-13
 -1      1668 6.79582E+01 4.28892E+00 3.41039E+00-4.15084E+00 7.94198E-13-2.01750E-12
 -1      1669 6.92767E+01 4.12839E+00 3.62132E+00 2.18259E+00 6.23612E-13-1.01708E-12
 -1      1670 5.55774E+01 4.98103E+00 2.11702E+00-9.46192E+00 1.26588E-12-2.90545E-12
 -1      1671 6.57905E+01 3.66542E+00 3.28071E+00-5.66147E+00 8.04912E-13-2.34968E-12
 -1      1672 3.63398E+01 5.01613E+00 4.52079E-01-1.09951E+01 1.96654E-12-3.26006E-12
 -1      1673 5.03516E+01 4.69099E+00 2.11901E+00-1.18010E+01 1.49242E-12-3.35620E-12
 -1      1674 1.90279E+01 1.57456E+00-9.04691E-01-7.08313E+00 2.37388E-12-2.81886E-12
 -1      1675 2.92517E+01 4.10327E+00 3.80715E-01-1.09963E+01 2.15561E-12-3.20433E-12
 -1      1676 7.20009E+00-4.65120E+00-1.71688E+00-1.99469E+00 2.06146E-12-2.06757E-12
 -1      1677 1.28759E+01 3.14447E-01-8.28311E-01-5.93718E+00 2.36011E-12-2.68563E-12
 -1      1678 1.20140E+00-1.23406E+01-2.09111E+00 1.57595E+00 1.10434E-12-1.14808E-12
 -1      1679 3.11143E+00-6.53570E+00-1.53916E+00-4.50303E-01 1.85585E-12-1.85374E-12
 -1      1680-7.34649E-01-1.83150E+01-2.14364E+00 2.05983E+00-2.18436E-13-5.46979E-13
 -1      1681-8.25485E-01-1.42218E+01-1.91183E+00 2.67042E+00 7.80820E-13-8.65433E-13
 -1      1682-9.44539E-01-1.87827E+01-1.90555E+00 5.84740E-01-1.69470E-12-5.54556E-13
 -1      1683-1.23789E+00-1.87410E+01-1.98806E+00 2.47836E+00-6.55365E-13-5.19140E-13
 -1      1684-2.76188E-01-1.41368E+01-1.57422E+00-2.71523E-01-2.86426E-12-1.00087E-12
 -1      1685-4.74793E-01-1.82613E+01-1.96301E+00 8.52211E-01-2.13135E-12-6.14064E-13
 -1      1686 2.84487E+00-5.49227E+00-9.42178E-01 2.24034E+00-3.22253E-12-1.66411E-12
 -1      1687 1.45964E+00-1.17961E+01-1.61636E+00 8.32409E-01-2.98583E-12-1.18297E-12
 -1      1688 1.12545E+01 2.32467E+00-1.75473E-01 7.53812E+00-2.90212E-12-2.15050E-12
 -1      1689 6.72326E+00-3.32040E+00-1.02035E+00 3.90145E+00-3.07043E-12-1.80078E-12
 -1      1690 2.29621E+01 7.44980E+00 5.37177E-01 1.25508E+01-2.36033E-12-2.30327E-12
 -1      1691 1.50779E+01 4.86820E+00-3.73146E-01 8.83000E+00-2.93188E-12-2.34035E-12
 -1      1692 3.88529E+01 6.97005E+00 1.10066E+00 1.36610E+01-1.41531E-12-1.62514E-12
 -1      1693 2.88530E+01 7.60641E+00 3.32757E-01 1.26100E+01-1.99107E-12-2.13740E-12
 -1      1694 5.22702E+01 5.13914E+00 1.53778E+00 8.98270E+00-7.46264E-13-7.40963E-13
 -1      1695 4.37082E+01 7.00374E+00 9.63348E-01 1.19436E+01-1.16544E-12-1.41853E-12
 -1      1696 5.96146E+01 3.94757E+00 1.86331E+00 1.41989E+00-4.97158E-13 3.01398E-13
 -1      1697 5.61409E+01 4.88231E+00 1.57841E+00 7.18014E+00-5.76150E-13-4.83502E-13
 -1      1698 5.74252E+01 4.68088E+00 1.71879E+00-7.03457E+00-6.06987E-13 1.31473E-12
 -1      1699 6.01336E+01 3.81183E+00 1.89678E+00-1.44100E+00-4.36845E-13 6.74780E-13
 -1      1700 4.71872E+01 6.82072E+00 1.22574E+00-1.21389E+01-1.15281E-12 1.88705E-12
 -1      1701 5.41810E+01 5.07426E+00 1.68524E+00-8.95485E+00-7.38479E-13 1.47071E-12
 -1      1702 3.44121E+01 8.43474E+00 7.25555E-01-1.41307E+01-1.68776E-12 2.39608E-12
 -1      1703 4.32066E+01 7.17546E+00 1.37229E+00-1.40470E+01-1.28464E-12 2.16915E-12
 -1      1704 2.12473E+01 7.15065E+00 5.07611E-02-1.14519E+01-2.11320E-12 2.26263E-12
 -1      1705 2.94496E+01 8.16126E+00 8.66988E-01-1.41000E+01-1.82543E-12 2.38853E-12
 -1      1706 1.08839E+01 2.37169E+00-6.08100E-01-6.79922E+00-1.91247E-12 1.76736E-12
 -1      1707 1.65907E+01 6.09538E+00 2.29575E-01-1.04226E+01-2.08411E-12 2.29261E-12
 -1      1708 4.54949E+00-5.85953E+00-1.18935E+00-2.74146E+00-1.24256E-12 1.06537E-12
 -1      1709 7.63266E+00-1.63137E-02-4.42384E-01-5.60954E+00-1.70908E-12 1.58029E-12
 -1      1710 7.35121E-01-1.37815E+01-1.71821E+00-5.26977E-01-1.15685E-13 6.35696E-13
 -1      1711 1.54311E+00-8.15071E+00-1.14270E+00-1.13906E+00-1.03428E-12 9.11243E-13
 -1      1712-6.35306E-01-1.88166E+01-1.94864E+00-1.20988E+00 1.11033E-12 4.34014E-13
 -1      1713-4.50108E-01-1.56000E+01-1.63873E+00 1.23054E-01 2.03282E-13 5.13201E-13
 -1      1714 2.61809E+01-3.44247E+00-2.56635E-01 5.19743E+00 1.52478E-12 1.21958E-12
 -1      1715 1.35723E+01-7.28673E+00-9.41989E-01 4.47671E+00 1.53955E-12 1.13798E-12
 -1      1716 1.99998E+01-1.33023E-05 6.65669E-07-1.42033E-05 5.37698E-13 1.40635E-13
 -1      1717 1.99998E+01-5.47439E-05-1.12224E-07-5.66623E-05-1.89249E-13 8.69787E-14
 -1      1718-1.25440E+00-1.29590E+01-1.48185E+00-1.39156E-01 1.25666E-12 1.03179E-12
 -1      1719 4.04810E+00-1.04616E+01-1.23399E+00 2.56583E+00 1.47626E-12 1.10628E-12
 -1      1720-1.83836E+00-1.30157E+01-1.40378E+00-1.85340E+00 7.51899E-13 8.85847E-13
 -1      1721 4.05005E+01 1.70934E-01 8.58580E-01 3.34568E+00 1.44595E-12 8.11351E-13
 -1      1722 5.17540E+01 4.41279E+00 2.00762E+00 9.25256E-01 1.45761E-12 2.46692E-13
 -1      1723 5.74673E+01 8.08098E+00 2.88322E+00 1.66059E-01 1.27631E-12-3.54605E-13
 -1      1724 5.57875E+01 7.61758E+00 2.61625E+00-4.42673E-02 1.05160E-12-7.52454E-13
 -1      1725 4.93500E+01 4.03862E+00 1.79018E+00-2.94124E+00 1.08992E-12-1.34115E-12
 -1      1726 3.70668E+01-3.92417E-01 4.32307E-01-5.10909E+00 1.11433E-12-1.85874E-12
 -1      1727 2.28417E+01-3.84424E+00-4.63612E-01-5.54537E+00 1.15485E-12-1.80012E-12
 -1      1728 1.08180E+01-7.45584E+00-1.08942E+00-4.12214E+00 8.78408E-13-1.73689E-12
 -1      1729 2.64114E+00-1.09857E+01-1.42311E+00-1.92042E+00 3.69482E-13-1.38035E-12
 -1      1730-1.34607E+00-1.29464E+01-1.48634E+00 1.60964E-01-3.38007E-13-1.12033E-12
 -1      1731-1.61758E+00-1.26677E+01-1.40020E+00 1.97567E+00-1.04061E-12-1.06370E-12
 -1      1732 1.84793E+00-1.00021E+01-1.10322E+00 4.11144E+00-1.64091E-12-1.09773E-12
 -1      1733 9.29626E+00-5.62926E+00-5.68625E-01 6.67129E+00-1.72939E-12-1.18636E-12
 -1      1734 1.87145E+01-1.18469E+00-1.37980E-01 8.14458E+00-1.79601E-12-1.21370E-12
 -1      1735 2.98597E+01 3.21311E+00 5.51736E-01 8.74053E+00-1.70047E-12-1.14475E-12
 -1      1736 4.01222E+01 5.82385E+00 9.89531E-01 6.52135E+00-1.34109E-12-7.70495E-13
 -1      1737 4.73467E+01 7.79548E+00 1.28906E+00 3.44783E+00-1.07137E-12-5.30742E-13
 -1      1738 5.16856E+01 8.08120E+00 1.59155E+00-7.75838E-02-8.71525E-13 2.08167E-14
 -1      1739 4.89970E+01 7.82429E+00 1.42552E+00-3.91602E+00-8.55760E-13 5.26690E-13
 -1      1740 4.27666E+01 6.83248E+00 1.19106E+00-7.10448E+00-9.64298E-13 8.63865E-13
 -1      1741 3.41082E+01 4.82215E+00 7.93677E-01-9.13059E+00-1.00681E-12 1.16540E-12
 -1      1742 2.39134E+01 1.69389E+00 2.32803E-01-8.99635E+00-1.01708E-12 1.35714E-12
 -1      1743 1.45093E+01-2.70905E+00-3.31323E-01-7.68984E+00-6.62026E-13 1.25522E-12
 -1      1744 6.48884E+00-6.96772E+00-7.39868E-01-5.93253E+00-3.41727E-13 1.18076E-12
 -1      1745 6.42792E-01-1.10434E+01-1.21691E+00-3.55753E+00 2.08722E-13 1.07933E-12
 -1      1746 2.30312E+01 2.00819E+00-2.43426E-02-2.83812E+00-3.61496E-13 3.10613E-13
 -1      1747 2.02423E+01 3.54407E+00-3.39500E-02-2.30619E+00-2.10784E-13-8.29632E-13
 -1      1748 2.03776E+01 3.42669E+00-4.78761E-02-2.63527E+00-3.10333E-13-7.91978E-13
 -1      1749 2.05982E+01 3.11883E+00-4.61697E-02-2.78254E+00-3.64718E-13-6.91877E-13
 -1      1750 2.07411E+01 2.77390E+00-1.51349E-01-3.05917E+00-4.56891E-13-5.55882E-13
 -1      1751 2.07128E+01 2.53902E+00-7.62706E-03-2.46219E+00-3.74732E-13-6.75678E-13
 -1      1752 2.00004E+01 3.79836E+00-1.97632E-02-1.11442E+00 8.16825E-14-8.01113E-13
 -1      1753 2.00525E+01 3.78641E+00-2.30189E-02-1.43050E+00 1.38856E-14-8.41632E-13
 -1      1754 1.98212E+01 3.84111E+00-1.76237E-02-4.67151E-01 1.98041E-13-7.45654E-13
 -1      1755 1.99276E+01 3.83270E+00-1.76203E-02-7.86047E-01 1.45733E-13-7.86253E-13
 -1      1756 2.02523E+01 3.22466E+00-1.47823E-02-9.30201E-01 1.09018E-13-7.63676E-13
 -1      1757 1.94876E+01 3.91326E+00-1.74739E-02 1.72031E-01 2.98264E-13-6.74797E-13
 -1      1758 1.96782E+01 3.89396E+00-1.21274E-02-1.30981E-01 2.55156E-13-7.16489E-13
 -1      1759 2.00264E+01 3.29838E+00-1.71911E-02-2.68135E-01 2.37087E-13-7.02929E-13
 -1      1760 1.89843E+01 4.05479E+00-1.88256E-02 7.52309E-01 4.00222E-13-6.17067E-13
 -1      1761 1.92592E+01 4.01561E+00-6.04901E-03 4.87960E-01 3.57887E-13-6.50407E-13
 -1      1762 1.96218E+01 3.43030E+00-1.87229E-02 3.90751E-01 3.51062E-13-6.41733E-13
 -1      1763 1.83720E+01 4.27943E+00-2.08662E-02 1.20714E+00 4.76340E-13-5.60975E-13
 -1      1764 1.86898E+01 4.21965E+00-6.07052E-04 1.00829E+00 4.45293E-13-5.98389E-13
 -1      1765 1.90359E+01 3.66361E+00-1.82476E-02 9.78908E-01 4.54885E-13-5.84153E-13
 -1      1766 1.78028E+01 4.55765E+00-2.19690E-02 1.47525E+00 5.35609E-13-5.07634E-13
 -1      1767 1.80749E+01 4.48824E+00 1.78100E-03 1.36120E+00 5.05664E-13-5.48632E-13
 -1      1768 1.83556E+01 3.99808E+00-1.43251E-02 1.40981E+00 5.31786E-13-5.37472E-13
 -1      1769 1.75039E+01 4.80346E+00-2.09352E-02 1.53835E+00 5.98802E-13-4.04114E-13
 -1      1770 1.76104E+01 4.74939E+00-1.43626E-03 1.50325E+00 5.68120E-13-4.66774E-13
 -1      1771 1.77710E+01 4.36451E+00-7.19278E-03 1.60784E+00 6.01079E-13-4.70968E-13
 -1      1772 1.77011E+01 4.90547E+00-1.80368E-02 1.45530E+00 6.52705E-13-2.68017E-13
 -1      1773 1.75269E+01 4.89522E+00-1.20793E-02 1.45979E+00 6.18914E-13-3.52170E-13
 -1      1774 1.75350E+01 4.63459E+00 1.90811E-03 1.55840E+00 6.68213E-13-3.63602E-13
 -1      1775 1.85670E+01 4.73031E+00-1.51613E-02 1.36343E+00 6.56430E-13-5.39620E-14
 -1      1776 1.80410E+01 4.80039E+00-2.95187E-02 1.33398E+00 6.42599E-13-1.89980E-13
 -1      1777 1.78963E+01 4.64184E+00 8.44479E-03 1.33739E+00 6.93812E-13-2.13540E-13
 -1      1778 2.00965E+01 4.15332E+00-2.28728E-02 1.45042E+00 6.26844E-13 2.93182E-13
 -1      1779 1.92471E+01 4.35560E+00-5.03418E-02 1.30062E+00 6.32990E-13 8.59660E-14
 -1      1780 1.90095E+01 4.22974E+00 1.31119E-02 1.10847E+00 6.69957E-13 1.76890E-14
 -1      1781 2.22216E+01 2.96422E+00-3.37984E-02 1.73649E+00 5.05036E-13 8.76806E-13
 -1      1782 2.10861E+01 3.47605E+00-6.03455E-02 1.47748E+00 5.62418E-13 5.28529E-13
 -1      1783 2.07572E+01 3.29156E+00 4.79918E-03 1.02152E+00 6.05514E-13 3.81938E-13
 -1      1784 2.37506E+01 1.31213E+00-1.03483E-01 1.38096E+00 3.54376E-13 1.52231E-12
 -1      1785 2.29375E+01 2.40519E+00-3.69546E-03 1.67500E+00 4.38472E-13 1.10170E-12
 -1      1786 2.24472E+01 2.05520E+00 2.78406E-03 8.64723E-01 5.03757E-13 8.39481E-13
 -1      1787 2.33464E+01 9.51220E-01-3.18351E-02 4.56820E-01 3.79495E-13 1.38887E-12
 -1      1788 2.19286E+01 2.47692E+00 9.24263E-02-3.21764E+00-4.51762E-13-2.32786E-13
 -1      1789 2.33203E+01 6.36394E-01 1.79624E-02-8.41673E-01 3.04784E-13 1.16585E-12
 -1      1790 2.32988E+01 7.13673E-01 3.03911E-04-2.36092E-01 3.23623E-13 1.27371E-12
 -1      1791 2.28808E+01 1.18348E+00-7.17181E-03-4.94205E-02 3.96086E-13 9.48391E-13
 -1      1792 2.16496E+01 1.70307E+00 7.98806E-02-2.54237E+00-4.59351E-13-3.21389E-13
 -1      1793 2.04970E+01 4.11383E-01 3.07030E-02-1.22695E+00-3.55729E-13-3.19513E-13
 -1      1794 1.99395E+01 2.47811E-01 5.64745E-04-9.88923E-01-2.97698E-13-4.08415E-13
 -1      1795 1.96652E+01 1.47185E-01 2.55056E-02-8.30478E-01-2.81000E-13-3.92665E-13
 -1      1796 1.93078E+01 6.55372E-02 4.81043E-03-7.56730E-01-2.38066E-13-4.73551E-13
 -1      1797 2.01678E+01 3.26990E-01-2.12288E-03-1.22027E+00-3.33131E-13-4.37336E-13
 -1      1798 1.90699E+01 2.60597E-02 1.46324E-02-7.03487E-01-1.95751E-13-4.63869E-13
 -1      1799 1.87828E+01-1.47318E-03 3.25250E-03-6.90686E-01-1.60018E-13-5.17131E-13
 -1      1800 1.96410E+01 8.35992E-02-2.20013E-03-9.71185E-01-2.51746E-13-4.45914E-13
 -1      1801 1.85681E+01-6.78743E-03 6.85875E-03-6.79479E-01-1.45961E-13-5.14722E-13
 -1      1802 1.83143E+01-7.01436E-04 3.43005E-03-6.78393E-01-1.32844E-13-5.41976E-13
 -1      1803 1.91907E+01 2.57136E-03-1.36511E-03-8.94677E-01-1.84561E-13-4.44454E-13
 -1      1804 1.81135E+01 1.76817E-02 3.37919E-03-6.62701E-01-1.37143E-13-5.35781E-13
 -1      1805 1.78867E+01 4.62354E-02 5.56951E-03-6.42030E-01-1.18009E-13-5.83978E-13
 -1      1806 1.87784E+01 1.85198E-02-1.52409E-03-8.62430E-01-1.52967E-13-4.50980E-13
 -1      1807 1.77049E+01 7.90597E-02 2.88983E-03-5.89607E-01-1.20539E-13-5.88840E-13
 -1      1808 1.75197E+01 1.18101E-01 8.21820E-03-5.30965E-01-1.02968E-13-6.23693E-13
 -1      1809 1.83985E+01 9.65581E-02-2.89274E-03-7.85415E-01-1.41386E-13-4.58494E-13
 -1      1810 1.73756E+01 1.53549E-01 4.28482E-03-4.26327E-01-1.15895E-13-6.38207E-13
 -1      1811 1.72557E+01 1.88532E-01 9.93957E-03-3.26128E-01-1.07908E-13-6.47965E-13
 -1      1812 1.80748E+01 2.02182E-01-5.27018E-03-6.08888E-01-1.28433E-13-5.06015E-13
 -1      1813 1.71738E+01 2.13399E-01 6.51694E-03-1.74295E-01-1.17978E-13-6.50864E-13
 -1      1814 1.71408E+01 2.30652E-01 9.88172E-03-4.48385E-02-9.40649E-14-6.92006E-13
 -1      1815 1.78506E+01 2.95831E-01-7.67455E-03-3.20011E-01-1.14921E-13-5.26569E-13
 -1      1816 1.71394E+01 2.34889E-01 8.40106E-03 1.29830E-01-9.18380E-14-7.12158E-13
 -1      1817 1.72033E+01 2.27083E-01 8.06051E-03 2.64319E-01-7.44444E-14-7.26185E-13
 -1      1818 1.77688E+01 3.41370E-01-8.81425E-03 4.84008E-02-1.24436E-13-5.48159E-13
 -1      1819 1.72842E+01 2.08325E-01 8.84195E-03 4.27021E-01-5.55432E-14-7.72327E-13
 -1      1820 1.74384E+01 1.77752E-01 5.21456E-03 5.39458E-01-5.56890E-15-7.95241E-13
 -1      1821 1.78496E+01 3.19642E-01-7.91041E-03 4.28967E-01-9.38503E-14-5.86162E-13
 -1      1822 1.75849E+01 1.42193E-01 7.32927E-03 6.58531E-01-2.27266E-14-8.12145E-13
 -1      1823 1.78071E+01 9.91089E-02 2.30875E-03 7.29014E-01-2.58157E-14-8.04660E-13
 -1      1824 1.80783E+01 2.36388E-01-5.23852E-03 7.45842E-01-2.46645E-14-6.61644E-13
 -1      1825 1.79899E+01 5.79035E-02 4.19575E-03 7.87109E-01 6.87428E-15-7.97728E-13
 -1      1826 1.82487E+01 1.51541E-02 4.57044E-05 8.08811E-01 4.92900E-14-7.34885E-13
 -1      1827 1.84089E+01 1.18202E-01-1.86669E-03 9.43617E-01 1.50487E-15-6.31658E-13
 -1      1828 1.84369E+01-2.08893E-02 3.94796E-04 8.06437E-01-4.60894E-16-7.47452E-13
 -1      1829 1.86995E+01-5.33462E-02-1.32220E-03 7.85345E-01-1.56580E-14-7.07053E-13
 -1      1830 1.87813E+01-9.07741E-04 1.06977E-03 1.00403E+00 4.41851E-14-5.38580E-13
 -1      1831 1.88691E+01-7.76882E-02-3.01462E-03 7.36747E-01-1.99966E-14-7.02116E-13
 -1      1832 1.91092E+01-9.55777E-02-1.91123E-03 6.86746E-01-1.61780E-14-7.23631E-13
 -1      1833 1.91407E+01-9.37962E-02 2.90818E-03 9.44780E-01-3.21018E-14-5.89003E-13
 -1      1834 1.92469E+01-1.06874E-01-5.32150E-03 6.11996E-01 8.85359E-15-6.98659E-13
 -1      1835 1.94477E+01-1.11147E-01-1.97772E-03 5.48755E-01 4.61480E-14-6.66645E-13
 -1      1836 1.94500E+01-1.47843E-01 3.60795E-03 8.05253E-01 1.61891E-14-5.51997E-13
 -1      1837 1.95500E+01-1.11782E-01-6.32759E-03 4.66593E-01-4.70366E-14-7.31209E-13
 -1      1838 1.97049E+01-1.06349E-01-1.76678E-03 4.03064E-01-8.22192E-14-7.65418E-13
 -1      1839 1.96924E+01-1.64493E-01 3.48050E-03 6.29221E-01-2.38605E-14-5.22330E-13
 -1      1840 1.97746E+01-1.00224E-01-6.23240E-03 3.26925E-01-1.10870E-13-8.01287E-13
 -1      1841 1.98850E+01-8.96296E-02-1.44266E-03 2.71414E-01-1.62708E-13-8.87671E-13
 -1      1842 1.98670E+01-1.53614E-01 2.91534E-03 4.52496E-01-1.36149E-13-5.84114E-13
 -1      1843 1.99282E+01-8.04628E-02-5.41971E-03 2.08600E-01-1.16214E-13-8.44838E-13
 -1      1844 2.00002E+01-6.84255E-02-1.09978E-03 1.64888E-01-8.61832E-14-8.19335E-13
 -1      1845 1.99824E+01-1.27333E-01 2.21647E-03 2.97879E-01-1.29911E-13-5.49695E-13
 -1      1846 2.00237E+01-5.89153E-02-4.27853E-03 1.17678E-01-1.74947E-15-8.21888E-13
 -1      1847 2.00656E+01-4.78163E-02-7.86398E-04 8.62013E-02 5.72574E-14-7.98646E-13
 -1      1848 2.00510E+01-9.59271E-02 1.55812E-03 1.75729E-01-1.60310E-14-5.13880E-13
 -1      1849 2.00754E+01-3.95063E-02-3.10314E-03 5.36298E-02 5.16867E-14-7.40661E-13
 -1      1850 2.00958E+01-3.04939E-02-5.22918E-04 3.28764E-02 2.72187E-14-7.12228E-13
 -1      1851 2.00857E+01-6.62067E-02 1.01543E-03 8.72914E-02 1.01579E-13-5.11051E-13
 -1      1852 2.00968E+01-2.40072E-02-2.06916E-03 1.23626E-02 4.15768E-14-6.60771E-13
 -1      1853 2.01029E+01-1.73574E-02-3.15210E-04 1.34692E-05 8.16248E-14-6.57378E-13
 -1      1854 2.00974E+01-4.16369E-02 6.04646E-04 2.85085E-02 6.06587E-14-4.18313E-13
 -1      1855 2.00989E+01-1.27287E-02-1.25212E-03-1.14735E-02 6.97873E-14-6.57608E-13
 -1      1856 2.00964E+01-8.22081E-03-1.61068E-04-1.77994E-02 1.51336E-13-6.39622E-13
 -1      1857 2.00950E+01-2.32381E-02 3.13281E-04-6.89483E-03 1.06716E-13-4.89753E-13
 -1      1858 2.00900E+01-5.18395E-03-6.60130E-04-2.30649E-02 1.31084E-13-5.95898E-13
 -1      1859 2.00831E+01-2.38645E-03-5.38657E-05-2.54207E-02 8.64222E-14-5.74772E-13
 -1      1860 2.00848E+01-1.05877E-02 1.18672E-04-2.54042E-02 1.49930E-13-4.91411E-13
 -1      1861 2.00758E+01-5.72295E-04-2.64635E-04-2.67440E-02 4.72611E-14-6.09995E-13
 -1      1862 2.00673E+01 9.79646E-04 1.50693E-05-2.67155E-02-5.32465E-14-6.13563E-13
 -1      1863 2.00711E+01-2.61086E-03-2.75888E-06-3.26549E-02 5.14226E-14-4.83151E-13
 -1      1864 2.00603E+01 1.93082E-03-2.29585E-05-2.57847E-02-1.22960E-14-5.99360E-13
 -1      1865 2.00518E+01 2.64500E-03 5.47709E-05-2.44968E-02 7.01707E-14-5.89730E-13
 -1      1866 2.00567E+01 1.91297E-03-7.16822E-05-3.30398E-02 4.75454E-14-4.90787E-13
 -1      1867 2.00455E+01 3.03245E-03 1.08067E-04-2.24691E-02-1.37958E-14-5.23448E-13
 -1      1868 2.00379E+01 3.22693E-03 7.35226E-05-2.06600E-02-4.65113E-15-4.68888E-13
 -1      1869 2.00433E+01 4.08225E-03-1.04733E-04-2.97096E-02 6.40936E-14-3.69995E-13
 -1      1870 2.00326E+01 3.27585E-03 1.65362E-04-1.82702E-02-1.55309E-13-4.72174E-13
 -1      1871 2.00263E+01 3.17851E-03 7.82671E-05-1.63853E-02-1.51676E-13-4.84520E-13
 -1      1872 2.00317E+01 4.76860E-03-1.14570E-04-2.47605E-02-8.53834E-14-2.63551E-13
 -1      1873 2.00221E+01 3.04573E-03 1.77368E-04-1.40592E-02-2.09814E-13-5.62079E-13
 -1      1874 2.00172E+01 2.80837E-03 7.44183E-05-1.23389E-02-2.42091E-13-6.01750E-13
 -1      1875 2.00222E+01 4.60512E-03-1.10402E-04-1.94801E-02-2.51786E-13-3.36431E-13
 -1      1876 2.00139E+01 2.59570E-03 1.64322E-04-1.02928E-02-1.34796E-13-6.06084E-13
 -1      1877 2.00102E+01 2.31227E-03 6.59320E-05-8.84379E-03 6.88731E-14-5.19992E-13
 -1      1878 2.00147E+01 4.01903E-03-9.86618E-05-1.45821E-02-1.26372E-13-2.67370E-13
 -1      1879 2.00078E+01 2.08106E-03 1.39639E-04-7.16050E-03 7.82668E-14-5.69216E-13
 -1      1880 2.00052E+01 1.80480E-03 5.55182E-05-6.00877E-03 1.18860E-13-3.87101E-13
 -1      1881 2.00090E+01 3.27857E-03-8.36423E-05-1.04000E-02 5.60342E-14-2.22066E-13
 -1      1882 2.00035E+01 1.58853E-03 1.11580E-04-4.69319E-03 2.72946E-13-4.05964E-13
 -1      1883 2.00017E+01 1.34581E-03 4.49036E-05-3.82026E-03 3.51555E-13-3.87701E-13
 -1      1884 2.00048E+01 2.53859E-03-6.80493E-05-7.03240E-03 2.37058E-13-7.36062E-14
 -1      1885 2.00006E+01 1.16005E-03 8.47840E-05-2.83642E-03 3.06546E-13-4.55451E-13
 -1      1886 1.99995E+01 9.60675E-04 3.50884E-05-2.20313E-03 2.28451E-13-3.18797E-13
 -1      1887 2.00019E+01 1.87829E-03-5.34574E-05-4.44590E-03 3.33991E-13-9.67030E-14
 -1      1888 1.99987E+01 8.10131E-04 6.15029E-05-1.49779E-03 7.95751E-14-2.79566E-13
 -1      1889 1.99981E+01 6.54441E-04 2.65680E-05-1.05855E-03 6.47940E-14-3.64988E-13
 -1      1890 2.00000E+01 1.32947E-03-4.06664E-05-2.54188E-03 1.74958E-13-9.55408E-14
 -1      1891 1.99977E+01 5.37845E-04 4.25183E-05-5.75142E-04 1.78179E-13-3.73480E-13
 -1      1892 1.99974E+01 4.21366E-04 1.95078E-05-2.85906E-04 2.19580E-13-2.02375E-13
 -1      1893 1.99988E+01 8.96482E-04-2.99720E-05-1.19848E-03 1.65959E-13-4.57157E-14
 -1      1894 1.99972E+01 3.34539E-04 2.77756E-05 2.80068E-05 4.94478E-14-2.70594E-13
 -1      1895 1.99971E+01 2.50850E-04 1.38730E-05 2.05891E-04 4.66387E-14-3.34504E-13
 -1      1896 1.99981E+01 5.69280E-04-2.13614E-05-2.94374E-04 1.51682E-13-3.89172E-14
 -1      1897 1.99970E+01 1.88576E-04 1.67999E-05 3.95247E-04-1.75368E-14-3.92454E-13
 -1      1898 1.99971E+01 1.30946E-04 9.51936E-06 4.93639E-04-1.40342E-13-4.44186E-13
 -1      1899 1.99979E+01 3.31636E-04-1.46502E-05 2.79066E-04-3.04358E-14-2.43450E-13
 -1      1900 1.99971E+01 8.80126E-05 8.95215E-06 5.94901E-04-3.11858E-13-4.70263E-13
 -1      1901 1.99973E+01 5.02450E-05 6.25253E-06 6.38858E-04-3.27359E-13-5.02656E-13
 -1      1902 1.99978E+01 1.65876E-04-9.57378E-06 6.12809E-04-2.96825E-13-4.37005E-13
 -1      1903 1.99974E+01 2.19627E-05 3.57571E-06 6.80369E-04-3.41936E-13-3.62569E-13
 -1      1904 1.99976E+01-1.24810E-06 3.86465E-06 6.88828E-04-2.91404E-13-3.26333E-13
 -1      1905 1.99979E+01 5.53992E-05-5.84435E-06 7.79424E-04-2.50871E-13-2.41885E-13
 -1      1906 1.99977E+01-1.88531E-05 7.22944E-08 6.91778E-04-2.79016E-13-4.20997E-13
 -1      1907 1.99979E+01-3.18499E-05 2.15422E-06 6.78489E-04-1.67038E-13-3.92976E-13
 -1      1908 1.99981E+01-1.41996E-05-3.18531E-06 8.34492E-04-3.13253E-13-1.54019E-13
 -1      1909 1.99981E+01-4.20230E-05-2.06589E-06 6.58087E-04 7.72642E-14-2.80664E-13
 -1      1910 1.99983E+01-4.82686E-05 9.35303E-07 6.32573E-04 2.83482E-13-2.95784E-13
 -1      1911 1.99984E+01-5.48390E-05-1.34934E-06 8.18950E-04-5.99123E-15-1.17581E-14
 -1      1912 1.99984E+01-5.36133E-05-3.24812E-06 5.99177E-04 4.19096E-13-3.32414E-13
 -1      1913 1.99986E+01-5.58485E-05 4.16565E-08 5.67575E-04 4.74106E-13-1.00718E-13
 -1      1914 1.99986E+01-7.61100E-05-1.26846E-07 7.61635E-04 3.60525E-13 1.87142E-13
 -1      1915 1.99987E+01-5.84571E-05-3.78695E-06 5.27669E-04 4.43843E-13 3.22478E-15
 -1      1916 1.99989E+01-5.88766E-05-6.65200E-07 4.93410E-04 4.82058E-13 3.25849E-13
 -1      1917 1.99989E+01-8.56629E-05 6.52018E-07 6.81628E-04 5.76034E-13 2.32103E-13
 -1      1918 1.99990E+01-6.04607E-05-3.89805E-06 4.50402E-04 3.51798E-13 1.10716E-13
 -1      1919 1.99992E+01-6.08638E-05-1.27740E-06 4.14726E-04 2.44127E-13 8.45239E-14
 -1      1920 1.99991E+01-8.96509E-05 1.12052E-06 5.90246E-04 2.82110E-13 2.15984E-13
 -1      1921 1.99993E+01-6.28411E-05-3.69639E-06 3.69641E-04 9.49214E-14-1.91876E-14
 -1      1922 1.99994E+01-6.46701E-05-1.79308E-06 3.32035E-04-7.49630E-14-7.75828E-14
 -1      1923 1.99993E+01-9.30927E-05 1.36861E-06 4.92737E-04 1.03150E-13-5.98213E-14
 -1      1924 1.99995E+01-6.80993E-05-3.20320E-06 2.84326E-04-1.29407E-13-2.88189E-13
 -1      1925 1.99996E+01-7.18241E-05-2.13552E-06 2.43097E-04-6.55743E-14-2.78720E-13
 -1      1926 1.99995E+01-9.98350E-05 1.35988E-06 3.89924E-04-2.31093E-13-7.72320E-14
 -1      1927 1.99996E+01-7.40334E-05-2.59655E-06 1.94596E-04-2.37113E-14-1.49301E-13
 -1      1928 1.99997E+01-7.77369E-05-2.53677E-06 1.50538E-04 2.90797E-14-8.78105E-14
 -1      1929 1.99997E+01-1.08421E-04 1.29871E-06 1.77451E-04-6.23167E-14 2.92825E-14
 -1      1930 1.99996E+01-1.07332E-04 1.96851E-06 2.83519E-04 7.19274E-14-2.80608E-13
 -1      1931 2.39916E+01 6.15244E-01 2.98579E-02-1.90773E+00 1.86039E-13 9.95003E-13
 -1      1932 2.34652E+01 6.34736E-01 2.28879E-02-1.38150E+00 2.35478E-13 1.09873E-12
 -1      1933 2.28710E+01 9.20318E-01-9.30796E-03-1.44680E+00 2.98893E-13 7.93469E-13
 -1      1934 2.52705E+01 5.60089E-01 2.16107E-02-2.92344E+00 6.71546E-14 8.86007E-13
 -1      1935 2.43381E+01 6.25006E-01 1.75134E-02-2.39851E+00 1.10387E-13 9.28563E-13
 -1      1936 2.33178E+01 8.68171E-01-1.34874E-02-2.69308E+00 1.51667E-13 6.62283E-13
 -1      1937 2.70586E+01 1.64667E-01 1.35048E-02-3.64705E+00-1.69476E-13 9.40276E-13
 -1      1938 2.58599E+01 4.27898E-01 2.14899E-02-3.26055E+00-6.60080E-14 8.84869E-13
 -1      1939 2.42294E+01 5.98877E-01-1.32089E-02-3.77545E+00-2.85097E-14 5.92616E-13
 -1      1940 2.93003E+01-1.00169E+00 2.95797E-02-3.31178E+00-4.27700E-13 1.07302E-12
 -1      1941 2.80520E+01-3.53713E-01 5.82809E-02-3.51286E+00-3.29153E-13 9.72011E-13
 -1      1942 2.57413E+01-3.86032E-01 8.60372E-03-4.27094E+00-3.48555E-13 6.23372E-13
 -1      1943 3.21079E+01-2.83115E+00 1.67235E-02-7.45885E-01-4.86278E-13 1.32999E-12
 -1      1944 3.10010E+01-1.96935E+00 1.18171E-01-2.20639E+00-4.97338E-13 1.14373E-12
 -1      1945 2.83486E+01-2.45883E+00 4.40546E-02-3.26171E+00-5.59025E-13 6.89886E-13
 -1      1946 3.62585E+01-7.58688E-01-1.72962E-01 4.59260E+00 2.03393E-13 1.31184E-12
 -1      1947 3.68510E+01-2.57322E+00 2.45653E-02 3.70034E+00-5.77316E-14 1.33576E-12
 -1      1948 4.16423E+01 4.30239E+00 1.35195E-01 2.01674E+00 8.44769E-13 4.72178E-13
 -1      1949 4.18764E+01 2.02295E+00 2.50560E-01 3.48578E+00 5.73097E-13 6.89615E-13
 -1      1950 4.24846E+01 4.98335E+00 1.11232E-01-1.36455E+00 1.15075E-12 3.45347E-13
 -1      1951 4.27994E+01 5.10090E+00 2.40060E-01 1.04952E+00 9.51572E-13 5.86343E-13
 -1      1952 3.64320E+01-3.06008E+00-2.05870E-04-3.54836E+00 5.31040E-13-2.32175E-13
 -1      1953 3.63510E+01-1.12016E+00-6.36595E-02-4.67039E+00 8.98170E-13-4.14946E-14
 -1      1954 3.25975E+01-3.07705E+00 1.75019E-01 9.43596E-01-1.08441E-13-2.54331E-13
 -1      1955 3.32107E+01-3.52847E+00-9.67437E-03-1.06940E+00 1.88544E-13-2.83572E-13
 -1      1956 2.88735E+01-1.00123E+00 1.25364E-01 3.50898E+00-1.21153E-13-1.50650E-13
 -1      1957 3.00789E+01-2.03001E+00 4.07393E-02 2.57147E+00-1.23068E-13-1.82673E-13
 -1      1958 2.63790E+01 2.29330E-01 2.72250E-02 3.80741E+00-1.75367E-13 7.33719E-14
 -1      1959 2.77510E+01-2.78261E-01 3.28982E-02 3.74522E+00-1.12327E-13 2.11636E-15
 -1      1960 2.48869E+01-1.04736E+00 7.02324E-03 4.63298E+00-2.35430E-13 7.59670E-14
 -1      1961 2.46102E+01 5.85226E-01-1.18274E-02 3.14584E+00-2.57507E-13 1.47419E-13
 -1      1962 2.58528E+01 4.65266E-01 2.59698E-02 3.44791E+00-2.13983E-13 9.09307E-14
 -1      1963 2.34572E+01 4.93408E-01 1.21482E-02 4.37403E+00-2.40797E-13 3.41099E-13
 -1      1964 2.33081E+01 5.53928E-01-1.39344E-02 2.30657E+00-1.12514E-14 1.90689E-13
 -1      1965 2.42969E+01 5.91833E-01 2.78383E-02 2.65965E+00-1.50649E-13 1.50501E-13
 -1      1966 2.26329E+01 9.03014E-01 8.67813E-03 3.48109E+00-1.68482E-13 1.77464E-13
 -1      1967 2.23403E+01 4.19551E-01-7.24940E-03 1.59182E+00 1.89120E-13-2.24755E-14
 -1      1968 2.30664E+01 4.93827E-01 2.84244E-02 1.88174E+00 1.31933E-13 1.00768E-13
 -1      1969 2.20235E+01 8.19289E-01 5.55051E-03 2.53716E+00 1.04828E-13-2.18575E-15
 -1      1970 2.16322E+01 2.89836E-01-2.13297E-03 1.06405E+00 7.23380E-14 9.34021E-14
 -1      1971 2.21398E+01 3.56726E-01 2.50518E-02 1.27270E+00 1.44882E-13 7.77026E-14
 -1      1972 2.15259E+01 6.11654E-01 3.12029E-03 1.76030E+00 1.33562E-13-3.29299E-14
 -1      1973 2.11253E+01 1.91689E-01 2.86347E-04 6.99758E-01-2.10014E-14-8.21188E-14
 -1      1974 2.14699E+01 2.41404E-01 1.95730E-02 8.40958E-01 1.11967E-13-2.41028E-14
 -1      1975 2.11240E+01 4.19684E-01 1.24345E-03 1.18779E+00 1.07839E-13 8.95074E-15
 -1      1976 2.07693E+01 1.24173E-01 1.09047E-03 4.56866E-01-8.81187E-14-6.64653E-14
 -1      1977 2.09994E+01 1.58259E-01 1.41161E-02 5.49589E-01-2.00415E-13-1.79620E-13
 -1      1978 2.08116E+01 2.76433E-01 2.02750E-07 7.89520E-01-2.43295E-14-2.00018E-13
 -1      1979 2.05225E+01 7.97445E-02 1.17974E-03 2.97726E-01 2.06740E-13-1.39769E-13
 -1      1980 2.06748E+01 1.02220E-01 9.69701E-03 3.57775E-01 6.70557E-15-1.25891E-13
 -1      1981 2.05772E+01 1.78509E-01-6.49606E-04 5.21066E-01 4.50729E-14-3.41335E-13
 -1      1982 2.03527E+01 5.11290E-02 1.02140E-03 1.94248E-01 2.84571E-14-8.72978E-15
 -1      1983 2.04533E+01 6.56653E-02 6.47988E-03 2.32953E-01 2.13989E-13-1.69913E-14
 -1      1984 2.04056E+01 1.14322E-01-8.79679E-04 3.43128E-01 8.43093E-14-2.12812E-13
 -1      1985 2.02365E+01 3.28715E-02 8.11192E-04 1.27062E-01-2.35360E-13 1.52512E-13
 -1      1986 2.03029E+01 4.21930E-02 4.26957E-03 1.52028E-01-1.39484E-13 4.84912E-14
 -1      1987 2.02822E+01 7.31056E-02-8.72562E-04 2.26091E-01-5.58889E-14 5.12064E-14
 -1      1988 2.01571E+01 2.12499E-02 6.18526E-04 8.33313E-02-2.20169E-13 3.49722E-13
 -1      1989 2.02010E+01 2.72157E-02 2.79722E-03 9.95036E-02-2.14620E-13 2.10446E-13
 -1      1990 2.01944E+01 4.68787E-02-7.60005E-04 1.49253E-01-2.24232E-13 1.21001E-13
 -1      1991 2.01030E+01 1.38350E-02 4.61858E-04 5.47241E-02 1.01815E-13 3.10636E-13
 -1      1992 2.01320E+01 1.76627E-02 1.83147E-03 6.52666E-02-1.31232E-13 2.83709E-13
 -1      1993 2.01324E+01 3.02254E-02-6.17864E-04 9.87067E-02-1.36641E-13 1.68617E-13
 -1      1994 2.00662E+01 9.07698E-03 3.41146E-04 3.58899E-02-9.99059E-14 5.51115E-13
 -1      1995 2.00854E+01 1.15471E-02 1.20200E-03 4.28132E-02 1.42595E-13 5.52848E-13
 -1      1996 2.00890E+01 1.96250E-02-4.82407E-04 6.53082E-02-2.78193E-14 1.99720E-13
 -1      1997 2.00413E+01 5.99590E-03 2.49346E-04 2.34056E-02-1.12145E-13 4.73092E-13
 -1      1998 2.00539E+01 7.60551E-03 7.92071E-04 2.79859E-02-1.84110E-13 4.99171E-13
 -1      1999 2.00586E+01 1.28377E-02-3.67418E-04 4.31133E-02-1.24613E-13 5.37065E-13
 -1      2000 2.00245E+01 3.96981E-03 1.72938E-04 1.50774E-02 6.44338E-14 4.97235E-13
 -1      2001 2.00327E+01 5.05245E-03 5.27555E-04 1.81324E-02-4.78152E-14 4.46488E-13
 -1      2002 2.00376E+01 8.44729E-03-2.77046E-04 2.82771E-02-4.73941E-14 4.58188E-13
 -1      2003 2.00129E+01 2.58203E-03 1.24922E-04 9.28141E-03 8.67042E-14 6.01596E-13
 -1      2004 2.00184E+01 3.31288E-03 3.46497E-04 1.13927E-02 2.10327E-13 6.56384E-13
 -1      2005 2.00229E+01 5.59161E-03-1.84791E-04 1.81430E-02 4.05223E-14 7.29749E-13
 -1      2006 2.00057E+01 1.72532E-03 9.51576E-05 5.62996E-03-4.17708E-13 5.29145E-13
 -1      2007 2.00090E+01 2.19650E-03 2.29112E-04 6.96051E-03-2.29313E-13 5.11208E-13
 -1      2008 2.00129E+01 3.62508E-03-1.48336E-04 1.13211E-02-8.64316E-14 8.00008E-13
 -1      2009 2.00012E+01 1.13550E-03 6.91604E-05 3.19287E-03-1.31146E-13 4.97889E-13
 -1      2010 2.00032E+01 1.44958E-03 1.49975E-04 4.07575E-03-3.40827E-13 4.01303E-13
 -1      2011 2.00065E+01 2.39696E-03-1.06909E-04 6.88570E-03-3.35538E-13 6.18736E-13
 -1      2012 1.99985E+01 7.33171E-04 4.98235E-05 1.58667E-03 1.36899E-13 4.21858E-13
 -1      2013 1.99996E+01 9.47511E-04 9.85434E-05 2.16406E-03 7.15394E-14 5.28103E-13
 -1      2014 2.00024E+01 1.56440E-03-7.67579E-05 3.91744E-03-9.17691E-14 3.32981E-13
 -1      2015 1.99970E+01 4.58392E-04 3.56131E-05 5.49982E-04 4.11838E-14 2.40817E-13
 -1      2016 1.99975E+01 6.04860E-04 6.37909E-05 9.18197E-04 4.26744E-14 4.86471E-13
 -1      2017 1.99998E+01 9.99177E-04-5.44921E-05 1.95461E-03 1.47926E-13 3.33039E-13
 -1      2018 1.99963E+01 2.71293E-04 2.51784E-05-9.61788E-05 2.38659E-13 2.57059E-13
 -1      2019 1.99965E+01 3.70934E-04 4.02040E-05 1.28940E-04 8.47806E-14 2.06539E-13
 -1      2020 1.99982E+01 6.14821E-04-3.81146E-05 6.84285E-04 1.18834E-13 1.92249E-13
 -1      2021 1.99961E+01 1.45198E-04 1.75460E-05-4.75913E-04 4.19351E-13 1.54324E-13
 -1      2022 1.99960E+01 2.12172E-04 2.42180E-05-3.47984E-04 5.02830E-13 3.15383E-13
 -1      2023 1.99975E+01 3.54590E-04-2.61540E-05-1.09282E-04 3.60822E-13 1.54748E-13
 -1      2024 1.99962E+01 6.18788E-05 1.19991E-05-6.76121E-04 1.79201E-13-2.00696E-13
 -1      2025 1.99960E+01 1.05922E-04 1.34653E-05-6.13202E-04 2.21293E-13 1.59525E-14
 -1      2026 1.99971E+01 1.80527E-04-1.74963E-05-5.76660E-04 4.09764E-13 8.30636E-14
 -1      2027 1.99966E+01 8.60562E-06 8.00332E-06-7.57977E-04 2.05386E-13-3.75369E-13
 -1      2028 1.99963E+01 3.65506E-05 6.34153E-06-7.37418E-04 1.06802E-13-2.57688E-13
 -1      2029 1.99971E+01 6.66961E-05-1.12999E-05-8.23822E-04 1.82695E-13-1.96422E-13
 -1      2030 1.99970E+01-2.36880E-05 5.15571E-06-7.64503E-04 3.32041E-13-4.39542E-13
 -1      2031 1.99967E+01-6.95548E-06 1.74072E-06-7.70410E-04 4.46927E-13-3.66666E-13
 -1      2032 1.99973E+01-5.00764E-06-6.92862E-06-9.25618E-04 2.61961E-13-1.75014E-13
 -1      2033 1.99974E+01-4.15757E-05 3.14782E-06-7.25682E-04 1.07068E-13-5.48061E-13
 -1      2034 1.99971E+01-3.25034E-05-1.11250E-06-7.47037E-04 1.26409E-13-4.71789E-13
 -1      2035 1.99976E+01-4.74769E-05-3.90085E-06-9.34778E-04 3.70210E-13-7.26185E-14
 -1      2036 1.99978E+01-4.99073E-05 1.73870E-06-6.61972E-04-1.22674E-13-2.95069E-13
 -1      2037 1.99976E+01-4.58675E-05-2.76903E-06-6.91340E-04-7.17948E-14-4.92959E-13
 -1      2038 1.99979E+01-7.00611E-05-1.85142E-06-8.88043E-04-5.65700E-14-3.51013E-14
 -1      2039 1.99982E+01-5.23426E-05 7.34146E-07-5.86755E-04-9.95709E-14-1.25100E-13
 -1      2040 1.99980E+01-5.13454E-05-3.62477E-06-6.19382E-04-1.13705E-13-2.06071E-13
 -1      2041 1.99982E+01-7.96699E-05-5.04576E-07-8.10410E-04-2.38113E-13-7.37663E-14
 -1      2042 1.99986E+01-5.17330E-05-2.04571E-08-5.08017E-04-2.48199E-13 5.44909E-14
 -1      2043 1.99984E+01-5.22244E-05-3.96532E-06-5.41227E-04-1.62911E-13 3.75384E-14
 -1      2044 1.99986E+01-8.15421E-05 3.44986E-07-7.18118E-04-2.61860E-13 2.29447E-13
 -1      2045 1.99989E+01-5.03889E-05-6.29613E-07-4.29524E-04 7.33906E-14-2.80792E-14
 -1      2046 1.99988E+01-5.11035E-05-3.98100E-06-4.62303E-04-1.84783E-14 7.02797E-15
 -1      2047 1.99988E+01-7.97807E-05 8.58597E-07-6.20707E-04-1.13682E-13 2.85281E-13
 -1      2048 1.99992E+01-5.03514E-05-1.13814E-06-3.51631E-04-1.51296E-13-9.82432E-14
 -1      2049 1.99991E+01-5.01701E-05-3.77817E-06-3.84381E-04 3.68660E-14-2.56982E-14
 -1      2050 1.99991E+01-7.77364E-05 1.17246E-06-5.22538E-04-3.36946E-14 2.75219E-13
 -1      2051 1.99994E+01-5.32772E-05-1.57208E-06-2.71867E-04-1.22006E-13 1.85631E-13
 -1      2052 1.99993E+01-5.14783E-05-3.38933E-06-3.06239E-04-3.14046E-13-9.50147E-15
 -1      2053 1.99993E+01-7.84184E-05 1.32863E-06-4.23993E-04-3.07232E-13 2.00294E-13
 -1      2054 1.99996E+01-6.03371E-05-1.78230E-06-1.86017E-04-4.82666E-13 3.46324E-13
 -1      2055 1.99995E+01-5.62359E-05-2.56367E-06-2.24392E-04-1.47248E-14 3.37085E-13
 -1      2056 1.99995E+01-8.32588E-05 1.97370E-06-3.23501E-04-1.18183E-13 1.47704E-13
 -1      2057 1.99997E+01-6.17023E-05-1.83139E-06-1.02179E-04-2.61826E-13-1.26352E-13
 -1      2058 1.99997E+01-5.98258E-05-1.78195E-06-1.41076E-04-4.70289E-13 1.39044E-13
 -1      2059 1.99996E+01-8.98663E-05 4.89564E-07-2.22890E-04-3.19484E-13 2.01879E-13
 -1      2060 1.99997E+01-9.05741E-05-6.77461E-07-1.25149E-04-3.96643E-13-4.07551E-14
 -1      2061 1.99998E+01-4.83263E-04 9.64210E-07-2.63812E-04-1.08777E-13 4.77898E-15
 -1      2062 1.99998E+01-3.99092E-04-1.30689E-06-2.59958E-04 5.24469E-14-5.63471E-14
 -1      2063 1.99998E+01-3.25953E-04 3.51858E-07-2.44806E-04-1.33811E-13-3.02541E-13
 -1      2064 1.99998E+01-2.47500E-04-1.80963E-06-2.23907E-04-1.89016E-13-3.04074E-13
 -1      2065 1.99998E+01-3.52810E-04 2.21662E-07-3.20924E-04-3.50093E-13-9.60070E-14
 -1      2066 1.99997E+01-1.52445E-04-6.32123E-07-1.64588E-04-3.66742E-13-1.85536E-13
 -1      2067 1.99998E+01-6.31389E-04 1.74295E-06-2.44190E-04-1.29289E-13-1.95407E-13
 -1      2068 1.99998E+01-5.52121E-04-4.67352E-09-2.56801E-04-5.92393E-15 2.59190E-14
 -1      2069 1.99998E+01-4.94355E-04-6.91593E-07-3.28352E-04-1.45107E-13-4.61696E-14
 -1      2070 1.99999E+01-7.57539E-04 2.40888E-06-1.91378E-04-2.41985E-13-1.79973E-13
 -1      2071 1.99998E+01-6.91559E-04 1.15240E-06-2.17812E-04-7.08413E-14 5.72265E-15
 -1      2072 1.99999E+01-6.23523E-04-1.51486E-06-2.90360E-04 3.36636E-14-1.13871E-13
 -1      2073 1.99999E+01-8.43933E-04 2.80933E-06-1.14647E-04-2.07241E-13-7.53720E-13
 -1      2074 1.99999E+01-8.01065E-04 2.10282E-06-1.50404E-04-1.53557E-13-4.14321E-13
 -1      2075 1.99999E+01-7.27429E-04-2.10896E-06-2.14445E-04-2.22516E-13-3.42941E-13
 -1      2076 1.99999E+01-8.80886E-04 2.89930E-06-2.44663E-05-1.86620E-13-2.89805E-13
 -1      2077 1.99999E+01-8.66412E-04 2.70460E-06-6.48385E-05 1.53425E-14-6.41744E-13
 -1      2078 1.99999E+01-7.93699E-04-2.47934E-06-1.12476E-04-4.41534E-14-5.17905E-13
 -1      2079 1.99999E+01-8.64442E-04 2.64870E-06 6.83005E-05-4.12335E-14 2.31846E-13
 -1      2080 1.99999E+01-8.80071E-04 2.93451E-06 2.81300E-05-1.18466E-13 4.09657E-14
 -1      2081 1.99999E+01-8.15465E-04-2.59025E-06 2.45232E-06 8.39527E-15-2.31934E-13
 -1      2082 1.99999E+01-7.96719E-04 2.06294E-06 1.52806E-04-1.39316E-13 1.16051E-13
 -1      2083 1.99999E+01-8.40524E-04 2.79188E-06 1.17602E-04-6.03636E-14 2.40601E-13
 -1      2084 1.99999E+01-7.90609E-04-2.43026E-06 1.16792E-04-1.38531E-14 2.50841E-13
 -1      2085 1.99998E+01-6.87975E-04 1.12877E-06 2.17745E-04 1.85088E-13 1.59448E-13
 -1      2086 1.99999E+01-7.53154E-04 2.36365E-06 1.92336E-04 2.12759E-14 1.28077E-13
 -1      2087 1.99999E+01-7.22684E-04-2.06158E-06 2.16486E-04 1.87407E-13 1.76158E-13
 -1      2088 1.99998E+01-5.47363E-04-3.43426E-08 2.55961E-04 3.00405E-13 6.42018E-13
 -1      2089 1.99998E+01-6.27820E-04 1.70836E-06 2.43564E-04 1.80991E-13 6.65027E-13
 -1      2090 1.99999E+01-6.18739E-04-1.42346E-06 2.90025E-04 4.65990E-13 2.95698E-13
 -1      2091 1.99998E+01-3.93451E-04-1.22131E-06 2.58264E-04 4.25972E-13-1.21558E-13
 -1      2092 1.99998E+01-4.77522E-04 9.51745E-07 2.62669E-04 4.07969E-13 6.17594E-14
 -1      2093 1.99998E+01-4.88706E-04-6.49847E-07 3.26985E-04 4.73983E-13 3.13725E-13
 -1      2094 1.99998E+01-2.41321E-04-8.31582E-07 2.20847E-04 9.91607E-14 1.68662E-13
 -1      2095 1.99998E+01-3.20931E-04 3.68691E-07 2.43199E-04 2.82120E-13-7.51776E-14
 -1      2096 1.99998E+01-3.47654E-04-4.73141E-09 3.18365E-04 3.87853E-13-2.19375E-13
 -1      2097 8.89403E+00-6.69306E+00-2.67793E-01 4.99312E+00 7.54063E-13 6.89837E-13
 -1      2098 4.60118E+00-8.19919E+00-5.44212E-01 3.25013E+00 6.76348E-13 9.09439E-13
 -1      2099-3.04387E-01-7.63001E+00-3.43824E-01-1.44021E+00 5.31620E-13 9.18432E-13
 -1      2100 1.61021E-01-7.45030E+00-3.37947E-01-2.87461E+00 2.98678E-13 9.69891E-13
 -1      2101 1.99528E+00-7.81743E+00-3.78164E-01 2.12483E+00 7.07878E-13 9.76275E-13
 -1      2102 3.44199E-01-7.92708E+00-4.05228E-01 7.36755E-01 4.27020E-13 8.29781E-13
 -1      2103 5.53996E+00-5.36690E+00-1.72782E-01 4.07269E+00 7.62723E-14 7.83318E-13
 -1      2104 2.04232E+01-6.06073E+00-2.25447E-01 5.34103E+00 9.59011E-13 6.13287E-13
 -1      2105 1.46862E+01-7.37240E+00-4.68636E-01 4.85764E+00 8.71969E-13 5.57228E-13
 -1      2106 3.18410E+01-3.99283E+00-3.43999E-02 3.49177E+00 1.08136E-12 6.27054E-13
 -1      2107 2.50104E+01-5.78988E+00-5.26652E-01 3.60342E+00 1.04738E-12 6.68354E-13
 -1      2108 2.00902E+01 3.72957E+00-2.65686E-02-1.73306E+00-5.08812E-14-8.54806E-13
 -1      2109 2.01440E+01 3.69163E+00-3.25369E-02-2.04857E+00-1.34138E-13-8.52811E-13
 -1      2110 2.04864E+01 2.95230E+00-1.31936E-02-2.09596E+00-1.98037E-13-7.70977E-13
 -1      2111 2.03671E+01 3.14446E+00-1.07661E-02-1.55386E+00-3.80099E-14-7.88505E-13
 -1      2112 4.30074E+01 4.41376E+00 2.41030E-01-2.14852E+00 1.35858E-12 4.19886E-13
 -1      2113 3.49329E+01-2.39875E+00-2.36899E-02-1.11454E+00 5.79842E-13-6.06959E-13
 -1      2114 4.10231E+01-1.28442E+00 2.72504E-01-1.98713E-01 6.12815E-13-5.53335E-13
 -1      2115 2.21138E+01-5.87146E+00-5.32932E-01-4.37783E+00 4.77618E-13-1.09235E-12
 -1      2116 2.89102E+01-4.31401E+00-1.22659E-01-4.73733E+00 6.31939E-13-1.06926E-12
 -1      2117 1.16526E+01-7.63100E+00-6.35571E-01-4.64909E+00 2.44249E-13-1.31253E-12
 -1      2118 1.70539E+01-6.01837E+00-3.08541E-01-5.63481E+00 4.59521E-13-1.33518E-12
 -1      2119 4.03631E+00-8.29419E+00-5.70807E-01-3.15627E+00-4.56302E-14-1.21403E-12
 -1      2120 7.57105E+00-7.11226E+00-3.68989E-01-4.54355E+00 2.38587E-13-1.39955E-12
 -1      2121-3.00836E-02-7.95600E+00-4.28665E-01-3.55698E-01-3.70898E-13-1.13348E-12
 -1      2122 1.32708E+00-7.96341E+00-4.33524E-01-1.78430E+00-2.56462E-14-1.20876E-12
 -1      2123 7.93526E-01-6.77723E+00-2.84670E-01 3.36868E+00-6.13565E-13-1.05038E-12
 -1      2124-3.45365E-03-7.10628E+00-3.21645E-01 1.80453E+00-2.67335E-13-1.09573E-12
 -1      2125 5.26231E+00-5.71936E+00-1.80641E-01 6.31113E+00-8.92730E-13-9.18599E-13
 -1      2126 2.48362E+00-7.45653E+00-4.13220E-01 4.80477E+00-6.98941E-13-9.42357E-13
 -1      2127 1.40763E+01-4.13056E+00-3.25331E-02 8.37853E+00-8.22009E-13-7.19771E-13
 -1      2128 9.51158E+00-5.94815E+00-3.04614E-01 7.15467E+00-7.85427E-13-8.01414E-13
 -1      2129 2.41832E+01-1.65816E+00 1.06951E-01 7.89422E+00-1.17878E-12-5.91083E-13
 -1      2130 1.93108E+01-3.88172E+00-1.76390E-01 7.40210E+00-9.59788E-13-5.61245E-13
 -1      2131 3.21719E+01 9.09640E-01 1.13319E-01 6.00443E+00-1.15780E-12-4.68181E-13
 -1      2132 2.71342E+01-7.43130E-01-1.30597E-01 6.47945E+00-1.26288E-12-6.01907E-13
 -1      2133 2.76759E+01-3.08846E+00 9.70529E-02 5.63331E+00-6.87783E-13-1.26121E-13
 -1      2134 3.84178E+01 4.56391E+00 1.24762E-01 3.05134E+00-1.12263E-12-3.74700E-13
 -1      2135 3.49188E+01 3.02189E+00 2.46424E-02 4.24650E+00-1.20434E-12-5.48339E-13
 -1      2136 4.26187E+01 7.70929E+00 3.46251E-01 9.87647E-01-1.00497E-12-3.44863E-13
 -1      2137 3.94701E+01 6.83980E+00 4.16409E-02 1.65517E+00-1.10262E-12-4.40481E-13
 -1      2138 4.48668E+01 8.12065E+00 4.02737E-01-8.64018E-01-8.66085E-13-8.88595E-14
 -1      2139 4.41925E+01 8.09976E+00 2.76563E-01 7.08724E-01-9.39970E-13-3.38049E-13
 -1      2140 4.13664E+01 7.23333E+00 1.59680E-01-2.52355E+00-8.34055E-13 6.93889E-14
 -1      2141 4.42714E+01 7.73260E+00 4.48805E-01-1.55502E+00-8.20677E-13-3.22242E-14
 -1      2142 3.67305E+01 4.15407E+00 6.40325E-02-4.27453E+00-6.96374E-13 1.84075E-13
 -1      2143 3.95722E+01 5.37951E+00 2.02032E-01-3.05942E+00-7.11875E-13-2.34257E-14
 -1      2144 3.09922E+01 1.36899E+00-6.26434E-02-5.95148E+00-5.16837E-13 4.43867E-13
 -1      2145 3.54202E+01 2.87919E+00 2.19399E-01-5.61190E+00-6.27873E-13 3.14193E-13
 -1      2146 3.50176E+01 2.53126E+00 2.31381E-01-1.91542E+00-3.52135E-13-4.36984E-13
 -1      2147 2.32634E+01-2.14570E+00-1.78025E-01-7.24922E+00-2.92988E-13 6.66522E-13
 -1      2148 2.80085E+01-2.28581E-01 1.60164E-01-7.46460E+00-4.04843E-13 6.13509E-13
 -1      2149 1.58519E+01-4.64587E+00-2.01340E-01-7.69884E+00-2.68674E-14 7.68996E-13
 -1      2150 2.02061E+01-2.62778E+00 6.90478E-02-8.32768E+00-2.53797E-13 8.36387E-13
 -1      2151 2.43955E+01-4.13738E+00 4.28053E-02-7.01670E+00 2.27540E-13 3.46029E-13
 -1      2152 6.90237E+00-6.63151E+00-3.65846E-01-6.59754E+00 1.77636E-13 1.05806E-12
 -1      2153 1.07088E+01-4.75216E+00-9.13549E-02-7.94962E+00-2.25375E-14 1.01968E-12
 -1      2154 1.84365E+00-7.79208E+00-4.06786E-01-4.55217E+00 3.38729E-13 1.00042E-12
 -1      2155 4.11791E+00-6.42356E+00-2.06068E-01-5.82609E+00 1.32672E-13 1.12410E-12
 -1      2156 7.47076E+00-5.12516E+00-1.17557E-01-7.56301E+00 3.96960E-13 1.11106E-12
 -1      2157 4.04142E+01-1.45778E+00 1.06934E-01-1.18367E+00 1.15503E-12 9.19265E-14
 -1      2158 3.55874E+01-3.16265E+00-1.58496E-01 3.28887E-01 1.09374E-12 3.78808E-13
 -1      2159 1.24781E+01-6.62271E+00-2.45066E-01-5.69024E+00-1.64813E-13-1.23292E-12
 -1      2160 2.07962E+01 1.04014E+00-2.58669E-02-1.85569E+00-4.17638E-13-4.02425E-13
 -1      2161 3.38583E+01-4.53481E+00-5.73514E-02-1.05818E+00 3.83429E-13-2.36339E-13
 -1      2162 3.70453E+01 2.99614E+00 1.33790E-01-4.28318E+00 1.29319E-12 5.74596E-13
 -1      2163 4.56793E+01 3.17587E+00 5.39171E-01-2.44551E+00 1.40632E-12 5.17364E-14
 -1      2164 2.07637E+01 1.20843E+00-1.61495E-02-2.00688E+00-4.16868E-13-4.97118E-13
 -1      2165 3.42652E+01-4.51531E+00 5.53563E-02-5.78847E-01 1.16684E-13-8.36553E-14
 -1      2166 3.39020E+01-3.37234E+00-3.36389E-02 2.04531E+00-2.97554E-13 1.38734E-12
 -1      2167 3.33796E+01-3.30956E+00 8.84645E-02 2.28986E-01-4.73663E-13 1.28495E-12
 -1      2168 4.37485E+01 1.25497E+00 5.06283E-01 1.76947E+00 5.99742E-13-1.65201E-13
 -1      2169 3.71184E+01 5.10815E-02-2.42346E-01-5.65340E+00 1.12110E-12 1.51323E-13
 -1      2170 4.11548E+01 1.00869E+00-2.52616E-02-2.70785E+00 1.37673E-12 2.14495E-13
 -1      2171 2.80790E+01-3.75018E+00-2.29260E-02 3.15037E+00-1.15602E-13-1.83874E-13
 -1      2172 1.99997E+01-1.85514E-04-3.57369E-07-2.44395E-04-4.40197E-13-5.75951E-14
 -1      2173 1.38234E+00-4.72390E+00-1.70024E-01 8.12793E-02 1.28050E-13 9.16878E-13
 -1      2174 1.45705E+01-6.48607E+00-1.50569E-01 5.63083E+00 3.16580E-13 3.70814E-13
 -1      2175 1.99997E+01-1.95206E-04-1.18683E-06 2.12763E-04-6.07270E-15 3.92284E-14
 -1      2176 2.43588E+00-4.81262E+00-1.63004E-01-4.50525E+00 2.80026E-13 1.08008E-12
 -1      2177 2.60351E+01-6.58969E+00-9.43303E-02 3.69624E+00 5.29188E-13 2.71005E-13
 -1      2178 1.58731E+01-5.18192E+00-1.01987E-02-8.42281E+00 3.77809E-13 7.42389E-13
 -1      2179 3.08486E+01-1.36504E+00 1.33379E-01-4.47885E+00-3.28904E-14-3.35287E-14
 -1      2180 3.77418E+01 6.35446E+00 2.27038E-01-5.78105E-01-6.63969E-13-5.20195E-13
 -1      2181 3.99728E+01 9.15443E+00 3.77476E-01-2.77564E-01-9.12104E-13-4.00804E-13
 -1      2182 3.87059E+01 8.94498E+00 2.34359E-01-3.08977E-01-1.02085E-12-3.55882E-13
 -1      2183 3.33310E+01 6.05621E-01 1.77143E-01 2.76374E+00-9.62001E-13-1.26510E-13
 -1      2184 1.93182E+01-4.84593E+00 3.36817E-02 8.01547E+00-3.08031E-13-3.18731E-13
 -1      2185 9.56749E+00-4.77245E+00-2.30990E-02 7.94897E+00-1.45051E-13-7.03909E-13
 -1      2186 1.27488E+00-4.37418E+00-1.77545E-01 6.01720E-01-9.81229E-14-1.26782E-12
 -1      2187 3.18447E+00-4.29022E+00-1.31275E-01 4.96310E+00-4.04399E-14-1.05721E-12
 -1      2188 4.64609E+00-5.63748E+00-2.51912E-01-3.77463E+00-1.39166E-13-1.35336E-12
 -1      2189 2.27601E+01-6.64538E+00-1.47575E-01-4.86974E+00-4.47420E-14-8.00665E-13
 -1      2190 3.10530E+01-4.40280E+00-3.84574E-02-1.16449E+00-5.60302E-13 7.29153E-13
 -1      2191 3.66927E+01 5.62982E+00 1.83955E-01 2.99847E-01-1.07125E-12-2.65010E-13
 -1      2192 3.50287E+01-4.06178E+00-1.05813E-01 1.37335E+00-1.38486E-13 6.05072E-13
 -1      2193 3.90395E+01-8.04252E-01 2.23265E-01-4.56761E+00 1.09696E-12-1.31339E-13
 -1      2194 2.18878E+01 1.50967E+00 2.77458E-02-1.74794E+00 3.15362E-13 4.77875E-13
 -1      2195 2.17931E+01 1.54845E+00 8.99788E-03-1.07788E+00 3.71085E-13 5.42092E-13
 -1      2196 2.02766E+01 2.77540E+00-8.81489E-03-5.13395E-02 2.78019E-13-6.33928E-13
 -1      2197 2.04196E+01 2.72077E+00-1.23458E-02-3.86477E-01 2.10786E-13-6.81569E-13
 -1      2198 2.05135E+01 2.67989E+00-9.66807E-03-7.35035E-01 1.52132E-13-7.01076E-13
 -1      2199 2.05644E+01 2.63338E+00-1.78664E-02-1.05327E+00 7.57030E-14-7.17062E-13
 -1      2200 2.07580E+01 2.16426E+00-5.83401E-03-5.23095E-01 1.72940E-13-6.28349E-13
 -1      2201 1.91221E+01 3.24507E+00-1.43963E-02 1.26955E+00 4.99031E-13-5.29149E-13
 -1      2202 1.94979E+01 3.11509E+00 1.58985E-03 9.95902E-01 4.44830E-13-5.56736E-13
 -1      2203 1.83043E+01 3.66102E+00-1.97649E-02 1.69529E+00 5.76250E-13-4.91746E-13
 -1      2204 1.87240E+01 3.50618E+00 8.00829E-03 1.52330E+00 5.38713E-13-5.20755E-13
 -1      2205 1.91106E+01 2.88647E+00-1.44432E-02 1.57911E+00 5.10719E-13-4.89121E-13
 -1      2206 1.76039E+01 4.09814E+00-2.36779E-02 1.81695E+00 6.55251E-13-4.29720E-13
 -1      2207 1.79305E+01 3.96676E+00 9.95061E-03 1.77962E+00 6.13826E-13-4.79313E-13
 -1      2208 1.82047E+01 3.40931E+00-7.83977E-03 1.94561E+00 5.93579E-13-4.51710E-13
 -1      2209 1.73236E+01 4.39876E+00-2.35287E-02 1.60966E+00 7.12417E-13-3.23969E-13
 -1      2210 1.73941E+01 4.35043E+00 4.10497E-03 1.69952E+00 6.78666E-13-3.88610E-13
 -1      2211 1.74764E+01 3.93434E+00 5.68103E-03 1.91869E+00 6.61463E-13-3.84309E-13
 -1      2212 1.77882E+01 4.34251E+00-1.95875E-02 1.17027E+00 7.05209E-13-1.95218E-13
 -1      2213 1.74510E+01 4.45089E+00-1.05663E-02 1.32510E+00 6.99223E-13-2.78996E-13
 -1      2214 1.72891E+01 4.22975E+00 1.95270E-02 1.48286E+00 6.87967E-13-3.04757E-13
 -1      2215 1.91388E+01 3.78156E+00-4.17766E-03 7.09312E-01 6.61612E-13 3.71916E-14
 -1      2216 1.83464E+01 4.08449E+00-2.88683E-02 8.33324E-01 6.66559E-13-1.02189E-13
 -1      2217 1.79524E+01 4.04325E+00 2.38260E-02 7.91911E-01 6.58792E-13-1.62432E-13
 -1      2218 2.18913E+01 1.44956E+00 3.67721E-02-3.03910E+00 1.66579E-13 3.42230E-13
 -1      2219 2.15696E+01 1.49238E+00 7.68423E-03-2.42224E+00 2.44761E-13 4.14331E-13
 -1      2220 2.03939E+01 2.08780E+00 2.25618E-02-2.02986E+00 3.32432E-13 1.94081E-13
 -1      2221 2.05740E+01 6.07771E-01 1.11032E-02-1.49823E+00-2.98223E-13-4.85611E-13
 -1      2222 2.02784E+01 3.64207E-01-1.03228E-02-1.27922E+00-2.68529E-13-4.79994E-13
 -1      2223 2.08294E+01 1.75147E+00-1.83723E-02-2.21193E+00-3.66918E-13-6.27234E-13
 -1      2224 2.06211E+01 9.81723E-01-1.12959E-02-1.69571E+00-3.38920E-13-5.47992E-13
 -1      2225 2.07547E+01 1.05985E+00 1.31749E-02-1.72628E+00-2.90445E-13-5.51299E-13
 -1      2226 2.06859E+01 2.11317E+00-8.23801E-03-2.15374E+00-3.07886E-13-6.77229E-13
 -1      2227 2.01820E+01 2.05014E-01 1.51951E-02-1.17528E+00-2.41187E-13-4.27428E-13
 -1      2228 1.99241E+01 9.11364E-02-3.75561E-03-1.09692E+00-1.99414E-13-4.38101E-13
 -1      2229 2.05363E+01 4.03274E-01 1.00608E-03-1.39606E+00-2.44141E-13-4.56018E-13
 -1      2230 1.97956E+01 3.39370E-02 8.52518E-03-1.06370E+00-1.85457E-13-4.14928E-13
 -1      2231 1.95728E+01 8.55418E-03-3.02323E-04-1.03989E+00-1.58961E-13-4.34634E-13
 -1      2232 2.02751E+01 1.06008E-01-4.44902E-04-1.24103E+00-1.97374E-13-4.17460E-13
 -1      2233 1.94255E+01 2.06778E-02 2.80389E-03-1.02729E+00-1.49789E-13-4.27010E-13
 -1      2234 1.92291E+01 6.01754E-02 3.55209E-03-1.00231E+00-1.33340E-13-4.28612E-13
 -1      2235 1.99929E+01 3.70327E-02-1.76178E-04-1.18903E+00-1.63848E-13-3.94801E-13
 -1      2236 1.90686E+01 1.21335E-01-3.00350E-04-9.60685E-01-1.28546E-13-4.47258E-13
 -1      2237 1.89008E+01 2.02101E-01 7.39912E-03-8.95245E-01-1.44715E-13-4.46191E-13
 -1      2238 1.96915E+01 1.31906E-01-4.33755E-04-1.13151E+00-1.71206E-13-4.03974E-13
 -1      2239 1.87439E+01 2.87266E-01-6.86563E-04-7.88715E-01-1.58471E-13-4.40505E-13
 -1      2240 1.86172E+01 3.77813E-01 9.82666E-03-6.62934E-01-1.28042E-13-4.64041E-13
 -1      2241 1.93866E+01 3.28658E-01-2.18820E-03-9.75829E-01-1.59730E-13-3.88581E-13
 -1      2242 1.84941E+01 4.54751E-01 1.41650E-03-4.80764E-01-1.05943E-13-4.90777E-13
 -1      2243 1.84252E+01 5.19233E-01 9.67743E-03-2.99435E-01-1.06750E-13-5.02043E-13
 -1      2244 1.91197E+01 5.48226E-01-5.09960E-03-6.69484E-01-1.46778E-13-4.27179E-13
 -1      2245 1.83678E+01 5.56656E-01 4.97373E-03-6.26024E-02-1.31152E-13-4.69408E-13
 -1      2246 1.83686E+01 5.67435E-01 6.90815E-03 1.45557E-01-1.24136E-13-4.87454E-13
 -1      2247 1.89483E+01 7.03416E-01-7.51646E-03-2.21591E-01-1.08195E-13-4.50857E-13
 -1      2248 1.83935E+01 5.48234E-01 8.15865E-03 3.90447E-01-1.23278E-13-4.86101E-13
 -1      2249 1.84644E+01 4.98680E-01 2.75571E-03 5.83528E-01-9.75223E-14-4.92289E-13
 -1      2250 1.89183E+01 7.28001E-01-7.74536E-03 2.94827E-01-1.45370E-13-4.20665E-13
 -1      2251 1.85619E+01 4.28315E-01 9.23241E-03 7.83717E-01-5.65472E-14-4.89696E-13
 -1      2252 1.86899E+01 3.35306E-01-1.02093E-03 9.23819E-01-9.96924E-15-5.15118E-13
 -1      2253 1.90361E+01 6.06074E-01-5.36902E-03 7.70689E-01-8.64725E-14-3.79369E-13
 -1      2254 1.88284E+01 2.37493E-01 7.62882E-03 1.04257E+00 6.98237E-15-4.94874E-13
 -1      2255 1.89912E+01 1.31111E-01-3.20993E-03 1.10961E+00 6.03769E-14-4.44173E-13
 -1      2256 1.92614E+01 3.76949E-01-1.73698E-03 1.10850E+00 1.23760E-14-3.88488E-13
 -1      2257 1.91332E+01 3.48991E-02 4.11146E-03 1.13770E+00 4.41981E-14-4.78980E-13
 -1      2258 1.93057E+01-5.62582E-02-3.57449E-03 1.13327E+00 9.35290E-15-4.89553E-13
 -1      2259 1.95288E+01 1.12792E-01 1.52990E-03 1.25991E+00 3.87115E-14-4.23984E-13
 -1      2260 1.94230E+01-1.29047E-01 1.06502E-04 1.08632E+00-5.37047E-14-4.84502E-13
 -1      2261 1.95841E+01-1.88378E-01-2.71469E-03 1.02815E+00-1.45179E-14-4.54985E-13
 -1      2262 1.97761E+01-1.16890E-01 3.28650E-03 1.23428E+00-2.39165E-14-4.22329E-13
 -1      2263 1.96644E+01-2.29047E-01-3.13008E-03 9.34712E-01 4.01209E-15-4.73961E-13
 -1      2264 1.98007E+01-2.53967E-01-1.42202E-03 8.46756E-01 1.74071E-14-4.77693E-13
 -1      2265 1.99657E+01-2.70068E-01 3.52362E-03 1.08125E+00-1.86511E-14-3.74253E-13
 -1      2266 1.98451E+01-2.65214E-01-5.02347E-03 7.35660E-01-2.93186E-14-4.62675E-13
 -1      2267 1.99511E+01-2.62727E-01-2.86627E-04 6.39738E-01-8.17343E-14-4.71770E-13
 -1      2268 2.00876E+01-3.38553E-01 2.83457E-03 8.62956E-01-3.78458E-14-3.66222E-13
 -1      2269 1.99680E+01-2.53225E-01-5.60622E-03 5.32604E-01-1.10671E-13-4.96385E-13
 -1      2270 2.00441E+01-2.33908E-01 4.58455E-04 4.44078E-01-1.36387E-13-4.64580E-13
 -1      2271 2.01508E+01-3.38173E-01 1.86139E-03 6.32621E-01-1.07931E-13-3.66522E-13
 -1      2272 2.00433E+01-2.13349E-01-5.23838E-03 3.53321E-01-1.20864E-13-4.54442E-13
 -1      2273 2.00936E+01-1.86958E-01 8.12751E-04 2.80403E-01-4.97395E-14-3.89606E-13
 -1      2274 2.01719E+01-2.94396E-01 1.01416E-03 4.25330E-01-9.11068E-14-3.82032E-13
 -1      2275 2.00835E+01-1.63113E-01-4.35503E-03 2.10654E-01-2.56475E-14-3.42677E-13
 -1      2276 2.01134E+01-1.36560E-01 8.80233E-04 1.55828E-01 2.03490E-14-3.46877E-13
 -1      2277 2.01672E+01-2.31362E-01 4.26750E-04 2.58113E-01-5.72295E-14-2.49951E-13
 -1      2278 2.00995E+01-1.14358E-01-3.30667E-03 1.06579E-01 4.92809E-14-4.12812E-13
 -1      2279 2.01145E+01-9.14934E-02 7.85838E-04 6.86740E-02 9.07959E-14-4.50439E-13
 -1      2280 2.01494E+01-1.66545E-01 8.10769E-05 1.34638E-01-2.07916E-14-2.94008E-13
 -1      2281 2.01004E+01-7.33246E-02-2.31514E-03 3.67553E-02 1.10136E-13-5.02677E-13
 -1      2282 2.01053E+01-5.56160E-02 6.26720E-04 1.27940E-02 1.18358E-13-4.35637E-13
 -1      2283 2.01266E+01-1.09951E-01-9.17733E-05 5.06843E-02 8.42538E-14-4.75210E-13
 -1      2284 2.00924E+01-4.20990E-02-1.49058E-03-5.84998E-03 1.15916E-13-4.45263E-13
 -1      2285 2.00911E+01-2.95171E-02 4.62527E-04-1.93445E-02 1.28835E-13-4.01391E-13
 -1      2286 2.01035E+01-6.56346E-02-1.60877E-04-1.45527E-03 1.19736E-13-4.63429E-13
 -1      2287 2.00802E+01-2.02610E-02-8.65281E-04-2.86126E-02 1.51563E-13-4.27299E-13
 -1      2288 2.00754E+01-1.20268E-02 3.22050E-04-3.48604E-02 1.38233E-13-4.25123E-13
 -1      2289 2.00825E+01-3.38266E-02-1.76259E-04-3.01195E-02 8.54507E-14-3.60449E-13
 -1      2290 2.00665E+01-6.20488E-03-4.26694E-04-3.80048E-02 8.93507E-14-4.95895E-13
 -1      2291 2.00602E+01-1.29517E-03 2.14223E-04-3.96306E-02 1.51627E-15-4.83128E-13
 -1      2292 2.00643E+01-1.27838E-02-1.67832E-04-4.27469E-02 7.76943E-14-4.77280E-13
 -1      2293 2.00530E+01 2.00025E-03-1.41929E-04-3.91201E-02 5.35588E-14-4.58471E-13
 -1      2294 2.00465E+01 4.56726E-03 1.37467E-04-3.80786E-02 1.19072E-13-3.91067E-13
 -1      2295 2.00492E+01-6.66603E-05-1.50951E-04-4.52670E-02 1.09254E-14-5.20076E-13
 -1      2296 2.00409E+01 6.14232E-03 2.69339E-05-3.56507E-02 1.28071E-13-3.90628E-13
 -1      2297 2.00348E+01 7.17907E-03 8.59014E-05-3.32908E-02 1.57343E-13-2.69894E-13
 -1      2298 2.00370E+01 6.72318E-03-1.32405E-04-4.20333E-02 1.26105E-13-4.22941E-13
 -1      2299 2.00304E+01 7.66973E-03 1.14670E-04-3.00845E-02-2.63126E-14-3.43182E-13
 -1      2300 2.00252E+01 7.78686E-03 5.28439E-05-2.72700E-02-2.01863E-13-3.76067E-13
 -1      2301 2.00272E+01 9.59969E-03-1.14649E-04-3.60219E-02 6.41355E-14-3.93782E-13
 -1      2302 2.00219E+01 7.65431E-03 1.49502E-04-2.39752E-02-2.12882E-13-2.89755E-13
 -1      2303 2.00175E+01 7.27752E-03 3.24620E-05-2.12132E-02-2.40531E-13-2.69301E-13
 -1      2304 2.00196E+01 1.00940E-02-9.82744E-05-2.91264E-02-1.71907E-13-3.64559E-13
 -1      2305 2.00150E+01 6.83336E-03 1.52484E-04-1.82056E-02-2.63582E-13-1.79090E-13
 -1      2306 2.00116E+01 6.23968E-03 2.02850E-05-1.57580E-02-3.55008E-14-1.68590E-13
 -1      2307 2.00136E+01 9.28422E-03-8.32900E-05-2.24515E-02-1.69666E-13-1.53969E-13
 -1      2308 2.00098E+01 5.68031E-03 1.38287E-04-1.32072E-02 7.05053E-14-1.96532E-13
 -1      2309 2.00072E+01 5.03705E-03 1.31666E-05-1.11788E-02 1.40550E-13-5.62356E-14
 -1      2310 2.00092E+01 7.87941E-03-6.96287E-05-1.65635E-02 5.35168E-14-2.99657E-15
 -1      2311 2.00059E+01 4.47661E-03 1.16499E-04-9.12798E-03 1.53621E-13-7.25420E-14
 -1      2312 2.00040E+01 3.87550E-03 9.03225E-06-7.53048E-03 3.07354E-13-1.39419E-14
 -1      2313 2.00058E+01 6.31302E-03-5.72832E-05-1.16837E-02 1.42979E-13 4.19056E-14
 -1      2314 2.00031E+01 3.37300E-03 9.29560E-05-5.95209E-03 3.37964E-13-5.90164E-14
 -1      2315 2.00018E+01 2.85676E-03 6.58866E-06-4.74730E-03 2.91771E-13-6.66249E-14
 -1      2316 2.00034E+01 4.82685E-03-4.62906E-05-7.82847E-03 2.54855E-13-4.27068E-14
 -1      2317 2.00011E+01 2.43649E-03 7.08955E-05-3.57956E-03 2.20363E-13-8.24511E-14
 -1      2318 2.00003E+01 2.01818E-03 5.07096E-06-2.70735E-03 1.37461E-13-2.05902E-14
 -1      2319 2.00017E+01 3.53722E-03-3.66877E-05-4.90484E-03 2.00241E-13-9.47030E-14
 -1      2320 1.99999E+01 1.68410E-03 5.18542E-05-1.87681E-03 2.79012E-14-1.14731E-13
 -1      2321 1.99993E+01 1.36024E-03 4.05008E-06-1.27182E-03 2.23857E-13-8.65063E-14
 -1      2322 2.00005E+01 2.48355E-03-2.84769E-05-2.77142E-03 5.39033E-14-1.00648E-13
 -1      2323 1.99991E+01 1.10549E-03 3.63256E-05-7.06228E-04 1.93867E-13-1.53820E-13
 -1      2324 1.99988E+01 8.64529E-04 3.29818E-06-3.07051E-04 4.82527E-14-2.24221E-13
 -1      2325 1.99998E+01 1.66169E-03-2.16121E-05-1.27552E-03 1.66570E-13-1.98672E-13
 -1      2326 1.99986E+01 6.77476E-04 2.42121E-05 5.80760E-05-6.09654E-14-2.85739E-13
 -1      2327 1.99985E+01 5.04944E-04 2.70052E-06 3.04624E-04-2.24764E-13-2.87298E-13
 -1      2328 1.99993E+01 1.04570E-03-1.60016E-05-2.73540E-04-1.80569E-14-2.62105E-13
 -1      2329 1.99984E+01 3.72673E-04 1.51205E-05 5.23350E-04-2.15566E-13-3.66483E-13
 -1      2330 1.99984E+01 2.54083E-04 2.20106E-06 6.60816E-04-3.16618E-13-3.34187E-13
 -1      2331 1.99991E+01 6.01127E-04-1.15185E-05 3.59325E-04-3.24822E-13-2.62264E-13
 -1      2332 1.99984E+01 1.64320E-04 8.54490E-06 7.76431E-04-1.91724E-13-3.35211E-13
 -1      2333 1.99985E+01 8.66040E-05 1.77049E-06 8.38955E-04-1.11606E-13-1.97576E-13
 -1      2334 1.99990E+01 2.92665E-04-8.01578E-06 7.25814E-04-2.05382E-13-1.94400E-13
 -1      2335 1.99985E+01 2.85917E-05 3.97180E-06 8.84804E-04-2.27377E-13-1.30990E-13
 -1      2336 1.99986E+01-1.93352E-05 1.38868E-06 8.98135E-04-2.75135E-13-8.27463E-15
 -1      2337 1.99990E+01 8.80249E-05-5.34005E-06 9.07008E-04-2.84148E-14-1.90102E-14
 -1      2338 1.99987E+01-5.45712E-05 9.35608E-07 8.98976E-04-1.00228E-13 1.43155E-13
 -1      2339 1.99988E+01-8.17582E-05 1.03570E-06 8.81770E-04 2.00981E-13 3.32698E-13
 -1      2340 1.99990E+01-4.04446E-05-3.34275E-06 9.64546E-04-7.66885E-15 3.28290E-13
 -1      2341 1.99988E+01-1.01487E-04-9.57478E-07 8.55249E-04 1.97827E-13 3.44872E-13
 -1      2342 1.99989E+01-1.15165E-04 6.87921E-07 8.20377E-04 4.61794E-13 4.03700E-13
 -1      2343 1.99991E+01-1.15484E-04-1.88943E-06 9.43558E-04 2.04619E-13 4.98886E-13
 -1      2344 1.99990E+01-1.25196E-04-2.02360E-06 7.78408E-04 4.96210E-13 2.37694E-13
 -1      2345 1.99991E+01-1.31108E-04 3.19853E-07 7.34103E-04 4.34449E-13 2.17112E-13
 -1      2346 1.99992E+01-1.55370E-04-8.67133E-07 8.75639E-04 3.33364E-13 2.92573E-13
 -1      2347 1.99992E+01-1.36095E-04-2.50416E-06 6.84067E-04 1.71659E-13 3.69571E-14
 -1      2348 1.99993E+01-1.38810E-04-8.37096E-08 6.34905E-04 1.09829E-13-1.01321E-13
 -1      2349 1.99993E+01-1.74657E-04-1.88146E-07 7.81569E-04 1.68951E-13-6.35115E-14
 -1      2350 1.99993E+01-1.42436E-04-2.56620E-06 5.80651E-04 1.72480E-13-2.64722E-13
 -1      2351 1.99994E+01-1.45485E-04-5.01413E-07 5.28453E-04 5.52985E-14-2.58663E-13
 -1      2352 1.99994E+01-1.84861E-04 2.18030E-07 6.73636E-04-1.48571E-14-2.25524E-13
 -1      2353 1.99995E+01-1.50613E-04-2.35684E-06 4.71326E-04-1.88542E-13-1.94995E-13
 -1      2354 1.99996E+01-1.56214E-04-1.16821E-06 4.15976E-04-2.96495E-13-2.32828E-13
 -1      2355 1.99995E+01-1.94689E-04 3.91707E-07 5.57815E-04-4.79825E-14-4.95106E-13
 -1      2356 2.31827E+01-6.54193E-01 7.58460E-02-4.79607E+00-3.84623E-13 2.12573E-13
 -1      2357 2.22523E+01 4.09491E-01 9.15521E-02-4.75028E+00-2.55330E-13 2.32156E-13
 -1      2358 2.55487E+01-3.82894E+00 6.82568E-02-4.08528E+00-6.14675E-13 1.86035E-13
 -1      2359 2.39215E+01-2.07801E+00 1.61570E-01-4.95588E+00-5.33754E-13 1.50800E-13
 -1      2360 1.97735E+01-1.48579E+00 5.53037E-02-5.60368E+00-4.13225E-13-2.24737E-13
 -1      2361 3.35863E+01 5.86991E+00-2.15116E-01-1.15915E+00-9.34808E-13-1.06359E-13
 -1      2362 3.33206E+01 3.58277E+00-9.94861E-02-6.35270E-01-9.07108E-13-2.79776E-14
 -1      2363 2.06230E+01-7.18885E-02 1.04579E-01 5.14843E+00-3.49942E-13 1.23547E-13
 -1      2364 2.16533E+01-1.43052E+00 1.33900E-01 5.08151E+00-3.53953E-13-3.10030E-14
 -1      2365 2.05933E+01 1.11985E+00-1.62112E-02 2.31600E+00 2.39861E-13 5.76518E-14
 -1      2366 2.08745E+01 1.26745E+00 2.58908E-02 2.73875E+00 1.58332E-13-3.36341E-15
 -1      2367 2.05941E+01 8.20455E-01-1.11849E-02 1.62291E+00 1.06123E-13-1.22417E-14
 -1      2368 2.08283E+01 9.77658E-01 2.17098E-02 1.95331E+00 1.32583E-13-4.57468E-15
 -1      2369 1.97307E+01 1.39901E+00 2.33232E-02 2.14101E+00 1.91799E-13-1.08819E-14
 -1      2370 2.05288E+01 5.66265E-01-6.75633E-03 1.11528E+00 1.61388E-13-9.89551E-15
 -1      2371 2.07175E+01 6.92701E-01 1.78774E-02 1.35430E+00 1.99659E-13 1.62420E-14
 -1      2372 2.00272E+01 1.01652E+00 1.40906E-02 1.52572E+00 1.64599E-13 2.63895E-16
 -1      2373 2.04367E+01 3.78900E-01-3.84968E-03 7.57448E-01 3.72740E-14-2.42468E-13
 -1      2374 2.05823E+01 4.70034E-01 1.37524E-02 9.23028E-01 7.88657E-14-6.55864E-14
 -1      2375 2.01579E+01 7.01055E-01 7.89780E-03 1.06802E+00 1.96130E-13 1.76573E-14
 -1      2376 2.03433E+01 2.49589E-01-2.11509E-03 5.11187E-01 1.33667E-13-2.58428E-13
 -1      2377 2.04519E+01 3.11849E-01 1.00199E-02 6.23141E-01 6.04608E-14-1.51987E-13
 -1      2378 2.01956E+01 4.70072E-01 4.04539E-03 7.38576E-01 6.55405E-14-9.19635E-14
 -1      2379 2.02608E+01 1.63318E-01-1.11715E-03 3.44092E-01-2.18801E-14 1.18665E-14
 -1      2380 2.03398E+01 2.04668E-01 7.04211E-03 4.18830E-01 7.05512E-15-1.91688E-13
 -1      2381 2.01876E+01 3.10618E-01 1.82672E-03 5.06990E-01 5.42372E-15 9.42581E-14
 -1      2382 2.01932E+01 1.06759E-01-5.55816E-04 2.31532E-01-1.29038E-13 3.66386E-14
 -1      2383 2.02497E+01 1.33824E-01 4.84389E-03 2.81158E-01-7.78501E-15 6.32773E-15
 -1      2384 2.01609E+01 2.03951E-01 6.42917E-04 3.46653E-01-6.92615E-14 3.38797E-14
 -1      2385 2.01402E+01 6.99740E-02-2.48143E-04 1.55888E-01-3.21693E-13 1.60798E-13
 -1      2386 2.01802E+01 8.75767E-02 3.29283E-03 1.88822E-01-3.01987E-13 1.42850E-13
 -1      2387 2.01294E+01 1.33776E-01 6.27461E-05 2.36608E-01-2.55134E-13 2.20212E-13
 -1      2388 2.00998E+01 4.60946E-02-8.56222E-05 1.04999E-01-1.04488E-13 1.26347E-13
 -1      2389 2.01280E+01 5.75324E-02 2.22623E-03 1.26914E-01-1.12242E-13 1.58886E-13
 -1      2390 2.00998E+01 8.79673E-02-1.88220E-04 1.61368E-01-2.37544E-13 8.83104E-14
 -1      2391 2.00697E+01 3.05560E-02-4.58082E-06 7.06535E-02-7.58119E-14 1.45236E-13
 -1      2392 2.00894E+01 3.80102E-02 1.50303E-03 8.53029E-02-1.45497E-13 7.75033E-14
 -1      2393 2.00746E+01 5.81208E-02-2.70690E-04 1.09946E-01-6.89639E-14 1.10705E-13
 -1      2394 2.00477E+01 2.03863E-02 3.11412E-05 4.73717E-02-9.32654E-14 2.20082E-13
 -1      2395 2.00614E+01 2.52747E-02 1.01598E-03 5.72175E-02-8.17709E-14 1.53433E-13
 -1      2396 2.00543E+01 3.86296E-02-2.73209E-04 7.47346E-02-1.40533E-13-3.79845E-14
 -1      2397 2.00317E+01 1.36564E-02 2.94310E-05 3.15124E-02-2.01324E-13 2.95598E-13
 -1      2398 2.00412E+01 1.69177E-02 6.90684E-04 3.81717E-02-1.77262E-13 2.09432E-13
 -1      2399 2.00385E+01 2.58285E-02-2.42113E-04 5.05533E-02-1.56701E-13 3.45559E-14
 -1      2400 2.00199E+01 9.00754E-03 3.30828E-05 2.02392E-02 1.83686E-14 5.39124E-13
 -1      2401 2.00266E+01 1.12303E-02 4.63265E-04 2.49123E-02-1.57329E-13 3.95653E-13
 -1      2402 2.00263E+01 1.72655E-02-1.74568E-04 3.36014E-02-2.21779E-13 2.80276E-13
 -1      2403 2.00121E+01 6.07776E-03 3.83957E-05 1.29841E-02-2.33083E-13 6.43570E-13
 -1      2404 2.00164E+01 7.51730E-03 3.16101E-04 1.59882E-02 4.86230E-14 6.41349E-13
 -1      2405 2.00174E+01 1.14611E-02-1.60167E-04 2.19305E-02-1.12425E-13 3.35986E-13
 -1      2406 2.00068E+01 4.07326E-03 3.28720E-05 8.02708E-03-1.35372E-13 4.66864E-13
 -1      2407 2.00096E+01 5.04387E-03 2.12225E-04 1.00572E-02-2.38905E-13 6.70580E-13
 -1      2408 2.00111E+01 7.72055E-03-1.23481E-04 1.41458E-02-1.48746E-13 4.95064E-13
 -1      2409 2.00032E+01 2.69756E-03 2.62253E-05 4.66754E-03 8.30332E-14 2.71267E-13
 -1      2410 2.00050E+01 3.36265E-03 1.43654E-04 6.02961E-03-1.00885E-13 3.12470E-13
 -1      2411 2.00066E+01 5.16674E-03-9.36290E-05 8.79547E-03-7.09033E-16 3.63026E-13
 -1      2412 2.00008E+01 1.75003E-03 2.02995E-05 2.42059E-03 1.50628E-13 2.71906E-13
 -1      2413 2.00020E+01 2.20727E-03 9.65026E-05 3.32029E-03 1.72435E-13 2.41875E-13
 -1      2414 2.00036E+01 3.41364E-03-6.98203E-05 5.14823E-03 1.63393E-13 4.07552E-13
 -1      2415 1.99994E+01 1.09730E-03 1.53159E-05 9.49520E-04 2.26182E-13 1.65693E-13
 -1      2416 2.00000E+01 1.41115E-03 6.38675E-05 1.52878E-03 1.92303E-13 1.81680E-13
 -1      2417 2.00015E+01 2.20567E-03-5.12210E-05 2.69643E-03 2.31272E-13 1.68422E-13
 -1      2418 1.99986E+01 6.50136E-04 1.13047E-05 1.83271E-05 3.70977E-13 4.05012E-14
 -1      2419 1.99989E+01 8.63900E-04 4.12531E-05 3.76240E-04 2.99588E-13-3.12019E-14
 -1      2420 2.00002E+01 1.37402E-03-3.69548E-05 1.08407E-03 3.89172E-13 5.85167E-14
 -1      2421 1.99982E+01 3.47632E-04 8.17698E-06-5.40044E-04 2.31404E-13 1.87890E-13
 -1      2422 1.99983E+01 4.90997E-04 2.56319E-05-3.33636E-04 3.62617E-13 2.59350E-13
 -1      2423 1.99994E+01 8.05211E-04-2.61755E-05 5.89944E-05 3.03635E-13 1.29889E-14
 -1      2424 1.99980E+01 1.47384E-04 5.79785E-06-8.44534E-04 2.44100E-13 9.55001E-14
 -1      2425 1.99980E+01 2.41093E-04 1.49306E-05-7.40118E-04 2.04268E-13 2.71405E-13
 -1      2426 1.99989E+01 4.21523E-04-1.81430E-05-5.58805E-04 1.79757E-13 4.06590E-13
 -1      2427 1.99981E+01 1.93022E-05 4.02310E-06-9.79933E-04 3.68176E-13 7.21841E-14
 -1      2428 1.99980E+01 7.81154E-05 7.70765E-06-9.42401E-04 2.21830E-13 1.14034E-13
 -1      2429 1.99987E+01 1.68652E-04-1.22393E-05-8.98323E-04 3.25154E-13 3.17228E-13
 -1      2430 1.99982E+01-5.83358E-05 2.71636E-06-1.00640E-03 1.91016E-13 2.74639E-13
 -1      2431 1.99981E+01-2.37433E-05 2.94634E-06-1.01102E-03 3.65717E-13 4.87752E-14
 -1      2432 1.99987E+01 7.95472E-06-7.96273E-06-1.05194E-03 2.84766E-13 2.94390E-13
 -1      2433 1.99984E+01-1.01454E-04 1.75548E-06-9.66086E-04-2.31422E-13 2.41351E-13
 -1      2434 1.99983E+01-8.32467E-05-7.95246E-08-9.95691E-04 4.77476E-14 2.81017E-13
 -1      2435 1.99987E+01-8.85330E-05-4.91377E-06-1.08540E-03 1.48287E-13 4.71597E-13
 -1      2436 1.99987E+01-1.21912E-04 1.03232E-06-8.87790E-04-1.93835E-13 3.01162E-13
 -1      2437 1.99985E+01-1.14245E-04-1.89211E-06-9.30852E-04-2.65778E-13 3.30344E-13
 -1      2438 1.99989E+01-1.41357E-04-2.77931E-06-1.04480E-03-2.54589E-13 5.96107E-13
 -1      2439 1.99989E+01-1.28739E-04 4.47630E-07-7.90308E-04-2.85384E-13 5.95647E-13
 -1      2440 1.99987E+01-1.27147E-04-2.87112E-06-8.39528E-04-3.48766E-13 3.94906E-13
 -1      2441 1.99990E+01-1.65863E-04-1.32011E-06-9.61632E-04-2.98587E-13 6.72614E-13
 -1      2442 1.99991E+01-1.28980E-04-6.25965E-08-6.84769E-04-1.14908E-13 4.56474E-13
 -1      2443 1.99990E+01-1.30006E-04-3.30075E-06-7.36132E-04-3.32929E-14 6.47438E-13
 -1      2444 1.99991E+01-1.73764E-04-3.59987E-07-8.56422E-04-1.31665E-13 7.24150E-13
 -1      2445 1.99993E+01-1.28224E-04-4.47233E-07-5.76483E-04-1.58232E-13 4.25540E-13
 -1      2446 1.99992E+01-1.29150E-04-3.35549E-06-6.28463E-04-1.39192E-13 4.38410E-13
 -1      2447 1.99993E+01-1.73907E-04 3.68334E-07-7.41413E-04-1.10399E-13 6.35032E-13
 -1      2448 1.99994E+01-1.31290E-04-1.04523E-06-4.66590E-04-4.35172E-14 2.62293E-13
 -1      2449 1.99993E+01-1.29736E-04-3.22462E-06-5.19285E-04 3.02097E-14 4.68294E-13
 -1      2450 1.99994E+01-1.73879E-04 8.40758E-07-6.22688E-04-1.42210E-14 4.86195E-13
 -1      2451 1.99996E+01-1.40334E-04-2.48183E-06-3.54128E-04-1.08713E-13 1.01229E-13
 -1      2452 1.99995E+01-1.35399E-04-3.23758E-06-4.06982E-04-1.77106E-13 7.93329E-14
 -1      2453 1.99995E+01-1.79919E-04 8.95273E-07-5.00893E-04 9.53016E-14 1.30652E-13
 -1      2454 1.99999E+01-6.17922E-04 2.53720E-06-3.21539E-04-1.12137E-14-1.07267E-13
 -1      2455 1.99999E+01-5.63180E-04-4.26180E-07-3.53340E-04 3.35768E-14-6.98736E-14
 -1      2456 1.99998E+01-5.05115E-04 2.10058E-06-3.79318E-04-9.57007E-14 3.18330E-14
 -1      2457 1.99998E+01-4.43196E-04-1.69251E-06-3.87684E-04-1.80192E-13-2.46705E-14
 -1      2458 1.99999E+01-5.15033E-04-1.37759E-06-4.19057E-04-9.00536E-14 8.02357E-14
 -1      2459 1.99998E+01-3.76730E-04 1.54124E-06-3.88566E-04-1.51715E-13 2.95996E-14
 -1      2460 1.99997E+01-3.09061E-04-2.55220E-06-3.71957E-04-1.58406E-13-1.49254E-13
 -1      2461 1.99998E+01-3.95981E-04 5.71716E-07-4.46133E-04-1.20011E-13-6.87912E-14
 -1      2462 3.55544E+00-2.50046E+00 1.02622E-01 1.77356E+00 1.29341E-14 7.21034E-13
 -1      2463 2.52674E+00-2.15625E+00 9.31955E-02-9.17559E-01 6.79803E-14 8.18068E-13
 -1      2464 1.99999E+01-7.02947E-04 2.58813E-06-2.23704E-04-2.20304E-13-4.58832E-13
 -1      2465 1.99999E+01-6.62939E-04 6.40269E-07-2.72557E-04-1.93385E-13-3.65802E-13
 -1      2466 1.99999E+01-6.13890E-04-1.64241E-06-3.38111E-04-2.38638E-13-4.08905E-13
 -1      2467 2.00000E+01-7.51652E-04 2.40557E-06-1.00055E-04-6.68625E-14-4.13593E-13
 -1      2468 2.00000E+01-7.30898E-04 1.47226E-06-1.59317E-04-2.02781E-13-3.95518E-13
 -1      2469 2.00000E+01-6.83966E-04-1.97593E-06-2.17421E-04-1.70316E-13-4.02244E-13
 -1      2470 2.00000E+01-7.59679E-04 2.00419E-06 3.45381E-05-7.57332E-14 2.45909E-14
 -1      2471 2.00000E+01-7.60373E-04 2.08889E-06-2.79968E-05-1.40346E-13-2.91343E-13
 -1      2472 2.00000E+01-7.19242E-04-2.13113E-06-7.23539E-05-7.54698E-14-3.83861E-13
 -1      2473 2.00000E+01-7.26609E-04 1.40228E-06 1.64758E-04 3.06689E-14 2.42856E-13
 -1      2474 2.00000E+01-7.48664E-04 2.43963E-06 1.06166E-04-9.12557E-14 1.98005E-13
 -1      2475 2.00000E+01-7.16988E-04-2.09380E-06 8.02985E-05 3.17428E-14 1.02633E-13
 -1      2476 1.99999E+01-6.57497E-04 5.63522E-07 2.74074E-04 2.25777E-13 2.47430E-13
 -1      2477 1.99999E+01-6.97510E-04 2.55925E-06 2.27000E-04 1.19534E-13 2.16793E-13
 -1      2478 2.00000E+01-6.78204E-04-1.92134E-06 2.22505E-04 9.46523E-14 2.16117E-13
 -1      2479 1.99999E+01-5.56644E-04-3.80698E-07 3.52635E-04 5.39226E-13 3.91976E-13
 -1      2480 1.99999E+01-6.11750E-04 2.46360E-06 3.21748E-04 3.42221E-13 2.83066E-13
 -1      2481 1.99999E+01-6.06247E-04-1.52982E-06 3.39544E-04 2.78874E-13 3.31390E-13
 -1      2482 1.99998E+01-4.34339E-04-1.27453E-06 3.86581E-04 2.63892E-13 1.07707E-13
 -1      2483 1.99998E+01-4.98489E-04 2.07317E-06 3.78160E-04 3.92163E-13 3.25094E-13
 -1      2484 1.99999E+01-5.06165E-04-8.22210E-07 4.17804E-04 3.20596E-13 1.65921E-13
 -1      2485 1.99997E+01-3.02242E-04-1.89001E-06 3.68077E-04 1.53793E-13-2.44407E-13
 -1      2486 1.99998E+01-3.69465E-04 1.30361E-06 3.85396E-04 2.31334E-13-2.51039E-13
 -1      2487 1.99998E+01-3.86944E-04 7.17694E-08 4.43280E-04 1.37132E-13-6.47207E-14
 -1      2488 1.99997E+01-1.94187E-04-1.45134E-06 2.69363E-04 1.64889E-13 5.35975E-14
 -1      2489 3.30659E+00-2.34468E+00 1.34741E-01-3.59583E+00 2.90143E-13 9.37250E-13
 -1      2490 5.08041E+00-2.85669E+00 1.02301E-01-5.79729E+00 3.40811E-13 9.52682E-13
 -1      2491 2.20895E+01 9.72314E-01 4.32153E-02-4.19747E+00-8.21305E-14 2.62854E-13
 -1      2492 2.15421E+01 1.32314E+00 1.86671E-02-3.71616E+00 6.47113E-14 2.75638E-13
 -1      2493 1.97029E+01 1.89858E+00 2.65490E-02-3.39776E+00 1.59070E-13 2.26262E-14
 -1      2494 1.90910E+01-5.87069E+00-1.07363E-01 5.92389E+00 1.39555E-13 4.83363E-14
 -1      2495 1.33180E+01-4.85021E+00 5.50343E-02 5.76443E+00 1.72085E-15 2.31093E-13
 -1      2496 1.46859E+01-4.72819E+00 1.13194E-01-8.31077E+00 6.15896E-13 6.61138E-13
 -1      2497 1.92841E+01-4.93188E+00-1.74721E-02-8.25639E+00 5.24636E-13 3.22062E-13
 -1      2498 3.38631E+01 4.92143E+00-1.37076E-01 4.28507E-01-4.45949E-13-7.25114E-13
 -1      2499 3.52451E+01 6.84580E+00-1.25031E-01 4.72261E-01-6.40488E-13-6.15397E-13
 -1      2500 2.26982E+01-4.65302E+00-2.22574E-02 7.25117E+00-6.20337E-14-8.42382E-15
 -1      2501 1.80695E+01-4.54233E+00 1.21862E-01 7.93213E+00 1.84852E-13-2.05887E-13
 -1      2502 3.48492E+01-4.42546E+00 1.38124E-01-4.52414E-01 7.66415E-13 3.40283E-14
 -1      2503 8.86425E+00-3.53344E+00 5.99584E-02 5.27415E+00-9.93650E-14 5.58720E-13
 -1      2504 5.96828E+00-2.95310E+00 1.06687E-01 3.64782E+00-1.51101E-13 7.29361E-13
 -1      2505 2.04954E+01 1.35268E+00-1.47806E-02 3.20665E+00 5.85794E-15 3.18330E-14
 -1      2506 2.08441E+01 1.35822E+00 3.62812E-02 3.67415E+00-1.35367E-13 1.82205E-13
 -1      2507 1.91774E+01 1.73686E+00 3.51040E-02 2.93192E+00 1.27143E-13 1.08236E-13
 -1      2508 2.03742E+01 1.19234E+00 1.59215E-02 4.23329E+00-2.53846E-13 2.58711E-13
 -1      2509 2.08969E+01 7.43911E-01 6.82376E-02 4.59316E+00-2.56319E-13 2.03643E-13
 -1      2510 1.83302E+01 1.69855E+00 5.06724E-02 3.90214E+00-9.40498E-14 1.58470E-13
 -1      2511 1.98139E+01 2.94799E+00-1.02306E-02 6.46997E-01 3.93289E-13-5.75946E-13
 -1      2512 2.00774E+01 2.85961E+00-5.88872E-03 3.21816E-01 3.35505E-13-6.14566E-13
 -1      2513 2.04682E+01 2.27507E+00-1.06563E-02 2.02749E-01 2.94263E-13-5.68379E-13
 -1      2514 1.99151E+01 2.49863E+00-1.43165E-02 9.44667E-01 4.02187E-13-5.27058E-13
 -1      2515 2.23621E+01-3.19900E+00 1.73014E-01 5.20868E+00-2.69118E-13-3.71092E-14
 -1      2516 2.46180E+01-5.05397E+00 7.28753E-02 4.20688E+00-6.02851E-14-7.37847E-14
 -1      2517 3.07597E+01-5.77843E+00-2.58772E-02-1.69639E+00-2.83162E-13 6.27276E-14
 -1      2518 6.03199E+00-2.55714E+00 8.80856E-02 6.33914E+00 2.09305E-13-8.45046E-13
 -1      2519 4.18364E+00-1.73151E+00 1.64563E-01 4.27727E+00 3.05006E-13-9.88210E-13
 -1      2520 5.54373E+00-2.50501E+00 9.71922E-02-3.37957E+00-1.65035E-13-1.18594E-12
 -1      2521 8.65000E+00-3.14569E+00 1.00090E-01-5.20916E+00-1.83742E-13-1.13537E-12
 -1      2522 3.27728E+00-1.13716E+00 1.37241E-01 1.32904E+00 1.23422E-13-1.09629E-12
 -1      2523 3.72874E+00-1.84043E+00 1.40138E-01-1.38013E+00 5.81479E-14-1.22508E-12
 -1      2524 7.22723E+00-2.62486E-01 1.90993E-01-2.58287E+00 6.60583E-15-1.10140E-12
 -1      2525 1.28848E+01-3.71123E+00 1.47457E-02 8.47794E+00 2.42528E-13-4.44283E-13
 -1      2526 9.07417E+00-3.32883E+00 1.17762E-01 7.39686E+00 2.46414E-13-6.54671E-13
 -1      2527 9.62128E+00-1.65044E+00 1.75356E-01 6.87182E+00 5.07289E-13-6.72101E-13
 -1      2528 2.88972E+01-3.16439E+00-9.49048E-02 4.23522E+00-4.67376E-13 5.93414E-14
 -1      2529 2.62493E+01-4.12168E+00 1.84215E-02 5.34105E+00-2.81719E-13 7.09433E-14
 -1      2530 3.28720E+01 7.75218E-01-1.70963E-01 8.99573E-01-8.04967E-13 3.63598E-14
 -1      2531 3.09605E+01-1.31312E+00-4.27777E-02 2.23107E+00-6.62113E-13 8.10740E-14
 -1      2532 3.60943E+01 8.82827E+00-6.98609E-02-2.09303E-01-9.43912E-13-3.91520E-13
 -1      2533 3.43892E+01 8.27350E+00-1.61822E-01-5.30602E-01-9.66560E-13-3.10127E-13
 -1      2534 3.53317E+01 8.20129E+00-1.70518E-01 2.96635E-01-8.15459E-13-5.19848E-13
 -1      2535 3.59186E+01 8.73883E+00-1.27646E-01 5.96770E-02-8.89344E-13-4.48107E-13
 -1      2536 3.28131E+01 8.70329E+00-6.49510E-02-1.34862E-03-8.43658E-13-4.01040E-13
 -1      2537 3.22491E+01 3.30175E-01-9.95601E-02-1.02746E+00-7.27682E-14-6.68299E-13
 -1      2538 3.30294E+01 1.91511E+00-1.94675E-01-2.09169E-01-2.54616E-13-8.08409E-13
 -1      2539 2.87107E+01-3.23065E+00-3.38480E-02-3.90736E+00 2.97165E-13-2.96291E-13
 -1      2540 3.11859E+01-1.50340E+00-1.03131E-01-2.60165E+00 8.62990E-14-5.17364E-13
 -1      2541 3.07243E+01-1.36279E+00-4.39231E-03-8.62411E-01 1.73968E-13-8.07604E-13
 -1      2542 2.31348E+01-4.80538E+00 5.45756E-02-6.83762E+00 4.69458E-13 1.58068E-13
 -1      2543 2.60440E+01-4.28954E+00-6.03606E-02-5.95931E+00 3.97848E-13 5.71210E-14
 -1      2544 2.77617E+01-4.12289E+00 4.40705E-02-4.12446E+00 4.82933E-13-3.78905E-13
 -1      2545 2.15619E+01-5.04120E+00 1.62154E-02-7.26233E+00 6.74932E-13 9.68444E-14
 -1      2546 7.15885E+00-3.53015E+00 1.14990E-01-6.84351E+00 4.38316E-13 9.82270E-13
 -1      2547 9.73051E+00-3.77416E+00 2.55152E-02-8.01293E+00 4.97935E-13 9.72222E-13
 -1      2548 7.51759E+00-1.86342E+00 1.57974E-01-6.14186E+00 4.30961E-13 8.76493E-13
 -1      2549 2.21219E+01 1.56293E+00 1.55048E-02-5.23200E-01 4.32820E-13 6.30871E-13
 -1      2550 2.22268E+01 1.78676E+00 1.16135E-03 2.52903E-01 4.68594E-13 7.20269E-13
 -1      2551 2.15737E+01 2.37020E+00 2.77502E-04 4.03203E-01 5.31210E-13 5.27880E-13
 -1      2552 2.10191E+01 2.16027E+00 1.64184E-02-7.80292E-01 4.56806E-13 3.40015E-13
 -1      2553 1.23561E+01-4.89896E+00 6.73920E-03-5.88390E+00-3.78808E-13-1.00056E-12
 -1      2554 1.70126E+01-5.70070E+00-4.24414E-02-6.24580E+00-3.33011E-13-8.43547E-13
 -1      2555 3.10650E+01-5.93010E+00-3.80202E-02 1.88804E+00 2.95042E-13 2.36478E-14
 -1      2556 2.66695E+01-6.16149E+00-1.24264E-01-4.00928E+00-2.82940E-13-2.48690E-13
 -1      2557 2.95087E+01-5.32329E+00 1.19223E-01-2.27159E+00-5.21694E-13 2.80387E-13
 -1      2558 2.83814E+01-4.68120E+00 1.58723E-01-3.07332E+00-6.40016E-13 3.34378E-13
 -1      2559 2.16450E+01-6.20625E+00-6.97246E-02-5.07299E+00-3.77642E-13-5.31755E-13
 -1      2560 2.63053E+01-5.82010E+00 6.22212E-02 3.43735E+00 1.93401E-13-4.60743E-14
 -1      2561 2.08482E+01 2.08059E+00-1.14409E-03-1.15398E+00 3.25858E-14-6.55858E-13
 -1      2562 2.05948E+01 2.58589E+00-1.13963E-02-1.34489E+00 1.21007E-14-7.28402E-13
 -1      2563 2.05987E+01 2.51974E+00-2.51965E-02-1.63782E+00-7.76911E-14-7.53377E-13
 -1      2564 1.73693E+01 5.62859E-01 6.82418E-02 5.02721E+00-3.39728E-13 1.23283E-13
 -1      2565 2.04841E+01 2.96472E+00-2.71682E-02 4.43113E-01 5.82303E-13 2.82850E-13
 -1      2566 1.26307E+01-2.72808E+00 1.15113E-01-5.58873E+00-3.98903E-13-8.92592E-13
 -1      2567 2.06387E+01 2.27373E+00-1.02910E-02-1.94675E+00-2.07829E-13-7.18203E-13
 -1      2568 2.27312E+01-4.77218E+00-6.41555E-02-5.18750E+00-5.85865E-13-1.91902E-13
 -1      2569 3.17759E+01 1.81237E+00-2.65950E-02-8.09378E-01-6.82648E-13 1.51767E-13
 -1      2570 1.71753E+01-2.45838E+00 4.13825E-02 6.00364E+00-2.68924E-13 5.48450E-14
 -1      2571 3.25009E+01 6.77027E+00-1.52965E-01-1.29931E+00-8.48460E-13-1.77816E-13
 -1      2572 3.03328E+01 5.20992E+00-9.42194E-02-1.81069E+00-7.15400E-13-2.15938E-14
 -1      2573 3.06833E+01 7.23779E+00-2.00798E-01-1.29432E+00-7.82513E-13-2.12080E-13
 -1      2574 1.32946E+01-3.11243E+00 1.45806E-01 5.59281E+00-2.25209E-13 3.38618E-13
 -1      2575 1.93011E+01 9.18272E-01 1.94486E-02-4.72772E+00-1.31825E-13-1.10530E-13
 -1      2576 1.98656E+01 3.01376E+00 4.74442E-03 9.45809E-02 5.63436E-13 1.62281E-13
 -1      2577 1.99997E+01-2.57579E-04-3.24970E-07-4.45160E-04-6.53618E-14-3.06718E-14
 -1      2578 1.99997E+01-2.32237E-04 1.40015E-06-3.74577E-04-1.89749E-13-1.84400E-13
 -1      2579 1.99997E+01-1.83129E-04-1.42969E-06-2.95891E-04-1.51446E-13-3.45841E-14
 -1      2580 4.71981E+00-8.16267E-01 1.80359E-01-2.15164E+00 1.47021E-13 7.95641E-13
 -1      2581 6.65273E+00-1.13433E+00 1.87920E-01 2.82836E+00-1.07872E-13 6.77070E-13
 -1      2582 1.99996E+01-1.64294E-04-2.16702E-06 3.20459E-04 1.06433E-13 2.86933E-14
 -1      2583 1.99997E+01-2.42772E-04 1.04558E-06 3.56427E-04 1.85657E-13 5.01363E-14
 -1      2584 1.99997E+01-2.67635E-04-7.57994E-07 4.27170E-04 9.71293E-14-1.52440E-13
 -1      2585 1.99996E+01-1.60884E-04-2.71948E-06 3.74576E-04-1.85366E-13 1.22682E-14
 -1      2586 1.36929E+01-3.63984E+00 1.35742E-01-8.00801E+00 6.47954E-13 6.99968E-13
 -1      2587 3.27169E+01 7.27503E+00-6.22637E-02 1.04558E+00-6.01602E-13-6.47982E-13
 -1      2588 1.71334E+01-3.62344E+00 1.44132E-01 7.85780E+00 4.40370E-13-2.46768E-13
 -1      2589 3.20793E+01 3.12110E+00-6.39004E-02 1.13788E+00-2.21406E-13-8.39606E-13
 -1      2590 5.66923E+00-6.96777E-02 1.91954E-01 2.62084E+00 3.65548E-13-9.91374E-13
 -1      2591 1.99996E+01-2.04515E-04 1.11498E-06 4.53939E-04-1.79903E-13-1.38998E-13
 -1      2592 2.48610E+01-4.52483E+00 4.64371E-02 5.66622E+00 1.17295E-13 1.25434E-13
 -1      2593 2.98998E+01-2.48418E+00 1.59657E-02 2.21069E+00-3.34580E-13 2.02088E-13
 -1      2594 1.80065E+01 3.08098E+00-2.57579E-02 2.28765E+00 6.30383E-13-4.00998E-13
 -1      2595 1.85844E+01 2.85928E+00 2.07800E-02 2.18221E+00 5.86162E-13-4.18244E-13
 -1      2596 1.91436E+01 2.48091E+00-1.41977E-02 1.94802E+00 5.40821E-13-4.32218E-13
 -1      2597 1.96743E+01 2.27253E+00 1.19543E-02 1.66596E+00 4.89948E-13-4.52706E-13
 -1      2598 1.90265E+01 2.14029E+00-1.42348E-02 2.33565E+00 5.52887E-13-3.86564E-13
 -1      2599 1.68322E+01 4.00280E+00-2.58528E-02 1.39615E+00 6.79088E-13-3.07416E-13
 -1      2600 1.68431E+01 4.00273E+00 1.16264E-02 1.72435E+00 6.85035E-13-3.41981E-13
 -1      2601 1.76813E+01 3.72494E+00-2.43506E-02 3.99128E-01 6.27094E-13-1.56186E-13
 -1      2602 1.71315E+01 3.99715E+00-6.11691E-03 7.89258E-01 6.48724E-13-2.52726E-13
 -1      2603 1.66611E+01 3.88565E+00 3.22103E-02 1.02978E+00 6.27601E-13-2.94705E-13
 -1      2604 1.94734E+01 1.07701E+00-1.56726E-02 1.20582E+00 1.98767E-13 1.93019E-13
 -1      2605 1.93711E+01 1.28101E+00 3.23711E-03 1.44613E+00 1.78822E-13 1.58012E-13
 -1      2606 2.08483E+01 6.00761E-01 6.62440E-03-1.50124E+00-1.98124E-13-4.84301E-13
 -1      2607 2.07176E+01 3.48831E-01-9.57598E-03-1.37455E+00-1.76346E-13-4.56371E-13
 -1      2608 3.01991E+01 2.31701E+00-1.92036E-01-1.69177E+00-6.19893E-13 1.41859E-13
 -1      2609 3.05031E+01 1.03450E-01-2.88968E-02-7.10978E-01-4.78520E-13 2.41335E-13
 -1      2610 2.07305E+01 1.77761E-01 8.11394E-03-1.33637E+00-1.76211E-13-4.11565E-13
 -1      2611 2.05830E+01 6.90359E-02-5.65696E-03-1.29063E+00-1.68855E-13-4.09365E-13
 -1      2612 2.10274E+01 3.36749E-01 4.24097E-03-1.41600E+00-1.63581E-13-4.36316E-13
 -1      2613 2.05392E+01 2.97301E-02 3.34830E-03-1.29501E+00-1.64851E-13-3.81261E-13
 -1      2614 2.03902E+01 4.32774E-02-6.58476E-04-1.27557E+00-1.54088E-13-3.96214E-13
 -1      2615 2.09722E+01 7.84182E-02 2.40995E-03-1.37752E+00-1.59409E-13-3.64298E-13
 -1      2616 2.02918E+01 1.07801E-01-1.70653E-03-1.27150E+00-1.55703E-13-3.65137E-13
 -1      2617 2.01466E+01 2.16881E-01 4.69087E-03-1.22474E+00-1.71077E-13-3.69406E-13
 -1      2618 2.08312E+01 1.07488E-01 3.12138E-03-1.38172E+00-1.58558E-13-3.70940E-13
 -1      2619 2.00043E+01 3.52950E-01-4.76779E-03-1.15661E+00-1.71581E-13-3.57995E-13
 -1      2620 1.98739E+01 5.13695E-01 8.92304E-03-1.04115E+00-1.53715E-13-3.62121E-13
 -1      2621 2.06065E+01 3.59642E-01 2.40371E-03-1.31489E+00-1.67290E-13-3.46053E-13
 -1      2622 1.97203E+01 6.69874E-01-4.50223E-03-8.71389E-01-1.51279E-13-3.67966E-13
 -1      2623 1.96236E+01 8.19140E-01 1.00345E-02-6.72623E-01-1.43285E-13-3.77914E-13
 -1      2624 2.03326E+01 7.30704E-01-8.55694E-04-1.07533E+00-1.64738E-13-3.33545E-13
 -1      2625 1.95096E+01 9.31792E-01-6.34973E-04-4.03518E-01-1.22312E-13-3.86583E-13
 -1      2626 1.94656E+01 1.00498E+00 7.15036E-03-1.43386E-01-9.89444E-14-3.80930E-13
 -1      2627 2.00841E+01 1.07340E+00-5.30613E-03-6.20457E-01-1.48873E-13-3.27433E-13
 -1      2628 1.94352E+01 1.02281E+00 5.00116E-03 1.75454E-01-1.16121E-13-3.96945E-13
 -1      2629 1.94530E+01 9.83649E-01 1.46890E-03 4.44256E-01-1.37519E-13-3.66136E-13
 -1      2630 1.99489E+01 1.23976E+00-7.77874E-03-3.33497E-03-1.11348E-13-3.21996E-13
 -1      2631 1.95147E+01 8.94170E-01 9.22011E-03 7.34987E-01-1.45104E-13-3.50175E-13
 -1      2632 1.95872E+01 7.54591E-01-4.07791E-03 9.52074E-01-7.91438E-14-3.55720E-13
 -1      2633 1.99763E+01 1.14724E+00-6.26913E-03 6.37741E-01-1.20808E-13-3.41282E-13
 -1      2634 1.97070E+01 5.90550E-01 9.77527E-03 1.14741E+00-5.51814E-14-3.71034E-13
 -1      2635 1.98130E+01 4.00475E-01-7.09741E-03 1.27251E+00 5.53298E-15-3.84623E-13
 -1      2636 2.01416E+01 8.22266E-01-1.83953E-03 1.14353E+00-9.09497E-14-3.66776E-13
 -1      2637 1.99385E+01 2.16754E-01 6.97894E-03 1.34425E+00 1.89398E-14-4.17434E-13
 -1      2638 2.00520E+01 3.51064E-02-6.80654E-03 1.36917E+00 7.28166E-15-4.29129E-13
 -1      2639 2.03630E+01 3.78264E-01 2.76813E-03 1.41341E+00-1.78549E-14-4.33488E-13
 -1      2640 2.01397E+01-1.18115E-01 2.61808E-03 1.33128E+00 1.44757E-14-3.84043E-13
 -1      2641 2.02393E+01-2.49669E-01-4.33625E-03 1.27595E+00 1.62579E-14-3.60869E-13
 -1      2642 2.05506E+01-4.99054E-02 5.05829E-03 1.43643E+00 3.10036E-14-3.87445E-13
 -1      2643 2.02721E+01-3.46176E-01-1.29784E-03 1.16775E+00-3.54209E-16-2.91764E-13
 -1      2644 2.03465E+01-4.14032E-01-1.31677E-03 1.06489E+00 1.90936E-14-2.71790E-13
 -1      2645 2.06507E+01-3.63639E-01 4.83504E-03 1.27451E+00 4.13040E-14-2.80991E-13
 -1      2646 2.03309E+01-4.52630E-01-3.75910E-03 9.28497E-01-3.83290E-14-2.13110E-13
 -1      2647 2.03785E+01-4.65196E-01 1.03890E-03 8.09290E-01-6.63172E-14-2.47760E-13
 -1      2648 2.06565E+01-5.29237E-01 3.08389E-03 1.01615E+00-9.76972E-15-2.08155E-13
 -1      2649 2.03321E+01-4.59608E-01-4.69882E-03 6.76122E-01-1.20777E-13-2.79914E-13
 -1      2650 2.03572E+01-4.35253E-01 2.39260E-03 5.62977E-01-1.55293E-13-3.08685E-13
 -1      2651 2.05926E+01-5.64565E-01 1.08834E-03 7.37691E-01-1.15773E-13-2.12497E-13
 -1      2652 2.02982E+01-4.03655E-01-4.52643E-03 4.50502E-01-1.04050E-13-2.89857E-13
 -1      2653 2.03073E+01-3.61125E-01 2.85761E-03 3.55685E-01-6.99993E-14-2.66888E-13
 -1      2654 2.04921E+01-5.11857E-01-3.63312E-04 4.87884E-01-1.08950E-13-1.97735E-13
 -1      2655 2.02489E+01-3.19272E-01-3.78055E-03 2.69983E-01-5.55829E-14-2.96857E-13
 -1      2656 2.02482E+01-2.72723E-01 2.71159E-03 1.97652E-01 6.76707E-15-2.70430E-13
 -1      2657 2.03834E+01-4.14984E-01-1.12737E-03 2.88810E-01-4.92817E-14-2.15181E-13
 -1      2658 2.01978E+01-2.31272E-01-2.86445E-03 1.37746E-01-6.57875E-14-3.19376E-13
 -1      2659 2.01917E+01-1.89191E-01 2.25492E-03 8.69382E-02-6.29337E-14-3.85209E-13
 -1      2660 2.02842E+01-3.07375E-01-1.35971E-03 1.44037E-01-7.48411E-14-3.64716E-13
 -1      2661 2.01519E+01-1.53843E-01-2.00339E-03 4.85031E-02 3.31992E-14-3.83948E-13
 -1      2662 2.01436E+01-1.20033E-01 1.70782E-03 1.57098E-02 9.57859E-14-4.38787E-13
 -1      2663 2.02027E+01-2.09287E-01-1.27263E-03 4.71809E-02-1.37268E-14-3.32571E-13
 -1      2664 2.01141E+01-9.28195E-02-1.29565E-03-6.50720E-03 1.57492E-13-3.73358E-13
 -1      2665 2.01053E+01-6.79815E-02 1.19877E-03-2.55730E-02 1.09705E-13-3.72539E-13
 -1      2666 2.01404E+01-1.29987E-01-1.04373E-03-1.19415E-02 1.30101E-13-2.76083E-13
 -1      2667 2.00845E+01-4.87120E-02-7.62949E-04-3.64551E-02 3.58672E-14-3.19918E-13
 -1      2668 2.00762E+01-3.18663E-02 7.84308E-04-4.58441E-02 5.42912E-14-3.15301E-13
 -1      2669 2.00952E+01-7.13965E-02-7.86639E-04-4.37258E-02 1.24275E-13-2.89613E-13
 -1      2670 2.00621E+01-1.92743E-02-3.89121E-04-4.93718E-02 5.27684E-14-4.15398E-13
 -1      2671 2.00547E+01-8.77106E-03 4.76181E-04-5.24401E-02 3.19245E-14-4.44378E-13
 -1      2672 2.00638E+01-3.14164E-02-5.59169E-04-5.70976E-02-4.13835E-15-1.91010E-13
 -1      2673 2.00454E+01-1.26486E-03-1.43775E-04-5.15903E-02 3.66673E-14-4.96432E-13
 -1      2674 2.00390E+01 4.61611E-03 2.63351E-04-5.08812E-02 6.93071E-14-3.85196E-13
 -1      2675 2.00425E+01-6.30293E-03-3.81463E-04-5.89868E-02 4.56275E-14-2.36278E-13
 -1      2676 2.00330E+01 8.54175E-03 5.30751E-06-4.77320E-02 8.46768E-14-2.88155E-13
 -1      2677 2.00277E+01 1.12947E-02 1.26042E-04-4.50382E-02 1.69276E-13-2.99087E-13
 -1      2678 2.00284E+01 7.90973E-03-2.53485E-04-5.43943E-02 1.38437E-13-1.80494E-13
 -1      2679 2.00239E+01 1.28780E-02 8.65895E-05-4.09487E-02 1.14335E-13-3.11863E-13
 -1      2680 2.00196E+01 1.36683E-02 4.36577E-05-3.74493E-02 5.18503E-15-3.22521E-13
 -1      2681 2.00191E+01 1.46979E-02-1.66656E-04-4.67043E-02 1.15717E-13-1.36846E-13
 -1      2682 2.00171E+01 1.38388E-02 1.22833E-04-3.32462E-02-8.28032E-14-2.98650E-13
 -1      2683 2.00137E+01 1.35066E-02-1.42344E-06-2.96597E-02-1.03320E-13-2.59625E-13
 -1      2684 2.00129E+01 1.67924E-02-1.10252E-04-3.80615E-02-2.60085E-14-8.85469E-14
 -1      2685 2.00121E+01 1.29132E-02 1.31035E-04-2.57986E-02-1.01882E-13-1.94217E-13
 -1      2686 2.00094E+01 1.20248E-02-2.27394E-05-2.25194E-02-9.84455E-14-5.42159E-14
 -1      2687 2.00089E+01 1.61745E-02-7.46588E-05-2.97195E-02-4.89644E-14-2.22418E-14
 -1      2688 2.00084E+01 1.10917E-02 1.23210E-04-1.92116E-02 8.60109E-16 1.03355E-14
 -1      2689 2.00063E+01 1.00035E-02-2.99308E-05-1.64200E-02 1.73927E-13 4.93365E-14
 -1      2690 2.00061E+01 1.41879E-02-5.24708E-05-2.23266E-02 1.17958E-14-3.53988E-14
 -1      2691 2.00057E+01 8.98864E-03 1.07426E-04-1.37257E-02 1.18029E-13-4.86926E-14
 -1      2692 2.00041E+01 7.90786E-03-2.94468E-05-1.14696E-02 1.24644E-13-1.41890E-13
 -1      2693 2.00042E+01 1.16858E-02-3.85128E-05-1.61426E-02 1.15094E-13-1.22106E-13
 -1      2694 2.00036E+01 6.95420E-03 8.88051E-05-9.36263E-03 2.69194E-13-8.14782E-14
 -1      2695 2.00025E+01 5.98781E-03-2.53501E-05-7.61515E-03 2.24718E-13-5.93580E-14
 -1      2696 2.00029E+01 9.16856E-03-2.94214E-05-1.11936E-02 2.52807E-13-2.46474E-13
 -1      2697 2.00022E+01 5.16329E-03 7.03794E-05-6.02575E-03 1.69319E-13-4.62023E-14
 -1      2698 2.00014E+01 4.35509E-03-2.00360E-05-4.72290E-03 1.63447E-13-1.33506E-13
 -1      2699 2.00019E+01 6.89907E-03-2.31421E-05-7.37807E-03 1.85478E-13-9.32596E-14
 -1      2700 2.00011E+01 3.68174E-03 5.37633E-05-3.56502E-03 1.93485E-14-1.84038E-13
 -1      2701 2.00006E+01 3.03834E-03-1.48002E-05-2.62956E-03-6.42610E-14-3.02936E-13
 -1      2702 2.00012E+01 4.98881E-03-1.84922E-05-4.53599E-03 6.32243E-14-2.67980E-13
 -1      2703 2.00004E+01 2.51228E-03 3.96571E-05-1.81648E-03 9.10170E-14-2.11999E-13
 -1      2704 2.00001E+01 2.02046E-03-1.02531E-05-1.17169E-03 1.36844E-13-3.13004E-13
 -1      2705 2.00007E+01 3.45946E-03-1.48286E-05-2.49082E-03-1.06090E-14-2.25031E-13
 -1      2706 1.99999E+01 1.62487E-03 2.82064E-05-6.24482E-04 5.77663E-14-3.77378E-13
 -1      2707 1.99997E+01 1.26255E-03-6.60393E-06-2.01309E-04-1.16802E-13-4.72294E-13
 -1      2708 2.00004E+01 2.28404E-03-1.18198E-05-1.07355E-03-1.61974E-14-3.30629E-13
 -1      2709 1.99996E+01 9.75616E-04 1.92466E-05 1.47460E-04-1.27523E-13-3.59036E-13
 -1      2710 1.99995E+01 7.18366E-04-3.84670E-06 4.07360E-04-3.12473E-13-2.65999E-13
 -1      2711 2.00001E+01 1.41323E-03-9.30051E-06-1.34791E-04-1.30073E-13-4.49470E-13
 -1      2712 1.99995E+01 5.17882E-04 1.24631E-05 6.12707E-04-2.07530E-13-1.43383E-13
 -1      2713 1.99994E+01 3.42422E-04-1.87448E-06 7.56404E-04-2.90646E-16-1.23808E-13
 -1      2714 1.99999E+01 7.90988E-04-7.18661E-06 4.50629E-04-1.01082E-13-1.84609E-13
 -1      2715 1.99994E+01 2.08106E-04 7.49057E-06 8.61582E-04 1.09763E-13-9.04710E-14
 -1      2716 1.99994E+01 9.39811E-05-5.46250E-07 9.25619E-04 1.06489E-13 1.23229E-13
 -1      2717 1.99998E+01 3.63282E-04-5.42852E-06 7.83364E-04 1.01954E-13 1.47490E-13
 -1      2718 1.99994E+01 8.44894E-06 3.97128E-06 9.63507E-04 2.25210E-14 1.66579E-13
 -1      2719 1.99994E+01-6.14469E-05 2.77604E-07 9.75242E-04 4.69102E-14 2.17031E-13
 -1      2720 1.99997E+01 8.22097E-05-3.98897E-06 9.41586E-04 5.87236E-14 3.55418E-14
 -1      2721 1.99994E+01-1.12511E-04 1.58556E-06 9.69989E-04 3.75930E-14 1.34113E-13
 -1      2722 1.99994E+01-1.52040E-04 7.18614E-07 9.49122E-04 1.26303E-13 1.99882E-14
 -1      2723 1.99997E+01-9.25401E-05-2.83365E-06 9.84021E-04-3.91548E-14-2.12013E-13
 -1      2724 1.99994E+01-1.80147E-04 6.35576E-08 9.17773E-04 2.38874E-13 3.35453E-14
 -1      2725 1.99995E+01-2.00351E-04 8.71892E-07 8.77800E-04 4.11568E-13-1.18090E-13
 -1      2726 1.99997E+01-1.93794E-04-1.93158E-06 9.53250E-04 1.92951E-13-2.44369E-13
 -1      2727 1.99995E+01-2.14654E-04-8.14564E-07 8.31742E-04 2.70257E-13-9.71672E-14
 -1      2728 1.99995E+01-2.24254E-04 8.20065E-07 7.81253E-04-4.17230E-14-1.32403E-13
 -1      2729 1.99997E+01-2.47777E-04-1.26019E-06 8.78829E-04 2.87101E-13-1.85089E-13
 -1      2730 1.99995E+01-2.32073E-04-1.25843E-06 7.27472E-04-1.90386E-13-2.78568E-13
 -1      2731 1.99996E+01-2.37748E-04 5.84608E-07 6.71181E-04-2.29414E-13-4.67615E-13
 -1      2732 1.99997E+01-2.75179E-04-8.10324E-07 7.79985E-04-2.41635E-13-4.03972E-13
 -1      2733 1.99996E+01-2.44542E-04-1.27585E-06 6.13523E-04-1.18824E-13-3.30594E-13
 -1      2734 1.99996E+01-2.51442E-04 6.41712E-08 5.53496E-04-7.80608E-14-4.10353E-13
 -1      2735 1.99997E+01-2.91747E-04-2.99666E-07 6.67949E-04-8.02527E-14-4.89075E-13
 -1      2736 1.23482E+01-2.35140E+00 1.95541E-01-7.41405E+00 5.72015E-13 7.13860E-13
 -1      2737 1.62689E+01-3.63586E+00 3.55956E-02-7.84631E+00 6.93057E-13 3.56298E-13
 -1      2738 1.97831E+01 7.49065E-01-1.03901E-02 8.70046E-01 1.74829E-13 2.63463E-13
 -1      2739 1.97474E+01 9.06803E-01 4.16463E-03 1.05042E+00 1.98258E-13 2.49247E-13
 -1      2740 1.92094E+01 1.18371E+00 1.84027E-02 9.80490E-01 1.76046E-13 3.88504E-13
 -1      2741 2.11441E+01-5.24982E+00 1.35017E-02-5.47839E+00-5.59053E-13-4.16105E-13
 -1      2742 1.99997E+01-3.21437E-04-9.96636E-07-5.10463E-04-4.42817E-14-1.75113E-13
 -1      2743 1.99996E+01-2.52512E-04-4.61333E-07-5.08129E-04 5.53266E-14-9.91561E-15
 -1      2744 1.99996E+01-2.45743E-04-1.83156E-06-5.70663E-04 1.91370E-13 1.05817E-13
 -1      2745 1.89203E+01 1.48842E+00-2.25206E-02 1.64266E+00 2.35533E-13 1.27798E-13
 -1      2746 1.87091E+01 1.71784E+00 3.42141E-03 1.94852E+00 2.42604E-13 2.02925E-13
 -1      2747 1.85561E+01 1.63703E+00 2.99461E-02 1.28046E+00 1.63254E-13 3.03976E-13
 -1      2748 1.99447E+01 5.09398E-01-6.74072E-03 6.19706E-01 3.88491E-15 2.20690E-13
 -1      2749 1.99435E+01 6.22979E-01 4.19599E-03 7.50617E-01 1.16424E-13 2.48438E-13
 -1      2750 1.95938E+01 8.26657E-01 1.10311E-02 7.33811E-01 1.25669E-13 5.19118E-13
 -1      2751 2.00214E+01 3.42293E-01-4.30821E-03 4.37447E-01-4.98966E-15 2.52924E-13
 -1      2752 2.00353E+01 4.20937E-01 3.67282E-03 5.30310E-01-3.99509E-14 1.46205E-13
 -1      2753 1.98109E+01 5.65660E-01 6.39204E-03 5.39279E-01-5.66188E-14 3.24429E-13
 -1      2754 2.00517E+01 2.28818E-01-2.71870E-03 3.06981E-01-9.92758E-14 1.60755E-13
 -1      2755 2.00703E+01 2.82066E-01 2.96212E-03 3.71914E-01-2.16804E-14 1.92879E-13
 -1      2756 1.99280E+01 3.82724E-01 3.56791E-03 3.91029E-01 9.56388E-15 2.86150E-13
 -1      2757 2.00583E+01 1.52867E-01-1.69692E-03 2.14592E-01-3.76679E-13 3.07246E-13
 -1      2758 2.00766E+01 1.88485E-01 2.27477E-03 2.59635E-01-2.57560E-13 2.57207E-13
 -1      2759 1.99874E+01 2.57627E-01 1.90500E-03 2.80823E-01-2.57545E-13 2.02790E-13
 -1      2760 2.00539E+01 1.02377E-01-1.04902E-03 1.49560E-01-1.53534E-13 1.11512E-13
 -1      2761 2.00698E+01 1.26073E-01 1.69518E-03 1.80699E-01-2.22895E-13 1.91043E-13
 -1      2762 2.00146E+01 1.73273E-01 9.56493E-04 2.00258E-01-2.24239E-13 9.66543E-14
 -1      2763 2.00452E+01 6.88622E-02-6.42775E-04 1.03901E-01-8.10306E-16 9.91838E-14
 -1      2764 2.00582E+01 8.46175E-02 1.23986E-03 1.25422E-01-2.18367E-14 8.44788E-14
 -1      2765 2.00245E+01 1.16781E-01 4.33293E-04 1.41984E-01-7.81835E-14 7.44499E-14
 -1      2766 2.00357E+01 4.65611E-02-3.90282E-04 7.18550E-02-1.82239E-13 6.30194E-14
 -1      2767 2.00459E+01 5.70683E-02 8.96430E-04 8.67520E-02-1.20526E-13 7.73851E-14
 -1      2768 2.00257E+01 7.90108E-02 1.55726E-04 1.00096E-01-6.99945E-14 1.49094E-13
 -1      2769 2.00270E+01 3.16078E-02-2.52928E-04 4.93355E-02-2.32873E-13 1.23358E-13
 -1      2770 2.00348E+01 3.86873E-02 6.42819E-04 5.96811E-02-1.85289E-13 1.33460E-13
 -1      2771 2.00230E+01 5.37101E-02 1.97397E-05 7.00905E-02-1.55833E-13 1.78315E-13
 -1      2772 2.00193E+01 2.11417E-02-1.53046E-04 3.28583E-02-1.31015E-13 7.08586E-14
 -1      2773 2.00253E+01 2.60580E-02 4.53834E-04 4.03013E-02-2.91467E-13 1.70019E-14
 -1      2774 2.00189E+01 3.64026E-02-1.79359E-05 4.82410E-02-2.31862E-13-5.14849E-14
 -1      2775 2.00136E+01 1.44537E-02-8.30079E-05 2.19596E-02-1.46058E-13 1.17160E-13
 -1      2776 2.00178E+01 1.76532E-02 3.25294E-04 2.68670E-02-5.25278E-14 5.37509E-14
 -1      2777 2.00146E+01 2.46173E-02-7.04526E-05 3.27042E-02-1.21675E-13-2.25150E-13
 -1      2778 2.00092E+01 9.84478E-03-4.80766E-05 1.43160E-02-8.94105E-14-2.39222E-14
 -1      2779 2.00122E+01 1.20396E-02 2.28902E-04 1.77166E-02-1.90153E-13-1.09472E-14
 -1      2780 2.00108E+01 1.68555E-02-7.26873E-05 2.20074E-02-4.62414E-14-2.46037E-13
 -1      2781 2.00059E+01 6.65447E-03-2.76099E-05 8.99406E-03-8.02586E-14 1.58635E-13
 -1      2782 2.00080E+01 8.17497E-03 1.61789E-04 1.13384E-02-1.30175E-13-1.55863E-16
 -1      2783 2.00078E+01 1.14979E-02-6.54430E-05 1.44372E-02-1.24862E-13-3.22704E-13
 -1      2784 2.00036E+01 4.43529E-03-1.52863E-05 5.32626E-03 1.63278E-13 2.32650E-13
 -1      2785 2.00050E+01 5.49308E-03 1.13654E-04 6.92505E-03 1.06730E-13 2.53477E-13
 -1      2786 2.00053E+01 7.77590E-03-5.50336E-05 9.12263E-03-1.24839E-13-1.51163E-13
 -1      2787 2.00019E+01 2.88883E-03-7.91902E-06 2.83743E-03 3.66818E-13 1.20847E-13
 -1      2788 2.00028E+01 3.62504E-03 7.90599E-05 3.90941E-03 3.50224E-13 3.29048E-13
 -1      2789 2.00035E+01 5.17917E-03-4.43149E-05 5.43504E-03 2.52288E-13-2.57202E-14
 -1      2790 2.00008E+01 1.81414E-03-3.54384E-06 1.18696E-03 4.88383E-13-7.10484E-15
 -1      2791 2.00014E+01 2.32428E-03 5.42076E-05 1.88745E-03 3.78286E-13 1.32101E-13
 -1      2792 2.00022E+01 3.36622E-03-3.45944E-05 2.91897E-03 4.36044E-13 2.00387E-13
 -1      2793 2.00001E+01 1.07346E-03-9.78833E-07 1.29037E-04 9.64243E-14 1.59628E-13
 -1      2794 2.00004E+01 1.42335E-03 3.64067E-05 5.69197E-04 3.36093E-13 2.04698E-14
 -1      2795 2.00012E+01 2.10534E-03-2.63512E-05 1.24274E-03 3.66054E-13 2.89411E-13
 -1      2796 1.99996E+01 5.70657E-04 4.85098E-07-5.14545E-04 1.05769E-13 3.91622E-13
 -1      2797 1.99998E+01 8.06424E-04 2.37312E-05-2.54735E-04-4.98838E-14 2.90823E-13
 -1      2798 2.00006E+01 1.23663E-03-1.96481E-05 1.63765E-04-4.63442E-14 3.23244E-13
 -1      2799 1.99994E+01 2.37395E-04 1.27393E-06-8.73074E-04 4.29732E-13 3.93707E-13
 -1      2800 1.99995E+01 3.91973E-04 1.47909E-05-7.36008E-04 4.17580E-13 4.48791E-13
 -1      2801 2.00001E+01 6.47778E-04-1.43552E-05-4.95589E-04 2.19499E-13 3.91337E-13
 -1      2802 1.99993E+01 2.43328E-05 1.64398E-06-1.04002E-03 2.38348E-13 4.60726E-13
 -1      2803 1.99993E+01 1.21575E-04 8.57492E-06-9.84358E-04 4.01912E-13 4.39236E-13
 -1      2804 1.99999E+01 2.58533E-04-1.02688E-05-8.65204E-04 4.79308E-13 5.02299E-13
 -1      2805 1.99992E+01-1.04666E-04 1.74882E-06-1.08233E-03 1.73321E-13 4.55951E-13
 -1      2806 1.99992E+01-4.72536E-05 4.34260E-06-1.07871E-03 2.60195E-13 5.63335E-13
 -1      2807 1.99997E+01 1.06872E-05-7.17190E-06-1.03948E-03 2.51267E-13 6.23260E-13
 -1      2808 1.99993E+01-1.76398E-04 1.68087E-06-1.04718E-03-3.21802E-13 5.93560E-13
 -1      2809 1.99992E+01-1.45813E-04 1.54820E-06-1.07515E-03-1.09622E-13 5.13007E-13
 -1      2810 1.99996E+01-1.38537E-04-4.86413E-06-1.08626E-03 2.50759E-14 6.04255E-13
 -1      2811 1.99993E+01-2.11000E-04 1.49442E-06-9.66907E-04-3.01341E-13 7.54352E-13
 -1      2812 1.99993E+01-1.97452E-04-2.07270E-07-1.01266E-03-3.21001E-13 7.00532E-13
 -1      2813 1.99996E+01-2.20953E-04-3.17255E-06-1.05346E-03-3.44136E-13 6.99731E-13
 -1      2814 1.99994E+01-2.23911E-04 1.18630E-06-8.62624E-04-5.24039E-14 6.91836E-13
 -1      2815 1.99993E+01-2.19898E-04-1.23701E-06-9.17400E-04-8.45508E-14 6.78230E-13
 -1      2816 1.99996E+01-2.60491E-04-1.94502E-06-9.73945E-04-2.02033E-13 7.66863E-13
 -1      2817 1.99995E+01-2.26945E-04 8.66929E-07-7.46446E-04-7.29630E-14 3.17348E-13
 -1      2818 1.99994E+01-2.27311E-04-1.96990E-06-8.05634E-04-6.09085E-14 3.92442E-13
 -1      2819 1.99996E+01-2.75219E-04-8.61181E-07-8.69363E-04 2.84461E-14 4.55117E-13
 -1      2820 1.99996E+01-2.35691E-04 3.98408E-07-6.28864E-04 1.82425E-13 9.55337E-14
 -1      2821 1.99995E+01-2.35365E-04-2.37027E-06-6.90399E-04 1.13077E-13 3.48391E-13
 -1      2822 1.99996E+01-2.84700E-04 7.80166E-07-7.54699E-04 6.82142E-14 1.84105E-13
 -1      2823 1.99997E+01-3.01274E-04 2.07304E-06-6.36158E-04 1.31634E-13-4.12438E-14
 -1      2824 2.00001E+01-6.67244E-04 2.03972E-06-2.03715E-04-7.22183E-14-4.42976E-13
 -1      2825 2.00001E+01-6.43118E-04 2.15572E-07-2.74124E-04-4.17373E-14-4.31400E-13
 -1      2826 1.99998E+01-3.81347E-04 2.16809E-06-5.09502E-04-6.88920E-15-1.48385E-14
 -1      2827 2.64022E+01-4.24270E+00-7.17853E-02 4.27274E+00 7.77989E-14 1.90618E-13
 -1      2828 2.35307E+01-4.19073E+00 6.62566E-02 5.72612E+00 3.14748E-13 1.39354E-13
 -1      2829 2.00000E+01-6.09646E-04 2.48847E-06-3.46409E-04-2.68854E-13-5.61429E-13
 -1      2830 2.00000E+01-5.70966E-04-6.24225E-07-4.00265E-04-1.43763E-13-2.95719E-13
 -1      2831 2.00001E+01-6.09899E-04-1.61416E-06-3.39121E-04-8.45329E-14-3.59062E-13
 -1      2832 2.00001E+01-6.79639E-04 8.39176E-07 1.28163E-04 9.47414E-14 2.86494E-13
 -1      2833 2.00001E+01-6.89155E-04 1.58460E-06 5.00672E-05 3.96614E-14 1.41475E-13
 -1      2834 2.00001E+01-6.35769E-04 6.22275E-08 2.79014E-04 2.91601E-13 2.68505E-13
 -1      2835 2.00001E+01-6.60776E-04 2.06087E-06 2.11074E-04 2.70365E-13 3.40846E-13
 -1      2836 2.00002E+01-6.49291E-04-1.67574E-06 1.85250E-04 2.91792E-13 3.94002E-13
 -1      2837 2.00000E+01-5.61166E-04-6.92499E-07 4.01489E-04 4.68510E-13 4.67812E-13
 -1      2838 2.00000E+01-6.00562E-04 2.38684E-06 3.49285E-04 4.63351E-13 2.04833E-13
 -1      2839 2.00001E+01-5.99159E-04-1.48578E-06 3.44207E-04 4.68114E-13 3.28457E-13
 -1      2840 1.99999E+01-4.61089E-04-6.37359E-07 4.76890E-04 3.11307E-13-1.19048E-13
 -1      2841 1.99999E+01-5.12360E-04 2.23132E-06 4.49653E-04 3.55021E-13 2.09868E-13
 -1      2842 2.00000E+01-5.20901E-04-9.58876E-07 4.67423E-04 4.40078E-13 1.91502E-13
 -1      2843 1.95121E+01 2.93611E+00-4.25839E-03-4.14971E-01 5.26863E-13 8.10983E-14
 -1      2844 9.21665E+00-2.08248E-01 1.74016E-01 3.77292E+00-2.43139E-13 4.97075E-13
 -1      2845 6.90942E+00 3.64251E-01 1.90363E-01 1.78484E+00-8.85403E-14 5.57943E-13
 -1      2846 1.76722E+01 2.37677E+00 3.61930E-02-3.07304E+00 1.86026E-13-1.73288E-13
 -1      2847 1.80430E+01 2.53516E+00-5.55372E-03-2.45701E+00 2.79620E-13-9.91741E-14
 -1      2848 8.01112E+00-5.00472E-01 2.13178E-01-5.15946E+00 3.59351E-13 7.60503E-13
 -1      2849 9.52776E+00-1.35799E+00 8.09216E-02-6.53087E+00 4.29295E-13 8.05522E-13
 -1      2850 1.94175E+01-3.41392E+00 2.66251E-03 7.07183E+00 5.29715E-13-6.49411E-14
 -1      2851 1.54946E+01-2.21152E+00 1.87313E-01 7.42207E+00 6.22113E-13-3.06880E-13
 -1      2852 1.30780E+01-8.87206E-01 1.55023E-01 5.21477E+00-3.23824E-13 3.20827E-13
 -1      2853 1.49079E+01 1.59768E+00 3.96813E-02 3.97919E+00-2.93047E-13 2.33591E-13
 -1      2854 1.45279E+01 6.71706E-01 1.36759E-01 4.49938E+00-3.40075E-13 3.00898E-13
 -1      2855 1.66242E+01 1.06680E+00 7.00826E-02-4.55198E+00-1.28730E-13-3.61530E-13
 -1      2856 1.66960E+01 2.01337E+00 5.66991E-02-3.84948E+00 3.70919E-14-2.59952E-13
 -1      2857 1.66797E+01 2.11878E+00-2.06299E-02 2.96625E+00 1.88165E-14 1.27185E-13
 -1      2858 1.62307E+01 2.00629E+00 5.56124E-02 3.40447E+00-1.55737E-13 1.36880E-13
 -1      2859 5.84495E+00 4.86211E-01 1.86596E-01-4.81080E-01 3.33605E-14 6.83065E-13
 -1      2860 6.29755E+00 1.49818E-01 1.40000E-01-3.28423E+00 2.05232E-13 7.43933E-13
 -1      2861 1.18042E+01-1.15416E+00 2.66651E-02 7.05933E+00 6.20948E-13-5.05901E-13
 -1      2862 9.52291E+00-5.35808E-02 2.11013E-01 5.73661E+00 6.32140E-13-6.86173E-13
 -1      2863 1.86962E+01-3.66000E+00 1.71734E-01-5.96837E+00-5.93969E-13-4.87332E-13
 -1      2864 1.79930E+01 1.91570E+00-2.85715E-02 2.19983E+00 1.26898E-13 1.70318E-13
 -1      2865 1.76440E+01 2.08922E+00 1.55262E-02 2.56706E+00 1.08189E-13 1.50730E-13
 -1      2866 1.74802E+01 2.13707E+00 4.67845E-02 1.62908E+00 2.00015E-13 3.25068E-13
 -1      2867 7.30760E+00 7.84581E-01 1.03946E-01 3.79035E+00 5.18495E-13-7.94753E-13
 -1      2868 6.89240E+00 1.47108E+00 1.95800E-01 7.85276E-01 3.65876E-13-8.90621E-13
 -1      2869 1.00749E+01 1.30499E+00 1.70566E-01 4.14003E+00 5.96266E-13-6.78221E-13
 -1      2870 3.03936E+01 6.12961E+00-1.54723E-01 1.55993E+00-4.53526E-13-7.22117E-13
 -1      2871 3.04610E+01 7.24335E+00-2.13202E-01 9.93738E-01-6.03462E-13-6.19275E-13
 -1      2872 1.99999E+01-5.23213E-04 3.26291E-06-4.49471E-04-8.00363E-14 2.26482E-15
 -1      2873 1.99999E+01-4.75310E-04-2.38747E-06-4.81450E-04-3.29828E-14 5.57245E-14
 -1      2874 2.00000E+01-5.34720E-04-1.35504E-06-4.65433E-04-1.61853E-13-1.31637E-13
 -1      2875 1.70678E+01 3.68381E+00-3.13410E-02 2.10522E+00 6.91806E-13-3.36843E-13
 -1      2876 1.74931E+01 3.52154E+00 2.19258E-02 2.23112E+00 6.58228E-13-3.77159E-13
 -1      2877 1.77260E+01 2.89212E+00-2.47911E-03 2.55290E+00 6.29188E-13-3.59064E-13
 -1      2878 1.67557E+01 3.59450E+00 1.83391E-02 2.10535E+00 6.63177E-13-3.23098E-13
 -1      2879 2.00001E+01-6.90944E-04 1.47886E-06-3.95101E-05-8.33937E-14-3.72975E-13
 -1      2880 2.00001E+01-6.83362E-04 9.61935E-07-1.18137E-04 7.48945E-14-6.53458E-13
 -1      2881 2.00002E+01-6.68657E-04-1.75583E-06 6.51087E-06 7.11945E-14-1.02930E-13
 -1      2882 2.97201E+01-1.99417E+00-1.66189E-01 8.62026E-01-3.02437E-13 2.38781E-13
 -1      2883 2.84575E+01-3.22414E+00 3.59631E-02 2.38272E+00-8.89358E-14 2.43500E-13
 -1      2884 2.08250E+01 1.80005E+00 1.10324E-03-1.73555E+00-1.76494E-13-6.51210E-13
 -1      2885 7.62487E+00 1.15458E+00 1.58497E-01-1.58404E+00 1.38712E-13-9.51739E-13
 -1      2886 9.57262E+00 3.71412E-01 1.64607E-01-3.77460E+00-4.58800E-14-9.23900E-13
 -1      2887 3.01952E+01 1.76705E+00-4.95836E-02 1.41616E+00-6.16729E-14-8.54178E-13
 -1      2888 3.04220E+01 3.99743E+00-2.13242E-01 1.71738E+00-2.72712E-13-7.65749E-13
 -1      2889 2.10525E+01 1.68706E+00 1.60002E-03-3.25134E-01 2.04477E-13-5.48289E-13
 -1      2890 2.10981E+01 1.62561E+00-1.27921E-02-6.64290E-01 1.29592E-13-5.76878E-13
 -1      2891 1.99996E+01-2.57338E-04-1.51124E-06 5.12716E-04 4.67291E-14-2.76861E-13
 -1      2892 1.99997E+01-2.61947E-04-3.75533E-07 4.69373E-04 8.59907E-14-7.19676E-14
 -1      2893 1.99997E+01-3.04433E-04 1.61692E-07 5.67479E-04 6.97479E-14-3.11869E-13
 -1      2894 3.04239E+01 7.82198E+00-2.20274E-01 5.02019E-01-7.03715E-13-5.75068E-13
 -1      2895 3.04041E+01 8.04512E+00-1.92633E-01-1.99237E-01-7.63223E-13-4.21744E-13
 -1      2896 2.87581E+01 6.90835E+00-1.10896E-01 8.92363E-01-5.31103E-13-5.90548E-13
 -1      2897 2.92755E+01-2.37246E+00-2.91964E-03-9.14844E-01 3.08267E-13-7.73992E-13
 -1      2898 2.97563E+01-1.02453E+00-2.01608E-01 2.42077E-01 1.18870E-13-8.38191E-13
 -1      2899 1.99997E+01-3.16811E-04-4.40123E-07 4.83120E-04 1.30563E-13-2.58129E-13
 -1      2900 1.91949E+01 2.61504E+00-1.69528E-02-1.26217E+00 4.19245E-13 5.16189E-14
 -1      2901 1.82379E+01 3.42789E+00 1.78203E-02-3.60646E-01 5.45256E-13-8.50390E-14
 -1      2902 1.73791E+01 3.47681E+00 1.66395E-02-3.59454E-01 5.29563E-13-1.72746E-13
 -1      2903 1.88919E+01 2.58735E+00 1.07776E-02-1.93503E+00 3.45987E-13-1.96496E-14
 -1      2904 2.11037E+01 1.62445E+00 1.19718E-03-9.79197E-01 7.31175E-14-5.83525E-13
 -1      2905 2.10391E+01 1.55781E+00-2.23560E-02-1.25811E+00-1.77120E-14-6.10454E-13
 -1      2906 2.13736E+01 1.17551E+00 3.73221E-03-7.94037E-01 8.37061E-14-5.12274E-13
 -1      2907 2.01767E+01 1.58896E+00-1.60246E-02 1.64498E+00 4.44624E-13-3.99611E-13
 -1      2908 2.01169E+01 2.04143E+00-3.94454E-03 1.26322E+00 4.31790E-13-4.54113E-13
 -1      2909 2.04815E+01 1.89260E+00 1.57460E-03 8.94549E-01 3.74613E-13-4.85325E-13
 -1      2910 1.58861E+01 2.47441E+00 7.03345E-02 2.13987E+00 3.48541E-14 1.34582E-13
 -1      2911 2.92566E+01-1.00195E+00-2.43507E-02-3.45117E-01-2.67567E-13 2.45540E-13
 -1      2912 2.08277E+01 1.29428E+00-1.88176E-02-1.76597E+00-2.40348E-13-5.95885E-13
 -1      2913 2.07841E+01 8.83861E-01-1.23449E-02-1.57557E+00-2.21539E-13-5.37419E-13
 -1      2914 1.75707E+01-3.23838E+00 7.49852E-02-7.18508E+00 5.94996E-13 2.91031E-13
 -1      2915 1.93965E+01-4.14970E+00 1.92767E-01-7.35677E+00 7.29306E-13 2.09513E-13
 -1      2916 1.26605E+01-9.93182E-01 1.55762E-01-5.33730E+00-2.94487E-13-7.60281E-13
 -1      2917 1.65170E+01-2.75810E+00 1.20752E-01-6.10456E+00-4.71734E-13-6.06015E-13
 -1      2918 1.25559E+01-1.36849E+00 1.48629E-01-6.57350E+00 5.01030E-13 6.41390E-13
 -1      2919 2.86231E+01 4.39997E+00-1.39712E-01-2.10105E+00-5.82950E-13-4.28407E-14
 -1      2920 2.97416E+01 3.41430E+00-1.14652E-01-2.03925E+00-6.07500E-13 3.10030E-14
 -1      2921 2.87502E+01 1.85235E+00-7.63144E-02-1.84090E+00-4.65766E-13 1.09912E-13
 -1      2922 2.34334E+01-3.38783E+00 1.42033E-02 4.73245E+00 4.58935E-13 1.01888E-13
 -1      2923 2.17792E+01-3.59569E+00 7.21345E-02 6.13438E+00 4.71546E-13 3.86791E-14
 -1      2924 1.98853E+01-2.40265E+00 4.47301E-02 6.08124E+00 5.73749E-13-7.84303E-14
 -1      2925 2.00002E+01-6.55559E-04-1.75341E-06-1.75121E-04 3.34746E-14-4.15941E-13
 -1      2926 9.09457E+00 2.03273E+00 1.88293E-01-3.69726E-01 2.99517E-13-8.16874E-13
 -1      2927 1.99998E+01-4.03565E-04-8.16450E-07-5.53989E-04 1.15400E-13-3.03360E-14
 -1      2928 2.71934E+01-3.48801E+00 1.92506E-02 2.70380E+00 1.09864E-13 2.18173E-13
 -1      2929 1.52070E+01 2.65528E+00 6.55479E-02-2.85600E+00 1.80758E-13-3.69926E-13
 -1      2930 1.99998E+01-3.77039E-04 1.64112E-07 4.84958E-04 1.01121E-13-1.62334E-13
 -1      2931 1.50227E+01-9.47520E-01 1.38252E-01 6.58173E+00 6.78811E-13-3.72494E-13
 -1      2932 8.21203E+00 1.27344E+00 2.02203E-01 6.41754E-01-4.12066E-14 5.44842E-13
 -1      2933 1.71084E+01 3.12028E+00 4.87703E-02-1.67816E+00 3.86803E-13-2.06760E-13
 -1      2934 1.28678E+01 2.58307E-01 1.42242E-01-4.47913E+00-1.64591E-13-7.18287E-13
 -1      2935 1.07895E+01 1.77535E-01 1.48793E-01 4.08123E+00-2.77112E-13 4.96242E-13
 -1      2936 8.63463E+00 6.07449E-01 1.84484E-01-3.71632E+00 1.94164E-13 6.17756E-13
 -1      2937 1.36835E+01 2.16681E+00 1.13343E-01 2.90811E+00-1.58776E-13 1.85317E-13
 -1      2938 1.99998E+01-3.49556E-04 3.61582E-07 5.51162E-04 5.00153E-14-3.27448E-13
 -1      2939 1.99998E+01-4.17017E-04 4.09881E-07 5.10024E-04 1.44211E-13-1.10578E-13
 -1      2940 1.99999E+01-4.30056E-04-6.16891E-07 5.46315E-04 1.89320E-13-2.02605E-13
 -1      2941 1.99998E+01-3.44022E-04-8.05801E-07 5.92768E-04 1.30731E-13-2.87221E-13
 -1      2942 2.07520E+01 1.79598E+00 1.00775E-03 4.53279E-01 3.17825E-13-4.90089E-13
 -1      2943 2.09388E+01 1.70570E+00-6.66123E-03 7.46208E-02 2.52104E-13-5.21534E-13
 -1      2944 2.13162E+01 1.19874E+00-2.38583E-03-8.76817E-02 2.04424E-13-4.84647E-13
 -1      2945 2.09466E+01 1.29992E+00-9.55684E-03 7.65441E-01 3.18084E-13-4.36260E-13
 -1      2946 2.90839E+01 3.65571E-01-4.85704E-02 1.23075E+00 5.33323E-14-7.24712E-13
 -1      2947 1.84042E+01-2.35964E+00 8.46118E-02-5.78151E+00-4.87110E-13-3.99292E-13
 -1      2948 2.89102E+01 4.56512E+00-9.65128E-02 1.88246E+00-2.61915E-13-7.03528E-13
 -1      2949 2.10000E+01 8.50231E-01 1.08287E-03-1.53530E+00-1.71365E-13-5.07800E-13
 -1      2950 2.76853E+01-3.86853E+00-1.40930E-01-2.69173E+00 4.30451E-13-6.61672E-13
 -1      2951 2.77368E+01-3.17003E+00-5.02800E-03-1.42411E+00 3.25871E-13-5.99854E-13
 -1      2952 2.61550E+01-4.52917E+00 1.08075E-01-4.34042E+00 5.77670E-13-3.96280E-13
 -1      2953 1.94197E+01 7.87977E-01-8.18946E-03 5.22900E-01 4.79275E-14 5.05329E-13
 -1      2954 1.92687E+01 9.40693E-01-4.68563E-03 6.15753E-01 1.45463E-13 5.09313E-13
 -1      2955 1.58896E+01 3.70461E+00-3.32233E-02 7.46768E-01 5.83715E-13-3.21612E-13
 -1      2956 1.57527E+01 3.76815E+00 1.76523E-02 1.43264E+00 6.13152E-13-3.48297E-13
 -1      2957 1.65560E+01-2.07201E+00 1.48435E-01-6.55386E+00 4.82767E-13 3.24907E-13
 -1      2958 1.85839E+01-3.03590E+00-6.78858E-02-6.38216E+00 5.02702E-13 2.61097E-13
 -1      2959 2.00003E+01-6.47140E-04 6.37372E-07 5.52159E-05 2.92937E-13 1.92398E-13
 -1      2960 2.00003E+01-6.48598E-04 8.35294E-07-3.85459E-05 1.55855E-13-1.13811E-13
 -1      2961 2.87426E+01 7.20634E+00-1.33171E-01-4.57620E-01-6.31217E-13-4.32166E-13
 -1      2962 3.04850E+01 7.62931E+00-1.92697E-01-8.81962E-01-7.68413E-13-2.84398E-13
 -1      2963 2.09541E+01 1.59446E+00 7.76352E-03-1.55579E+00-8.67393E-14-6.02884E-13
 -1      2964 2.22428E+01-4.73358E+00-5.77536E-02-6.48933E+00 6.07611E-13 4.29171E-14
 -1      2965 2.77453E+01 3.57256E+00-1.56980E-02 2.10167E+00-1.79301E-13-6.75980E-13
 -1      2966 2.74626E+01 4.97335E+00-1.61417E-01 1.70730E+00-3.26239E-13-6.15400E-13
 -1      2967 1.22060E+01 5.53777E-02 1.64426E-01-5.31557E+00 3.32033E-13 5.99534E-13
 -1      2968 1.42415E+01-1.21197E+00 3.48130E-02-6.25412E+00 4.44575E-13 5.14352E-13
 -1      2969 1.58438E+01-9.31055E-01 7.74315E-02-5.57427E+00 3.32671E-13 3.82985E-13
 -1      2970 2.13814E+01 6.93177E-02 3.32958E-03-1.37425E+00-1.15946E-13-3.71404E-13
 -1      2971 2.13275E+01 5.83191E-03-5.63965E-03-1.37576E+00-1.23093E-13-3.53782E-13
 -1      2972 2.13486E+01 2.52458E-02-1.24257E-03-1.43328E+00-1.43757E-13-3.18789E-13
 -1      2973 2.12589E+01 1.21916E-01 1.23332E-04-1.43210E+00-1.53188E-13-3.28286E-13
 -1      2974 2.17681E+01 1.62906E-02 5.46937E-03-1.42899E+00-1.25590E-13-3.27795E-13
 -1      2975 2.11868E+01 2.82759E-01-7.05699E-03-1.44671E+00-1.68592E-13-2.95250E-13
 -1      2976 2.10742E+01 5.04309E-01 6.73982E-03-1.38271E+00-1.80891E-13-3.03916E-13
 -1      2977 2.17336E+01 2.37272E-01 7.53746E-03-1.51759E+00-1.46922E-13-2.49696E-13
 -1      2978 2.09245E+01 7.51461E-01-1.01899E-02-1.28346E+00-1.69402E-13-2.94365E-13
 -1      2979 2.08115E+01 1.01786E+00 1.10865E-02-1.11136E+00-1.66568E-13-2.99660E-13
 -1      2980 2.15420E+01 7.38221E-01 5.75454E-03-1.45184E+00-1.70186E-13-2.36159E-13
 -1      2981 2.06449E+01 1.25476E+00-7.85137E-03-8.58782E-01-1.66049E-13-3.01230E-13
 -1      2982 2.05632E+01 1.45222E+00 9.92616E-03-5.76464E-01-1.46622E-13-3.12179E-13
 -1      2983 2.12570E+01 1.33751E+00-1.00833E-04-1.10468E+00-1.72223E-13-2.43789E-13
 -1      2984 2.04636E+01 1.57031E+00-2.60535E-04-2.02175E-01-1.33817E-13-3.17253E-13
 -1      2985 2.04385E+01 1.60161E+00 3.10179E-03 1.36309E-01-1.31045E-13-3.20977E-13
 -1      2986 2.10117E+01 1.77817E+00-6.61653E-03-4.58473E-01-1.35342E-13-2.89274E-13
 -1      2987 2.04563E+01 1.53782E+00 8.20344E-03 5.31301E-01-1.27445E-13-3.37050E-13
 -1      2988 2.04919E+01 1.37840E+00-5.88590E-03 8.37866E-01-1.10203E-13-3.34970E-13
 -1      2989 2.09338E+01 1.84656E+00-7.24348E-03 3.44618E-01-1.30069E-13-2.92946E-13
 -1      2990 2.06063E+01 1.15502E+00 1.19627E-02 1.13438E+00-1.01014E-13-3.18043E-13
 -1      2991 2.06807E+01 8.71351E-01-1.16691E-02 1.33339E+00-3.98001E-14-3.21801E-13
 -1      2992 2.10493E+01 1.48795E+00-2.39907E-03 1.06534E+00-1.05364E-13-3.02861E-13
 -1      2993 2.08160E+01 5.75128E-01 9.86238E-03 1.46748E+00-3.16209E-14-2.99056E-13
 -1      2994 2.08981E+01 2.68834E-01-1.15335E-02 1.53069E+00-4.67454E-15-3.21360E-13
 -1      2995 2.12647E+01 8.46376E-01 4.53425E-03 1.49710E+00-2.21582E-14-2.25182E-13
 -1      2996 2.09785E+01-2.27614E-03 4.50987E-03 1.50460E+00 1.93595E-14-3.13989E-13
 -1      2997 2.10374E+01-2.43288E-01-7.26694E-03 1.45375E+00 6.28831E-14-2.78890E-13
 -1      2998 2.14417E+01 1.46024E-01 7.53160E-03 1.58657E+00 2.30774E-14-2.65675E-13
 -1      2999 2.10322E+01-4.28565E-01-5.01639E-04 1.32401E+00 7.53511E-14-2.84515E-13
 -1      3000 2.10541E+01-5.66824E-01-1.81730E-03 1.20515E+00 8.92123E-14-2.48950E-13
 -1      3001 2.14830E+01-4.04849E-01 7.49520E-03 1.40543E+00 8.88265E-14-2.84035E-13
 -1      3002 2.09750E+01-6.54181E-01-3.64261E-03 1.03635E+00 5.59586E-14-2.26215E-13
 -1      3003 2.09621E+01-6.96886E-01 2.12488E-03 8.94276E-01-9.51583E-15-1.98249E-13
 -1      3004 2.13772E+01-7.23347E-01 4.31019E-03 1.08790E+00 6.77732E-14-2.43817E-13
 -1      3005 2.08410E+01-7.05256E-01-4.72966E-03 7.32658E-01-1.07986E-13-1.45729E-13
 -1      3006 2.08049E+01-6.81039E-01 4.21002E-03 5.98533E-01-1.18908E-13-1.65229E-13
 -1      3007 2.11699E+01-8.23835E-01 4.36040E-04 7.49157E-01-1.86697E-14-2.40798E-13
 -1      3008 2.06736E+01-6.40422E-01-4.32670E-03 4.67375E-01-1.05787E-13-1.60877E-13
 -1      3009 2.06273E+01-5.80928E-01 4.82580E-03 3.56971E-01-5.79257E-14-1.03262E-13
 -1      3010 2.09219E+01-7.70929E-01-2.10565E-03 4.56944E-01-1.16398E-13-1.26054E-13
 -1      3011 2.05075E+01-5.18670E-01-3.30744E-03 2.62034E-01-5.55995E-14-1.89876E-13
 -1      3012 2.04610E+01-4.48526E-01 4.45606E-03 1.79670E-01-9.85717E-14-2.08653E-13
 -1      3013 2.06816E+01-6.37463E-01-3.22163E-03 2.36559E-01-1.06776E-13-1.21234E-13
 -1      3014 2.03630E+01-3.83597E-01-2.25146E-03 1.17226E-01-1.20542E-13-2.13482E-13
 -1      3015 2.03223E+01-3.17924E-01 3.62615E-03 6.07455E-02-8.98994E-14-2.82051E-13
 -1      3016 2.04764E+01-4.79629E-01-3.34599E-03 8.66036E-02-1.10112E-13-1.72380E-13
 -1      3017 2.02485E+01-2.60890E-01-1.38937E-03 2.35838E-02-2.89707E-14-2.15697E-13
 -1      3018 2.02159E+01-2.06879E-01 2.69637E-03-1.19376E-02 6.69656E-14-2.04622E-13
 -1      3019 2.03164E+01-3.31787E-01-2.92188E-03-5.91776E-03-7.46487E-16-1.42487E-13
 -1      3020 2.01637E+01-1.61960E-01-7.70991E-04-3.12192E-02 1.23575E-13-1.98854E-13
 -1      3021 2.01392E+01-1.21472E-01 1.86201E-03-5.12141E-02 1.86333E-13-1.69901E-13
 -1      3022 2.02001E+01-2.10192E-01-2.29364E-03-5.65676E-02 1.26277E-13-7.61719E-14
 -1      3023 2.01044E+01-8.89678E-02-3.63377E-04-5.87906E-02 1.87879E-13-1.10894E-13
 -1      3024 2.00867E+01-6.09171E-02 1.19850E-03-6.80945E-02 7.49926E-14-1.64392E-13
 -1      3025 2.01204E+01-1.19013E-01-1.66688E-03-7.91282E-02 2.17509E-13-8.60557E-14
 -1      3026 2.00648E+01-3.91528E-02-1.12593E-04-6.85825E-02 1.20644E-14-8.57812E-14
 -1      3027 2.00525E+01-2.11988E-02 7.12844E-04-7.10391E-02 1.61860E-14-1.23425E-14
 -1      3028 2.00686E+01-5.57893E-02-1.13873E-03-8.42231E-02 1.18585E-13 1.23395E-15
 -1      3029 2.00394E+01-7.80462E-03 3.11545E-05-6.76478E-02 3.04498E-14-6.73872E-14
 -1      3030 2.00310E+01 2.63755E-03 3.81065E-04-6.60879E-02 9.33176E-14 5.33754E-14
 -1      3031 2.00366E+01-1.52570E-02-7.36792E-04-7.93797E-02 4.26311E-14 1.67010E-14
 -1      3032 2.00237E+01 1.00067E-02 1.05651E-04-6.09183E-02 1.32374E-13-1.05850E-13
 -1      3033 2.00180E+01 1.52534E-02 1.69021E-04-5.72974E-02 8.83183E-14-7.08797E-14
 -1      3034 2.00181E+01 8.38313E-03-4.52187E-04-6.96106E-02 7.14985E-14 4.24447E-15
 -1      3035 2.00143E+01 1.85831E-02 1.37195E-04-5.16414E-02 6.44013E-14-6.52642E-14
 -1      3036 2.00105E+01 2.04830E-02 4.29992E-05-4.72296E-02 8.73968E-14-3.59112E-14
 -1      3037 2.00080E+01 2.03219E-02-2.62901E-04-5.80624E-02 1.01999E-13-1.52305E-13
 -1      3038 2.00088E+01 2.12988E-02 1.43277E-04-4.18226E-02 7.45262E-14-6.63699E-15
 -1      3039 2.00062E+01 2.12131E-02-2.49410E-05-3.73878E-02-3.06708E-15 7.27947E-14
 -1      3040 2.00030E+01 2.47054E-02-1.43941E-04-4.65800E-02 8.60997E-14-1.16667E-14
 -1      3041 2.00057E+01 2.06046E-02 1.35141E-04-3.26013E-02-8.91550E-14 2.62604E-14
 -1      3042 2.00039E+01 1.94713E-02-5.59171E-05-2.85635E-02-4.78580E-14 1.14574E-13
 -1      3043 2.00008E+01 2.45895E-02-7.33672E-05-3.61465E-02-1.80217E-14 6.43465E-14
 -1      3044 2.00039E+01 1.81688E-02 1.19878E-04-2.45409E-02-1.51646E-13 7.83275E-14
 -1      3045 2.00026E+01 1.65945E-02-6.48856E-05-2.10913E-02 8.06394E-15 3.82220E-14
 -1      3046 2.00001E+01 2.20847E-02-3.41334E-05-2.71983E-02-9.14851E-14 5.32024E-14
 -1      3047 2.00028E+01 1.50560E-02 1.01855E-04-1.78421E-02-4.11220E-14-5.16862E-14
 -1      3048 2.00019E+01 1.34062E-02-6.18697E-05-1.50299E-02 4.10133E-17-1.16421E-13
 -1      3049 2.00001E+01 1.85605E-02-1.40525E-05-1.98414E-02-6.99304E-14 4.99740E-14
 -1      3050 2.00021E+01 1.18969E-02 8.36769E-05-1.24908E-02 2.26242E-13-2.09169E-13
 -1      3051 2.00014E+01 1.03713E-02-5.32298E-05-1.02845E-02 2.94644E-13-1.23938E-13
 -1      3052 2.00004E+01 1.48452E-02-4.96629E-06-1.39953E-02 4.88906E-14-8.15688E-14
 -1      3053 2.00017E+01 9.02729E-03 6.68010E-05-8.35876E-03 2.51534E-13-2.08903E-13
 -1      3054 2.00011E+01 7.71813E-03-4.27617E-05-6.68578E-03 1.25639E-13-2.50250E-13
 -1      3055 2.00006E+01 1.13951E-02-1.71306E-06-9.48650E-03 2.19795E-13-2.61962E-13
 -1      3056 2.00013E+01 6.59428E-03 5.19503E-05-5.26732E-03 4.41631E-14-2.34398E-13
 -1      3057 2.00009E+01 5.52845E-03-3.25534E-05-4.03985E-03-1.11472E-15-2.76345E-13
 -1      3058 2.00008E+01 8.42344E-03-1.21913E-06-6.10554E-03 1.06644E-13-3.07949E-13
 -1      3059 2.00010E+01 4.63160E-03 3.93840E-05-3.02658E-03 7.78116E-14-1.88840E-13
 -1      3060 2.00007E+01 3.79923E-03-2.36121E-05-2.15651E-03 6.25691E-14-1.01803E-13
 -1      3061 2.00008E+01 5.99555E-03-1.77713E-06-3.64157E-03 7.35236E-14-9.29211E-14
 -1      3062 2.00007E+01 3.11066E-03 2.90810E-05-1.45737E-03-1.62367E-14-9.69668E-14
 -1      3063 2.00005E+01 2.48376E-03-1.62991E-05-8.64410E-04-3.07457E-14-1.44480E-13
 -1      3064 2.00008E+01 4.09254E-03-2.52315E-06-1.90061E-03 2.16265E-15-7.79810E-14
 -1      3065 2.00005E+01 1.97333E-03 2.08615E-05-4.02141E-04-9.50744E-14-1.64474E-13
 -1      3066 2.00004E+01 1.51722E-03-1.06177E-05-1.74529E-05-1.84456E-13-2.18276E-13
 -1      3067 2.00008E+01 2.65367E-03-3.08332E-06-7.14211E-04-3.71238E-14 1.03543E-13
 -1      3068 2.00003E+01 1.15175E-03 1.44681E-05 2.71046E-04-6.76380E-14-2.08125E-13
 -1      3069 2.00002E+01 8.31584E-04-6.39406E-06 5.03916E-04-4.42674E-15-6.13088E-14
 -1      3070 2.00007E+01 1.60213E-03-3.34792E-06 5.79651E-05-6.92579E-14 5.11384E-14
 -1      3071 2.00002E+01 5.79470E-04 9.61785E-06 6.68598E-04 1.44449E-13 8.65503E-14
 -1      3072 2.00001E+01 3.63586E-04-3.38646E-06 7.94298E-04 1.56494E-13 1.16627E-13
 -1      3073 2.00005E+01 8.60056E-04-3.33506E-06 5.29016E-04 1.57503E-13 5.53825E-14
 -1      3074 2.00001E+01 1.96995E-04 6.03450E-06 8.73593E-04 2.42915E-14 9.75698E-14
 -1      3075 2.00000E+01 5.82925E-05-1.34577E-06 9.26300E-04-3.24997E-14-3.35423E-14
 -1      3076 2.00004E+01 3.56280E-04-3.11390E-06 7.87495E-04 8.73915E-14-4.86541E-14
 -1      3077 2.00000E+01-4.61370E-05 3.46847E-06 9.48940E-04-1.22173E-13 4.08999E-15
 -1      3078 2.00000E+01-1.29962E-04-4.41036E-08 9.53966E-04-1.35403E-13-1.27368E-13
 -1      3079 2.00003E+01 2.95952E-05-2.76468E-06 9.00856E-04 5.75847E-14 2.43066E-13
 -1      3080 1.99999E+01-1.91219E-04 1.70615E-06 9.40766E-04 2.57780E-14-2.00153E-13
 -1      3081 1.99999E+01-2.38072E-04 7.09267E-07 9.16171E-04 3.85695E-13-1.73314E-13
 -1      3082 2.00002E+01-1.70563E-04-2.35585E-06 9.19014E-04-1.54636E-14 6.96071E-14
 -1      3083 1.99998E+01-2.71280E-04 5.69027E-07 8.81627E-04 3.38490E-13-2.69607E-13
 -1      3084 1.99998E+01-2.95310E-04 1.08337E-06 8.39684E-04-2.08502E-14-3.85837E-13
 -1      3085 2.00001E+01-2.84895E-04-1.94486E-06 8.77700E-04 2.38226E-13-2.40766E-13
 -1      3086 1.99998E+01-3.12583E-04-1.24821E-07 7.93440E-04-2.59920E-13-4.39868E-13
 -1      3087 1.99998E+01-3.24688E-04 1.00998E-06 7.41699E-04-2.47301E-13-5.07390E-13
 -1      3088 2.00000E+01-3.45670E-04-1.64102E-06 8.01428E-04-1.39436E-13-6.63039E-13
 -1      3089 1.99998E+01-3.30217E-04-5.22305E-07 6.97715E-04-1.38621E-13-4.35595E-13
 -1      3090 1.99998E+01-3.39002E-04 5.97339E-07 6.39977E-04 9.98660E-14-3.35488E-13
 -1      3091 1.99999E+01-3.83417E-04-2.00550E-07 6.24185E-04 9.01903E-14-3.39590E-13
 -1      3092 1.99999E+01-3.72477E-04-1.21531E-06 7.14110E-04-6.02376E-14-5.13427E-13
 -1      3093 1.89829E+01 1.11339E+00-1.18350E-02 6.54967E-01 1.07452E-13 4.43120E-13
 -1      3094 1.87186E+01 1.31127E+00-9.28282E-03 7.62781E-01 1.01603E-13 3.71502E-13
 -1      3095 1.89317E+01 1.11932E+00 1.68745E-02 4.23474E-01 1.03009E-13 3.07072E-13
 -1      3096 2.90529E+01 6.44358E+00-1.15808E-01-1.41048E+00-6.79262E-13-1.91284E-13
 -1      3097 1.79942E+01-2.51424E-01 1.90222E-01-5.44864E+00-3.18169E-13-3.22464E-13
 -1      3098 2.00000E+01-4.84513E-04-6.33075E-07 5.30237E-04 1.88566E-13-7.91106E-14
 -1      3099 2.00001E+01-5.25522E-04 2.17505E-06 4.80209E-04 4.28477E-13 2.37415E-13
 -1      3100 1.82704E+01 1.52750E+00-1.67983E-02 7.85932E-01 1.09053E-13 3.88034E-13
 -1      3101 1.78299E+01 1.76183E+00-1.45290E-02 9.00127E-01 1.23584E-13 3.13363E-13
 -1      3102 1.82441E+01 1.52334E+00 2.64178E-02 4.28919E-01 9.11545E-14 3.65637E-13
 -1      3103 1.98340E+01 3.76962E-01-3.79852E-03 3.06150E-01 7.96010E-14 1.93848E-13
 -1      3104 1.97918E+01 4.56040E-01-5.03131E-04 3.64479E-01 7.66638E-14 2.52407E-13
 -1      3105 1.99206E+01 2.58235E-01-2.54357E-03 2.27909E-01-2.07392E-13 7.85434E-14
 -1      3106 1.99009E+01 3.13125E-01 1.84213E-04 2.71908E-01-4.27790E-14 1.89006E-13
 -1      3107 1.97926E+01 3.91031E-01 4.01412E-03 2.47379E-01 4.30704E-14 1.06169E-13
 -1      3108 1.99679E+01 1.76767E-01-1.68708E-03 1.67572E-01-2.08975E-13-7.42311E-14
 -1      3109 1.99603E+01 2.14446E-01 4.56725E-04 2.00158E-01-2.10299E-13-8.13753E-14
 -1      3110 1.98882E+01 2.70599E-01 2.38316E-03 1.91412E-01-1.03223E-13-2.38628E-14
 -1      3111 1.99923E+01 1.21217E-01-1.10989E-03 1.21950E-01-2.78300E-14-2.91767E-14
 -1      3112 1.99909E+01 1.46948E-01 5.19335E-04 1.45805E-01-1.99198E-13-8.96020E-14
 -1      3113 1.99435E+01 1.87005E-01 1.38451E-03 1.45067E-01-1.53642E-13-1.15046E-13
 -1      3114 2.00039E+01 8.33978E-02-7.25148E-04 8.78996E-02-4.57202E-14 4.15548E-14
 -1      3115 2.00053E+01 1.00956E-01 4.84968E-04 1.05239E-01 4.68802E-14 6.92193E-14
 -1      3116 1.99745E+01 1.29374E-01 7.82305E-04 1.08154E-01-4.65450E-14-9.35701E-14
 -1      3117 2.00084E+01 5.75477E-02-4.89829E-04 6.26944E-02-4.74374E-14-1.42174E-13
 -1      3118 2.00109E+01 6.95896E-02 4.08957E-04 7.52524E-02-2.15268E-15-9.66728E-14
 -1      3119 1.99912E+01 8.97392E-02 4.31317E-04 7.94772E-02 1.17789E-14-1.81893E-13
 -1      3120 2.00093E+01 3.91237E-02-3.19110E-04 4.33987E-02-1.54234E-13-2.80751E-13
 -1      3121 2.00121E+01 4.76692E-02 3.28860E-04 5.27780E-02-1.60747E-13-2.22590E-13
 -1      3122 1.99998E+01 6.19155E-02 2.40447E-04 5.71487E-02 3.62335E-14-3.90385E-13
 -1      3123 2.00086E+01 2.71460E-02-1.99549E-04 3.01160E-02-1.05225E-13-2.78136E-13
 -1      3124 2.00110E+01 3.27742E-02 2.61862E-04 3.65140E-02-1.66514E-13-3.21315E-13
 -1      3125 2.00036E+01 4.26915E-02 9.85453E-05 4.03928E-02-1.40887E-13-3.06272E-13
 -1      3126 2.00072E+01 1.87903E-02-1.30341E-04 2.04745E-02-3.80307E-14-2.23538E-13
 -1      3127 2.00092E+01 2.27195E-02 2.01544E-04 2.50455E-02-5.58467E-14-2.55969E-13
 -1      3128 2.00049E+01 2.97395E-02 3.43299E-05 2.82977E-02-5.69324E-14-2.44165E-13
 -1      3129 2.00057E+01 1.29351E-02-8.51891E-05 1.35437E-02-2.72617E-13-2.21195E-13
 -1      3130 2.00073E+01 1.56945E-02 1.52463E-04 1.67886E-02-6.74225E-14-2.10924E-13
 -1      3131 2.00049E+01 2.06594E-02 2.59822E-06 1.93901E-02-1.82948E-13-1.15338E-13
 -1      3132 2.00043E+01 8.81208E-03-5.54037E-05 8.61603E-03-2.02848E-14-1.20420E-13
 -1      3133 2.00055E+01 1.07578E-02 1.13716E-04 1.08964E-02-2.45867E-13-1.69025E-13
 -1      3134 2.00044E+01 1.42559E-02-1.20930E-05 1.29088E-02-1.90863E-13-1.00005E-13
 -1      3135 2.00031E+01 5.90233E-03-3.56698E-05 5.16231E-03 2.18115E-13-1.30379E-13
 -1      3136 2.00041E+01 7.27578E-03 8.36247E-05 6.74240E-03 3.79405E-14-1.44143E-13
 -1      3137 2.00037E+01 9.72313E-03-1.75937E-05 8.25665E-03 2.10982E-14-1.48134E-13
 -1      3138 2.00022E+01 3.85189E-03-2.25290E-05 2.78719E-03 4.10458E-13 1.88408E-13
 -1      3139 2.00029E+01 4.81866E-03 6.05784E-05 3.86084E-03 3.17376E-13 1.04975E-13
 -1      3140 2.00029E+01 6.51179E-03-1.83489E-05 4.97204E-03 1.05579E-13-9.20999E-14
 -1      3141 2.00015E+01 2.41556E-03-1.37556E-05 1.19511E-03 2.26153E-13 3.50179E-13
 -1      3142 2.00020E+01 3.09099E-03 4.31404E-05 1.90498E-03 4.43981E-13 3.03527E-13
 -1      3143 2.00023E+01 4.24292E-03-1.68552E-05 2.70038E-03 3.26492E-13 2.11801E-13
 -1      3144 2.00009E+01 1.42074E-03-7.90847E-06 1.65341E-04-1.10310E-13 2.79710E-13
 -1      3145 2.00013E+01 1.88647E-03 3.00979E-05 6.16563E-04 9.15779E-14 2.95362E-13
 -1      3146 2.00017E+01 2.65144E-03-1.44760E-05 1.17086E-03 1.47664E-13 2.91952E-13
 -1      3147 2.00006E+01 7.43978E-04-4.04486E-06-4.66512E-04 3.58936E-13 2.08593E-13
 -1      3148 2.00008E+01 1.05868E-03 2.04606E-05-1.96524E-04 4.60900E-14 1.35486E-13
 -1      3149 2.00013E+01 1.54900E-03-1.19212E-05 1.77877E-04 9.70735E-14 6.21285E-14
 -1      3150 2.00003E+01 2.95605E-04-1.53962E-06-8.22138E-04 3.08989E-13 3.79387E-13
 -1      3151 2.00004E+01 5.02065E-04 1.34367E-05-6.76648E-04 4.28138E-13 3.41033E-13
 -1      3152 2.00009E+01 7.99776E-04-9.53245E-06-4.33551E-04 2.18162E-13 3.28510E-14
 -1      3153 2.00001E+01 9.71129E-06 2.82760E-08-9.90788E-04 2.49429E-13 4.45925E-13
 -1      3154 2.00002E+01 1.39472E-04 8.40169E-06-9.28577E-04 3.15913E-13 4.59794E-13
 -1      3155 2.00006E+01 3.04465E-04-7.45011E-06-7.79158E-04 2.78690E-13 2.10941E-13
 -1      3156 2.00000E+01-1.62665E-04 9.44927E-07-1.03701E-03-2.16147E-13 6.59932E-13
 -1      3157 2.00000E+01-8.61195E-05 4.86925E-06-1.02856E-03 1.34646E-13 5.72617E-13
 -1      3158 2.00004E+01-1.03223E-05-5.71034E-06-9.44331E-04 9.88850E-14 5.47295E-13
 -1      3159 1.99999E+01-2.58220E-04 1.41238E-06-1.00653E-03-4.10710E-13 6.86458E-13
 -1      3160 1.99999E+01-2.17267E-04 2.45941E-06-1.03115E-03-3.06308E-13 6.57813E-13
 -1      3161 2.00002E+01-1.99321E-04-4.29891E-06-9.91054E-04-2.72371E-13 5.49047E-13
 -1      3162 1.99998E+01-3.04652E-04 1.59699E-06-9.30723E-04 4.81887E-14 3.01035E-13
 -1      3163 1.99998E+01-2.86027E-04 8.84467E-07-9.74457E-04-2.19985E-13 4.17059E-13
 -1      3164 2.00001E+01-3.03674E-04-3.16463E-06-9.63322E-04-1.15269E-13 3.58640E-13
 -1      3165 1.99998E+01-3.23758E-04 1.21093E-06-8.30346E-04-2.02710E-14 2.69426E-13
 -1      3166 1.99998E+01-3.17384E-04-3.58588E-07-8.84152E-04-4.63849E-15 3.79724E-13
 -1      3167 2.00000E+01-3.53907E-04-1.98142E-06-8.91686E-04 3.15112E-14 1.18957E-13
 -1      3168 2.00002E+01-6.07499E-04 2.01427E-06-3.26381E-04-6.42281E-14-1.53301E-13
 -1      3169 2.00001E+01-5.80254E-04-5.93059E-07-4.02481E-04-1.26882E-13-1.16330E-13
 -1      3170 1.89317E+01 1.71660E+00-2.48973E-02 2.79206E+00 5.86056E-13-3.18528E-13
 -1      3171 1.97290E+01 1.44141E+00 2.56914E-02 2.52225E+00 5.21850E-13-3.42867E-13
 -1      3172 9.89699E+00 2.59182E+00 4.14236E-02 6.74312E-01 4.28824E-13-6.83481E-13
 -1      3173 1.08515E+01 2.45385E+00 1.25251E-01-1.74899E+00 2.35877E-13-6.99149E-13
 -1      3174 2.74296E+01 6.76391E+00-1.46949E-01-2.77667E-02-5.07108E-13-4.66475E-13
 -1      3175 2.74972E+01 6.58452E+00-1.20045E-01-7.80590E-01-5.37667E-13-3.20983E-13
 -1      3176 2.00001E+01-5.42059E-04 2.53517E-06-4.77213E-04-1.23224E-13-2.53283E-13
 -1      3177 2.00000E+01-5.02945E-04-1.95189E-06-5.28426E-04 1.66298E-14-3.41091E-13
 -1      3178 2.00002E+01-5.52314E-04-9.09400E-07-4.71605E-04-1.25686E-13-2.76798E-13
 -1      3179 2.00001E+01-5.66201E-04-9.22243E-07 4.08467E-04 5.71727E-13 3.77311E-13
 -1      3180 2.00002E+01-5.94882E-04 2.01917E-06 3.34709E-04 5.39159E-13 5.77108E-13
 -1      3181 2.00002E+01-5.32625E-04-8.67164E-07 4.78024E-04 4.89271E-13 2.52322E-13
 -1      3182 2.00002E+01-6.20999E-04-1.53403E-07 2.43679E-04 4.78173E-13 4.77411E-13
 -1      3183 2.00003E+01-6.36354E-04 1.47589E-06 1.56960E-04 4.17064E-13 2.67477E-13
 -1      3184 2.00003E+01-6.26346E-04-1.22917E-06 1.14316E-04 4.64561E-13 3.40641E-13
 -1      3185 2.00003E+01-5.92896E-04-1.15022E-06 3.11214E-04 4.84171E-13 5.58467E-13
 -1      3186 2.81918E+01-3.45002E-01-1.11370E-01-1.16650E+00-2.53318E-13 2.28213E-13
 -1      3187 2.80948E+01-1.76898E+00 1.15272E-02 1.69024E-03-8.82350E-14 2.69791E-13
 -1      3188 1.48268E+01 6.30757E-01 8.75265E-02-4.78028E+00-1.61718E-13-5.24553E-13
 -1      3189 2.00003E+01-6.42991E-04 1.33645E-06-1.42182E-04-1.15767E-13-5.02050E-13
 -1      3190 2.00002E+01-6.29831E-04 7.86710E-08-2.31894E-04-9.09845E-14-4.82581E-13
 -1      3191 2.00003E+01-6.06587E-04-1.33579E-06-2.98129E-04-2.91026E-13-3.52643E-13
 -1      3192 2.00003E+01-6.31382E-04-1.32496E-06-9.54328E-05 3.79401E-15-2.92673E-14
 -1      3193 1.96813E+01 5.47764E-01-5.61010E-03 4.04611E-01-1.59640E-14 3.43931E-13
 -1      3194 1.95990E+01 6.59461E-01-1.95214E-03 4.79784E-01 5.16230E-14 4.37637E-13
 -1      3195 1.93643E+01 8.00210E-01 1.06664E-02 3.74626E-01 2.99786E-14 4.38841E-13
 -1      3196 1.96312E+01 5.62238E-01 6.61354E-03 3.10774E-01 1.16004E-13 2.67791E-13
 -1      3197 1.53679E+01 2.42171E+00-2.25666E-02 1.04717E+00 8.30065E-15 3.19153E-13
 -1      3198 1.44202E+01 2.52204E+00 1.45585E-02 1.26258E+00-3.44494E-14 1.93397E-13
 -1      3199 2.12934E+01 4.35265E-01-7.52233E-04-1.38833E+00-1.08901E-13-4.67455E-13
 -1      3200 2.12780E+01 2.13079E-01-1.01957E-02-1.33487E+00-1.09925E-13-4.22314E-13
 -1      3201 2.16545E+01 1.60154E-01 5.77790E-03-1.32923E+00-9.09617E-14-3.85396E-13
 -1      3202 1.71405E+01 1.99176E+00-2.26815E-02 8.95153E-01 1.92417E-13 3.70634E-13
 -1      3203 1.64489E+01 2.22564E+00-1.38979E-02 9.97178E-01 1.38230E-13 3.24085E-13
 -1      3204 1.71657E+01 1.98720E+00 4.06680E-02 3.48869E-01 1.45412E-13 2.50888E-13
 -1      3205 1.17999E+01 1.32176E+00 4.52685E-05 4.74614E+00 6.51919E-13-5.53002E-13
 -1      3206 1.04985E+01 2.48995E+00 1.68391E-01 2.70874E+00 5.74532E-13-6.43485E-13
 -1      3207 2.73617E+01-2.90331E+00-9.60622E-02 1.32554E+00 2.89681E-14 2.54737E-13
 -1      3208 2.59606E+01-3.36098E+00 1.68618E-02 2.83718E+00 2.24160E-13 2.00300E-13
 -1      3209 2.70341E+01-2.03931E+00-2.07660E-03 2.90585E-01 4.15114E-14 2.22426E-13
 -1      3210 2.76900E+01 6.06068E+00-1.28713E-01-1.37072E+00-5.90111E-13-2.47750E-13
 -1      3211 2.80285E+01 5.55946E+00-1.25670E-01-1.76564E+00-6.05530E-13-1.59386E-13
 -1      3212 2.36131E+01-4.28118E+00 4.81846E-02-5.02009E+00 5.25066E-13-2.02883E-13
 -1      3213 1.99999E+01-4.46516E-04 3.51304E-06-5.88278E-04 1.74249E-13-5.28164E-15
 -1      3214 1.99998E+01-3.67110E-04-1.56354E-06-6.19063E-04 1.93097E-13 3.25986E-14
 -1      3215 1.99998E+01-3.57097E-04-3.17740E-06-6.80838E-04 2.60043E-13 1.18024E-13
 -1      3216 2.00000E+01-4.66835E-04-9.81489E-07-6.06783E-04 2.29062E-13-2.94889E-13
 -1      3217 2.80365E+01-6.79013E-01 2.50489E-02 1.05766E+00 1.27356E-13-6.56142E-13
 -1      3218 2.78415E+01 1.14753E+00-1.72857E-01 1.85935E+00-2.85189E-14-6.90094E-13
 -1      3219 2.64259E+01-3.31193E+00 1.80472E-02-1.60690E+00 3.36136E-13-5.33929E-13
 -1      3220 2.73822E+01-2.55767E+00-1.24033E-01-2.33577E-01 2.50664E-13-5.74462E-13
 -1      3221 1.64225E+01 3.30997E+00-1.68695E-02-8.25903E-01 4.60793E-13-2.28441E-13
 -1      3222 1.61428E+01 3.71274E+00 4.93853E-02-5.02644E-02 5.32344E-13-2.89843E-13
 -1      3223 1.49053E+01 3.63227E+00-1.09848E-02 3.60589E-01 5.01944E-13-3.62974E-13
 -1      3224 1.55753E+01 3.25008E+00-3.67280E-03-1.18751E+00 3.79110E-13-3.06871E-13
 -1      3225 2.75164E+01 6.19363E+00-1.08705E-01 1.16620E+00-4.42771E-13-5.78537E-13
 -1      3226 2.74605E+01 6.61101E+00-1.50806E-01 5.12773E-01-5.04888E-13-5.26057E-13
 -1      3227 2.64481E+01 6.08661E+00-8.41597E-02 2.11177E-01-3.99764E-13-4.11015E-13
 -1      3228 9.33457E+00 1.63111E+00 1.61623E-01-2.27230E+00 1.62505E-13 5.18904E-13
 -1      3229 1.03984E+01 7.59611E-01 5.57409E-02-4.20195E+00 2.64622E-13 4.88887E-13
 -1      3230 1.26198E+01 8.65730E-01 1.07269E-01-4.08596E+00 2.44089E-13 5.14970E-13
 -1      3231 1.67176E+01-8.68180E-01-1.59815E-03 6.09526E+00 6.81837E-13-2.51889E-13
 -1      3232 1.41649E+01 5.42531E-01 1.65225E-01 5.66883E+00 7.12763E-13-4.42313E-13
 -1      3233 1.20745E+01 1.97860E+00 1.37134E-01-3.16296E+00 7.14741E-14-6.58168E-13
 -1      3234 2.11817E+01 1.17316E+00 8.63800E-03-1.39061E+00-7.16132E-14-5.50084E-13
 -1      3235 2.19587E+01-3.63534E+00 1.47247E-01-5.46486E+00 5.45865E-13-6.50001E-14
 -1      3236 2.44989E+01-4.06335E+00-6.50812E-02-3.71796E+00 4.63303E-13-4.41391E-13
 -1      3237 1.29489E+01 2.60983E+00 1.07682E-01-2.16756E+00 1.91059E-13-5.31519E-13
 -1      3238 2.03869E+01 1.11939E+00-3.80557E-03 2.03805E+00 4.80119E-13-3.45167E-13
 -1      3239 2.09133E+01 9.24560E-01 7.68604E-03 1.60145E+00 4.14966E-13-3.59091E-13
 -1      3240 2.03620E+01 6.51032E-01-1.92912E-02 2.53650E+00 4.76715E-13-3.04522E-13
 -1      3241 1.54586E+01 3.35890E+00 3.48688E-02 2.02321E+00 5.96656E-13-3.73312E-13
 -1      3242 1.59832E+01 3.38765E+00-3.41331E-02 2.21436E+00 6.55769E-13-3.47033E-13
 -1      3243 1.65411E+01 3.22549E+00 5.24287E-02 2.61055E+00 6.57518E-13-3.39457E-13
 -1      3244 2.05296E+01-2.86360E+00 5.79488E-02-5.22700E+00 4.39100E-13-1.97381E-14
 -1      3245 1.41135E+01 1.46098E+00 6.01374E-02 4.54007E+00 6.51323E-13-4.52284E-13
 -1      3246 2.68766E+01 2.04256E+00-4.63240E-02 1.98609E+00-6.39939E-14-6.00530E-13
 -1      3247 1.55154E+01 2.41997E+00 6.83390E-02 2.55958E-01 1.08802E-14 3.69058E-13
 -1      3248 1.81162E+01 2.28224E+00 4.43758E-02 2.98378E+00 6.32961E-13-3.36493E-13
 -1      3249 1.86348E+01 1.40832E+00-1.33224E-02 3.27763E+00 5.88666E-13-2.94807E-13
 -1      3250 1.72331E+01 2.56102E+00-4.55904E-02 2.94992E+00 6.70109E-13-3.16128E-13
 -1      3251 2.75413E+01 4.14278E+00-8.59194E-02-1.97217E+00-4.86319E-13-7.28653E-14
 -1      3252 2.46619E+01-3.28411E+00 6.96398E-03 3.57565E+00 3.68903E-13 9.79399E-14
 -1      3253 2.29155E+01-2.57955E+00 5.35575E-03 4.05269E+00 4.61497E-13 1.83022E-14
 -1      3254 2.52173E+01-2.66494E+00 1.47714E-02 2.15662E+00 3.16115E-13 1.38563E-13
 -1      3255 2.16796E+01 7.63010E-01 9.45725E-03 1.02225E-01 2.25421E-13-4.17746E-13
 -1      3256 2.17159E+01 7.16602E-01-1.12967E-02-2.90080E-01 1.58064E-13-4.53622E-13
 -1      3257 1.17044E+01 2.88502E+00 6.46470E-02 1.42822E+00 4.90347E-13-5.87017E-13
 -1      3258 1.99998E+01-3.42576E-04 6.73181E-07-7.25535E-04 2.09002E-13 2.84853E-13
 -1      3259 1.99998E+01-3.36655E-04-1.78173E-06-7.84695E-04 5.07496E-14 2.62567E-13
 -1      3260 1.99999E+01-3.82304E-04-6.20482E-07-8.01657E-04-4.90484E-14 2.25709E-13
 -1      3261 1.99999E+01-4.00443E-04 3.15273E-06-7.05864E-04 3.67550E-13 2.98484E-13
 -1      3262 2.69161E+01-1.40645E+00-1.64843E-03 7.02166E-01 1.62817E-13-5.63417E-13
 -1      3263 2.66494E+01 5.77602E+00-8.21222E-02-1.03791E+00-4.64503E-13-2.88745E-13
 -1      3264 1.39441E+01 3.12701E+00 3.41512E-02-1.51778E+00 3.03545E-13-4.23155E-13
 -1      3265 1.35740E+01 3.49413E+00 1.18339E-01-6.26195E-01 3.94424E-13-4.50862E-13
 -1      3266 2.73817E+01 1.57986E+00-8.73735E-02-2.02792E+00-3.34011E-13 1.27811E-13
 -1      3267 2.80382E+01 5.79067E-01-4.41439E-02-1.71131E+00-2.95763E-13 2.01041E-13
 -1      3268 2.70680E+01-3.67570E-01-3.35429E-02-1.25464E+00-1.35279E-13 1.95163E-13
 -1      3269 9.85943E+00 1.69871E+00 1.29175E-01 1.90388E+00-1.45318E-13 3.09752E-13
 -1      3270 8.85869E+00 1.81117E+00 1.20130E-01-4.12703E-01-1.69014E-14 4.34319E-13
 -1      3271 1.99999E+01-4.13535E-04 5.79256E-07 5.97974E-04 9.55576E-14-2.62826E-13
 -1      3272 2.00000E+01-4.54291E-04 8.32383E-07 5.66095E-04 1.65463E-13-2.45769E-13
 -1      3273 2.00000E+01-4.65523E-04-4.62726E-07 5.83559E-04 1.29508E-13-1.78566E-13
 -1      3274 1.99999E+01-4.07619E-04-2.02080E-07 6.44010E-04 8.68613E-14-3.79433E-13
 -1      3275 1.06392E+01 2.06990E+00 1.15493E-01-1.07590E+00 6.04794E-14 3.31207E-13
 -1      3276 2.20051E+01 3.62613E-01 1.68136E-03-4.85281E-01 9.58154E-14-3.88536E-13
 -1      3277 2.16889E+01 7.81873E-01 7.22967E-03-6.58063E-01 1.04762E-13-4.44839E-13
 -1      3278 2.15941E+01 7.42257E-01-1.54145E-02-9.52448E-01 3.30605E-14-4.77430E-13
 -1      3279 2.02833E+01-1.60322E+00-2.47037E-03 5.00956E+00 6.03594E-13-9.08666E-14
 -1      3280 1.86719E+01-1.21267E+00 1.02276E-01 5.78743E+00 6.43801E-13-1.71051E-13
 -1      3281 1.75073E+01-5.42112E-02 6.78835E-03 5.19165E+00 6.48037E-13-2.61041E-13
 -1      3282 2.64562E+01 5.01777E+00-7.34070E-02 1.44263E+00-3.05395E-13-5.32657E-13
 -1      3283 2.53978E+01-3.69024E+00 7.40309E-03-2.45740E+00 3.75665E-13-4.94621E-13
 -1      3284 2.54127E+01-2.94139E+00 1.52088E-02-1.18265E+00 3.20360E-13-4.85334E-13
 -1      3285 2.36440E+01-3.37341E+00-1.98713E-02-3.11858E+00 4.01111E-13-3.92769E-13
 -1      3286 2.12273E+01 8.40806E-01-1.72834E-03-1.32601E+00-8.15297E-14-5.23515E-13
 -1      3287 2.14936E+01 7.19593E-01 7.14951E-03-1.21300E+00-3.24155E-14-4.79771E-13
 -1      3288 1.08586E+01 1.50116E+00 1.59824E-01 3.07245E+00-2.31520E-13 3.72410E-13
 -1      3289 1.56126E+01 1.84416E+00-1.80396E-02 3.99516E+00 6.75879E-13-3.54675E-13
 -1      3290 1.42139E+01 2.88577E+00 7.49436E-02 3.04226E+00 6.37764E-13-4.44460E-13
 -1      3291 1.55175E+01-9.46684E-02 9.36085E-02-4.79310E+00 3.06846E-13 3.45370E-13
 -1      3292 1.70352E+01-1.23755E+00-5.12950E-02-5.24454E+00 3.49644E-13 2.36547E-13
 -1      3293 1.31072E+01 2.68758E+00 1.32485E-01 1.38435E-01-1.42620E-14 3.91753E-13
 -1      3294 1.30008E+01 2.48680E+00-3.10755E-03 1.39797E+00-9.46292E-15 1.70620E-13
 -1      3295 2.22598E+01 3.77196E-02-6.21520E-03-1.52295E+00-1.20760E-13-2.40084E-13
 -1      3296 2.22104E+01 2.71320E-01 1.23147E-03-1.55388E+00-1.20758E-13-2.13931E-13
 -1      3297 2.21426E+01 5.83609E-01-1.49106E-02-1.59611E+00-1.31863E-13-2.01974E-13
 -1      3298 2.20423E+01 9.71840E-01 9.54116E-03-1.51464E+00-1.69563E-13-2.02946E-13
 -1      3299 2.27418E+01 4.57187E-01 1.06245E-02-1.64334E+00-1.21925E-13-1.72108E-13
 -1      3300 2.18590E+01 1.37275E+00-1.73254E-02-1.36377E+00-2.02276E-13-1.74328E-13
 -1      3301 2.17493E+01 1.76448E+00 1.36350E-02-1.11503E+00-1.65743E-13-1.63925E-13
 -1      3302 2.25388E+01 1.32402E+00 6.32179E-03-1.57173E+00-1.61339E-13-1.08802E-13
 -1      3303 2.15660E+01 2.07431E+00-1.02683E-02-7.38757E-01-1.61754E-13-1.88019E-13
 -1      3304 2.14974E+01 2.27592E+00 7.55863E-03-3.50950E-01-1.62864E-13-2.34226E-13
 -1      3305 2.22139E+01 2.19988E+00-1.78955E-03-1.05212E+00-1.93056E-13-1.12136E-13
 -1      3306 2.14432E+01 2.32531E+00 3.42265E-03 1.52741E-01-1.38911E-13-2.92815E-13
 -1      3307 2.14422E+01 2.21819E+00-5.83940E-03 5.63107E-01-1.45716E-13-2.72764E-13
 -1      3308 2.19927E+01 2.64585E+00-8.37669E-03-1.37382E-01-1.82752E-13-1.71127E-13
 -1      3309 2.15495E+01 1.97020E+00 1.41608E-02 1.00026E+00-1.18388E-13-2.90128E-13
 -1      3310 2.15864E+01 1.59330E+00-2.43678E-02 1.29275E+00-5.52095E-14-2.72335E-13
 -1      3311 2.20488E+01 2.40713E+00 1.24554E-03 8.52108E-01-1.08330E-13-2.69969E-13
 -1      3312 2.17698E+01 1.17559E+00 1.48774E-02 1.54104E+00-4.11333E-14-2.84128E-13
 -1      3313 2.18441E+01 6.99450E-01-1.79507E-02 1.65512E+00-2.07742E-14-2.75864E-13
 -1      3314 2.22411E+01 1.62153E+00 1.17312E-02 1.54778E+00-7.42778E-14-2.60424E-13
 -1      3315 2.19317E+01 2.61058E-01 4.55758E-03 1.64179E+00-2.99795E-14-3.48997E-13
 -1      3316 2.19751E+01-1.37294E-01-1.13951E-02 1.59485E+00 5.69860E-14-3.23892E-13
 -1      3317 2.24707E+01 5.22233E-01 1.04146E-02 1.72274E+00-4.85792E-14-3.17395E-13
 -1      3318 2.19367E+01-4.58558E-01-1.16626E-03 1.42648E+00 1.01195E-13-3.60349E-13
 -1      3319 2.19164E+01-7.02041E-01-2.47221E-03 1.28032E+00 1.17922E-13-3.27141E-13
 -1      3320 2.24722E+01-3.80321E-01 9.98427E-03 1.50054E+00 7.87986E-14-4.13071E-13
 -1      3321 2.17631E+01-8.64839E-01-4.68341E-03 1.06049E+00 8.57304E-14-2.71914E-13
 -1      3322 2.16887E+01-9.54696E-01 3.92621E-03 8.85771E-01 7.38717E-14-2.59656E-13
 -1      3323 2.22479E+01-9.23522E-01 6.11291E-03 1.08172E+00 1.28873E-13-3.58333E-13
 -1      3324 2.14737E+01-9.87247E-01-5.96496E-03 6.84616E-01 6.19036E-15-2.26293E-13
 -1      3325 2.13673E+01-9.66798E-01 6.58417E-03 5.26663E-01-4.36981E-14-2.02885E-13
 -1      3326 2.18675E+01-1.12317E+00-1.05554E-03 6.51088E-01 5.83082E-14-2.79963E-13
 -1      3327 2.11453E+01-9.17585E-01-4.86598E-03 3.76139E-01-6.11285E-14-1.87593E-13
 -1      3328 2.10309E+01-8.38180E-01 7.19235E-03 2.53902E-01-1.04672E-13-1.54529E-13
 -1      3329 2.14362E+01-1.07091E+00-4.70107E-03 3.05047E-01 2.37680E-14-2.48914E-13
 -1      3330 2.08352E+01-7.51785E-01-3.05177E-03 1.56363E-01-1.48214E-13-6.97889E-14
 -1      3331 2.07302E+01-6.53285E-01 6.36586E-03 7.18416E-02-1.26665E-13-8.63451E-14
 -1      3332 2.10332E+01-8.91239E-01-6.13048E-03 7.13077E-02-4.65063E-14-1.29305E-13
 -1      3333 2.05750E+01-5.60292E-01-1.51091E-03 1.69665E-02-7.85090E-14-3.39642E-14
 -1      3334 2.04883E+01-4.66635E-01 4.96871E-03-3.58672E-02-4.26926E-14 3.20992E-16
 -1      3335 2.06992E+01-6.71458E-01-5.96955E-03-6.51704E-02-6.44818E-14 6.67613E-14
 -1      3336 2.03747E+01-3.83910E-01-4.76509E-04-6.11975E-02-5.18999E-14 2.82178E-14
 -1      3337 2.03086E+01-3.06370E-01 3.54750E-03-9.06075E-02 2.87149E-14 2.46716E-14
 -1      3338 2.04457E+01-4.64508E-01-5.01284E-03-1.31131E-01-2.41015E-15 1.86341E-13
 -1      3339 2.02307E+01-2.40702E-01 9.78680E-05-9.76949E-02 1.73666E-13-7.59185E-14
 -1      3340 2.01835E+01-1.82276E-01 2.35518E-03-1.11266E-01 2.09066E-13-4.28439E-14
 -1      3341 2.02662E+01-2.94501E-01-3.82637E-03-1.52401E-01 7.42648E-14 5.34305E-14
 -1      3342 2.01332E+01-1.34391E-01 3.55342E-04-1.08254E-01 2.38673E-13-2.19909E-14
 -1      3343 2.01014E+01-9.36514E-02 1.45593E-03-1.11910E-01 2.94964E-13-2.95919E-14
 -1      3344 2.01466E+01-1.67227E-01-2.71698E-03-1.48481E-01 2.04582E-13-5.53455E-14
 -1      3345 2.00709E+01-6.12687E-02 4.26586E-04-1.04079E-01 1.92250E-13 1.89596E-14
 -1      3346 2.00505E+01-3.49397E-02 8.25486E-04-1.02034E-01 1.04431E-13 5.52229E-14
 -1      3347 2.00717E+01-7.89723E-02-1.81685E-03-1.32285E-01 2.88326E-13 7.68701E-15
 -1      3348 2.00334E+01-1.47237E-02 4.05162E-04-9.25316E-02-5.91269E-15 3.11508E-14
 -1      3349 2.00210E+01 8.26421E-04 4.10603E-04-8.75931E-02 3.23696E-14 6.42038E-15
 -1      3350 2.00277E+01-2.22313E-02-1.14876E-03-1.11578E-01 6.42614E-14 3.30036E-14
 -1      3351 2.00125E+01 1.22077E-02 3.47607E-04-7.81535E-02 3.82924E-14 3.60735E-15
 -1      3352 2.00053E+01 2.02456E-02 1.55437E-04-7.20918E-02 5.16361E-14-3.65332E-14
 -1      3353 2.00042E+01 1.10936E-02-6.81853E-04-9.06413E-02 1.41591E-14-1.09550E-14
 -1      3354 2.00019E+01 2.56389E-02 2.82760E-04-6.35629E-02 6.51015E-14-1.89176E-13
 -1      3355 1.99980E+01 2.87837E-02 9.76272E-06-5.74221E-02 8.23923E-14-1.49674E-13
 -1      3356 1.99932E+01 2.81706E-02-3.74864E-04-7.15786E-02 7.27981E-15-9.80442E-14
 -1      3357 1.99974E+01 3.03914E-02 2.23628E-04-5.01340E-02 1.20107E-13-1.55182E-13
 -1      3358 1.99954E+01 3.05824E-02-6.47711E-05-4.44800E-02 1.28656E-13-6.12160E-14
 -1      3359 1.99895E+01 3.47069E-02-1.84066E-04-5.52178E-02 5.83340E-14-2.42268E-13
 -1      3360 1.99962E+01 2.99932E-02 1.74285E-04-3.84832E-02 1.80298E-14-9.57433E-14
 -1      3361 1.99953E+01 2.85792E-02-9.54027E-05-3.35786E-02-6.94245E-14-9.85511E-14
 -1      3362 1.99897E+01 3.49014E-02-7.28532E-05-4.17048E-02 1.29290E-13-2.57022E-13
 -1      3363 1.99966E+01 2.68712E-02 1.34892E-04-2.87825E-02-7.75059E-14-7.98840E-14
 -1      3364 1.99963E+01 2.47365E-02-1.00646E-04-2.47056E-02-1.01542E-13-2.91426E-14
 -1      3365 1.99915E+01 3.16641E-02-1.32888E-05-3.08500E-02-5.60974E-14-2.31406E-13
 -1      3366 1.99976E+01 2.25978E-02 1.04065E-04-2.09589E-02-1.54910E-13-7.41898E-14
 -1      3367 1.99975E+01 2.02851E-02-9.25357E-05-1.76827E-02-5.01690E-14-8.57192E-14
 -1      3368 1.99938E+01 2.68982E-02 1.47040E-05-2.23223E-02-1.28276E-13-1.81617E-13
 -1      3369 1.99987E+01 1.81241E-02 8.00887E-05-1.48171E-02-5.25421E-14-7.77692E-14
 -1      3370 1.99987E+01 1.59389E-02-7.85382E-05-1.22597E-02 3.81722E-14-9.23216E-14
 -1      3371 1.99960E+01 2.17703E-02 2.45634E-05-1.57521E-02-8.63118E-14-5.73260E-14
 -1      3372 1.99996E+01 1.39743E-02 6.14275E-05-1.01125E-02 1.13344E-13-2.89610E-13
 -1      3373 1.99996E+01 1.20663E-02-6.30285E-05-8.16911E-03 5.02755E-14-3.96225E-13
 -1      3374 1.99978E+01 1.69365E-02 2.49113E-05-1.07830E-02-3.43798E-14-1.40391E-13
 -1      3375 2.00003E+01 1.03946E-02 4.68513E-05-6.59423E-03 1.60762E-13-2.87812E-13
 -1      3376 2.00002E+01 8.81619E-03-4.83659E-05-5.15620E-03 2.01773E-13-2.71259E-13
 -1      3377 1.99992E+01 1.27173E-02 2.09593E-05-7.09536E-03 1.70464E-13-2.23672E-13
 -1      3378 2.00007E+01 7.46025E-03 3.54312E-05-4.02783E-03 1.73627E-13-1.76882E-13
 -1      3379 2.00006E+01 6.20787E-03-3.56522E-05-2.99328E-03 8.11832E-14-9.21638E-14
 -1      3380 2.00001E+01 9.22451E-03 1.56556E-05-4.41434E-03 2.22098E-13-3.01644E-13
 -1      3381 2.00009E+01 5.14969E-03 2.64798E-05-2.20662E-03 3.27506E-14-4.92220E-14
 -1      3382 2.00008E+01 4.19051E-03-2.52455E-05-1.48559E-03 5.64121E-14-1.80364E-14
 -1      3383 2.00007E+01 6.44905E-03 1.05226E-05-2.51032E-03 1.19008E-13-1.03963E-13
 -1      3384 2.00010E+01 3.39232E-03 1.94849E-05-9.55369E-04 1.66269E-14 1.43953E-13
 -1      3385 2.00009E+01 2.68135E-03-1.70941E-05-4.71866E-04-6.70235E-14 1.50620E-13
 -1      3386 2.00010E+01 4.31892E-03 6.22964E-06-1.19566E-03 9.68331E-14 1.33751E-14
 -1      3387 2.00010E+01 2.09858E-03 1.40554E-05-1.30131E-04-2.39796E-13 1.67577E-13
 -1      3388 2.00009E+01 1.58858E-03-1.09451E-05 1.77954E-04-1.07363E-13 1.76714E-13
 -1      3389 2.00011E+01 2.73570E-03 2.96754E-06-3.19865E-04-1.06970E-13 2.71981E-13
 -1      3390 2.00008E+01 1.17722E-03 9.88461E-06 3.84291E-04 5.66291E-14 1.00474E-13
 -1      3391 2.00008E+01 8.24122E-04-6.46972E-06 5.66266E-04 2.20111E-13 1.88925E-13
 -1      3392 2.00011E+01 1.59607E-03 6.82627E-07 2.35690E-04-1.08628E-13 2.05672E-13
 -1      3393 2.00007E+01 5.44474E-04 6.72543E-06 6.77893E-04 2.24306E-13 5.53441E-14
 -1      3394 2.00006E+01 3.09828E-04-3.33334E-06 7.71874E-04 1.59665E-13 1.69144E-13
 -1      3395 2.00010E+01 8.03496E-04-7.84811E-07 5.62883E-04 1.92313E-13 1.49248E-13
 -1      3396 2.00006E+01 1.28021E-04 4.37570E-06 8.19345E-04 1.10170E-13 2.18264E-13
 -1      3397 2.00005E+01-2.02743E-05-1.23267E-06 8.54024E-04 5.72634E-14 2.53450E-13
 -1      3398 2.00008E+01 2.73621E-04-1.62477E-06 7.31598E-04 2.19649E-13 2.23713E-13
 -1      3399 2.00004E+01-1.32108E-04 2.67728E-06 8.59735E-04-1.88509E-14 1.93773E-13
 -1      3400 2.00004E+01-2.20054E-04 1.03466E-07 8.56075E-04 4.22940E-14 1.54566E-13
 -1      3401 2.00007E+01-6.41302E-05-2.02068E-06 7.93918E-04-2.06790E-14 8.97132E-14
 -1      3402 2.00003E+01-2.84276E-04 1.50830E-06 8.35979E-04 8.38735E-14-1.52983E-14
 -1      3403 2.00002E+01-3.32557E-04 8.73079E-07 8.08752E-04 4.17629E-14-2.44262E-13
 -1      3404 2.00005E+01-2.67067E-04-2.12503E-06 7.87618E-04 6.28604E-15 3.69707E-14
 -1      3405 2.00001E+01-3.66711E-04 8.43885E-07 7.73781E-04-1.77141E-13-3.62771E-13
 -1      3406 2.00001E+01-3.91487E-04 9.83887E-07 7.32847E-04-2.83269E-13-3.81870E-13
 -1      3407 2.00003E+01-3.81103E-04-2.21840E-06 7.39517E-04-9.30149E-14-4.99699E-14
 -1      3408 1.99191E+01 1.79006E-01-1.20664E-03 1.12586E-01-8.57682E-14 7.03190E-14
 -1      3409 1.98980E+01 2.13661E-01-5.68513E-04 1.31365E-01-9.57148E-14 1.28557E-13
 -1      3410 1.82979E+01 1.30783E+00-6.74794E-03 7.75454E-02 1.20378E-13 2.15839E-13
 -1      3411 1.78383E+01 1.48503E+00-2.19152E-02 2.58577E-02 1.22117E-13 2.39778E-13
 -1      3412 2.15399E+01 7.28134E-01-4.64915E-03 5.94308E-01 2.70357E-13-3.82864E-13
 -1      3413 2.19921E+01 2.73645E-01-1.14025E-03 3.63237E-01 2.22118E-13-3.48441E-13
 -1      3414 2.12900E+01 8.34476E-01 7.22584E-03 1.04734E+00 3.50446E-13-3.45528E-13
 -1      3415 1.33621E+01 3.20056E+00 2.56733E-02 1.27967E+00 5.31665E-13-4.59500E-13
 -1      3416 1.98574E+01 2.54447E-01-1.70097E-03 1.41906E-01-8.38602E-14 1.34169E-13
 -1      3417 1.98198E+01 3.03349E-01-1.27435E-03 1.64202E-01-5.39326E-14 1.71319E-13
 -1      3418 1.98481E+01 2.52635E-01 2.23457E-03 1.06796E-01-5.45077E-14 1.94110E-13
 -1      3419 1.97562E+01 3.61022E-01-2.34766E-03 1.72441E-01-7.22499E-15 1.85053E-13
 -1      3420 1.96912E+01 4.29219E-01-2.51806E-03 1.97040E-01 1.47960E-13 1.90508E-13
 -1      3421 1.97499E+01 3.53598E-01 3.51256E-03 1.19182E-01-8.86746E-15 2.46777E-13
 -1      3422 1.99560E+01 1.25998E-01-8.43039E-04 8.69477E-02-2.23064E-14-1.57544E-13
 -1      3423 1.99446E+01 1.50396E-01-1.89051E-04 1.02103E-01-6.44099E-14-1.09477E-13
 -1      3424 1.99097E+01 1.79935E-01 1.39664E-03 8.95576E-02-1.22817E-14 2.55017E-14
 -1      3425 1.99776E+01 8.87755E-02-5.96100E-04 6.56526E-02 1.30030E-14-5.92614E-14
 -1      3426 1.99718E+01 1.05950E-01-7.51483E-06 7.75623E-02 4.58363E-14-6.29396E-14
 -1      3427 1.99478E+01 1.28093E-01 8.67901E-04 7.18703E-02-3.20857E-14-9.55262E-14
 -1      3428 1.99904E+01 6.15726E-02-4.10700E-04 4.78455E-02 4.40080E-14-4.55255E-14
 -1      3429 1.99876E+01 7.40958E-02 8.02674E-05 5.73517E-02 2.12641E-14-6.61254E-14
 -1      3430 1.99714E+01 9.04456E-02 5.28688E-04 5.54438E-02-6.34506E-15 1.95260E-13
 -1      3431 1.99970E+01 4.34786E-02-2.77783E-04 3.46947E-02-7.05913E-14-1.49919E-13
 -1      3432 1.99961E+01 5.18872E-02 1.15281E-04 4.15451E-02-5.51157E-14-7.19155E-14
 -1      3433 1.99855E+01 6.37970E-02 3.05710E-04 4.15620E-02 2.87519E-14 9.08802E-14
 -1      3434 2.00004E+01 3.06294E-02-1.92501E-04 2.46115E-02-1.12388E-13-1.22660E-13
 -1      3435 2.00004E+01 3.66234E-02 1.19613E-04 2.97316E-02-9.47280E-14-1.41429E-13
 -1      3436 1.99934E+01 4.53346E-02 1.74201E-04 3.05952E-02-9.78024E-14 4.49719E-14
 -1      3437 2.00020E+01 2.14724E-02-1.32768E-04 1.70232E-02-1.93036E-13-9.46771E-14
 -1      3438 2.00024E+01 2.57561E-02 1.06839E-04 2.08025E-02-8.30674E-14-1.33840E-13
 -1      3439 1.99980E+01 3.21114E-02 9.73286E-05 2.19559E-02-1.28779E-13-1.89477E-14
 -1      3440 2.00026E+01 1.49218E-02-9.11692E-05 1.14081E-02-1.50476E-13-1.67328E-13
 -1      3441 2.00031E+01 1.79921E-02 8.96008E-05 1.41599E-02-2.66335E-13-1.47163E-13
 -1      3442 2.00005E+01 2.26012E-02 5.17658E-05 1.53204E-02-1.65965E-13-1.21301E-13
 -1      3443 2.00027E+01 1.02286E-02-6.21275E-05 7.32629E-03 1.22128E-14-1.44124E-13
 -1      3444 2.00032E+01 1.24304E-02 7.20571E-05 9.29899E-03-6.94404E-14-1.55598E-13
 -1      3445 2.00017E+01 1.57468E-02 2.51355E-05 1.03365E-02-8.44902E-14-1.16383E-13
 -1      3446 2.00025E+01 6.87105E-03-4.18036E-05 4.41733E-03 3.43844E-14 2.49562E-14
 -1      3447 2.00029E+01 8.44587E-03 5.61484E-05 5.80555E-03-2.03266E-14-5.62153E-14
 -1      3448 2.00022E+01 1.08071E-02 9.93944E-06 6.67338E-03-1.32756E-13 9.59255E-14
 -1      3449 2.00022E+01 4.48117E-03-2.75713E-05 2.39220E-03 2.34358E-13 1.76790E-13
 -1      3450 2.00025E+01 5.60038E-03 4.26196E-05 3.34686E-03 2.25060E-13 1.21314E-13
 -1      3451 2.00023E+01 7.25797E-03 1.57816E-06 4.04166E-03 6.81253E-14 1.21509E-13
 -1      3452 2.00018E+01 2.79604E-03-1.76296E-05 1.02286E-03-2.94253E-16 2.14596E-13
 -1      3453 2.00021E+01 3.58285E-03 3.15839E-05 1.66003E-03 1.12453E-13 2.04038E-13
 -1      3454 2.00022E+01 4.72475E-03-2.75091E-06 2.19866E-03 9.47590E-14 2.94209E-13
 -1      3455 2.00015E+01 1.62504E-03-1.07330E-05 1.31914E-04 1.49217E-13 2.59040E-13
 -1      3456 2.00017E+01 2.16922E-03 2.28511E-05 5.40102E-04 8.96903E-14 3.06144E-13
 -1      3457 2.00019E+01 2.93607E-03-4.74013E-06 9.47017E-04-7.56046E-15 3.30757E-13
 -1      3458 2.00011E+01 8.28185E-04-6.00977E-06-4.16720E-04 2.40546E-13 2.34312E-13
 -1      3459 2.00013E+01 1.19595E-03 1.61084E-05-1.70679E-04 2.23682E-13 1.29942E-13
 -1      3460 2.00017E+01 1.69299E-03-5.40236E-06 1.29959E-04 3.07880E-13 4.33263E-13
 -1      3461 2.00009E+01 3.01637E-04-2.84178E-06-7.25949E-04 2.96072E-13 1.72065E-13
 -1      3462 2.00010E+01 5.42275E-04 1.10149E-05-5.92167E-04 2.90097E-13 1.73639E-13
 -1      3463 2.00014E+01 8.48050E-04-5.33881E-06-3.74558E-04 2.46951E-13 1.54211E-13
 -1      3464 2.00006E+01-3.22887E-05-7.84650E-07-8.72344E-04-1.84893E-13 5.18831E-13
 -1      3465 2.00007E+01 1.18182E-04 7.25038E-06-8.14117E-04 1.59565E-13 3.04710E-13
 -1      3466 2.00011E+01 2.91022E-04-4.90348E-06-6.59736E-04 5.72858E-14 1.69175E-13
 -1      3467 2.00004E+01-2.32066E-04 4.81297E-07-9.11764E-04-2.11888E-13 4.33147E-13
 -1      3468 2.00005E+01-1.43902E-04 4.53835E-06-9.02605E-04-2.80079E-13 5.30648E-13
 -1      3469 2.00008E+01-6.10381E-05-4.30575E-06-7.95379E-04-2.65262E-13 3.53459E-13
 -1      3470 2.00003E+01-3.41969E-04 1.18071E-06-8.83987E-04 1.98516E-13 2.61316E-15
 -1      3471 2.00003E+01-2.95006E-04 2.62295E-06-9.05249E-04 1.04579E-14 3.67644E-13
 -1      3472 2.00006E+01-2.70716E-04-3.64245E-06-8.32646E-04-5.80611E-14 1.66627E-13
 -1      3473 2.00001E+01-3.95173E-04 1.39701E-06-8.16232E-04-3.76999E-14-5.23701E-14
 -1      3474 2.00002E+01-3.74243E-04 1.16666E-06-8.54991E-04 2.07595E-13 1.08937E-13
 -1      3475 2.00004E+01-3.85645E-04-2.85192E-06-8.07834E-04 1.65426E-13-2.25678E-13
 -1      3476 1.57760E+01 2.06878E+00-1.26645E-02-5.33662E-01 1.11978E-13 2.87506E-13
 -1      3477 1.46398E+01 2.20400E+00-2.56990E-02-6.34192E-01 3.59951E-14 3.15827E-13
 -1      3478 2.00002E+01-5.00818E-04-1.31518E-06 5.45201E-04 2.03590E-13 3.18811E-14
 -1      3479 2.00003E+01-5.32455E-04 2.19796E-06 4.72512E-04 2.89557E-13 2.46109E-13
 -1      3480 2.62656E+01 4.18410E+00-7.95328E-02-1.86643E+00-4.10838E-13-9.51791E-14
 -1      3481 2.69889E+01 3.08095E+00-4.14351E-02-2.19564E+00-3.78073E-13 3.50033E-14
 -1      3482 1.10936E+01 1.82378E+00 1.53124E-02 2.17021E+00-1.66957E-13 2.52409E-13
 -1      3483 2.17440E+01 3.73542E-01 4.67745E-05-1.08399E+00-2.75202E-14-4.18302E-13
 -1      3484 2.63349E+01-1.45218E+00-5.25286E-02-4.29034E-01 6.78277E-16 1.83012E-13
 -1      3485 2.60083E+01-2.12941E+00 9.89246E-03 6.30884E-01 1.27278E-13 1.86618E-13
 -1      3486 2.00003E+01-5.55652E-04 2.08417E-06-4.62109E-04-1.35227E-13-3.75778E-13
 -1      3487 2.00002E+01-5.25504E-04-2.89855E-07-5.36712E-04 6.60836E-14-5.97791E-13
 -1      3488 1.28859E+01 1.71692E+00 1.66027E-01-2.98208E+00 1.33924E-13 4.15723E-13
 -1      3489 1.38559E+01 7.08873E-01-1.74166E-02-4.06452E+00 2.13355E-13 4.93307E-13
 -1      3490 1.89247E+01 9.78272E-01-5.39377E-03 1.79858E-01 9.81652E-14 2.00367E-13
 -1      3491 1.86339E+01 1.13279E+00-1.37079E-02 1.73033E-01 1.68891E-13 1.78033E-13
 -1      3492 1.84412E+01 1.19743E+00 1.81359E-02-1.80656E-01 1.87340E-13 9.93324E-14
 -1      3493 2.21568E+01-1.05367E-01-1.36465E-03-1.32976E+00-8.01940E-14-2.96909E-13
 -1      3494 2.21804E+01-8.38470E-02-5.33946E-03-1.39126E+00-9.53879E-14-2.75312E-13
 -1      3495 2.26947E+01-6.43528E-02 9.07290E-03-1.43145E+00-8.90700E-14-1.91514E-13
 -1      3496 1.17547E+01 2.16653E+00 1.08351E-01 1.69237E+00-1.32776E-13 2.66939E-13
 -1      3497 2.19359E+01 1.24604E-01-1.98906E-03-1.16750E+00-3.78970E-14-3.69695E-13
 -1      3498 2.20290E+01-4.28291E-02-7.74509E-03-1.20293E+00-6.49316E-14-3.31130E-13
 -1      3499 2.24757E+01-1.33580E-01 8.25362E-03-1.15695E+00-4.08566E-14-2.17903E-13
 -1      3500 2.21318E+01 1.78451E-01 9.01256E-03-9.30727E-01 1.69754E-14-3.21922E-13
 -1      3501 1.73507E+01 1.67562E+00-7.62972E-03-1.56919E-01 1.65427E-13 2.75150E-13
 -1      3502 1.66582E+01 1.85071E+00-2.64273E-02-2.86314E-01 1.99359E-13 2.57900E-13
 -1      3503 1.76349E+01 1.50184E+00 2.67096E-02-5.27805E-01 1.67855E-13 2.33193E-13
 -1      3504 2.60632E+01 1.11758E+00 2.97800E-02 1.97736E+00-3.43614E-14-5.16198E-13
 -1      3505 2.55702E+01 2.64594E+00-1.12253E-01 2.00775E+00-1.24928E-13-4.94250E-13
 -1      3506 1.92535E+01-1.87027E+00 1.01707E-01-5.02873E+00 3.72645E-13 2.32297E-14
 -1      3507 2.14526E+01-2.86838E+00-3.55568E-02-4.27477E+00 4.22771E-13-2.75563E-13
 -1      3508 2.55975E+01 5.47159E+00-7.92251E-02-6.81244E-01-3.79585E-13-2.53895E-13
 -1      3509 2.58821E+01 5.07101E+00-4.90253E-02-1.35416E+00-4.26451E-13-1.78909E-13
 -1      3510 2.54940E+01 4.27066E+00-5.99966E-03 1.62911E+00-2.17042E-13-5.02825E-13
 -1      3511 2.54237E+01 4.99846E+00-8.94135E-02 9.92501E-01-2.91489E-13-4.10065E-13
 -1      3512 2.59135E+01-1.82028E+00 1.32175E-02 4.44986E-01 1.44461E-13-4.74341E-13
 -1      3513 2.60971E+01-7.11456E-01-9.89989E-02 1.41839E+00 7.07281E-14-4.73551E-13
 -1      3514 2.54627E+01 5.47012E+00-6.85248E-02 4.78792E-01-3.33393E-13-3.90857E-13
 -1      3515 2.54571E+01 5.55122E+00-7.29896E-02-1.30928E-01-3.33900E-13-3.23943E-13
 -1      3516 2.47791E+01 4.87829E+00-4.35193E-02-4.22071E-01-3.17513E-13-2.23916E-13
 -1      3517 2.45999E+01 4.58936E+00-3.38330E-02 6.74161E-01-2.54324E-13-3.28381E-13
 -1      3518 1.93321E+01 7.12151E-01-4.19192E-03 2.08008E-01-2.65796E-14 2.40140E-13
 -1      3519 1.91517E+01 8.35379E-01-8.15588E-03 2.23204E-01 1.78690E-14 2.42813E-13
 -1      3520 1.89899E+01 9.12922E-01 1.23819E-02 2.80646E-03 3.50221E-14 1.41205E-13
 -1      3521 2.00004E+01-6.00087E-04 1.36843E-06-2.64638E-04-1.28344E-13-2.19271E-13
 -1      3522 2.00004E+01-5.84476E-04-1.12057E-06-3.60911E-04-2.60434E-13-2.10571E-13
 -1      3523 2.00004E+01-5.56620E-04 2.88401E-07-4.34019E-04 2.02170E-14-4.57717E-13
 -1      3524 1.86726E+01-1.23773E+00 3.89155E-02-4.43567E+00 3.94573E-13 4.41825E-14
 -1      3525 1.66420E+01 2.48540E+00-2.11238E-03 3.19576E+00 6.44875E-13-3.37167E-13
 -1      3526 1.95954E+01 4.91818E-01 5.46521E-03 1.18099E-01 1.70286E-13 2.33034E-13
 -1      3527 1.95925E+01 5.09617E-01-3.17295E-03 1.98368E-01 1.91462E-13 2.18593E-13
 -1      3528 1.94830E+01 6.02824E-01-4.64168E-03 2.21908E-01 8.78267E-14 2.39014E-13
 -1      3529 2.00000E+01-3.97596E-04 6.06315E-07 7.10745E-04-5.70669E-14-4.60737E-13
 -1      3530 2.00000E+01-4.06425E-04 8.25947E-07 6.70491E-04 1.16901E-13-2.85186E-13
 -1      3531 2.00001E+01-4.36732E-04-8.07503E-07 6.42486E-04 1.15651E-13-3.49903E-13
 -1      3532 2.00002E+01-4.28492E-04-2.26792E-06 6.87404E-04-1.01599E-13-1.92232E-13
 -1      3533 2.54526E+01-2.51254E+00-2.57135E-02-2.35488E-01 2.45703E-13-4.11369E-13
 -1      3534 2.50538E+01-1.63747E+00 2.41733E-02 6.16446E-01 1.50882E-13-3.25994E-13
 -1      3535 2.45070E+01-2.70343E+00-2.31387E-02-9.77386E-01 2.77335E-13-3.72408E-13
 -1      3536 2.52331E+01-2.28084E+00-1.65436E-02 1.31411E+00 2.18534E-13 1.28507E-13
 -1      3537 2.41032E+01-2.03139E+00 1.24371E-03 1.94127E+00 2.98407E-13 3.59894E-14
 -1      3538 2.49350E+01-1.66338E+00 1.06508E-02 4.50296E-01 1.86238E-13 7.30362E-14
 -1      3539 2.47481E+01 3.05158E+00-1.71691E-02 1.75615E+00-1.63192E-13-4.47982E-13
 -1      3540 2.24512E+01-1.46144E-01 1.20749E-02 5.27670E-01 2.39330E-13-2.63074E-13
 -1      3541 2.24852E+01-1.35648E-01-1.05944E-02 5.17229E-02 1.81011E-13-3.24236E-13
 -1      3542 1.47586E+01 1.76771E+00 5.18749E-02-2.21544E+00 1.02760E-13 2.97741E-13
 -1      3543 1.38991E+01 2.05885E+00 2.99263E-03-1.39929E+00 2.41474E-15 3.28109E-13
 -1      3544 2.00001E+01-4.11958E-04 5.60675E-08-7.76317E-04-1.35661E-13-2.21062E-13
 -1      3545 2.00003E+01-4.43200E-04-1.36985E-06-7.43112E-04-2.23362E-14-3.13925E-13
 -1      3546 2.00001E+01-4.30963E-04-1.39878E-06-7.33621E-04 9.35202E-14-2.06925E-13
 -1      3547 1.63316E+01 1.79860E+00 3.39837E-02-1.08450E+00 1.83105E-13 3.10258E-13
 -1      3548 2.27719E+01-1.77674E+00 7.80880E-03 3.16482E+00 4.67748E-13-4.54886E-14
 -1      3549 2.17616E+01-1.81566E+00 4.80031E-02 4.30581E+00 5.29741E-13-8.14461E-14
 -1      3550 2.03332E+01-8.54533E-01-1.17503E-02 4.23531E+00 5.73246E-13-1.55596E-13
 -1      3551 2.63741E+01 1.78714E+00-3.99848E-02-2.01141E+00-2.55580E-13 1.09253E-13
 -1      3552 2.14923E+01 3.07428E-01-1.23140E-02 1.43133E+00 3.56660E-13-2.89638E-13
 -1      3553 2.00001E+01-4.62460E-04 1.41124E-06 6.06966E-04 1.70803E-13-1.87870E-13
 -1      3554 2.00004E+01-5.31324E-04 2.48616E-07 4.52802E-04 1.01847E-13 3.94041E-13
 -1      3555 2.00003E+01-5.65704E-04-1.40704E-06 3.77517E-04 4.12122E-13 6.17852E-13
 -1      3556 2.00004E+01-5.84797E-04 1.52051E-06 2.85202E-04 3.30807E-13 5.68978E-13
 -1      3557 2.60810E+01-2.65201E-01-5.80732E-02-1.42857E+00-1.10889E-13 1.62318E-13
 -1      3558 2.64142E+01-9.24350E-01-1.20101E-04-9.74048E-01-3.66443E-14 1.85185E-13
 -1      3559 2.55345E+01-1.22159E+00-1.51857E-02-5.62315E-01 4.06836E-14 1.11335E-13
 -1      3560 1.36939E+01 3.21510E+00 5.33229E-02 2.10866E+00 5.84996E-13-4.58439E-13
 -1      3561 2.00005E+01-6.15908E-04 6.68035E-07-4.51050E-05 2.89058E-13 4.03095E-13
 -1      3562 2.00004E+01-6.11901E-04 9.54179E-08-1.50950E-04 1.05534E-14 1.33191E-13
 -1      3563 2.00005E+01-5.89636E-04-9.30480E-07-2.17014E-04 1.81326E-13 5.60949E-14
 -1      3564 2.00003E+01-4.95443E-04-2.76479E-07-6.16101E-04 1.63705E-13-7.20611E-13
 -1      3565 2.00002E+01-4.88765E-04 1.13697E-06-6.24772E-04 1.56871E-13-6.45115E-13
 -1      3566 1.54445E+01 5.30998E-01 4.09455E-02-3.82760E+00 2.42795E-13 3.65411E-13
 -1      3567 2.53742E+01 3.99785E+00-4.51862E-02-1.57743E+00-3.32553E-13-9.42146E-14
 -1      3568 2.00002E+01-4.67761E-04 1.30314E-07 6.08478E-04 3.11057E-14-1.93343E-13
 -1      3569 2.24317E+01 1.21859E-02 1.04859E-02-3.30425E-01 1.49245E-13-3.36105E-13
 -1      3570 2.22946E+01 4.98825E-02-8.28078E-03-6.72952E-01 7.18921E-14-3.46125E-13
 -1      3571 2.25042E+01-1.61096E-01-5.30850E-03-7.76499E-01 3.04995E-14-2.79433E-13
 -1      3572 2.28599E+01-3.76724E-01 9.39693E-03-1.89285E-01 1.42946E-13-2.73345E-13
 -1      3573 2.52689E+01 2.32238E-01-3.03256E-03 1.70954E+00 5.48043E-15-3.63362E-13
 -1      3574 2.12671E+01-2.24923E+00-1.76247E-02-3.46479E+00 3.81586E-13-2.48614E-13
 -1      3575 2.26781E+01-2.94925E+00 3.70107E-02-3.42838E+00 4.17945E-13-3.11791E-13
 -1      3576 2.32988E+01-2.78295E+00 1.21456E-03-2.32879E+00 3.19152E-13-3.55572E-13
 -1      3577 2.00004E+01-6.03416E-04-1.83891E-07 1.75437E-04 3.95991E-13 4.67937E-13
 -1      3578 2.00005E+01-6.11775E-04 9.53830E-07 7.17823E-05 3.31108E-13 3.23777E-13
 -1      3579 2.00005E+01-5.74427E-04-3.53359E-07 2.45943E-04 2.92030E-13 4.80983E-13
 -1      3580 1.26101E+01 1.99353E+00 1.81368E-02-1.63713E+00 3.47812E-14 2.93578E-13
 -1      3581 1.81949E+01 7.66444E-01-1.77131E-02 4.10280E+00 6.65323E-13-2.42927E-13
 -1      3582 1.69846E+01 1.33621E+00 7.58189E-02 4.27462E+00 6.86747E-13-3.21130E-13
 -1      3583 1.94628E+01 3.23656E-01 4.61366E-02 3.87922E+00 6.06903E-13-2.19944E-13
 -1      3584 2.05247E+01-3.31101E-02-7.77769E-03 3.24164E+00 5.53024E-13-2.08585E-13
 -1      3585 2.13889E+01-3.00335E-01 1.47765E-02 2.71004E+00 4.76012E-13-2.37256E-13
 -1      3586 2.00005E+01-5.95601E-04-5.92703E-07 1.67137E-05 3.21110E-13 4.93418E-13
 -1      3587 2.00001E+01-4.41495E-04-3.29398E-07-6.84520E-04 2.65526E-13-3.16234E-13
 -1      3588 2.00003E+01-4.58702E-04 1.51231E-06 6.21759E-04-7.57616E-14-1.43763E-13
 -1      3589 2.32196E+01 1.08559E+00-2.54050E-02-1.76926E+00-1.20863E-13-1.34585E-13
 -1      3590 2.31009E+01 1.71555E+00 1.14630E-02-1.63860E+00-1.75162E-13-1.06707E-13
 -1      3591 2.28822E+01 2.30852E+00-2.61284E-02-1.38766E+00-2.07754E-13-1.09335E-13
 -1      3592 2.27584E+01 2.82522E+00 1.09179E-02-1.02055E+00-2.08386E-13-1.07077E-13
 -1      3593 2.36754E+01 2.23934E+00-6.24644E-03-1.68111E+00-1.87811E-13-1.25634E-13
 -1      3594 2.25677E+01 3.07144E+00 9.82372E-04 7.14626E-01-1.23562E-13-1.98938E-13
 -1      3595 2.26085E+01 2.70603E+00-2.95882E-02 1.15087E+00-7.35135E-14-2.11768E-13
 -1      3596 2.34223E+01 2.08353E+00-2.08832E-03 1.68685E+00-1.18999E-13-2.86670E-13
 -1      3597 2.35508E+01 1.33780E+00-2.01274E-02 1.87670E+00-1.27796E-13-3.21546E-13
 -1      3598 2.30107E+01-4.21347E-01-5.22240E-03 1.49704E+00 6.83179E-14-2.89466E-13
 -1      3599 2.29582E+01-8.13901E-01-1.26652E-03 1.30895E+00 1.09556E-13-3.10049E-13
 -1      3600 2.27004E+01-1.09801E+00-9.09924E-03 1.00334E+00 1.26581E-13-2.55789E-13
 -1      3601 2.25719E+01-1.25070E+00 1.10634E-02 7.78590E-01 1.47398E-13-2.65350E-13
 -1      3602 2.32927E+01-1.12638E+00 8.97429E-03 1.02293E+00 1.16410E-13-2.19491E-13
 -1      3603 2.22150E+01-1.31776E+00-9.17531E-03 5.04803E-01 1.34510E-13-2.69423E-13
 -1      3604 2.20236E+01-1.29667E+00 1.05153E-02 3.19034E-01 9.14006E-14-1.99466E-13
 -1      3605 2.26950E+01-1.48318E+00-5.75255E-03 4.37507E-01 1.40542E-13-1.86179E-13
 -1      3606 2.16862E+01-1.23771E+00-5.96864E-03 1.46521E-01 3.97931E-14-1.41776E-13
 -1      3607 2.14876E+01-1.12924E+00 1.07439E-02 1.44155E-02-7.91847E-15-9.42962E-14
 -1      3608 2.19943E+01-1.42602E+00-1.39249E-02 6.15077E-03 7.67956E-14-9.79457E-14
 -1      3609 2.11975E+01-1.01095E+00-3.03058E-03-7.83583E-02 3.13756E-14-8.06747E-14
 -1      3610 2.10210E+01-8.75278E-01 8.79996E-03-1.56141E-01 5.08175E-14 2.45534E-14
 -1      3611 2.13974E+01-1.17285E+00-1.06501E-02-2.40727E-01 4.86176E-14-2.18996E-14
 -1      3612 2.08000E+01-7.47253E-01-4.55392E-04-1.89955E-01-2.66117E-16 2.83790E-14
 -1      3613 2.06576E+01-6.19856E-01 6.39334E-03-2.27449E-01 2.11756E-15 9.02653E-14
 -1      3614 2.09102E+01-8.68531E-01-9.49840E-03-3.39104E-01 4.57191E-14 6.08075E-16
 -1      3615 2.05019E+01-5.07061E-01 8.84870E-04-2.26870E-01 4.73710E-15 1.67498E-13
 -1      3616 2.03958E+01-4.03093E-01 4.23314E-03-2.38596E-01 1.38646E-14 1.28415E-13
 -1      3617 2.05539E+01-5.89369E-01-7.54892E-03-3.48760E-01 4.71142E-14 8.76150E-14
 -1      3618 2.02931E+01-3.14516E-01 1.39933E-03-2.21332E-01-3.80905E-14 1.43492E-13
 -1      3619 2.02192E+01-2.37184E-01 2.58607E-03-2.18601E-01 8.87047E-14 7.40201E-14
 -1      3620 2.03104E+01-3.65483E-01-5.53823E-03-3.13293E-01-2.02464E-14 1.62519E-13
 -1      3621 2.01556E+01-1.73184E-01 1.44057E-03-1.95532E-01 1.72355E-13 2.03760E-14
 -1      3622 2.01070E+01-1.19848E-01 1.44933E-03-1.85890E-01 2.35596E-13-8.18865E-15
 -1      3623 2.01538E+01-2.01370E-01-3.79159E-03-2.60799E-01 7.80522E-14 1.57271E-13
 -1      3624 2.00705E+01-7.68704E-02 1.24892E-03-1.62904E-01 2.84866E-13-4.92962E-14
 -1      3625 2.00405E+01-4.27040E-02 7.13360E-04-1.50862E-01 1.58374E-13-3.58962E-14
 -1      3626 2.00596E+01-8.97763E-02-2.45995E-03-2.06878E-01 1.98941E-13-3.18552E-15
 -1      3627 2.00216E+01-1.59899E-02 9.84154E-04-1.30618E-01 1.05774E-13-5.82383E-14
 -1      3628 2.00042E+01 4.03448E-03 2.67857E-04-1.18600E-01 1.16400E-13-5.08710E-14
 -1      3629 2.00074E+01-1.92799E-02-1.50361E-03-1.58867E-01 8.38442E-14-1.27693E-13
 -1      3630 1.99961E+01 1.90224E-02 7.31108E-04-1.01934E-01 3.24206E-14-7.23034E-14
 -1      3631 1.99870E+01 2.92721E-02 2.08690E-05-9.11051E-02 9.31830E-15-9.86448E-14
 -1      3632 1.99820E+01 2.13237E-02-8.56961E-04-1.19244E-01 6.10749E-14-1.04165E-13
 -1      3633 1.99851E+01 3.63550E-02 5.21275E-04-7.79484E-02 2.29906E-14-1.50393E-13
 -1      3634 1.99810E+01 4.02794E-02-1.02332E-04-6.87257E-02 4.49313E-14-1.72105E-13
 -1      3635 1.99724E+01 4.15178E-02-4.44706E-04-8.80357E-02-2.54875E-15-1.82365E-13
 -1      3636 1.99823E+01 4.23697E-02 3.62187E-04-5.86063E-02-1.38322E-14-1.72532E-13
 -1      3637 1.99810E+01 4.24830E-02-1.52586E-04-5.10300E-02 3.87802E-14-2.07592E-13
 -1      3638 1.99716E+01 4.86745E-02-1.93813E-04-6.41543E-02 2.36424E-14-1.54765E-13
 -1      3639 1.99836E+01 4.16672E-02 2.47418E-04-4.33849E-02 1.50950E-13-2.39040E-13
 -1      3640 1.99838E+01 3.97085E-02-1.61792E-04-3.73174E-02 7.68147E-14-2.50858E-13
 -1      3641 1.99752E+01 4.80753E-02-5.15684E-05-4.62201E-02 4.58875E-14-1.25998E-13
 -1      3642 1.99868E+01 3.74014E-02 1.67691E-04-3.16153E-02 1.47594E-14-3.25984E-13
 -1      3643 1.99876E+01 3.45085E-02-1.49856E-04-2.68507E-02-3.74454E-14-2.33817E-13
 -1      3644 1.99803E+01 4.33338E-02 2.13016E-05-3.29224E-02 7.14575E-14-3.31233E-13
 -1      3645 1.99903E+01 3.16146E-02 1.13789E-04-2.26407E-02-1.32118E-13-1.74925E-13
 -1      3646 1.99913E+01 2.84876E-02-1.28645E-04-1.89623E-02-1.00863E-13-1.62107E-13
 -1      3647 1.99855E+01 3.67940E-02 5.26646E-05-2.31499E-02-5.75976E-14-2.33256E-13
 -1      3648 1.99936E+01 2.55483E-02 7.78656E-05-1.58829E-02-4.18693E-14-2.75327E-14
 -1      3649 1.99944E+01 2.25846E-02-1.04916E-04-1.30881E-02-1.34443E-14 2.62250E-14
 -1      3650 1.99901E+01 2.98826E-02 6.04092E-05-1.60205E-02 4.57327E-14-1.72746E-13
 -1      3651 1.99962E+01 1.98937E-02 5.40715E-05-1.08578E-02-7.80004E-14 5.49793E-14
 -1      3652 1.99969E+01 1.72905E-02-8.22744E-05-8.76870E-03-4.32127E-14-1.80671E-14
 -1      3653 1.99939E+01 2.34012E-02 5.60889E-05-1.08562E-02-3.38320E-15-2.33704E-14
 -1      3654 1.99982E+01 1.49817E-02 3.82241E-05-7.17196E-03 4.74823E-14-6.37431E-14
 -1      3655 1.99987E+01 1.28113E-02-6.24006E-05-5.63779E-03 2.06297E-13-4.82018E-14
 -1      3656 1.99967E+01 1.77397E-02 4.66187E-05-7.14600E-03 6.76449E-14 1.52498E-13
 -1      3657 1.99996E+01 1.09205E-02 2.74999E-05-4.51123E-03 2.46047E-13-1.98676E-13
 -1      3658 1.99999E+01 9.18176E-03-4.58685E-05-3.40702E-03 1.33502E-13-2.49593E-13
 -1      3659 1.99987E+01 1.30327E-02 3.58861E-05-4.50882E-03 1.20370E-13-1.84600E-13
 -1      3660 2.00005E+01 7.68993E-03 2.00673E-05-2.62713E-03 2.10266E-13-2.46476E-13
 -1      3661 2.00007E+01 6.34308E-03-3.26491E-05-1.85116E-03 1.99663E-13-1.39716E-13
 -1      3662 2.00000E+01 9.26630E-03 2.58890E-05-2.66083E-03 2.11968E-13-2.77491E-13
 -1      3663 2.00010E+01 5.20349E-03 1.47702E-05-1.32474E-03 2.18210E-13 2.19478E-14
 -1      3664 2.00011E+01 4.19167E-03-2.24150E-05-7.95386E-04 1.38794E-13 1.88619E-13
 -1      3665 2.00008E+01 6.34879E-03 1.74915E-05-1.39055E-03 2.80205E-13-1.34270E-14
 -1      3666 2.00013E+01 3.34727E-03 1.08913E-05-4.52252E-04-6.63009E-14 2.02904E-13
 -1      3667 2.00012E+01 2.60969E-03-1.47195E-05-1.04959E-04-1.01739E-13 2.34458E-13
 -1      3668 2.00013E+01 4.15500E-03 1.09163E-05-5.40179E-04 7.62254E-14 1.67989E-13
 -1      3669 2.00013E+01 2.00302E-03 7.98829E-06 1.07552E-04-2.33291E-13 1.74535E-13
 -1      3670 2.00012E+01 1.48216E-03-9.09607E-06 3.23116E-04-1.16281E-13 1.21586E-13
 -1      3671 2.00014E+01 2.55299E-03 6.05334E-06 8.12812E-06-2.47984E-13 5.75751E-14
 -1      3672 2.00012E+01 1.06067E-03 5.78567E-06 4.44291E-04 8.30841E-14 1.04962E-13
 -1      3673 2.00011E+01 7.05797E-04-5.11198E-06 5.66749E-04 2.45580E-13 6.22207E-14
 -1      3674 2.00014E+01 1.41869E-03 2.64577E-06 3.42242E-04-4.32177E-15 6.33824E-14
 -1      3675 2.00011E+01 4.24109E-04 4.10436E-06 6.25622E-04 2.28008E-13 2.93169E-14
 -1      3676 2.00010E+01 1.92459E-04-2.39198E-06 6.84096E-04 1.85167E-13-3.78693E-14
 -1      3677 2.00013E+01 6.42945E-04 3.94809E-07 5.27358E-04 1.95466E-13-1.48637E-13
 -1      3678 2.00009E+01 1.29123E-05 2.82010E-06 7.01862E-04-4.80293E-15-6.39299E-14
 -1      3679 2.00008E+01-1.30405E-04-5.85012E-07 7.17853E-04-9.47390E-14-4.65143E-14
 -1      3680 2.00011E+01 1.33872E-04-9.87035E-07 6.11422E-04 5.98297E-14-2.98823E-13
 -1      3681 2.00007E+01-2.38312E-04 1.85863E-06 7.09880E-04-6.59722E-15 2.29831E-15
 -1      3682 2.00006E+01-3.21406E-04 5.58780E-07 6.99002E-04 7.07304E-14 5.88170E-14
 -1      3683 2.00009E+01-1.83566E-04-1.85185E-06 6.29251E-04 1.93256E-14-5.98336E-14
 -1      3684 2.00005E+01-3.80835E-04 1.47487E-06 6.74793E-04-2.40178E-15-3.54863E-14
 -1      3685 2.00004E+01-4.26981E-04 8.90662E-07 6.48907E-04-1.12750E-13-5.11127E-14
 -1      3686 2.00007E+01-3.70279E-04-2.47080E-06 6.06317E-04-2.75215E-14-2.13343E-13
 -1      3687 1.99401E+01 1.19908E-01-5.06247E-04 5.34367E-02-1.50928E-13 4.07017E-15
 -1      3688 1.99247E+01 1.40873E-01-5.49578E-04 6.08877E-02-2.64007E-14-9.12106E-14
 -1      3689 1.59613E+01 1.38108E+00 4.17083E-02-2.22732E+00 2.12434E-13 2.19885E-13
 -1      3690 1.53571E+01 1.09820E+00 2.05505E-02-3.01289E+00 2.05085E-13 3.69624E-13
 -1      3691 1.65172E+01 1.46342E-01-3.18093E-02-3.78240E+00 3.24771E-13 1.75689E-13
 -1      3692 2.22845E+01-2.68261E-01-2.69625E-03 1.16418E+00 2.99651E-13-2.16901E-13
 -1      3693 2.28336E+01-6.55630E-01-5.47349E-03 8.14144E-01 2.41683E-13-1.77364E-13
 -1      3694 2.19456E+01-1.76204E-01 1.11319E-02 1.72209E+00 3.86456E-13-2.26137E-13
 -1      3695 2.30898E+01-3.41185E-01-2.86172E-03-1.21949E+00-5.29528E-14-1.76966E-13
 -1      3696 2.31894E+01-1.97828E-01-4.94403E-03-1.36836E+00-9.23742E-14-1.62856E-13
 -1      3697 1.98424E+01 2.28146E-01-8.14108E-04 6.84160E-02-3.67675E-15 5.96866E-14
 -1      3698 1.98013E+01 2.67066E-01-1.81107E-03 7.34858E-02 1.81063E-14 8.23242E-14
 -1      3699 1.97507E+01 3.13179E-01-9.53825E-04 6.45417E-02 2.27027E-14 1.50975E-13
 -1      3700 1.96852E+01 3.65061E-01-3.11127E-03 6.39145E-02 8.86182E-14 2.07034E-13
 -1      3701 1.97639E+01 2.92755E-01 2.59388E-03 2.44691E-02 1.09251E-13 1.11293E-14
 -1      3702 1.99653E+01 8.52863E-02-3.87753E-04 4.26364E-02 4.27044E-14 1.53693E-13
 -1      3703 1.99558E+01 1.01168E-01-2.72283E-04 4.96762E-02-7.07309E-14 1.02960E-13
 -1      3704 1.99392E+01 1.16543E-01 7.61536E-04 3.98314E-02-2.19069E-13-6.55241E-14
 -1      3705 1.99803E+01 6.15529E-02-2.87557E-04 3.30538E-02 1.01299E-13 1.29398E-13
 -1      3706 1.99750E+01 7.25219E-02-1.07414E-04 3.87712E-02 1.60005E-13 1.99844E-13
 -1      3707 1.99633E+01 8.45495E-02 4.96632E-04 3.35287E-02 1.04189E-13 1.53819E-13
 -1      3708 1.99896E+01 4.42580E-02-2.14076E-04 2.47982E-02-1.87272E-13 5.46370E-14
 -1      3709 1.99866E+01 5.22903E-02-1.84025E-05 2.94477E-02-4.84636E-14 1.02383E-13
 -1      3710 1.99783E+01 6.15437E-02 3.09922E-04 2.68084E-02 9.19643E-14 1.05323E-13
 -1      3711 1.99952E+01 3.16450E-02-1.56674E-04 1.80375E-02-1.13952E-13-7.80782E-14
 -1      3712 1.99936E+01 3.75206E-02 2.11509E-05 2.16982E-02-1.36254E-13-1.97637E-14
 -1      3713 1.99880E+01 4.45798E-02 1.96051E-04 2.05467E-02-6.87968E-14-1.94650E-13
 -1      3714 1.99986E+01 2.24332E-02-1.13452E-04 1.27018E-02-1.42840E-13-1.09097E-13
 -1      3715 1.99978E+01 2.67332E-02 3.71059E-05 1.55097E-02-1.65079E-13-8.97457E-14
 -1      3716 1.99940E+01 3.20529E-02 1.22861E-04 1.51731E-02-1.49098E-13-2.06883E-13
 -1      3717 2.00005E+01 1.57076E-02-8.11660E-05 8.61691E-03-1.19393E-13-3.71821E-14
 -1      3718 2.00002E+01 1.88507E-02 4.05154E-05 1.07205E-02-1.24064E-13-1.08294E-13
 -1      3719 1.99978E+01 2.28108E-02 7.57410E-05 1.08026E-02-1.48369E-13-8.20883E-14
 -1      3720 2.00015E+01 1.08103E-02-5.72199E-05 5.57434E-03-1.98526E-13-4.85112E-14
 -1      3721 2.00014E+01 1.30992E-02 3.77122E-05 7.11456E-03-2.01793E-13-8.68702E-14
 -1      3722 2.00000E+01 1.60088E-02 4.55289E-05 7.38831E-03-1.95929E-13-9.67504E-14
 -1      3723 2.00019E+01 7.26394E-03-3.95843E-05 3.36873E-03 2.53400E-14-3.85486E-14
 -1      3724 2.00020E+01 8.91975E-03 3.22998E-05 4.46946E-03-1.31136E-13-2.77605E-14
 -1      3725 2.00012E+01 1.10259E-02 2.62636E-05 4.80952E-03-1.15873E-13-1.93982E-13
 -1      3726 2.00020E+01 4.71890E-03-2.67059E-05 1.81554E-03-8.00981E-14 2.60587E-13
 -1      3727 2.00022E+01 5.90450E-03 2.62311E-05 2.58091E-03 4.23636E-14 9.86134E-14
 -1      3728 2.00018E+01 7.40260E-03 1.40797E-05 2.92183E-03-1.00602E-13-1.71368E-13
 -1      3729 2.00019E+01 2.91614E-03-1.74040E-05 7.57887E-04 1.45642E-13 7.74167E-14
 -1      3730 2.00021E+01 3.75288E-03 2.04876E-05 1.27268E-03-2.42791E-14 1.63990E-13
 -1      3731 2.00021E+01 4.79581E-03 6.47819E-06 1.58339E-03 9.52684E-14-1.39396E-13
 -1      3732 2.00018E+01 1.66191E-03-1.07820E-05 6.75023E-05 3.26062E-13 2.42811E-13
 -1      3733 2.00019E+01 2.24095E-03 1.54975E-05 3.98988E-04 3.22065E-13 2.56493E-13
 -1      3734 2.00020E+01 2.94744E-03 1.84415E-06 6.67547E-04 1.75444E-13-2.17769E-13
 -1      3735 2.00015E+01 8.10185E-04-6.15846E-06-3.57407E-04 2.77752E-13 1.91377E-13
 -1      3736 2.00017E+01 1.20048E-03 1.13864E-05-1.56987E-04 3.31859E-13 2.57997E-13
 -1      3737 2.00019E+01 1.66196E-03-8.69461E-07 6.75956E-05 3.00014E-13 2.96771E-13
 -1      3738 2.00012E+01 2.50396E-04-3.01030E-06-5.95544E-04-2.30097E-13 4.07614E-13
 -1      3739 2.00014E+01 5.04266E-04 8.12477E-06-4.86446E-04-1.87664E-14 2.64915E-13
 -1      3740 2.00016E+01 7.90479E-04-2.34584E-06-3.02717E-04 7.01758E-14 5.19371E-13
 -1      3741 2.00010E+01-1.01523E-04-9.61824E-07-7.06348E-04-2.33975E-13 3.43917E-13
 -1      3742 2.00011E+01 5.57833E-05 5.61760E-06-6.58953E-04-2.04724E-13 3.93405E-13
 -1      3743 2.00014E+01 2.19430E-04-3.03333E-06-5.10885E-04-1.30170E-13 4.64805E-13
 -1      3744 2.00007E+01-3.09347E-04 4.38559E-07-7.33315E-04 3.74819E-13-1.96483E-13
 -1      3745 2.00009E+01-2.18506E-04 3.75629E-06-7.26203E-04 1.86028E-14 7.08154E-14
 -1      3746 2.00011E+01-1.38334E-04-3.28896E-06-6.08291E-04 6.76281E-14 1.16066E-13
 -1      3747 2.00005E+01-4.22685E-04 9.19672E-07-7.08372E-04 1.71549E-13-4.39243E-13
 -1      3748 2.00006E+01-3.74987E-04 2.06360E-06-7.26332E-04 3.12751E-13-3.14778E-13
 -1      3749 2.00008E+01-3.47511E-04-3.05679E-06-6.32659E-04 4.63322E-13-3.44072E-13
 -1      3750 2.00004E+01-4.79052E-04 1.31288E-06-6.47530E-04 1.74221E-13-6.79534E-13
 -1      3751 2.00004E+01-4.53416E-04 1.37359E-06-6.83281E-04 1.31878E-13-4.79597E-13
 -1      3752 2.00006E+01-4.62480E-04-2.56777E-06-6.12542E-04 2.25314E-13-5.74448E-13
 -1      3753 2.00004E+01-5.15098E-04-2.38883E-06-5.59809E-04 2.65643E-13-6.83047E-13
 -1      3754 2.33669E+01-1.59363E+00 9.33306E-03 2.13034E+00 3.45173E-13-6.14782E-14
 -1      3755 2.22007E+01-9.60699E-01-1.24824E-02 2.44280E+00 3.83673E-13-1.40720E-13
 -1      3756 1.09178E+01 2.00568E+00-4.38735E-02-1.33932E+00 1.12710E-13 3.10307E-13
 -1      3757 1.79876E+01-4.99127E-01 5.64686E-02-4.00379E+00 4.03943E-13 8.70870E-14
 -1      3758 1.94519E+01-1.37803E+00-2.98375E-02-3.83672E+00 4.19561E-13-1.15168E-13
 -1      3759 1.77680E+01 3.08350E-02 3.58568E-02-3.30592E+00 3.80027E-13 3.69548E-14
 -1      3760 1.86506E+01 9.67597E-01 1.35220E-03-3.65020E-01 1.92753E-13 1.29046E-13
 -1      3761 1.82909E+01 1.06736E+00-1.92922E-02-5.13004E-01 1.85282E-13 1.16826E-13
 -1      3762 1.80244E+01 1.17703E+00 4.27015E-03-7.57608E-01 1.75134E-13 4.93733E-14
 -1      3763 1.75047E+01 1.24857E+00-2.61963E-02-1.01675E+00 1.55951E-13 6.36897E-14
 -1      3764 1.83554E+01 9.43318E-01 1.23077E-02-9.41731E-01 1.46398E-13-8.84777E-14
 -1      3765 1.71942E+01 1.33019E+00 1.00710E-02-1.35070E+00 1.40297E-13 1.14581E-13
 -1      3766 1.63441E+01 1.39933E+00-1.55427E-02-1.74893E+00 1.97452E-13 1.36994E-13
 -1      3767 1.69534E+01 8.49777E-01-1.44838E-03-2.47658E+00 2.84081E-13 1.18611E-13
 -1      3768 1.77368E+01 9.85375E-01 1.16614E-02-1.58372E+00 1.77064E-13-8.07964E-14
 -1      3769 1.12879E+01 2.64281E+00 2.60726E-01 3.97594E-01-5.29281E-14 2.03448E-13
 -1      3770 2.53280E+01 2.18336E+00-5.34383E-02-2.03156E+00-2.26787E-13-2.44423E-15
 -1      3771 2.59556E+01 1.01397E+00 1.89985E-02-1.96304E+00-1.74364E-13 1.07650E-13
 -1      3772 2.33227E+01 9.35525E-02-1.36433E-02-1.60711E+00-9.24513E-14-1.24477E-13
 -1      3773 2.33035E+01 5.35969E-01 2.74152E-03-1.67321E+00-1.07317E-13-1.12232E-13
 -1      3774 2.38026E+01-1.51213E-01 1.39251E-02-1.42863E+00-6.20881E-14-7.86606E-14
 -1      3775 1.99019E+01 1.65569E-01-6.57157E-04 6.28801E-02 5.15039E-14-5.55482E-14
 -1      3776 1.98765E+01 1.94257E-01-1.02082E-03 7.00758E-02 1.85885E-14 8.62082E-14
 -1      3777 1.99021E+01 1.59943E-01 1.15886E-03 4.34091E-02 2.67296E-14-7.06037E-15
 -1      3778 2.00004E+01-4.73305E-04-2.08925E-06 5.63473E-04-1.32103E-13-8.30563E-14
 -1      3779 2.00007E+01-5.67874E-04 1.19297E-09 7.90197E-05 3.73309E-13 4.41243E-13
 -1      3780 2.00007E+01-5.71548E-04 3.09555E-07-3.73486E-05 3.38977E-13 5.04078E-13
 -1      3781 2.41183E+01 3.82593E+00-4.11410E-02-1.20022E+00-3.20757E-13-1.38800E-13
 -1      3782 2.45979E+01 3.14725E+00-3.01217E-03-1.77204E+00-2.66183E-13-6.68129E-14
 -1      3783 2.38574E+01 3.74908E+00-4.56477E-02 1.14395E+00-1.42129E-13-3.11132E-13
 -1      3784 2.38709E+01 4.16441E+00-2.85351E-02 6.15941E-01-1.85931E-13-2.34941E-13
 -1      3785 2.27614E+01-2.98951E-01-2.07430E-03-9.10322E-01 9.79035E-15-2.50990E-13
 -1      3786 2.28870E+01-3.49192E-01-5.65543E-03-1.05260E+00-2.43653E-14-2.09067E-13
 -1      3787 2.34204E+01-4.66629E-01 1.03187E-02-9.82440E-01-6.82603E-15-1.76513E-13
 -1      3788 2.29732E+01-4.14631E-01-4.60210E-03-6.65011E-01 6.51701E-14-2.61124E-13
 -1      3789 1.96115E+01 4.26604E-01-9.48358E-04 4.13921E-02 1.31040E-13 1.86252E-13
 -1      3790 1.95085E+01 4.94154E-01-5.11412E-03 2.84786E-02 1.54415E-13 1.24848E-13
 -1      3791 1.96406E+01 3.90578E-01 3.68070E-03-1.51085E-02 1.18900E-13 5.97400E-14
 -1      3792 2.39237E+01 7.69509E-01-2.59139E-03-1.77792E+00-1.17054E-13-6.99579E-14
 -1      3793 2.41106E+01-1.51830E+00-8.65865E-03 7.09770E-01 1.49401E-13-2.73358E-13
 -1      3794 2.44041E+01-1.01726E+00-2.09195E-02 1.23975E+00 9.20468E-14-2.60832E-13
 -1      3795 2.33148E+01 3.39762E+00-1.32688E-02-8.11578E-01-2.59705E-13-1.42093E-13
 -1      3796 2.25889E+01 3.16522E+00-1.35866E-02-4.12217E-01-2.51723E-13-1.45161E-13
 -1      3797 2.25558E+01 3.24617E+00-3.24747E-03 1.03003E-01-2.32399E-13-1.93178E-13
 -1      3798 2.40155E+01 4.32430E+00-1.50610E-02-5.85555E-01-3.12129E-13-1.68366E-13
 -1      3799 2.31897E+01 3.60404E+00-1.50430E-02 4.44433E-01-1.84321E-13-1.84635E-13
 -1      3800 2.43211E+01 7.80915E-01-2.65098E-02 1.90888E+00-6.66620E-14-3.14921E-13
 -1      3801 2.30871E+01 5.32834E-01-8.13193E-03 1.72249E+00-9.94725E-14-2.58772E-13
 -1      3802 2.00005E+01-4.99107E-04 8.72493E-07 4.69615E-04 6.15732E-14 1.54537E-13
 -1      3803 2.31378E+01-1.52030E-02-1.39031E-02 1.69755E+00 9.96685E-15-2.93595E-13
 -1      3804 2.48876E+01-1.32626E+00 2.39712E-03-2.59872E-01 1.24475E-13 2.71376E-14
 -1      3805 2.42452E+01-1.36551E+00-7.27427E-03 3.07145E-01 1.67887E-13-1.20806E-14
 -1      3806 2.00008E+01-5.41302E-04 1.65752E-07-1.03385E-04 3.55659E-13 4.33968E-13
 -1      3807 2.00006E+01-5.71700E-04 1.08489E-06-1.66963E-04 3.48703E-13 3.52832E-13
 -1      3808 2.00006E+01-5.64360E-04-1.28838E-06-2.81621E-04 1.54420E-13-2.62890E-14
 -1      3809 1.98469E+01 2.17013E-01 1.74590E-03 4.04154E-02 4.36850E-14-3.40835E-14
 -1      3810 2.00005E+01-5.37460E-04 1.30380E-06-4.58723E-04 5.15646E-14-4.64561E-13
 -1      3811 2.53398E+01 2.52057E-01-5.79931E-03-1.63245E+00-1.00171E-13 6.85181E-14
 -1      3812 2.46138E+01-4.82623E-01 8.78861E-03 1.49954E+00 2.99483E-14-2.85823E-13
 -1      3813 1.93557E+01 6.76337E-01 8.32133E-03 8.81068E-02 2.94303E-14 1.61198E-13
 -1      3814 2.36906E+01-3.72298E-01 1.65854E-02 1.55592E+00 4.02417E-14-2.36608E-13
 -1      3815 2.48262E+01-9.47912E-01-8.32285E-03-7.36035E-01 4.80731E-14 2.85820E-14
 -1      3816 1.88534E+01 8.55202E-01-1.27343E-02-2.17076E-01 5.25528E-14 7.23237E-14
 -1      3817 1.88426E+01 8.13789E-01 9.79901E-03-5.08055E-01 1.00509E-13-6.49274E-14
 -1      3818 1.90949E+01 7.57125E-01-9.54809E-05-1.39111E-01-2.66904E-14 1.10360E-13
 -1      3819 2.00006E+01-5.57234E-04 7.83003E-07 2.05154E-04 3.66408E-13 3.35244E-13
 -1      3820 2.00007E+01-5.30146E-04 2.92213E-07 1.50721E-04 3.35974E-13 3.38980E-13
 -1      3821 2.00006E+01-5.43396E-04-1.04109E-06 3.13959E-04 3.05342E-13 4.40949E-13
 -1      3822 2.34632E+01-1.19851E+00 1.05920E-02 1.22521E+00 2.84503E-13-3.96701E-14
 -1      3823 2.35987E+01-1.09320E+00 6.64443E-03 5.95904E-01 2.18295E-13-9.62548E-14
 -1      3824 1.97937E+01-1.13128E+00-1.50707E-02-3.14010E+00 3.34077E-13-1.67290E-13
 -1      3825 2.06303E+01-1.70415E+00 3.44867E-02-3.39970E+00 3.25847E-13-2.40307E-13
 -1      3826 2.14438E+01-1.96670E+00-1.86764E-02-2.70791E+00 2.97996E-13-2.26739E-13
 -1      3827 2.41024E+01 2.71454E+00 2.64102E-03 1.62158E+00-1.29303E-13-3.58665E-13
 -1      3828 2.31156E+01-5.60089E-01-3.64432E-03-3.10456E-01 1.09687E-13-2.46025E-13
 -1      3829 2.35738E+01-8.12204E-01 1.22695E-03-9.60925E-02 1.43085E-13-1.42785E-13
 -1      3830 2.37331E+01-7.66374E-01 8.05978E-03-6.07388E-01 6.50854E-14-1.50268E-13
 -1      3831 2.38921E+01-2.71977E+00 1.57950E-02-1.51369E+00 2.24239E-13-3.43530E-13
 -1      3832 2.40021E+01-2.28055E+00 1.12162E-02-5.45833E-01 1.83944E-13-3.21362E-13
 -1      3833 2.28109E+01-2.44170E+00-1.68307E-02-1.90428E+00 2.16636E-13-2.41420E-13
 -1      3834 2.38627E+01 4.34329E+00-3.42952E-02 1.28605E-02-2.60486E-13-2.30088E-13
 -1      3835 2.38547E+01-1.78984E+00 9.10343E-03 3.81052E-01 1.70676E-13-2.54155E-13
 -1      3836 2.38953E+01-7.64480E-01-9.76527E-03-7.76267E-01 2.75622E-14-1.13913E-13
 -1      3837 2.32572E+01-1.92286E+00-1.02476E-02-1.30497E-01 1.42554E-13-2.24561E-13
 -1      3838 2.45118E+01-6.61500E-01-1.41075E-02-1.09723E+00-1.54517E-14-2.33923E-14
 -1      3839 1.94027E+01 5.74039E-01-7.18785E-04-1.75569E-02 8.16755E-14 8.69466E-14
 -1      3840 1.92436E+01 6.58365E-01-8.16820E-03-5.38983E-02 7.54184E-14 8.37578E-14
 -1      3841 1.92030E+01 6.59182E-01 7.43032E-03-2.46737E-01 4.05135E-14-5.57200E-14
 -1      3842 1.94607E+01 5.13573E-01 5.31945E-03-9.62754E-02 1.55717E-13-8.52160E-14
 -1      3843 2.00007E+01-4.74897E-04 7.94367E-07 4.31644E-04 6.73349E-14 1.61023E-13
 -1      3844 2.28905E+01-1.88378E+00 1.01744E-02-3.76569E-01 1.31732E-13-2.20039E-13
 -1      3845 2.15480E+01-1.28830E+00-1.14533E-03-4.80082E-01 7.52974E-14-1.29822E-13
 -1      3846 2.12783E+01-1.10063E+00 1.19950E-02-5.40333E-01 9.23957E-14-1.09087E-13
 -1      3847 2.09876E+01-9.25533E-01 1.74963E-03-5.30572E-01 6.56495E-14-9.34490E-15
 -1      3848 2.07790E+01-7.57067E-01 7.61023E-03-5.37243E-01 6.24994E-14 1.21576E-14
 -1      3849 2.10419E+01-1.05090E+00-1.46973E-02-7.67258E-01 1.25786E-13-1.62644E-13
 -1      3850 2.05865E+01-6.08289E-01 3.17863E-03-4.91018E-01 6.22129E-14-3.36525E-14
 -1      3851 2.04367E+01-4.75597E-01 4.61179E-03-4.70040E-01 3.15260E-14 3.11419E-14
 -1      3852 2.05860E+01-6.80463E-01-1.03733E-02-6.74813E-01 1.11845E-14-6.55199E-14
 -1      3853 2.03170E+01-3.62868E-01 3.33080E-03-4.12868E-01 7.10396E-14 3.07199E-14
 -1      3854 2.02159E+01-2.67429E-01 2.38194E-03-3.81390E-01 8.63890E-14 7.73515E-14
 -1      3855 2.02910E+01-3.99509E-01-7.30533E-03-5.47172E-01 6.75296E-14-1.43734E-13
 -1      3856 2.01472E+01-1.88390E-01 2.97882E-03-3.26742E-01 4.96455E-14 1.85248E-13
 -1      3857 2.00829E+01-1.24724E-01 1.03174E-03-2.94407E-01 1.14074E-13 1.64627E-13
 -1      3858 2.01124E+01-2.01674E-01-4.75071E-03-4.18947E-01 1.41769E-13 5.27847E-14
 -1      3859 2.00472E+01-7.30959E-02 2.36756E-03-2.48335E-01 7.47985E-14 1.63504E-13
 -1      3860 2.00089E+01-3.36673E-02 2.57954E-04-2.19587E-01 1.03784E-13 3.02068E-14
 -1      3861 2.00128E+01-7.29058E-02-2.86812E-03-3.08483E-01 7.89722E-14 1.04662E-13
 -1      3862 1.99935E+01-2.59061E-03 1.75586E-03-1.83487E-01 1.13714E-13-1.49215E-14
 -1      3863 1.99725E+01 1.96319E-02-1.43989E-04-1.59944E-01 1.00912E-13 2.53535E-15
 -1      3864 1.99635E+01 4.36327E-03-1.67452E-03-2.20587E-01 1.09108E-13 1.28106E-13
 -1      3865 1.99687E+01 3.64490E-02 1.24226E-03-1.32865E-01 9.25756E-14-2.34079E-14
 -1      3866 1.99587E+01 4.70655E-02-3.01936E-04-1.14472E-01 1.38783E-14-3.58167E-14
 -1      3867 1.99442E+01 4.62990E-02-8.79604E-04-1.54384E-01 4.13771E-14 3.56896E-14
 -1      3868 1.99608E+01 5.44574E-02 8.35214E-04-9.48608E-02-7.08364E-14-4.05061E-14
 -1      3869 1.99573E+01 5.78131E-02-3.39705E-04-8.09124E-02-1.03752E-14-7.85974E-14
 -1      3870 1.99416E+01 6.49175E-02-4.06982E-04-1.06410E-01-2.06283E-14-8.61824E-14
 -1      3871 1.99620E+01 5.93873E-02 5.45187E-04-6.69993E-02 4.81766E-14-1.04740E-13
 -1      3872 1.99620E+01 5.84816E-02-3.19505E-04-5.66255E-02 7.42878E-14-4.96816E-14
 -1      3873 1.99475E+01 6.93065E-02-1.29765E-04-7.24734E-02-3.09508E-14-2.32467E-14
 -1      3874 1.99676E+01 5.67485E-02 3.44491E-04-4.69107E-02 5.20712E-14-4.15867E-14
 -1      3875 1.99692E+01 5.36122E-02-2.75373E-04-3.92904E-02 1.39098E-13-8.16632E-14
 -1      3876 1.99567E+01 6.55702E-02 1.74933E-05-4.89051E-02 1.15422E-13-1.35915E-13
 -1      3877 1.99745E+01 5.02443E-02 2.11506E-04-3.25802E-02 6.45593E-14-1.21119E-13
 -1      3878 1.99767E+01 4.61815E-02-2.25165E-04-2.70251E-02-2.69474E-14-1.52723E-13
 -1      3879 1.99666E+01 5.77740E-02 8.61289E-05-3.27493E-02-3.55524E-15-8.64455E-14
 -1      3880 1.99812E+01 4.22282E-02 1.26889E-04-2.24197E-02-3.33999E-15-2.18726E-13
 -1      3881 1.99834E+01 3.80221E-02-1.77696E-04-1.83926E-02-6.24579E-14-1.74960E-13
 -1      3882 1.99756E+01 4.84680E-02 1.08498E-04-2.17636E-02-9.27353E-16-5.62590E-14
 -1      3883 1.99871E+01 3.41053E-02 7.45958E-05-1.52469E-02-1.56242E-14-2.30343E-13
 -1      3884 1.99890E+01 3.01932E-02-1.36441E-04-1.23405E-02 2.82346E-14-1.46369E-13
 -1      3885 1.99831E+01 3.91527E-02 1.05801E-04-1.43294E-02-3.30262E-14-1.71801E-13
 -1      3886 1.99918E+01 2.66435E-02 4.34240E-05-1.01987E-02-8.64158E-15-1.30093E-13
 -1      3887 1.99933E+01 2.32344E-02-1.02418E-04-8.11177E-03 1.89454E-14 9.82227E-16
 -1      3888 1.99891E+01 3.06444E-02 9.19202E-05-9.31169E-03 3.33859E-14-8.31751E-14
 -1      3889 1.99953E+01 2.01976E-02 2.53955E-05-6.65917E-03 6.00494E-14 2.58015E-14
 -1      3890 1.99964E+01 1.73602E-02-7.52756E-05-5.17111E-03 2.71014E-14 1.31937E-14
 -1      3891 1.99936E+01 2.33097E-02 7.42483E-05-5.93019E-03 5.07543E-14 3.56402E-14
 -1      3892 1.99979E+01 1.48694E-02 1.52481E-05-4.19188E-03 8.45835E-14-4.50132E-14
 -1      3893 1.99986E+01 1.25910E-02-5.41459E-05-3.14143E-03 1.45749E-13-9.65006E-14
 -1      3894 1.99968E+01 1.72454E-02 5.67358E-05-3.65662E-03 1.70053E-14-1.20234E-13
 -1      3895 1.99996E+01 1.06164E-02 9.65475E-06-2.48794E-03 2.30061E-13-6.39069E-14
 -1      3896 2.00001E+01 8.84178E-03-3.80256E-05-1.75695E-03 2.62091E-13-1.64769E-14
 -1      3897 1.99990E+01 1.23959E-02 4.12807E-05-2.13525E-03 1.99449E-13 5.39949E-14
 -1      3898 2.00007E+01 7.32219E-03 6.58741E-06-1.32797E-03 3.09978E-13-5.59107E-14
 -1      3899 2.00009E+01 5.97790E-03-2.59514E-05-8.29428E-04 3.81869E-13 3.30233E-14
 -1      3900 2.00004E+01 8.62736E-03 2.85833E-05-1.12657E-03 3.02366E-13-6.02601E-14
 -1      3901 2.00013E+01 4.84061E-03 4.86058E-06-5.55133E-04 1.02487E-13-5.02652E-14
 -1      3902 2.00014E+01 3.84969E-03-1.70728E-05-2.24670E-04-1.55461E-13-2.45969E-14
 -1      3903 2.00012E+01 5.77564E-03 1.86868E-05-4.68613E-04 1.48715E-13-2.41200E-13
 -1      3904 2.00015E+01 3.02204E-03 3.81316E-06-5.65602E-05-1.96337E-13-1.02620E-14
 -1      3905 2.00016E+01 2.31214E-03-1.06732E-05 1.53587E-04-2.83201E-13 4.11463E-16
 -1      3906 2.00016E+01 3.67356E-03 1.13092E-05-5.09480E-05-1.31745E-13-2.31768E-13
 -1      3907 2.00016E+01 1.72765E-03 3.09738E-06 2.49452E-04-1.61187E-13 1.51310E-13
 -1      3908 2.00015E+01 1.23492E-03-6.16565E-06 3.74714E-04 1.09420E-13 1.30549E-13
 -1      3909 2.00017E+01 2.16622E-03 6.03869E-06 2.02464E-04-1.05070E-13-9.73628E-15
 -1      3910 2.00015E+01 8.36026E-04 2.54457E-06 4.22191E-04 1.74763E-13-7.25473E-15
 -1      3911 2.00014E+01 5.06529E-04-3.08390E-06 4.88737E-04 1.42122E-13-5.33833E-14
 -1      3912 2.00016E+01 1.11806E-03 2.44290E-06 3.44477E-04-1.76136E-14 1.51574E-14
 -1      3913 2.00013E+01 2.45237E-04 2.07735E-06 5.04572E-04 2.63802E-14-1.26362E-13
 -1      3914 2.00012E+01 3.48135E-05-1.04728E-06 5.31531E-04-1.28503E-13-2.65354E-13
 -1      3915 2.00015E+01 4.15006E-04 1.29485E-07 4.12036E-04-2.64903E-14 1.19570E-13
 -1      3916 2.00011E+01-1.27816E-04 1.66155E-06 5.27434E-04 8.93526E-14-1.54528E-13
 -1      3917 2.00010E+01-2.54097E-04 4.58728E-07 5.28262E-04 3.37499E-14-2.30422E-14
 -1      3918 2.00012E+01-3.59770E-05-1.18450E-06 4.30943E-04-1.90149E-14 5.27825E-14
 -1      3919 2.00009E+01-3.47371E-04 1.40212E-06 4.88918E-04-9.44567E-15-3.89799E-14
 -1      3920 2.00008E+01-4.21520E-04 6.51940E-07 4.74854E-04 2.84489E-14 4.19816E-14
 -1      3921 2.00008E+01-4.65601E-04-1.39660E-06 3.18600E-04 1.79617E-13 2.70976E-13
 -1      3922 2.00010E+01-3.08341E-04-1.84632E-06 3.96322E-04 7.19018E-14 1.90545E-14
 -1      3923 1.99616E+01 7.83473E-02-2.14121E-04 2.34325E-02 1.23489E-14 2.80215E-14
 -1      3924 1.99519E+01 9.09192E-02-3.77150E-04 2.61975E-02-7.06664E-14-1.03772E-13
 -1      3925 1.99388E+01 1.06380E-01-2.28182E-04 2.57897E-02-1.43592E-13-1.23059E-13
 -1      3926 1.99226E+01 1.23921E-01-6.52224E-04 2.75808E-02-1.69465E-13-7.21632E-14
 -1      3927 1.99412E+01 1.01187E-01 5.75729E-04 1.52820E-02-1.47393E-13-4.38367E-14
 -1      3928 2.43951E+01 6.56197E-01-3.63352E-02-1.81473E+00-1.37801E-13-4.33334E-14
 -1      3929 2.44121E+01 1.45383E+00 3.51221E-03-1.94203E+00-1.63845E-13-7.36074E-14
 -1      3930 1.99765E+01 5.77696E-02-1.78599E-04 1.95584E-02 1.47928E-13 2.64638E-14
 -1      3931 1.99703E+01 6.73243E-02-1.96016E-04 2.24827E-02 1.19580E-13 1.11623E-13
 -1      3932 1.99625E+01 7.54426E-02 3.93016E-04 1.58454E-02 2.35578E-14-3.13593E-14
 -1      3933 1.99863E+01 4.22567E-02-1.44690E-04 1.54042E-02 2.23254E-14-2.38667E-13
 -1      3934 1.99824E+01 4.94722E-02-9.74900E-05 1.80927E-02 1.64927E-13-2.96217E-14
 -1      3935 1.99766E+01 5.61527E-02 2.66866E-04 1.41262E-02 2.46190E-13 1.25662E-13
 -1      3936 1.99927E+01 3.06064E-02-1.13432E-04 1.15777E-02-2.00011E-13-2.27841E-13
 -1      3937 1.99903E+01 3.60355E-02-4.11993E-05 1.38644E-02-1.70968E-13-3.13677E-13
 -1      3938 1.99862E+01 4.13747E-02 1.80578E-04 1.15739E-02-5.78811E-15-1.09929E-13
 -1      3939 1.99968E+01 2.18907E-02-8.64850E-05 8.33452E-03-2.28167E-13-1.35146E-13
 -1      3940 1.99954E+01 2.59564E-02-1.06755E-05 1.01809E-02-2.00876E-13-1.91852E-13
 -1      3941 1.99925E+01 3.01242E-02 1.20904E-04 8.92526E-03-2.23717E-13-3.23941E-13
 -1      3942 1.99993E+01 1.54051E-02-6.42895E-05 5.73487E-03-1.37359E-13-3.05534E-13
 -1      3943 1.99985E+01 1.84307E-02 4.58773E-06 7.16774E-03-1.46790E-13-1.86225E-13
 -1      3944 1.99966E+01 2.16174E-02 7.97652E-05 6.54062E-03-1.26801E-13-2.51590E-13
 -1      3945 2.00008E+01 1.06148E-02-4.65909E-05 3.73908E-03-8.31019E-14-2.47315E-13
 -1      3946 2.00004E+01 1.28474E-02 1.11429E-05 4.81412E-03-6.38572E-14-2.37129E-13
 -1      3947 1.99992E+01 1.52368E-02 5.15287E-05 4.56043E-03-9.56665E-14-2.97679E-13
 -1      3948 2.00016E+01 7.11190E-03-3.28404E-05 2.26333E-03-1.63817E-13-2.87832E-13
 -1      3949 2.00015E+01 8.74121E-03 1.29651E-05 3.04466E-03-1.57049E-13-2.55190E-13
 -1      3950 2.00008E+01 1.04975E-02 3.22586E-05 3.00583E-03-7.90369E-14-2.49359E-13
 -1      3951 2.00020E+01 4.58348E-03-2.24025E-05 1.21109E-03 2.17244E-13-2.26741E-13
 -1      3952 2.00019E+01 5.75577E-03 1.24008E-05 1.76061E-03 3.28397E-15-1.26589E-13
 -1      3953 2.00016E+01 7.01937E-03 1.92186E-05 1.83909E-03-9.94801E-14-3.24449E-13
 -1      3954 2.00020E+01 2.78880E-03-1.46563E-05 4.89642E-04 7.70393E-14 4.00789E-14
 -1      3955 2.00021E+01 3.61714E-03 1.07888E-05 8.61972E-04 9.61407E-14-6.99292E-14
 -1      3956 2.00020E+01 4.50428E-03 1.05094E-05 9.98563E-04 8.64001E-14-2.33418E-15
 -1      3957 2.00019E+01 1.54197E-03-9.04378E-06 1.76804E-05 2.65943E-13 2.64094E-13
 -1      3958 2.00020E+01 2.11391E-03 8.85992E-06 2.58443E-04 2.33934E-13 8.14764E-14
 -1      3959 2.00020E+01 2.71865E-03 4.80879E-06 4.17896E-04 9.31171E-14 1.53881E-13
 -1      3960 2.00017E+01 6.99408E-04-5.09538E-06-2.72071E-04-1.57212E-14 4.26948E-13
 -1      3961 2.00018E+01 1.08272E-03 6.98638E-06-1.26284E-04 1.25923E-13 3.77173E-13
 -1      3962 2.00019E+01 1.47963E-03 1.19110E-06 3.56690E-05 1.18887E-13 2.38787E-13
 -1      3963 2.00014E+01 1.50404E-04-2.38635E-06-4.32928E-04-1.41626E-13 4.01377E-13
 -1      3964 2.00016E+01 3.97366E-04 5.33909E-06-3.53689E-04 2.49160E-14 4.40620E-13
 -1      3965 2.00017E+01 6.44550E-04-9.98562E-07-2.00442E-04 6.25149E-14 2.99704E-13
 -1      3966 2.00012E+01-1.90322E-04-6.96809E-07-5.06258E-04 5.08354E-13-9.77119E-15
 -1      3967 2.00013E+01-3.89560E-05 4.05632E-06-4.71704E-04 8.49305E-14 3.44004E-13
 -1      3968 2.00015E+01 1.02703E-04-2.28803E-06-3.32224E-04 1.57724E-13 3.67604E-13
 -1      3969 2.00009E+01-3.85929E-04 1.16383E-06-5.19504E-04 4.59688E-13-2.02204E-13
 -1      3970 2.00010E+01-3.03314E-04 2.95918E-06-5.15868E-04 6.20636E-13-1.80611E-13
 -1      3971 2.00012E+01-2.33512E-04-3.36964E-06-3.95067E-04 5.97646E-13-4.26050E-14
 -1      3972 1.87535E+01 6.84366E-01 9.45989E-03-9.70853E-01 1.52558E-13-4.45615E-14
 -1      3973 1.84602E+01 6.78174E-01-1.28514E-02-1.25705E+00 1.00879E-13-5.48598E-14
 -1      3974 2.47394E+01-2.24328E-01 7.86274E-03-1.42783E+00-7.58317E-14 2.31410E-14
 -1      3975 1.77173E+01 3.22470E-01 4.42601E-03-2.78617E+00 3.30119E-13 3.20129E-14
 -1      3976 1.87863E+01-4.07677E-01-1.36081E-02-2.99503E+00 3.56176E-13-7.53924E-14
 -1      3977 1.81327E+01 4.65066E-01 2.64120E-02-2.25214E+00 2.94021E-13-1.23582E-14
 -1      3978 2.00006E+01-5.19780E-04 4.20670E-07-4.15107E-04 2.98750E-13-2.67665E-13
 -1      3979 1.98555E+01 1.90980E-01-1.36662E-04 1.48252E-02-1.25004E-15 1.73213E-13
 -1      3980 1.98192E+01 2.18928E-01-1.81599E-03 8.75196E-03 1.06664E-13 1.64023E-13
 -1      3981 2.42302E+01 2.21581E+00-1.30337E-02-1.76171E+00-1.97783E-13-7.67390E-14
 -1      3982 1.99046E+01 1.43523E-01-2.23473E-04 2.42379E-02 1.55785E-14 3.78517E-14
 -1      3983 1.98808E+01 1.65341E-01-1.10277E-03 2.33983E-02 1.10441E-13 3.37589E-14
 -1      3984 1.98665E+01 1.75409E-01 1.14812E-03-4.63058E-03 1.24706E-13 1.48050E-13
 -1      3985 1.99101E+01 1.34340E-01 8.24897E-04 9.75820E-03 2.28014E-14 6.17249E-14
 -1      3986 1.97843E+01 2.51977E-01 7.26656E-05-9.08982E-03 6.43353E-14 2.20168E-14
 -1      3987 1.97297E+01 2.87114E-01-2.88121E-03-2.48503E-02 3.69988E-14 3.22876E-14
 -1      3988 1.98050E+01 2.26156E-01 1.56349E-03-3.46520E-02 3.72130E-14 2.34235E-13
 -1      3989 2.00009E+01-4.98598E-04-2.69411E-07-3.78023E-05 3.95554E-13 6.17429E-13
 -1      3990 2.00009E+01-4.98914E-04-1.59635E-07-1.63713E-04 3.71272E-13 5.15776E-13
 -1      3991 1.90816E+01 6.22433E-01 5.52487E-03-5.62331E-01 1.10369E-13-1.30174E-13
 -1      3992 1.88521E+01 6.54594E-01-1.29749E-02-7.40012E-01 1.68174E-13-8.49774E-14
 -1      3993 1.90286E+01 4.69197E-01 2.31622E-03-1.01523E+00 1.51842E-13-1.27140E-13
 -1      3994 2.22976E+01-1.59811E+00 5.29002E-03-2.48193E-01 1.38731E-13-2.04178E-13
 -1      3995 2.19635E+01-1.45842E+00 1.94340E-02-4.12133E-01 1.00122E-13-1.81831E-13
 -1      3996 2.00008E+01-4.96255E-04-2.94124E-07-3.06306E-04 5.21556E-13 1.11773E-13
 -1      3997 2.00007E+01-4.75212E-04 1.75210E-07-4.85338E-04 3.75426E-13-3.87611E-13
 -1      3998 2.00008E+01-4.25619E-04 1.36616E-06-4.99635E-04 4.14837E-13-1.80107E-13
 -1      3999 2.00010E+01-4.40741E-04 9.19369E-07-2.36050E-04 5.44876E-13 2.18978E-13
 -1      4000 1.96819E+01 3.29108E-01 5.58896E-04-5.78906E-02 1.23744E-13-5.02876E-14
 -1      4001 1.96002E+01 3.70583E-01-4.83178E-03-9.01273E-02 2.00641E-13-6.72813E-14
 -1      4002 1.97194E+01 2.87125E-01 2.07776E-03-9.14078E-02 3.83314E-14 7.49866E-14
 -1      4003 1.97484E+01-7.73968E-01 1.25537E-02-2.67802E+00 2.98901E-13-1.08238E-13
 -1      4004 2.00010E+01-4.00971E-04-3.34093E-06-3.93344E-04 5.11054E-13 2.28037E-14
 -1      4005 2.14723E+01-1.75240E+00-4.59394E-03-2.21068E+00 1.98414E-13-1.22063E-13
 -1      4006 2.22509E+01-2.12869E+00 2.79900E-02-2.15312E+00 2.20967E-13-1.66120E-13
 -1      4007 2.27149E+01-2.13704E+00 6.72425E-03-1.37895E+00 1.75673E-13-2.52462E-13
 -1      4008 1.84317E+01 6.44599E-01 1.53163E-02-1.52394E+00 1.19445E-13-9.90527E-15
 -1      4009 1.80910E+01 5.96471E-01-5.11713E-03-1.90175E+00 2.42029E-13 1.98099E-14
 -1      4010 1.87608E+01 6.30696E-02-1.56053E-02-2.15515E+00 2.44477E-13 7.86263E-16
 -1      4011 1.88333E+01 3.40738E-01-8.38477E-03-1.53615E+00 1.82576E-13 8.12226E-14
 -1      4012 2.00009E+01-4.79517E-04-1.75922E-07 2.03797E-04 2.19421E-13 2.42557E-13
 -1      4013 2.00009E+01-4.89098E-04-3.60289E-07 8.08493E-05 2.57202E-13 4.00030E-13
 -1      4014 2.00010E+01-4.35049E-04 5.32298E-07 1.72523E-05 2.99549E-13 4.66971E-13
 -1      4015 2.00010E+01-4.11005E-04 1.22311E-06 2.43977E-04 1.28038E-13 1.14683E-13
 -1      4016 2.17036E+01-1.48321E+00-1.92607E-02-7.59453E-01 1.36127E-13-2.31872E-13
 -1      4017 2.26692E+01-2.00435E+00-1.15445E-02-8.89748E-01 1.38373E-13-2.98266E-13
 -1      4018 2.21278E+01-1.78335E+00 4.61518E-03-1.15044E+00 1.39027E-13-2.81581E-13
 -1      4019 2.16770E+01-1.49304E+00 5.66612E-03-1.13781E+00 1.63731E-13-2.36970E-13
 -1      4020 2.13002E+01-1.24585E+00 1.41399E-02-1.14636E+00 1.95091E-13-1.68012E-13
 -1      4021 2.15709E+01-1.65019E+00-2.75597E-02-1.59935E+00 1.96459E-13-1.00261E-13
 -1      4022 2.05672E+01-6.55681E-01 8.02235E-03-8.64534E-01-3.67615E-15-2.81378E-14
 -1      4023 2.03715E+01-4.96749E-01 3.54630E-03-7.91479E-01-1.16238E-14-4.16402E-14
 -1      4024 2.02561E+01-3.56761E-01 7.13345E-03-6.75323E-01 1.97166E-14 6.54055E-14
 -1      4025 2.01306E+01-2.48144E-01 1.24523E-03-5.98602E-01 8.51727E-14 2.33453E-14
 -1      4026 2.01463E+01-3.72936E-01-1.30666E-02-8.54275E-01 5.99784E-14 5.44892E-14
 -1      4027 2.00761E+01-1.57094E-01 5.80760E-03-5.00861E-01 2.12123E-13 2.10094E-14
 -1      4028 1.99998E+01-8.91047E-02-2.00074E-04-4.34080E-01 2.20800E-13 7.07251E-14
 -1      4029 1.99817E+01-1.49814E-01-8.10542E-03-6.16247E-01 1.63268E-13 9.82343E-14
 -1      4030 1.99796E+01-3.35629E-02 4.03639E-03-3.57313E-01 8.40249E-14 7.47786E-14
 -1      4031 1.99378E+01 6.05657E-03-6.48212E-04-3.04563E-01 7.91388E-14 1.21881E-13
 -1      4032 1.99053E+01-1.17320E-02-3.80314E-03-4.28580E-01 1.80262E-13 1.07269E-13
 -1      4033 1.99351E+01 3.71137E-02 2.64561E-03-2.47606E-01 5.72986E-14 7.27347E-14
 -1      4034 1.99148E+01 5.67957E-02-1.06142E-03-2.07848E-01-7.55671E-15 4.21680E-14
 -1      4035 1.98806E+01 6.22052E-02-1.47938E-03-2.90217E-01 7.08256E-15 8.28551E-14
 -1      4036 1.99225E+01 7.22404E-02 2.06374E-03-1.68302E-01-5.72166E-14-3.13424E-14
 -1      4037 1.99139E+01 7.95332E-02-9.66710E-04-1.39376E-01 1.54175E-14-8.97603E-14
 -1      4038 1.98824E+01 9.27641E-02-1.04632E-03-1.91544E-01-4.72716E-14-1.23223E-13
 -1      4039 1.99250E+01 8.48157E-02 1.35558E-03-1.12224E-01 4.96999E-14-1.47443E-13
 -1      4040 1.99235E+01 8.49671E-02-8.12332E-04-9.18804E-02 1.65626E-15-1.21722E-13
 -1      4041 1.98961E+01 1.02781E-01-4.37520E-04-1.23362E-01-1.75461E-14-2.17093E-13
 -1      4042 1.99349E+01 8.43094E-02 8.55576E-04-7.37521E-02-4.23862E-14-9.34539E-14
 -1      4043 1.99371E+01 8.05772E-02-6.41302E-04-5.97328E-02-4.80982E-14-1.12697E-13
 -1      4044 1.99149E+01 9.93430E-02-1.40931E-05-7.78323E-02 1.01444E-15-2.64910E-13
 -1      4045 1.99474E+01 7.67751E-02 5.17626E-04-4.79131E-02-8.09665E-15-1.78037E-13
 -1      4046 1.99511E+01 7.12785E-02-4.86582E-04-3.83938E-02 1.31243E-13-2.58680E-13
 -1      4047 1.99337E+01 8.89501E-02 1.83115E-04-4.81775E-02-1.18045E-14-2.65521E-13
 -1      4048 1.99598E+01 6.60978E-02 2.96590E-04-3.08272E-02 1.10368E-13-2.90351E-13
 -1      4049 1.99638E+01 6.01213E-02-3.63255E-04-2.44374E-02 5.81542E-15-2.63448E-13
 -1      4050 1.99505E+01 7.57884E-02 2.58538E-04-2.92717E-02 7.56194E-14-2.90508E-13
 -1      4051 1.99707E+01 5.46571E-02 1.62447E-04-1.96541E-02-2.48955E-14-1.98412E-13
 -1      4052 1.99744E+01 4.89118E-02-2.63393E-04-1.53834E-02 3.28746E-14-1.60691E-13
 -1      4053 1.99645E+01 6.23125E-02 2.80630E-04-1.74397E-02 3.91990E-14-2.83777E-13
 -1      4054 1.99797E+01 4.37506E-02 8.21232E-05-1.24202E-02 4.97260E-14-1.14786E-13
 -1      4055 1.99828E+01 3.86192E-02-1.88144E-04-9.56862E-03 7.23258E-14-4.92197E-14
 -1      4056 1.99756E+01 4.96752E-02 2.43599E-04-1.01855E-02 4.40166E-14-1.83385E-13
 -1      4057 1.99868E+01 3.40592E-02 3.76726E-05-7.75448E-03 7.86622E-14-2.13901E-14
 -1      4058 1.99892E+01 2.96886E-02-1.32708E-04-5.84980E-03 9.11586E-14 8.52556E-14
 -1      4059 1.99840E+01 3.86084E-02 1.98105E-04-5.79964E-03 1.04096E-13 9.34502E-14
 -1      4060 1.99920E+01 2.58398E-02 1.41944E-05-4.75436E-03 1.86584E-14 8.32297E-14
 -1      4061 1.99938E+01 2.22480E-02-9.24830E-05-3.48066E-03 8.64380E-16 5.07365E-14
 -1      4062 1.99903E+01 2.93012E-02 1.53582E-04-3.18900E-03 8.97564E-14 1.16429E-13
 -1      4063 1.99958E+01 1.91113E-02 2.98294E-06-2.82901E-03 5.25315E-14 7.08449E-14
 -1      4064 1.99971E+01 1.62444E-02-6.35679E-05-1.97696E-03 1.81282E-13 8.59953E-14
 -1      4065 1.99947E+01 2.17182E-02 1.14334E-04-1.65883E-03 5.61613E-14 2.28375E-13
 -1      4066 1.99984E+01 1.37614E-02-1.49018E-06-1.59661E-03 2.20036E-13 6.52568E-14
 -1      4067 1.99992E+01 1.15309E-02-4.29420E-05-1.02795E-03 1.85864E-13 6.18770E-14
 -1      4068 1.99978E+01 1.57012E-02 8.18624E-05-7.76452E-04 2.48930E-13 2.41060E-13
 -1      4069 2.00001E+01 9.61557E-03-2.54983E-06-8.12093E-04 1.73107E-13 8.54443E-14
 -1      4070 2.00006E+01 7.92136E-03-2.83389E-05-4.35278E-04 1.94332E-13-5.19086E-14
 -1      4071 1.99997E+01 1.10383E-02 5.61921E-05-2.77547E-04 1.05101E-13-6.54738E-15
 -1      4072 2.00011E+01 6.47994E-03-2.09826E-06-3.18434E-04 5.16971E-14-1.12166E-13
 -1      4073 2.00013E+01 5.22345E-03-1.80908E-05-7.23802E-05 4.50528E-14-2.41564E-13
 -1      4074 2.00009E+01 7.50545E-03 3.66447E-05-3.28578E-06 4.92241E-14-1.23837E-13
 -1      4075 2.00016E+01 4.16541E-03-1.15636E-06-1.46739E-05-8.82681E-15-1.85431E-13
 -1      4076 2.00017E+01 3.25671E-03-1.09822E-05 1.41852E-04-1.58246E-13-1.44892E-13
 -1      4077 2.00016E+01 4.88885E-03 2.22657E-05 1.40496E-04-3.08093E-14-1.42291E-13
 -1      4078 2.00018E+01 2.50056E-03-2.21211E-07 1.64650E-04-5.69659E-14-2.00184E-13
 -1      4079 2.00018E+01 1.86153E-03-6.12800E-06 2.59861E-04-6.93915E-14-2.16569E-13
 -1      4080 2.00018E+01 2.99726E-03 1.20578E-05 2.09056E-04-5.93766E-14-8.35894E-14
 -1      4081 2.00018E+01 1.33722E-03 5.07390E-07 2.62488E-04-2.02391E-14-1.63909E-13
 -1      4082 2.00017E+01 9.02299E-04-2.87719E-06 3.15932E-04 1.06784E-13-1.75330E-13
 -1      4083 2.00019E+01 1.66639E-03 5.10213E-06 2.34633E-04 1.03699E-13-4.48453E-13
 -1      4084 2.00016E+01 5.51544E-04 9.87723E-07 3.07404E-04 1.28672E-13-1.89916E-13
 -1      4085 2.00015E+01 2.67165E-04-7.65342E-07 3.32719E-04-8.48303E-14-1.10077E-13
 -1      4086 2.00017E+01 7.59369E-04 6.15722E-07 2.36058E-04 1.53292E-13-3.37549E-13
 -1      4087 2.00014E+01 4.23903E-05 1.21635E-06 3.18448E-04-9.53721E-14 5.20290E-14
 -1      4088 2.00013E+01-1.32906E-04 4.47253E-07 3.24176E-04 4.19703E-14 2.89779E-14
 -1      4089 2.00015E+01 1.64722E-04-1.98517E-06 2.24522E-04-1.82102E-14-3.24963E-13
 -1      4090 1.99862E+01 3.83644E-02-7.72940E-05 7.42936E-03-5.16325E-14 7.03667E-14
 -1      4091 1.99821E+01 4.45535E-02-1.45631E-04 8.56562E-03 2.22241E-13 2.12548E-13
 -1      4092 2.00011E+01-3.99848E-04-1.97455E-06-1.15040E-04 6.19649E-13 2.77162E-13
 -1      4093 2.00010E+01-3.93795E-04 1.41662E-06-2.51266E-04 6.81575E-13 2.05704E-13
 -1      4094 2.00011E+01-3.43020E-04 2.05884E-06-2.65259E-04 6.09125E-13 1.64537E-13
 -1      4095 1.99771E+01 5.16864E-02-7.70944E-05 8.49501E-03 2.39366E-13 1.80377E-13
 -1      4096 1.99710E+01 5.95921E-02-2.49209E-04 9.34267E-03 2.00483E-13 7.97310E-14
 -1      4097 1.99786E+01 4.91633E-02 2.74282E-04 4.16890E-03 2.64262E-13 2.76314E-13
 -1      4098 1.99641E+01 6.87537E-02-5.71582E-05 8.36212E-03 4.13801E-14 6.29122E-14
 -1      4099 1.99549E+01 7.86967E-02-4.25059E-04 8.41473E-03-1.20230E-13-5.95329E-16
 -1      4100 1.99666E+01 6.47388E-02 3.58500E-04 2.53298E-03 1.01574E-13 3.56946E-14
 -1      4101 1.99450E+01 9.09625E-02 1.04957E-05 5.50714E-03-1.27236E-13 5.02317E-14
 -1      4102 1.99307E+01 1.04076E-01-6.82222E-04 3.56620E-03-1.04079E-13 1.95360E-14
 -1      4103 1.99493E+01 8.44591E-02 4.39087E-04-2.19711E-03-1.14296E-13 5.75166E-15
 -1      4104 1.99923E+01 2.80691E-02-6.82941E-05 5.94783E-03-1.87412E-13-4.19021E-14
 -1      4105 1.99897E+01 3.28588E-02-8.21719E-05 7.08734E-03-1.78913E-13-5.30940E-14
 -1      4106 1.99870E+01 3.67534E-02 2.03505E-04 4.29922E-03 2.34774E-14 3.38560E-13
 -1      4107 1.99964E+01 2.01949E-02-5.59198E-05 4.45890E-03-1.18979E-13-1.20984E-13
 -1      4108 1.99947E+01 2.38593E-02-4.39501E-05 5.46691E-03-1.47512E-13-1.20423E-13
 -1      4109 1.99928E+01 2.70174E-02 1.46970E-04 3.74525E-03-8.59914E-14 1.18756E-13
 -1      4110 1.99990E+01 1.42392E-02-4.33152E-05 3.15211E-03-1.00507E-13-1.18896E-13
 -1      4111 1.99980E+01 1.70085E-02-2.15199E-05 3.97992E-03-9.76428E-14-1.97039E-13
 -1      4112 1.99967E+01 1.94884E-02 1.03217E-04 2.95974E-03-7.38642E-14-2.17745E-14
 -1      4113 2.00006E+01 9.79079E-03-3.20083E-05 2.09357E-03-1.00493E-13-8.26898E-14
 -1      4114 2.00000E+01 1.18553E-02-8.77717E-06 2.73840E-03-6.50212E-14-1.09603E-13
 -1      4115 1.99992E+01 1.37496E-02 7.01914E-05 2.17492E-03-1.03318E-13-4.53696E-14
 -1      4116 2.00015E+01 6.51581E-03-2.25956E-05 1.28440E-03-9.05425E-14-1.32369E-13
 -1      4117 2.00012E+01 8.03111E-03-1.85692E-06 1.76550E-03-1.89525E-13-1.61876E-13
 -1      4118 2.00007E+01 9.44130E-03 4.58290E-05 1.49502E-03-8.48472E-14-5.51787E-14
 -1      4119 2.00019E+01 4.14542E-03-1.51642E-05 6.95336E-04 3.81021E-14-1.15845E-13
 -1      4120 2.00018E+01 5.23752E-03 1.64238E-06 1.04032E-03 5.61237E-14-2.33502E-13
 -1      4121 2.00016E+01 6.26052E-03 2.82730E-05 9.53606E-04-3.05447E-14-3.12391E-13
 -1      4122 2.00020E+01 2.46441E-03-9.54532E-06 2.86294E-04 1.00295E-13-3.95507E-14
 -1      4123 2.00020E+01 3.23451E-03 3.18604E-06 5.23718E-04-1.11077E-14-1.49595E-13
 -1      4124 2.00019E+01 3.95619E-03 1.59483E-05 5.48225E-04-1.99589E-14-4.38821E-13
 -1      4125 2.00019E+01 1.30175E-03-5.45992E-06 1.67640E-05 1.70672E-14 9.25586E-14
 -1      4126 2.00020E+01 1.83042E-03 3.65233E-06 1.72539E-04 1.47807E-13 1.22887E-13
 -1      4127 2.00020E+01 2.32333E-03 7.56600E-06 2.60394E-04 1.13573E-13-1.27097E-13
 -1      4128 2.00017E+01 5.22526E-04-2.54336E-06-1.49249E-04 2.94160E-14 2.94817E-14
 -1      4129 2.00019E+01 8.73335E-04 3.56376E-06-5.33851E-05 8.12100E-14 1.34983E-13
 -1      4130 2.00019E+01 1.19672E-03 2.10107E-06 6.66294E-05 4.91665E-14-1.73372E-13
 -1      4131 2.00015E+01 2.25482E-05 3.02154E-08-2.40076E-04 2.74676E-13 7.49430E-14
 -1      4132 2.00016E+01 2.43390E-04 3.23508E-06-1.88388E-04 6.45107E-14 1.28439E-13
 -1      4133 2.00017E+01 4.44769E-04-1.29689E-06-5.61482E-05 1.07041E-14-2.27485E-13
 -1      4134 2.00012E+01-2.54912E-04 7.92698E-07-2.67405E-04 5.26046E-13 1.83570E-13
 -1      4135 2.00014E+01-1.15865E-04 3.20956E-06-2.44294E-04 4.59456E-13 1.33965E-13
 -1      4136 2.00015E+01-5.34880E-07-3.63010E-06-1.14042E-04 3.65848E-13 2.87303E-14
 -1      4137 2.00013E+01-2.54028E-04-2.51380E-06-1.27712E-04 6.99120E-13 2.32416E-13
 -1      4138 1.98321E+01 1.91928E-01 8.21234E-04-5.12389E-02 9.79953E-15 1.11230E-13
 -1      4139 1.97919E+01 2.12171E-01-2.32554E-03-7.31635E-02-6.44974E-14 6.69625E-14
 -1      4140 1.94572E+01-4.42529E-01-8.57880E-03-2.28150E+00 2.26704E-13-5.61359E-14
 -1      4141 2.03921E+01-1.12013E+00-1.45311E-02-2.37115E+00 2.46088E-13-1.09986E-13
 -1      4142 2.10202E+01-1.03150E+00 8.52726E-03-1.03658E+00 1.85671E-13-1.77703E-13
 -1      4143 2.07370E+01-8.19508E-01 8.17386E-03-9.85751E-01 9.04793E-14-1.05926E-13
 -1      4144 2.04232E+01-6.87625E-01-1.84189E-02-1.12386E+00 8.90166E-14-1.37938E-13
 -1      4145 2.08279E+01-1.09350E+00-2.87032E-02-1.39446E+00 2.16049E-13-9.86478E-14
 -1      4146 1.91751E+01 5.70033E-01-9.57549E-03-4.10619E-01 9.54044E-14-1.57169E-13
 -1      4147 1.92560E+01 4.72737E-01 3.56822E-03-6.13550E-01 1.40331E-13-2.20280E-13
 -1      4148 1.93431E+01 5.23580E-01 3.30976E-03-3.04163E-01 1.12228E-13-2.35160E-13
 -1      4149 1.95397E+01 4.21360E-01 1.90841E-03-1.48047E-01 1.70168E-13-1.43709E-13
 -1      4150 1.94203E+01 4.67947E-01-6.90443E-03-2.08441E-01 8.99986E-14-2.19525E-13
 -1      4151 1.94485E+01 4.21714E-01 2.77221E-03-3.53352E-01 8.34392E-14-3.03701E-13
 -1      4152 1.96017E+01 3.53099E-01 1.86807E-03-1.90438E-01 1.36124E-13-9.30890E-14
 -1      4153 1.93491E+01 2.97260E-01 1.09867E-02-9.38530E-01 2.13246E-13-1.57703E-13
 -1      4154 1.92232E+01 2.38690E-01-5.32259E-03-1.18362E+00 2.46025E-13-5.75131E-14
 -1      4155 2.00012E+01-2.36643E-04 1.39744E-06 2.99037E-04 8.70824E-14 8.97767E-14
 -1      4156 2.00011E+01-3.44817E-04 1.15548E-07 2.65427E-04 1.44289E-13 1.34926E-13
 -1      4157 2.00011E+01-3.58878E-04-2.15965E-06 1.57622E-04 1.57140E-13 1.86047E-13
 -1      4158 2.00013E+01-1.74143E-04-3.00994E-06 1.98058E-04 1.79190E-13-1.60733E-13
 -1      4159 1.97991E+01 1.96225E-01 9.60006E-05-1.22804E-01-5.79909E-14-4.50626E-14
 -1      4160 1.97671E+01 2.36217E-01 1.53183E-03-1.06945E-01-8.04431E-14 4.77344E-14
 -1      4161 1.97127E+01 2.60378E-01-1.87705E-03-1.47620E-01-1.30131E-14-5.05635E-14
 -1      4162 1.98529E+01 1.70237E-01-1.62904E-03-3.09008E-02 1.69193E-13 1.83044E-13
 -1      4163 1.98527E+01 1.65636E-01 5.23748E-04-6.56432E-02 2.31300E-14-5.64859E-14
 -1      4164 1.98816E+01 1.52238E-01 3.78189E-04-1.93979E-02 1.84691E-13 1.07670E-13
 -1      4165 1.94721E+01-2.23581E-01 1.40621E-02-1.95778E+00 1.79946E-13-3.41301E-14
 -1      4166 2.10106E+01-1.35519E+00 1.43470E-02-2.08152E+00 2.46637E-13-9.95575E-14
 -1      4167 1.95545E+01-6.81962E-02-1.57992E-02-1.28451E+00 2.89679E-13-4.36118E-14
 -1      4168 1.92933E+01 1.63818E-01 1.58936E-02-1.38158E+00 2.47190E-13-7.56766E-14
 -1      4169 1.92199E+01 4.87759E-02 3.85025E-04-1.64749E+00 2.36037E-13-9.13342E-14
 -1      4170 2.07158E+01-1.02238E+00 1.50293E-02-1.76933E+00 2.22599E-13-9.24603E-14
 -1      4171 2.00011E+01-3.74921E-04-4.02579E-08 7.77948E-05 1.84643E-13 1.20218E-13
 -1      4172 2.00011E+01-3.84254E-04-1.90291E-07-3.76506E-05 4.52204E-13 2.69608E-13
 -1      4173 2.00012E+01-3.26603E-04 1.11147E-06-5.46569E-05 6.56331E-13 1.26950E-13
 -1      4174 2.00012E+01-2.95379E-04 1.52694E-06 9.76274E-05 3.54645E-13-7.61062E-14
 -1      4175 1.99180E+01 1.18843E-01 1.29922E-04-2.51881E-03-5.76790E-14 8.87934E-14
 -1      4176 1.98981E+01 1.34106E-01-1.06330E-03-7.87512E-03 9.85730E-14 1.04935E-13
 -1      4177 1.99255E+01 1.08268E-01 5.11854E-04-1.24391E-02-2.42301E-14 6.07767E-14
 -1      4178 1.99523E+01-2.05593E-01 1.28358E-02-1.05969E+00 1.90208E-13-2.83058E-14
 -1      4179 1.98280E+01-8.77835E-02 2.88588E-03-9.14296E-01 2.10006E-13 7.24119E-14
 -1      4180 1.93398E+01 3.21048E-01-8.46983E-03-7.49694E-01 1.42067E-13-2.22716E-13
 -1      4181 1.95374E+01 1.20631E-01-7.20801E-03-9.01594E-01 2.10445E-13-1.12721E-13
 -1      4182 1.94610E+01 3.37650E-01 6.63580E-03-5.87531E-01 1.06370E-13-1.64809E-13
 -1      4183 1.99883E+01 3.23631E-02-6.03501E-05-4.50558E-05 2.53722E-14 1.75615E-13
 -1      4184 1.99846E+01 3.74162E-02-1.88640E-04-1.31274E-04 1.78219E-13 2.13061E-13
 -1      4185 1.98344E+01-6.29800E-03 9.89080E-03-7.34847E-01 1.31891E-13 4.43997E-14
 -1      4186 1.97659E+01 5.63516E-02-4.58159E-04-6.20928E-01 2.05660E-13 4.04853E-14
 -1      4187 1.98345E+01 1.14343E-01 3.88075E-03-3.11418E-01 2.87682E-14-1.00626E-13
 -1      4188 1.98236E+01 1.27668E-01-8.56515E-04-2.54007E-01-5.55066E-14-1.24168E-13
 -1      4189 1.98248E+01 1.53065E-01 1.94702E-03-2.00997E-01-4.37273E-14-8.54621E-14
 -1      4190 1.98289E+01 1.52825E-01-1.05513E-03-1.60015E-01-6.20687E-14-1.08902E-13
 -1      4191 1.98591E+01 1.45653E-01 1.68751E-03-1.22400E-01-6.39425E-14-1.05758E-13
 -1      4192 1.98657E+01 1.39148E-01-9.38679E-04-9.51608E-02-2.02242E-14-1.87907E-13
 -1      4193 1.98897E+01 1.29062E-01 9.09409E-04-7.19991E-02 5.23791E-14-1.09528E-13
 -1      4194 1.98981E+01 1.20086E-01-7.96819E-04-5.43923E-02 3.56975E-14-9.23028E-14
 -1      4195 1.99167E+01 1.09422E-01 4.60951E-04-4.06919E-02-9.13237E-15-3.99461E-14
 -1      4196 1.99251E+01 9.99333E-02-6.31310E-04-2.95649E-02 4.02557E-14-9.75969E-15
 -1      4197 1.99391E+01 8.98428E-02 1.97873E-04-2.18382E-02 3.90195E-15-9.43998E-14
 -1      4198 1.99465E+01 8.08654E-02-4.91753E-04-1.49480E-02-4.39584E-14-9.74628E-14
 -1      4199 1.99573E+01 7.14840E-02 4.77950E-05-1.07125E-02-1.78459E-14-1.73452E-13
 -1      4200 1.99634E+01 6.35228E-02-3.74203E-04-6.56580E-03-6.62419E-15-1.22804E-13
 -1      4201 1.99708E+01 5.59711E-02-3.35360E-05-4.71529E-03 9.47853E-14-6.13896E-14
 -1      4202 1.99757E+01 4.92311E-02-2.67056E-04-2.24889E-03 1.92173E-13 8.32856E-14
 -1      4203 1.99809E+01 4.29760E-02-5.74622E-05-1.56046E-03 1.57731E-13 1.48052E-13
 -1      4204 1.99910E+01 2.78864E-02-1.31092E-04 7.64018E-04-3.37746E-14 1.95879E-13
 -1      4205 1.99935E+01 2.38858E-02-5.34324E-05 5.73408E-04-5.23631E-14 1.43866E-13
 -1      4206 1.99954E+01 2.03565E-02-8.94581E-05 1.02060E-03 8.38035E-14 1.22798E-13
 -1      4207 1.99970E+01 1.72472E-02-4.28534E-05 7.32931E-04 1.14656E-14 8.10923E-14
 -1      4208 1.99983E+01 1.45186E-02-5.96855E-05 9.73651E-04 1.43434E-15-8.33561E-15
 -1      4209 1.99993E+01 1.21451E-02-3.19063E-05 6.81218E-04 5.57146E-14-1.95627E-13
 -1      4210 2.00001E+01 1.00758E-02-3.86358E-05 8.06767E-04-1.88552E-14-1.57701E-13
 -1      4211 2.00007E+01 8.29694E-03-2.21758E-05 5.51236E-04-5.32274E-14-2.11705E-13
 -1      4212 2.00012E+01 6.75839E-03-2.39436E-05 6.13962E-04-8.94565E-14-3.40373E-13
 -1      4213 2.00015E+01 5.45124E-03-1.42628E-05 4.09182E-04 2.13422E-14-3.51563E-13
 -1      4214 2.00018E+01 4.33159E-03-1.38535E-05 4.38375E-04 3.97137E-14-2.94413E-13
 -1      4215 2.00019E+01 3.39190E-03-8.23566E-06 2.84026E-04-4.48466E-14-2.69975E-13
 -1      4216 2.00020E+01 2.59658E-03-7.07253E-06 2.95679E-04-3.05443E-14-3.29375E-13
 -1      4217 2.00020E+01 1.93803E-03-3.90268E-06 1.85143E-04 1.32154E-13-3.22382E-13
 -1      4218 2.00019E+01 1.38893E-03-2.65229E-06 1.87794E-04 1.59786E-13-3.34837E-13
 -1      4219 2.00018E+01 9.41348E-04-9.71507E-07 1.12444E-04-2.86505E-15-3.88462E-13
 -1      4220 2.00018E+01 5.75170E-04 8.37367E-08 1.10637E-04 2.12506E-14-3.91916E-13
 -1      4221 2.00016E+01 2.82685E-04 8.72225E-07 6.19772E-05 5.88030E-14-4.05075E-13
 -1      4222 2.00015E+01 4.99418E-05 1.25290E-06 5.76118E-05-1.27445E-15-3.23040E-13
 -1      4223 2.04374E+01-7.79745E-01 1.30141E-02-1.62329E+00 1.53026E-13-1.58729E-13
 -1      4224 1.99973E+01-3.28442E-01 6.17256E-03-1.23913E+00 1.67601E-13-5.90655E-14
 -1      4225 1.98182E+01-4.61964E-01-1.95316E-02-1.75593E+00 1.95981E-13-1.88226E-13
 -1      4226 2.00014E+01-9.53052E-05 1.88323E-06 4.14459E-05 2.80572E-13-3.11625E-13
 -1      4227 1.97122E+01 2.53559E-01 2.06161E-03-2.06893E-01 3.21342E-14-1.04941E-13
 -1      4228 1.96438E+01 2.70457E-01-3.86105E-03-2.73187E-01 6.37716E-14-1.59982E-13
 -1      4229 2.00013E+01-2.11290E-04 1.18942E-06 2.59056E-05 5.56826E-13-4.69418E-14
 -1      4230 1.98941E+01 1.35453E-01 5.56888E-04-3.16213E-02 1.06977E-13 1.08413E-13
 -1      4231 1.96280E+01 1.86010E-01-1.38364E-03-5.76804E-01 1.45007E-13-8.48987E-14
 -1      4232 1.98244E+01 7.63296E-02 6.46243E-03-4.82088E-01 1.50679E-13 2.49708E-14
 -1      4233 1.97633E+01 1.94106E-01-1.06957E-03-2.17235E-01-3.12581E-14-1.28725E-13
 -1      4234 1.97897E+01 1.05652E-01-2.27385E-03-3.98611E-01 9.47819E-14-8.04165E-14
 -1      4235 2.01603E+01-4.87057E-01 1.23199E-02-1.39239E+00 1.75207E-13-1.48800E-13
 -1      4236 1.97299E+01 1.80458E-01-5.09665E-05-3.56530E-01 4.49810E-14-2.28734E-13
 -1      4237 1.95124E+01 3.03680E-01-6.75314E-03-4.58076E-01 9.80636E-14-1.95577E-13
 -1      4238 1.96071E+01 2.98520E-01 4.05800E-03-3.54468E-01 7.33703E-14-1.91065E-13
 -1      4239 2.00013E+01-2.33622E-04-1.27636E-06-5.08447E-05 6.45770E-13 2.17197E-14
 -3
    1PSTEP                         3           1           1          
  100CL  101 1.000000000        4239                     0    1           1
 -4  TOSTRAIN    6    1
 -5  EXX         1    4    1    1
 -5  EYY         1    4    2    2
 -5  EZZ         1    4    3    3
 -5  EXY         1    4    1    2
 -5  EYZ         1    4    2    3
 -5  EZX         1    4    3    1
 -1         1 3.35955E-04-1.03872E-04-8.67004E-05 7.82526E-07-3.24917E-19 6.37237E-18
 -1         2 4.10567E-05-1.25569E-04 2.38268E-05-1.67526E-06 1.16148E-17 2.67212E-19
 -1         3 9.52372E-05-2.85711E-05-2.85713E-05 5.06184E-11 4.97522E-18 3.69513E-18
 -1         4 9.52372E-05-2.85711E-05-2.85713E-05-4.35763E-11 1.33236E-18-4.27438E-19
 -1         5 1.47684E-04-2.15686E-05-4.48295E-05 3.76622E-05-3.72747E-19 2.39015E-17
 -1         6 1.47634E-04 2.59985E-10-4.47193E-05-5.45570E-05-1.85627E-18 1.47340E-17
 -1         7 9.12589E-05-4.64882E-07-3.94416E-05-3.01298E-05-2.35158E-19-2.63062E-18
 -1         8 8.59013E-05 1.10432E-07-3.66966E-05-2.11558E-05-1.43837E-19-6.49476E-18
 -1         9 8.39566E-05 7.35237E-08-3.58068E-05-1.62363E-05-6.67038E-20-7.82893E-18
 -1        10 8.32728E-05 1.37783E-08-3.54365E-05-1.19810E-05 2.07920E-20-8.00381E-18
 -1        11 8.28690E-05-2.50345E-08-3.52135E-05-7.85604E-06 4.82015E-20-7.62180E-18
 -1        12 8.22787E-05-4.20358E-08-3.49416E-05-3.85716E-06 9.88779E-20-7.12099E-18
 -1        13 8.12506E-05-3.82133E-08-3.45209E-05 1.73088E-08 1.28405E-19-6.52699E-18
 -1        14 7.97639E-05-1.25042E-08-3.39496E-05 3.43836E-06 1.68758E-19-5.99136E-18
 -1        15 7.80169E-05 3.31181E-08-3.33120E-05 6.09717E-06 1.84111E-19-5.46192E-18
 -1        16 7.64469E-05 8.99423E-08-3.27767E-05 7.76176E-06 2.16979E-19-4.93738E-18
 -1        17 7.56730E-05 1.42026E-07-3.25691E-05 8.43979E-06 2.27045E-19-4.25423E-18
 -1        18 7.62960E-05 1.67071E-07-3.28954E-05 8.52060E-06 2.48141E-19-3.34670E-18
 -1        19 7.87639E-05 1.52729E-07-3.39055E-05 8.79411E-06 3.21952E-19-1.88266E-18
 -1        20 8.31250E-05 9.75225E-08-3.56090E-05 1.03717E-05 3.56654E-19 4.81901E-19
 -1        21 8.92065E-05 3.84361E-09-3.79309E-05 1.46022E-05 3.31296E-19 4.49614E-18
 -1        22 9.82992E-05-5.53925E-07-4.10675E-05 2.39448E-05 2.29758E-20 1.13245E-17
 -1        23 1.13909E-04-3.84237E-05-3.56963E-05-4.59265E-06-1.32179E-18 8.71967E-18
 -1        24 9.26703E-05-2.76424E-05-2.89598E-05 3.85017E-07-3.26233E-19 3.57433E-18
 -1        25 8.77393E-05-2.64268E-05-2.64837E-05 3.48011E-07-1.61323E-19-8.37855E-19
 -1        26 8.47930E-05-2.55119E-05-2.53802E-05 1.34665E-07 1.92402E-20-3.74637E-18
 -1        27 8.22549E-05-2.47236E-05-2.46043E-05 2.56619E-08-1.17130E-19-5.83496E-18
 -1        28 7.95687E-05-2.38992E-05-2.38219E-05-5.27901E-08-5.59885E-20-7.11710E-18
 -1        29 7.67028E-05-2.30328E-05-2.29941E-05-1.01411E-07 1.73290E-20-8.28906E-18
 -1        30 7.39391E-05-2.22037E-05-2.22015E-05-1.14711E-07-1.38027E-20-9.13005E-18
 -1        31 7.17388E-05-2.15459E-05-2.15766E-05-8.92234E-08-1.09193E-19-1.03656E-17
 -1        32 7.05872E-05-2.12020E-05-2.12555E-05-3.02878E-08-1.53332E-19-1.13397E-17
 -1        33 7.08237E-05-2.12723E-05-2.13323E-05 4.62080E-08 9.63740E-20-1.20319E-17
 -1        34 7.25152E-05-2.17762E-05-2.18254E-05 1.18569E-07-6.87387E-20-1.24048E-17
 -1        35 7.54272E-05-2.26437E-05-2.26702E-05 1.67920E-07 1.00932E-19-1.26819E-17
 -1        36 7.91027E-05-2.37388E-05-2.37397E-05 1.85213E-07-8.06110E-20-1.25214E-17
 -1        37 8.30069E-05-2.49025E-05-2.48828E-05 1.72767E-07-1.51975E-19-1.27686E-17
 -1        38 8.66692E-05-2.59947E-05-2.59640E-05 1.40631E-07 2.59346E-20-1.23502E-17
 -1        39 8.97726E-05-2.69214E-05-2.68888E-05 1.00890E-07-3.69270E-20-1.24808E-17
 -1        40 9.21751E-05-2.76401E-05-2.76121E-05 6.32089E-08-2.85489E-20-1.24457E-17
 -1        41 9.38789E-05-2.81511E-05-2.81306E-05 3.30407E-08 1.04602E-19-1.21124E-17
 -1        42 9.49778E-05-2.84822E-05-2.84693E-05 1.20077E-08-9.51074E-20-1.27738E-17
 -1        43 9.56062E-05-2.86728E-05-2.86661E-05-7.46019E-10-1.43047E-19-1.27115E-17
 -1        44 9.59008E-05-2.87634E-05-2.87611E-05-7.17914E-09-1.46273E-19-1.26808E-17
 -1        45 9.59796E-05-2.87892E-05-2.87895E-05-9.39690E-09-3.14615E-19-1.30397E-17
 -1        46 9.59338E-05-2.87772E-05-2.87788E-05-9.16123E-09 2.97870E-19-1.32066E-17
 -1        47 9.58272E-05-2.87465E-05-2.87485E-05-7.73859E-09 2.33078E-19-1.04681E-17
 -1        48 9.57010E-05-2.87096E-05-2.87115E-05-5.93350E-09-4.17632E-19-9.63200E-18
 -1        49 9.55790E-05-2.86736E-05-2.86751E-05-4.19464E-09 5.19906E-19-1.03280E-17
 -1        50 9.54733E-05-2.86422E-05-2.86434E-05-2.72957E-09-4.81740E-20-1.07916E-17
 -1        51 9.53881E-05-2.86168E-05-2.86176E-05-1.59953E-09 6.68868E-20-1.16115E-17
 -1        52 9.53235E-05-2.85975E-05-2.85980E-05-7.87557E-10 8.18056E-20-1.23321E-17
 -1        53 9.52770E-05-2.85835E-05-2.85838E-05-2.42184E-10-1.30729E-19-1.42793E-17
 -1        54 9.52454E-05-2.85740E-05-2.85741E-05 9.71069E-11 1.57787E-21-1.36477E-17
 -1        55 9.52254E-05-2.85679E-05-2.85679E-05 2.86850E-10 2.98957E-19-1.18214E-17
 -1        56 9.52139E-05-2.85644E-05-2.85644E-05 3.74126E-10-1.45160E-19-8.04559E-18
 -1        57 9.52085E-05-2.85627E-05-2.85627E-05 3.95344E-10 5.25283E-19-7.17906E-18
 -1        58 9.52072E-05-2.85623E-05-2.85622E-05 3.77110E-10 7.99599E-20-6.98282E-18
 -1        59 9.52084E-05-2.85626E-05-2.85625E-05 3.37933E-10 7.00935E-20-6.92913E-18
 -1        60 9.52111E-05-2.85634E-05-2.85633E-05 2.90073E-10-2.39022E-19-5.28774E-18
 -1        61 9.52146E-05-2.85644E-05-2.85643E-05 2.41209E-10-6.33458E-20-4.64388E-18
 -1        62 9.52182E-05-2.85655E-05-2.85654E-05 1.95805E-10-1.01772E-18-8.35985E-18
 -1        63 9.52218E-05-2.85665E-05-2.85665E-05 1.56158E-10-3.05475E-19-1.27453E-17
 -1        64 9.52251E-05-2.85675E-05-2.85675E-05 1.23150E-10 7.46887E-19-1.13982E-17
 -1        65 9.52280E-05-2.85684E-05-2.85684E-05 9.67577E-11-4.99716E-19-9.90166E-18
 -1        66 9.52306E-05-2.85692E-05-2.85692E-05 7.63208E-11 3.03243E-19-8.98618E-18
 -1        67 9.52328E-05-2.85698E-05-2.85698E-05 6.05760E-11 6.44152E-19-5.30964E-18
 -1        68 9.52346E-05-2.85704E-05-2.85703E-05 4.72933E-11 2.10675E-19-6.35627E-19
 -1        69 9.52359E-05-2.85708E-05-2.85708E-05 3.21052E-11-8.62976E-20-9.15388E-19
 -1        70 9.52369E-05-2.85711E-05-2.85710E-05 3.06461E-12-3.53395E-19-3.47159E-18
 -1        71 9.52372E-05-2.85712E-05-2.85712E-05-3.80597E-11-2.20212E-20-3.08106E-18
 -1        72 1.12627E-04-3.37857E-05-3.73942E-05-2.35670E-06 1.32508E-19 2.33918E-17
 -1        73 1.09386E-04-3.26078E-05-3.40337E-05-3.35281E-07 9.96157E-20 2.02802E-17
 -1        74 1.13923E-04-3.41414E-05-3.46997E-05-1.66753E-07 1.58190E-19 1.74963E-17
 -1        75 1.24735E-04-3.73634E-05-3.79088E-05-3.75375E-07 4.63684E-20 1.59243E-17
 -1        76 1.41979E-04-4.24591E-05-4.30180E-05-9.02040E-07 1.27568E-19 1.51043E-17
 -1        77 1.64467E-04-4.92341E-05-4.90758E-05-1.76998E-06 6.40056E-20 1.54676E-17
 -1        78 1.85349E-04-5.58705E-05-5.36723E-05-2.26975E-06-2.04651E-19 1.92468E-17
 -1        79 1.87471E-04-5.72096E-05-5.31182E-05 5.50165E-07-2.47294E-19 2.43119E-17
 -1        80 1.58575E-04-4.81141E-05-4.68982E-05 5.82899E-06-3.77029E-19 2.83801E-17
 -1        81 1.09854E-04-3.12095E-05-3.92216E-05 9.13715E-06-1.32164E-19 2.88118E-17
 -1        82 7.58692E-05-1.84013E-05-3.47002E-05 4.16093E-06-6.17275E-20 2.58463E-17
 -1        83 8.55981E-05-2.13591E-05-3.64520E-05-4.00986E-06 1.13352E-18 1.68403E-17
 -1        84 1.35755E-04-3.89618E-05-4.40389E-05-9.03657E-06 5.44887E-19 5.74712E-18
 -1        85 1.83453E-04-5.57922E-05-5.23761E-05-5.51620E-06 3.56012E-19 4.99961E-19
 -1        86 1.95564E-04-5.96908E-05-5.57791E-05-3.78959E-07 1.10048E-19 3.77115E-19
 -1        87 1.79168E-04-5.41360E-05-5.27784E-05 1.49522E-06-1.69857E-19 2.45634E-18
 -1        88 1.55708E-04-4.67190E-05-4.69160E-05 1.44035E-06 2.01794E-19 2.79521E-18
 -1        89 1.35654E-04-4.06076E-05-4.11911E-05 9.66232E-07-1.12970E-19 5.30952E-18
 -1        90 1.21263E-04-3.63082E-05-3.67935E-05 5.70112E-07 1.48503E-19 5.40243E-18
 -1        91 1.11709E-04-3.34759E-05-3.37834E-05 3.18755E-07 6.25282E-20 4.63068E-18
 -1        92 1.05589E-04-3.16628E-05-3.18374E-05 1.74158E-07 1.42316E-20 3.75341E-18
 -1        93 1.01730E-04-3.05160E-05-3.06111E-05 9.41923E-08 4.01596E-22 5.27707E-18
 -1        94 9.93076E-05-2.97936E-05-2.98448E-05 5.06320E-08-2.18281E-19 5.70655E-18
 -1        95 9.77855E-05-2.93382E-05-2.93659E-05 2.70263E-08 2.46913E-19 5.02513E-18
 -1        96 9.68257E-05-2.90502E-05-2.90653E-05 1.42568E-08 1.09967E-19 1.92676E-18
 -1        97 9.62176E-05-2.88674E-05-2.88756E-05 7.35700E-09-6.02165E-19 3.38683E-18
 -1        98 9.58308E-05-2.87508E-05-2.87554E-05 3.63649E-09-5.40599E-21 3.72222E-18
 -1        99 9.55842E-05-2.86765E-05-2.86790E-05 1.63886E-09 7.55995E-20 2.33966E-18
 -1       100 9.54273E-05-2.86291E-05-2.86305E-05 5.75802E-10-1.34828E-19 4.66883E-18
 -1       101 9.53284E-05-2.85992E-05-2.85999E-05 2.49886E-11-1.64927E-19 6.09973E-18
 -1       102 9.52669E-05-2.85805E-05-2.85809E-05-1.53426E-10-2.19200E-19 2.69509E-18
 -1       103 9.52288E-05-2.85689E-05-2.85691E-05-4.43348E-10 5.35500E-20 1.40893E-18
 -1       104 9.52088E-05-2.85629E-05-2.85629E-05-4.37768E-10-1.15573E-18 7.77382E-18
 -1       105 9.51989E-05-2.85598E-05-2.85598E-05-4.35493E-10 1.06242E-19 9.90111E-18
 -1       106 9.51954E-05-2.85587E-05-2.85587E-05-4.10919E-10-5.57100E-19 6.56502E-18
 -1       107 9.51960E-05-2.85589E-05-2.85588E-05-3.73797E-10-3.18272E-19 7.93474E-18
 -1       108 9.51990E-05-2.85597E-05-2.85597E-05-3.31205E-10 8.73074E-19 6.18526E-18
 -1       109 9.52031E-05-2.85610E-05-2.85609E-05-2.87395E-10-1.63304E-19 2.78609E-19
 -1       110 9.52078E-05-2.85624E-05-2.85623E-05-2.45014E-10-9.84726E-19 5.26983E-19
 -1       111 9.52125E-05-2.85638E-05-2.85637E-05-2.05715E-10 9.07938E-19-7.66688E-19
 -1       112 9.52170E-05-2.85651E-05-2.85651E-05-1.70496E-10-1.40457E-19-2.61685E-18
 -1       113 9.52211E-05-2.85663E-05-2.85663E-05-1.39906E-10 3.59128E-19-4.04528E-18
 -1       114 9.52247E-05-2.85674E-05-2.85674E-05-1.14192E-10 1.12545E-19-3.30141E-18
 -1       115 9.52278E-05-2.85683E-05-2.85683E-05-9.33746E-11-1.63748E-19-4.59665E-18
 -1       116 9.52305E-05-2.85691E-05-2.85691E-05-7.72894E-11 4.99218E-19-3.79111E-18
 -1       117 9.52327E-05-2.85698E-05-2.85698E-05-6.55565E-11 4.03265E-20-5.60611E-18
 -1       118 9.52345E-05-2.85704E-05-2.85703E-05-5.70398E-11-5.06971E-20-2.51788E-18
 -1       119 9.52359E-05-2.85708E-05-2.85707E-05-4.91071E-11 6.89671E-19-5.76991E-18
 -1       120 9.52369E-05-2.85711E-05-2.85710E-05-3.10543E-11 3.29249E-19 2.42668E-18
 -1       121 9.52372E-05-2.85712E-05-2.85712E-05 1.97618E-11-1.79576E-18 9.45280E-18
 -1       122 9.52371E-05-2.85711E-05-2.85712E-05 4.05045E-11 9.35006E-18-8.00712E-19
 -1       123 9.52372E-05-2.85714E-05-2.85710E-05-1.28857E-11 9.07348E-18-1.78003E-18
 -1       124 9.52375E-05-2.85723E-05-2.85708E-05-4.76197E-11 3.17978E-18-1.08650E-18
 -1       125 9.52378E-05-2.85734E-05-2.85705E-05-5.60420E-11-4.09019E-20 2.16901E-18
 -1       126 9.52382E-05-2.85746E-05-2.85701E-05-5.32808E-11 2.08206E-18-7.18719E-19
 -1       127 9.52385E-05-2.85757E-05-2.85698E-05-4.32608E-11 2.23356E-18 1.08129E-18
 -1       128 9.52387E-05-2.85765E-05-2.85696E-05-2.76455E-11-7.63473E-19-5.30710E-19
 -1       129 9.52389E-05-2.85769E-05-2.85694E-05-9.30424E-12-1.01067E-17-3.82914E-19
 -1       130 9.52389E-05-2.85769E-05-2.85694E-05 9.80369E-12-1.07985E-17 1.13930E-18
 -1       131 9.52387E-05-2.85765E-05-2.85696E-05 2.78667E-11-5.61861E-18 2.49223E-19
 -1       132 9.52385E-05-2.85757E-05-2.85698E-05 4.35269E-11-6.25048E-18-1.28167E-18
 -1       133 9.52382E-05-2.85746E-05-2.85701E-05 5.30083E-11-5.23920E-18 1.79640E-18
 -1       134 9.52378E-05-2.85734E-05-2.85705E-05 5.54894E-11-2.12798E-18 2.05132E-19
 -1       135 9.52375E-05-2.85723E-05-2.85708E-05 4.94721E-11-2.26114E-18 1.73783E-18
 -1       136 9.52372E-05-2.85714E-05-2.85710E-05 2.14384E-11-9.86637E-20 5.97084E-20
 -1       137 9.52371E-05-2.85711E-05-2.85712E-05-7.34941E-11 9.04706E-19-7.73362E-19
 -1       138 3.41517E-05-1.18026E-04 2.29617E-05-3.32321E-05 2.08396E-17 4.53210E-18
 -1       139 1.07454E-05-6.82231E-05 1.25200E-05-4.25020E-05 2.71749E-17 1.24790E-17
 -1       140 5.38119E-06-1.06866E-05-7.15606E-06-6.16937E-06 2.50226E-17 1.90964E-17
 -1       141 5.17714E-05 1.65412E-05-3.29249E-05 5.94065E-05 1.89532E-17 2.23210E-17
 -1       142 1.56034E-04-8.82131E-06-5.79299E-05 1.11332E-04 1.10220E-17 1.94623E-17
 -1       143 3.01012E-04-7.21654E-05-8.15176E-05 1.13088E-04 2.87356E-18 7.45135E-18
 -1       144 4.01062E-04-1.24427E-04-9.41238E-05 3.86599E-05-1.01803E-19-9.29153E-18
 -1       145 3.87347E-04-1.16100E-04-9.27310E-05-6.16971E-05 3.44592E-18-2.38618E-17
 -1       146 2.69718E-04-5.60987E-05-7.72654E-05-1.20884E-04 1.10864E-17-3.18247E-17
 -1       147 1.25060E-04 4.56577E-06-5.26952E-05-1.06488E-04 1.88842E-17-3.01620E-17
 -1       148 3.43609E-05 1.70830E-05-2.71377E-05-4.50850E-05 2.30029E-17-2.42472E-17
 -1       149 3.03370E-06-1.63595E-05-4.09826E-06 1.41611E-05 1.96232E-17-1.45406E-17
 -1       150 1.39521E-05-7.38458E-05 1.34537E-05 4.21892E-05 9.75443E-18-4.34062E-18
 -1       151 3.58359E-05-1.19998E-04 2.30438E-05 2.93823E-05-3.53901E-18 1.44624E-19
 -1       152 4.00992E-05-1.22626E-04 2.30588E-05-3.79110E-06-1.78830E-17-9.37507E-19
 -1       153 2.26167E-05-7.87023E-05 1.39769E-05-2.43865E-05-2.73537E-17-7.20333E-18
 -1       154 5.88693E-06-1.53768E-05-2.37999E-06-5.89095E-06-2.97622E-17-1.51854E-17
 -1       155 2.35676E-05 3.01818E-05-2.47058E-05 4.95061E-05-2.61653E-17-2.14219E-17
 -1       156 9.05009E-05 2.69801E-05-4.68881E-05 1.05433E-04-1.69961E-17-2.13821E-17
 -1       157 1.97583E-04-2.10197E-05-6.73966E-05 1.24282E-04-7.81494E-18-1.46151E-17
 -1       158 2.97396E-04-7.89614E-05-8.19444E-05 8.30716E-05-1.46476E-18-4.66546E-18
 -1       159 3.04650E-04-8.33192E-05-8.29754E-05-7.85340E-05-3.14211E-18 1.52129E-17
 -1       160 2.23426E-04-3.43871E-05-7.17421E-05-1.23293E-04-9.55188E-18 2.11466E-17
 -1       161 1.28049E-04 1.46890E-05-5.56365E-05-1.21869E-04-1.59831E-17 2.36915E-17
 -1       162 5.01546E-05 3.68988E-05-3.61857E-05-8.09893E-05-2.03584E-17 2.08688E-17
 -1       163 1.10748E-05 1.92049E-05-1.63097E-05-2.70184E-05-1.90388E-17 1.36732E-17
 -1       164 8.89318E-06-3.37907E-05 3.14751E-06 1.54880E-05-1.30485E-17 5.38268E-18
 -1       165 2.78023E-05-9.13704E-05 1.66916E-05 2.18846E-05-8.94890E-19 8.71015E-19
 -1       166 9.55426E-05-1.24148E-05-3.58457E-05-2.34315E-05-2.94763E-18-3.97756E-18
 -1       167 9.05489E-05-9.00548E-06-3.51230E-05-1.83497E-05-1.94951E-18-6.01870E-18
 -1       168 8.86915E-05-7.66691E-06-3.48477E-05-1.40662E-05-8.84046E-19-6.59567E-18
 -1       169 8.79971E-05-7.23461E-06-3.47078E-05-1.00011E-05-1.66685E-20-6.59967E-18
 -1       170 8.74333E-05-7.02252E-06-3.45416E-05-6.01329E-06 7.04095E-19-6.15039E-18
 -1       171 8.64088E-05-6.66422E-06-3.42466E-05-2.02488E-06 1.27915E-18-5.70840E-18
 -1       172 8.46462E-05-5.94048E-06-3.37942E-05 1.72244E-06 1.80777E-18-5.15859E-18
 -1       173 8.21569E-05-4.75652E-06-3.32291E-05 4.93902E-06 2.27615E-18-4.76432E-18
 -1       174 7.93312E-05-3.21752E-06-3.26741E-05 7.30412E-06 2.65019E-18-4.31013E-18
 -1       175 7.69693E-05-1.68962E-06-3.23165E-05 8.61564E-06 2.99935E-18-3.84844E-18
 -1       176 7.61404E-05-7.74673E-07-3.23585E-05 8.98149E-06 3.30052E-18-3.10544E-18
 -1       177 7.78401E-05-1.10116E-06-3.29610E-05 8.94475E-06 3.61461E-18-2.04727E-18
 -1       178 8.27248E-05-3.22866E-06-3.41675E-05 9.45016E-06 3.74322E-18-3.48620E-19
 -1       179 9.08640E-05-7.53058E-06-3.58461E-05 1.16129E-05 3.55599E-18 2.35234E-18
 -1       180 1.02835E-04-1.53537E-05-3.76365E-05 1.59920E-05 2.75797E-18 6.80271E-18
 -1       181 1.15629E-04-2.95158E-05-3.80403E-05 1.42218E-05 1.48405E-18 1.22395E-17
 -1       182 1.03824E-04-2.74343E-05-3.27445E-05-1.30614E-05-2.88211E-18-2.01435E-19
 -1       183 9.67918E-05-2.83291E-05-2.93832E-05-6.01099E-06-2.39595E-18-1.18289E-18
 -1       184 9.20550E-05-2.73885E-05-2.76713E-05-3.62753E-06-1.68198E-18-2.11807E-18
 -1       185 8.89453E-05-2.66928E-05-2.66478E-05-2.97108E-06-1.22431E-18-3.05436E-18
 -1       186 8.63447E-05-2.59687E-05-2.58590E-05-2.93279E-06-8.19894E-19-3.59159E-18
 -1       187 8.39355E-05-2.52041E-05-2.51611E-05-2.98526E-06-8.27990E-19-4.01559E-18
 -1       188 8.16955E-05-2.44249E-05-2.45364E-05-2.80536E-06-5.95147E-19-4.47476E-18
 -1       189 7.98070E-05-2.37216E-05-2.40276E-05-2.20479E-06-6.66530E-19-4.71263E-18
 -1       190 7.85490E-05-2.32239E-05-2.37007E-05-1.15130E-06-5.95828E-19-4.95380E-18
 -1       191 7.81775E-05-2.30528E-05-2.36144E-05 2.19977E-07-4.61755E-19-5.42327E-18
 -1       192 7.88144E-05-2.32686E-05-2.37956E-05 1.64896E-06-3.49368E-19-5.88378E-18
 -1       193 8.03887E-05-2.38419E-05-2.42264E-05 2.84604E-06-1.61130E-19-5.99166E-18
 -1       194 8.26529E-05-2.46643E-05-2.48471E-05 3.59753E-06-4.07229E-20-5.99842E-18
 -1       195 8.52616E-05-2.55891E-05-2.55720E-05 3.82874E-06-1.40078E-19-5.95560E-18
 -1       196 8.78701E-05-2.64799E-05-2.63112E-05 3.60201E-06-3.94354E-20-5.35325E-18
 -1       197 9.02121E-05-2.72425E-05-2.69905E-05 3.06531E-06-1.44236E-19-5.77285E-18
 -1       198 9.21325E-05-2.78337E-05-2.75616E-05 2.38686E-06 4.71923E-20-5.66598E-18
 -1       199 9.35826E-05-2.82521E-05-2.80043E-05 1.70621E-06-2.01945E-19-6.02513E-18
 -1       200 9.45909E-05-2.85212E-05-2.83208E-05 1.11282E-06-8.33274E-19-7.24571E-18
 -1       201 9.52298E-05-2.86749E-05-2.85280E-05 6.47112E-07-2.30883E-19-7.10901E-18
 -1       202 9.55870E-05-2.87474E-05-2.86490E-05 3.13266E-07 2.14755E-19-6.28786E-18
 -1       203 9.57465E-05-2.87673E-05-2.87079E-05 9.44845E-08 9.85946E-20-5.95833E-18
 -1       204 9.57789E-05-2.87567E-05-2.87255E-05-3.45812E-08 8.84578E-20-5.21727E-18
 -1       205 9.57381E-05-2.87308E-05-2.87184E-05-9.97441E-08 1.24699E-18-4.83341E-18
 -1       206 9.56617E-05-2.86997E-05-2.86985E-05-1.23108E-07 4.46839E-19-4.56439E-18
 -1       207 9.55743E-05-2.86690E-05-2.86739E-05-1.21628E-07-2.66180E-19-4.23634E-18
 -1       208 9.54903E-05-2.86418E-05-2.86493E-05-1.07235E-07-3.41001E-19-4.49406E-18
 -1       209 9.54170E-05-2.86194E-05-2.86274E-05-8.76919E-08-3.95113E-19-4.17169E-18
 -1       210 9.53572E-05-2.86019E-05-2.86092E-05-6.76268E-08-6.38860E-19-4.59648E-18
 -1       211 9.53109E-05-2.85888E-05-2.85950E-05-4.94956E-08-1.38336E-18-5.78469E-18
 -1       212 9.52768E-05-2.85795E-05-2.85844E-05-3.43506E-08 6.18130E-19-4.98618E-18
 -1       213 9.52529E-05-2.85732E-05-2.85769E-05-2.24065E-08 8.36310E-19-4.61499E-18
 -1       214 9.52371E-05-2.85692E-05-2.85719E-05-1.34263E-08 2.21954E-18-4.68167E-18
 -1       215 9.52274E-05-2.85669E-05-2.85687E-05-6.96930E-09 5.12081E-19-3.36448E-18
 -1       216 9.52221E-05-2.85657E-05-2.85669E-05-2.53829E-09 2.67631E-19-4.33732E-18
 -1       217 9.52198E-05-2.85654E-05-2.85661E-05 3.39133E-10 5.63935E-19-3.75278E-18
 -1       218 9.52197E-05-2.85656E-05-2.85660E-05 2.07283E-09 9.07707E-19-3.22504E-18
 -1       219 9.52207E-05-2.85661E-05-2.85663E-05 2.99758E-09-8.97614E-19-3.68379E-18
 -1       220 9.52225E-05-2.85667E-05-2.85668E-05 3.37456E-09-2.49972E-18-5.20569E-18
 -1       221 9.52247E-05-2.85674E-05-2.85674E-05 3.39961E-09-1.95370E-18-5.47144E-18
 -1       222 9.52268E-05-2.85681E-05-2.85680E-05 3.21375E-09-3.77675E-19-4.87591E-18
 -1       223 9.52290E-05-2.85688E-05-2.85686E-05 2.91367E-09 1.78334E-18-5.54250E-18
 -1       224 9.52309E-05-2.85694E-05-2.85692E-05 2.56075E-09 1.61212E-18-2.00015E-18
 -1       225 9.52326E-05-2.85699E-05-2.85697E-05 2.18808E-09 2.83460E-18-3.19322E-19
 -1       226 9.52341E-05-2.85703E-05-2.85702E-05 1.80553E-09 2.26969E-18-3.73638E-19
 -1       227 9.52352E-05-2.85707E-05-2.85705E-05 1.40326E-09-6.50248E-20-1.88564E-18
 -1       228 9.52362E-05-2.85710E-05-2.85708E-05 9.58201E-10-6.75614E-19-1.30062E-18
 -1       229 9.52368E-05-2.85712E-05-2.85710E-05 4.59248E-10 5.02550E-20-3.08225E-19
 -1       230 1.12539E-04-3.21809E-05-3.45873E-05 1.92473E-06 1.84913E-18 1.06122E-17
 -1       231 1.12590E-04-3.25512E-05-3.42809E-05-4.66709E-06 1.47431E-18 9.08219E-18
 -1       232 1.17594E-04-3.40077E-05-3.58213E-05-9.93886E-06 7.71230E-19 7.79520E-18
 -1       233 1.26640E-04-3.67379E-05-3.85508E-05-1.50278E-05 2.79571E-19 7.28047E-18
 -1       234 1.38986E-04-4.12975E-05-4.17857E-05-1.83956E-05-9.56883E-19 7.87214E-18
 -1       235 1.52823E-04-4.83739E-05-4.43746E-05-1.51186E-05-2.36071E-18 9.56627E-18
 -1       236 1.64486E-04-5.66147E-05-4.58228E-05 2.26126E-06-2.70579E-18 1.17238E-17
 -1       237 1.67851E-04-5.82405E-05-4.71739E-05 2.59089E-05-1.54414E-18 1.30608E-17
 -1       238 1.62191E-04-4.74907E-05-5.04025E-05 3.74645E-05 9.94628E-19 1.25677E-17
 -1       239 1.53838E-04-3.21222E-05-5.42356E-05 1.74960E-05 4.32199E-18 9.68171E-18
 -1       240 1.55456E-04-3.16012E-05-5.46400E-05-1.93082E-05 7.65675E-18 5.99149E-18
 -1       241 1.67724E-04-4.97810E-05-5.11619E-05-3.83399E-05 5.93654E-18 9.90400E-19
 -1       242 1.72379E-04-6.05657E-05-4.77453E-05-2.29794E-05 2.18864E-18-2.00209E-18
 -1       243 1.64389E-04-5.55660E-05-4.62406E-05 3.80807E-06-7.35807E-19-1.73141E-18
 -1       244 1.50035E-04-4.64670E-05-4.42649E-05 1.70292E-05-4.03002E-19-1.37084E-18
 -1       245 1.35965E-04-4.00739E-05-4.11349E-05 1.81377E-05-7.01663E-19-8.25725E-19
 -1       246 1.24171E-04-3.61035E-05-3.77922E-05 1.44778E-05-1.33799E-18 5.19099E-19
 -1       247 1.15153E-04-3.35868E-05-3.49741E-05 1.02396E-05 2.66981E-19 1.73517E-18
 -1       248 1.08665E-04-3.19298E-05-3.28806E-05 6.83460E-06 9.98794E-19 4.73649E-19
 -1       249 1.04176E-04-3.08181E-05-3.14256E-05 4.43586E-06 4.52091E-19 2.16460E-19
 -1       250 1.01145E-04-3.00697E-05-3.04477E-05 2.84350E-06-1.18484E-18-5.50058E-19
 -1       251 9.91256E-05-2.95670E-05-2.98004E-05 1.81567E-06-5.85725E-19 1.14356E-18
 -1       252 9.77883E-05-2.92304E-05-2.93746E-05 1.16027E-06 1.56404E-18 8.31606E-20
 -1       253 9.69047E-05-2.90052E-05-2.90948E-05 7.43787E-07-4.22614E-19-6.83322E-19
 -1       254 9.63205E-05-2.88545E-05-2.89106E-05 4.78652E-07-1.14327E-18 1.61603E-18
 -1       255 9.59336E-05-2.87537E-05-2.87892E-05 3.09009E-07-6.11627E-19 2.81176E-18
 -1       256 9.56773E-05-2.86863E-05-2.87089E-05 1.99697E-07 1.37110E-18 3.68590E-18
 -1       257 9.55075E-05-2.86414E-05-2.86559E-05 1.28701E-07-1.17439E-18 2.70231E-18
 -1       258 9.53956E-05-2.86116E-05-2.86211E-05 8.22275E-08-3.84372E-19 2.73105E-18
 -1       259 9.53223E-05-2.85921E-05-2.85982E-05 5.16427E-08 1.28495E-18 2.95643E-18
 -1       260 9.52734E-05-2.85791E-05-2.85830E-05 3.06000E-08-2.63698E-19 2.11512E-18
 -1       261 9.52447E-05-2.85715E-05-2.85740E-05 1.75019E-08-3.12546E-18 2.95755E-18
 -1       262 9.52276E-05-2.85670E-05-2.85687E-05 8.93283E-09 4.09546E-19 4.29011E-18
 -1       263 9.52182E-05-2.85647E-05-2.85657E-05 3.41260E-09 4.52201E-19 3.66397E-18
 -1       264 9.52139E-05-2.85637E-05-2.85643E-05-3.74114E-11-1.25272E-19 2.07841E-18
 -1       265 9.52128E-05-2.85636E-05-2.85639E-05-2.08384E-09 2.11303E-18 1.72607E-18
 -1       266 9.52138E-05-2.85640E-05-2.85642E-05-3.18667E-09 1.26450E-18 9.37460E-19
 -1       267 9.52159E-05-2.85648E-05-2.85648E-05-3.66634E-09 1.59505E-20-1.01700E-18
 -1       268 9.52185E-05-2.85656E-05-2.85655E-05-3.74704E-09 2.17389E-18-3.10909E-18
 -1       269 9.52214E-05-2.85665E-05-2.85664E-05-3.58505E-09 8.98997E-19-4.05979E-18
 -1       270 9.52242E-05-2.85673E-05-2.85672E-05-3.28782E-09 2.93370E-19-5.20345E-18
 -1       271 9.52268E-05-2.85681E-05-2.85680E-05-2.92708E-09-1.67921E-19-2.72071E-18
 -1       272 9.52292E-05-2.85688E-05-2.85687E-05-2.54781E-09-2.03955E-21-1.22163E-18
 -1       273 9.52312E-05-2.85694E-05-2.85693E-05-2.17430E-09-6.92422E-19-5.74310E-19
 -1       274 9.52330E-05-2.85700E-05-2.85699E-05-1.81410E-09 3.09745E-19-8.75366E-19
 -1       275 9.52344E-05-2.85704E-05-2.85703E-05-1.45984E-09-1.96259E-18-7.35610E-19
 -1       276 9.52356E-05-2.85708E-05-2.85706E-05-1.09139E-09 2.08373E-19 2.26677E-18
 -1       277 9.52364E-05-2.85710E-05-2.85709E-05-6.77586E-10-3.58459E-18 2.23793E-18
 -1       278 9.52370E-05-2.85712E-05-2.85710E-05-2.34429E-10-1.79810E-18 6.22800E-19
 -1       279 9.52371E-05-2.85715E-05-2.85710E-05-4.86070E-10-9.27484E-19-5.08967E-20
 -1       280 9.52373E-05-2.85721E-05-2.85708E-05-9.08750E-10 1.01602E-18-2.37446E-18
 -1       281 9.52376E-05-2.85729E-05-2.85706E-05-1.15944E-09 2.46270E-18-1.35455E-18
 -1       282 9.52379E-05-2.85737E-05-2.85704E-05-1.20827E-09-4.93526E-19 5.45836E-19
 -1       283 9.52382E-05-2.85745E-05-2.85701E-05-1.07676E-09-5.70340E-19-5.90304E-19
 -1       284 9.52385E-05-2.85752E-05-2.85700E-05-7.97884E-10-1.71962E-18-2.32345E-18
 -1       285 9.52386E-05-2.85756E-05-2.85698E-05-4.19528E-10-1.20287E-18-5.07043E-18
 -1       286 9.52387E-05-2.85758E-05-2.85698E-05 7.75302E-12-2.32868E-18-6.32065E-19
 -1       287 9.52386E-05-2.85756E-05-2.85698E-05 4.32938E-10-1.52046E-18 2.05566E-18
 -1       288 9.52385E-05-2.85752E-05-2.85700E-05 8.05879E-10-2.28065E-18-5.09767E-19
 -1       289 9.52382E-05-2.85745E-05-2.85701E-05 1.07469E-09-8.16183E-19 1.86871E-18
 -1       290 9.52379E-05-2.85737E-05-2.85704E-05 1.20406E-09 8.22573E-19 1.30740E-18
 -1       291 9.52376E-05-2.85729E-05-2.85706E-05 1.15125E-09 2.04079E-19-1.78834E-19
 -1       292 9.52373E-05-2.85721E-05-2.85708E-05 8.89424E-10-3.68642E-19 2.57075E-18
 -1       293 9.52370E-05-2.85716E-05-2.85709E-05 7.64144E-10-9.10193E-19 3.03105E-19
 -1       294 1.01457E-05-5.41119E-05 1.53154E-05-5.74675E-06 5.83626E-18 5.17177E-18
 -1       295 2.05151E-05-5.42443E-05 1.06049E-05 6.09947E-06 9.01222E-18 7.34378E-18
 -1       296 5.44107E-05-5.05939E-05-4.29824E-06 2.61136E-05 8.67277E-18 5.72031E-18
 -1       297 1.00592E-04-5.16436E-05-2.31223E-05 3.19585E-05 9.33642E-18 7.30524E-18
 -1       298 1.59744E-04-5.54572E-05-4.44987E-05 3.14731E-05 8.74985E-18 6.75763E-18
 -1       299 2.12834E-04-6.01929E-05-6.28626E-05 6.37518E-06 8.99423E-18 2.76429E-18
 -1       300 2.50603E-04-5.29959E-05-7.82690E-05 3.86826E-06 8.52475E-18-6.13675E-19
 -1       301 2.48503E-04-4.54863E-05-8.06548E-05-4.13047E-07 7.13858E-18-2.92634E-18
 -1       302 2.36462E-04-5.12488E-05-7.43985E-05-9.10665E-07 6.02706E-18-5.21751E-18
 -1       303 2.05598E-04-5.77058E-05-6.04247E-05-2.84582E-05 6.79183E-18-1.07107E-17
 -1       304 1.44273E-04-5.23636E-05-3.99417E-05-3.59580E-05 7.29909E-18-1.08903E-17
 -1       305 8.61421E-05-4.76003E-05-1.90525E-05-3.23085E-05 6.27440E-18-1.06813E-17
 -1       306 4.35844E-05-4.91248E-05-1.20803E-06-1.99988E-05 4.02404E-18-9.70260E-18
 -1       307 1.91897E-05-5.43057E-05 1.10710E-05-5.70167E-06 2.89791E-19-6.98760E-18
 -1       308 1.00599E-05-5.34804E-05 1.50534E-05 6.20078E-06-3.96446E-18-6.47853E-18
 -1       309 1.58661E-05-5.15274E-05 1.19143E-05 1.83141E-05-8.56054E-18-6.23384E-18
 -1       310 3.46648E-05-4.08825E-05 4.81057E-07 3.38033E-05-1.04458E-17-6.86553E-18
 -1       311 7.26869E-05-3.64285E-05-1.64459E-05 4.81068E-05-9.80504E-18-6.69357E-18
 -1       312 1.09928E-04-2.68553E-05-3.53486E-05 5.51576E-05-1.15311E-17-7.60381E-18
 -1       313 1.59566E-04-3.12714E-05-5.35506E-05 4.91742E-05-9.06918E-18-5.74564E-18
 -1       314 1.94293E-04-3.15442E-05-6.77811E-05 2.84770E-05-7.32234E-18-3.73033E-18
 -1       315 2.23973E-04-3.63506E-05-7.71574E-05 1.25535E-05-5.83045E-18-2.02451E-18
 -1       316 2.29273E-04-3.88843E-05-7.79570E-05-1.40070E-05-4.87912E-18 1.96152E-18
 -1       317 2.02865E-04-3.23245E-05-7.04987E-05-3.22631E-05-5.64685E-18 3.46860E-18
 -1       318 1.73304E-04-2.95152E-05-5.94694E-05-5.28325E-05-6.04782E-18 6.42877E-18
 -1       319 1.31453E-04-2.63824E-05-4.40148E-05-5.73754E-05-6.22887E-18 7.36516E-18
 -1       320 9.01075E-05-2.79698E-05-2.69158E-05-5.27341E-05-5.23593E-18 8.17090E-18
 -1       321 5.75018E-05-3.66389E-05-1.02563E-05-4.46232E-05-2.70881E-18 7.01783E-18
 -1       322 2.80071E-05-4.44316E-05 4.43625E-06-2.87973E-05-3.88365E-19 6.93040E-18
 -1       323 1.40976E-05-5.31859E-05 1.33243E-05-1.69380E-05 2.68446E-18 5.66527E-18
 -1       324 9.38710E-05-1.60143E-05-3.34374E-05-1.44821E-05-1.84543E-18-4.59451E-18
 -1       325 9.67634E-05-1.98165E-05-3.30509E-05-1.61663E-05-2.80649E-18-3.71157E-18
 -1       326 9.22450E-05-1.38613E-05-3.36599E-05-7.75413E-06 2.68715E-19-4.79013E-18
 -1       327 9.14623E-05-1.33300E-05-3.35468E-05-3.73793E-06 1.11638E-18-4.56930E-18
 -1       328 8.98872E-05-1.24371E-05-3.32485E-05 4.21068E-07 1.89273E-18-4.13175E-18
 -1       329 8.72405E-05-1.08502E-05-3.27870E-05 4.38365E-06 2.59878E-18-3.74953E-18
 -1       330 8.36477E-05-8.50038E-06-3.22460E-05 7.65168E-06 3.18116E-18-3.43964E-18
 -1       331 7.98024E-05-5.73514E-06-3.17750E-05 9.66766E-06 3.57847E-18-3.18380E-18
 -1       332 7.70147E-05-3.42042E-06-3.15673E-05 1.00894E-05 4.04252E-18-2.61996E-18
 -1       333 7.67545E-05-2.63346E-06-3.17963E-05 9.09412E-06 4.38355E-18-1.85744E-18
 -1       334 8.04188E-05-4.55362E-06-3.25567E-05 7.45337E-06 4.34034E-18-8.06954E-19
 -1       335 8.84293E-05-9.86340E-06-3.37289E-05 6.42747E-06 4.13867E-18 9.23779E-19
 -1       336 1.00017E-04-1.87406E-05-3.48973E-05 6.23669E-06 3.48408E-18 3.86007E-18
 -1       337 1.07658E-04-2.61032E-05-3.49930E-05 4.33644E-06 2.75147E-18 6.44937E-18
 -1       338 1.07381E-04-2.80492E-05-3.39418E-05-5.04918E-06 2.22018E-18 5.22088E-18
 -1       339 9.68397E-05-2.68007E-05-2.99794E-05-8.90233E-06-2.20360E-18-2.77119E-18
 -1       340 9.45618E-05-2.76734E-05-2.86466E-05-6.46132E-06-1.79784E-18-2.72885E-18
 -1       341 9.24512E-05-2.76598E-05-2.77573E-05-5.64822E-06-1.24121E-18-2.70223E-18
 -1       342 9.04292E-05-2.71596E-05-2.71107E-05-5.44502E-06-9.58579E-19-2.79609E-18
 -1       343 8.84533E-05-2.63261E-05-2.66215E-05-5.19924E-06-8.28937E-19-2.76223E-18
 -1       344 8.66096E-05-2.53214E-05-2.62598E-05-4.45954E-06-8.55578E-19-2.94068E-18
 -1       345 8.51185E-05-2.43808E-05-2.60213E-05-3.00616E-06-6.87817E-19-3.15658E-18
 -1       346 8.42569E-05-2.37742E-05-2.59102E-05-9.04004E-07-7.86554E-19-3.22403E-18
 -1       347 8.42310E-05-2.37054E-05-2.59283E-05 1.51173E-06-6.79148E-19-3.44632E-18
 -1       348 8.50672E-05-2.42159E-05-2.60694E-05 3.75910E-06-3.60522E-19-3.78997E-18
 -1       349 8.65855E-05-2.51650E-05-2.63163E-05 5.40025E-06-1.82364E-19-4.03848E-18
 -1       350 8.84719E-05-2.63021E-05-2.66412E-05 6.19739E-06 3.86030E-19-3.38242E-18
 -1       351 9.03950E-05-2.73762E-05-2.70087E-05 6.16064E-06-1.11387E-19-3.48086E-18
 -1       352 9.21035E-05-2.82201E-05-2.73821E-05 5.48906E-06-2.71067E-20-3.40602E-18
 -1       353 9.34649E-05-2.87757E-05-2.77291E-05 4.46003E-06 2.47442E-19-3.15750E-18
 -1       354 9.44519E-05-2.90690E-05-2.80270E-05 3.33077E-06-6.41686E-19-3.52843E-18
 -1       355 9.51040E-05-2.91674E-05-2.82640E-05 2.28490E-06-1.10035E-18-3.62918E-18
 -1       356 9.54909E-05-2.91448E-05-2.84386E-05 1.42193E-06-4.57009E-19-3.07646E-18
 -1       357 9.56860E-05-2.90616E-05-2.85568E-05 7.72837E-07 4.31547E-19-3.16184E-18
 -1       358 9.57532E-05-2.89588E-05-2.86286E-05 3.24385E-07 5.20778E-19-3.05842E-18
 -1       359 9.57422E-05-2.88599E-05-2.86654E-05 4.13579E-08 6.61825E-19-2.64785E-18
 -1       360 9.56886E-05-2.87758E-05-2.86778E-05-1.17628E-07 8.26169E-19-2.92803E-18
 -1       361 9.56165E-05-2.87097E-05-2.86748E-05-1.90936E-07 7.63678E-19-2.79817E-18
 -1       362 9.55409E-05-2.86605E-05-2.86632E-05-2.09794E-07-1.61366E-21-3.12877E-18
 -1       363 9.54703E-05-2.86255E-05-2.86477E-05-1.97393E-07 5.37155E-19-2.75723E-18
 -1       364 9.54091E-05-2.86016E-05-2.86316E-05-1.69671E-07 3.66184E-19-1.53932E-18
 -1       365 9.53586E-05-2.85859E-05-2.86167E-05-1.36786E-07-1.37338E-18-1.77029E-18
 -1       366 9.53188E-05-2.85760E-05-2.86039E-05-1.04656E-07-1.86393E-18-2.04636E-18
 -1       367 9.52885E-05-2.85701E-05-2.85935E-05-7.63057E-08 9.22792E-20-1.68110E-18
 -1       368 9.52663E-05-2.85669E-05-2.85854E-05-5.29165E-08 7.25934E-19-9.03456E-19
 -1       369 9.52507E-05-2.85654E-05-2.85793E-05-3.45847E-08 2.28805E-18-3.56846E-19
 -1       370 9.52402E-05-2.85649E-05-2.85750E-05-2.08340E-08 1.92865E-18-7.16458E-19
 -1       371 9.52335E-05-2.85652E-05-2.85721E-05-1.09419E-08 2.10080E-19-2.69667E-19
 -1       372 9.52297E-05-2.85657E-05-2.85703E-05-4.13404E-09 1.95252E-18 2.90571E-20
 -1       373 9.52279E-05-2.85664E-05-2.85692E-05 3.11380E-10 8.24172E-20-8.58516E-19
 -1       374 9.52274E-05-2.85671E-05-2.85687E-05 3.01513E-09-7.62747E-19-2.14760E-18
 -1       375 9.52278E-05-2.85679E-05-2.85685E-05 4.48262E-09-2.17864E-18-2.46059E-18
 -1       376 9.52286E-05-2.85685E-05-2.85686E-05 5.10786E-09-1.60376E-18-7.09447E-19
 -1       377 9.52298E-05-2.85691E-05-2.85689E-05 5.18634E-09-1.90394E-18-5.68545E-19
 -1       378 9.52310E-05-2.85696E-05-2.85692E-05 4.93084E-09 1.18854E-18 1.07624E-18
 -1       379 9.52322E-05-2.85700E-05-2.85695E-05 4.48688E-09 3.58180E-18 1.28446E-18
 -1       380 9.52334E-05-2.85704E-05-2.85698E-05 3.94624E-09 3.01753E-18 2.30683E-18
 -1       381 9.52344E-05-2.85707E-05-2.85701E-05 3.35811E-09 1.42796E-18 2.32662E-19
 -1       382 9.52353E-05-2.85710E-05-2.85704E-05 2.73908E-09-5.37518E-19 3.95645E-20
 -1       383 9.52360E-05-2.85713E-05-2.85706E-05 2.08384E-09-1.16793E-18-1.37709E-18
 -1       384 9.52366E-05-2.85715E-05-2.85708E-05 1.43161E-09 5.40169E-19-5.83201E-19
 -1       385 1.08500E-04-2.85894E-05-3.41917E-05-1.30314E-05 1.44238E-18 4.42908E-18
 -1       386 1.11768E-04-2.97872E-05-3.50925E-05-2.05045E-05 5.61682E-19 3.67225E-18
 -1       387 1.17922E-04-3.37378E-05-3.59898E-05-2.62150E-05-1.16627E-18 3.69871E-18
 -1       388 1.29336E-04-4.39296E-05-3.63737E-05-2.59049E-05-3.00163E-18 3.83228E-18
 -1       389 1.49061E-04-6.11640E-05-3.74710E-05-1.28939E-05-3.84262E-18 4.64322E-18
 -1       390 1.86374E-04-6.74958E-05-5.12073E-05 2.01739E-05 9.24722E-19 3.34726E-18
 -1       391 1.83729E-04-6.98149E-05-4.88681E-05-2.15483E-05 5.13106E-18-1.46928E-18
 -1       392 1.54459E-04-6.88871E-05-3.65475E-05 9.61065E-06-1.20173E-19-1.71770E-18
 -1       393 1.27269E-04-4.77978E-05-3.38037E-05 2.71083E-05-1.46402E-18-7.08583E-19
 -1       394 1.14125E-04-3.39015E-05-3.42561E-05 2.92290E-05-1.44212E-18 1.55766E-18
 -1       395 1.08106E-04-2.86340E-05-3.40067E-05 2.46249E-05-1.70700E-18 1.87868E-18
 -1       396 1.04862E-04-2.74812E-05-3.31259E-05 1.84824E-05-1.29136E-19 1.92802E-19
 -1       397 1.02586E-04-2.76455E-05-3.20822E-05 1.30328E-05 1.24146E-18-1.91201E-19
 -1       398 1.00778E-04-2.80301E-05-3.11473E-05 8.87231E-06 6.95139E-19 1.95321E-19
 -1       399 9.93316E-05-2.83273E-05-3.04072E-05 5.92378E-06 6.09452E-19-4.88520E-19
 -1       400 9.82069E-05-2.85031E-05-2.98568E-05 3.91652E-06-5.24854E-19-1.87201E-18
 -1       401 9.73586E-05-2.85899E-05-2.94615E-05 2.57951E-06 7.00185E-19-2.79909E-18
 -1       402 9.67336E-05-2.86236E-05-2.91830E-05 1.69850E-06 4.71214E-19 3.56176E-20
 -1       403 9.62806E-05-2.86293E-05-2.89889E-05 1.12021E-06-1.24126E-18 3.32707E-19
 -1       404 9.59562E-05-2.86223E-05-2.88545E-05 7.40373E-07-1.30602E-18 1.33426E-18
 -1       405 9.57259E-05-2.86108E-05-2.87618E-05 4.89972E-07-5.52245E-19 3.82099E-19
 -1       406 9.55635E-05-2.85990E-05-2.86979E-05 3.24006E-07-5.88596E-20 2.70164E-18
 -1       407 9.54499E-05-2.85888E-05-2.86540E-05 2.13325E-07-7.67632E-19 2.98931E-18
 -1       408 9.53711E-05-2.85806E-05-2.86240E-05 1.39102E-07-5.09947E-19 2.92292E-18
 -1       409 9.53150E-05-2.85745E-05-2.86027E-05 8.71201E-08 1.13492E-18 5.26446E-18
 -1       410 9.52794E-05-2.85705E-05-2.85893E-05 5.40780E-08-2.34481E-18 4.42608E-18
 -1       411 9.52559E-05-2.85680E-05-2.85804E-05 3.18926E-08-1.50600E-18 2.51617E-18
 -1       412 9.52410E-05-2.85666E-05-2.85746E-05 1.71137E-08 7.65790E-19 1.55603E-18
 -1       413 9.52320E-05-2.85660E-05-2.85711E-05 7.43770E-09 5.69796E-19 1.95443E-18
 -1       414 9.52270E-05-2.85659E-05-2.85690E-05 1.27930E-09 1.00706E-18 6.77253E-19
 -1       415 9.52247E-05-2.85662E-05-2.85679E-05-2.46260E-09 3.37165E-18 1.29649E-18
 -1       416 9.52242E-05-2.85667E-05-2.85675E-05-4.56079E-09 1.45709E-18-4.20793E-19
 -1       417 9.52248E-05-2.85673E-05-2.85675E-05-5.56092E-09 9.56040E-19-1.43760E-18
 -1       418 9.52260E-05-2.85679E-05-2.85677E-05-5.84837E-09 3.04240E-18-1.33959E-18
 -1       419 9.52274E-05-2.85685E-05-2.85681E-05-5.69354E-09 9.62512E-19-1.72357E-19
 -1       420 9.52290E-05-2.85690E-05-2.85686E-05-5.28298E-09-1.63269E-18-4.58863E-19
 -1       421 9.52306E-05-2.85695E-05-2.85690E-05-4.74113E-09-1.42072E-18 6.36095E-20
 -1       422 9.52320E-05-2.85700E-05-2.85695E-05-4.14556E-09-1.24266E-18 2.25991E-18
 -1       423 9.52333E-05-2.85703E-05-2.85699E-05-3.53761E-09-2.59789E-19 1.48438E-18
 -1       424 9.52344E-05-2.85707E-05-2.85702E-05-2.93055E-09-4.72138E-19 1.65737E-18
 -1       425 9.52354E-05-2.85710E-05-2.85705E-05-2.31642E-09-2.20934E-18 6.10656E-19
 -1       426 9.52362E-05-2.85712E-05-2.85707E-05-1.68335E-09-8.67437E-19 1.63443E-18
 -1       427 9.52367E-05-2.85714E-05-2.85708E-05-1.08547E-09-3.02927E-18-1.09766E-19
 -1       428 9.52377E-05-2.85732E-05-2.85705E-05-2.07006E-09-1.58240E-18 1.40807E-19
 -1       429 9.52373E-05-2.85724E-05-2.85707E-05-1.89576E-09-2.43857E-18-1.67133E-18
 -1       430 9.52381E-05-2.85739E-05-2.85704E-05-1.96965E-09-1.82608E-19-4.52795E-19
 -1       431 9.52385E-05-2.85745E-05-2.85703E-05-1.60321E-09-6.47450E-19-3.48110E-19
 -1       432 9.52387E-05-2.85749E-05-2.85702E-05-1.03669E-09-1.30326E-18-3.13417E-18
 -1       433 9.52388E-05-2.85751E-05-2.85701E-05-3.48376E-10 2.15233E-19-2.83366E-18
 -1       434 9.52388E-05-2.85751E-05-2.85701E-05 3.78347E-10 1.80798E-20 1.05994E-18
 -1       435 9.52387E-05-2.85749E-05-2.85702E-05 1.05945E-09 2.44515E-19 1.20005E-18
 -1       436 9.52384E-05-2.85744E-05-2.85703E-05 1.60588E-09 2.29007E-18 1.08305E-18
 -1       437 9.52381E-05-2.85738E-05-2.85704E-05 1.96313E-09 3.19720E-18 3.99146E-18
 -1       438 9.52377E-05-2.85731E-05-2.85705E-05 2.05867E-09 2.98069E-18-9.19661E-19
 -1       439 9.52372E-05-2.85724E-05-2.85707E-05 1.86249E-09 1.68557E-18-6.15984E-19
 -1       440 4.93758E-05-3.86247E-05-4.81797E-06 3.42162E-05 6.70532E-19 3.39724E-18
 -1       441 9.79129E-06-2.01030E-05 4.46547E-06-1.50098E-05 1.22383E-18 6.22548E-18
 -1       442 1.92981E-05-2.56634E-05 2.66621E-06 1.64230E-05 1.56860E-19 5.15007E-18
 -1       443 1.09059E-04-6.22032E-05-2.04774E-05 3.38892E-05 2.44560E-18 9.61832E-19
 -1       444 1.56536E-04-7.31276E-05-3.60825E-05 1.40474E-05 4.10790E-18 1.68125E-18
 -1       445 9.27689E-05-1.45077E-05-3.36275E-05-1.14352E-05-6.81622E-19-4.97600E-18
 -1       446 1.43996E-04-7.06497E-05-3.19509E-05-2.26986E-05 4.23516E-20-3.16579E-18
 -1       447 9.24767E-05-5.71458E-05-1.57791E-05-3.69533E-05-8.58468E-19-6.39702E-18
 -1       448 4.66578E-05-3.86471E-05-3.78832E-06-3.38309E-05-1.06663E-18-8.08599E-18
 -1       449 1.53783E-05-2.48389E-05 3.83978E-06-1.27290E-05-8.04311E-19-8.29986E-18
 -1       450 1.15276E-05-1.71603E-05 2.62826E-06 1.91827E-05 2.79415E-19-7.13742E-18
 -1       451 3.17214E-05-2.89369E-05-1.18878E-06 4.24683E-05-6.90014E-19-5.38925E-18
 -1       452 7.33592E-05-4.30589E-05-1.28436E-05 5.43662E-05-3.17743E-19-2.90757E-18
 -1       453 1.22672E-04-5.57264E-05-2.85352E-05 4.36190E-05-3.01353E-18-5.55177E-19
 -1       454 1.47640E-04-5.28649E-05-4.07318E-05 2.62739E-05-5.08807E-18-3.92388E-19
 -1       455 1.63517E-04-3.68998E-05-5.44127E-05 7.13106E-06-6.44671E-18-1.05847E-18
 -1       456 1.63068E-04-1.48047E-05-6.37877E-05-3.43612E-06-6.57859E-18-1.90027E-18
 -1       457 1.76426E-04-1.30349E-05-6.97103E-05-1.01216E-06-6.02399E-18-2.54394E-18
 -1       458 1.72619E-04-1.64999E-05-6.67311E-05-1.97507E-06-5.22196E-18-2.78351E-18
 -1       459 1.63559E-04-3.19191E-05-5.65996E-05-4.89910E-06-2.96027E-18-3.85506E-18
 -1       460 1.58282E-04-4.54594E-05-4.83651E-05-1.81467E-05-1.21139E-18-1.90381E-18
 -1       461 1.35939E-04-5.55919E-05-3.44823E-05-3.64945E-05 1.15821E-18 7.82235E-19
 -1       462 1.07036E-04-5.31736E-05-2.29325E-05-5.02080E-05 1.96935E-18 2.62813E-18
 -1       463 5.79896E-05-3.92674E-05-8.04843E-06-5.25403E-05 2.78123E-18 6.23887E-18
 -1       464 2.86440E-05-2.91361E-05 2.21386E-07-4.05842E-05 2.01604E-18 6.90522E-18
 -1       465 1.83940E-04-5.07411E-05-5.75918E-05-3.35425E-05 8.20224E-18 4.11340E-19
 -1       466 1.61730E-04-6.99804E-05-3.93383E-05-7.52296E-07-2.98251E-18 4.09874E-18
 -1       467 9.54100E-05-1.94749E-05-3.25091E-05-8.25452E-06 2.48811E-18 1.50685E-18
 -1       468 9.53125E-05-1.90498E-05-3.27081E-05-1.07035E-06 1.48118E-18-3.70041E-18
 -1       469 9.62141E-05-1.96994E-05-3.28180E-05-5.35403E-06 6.79366E-19-3.99942E-18
 -1       470 8.94267E-05-1.52502E-05-3.18091E-05 8.04815E-06 2.90670E-18-3.10453E-18
 -1       471 8.43990E-05-1.16819E-05-3.11806E-05 1.13509E-05 3.48349E-18-2.89805E-18
 -1       472 7.92913E-05-7.75974E-06-3.06679E-05 1.25030E-05 3.98934E-18-2.64596E-18
 -1       473 7.59122E-05-4.79158E-06-3.04876E-05 1.09912E-05 4.33910E-18-2.13665E-18
 -1       474 7.66049E-05-4.64194E-06-3.08529E-05 7.19984E-06 4.27362E-18-1.61535E-18
 -1       475 8.27092E-05-8.58558E-06-3.17857E-05 2.64662E-06 3.96395E-18-4.68686E-19
 -1       476 9.24966E-05-1.88934E-05-3.14893E-05-1.68553E-05 1.57484E-18 6.45954E-19
 -1       477 9.74940E-05-2.65240E-05-3.04104E-05-9.46863E-06-1.60922E-18-3.14074E-18
 -1       478 9.69276E-05-2.27445E-05-3.18181E-05-1.20694E-05-1.94405E-18-3.88315E-18
 -1       479 9.69718E-05-2.82567E-05-2.94442E-05-7.96617E-06-1.27495E-18-2.63678E-18
 -1       480 9.59030E-05-2.86590E-05-2.88163E-05-7.45978E-06-1.08999E-18-2.50240E-18
 -1       481 9.44612E-05-2.81169E-05-2.84316E-05-7.25390E-06-9.58340E-19-2.39760E-18
 -1       482 9.27562E-05-2.68958E-05-2.82234E-05-6.69240E-06-1.03286E-18-2.53826E-18
 -1       483 9.10207E-05-2.53642E-05-2.81349E-05-5.29375E-06-9.55357E-19-2.44933E-18
 -1       484 8.96321E-05-2.40265E-05-2.81122E-05-2.90435E-06-7.43511E-19-2.81900E-18
 -1       485 8.89822E-05-2.33826E-05-2.81092E-05 2.05791E-07-7.43266E-19-2.64609E-18
 -1       486 8.92771E-05-2.37041E-05-2.80978E-05 3.41971E-06-8.85558E-19-2.39633E-18
 -1       487 9.04083E-05-2.48919E-05-2.80744E-05 6.03631E-06-2.01799E-19-2.32776E-18
 -1       488 9.20100E-05-2.65470E-05-2.80531E-05 7.57379E-06 3.27873E-19-2.34168E-18
 -1       489 9.36446E-05-2.81856E-05-2.80531E-05 7.91929E-06 5.34757E-20-2.71286E-18
 -1       490 9.49803E-05-2.94462E-05-2.80869E-05 7.28884E-06-2.03978E-19-2.35650E-18
 -1       491 9.58738E-05-3.01847E-05-2.81544E-05 6.06255E-06-2.63645E-20-2.15774E-18
 -1       492 9.63423E-05-3.04426E-05-2.82453E-05 4.61692E-06-4.42087E-19-2.22145E-18
 -1       493 9.64882E-05-3.03575E-05-2.83443E-05 3.23005E-06-7.99524E-19-2.38573E-18
 -1       494 9.64323E-05-3.00828E-05-2.84378E-05 2.05912E-06-4.48617E-19-2.00431E-18
 -1       495 9.62755E-05-2.97420E-05-2.85162E-05 1.16102E-06-7.74821E-20-1.34241E-18
 -1       496 9.60859E-05-2.94136E-05-2.85751E-05 5.27528E-07 8.27631E-20-2.40843E-18
 -1       497 9.59026E-05-2.91374E-05-2.86145E-05 1.17087E-07 8.01144E-19-3.16181E-18
 -1       498 9.57435E-05-2.89255E-05-2.86368E-05-1.22678E-07 4.82823E-19-2.33918E-18
 -1       499 9.56138E-05-2.87744E-05-2.86457E-05-2.41863E-07 6.43618E-19-2.61324E-18
 -1       500 9.55122E-05-2.86734E-05-2.86453E-05-2.82196E-07 1.25162E-19-3.45555E-18
 -1       501 9.54347E-05-2.86102E-05-2.86391E-05-2.75364E-07 4.39709E-19-2.61495E-18
 -1       502 9.53766E-05-2.85738E-05-2.86298E-05-2.43708E-07 1.16976E-18-2.37518E-18
 -1       503 9.53337E-05-2.85550E-05-2.86194E-05-2.01908E-07-6.39243E-19-2.80426E-18
 -1       504 9.53022E-05-2.85473E-05-2.86092E-05-1.58891E-07-1.03422E-18-1.72809E-18
 -1       505 9.52795E-05-2.85459E-05-2.86001E-05-1.19544E-07-8.83543E-19-1.58325E-19
 -1       506 9.52633E-05-2.85479E-05-2.85923E-05-8.60913E-08 1.11093E-18 2.53214E-19
 -1       507 9.52520E-05-2.85513E-05-2.85859E-05-5.91228E-08 1.18555E-18-9.64216E-20
 -1       508 9.52442E-05-2.85552E-05-2.85810E-05-3.83030E-08 1.60329E-18-1.51029E-19
 -1       509 9.52391E-05-2.85588E-05-2.85773E-05-2.28455E-08 9.95089E-19-2.70283E-19
 -1       510 9.52359E-05-2.85619E-05-2.85746E-05-1.18054E-08 3.73811E-19-1.26857E-18
 -1       511 9.52340E-05-2.85644E-05-2.85727E-05-4.24735E-09 7.83084E-19-1.62388E-18
 -1       512 9.52331E-05-2.85664E-05-2.85714E-05 6.66807E-10-1.23580E-18-2.00806E-18
 -1       513 9.52328E-05-2.85680E-05-2.85706E-05 3.64264E-09-2.21730E-18-1.48673E-18
 -1       514 9.52329E-05-2.85691E-05-2.85702E-05 5.24709E-09-2.42171E-19-1.15108E-18
 -1       515 9.52332E-05-2.85699E-05-2.85700E-05 5.91839E-09-5.90797E-19 1.14219E-18
 -1       516 9.52337E-05-2.85705E-05-2.85700E-05 5.98310E-09 7.54501E-19 3.16078E-18
 -1       517 9.52343E-05-2.85709E-05-2.85700E-05 5.67500E-09 1.53823E-18 2.73482E-18
 -1       518 9.52348E-05-2.85712E-05-2.85701E-05 5.15296E-09 2.58478E-18 4.91422E-19
 -1       519 9.52354E-05-2.85714E-05-2.85703E-05 4.51661E-09-2.46709E-19-5.86269E-19
 -1       520 9.52359E-05-2.85716E-05-2.85704E-05 3.81964E-09-1.00372E-19-2.54183E-18
 -1       521 9.52364E-05-2.85718E-05-2.85705E-05 3.08248E-09-1.18369E-18-2.66028E-18
 -1       522 9.21757E-05-2.69057E-05-2.76054E-05-3.28536E-05-1.74170E-18-1.04575E-18
 -1       523 1.02064E-04-4.52670E-05-2.40540E-05-3.59852E-05-3.66707E-18-1.88690E-18
 -1       524 1.43674E-04-2.47465E-05-5.15556E-05-1.17627E-05-4.83105E-18 4.41860E-19
 -1       525 8.12463E-05-2.63433E-05-2.30951E-05 3.47074E-05-2.44102E-18 5.71033E-19
 -1       526 9.04141E-05-2.03026E-05-3.00235E-05 1.54736E-05 1.33198E-18 4.55075E-19
 -1       527 9.30251E-05-2.27864E-05-3.00853E-05 1.11325E-05 8.48668E-19-2.52052E-19
 -1       528 9.45407E-05-2.47663E-05-2.98905E-05 7.84501E-06 1.40486E-18 1.71065E-19
 -1       529 9.53104E-05-2.61560E-05-2.96284E-05 5.44809E-06 8.76067E-19-3.57014E-19
 -1       530 9.56382E-05-2.70705E-05-2.93800E-05 3.74862E-06 3.50124E-19-2.17055E-19
 -1       531 9.57290E-05-2.76502E-05-2.91726E-05 2.56593E-06-3.12364E-19 8.40291E-19
 -1       532 9.57056E-05-2.80093E-05-2.90101E-05 1.75209E-06-6.44778E-19 3.82353E-19
 -1       533 9.56361E-05-2.82285E-05-2.88873E-05 1.19522E-06-2.40649E-18 1.47962E-18
 -1       534 9.55552E-05-2.83610E-05-2.87964E-05 8.14808E-07-5.69944E-19 5.87795E-19
 -1       535 9.54793E-05-2.84408E-05-2.87301E-05 5.54638E-07-5.60003E-19 1.75024E-19
 -1       536 9.54149E-05-2.84887E-05-2.86822E-05 3.76210E-07-8.43356E-19-2.09815E-19
 -1       537 9.53630E-05-2.85176E-05-2.86478E-05 2.53388E-07-1.77682E-18 6.65710E-19
 -1       538 9.53215E-05-2.85360E-05-2.86222E-05 1.65293E-07-5.71792E-19 1.85312E-18
 -1       539 9.52924E-05-2.85469E-05-2.86051E-05 1.07944E-07-1.09847E-18 2.76180E-18
 -1       540 9.52712E-05-2.85539E-05-2.85931E-05 6.84169E-08-2.81456E-19 2.78114E-18
 -1       541 9.52563E-05-2.85586E-05-2.85847E-05 4.13424E-08 4.81290E-19 2.42659E-18
 -1       542 9.52462E-05-2.85619E-05-2.85790E-05 2.30053E-08 1.21052E-18 2.21037E-18
 -1       543 9.52396E-05-2.85642E-05-2.85752E-05 1.08072E-08 1.88431E-18 7.59301E-19
 -1       544 9.52356E-05-2.85660E-05-2.85726E-05 2.91520E-09 2.57248E-18-8.57328E-19
 -1       545 9.52333E-05-2.85674E-05-2.85711E-05-1.97566E-09 1.08139E-18 1.46482E-18
 -1       546 9.52322E-05-2.85684E-05-2.85702E-05-4.79958E-09 1.87002E-18 2.81791E-18
 -1       547 9.52319E-05-2.85692E-05-2.85697E-05-6.22655E-09 2.07798E-18 1.98381E-18
 -1       548 9.52321E-05-2.85698E-05-2.85695E-05-6.73534E-09 1.45819E-18 2.56156E-18
 -1       549 9.52326E-05-2.85703E-05-2.85695E-05-6.66456E-09-3.99657E-19 2.54490E-18
 -1       550 9.52332E-05-2.85706E-05-2.85697E-05-6.24892E-09-1.78930E-18 4.12756E-18
 -1       551 9.52339E-05-2.85709E-05-2.85699E-05-5.64550E-09-1.95160E-18 4.29085E-18
 -1       552 9.52346E-05-2.85711E-05-2.85701E-05-4.95266E-09-2.84446E-19 4.44165E-18
 -1       553 9.52352E-05-2.85713E-05-2.85702E-05-4.22562E-09-7.32055E-19 3.53130E-18
 -1       554 9.52358E-05-2.85715E-05-2.85704E-05-3.48386E-09 1.18994E-18 2.23502E-18
 -1       555 9.52364E-05-2.85717E-05-2.85706E-05-2.72232E-09-5.26402E-19 1.49360E-19
 -1       556 9.52385E-05-2.85740E-05-2.85705E-05-2.40263E-09-3.61136E-19-6.00459E-19
 -1       557 9.52380E-05-2.85734E-05-2.85705E-05-2.74672E-09-6.80151E-19 3.38166E-19
 -1       558 9.52373E-05-2.85726E-05-2.85706E-05-2.75506E-09-4.30426E-19-5.83568E-19
 -1       559 2.11178E-05-8.81489E-06-4.55872E-06 4.42358E-06-7.71991E-20 4.26587E-18
 -1       560 9.52389E-05-2.85745E-05-2.85705E-05-1.76066E-09-1.33434E-18-3.40783E-18
 -1       561 9.52392E-05-2.85748E-05-2.85704E-05-9.17352E-10-4.42780E-19-2.99060E-18
 -1       562 9.52393E-05-2.85749E-05-2.85704E-05 2.57592E-11-6.80769E-19-7.12208E-19
 -1       563 9.52392E-05-2.85748E-05-2.85705E-05 9.62979E-10 2.48854E-19 1.53737E-18
 -1       564 9.52389E-05-2.85745E-05-2.85705E-05 1.77791E-09 1.20931E-18 1.18211E-18
 -1       565 9.52385E-05-2.85740E-05-2.85705E-05 2.40292E-09 2.30769E-18 3.00795E-18
 -1       566 9.52379E-05-2.85733E-05-2.85705E-05 2.74118E-09 1.25821E-18 4.22434E-19
 -1       567 9.52373E-05-2.85726E-05-2.85706E-05 2.72192E-09 7.36190E-19-2.03542E-18
 -1       568 2.77323E-05-1.30179E-05-5.59683E-06-3.02157E-05 2.23987E-18 5.33250E-18
 -1       569 8.93935E-05-1.94235E-05-2.98862E-05-2.52492E-05 2.59389E-19-3.09888E-19
 -1       570 9.13095E-05-4.71106E-05-1.86417E-05 3.84756E-05-1.03762E-18 1.85765E-19
 -1       571 9.29609E-05-4.84860E-05-1.87258E-05-5.11564E-05 4.78441E-18 1.89045E-18
 -1       572 1.45808E-04-1.84623E-05-5.51567E-05 9.23129E-06-2.67292E-18-4.72655E-18
 -1       573 1.09280E-04-5.28184E-05-2.39101E-05 4.49495E-05 2.28434E-18 2.94941E-19
 -1       574 4.51878E-05-2.07056E-05-9.83727E-06 2.98359E-05-1.85177E-18 3.75892E-18
 -1       575 8.65768E-05-1.80526E-05-2.93132E-05 2.09303E-05 3.32912E-19 6.84133E-19
 -1       576 8.23700E-05-1.83371E-05-2.72744E-05 2.75090E-05-1.58977E-18 9.39558E-19
 -1       577 9.31500E-05-1.77034E-05-3.23560E-05 3.59999E-06 2.23397E-18-3.37274E-18
 -1       578 3.25071E-05-1.27909E-05-7.73476E-06 3.46225E-05 3.27331E-18-5.24483E-18
 -1       579 4.42471E-05-1.73183E-05-1.08428E-05-2.92810E-05-1.23169E-18-6.35921E-18
 -1       580 2.39904E-05-4.89813E-06-7.37023E-06-2.86935E-06 1.35057E-18-6.75678E-18
 -1       581 6.23819E-05-2.98338E-05-1.34526E-05 4.99004E-05 3.38766E-18-2.88245E-18
 -1       582 1.39025E-04-5.95705E-05-3.40994E-05 2.46114E-05-6.95388E-19 1.29638E-18
 -1       583 1.50632E-04-4.87265E-05-4.39809E-05 2.76805E-06-3.32632E-18 1.44451E-18
 -1       584 1.42355E-04-5.02648E-06-5.95412E-05-3.45091E-06-5.53155E-18-1.92492E-18
 -1       585 1.43112E-04-6.18362E-06-5.93931E-05 3.70132E-06-4.80659E-18-3.38748E-18
 -1       586 1.48466E-04-4.29797E-05-4.57077E-05 3.45570E-06-3.96782E-20-5.83982E-18
 -1       587 1.45864E-04-5.72165E-05-3.81521E-05-1.36679E-05 2.30117E-18-4.53864E-18
 -1       588 1.26709E-04-5.99689E-05-2.85519E-05-3.69000E-05 3.81546E-18-5.43689E-19
 -1       589 4.76028E-05-2.52983E-05-9.02105E-06-4.59719E-05 3.18400E-18 5.79249E-18
 -1       590 9.85987E-05-2.02515E-05-3.35439E-05-1.27028E-06 3.11215E-18 2.61444E-18
 -1       591 8.53736E-05-4.47028E-05-1.70507E-05-3.94418E-05-3.50195E-18-4.37434E-18
 -1       592 1.30651E-04-6.41213E-05-2.84220E-05-2.67405E-05-3.61058E-18-4.83490E-19
 -1       593 9.63829E-05-2.01345E-05-3.27023E-05-8.95413E-06-2.15880E-19-4.17530E-18
 -1       594 1.30581E-04-1.31063E-05-5.08822E-05-1.16377E-05-4.23606E-18-6.37525E-19
 -1       595 9.52367E-05-2.85719E-05-2.85706E-05 2.54899E-09-1.83013E-19 8.64892E-19
 -1       596 8.39593E-05-1.43079E-05-2.98524E-05 1.58911E-05 3.77543E-18-2.29703E-18
 -1       597 9.12175E-05-1.94438E-05-3.07671E-05 1.27475E-05 3.14854E-18-2.46899E-18
 -1       598 7.25492E-05-5.05974E-06-2.89092E-05 1.03606E-05 4.09871E-18-2.05873E-18
 -1       599 7.50972E-05-6.07213E-06-2.95818E-05 2.39216E-06 3.74868E-18-1.52698E-18
 -1       600 8.80571E-05-2.04968E-05-2.89502E-05 6.93195E-06 9.90036E-19 2.19575E-18
 -1       601 9.93893E-05-2.74706E-05-3.08260E-05-9.09955E-06-9.74696E-19-2.97419E-18
 -1       602 1.38908E-04-3.83521E-05-4.34002E-05-9.91949E-06-2.71109E-18 1.36743E-18
 -1       603 9.99163E-05-2.94097E-05-3.02167E-05-8.52809E-06-9.46310E-19-2.46603E-18
 -1       604 9.95970E-05-2.97648E-05-2.99275E-05-8.55557E-06-9.52432E-19-2.22787E-18
 -1       605 9.84738E-05-2.87421E-05-2.98840E-05-8.50895E-06-9.79165E-19-2.19548E-18
 -1       606 9.67397E-05-2.67249E-05-3.00049E-05-7.66395E-06-1.04802E-18-2.12182E-18
 -1       607 9.48467E-05-2.44131E-05-3.01844E-05-5.51240E-06-9.66615E-19-2.06207E-18
 -1       608 9.34529E-05-2.27280E-05-3.03092E-05-2.06328E-06-7.46525E-19-2.02991E-18
 -1       609 9.31157E-05-2.24281E-05-3.02928E-05 2.03969E-06-7.39197E-19-2.14809E-18
 -1       610 9.39535E-05-2.36945E-05-3.01091E-05 5.76888E-06-7.32453E-19-2.14552E-18
 -1       611 9.55505E-05-2.60183E-05-2.97982E-05 8.24247E-06-2.94158E-19-2.41157E-18
 -1       612 9.72582E-05-2.85767E-05-2.94341E-05 9.10729E-06 5.13400E-21-2.67915E-18
 -1       613 9.85239E-05-3.06370E-05-2.90941E-05 8.57020E-06 3.18869E-19-2.08861E-18
 -1       614 9.91125E-05-3.18453E-05-2.88288E-05 7.15815E-06 3.19303E-19-1.40383E-18
 -1       615 9.90819E-05-3.22215E-05-2.86551E-05 5.41557E-06-5.24337E-19-9.56816E-19
 -1       616 9.86364E-05-3.19914E-05-2.85631E-05 3.73679E-06-9.34485E-19-1.45263E-18
 -1       617 9.79983E-05-3.14285E-05-2.85308E-05 2.33329E-06-3.17596E-19-1.06222E-18
 -1       618 9.73365E-05-3.07569E-05-2.85348E-05 1.27267E-06-3.31936E-19-1.70968E-18
 -1       619 9.67494E-05-3.01206E-05-2.85557E-05 5.36562E-07-6.62818E-19-2.31435E-18
 -1       620 9.62779E-05-2.95908E-05-2.85805E-05 6.75800E-08 5.03547E-19-2.04281E-18
 -1       621 9.59252E-05-2.91883E-05-2.86017E-05-2.01166E-07 1.12561E-18-1.49153E-18
 -1       622 9.56758E-05-2.89047E-05-2.86163E-05-3.30729E-07 8.06116E-20-1.48016E-18
 -1       623 9.55074E-05-2.87184E-05-2.86239E-05-3.70372E-07 8.56133E-20-1.57293E-18
 -1       624 9.53982E-05-2.86051E-05-2.86256E-05-3.56719E-07 7.71373E-19-1.40773E-18
 -1       625 9.53300E-05-2.85429E-05-2.86230E-05-3.15250E-07 7.43806E-19-6.24039E-19
 -1       626 9.52888E-05-2.85141E-05-2.86177E-05-2.62597E-07 4.19491E-19-8.94433E-19
 -1       627 9.52648E-05-2.85056E-05-2.86111E-05-2.08869E-07-4.41916E-19-3.67519E-19
 -1       628 9.52513E-05-2.85084E-05-2.86041E-05-1.59631E-07-5.01792E-19 1.39620E-19
 -1       629 9.52440E-05-2.85167E-05-2.85974E-05-1.17457E-07 7.37352E-19-8.70515E-20
 -1       630 9.52401E-05-2.85269E-05-2.85914E-05-8.30684E-08 8.03677E-19-1.65999E-18
 -1       631 9.52382E-05-2.85369E-05-2.85863E-05-5.61219E-08 1.86659E-18-6.43153E-19
 -1       632 9.52373E-05-2.85457E-05-2.85821E-05-3.57395E-08 7.06531E-19-8.61914E-19
 -1       633 9.52369E-05-2.85531E-05-2.85788E-05-2.08387E-08-2.91394E-19-2.08413E-18
 -1       634 9.52367E-05-2.85589E-05-2.85762E-05-1.03282E-08 1.54954E-19-1.32648E-18
 -1       635 9.52367E-05-2.85632E-05-2.85743E-05-3.21255E-09-5.38519E-19-2.82945E-18
 -1       636 9.52366E-05-2.85664E-05-2.85730E-05 1.36042E-09-1.08075E-18-2.38673E-18
 -1       637 9.52367E-05-2.85686E-05-2.85720E-05 4.08818E-09 1.18723E-19 5.17850E-20
 -1       638 9.52367E-05-2.85701E-05-2.85714E-05 5.52074E-09 1.00491E-18 8.70014E-19
 -1       639 9.52367E-05-2.85711E-05-2.85710E-05 6.07762E-09-1.98470E-19-5.97715E-19
 -1       640 9.52368E-05-2.85717E-05-2.85707E-05 6.06817E-09-2.96094E-19-1.89564E-18
 -1       641 9.52368E-05-2.85720E-05-2.85706E-05 5.71188E-09 2.75134E-18-1.19466E-18
 -1       642 9.52369E-05-2.85722E-05-2.85706E-05 5.15658E-09-4.65199E-19-1.56346E-18
 -1       643 9.52370E-05-2.85723E-05-2.85706E-05 4.49423E-09-1.83238E-18-3.50362E-18
 -1       644 9.52371E-05-2.85724E-05-2.85706E-05 3.77201E-09 3.04063E-19-1.94462E-18
 -1       645 7.47107E-05-3.33140E-05-1.73363E-05-4.59031E-05 3.67183E-18 2.79852E-18
 -1       646 9.10793E-05-2.31348E-05-2.91160E-05 5.23766E-06 1.09981E-18 3.16031E-18
 -1       647 9.52372E-05-2.85725E-05-2.85706E-05-3.57496E-09 9.31615E-19-4.07218E-19
 -1       648 8.32785E-05-1.69666E-05-2.84093E-05 8.94256E-06 1.44744E-18 2.10242E-18
 -1       649 9.29189E-05-2.49857E-05-2.91121E-05 3.87688E-06 2.78671E-19 2.95432E-18
 -1       650 9.40031E-05-2.62356E-05-2.90417E-05 2.82544E-06-3.21273E-19 1.85918E-18
 -1       651 9.46219E-05-2.70597E-05-2.89543E-05 2.03644E-06-2.25054E-19 1.54269E-18
 -1       652 9.49625E-05-2.75950E-05-2.88712E-05 1.45616E-06-2.29183E-18 1.06149E-18
 -1       653 9.51414E-05-2.79397E-05-2.88003E-05 1.03490E-06-1.17863E-18 5.24331E-19
 -1       654 9.52287E-05-2.81609E-05-2.87431E-05 7.31489E-07 4.20527E-19 8.33037E-19
 -1       655 9.52662E-05-2.83028E-05-2.86984E-05 5.13906E-07-8.16796E-19 8.46441E-19
 -1       656 9.52777E-05-2.83942E-05-2.86643E-05 3.58118E-07-1.25441E-18 7.22362E-19
 -1       657 9.52766E-05-2.84559E-05-2.86374E-05 2.42405E-07-1.24663E-18-1.26170E-18
 -1       658 9.52705E-05-2.84939E-05-2.86185E-05 1.64646E-07-3.90010E-19-1.35195E-18
 -1       659 9.52631E-05-2.85192E-05-2.86045E-05 1.09416E-07-1.68086E-19-2.07582E-18
 -1       660 9.52562E-05-2.85362E-05-2.85943E-05 7.04785E-08-1.80500E-18-1.67391E-18
 -1       661 9.52504E-05-2.85478E-05-2.85868E-05 4.32970E-08 4.12499E-19-6.06401E-19
 -1       662 9.52459E-05-2.85557E-05-2.85815E-05 2.45911E-08 2.67298E-18 7.71150E-19
 -1       663 9.52425E-05-2.85612E-05-2.85777E-05 1.19770E-08 3.18695E-18 1.49474E-18
 -1       664 9.52401E-05-2.85650E-05-2.85750E-05 3.71416E-09 8.16155E-19 1.77273E-18
 -1       665 9.52385E-05-2.85676E-05-2.85732E-05-1.47227E-09-8.68868E-19 2.21718E-18
 -1       666 9.52375E-05-2.85694E-05-2.85720E-05-4.51563E-09 3.35358E-18 3.03452E-18
 -1       667 9.52369E-05-2.85706E-05-2.85713E-05-6.09675E-09 2.12250E-18 3.55384E-18
 -1       668 9.52366E-05-2.85713E-05-2.85708E-05-6.70805E-09 1.62829E-18 3.44177E-18
 -1       669 9.52364E-05-2.85717E-05-2.85706E-05-6.70054E-09-1.60401E-18 4.12979E-18
 -1       670 9.52364E-05-2.85720E-05-2.85705E-05-6.31872E-09-2.64784E-18 5.00829E-18
 -1       671 9.52365E-05-2.85721E-05-2.85704E-05-5.72708E-09 1.98906E-19 4.17256E-18
 -1       672 9.52366E-05-2.85722E-05-2.85705E-05-5.03163E-09-5.84224E-20 1.08819E-18
 -1       673 9.52369E-05-2.85723E-05-2.85705E-05-4.31569E-09 1.32475E-18 3.63468E-19
 -1       674 9.52397E-05-2.85747E-05-2.85707E-05-1.62608E-09 2.39362E-19-1.80199E-18
 -1       675 1.26197E-04-5.54840E-05-3.02905E-05 2.67342E-05 1.86257E-18 1.08173E-18
 -1       676 9.52392E-05-2.85742E-05-2.85707E-05-2.55310E-09-1.30951E-18-2.04390E-18
 -1       677 9.52399E-05-2.85748E-05-2.85707E-05 6.11874E-10 1.08922E-18 1.64045E-18
 -1       678 9.52396E-05-2.85746E-05-2.85707E-05 1.67087E-09 2.62506E-18 2.95525E-18
 -1       679 9.52391E-05-2.85742E-05-2.85707E-05 2.56917E-09 3.66021E-18 2.02384E-18
 -1       680 9.52384E-05-2.85736E-05-2.85707E-05 3.18063E-09 1.82736E-18-1.01628E-18
 -1       681 4.23333E-05-7.87430E-06-1.41117E-05 1.76113E-05-1.21093E-18 2.47122E-18
 -1       682 7.25502E-05-8.57388E-06-2.73343E-05-1.31949E-05 1.91178E-18-1.73665E-18
 -1       683 4.78217E-05-1.52216E-05-1.34223E-05-3.45743E-05 2.16663E-18 4.07275E-18
 -1       684 8.83750E-05-3.57495E-05-2.22339E-05 4.24423E-05 4.07714E-18-9.93768E-19
 -1       685 5.54130E-05-9.42930E-06-1.93568E-05 2.10158E-05-1.70467E-18 2.21115E-18
 -1       686 6.36714E-05-9.91299E-06-2.27414E-05-2.24591E-05 2.96872E-19-3.04323E-18
 -1       687 6.68500E-05-9.33249E-06-2.45291E-05 1.53006E-05-2.53799E-19 3.03575E-19
 -1       688 3.26380E-05-4.22425E-06-1.15555E-05-1.04561E-05 5.20303E-19 3.95030E-18
 -1       689 5.56404E-05-1.54081E-05-1.68010E-05 3.74757E-05 4.38050E-18-3.46450E-18
 -1       690 7.59989E-05-1.26949E-05-2.70999E-05 1.12583E-05 7.13164E-19 1.52848E-18
 -1       691 3.65228E-05-1.51269E-06-1.44822E-05 1.25928E-05 3.12453E-18-4.69399E-18
 -1       692 1.27685E-04-1.07386E-05-5.06514E-05 9.38070E-06-2.71321E-18-4.03701E-18
 -1       693 9.52385E-05-2.85737E-05-2.85706E-05-3.19980E-09-1.91488E-19-2.85883E-19
 -1       694 7.66656E-05-8.72928E-06-2.91131E-05 1.52714E-05 4.14607E-18-2.02593E-18
 -1       695 9.52399E-05-2.85749E-05-2.85707E-05-5.32266E-10 1.74903E-19-3.23557E-18
 -1       696 1.40583E-04-5.38808E-05-3.72955E-05 6.37784E-06-4.97910E-19 1.71570E-18
 -1       697 4.46571E-05-6.19578E-06-1.58808E-05-1.72811E-05 5.35583E-19-5.23683E-18
 -1       698 1.34158E-04-2.83199E-05-4.57128E-05 1.30646E-05-7.12434E-19-4.70619E-18
 -1       699 1.00248E-04-2.50085E-05-3.22527E-05-2.96350E-06 9.35884E-19-3.12887E-18
 -1       700 9.52372E-05-2.85725E-05-2.85706E-05 3.25799E-09 7.37668E-19-1.67689E-18
 -1       701 1.25704E-04-5.34850E-06-5.22009E-05 1.80586E-06-3.81186E-18-3.51298E-18
 -1       702 1.39884E-04-5.03458E-05-3.86010E-05 1.11095E-06 1.40932E-18-4.44027E-18
 -1       703 8.04318E-05-1.05385E-05-2.99256E-05-7.36512E-06 2.77446E-18-7.77548E-19
 -1       704 1.00016E-04-2.50633E-05-3.21308E-05-6.87689E-06 8.97053E-20-3.35556E-18
 -1       705 9.64701E-05-2.28505E-05-3.15584E-05 7.53769E-06 2.43643E-18-2.55187E-18
 -1       706 9.82127E-05-2.44871E-05-3.16037E-05-1.00147E-05-9.99704E-19-3.41635E-18
 -1       707 1.01664E-04-4.78084E-05-2.28450E-05-4.20350E-05 3.80170E-18 1.26933E-18
 -1       708 7.86957E-05-2.87077E-05-2.09462E-05-3.62547E-05-2.37556E-18-3.21470E-18
 -1       709 1.29908E-04-2.62894E-05-4.47248E-05-1.38927E-05-2.91210E-18 2.33186E-19
 -1       710 1.07490E-04-4.38957E-05-2.71489E-05 3.21092E-05 3.39405E-18 2.20295E-20
 -1       711 9.52379E-05-2.85730E-05-2.85706E-05 3.57653E-09 6.05778E-19-1.50669E-18
 -1       712 9.93315E-05-2.45161E-05-3.20697E-05 1.97160E-06 1.61882E-18-2.79829E-18
 -1       713 1.32161E-04-5.82078E-05-3.17315E-05-1.85439E-05 2.76622E-18-3.55889E-18
 -1       714 8.99254E-05-2.29688E-05-2.86956E-05 2.50410E-06 4.88685E-19 2.55832E-18
 -1       715 6.62202E-05-4.00087E-06-2.66655E-05 7.33097E-06 3.44185E-18-2.34403E-18
 -1       716 8.70597E-05-3.46040E-05-2.23349E-05-3.66915E-05 2.33444E-18 1.56708E-18
 -1       717 9.52407E-05-2.85750E-05-2.85710E-05 6.39286E-11 2.01576E-18 1.49793E-18
 -1       718 1.27154E-04-8.07291E-06-5.15216E-05-6.83745E-06-4.05194E-18-1.70723E-18
 -1       719 1.20376E-04-1.87121E-05-4.37963E-05 1.24579E-05-1.28848E-18-3.60847E-18
 -1       720 6.62950E-05-1.96703E-05-1.97056E-05-3.18537E-05 1.80713E-18 3.34296E-18
 -1       721 1.03521E-04-3.10809E-05-3.10473E-05-8.47912E-06-6.41025E-19-2.22906E-18
 -1       722 1.03670E-04-3.09466E-05-3.11670E-05-9.21872E-06-8.58296E-19-1.80840E-18
 -1       723 1.02534E-04-2.89189E-05-3.15493E-05-9.48158E-06-9.56524E-19-1.43882E-18
 -1       724 1.00423E-04-2.56298E-05-3.20539E-05-8.31672E-06-1.15483E-18-1.53067E-18
 -1       725 9.81814E-05-2.23738E-05-3.24892E-05-5.16399E-06-8.89957E-19-1.55426E-18
 -1       726 9.69088E-05-2.06944E-05-3.26630E-05-4.06112E-07-8.03250E-19-1.92085E-18
 -1       727 9.72445E-05-2.14898E-05-3.24647E-05 4.62808E-06-7.97699E-19-1.84014E-18
 -1       728 9.89634E-05-2.44628E-05-3.19290E-05 8.35713E-06-3.56680E-19-1.63283E-18
 -1       729 1.01061E-04-2.82861E-05-3.11905E-05 9.96273E-06-1.28091E-19-1.49489E-18
 -1       730 1.02586E-04-3.16126E-05-3.04174E-05 9.52297E-06 4.58360E-19-1.56997E-18
 -1       731 1.03055E-04-3.36477E-05-2.97444E-05 7.80740E-06 5.85450E-19-1.61476E-18
 -1       732 1.02552E-04-3.43271E-05-2.92386E-05 5.65809E-06 3.47634E-19-1.47120E-18
 -1       733 1.01434E-04-3.39974E-05-2.89016E-05 3.64888E-06-6.68743E-19-9.18857E-19
 -1       734 1.00083E-04-3.31096E-05-2.87031E-05 2.05108E-06-7.58714E-19-5.90892E-19
 -1       735 9.87800E-05-3.20388E-05-2.86037E-05 9.16823E-07-6.15453E-19-1.11481E-18
 -1       736 9.76766E-05-3.10222E-05-2.85664E-05 1.86119E-07-6.07646E-19-9.94695E-19
 -1       737 9.68228E-05-3.01763E-05-2.85629E-05-2.37607E-07 5.16440E-19-6.61823E-19
 -1       738 9.62070E-05-2.95343E-05-2.85741E-05-4.48443E-07 1.19651E-18-4.72762E-19
 -1       739 9.57892E-05-2.90821E-05-2.85888E-05-5.22495E-07 1.17392E-18-2.48184E-19
 -1       740 9.55218E-05-2.87856E-05-2.86013E-05-5.15381E-07 2.56282E-19 3.37061E-19
 -1       741 9.53612E-05-2.86059E-05-2.86094E-05-4.65064E-07 3.49340E-19 3.38647E-19
 -1       742 9.52718E-05-2.85080E-05-2.86130E-05-3.96001E-07 6.34979E-19-6.38789E-19
 -1       743 9.52273E-05-2.84637E-05-2.86129E-05-3.22994E-07 5.48344E-19-4.96833E-19
 -1       744 9.52093E-05-2.84521E-05-2.86102E-05-2.54314E-07 4.80298E-19 4.31501E-19
 -1       745 9.52058E-05-2.84588E-05-2.86059E-05-1.94021E-07-4.58259E-19 3.74499E-19
 -1       746 9.52094E-05-2.84741E-05-2.86008E-05-1.43567E-07-8.75453E-19 5.62763E-19
 -1       747 9.52155E-05-2.84924E-05-2.85956E-05-1.02884E-07-5.05618E-19-2.08033E-19
 -1       748 9.52220E-05-2.85102E-05-2.85908E-05-7.10918E-08 1.43377E-18-1.03729E-18
 -1       749 9.52276E-05-2.85259E-05-2.85864E-05-4.69481E-08 8.24240E-19-2.23084E-18
 -1       750 9.52320E-05-2.85389E-05-2.85828E-05-2.91207E-08 4.42434E-19-1.22156E-18
 -1       751 9.52352E-05-2.85492E-05-2.85797E-05-1.63400E-08 3.48377E-19-3.40659E-19
 -1       752 9.52374E-05-2.85570E-05-2.85773E-05-7.47794E-09-4.01392E-20 2.06992E-19
 -1       753 9.52387E-05-2.85627E-05-2.85754E-05-1.57819E-09-1.04436E-18 3.89685E-19
 -1       754 9.52393E-05-2.85667E-05-2.85740E-05 2.14102E-09 2.27281E-19-2.85886E-20
 -1       755 9.52396E-05-2.85694E-05-2.85729E-05 4.29970E-09 1.63743E-18 3.63125E-19
 -1       756 9.52395E-05-2.85712E-05-2.85722E-05 5.37608E-09 2.92976E-19 6.35259E-19
 -1       757 9.52393E-05-2.85722E-05-2.85716E-05 5.72892E-09-4.27329E-19 1.09607E-18
 -1       758 9.52390E-05-2.85728E-05-2.85713E-05 5.61927E-09 1.11985E-18-2.27489E-19
 -1       759 9.52387E-05-2.85730E-05-2.85710E-05 5.22984E-09 5.35496E-19-3.18902E-18
 -1       760 9.52384E-05-2.85731E-05-2.85708E-05 4.68258E-09-1.44145E-18-4.16478E-18
 -1       761 9.52381E-05-2.85731E-05-2.85707E-05 4.15378E-09 3.69499E-19-2.23095E-18
 -1       762 8.67712E-05-2.04845E-05-2.84085E-05 2.71803E-06 4.88988E-19 2.02608E-18
 -1       763 9.52392E-05-2.85739E-05-2.85709E-05 3.38903E-09 1.68144E-18 6.14851E-20
 -1       764 8.19750E-05-1.71648E-05-2.77739E-05 2.54229E-06 5.86903E-19 1.93783E-18
 -1       765 9.32466E-05-2.59922E-05-2.88232E-05 1.72112E-06 1.17105E-18 9.46882E-19
 -1       766 9.40478E-05-2.68392E-05-2.88035E-05 1.34650E-06-4.04615E-19 5.23208E-19
 -1       767 9.45389E-05-2.74101E-05-2.87694E-05 1.02894E-06-9.54434E-19-5.20199E-19
 -1       768 9.48357E-05-2.77920E-05-2.87330E-05 7.72341E-07-7.66385E-19-9.19635E-19
 -1       769 9.50123E-05-2.80468E-05-2.86995E-05 5.71136E-07 1.71549E-19-4.61278E-19
 -1       770 9.51157E-05-2.82170E-05-2.86709E-05 4.16290E-07 3.34955E-19-2.00120E-18
 -1       771 9.51774E-05-2.83356E-05-2.86465E-05 2.94215E-07-4.78257E-19-2.08068E-18
 -1       772 9.52099E-05-2.84111E-05-2.86281E-05 2.07962E-07-7.27336E-19-1.97247E-18
 -1       773 9.52276E-05-2.84624E-05-2.86136E-05 1.44042E-07-5.11794E-19-1.23443E-18
 -1       774 9.52367E-05-2.84976E-05-2.86025E-05 9.72755E-08-1.54010E-18-5.62757E-19
 -1       775 9.52412E-05-2.85219E-05-2.85940E-05 6.34873E-08-5.14951E-19-7.97288E-19
 -1       776 9.52429E-05-2.85388E-05-2.85875E-05 3.94393E-08 4.75309E-19-1.34083E-18
 -1       777 9.52433E-05-2.85504E-05-2.85827E-05 2.26383E-08 1.43745E-18 4.31966E-19
 -1       778 9.52430E-05-2.85585E-05-2.85791E-05 1.11749E-08 1.69634E-18 1.67719E-18
 -1       779 9.52424E-05-2.85640E-05-2.85765E-05 3.59585E-09 1.48853E-19 1.44649E-18
 -1       780 9.52417E-05-2.85677E-05-2.85746E-05-1.19864E-09 1.04609E-18-3.51495E-19
 -1       781 9.52410E-05-2.85701E-05-2.85732E-05-4.03355E-09 1.58053E-18 1.06160E-18
 -1       782 9.52403E-05-2.85716E-05-2.85723E-05-5.52133E-09 1.77799E-18 1.71969E-18
 -1       783 9.52397E-05-2.85725E-05-2.85717E-05-6.11029E-09-1.22062E-18 4.26054E-18
 -1       784 9.52392E-05-2.85729E-05-2.85713E-05-6.12228E-09-1.68716E-18 3.51338E-18
 -1       785 9.52387E-05-2.85731E-05-2.85710E-05-5.78206E-09 7.54219E-19 7.70023E-19
 -1       786 9.52384E-05-2.85731E-05-2.85708E-05-5.24710E-09-9.64392E-19 7.57122E-19
 -1       787 9.52401E-05-2.85746E-05-2.85709E-05-2.43333E-09-1.75086E-18-7.43684E-19
 -1       788 9.21522E-05-2.34312E-05-2.94560E-05 1.86526E-05 3.38083E-18-1.72664E-18
 -1       789 5.12458E-05-1.99447E-06-2.07839E-05-4.52302E-06 2.10880E-18-3.62545E-18
 -1       790 1.16809E-04-8.02021E-06-4.69701E-05-2.38181E-06-2.54615E-18-2.16076E-18
 -1       791 9.52393E-05-2.85740E-05-2.85708E-05-3.37852E-09 1.34330E-19-3.34130E-18
 -1       792 9.52400E-05-2.85745E-05-2.85710E-05 2.49064E-09 3.56128E-18 3.19588E-18
 -1       793 9.52405E-05-2.85748E-05-2.85710E-05 1.34483E-09 3.19709E-18 2.87665E-18
 -1       794 1.31812E-04-4.44870E-05-3.75402E-05-5.09306E-06-4.82458E-19 1.41233E-18
 -1       795 9.52406E-05-2.85749E-05-2.85710E-05-1.24159E-09-1.58257E-18-2.54647E-18
 -1       796 9.19593E-05-2.47511E-05-2.88034E-05 2.12833E-06 1.70669E-19 2.28702E-18
 -1       797 6.40655E-05-8.08612E-06-2.38821E-05 1.28621E-06-3.69870E-19 2.40334E-18
 -1       798 1.02239E-04-2.92826E-05-3.12634E-05-8.07916E-06-4.48437E-19-2.68533E-18
 -1       799 7.48944E-05-1.30603E-05-2.64923E-05 1.69261E-06 9.63830E-19 1.87476E-18
 -1       800 5.43037E-05-5.17206E-06-2.08020E-05 2.07176E-05 3.85072E-18-3.38938E-18
 -1       801 1.29725E-04-5.11501E-05-3.37376E-05 9.14418E-06 1.05663E-18 1.38809E-18
 -1       802 1.20336E-04-1.31003E-05-4.62845E-05-1.03061E-05-3.13569E-18-1.24223E-18
 -1       803 9.52383E-05-2.85733E-05-2.85707E-05-4.09035E-09 2.33152E-18 7.73811E-19
 -1       804 1.28954E-04-3.81776E-05-3.90681E-05 1.10052E-05 3.22581E-19-3.82103E-18
 -1       805 1.29509E-04-5.07281E-05-3.38386E-05-2.51402E-06 1.60475E-18-3.29506E-18
 -1       806 6.64635E-05-4.33844E-06-2.65376E-05-2.85255E-06 2.82469E-18-2.06848E-18
 -1       807 1.17341E-04-9.19801E-06-4.66945E-05 5.03525E-06-2.44221E-18-2.95263E-18
 -1       808 4.99485E-05-7.70222E-06-1.78625E-05-1.76085E-05 1.29974E-18 2.66167E-18
 -1       809 7.51007E-05-2.02588E-05-2.33211E-05 3.30697E-05 4.33134E-18-2.09313E-18
 -1       810 1.14672E-04-5.00216E-05-2.76055E-05-2.65235E-05 3.00647E-18-1.99622E-18
 -1       811 1.00021E-04-2.82414E-05-3.07666E-05 1.23895E-05 2.72248E-18-1.92608E-18
 -1       812 7.05501E-05-7.82121E-06-2.68197E-05 1.72553E-05 3.98690E-18-2.26978E-18
 -1       813 8.12045E-05-1.59204E-05-2.79673E-05 2.12526E-05 4.09720E-18-1.91772E-18
 -1       814 1.17863E-04-4.60579E-05-3.07342E-05 1.76885E-05 2.51982E-18 2.27061E-19
 -1       815 1.04740E-04-3.01414E-05-3.19709E-05-7.21496E-07 1.07501E-18-2.39302E-18
 -1       816 9.52383E-05-2.85732E-05-2.85708E-05-4.67181E-09 9.31168E-19 1.95600E-18
 -1       817 1.26993E-04-3.61564E-05-3.90601E-05-1.12970E-05-1.21189E-18 1.19631E-18
 -1       818 4.66048E-05-4.24302E-06-1.76403E-05 5.10117E-06-6.82430E-19 1.27256E-18
 -1       819 9.52387E-05-2.85735E-05-2.85708E-05 3.82819E-09 5.61301E-19-2.06087E-18
 -1       820 1.03783E-04-2.94004E-05-3.18824E-05-5.15275E-06 2.55746E-19-2.43011E-18
 -1       821 9.14090E-05-2.95462E-05-2.64504E-05 3.01547E-05 3.98933E-18-1.07245E-18
 -1       822 1.20748E-04-4.99271E-05-3.03604E-05-1.21118E-05 2.00829E-18-2.77669E-18
 -1       823 8.05694E-05-2.59100E-05-2.33405E-05-2.82113E-05 2.17971E-18 1.36168E-18
 -1       824 5.09391E-05-4.18049E-06-1.97035E-05 5.19137E-07 3.27927E-20 1.66032E-18
 -1       825 1.08300E-04-3.21816E-05-3.26241E-05-9.73256E-06-6.98695E-19-1.13303E-18
 -1       826 1.06778E-04-2.84771E-05-3.35663E-05-1.04489E-05-7.82033E-19-9.83178E-19
 -1       827 1.03915E-04-2.33397E-05-3.45372E-05-8.71593E-06-1.25833E-18-6.00775E-19
 -1       828 1.01288E-04-1.91765E-05-3.51950E-05-4.03117E-06-1.21680E-18-7.53084E-19
 -1       829 1.00632E-04-1.84390E-05-3.52287E-05 2.36604E-06-9.69055E-19-1.48887E-18
 -1       830 1.02107E-04-2.14066E-05-3.46030E-05 7.94761E-06-4.32145E-19-1.49519E-18
 -1       831 1.05098E-04-2.70652E-05-3.34332E-05 1.07619E-05-5.47220E-19-1.77732E-18
 -1       832 1.07191E-04-3.22285E-05-3.21307E-05 1.03707E-05 1.27974E-19-2.28991E-18
 -1       833 1.07731E-04-3.55926E-05-3.09146E-05 8.11042E-06 7.54333E-19-2.46355E-18
 -1       834 1.06728E-04-3.67802E-05-2.99750E-05 5.29818E-06 7.19208E-19-2.13035E-18
 -1       835 1.04790E-04-3.63619E-05-2.93271E-05 2.82105E-06 1.43170E-19-1.41537E-18
 -1       836 1.02547E-04-3.50625E-05-2.89227E-05 1.02602E-06-1.59650E-19-1.33346E-18
 -1       837 1.00456E-04-3.34959E-05-2.86977E-05-8.94493E-08-4.63488E-19-3.04026E-20
 -1       838 9.87305E-05-3.20205E-05-2.85902E-05-6.80237E-07-1.55446E-19 9.60340E-19
 -1       839 9.74266E-05-3.08059E-05-2.85518E-05-9.20756E-07-2.03376E-19 9.60551E-19
 -1       840 9.65078E-05-2.98929E-05-2.85492E-05-9.53917E-07 1.24618E-18-2.83543E-19
 -1       841 9.58996E-05-2.92555E-05-2.85618E-05-8.78775E-07 1.92191E-18-1.20991E-19
 -1       842 9.55221E-05-2.88406E-05-2.85778E-05-7.57182E-07 9.46524E-19 2.35865E-19
 -1       843 9.53049E-05-2.85912E-05-2.85916E-05-6.24440E-07 1.08716E-19 1.70588E-19
 -1       844 9.51929E-05-2.84569E-05-2.86011E-05-4.98924E-07 8.54771E-20-1.17611E-19
 -1       845 9.51455E-05-2.83978E-05-2.86062E-05-3.88765E-07 1.64431E-19-1.26314E-18
 -1       846 9.51352E-05-2.83845E-05-2.86075E-05-2.96391E-07 9.78661E-19-1.67126E-18
 -1       847 9.51440E-05-2.83965E-05-2.86061E-05-2.21339E-07 3.94632E-20-1.69835E-18
 -1       848 9.51608E-05-2.84206E-05-2.86029E-05-1.61816E-07-6.19894E-19-1.02368E-18
 -1       849 9.51793E-05-2.84485E-05-2.85989E-05-1.15562E-07-8.67652E-19-8.89503E-19
 -1       850 9.51964E-05-2.84757E-05-2.85946E-05-8.02853E-08-4.10235E-19-1.25809E-19
 -1       851 9.52105E-05-2.84998E-05-2.85903E-05-5.38753E-08 7.83848E-21-1.97205E-18
 -1       852 9.52215E-05-2.85198E-05-2.85864E-05-3.44878E-08 1.81525E-18-1.30936E-18
 -1       853 9.52295E-05-2.85357E-05-2.85831E-05-2.05639E-08 9.55735E-19-1.34519E-18
 -1       854 9.52350E-05-2.85478E-05-2.85802E-05-1.08180E-08 7.93673E-19-4.41730E-19
 -1       855 9.52385E-05-2.85568E-05-2.85779E-05-4.20999E-09-1.39893E-19 1.25275E-18
 -1       856 9.52405E-05-2.85632E-05-2.85760E-05 8.61035E-11-1.35809E-18 1.93787E-18
 -1       857 9.52415E-05-2.85676E-05-2.85745E-05 2.71543E-09 3.70643E-19 1.12101E-18
 -1       858 9.52418E-05-2.85704E-05-2.85734E-05 4.17289E-09 1.65544E-18 1.28392E-18
 -1       859 9.52416E-05-2.85722E-05-2.85726E-05 4.83097E-09 6.21080E-19 1.03207E-18
 -1       860 9.52411E-05-2.85732E-05-2.85720E-05 4.96369E-09-4.17974E-19 5.92671E-19
 -1       861 9.52406E-05-2.85736E-05-2.85715E-05 4.76685E-09 2.18015E-19 1.35337E-19
 -1       862 9.52399E-05-2.85738E-05-2.85712E-05 4.37421E-09-1.50358E-18-6.14756E-19
 -1       863 9.43763E-05-2.74089E-05-2.87003E-05 6.10458E-07-2.85860E-19 1.21640E-18
 -1       864 8.40552E-05-1.94648E-05-2.76821E-05-1.93095E-06 9.61310E-19 9.46685E-19
 -1       865 1.03875E-04-3.01135E-05-3.16110E-05 5.36184E-06 1.76135E-18-1.80893E-18
 -1       866 9.38817E-05-2.68975E-05-2.87076E-05 7.09978E-07-2.90622E-19 1.38664E-18
 -1       867 9.31222E-05-2.61686E-05-2.86945E-05 7.59625E-07 6.32194E-19 1.68172E-18
 -1       868 9.46952E-05-2.77644E-05-2.86846E-05 4.98563E-07-1.02254E-19-9.86104E-19
 -1       869 9.48995E-05-2.80110E-05-2.86665E-05 3.92210E-07-1.15997E-19 5.63982E-19
 -1       870 9.50346E-05-2.81889E-05-2.86481E-05 2.95718E-07 3.86423E-19 1.14357E-18
 -1       871 9.51151E-05-2.83055E-05-2.86327E-05 2.20200E-07-2.28030E-19 4.26450E-19
 -1       872 9.51659E-05-2.83871E-05-2.86195E-05 1.59861E-07-1.14904E-18 1.73027E-19
 -1       873 9.51978E-05-2.84443E-05-2.86086E-05 1.13033E-07-8.17133E-19-4.65783E-19
 -1       874 9.52176E-05-2.84847E-05-2.85998E-05 7.75133E-08-1.04318E-18-9.66737E-19
 -1       875 9.52297E-05-2.85131E-05-2.85928E-05 5.11495E-08-5.84130E-19-3.02544E-19
 -1       876 9.52368E-05-2.85331E-05-2.85873E-05 3.20076E-08-8.07896E-19 6.56173E-19
 -1       877 9.52408E-05-2.85472E-05-2.85830E-05 1.84391E-08 1.19013E-18 1.15447E-18
 -1       878 9.52429E-05-2.85569E-05-2.85797E-05 9.08670E-09-5.06020E-19 2.24058E-18
 -1       879 9.52436E-05-2.85635E-05-2.85772E-05 2.86132E-09 1.31210E-18 2.89069E-18
 -1       880 9.52437E-05-2.85679E-05-2.85753E-05-1.09232E-09 1.72692E-18 1.60581E-18
 -1       881 9.52432E-05-2.85707E-05-2.85739E-05-3.43310E-09 1.53630E-18 2.40948E-19
 -1       882 9.52426E-05-2.85724E-05-2.85729E-05-4.65899E-09-9.93251E-19 2.28325E-18
 -1       883 9.52418E-05-2.85734E-05-2.85722E-05-5.13871E-09-1.87695E-18 2.06756E-18
 -1       884 9.52410E-05-2.85738E-05-2.85717E-05-5.13895E-09 1.52001E-18-6.29411E-19
 -1       885 9.52403E-05-2.85739E-05-2.85713E-05-4.84270E-09 5.05868E-19-1.19006E-18
 -1       886 7.02575E-05-1.27230E-05-2.46230E-05-8.91874E-06 9.30204E-19 1.64294E-18
 -1       887 9.52403E-05-2.85743E-05-2.85711E-05 3.36453E-09-2.93073E-19-1.46856E-20
 -1       888 1.18386E-04-2.17836E-05-4.15527E-05-1.30072E-05-1.84351E-18-2.82896E-20
 -1       889 1.23926E-04-4.41265E-05-3.42281E-05-6.88916E-07 6.28178E-19 7.59752E-19
 -1       890 9.52404E-05-2.85744E-05-2.85711E-05-3.28637E-09 8.64509E-19-4.22527E-18
 -1       891 6.47151E-05-1.29513E-05-2.20387E-05-1.89779E-05 5.74103E-19 2.58408E-18
 -1       892 8.77061E-05-2.18517E-05-2.82237E-05-3.89383E-07 1.02301E-18 8.39643E-19
 -1       893 1.07852E-04-3.32358E-05-3.19769E-05-7.99121E-06-3.74478E-19-1.28833E-18
 -1       894 1.06418E-04-3.22279E-05-3.17964E-05-6.34748E-06-8.48515E-20-1.67341E-18
 -1       895 7.89822E-05-1.66919E-05-2.66939E-05-4.74477E-06 1.12219E-18 1.70805E-18
 -1       896 1.16063E-04-2.71864E-05-3.81509E-05 1.30720E-05-7.29752E-19-2.56937E-18
 -1       897 9.96238E-05-3.85729E-05-2.60968E-05-2.59091E-05 2.48032E-18-1.22943E-18
 -1       898 1.11789E-04-1.26847E-05-4.26257E-05-6.22637E-06-2.26172E-18-9.95061E-19
 -1       899 1.10906E-04-1.48526E-05-4.12729E-05 7.68284E-06-1.29844E-18-2.42282E-18
 -1       900 1.22417E-04-4.16390E-05-3.46686E-05 7.46143E-06 5.22815E-19-2.06943E-18
 -1       901 1.10069E-04-1.14600E-05-4.24189E-05 1.00730E-06-1.74381E-18-1.82843E-18
 -1       902 9.02429E-05-2.37318E-05-2.85049E-05 3.74982E-07-1.23893E-19 9.90996E-19
 -1       903 9.52412E-05-2.85749E-05-2.85713E-05-2.04324E-09-3.60655E-19-1.59657E-18
 -1       904 9.19689E-05-2.51431E-05-2.86397E-05 6.89035E-07 8.24753E-19 1.32413E-18
 -1       905 9.52393E-05-2.85737E-05-2.85710E-05 4.13974E-09 6.22774E-19-1.64776E-18
 -1       906 1.20518E-04-4.57356E-05-3.20460E-05 6.28531E-08 1.36326E-18-1.95932E-18
 -1       907 1.17784E-04-4.26052E-05-3.22143E-05 6.45467E-06 1.48203E-18 2.14634E-19
 -1       908 1.10111E-04-3.53865E-05-3.20150E-05 1.16567E-06 1.13019E-18-1.48111E-18
 -1       909 9.52399E-05-2.85740E-05-2.85711E-05-4.37041E-09 4.14054E-19-4.01812E-18
 -1       910 1.04379E-04-3.59995E-05-2.92842E-05 2.15335E-05 3.20276E-18-8.58700E-19
 -1       911 9.52411E-05-2.85748E-05-2.85713E-05 2.19881E-09 1.72521E-18 3.79861E-18
 -1       912 1.22642E-04-4.02368E-05-3.53663E-05-6.90751E-06-1.48129E-19 7.27313E-19
 -1       913 9.52416E-05-2.85751E-05-2.85714E-05-6.25650E-10 1.82464E-18 3.06227E-18
 -1       914 1.08593E-04-3.37376E-05-3.20766E-05-3.31938E-06 6.34744E-19-1.81342E-18
 -1       915 1.09521E-04-4.33790E-05-2.83513E-05-1.66479E-05 2.05867E-18-1.50276E-18
 -1       916 9.52415E-05-2.85750E-05-2.85714E-05 8.30189E-10 2.29567E-18 2.68816E-18
 -1       917 1.11447E-04-2.69720E-05-3.62032E-05-1.16221E-05-8.98709E-19-7.19492E-19
 -1       918 1.07434E-04-1.93253E-05-3.77963E-05-8.83700E-06-1.46669E-18-7.09733E-19
 -1       919 1.05639E-04-1.70650E-05-3.80556E-05 6.43051E-06-5.57262E-19-1.27537E-18
 -1       920 1.13280E-04-3.76438E-05-3.24152E-05 8.26877E-06 6.59699E-19-1.38699E-18
 -1       921 1.11778E-04-3.97267E-05-3.08794E-05 4.40848E-06 9.10224E-19-1.07571E-18
 -1       922 1.08667E-04-3.91169E-05-2.98101E-05 1.15333E-06 8.07799E-19-9.55696E-19
 -1       923 1.05230E-04-3.72451E-05-2.91364E-05-9.56423E-07 1.70458E-19-3.64279E-19
 -1       924 1.02146E-04-3.50129E-05-2.87716E-05-1.94318E-06 4.64044E-19 9.19344E-20
 -1       925 9.96956E-05-3.29748E-05-2.85948E-05-2.21115E-06 3.03673E-19 2.37955E-19
 -1       926 9.79076E-05-3.13451E-05-2.85268E-05-2.08556E-06 1.00849E-19 9.61689E-19
 -1       927 9.66888E-05-3.01525E-05-2.85155E-05-1.78639E-06-8.58100E-20 1.18952E-18
 -1       928 9.59089E-05-2.93400E-05-2.85295E-05-1.44320E-06 9.66140E-19 7.49764E-19
 -1       929 9.54434E-05-2.88237E-05-2.85513E-05-1.12202E-06 1.01971E-18-6.28596E-19
 -1       930 9.51897E-05-2.85216E-05-2.85720E-05-8.49637E-07 7.13012E-19-5.82684E-19
 -1       931 9.50709E-05-2.83655E-05-2.85880E-05-6.31310E-07-1.28138E-19-5.97411E-19
 -1       932 9.50324E-05-2.83027E-05-2.85985E-05-4.62508E-07 2.60758E-19-1.17859E-18
 -1       933 9.50381E-05-2.82956E-05-2.86039E-05-3.34857E-07-1.27947E-19-5.70360E-19
 -1       934 9.50649E-05-2.83186E-05-2.86055E-05-2.39762E-07 9.19792E-19-1.34721E-18
 -1       935 9.50990E-05-2.83554E-05-2.86044E-05-1.69635E-07 1.08900E-19-1.93382E-18
 -1       936 9.51329E-05-2.83959E-05-2.86016E-05-1.18317E-07-4.02616E-19-1.32094E-18
 -1       937 9.51628E-05-2.84344E-05-2.85979E-05-8.10218E-08 2.69002E-19-4.09454E-19
 -1       938 9.51872E-05-2.84683E-05-2.85938E-05-5.41195E-08-6.06815E-20 6.51799E-19
 -1       939 9.52061E-05-2.84964E-05-2.85899E-05-3.48950E-08 5.34957E-19 2.86853E-19
 -1       940 9.52199E-05-2.85188E-05-2.85862E-05-2.13265E-08 1.02374E-18-1.48053E-18
 -1       941 9.52297E-05-2.85360E-05-2.85830E-05-1.19089E-08 1.60724E-18-1.08576E-18
 -1       942 9.52362E-05-2.85488E-05-2.85803E-05-5.51983E-09 2.00801E-18 1.04805E-18
 -1       943 9.52401E-05-2.85581E-05-2.85780E-05-1.32108E-09-7.53816E-19 9.73204E-19
 -1       944 9.52423E-05-2.85645E-05-2.85762E-05 1.31316E-09-1.76746E-18 4.52134E-19
 -1       945 9.52433E-05-2.85688E-05-2.85748E-05 2.84861E-09 1.38926E-18 9.52500E-20
 -1       946 9.52434E-05-2.85716E-05-2.85736E-05 3.62941E-09 1.22481E-18-1.41336E-18
 -1       947 9.52430E-05-2.85732E-05-2.85728E-05 3.90706E-09-3.29481E-19-1.65468E-18
 -1       948 9.52423E-05-2.85740E-05-2.85721E-05 3.86438E-09-2.78878E-20-3.46643E-19
 -1       949 9.52415E-05-2.85743E-05-2.85716E-05 3.63016E-09-7.18600E-19-9.53097E-19
 -1       950 9.46732E-05-2.78187E-05-2.86520E-05 2.63485E-07-1.01375E-18-2.53735E-19
 -1       951 7.76029E-05-2.00237E-05-2.46364E-05-1.87323E-05 1.92757E-18 1.13375E-18
 -1       952 1.09344E-04-3.61586E-05-3.13608E-05 8.91871E-06 1.90789E-18-8.34239E-19
 -1       953 1.13125E-04-3.60296E-05-3.30377E-05-7.13277E-06-2.36994E-19-8.91308E-19
 -1       954 9.39703E-05-2.71182E-05-2.86510E-05 2.23100E-07 7.14843E-19-2.32897E-19
 -1       955 9.33612E-05-2.65669E-05-2.86263E-05 6.87812E-08 5.77949E-19 3.19220E-19
 -1       956 9.48737E-05-2.80412E-05-2.86425E-05 2.28381E-07-3.44666E-19-8.76014E-20
 -1       957 9.50010E-05-2.81928E-05-2.86321E-05 1.86650E-07 1.03897E-18 1.40653E-18
 -1       958 9.50865E-05-2.83025E-05-2.86217E-05 1.45615E-07-4.29939E-20-1.21457E-20
 -1       959 9.51437E-05-2.83817E-05-2.86123E-05 1.09296E-07-5.84498E-19-1.68290E-18
 -1       960 9.51818E-05-2.84390E-05-2.86040E-05 7.91179E-08-9.46197E-19-7.19980E-19
 -1       961 9.52068E-05-2.84804E-05-2.85970E-05 5.51448E-08-1.03922E-18-1.67421E-19
 -1       962 9.52230E-05-2.85101E-05-2.85912E-05 3.67731E-08-1.05089E-18-1.33892E-18
 -1       963 9.52332E-05-2.85313E-05-2.85865E-05 2.31363E-08-7.68045E-19-1.20874E-18
 -1       964 9.52393E-05-2.85463E-05-2.85827E-05 1.33250E-08-4.86417E-19-4.51953E-19
 -1       965 9.52428E-05-2.85567E-05-2.85797E-05 6.49787E-09 1.10026E-18-1.57267E-18
 -1       966 9.52444E-05-2.85638E-05-2.85774E-05 1.92987E-09 1.71537E-18 3.86050E-19
 -1       967 9.52449E-05-2.85685E-05-2.85756E-05-9.75102E-10 1.97616E-18 2.44332E-18
 -1       968 9.52446E-05-2.85714E-05-2.85742E-05-2.68993E-09-6.83997E-19 3.43502E-18
 -1       969 9.52440E-05-2.85732E-05-2.85732E-05-3.57896E-09-1.26319E-18 2.48875E-18
 -1       970 9.52431E-05-2.85741E-05-2.85724E-05-3.91371E-09 2.95536E-18-1.36470E-18
 -1       971 9.52421E-05-2.85744E-05-2.85719E-05-3.90043E-09 2.06479E-18-2.53091E-18
 -1       972 9.52413E-05-2.85745E-05-2.85715E-05-3.65678E-09 1.53428E-18-4.43972E-18
 -1       973 9.08281E-05-3.02979E-05-2.59263E-05-2.16458E-05 2.60006E-18-3.60414E-19
 -1       974 8.73236E-05-2.23923E-05-2.78272E-05-4.21847E-06 1.15587E-18-5.09291E-20
 -1       975 8.45157E-05-2.11276E-05-2.71636E-05-7.59390E-06 7.35739E-19-8.30140E-19
 -1       976 8.13115E-05-2.01702E-05-2.61882E-05-1.21839E-05 1.43110E-18-3.72231E-20
 -1       977 1.17036E-04-2.92550E-05-3.76660E-05-1.25330E-05-1.01423E-18-7.46712E-20
 -1       978 1.13684E-04-3.33871E-05-3.44345E-05-1.03135E-05-5.59149E-19-3.15115E-19
 -1       979 9.43883E-05-2.75235E-05-2.86564E-05 2.71135E-07 2.34283E-19 6.12790E-20
 -1       980 9.52426E-05-2.85751E-05-2.85718E-05 1.57055E-10 2.24741E-18 3.14718E-18
 -1       981 1.11346E-04-3.56668E-05-3.24338E-05-5.00460E-06 1.93412E-19-1.42245E-18
 -1       982 9.24890E-05-2.58348E-05-2.85661E-05-2.77277E-07 1.26059E-18 1.22550E-19
 -1       983 1.04902E-04-1.50302E-05-3.85666E-05-1.06613E-06-1.71174E-18-1.12792E-18
 -1       984 1.13252E-04-3.37622E-05-3.40788E-05 1.07709E-05-1.77807E-19-1.50862E-18
 -1       985 1.16766E-04-3.95654E-05-3.30916E-05-2.53819E-06 6.38540E-19-3.81825E-19
 -1       986 9.52424E-05-2.85751E-05-2.85717E-05-1.44405E-09 2.21083E-18 1.85701E-18
 -1       987 8.95672E-05-2.37184E-05-2.82208E-05-2.16050E-06-5.66989E-20-3.18124E-19
 -1       988 9.52423E-05-2.85749E-05-2.85717E-05 1.70352E-09 1.88116E-18 1.91565E-18
 -1       989 1.01028E-04-3.67884E-05-2.75321E-05-1.69139E-05 1.63620E-18-1.26776E-18
 -1       990 1.14566E-04-4.45807E-05-2.99864E-05-6.59906E-06 8.99442E-19-1.75074E-18
 -1       991 9.12594E-05-2.48874E-05-2.84450E-05-9.50422E-07 5.44273E-19-6.74907E-19
 -1       992 1.03509E-04-3.64238E-05-2.87501E-05-4.90045E-06 9.59672E-19-1.33473E-18
 -1       993 1.00245E-04-3.36771E-05-2.85285E-05-4.54172E-06 2.24393E-19-1.30137E-19
 -1       994 9.80011E-05-3.16064E-05-2.84544E-05-3.80205E-06 5.52597E-20-6.60105E-19
 -1       995 9.65497E-05-3.01581E-05-2.84535E-05-2.97588E-06 9.23296E-19-5.69827E-19
 -1       996 9.56772E-05-2.92193E-05-2.84818E-05-2.22366E-06 7.19436E-19 6.83114E-19
 -1       997 9.51922E-05-2.86516E-05-2.85173E-05-1.60790E-06 5.26666E-19 8.40661E-19
 -1       998 9.49574E-05-2.83422E-05-2.85494E-05-1.13506E-06 3.02481E-19 7.15360E-19
 -1       999 9.48724E-05-2.81996E-05-2.85741E-05-7.86639E-07 3.67160E-19-2.61748E-19
 -1      1000 9.48701E-05-2.81583E-05-2.85908E-05-5.38230E-07-4.27116E-19-1.61845E-19
 -1      1001 9.49097E-05-2.81748E-05-2.86007E-05-3.64487E-07 1.35294E-19-2.43932E-19
 -1      1002 9.49660E-05-2.82204E-05-2.86053E-05-2.44831E-07 8.12561E-19-7.67038E-19
 -1      1003 9.50246E-05-2.82772E-05-2.86060E-05-1.63275E-07-4.30341E-19-4.00771E-19
 -1      1004 9.50781E-05-2.83347E-05-2.86043E-05-1.07988E-07 3.77093E-20-8.04836E-19
 -1      1005 9.51233E-05-2.83874E-05-2.86011E-05-7.06472E-08 1.49828E-19-9.66802E-19
 -1      1006 9.51595E-05-2.84327E-05-2.85972E-05-4.54664E-08 1.16482E-19-3.00056E-20
 -1      1007 9.51873E-05-2.84700E-05-2.85932E-05-2.85137E-08 2.61264E-20-3.93847E-19
 -1      1008 9.52078E-05-2.84996E-05-2.85892E-05-1.71382E-08 8.99675E-19-3.21644E-19
 -1      1009 9.52223E-05-2.85224E-05-2.85857E-05-9.55719E-09 1.61914E-18 4.24716E-19
 -1      1010 9.52321E-05-2.85394E-05-2.85826E-05-4.56834E-09 1.82064E-18-8.28190E-19
 -1      1011 9.52384E-05-2.85518E-05-2.85800E-05-1.35540E-09-5.94955E-20-1.83630E-18
 -1      1012 9.52421E-05-2.85606E-05-2.85778E-05 6.41203E-10-1.11977E-18-1.19785E-18
 -1      1013 9.52440E-05-2.85665E-05-2.85761E-05 1.80894E-09-5.71818E-19 7.52335E-19
 -1      1014 9.52446E-05-2.85704E-05-2.85747E-05 2.41831E-09 6.90413E-19 1.44232E-19
 -1      1015 9.52444E-05-2.85727E-05-2.85736E-05 2.65861E-09-1.07919E-18 3.57859E-19
 -1      1016 9.52438E-05-2.85740E-05-2.85728E-05 2.66503E-09 6.30497E-19 2.03234E-19
 -1      1017 9.52431E-05-2.85747E-05-2.85722E-05 2.21857E-09 6.27116E-19 7.40855E-19
 -1      1018 9.48911E-05-2.80952E-05-2.86268E-05 1.00733E-07-7.43071E-19-3.97052E-19
 -1      1019 9.47223E-05-2.79165E-05-2.86311E-05 8.57943E-08-8.60135E-19-2.37381E-19
 -1      1020 9.50039E-05-2.82229E-05-2.86205E-05 9.45019E-08 9.99802E-19 4.59716E-19
 -1      1021 9.50835E-05-2.83189E-05-2.86134E-05 8.00240E-08 1.50078E-18 3.42571E-19
 -1      1022 9.51390E-05-2.83907E-05-2.86064E-05 6.32695E-08-1.39535E-18-1.86496E-18
 -1      1023 9.51774E-05-2.84441E-05-2.86000E-05 4.74007E-08-1.44828E-18-1.67083E-18
 -1      1024 9.52035E-05-2.84834E-05-2.85943E-05 3.38060E-08-7.56942E-19-2.12419E-18
 -1      1025 9.52209E-05-2.85122E-05-2.85894E-05 2.28869E-08-2.99628E-19-1.61129E-18
 -1      1026 9.52321E-05-2.85329E-05-2.85854E-05 1.45338E-08-1.11723E-18-1.89892E-18
 -1      1027 9.52390E-05-2.85477E-05-2.85820E-05 8.40641E-09 4.79664E-19-1.10496E-18
 -1      1028 9.52430E-05-2.85579E-05-2.85793E-05 4.09114E-09 4.15201E-20 9.36882E-19
 -1      1029 9.52449E-05-2.85649E-05-2.85772E-05 1.18444E-09 1.29262E-18 1.03805E-18
 -1      1030 9.52456E-05-2.85694E-05-2.85755E-05-6.68723E-10 1.41512E-19 2.03212E-18
 -1      1031 9.52453E-05-2.85722E-05-2.85742E-05-1.76055E-09-5.39638E-20 2.06453E-18
 -1      1032 9.52446E-05-2.85738E-05-2.85732E-05-2.32033E-09 2.65656E-18 8.43165E-19
 -1      1033 9.52437E-05-2.85746E-05-2.85724E-05-2.52744E-09 3.44606E-18-2.17509E-19
 -1      1034 8.93995E-05-2.49104E-05-2.76377E-05-7.85955E-06 1.05521E-18-4.24375E-20
 -1      1035 8.95943E-05-2.72603E-05-2.67166E-05-1.55912E-05 1.80246E-18-3.40325E-19
 -1      1036 9.41816E-05-2.74013E-05-2.86202E-05-9.59015E-08 5.53232E-19 1.95647E-18
 -1      1037 9.44954E-05-2.76918E-05-2.86302E-05 3.07473E-08 1.06397E-18 5.69765E-19
 -1      1038 9.37553E-05-2.70340E-05-2.85948E-05-3.47176E-07-2.57024E-19 7.79801E-19
 -1      1039 9.52435E-05-2.85750E-05-2.85722E-05-6.11037E-10 2.75962E-18 3.19069E-18
 -1      1040 9.04469E-05-2.50337E-05-2.80333E-05-4.83120E-06 9.75410E-19-1.26708E-18
 -1      1041 1.07836E-04-3.95952E-05-2.92430E-05-4.35451E-06 8.25737E-19-1.91632E-18
 -1      1042 9.52431E-05-2.85749E-05-2.85721E-05-2.32314E-09 3.51748E-18-2.33139E-20
 -1      1043 9.31744E-05-2.65753E-05-2.85427E-05-8.06697E-07 7.63924E-19-2.66730E-19
 -1      1044 1.08068E-04-4.07828E-05-2.88275E-05-1.02166E-05 1.02787E-18-9.34923E-19
 -1      1045 8.90974E-05-2.55924E-05-2.72185E-05-1.12689E-05 1.22501E-18 3.95930E-19
 -1      1046 9.52435E-05-2.85749E-05-2.85722E-05 8.30025E-10 8.13516E-19 1.49482E-18
 -1      1047 1.02633E-04-3.63977E-05-2.83937E-05-9.42794E-06 1.48005E-18-5.61499E-19
 -1      1048 9.73702E-05-3.13591E-05-2.82896E-05-6.11947E-06 2.35941E-19-2.95001E-19
 -1      1049 9.58529E-05-2.97289E-05-2.83384E-05-4.49665E-06 5.17803E-19 9.84603E-19
 -1      1050 9.50351E-05-2.87558E-05-2.84059E-05-3.17414E-06 1.66155E-18 6.96123E-19
 -1      1051 9.46604E-05-2.82290E-05-2.84703E-05-2.16893E-06 5.09494E-19 4.99190E-19
 -1      1052 9.45384E-05-2.79872E-05-2.85217E-05-1.44687E-06-2.81434E-19-1.71029E-19
 -1      1053 9.45609E-05-2.79226E-05-2.85590E-05-9.43531E-07-4.34674E-19-9.94237E-19
 -1      1054 9.46384E-05-2.79424E-05-2.85838E-05-6.00504E-07 1.89187E-19-1.71357E-18
 -1      1055 9.47407E-05-2.80101E-05-2.85988E-05-3.74673E-07-2.35685E-19-1.55056E-18
 -1      1056 9.48441E-05-2.80960E-05-2.86063E-05-2.29492E-07 3.76817E-19-1.54192E-18
 -1      1057 9.49375E-05-2.81838E-05-2.86087E-05-1.37922E-07 3.66452E-19-2.07700E-18
 -1      1058 9.50164E-05-2.82650E-05-2.86077E-05-8.12505E-08-3.58016E-20-1.62742E-18
 -1      1059 9.50801E-05-2.83356E-05-2.86048E-05-4.68298E-08 5.63847E-19-2.16798E-19
 -1      1060 9.51297E-05-2.83945E-05-2.86008E-05-2.62043E-08 8.33063E-19 6.55728E-19
 -1      1061 9.51671E-05-2.84420E-05-2.85965E-05-1.40376E-08-1.13756E-19 1.03406E-18
 -1      1062 9.51945E-05-2.84793E-05-2.85922E-05-6.97097E-09 1.16789E-18 1.61907E-18
 -1      1063 9.52139E-05-2.85078E-05-2.85883E-05-2.93785E-09 1.26247E-18 3.15687E-19
 -1      1064 9.52272E-05-2.85292E-05-2.85848E-05-6.88448E-10 5.68476E-19 5.23147E-20
 -1      1065 9.52358E-05-2.85449E-05-2.85818E-05 5.21798E-10-3.42459E-19-1.30320E-18
 -1      1066 9.52411E-05-2.85560E-05-2.85793E-05 1.13121E-09-3.07841E-19-5.11017E-19
 -1      1067 9.52440E-05-2.85636E-05-2.85773E-05 1.39580E-09 1.06436E-19-2.22642E-18
 -1      1068 9.52452E-05-2.85687E-05-2.85756E-05 1.46465E-09 7.89611E-19-2.31772E-18
 -1      1069 9.52454E-05-2.85719E-05-2.85744E-05 1.42526E-09 5.97360E-19-2.71677E-18
 -1      1070 9.52449E-05-2.85737E-05-2.85733E-05 1.32925E-09-1.45335E-19-1.91638E-18
 -1      1071 9.50969E-05-2.83470E-05-2.86071E-05 2.73591E-08 1.26358E-18 2.06805E-18
 -1      1072 9.52441E-05-2.85747E-05-2.85726E-05-7.97797E-10 4.72857E-18 1.56479E-18
 -1      1073 9.50286E-05-2.82667E-05-2.86123E-05 2.31766E-08 1.54646E-18 9.99144E-19
 -1      1074 9.49359E-05-2.81644E-05-2.86164E-05 6.31220E-09-3.56365E-19 7.77648E-20
 -1      1075 9.48046E-05-2.80288E-05-2.86182E-05-3.73771E-08-6.28455E-19 2.09639E-19
 -1      1076 9.51462E-05-2.84090E-05-2.86017E-05 2.53295E-08-6.54764E-19 1.44711E-18
 -1      1077 9.51813E-05-2.84562E-05-2.85965E-05 2.08037E-08-4.10799E-19 1.82610E-19
 -1      1078 9.52057E-05-2.84917E-05-2.85917E-05 1.57635E-08-8.30021E-19-3.24048E-19
 -1      1079 9.52222E-05-2.85180E-05-2.85875E-05 1.11634E-08-2.27082E-19-4.70711E-19
 -1      1080 9.52330E-05-2.85371E-05-2.85840E-05 7.37653E-09-9.12849E-19-1.13029E-18
 -1      1081 9.52397E-05-2.85506E-05-2.85810E-05 4.46767E-09 3.50479E-19-2.49793E-18
 -1      1082 9.52435E-05-2.85601E-05-2.85786E-05 2.35420E-09-2.02930E-19-2.09531E-18
 -1      1083 9.52453E-05-2.85664E-05-2.85767E-05 8.96824E-10 7.81598E-19-7.26397E-19
 -1      1084 9.52458E-05-2.85705E-05-2.85751E-05-5.23596E-11-1.51134E-19-1.37017E-18
 -1      1085 9.52455E-05-2.85730E-05-2.85739E-05-6.27549E-10 7.82312E-19-1.01499E-18
 -1      1086 9.52449E-05-2.85741E-05-2.85732E-05-7.69238E-10 3.75495E-18 8.92584E-19
 -1      1087 9.41563E-05-2.74620E-05-2.85833E-05-5.49618E-07-5.44610E-19-5.12292E-19
 -1      1088 9.70223E-05-3.23811E-05-2.77028E-05-1.25593E-05 1.08259E-18-7.67505E-19
 -1      1089 9.94348E-05-3.34448E-05-2.82859E-05-7.81385E-06 9.52209E-19-8.56529E-19
 -1      1090 9.15134E-05-2.55018E-05-2.82900E-05-2.84671E-06 6.84453E-19-1.66673E-18
 -1      1091 9.24325E-05-2.60536E-05-2.84484E-05-1.58850E-06 6.01584E-19-1.39765E-18
 -1      1092 9.29786E-05-2.76274E-05-2.80104E-05-6.79437E-06 1.84512E-18-2.26971E-19
 -1      1093 9.52442E-05-2.85745E-05-2.85727E-05 1.08844E-09 1.66319E-18 4.26020E-19
 -1      1094 9.38305E-05-2.72327E-05-2.85426E-05-1.00097E-06-4.94686E-19-4.51294E-19
 -1      1095 9.44248E-05-2.76793E-05-2.86053E-05-2.78832E-07 9.88219E-19 4.83033E-19
 -1      1096 9.36866E-05-2.87816E-05-2.78162E-05-9.18999E-06 1.58979E-18-9.42339E-19
 -1      1097 9.52443E-05-2.85746E-05-2.85727E-05 1.27027E-10 2.83349E-18-1.95578E-19
 -1      1098 9.46386E-05-2.78693E-05-2.86154E-05-1.22545E-07 1.64330E-19 8.72713E-19
 -1      1099 9.28975E-05-2.70475E-05-2.82227E-05-4.45574E-06 9.10091E-19-7.24429E-19
 -1      1100 9.38778E-05-2.74028E-05-2.84890E-05-1.70525E-06-1.80061E-19-1.37065E-18
 -1      1101 9.34851E-05-2.72319E-05-2.83936E-05-2.76313E-06 5.30274E-19-9.24346E-19
 -1      1102 1.18255E-04 2.59985E-10-4.23140E-05-4.23830E-05-5.86994E-19 5.85109E-18
 -1      1103 8.94168E-05 7.22217E-11-3.76007E-05-2.50594E-05-2.14193E-19-4.02584E-18
 -1      1104 8.50435E-05 4.41115E-11-3.61684E-05-1.86426E-05-1.00162E-19-7.00762E-18
 -1      1105 8.36531E-05 3.79312E-11-3.55753E-05-1.41099E-05-3.45695E-20-7.79099E-18
 -1      1106 8.30818E-05 3.61895E-11-3.52953E-05-9.92515E-06 1.56172E-21-7.69591E-18
 -1      1107 8.25687E-05 3.53426E-11-3.50550E-05-5.85600E-06 2.62977E-20-7.24255E-18
 -1      1108 8.17500E-05 3.35950E-11-3.47128E-05-1.90448E-06 4.18752E-20-6.70975E-18
 -1      1109 8.04884E-05 2.98456E-11-3.42182E-05 1.76245E-06 5.61159E-20-6.14203E-18
 -1      1110 7.88757E-05 2.36463E-11-3.36130E-05 4.82075E-06 7.08861E-20-5.61648E-18
 -1      1111 7.72323E-05 1.55802E-11-3.30237E-05 6.99143E-06 8.07858E-20-5.10005E-18
 -1      1112 7.60838E-05 7.57797E-12-3.26473E-05 8.15304E-06 9.41398E-20-4.50267E-18
 -1      1113 7.60389E-05 2.76669E-12-3.27028E-05 8.49990E-06 1.06991E-19-3.71489E-18
 -1      1114 7.76061E-05 4.41325E-12-3.33641E-05 8.62032E-06 1.24673E-19-2.50179E-18
 -1      1115 8.10353E-05 1.53003E-11-3.47117E-05 9.47943E-06 1.54584E-19-6.07538E-19
 -1      1116 8.62931E-05 3.73589E-11-3.67000E-05 1.23031E-05 1.63901E-19 2.57764E-18
 -1      1117 9.37514E-05 7.85712E-11-3.93118E-05 1.88785E-05 1.32561E-19 7.96322E-18
 -1      1118 1.12592E-04 1.86200E-10-4.29835E-05 3.34114E-05 1.40184E-19 1.73033E-17
 -1      1119 1.31852E-04-2.59984E-05-4.07072E-05-2.66988E-05-2.05617E-18 1.17179E-17
 -1      1120 9.78606E-05-2.89619E-05-3.17011E-05-7.38873E-07-7.35675E-19 6.97606E-18
 -1      1121 8.94701E-05-2.67928E-05-2.76541E-05 3.67355E-07-3.06282E-19 1.12741E-18
 -1      1122 8.60456E-05-2.58853E-05-2.59212E-05 1.99428E-07-1.23994E-19-2.40809E-18
 -1      1123 8.34842E-05-2.50993E-05-2.49978E-05 7.17360E-08-1.13389E-19-4.98643E-18
 -1      1124 8.09233E-05-2.43066E-05-2.42202E-05-1.76589E-08-8.17254E-20-6.66170E-18
 -1      1125 7.81321E-05-2.34608E-05-2.34117E-05-7.88632E-08-8.78284E-20-7.77632E-18
 -1      1126 7.52615E-05-2.26054E-05-2.25957E-05-1.08487E-07-2.49726E-21-8.78660E-18
 -1      1127 7.27065E-05-2.18517E-05-2.18802E-05-1.01660E-07-8.30473E-20-9.87349E-18
 -1      1128 7.09665E-05-2.13422E-05-2.14014E-05-5.91632E-08-5.48388E-20-1.10781E-17
 -1      1129 7.04775E-05-2.12013E-05-2.12764E-05 8.54722E-09-5.17021E-20-1.20269E-17
 -1      1130 7.14554E-05-2.14903E-05-2.15622E-05 8.28838E-08 1.31555E-20-1.23964E-17
 -1      1131 7.38124E-05-2.21837E-05-2.22357E-05 1.43762E-07-2.93566E-20-1.27460E-17
 -1      1132 7.71852E-05-2.31764E-05-2.31992E-05 1.77341E-07 5.03952E-20-1.28265E-17
 -1      1133 8.10551E-05-2.43181E-05-2.43119E-05 1.80234E-07-1.42304E-19-1.27271E-17
 -1      1134 8.49011E-05-2.54567E-05-2.54289E-05 1.58484E-07-7.68525E-20-1.29134E-17
 -1      1135 8.83207E-05-2.64732E-05-2.64346E-05 1.22981E-07 3.15536E-20-1.24444E-17
 -1      1136 9.10851E-05-2.72990E-05-2.72592E-05 8.44748E-08-7.77955E-20-1.27277E-17
 -1      1137 9.31310E-05-2.79137E-05-2.78793E-05 5.04907E-08 9.04605E-21-1.23365E-17
 -1      1138 9.45145E-05-2.83323E-05-2.83063E-05 2.46156E-08-6.58064E-20-1.24978E-17
 -1      1139 9.53568E-05-2.85897E-05-2.85723E-05 7.32471E-09-1.81602E-19-1.32541E-17
 -1      1140 9.57980E-05-2.87269E-05-2.87166E-05-2.69754E-09-1.24458E-19-1.25576E-17
 -1      1141 9.59680E-05-2.87820E-05-2.87771E-05-7.41597E-09-9.14700E-20-1.32094E-17
 -1      1142 9.59721E-05-2.87866E-05-2.87850E-05-8.72812E-09-2.22209E-19-1.32332E-17
 -1      1143 9.58874E-05-2.87635E-05-2.87639E-05-8.13815E-09 2.24249E-19-1.19828E-17
 -1      1144 9.57657E-05-2.87286E-05-2.87299E-05-6.68803E-09-2.17251E-19-9.64532E-18
 -1      1145 9.56386E-05-2.86915E-05-2.86931E-05-5.01873E-09 1.54331E-19-1.04066E-17
 -1      1146 9.55233E-05-2.86575E-05-2.86590E-05-3.47453E-09 1.96600E-19-1.06569E-17
 -1      1147 9.54275E-05-2.86290E-05-2.86302E-05-2.20437E-09-2.82165E-19-1.12225E-17
 -1      1148 9.53527E-05-2.86066E-05-2.86076E-05-1.24188E-09 2.40970E-19-1.21467E-17
 -1      1149 9.52976E-05-2.85900E-05-2.85907E-05-5.61151E-10-7.70727E-20-1.37213E-17
 -1      1150 9.52590E-05-2.85784E-05-2.85788E-05-1.11728E-10-6.66866E-20-1.39925E-17
 -1      1151 9.52337E-05-2.85706E-05-2.85709E-05 1.61509E-10 1.94836E-19-1.33359E-17
 -1      1152 9.52184E-05-2.85659E-05-2.85661E-05 3.08468E-10 2.26315E-19-9.80496E-18
 -1      1153 9.52104E-05-2.85634E-05-2.85635E-05 3.69983E-10 1.32260E-19-7.55167E-18
 -1      1154 9.52073E-05-2.85624E-05-2.85624E-05 3.77252E-10 3.96419E-19-7.24842E-18
 -1      1155 9.52075E-05-2.85624E-05-2.85624E-05 3.52861E-10-1.18961E-19-6.83650E-18
 -1      1156 9.52096E-05-2.85630E-05-2.85629E-05 3.12381E-10-1.66388E-20-6.29248E-18
 -1      1157 9.52128E-05-2.85639E-05-2.85638E-05 2.66027E-10-2.05707E-19-5.34684E-18
 -1      1158 9.52164E-05-2.85649E-05-2.85649E-05 2.20117E-10-1.22460E-19-5.78382E-18
 -1      1159 9.52200E-05-2.85660E-05-2.85660E-05 1.78242E-10-4.99490E-19-1.03242E-17
 -1      1160 9.52235E-05-2.85670E-05-2.85670E-05 1.42165E-10 1.46627E-19-1.31371E-17
 -1      1161 9.52266E-05-2.85680E-05-2.85679E-05 1.12442E-10-3.45599E-21-1.02770E-17
 -1      1162 9.52294E-05-2.85688E-05-2.85688E-05 8.88195E-11-1.48714E-19-9.02979E-18
 -1      1163 9.52318E-05-2.85695E-05-2.85695E-05 7.03907E-11 1.46914E-19-7.70583E-18
 -1      1164 9.52337E-05-2.85701E-05-2.85701E-05 5.54533E-11 3.48743E-19-2.64468E-18
 -1      1165 9.52353E-05-2.85706E-05-2.85706E-05 4.08579E-11 2.26195E-19-4.35997E-19
 -1      1166 9.52365E-05-2.85709E-05-2.85709E-05 2.00132E-11-2.31322E-19-1.89966E-18
 -1      1167 9.52371E-05-2.85711E-05-2.85711E-05-2.01875E-11-1.35378E-19-5.17229E-18
 -1      1168 9.52372E-05-2.85712E-05-2.85712E-05-3.09750E-11 5.69002E-19-1.05069E-18
 -1      1169 1.37439E-04-3.94183E-05-4.13497E-05 1.18427E-05-3.05038E-19 2.44255E-17
 -1      1170 1.09995E-04-3.23545E-05-3.54936E-05 7.37664E-07 1.08526E-21 2.21357E-17
 -1      1171 1.10669E-04-3.31701E-05-3.42498E-05 2.02644E-07 1.08208E-19 1.90165E-17
 -1      1172 1.18245E-04-3.56032E-05-3.61880E-05 4.23493E-08 1.03695E-19 1.68181E-17
 -1      1173 1.32126E-04-3.97293E-05-4.03258E-05-2.81029E-07 4.59383E-20 1.57404E-17
 -1      1174 1.52238E-04-4.55993E-05-4.59429E-05-9.59575E-07 1.85788E-19 1.51797E-17
 -1      1175 1.75420E-04-5.22647E-05-5.14832E-05-1.86888E-06-3.15387E-20 1.71933E-17
 -1      1176 1.90282E-04-5.67993E-05-5.38763E-05-1.67228E-06-2.28434E-19 2.19980E-17
 -1      1177 1.78686E-04-5.33887E-05-5.05101E-05 1.92174E-06-4.53216E-19 2.63427E-17
 -1      1178 1.37936E-04-4.09335E-05-4.32899E-05 6.37482E-06-3.41619E-19 2.89838E-17
 -1      1179 9.02156E-05-2.50871E-05-3.67392E-05 6.72000E-06-3.92494E-19 2.83972E-17
 -1      1180 7.41274E-05-1.92030E-05-3.51436E-05 7.98559E-07 2.40875E-19 2.20817E-17
 -1      1181 1.04540E-04-2.79397E-05-3.99253E-05-5.14178E-06 8.77526E-19 1.11656E-17
 -1      1182 1.59424E-04-4.67111E-05-4.82485E-05-6.52307E-06 5.34107E-19 3.28141E-18
 -1      1183 1.92581E-04-5.85387E-05-5.43735E-05-3.31467E-06 5.67009E-19-1.61783E-19
 -1      1184 1.89487E-04-5.76572E-05-5.45160E-05-1.13673E-07-1.22211E-19 1.99190E-18
 -1      1185 1.68122E-04-5.07218E-05-4.99409E-05 1.06504E-06 2.82558E-19 2.51484E-18
 -1      1186 1.45663E-04-4.36983E-05-4.40607E-05 1.09127E-06-1.80987E-20 4.07635E-18
 -1      1187 1.28229E-04-3.84042E-05-3.89701E-05 7.95176E-07 1.73509E-19 5.56437E-18
 -1      1188 1.16248E-04-3.48262E-05-3.52641E-05 5.09934E-07-1.82208E-19 5.77200E-18
 -1      1189 1.08460E-04-3.25154E-05-3.27916E-05 3.09021E-07 1.59825E-19 4.16759E-18
 -1      1190 1.03525E-04-3.10507E-05-3.12114E-05 1.82639E-07-1.77118E-19 4.54180E-18
 -1      1191 1.00426E-04-3.01287E-05-3.02196E-05 1.06895E-07 2.60365E-19 5.53630E-18
 -1      1192 9.84846E-05-2.95487E-05-2.96000E-05 6.24131E-08-2.39379E-19 5.98787E-18
 -1      1193 9.72645E-05-2.91830E-05-2.92121E-05 3.64795E-08 3.92688E-19 3.11127E-18
 -1      1194 9.64943E-05-2.89516E-05-2.89682E-05 2.13702E-08-1.11348E-19 2.66343E-18
 -1      1195 9.60060E-05-2.88044E-05-2.88141E-05 1.25417E-08-8.67706E-20 3.77294E-18
 -1      1196 9.56952E-05-2.87106E-05-2.87162E-05 7.35676E-09 1.25341E-20 3.85522E-18
 -1      1197 9.54975E-05-2.86508E-05-2.86541E-05 4.29140E-09 3.62181E-21 3.09052E-18
 -1      1198 9.53722E-05-2.86128E-05-2.86148E-05 2.46708E-09-3.85996E-19 6.08137E-18
 -1      1199 9.52938E-05-2.85890E-05-2.85901E-05 1.38769E-09 1.62698E-19 4.76950E-18
 -1      1200 9.52451E-05-2.85740E-05-2.85748E-05 8.03639E-10-1.11404E-19 1.99151E-18
 -1      1201 9.52169E-05-2.85655E-05-2.85659E-05 2.91969E-10-6.95171E-19 4.27776E-18
 -1      1202 9.52025E-05-2.85611E-05-2.85613E-05 6.13754E-11-4.89815E-19 9.85235E-18
 -1      1203 9.51962E-05-2.85591E-05-2.85592E-05-7.38755E-11-1.28370E-20 8.66161E-18
 -1      1204 9.51951E-05-2.85587E-05-2.85587E-05-1.47828E-10-7.08168E-19 6.55221E-18
 -1      1205 9.51971E-05-2.85592E-05-2.85592E-05-1.82801E-10-1.11141E-19 7.26521E-18
 -1      1206 9.52008E-05-2.85603E-05-2.85603E-05-1.93206E-10 4.92371E-19 3.89818E-18
 -1      1207 9.52053E-05-2.85616E-05-2.85616E-05-1.88471E-10-1.84408E-19-5.01754E-19
 -1      1208 9.52101E-05-2.85631E-05-2.85630E-05-1.74909E-10-1.25103E-19 9.55862E-19
 -1      1209 9.52147E-05-2.85644E-05-2.85644E-05-1.56803E-10 2.71403E-19-2.76476E-18
 -1      1210 9.52190E-05-2.85657E-05-2.85657E-05-1.37084E-10 6.11555E-20-3.47955E-18
 -1      1211 9.52229E-05-2.85669E-05-2.85668E-05-1.17761E-10 2.09783E-19-3.57632E-18
 -1      1212 9.52262E-05-2.85679E-05-2.85678E-05-1.00203E-10 2.90849E-19-3.59912E-18
 -1      1213 9.52292E-05-2.85687E-05-2.85687E-05-8.53267E-11-1.37943E-19-4.00907E-18
 -1      1214 9.52316E-05-2.85695E-05-2.85695E-05-7.37098E-11 5.39949E-19-4.50627E-18
 -1      1215 9.52336E-05-2.85701E-05-2.85701E-05-6.54442E-11-2.22259E-19-3.50367E-18
 -1      1216 9.52353E-05-2.85706E-05-2.85705E-05-5.96241E-11 7.22354E-19-3.90023E-18
 -1      1217 9.52364E-05-2.85709E-05-2.85709E-05-5.11492E-11 3.99193E-19-4.03249E-18
 -1      1218 9.52371E-05-2.85711E-05-2.85711E-05-2.49733E-11-3.24867E-19 7.65274E-18
 -1      1219 9.52372E-05-2.85712E-05-2.85712E-05 2.59452E-11 5.17466E-19 7.28553E-18
 -1      1220 9.52371E-05-2.85711E-05-2.85712E-05 2.89595E-11 8.37216E-18 2.44673E-19
 -1      1221 9.52372E-05-2.85712E-05-2.85711E-05 1.83019E-11 8.91230E-18-7.88400E-19
 -1      1222 9.52374E-05-2.85718E-05-2.85709E-05-3.09727E-11 6.57737E-18-1.60359E-18
 -1      1223 9.52377E-05-2.85728E-05-2.85706E-05-5.12415E-11 4.45827E-19 2.74642E-21
 -1      1224 9.52380E-05-2.85740E-05-2.85703E-05-5.44828E-11 2.82868E-18 2.56812E-20
 -1      1225 9.52383E-05-2.85752E-05-2.85699E-05-4.77148E-11 1.04197E-18-1.94373E-20
 -1      1226 9.52386E-05-2.85761E-05-2.85697E-05-3.54145E-11 1.99137E-18-3.73669E-19
 -1      1227 9.52388E-05-2.85767E-05-2.85695E-05-1.84524E-11-6.58159E-18-9.49121E-19
 -1      1228 9.52389E-05-2.85770E-05-2.85694E-05 2.35421E-13-1.05253E-17 8.04582E-19
 -1      1229 9.52388E-05-2.85767E-05-2.85695E-05 1.88207E-11-8.96303E-18 8.02951E-19
 -1      1230 9.52386E-05-2.85761E-05-2.85697E-05 3.54517E-11-4.14473E-18-4.53526E-19
 -1      1231 9.52383E-05-2.85752E-05-2.85700E-05 4.81638E-11-7.74935E-18 2.06931E-19
 -1      1232 9.52380E-05-2.85740E-05-2.85703E-05 5.41490E-11-2.66713E-18 2.40684E-19
 -1      1233 9.52377E-05-2.85728E-05-2.85706E-05 5.12401E-11-1.88062E-18 9.59421E-19
 -1      1234 9.52373E-05-2.85718E-05-2.85709E-05 3.71323E-11-2.22295E-18 8.61633E-19
 -1      1235 9.52372E-05-2.85712E-05-2.85711E-05-3.62736E-11 1.06902E-18-7.82273E-19
 -1      1236 9.52371E-05-2.85711E-05-2.85712E-05-2.93346E-11 1.02877E-18-2.04981E-20
 -1      1237 4.05713E-05-1.29566E-04 2.36654E-05-1.85316E-05 1.66499E-17 2.40986E-18
 -1      1238 2.46320E-05-1.00181E-04 1.80527E-05-4.30693E-05 2.47986E-17 9.03848E-18
 -1      1239 5.76431E-06-4.11890E-05 2.96841E-06-2.96559E-05 2.71440E-17 1.65510E-17
 -1      1240 2.34012E-05 5.32670E-06-1.99211E-05 2.34005E-05 2.26852E-17 2.17603E-17
 -1      1241 1.00894E-04 7.93400E-06-4.53565E-05 8.77930E-05 1.56769E-17 2.19890E-17
 -1      1242 2.31175E-04-3.81219E-05-6.99464E-05 1.18597E-04 7.03546E-18 1.43352E-17
 -1      1243 3.67996E-04-1.04345E-04-8.82633E-05 8.29328E-05 8.79644E-19-8.97855E-19
 -1      1244 4.13048E-04-1.26304E-04-9.39662E-05-1.25945E-05 1.57125E-18-1.71713E-17
 -1      1245 3.42026E-04-8.91431E-05-8.54079E-05-9.84620E-05 7.33848E-18-2.92531E-17
 -1      1246 1.98719E-04-2.32187E-05-6.50996E-05-1.20679E-04 1.53855E-17-3.23956E-17
 -1      1247 7.58287E-05 1.45204E-05-3.98459E-05-7.60623E-05 2.14909E-17-2.82028E-17
 -1      1248 1.47608E-05 1.81307E-06-1.54563E-05-1.20527E-05 2.23430E-17-2.02864E-17
 -1      1249 7.07526E-06-4.74051E-05 4.90352E-06 3.32557E-05 1.49010E-17-9.58502E-18
 -1      1250 2.68912E-05-1.03507E-04 1.85302E-05 4.01544E-05 3.46860E-18-2.13749E-18
 -1      1251 4.12288E-05-1.29359E-04 2.33437E-05 1.35775E-05-1.11674E-17-2.91062E-19
 -1      1252 3.42477E-05-1.07887E-04 1.87678E-05-1.70107E-05-2.36127E-17-4.19673E-18
 -1      1253 1.41061E-05-4.99228E-05 6.00835E-06-1.96598E-05-2.96885E-17-1.15861E-17
 -1      1254 1.16770E-05 9.18451E-06-1.34447E-05 1.90628E-05-2.88923E-17-1.91844E-17
 -1      1255 5.41530E-05 3.26708E-05-3.58338E-05 7.89512E-05-2.24023E-17-2.23718E-17
 -1      1256 1.45379E-04 6.05547E-06-5.72390E-05 1.20428E-04-1.23972E-17-1.85517E-17
 -1      1257 2.54393E-04-5.04402E-05-7.49904E-05 1.09300E-04-4.45285E-18-1.00382E-17
 -1      1258 3.28217E-04-9.57686E-05-8.46190E-05 4.42994E-05-5.54992E-19 1.04185E-18
 -1      1259 3.31113E-04-9.75482E-05-8.50627E-05-4.10783E-05-1.68287E-18 1.12668E-17
 -1      1260 2.70301E-04-5.92862E-05-7.75753E-05-1.05196E-04-6.26106E-18 1.89634E-17
 -1      1261 1.78610E-04-8.24095E-06-6.37926E-05-1.27744E-04-1.31815E-17 2.34493E-17
 -1      1262 8.79140E-05 2.92025E-05-4.59699E-05-1.04144E-04-1.86466E-17 2.30088E-17
 -1      1263 2.77575E-05 3.09717E-05-2.62664E-05-5.34778E-05-2.03373E-17 1.78741E-17
 -1      1264 7.82434E-06-6.92502E-06-6.46169E-06-2.62084E-06-1.67509E-17 1.00661E-17
 -1      1265 1.89755E-05-6.65835E-05 1.00984E-05 2.26719E-05-7.54537E-18 3.28479E-18
 -1      1266 3.70353E-05-1.15516E-04 2.04496E-05 1.22002E-05 6.01732E-18 3.60015E-19
 -1      1267 1.05291E-04-2.21631E-05-3.82472E-05-1.78252E-05-8.02564E-19 2.91803E-18
 -1      1268 9.10802E-05-6.70518E-06-3.63375E-05-2.14126E-05-1.35282E-18-5.55505E-18
 -1      1269 9.33038E-05-6.72714E-06-3.75454E-05-2.67542E-05-2.02631E-18-3.91170E-18
 -1      1270 8.71511E-05-4.37040E-06-3.55284E-05-1.72005E-05-9.65141E-19-7.43361E-18
 -1      1271 8.81633E-05-4.33873E-06-3.59487E-05-1.97709E-05-1.25806E-18-6.79717E-18
 -1      1272 9.31298E-05-1.07857E-05-3.53941E-05-2.00440E-05-2.25462E-18-4.77372E-18
 -1      1273 8.59429E-05-3.79396E-06-3.51830E-05-1.30071E-05-3.71000E-19-7.81433E-18
 -1      1274 8.63170E-05-3.74355E-06-3.53584E-05-1.51598E-05-5.88211E-19-7.71906E-18
 -1      1275 8.95874E-05-8.24412E-06-3.49553E-05-1.61521E-05-1.37835E-18-6.24322E-18
 -1      1276 8.54171E-05-3.63054E-06-3.49928E-05-8.92541E-06 7.79535E-20-7.59931E-18
 -1      1277 8.56257E-05-3.59495E-06-3.50995E-05-1.09810E-05-4.28678E-20-7.79096E-18
 -1      1278 8.83421E-05-7.40702E-06-3.47602E-05-1.20276E-05-4.30660E-19-6.55514E-18
 -1      1279 8.48411E-05-3.54797E-06-3.47696E-05-4.94213E-06 4.94786E-19-7.12213E-18
 -1      1280 8.51500E-05-3.53263E-06-3.49025E-05-6.91988E-06 3.71980E-19-7.38083E-18
 -1      1281 8.77177E-05-7.09794E-06-3.46137E-05-8.00523E-06 2.92501E-19-6.32429E-18
 -1      1282 8.38020E-05-3.36937E-06-3.44090E-05-1.01321E-06 7.93815E-19-6.58192E-18
 -1      1283 8.43586E-05-3.37293E-06-3.46170E-05-2.92864E-06 7.25285E-19-6.92246E-18
 -1      1284 8.69250E-05-6.82186E-06-3.43871E-05-4.01386E-06 9.47294E-19-5.91878E-18
 -1      1285 8.21562E-05-2.98474E-06-3.38948E-05 2.57282E-06 1.10744E-18-6.01334E-18
 -1      1286 8.29853E-05-3.00863E-06-3.41782E-05 8.69970E-07 1.01594E-18-6.31103E-18
 -1      1287 8.55314E-05-6.29724E-06-3.40143E-05-1.35480E-07 1.42966E-18-5.37519E-18
 -1      1288 8.00167E-05-2.34891E-06-3.32909E-05 5.51561E-06 1.34067E-18-5.51089E-18
 -1      1289 8.10202E-05-2.39156E-06-3.36077E-05 4.16835E-06 1.27502E-18-5.81741E-18
 -1      1290 8.34040E-05-5.36583E-06-3.35037E-05 3.36130E-06 1.94450E-18-4.92041E-18
 -1      1291 7.78091E-05-1.52263E-06-3.27431E-05 7.53832E-06 1.57342E-18-4.98251E-18
 -1      1292 7.87473E-05-1.57606E-06-3.30094E-05 6.65721E-06 1.49067E-18-5.30229E-18
 -1      1293 8.07439E-05-4.02659E-06-3.29393E-05 6.16606E-06 2.32948E-18-4.50643E-18
 -1      1294 7.62549E-05-7.04915E-07-3.24581E-05 8.54321E-06 1.76622E-18-4.39830E-18
 -1      1295 7.67722E-05-7.53613E-07-3.25618E-05 8.12900E-06 1.69736E-18-4.78302E-18
 -1      1296 7.81461E-05-2.50646E-06-3.24767E-05 8.00933E-06 2.69522E-18-4.03212E-18
 -1      1297 7.61966E-05-2.16581E-07-3.26414E-05 8.77662E-06 1.95421E-18-3.54346E-18
 -1      1298 7.59333E-05-2.41570E-07-3.24807E-05 8.64705E-06 1.87459E-18-4.06176E-18
 -1      1299 7.65501E-05-1.28457E-06-3.23136E-05 8.83501E-06 3.01132E-18-3.45065E-18
 -1      1300 7.83511E-05-3.87703E-07-3.34493E-05 8.90526E-06 2.17470E-18-2.23092E-18
 -1      1301 7.70211E-05-3.74278E-07-3.29486E-05 8.68728E-06 2.03320E-18-3.02560E-18
 -1      1302 7.69803E-05-9.64926E-07-3.26302E-05 8.96447E-06 3.27082E-18-2.52355E-18
 -1      1303 8.30478E-05-1.49425E-06-3.49087E-05 9.94967E-06 2.28868E-18-1.82218E-19
 -1      1304 8.06013E-05-1.44120E-06-3.40666E-05 9.10608E-06 2.15083E-18-1.41763E-18
 -1      1305 8.02708E-05-2.14462E-06-3.35334E-05 9.14342E-06 3.48592E-18-1.14255E-18
 -1      1306 9.02012E-05-3.71561E-06-3.69190E-05 1.31339E-05 2.18852E-18 3.19975E-18
 -1      1307 8.67339E-05-3.61832E-06-3.57793E-05 1.09987E-05 2.06951E-18 1.17436E-18
 -1      1308 8.67551E-05-5.25173E-06-3.49772E-05 1.04137E-05 3.46508E-18 1.07263E-18
 -1      1309 1.00550E-04-8.14442E-06-3.93864E-05 2.00437E-05 1.53694E-18 8.81370E-18
 -1      1310 9.56343E-05-7.53289E-06-3.79128E-05 1.53537E-05 1.60057E-18 5.47977E-18
 -1      1311 9.66222E-05-1.09154E-05-3.67350E-05 1.36252E-05 3.01038E-18 4.64926E-18
 -1      1312 1.31188E-04-2.69515E-05-4.15426E-05 2.57212E-05 4.28599E-19 1.77633E-17
 -1      1313 1.08291E-04-1.66445E-05-3.98671E-05 2.00135E-05 5.66242E-19 1.18077E-17
 -1      1314 1.10225E-04-2.16902E-05-3.79171E-05 1.60543E-05 2.22325E-18 9.64347E-18
 -1      1315 1.13019E-04-3.11046E-05-3.77624E-05 4.62211E-06 9.45977E-19 1.76270E-17
 -1      1316 1.05722E-04-3.04062E-05-3.37292E-05-8.49778E-06-1.93367E-18 4.05644E-18
 -1      1317 9.83684E-05-2.78797E-05-3.08108E-05-5.45957E-06-1.63837E-18 1.69306E-18
 -1      1318 9.52440E-05-2.78274E-05-2.91578E-05-3.11352E-06-1.35266E-18 1.03030E-18
 -1      1319 9.23845E-05-2.73620E-05-2.79224E-05-2.71395E-06-1.21250E-18-9.19070E-19
 -1      1320 9.95812E-05-2.81547E-05-3.09800E-05-8.97565E-06-2.84677E-18-7.13255E-19
 -1      1321 9.01117E-05-2.68491E-05-2.70976E-05-1.75458E-06-9.65565E-19-1.45473E-18
 -1      1322 8.84847E-05-2.64813E-05-2.65240E-05-1.71702E-06-7.99784E-19-2.81677E-18
 -1      1323 9.38935E-05-2.76589E-05-2.84915E-05-4.68087E-06-2.07131E-18-1.62281E-18
 -1      1324 8.69232E-05-2.60663E-05-2.60268E-05-1.45149E-06-6.35496E-19-3.36659E-18
 -1      1325 8.55995E-05-2.57028E-05-2.56271E-05-1.46849E-06-6.47050E-19-4.35037E-18
 -1      1326 9.03477E-05-2.70154E-05-2.71505E-05-3.25814E-06-1.50486E-18-2.63521E-18
 -1      1327 8.42982E-05-2.53254E-05-2.52342E-05-1.45925E-06-4.85403E-19-4.57252E-18
 -1      1328 8.29537E-05-2.49173E-05-2.48463E-05-1.49050E-06-3.85632E-19-5.24626E-18
 -1      1329 8.75809E-05-2.63142E-05-2.62487E-05-2.94267E-06-1.06170E-18-3.39081E-18
 -1      1330 8.17398E-05-2.45472E-05-2.44869E-05-1.51668E-06-4.86663E-19-5.46198E-18
 -1      1331 8.03383E-05-2.40998E-05-2.40872E-05-1.53008E-06-4.21231E-19-6.09427E-18
 -1      1332 8.51056E-05-2.55759E-05-2.55070E-05-2.96695E-06-8.29864E-19-3.86848E-18
 -1      1333 7.92037E-05-2.37402E-05-2.37569E-05-1.45761E-06-2.32401E-19-6.26747E-18
 -1      1334 7.78699E-05-2.33007E-05-2.33797E-05-1.42905E-06-2.67935E-19-6.69247E-18
 -1      1335 8.27704E-05-2.48082E-05-2.48452E-05-2.91518E-06-6.84528E-19-4.35685E-18
 -1      1336 7.69109E-05-2.29864E-05-2.31059E-05-1.18037E-06-3.44192E-19-6.77486E-18
 -1      1337 7.58582E-05-2.26312E-05-2.28109E-05-1.09840E-06-3.97197E-19-7.29737E-18
 -1      1338 8.06729E-05-2.40713E-05-2.42767E-05-2.53021E-06-6.58783E-19-4.69684E-18
 -1      1339 7.52197E-05-2.24147E-05-2.26329E-05-6.60795E-07-3.20298E-19-7.56372E-18
 -1      1340 7.46733E-05-2.22247E-05-2.24821E-05-5.31663E-07-2.75689E-19-8.00079E-18
 -1      1341 7.90612E-05-2.34753E-05-2.38566E-05-1.69992E-06-6.77607E-19-4.98001E-18
 -1      1342 7.44873E-05-2.21547E-05-2.24347E-05 3.83379E-08-3.72496E-19-8.20368E-18
 -1      1343 7.46048E-05-2.21873E-05-2.24707E-05 1.90946E-07-1.37990E-19-8.65041E-18
 -1      1344 7.82194E-05-2.31444E-05-2.36484E-05-4.76134E-07-5.47223E-19-5.29099E-18
 -1      1345 7.49345E-05-2.22878E-05-2.25703E-05 7.85244E-07-1.47301E-19-8.74253E-18
 -1      1346 7.57460E-05-2.25544E-05-2.28013E-05 9.28244E-07-2.20943E-19-9.11054E-18
 -1      1347 7.83487E-05-2.31676E-05-2.36957E-05 9.39770E-07-3.53272E-19-5.76350E-18
 -1      1348 7.65557E-05-2.28128E-05-2.30383E-05 1.42659E-06-2.32213E-19-8.94706E-18
 -1      1349 7.79508E-05-2.32742E-05-2.34341E-05 1.53020E-06-1.33424E-19-9.15269E-18
 -1      1350 7.94778E-05-2.35602E-05-2.40032E-05 2.26712E-06-2.85751E-19-6.18236E-18
 -1      1351 7.91146E-05-2.36450E-05-2.37751E-05 1.84365E-06 9.82211E-20-9.09079E-18
 -1      1352 8.08782E-05-2.42253E-05-2.42768E-05 1.89187E-06 1.03133E-20-9.12673E-18
 -1      1353 8.14407E-05-2.42544E-05-2.45316E-05 3.24944E-06-6.33256E-20-6.07521E-18
 -1      1354 8.22196E-05-2.46467E-05-2.46735E-05 1.98899E-06-1.99139E-19-9.11482E-18
 -1      1355 8.40986E-05-2.52582E-05-2.52108E-05 1.98276E-06-2.12712E-19-9.23269E-18
 -1      1356 8.39286E-05-2.51246E-05-2.52076E-05 3.74099E-06-1.40191E-19-6.15369E-18
 -1      1357 8.54409E-05-2.56709E-05-2.56134E-05 1.88902E-06-3.12501E-20-8.96625E-18
 -1      1358 8.72110E-05-2.62386E-05-2.61231E-05 1.84210E-06 9.81433E-20-8.73733E-18
 -1      1359 8.65836E-05-2.60304E-05-2.59426E-05 3.73730E-06-1.36178E-19-5.89617E-18
 -1      1360 8.84170E-05-2.65999E-05-2.64906E-05 1.61880E-06-5.79622E-20-8.83928E-18
 -1      1361 8.99249E-05-2.70749E-05-2.69282E-05 1.55006E-06 1.25070E-21-9.01815E-18
 -1      1362 8.90917E-05-2.68568E-05-2.66539E-05 3.34694E-06-1.12589E-19-5.64645E-18
 -1      1363 9.09146E-05-2.73629E-05-2.72349E-05 1.26722E-06-4.41450E-20-8.92364E-18
 -1      1364 9.20893E-05-2.77255E-05-2.75787E-05 1.19383E-06-5.41340E-20-9.01624E-18
 -1      1365 9.12397E-05-2.75348E-05-2.72802E-05 2.73114E-06-1.79713E-20-5.89892E-18
 -1      1366 9.28368E-05-2.79362E-05-2.78144E-05 9.09759E-07-8.48208E-20-9.10285E-18
 -1      1367 9.36762E-05-2.81891E-05-2.80622E-05 8.43541E-07 3.58930E-20-8.89953E-18
 -1      1368 9.29278E-05-2.80410E-05-2.77874E-05 2.04557E-06-1.87290E-19-6.04935E-18
 -1      1369 9.41959E-05-2.83305E-05-2.82291E-05 5.95722E-07-2.71277E-19-9.47106E-18
 -1      1370 9.47427E-05-2.84904E-05-2.83921E-05 5.42629E-07-4.84695E-19-9.83154E-18
 -1      1371 9.41501E-05-2.83860E-05-2.81666E-05 1.40515E-06-5.02534E-19-6.65683E-18
 -1      1372 9.50718E-05-2.85760E-05-2.85000E-05 3.48071E-07-6.60090E-20-9.84137E-18
 -1      1373 9.53889E-05-2.86649E-05-2.85957E-05 3.09442E-07-1.64152E-19-9.78761E-18
 -1      1374 9.49618E-05-2.85984E-05-2.84277E-05 8.74365E-07-5.48015E-19-7.45396E-18
 -1      1375 9.55727E-05-2.87096E-05-2.86577E-05 1.69971E-07 1.43518E-19-9.28709E-18
 -1      1376 9.57254E-05-2.87489E-05-2.87048E-05 1.44345E-07-2.36764E-20-9.11177E-18
 -1      1377 9.54467E-05-2.87119E-05-2.85910E-05 4.74768E-07 4.62907E-20-6.95945E-18
 -1      1378 9.58073E-05-2.87660E-05-2.87339E-05 5.29698E-08 1.83179E-20-9.35987E-18
 -1      1379 9.58527E-05-2.87740E-05-2.87490E-05 3.76446E-08-8.82395E-21-9.51641E-18
 -1      1380 9.56929E-05-2.87583E-05-2.86802E-05 1.99356E-07 9.52002E-21-6.04874E-18
 -1      1381 9.58691E-05-2.87741E-05-2.87567E-05-1.62290E-08-2.91271E-19-8.95211E-18
 -1      1382 9.58516E-05-2.87645E-05-2.87526E-05-2.41461E-08 1.41773E-19-9.11661E-18
 -1      1383 9.57791E-05-2.87629E-05-2.87178E-05 2.65553E-08 1.22489E-20-5.64566E-18
 -1      1384 9.58304E-05-2.87552E-05-2.87477E-05-5.13170E-08 9.33236E-19-8.93808E-18
 -1      1385 9.57814E-05-2.87374E-05-2.87340E-05-5.43546E-08 8.50084E-19-7.66406E-18
 -1      1386 9.57675E-05-2.87445E-05-2.87225E-05-6.95027E-08 7.28317E-19-5.18180E-18
 -1      1387 9.57420E-05-2.87242E-05-2.87228E-05-6.40713E-08 4.96570E-19-7.57832E-18
 -1      1388 9.56821E-05-2.87042E-05-2.87055E-05-6.41870E-08 9.21976E-21-6.83724E-18
 -1      1389 9.57039E-05-2.87158E-05-2.87087E-05-1.12905E-07 8.23180E-19-4.90084E-18
 -1      1390 9.56372E-05-2.86901E-05-2.86921E-05-6.35406E-08-1.04344E-19-6.92645E-18
 -1      1391 9.55783E-05-2.86713E-05-2.86749E-05-6.21188E-08 5.11807E-19-7.09386E-18
 -1      1392 9.56188E-05-2.86847E-05-2.86863E-05-1.23210E-07-6.70610E-20-4.33278E-18
 -1      1393 9.55353E-05-2.86583E-05-2.86618E-05-5.60968E-08-1.18589E-19-7.20392E-18
 -1      1394 9.54837E-05-2.86423E-05-2.86466E-05-5.40400E-08-3.07147E-19-7.64862E-18
 -1      1395 9.55313E-05-2.86556E-05-2.86615E-05-1.14839E-07-2.71048E-20-4.31383E-18
 -1      1396 9.54463E-05-2.86312E-05-2.86351E-05-4.58829E-08-1.48328E-19-7.43232E-18
 -1      1397 9.54044E-05-2.86184E-05-2.86227E-05-4.37305E-08-1.54988E-19-7.74978E-18
 -1      1398 9.54518E-05-2.86308E-05-2.86382E-05-9.75966E-08-3.84869E-19-4.70909E-18
 -1      1399 9.53739E-05-2.86096E-05-2.86133E-05-3.53679E-08-1.95125E-19-8.11345E-18
 -1      1400 9.53419E-05-2.86000E-05-2.86037E-05-3.34074E-08-9.91692E-20-8.40866E-18
 -1      1401 9.53850E-05-2.86107E-05-2.86182E-05-7.76344E-08-5.92871E-19-4.39461E-18
 -1      1402 9.53184E-05-2.85933E-05-2.85964E-05-2.58605E-08-6.34607E-19-9.07244E-18
 -1      1403 9.52952E-05-2.85865E-05-2.85895E-05-2.42171E-08-6.71292E-19-9.85269E-18
 -1      1404 9.53320E-05-2.85954E-05-2.86020E-05-5.84567E-08-9.89907E-19-5.42403E-18
 -1      1405 9.52780E-05-2.85816E-05-2.85841E-05-1.79213E-08 3.02886E-19-9.16338E-18
 -1      1406 9.52621E-05-2.85770E-05-2.85793E-05-1.66235E-08 3.50673E-19-8.95846E-18
 -1      1407 9.52921E-05-2.85842E-05-2.85896E-05-4.17883E-08-2.76690E-19-5.38192E-18
 -1      1408 9.52500E-05-2.85736E-05-2.85755E-05-1.16651E-08 2.21075E-19-8.89744E-18
 -1      1409 9.52399E-05-2.85707E-05-2.85724E-05-1.06892E-08 6.83027E-19-8.35731E-18
 -1      1410 9.52634E-05-2.85764E-05-2.85806E-05-2.82423E-08 2.83862E-19-4.83259E-18
 -1      1411 9.52319E-05-2.85686E-05-2.85699E-05-6.96693E-09 1.46836E-18-7.80722E-18
 -1      1412 9.52260E-05-2.85669E-05-2.85681E-05-6.26550E-09 1.15659E-18-6.39997E-18
 -1      1413 9.52439E-05-2.85712E-05-2.85743E-05-1.77935E-08 1.95003E-18-4.95578E-18
 -1      1414 9.52211E-05-2.85656E-05-2.85666E-05-3.59390E-09-5.66491E-20-5.70768E-18
 -1      1415 9.52182E-05-2.85649E-05-2.85657E-05-3.11293E-09 4.19527E-19-5.43104E-18
 -1      1416 9.52314E-05-2.85680E-05-2.85702E-05-1.00945E-08 1.15447E-18-4.17913E-18
 -1      1417 9.52157E-05-2.85642E-05-2.85648E-05-1.28375E-09 1.70900E-19-5.43071E-18
 -1      1418 9.52148E-05-2.85641E-05-2.85645E-05-9.71703E-10 5.43425E-20-5.81820E-18
 -1      1419 9.52241E-05-2.85663E-05-2.85678E-05-4.67123E-09 5.77180E-19-3.59291E-18
 -1      1420 9.52138E-05-2.85638E-05-2.85642E-05 2.12488E-10 2.55755E-19-5.50735E-18
 -1      1421 9.52142E-05-2.85641E-05-2.85643E-05 4.00325E-10 1.65324E-19-5.43935E-18
 -1      1422 9.52205E-05-2.85656E-05-2.85665E-05-1.03620E-09 4.87468E-19-4.55842E-18
 -1      1423 9.52142E-05-2.85641E-05-2.85643E-05 1.11049E-09 8.36506E-19-5.08391E-18
 -1      1424 9.52154E-05-2.85645E-05-2.85646E-05 1.21061E-09 4.52340E-19-4.16341E-18
 -1      1425 9.52195E-05-2.85655E-05-2.85660E-05 1.25293E-09 9.10823E-19-3.78752E-18
 -1      1426 9.52160E-05-2.85647E-05-2.85648E-05 1.58615E-09-3.13407E-19-4.39687E-18
 -1      1427 9.52176E-05-2.85653E-05-2.85653E-05 1.62699E-09-3.99108E-19-4.51094E-18
 -1      1428 9.52200E-05-2.85658E-05-2.85661E-05 2.56880E-09-4.10286E-20-3.30099E-18
 -1      1429 9.52186E-05-2.85656E-05-2.85656E-05 1.77651E-09-1.29544E-18-4.69997E-18
 -1      1430 9.52203E-05-2.85661E-05-2.85661E-05 1.77938E-09-1.95078E-18-7.08757E-18
 -1      1431 9.52216E-05-2.85664E-05-2.85665E-05 3.20926E-09-1.79592E-18-4.42726E-18
 -1      1432 9.52215E-05-2.85664E-05-2.85664E-05 1.78416E-09-1.64552E-18-7.40607E-18
 -1      1433 9.52232E-05-2.85670E-05-2.85669E-05 1.76446E-09-1.21460E-18-9.08645E-18
 -1      1434 9.52236E-05-2.85671E-05-2.85671E-05 3.40246E-09-2.35297E-18-5.60037E-18
 -1      1435 9.52243E-05-2.85673E-05-2.85673E-05 1.68293E-09-6.27088E-19-8.87396E-18
 -1      1436 9.52259E-05-2.85678E-05-2.85677E-05 1.65126E-09 4.67020E-19-8.37008E-18
 -1      1437 9.52258E-05-2.85678E-05-2.85677E-05 3.31640E-09-1.37506E-18-5.29102E-18
 -1      1438 9.52270E-05-2.85681E-05-2.85681E-05 1.52340E-09 1.19730E-18-8.23928E-18
 -1      1439 9.52285E-05-2.85686E-05-2.85685E-05 1.48664E-09 4.32261E-19-7.96234E-18
 -1      1440 9.52279E-05-2.85685E-05-2.85683E-05 3.06955E-09 1.11108E-18-5.18166E-18
 -1      1441 9.52295E-05-2.85689E-05-2.85688E-05 1.33774E-09 2.16354E-19-5.87705E-18
 -1      1442 9.52307E-05-2.85693E-05-2.85692E-05 1.29983E-09 8.35223E-19-5.12344E-18
 -1      1443 9.52300E-05-2.85691E-05-2.85689E-05 2.74061E-09 1.58947E-18-3.86127E-18
 -1      1444 9.52316E-05-2.85695E-05-2.85695E-05 1.14339E-09 1.46792E-18-5.01790E-18
 -1      1445 9.52327E-05-2.85698E-05-2.85698E-05 1.10583E-09 1.59952E-18-3.03672E-18
 -1      1446 9.52318E-05-2.85696E-05-2.85695E-05 2.37656E-09 2.13197E-18-1.04054E-18
 -1      1447 9.52334E-05-2.85701E-05-2.85700E-05 9.45639E-10 1.97045E-18-2.95260E-18
 -1      1448 9.52343E-05-2.85703E-05-2.85703E-05 9.07820E-10 1.30412E-18-5.46276E-19
 -1      1449 9.52334E-05-2.85701E-05-2.85700E-05 1.99871E-09 2.70077E-18-7.27328E-19
 -1      1450 9.52349E-05-2.85705E-05-2.85704E-05 7.39357E-10 2.07840E-19-1.62405E-18
 -1      1451 9.52356E-05-2.85707E-05-2.85706E-05 6.98457E-10-8.82150E-21-1.45482E-18
 -1      1452 9.52347E-05-2.85705E-05-2.85704E-05 1.60703E-09 9.96805E-19-9.80442E-19
 -1      1453 9.52360E-05-2.85709E-05-2.85708E-05 5.12053E-10-4.15686E-19-1.37478E-18
 -1      1454 9.52365E-05-2.85710E-05-2.85709E-05 4.63002E-10-2.47600E-19-1.82805E-18
 -1      1455 9.52357E-05-2.85708E-05-2.85707E-05 1.18430E-09-5.19776E-19-2.13960E-18
 -1      1456 9.52368E-05-2.85711E-05-2.85710E-05 2.49959E-10-5.13901E-19-1.50029E-18
 -1      1457 9.52370E-05-2.85712E-05-2.85711E-05 1.92100E-10 5.10802E-20-1.63362E-18
 -1      1458 9.52365E-05-2.85711E-05-2.85709E-05 7.14083E-10-4.05643E-19-2.43409E-19
 -1      1459 9.52372E-05-2.85712E-05-2.85712E-05-2.40928E-11 3.92402E-19-7.98388E-19
 -1      1460 9.52370E-05-2.85712E-05-2.85711E-05 1.76029E-10 8.77649E-19-8.98853E-19
 -1      1461 1.11683E-04-3.27748E-05-3.43338E-05 1.66296E-07 1.02697E-18 1.53155E-17
 -1      1462 1.14593E-04-3.28100E-05-3.58123E-05 1.70456E-06 9.09766E-19 1.66376E-17
 -1      1463 1.13380E-04-3.01206E-05-3.60751E-05 8.04124E-06 1.68877E-18 1.17040E-17
 -1      1464 1.13786E-04-3.36492E-05-3.44904E-05-2.85438E-06 8.30119E-19 1.31512E-17
 -1      1465 1.11729E-04-3.25207E-05-3.41471E-05-2.12306E-06 7.77682E-19 1.43442E-17
 -1      1466 1.11757E-04-3.22217E-05-3.43833E-05-1.34679E-06 1.63319E-18 9.98641E-18
 -1      1467 1.21651E-04-3.59938E-05-3.68318E-05-5.61289E-06 3.49110E-19 1.17284E-17
 -1      1468 1.16387E-04-3.40631E-05-3.53112E-05-4.77005E-06 4.40073E-19 1.24581E-17
 -1      1469 1.14412E-04-3.32480E-05-3.50008E-05-7.13396E-06 1.14101E-18 8.59005E-18
 -1      1470 1.34733E-04-3.99753E-05-4.07069E-05-8.37286E-06 1.78764E-19 1.11323E-17
 -1      1471 1.26426E-04-3.70673E-05-3.83212E-05-7.39771E-06 1.79637E-19 1.14752E-17
 -1      1472 1.21392E-04-3.53248E-05-3.71198E-05-1.23140E-05 4.94760E-19 7.62123E-18
 -1      1473 1.51795E-04-4.56221E-05-4.53212E-05-1.01576E-05-5.41115E-19 1.15569E-17
 -1      1474 1.41255E-04-4.18804E-05-4.25510E-05-9.39220E-06-3.24385E-19 1.12790E-17
 -1      1475 1.32159E-04-3.89228E-05-4.01143E-05-1.66781E-05-2.23608E-19 7.55897E-18
 -1      1476 1.68221E-04-5.19974E-05-4.89860E-05-7.96951E-06-1.21210E-18 1.42788E-17
 -1      1477 1.58948E-04-4.86280E-05-4.69515E-05-8.52327E-06-1.09352E-18 1.25628E-17
 -1      1478 1.45692E-04-4.46212E-05-4.31077E-05-1.71138E-05-1.74843E-18 8.83064E-18
 -1      1479 1.73795E-04-5.55420E-05-4.95890E-05 2.54353E-06-1.29131E-18 1.78953E-17
 -1      1480 1.73590E-04-5.56268E-05-4.97984E-05-1.03781E-06-1.47463E-18 1.53854E-17
 -1      1481 1.59367E-04-5.24158E-05-4.51065E-05-7.41173E-06-2.67133E-18 1.06272E-17
 -1      1482 1.60805E-04-5.09876E-05-4.72333E-05 1.69180E-05-7.92399E-19 2.03800E-17
 -1      1483 1.74108E-04-5.70594E-05-4.96625E-05 1.21654E-05-1.09351E-18 1.84232E-17
 -1      1484 1.67340E-04-5.74241E-05-4.64702E-05 1.36703E-05-2.21130E-18 1.25104E-17
 -1      1485 1.35841E-04-3.83854E-05-4.49196E-05 2.32557E-05 7.03037E-19 2.01856E-17
 -1      1486 1.56949E-04-4.80824E-05-4.77446E-05 2.11220E-05 1.85924E-19 2.01077E-17
 -1      1487 1.66384E-04-5.30094E-05-4.88613E-05 3.28023E-05-4.76456E-19 1.29904E-17
 -1      1488 1.18510E-04-2.77760E-05-4.41179E-05 9.85453E-06 2.25480E-18 1.72465E-17
 -1      1489 1.32057E-04-3.34706E-05-4.57591E-05 1.39368E-05 1.77242E-18 1.87338E-17
 -1      1490 1.59911E-04-3.99644E-05-5.24561E-05 2.96794E-05 2.46021E-18 1.13885E-17
 -1      1491 1.24550E-04-3.03803E-05-4.49400E-05-1.21356E-05 4.43718E-18 1.10235E-17
 -1      1492 1.19280E-04-2.64034E-05-4.43411E-05-5.59869E-06 3.70450E-18 1.49307E-17
 -1      1493 1.56691E-04-3.17606E-05-5.45496E-05-1.87137E-07 5.91229E-18 7.89394E-18
 -1      1494 1.52449E-04-4.56467E-05-4.71345E-05-2.44904E-05 3.05991E-18 3.20051E-18
 -1      1495 1.30423E-04-3.48536E-05-4.42995E-05-2.11489E-05 3.70873E-18 8.17556E-18
 -1      1496 1.61170E-04-4.11800E-05-5.29425E-05-2.96975E-05 7.05028E-18 3.79068E-18
 -1      1497 1.76844E-04-5.70835E-05-4.99652E-05-1.40026E-05 1.05416E-18-7.96211E-19
 -1      1498 1.56985E-04-4.92128E-05-4.66882E-05-1.71824E-05 1.62469E-18 1.70677E-18
 -1      1499 1.68913E-04-5.56474E-05-4.91940E-05-3.17966E-05 4.01049E-18-3.57766E-19
 -1      1500 1.78966E-04-5.64474E-05-5.10645E-05 2.21928E-06-3.48395E-19-9.39148E-19
 -1      1501 1.74530E-04-5.58062E-05-4.97944E-05-2.05892E-06-8.74562E-20-6.89908E-19
 -1      1502 1.67820E-04-5.78633E-05-4.69151E-05-9.11807E-06 7.27390E-19-1.74759E-18
 -1      1503 1.64120E-04-4.97795E-05-4.85681E-05 9.54155E-06-4.63406E-19 3.63483E-19
 -1      1504 1.71857E-04-5.33119E-05-5.00536E-05 7.77228E-06-3.39237E-19-1.82562E-19
 -1      1505 1.57372E-04-5.10030E-05-4.52356E-05 1.11829E-05-6.26063E-19-1.31953E-18
 -1      1506 1.45736E-04-4.32844E-05-4.40604E-05 9.81095E-06-2.36124E-19 7.55130E-19
 -1      1507 1.56621E-04-4.72101E-05-4.67773E-05 9.72137E-06-2.40905E-19 6.31251E-19
 -1      1508 1.43331E-04-4.33633E-05-4.26913E-05 1.78780E-05-2.72056E-19-1.12602E-18
 -1      1509 1.29977E-04-3.83957E-05-3.95190E-05 7.63203E-06-6.53579E-19 2.49261E-18
 -1      1510 1.39407E-04-4.14156E-05-4.21541E-05 8.08337E-06-6.08103E-19 1.64028E-18
 -1      1511 1.30186E-04-3.81385E-05-3.94571E-05 1.63439E-05-1.10231E-18-1.54372E-19
 -1      1512 1.18313E-04-3.50176E-05-3.59042E-05 5.29638E-06 4.15668E-19 3.22698E-18
 -1      1513 1.25178E-04-3.70627E-05-3.79336E-05 5.77583E-06 9.02752E-20 3.48988E-18
 -1      1514 1.19601E-04-3.48501E-05-3.63800E-05 1.23190E-05-6.21722E-19 1.42572E-18
 -1      1515 1.10281E-04-3.27629E-05-3.33462E-05 3.48560E-06 4.41112E-19 2.45441E-18
 -1      1516 1.14894E-04-3.40789E-05-3.47434E-05 3.85398E-06 2.98923E-19 2.86609E-18
 -1      1517 1.11775E-04-3.27435E-05-3.39254E-05 8.49231E-06 5.02013E-19 1.06440E-18
 -1      1518 1.04955E-04-3.12835E-05-3.16408E-05 2.23809E-06 1.88690E-19 1.80832E-18
 -1      1519 1.07937E-04-3.21132E-05-3.25505E-05 2.49129E-06 3.03377E-19 2.08050E-18
 -1      1520 1.06282E-04-3.13554E-05-3.21509E-05 5.60236E-06 7.89382E-19 6.20862E-19
 -1      1521 1.01488E-04-3.03216E-05-3.05353E-05 1.42260E-06-8.34609E-19 2.18645E-18
 -1      1522 1.03383E-04-3.08410E-05-3.11127E-05 1.58867E-06-5.47296E-19 1.24223E-18
 -1      1523 1.02545E-04-3.04281E-05-3.09340E-05 3.61867E-06-1.77030E-19-5.03788E-19
 -1      1524 9.92510E-05-2.96990E-05-2.98263E-05 9.02116E-07-5.20118E-19 3.33493E-18
 -1      1525 1.00447E-04-3.00238E-05-3.01897E-05 1.00889E-06-1.68010E-19 2.84082E-18
 -1      1526 1.00048E-04-2.98067E-05-3.01214E-05 2.31695E-06-7.21077E-19 4.70934E-19
 -1      1527 9.78100E-05-2.92962E-05-2.93725E-05 5.73087E-07 7.04109E-19 2.51432E-18
 -1      1528 9.85654E-05-2.94999E-05-2.96012E-05 6.41250E-07 3.05488E-19 2.86555E-18
 -1      1529 9.83946E-05-2.93906E-05-2.95853E-05 1.48060E-06 2.61839E-19 1.15132E-18
 -1      1530 9.68805E-05-2.90353E-05-2.90814E-05 3.65451E-07-3.74127E-19 3.93759E-19
 -1      1531 9.73589E-05-2.91636E-05-2.92259E-05 4.08964E-07-2.30039E-20 1.50533E-18
 -1      1532 9.73031E-05-2.91124E-05-2.92329E-05 9.47810E-07 8.20341E-19-7.22251E-19
 -1      1533 9.62792E-05-2.88659E-05-2.88940E-05 2.34031E-07-8.67717E-19 2.31281E-18
 -1      1534 9.65835E-05-2.89470E-05-2.89857E-05 2.61929E-07-3.97163E-19 1.73508E-18
 -1      1535 9.65828E-05-2.89263E-05-2.90013E-05 6.08837E-07-8.26587E-19 6.65239E-19
 -1      1536 9.58890E-05-2.87555E-05-2.87728E-05 1.50359E-07 3.62437E-20 2.64442E-18
 -1      1537 9.60832E-05-2.88070E-05-2.88313E-05 1.68373E-07-2.88258E-19 2.84881E-18
 -1      1538 9.61067E-05-2.88019E-05-2.88489E-05 3.92502E-07-7.94355E-19 2.37947E-18
 -1      1539 9.56354E-05-2.86835E-05-2.86943E-05 9.66758E-08 6.86074E-19 3.07143E-18
 -1      1540 9.57596E-05-2.87162E-05-2.87317E-05 1.08414E-07 3.43098E-19 3.55498E-18
 -1      1541 9.57916E-05-2.87186E-05-2.87483E-05 2.53623E-07 1.42004E-19 3.36368E-18
 -1      1542 9.54706E-05-2.86366E-05-2.86434E-05 6.19438E-08-5.35529E-19 3.18303E-18
 -1      1543 9.55499E-05-2.86573E-05-2.86673E-05 6.96674E-08-6.65426E-19 2.14598E-18
 -1      1544 9.55830E-05-2.86629E-05-2.86819E-05 1.63806E-07 1.60690E-19 3.45772E-18
 -1      1545 9.53641E-05-2.86063E-05-2.86106E-05 3.92873E-08-1.23718E-19 4.23566E-18
 -1      1546 9.54144E-05-2.86193E-05-2.86257E-05 4.44234E-08-3.54838E-19 3.50450E-18
 -1      1547 9.54451E-05-2.86259E-05-2.86381E-05 1.05262E-07-9.67071E-19 2.67007E-18
 -1      1548 9.52961E-05-2.85870E-05-2.85897E-05 2.44055E-08 6.89520E-19 2.71532E-18
 -1      1549 9.53275E-05-2.85949E-05-2.85991E-05 2.78740E-08 5.97135E-19 4.27900E-18
 -1      1550 9.53545E-05-2.86015E-05-2.86094E-05 6.68270E-08 6.87850E-19 3.34587E-18
 -1      1551 9.52521E-05-2.85745E-05-2.85761E-05 1.42075E-08-1.36829E-19 1.74305E-18
 -1      1552 9.52717E-05-2.85793E-05-2.85820E-05 1.66577E-08-2.36524E-19 2.08616E-18
 -1      1553 9.52947E-05-2.85852E-05-2.85904E-05 4.11124E-08 8.28373E-19 2.55020E-18
 -1      1554 9.52275E-05-2.85675E-05-2.85685E-05 7.95161E-09-2.20255E-18 5.19185E-18
 -1      1555 9.52380E-05-2.85699E-05-2.85717E-05 9.47702E-09-1.73342E-18 2.72856E-18
 -1      1556 9.52570E-05-2.85751E-05-2.85784E-05 2.40341E-08-2.03722E-18 2.98182E-18
 -1      1557 9.52137E-05-2.85637E-05-2.85643E-05 3.85080E-09 5.32181E-19 6.89201E-18
 -1      1558 9.52190E-05-2.85647E-05-2.85659E-05 4.87775E-09-1.84439E-19 5.98727E-18
 -1      1559 9.52347E-05-2.85692E-05-2.85713E-05 1.32157E-08-1.53974E-18 3.42789E-18
 -1      1560 9.52072E-05-2.85619E-05-2.85622E-05 1.23121E-09 4.56394E-20 5.24369E-18
 -1      1561 9.52092E-05-2.85621E-05-2.85628E-05 1.91280E-09 5.02550E-19 6.41025E-18
 -1      1562 9.52219E-05-2.85658E-05-2.85671E-05 6.17673E-09 8.12876E-19 4.41206E-18
 -1      1563 9.52052E-05-2.85614E-05-2.85616E-05-3.85065E-10-3.01977E-20 5.22339E-18
 -1      1564 9.52052E-05-2.85611E-05-2.85616E-05 5.72916E-11-6.20079E-19 4.24665E-18
 -1      1565 9.52153E-05-2.85642E-05-2.85649E-05 1.69414E-09-3.38322E-19 2.73769E-18
 -1      1566 9.52061E-05-2.85618E-05-2.85618E-05-1.32369E-09 1.25802E-18 3.49473E-18
 -1      1567 9.52048E-05-2.85612E-05-2.85614E-05-1.04680E-09 8.80919E-19 4.34318E-18
 -1      1568 9.52129E-05-2.85636E-05-2.85641E-05-1.05350E-09 1.20854E-18 2.00509E-18
 -1      1569 9.52086E-05-2.85626E-05-2.85625E-05-1.80903E-09 2.46167E-19 6.69469E-19
 -1      1570 9.52067E-05-2.85619E-05-2.85620E-05-1.64590E-09 1.56737E-18 3.42334E-18
 -1      1571 9.52130E-05-2.85638E-05-2.85640E-05-2.62843E-09 2.04345E-18 1.63937E-18
 -1      1572 9.52119E-05-2.85636E-05-2.85635E-05-1.99725E-09-4.23261E-19-4.26251E-19
 -1      1573 9.52097E-05-2.85628E-05-2.85629E-05-1.91124E-09-1.80818E-19-4.12506E-19
 -1      1574 9.52146E-05-2.85644E-05-2.85644E-05-3.42034E-09 1.73600E-19 1.00257E-19
 -1      1575 9.52156E-05-2.85647E-05-2.85646E-05-1.99741E-09 1.58781E-18-1.75425E-18
 -1      1576 9.52133E-05-2.85640E-05-2.85640E-05-1.96241E-09 3.36904E-19-1.40560E-18
 -1      1577 9.52171E-05-2.85652E-05-2.85651E-05-3.70127E-09 5.35657E-19-2.24334E-18
 -1      1578 9.52192E-05-2.85658E-05-2.85657E-05-1.88536E-09 1.12100E-19-3.15110E-18
 -1      1579 9.52171E-05-2.85651E-05-2.85651E-05-1.88278E-09 8.40573E-19-2.41464E-18
 -1      1580 9.52199E-05-2.85660E-05-2.85659E-05-3.66134E-09 2.21367E-18-3.03191E-18
 -1      1581 9.52226E-05-2.85668E-05-2.85667E-05-1.71301E-09-2.24574E-19-4.57122E-18
 -1      1582 9.52207E-05-2.85662E-05-2.85662E-05-1.72979E-09 1.61907E-19-3.56287E-18
 -1      1583 9.52227E-05-2.85669E-05-2.85668E-05-3.43239E-09 8.85439E-19-5.01462E-18
 -1      1584 9.52257E-05-2.85678E-05-2.85677E-05-1.51477E-09-1.18028E-19-3.13810E-18
 -1      1585 9.52240E-05-2.85672E-05-2.85672E-05-1.54196E-09 6.97291E-20-3.25424E-18
 -1      1586 9.52255E-05-2.85677E-05-2.85676E-05-3.10403E-09-3.15754E-19-3.76325E-18
 -1      1587 9.52285E-05-2.85686E-05-2.85685E-05-1.31191E-09 2.01409E-20-2.59656E-18
 -1      1588 9.52270E-05-2.85681E-05-2.85681E-05-1.34371E-09 3.89094E-19-2.33188E-18
 -1      1589 9.52280E-05-2.85685E-05-2.85684E-05-2.73467E-09 1.13735E-19-2.36605E-18
 -1      1590 9.52308E-05-2.85693E-05-2.85692E-05-1.11545E-09 1.95412E-19-2.34140E-18
 -1      1591 9.52295E-05-2.85689E-05-2.85688E-05-1.14859E-09-2.66465E-19-2.15487E-18
 -1      1592 9.52302E-05-2.85691E-05-2.85690E-05-2.35904E-09-9.40425E-19-2.96831E-20
 -1      1593 9.52328E-05-2.85699E-05-2.85698E-05-9.28051E-10 1.05373E-19-3.05552E-18
 -1      1594 9.52318E-05-2.85696E-05-2.85695E-05-9.61478E-10 5.11875E-19-2.09353E-18
 -1      1595 9.52321E-05-2.85697E-05-2.85696E-05-1.99322E-09 6.23222E-20-1.08395E-18
 -1      1596 9.52345E-05-2.85704E-05-2.85703E-05-7.44534E-10-1.18129E-18-1.41158E-18
 -1      1597 9.52336E-05-2.85701E-05-2.85701E-05-7.79542E-10-1.39811E-18-2.85119E-18
 -1      1598 9.52337E-05-2.85702E-05-2.85701E-05-1.63761E-09-1.26741E-18-7.11923E-19
 -1      1599 9.52358E-05-2.85708E-05-2.85707E-05-5.52843E-10 3.44440E-19-1.07887E-18
 -1      1600 9.52351E-05-2.85706E-05-2.85705E-05-5.92906E-10 2.05037E-19-3.53615E-19
 -1      1601 9.52351E-05-2.85706E-05-2.85705E-05-1.27830E-09-5.92133E-19 8.66874E-19
 -1      1602 9.52366E-05-2.85710E-05-2.85710E-05-3.34302E-10-1.43023E-18 1.36058E-18
 -1      1603 9.52362E-05-2.85709E-05-2.85708E-05-3.87071E-10-1.17178E-18-1.48068E-18
 -1      1604 9.52361E-05-2.85709E-05-2.85708E-05-8.91835E-10-1.47214E-18 2.70475E-18
 -1      1605 9.52371E-05-2.85712E-05-2.85711E-05-9.72400E-11-1.43041E-18 4.97154E-18
 -1      1606 9.52369E-05-2.85711E-05-2.85710E-05-1.59015E-10-1.30194E-18 2.25864E-18
 -1      1607 9.52367E-05-2.85711E-05-2.85710E-05-4.61175E-10-3.20197E-18 4.46677E-19
 -1      1608 9.52371E-05-2.85712E-05-2.85711E-05 1.05565E-11 3.81247E-18 3.57393E-18
 -1      1609 9.52372E-05-2.85715E-05-2.85710E-05-2.62735E-10 4.02277E-18-8.94355E-19
 -1      1610 9.52371E-05-2.85713E-05-2.85711E-05-2.02546E-10 3.77096E-18 3.22936E-19
 -1      1611 9.52374E-05-2.85722E-05-2.85708E-05-4.85555E-10 2.61741E-18-1.66332E-18
 -1      1612 9.52373E-05-2.85718E-05-2.85709E-05-4.40513E-10 5.39843E-18-2.05166E-18
 -1      1613 9.52372E-05-2.85718E-05-2.85709E-05-6.98004E-10-8.51794E-20-1.34036E-18
 -1      1614 9.52377E-05-2.85732E-05-2.85705E-05-6.07053E-10 1.10389E-18 5.10236E-19
 -1      1615 9.52376E-05-2.85726E-05-2.85707E-05-5.91376E-10 3.12620E-18-1.70351E-18
 -1      1616 9.52375E-05-2.85725E-05-2.85707E-05-1.04665E-09 2.14535E-18-2.49175E-18
 -1      1617 9.52381E-05-2.85742E-05-2.85702E-05-6.22741E-10 1.09779E-18 3.90110E-20
 -1      1618 9.52379E-05-2.85736E-05-2.85704E-05-6.28254E-10-2.63467E-20 1.70913E-18
 -1      1619 9.52378E-05-2.85733E-05-2.85705E-05-1.19440E-09 6.81745E-19 2.44116E-19
 -1      1620 9.52384E-05-2.85751E-05-2.85700E-05-5.46418E-10 7.24025E-19 5.32965E-19
 -1      1621 9.52382E-05-2.85746E-05-2.85701E-05-5.68211E-10 2.19795E-20-3.58128E-19
 -1      1622 9.52381E-05-2.85742E-05-2.85703E-05-1.15076E-09-7.59559E-19-7.86477E-19
 -1      1623 9.52386E-05-2.85758E-05-2.85698E-05-3.95758E-10-1.29380E-18-2.28879E-18
 -1      1624 9.52385E-05-2.85754E-05-2.85699E-05-4.30354E-10-3.97255E-20-2.50382E-19
 -1      1625 9.52383E-05-2.85749E-05-2.85701E-05-9.43848E-10-8.21210E-19-2.54787E-19
 -1      1626 9.52387E-05-2.85762E-05-2.85696E-05-1.96226E-10-5.62602E-18-2.47679E-18
 -1      1627 9.52387E-05-2.85760E-05-2.85697E-05-2.38088E-10-1.64529E-18-1.95704E-18
 -1      1628 9.52385E-05-2.85755E-05-2.85699E-05-6.12580E-10-1.68855E-18-4.59691E-18
 -1      1629 9.52387E-05-2.85763E-05-2.85696E-05 2.60073E-11-6.40533E-18 1.52680E-19
 -1      1630 9.52387E-05-2.85763E-05-2.85696E-05-1.81202E-11-5.40257E-18-3.17969E-19
 -1      1631 9.52386E-05-2.85758E-05-2.85698E-05-2.07113E-10-1.52688E-18-2.70303E-18
 -1      1632 9.52387E-05-2.85760E-05-2.85697E-05 2.44655E-10-4.24085E-18 1.59844E-18
 -1      1633 9.52387E-05-2.85762E-05-2.85696E-05 2.03255E-10-5.95219E-18 1.72331E-18
 -1      1634 9.52386E-05-2.85758E-05-2.85698E-05 2.21784E-10-2.51218E-18 4.57614E-19
 -1      1635 9.52385E-05-2.85754E-05-2.85699E-05 4.33853E-10-4.07050E-18-1.45660E-18
 -1      1636 9.52386E-05-2.85758E-05-2.85698E-05 4.00111E-10-3.38209E-18 1.86680E-19
 -1      1637 9.52385E-05-2.85754E-05-2.85699E-05 6.23432E-10-1.57072E-18 1.47290E-18
 -1      1638 9.52382E-05-2.85746E-05-2.85701E-05 5.67050E-10-3.37340E-18 2.37273E-18
 -1      1639 9.52384E-05-2.85751E-05-2.85700E-05 5.45996E-10-3.66638E-18-2.87505E-19
 -1      1640 9.52383E-05-2.85749E-05-2.85701E-05 9.46509E-10-2.12469E-18-1.14093E-18
 -1      1641 9.52379E-05-2.85736E-05-2.85704E-05 6.25637E-10-6.67172E-19-2.45102E-19
 -1      1642 9.52381E-05-2.85741E-05-2.85702E-05 6.20609E-10-1.70713E-18 1.75160E-18
 -1      1643 9.52381E-05-2.85741E-05-2.85703E-05 1.14791E-09-5.06236E-19 3.70369E-18
 -1      1644 9.52375E-05-2.85726E-05-2.85707E-05 5.88003E-10-1.55760E-18 6.94394E-19
 -1      1645 9.52377E-05-2.85731E-05-2.85705E-05 6.02739E-10-1.49167E-18 4.94592E-19
 -1      1646 9.52378E-05-2.85733E-05-2.85705E-05 1.18798E-09 6.37378E-19-3.15963E-19
 -1      1647 9.52373E-05-2.85718E-05-2.85709E-05 4.42409E-10-5.65416E-19 1.33001E-18
 -1      1648 9.52374E-05-2.85722E-05-2.85708E-05 4.81424E-10-1.36449E-18 1.85214E-18
 -1      1649 9.52375E-05-2.85725E-05-2.85707E-05 1.03342E-09-3.17148E-19 7.37785E-19
 -1      1650 9.52371E-05-2.85714E-05-2.85710E-05 3.08010E-10 1.15534E-19-7.73712E-19
 -1      1651 9.52372E-05-2.85716E-05-2.85710E-05 3.96739E-10-2.15242E-19 4.90698E-19
 -1      1652 9.52372E-05-2.85718E-05-2.85709E-05 8.27733E-10-8.81442E-19 2.19424E-18
 -1      1653 9.52369E-05-2.85714E-05-2.85709E-05 6.15839E-10 1.23152E-19-9.30580E-19
 -1      1654 2.31441E-05-8.40974E-05 1.91641E-05-1.69028E-05 1.31017E-17 4.30547E-18
 -1      1655 2.53895E-05-8.69466E-05 1.96108E-05-5.69113E-06 8.76764E-18 2.82104E-18
 -1      1656 1.80930E-05-6.08979E-05 1.17191E-05-1.68801E-05 1.77792E-17 9.26681E-18
 -1      1657 2.52124E-05-8.20737E-05 1.67601E-05-1.44636E-05 1.48642E-17 6.08763E-18
 -1      1658 3.41173E-05-3.22602E-05-5.41158E-06 9.82373E-06 1.67179E-17 1.16734E-17
 -1      1659 3.06970E-05-5.54385E-05 3.88099E-06-5.32275E-06 1.71753E-17 9.03445E-18
 -1      1660 7.74368E-05-1.75382E-05-2.76840E-05 4.33532E-05 1.42318E-17 1.44555E-17
 -1      1661 5.18914E-05-2.89707E-05-1.54253E-05 1.67187E-05 1.65349E-17 1.30994E-17
 -1      1662 1.53522E-04-2.95823E-05-5.08435E-05 6.91157E-05 9.96111E-18 1.28698E-17
 -1      1663 1.05345E-04-1.99964E-05-3.89910E-05 4.90519E-05 1.32281E-17 1.41607E-17
 -1      1664 2.49634E-04-6.31510E-05-7.18459E-05 5.78552E-05 6.17911E-18 5.32953E-18
 -1      1665 1.87871E-04-3.97021E-05-6.09330E-05 5.86376E-05 9.39021E-18 1.03778E-17
 -1      1666 3.17669E-04-8.62682E-05-8.61931E-05 2.60304E-05 3.75701E-18-4.40457E-18
 -1      1667 2.75370E-04-6.59498E-05-8.02704E-05 5.68632E-05 5.26876E-18 2.94598E-18
 -1      1668 3.12612E-04-8.15318E-05-8.69702E-05-2.56957E-05 4.91576E-18-1.24895E-17
 -1      1669 3.18818E-04-8.44810E-05-8.76200E-05 1.35113E-05 3.86078E-18-6.29600E-18
 -1      1670 2.54514E-04-5.87015E-05-7.64310E-05-5.85738E-05 7.83643E-18-1.79859E-17
 -1      1671 3.03365E-04-8.12188E-05-8.36004E-05-3.50472E-05 4.98225E-18-1.45452E-17
 -1      1672 1.65235E-04-2.86735E-05-5.69272E-05-6.80648E-05 1.21736E-17-2.01797E-17
 -1      1673 2.30041E-04-5.26200E-05-6.85418E-05-7.30536E-05 9.23901E-18-2.07760E-17
 -1      1674 8.96523E-05-1.83925E-05-3.37402E-05-4.38479E-05 1.46960E-17-1.74472E-17
 -1      1675 1.32888E-04-2.27927E-05-4.58370E-05-6.80725E-05 1.33442E-17-1.98341E-17
 -1      1676 4.33834E-05-2.99817E-05-1.18169E-05-1.23481E-05 1.27622E-17-1.27987E-17
 -1      1677 6.20481E-05-1.57135E-05-2.27877E-05-3.67540E-05 1.46113E-17-1.66256E-17
 -1      1678 2.63377E-05-5.74939E-05 5.95549E-06 9.75587E-06 6.83556E-18-7.10745E-18
 -1      1679 2.63518E-05-3.33685E-05-2.43753E-06-2.78759E-06 1.14875E-17-1.14764E-17
 -1      1680 2.57283E-05-8.31025E-05 1.70060E-05 1.27513E-05-1.35229E-18-3.38601E-18
 -1      1681 1.91172E-05-6.38124E-05 1.23922E-05 1.65312E-05 4.83317E-18-5.35791E-18
 -1      1682 2.50569E-05-8.53700E-05 1.91078E-05 3.61982E-06-1.04909E-17-3.43324E-18
 -1      1683 2.37182E-05-8.46344E-05 1.90743E-05 1.53422E-05-4.05697E-18-3.21322E-18
 -1      1684 2.11291E-05-6.46746E-05 1.30937E-05-1.68086E-06-1.77326E-17-6.19594E-18
 -1      1685 2.66310E-05-8.34762E-05 1.74182E-05 5.27559E-06-1.31938E-17-3.80127E-18
 -1      1686 2.27391E-05-2.88718E-05-7.04554E-07 1.38688E-05-1.99502E-17-1.03008E-17
 -1      1687 2.61113E-05-5.59479E-05 7.06939E-06 5.15301E-06-1.84848E-17-7.32355E-18
 -1      1688 5.05226E-05-4.75735E-06-2.02344E-05 4.66645E-05-1.79673E-17-1.33120E-17
 -1      1689 3.82166E-05-2.39585E-05-9.72004E-06 2.41519E-05-1.90083E-17-1.11470E-17
 -1      1690 9.79335E-05 1.90479E-06-4.08876E-05 7.76956E-05-1.46105E-17-1.42564E-17
 -1      1691 6.53779E-05 2.17512E-06-3.02713E-05 5.46619E-05-1.81494E-17-1.44868E-17
 -1      1692 1.73484E-04-2.38858E-05-6.02201E-05 8.45682E-05-8.76086E-18-1.00619E-17
 -1      1693 1.26053E-04-5.47289E-06-5.05002E-05 7.80617E-05-1.23260E-17-1.32332E-17
 -1      1694 2.39367E-04-5.23964E-05-7.46905E-05 5.56072E-05-4.61966E-18-4.58668E-18
 -1      1695 1.96753E-04-3.04654E-05-6.78583E-05 7.39363E-05-7.21439E-18-8.78119E-18
 -1      1696 2.75578E-04-6.90276E-05-8.19302E-05 8.78982E-06-3.07727E-18 1.86559E-18
 -1      1697 2.58108E-04-5.92071E-05-7.96598E-05 4.44485E-05-3.56622E-18-2.99299E-18
 -1      1698 2.64311E-04-6.22015E-05-8.05383E-05-4.35473E-05-3.75744E-18 8.13829E-18
 -1      1699 2.78195E-04-7.04632E-05-8.23183E-05-8.92049E-06-2.70373E-18 4.17714E-18
 -1      1700 2.13206E-04-3.66817E-05-7.13173E-05-7.51455E-05-7.13615E-18 1.16814E-17
 -1      1701 2.48348E-04-5.56458E-05-7.66254E-05-5.54348E-05-4.57165E-18 9.10476E-18
 -1      1702 1.50781E-04-1.00312E-05-5.77547E-05-8.74755E-05-1.04469E-17 1.48332E-17
 -1      1703 1.93535E-04-2.95153E-05-6.54397E-05-8.69578E-05-7.95195E-18 1.34263E-17
 -1      1704 9.08901E-05 3.62486E-06-4.03268E-05-7.08926E-05-1.30833E-17 1.40091E-17
 -1      1705 1.27339E-04-4.44630E-06-4.96013E-05-8.72858E-05-1.13011E-17 1.47875E-17
 -1      1706 4.93085E-05-3.38590E-06-2.18322E-05-4.20904E-05-1.18390E-17 1.09403E-17
 -1      1707 6.99676E-05 4.99667E-06-3.13154E-05-6.45206E-05-1.29020E-17 1.41920E-17
 -1      1708 3.17341E-05-3.27027E-05-3.79209E-06-1.69709E-05-7.69191E-18 6.59500E-18
 -1      1709 3.70013E-05-1.03495E-05-1.29871E-05-3.47257E-05-1.05786E-17 9.78196E-18
 -1      1710 2.56430E-05-6.42218E-05 1.04557E-05-3.26224E-06-7.15743E-19 3.93529E-18
 -1      1711 2.06245E-05-3.93849E-05 3.99797E-06-7.05135E-06-6.40442E-18 5.64145E-18
 -1      1712 2.66393E-05-8.59114E-05 1.85092E-05-7.48976E-06 6.87325E-18 2.68658E-18
 -1      1713 2.24834E-05-7.13016E-05 1.51252E-05 7.61762E-07 1.25869E-18 3.17711E-18
 -1      1714 1.29956E-04-5.34274E-05-3.37056E-05 3.21746E-05 9.43849E-18 7.54960E-18
 -1      1715 7.63851E-05-5.27419E-05-1.34650E-05 2.77129E-05 9.53251E-18 7.04477E-18
 -1      1716 9.52371E-05-2.85712E-05-2.85711E-05-8.79250E-11 3.32861E-18 8.70598E-19
 -1      1717 9.52370E-05-2.85713E-05-2.85710E-05-3.50767E-10-1.17154E-18 5.38439E-19
 -1      1718 1.46565E-05-5.78008E-05 1.32485E-05-8.61441E-07 7.77957E-18 6.38748E-18
 -1      1719 3.59846E-05-5.38372E-05 3.28595E-06 1.58837E-05 9.13949E-18 6.84826E-18
 -1      1720 1.18451E-05-5.73477E-05 1.45354E-05-1.14734E-05 4.65445E-18 5.48411E-18
 -1      1721 1.91389E-04-5.82704E-05-5.40136E-05 2.07114E-05 8.95144E-18 5.02375E-18
 -1      1722 2.37276E-04-5.57891E-05-7.06782E-05 5.72778E-06 9.02344E-18 1.52635E-18
 -1      1723 2.57991E-04-4.77342E-05-7.99108E-05 1.02799E-06 7.90112E-18-2.19593E-18
 -1      1724 2.51035E-04-4.71598E-05-7.81204E-05-2.74036E-07 6.51030E-18-4.65783E-18
 -1      1725 2.26673E-04-5.38259E-05-6.77449E-05-1.82077E-05 6.74736E-18-8.30008E-18
 -1      1726 1.76451E-04-5.54387E-05-5.03333E-05-3.16277E-05 6.89908E-18-1.15044E-17
 -1      1727 1.14924E-04-5.02746E-05-2.93469E-05-3.43285E-05 7.14981E-18-1.11419E-17
 -1      1728 6.37218E-05-4.94020E-05-9.99081E-06-2.55180E-05 5.43710E-18-1.07518E-17
 -1      1729 3.03037E-05-5.40527E-05 5.14402E-06-1.18883E-05 2.28699E-18-8.54519E-18
 -1      1730 1.42084E-05-5.76034E-05 1.33401E-05 9.96444E-07-2.09259E-18-6.93508E-18
 -1      1731 1.23943E-05-5.60114E-05 1.37400E-05 1.22303E-05-6.44211E-18-6.58526E-18
 -1      1732 2.46645E-05-4.86931E-05 6.39547E-06 2.54518E-05-1.01593E-17-6.79553E-18
 -1      1733 5.31220E-05-3.92740E-05-7.94631E-06 4.12985E-05-1.07065E-17-7.34388E-18
 -1      1734 9.10060E-05-3.21792E-05-2.56996E-05 5.04189E-05-1.11182E-17-7.51361E-18
 -1      1735 1.36811E-04-2.81443E-05-4.46195E-05 5.41081E-05-1.05261E-17-7.08712E-18
 -1      1736 1.81325E-04-3.09984E-05-6.09251E-05 4.03703E-05-8.30193E-18-4.76880E-18
 -1      1737 2.12483E-04-3.23583E-05-7.26362E-05 2.13437E-05-6.63142E-18-3.28564E-18
 -1      1738 2.32303E-04-3.76282E-05-7.78023E-05-4.80281E-07-5.39560E-18 1.29173E-19
 -1      1739 2.20105E-04-3.47736E-05-7.43851E-05-2.42420E-05-5.29777E-18 3.26065E-18
 -1      1740 1.92188E-04-3.02610E-05-6.51841E-05-4.39801E-05-5.96946E-18 5.34817E-18
 -1      1741 1.54397E-04-2.68971E-05-5.18353E-05-5.65227E-05-6.23247E-18 7.21503E-18
 -1      1742 1.11121E-04-2.64285E-05-3.54733E-05-5.56917E-05-6.29600E-18 8.40087E-18
 -1      1743 7.34352E-05-3.31545E-05-1.84352E-05-4.76038E-05-4.09795E-18 7.77068E-18
 -1      1744 4.19101E-05-4.13924E-05-2.83906E-06-3.67252E-05-2.11589E-18 7.30958E-18
 -1      1745 2.05756E-05-5.17674E-05 9.06319E-06-2.20228E-05 1.29045E-18 6.68140E-18
 -1      1746 1.06838E-04-2.33041E-05-3.58865E-05-1.75693E-05-2.23777E-18 1.92276E-18
 -1      1747 9.13775E-05-1.19925E-05-3.41422E-05-1.42764E-05-1.30485E-18-5.13583E-18
 -1      1748 9.22092E-05-1.27249E-05-3.42341E-05-1.63136E-05-1.92110E-18-4.90271E-18
 -1      1749 9.36974E-05-1.45086E-05-3.41014E-05-1.72252E-05-2.25778E-18-4.28305E-18
 -1      1750 9.50207E-05-1.62049E-05-3.43136E-05-1.89377E-05-2.82840E-18-3.44123E-18
 -1      1751 9.50163E-05-1.74883E-05-3.32533E-05-1.52421E-05-2.31977E-18-4.18275E-18
 -1      1752 8.98421E-05-1.04563E-05-3.40924E-05-6.89878E-06 5.05656E-19-4.95927E-18
 -1      1753 9.01120E-05-1.05831E-05-3.41652E-05-8.85547E-06 8.59573E-20-5.21010E-18
 -1      1754 8.89244E-05-9.99977E-06-3.38872E-05-2.89189E-06 1.22596E-18-4.61592E-18
 -1      1755 8.94432E-05-1.01919E-05-3.40272E-05-4.86601E-06 9.02155E-19-4.86728E-18
 -1      1756 9.18542E-05-1.35553E-05-3.36090E-05-5.75839E-06 6.74874E-19-4.72753E-18
 -1      1757 8.72325E-05-9.17987E-06-3.35130E-05 1.06495E-06 1.84639E-18-4.17729E-18
 -1      1758 8.81604E-05-9.55175E-06-3.37323E-05-8.10838E-07 1.57953E-18-4.43538E-18
 -1      1759 9.06764E-05-1.28780E-05-3.34030E-05-1.65988E-06 1.46768E-18-4.35146E-18
 -1      1760 8.46355E-05-7.78495E-06-3.30026E-05 4.65715E-06 2.47756E-18-3.81992E-18
 -1      1761 8.59825E-05-8.38252E-06-3.32785E-05 3.02070E-06 2.21550E-18-4.02632E-18
 -1      1762 8.85635E-05-1.16697E-05-3.30208E-05 2.41893E-06 2.17324E-18-3.97262E-18
 -1      1763 8.14022E-05-5.83769E-06-3.24586E-05 7.47280E-06 2.94877E-18-3.47270E-18
 -1      1764 8.29719E-05-6.60531E-06-3.27307E-05 6.24182E-06 2.75658E-18-3.70429E-18
 -1      1765 8.54395E-05-9.72232E-06-3.25148E-05 6.05991E-06 2.81595E-18-3.61617E-18
 -1      1766 7.82958E-05-3.69812E-06-3.20482E-05 9.13248E-06 3.31568E-18-3.14249E-18
 -1      1767 7.96565E-05-4.45124E-06-3.22245E-05 8.42645E-06 3.13030E-18-3.39629E-18
 -1      1768 8.17166E-05-7.16334E-06-3.20021E-05 8.72742E-06 3.29201E-18-3.32720E-18
 -1      1769 7.65199E-05-2.10210E-06-3.19674E-05 9.52311E-06 3.70687E-18-2.50165E-18
 -1      1770 7.70763E-05-2.53953E-06-3.19494E-05 9.30585E-06 3.51694E-18-2.88955E-18
 -1      1771 7.83991E-05-4.59347E-06-3.16564E-05 9.95333E-06 3.72096E-18-2.91552E-18
 -1      1772 7.73090E-05-1.90216E-06-3.23810E-05 9.00897E-06 4.04055E-18-1.65913E-18
 -1      1773 7.64856E-05-1.71061E-06-3.20891E-05 9.03681E-06 3.83137E-18-2.18008E-18
 -1      1774 7.68762E-05-2.98319E-06-3.16617E-05 9.64724E-06 4.13656E-18-2.25086E-18
 -1      1775 8.16785E-05-3.97738E-06-3.33541E-05 8.44030E-06 4.06360E-18-3.34062E-19
 -1      1776 7.90939E-05-2.87166E-06-3.27711E-05 8.25795E-06 3.97799E-18-1.17606E-18
 -1      1777 7.85772E-05-3.47421E-06-3.21571E-05 8.27907E-06 4.29503E-18-1.32191E-18
 -1      1778 8.97970E-05-8.89891E-06-3.47515E-05 8.97880E-06 3.88047E-18 1.81493E-18
 -1      1779 8.55023E-05-6.68295E-06-3.39578E-05 8.05144E-06 3.91849E-18 5.32188E-19
 -1      1780 8.44600E-05-7.03348E-06-3.31364E-05 6.86199E-06 4.14735E-18 1.09505E-19
 -1      1781 1.01631E-04-1.75814E-05-3.61406E-05 1.07497E-05 3.12641E-18 5.42773E-18
 -1      1782 9.55304E-05-1.34842E-05-3.53761E-05 9.14633E-06 3.48162E-18 3.27185E-18
 -1      1783 9.41347E-05-1.39859E-05-3.43325E-05 6.32371E-06 3.74843E-18 2.36433E-18
 -1      1784 1.11372E-04-2.75334E-05-3.62967E-05 8.54883E-06 2.19382E-18 9.42367E-18
 -1      1785 1.05795E-04-2.13092E-05-3.62214E-05 1.03691E-05 2.71438E-18 6.82004E-18
 -1      1786 1.03951E-04-2.22847E-05-3.49902E-05 5.35305E-06 3.11850E-18 5.19679E-18
 -1      1787 1.09860E-04-2.87768E-05-3.48624E-05 2.82793E-06 2.34930E-18 8.59777E-18
 -1      1788 1.00751E-04-1.96637E-05-3.44249E-05-1.99187E-05-2.79665E-18-1.44101E-18
 -1      1789 1.10114E-04-3.03099E-05-3.41382E-05-5.21036E-06 1.88679E-18 7.21717E-18
 -1      1790 1.09927E-04-2.98860E-05-3.43021E-05-1.46152E-06 2.00344E-18 7.88488E-18
 -1      1791 1.07276E-04-2.70410E-05-3.44117E-05-3.05937E-07 2.45200E-18 5.87099E-18
 -1      1792 1.00546E-04-2.29322E-05-3.29805E-05-1.57385E-05-2.84354E-18-1.98963E-18
 -1      1793 9.69732E-05-2.73663E-05-2.97229E-05-7.59543E-06-2.20213E-18-1.97793E-18
 -1      1794 9.45954E-05-2.73058E-05-2.88364E-05-6.12190E-06-1.84289E-18-2.52827E-18
 -1      1795 9.33969E-05-2.74286E-05-2.81819E-05-5.14105E-06-1.73953E-18-2.43079E-18
 -1      1796 9.18412E-05-2.72773E-05-2.76532E-05-4.68452E-06-1.47374E-18-2.93150E-18
 -1      1797 9.55731E-05-2.72510E-05-2.92884E-05-7.55407E-06-2.06223E-18-2.70732E-18
 -1      1798 9.07507E-05-2.71395E-05-2.72102E-05-4.35492E-06-1.21179E-18-2.87157E-18
 -1      1799 8.94393E-05-2.68442E-05-2.68150E-05-4.27567E-06-9.90590E-19-3.20129E-18
 -1      1800 9.34121E-05-2.76573E-05-2.81884E-05-6.01210E-06-1.55843E-18-2.76041E-18
 -1      1801 8.84192E-05-2.65679E-05-2.64834E-05-4.20630E-06-9.03570E-19-3.18637E-18
 -1      1802 8.72071E-05-2.61715E-05-2.61460E-05-4.19958E-06-8.22371E-19-3.35509E-18
 -1      1803 9.13827E-05-2.74011E-05-2.74255E-05-5.53848E-06-1.14252E-18-2.75138E-18
 -1      1804 8.62245E-05-2.57970E-05-2.58855E-05-4.10244E-06-8.48982E-19-3.31674E-18
 -1      1805 8.51009E-05-2.53403E-05-2.55920E-05-3.97447E-06-7.30532E-19-3.61511E-18
 -1      1806 8.93966E-05-2.67359E-05-2.68600E-05-5.33885E-06-9.46941E-19-2.79178E-18
 -1      1807 8.41920E-05-2.49204E-05-2.53919E-05-3.64995E-06-7.46191E-19-3.64520E-18
 -1      1808 8.32466E-05-2.44775E-05-2.51577E-05-3.28692E-06-6.37424E-19-3.86096E-18
 -1      1809 8.74780E-05-2.58196E-05-2.64353E-05-4.86210E-06-8.75250E-19-2.83830E-18
 -1      1810 8.25157E-05-2.40973E-05-2.50213E-05-2.63917E-06-7.17447E-19-3.95080E-18
 -1      1811 8.18865E-05-2.37674E-05-2.48730E-05-2.01889E-06-6.68008E-19-4.01121E-18
 -1      1812 8.57893E-05-2.48509E-05-2.61351E-05-3.76930E-06-7.95064E-19-3.13247E-18
 -1      1813 8.14661E-05-2.35272E-05-2.48079E-05-1.07897E-06-7.30338E-19-4.02916E-18
 -1      1814 8.12794E-05-2.34027E-05-2.47694E-05-2.77572E-07-5.82309E-19-4.28384E-18
 -1      1815 8.45913E-05-2.40812E-05-2.59600E-05-1.98102E-06-7.11417E-19-3.25971E-18
 -1      1816 8.12686E-05-2.33783E-05-2.47804E-05 8.03712E-07-5.68521E-19-4.40859E-18
 -1      1817 8.15846E-05-2.35063E-05-2.48622E-05 1.63626E-06-4.60849E-19-4.49543E-18
 -1      1818 8.41380E-05-2.37458E-05-2.59136E-05 2.99624E-07-7.70310E-19-3.39337E-18
 -1      1819 8.19956E-05-2.37124E-05-2.49473E-05 2.64347E-06-3.43842E-19-4.78107E-18
 -1      1820 8.27787E-05-2.40730E-05-2.51411E-05 3.33950E-06-3.44769E-20-4.92292E-18
 -1      1821 8.45528E-05-2.39660E-05-2.59937E-05 2.65551E-06-5.80982E-19-3.62862E-18
 -1      1822 8.35239E-05-2.44546E-05-2.52895E-05 4.07662E-06-1.40687E-19-5.02757E-18
 -1      1823 8.46510E-05-2.49701E-05-2.55693E-05 4.51294E-06-1.59811E-19-4.98123E-18
 -1      1824 8.57571E-05-2.46931E-05-2.61888E-05 4.61712E-06-1.52684E-19-4.09589E-18
 -1      1825 8.55777E-05-2.54302E-05-2.57627E-05 4.87258E-06 4.25543E-20-4.93832E-18
 -1      1826 8.68768E-05-2.59975E-05-2.60910E-05 5.00693E-06 3.05129E-19-4.54929E-18
 -1      1827 8.74954E-05-2.57329E-05-2.64762E-05 5.84144E-06 9.31736E-21-3.91026E-18
 -1      1828 8.78239E-05-2.64384E-05-2.63067E-05 4.99223E-06-2.85336E-21-4.62708E-18
 -1      1829 8.91235E-05-2.69658E-05-2.66437E-05 4.86166E-06-9.69307E-20-4.37699E-18
 -1      1830 8.94346E-05-2.68363E-05-2.68241E-05 6.21543E-06 2.73526E-19-3.33406E-18
 -1      1831 8.99682E-05-2.73215E-05-2.68592E-05 4.56082E-06-1.23789E-19-4.34643E-18
 -1      1832 9.11354E-05-2.77512E-05-2.71714E-05 4.25128E-06-1.00150E-19-4.47962E-18
 -1      1833 9.12760E-05-2.77946E-05-2.71960E-05 5.84864E-06-1.98726E-19-3.64621E-18
 -1      1834 9.18121E-05-2.79969E-05-2.73682E-05 3.78855E-06 5.48106E-20-4.32504E-18
 -1      1835 9.27696E-05-2.83089E-05-2.76330E-05 3.39705E-06 2.85675E-19-4.12685E-18
 -1      1836 9.28251E-05-2.84949E-05-2.75573E-05 4.98490E-06 1.00219E-19-3.41712E-18
 -1      1837 9.32638E-05-2.84518E-05-2.77990E-05 2.88843E-06-2.91179E-19-4.52654E-18
 -1      1838 9.39872E-05-2.86537E-05-2.80063E-05 2.49516E-06-5.08974E-19-4.73830E-18
 -1      1839 9.40034E-05-2.89203E-05-2.78805E-05 3.89518E-06-1.47706E-19-3.23347E-18
 -1      1840 9.43170E-05-2.87178E-05-2.81360E-05 2.02382E-06-6.86337E-19-4.96035E-18
 -1      1841 9.48204E-05-2.88318E-05-2.82859E-05 1.68018E-06-1.00724E-18-5.49510E-18
 -1      1842 9.48200E-05-2.91171E-05-2.81481E-05 2.80116E-06-8.42831E-19-3.61595E-18
 -1      1843 9.50190E-05-2.88443E-05-2.83797E-05 1.29133E-06-7.19420E-19-5.22995E-18
 -1      1844 9.53383E-05-2.88960E-05-2.84792E-05 1.02073E-06-5.33517E-19-5.07208E-18
 -1      1845 9.53329E-05-2.91558E-05-2.83538E-05 1.84401E-06-8.04215E-19-3.40287E-18
 -1      1846 9.54410E-05-2.88797E-05-2.85414E-05 7.28483E-07-1.08311E-20-5.08788E-18
 -1      1847 9.56200E-05-2.88917E-05-2.86006E-05 5.33627E-07 3.54449E-19-4.94400E-18
 -1      1848 9.56159E-05-2.91033E-05-2.84999E-05 1.08785E-06-9.92402E-20-3.18116E-18
 -1      1849 9.56580E-05-2.88628E-05-2.86375E-05 3.31994E-07 3.19966E-19-4.58504E-18
 -1      1850 9.57384E-05-2.88527E-05-2.86672E-05 2.03521E-07 1.68498E-19-4.40903E-18
 -1      1851 9.57393E-05-2.90106E-05-2.85944E-05 5.40375E-07 6.28824E-19-3.16365E-18
 -1      1852 9.57364E-05-2.88211E-05-2.86853E-05 7.65306E-08 2.57381E-19-4.09049E-18
 -1      1853 9.57533E-05-2.88006E-05-2.86951E-05 8.33805E-11 5.05297E-19-4.06948E-18
 -1      1854 9.57607E-05-2.89098E-05-2.86483E-05 1.76481E-07 3.75506E-19-2.58955E-18
 -1      1855 9.57290E-05-2.87715E-05-2.87005E-05-7.10262E-08 4.32017E-19-4.07091E-18
 -1      1856 9.57093E-05-2.87481E-05-2.86982E-05-1.10187E-07 9.36844E-19-3.95956E-18
 -1      1857 9.57233E-05-2.88183E-05-2.86725E-05-4.26823E-08 6.60625E-19-3.03181E-18
 -1      1858 9.56749E-05-2.87237E-05-2.86957E-05-1.42783E-07 8.11475E-19-3.68889E-18
 -1      1859 9.56373E-05-2.87014E-05-2.86870E-05-1.57366E-07 5.34995E-19-3.55811E-18
 -1      1860 9.56567E-05-2.87431E-05-2.86768E-05-1.57264E-07 9.28135E-19-3.04207E-18
 -1      1861 9.56004E-05-2.86821E-05-2.86802E-05-1.65558E-07 2.92569E-19-3.77616E-18
 -1      1862 9.55572E-05-2.86629E-05-2.86689E-05-1.65382E-07-3.29621E-19-3.79824E-18
 -1      1863 9.55802E-05-2.86854E-05-2.86692E-05-2.02149E-07 3.18330E-19-2.99093E-18
 -1      1864 9.55224E-05-2.86483E-05-2.86604E-05-1.59620E-07-7.61183E-20-3.71032E-18
 -1      1865 9.54807E-05-2.86328E-05-2.86489E-05-1.51647E-07 4.34390E-19-3.65071E-18
 -1      1866 9.55056E-05-2.86432E-05-2.86555E-05-2.04532E-07 2.94328E-19-3.03820E-18
 -1      1867 9.54503E-05-2.86221E-05-2.86402E-05-1.39095E-07-8.54025E-20-3.24039E-18
 -1      1868 9.54138E-05-2.86103E-05-2.86298E-05-1.27895E-07-2.87927E-20-2.90264E-18
 -1      1869 9.54388E-05-2.86137E-05-2.86397E-05-1.83916E-07 3.96770E-19-2.29045E-18
 -1      1870 9.53886E-05-2.86027E-05-2.86220E-05-1.13101E-07-9.61438E-19-2.92298E-18
 -1      1871 9.53588E-05-2.85940E-05-2.86132E-05-1.01433E-07-9.38945E-19-2.99941E-18
 -1      1872 9.53825E-05-2.85939E-05-2.86241E-05-1.53279E-07-5.28564E-19-1.63151E-18
 -1      1873 9.53388E-05-2.85888E-05-2.86065E-05-8.70331E-08-1.29885E-18-3.47954E-18
 -1      1874 9.53158E-05-2.85827E-05-2.85996E-05-7.63836E-08-1.49866E-18-3.72512E-18
 -1      1875 9.53373E-05-2.85810E-05-2.86102E-05-1.20591E-07-1.55867E-18-2.08267E-18
 -1      1876 9.53005E-05-2.85792E-05-2.85943E-05-6.37171E-08-8.34452E-19-3.75195E-18
 -1      1877 9.52835E-05-2.85751E-05-2.85891E-05-5.47473E-08 4.26358E-19-3.21900E-18
 -1      1878 9.53023E-05-2.85731E-05-2.85986E-05-9.02704E-08-7.82304E-19-1.65515E-18
 -1      1879 9.52723E-05-2.85729E-05-2.85849E-05-4.43269E-08 4.84509E-19-3.52371E-18
 -1      1880 9.52603E-05-2.85704E-05-2.85812E-05-3.71972E-08 7.35798E-19-2.39634E-18
 -1      1881 9.52762E-05-2.85685E-05-2.85893E-05-6.43807E-08 3.46878E-19-1.37470E-18
 -1      1882 9.52524E-05-2.85690E-05-2.85782E-05-2.90531E-08 1.68966E-18-2.51311E-18
 -1      1883 9.52444E-05-2.85676E-05-2.85756E-05-2.36493E-08 2.17629E-18-2.40005E-18
 -1      1884 9.52575E-05-2.85661E-05-2.85823E-05-4.35339E-08 1.46750E-18-4.55658E-19
 -1      1885 9.52391E-05-2.85669E-05-2.85735E-05-1.75588E-08 1.89767E-18-2.81946E-18
 -1      1886 9.52342E-05-2.85662E-05-2.85719E-05-1.36384E-08 1.41422E-18-1.97351E-18
 -1      1887 9.52446E-05-2.85652E-05-2.85771E-05-2.75222E-08 2.06756E-18-5.98638E-19
 -1      1888 9.52308E-05-2.85658E-05-2.85705E-05-9.27201E-09 4.92608E-19-1.73065E-18
 -1      1889 9.52281E-05-2.85656E-05-2.85695E-05-6.55291E-09 4.01106E-19-2.25945E-18
 -1      1890 9.52363E-05-2.85650E-05-2.85735E-05-1.57355E-08 1.08307E-18-5.91443E-19
 -1      1891 9.52261E-05-2.85656E-05-2.85687E-05-3.56040E-09 1.10302E-18-2.31202E-18
 -1      1892 9.52250E-05-2.85657E-05-2.85682E-05-1.76989E-09 1.35931E-18-1.25280E-18
 -1      1893 9.52312E-05-2.85654E-05-2.85711E-05-7.41919E-09 1.02736E-18-2.83002E-19
 -1      1894 9.52240E-05-2.85658E-05-2.85677E-05 1.73375E-10 3.06105E-19-1.67511E-18
 -1      1895 9.52239E-05-2.85661E-05-2.85676E-05 1.27456E-09 2.88716E-19-2.07074E-18
 -1      1896 9.52285E-05-2.85660E-05-2.85697E-05-1.82232E-09 9.38984E-19-2.40916E-19
 -1      1897 9.52236E-05-2.85663E-05-2.85674E-05 2.44677E-09-1.08561E-19-2.42948E-18
 -1      1898 9.52241E-05-2.85667E-05-2.85674E-05 3.05586E-09-8.68782E-19-2.74972E-18
 -1      1899 9.52274E-05-2.85668E-05-2.85689E-05 1.72755E-09-1.88412E-19-1.50707E-18
 -1      1900 9.52243E-05-2.85669E-05-2.85674E-05 3.68272E-09-1.93055E-18-2.91115E-18
 -1      1901 9.52252E-05-2.85674E-05-2.85676E-05 3.95484E-09-2.02651E-18-3.11168E-18
 -1      1902 9.52274E-05-2.85675E-05-2.85686E-05 3.79358E-09-1.83749E-18-2.70527E-18
 -1      1903 9.52256E-05-2.85676E-05-2.85677E-05 4.21181E-09-2.11675E-18-2.24448E-18
 -1      1904 9.52267E-05-2.85680E-05-2.85680E-05 4.26417E-09-1.80393E-18-2.02016E-18
 -1      1905 9.52281E-05-2.85682E-05-2.85686E-05 4.82500E-09-1.55301E-18-1.49739E-18
 -1      1906 9.52272E-05-2.85682E-05-2.85681E-05 4.28243E-09-1.72724E-18-2.60617E-18
 -1      1907 9.52283E-05-2.85686E-05-2.85684E-05 4.20017E-09-1.03404E-18-2.43271E-18
 -1      1908 9.52292E-05-2.85688E-05-2.85687E-05 5.16590E-09-1.93919E-18-9.53449E-19
 -1      1909 9.52289E-05-2.85689E-05-2.85686E-05 4.07387E-09 4.78302E-19-1.73745E-18
 -1      1910 9.52300E-05-2.85692E-05-2.85689E-05 3.91593E-09 1.75489E-18-1.83105E-18
 -1      1911 9.52304E-05-2.85693E-05-2.85690E-05 5.06969E-09-3.70886E-20-7.27884E-20
 -1      1912 9.52306E-05-2.85694E-05-2.85691E-05 3.70919E-09 2.59441E-18-2.05780E-18
 -1      1913 9.52315E-05-2.85697E-05-2.85694E-05 3.51356E-09 2.93494E-18-6.23494E-19
 -1      1914 9.52316E-05-2.85698E-05-2.85693E-05 4.71488E-09 2.23182E-18 1.15850E-18
 -1      1915 9.52321E-05-2.85699E-05-2.85695E-05 3.26652E-09 2.74760E-18 1.99629E-20
 -1      1916 9.52330E-05-2.85701E-05-2.85698E-05 3.05444E-09 2.98417E-18 2.01716E-18
 -1      1917 9.52328E-05-2.85702E-05-2.85697E-05 4.21960E-09 3.56593E-18 1.43683E-18
 -1      1918 9.52335E-05-2.85703E-05-2.85699E-05 2.78820E-09 2.17779E-18 6.85382E-19
 -1      1919 9.52342E-05-2.85705E-05-2.85702E-05 2.56735E-09 1.51126E-18 5.23243E-19
 -1      1920 9.52339E-05-2.85706E-05-2.85700E-05 3.65390E-09 1.74640E-18 1.33704E-18
 -1      1921 9.52346E-05-2.85707E-05-2.85703E-05 2.28825E-09 5.87608E-19-1.18780E-19
 -1      1922 9.52352E-05-2.85709E-05-2.85705E-05 2.05546E-09-4.64057E-19-4.80275E-19
 -1      1923 9.52349E-05-2.85709E-05-2.85703E-05 3.05028E-09 6.38550E-19-3.70322E-19
 -1      1924 9.52356E-05-2.85710E-05-2.85706E-05 1.76011E-09-8.01094E-19-1.78402E-18
 -1      1925 9.52361E-05-2.85711E-05-2.85707E-05 1.50489E-09-4.05936E-19-1.72541E-18
 -1      1926 9.52357E-05-2.85711E-05-2.85705E-05 2.41381E-09-1.43058E-18-4.78103E-19
 -1      1927 9.52364E-05-2.85712E-05-2.85708E-05 1.20464E-09-1.46784E-19-9.24243E-19
 -1      1928 9.52367E-05-2.85713E-05-2.85709E-05 9.31904E-10 1.80017E-19-5.43589E-19
 -1      1929 9.52368E-05-2.85715E-05-2.85708E-05 1.09851E-09-3.85770E-19 1.81272E-19
 -1      1930 9.52363E-05-2.85714E-05-2.85707E-05 1.75512E-09 4.45265E-19-1.73710E-18
 -1      1931 1.13324E-04-3.13867E-05-3.50105E-05-1.18098E-05 1.15167E-18 6.15952E-18
 -1      1932 1.10799E-04-3.05318E-05-3.43194E-05-8.55217E-06 1.45772E-18 6.80166E-18
 -1      1933 1.07608E-04-2.82771E-05-3.40319E-05-8.95635E-06 1.85024E-18 4.91195E-18
 -1      1934 1.19505E-04-3.34644E-05-3.67979E-05-1.80975E-05 4.15734E-19 5.48480E-18
 -1      1935 1.14978E-04-3.18175E-05-3.55781E-05-1.48479E-05 6.83370E-19 5.74823E-18
 -1      1936 1.09816E-04-2.91578E-05-3.46157E-05-1.66714E-05 9.38896E-19 4.09985E-18
 -1      1937 1.28596E-04-3.78903E-05-3.88260E-05-2.25770E-05-1.04913E-18 5.82078E-18
 -1      1938 1.22500E-04-3.49358E-05-3.74516E-05-2.01844E-05-4.08626E-19 5.47782E-18
 -1      1939 1.14541E-04-3.17428E-05-3.55319E-05-2.33718E-05-1.76491E-19 3.66858E-18
 -1      1940 1.40914E-04-4.66698E-05-4.02857E-05-2.05015E-05-2.64782E-18 6.64247E-18
 -1      1941 1.34003E-04-4.18418E-05-3.92914E-05-2.17463E-05-2.03756E-18 6.01727E-18
 -1      1942 1.23117E-04-3.86239E-05-3.61809E-05-2.64391E-05-2.15771E-18 3.85898E-18
 -1      1943 1.56916E-04-5.93740E-05-4.17444E-05-4.61738E-06-3.01036E-18 8.23327E-18
 -1      1944 1.50268E-04-5.38338E-05-4.09111E-05-1.36586E-05-3.07865E-18 7.08018E-18
 -1      1945 1.38443E-04-5.22697E-05-3.67757E-05-2.01915E-05-3.46066E-18 4.27069E-18
 -1      1946 1.73990E-04-5.51635E-05-5.15376E-05 2.84304E-05 1.25911E-18 8.12050E-18
 -1      1947 1.79122E-04-6.49329E-05-4.88514E-05 2.29069E-05-3.57448E-19 8.26831E-18
 -1      1948 1.91957E-04-3.91946E-05-6.49915E-05 1.24846E-05 5.23128E-18 2.92269E-18
 -1      1949 1.96163E-04-5.05483E-05-6.15202E-05 2.15786E-05 3.54737E-18 4.26905E-18
 -1      1950 1.95030E-04-3.71209E-05-6.72817E-05-8.44723E-06 7.12355E-18 2.13780E-18
 -1      1951 1.96177E-04-3.71949E-05-6.72859E-05 6.49702E-06 5.89027E-18 3.62981E-18
 -1      1952 1.77858E-04-6.66173E-05-4.76752E-05-2.19661E-05 3.28740E-18-1.43752E-18
 -1      1953 1.74791E-04-5.71732E-05-5.06329E-05-2.89120E-05 5.56035E-18-2.56863E-19
 -1      1954 1.59372E-04-6.14705E-05-4.13387E-05 5.84131E-06-6.71274E-19-1.57437E-18
 -1      1955 1.63201E-04-6.42323E-05-4.24493E-05-6.62013E-06 1.16732E-18-1.75548E-18
 -1      1956 1.38744E-04-4.61947E-05-3.92205E-05 2.17223E-05-7.49942E-19-9.32583E-19
 -1      1957 1.46075E-04-5.26948E-05-3.98759E-05 1.59186E-05-7.61906E-19-1.13084E-18
 -1      1958 1.25248E-04-3.66312E-05-3.78823E-05 2.35697E-05-1.08558E-18 4.54195E-19
 -1      1959 1.32498E-04-4.10163E-05-3.90901E-05 2.31847E-05-6.95388E-19 1.30761E-20
 -1      1960 1.19995E-04-4.05501E-05-3.40230E-05 2.86803E-05-1.45737E-18 4.70236E-19
 -1      1961 1.16372E-04-3.23537E-05-3.60498E-05 1.94743E-05-1.59408E-18 9.12572E-19
 -1      1962 1.22407E-04-3.47542E-05-3.74736E-05 2.13442E-05-1.32466E-18 5.62933E-19
 -1      1963 1.10979E-04-3.11781E-05-3.41573E-05 2.70774E-05-1.49065E-18 2.11156E-18
 -1      1964 1.10220E-04-3.06396E-05-3.41550E-05 1.42788E-05-6.96420E-20 1.18046E-18
 -1      1965 1.14814E-04-3.19314E-05-3.54228E-05 1.64645E-05-9.32570E-19 9.31657E-19
 -1      1966 1.06473E-04-2.80450E-05-3.35814E-05 2.15496E-05-1.04298E-18 1.09858E-18
 -1      1967 1.05794E-04-2.99065E-05-3.25486E-05 9.85413E-06 1.17075E-18-1.39132E-19
 -1      1968 1.09094E-04-3.06411E-05-3.35222E-05 1.16489E-05 8.16725E-19 6.23793E-19
 -1      1969 1.03695E-04-2.75687E-05-3.26061E-05 1.57062E-05 6.48933E-19-1.35294E-20
 -1      1970 1.02599E-04-2.95199E-05-3.13273E-05 6.58695E-06 4.47816E-19 5.78204E-19
 -1      1971 1.04882E-04-2.99654E-05-3.20186E-05 7.87860E-06 8.96882E-19 4.81014E-19
 -1      1972 1.01626E-04-2.78430E-05-3.16101E-05 1.08971E-05 8.26837E-19-2.03852E-19
 -1      1973 1.00323E-04-2.92667E-05-3.04515E-05 4.33183E-06-1.30006E-19-5.08359E-19
 -1      1974 1.01865E-04-2.95497E-05-3.09230E-05 5.20593E-06 6.93131E-19-1.49209E-19
 -1      1975 9.99890E-05-2.81804E-05-3.07707E-05 7.35301E-06 6.67561E-19 5.54095E-20
 -1      1976 9.87225E-05-2.90807E-05-2.98426E-05 2.82822E-06-5.45493E-19-4.11450E-19
 -1      1977 9.97507E-05-2.92656E-05-3.01580E-05 3.40222E-06-1.24067E-18-1.11193E-18
 -1      1978 9.87081E-05-2.84146E-05-3.01258E-05 4.88750E-06-1.50610E-19-1.23821E-18
 -1      1979 9.76104E-05-2.89398E-05-2.94261E-05 1.84307E-06 1.27983E-18-8.65236E-19
 -1      1980 9.82915E-05-2.90625E-05-2.96353E-05 2.21480E-06 4.15112E-20-7.79327E-19
 -1      1981 9.77325E-05-2.85450E-05-2.96541E-05 3.22565E-06 2.79025E-19-2.11302E-18
 -1      1982 9.68432E-05-2.88333E-05-2.91435E-05 1.20249E-06 1.76166E-19-5.40405E-20
 -1      1983 9.72934E-05-2.89155E-05-2.92819E-05 1.44209E-06 1.32470E-18-1.05183E-19
 -1      1984 9.70075E-05-2.86052E-05-2.93184E-05 2.12413E-06 5.21918E-19-1.31740E-18
 -1      1985 9.63162E-05-2.87539E-05-2.89524E-05 7.86576E-07-1.45699E-18 9.44122E-19
 -1      1986 9.66139E-05-2.88093E-05-2.90440E-05 9.41128E-07-8.63472E-19 3.00184E-19
 -1      1987 9.64786E-05-2.86252E-05-2.90831E-05 1.39961E-06-3.45980E-19 3.16992E-19
 -1      1988 9.59552E-05-2.86956E-05-2.88233E-05 5.15860E-07-1.36295E-18 2.16495E-18
 -1      1989 9.61522E-05-2.87329E-05-2.88841E-05 6.15975E-07-1.32860E-18 1.30276E-18
 -1      1990 9.60978E-05-2.86248E-05-2.89197E-05 9.23947E-07-1.38810E-18 7.49051E-19
 -1      1991 9.57083E-05-2.86534E-05-2.87362E-05 3.38768E-07 6.30283E-19 1.92298E-18
 -1      1992 9.58388E-05-2.86785E-05-2.87765E-05 4.04031E-07-8.12391E-19 1.75629E-18
 -1      1993 9.58264E-05-2.86158E-05-2.88067E-05 6.11041E-07-8.45875E-19 1.04382E-18
 -1      1994 9.55399E-05-2.86233E-05-2.86774E-05 2.22176E-07-6.18465E-19 3.41166E-18
 -1      1995 9.56264E-05-2.86401E-05-2.87042E-05 2.65034E-07 8.82733E-19 3.42239E-18
 -1      1996 9.56343E-05-2.86044E-05-2.87288E-05 4.04289E-07-1.72214E-19 1.23636E-18
 -1      1997 9.54257E-05-2.86022E-05-2.86378E-05 1.44892E-07-6.94228E-19 2.92867E-18
 -1      1998 9.54827E-05-2.86133E-05-2.86555E-05 1.73246E-07-1.13973E-18 3.09011E-18
 -1      1999 9.54994E-05-2.85935E-05-2.86753E-05 2.66892E-07-7.71411E-19 3.32469E-18
 -1      2000 9.53486E-05-2.85877E-05-2.86112E-05 9.33363E-08 3.98876E-19 3.07812E-18
 -1      2001 9.53860E-05-2.85949E-05-2.86229E-05 1.12248E-07-2.95999E-19 2.76397E-18
 -1      2002 9.54054E-05-2.85845E-05-2.86385E-05 1.75048E-07-2.93392E-19 2.83640E-18
 -1      2003 9.52955E-05-2.85777E-05-2.85929E-05 5.74564E-08 5.36740E-19 3.72416E-18
 -1      2004 9.53203E-05-2.85824E-05-2.86007E-05 7.05262E-08 1.30202E-18 4.06333E-18
 -1      2005 9.53393E-05-2.85772E-05-2.86130E-05 1.12314E-07 2.50853E-19 4.51749E-18
 -1      2006 9.52629E-05-2.85716E-05-2.85816E-05 3.48521E-08-2.58581E-18 3.27566E-18
 -1      2007 9.52775E-05-2.85742E-05-2.85863E-05 4.30888E-08-1.41956E-18 3.16462E-18
 -1      2008 9.52947E-05-2.85724E-05-2.85958E-05 7.00828E-08-5.35053E-19 4.95243E-18
 -1      2009 9.52423E-05-2.85679E-05-2.85745E-05 1.97654E-08-8.11858E-19 3.08217E-18
 -1      2010 9.52510E-05-2.85693E-05-2.85774E-05 2.52308E-08-2.10988E-18 2.48426E-18
 -1      2011 9.52659E-05-2.85692E-05-2.85847E-05 4.26258E-08-2.07714E-18 3.83027E-18
 -1      2012 9.52299E-05-2.85659E-05-2.85701E-05 9.82223E-09 8.47468E-19 2.61150E-18
 -1      2013 9.52347E-05-2.85665E-05-2.85718E-05 1.33966E-08 4.42863E-19 3.26921E-18
 -1      2014 9.52472E-05-2.85672E-05-2.85774E-05 2.42508E-08-5.68094E-19 2.06131E-18
 -1      2015 9.52231E-05-2.85650E-05-2.85676E-05 3.40465E-09 2.54947E-19 1.49077E-18
 -1      2016 9.52254E-05-2.85651E-05-2.85685E-05 5.68407E-09 2.64175E-19 3.01149E-18
 -1      2017 9.52356E-05-2.85663E-05-2.85728E-05 1.21000E-08 9.15733E-19 2.06167E-18
 -1      2018 9.52200E-05-2.85649E-05-2.85664E-05-5.95393E-10 1.47741E-18 1.59132E-18
 -1      2019 9.52206E-05-2.85647E-05-2.85667E-05 7.98200E-10 5.24832E-19 1.27857E-18
 -1      2020 9.52289E-05-2.85659E-05-2.85700E-05 4.23605E-09 7.35636E-19 1.19011E-18
 -1      2021 9.52193E-05-2.85652E-05-2.85660E-05-2.94613E-09 2.59598E-18 9.55336E-19
 -1      2022 9.52189E-05-2.85648E-05-2.85660E-05-2.15419E-09 3.11275E-18 1.95237E-18
 -1      2023 9.52255E-05-2.85661E-05-2.85684E-05-6.76506E-10 2.23366E-18 9.57967E-19
 -1      2024 9.52201E-05-2.85658E-05-2.85661E-05-4.18551E-09 1.10934E-18-1.24240E-18
 -1      2025 9.52190E-05-2.85653E-05-2.85659E-05-3.79601E-09 1.36991E-18 9.87537E-20
 -1      2026 9.52242E-05-2.85665E-05-2.85677E-05-3.56980E-09 2.53664E-18 5.14203E-19
 -1      2027 9.52217E-05-2.85665E-05-2.85665E-05-4.69224E-09 1.27144E-18-2.32372E-18
 -1      2028 9.52203E-05-2.85660E-05-2.85661E-05-4.56497E-09 6.61153E-19-1.59521E-18
 -1      2029 9.52243E-05-2.85670E-05-2.85675E-05-5.09985E-09 1.13097E-18-1.21594E-18
 -1      2030 9.52237E-05-2.85672E-05-2.85670E-05-4.73264E-09 2.05549E-18-2.72098E-18
 -1      2031 9.52222E-05-2.85667E-05-2.85667E-05-4.76921E-09 2.76669E-18-2.26984E-18
 -1      2032 9.52253E-05-2.85676E-05-2.85676E-05-5.73002E-09 1.62166E-18-1.08342E-18
 -1      2033 9.52258E-05-2.85679E-05-2.85676E-05-4.49231E-09 6.62804E-19-3.39276E-18
 -1      2034 9.52244E-05-2.85675E-05-2.85673E-05-4.62452E-09 7.82531E-19-2.92060E-18
 -1      2035 9.52267E-05-2.85682E-05-2.85679E-05-5.78672E-09 2.29178E-18-4.49543E-19
 -1      2036 9.52279E-05-2.85686E-05-2.85683E-05-4.09792E-09-7.59408E-19-1.82662E-18
 -1      2037 9.52266E-05-2.85682E-05-2.85679E-05-4.27972E-09-4.44444E-19-3.05165E-18
 -1      2038 9.52282E-05-2.85688E-05-2.85683E-05-5.49741E-09-3.50195E-19-2.17293E-19
 -1      2039 9.52298E-05-2.85692E-05-2.85688E-05-3.63229E-09-6.16391E-19-7.74430E-19
 -1      2040 9.52287E-05-2.85688E-05-2.85685E-05-3.83427E-09-7.03886E-19-1.27568E-18
 -1      2041 9.52298E-05-2.85693E-05-2.85688E-05-5.01683E-09-1.47403E-18-4.56649E-19
 -1      2042 9.52316E-05-2.85697E-05-2.85694E-05-3.14487E-09-1.53647E-18 3.37325E-19
 -1      2043 9.52306E-05-2.85694E-05-2.85691E-05-3.35046E-09-1.00850E-18 2.32380E-19
 -1      2044 9.52313E-05-2.85697E-05-2.85692E-05-4.44549E-09-1.62104E-18 1.42039E-18
 -1      2045 9.52331E-05-2.85702E-05-2.85698E-05-2.65896E-09 4.54323E-19-1.73823E-19
 -1      2046 9.52322E-05-2.85699E-05-2.85696E-05-2.86187E-09-1.14389E-19 4.35065E-20
 -1      2047 9.52327E-05-2.85702E-05-2.85697E-05-3.84247E-09-7.03743E-19 1.76603E-18
 -1      2048 9.52344E-05-2.85705E-05-2.85702E-05-2.17676E-09-9.36596E-19-6.08172E-19
 -1      2049 9.52337E-05-2.85703E-05-2.85700E-05-2.37950E-09 2.28218E-19-1.59084E-19
 -1      2050 9.52339E-05-2.85705E-05-2.85700E-05-3.23476E-09-2.08586E-19 1.70374E-18
 -1      2051 9.52355E-05-2.85709E-05-2.85706E-05-1.68298E-09-7.55274E-19 1.14914E-18
 -1      2052 9.52349E-05-2.85707E-05-2.85704E-05-1.89577E-09-1.94410E-18-5.88186E-20
 -1      2053 9.52350E-05-2.85708E-05-2.85703E-05-2.62472E-09-1.90191E-18 1.23991E-18
 -1      2054 9.52363E-05-2.85711E-05-2.85708E-05-1.15153E-09-2.98793E-18 2.14391E-18
 -1      2055 9.52359E-05-2.85710E-05-2.85707E-05-1.38909E-09-9.11538E-20 2.08672E-18
 -1      2056 9.52358E-05-2.85711E-05-2.85706E-05-2.00262E-09-7.31610E-19 9.14357E-19
 -1      2057 9.52368E-05-2.85713E-05-2.85709E-05-6.32539E-10-1.62083E-18-7.82179E-19
 -1      2058 9.52366E-05-2.85712E-05-2.85709E-05-8.73326E-10-2.91131E-18 8.60751E-19
 -1      2059 9.52365E-05-2.85713E-05-2.85708E-05-1.37980E-09-1.97776E-18 1.24973E-18
 -1      2060 9.52369E-05-2.85715E-05-2.85709E-05-7.74733E-10-2.45541E-18-2.52293E-19
 -1      2061 9.52378E-05-2.85734E-05-2.85705E-05-1.63312E-09-6.73382E-19 2.95842E-20
 -1      2062 9.52376E-05-2.85730E-05-2.85706E-05-1.60926E-09 3.24671E-19-3.48815E-19
 -1      2063 9.52375E-05-2.85727E-05-2.85706E-05-1.51547E-09-8.28354E-19-1.87287E-18
 -1      2064 9.52373E-05-2.85722E-05-2.85707E-05-1.38609E-09-1.17010E-18-1.88236E-18
 -1      2065 9.52375E-05-2.85728E-05-2.85706E-05-1.98667E-09-2.16724E-18-5.94329E-19
 -1      2066 9.52370E-05-2.85718E-05-2.85708E-05-1.01888E-09-2.27031E-18-1.14856E-18
 -1      2067 9.52382E-05-2.85742E-05-2.85703E-05-1.51165E-09-8.00361E-19-1.20967E-18
 -1      2068 9.52380E-05-2.85738E-05-2.85704E-05-1.58972E-09-3.66719E-20 1.60451E-19
 -1      2069 9.52379E-05-2.85735E-05-2.85705E-05-2.03266E-09-8.98282E-19-2.85812E-19
 -1      2070 9.52385E-05-2.85748E-05-2.85701E-05-1.18472E-09-1.49800E-18-1.11412E-18
 -1      2071 9.52383E-05-2.85745E-05-2.85702E-05-1.34836E-09-4.38542E-19 3.54259E-20
 -1      2072 9.52383E-05-2.85742E-05-2.85703E-05-1.79747E-09 2.08393E-19-7.04913E-19
 -1      2073 9.52387E-05-2.85753E-05-2.85700E-05-7.09721E-10-1.28292E-18-4.66589E-18
 -1      2074 9.52386E-05-2.85750E-05-2.85701E-05-9.31075E-10-9.50591E-19-2.56485E-18
 -1      2075 9.52386E-05-2.85747E-05-2.85702E-05-1.32752E-09-1.37748E-18-2.12297E-18
 -1      2076 9.52387E-05-2.85754E-05-2.85700E-05-1.51458E-10-1.15527E-18-1.79403E-18
 -1      2077 9.52387E-05-2.85754E-05-2.85700E-05-4.01381E-10 9.49776E-20-3.97270E-18
 -1      2078 9.52388E-05-2.85751E-05-2.85702E-05-6.96279E-10-2.73330E-19-3.20608E-18
 -1      2079 9.52387E-05-2.85754E-05-2.85700E-05 4.22812E-10-2.55255E-19 1.43524E-18
 -1      2080 9.52387E-05-2.85754E-05-2.85700E-05 1.74138E-10-7.33359E-19 2.53597E-19
 -1      2081 9.52388E-05-2.85752E-05-2.85701E-05 1.51810E-11 5.19707E-20-1.43578E-18
 -1      2082 9.52386E-05-2.85750E-05-2.85701E-05 9.45941E-10-8.62431E-19 7.18410E-19
 -1      2083 9.52386E-05-2.85752E-05-2.85700E-05 7.28013E-10-3.73680E-19 1.48943E-18
 -1      2084 9.52387E-05-2.85750E-05-2.85702E-05 7.22999E-10-8.57570E-20 1.55283E-18
 -1      2085 9.52383E-05-2.85745E-05-2.85702E-05 1.34794E-09 1.14578E-18 9.87056E-19
 -1      2086 9.52385E-05-2.85748E-05-2.85701E-05 1.19065E-09 1.31708E-19 7.92858E-19
 -1      2087 9.52386E-05-2.85747E-05-2.85702E-05 1.34015E-09 1.16014E-18 1.09050E-18
 -1      2088 9.52380E-05-2.85738E-05-2.85704E-05 1.58452E-09 1.85965E-18 3.97440E-18
 -1      2089 9.52382E-05-2.85742E-05-2.85703E-05 1.50778E-09 1.12042E-18 4.11683E-18
 -1      2090 9.52383E-05-2.85742E-05-2.85703E-05 1.79539E-09 2.88470E-18 1.83051E-18
 -1      2091 9.52376E-05-2.85730E-05-2.85706E-05 1.59878E-09 2.63697E-18-7.52499E-19
 -1      2092 9.52378E-05-2.85734E-05-2.85705E-05 1.62605E-09 2.52552E-18 3.82320E-19
 -1      2093 9.52379E-05-2.85735E-05-2.85705E-05 2.02420E-09 2.93418E-18 1.94211E-18
 -1      2094 9.52373E-05-2.85722E-05-2.85707E-05 1.36715E-09 6.13852E-19 1.04410E-18
 -1      2095 9.52375E-05-2.85726E-05-2.85706E-05 1.50552E-09 1.74645E-18-4.65385E-19
 -1      2096 9.52375E-05-2.85727E-05-2.85706E-05 1.97083E-09 2.40099E-18-1.35804E-18
 -1      2097 5.22966E-05-4.41949E-05-4.41946E-06 3.09098E-05 4.66800E-18 4.27053E-18
 -1      2098 3.44010E-05-4.48394E-05 2.54852E-06 2.01199E-05 4.18646E-18 5.62959E-18
 -1      2099 9.94173E-06-3.54074E-05 9.69760E-06-8.91557E-06 3.29091E-18 5.68613E-18
 -1      2100 1.18928E-05-3.52248E-05 8.80398E-06-1.77952E-05 1.84886E-18 6.00419E-18
 -1      2101 2.12093E-05-3.95360E-05 6.51658E-06 1.31537E-05 4.38212E-18 6.04358E-18
 -1      2102 1.35423E-05-3.76608E-05 8.90303E-06 4.56087E-06 2.64338E-18 5.13725E-18
 -1      2103 3.42946E-05-3.32241E-05-1.06999E-06 2.52119E-05 4.72221E-19 4.84926E-18
 -1      2104 1.06234E-04-5.77146E-05-2.15914E-05 3.30635E-05 5.93770E-18 3.79640E-18
 -1      2105 8.11357E-05-5.54174E-05-1.26799E-05 3.00711E-05 5.39729E-18 3.44965E-18
 -1      2106 1.57377E-04-6.44515E-05-3.99470E-05 2.16157E-05 6.69410E-18 3.88195E-18
 -1      2107 1.28121E-04-6.25476E-05-2.99657E-05 2.23069E-05 6.48446E-18 4.13733E-18
 -1      2108 9.03775E-05-1.09024E-05-3.41547E-05-1.07284E-05-3.14975E-19-5.29161E-18
 -1      2109 9.06963E-05-1.11514E-05-3.42058E-05-1.26816E-05-8.30383E-19-5.27934E-18
 -1      2110 9.33554E-05-1.51888E-05-3.35466E-05-1.29750E-05-1.22594E-18-4.77270E-18
 -1      2111 9.25096E-05-1.41069E-05-3.36392E-05-9.61913E-06-2.35298E-19-4.88124E-18
 -1      2112 1.98148E-04-4.07656E-05-6.65968E-05-1.33004E-05 8.41019E-18 2.59954E-18
 -1      2113 1.69808E-04-6.12929E-05-4.65901E-05-6.89955E-06 3.58930E-18-3.75659E-18
 -1      2114 1.96794E-04-6.51100E-05-5.54719E-05-1.23013E-06 3.79365E-18-3.42455E-18
 -1      2115 1.14453E-04-5.87892E-05-2.57412E-05-2.71009E-05 2.95614E-18-6.76186E-18
 -1      2116 1.44006E-04-6.16680E-05-3.57215E-05-2.93263E-05 3.91160E-18-6.61956E-18
 -1      2117 6.72979E-05-5.20767E-05-8.77164E-06-2.87801E-05 1.51365E-18-8.12522E-18
 -1      2118 9.02474E-05-5.25808E-05-1.72342E-05-3.48822E-05 2.84603E-18-8.26514E-18
 -1      2119 3.18848E-05-4.44469E-05 3.36456E-06-1.95388E-05-2.82909E-19-7.51530E-18
 -1      2120 4.67401E-05-4.41565E-05-2.41251E-06-2.81268E-05 1.47680E-18-8.66398E-18
 -1      2121 1.18348E-05-3.72304E-05 9.36744E-06-2.20194E-06-2.29609E-18-7.01640E-18
 -1      2122 1.83150E-05-3.91975E-05 7.41607E-06-1.10456E-05-1.58819E-19-7.48269E-18
 -1      2123 1.38671E-05-3.29994E-05 7.19257E-06 2.08537E-05-3.79831E-18-6.50182E-18
 -1      2124 1.05949E-05-3.33750E-05 8.62512E-06 1.11709E-05-1.65494E-18-6.78346E-18
 -1      2125 3.34872E-05-3.44946E-05-2.07265E-07 3.90689E-05-5.52647E-18-5.68656E-18
 -1      2126 2.30693E-05-3.84650E-05 5.13645E-06 2.97438E-05-4.32707E-18-5.83373E-18
 -1      2127 7.29772E-05-3.97318E-05-1.43631E-05 5.18671E-05-5.08813E-18-4.45568E-18
 -1      2128 5.42258E-05-4.14773E-05-6.54115E-06 4.42908E-05-4.86197E-18-4.96112E-18
 -1      2129 1.17374E-04-4.25962E-05-3.16693E-05 4.88690E-05-7.29719E-18-3.65918E-18
 -1      2130 9.77537E-05-4.58193E-05-2.28815E-05 4.58225E-05-5.94151E-18-3.47411E-18
 -1      2131 1.51738E-04-4.17901E-05-4.67197E-05 3.71703E-05-7.16738E-18-2.89812E-18
 -1      2132 1.30459E-04-4.21153E-05-3.83234E-05 4.01109E-05-7.81769E-18-3.72610E-18
 -1      2133 1.36064E-04-5.43827E-05-3.46628E-05 3.48729E-05-4.25782E-18-7.80964E-19
 -1      2134 1.76244E-04-3.33279E-05-6.08084E-05 1.88893E-05-6.94948E-18-2.32002E-18
 -1      2135 1.61928E-04-3.55293E-05-5.40837E-05 2.62879E-05-7.45548E-18-3.39406E-18
 -1      2136 1.91438E-04-2.46676E-05-7.02484E-05 6.11400E-06-6.22146E-18-2.13495E-18
 -1      2137 1.78122E-04-2.38749E-05-6.59587E-05 1.02463E-05-6.82539E-18-2.72745E-18
 -1      2138 2.01475E-04-2.60010E-05-7.37785E-05-5.34868E-06-5.36087E-18-5.49936E-19
 -1      2139 1.98475E-04-2.49570E-05-7.33863E-05 4.38734E-06-5.81869E-18-2.09238E-18
 -1      2140 1.86421E-04-2.48785E-05-6.86678E-05-1.56220E-05-5.16309E-18 4.28599E-19
 -1      2141 1.99129E-04-2.70641E-05-7.21543E-05-9.62634E-06-5.08050E-18-1.99476E-19
 -1      2142 1.68881E-04-3.27824E-05-5.81017E-05-2.64614E-05-4.31097E-18 1.14011E-18
 -1      2143 1.80465E-04-3.12035E-05-6.32546E-05-1.89392E-05-4.40711E-18-1.44843E-19
 -1      2144 1.45716E-04-3.76661E-05-4.65286E-05-3.68425E-05-3.19924E-18 2.74777E-18
 -1      2145 1.64241E-04-3.72033E-05-5.36687E-05-3.47403E-05-3.88693E-18 1.94563E-18
 -1      2146 1.62804E-04-3.83021E-05-5.25394E-05-1.18574E-05-2.17995E-18-2.70585E-18
 -1      2147 1.14098E-04-4.31968E-05-3.10159E-05-4.48761E-05-1.81434E-18 4.12590E-18
 -1      2148 1.33472E-04-4.13295E-05-3.89230E-05-4.62094E-05-2.50595E-18 3.79767E-18
 -1      2149 8.24097E-05-4.44811E-05-1.69673E-05-4.76595E-05-1.66018E-19 4.76054E-18
 -1      2150 9.98748E-05-4.14777E-05-2.47831E-05-5.15523E-05-1.57209E-18 5.17728E-18
 -1      2151 1.22018E-04-5.46137E-05-2.87364E-05-4.34367E-05 1.40862E-18 2.14236E-18
 -1      2152 4.28647E-05-4.09165E-05-2.12908E-06-4.08419E-05 1.09860E-18 6.55000E-18
 -1      2153 5.79136E-05-3.77971E-05-8.94453E-06-4.92119E-05-1.40184E-19 6.31241E-18
 -1      2154 2.04919E-05-3.91578E-05 6.56069E-06-2.81801E-05 2.09641E-18 6.19223E-18
 -1      2155 2.90800E-05-3.61767E-05 2.31252E-06-3.60662E-05 8.22045E-19 6.95901E-18
 -1      2156 4.30646E-05-3.49101E-05-3.91065E-06-4.68187E-05 2.45724E-18 6.87833E-18
 -1      2157 1.94378E-04-6.48291E-05-5.51428E-05-7.32751E-06 7.15024E-18 5.69206E-19
 -1      2158 1.74209E-04-6.56730E-05-4.70759E-05 2.03597E-06 6.77055E-18 2.34374E-18
 -1      2159 6.92305E-05-4.90125E-05-9.53178E-06-3.52253E-05-1.01983E-18-7.63240E-18
 -1      2160 9.75806E-05-2.47189E-05-3.13180E-05-1.14876E-05-2.58541E-18-2.49122E-18
 -1      2161 1.67790E-04-6.98814E-05-4.21638E-05-6.55065E-06 2.37360E-18-1.46325E-18
 -1      2162 1.71935E-04-3.88457E-05-5.65650E-05-2.65149E-05 8.00531E-18 3.55680E-18
 -1      2163 2.12213E-04-5.09032E-05-6.72256E-05-1.51389E-05 8.70538E-18 3.21025E-19
 -1      2164 9.71717E-05-2.38850E-05-3.14657E-05-1.24235E-05-2.58060E-18-3.07742E-18
 -1      2165 1.69539E-04-7.05308E-05-4.22363E-05-3.58334E-06 7.22307E-19-5.16690E-19
 -1      2166 1.66304E-04-6.44422E-05-4.37740E-05 1.26615E-05-1.84193E-18 8.58841E-18
 -1      2167 1.63552E-04-6.35714E-05-4.25360E-05 1.41753E-06-2.93227E-18 7.95438E-18
 -1      2168 2.05810E-04-5.72450E-05-6.18797E-05 1.09539E-05 3.71255E-18-1.02237E-18
 -1      2169 1.77028E-04-5.24369E-05-5.42533E-05-3.49973E-05 6.94059E-18 9.36818E-19
 -1      2170 1.94570E-04-5.39532E-05-6.03539E-05-1.67629E-05 8.52263E-18 1.32815E-18
 -1      2171 1.39100E-04-5.79382E-05-3.48647E-05 1.95023E-05-7.15955E-19-1.13833E-18
 -1      2172 9.52370E-05-2.85719E-05-2.85708E-05-1.51292E-09-2.72503E-18-3.56541E-19
 -1      2173 1.35739E-05-2.42266E-05 3.96401E-06 5.03158E-07 7.92664E-19 5.67597E-18
 -1      2174 7.88643E-05-5.14860E-05-1.22662E-05 3.48575E-05 1.96003E-18 2.29567E-18
 -1      2175 9.52371E-05-2.85720E-05-2.85708E-05 1.31710E-09-3.75929E-20 2.42843E-19
 -1      2176 1.87075E-05-2.61642E-05 2.61913E-06-2.78897E-05 1.73388E-18 6.68563E-18
 -1      2177 1.33525E-04-6.84377E-05-2.82283E-05 2.28815E-05 3.27590E-18 1.67797E-18
 -1      2178 8.30033E-05-4.73370E-05-1.53216E-05-5.21412E-05 2.33908E-18 4.59597E-18
 -1      2179 1.48658E-04-5.07601E-05-4.14842E-05-2.77262E-05-2.03606E-19-2.07523E-19
 -1      2180 1.70321E-04-2.39819E-05-6.19135E-05-3.57875E-06-4.10980E-18-3.22042E-18
 -1      2181 1.76730E-04-1.40507E-05-6.83842E-05-1.71825E-06-5.64632E-18-2.48117E-18
 -1      2182 1.71200E-04-1.30338E-05-6.69567E-05-1.91271E-06-6.31929E-18-2.20313E-18
 -1      2183 1.57601E-04-4.49849E-05-4.76373E-05 1.71088E-05-5.95514E-18-7.83082E-19
 -1      2184 9.88659E-05-5.07213E-05-2.05142E-05 4.96196E-05-1.90667E-18-1.97327E-18
 -1      2185 5.24102E-05-3.63608E-05-6.96005E-06 4.92079E-05-8.97855E-19-4.35756E-18
 -1      2186 1.25733E-05-2.23971E-05 3.58212E-06 3.72493E-06-6.07376E-19-7.84818E-18
 -1      2187 2.14806E-05-2.47913E-05 9.54526E-07 3.07240E-05-2.50298E-19-6.54418E-18
 -1      2188 3.05376E-05-3.31225E-05 2.16686E-07-2.33667E-05-8.62068E-19-8.37758E-18
 -1      2189 1.18086E-04-6.39483E-05-2.37238E-05-3.01460E-05-2.77403E-19-4.95641E-18
 -1      2190 1.54216E-04-6.52722E-05-3.82548E-05-7.20872E-06-3.46849E-18 4.51368E-18
 -1      2191 1.66422E-04-2.58722E-05-5.95847E-05 1.85620E-06-6.63163E-18-1.64028E-18
 -1      2192 1.72757E-04-6.92316E-05-4.47423E-05 8.50166E-06-8.57197E-19 3.74558E-18
 -1      2193 1.86732E-04-5.99194E-05-5.35586E-05-2.82757E-05 6.79109E-18-8.12305E-19
 -1      2194 1.02031E-04-2.41191E-05-3.32929E-05-1.08206E-05 1.95224E-18 2.95827E-18
 -1      2195 1.01552E-04-2.37722E-05-3.33022E-05-6.67261E-06 2.29715E-18 3.35581E-18
 -1      2196 9.26031E-05-1.57378E-05-3.29734E-05-3.17816E-07 1.72107E-18-3.92432E-18
 -1      2197 9.33671E-05-1.61972E-05-3.31165E-05-2.39248E-06 1.30486E-18-4.21926E-18
 -1      2198 9.38685E-05-1.65298E-05-3.31794E-05-4.55022E-06 9.41767E-19-4.33999E-18
 -1      2199 9.41893E-05-1.68123E-05-3.32248E-05-6.52023E-06 4.68637E-19-4.43896E-18
 -1      2200 9.57641E-05-1.93399E-05-3.27739E-05-3.23821E-06 1.07058E-18-3.88977E-18
 -1      2201 8.64426E-05-1.18441E-05-3.20217E-05 7.85909E-06 3.08924E-18-3.27569E-18
 -1      2202 8.83949E-05-1.30227E-05-3.22967E-05 6.16511E-06 2.75371E-18-3.44647E-18
 -1      2203 8.19617E-05-8.68739E-06-3.14732E-05 1.04947E-05 3.56726E-18-3.04414E-18
 -1      2204 8.41419E-05-1.00640E-05-3.17193E-05 9.42993E-06 3.33489E-18-3.22372E-18
 -1      2205 8.68999E-05-1.35351E-05-3.14931E-05 9.77547E-06 3.16159E-18-3.02789E-18
 -1      2206 7.80073E-05-5.59959E-06-3.11156E-05 1.12478E-05 4.05632E-18-2.66018E-18
 -1      2207 7.97022E-05-6.73986E-06-3.12344E-05 1.10167E-05 3.79988E-18-2.96718E-18
 -1      2208 8.18297E-05-9.76069E-06-3.09144E-05 1.20443E-05 3.67453E-18-2.79630E-18
 -1      2209 7.62431E-05-3.76791E-06-3.11440E-05 9.96457E-06 4.41020E-18-2.00552E-18
 -1      2210 7.66084E-05-4.13829E-06-3.10441E-05 1.05209E-05 4.20127E-18-2.40568E-18
 -1      2211 7.75924E-05-6.23947E-06-3.05597E-05 1.18776E-05 4.09477E-18-2.37906E-18
 -1      2212 7.85302E-05-4.70514E-06-3.17086E-05 7.24453E-06 4.36558E-18-1.20850E-18
 -1      2213 7.67569E-05-3.72024E-06-3.13388E-05 8.20302E-06 4.32852E-18-1.72711E-18
 -1      2214 7.62589E-05-4.58500E-06-3.06483E-05 9.17963E-06 4.25885E-18-1.88659E-18
 -1      2215 8.57406E-05-9.32769E-06-3.27632E-05 4.39098E-06 4.09570E-18 2.30228E-19
 -1      2216 8.15701E-05-6.71797E-06-3.21816E-05 5.15867E-06 4.12632E-18-6.32601E-19
 -1      2217 7.96773E-05-6.42670E-06-3.13088E-05 4.90231E-06 4.07824E-18-1.00553E-18
 -1      2218 1.02121E-04-2.44232E-05-3.31691E-05-1.88135E-05 1.03121E-18 2.11857E-18
 -1      2219 1.00569E-04-2.37181E-05-3.29091E-05-1.49948E-05 1.51518E-18 2.56490E-18
 -1      2220 9.40989E-05-1.92245E-05-3.20092E-05-1.25658E-05 2.05792E-18 1.20146E-18
 -1      2221 9.70874E-05-2.65132E-05-3.02068E-05-9.27475E-06-1.84614E-18-3.00616E-18
 -1      2222 9.60582E-05-2.72201E-05-2.95386E-05-7.91898E-06-1.66232E-18-2.97139E-18
 -1      2223 9.67119E-05-2.13897E-05-3.23459E-05-1.36929E-05-2.27139E-18-3.88288E-18
 -1      2224 9.68095E-05-2.47678E-05-3.09150E-05-1.04973E-05-2.09807E-18-3.39233E-18
 -1      2225 9.72992E-05-2.46216E-05-3.11010E-05-1.06865E-05-1.79799E-18-3.41280E-18
 -1      2226 9.54971E-05-1.94768E-05-3.26093E-05-1.33327E-05-1.90597E-18-4.19236E-18
 -1      2227 9.57904E-05-2.78769E-05-2.90520E-05-7.27552E-06-1.49306E-18-2.64598E-18
 -1      2228 9.47517E-05-2.80236E-05-2.86110E-05-6.79044E-06-1.23447E-18-2.71205E-18
 -1      2229 9.72141E-05-2.74186E-05-2.99088E-05-8.64230E-06-1.51135E-18-2.82297E-18
 -1      2230 9.42041E-05-2.81300E-05-2.82873E-05-6.58483E-06-1.14807E-18-2.56860E-18
 -1      2231 9.31918E-05-2.79199E-05-2.79747E-05-6.43743E-06-9.84045E-19-2.69059E-18
 -1      2232 9.63973E-05-2.84590E-05-2.91180E-05-7.68259E-06-1.22184E-18-2.58428E-18
 -1      2233 9.24688E-05-2.76562E-05-2.77669E-05-6.35942E-06-9.27267E-19-2.64339E-18
 -1      2234 9.14763E-05-2.71887E-05-2.75393E-05-6.20480E-06-8.25441E-19-2.65331E-18
 -1      2235 9.51519E-05-2.83848E-05-2.86151E-05-7.36066E-06-1.01430E-18-2.44401E-18
 -1      2236 9.06300E-05-2.66627E-05-2.74156E-05-5.94710E-06-7.95760E-19-2.76874E-18
 -1      2237 8.97043E-05-2.60493E-05-2.72546E-05-5.54199E-06-8.95854E-19-2.76213E-18
 -1      2238 9.35814E-05-2.75020E-05-2.83213E-05-7.00458E-06-1.05984E-18-2.50079E-18
 -1      2239 8.88472E-05-2.54081E-05-2.71906E-05-4.88252E-06-9.81012E-19-2.72693E-18
 -1      2240 8.80997E-05-2.48110E-05-2.70890E-05-4.10388E-06-7.92641E-19-2.87263E-18
 -1      2241 9.18507E-05-2.61270E-05-2.81751E-05-6.04085E-06-9.88807E-19-2.40550E-18
 -1      2242 8.74154E-05-2.42567E-05-2.70630E-05-2.97616E-06-6.55838E-19-3.03814E-18
 -1      2243 8.69834E-05-2.38630E-05-2.70174E-05-1.85364E-06-6.60830E-19-3.10789E-18
 -1      2244 9.02701E-05-2.46959E-05-2.81213E-05-4.14442E-06-9.08623E-19-2.64444E-18
 -1      2245 8.66633E-05-2.35960E-05-2.70112E-05-3.87539E-07-8.11891E-19-2.90586E-18
 -1      2246 8.66490E-05-2.35487E-05-2.70186E-05 9.01069E-07-7.68461E-19-3.01757E-18
 -1      2247 8.92357E-05-2.37086E-05-2.81096E-05-1.37175E-06-6.69778E-19-2.79102E-18
 -1      2248 8.67933E-05-2.36775E-05-2.70208E-05 2.41705E-06-7.63147E-19-3.00920E-18
 -1      2249 8.72095E-05-2.40070E-05-2.70770E-05 3.61231E-06-6.03711E-19-3.04750E-18
 -1      2250 8.90584E-05-2.35485E-05-2.81031E-05 1.82512E-06-8.99911E-19-2.60412E-18
 -1      2251 8.77648E-05-2.44905E-05-2.70849E-05 4.85158E-06-3.50056E-19-3.03145E-18
 -1      2252 8.85222E-05-2.51018E-05-2.71838E-05 5.71888E-06-6.17159E-20-3.18882E-18
 -1      2253 8.97898E-05-2.43006E-05-2.80858E-05 4.77093E-06-5.35305E-19-2.34848E-18
 -1      2254 8.93089E-05-2.57777E-05-2.72007E-05 6.45401E-06 4.32243E-20-3.06351E-18
 -1      2255 9.02514E-05-2.65013E-05-2.73328E-05 6.86899E-06 3.73761E-19-2.74964E-18
 -1      2256 9.11851E-05-2.57189E-05-2.80631E-05 6.86213E-06 7.66135E-20-2.40493E-18
 -1      2257 9.10549E-05-2.71729E-05-2.73635E-05 7.04290E-06 2.73607E-19-2.96512E-18
 -1      2258 9.20173E-05-2.78423E-05-2.75162E-05 7.01545E-06 5.78989E-20-3.03057E-18
 -1      2259 9.28310E-05-2.73634E-05-2.80521E-05 7.79946E-06 2.39641E-19-2.62466E-18
 -1      2260 9.26747E-05-2.83618E-05-2.75623E-05 6.72487E-06-3.32458E-19-2.99930E-18
 -1      2261 9.35306E-05-2.88705E-05-2.77211E-05 6.36472E-06-8.98732E-20-2.81657E-18
 -1      2262 9.43342E-05-2.88129E-05-2.80689E-05 7.64081E-06-1.48055E-19-2.61442E-18
 -1      2263 9.39716E-05-2.91782E-05-2.77797E-05 5.78632E-06 2.48378E-20-2.93404E-18
 -1      2264 9.46540E-05-2.94941E-05-2.79307E-05 5.24182E-06 1.07757E-19-2.95715E-18
 -1      2265 9.54555E-05-2.98135E-05-2.81198E-05 6.69348E-06-1.15460E-19-2.31681E-18
 -1      2266 9.48866E-05-2.96059E-05-2.79952E-05 4.55408E-06-1.81497E-19-2.86418E-18
 -1      2267 9.53811E-05-2.97523E-05-2.81277E-05 3.96028E-06-5.05975E-19-2.92048E-18
 -1      2268 9.61349E-05-3.03128E-05-2.81995E-05 5.34211E-06-2.34283E-19-2.26709E-18
 -1      2269 9.54554E-05-2.97235E-05-2.81906E-05 3.29707E-06-6.85107E-19-3.07286E-18
 -1      2270 9.57817E-05-2.97490E-05-2.82981E-05 2.74905E-06-8.44303E-19-2.87597E-18
 -1      2271 9.64367E-05-3.03999E-05-2.82949E-05 3.91623E-06-6.68144E-19-2.26894E-18
 -1      2272 9.57567E-05-2.96418E-05-2.83535E-05 2.18722E-06-7.48204E-19-2.81321E-18
 -1      2273 9.59498E-05-2.95966E-05-2.84342E-05 1.73583E-06-3.07911E-19-2.41184E-18
 -1      2274 9.64757E-05-3.02203E-05-2.83916E-05 2.63299E-06-5.63994E-19-2.36496E-18
 -1      2275 9.58748E-05-2.94612E-05-2.84784E-05 1.30405E-06-1.58770E-19-2.12133E-18
 -1      2276 9.59717E-05-2.93849E-05-2.85341E-05 9.64652E-07 1.25970E-19-2.14733E-18
 -1      2277 9.63642E-05-2.99126E-05-2.84777E-05 1.59784E-06-3.54278E-19-1.54731E-18
 -1      2278 9.58802E-05-2.92535E-05-2.85660E-05 6.59773E-07 3.05073E-19-2.55550E-18
 -1      2279 9.59131E-05-2.91719E-05-2.86006E-05 4.25125E-07 5.62069E-19-2.78843E-18
 -1      2280 9.61871E-05-2.95780E-05-2.85465E-05 8.33471E-07-1.28710E-19-1.82005E-18
 -1      2281 9.58241E-05-2.90607E-05-2.86211E-05 2.27533E-07 6.81794E-19-3.11181E-18
 -1      2282 9.58181E-05-2.89876E-05-2.86394E-05 7.92011E-08 7.32694E-19-2.69680E-18
 -1      2283 9.59980E-05-2.92757E-05-2.85956E-05 3.13760E-07 5.21571E-19-2.94177E-18
 -1      2284 9.57406E-05-2.89018E-05-2.86505E-05-3.62141E-08 7.17574E-19-2.75639E-18
 -1      2285 9.57134E-05-2.88428E-05-2.86572E-05-1.19752E-07 7.97552E-19-2.48480E-18
 -1      2286 9.58249E-05-2.90316E-05-2.86263E-05-9.00880E-09 7.41223E-19-2.86885E-18
 -1      2287 9.56501E-05-2.87812E-05-2.86611E-05-1.77126E-07 9.38245E-19-2.64518E-18
 -1      2288 9.56138E-05-2.87369E-05-2.86604E-05-2.15802E-07 8.55730E-19-2.63172E-18
 -1      2289 9.56793E-05-2.88500E-05-2.86417E-05-1.86454E-07 5.28980E-19-2.23135E-18
 -1      2290 9.55640E-05-2.86953E-05-2.86595E-05-2.35268E-07 5.53123E-19-3.06983E-18
 -1      2291 9.55261E-05-2.86638E-05-2.86545E-05-2.45332E-07 9.38646E-21-2.99079E-18
 -1      2292 9.55629E-05-2.87240E-05-2.86459E-05-2.64624E-07 4.80965E-19-2.95459E-18
 -1      2293 9.54879E-05-2.86374E-05-2.86507E-05-2.42172E-07 3.31555E-19-2.83815E-18
 -1      2294 9.54526E-05-2.86162E-05-2.86437E-05-2.35725E-07 7.37110E-19-2.42089E-18
 -1      2295 9.54729E-05-2.86419E-05-2.86424E-05-2.80225E-07 6.76336E-20-3.21952E-18
 -1      2296 9.54239E-05-2.86006E-05-2.86385E-05-2.20695E-07 7.92821E-19-2.41818E-18
 -1      2297 9.53933E-05-2.85870E-05-2.86309E-05-2.06086E-07 9.74031E-19-1.67077E-18
 -1      2298 9.54048E-05-2.85921E-05-2.86345E-05-2.60206E-07 7.80653E-19-2.61821E-18
 -1      2299 9.53719E-05-2.85785E-05-2.86253E-05-1.86237E-07-1.62887E-19-2.12446E-18
 -1      2300 9.53467E-05-2.85704E-05-2.86182E-05-1.68815E-07-1.24963E-18-2.32803E-18
 -1      2301 9.53541E-05-2.85644E-05-2.86246E-05-2.22992E-07 3.97029E-19-2.43770E-18
 -1      2302 9.53310E-05-2.85664E-05-2.86129E-05-1.48418E-07-1.31784E-18-1.79372E-18
 -1      2303 9.53111E-05-2.85619E-05-2.86067E-05-1.31320E-07-1.48900E-18-1.66710E-18
 -1      2304 9.53169E-05-2.85512E-05-2.86143E-05-1.80306E-07-1.06418E-18-2.25680E-18
 -1      2305 9.52997E-05-2.85606E-05-2.86019E-05-1.12702E-07-1.63170E-18-1.10865E-18
 -1      2306 9.52846E-05-2.85584E-05-2.85969E-05-9.75493E-08-2.19767E-19-1.04365E-18
 -1      2307 9.52899E-05-2.85466E-05-2.86046E-05-1.38986E-07-1.05032E-18-9.53141E-19
 -1      2308 9.52764E-05-2.85586E-05-2.85929E-05-8.17587E-08 4.36461E-19-1.21662E-18
 -1      2309 9.52653E-05-2.85578E-05-2.85889E-05-6.92020E-08 8.70071E-19-3.48125E-19
 -1      2310 9.52706E-05-2.85469E-05-2.85961E-05-1.02536E-07 3.31295E-19-1.85502E-20
 -1      2311 9.52596E-05-2.85587E-05-2.85857E-05-5.65065E-08 9.50989E-19-4.49070E-19
 -1      2312 9.52518E-05-2.85588E-05-2.85827E-05-4.66173E-08 1.90267E-18-8.63072E-20
 -1      2313 9.52569E-05-2.85496E-05-2.85891E-05-7.23274E-08 8.85110E-19 2.59416E-19
 -1      2314 9.52478E-05-2.85599E-05-2.85802E-05-3.68463E-08 2.09216E-18-3.65340E-19
 -1      2315 9.52425E-05-2.85604E-05-2.85780E-05-2.93881E-08 1.80620E-18-4.12440E-19
 -1      2316 9.52475E-05-2.85532E-05-2.85834E-05-4.84620E-08 1.57768E-18-2.64375E-19
 -1      2317 9.52399E-05-2.85615E-05-2.85762E-05-2.21592E-08 1.36415E-18-5.10412E-19
 -1      2318 9.52366E-05-2.85622E-05-2.85747E-05-1.67598E-08 8.50948E-19-1.27463E-19
 -1      2319 9.52412E-05-2.85570E-05-2.85791E-05-3.03633E-08 1.23959E-18-5.86256E-19
 -1      2320 9.52349E-05-2.85633E-05-2.85734E-05-1.16183E-08 1.72722E-19-7.10239E-19
 -1      2321 9.52330E-05-2.85640E-05-2.85724E-05-7.87318E-09 1.38578E-18-5.35515E-19
 -1      2322 9.52371E-05-2.85603E-05-2.85759E-05-1.71564E-08 3.33687E-19-6.23060E-19
 -1      2323 9.52320E-05-2.85649E-05-2.85715E-05-4.37189E-09 1.20013E-18-9.52217E-19
 -1      2324 9.52311E-05-2.85656E-05-2.85709E-05-1.90079E-09 2.98707E-19-1.38804E-18
 -1      2325 9.52347E-05-2.85632E-05-2.85736E-05-7.89608E-09 1.03115E-18-1.22988E-18
 -1      2326 9.52306E-05-2.85663E-05-2.85703E-05 3.59518E-10-3.77405E-19-1.76886E-18
 -1      2327 9.52303E-05-2.85669E-05-2.85700E-05 1.88577E-09-1.39140E-18-1.77851E-18
 -1      2328 9.52333E-05-2.85654E-05-2.85720E-05-1.69334E-09-1.11781E-19-1.62255E-18
 -1      2329 9.52302E-05-2.85675E-05-2.85697E-05 3.23979E-09-1.33445E-18-2.26870E-18
 -1      2330 9.52303E-05-2.85680E-05-2.85696E-05 4.09077E-09-1.96002E-18-2.06877E-18
 -1      2331 9.52328E-05-2.85672E-05-2.85710E-05 2.22439E-09-2.01080E-18-1.62354E-18
 -1      2332 9.52304E-05-2.85684E-05-2.85694E-05 4.80648E-09-1.18686E-18-2.07512E-18
 -1      2333 9.52308E-05-2.85689E-05-2.85694E-05 5.19353E-09-6.90891E-19-1.22309E-18
 -1      2334 9.52327E-05-2.85685E-05-2.85704E-05 4.49313E-09-1.27141E-18-1.20343E-18
 -1      2335 9.52310E-05-2.85692E-05-2.85693E-05 5.47736E-09-1.40757E-18-8.10890E-19
 -1      2336 9.52315E-05-2.85695E-05-2.85694E-05 5.55988E-09-1.70322E-18-5.12239E-20
 -1      2337 9.52330E-05-2.85695E-05-2.85701E-05 5.61481E-09-1.75901E-19-1.17682E-19
 -1      2338 9.52318E-05-2.85698E-05-2.85694E-05 5.56509E-09-6.20456E-19 8.86195E-19
 -1      2339 9.52324E-05-2.85701E-05-2.85696E-05 5.45858E-09 1.24417E-18 2.05956E-18
 -1      2340 9.52334E-05-2.85702E-05-2.85700E-05 5.97100E-09-4.74738E-20 2.03227E-18
 -1      2341 9.52326E-05-2.85702E-05-2.85696E-05 5.29440E-09 1.22464E-18 2.13492E-18
 -1      2342 9.52333E-05-2.85705E-05-2.85698E-05 5.07852E-09 2.85872E-18 2.49909E-18
 -1      2343 9.52340E-05-2.85707E-05-2.85700E-05 5.84107E-09 1.26669E-18 3.08834E-18
 -1      2344 9.52335E-05-2.85706E-05-2.85698E-05 4.81872E-09 3.07178E-18 1.47144E-18
 -1      2345 9.52341E-05-2.85708E-05-2.85700E-05 4.54445E-09 2.68945E-18 1.34402E-18
 -1      2346 9.52346E-05-2.85710E-05-2.85701E-05 5.42062E-09 2.06368E-18 1.81117E-18
 -1      2347 9.52344E-05-2.85709E-05-2.85701E-05 4.23470E-09 1.06265E-18 2.28782E-19
 -1      2348 9.52349E-05-2.85711E-05-2.85702E-05 3.93036E-09 6.79893E-19-6.27226E-19
 -1      2349 9.52351E-05-2.85713E-05-2.85702E-05 4.83829E-09 1.04588E-18-3.93167E-19
 -1      2350 9.52351E-05-2.85712E-05-2.85703E-05 3.59450E-09 1.06773E-18-1.63875E-18
 -1      2351 9.52356E-05-2.85713E-05-2.85704E-05 3.27138E-09 3.42324E-19-1.60125E-18
 -1      2352 9.52356E-05-2.85715E-05-2.85704E-05 4.17013E-09-9.19722E-20-1.39610E-18
 -1      2353 9.52358E-05-2.85714E-05-2.85705E-05 2.91773E-09-1.16717E-18-1.20711E-18
 -1      2354 9.52362E-05-2.85715E-05-2.85706E-05 2.57509E-09-1.83544E-18-1.44132E-18
 -1      2355 9.52361E-05-2.85717E-05-2.85705E-05 3.45314E-09-2.97035E-19-3.06494E-18
 -1      2356 1.11220E-04-3.63417E-05-3.18224E-05-2.96900E-05-2.38101E-18 1.31597E-18
 -1      2357 1.05248E-04-2.99699E-05-3.19380E-05-2.94065E-05-1.58064E-18 1.43716E-18
 -1      2358 1.27033E-04-5.48288E-05-3.07033E-05-2.52898E-05-3.80508E-18 1.15157E-18
 -1      2359 1.16649E-04-4.42996E-05-3.04355E-05-3.06793E-05-3.30406E-18 9.33510E-19
 -1      2360 9.62030E-05-3.54020E-05-2.58619E-05-3.46894E-05-2.55793E-18-1.39104E-18
 -1      2361 1.51857E-04-1.97212E-05-5.73904E-05-7.17571E-06-5.78735E-18-6.58568E-19
 -1      2362 1.53693E-04-3.03979E-05-5.31928E-05-3.93263E-06-5.61540E-18-1.73218E-19
 -1      2363 9.81583E-05-2.99532E-05-2.88608E-05 3.18712E-05-2.16629E-18 7.64765E-19
 -1      2364 1.04963E-04-3.79366E-05-2.82521E-05 3.14570E-05-2.19096E-18-1.91959E-19
 -1      2365 9.64868E-05-2.40632E-05-3.10960E-05 1.43371E-05 1.48486E-18 3.56892E-19
 -1      2366 9.75547E-05-2.38222E-05-3.15080E-05 1.69542E-05 9.80143E-19-2.08268E-20
 -1      2367 9.69110E-05-2.54972E-05-3.06455E-05 1.00466E-05 6.56947E-19-7.57846E-20
 -1      2368 9.77547E-05-2.51302E-05-3.10480E-05 1.20919E-05 8.20768E-19-2.83181E-20
 -1      2369 9.19240E-05-2.15582E-05-3.00743E-05 1.32539E-05 1.18733E-18-6.73623E-20
 -1      2370 9.69567E-05-2.66207E-05-3.01679E-05 6.90414E-06 9.99075E-19-6.12585E-20
 -1      2371 9.76396E-05-2.63234E-05-3.05009E-05 8.38376E-06 1.23598E-18 1.00545E-19
 -1      2372 9.38955E-05-2.37899E-05-2.99954E-05 9.44495E-06 1.01895E-18 1.63451E-21
 -1      2373 9.67819E-05-2.73855E-05-2.97549E-05 4.68897E-06 2.30740E-19-1.50099E-18
 -1      2374 9.73199E-05-2.71847E-05-3.00093E-05 5.71399E-06 4.88219E-19-4.06012E-19
 -1      2375 9.49773E-05-2.54700E-05-2.97609E-05 6.61153E-06 1.21414E-18 1.09307E-19
 -1      2376 9.65194E-05-2.78704E-05-2.94285E-05 3.16449E-06 8.27462E-19-1.59979E-18
 -1      2377 9.69300E-05-2.77463E-05-2.96147E-05 3.85754E-06 3.74279E-19-9.40871E-19
 -1      2378 9.54924E-05-2.66182E-05-2.95032E-05 4.57214E-06 4.05726E-19-5.69298E-19
 -1      2379 9.62484E-05-2.81647E-05-2.91827E-05 2.13009E-06-1.35448E-19 7.34590E-20
 -1      2380 9.65538E-05-2.80923E-05-2.93157E-05 2.59276E-06 4.36768E-20-1.18664E-18
 -1      2381 9.56851E-05-2.73629E-05-2.92745E-05 3.13851E-06 3.35753E-20 5.83503E-19
 -1      2382 9.60063E-05-2.83382E-05-2.90026E-05 1.43330E-06-7.98807E-19 2.26811E-19
 -1      2383 9.62292E-05-2.82979E-05-2.90963E-05 1.74050E-06-4.81907E-20 3.91716E-20
 -1      2384 9.57118E-05-2.78309E-05-2.90895E-05 2.14595E-06-4.28762E-19 2.09731E-19
 -1      2385 9.58060E-05-2.84381E-05-2.88728E-05 9.65019E-07-1.99143E-18 9.95417E-19
 -1      2386 9.59665E-05-2.84166E-05-2.89383E-05 1.16890E-06-1.86944E-18 8.84310E-19
 -1      2387 9.56632E-05-2.81194E-05-2.89471E-05 1.46472E-06-1.57940E-18 1.36322E-18
 -1      2388 9.56477E-05-2.84944E-05-2.87803E-05 6.49994E-07-6.46828E-19 7.82149E-19
 -1      2389 9.57622E-05-2.84835E-05-2.88259E-05 7.85657E-07-6.94831E-19 9.83577E-19
 -1      2390 9.55881E-05-2.82949E-05-2.88406E-05 9.98947E-07-1.47051E-18 5.46683E-19
 -1      2391 9.55266E-05-2.85256E-05-2.87147E-05 4.37379E-07-4.69311E-19 8.99077E-19
 -1      2392 9.56076E-05-2.85204E-05-2.87464E-05 5.28066E-07-9.00697E-19 4.79782E-19
 -1      2393 9.55108E-05-2.84009E-05-2.87623E-05 6.80616E-07-4.26919E-19 6.85316E-19
 -1      2394 9.54361E-05-2.85425E-05-2.86686E-05 2.93253E-07-5.77357E-19 1.36241E-18
 -1      2395 9.54929E-05-2.85402E-05-2.86904E-05 3.54203E-07-5.06201E-19 9.49823E-19
 -1      2396 9.54418E-05-2.84646E-05-2.87055E-05 4.62643E-07-8.69963E-19-2.35142E-19
 -1      2397 9.53697E-05-2.85518E-05-2.86361E-05 1.95077E-07-1.24629E-18 1.82989E-18
 -1      2398 9.54093E-05-2.85508E-05-2.86512E-05 2.36301E-07-1.09734E-18 1.29648E-18
 -1      2399 9.53849E-05-2.85031E-05-2.86645E-05 3.12949E-07-9.70052E-19 2.13918E-19
 -1      2400 9.53201E-05-2.85570E-05-2.86126E-05 1.25290E-07 1.13710E-19 3.33743E-18
 -1      2401 9.53482E-05-2.85567E-05-2.86233E-05 1.54219E-07-9.73941E-19 2.44928E-18
 -1      2402 9.53391E-05-2.85266E-05-2.86345E-05 2.08009E-07-1.37292E-18 1.73504E-18
 -1      2403 9.52872E-05-2.85599E-05-2.85973E-05 8.03778E-08-1.44290E-18 3.98400E-18
 -1      2404 9.53051E-05-2.85595E-05-2.86041E-05 9.89744E-08 3.00999E-19 3.97025E-18
 -1      2405 9.53046E-05-2.85414E-05-2.86134E-05 1.35760E-07-6.95964E-19 2.07991E-18
 -1      2406 9.52645E-05-2.85618E-05-2.85868E-05 4.96914E-08-8.38015E-19 2.89011E-18
 -1      2407 9.52763E-05-2.85614E-05-2.85913E-05 6.22589E-08-1.47894E-18 4.15121E-18
 -1      2408 9.52800E-05-2.85503E-05-2.85989E-05 8.75692E-08-9.20808E-19 3.06468E-18
 -1      2409 9.52493E-05-2.85632E-05-2.85797E-05 2.88943E-08 5.14015E-19 1.67927E-18
 -1      2410 9.52569E-05-2.85628E-05-2.85827E-05 3.73262E-08-6.24529E-19 1.93434E-18
 -1      2411 9.52625E-05-2.85562E-05-2.85887E-05 5.44481E-08-4.38923E-21 2.24730E-18
 -1      2412 9.52395E-05-2.85643E-05-2.85750E-05 1.49846E-08 9.32457E-19 1.68323E-18
 -1      2413 9.52441E-05-2.85639E-05-2.85769E-05 2.05542E-08 1.06746E-18 1.49732E-18
 -1      2414 9.52504E-05-2.85602E-05-2.85817E-05 3.18700E-08 1.01148E-18 2.52294E-18
 -1      2415 9.52336E-05-2.85654E-05-2.85721E-05 5.87798E-09 1.40018E-18 1.02572E-18
 -1      2416 9.52362E-05-2.85649E-05-2.85732E-05 9.46390E-09 1.19045E-18 1.12468E-18
 -1      2417 9.52423E-05-2.85630E-05-2.85770E-05 1.66922E-08 1.43168E-18 1.04261E-18
 -1      2418 9.52304E-05-2.85663E-05-2.85703E-05 1.13453E-10 2.29652E-18 2.50722E-19
 -1      2419 9.52315E-05-2.85658E-05-2.85709E-05 2.32910E-09 1.85459E-18-1.93155E-19
 -1      2420 9.52371E-05-2.85651E-05-2.85738E-05 6.71093E-09 2.40916E-18 3.62246E-19
 -1      2421 9.52289E-05-2.85672E-05-2.85693E-05-3.34313E-09 1.43250E-18 1.16313E-18
 -1      2422 9.52292E-05-2.85667E-05-2.85696E-05-2.06536E-09 2.24477E-18 1.60550E-18
 -1      2423 9.52341E-05-2.85667E-05-2.85718E-05 3.65203E-10 1.87965E-18 8.04072E-20
 -1      2424 9.52286E-05-2.85679E-05-2.85688E-05-5.22807E-09 1.51110E-18 5.91191E-19
 -1      2425 9.52283E-05-2.85675E-05-2.85689E-05-4.58168E-09 1.26452E-18 1.68012E-18
 -1      2426 9.52325E-05-2.85679E-05-2.85706E-05-3.45927E-09 1.11278E-18 2.51699E-18
 -1      2427 9.52290E-05-2.85686E-05-2.85687E-05-6.06625E-09 2.27919E-18 4.46854E-19
 -1      2428 9.52284E-05-2.85682E-05-2.85686E-05-5.83391E-09 1.37323E-18 7.05924E-19
 -1      2429 9.52319E-05-2.85688E-05-2.85699E-05-5.56105E-09 2.01286E-18 1.96380E-18
 -1      2430 9.52298E-05-2.85692E-05-2.85688E-05-6.23011E-09 1.18248E-18 1.70015E-18
 -1      2431 9.52291E-05-2.85688E-05-2.85687E-05-6.25867E-09 2.26396E-18 3.01942E-19
 -1      2432 9.52319E-05-2.85695E-05-2.85696E-05-6.51203E-09 1.76284E-18 1.82242E-18
 -1      2433 9.52308E-05-2.85697E-05-2.85690E-05-5.98053E-09-1.43261E-18 1.49408E-18
 -1      2434 9.52300E-05-2.85694E-05-2.85689E-05-6.16380E-09 2.95580E-19 1.73963E-18
 -1      2435 9.52323E-05-2.85701E-05-2.85695E-05-6.71915E-09 9.17970E-19 2.91941E-18
 -1      2436 9.52319E-05-2.85701E-05-2.85693E-05-5.49584E-09-1.19993E-18 1.86434E-18
 -1      2437 9.52311E-05-2.85698E-05-2.85691E-05-5.76242E-09-1.64529E-18 2.04498E-18
 -1      2438 9.52329E-05-2.85705E-05-2.85696E-05-6.46780E-09-1.57602E-18 3.69019E-18
 -1      2439 9.52330E-05-2.85704E-05-2.85696E-05-4.89238E-09-1.76667E-18 3.68734E-18
 -1      2440 9.52322E-05-2.85702E-05-2.85694E-05-5.19708E-09-2.15903E-18 2.44466E-18
 -1      2441 9.52335E-05-2.85708E-05-2.85698E-05-5.95296E-09-1.84840E-18 4.16380E-18
 -1      2442 9.52339E-05-2.85707E-05-2.85699E-05-4.23905E-09-7.11337E-19 2.82579E-18
 -1      2443 9.52333E-05-2.85705E-05-2.85698E-05-4.55700E-09-2.06099E-19 4.00795E-18
 -1      2444 9.52342E-05-2.85710E-05-2.85700E-05-5.30166E-09-8.15066E-19 4.48284E-18
 -1      2445 9.52348E-05-2.85710E-05-2.85702E-05-3.56871E-09-9.79532E-19 2.63430E-18
 -1      2446 9.52343E-05-2.85708E-05-2.85701E-05-3.89048E-09-8.61667E-19 2.71397E-18
 -1      2447 9.52349E-05-2.85712E-05-2.85702E-05-4.58970E-09-6.83424E-19 3.93115E-18
 -1      2448 9.52356E-05-2.85712E-05-2.85704E-05-2.88842E-09-2.69392E-19 1.62372E-18
 -1      2449 9.52351E-05-2.85711E-05-2.85703E-05-3.21462E-09 1.87013E-19 2.89897E-18
 -1      2450 9.52355E-05-2.85714E-05-2.85703E-05-3.85473E-09-8.80347E-20 3.00978E-18
 -1      2451 9.52363E-05-2.85715E-05-2.85706E-05-2.19222E-09-6.72984E-19 6.26654E-19
 -1      2452 9.52359E-05-2.85713E-05-2.85705E-05-2.51941E-09-1.09637E-18 4.91109E-19
 -1      2453 9.52361E-05-2.85716E-05-2.85705E-05-3.10076E-09 5.89963E-19 8.08797E-19
 -1      2454 9.52385E-05-2.85742E-05-2.85704E-05-1.99048E-09-6.94183E-20-6.64032E-19
 -1      2455 9.52383E-05-2.85739E-05-2.85704E-05-2.18734E-09 2.07856E-19-4.32551E-19
 -1      2456 9.52381E-05-2.85736E-05-2.85705E-05-2.34816E-09-5.92433E-19 1.97061E-19
 -1      2457 9.52378E-05-2.85733E-05-2.85705E-05-2.39995E-09-1.11548E-18-1.52722E-19
 -1      2458 9.52382E-05-2.85737E-05-2.85705E-05-2.59416E-09-5.57475E-19 4.96697E-19
 -1      2459 9.52375E-05-2.85729E-05-2.85706E-05-2.40541E-09-9.39190E-19 1.83236E-19
 -1      2460 9.52373E-05-2.85725E-05-2.85706E-05-2.30259E-09-9.80608E-19-9.23954E-19
 -1      2461 9.52377E-05-2.85730E-05-2.85706E-05-2.76178E-09-7.42926E-19-4.25851E-19
 -1      2462 2.03562E-05-1.71328E-05-1.01844E-06 1.09792E-05 8.00446E-20 4.46386E-18
 -1      2463 1.49793E-05-1.40106E-05-8.54852E-08-5.68013E-06 4.20764E-19 5.06441E-18
 -1      2464 9.52388E-05-2.85747E-05-2.85703E-05-1.38483E-09-1.36379E-18-2.84039E-18
 -1      2465 9.52387E-05-2.85745E-05-2.85704E-05-1.68726E-09-1.19714E-18-2.26449E-18
 -1      2466 9.52387E-05-2.85743E-05-2.85705E-05-2.09307E-09-1.47728E-18-2.53132E-18
 -1      2467 9.52390E-05-2.85750E-05-2.85703E-05-6.19390E-10-4.13911E-19-2.56034E-18
 -1      2468 9.52389E-05-2.85749E-05-2.85703E-05-9.86251E-10-1.25531E-18-2.44844E-18
 -1      2469 9.52391E-05-2.85747E-05-2.85705E-05-1.34594E-09-1.05433E-18-2.49008E-18
 -1      2470 9.52390E-05-2.85750E-05-2.85703E-05 2.13807E-10-4.68824E-19 1.52229E-19
 -1      2471 9.52390E-05-2.85750E-05-2.85703E-05-1.73313E-10-8.68807E-19-1.80355E-18
 -1      2472 9.52392E-05-2.85749E-05-2.85704E-05-4.47905E-10-4.67194E-19-2.37628E-18
 -1      2473 9.52389E-05-2.85748E-05-2.85703E-05 1.01993E-09 1.89855E-19 1.50339E-18
 -1      2474 9.52390E-05-2.85749E-05-2.85703E-05 6.57219E-10-5.64916E-19 1.22574E-18
 -1      2475 9.52392E-05-2.85749E-05-2.85704E-05 4.97086E-10 1.96503E-19 6.35345E-19
 -1      2476 9.52387E-05-2.85744E-05-2.85704E-05 1.69665E-09 1.39767E-18 1.53171E-18
 -1      2477 9.52388E-05-2.85747E-05-2.85703E-05 1.40524E-09 7.39970E-19 1.34205E-18
 -1      2478 9.52390E-05-2.85746E-05-2.85705E-05 1.37741E-09 5.85943E-19 1.33787E-18
 -1      2479 9.52383E-05-2.85739E-05-2.85705E-05 2.18298E-09 3.33807E-18 2.42652E-18
 -1      2480 9.52385E-05-2.85742E-05-2.85704E-05 1.99177E-09 2.11851E-18 1.75231E-18
 -1      2481 9.52387E-05-2.85742E-05-2.85705E-05 2.10194E-09 1.72636E-18 2.05146E-18
 -1      2482 9.52378E-05-2.85732E-05-2.85705E-05 2.39312E-09 1.63362E-18 6.66756E-19
 -1      2483 9.52380E-05-2.85736E-05-2.85705E-05 2.34099E-09 2.42768E-18 2.01249E-18
 -1      2484 9.52382E-05-2.85737E-05-2.85705E-05 2.58641E-09 1.98464E-18 1.02713E-18
 -1      2485 9.52373E-05-2.85725E-05-2.85706E-05 2.27857E-09 9.52051E-19-1.51300E-18
 -1      2486 9.52375E-05-2.85729E-05-2.85706E-05 2.38579E-09 1.43207E-18-1.55405E-18
 -1      2487 9.52376E-05-2.85730E-05-2.85706E-05 2.74411E-09 8.48912E-19-4.00652E-19
 -1      2488 9.52369E-05-2.85719E-05-2.85707E-05 1.66749E-09 1.02074E-18 3.31794E-19
 -1      2489 1.89027E-05-1.60813E-05-7.32549E-07-2.22599E-05 1.79613E-18 5.80175E-18
 -1      2490 2.81273E-05-2.10071E-05-2.68960E-06-3.58880E-05 2.10975E-18 5.89726E-18
 -1      2491 1.03737E-04-2.69881E-05-3.27397E-05-2.59844E-05-5.08425E-19 1.62720E-18
 -1      2492 1.00665E-04-2.45004E-05-3.25758E-05-2.30048E-05 4.00592E-19 1.70634E-18
 -1      2493 9.10733E-05-1.91441E-05-3.07329E-05-2.10337E-05 9.84724E-19 1.40068E-19
 -1      2494 9.94494E-05-5.50751E-05-1.93974E-05 3.66717E-05 8.63974E-19 2.99214E-19
 -1      2495 7.02692E-05-4.22005E-05-1.18348E-05 3.56846E-05 1.07997E-20 1.43064E-18
 -1      2496 7.65258E-05-4.36568E-05-1.36863E-05-5.14476E-05 3.81250E-18 4.09276E-18
 -1      2497 9.88997E-05-5.10089E-05-2.05864E-05-5.11110E-05 3.24795E-18 1.99362E-18
 -1      2498 1.54418E-04-2.47446E-05-5.60592E-05 2.65266E-06-2.76048E-18-4.48885E-18
 -1      2499 1.58233E-04-1.75724E-05-6.07252E-05 2.92352E-06-3.96517E-18-3.80953E-18
 -1      2500 1.14765E-04-5.45514E-05-2.58848E-05 4.48882E-05-3.83918E-19-5.20396E-20
 -1      2501 9.23604E-05-4.76178E-05-1.87443E-05 4.91037E-05 1.14477E-18-1.27452E-18
 -1      2502 1.72074E-04-7.10556E-05-4.28048E-05-2.80066E-06 4.74444E-18 2.10488E-19
 -1      2503 4.71728E-05-2.95748E-05-7.32992E-06 3.26495E-05-6.15158E-19 3.45886E-18
 -1      2504 3.24867E-05-2.27409E-05-3.79936E-06 2.25817E-05-9.35336E-19 4.51532E-18
 -1      2505 9.56859E-05-2.28167E-05-3.12819E-05 1.98507E-05 3.62636E-20 1.97061E-19
 -1      2506 9.72655E-05-2.33614E-05-3.15448E-05 2.27447E-05-8.37985E-19 1.12795E-18
 -1      2507 8.87897E-05-1.91757E-05-2.97104E-05 1.81500E-05 7.87063E-19 6.70034E-19
 -1      2508 9.52941E-05-2.34510E-05-3.07336E-05 2.62061E-05-1.57140E-18 1.60155E-18
 -1      2509 9.83489E-05-2.64078E-05-3.05905E-05 2.84339E-05-1.58673E-18 1.26062E-18
 -1      2510 8.47880E-05-1.81701E-05-2.83713E-05 2.41561E-05-5.82203E-19 9.80997E-19
 -1      2511 9.01553E-05-1.42530E-05-3.25658E-05 4.00522E-06 2.43465E-18-3.56538E-18
 -1      2512 9.15300E-05-1.50564E-05-3.27952E-05 1.99219E-06 2.07694E-18-3.80446E-18
 -1      2513 9.42326E-05-1.83913E-05-3.25411E-05 1.25511E-06 1.82163E-18-3.51853E-18
 -1      2514 9.12846E-05-1.65314E-05-3.20877E-05 5.84794E-06 2.48973E-18-3.26274E-18
 -1      2515 1.10809E-04-4.74263E-05-2.65520E-05 3.22442E-05-1.66569E-18-2.29758E-19
 -1      2516 1.24345E-04-5.93393E-05-2.76016E-05 2.60426E-05-3.73330E-19-4.56829E-19
 -1      2517 1.54767E-04-7.14218E-05-3.58108E-05-1.05015E-05-1.75293E-18 3.88153E-19
 -1      2518 3.22510E-05-2.09198E-05-4.54462E-06 3.92423E-05 1.29575E-18-5.23043E-18
 -1      2519 2.21606E-05-1.44570E-05-2.71941E-06 2.64784E-05 1.88814E-18-6.11727E-18
 -1      2520 2.98385E-05-1.99871E-05-3.87821E-06-2.09211E-05-1.02152E-18-7.34123E-18
 -1      2521 4.55413E-05-2.74796E-05-7.38668E-06-3.22472E-05-1.13757E-18-7.02868E-18
 -1      2522 1.70345E-05-1.02929E-05-2.40378E-06 8.22738E-06 7.64183E-19-6.78643E-18
 -1      2523 2.01849E-05-1.42909E-05-2.03025E-06-8.54364E-06 3.60095E-19-7.58349E-18
 -1      2524 3.45175E-05-1.18474E-05-9.04015E-06-1.59892E-05 4.08693E-20-6.81862E-18
 -1      2525 6.66367E-05-3.61004E-05-1.30348E-05 5.24825E-05 1.50179E-18-2.75021E-18
 -1      2526 4.77976E-05-2.89829E-05-7.64686E-06 4.57901E-05 1.52593E-18-4.05263E-18
 -1      2527 4.79229E-05-2.18545E-05-1.05519E-05 4.25398E-05 3.14048E-18-4.16041E-18
 -1      2528 1.42262E-04-5.62147E-05-3.72132E-05 2.62181E-05-2.89315E-18 3.67401E-19
 -1      2529 1.30858E-04-5.71523E-05-3.15231E-05 3.30637E-05-1.74404E-18 4.38869E-19
 -1      2530 1.55670E-04-4.30243E-05-4.88816E-05 5.56878E-06-4.98294E-18 2.25311E-19
 -1      2531 1.49368E-04-5.04211E-05-4.25571E-05 1.38114E-05-4.09877E-18 5.02291E-19
 -1      2532 1.59366E-04-9.42409E-06-6.45078E-05-1.29569E-06-5.84368E-18-2.42373E-18
 -1      2533 1.52170E-04-9.49860E-06-6.17172E-05-3.28468E-06-5.98386E-18-1.91969E-18
 -1      2534 1.56774E-04-1.11765E-05-6.30020E-05 1.83631E-06-5.04874E-18-3.21830E-18
 -1      2535 1.58739E-04-9.51644E-06-6.44042E-05 3.69429E-07-5.50571E-18-2.77406E-18
 -1      2536 1.43912E-04-5.33879E-06-5.96184E-05-8.34858E-09-5.22238E-18-2.48265E-18
 -1      2537 1.53238E-04-4.43557E-05-4.70160E-05-6.36049E-06-4.50463E-19-4.13733E-18
 -1      2538 1.54825E-04-3.77872E-05-5.08478E-05-1.29486E-06-1.57633E-18-5.00448E-18
 -1      2539 1.41381E-04-5.63510E-05-3.65613E-05-2.41884E-05 1.83970E-18-1.83446E-18
 -1      2540 1.50799E-04-5.15630E-05-4.28947E-05-1.61055E-05 5.34213E-19-3.20284E-18
 -1      2541 1.48259E-04-5.03751E-05-4.19659E-05-5.33874E-06 1.07695E-18-4.99961E-18
 -1      2542 1.16953E-04-5.60105E-05-2.59250E-05-4.23281E-05 2.90596E-18 9.78429E-19
 -1      2543 1.30233E-04-5.75459E-05-3.13653E-05-3.68910E-05 2.46275E-18 3.53848E-19
 -1      2544 1.38025E-04-5.93553E-05-3.35598E-05-2.55324E-05 2.98960E-18-2.34575E-18
 -1      2545 1.09854E-04-5.48316E-05-2.35238E-05-4.49573E-05 4.17799E-18 5.99574E-19
 -1      2546 3.89686E-05-2.72014E-05-4.63629E-06-4.23646E-05 2.71347E-18 6.08106E-18
 -1      2547 5.16910E-05-3.19094E-05-8.38758E-06-4.96038E-05 3.08235E-18 6.01859E-18
 -1      2548 3.82344E-05-1.98385E-05-7.32513E-06-3.80211E-05 2.66805E-18 5.42609E-18
 -1      2549 1.03088E-04-2.41824E-05-3.37617E-05-3.23886E-06 2.67938E-18 3.90539E-18
 -1      2550 1.03288E-04-2.32458E-05-3.42995E-05 1.56559E-06 2.90088E-18 4.45881E-18
 -1      2551 9.93457E-05-1.95334E-05-3.42043E-05 2.49602E-06 3.28845E-18 3.26780E-18
 -1      2552 9.69816E-05-1.97638E-05-3.30352E-05-4.83038E-06 2.82786E-18 2.10486E-18
 -1      2553 6.58274E-05-4.09896E-05-1.06210E-05-3.64242E-05-2.34480E-18-6.19393E-18
 -1      2554 8.92169E-05-5.13893E-05-1.63620E-05-3.86645E-05-2.06168E-18-5.22196E-18
 -1      2555 1.56455E-04-7.25629E-05-3.60881E-05 1.16879E-05 1.82620E-18 1.46537E-19
 -1      2556 1.35977E-04-6.72622E-05-2.98889E-05-2.48193E-05-1.75251E-18-1.53927E-18
 -1      2557 1.47952E-04-6.76746E-05-3.39828E-05-1.40622E-05-3.22931E-18 1.73568E-18
 -1      2558 1.41610E-04-6.30630E-05-3.31016E-05-1.90253E-05-3.96200E-18 2.06994E-18
 -1      2559 1.12037E-04-6.03754E-05-2.23874E-05-3.14043E-05-2.33823E-18-3.29178E-18
 -1      2560 1.33489E-04-6.53826E-05-2.89682E-05 2.12788E-05 1.19686E-18-2.85238E-19
 -1      2561 9.63067E-05-1.98740E-05-3.27609E-05-7.14369E-06 2.01721E-19-4.06007E-18
 -1      2562 9.43928E-05-1.70911E-05-3.31696E-05-8.32554E-06 7.49095E-20-4.50917E-18
 -1      2563 9.45253E-05-1.73919E-05-3.31463E-05-1.01389E-05-4.80946E-19-4.66376E-18
 -1      2564 8.18096E-05-2.22305E-05-2.52925E-05 3.11208E-05-2.10308E-18 7.63071E-19
 -1      2565 9.33469E-05-1.51065E-05-3.36277E-05 2.74308E-06 3.60473E-18 1.75098E-18
 -1      2566 6.38788E-05-3.11991E-05-1.35984E-05-3.45969E-05-2.46974E-18-5.52562E-18
 -1      2567 9.50459E-05-1.86418E-05-3.27810E-05-1.20513E-05-1.28656E-18-4.44602E-18
 -1      2568 1.15153E-04-5.51062E-05-2.59613E-05-3.21131E-05-3.62700E-18-1.18786E-18
 -1      2569 1.48763E-04-3.67258E-05-4.81098E-05-5.01043E-06-4.22574E-18 9.39254E-19
 -1      2570 8.52399E-05-3.63018E-05-2.08271E-05 3.71654E-05-1.66484E-18 3.39660E-19
 -1      2571 1.45313E-04-1.39719E-05-5.68301E-05-8.04337E-06-5.25203E-18-1.10061E-18
 -1      2572 1.37134E-04-1.83888E-05-5.12240E-05-1.12091E-05-4.42882E-18-1.33619E-19
 -1      2573 1.36058E-04-9.08079E-06-5.51292E-05-8.01246E-06-4.84376E-18-1.31280E-18
 -1      2574 6.75456E-05-3.40217E-05-1.38516E-05 3.46222E-05-1.39422E-18 2.09619E-18
 -1      2575 9.05704E-05-2.32281E-05-2.87922E-05-2.92668E-05-8.16063E-19-6.84217E-19
 -1      2576 9.02861E-05-1.40350E-05-3.26623E-05 5.85501E-07 3.48794E-18 1.00460E-18
 -1      2577 9.52369E-05-2.85722E-05-2.85706E-05-2.75575E-09-4.04621E-19-1.89873E-19
 -1      2578 9.52369E-05-2.85721E-05-2.85706E-05-2.31881E-09-1.17464E-18-1.14152E-18
 -1      2579 9.52367E-05-2.85718E-05-2.85707E-05-1.83171E-09-9.37521E-19-2.14092E-19
 -1      2580 2.33837E-05-1.08872E-05-4.71764E-06-1.33197E-05 9.10190E-19 4.92528E-18
 -1      2581 3.30317E-05-1.51739E-05-6.98857E-06 1.75089E-05-6.67780E-19 4.19133E-18
 -1      2582 9.52366E-05-2.85717E-05-2.85707E-05 1.98380E-09 6.58874E-19 1.77625E-19
 -1      2583 9.52370E-05-2.85721E-05-2.85706E-05 2.20645E-09 1.14930E-18 3.10368E-19
 -1      2584 9.52370E-05-2.85723E-05-2.85706E-05 2.64439E-09 6.01277E-19-9.43677E-19
 -1      2585 9.52363E-05-2.85716E-05-2.85706E-05 2.31880E-09-1.14751E-18 7.59461E-20
 -1      2586 7.02101E-05-3.70878E-05-1.37151E-05-4.95734E-05 4.01134E-18 4.33310E-18
 -1      2587 1.45491E-04-1.20065E-05-5.74279E-05 6.47265E-06-3.72419E-18-4.01123E-18
 -1      2588 8.65582E-05-4.19367E-05-1.86137E-05 4.86435E-05 2.72639E-18-1.52757E-18
 -1      2589 1.48391E-04-3.08739E-05-5.05905E-05 7.04401E-06-1.37050E-18-5.19782E-18
 -1      2590 2.68217E-05-8.70492E-06-7.08530E-06 1.62243E-05 2.26295E-18-6.13718E-18
 -1      2591 9.52365E-05-2.85718E-05-2.85706E-05 2.81010E-09-1.11368E-18-8.60467E-19
 -1      2592 1.24783E-04-5.71289E-05-2.88306E-05 3.50766E-05 7.26225E-19 7.76465E-19
 -1      2593 1.45906E-04-5.45663E-05-3.90892E-05 1.36852E-05-2.07118E-18 1.25107E-18
 -1      2594 8.13806E-05-1.10154E-05-3.02476E-05 1.41616E-05 3.90237E-18-2.48237E-18
 -1      2595 8.43828E-05-1.29632E-05-3.05349E-05 1.35089E-05 3.62862E-18-2.58913E-18
 -1      2596 8.76359E-05-1.55138E-05-3.09597E-05 1.20592E-05 3.34794E-18-2.67563E-18
 -1      2597 9.04236E-05-1.73016E-05-3.12957E-05 1.03131E-05 3.03301E-18-2.80247E-18
 -1      2598 8.75650E-05-1.69685E-05-3.03060E-05 1.44588E-05 3.42264E-18-2.39302E-18
 -1      2599 7.44722E-05-4.94820E-06-2.98875E-05 8.64280E-06 4.20388E-18-1.90305E-18
 -1      2600 7.44703E-05-5.01750E-06-2.97244E-05 1.06745E-05 4.24069E-18-2.11703E-18
 -1      2601 7.89101E-05-7.48639E-06-3.06963E-05 2.47080E-06 3.88201E-18-9.66868E-19
 -1      2602 7.58769E-05-5.43072E-06-3.02129E-05 4.88589E-06 4.01591E-18-1.56450E-18
 -1      2603 7.37417E-05-5.34450E-06-2.91991E-05 6.37483E-06 3.88514E-18-1.82437E-18
 -1      2604 9.12144E-05-2.26681E-05-2.94324E-05 7.46457E-06 1.23046E-18 1.19488E-18
 -1      2605 9.04089E-05-2.15776E-05-2.94876E-05 8.95223E-06 1.10699E-18 9.78176E-19
 -1      2606 9.84101E-05-2.69320E-05-3.06100E-05-9.29341E-06-1.22648E-18-2.99805E-18
 -1      2607 9.81706E-05-2.79218E-05-3.01405E-05-8.50914E-06-1.09167E-18-2.82516E-18
 -1      2608 1.40770E-04-3.18339E-05-4.73661E-05-1.04729E-05-3.83759E-18 8.78056E-19
 -1      2609 1.45146E-04-4.30420E-05-4.38613E-05-4.40129E-06-2.96207E-18 1.49395E-18
 -1      2610 9.84511E-05-2.87801E-05-2.98303E-05-8.27278E-06-1.09083E-18-2.54778E-18
 -1      2611 9.79238E-05-2.90675E-05-2.95299E-05-7.98964E-06-1.04529E-18-2.53416E-18
 -1      2612 9.96433E-05-2.84416E-05-3.05000E-05-8.76571E-06-1.01265E-18-2.70101E-18
 -1      2613 9.77584E-05-2.92049E-05-2.93682E-05-8.01671E-06-1.02050E-18-2.36019E-18
 -1      2614 9.70355E-05-2.89219E-05-2.91939E-05-7.89640E-06-9.53880E-19-2.45275E-18
 -1      2615 9.97523E-05-2.95904E-05-3.00609E-05-8.52748E-06-9.86819E-19-2.25518E-18
 -1      2616 9.64762E-05-2.84726E-05-2.91505E-05-7.87122E-06-9.63875E-19-2.26037E-18
 -1      2617 9.56198E-05-2.77548E-05-2.90684E-05-7.58173E-06-1.05905E-18-2.28680E-18
 -1      2618 9.90381E-05-2.92514E-05-2.98975E-05-8.55349E-06-9.81552E-19-2.29630E-18
 -1      2619 9.47611E-05-2.68900E-05-2.91045E-05-7.15996E-06-1.06217E-18-2.21616E-18
 -1      2620 9.38910E-05-2.59578E-05-2.90826E-05-6.44523E-06-9.51568E-19-2.24170E-18
 -1      2621 9.76088E-05-2.77287E-05-2.99401E-05-8.13982E-06-1.03561E-18-2.14223E-18
 -1      2622 9.29557E-05-2.49756E-05-2.91503E-05-5.39431E-06-9.36489E-19-2.27789E-18
 -1      2623 9.22610E-05-2.41473E-05-2.91561E-05-4.16386E-06-8.87003E-19-2.33947E-18
 -1      2624 9.57792E-05-2.55658E-05-3.00945E-05-6.65683E-06-1.01981E-18-2.06480E-18
 -1      2625 9.15727E-05-2.34329E-05-2.92050E-05-2.49797E-06-7.57168E-19-2.39313E-18
 -1      2626 9.12476E-05-2.30326E-05-2.92097E-05-8.87630E-07-6.12512E-19-2.35814E-18
 -1      2627 9.41125E-05-2.35725E-05-3.02502E-05-3.84092E-06-9.21596E-19-2.02697E-18
 -1      2628 9.10801E-05-2.29012E-05-2.92019E-05 1.08614E-06-7.18847E-19-2.45728E-18
 -1      2629 9.12260E-05-2.31081E-05-2.91882E-05 2.75016E-06-8.51311E-19-2.26655E-18
 -1      2630 9.32346E-05-2.25836E-05-3.03065E-05-2.06451E-08-6.89300E-19-1.99331E-18
 -1      2631 9.16367E-05-2.36334E-05-2.91116E-05 4.54992E-06-8.98264E-19-2.16775E-18
 -1      2632 9.22000E-05-2.43825E-05-2.90791E-05 5.89379E-06-4.89937E-19-2.20208E-18
 -1      2633 9.34952E-05-2.30655E-05-3.02063E-05 3.94792E-06-7.47858E-19-2.11270E-18
 -1      2634 9.29854E-05-2.53547E-05-2.89500E-05 7.10303E-06-3.41600E-19-2.29688E-18
 -1      2635 9.37856E-05-2.63871E-05-2.89102E-05 7.87742E-06 3.42523E-20-2.38100E-18
 -1      2636 9.47406E-05-2.48556E-05-2.99572E-05 7.07897E-06-5.63022E-19-2.27052E-18
 -1      2637 9.46258E-05-2.74614E-05-2.87600E-05 8.32152E-06 1.17245E-19-2.58412E-18
 -1      2638 9.54454E-05-2.84689E-05-2.87283E-05 8.47583E-06 4.50762E-20-2.65652E-18
 -1      2639 9.64222E-05-2.72927E-05-2.96172E-05 8.74969E-06-1.10530E-19-2.68350E-18
 -1      2640 9.60682E-05-2.93372E-05-2.85898E-05 8.24125E-06 8.96116E-20-2.37741E-18
 -1      2641 9.67405E-05-3.00960E-05-2.85773E-05 7.89877E-06 1.00643E-19-2.23395E-18
 -1      2642 9.79242E-05-2.96029E-05-2.92627E-05 8.89220E-06 1.91926E-19-2.39847E-18
 -1      2643 9.70300E-05-3.06067E-05-2.84717E-05 7.22895E-06-2.19327E-21-1.80616E-18
 -1      2644 9.74816E-05-3.10362E-05-2.84813E-05 6.59218E-06 1.18198E-19-1.68251E-18
 -1      2645 9.88491E-05-3.12395E-05-2.89584E-05 7.88984E-06 2.55691E-19-1.73947E-18
 -1      2646 9.74658E-05-3.11941E-05-2.84154E-05 5.74784E-06-2.37275E-19-1.31925E-18
 -1      2647 9.77035E-05-3.13288E-05-2.84426E-05 5.00989E-06-4.10535E-19-1.53375E-18
 -1      2648 9.91162E-05-3.20339E-05-2.87386E-05 6.29045E-06-6.04791E-20-1.28858E-18
 -1      2649 9.74827E-05-3.12277E-05-2.84116E-05 4.18552E-06-7.47667E-19-1.73280E-18
 -1      2650 9.75573E-05-3.11577E-05-2.84485E-05 3.48509E-06-9.61338E-19-1.91090E-18
 -1      2651 9.88647E-05-3.21079E-05-2.86062E-05 4.56666E-06-7.16692E-19-1.31546E-18
 -1      2652 9.72411E-05-3.09131E-05-2.84423E-05 2.78882E-06-6.44116E-19-1.79435E-18
 -1      2653 9.72131E-05-3.07341E-05-2.84809E-05 2.20186E-06-4.33329E-19-1.65216E-18
 -1      2654 9.83131E-05-3.17113E-05-2.85449E-05 3.02023E-06-6.74455E-19-1.22407E-18
 -1      2655 9.68850E-05-3.04420E-05-2.84890E-05 1.67133E-06-3.44085E-19-1.83769E-18
 -1      2656 9.68055E-05-3.02285E-05-2.85234E-05 1.22356E-06 4.18913E-20-1.67409E-18
 -1      2657 9.76581E-05-3.10936E-05-2.85316E-05 1.78787E-06-3.05077E-19-1.33207E-18
 -1      2658 9.65143E-05-2.99512E-05-2.85372E-05 8.52711E-07-4.07256E-19-1.97709E-18
 -1      2659 9.64180E-05-2.97494E-05-2.85643E-05 5.38189E-07-3.89590E-19-2.38463E-18
 -1      2660 9.70323E-05-3.04391E-05-2.85448E-05 8.91658E-07-4.63302E-19-2.25776E-18
 -1      2661 9.61840E-05-2.95181E-05-2.85782E-05 3.00257E-07 2.05519E-19-2.37682E-18
 -1      2662 9.60909E-05-2.93506E-05-2.85969E-05 9.72508E-08 5.92960E-19-2.71630E-18
 -1      2663 9.65040E-05-2.98557E-05-2.85680E-05 2.92072E-07-8.49754E-20-2.05878E-18
 -1      2664 9.59158E-05-2.91746E-05-2.86080E-05-4.02827E-08 9.74948E-19-2.31126E-18
 -1      2665 9.58350E-05-2.90473E-05-2.86191E-05-1.58309E-07 6.79129E-19-2.30619E-18
 -1      2666 9.60938E-05-2.93895E-05-2.85913E-05-7.39235E-08 8.05385E-19-1.70909E-18
 -1      2667 9.57112E-05-2.89230E-05-2.86262E-05-2.25675E-07 2.22035E-19-1.98044E-18
 -1      2668 9.56454E-05-2.88332E-05-2.86310E-05-2.83797E-07 3.36088E-19-1.95186E-18
 -1      2669 9.57947E-05-2.90463E-05-2.86092E-05-2.70684E-07 7.69322E-19-1.79284E-18
 -1      2670 9.55618E-05-2.87513E-05-2.86344E-05-3.05635E-07 3.26662E-19-2.57151E-18
 -1      2671 9.55104E-05-2.86920E-05-2.86348E-05-3.24629E-07 1.97628E-19-2.75091E-18
 -1      2672 9.55875E-05-2.88114E-05-2.86203E-05-3.53461E-07-2.56183E-20-1.18244E-18
 -1      2673 9.54561E-05-2.86421E-05-2.86351E-05-3.19368E-07 2.26988E-19-3.07315E-18
 -1      2674 9.54170E-05-2.86056E-05-2.86325E-05-3.14979E-07 4.29044E-19-2.38455E-18
 -1      2675 9.54500E-05-2.86616E-05-2.86250E-05-3.65157E-07 2.82456E-19-1.46267E-18
 -1      2676 9.53831E-05-2.85779E-05-2.86308E-05-2.95484E-07 5.24190E-19-1.78382E-18
 -1      2677 9.53538E-05-2.85574E-05-2.86266E-05-2.78808E-07 1.04790E-18-1.85149E-18
 -1      2678 9.53622E-05-2.85739E-05-2.86245E-05-3.36726E-07 8.56991E-19-1.11735E-18
 -1      2679 9.53333E-05-2.85443E-05-2.86235E-05-2.53492E-07 7.07790E-19-1.93058E-18
 -1      2680 9.53117E-05-2.85344E-05-2.86187E-05-2.31829E-07 3.20978E-20-1.99656E-18
 -1      2681 9.53081E-05-2.85284E-05-2.86205E-05-2.89122E-07 7.16342E-19-8.47144E-19
 -1      2682 9.52997E-05-2.85302E-05-2.86151E-05-2.05810E-07-5.12591E-19-1.84879E-18
 -1      2683 9.52840E-05-2.85267E-05-2.86103E-05-1.83608E-07-6.39601E-19-1.60720E-18
 -1      2684 9.52759E-05-2.85098E-05-2.86144E-05-2.35619E-07-1.61005E-19-5.48148E-19
 -1      2685 9.52772E-05-2.85274E-05-2.86066E-05-1.59706E-07-6.30700E-19-1.20229E-18
 -1      2686 9.52658E-05-2.85276E-05-2.86022E-05-1.39406E-07-6.09425E-19-3.35622E-19
 -1      2687 9.52574E-05-2.85070E-05-2.86076E-05-1.83978E-07-3.03113E-19-1.37687E-19
 -1      2688 9.52621E-05-2.85308E-05-2.85987E-05-1.18929E-07 5.32449E-21 6.39814E-20
 -1      2689 9.52540E-05-2.85328E-05-2.85949E-05-1.01647E-07 1.07669E-18 3.05416E-19
 -1      2690 9.52471E-05-2.85126E-05-2.86007E-05-1.38213E-07 7.30218E-20-2.19135E-19
 -1      2691 9.52520E-05-2.85369E-05-2.85918E-05-8.49687E-08 7.30657E-19-3.01430E-19
 -1      2692 9.52464E-05-2.85396E-05-2.85887E-05-7.10025E-08 7.71604E-19-8.78369E-19
 -1      2693 9.52416E-05-2.85218E-05-2.85944E-05-9.99306E-08 7.12485E-19-7.55895E-19
 -1      2694 9.52453E-05-2.85436E-05-2.85861E-05-5.79591E-08 1.66644E-18-5.04389E-19
 -1      2695 9.52415E-05-2.85464E-05-2.85837E-05-4.71414E-08 1.39111E-18-3.67454E-19
 -1      2696 9.52388E-05-2.85319E-05-2.85888E-05-6.92936E-08 1.56500E-18-1.52579E-18
 -1      2697 9.52410E-05-2.85500E-05-2.85816E-05-3.73023E-08 1.04816E-18-2.86014E-19
 -1      2698 9.52384E-05-2.85526E-05-2.85797E-05-2.92370E-08 1.01182E-18-8.26464E-19
 -1      2699 9.52375E-05-2.85413E-05-2.85842E-05-4.56738E-08 1.14820E-18-5.77321E-19
 -1      2700 9.52382E-05-2.85556E-05-2.85781E-05-2.20692E-08 1.19777E-19-1.13929E-18
 -1      2701 9.52365E-05-2.85578E-05-2.85767E-05-1.62782E-08-3.97806E-19-1.87532E-18
 -1      2702 9.52368E-05-2.85494E-05-2.85804E-05-2.80800E-08 3.91389E-19-1.65893E-18
 -1      2703 9.52364E-05-2.85601E-05-2.85754E-05-1.12449E-08 5.63438E-19-1.31238E-18
 -1      2704 9.52355E-05-2.85619E-05-2.85744E-05-7.25333E-09 8.47131E-19-1.93765E-18
 -1      2705 9.52366E-05-2.85560E-05-2.85775E-05-1.54194E-08-6.56745E-20-1.39305E-18
 -1      2706 9.52354E-05-2.85636E-05-2.85735E-05-3.86584E-09 3.57601E-19-2.33615E-18
 -1      2707 9.52350E-05-2.85650E-05-2.85729E-05-1.24620E-09-7.23062E-19-2.92372E-18
 -1      2708 9.52365E-05-2.85610E-05-2.85752E-05-6.64580E-09-1.00270E-19-2.04675E-18
 -1      2709 9.52349E-05-2.85663E-05-2.85722E-05 9.12847E-10-7.89427E-19-2.22260E-18
 -1      2710 9.52348E-05-2.85673E-05-2.85718E-05 2.52175E-09-1.93436E-18-1.64666E-18
 -1      2711 9.52365E-05-2.85648E-05-2.85736E-05-8.34422E-10-8.05214E-19-2.78244E-18
 -1      2712 9.52348E-05-2.85682E-05-2.85713E-05 3.79295E-09-1.28471E-18-8.87607E-19
 -1      2713 9.52348E-05-2.85690E-05-2.85711E-05 4.68250E-09-1.79924E-21-7.66429E-19
 -1      2714 9.52366E-05-2.85675E-05-2.85725E-05 2.78961E-09-6.25743E-19-1.14282E-18
 -1      2715 9.52348E-05-2.85696E-05-2.85708E-05 5.33360E-09 6.79487E-19-5.60059E-19
 -1      2716 9.52350E-05-2.85701E-05-2.85707E-05 5.73002E-09 6.59219E-19 7.62846E-19
 -1      2717 9.52366E-05-2.85694E-05-2.85717E-05 4.84940E-09 6.31146E-19 9.13031E-19
 -1      2718 9.52350E-05-2.85705E-05-2.85705E-05 5.96456E-09 1.39416E-19 1.03121E-18
 -1      2719 9.52352E-05-2.85708E-05-2.85705E-05 6.03721E-09 2.90396E-19 1.34353E-18
 -1      2720 9.52366E-05-2.85706E-05-2.85712E-05 5.82886E-09 3.63527E-19 2.20021E-19
 -1      2721 9.52353E-05-2.85711E-05-2.85704E-05 6.00470E-09 2.32719E-19 8.30225E-19
 -1      2722 9.52355E-05-2.85713E-05-2.85704E-05 5.87552E-09 7.81873E-19 1.23737E-19
 -1      2723 9.52367E-05-2.85714E-05-2.85709E-05 6.09156E-09-2.42387E-19-1.31246E-18
 -1      2724 9.52356E-05-2.85715E-05-2.85703E-05 5.68145E-09 1.47875E-18 2.07661E-19
 -1      2725 9.52358E-05-2.85716E-05-2.85704E-05 5.43400E-09 2.54780E-18-7.31035E-19
 -1      2726 9.52368E-05-2.85719E-05-2.85707E-05 5.90107E-09 1.19446E-18-1.51276E-18
 -1      2727 9.52359E-05-2.85717E-05-2.85704E-05 5.14888E-09 1.67302E-18-6.01511E-19
 -1      2728 9.52361E-05-2.85718E-05-2.85704E-05 4.83633E-09-2.58285E-19-8.19637E-19
 -1      2729 9.52368E-05-2.85721E-05-2.85706E-05 5.44037E-09 1.77729E-18-1.14579E-18
 -1      2730 9.52362E-05-2.85719E-05-2.85704E-05 4.50340E-09-1.17858E-18-1.72447E-18
 -1      2731 9.52364E-05-2.85720E-05-2.85705E-05 4.15493E-09-1.42018E-18-2.89476E-18
 -1      2732 9.52369E-05-2.85723E-05-2.85706E-05 4.82848E-09-1.49583E-18-2.50078E-18
 -1      2733 9.52365E-05-2.85720E-05-2.85705E-05 3.79800E-09-7.35574E-19-2.04653E-18
 -1      2734 9.52367E-05-2.85721E-05-2.85706E-05 3.42640E-09-4.83234E-19-2.54028E-18
 -1      2735 9.52370E-05-2.85724E-05-2.85706E-05 4.13492E-09-4.96802E-19-3.02761E-18
 -1      2736 6.18806E-05-2.91167E-05-1.33499E-05-4.58965E-05 3.54113E-18 4.41908E-18
 -1      2737 8.26140E-05-4.06057E-05-1.78776E-05-4.85724E-05 4.29022E-18 2.20578E-18
 -1      2738 9.31498E-05-2.46797E-05-2.93811E-05 5.38600E-06 1.08227E-18 1.63096E-18
 -1      2739 9.27337E-05-2.38984E-05-2.94861E-05 6.50259E-06 1.22731E-18 1.54296E-18
 -1      2740 8.97560E-05-2.18316E-05-2.90454E-05 6.06970E-06 1.08981E-18 2.40503E-18
 -1      2741 1.08166E-04-5.52243E-05-2.26418E-05-3.39138E-05-3.46098E-18-2.57572E-18
 -1      2742 9.52372E-05-2.85726E-05-2.85706E-05-3.16001E-09-2.74125E-19-1.08404E-18
 -1      2743 9.52368E-05-2.85721E-05-2.85706E-05-3.14556E-09 3.42498E-19-6.13824E-20
 -1      2744 9.52365E-05-2.85720E-05-2.85705E-05-3.53267E-09 1.18467E-18 6.55061E-19
 -1      2745 8.80024E-05-1.99091E-05-2.92625E-05 1.01689E-05 1.45806E-18 7.91134E-19
 -1      2746 8.66318E-05-1.85519E-05-2.91650E-05 1.20622E-05 1.50184E-18 1.25620E-18
 -1      2747 8.59810E-05-1.87561E-05-2.87047E-05 7.92668E-06 1.01062E-18 1.88176E-18
 -1      2748 9.42568E-05-2.60571E-05-2.92523E-05 3.83627E-06 2.40490E-20 1.36618E-18
 -1      2749 9.40731E-05-2.55302E-05-2.93607E-05 4.64668E-06 7.20721E-19 1.53795E-18
 -1      2750 9.21070E-05-2.40704E-05-2.91195E-05 4.54264E-06 7.77951E-19 3.21359E-18
 -1      2751 9.48570E-05-2.69658E-05-2.91114E-05 2.70801E-06-3.08886E-20 1.56572E-18
 -1      2752 9.47996E-05-2.66226E-05-2.92057E-05 3.28287E-06-2.47315E-19 9.05079E-19
 -1      2753 9.35204E-05-2.56168E-05-2.90789E-05 3.33840E-06-3.50498E-19 2.00837E-18
 -1      2754 9.51611E-05-2.75517E-05-2.89851E-05 1.90036E-06-6.14565E-19 9.95148E-19
 -1      2755 9.51657E-05-2.73329E-05-2.90607E-05 2.30233E-06-1.34212E-19 1.19401E-18
 -1      2756 9.43436E-05-2.66512E-05-2.89984E-05 2.42066E-06 5.92049E-20 1.77141E-18
 -1      2757 9.52996E-05-2.79243E-05-2.88811E-05 1.32843E-06-2.33182E-18 1.90200E-18
 -1      2758 9.53304E-05-2.77866E-05-2.89393E-05 1.60727E-06-1.59442E-18 1.59223E-18
 -1      2759 9.48074E-05-2.73294E-05-2.89124E-05 1.73843E-06-1.59433E-18 1.25537E-18
 -1      2760 9.53498E-05-2.81594E-05-2.87996E-05 9.25846E-07-9.50447E-19 6.90313E-19
 -1      2761 9.53880E-05-2.80732E-05-2.88432E-05 1.11861E-06-1.37983E-18 1.18264E-18
 -1      2762 9.50585E-05-2.77685E-05-2.88352E-05 1.23969E-06-1.38814E-18 5.98336E-19
 -1      2763 9.53559E-05-2.83072E-05-2.87374E-05 6.43196E-07-5.01613E-21 6.13995E-19
 -1      2764 9.53926E-05-2.82534E-05-2.87695E-05 7.76423E-07-1.35180E-19 5.22964E-19
 -1      2765 9.51872E-05-2.80509E-05-2.87711E-05 8.78947E-07-4.83993E-19 4.60880E-19
 -1      2766 9.53423E-05-2.84002E-05-2.86908E-05 4.44816E-07-1.12815E-18 3.90120E-19
 -1      2767 9.53739E-05-2.83665E-05-2.87143E-05 5.37036E-07-7.46115E-19 4.79051E-19
 -1      2768 9.52474E-05-2.82321E-05-2.87203E-05 6.19640E-07-4.33299E-19 9.22961E-19
 -1      2769 9.53219E-05-2.84591E-05-2.86564E-05 3.05410E-07-1.44160E-18 7.63647E-19
 -1      2770 9.53475E-05-2.84378E-05-2.86733E-05 3.69454E-07-1.14702E-18 8.26184E-19
 -1      2771 9.52710E-05-2.83486E-05-2.86810E-05 4.33893E-07-9.64683E-19 1.10385E-18
 -1      2772 9.53002E-05-2.84982E-05-2.86300E-05 2.03409E-07-8.11043E-19 4.38648E-19
 -1      2773 9.53207E-05-2.84841E-05-2.86427E-05 2.49484E-07-1.80432E-18 1.05250E-19
 -1      2774 9.52760E-05-2.84250E-05-2.86505E-05 2.98635E-07-1.43533E-18-3.18716E-19
 -1      2775 9.52824E-05-2.85219E-05-2.86119E-05 1.35940E-07-9.04168E-19 7.25275E-19
 -1      2776 9.52970E-05-2.85132E-05-2.86205E-05 1.66319E-07-3.25172E-19 3.32744E-19
 -1      2777 9.52723E-05-2.84749E-05-2.86277E-05 2.02454E-07-7.53227E-19-1.39378E-18
 -1      2778 9.52679E-05-2.85376E-05-2.85989E-05 8.86228E-08-5.53494E-19-1.48090E-19
 -1      2779 9.52785E-05-2.85318E-05-2.86049E-05 1.09674E-07-1.17714E-18-6.77681E-20
 -1      2780 9.52657E-05-2.85065E-05-2.86113E-05 1.36236E-07-2.86256E-19-1.52309E-18
 -1      2781 9.52568E-05-2.85482E-05-2.85895E-05 5.56775E-08-4.96839E-19 9.82027E-19
 -1      2782 9.52643E-05-2.85442E-05-2.85938E-05 7.01898E-08-8.05845E-19-9.64871E-22
 -1      2783 9.52587E-05-2.85277E-05-2.85993E-05 8.93729E-08-7.72953E-19-1.99769E-18
 -1      2784 9.52487E-05-2.85554E-05-2.85829E-05 3.29721E-08 1.01077E-18 1.44022E-18
 -1      2785 9.52538E-05-2.85525E-05-2.85858E-05 4.28694E-08 6.60711E-19 1.56914E-18
 -1      2786 9.52525E-05-2.85420E-05-2.85904E-05 5.64734E-08-7.72810E-19-9.35769E-19
 -1      2787 9.52430E-05-2.85604E-05-2.85783E-05 1.75650E-08 2.27078E-18 7.48098E-19
 -1      2788 9.52464E-05-2.85584E-05-2.85803E-05 2.42011E-08 2.16805E-18 2.03696E-18
 -1      2789 9.52475E-05-2.85517E-05-2.85841E-05 3.36455E-08 1.56178E-18-1.59220E-19
 -1      2790 9.52393E-05-2.85639E-05-2.85752E-05 7.34784E-09 3.02332E-18-4.39823E-20
 -1      2791 9.52413E-05-2.85624E-05-2.85765E-05 1.16842E-08 2.34177E-18 8.17765E-19
 -1      2792 9.52437E-05-2.85585E-05-2.85795E-05 1.80698E-08 2.69932E-18 1.24049E-18
 -1      2793 9.52369E-05-2.85664E-05-2.85731E-05 7.98798E-10 5.96912E-19 9.88172E-19
 -1      2794 9.52380E-05-2.85653E-05-2.85739E-05 3.52360E-09 2.08057E-18 1.26718E-19
 -1      2795 9.52410E-05-2.85631E-05-2.85763E-05 7.69312E-09 2.26605E-18 1.79159E-18
 -1      2796 9.52355E-05-2.85682E-05-2.85717E-05-3.18528E-09 6.54758E-19 2.42433E-18
 -1      2797 9.52360E-05-2.85674E-05-2.85722E-05-1.57693E-09-3.08805E-19 1.80033E-18
 -1      2798 9.52391E-05-2.85663E-05-2.85741E-05 1.01378E-09-2.86893E-19 2.00103E-18
 -1      2799 9.52348E-05-2.85694E-05-2.85709E-05-5.40475E-09 2.66025E-18 2.43723E-18
 -1      2800 9.52349E-05-2.85688E-05-2.85711E-05-4.55624E-09 2.58502E-18 2.77823E-18
 -1      2801 9.52378E-05-2.85685E-05-2.85726E-05-3.06793E-09 1.35880E-18 2.42256E-18
 -1      2802 9.52345E-05-2.85703E-05-2.85704E-05-6.43820E-09 1.47549E-18 2.85211E-18
 -1      2803 9.52344E-05-2.85698E-05-2.85705E-05-6.09365E-09 2.48803E-18 2.71908E-18
 -1      2804 9.52371E-05-2.85700E-05-2.85716E-05-5.35602E-09 2.96714E-18 3.10947E-18
 -1      2805 9.52346E-05-2.85708E-05-2.85702E-05-6.70013E-09 1.07294E-18 2.82255E-18
 -1      2806 9.52344E-05-2.85705E-05-2.85702E-05-6.67775E-09 1.61073E-18 3.48731E-18
 -1      2807 9.52366E-05-2.85709E-05-2.85710E-05-6.43486E-09 1.55546E-18 3.85828E-18
 -1      2808 9.52348E-05-2.85712E-05-2.85701E-05-6.48256E-09-1.99211E-18 3.67442E-18
 -1      2809 9.52345E-05-2.85710E-05-2.85701E-05-6.65568E-09-6.78612E-19 3.17576E-18
 -1      2810 9.52364E-05-2.85715E-05-2.85707E-05-6.72450E-09 1.55232E-19 3.74063E-18
 -1      2811 9.52352E-05-2.85715E-05-2.85702E-05-5.98562E-09-1.86544E-18 4.66980E-18
 -1      2812 9.52348E-05-2.85713E-05-2.85701E-05-6.26882E-09-1.98715E-18 4.33663E-18
 -1      2813 9.52364E-05-2.85719E-05-2.85705E-05-6.52143E-09-2.13036E-18 4.33167E-18
 -1      2814 9.52355E-05-2.85716E-05-2.85702E-05-5.34005E-09-3.24405E-19 4.28279E-18
 -1      2815 9.52352E-05-2.85715E-05-2.85702E-05-5.67914E-09-5.23410E-19 4.19857E-18
 -1      2816 9.52364E-05-2.85721E-05-2.85705E-05-6.02918E-09-1.25068E-18 4.74725E-18
 -1      2817 9.52359E-05-2.85718E-05-2.85704E-05-4.62086E-09-4.51676E-19 1.96453E-18
 -1      2818 9.52356E-05-2.85717E-05-2.85703E-05-4.98726E-09-3.77052E-19 2.42941E-18
 -1      2819 9.52365E-05-2.85722E-05-2.85705E-05-5.38177E-09 1.76095E-19 2.81739E-18
 -1      2820 9.52364E-05-2.85719E-05-2.85705E-05-3.89297E-09 1.12930E-18 5.91399E-19
 -1      2821 9.52361E-05-2.85718E-05-2.85704E-05-4.27390E-09 7.00000E-19 2.15671E-18
 -1      2822 9.52368E-05-2.85723E-05-2.85705E-05-4.67195E-09 4.22278E-19 1.13970E-18
 -1      2823 9.52370E-05-2.85724E-05-2.85705E-05-3.93812E-09 8.14877E-19-2.55319E-19
 -1      2824 9.52394E-05-2.85747E-05-2.85706E-05-1.26109E-09-4.47065E-19-2.74223E-18
 -1      2825 9.52393E-05-2.85746E-05-2.85706E-05-1.69696E-09-2.58374E-19-2.67057E-18
 -1      2826 9.52376E-05-2.85729E-05-2.85706E-05-3.15406E-09-4.26474E-20-9.18577E-20
 -1      2827 1.31889E-04-5.78183E-05-3.19983E-05 2.64503E-05 4.81591E-19 1.17994E-18
 -1      2828 1.17943E-04-5.36658E-05-2.73130E-05 3.54474E-05 1.94855E-18 8.62695E-19
 -1      2829 9.52391E-05-2.85744E-05-2.85706E-05-2.14444E-09-1.66433E-18-3.47551E-18
 -1      2830 9.52388E-05-2.85741E-05-2.85706E-05-2.47783E-09-8.89958E-19-1.83064E-18
 -1      2831 9.52394E-05-2.85745E-05-2.85707E-05-2.09932E-09-5.23299E-19-2.22277E-18
 -1      2832 9.52395E-05-2.85748E-05-2.85706E-05 7.93389E-10 5.86494E-19 1.77354E-18
 -1      2833 9.52396E-05-2.85749E-05-2.85706E-05 3.09940E-10 2.45523E-19 8.75796E-19
 -1      2834 9.52393E-05-2.85745E-05-2.85706E-05 1.72723E-09 1.80515E-18 1.66218E-18
 -1      2835 9.52394E-05-2.85747E-05-2.85706E-05 1.30665E-09 1.67369E-18 2.11000E-18
 -1      2836 9.52397E-05-2.85747E-05-2.85707E-05 1.14679E-09 1.80633E-18 2.43906E-18
 -1      2837 9.52388E-05-2.85741E-05-2.85706E-05 2.48541E-09 2.90030E-18 2.89598E-18
 -1      2838 9.52390E-05-2.85743E-05-2.85706E-05 2.16224E-09 2.86837E-18 1.26802E-18
 -1      2839 9.52394E-05-2.85744E-05-2.85707E-05 2.13080E-09 2.89785E-18 2.03331E-18
 -1      2840 9.52382E-05-2.85734E-05-2.85706E-05 2.95218E-09 1.92714E-18-7.36965E-19
 -1      2841 9.52385E-05-2.85738E-05-2.85706E-05 2.78357E-09 2.19775E-18 1.29918E-18
 -1      2842 9.52388E-05-2.85739E-05-2.85707E-05 2.89357E-09 2.72429E-18 1.18549E-18
 -1      2843 8.87263E-05-1.38868E-05-3.20891E-05-2.56887E-06 3.26152E-18 5.02039E-19
 -1      2844 4.39377E-05-1.44069E-05-1.20405E-05 2.33562E-05-1.50507E-18 3.07727E-18
 -1      2845 3.21097E-05-8.40802E-06-9.48446E-06 1.10490E-05-5.48136E-19 3.45378E-18
 -1      2846 8.07061E-05-1.39797E-05-2.84690E-05-1.90236E-05 1.15159E-18-1.07275E-18
 -1      2847 8.23053E-05-1.36956E-05-2.94238E-05-1.52101E-05 1.73098E-18-6.13947E-19
 -1      2848 3.85586E-05-1.41322E-05-9.71437E-06-3.19395E-05 2.22473E-18 4.70781E-18
 -1      2849 4.71947E-05-2.01933E-05-1.12857E-05-4.04292E-05 2.65757E-18 4.98691E-18
 -1      2850 9.73377E-05-4.39999E-05-2.28496E-05 4.37780E-05 3.27913E-18-4.02023E-19
 -1      2851 7.66754E-05-3.29337E-05-1.80838E-05 4.59461E-05 3.85104E-18-1.89968E-18
 -1      2852 6.33222E-05-2.31291E-05-1.66772E-05 3.22819E-05-2.00472E-18 1.98608E-18
 -1      2853 6.86507E-05-1.37456E-05-2.33904E-05 2.46331E-05-1.81413E-18 1.44599E-18
 -1      2854 6.80254E-05-1.77509E-05-2.10625E-05 2.78533E-05-2.10519E-18 1.86263E-18
 -1      2855 7.75388E-05-1.87690E-05-2.49391E-05-2.81789E-05-7.96846E-19-2.23797E-18
 -1      2856 7.65477E-05-1.43450E-05-2.64577E-05-2.38301E-05 2.29625E-19-1.60923E-18
 -1      2857 7.64299E-05-1.37093E-05-2.69532E-05 1.83625E-05 1.16474E-19 7.87317E-19
 -1      2858 7.43435E-05-1.37124E-05-2.57880E-05 2.10753E-05-9.64076E-19 8.47377E-19
 -1      2859 2.68720E-05-6.30121E-06-8.15597E-06-2.97812E-06 2.06517E-19 4.22839E-18
 -1      2860 2.95743E-05-8.48309E-06-8.54386E-06-2.03310E-05 1.27050E-18 4.60532E-18
 -1      2861 5.78214E-05-2.23973E-05-1.50874E-05 4.37006E-05 3.84405E-18-3.13169E-18
 -1      2862 4.51223E-05-1.41607E-05-1.25228E-05 3.55124E-05 3.91319E-18-4.24766E-18
 -1      2863 9.40129E-05-4.43828E-05-2.06625E-05-3.69470E-05-3.67697E-18-3.01692E-18
 -1      2864 8.29850E-05-1.65410E-05-2.85770E-05 1.36180E-05 7.85557E-19 1.05436E-18
 -1      2865 8.10121E-05-1.52792E-05-2.81163E-05 1.58913E-05 6.69742E-19 9.33093E-19
 -1      2866 8.01193E-05-1.48620E-05-2.78019E-05 1.00848E-05 1.23819E-18 2.01233E-18
 -1      2867 3.35288E-05-6.85183E-06-1.10653E-05 2.34641E-05 3.20973E-18-4.91999E-18
 -1      2868 3.04397E-05-3.12088E-06-1.10155E-05 4.86124E-06 2.26495E-18-5.51334E-18
 -1      2869 4.58678E-05-8.42214E-06-1.54448E-05 2.56287E-05 3.69110E-18-4.19853E-18
 -1      2870 1.36196E-04-1.40098E-05-5.29128E-05 9.65670E-06-2.80728E-18-4.47022E-18
 -1      2871 1.35009E-04-8.71902E-06-5.48787E-05 6.15171E-06-3.73542E-18-3.83362E-18
 -1      2872 9.52385E-05-2.85738E-05-2.85706E-05-2.78244E-09-4.95463E-19 1.40203E-20
 -1      2873 9.52382E-05-2.85735E-05-2.85706E-05-2.98040E-09-2.04180E-19 3.44961E-19
 -1      2874 9.52388E-05-2.85740E-05-2.85707E-05-2.88125E-09-1.00195E-18-8.14897E-19
 -1      2875 7.60574E-05-6.79582E-06-2.97944E-05 1.30323E-05 4.28261E-18-2.08522E-18
 -1      2876 7.82384E-05-8.25225E-06-2.99165E-05 1.38117E-05 4.07475E-18-2.33479E-18
 -1      2877 8.02816E-05-1.15474E-05-2.94663E-05 1.58037E-05 3.89498E-18-2.22278E-18
 -1      2878 7.46279E-05-6.84627E-06-2.89844E-05 1.30331E-05 4.10538E-18-2.00013E-18
 -1      2879 9.52396E-05-2.85749E-05-2.85706E-05-2.44586E-10-5.16246E-19-2.30889E-18
 -1      2880 9.52395E-05-2.85748E-05-2.85706E-05-7.31324E-10 4.63632E-19-4.04521E-18
 -1      2881 9.52399E-05-2.85749E-05-2.85707E-05 4.03054E-11 4.40728E-19-6.37187E-19
 -1      2882 1.44611E-04-5.17159E-05-4.03999E-05 5.33635E-06-1.87221E-18 1.47828E-18
 -1      2883 1.40067E-04-5.60580E-05-3.58764E-05 1.47502E-05-5.50492E-19 1.50751E-18
 -1      2884 9.65935E-05-2.11799E-05-3.23162E-05-1.07439E-05-1.09258E-18-4.03129E-18
 -1      2885 3.44331E-05-5.62108E-06-1.17873E-05-9.80596E-06 8.58680E-19-5.89154E-18
 -1      2886 4.48182E-05-1.21417E-05-1.34219E-05-2.33666E-05-2.83968E-19-5.71938E-18
 -1      2887 1.41333E-04-3.46506E-05-4.58964E-05 8.76669E-06-3.81906E-19-5.28781E-18
 -1      2888 1.39461E-04-2.41199E-05-5.01860E-05 1.06314E-05-1.68814E-18-4.74053E-18
 -1      2889 9.78377E-05-2.20437E-05-3.24775E-05-2.01274E-06 1.26581E-18-3.39417E-18
 -1      2890 9.81630E-05-2.23808E-05-3.25233E-05-4.11227E-06 8.02236E-19-3.57114E-18
 -1      2891 9.52368E-05-2.85721E-05-2.85706E-05 3.17395E-09 2.89275E-19-1.71390E-18
 -1      2892 9.52369E-05-2.85722E-05-2.85706E-05 2.90564E-09 5.32324E-19-4.45514E-19
 -1      2893 9.52371E-05-2.85725E-05-2.85706E-05 3.51297E-09 4.31772E-19-1.93062E-18
 -1      2894 1.34016E-04-5.90046E-06-5.56859E-05 3.10774E-06-4.35587E-18-3.55997E-18
 -1      2895 1.33564E-04-4.84916E-06-5.58447E-05-1.23337E-06-4.72496E-18-2.61082E-18
 -1      2896 1.27233E-04-8.02765E-06-5.14801E-05 5.52415E-06-3.28765E-18-3.65577E-18
 -1      2897 1.42801E-04-5.31154E-05-3.84468E-05-5.66332E-06 1.90834E-18-4.79124E-18
 -1      2898 1.43448E-04-4.70997E-05-4.20054E-05 1.49857E-06 7.35913E-19-5.18866E-18
 -1      2899 9.52372E-05-2.85725E-05-2.85706E-05 2.99074E-09 8.08246E-19-1.59794E-18
 -1      2900 8.76925E-05-1.49444E-05-3.12377E-05-7.81341E-06 2.59532E-18 3.19550E-19
 -1      2901 8.19246E-05-9.75627E-06-3.08662E-05-2.23257E-06 3.37540E-18-5.26434E-19
 -1      2902 7.77669E-05-8.29479E-06-2.97149E-05-2.22519E-06 3.27825E-18-1.06938E-18
 -1      2903 8.62500E-05-1.46832E-05-3.06334E-05-1.19788E-05 2.14183E-18-1.21639E-19
 -1      2904 9.81713E-05-2.24143E-05-3.24630E-05-6.06170E-06 4.52632E-19-3.61230E-18
 -1      2905 9.79925E-05-2.26057E-05-3.23877E-05-7.78832E-06-1.09644E-19-3.77900E-18
 -1      2906 1.00094E-04-2.49413E-05-3.21952E-05-4.91547E-06 5.18180E-19-3.17122E-18
 -1      2907 9.38324E-05-2.12345E-05-3.11701E-05 1.01832E-05 2.75243E-18-2.47378E-18
 -1      2908 9.28842E-05-1.90118E-05-3.16736E-05 7.81996E-06 2.67299E-18-2.81117E-18
 -1      2909 9.48252E-05-2.02492E-05-3.19556E-05 5.53768E-06 2.31903E-18-3.00439E-18
 -1      2910 7.20128E-05-1.10120E-05-2.58944E-05 1.32468E-05 2.15755E-19 8.33123E-19
 -1      2911 1.40783E-04-4.65315E-05-4.04797E-05-2.13644E-06-1.65627E-18 1.52011E-18
 -1      2912 9.73573E-05-2.35637E-05-3.16924E-05-1.09322E-05-1.48787E-18-3.68881E-18
 -1      2913 9.77267E-05-2.54650E-05-3.10130E-05-9.75351E-06-1.37143E-18-3.32687E-18
 -1      2914 8.81892E-05-4.06290E-05-2.01177E-05-4.44791E-05 3.68332E-18 1.80159E-18
 -1      2915 9.80169E-05-4.77451E-05-2.08632E-05-4.55419E-05 4.51479E-18 1.29702E-18
 -1      2916 6.14843E-05-2.30383E-05-1.59258E-05-3.30404E-05-1.82303E-18-4.70633E-18
 -1      2917 8.24198E-05-3.69020E-05-1.90805E-05-3.77901E-05-2.92015E-18-3.75151E-18
 -1      2918 6.15325E-05-2.46659E-05-1.52742E-05-4.06931E-05 3.10168E-18 3.97047E-18
 -1      2919 1.30215E-04-1.97384E-05-4.78412E-05-1.30065E-05-3.60878E-18-2.65227E-19
 -1      2920 1.36913E-04-2.60656E-05-4.79116E-05-1.26239E-05-3.76093E-18 1.91853E-19
 -1      2921 1.34369E-04-3.21420E-05-4.40813E-05-1.13961E-05-2.88335E-18 6.80432E-19
 -1      2922 1.16407E-04-4.96291E-05-2.85689E-05 2.92961E-05 2.84101E-18 6.30735E-19
 -1      2923 1.08744E-04-4.83385E-05-2.56329E-05 3.79747E-05 2.91914E-18 2.39446E-19
 -1      2924 9.80603E-05-3.99126E-05-2.47622E-05 3.76458E-05 3.55187E-18-4.85535E-19
 -1      2925 9.52398E-05-2.85748E-05-2.85707E-05-1.08409E-09 2.07223E-19-2.57488E-18
 -1      2926 4.01346E-05-3.58155E-06-1.49995E-05-2.28878E-06 1.85414E-18-5.05689E-18
 -1      2927 9.52378E-05-2.85731E-05-2.85706E-05-3.42945E-09 7.14384E-19-1.87794E-19
 -1      2928 1.34448E-04-5.54848E-05-3.37732E-05 1.67378E-05 6.80115E-19 1.35059E-18
 -1      2929 6.85275E-05-9.17376E-06-2.52055E-05-1.76800E-05 1.11898E-18-2.28998E-18
 -1      2930 9.52376E-05-2.85729E-05-2.85706E-05 3.00212E-09 6.25988E-19-1.00492E-18
 -1      2931 7.26926E-05-2.61705E-05-1.94490E-05 4.07440E-05 4.20224E-18-2.30599E-18
 -1      2932 3.69968E-05-5.95632E-06-1.25878E-05 3.97276E-06-2.55063E-19 3.37289E-18
 -1      2933 7.69412E-05-9.65172E-06-2.86658E-05-1.03886E-05 2.39449E-18-1.27994E-18
 -1      2934 6.07028E-05-1.73557E-05-1.80742E-05-2.77279E-05-1.01882E-18-4.44629E-18
 -1      2935 5.09125E-05-1.47808E-05-1.49587E-05 2.52647E-05-1.71551E-18 3.07219E-18
 -1      2936 3.99860E-05-9.70612E-06-1.23245E-05-2.30058E-05 1.20189E-18 3.82435E-18
 -1      2937 6.19023E-05-9.39168E-06-2.21036E-05 1.80026E-05-9.82955E-19 1.14723E-18
 -1      2938 9.52375E-05-2.85728E-05-2.85706E-05 3.41196E-09 3.09618E-19-2.02706E-18
 -1      2939 9.52379E-05-2.85732E-05-2.85706E-05 3.15729E-09 8.92737E-19-6.84531E-19
 -1      2940 9.52381E-05-2.85733E-05-2.85706E-05 3.38195E-09 1.17198E-18-1.25422E-18
 -1      2941 9.52375E-05-2.85727E-05-2.85706E-05 3.66952E-09 8.09290E-19-1.77804E-18
 -1      2942 9.62519E-05-2.10949E-05-3.22066E-05 2.80601E-06 1.96749E-18-3.03388E-18
 -1      2943 9.72814E-05-2.17807E-05-3.23810E-05 4.61938E-07 1.56065E-18-3.22854E-18
 -1      2944 9.97964E-05-2.47400E-05-3.21755E-05-5.42792E-07 1.26548E-18-3.00019E-18
 -1      2945 9.79025E-05-2.37200E-05-3.18263E-05 4.73844E-06 1.96909E-18-2.70066E-18
 -1      2946 1.38042E-04-3.97382E-05-4.23019E-05 7.61891E-06 3.30184E-19-4.48631E-18
 -1      2947 9.08889E-05-3.76489E-05-2.25178E-05-3.57903E-05-3.01544E-18-2.47185E-18
 -1      2948 1.31284E-04-1.94237E-05-4.82815E-05 1.16533E-05-1.62133E-18-4.35523E-18
 -1      2949 9.87839E-05-2.59529E-05-3.12095E-05-9.50423E-06-1.06083E-18-3.14353E-18
 -1      2950 1.37563E-04-5.77708E-05-3.46951E-05-1.66631E-05 2.66471E-18-4.09604E-18
 -1      2951 1.36616E-04-5.47122E-05-3.51193E-05-8.81591E-06 2.01731E-18-3.71339E-18
 -1      2952 1.30864E-04-5.90862E-05-3.03794E-05-2.68693E-05 3.57607E-18-2.45317E-18
 -1      2953 9.13608E-05-2.39785E-05-2.89071E-05 3.23700E-06 2.96695E-19 3.12823E-18
 -1      2954 9.04187E-05-2.30406E-05-2.88929E-05 3.81180E-06 9.00483E-19 3.15289E-18
 -1      2955 7.04198E-05-5.01090E-06-2.81499E-05 4.62285E-06 3.61347E-18-1.99093E-18
 -1      2956 6.96047E-05-4.58553E-06-2.78029E-05 8.86874E-06 3.79570E-18-2.15613E-18
 -1      2957 8.15860E-05-3.37302E-05-1.99846E-05-4.05715E-05 2.98849E-18 2.01128E-18
 -1      2958 9.29289E-05-4.09082E-05-2.25347E-05-3.95086E-05 3.11192E-18 1.61635E-18
 -1      2959 9.52403E-05-2.85749E-05-2.85709E-05 3.41813E-10 1.81342E-18 1.19103E-18
 -1      2960 9.52403E-05-2.85749E-05-2.85709E-05-2.38618E-10 9.64818E-19-7.04545E-19
 -1      2961 1.26765E-04-6.55474E-06-5.19898E-05-2.83288E-06-3.90779E-18-2.67533E-18
 -1      2962 1.34543E-04-6.94473E-06-5.53667E-05-5.45976E-06-4.75715E-18-1.76053E-18
 -1      2963 9.74927E-05-2.23529E-05-3.21753E-05-9.63108E-06-5.36958E-19-3.73213E-18
 -1      2964 1.12763E-04-5.42338E-05-2.52882E-05-4.01721E-05 3.76146E-18 2.65611E-19
 -1      2965 1.27039E-04-2.26016E-05-4.48146E-05 1.30103E-05-1.10993E-18-4.18463E-18
 -1      2966 1.23900E-04-1.53191E-05-4.71058E-05 1.05690E-05-2.01943E-18-3.80964E-18
 -1      2967 5.78096E-05-1.74083E-05-1.67332E-05-3.29059E-05 2.05543E-18 3.71138E-18
 -1      2968 6.94982E-05-2.61660E-05-1.84478E-05-3.87160E-05 2.75217E-18 3.18410E-18
 -1      2969 7.66660E-05-2.71782E-05-2.09352E-05-3.45074E-05 2.05938E-18 2.37090E-18
 -1      2970 1.01712E-04-3.02195E-05-3.06280E-05-8.50726E-06-7.17764E-19-2.29917E-18
 -1      2971 1.01559E-04-3.04320E-05-3.05030E-05-8.51663E-06-7.62007E-19-2.19008E-18
 -1      2972 1.01626E-04-3.03760E-05-3.05400E-05-8.87271E-06-8.89924E-19-1.97345E-18
 -1      2973 1.01059E-04-2.97895E-05-3.05434E-05-8.86541E-06-9.48308E-19-2.03225E-18
 -1      2974 1.03626E-04-3.10275E-05-3.10945E-05-8.84615E-06-7.77463E-19-2.02921E-18
 -1      2975 1.00496E-04-2.89104E-05-3.07045E-05-8.95580E-06-1.04367E-18-1.82774E-18
 -1      2976 9.96235E-05-2.77142E-05-3.07944E-05-8.55966E-06-1.11980E-18-1.88138E-18
 -1      2977 1.03144E-04-2.99289E-05-3.13510E-05-9.39463E-06-9.09518E-19-1.54574E-18
 -1      2978 9.85813E-05-2.62991E-05-3.10141E-05-7.94521E-06-1.04868E-18-1.82226E-18
 -1      2979 9.76324E-05-2.48996E-05-3.11320E-05-6.87983E-06-1.03114E-18-1.85504E-18
 -1      2980 1.01518E-04-2.72672E-05-3.18015E-05-8.98757E-06-1.05353E-18-1.46194E-18
 -1      2981 9.65277E-05-2.35064E-05-3.13226E-05-5.31627E-06-1.02792E-18-1.86476E-18
 -1      2982 9.58312E-05-2.24748E-05-3.14033E-05-3.56858E-06-9.07659E-19-1.93254E-18
 -1      2983 9.93134E-05-2.39979E-05-3.22784E-05-6.83852E-06-1.06614E-18-1.50917E-18
 -1      2984 9.52029E-05-2.17557E-05-3.14783E-05-1.25156E-06-8.28391E-19-1.96395E-18
 -1      2985 9.50338E-05-2.15756E-05-3.14711E-05 8.43815E-07-8.11231E-19-1.98700E-18
 -1      2986 9.75250E-05-2.15398E-05-3.25885E-05-2.83816E-06-8.37827E-19-1.79074E-18
 -1      2987 9.52025E-05-2.19121E-05-3.13812E-05 3.28901E-06-7.88946E-19-2.08650E-18
 -1      2988 9.56197E-05-2.27019E-05-3.12713E-05 5.18679E-06-6.82210E-19-2.07363E-18
 -1      2989 9.70570E-05-2.11019E-05-3.25778E-05 2.13335E-06-8.05190E-19-1.81347E-18
 -1      2990 9.64583E-05-2.39546E-05-3.10307E-05 7.02235E-06-6.25322E-19-1.96884E-18
 -1      2991 9.72515E-05-2.53779E-05-3.08442E-05 8.25431E-06-2.46382E-19-1.99210E-18
 -1      2992 9.81124E-05-2.29815E-05-3.22074E-05 6.59497E-06-6.52251E-19-1.87486E-18
 -1      2993 9.82880E-05-2.70125E-05-3.05118E-05 9.08441E-06-1.95748E-19-1.85130E-18
 -1      2994 9.91471E-05-2.85578E-05-3.02934E-05 9.47571E-06-2.89393E-20-1.98937E-18
 -1      2995 1.00045E-04-2.63543E-05-3.15657E-05 9.26776E-06-1.37171E-19-1.39398E-18
 -1      2996 9.98946E-05-2.99866E-05-2.99446E-05 9.31417E-06 1.19845E-19-1.94374E-18
 -1      2997 1.00536E-04-3.12016E-05-2.97405E-05 8.99940E-06 3.89276E-19-1.72646E-18
 -1      2998 1.01884E-04-2.99465E-05-3.08038E-05 9.82163E-06 1.42860E-19-1.64466E-18
 -1      2999 1.00766E-04-3.20861E-05-2.94362E-05 8.19623E-06 4.66459E-19-1.76128E-18
 -1      3000 1.01070E-04-3.27738E-05-2.92762E-05 7.46043E-06 5.52266E-19-1.54112E-18
 -1      3001 1.02868E-04-3.26286E-05-3.00760E-05 8.70030E-06 5.49879E-19-1.75832E-18
 -1      3002 1.00821E-04-3.30742E-05-2.90470E-05 6.41551E-06 3.46410E-19-1.40038E-18
 -1      3003 1.00812E-04-3.32674E-05-2.89402E-05 5.53599E-06-5.89075E-20-1.22726E-18
 -1      3004 1.02823E-04-3.39895E-05-2.94849E-05 6.73464E-06 4.19548E-19-1.50934E-18
 -1      3005 1.00257E-04-3.31245E-05-2.87879E-05 4.53550E-06-6.68483E-19-9.02130E-19
 -1      3006 1.00038E-04-3.29703E-05-2.87283E-05 3.70520E-06-7.36097E-19-1.02284E-18
 -1      3007 1.01985E-04-3.41664E-05-2.90638E-05 4.63764E-06-1.15574E-19-1.49066E-18
 -1      3008 9.93669E-05-3.25772E-05-2.86395E-05 2.89327E-06-6.54875E-19-9.95905E-19
 -1      3009 9.90482E-05-3.22408E-05-2.86147E-05 2.20982E-06-3.58588E-19-6.39239E-19
 -1      3010 1.00733E-04-3.35566E-05-2.87972E-05 2.82870E-06-7.20558E-19-7.80336E-19
 -1      3011 9.84002E-05-3.17615E-05-2.85712E-05 1.62212E-06-3.44187E-19-1.17543E-18
 -1      3012 9.80677E-05-3.13722E-05-2.85680E-05 1.11224E-06-6.10206E-19-1.29166E-18
 -1      3013 9.93989E-05-3.25760E-05-2.86498E-05 1.46441E-06-6.60995E-19-7.50499E-19
 -1      3014 9.75180E-05-3.09135E-05-2.85528E-05 7.25686E-07-7.46210E-19-1.32156E-18
 -1      3015 9.72220E-05-3.05510E-05-2.85605E-05 3.76044E-07-5.56520E-19-1.74603E-18
 -1      3016 9.81967E-05-3.15312E-05-2.85828E-05 5.36117E-07-6.81643E-19-1.06712E-18
 -1      3017 9.67961E-05-3.01668E-05-2.85603E-05 1.45995E-07-1.79342E-19-1.33527E-18
 -1      3018 9.65577E-05-2.98688E-05-2.85714E-05-7.38992E-08 4.14549E-19-1.26671E-18
 -1      3019 9.72231E-05-3.05992E-05-2.85634E-05-3.66337E-08-4.62104E-21-8.82065E-19
 -1      3020 9.62502E-05-2.95755E-05-2.85776E-05-1.93262E-07 7.64987E-19-1.23100E-18
 -1      3021 9.60716E-05-2.93513E-05-2.85878E-05-3.17040E-07 1.15349E-18-1.05177E-18
 -1      3022 9.64945E-05-2.98549E-05-2.85679E-05-3.50180E-07 7.81717E-19-4.71540E-19
 -1      3023 9.58628E-05-2.91437E-05-2.85952E-05-3.63942E-07 1.16306E-18-6.86489E-19
 -1      3024 9.57364E-05-2.89871E-05-2.86026E-05-4.21537E-07 4.64240E-19-1.01767E-18
 -1      3025 9.59836E-05-2.93077E-05-2.85813E-05-4.89841E-07 1.34648E-18-5.32726E-19
 -1      3026 9.56026E-05-2.88502E-05-2.86086E-05-4.24558E-07 7.46844E-20-5.31026E-19
 -1      3027 9.55172E-05-2.87483E-05-2.86127E-05-4.39766E-07 1.00199E-19-7.64061E-20
 -1      3028 9.56459E-05-2.89334E-05-2.85951E-05-5.21381E-07 7.34099E-19 7.63868E-21
 -1      3029 9.54367E-05-2.86649E-05-2.86164E-05-4.18772E-07 1.88499E-19-4.17159E-19
 -1      3030 9.53813E-05-2.86037E-05-2.86176E-05-4.09115E-07 5.77681E-19 3.30419E-19
 -1      3031 9.54354E-05-2.86954E-05-2.86055E-05-4.91398E-07 2.63907E-19 1.03387E-19
 -1      3032 9.53365E-05-2.85578E-05-2.86191E-05-3.77113E-07 8.19460E-19-6.55264E-19
 -1      3033 9.53019E-05-2.85248E-05-2.86182E-05-3.54698E-07 5.46732E-19-4.38779E-19
 -1      3034 9.53128E-05-2.85567E-05-2.86114E-05-4.30923E-07 4.42610E-19 2.62753E-20
 -1      3035 9.52795E-05-2.85036E-05-2.86178E-05-3.19685E-07 3.98675E-19-4.04017E-19
 -1      3036 9.52586E-05-2.84889E-05-2.86154E-05-2.92373E-07 5.41028E-19-2.22308E-19
 -1      3037 9.52474E-05-2.84857E-05-2.86131E-05-3.59434E-07 6.31420E-19-9.42840E-19
 -1      3038 9.52496E-05-2.84829E-05-2.86138E-05-2.58902E-07 4.61353E-19-4.10861E-20
 -1      3039 9.52374E-05-2.84793E-05-2.86107E-05-2.31448E-07-1.89867E-20 4.50634E-19
 -1      3040 9.52172E-05-2.84578E-05-2.86117E-05-2.88352E-07 5.32998E-19-7.22223E-20
 -1      3041 9.52356E-05-2.84817E-05-2.86084E-05-2.01817E-07-5.51912E-19 1.62565E-19
 -1      3042 9.52288E-05-2.84842E-05-2.86050E-05-1.76821E-07-2.96264E-19 7.09266E-19
 -1      3043 9.52070E-05-2.84554E-05-2.86081E-05-2.23764E-07-1.11563E-19 3.98336E-19
 -1      3044 9.52305E-05-2.84907E-05-2.86024E-05-1.51920E-07-9.38759E-19 4.84884E-19
 -1      3045 9.52269E-05-2.84960E-05-2.85992E-05-1.30565E-07 4.99196E-20 2.36612E-19
 -1      3046 9.52073E-05-2.84664E-05-2.86034E-05-1.68371E-07-5.66336E-19 3.29348E-19
 -1      3047 9.52299E-05-2.85039E-05-2.85965E-05-1.10451E-07-2.54565E-19-3.19962E-19
 -1      3048 9.52280E-05-2.85102E-05-2.85936E-05-9.30423E-08 2.53893E-22-7.20703E-19
 -1      3049 9.52123E-05-2.84832E-05-2.85982E-05-1.22828E-07-4.32902E-19 3.09363E-19
 -1      3050 9.52312E-05-2.85180E-05-2.85911E-05-7.73240E-08 1.40055E-18-1.29486E-18
 -1      3051 9.52302E-05-2.85240E-05-2.85886E-05-6.36658E-08 1.82399E-18-7.67232E-19
 -1      3052 9.52187E-05-2.85013E-05-2.85932E-05-8.66379E-08 3.02656E-19-5.04950E-19
 -1      3053 9.52330E-05-2.85309E-05-2.85864E-05-5.17447E-08 1.55712E-18-1.29321E-18
 -1      3054 9.52326E-05-2.85362E-05-2.85843E-05-4.13882E-08 7.77765E-19-1.54917E-18
 -1      3055 9.52247E-05-2.85180E-05-2.85886E-05-5.87260E-08 1.36063E-18-1.62167E-18
 -1      3056 9.52347E-05-2.85419E-05-2.85824E-05-3.26072E-08 2.73391E-19-1.45103E-18
 -1      3057 9.52346E-05-2.85464E-05-2.85808E-05-2.50086E-08-6.90063E-21-1.71071E-18
 -1      3058 9.52298E-05-2.85324E-05-2.85846E-05-3.77962E-08 6.60179E-19-1.90635E-18
 -1      3059 9.52361E-05-2.85508E-05-2.85793E-05-1.87360E-08 4.81691E-19-1.16901E-18
 -1      3060 9.52361E-05-2.85543E-05-2.85780E-05-1.33498E-08 3.87333E-19-6.30210E-19
 -1      3061 9.52336E-05-2.85441E-05-2.85812E-05-2.25431E-08 4.55146E-19-5.75226E-19
 -1      3062 9.52371E-05-2.85577E-05-2.85768E-05-9.02181E-09-1.00513E-19-6.00271E-19
 -1      3063 9.52371E-05-2.85603E-05-2.85758E-05-5.35111E-09-1.90330E-19-8.94399E-19
 -1      3064 9.52362E-05-2.85531E-05-2.85785E-05-1.17657E-08 1.33878E-20-4.82739E-19
 -1      3065 9.52377E-05-2.85628E-05-2.85749E-05-2.48944E-09-5.88556E-19-1.01818E-18
 -1      3066 9.52377E-05-2.85647E-05-2.85742E-05-1.08041E-10-1.14187E-18-1.35123E-18
 -1      3067 9.52379E-05-2.85599E-05-2.85763E-05-4.42131E-09-2.29814E-19 6.40982E-19
 -1      3068 9.52380E-05-2.85664E-05-2.85735E-05 1.67791E-09-4.18711E-19-1.28839E-18
 -1      3069 9.52380E-05-2.85678E-05-2.85730E-05 3.11948E-09-2.74037E-20-3.79531E-19
 -1      3070 9.52389E-05-2.85647E-05-2.85747E-05 3.58831E-10-4.28739E-19 3.16571E-19
 -1      3071 9.52381E-05-2.85690E-05-2.85725E-05 4.13894E-09 8.94210E-19 5.35787E-19
 -1      3072 9.52382E-05-2.85699E-05-2.85721E-05 4.91708E-09 9.68775E-19 7.21979E-19
 -1      3073 9.52394E-05-2.85681E-05-2.85734E-05 3.27486E-09 9.75019E-19 3.42844E-19
 -1      3074 9.52381E-05-2.85706E-05-2.85718E-05 5.40796E-09 1.50376E-19 6.04004E-19
 -1      3075 9.52381E-05-2.85712E-05-2.85716E-05 5.73424E-09-2.01188E-19-2.07643E-19
 -1      3076 9.52395E-05-2.85703E-05-2.85725E-05 4.87497E-09 5.40995E-19-3.01192E-19
 -1      3077 9.52380E-05-2.85716E-05-2.85713E-05 5.87439E-09-7.56310E-19 2.53190E-20
 -1      3078 9.52381E-05-2.85720E-05-2.85712E-05 5.90550E-09-8.38208E-19-7.88470E-19
 -1      3079 9.52394E-05-2.85717E-05-2.85719E-05 5.57673E-09 3.56477E-19 1.50470E-18
 -1      3080 9.52379E-05-2.85722E-05-2.85710E-05 5.82379E-09 1.59578E-19-1.23904E-18
 -1      3081 9.52379E-05-2.85724E-05-2.85709E-05 5.67154E-09 2.38763E-18-1.07290E-18
 -1      3082 9.52391E-05-2.85725E-05-2.85714E-05 5.68913E-09-9.57272E-20 4.30901E-19
 -1      3083 9.52378E-05-2.85725E-05-2.85708E-05 5.45769E-09 2.09541E-18-1.66899E-18
 -1      3084 9.52378E-05-2.85726E-05-2.85708E-05 5.19804E-09-1.29073E-19-2.38851E-18
 -1      3085 9.52388E-05-2.85729E-05-2.85711E-05 5.43338E-09 1.47473E-18-1.49046E-18
 -1      3086 9.52377E-05-2.85726E-05-2.85707E-05 4.91177E-09-1.60903E-18-2.72299E-18
 -1      3087 9.52377E-05-2.85727E-05-2.85707E-05 4.59147E-09-1.53091E-18-3.14099E-18
 -1      3088 9.52385E-05-2.85730E-05-2.85709E-05 4.96122E-09-8.63174E-19-4.10453E-18
 -1      3089 9.52375E-05-2.85727E-05-2.85706E-05 4.31919E-09-8.58131E-19-2.69654E-18
 -1      3090 9.52376E-05-2.85727E-05-2.85706E-05 3.96176E-09 6.18218E-19-2.07683E-18
 -1      3091 9.52379E-05-2.85730E-05-2.85707E-05 3.86400E-09 5.58321E-19-2.10222E-18
 -1      3092 9.52382E-05-2.85731E-05-2.85708E-05 4.42068E-09-3.72900E-19-3.17836E-18
 -1      3093 8.88209E-05-2.17996E-05-2.87653E-05 4.05456E-06 6.65176E-19 2.74313E-18
 -1      3094 8.72760E-05-2.04834E-05-2.86582E-05 4.72198E-06 6.28973E-19 2.29977E-18
 -1      3095 8.85279E-05-2.17393E-05-2.85640E-05 2.62151E-06 6.37674E-19 1.90093E-18
 -1      3096 1.29307E-04-1.06550E-05-5.12607E-05-8.73152E-06-4.20499E-18-1.18399E-18
 -1      3097 8.57740E-05-2.71750E-05-2.44410E-05-3.37297E-05-1.96962E-18-1.99624E-18
 -1      3098 9.52388E-05-2.85737E-05-2.85707E-05 3.28242E-09 1.16731E-18-4.89732E-19
 -1      3099 9.52392E-05-2.85740E-05-2.85708E-05 2.97272E-09 2.65247E-18 1.46971E-18
 -1      3100 8.48439E-05-1.88028E-05-2.83628E-05 4.86529E-06 6.75088E-19 2.40212E-18
 -1      3101 8.24079E-05-1.70608E-05-2.80573E-05 5.57222E-06 7.65049E-19 1.93986E-18
 -1      3102 8.46629E-05-1.88468E-05-2.81135E-05 2.65521E-06 5.64291E-19 2.26347E-18
 -1      3103 9.39147E-05-2.65339E-05-2.88910E-05 1.89522E-06 4.92768E-19 1.20001E-18
 -1      3104 9.35959E-05-2.61017E-05-2.89279E-05 2.25630E-06 4.74585E-19 1.56252E-18
 -1      3105 9.44947E-05-2.72247E-05-2.88390E-05 1.41087E-06-1.28386E-18 4.86221E-19
 -1      3106 9.43185E-05-2.69390E-05-2.88763E-05 1.68324E-06-2.64823E-19 1.17003E-18
 -1      3107 9.36863E-05-2.64189E-05-2.88147E-05 1.53139E-06 2.66626E-19 6.57234E-19
 -1      3108 9.48349E-05-2.76813E-05-2.87861E-05 1.03735E-06-1.29366E-18-4.59526E-19
 -1      3109 9.47418E-05-2.74941E-05-2.88188E-05 1.23907E-06-1.30185E-18-5.03752E-19
 -1      3110 9.43159E-05-2.71266E-05-2.87870E-05 1.18493E-06-6.39000E-19-1.47722E-19
 -1      3111 9.50298E-05-2.79816E-05-2.87389E-05 7.54929E-07-1.72281E-19-1.80618E-19
 -1      3112 9.49839E-05-2.78594E-05-2.87658E-05 9.02600E-07-1.23313E-18-5.54679E-19
 -1      3113 9.46999E-05-2.76022E-05-2.87513E-05 8.98034E-07-9.51119E-19-7.12190E-19
 -1      3114 9.51384E-05-2.81788E-05-2.86995E-05 5.44140E-07-2.83030E-19 2.57244E-19
 -1      3115 9.51183E-05-2.80989E-05-2.87209E-05 6.51477E-07 2.90211E-19 4.28500E-19
 -1      3116 9.49307E-05-2.79200E-05-2.87161E-05 6.69523E-07-2.88136E-19-5.79244E-19
 -1      3117 9.51966E-05-2.83087E-05-2.86680E-05 3.88108E-07-2.93660E-19-8.80123E-19
 -1      3118 9.51901E-05-2.82562E-05-2.86845E-05 4.65848E-07-1.33261E-20-5.98451E-19
 -1      3119 9.50674E-05-2.81321E-05-2.86850E-05 4.92002E-07 7.29167E-20-1.12601E-18
 -1      3120 9.52272E-05-2.83980E-05-2.86422E-05 2.68659E-07-9.54781E-19-1.73798E-18
 -1      3121 9.52272E-05-2.83622E-05-2.86553E-05 3.26721E-07-9.95103E-19-1.37794E-18
 -1      3122 9.51483E-05-2.82766E-05-2.86584E-05 3.53777E-07 2.24303E-19-2.41667E-18
 -1      3123 9.52406E-05-2.84542E-05-2.86234E-05 1.86432E-07-6.51391E-19-1.72180E-18
 -1      3124 9.52434E-05-2.84315E-05-2.86328E-05 2.26039E-07-1.03080E-18-1.98909E-18
 -1      3125 9.51941E-05-2.83734E-05-2.86371E-05 2.50051E-07-8.72158E-19-1.89597E-18
 -1      3126 9.52457E-05-2.84920E-05-2.86092E-05 1.26747E-07-2.35428E-19-1.38381E-18
 -1      3127 9.52493E-05-2.84767E-05-2.86161E-05 1.55043E-07-3.45718E-19-1.58457E-18
 -1      3128 9.52187E-05-2.84368E-05-2.86207E-05 1.75176E-07-3.52439E-19-1.51150E-18
 -1      3129 9.52468E-05-2.85178E-05-2.85984E-05 8.38421E-08-1.68763E-18-1.36930E-18
 -1      3130 9.52502E-05-2.85073E-05-2.86036E-05 1.03930E-07-4.17377E-19-1.30572E-18
 -1      3131 9.52319E-05-2.84800E-05-2.86079E-05 1.20034E-07-1.13254E-18-7.13995E-19
 -1      3132 9.52461E-05-2.85355E-05-2.85904E-05 5.33373E-08-1.25572E-19-7.45457E-19
 -1      3133 9.52489E-05-2.85283E-05-2.85942E-05 6.74538E-08-1.52204E-18-1.04634E-18
 -1      3134 9.52386E-05-2.85098E-05-2.85981E-05 7.99117E-08-1.18153E-18-6.19080E-19
 -1      3135 9.52446E-05-2.85477E-05-2.85845E-05 3.19571E-08 1.35024E-18-8.07105E-19
 -1      3136 9.52469E-05-2.85427E-05-2.85872E-05 4.17386E-08 2.34870E-19-8.92311E-19
 -1      3137 9.52417E-05-2.85303E-05-2.85906E-05 5.11126E-08 1.30608E-19-9.17019E-19
 -1      3138 9.52431E-05-2.85562E-05-2.85802E-05 1.72540E-08 2.54093E-18 1.16633E-18
 -1      3139 9.52448E-05-2.85527E-05-2.85821E-05 2.39004E-08 1.96471E-18 6.49845E-19
 -1      3140 9.52428E-05-2.85446E-05-2.85850E-05 3.07793E-08 6.53585E-19-5.70142E-19
 -1      3141 9.52417E-05-2.85620E-05-2.85771E-05 7.39832E-09 1.39999E-18 2.16778E-18
 -1      3142 9.52429E-05-2.85596E-05-2.85784E-05 1.17927E-08 2.74845E-18 1.87898E-18
 -1      3143 9.52429E-05-2.85545E-05-2.85808E-05 1.67166E-08 2.02114E-18 1.31115E-18
 -1      3144 9.52406E-05-2.85660E-05-2.85749E-05 1.02354E-09-6.82872E-19 1.73154E-18
 -1      3145 9.52414E-05-2.85643E-05-2.85758E-05 3.81682E-09 5.66911E-19 1.82843E-18
 -1      3146 9.52425E-05-2.85612E-05-2.85777E-05 7.24819E-09 9.14113E-19 1.80732E-18
 -1      3147 9.52397E-05-2.85687E-05-2.85733E-05-2.88793E-09 2.22198E-18 1.29129E-18
 -1      3148 9.52402E-05-2.85675E-05-2.85739E-05-1.21658E-09 2.85319E-19 8.38726E-19
 -1      3149 9.52419E-05-2.85658E-05-2.85755E-05 1.10115E-09 6.00931E-19 3.84605E-19
 -1      3150 9.52390E-05-2.85704E-05-2.85723E-05-5.08942E-09 1.91279E-18 2.34858E-18
 -1      3151 9.52393E-05-2.85696E-05-2.85727E-05-4.18878E-09 2.65038E-18 2.11116E-18
 -1      3152 9.52412E-05-2.85689E-05-2.85739E-05-2.68389E-09 1.35052E-18 2.03364E-19
 -1      3153 9.52385E-05-2.85715E-05-2.85716E-05-6.13345E-09 1.54408E-18 2.76049E-18
 -1      3154 9.52386E-05-2.85710E-05-2.85718E-05-5.74833E-09 1.95565E-18 2.84634E-18
 -1      3155 9.52406E-05-2.85708E-05-2.85728E-05-4.82336E-09 1.72522E-18 1.30583E-18
 -1      3156 9.52381E-05-2.85721E-05-2.85711E-05-6.41959E-09-1.33805E-18 4.08529E-18
 -1      3157 9.52382E-05-2.85718E-05-2.85713E-05-6.36725E-09 8.33524E-19 3.54477E-18
 -1      3158 9.52399E-05-2.85720E-05-2.85720E-05-5.84586E-09 6.12145E-19 3.38802E-18
 -1      3159 9.52378E-05-2.85725E-05-2.85709E-05-6.23088E-09-2.54249E-18 4.24950E-18
 -1      3160 9.52378E-05-2.85723E-05-2.85709E-05-6.38333E-09-1.89619E-18 4.07217E-18
 -1      3161 9.52394E-05-2.85727E-05-2.85715E-05-6.13509E-09-1.68611E-18 3.39886E-18
 -1      3162 9.52376E-05-2.85726E-05-2.85707E-05-5.76162E-09 2.98311E-19 1.86355E-18
 -1      3163 9.52376E-05-2.85725E-05-2.85707E-05-6.03235E-09-1.36181E-18 2.58179E-18
 -1      3164 9.52389E-05-2.85730E-05-2.85711E-05-5.96342E-09-7.13572E-19 2.22015E-18
 -1      3165 9.52375E-05-2.85727E-05-2.85706E-05-5.14024E-09-1.25487E-19 1.66788E-18
 -1      3166 9.52374E-05-2.85726E-05-2.85706E-05-5.47332E-09-2.87145E-20 2.35067E-18
 -1      3167 9.52385E-05-2.85731E-05-2.85709E-05-5.51996E-09 1.95069E-19 7.36401E-19
 -1      3168 9.52399E-05-2.85746E-05-2.85708E-05-2.02045E-09-3.97602E-19-9.49007E-19
 -1      3169 9.52396E-05-2.85744E-05-2.85708E-05-2.49155E-09-7.85459E-19-7.20138E-19
 -1      3170 8.77344E-05-1.88355E-05-2.96162E-05 1.72842E-05 3.62796E-18-1.97184E-18
 -1      3171 9.18516E-05-2.13571E-05-3.01210E-05 1.56139E-05 3.23050E-18-2.12251E-18
 -1      3172 4.33667E-05-1.85575E-06-1.76439E-05 4.17431E-06 2.65462E-18-4.23125E-18
 -1      3173 4.79893E-05-3.99605E-06-1.84112E-05-1.08271E-05 1.46019E-18-4.32813E-18
 -1      3174 1.21164E-04-6.76616E-06-4.95477E-05-1.71889E-07-3.13932E-18-2.88770E-18
 -1      3175 1.21704E-04-7.75543E-06-4.92599E-05-4.83222E-06-3.32842E-18-1.98703E-18
 -1      3176 9.52393E-05-2.85741E-05-2.85708E-05-2.95418E-09-7.62818E-19-1.56794E-18
 -1      3177 9.52389E-05-2.85738E-05-2.85707E-05-3.27121E-09 1.02946E-19-2.11152E-18
 -1      3178 9.52397E-05-2.85743E-05-2.85709E-05-2.91946E-09-7.78056E-19-1.71351E-18
 -1      3179 9.52396E-05-2.85743E-05-2.85708E-05 2.52860E-09 3.53926E-18 2.33573E-18
 -1      3180 9.52398E-05-2.85745E-05-2.85708E-05 2.07201E-09 3.33765E-18 3.57257E-18
 -1      3181 9.52396E-05-2.85742E-05-2.85709E-05 2.95920E-09 3.02882E-18 1.56199E-18
 -1      3182 9.52401E-05-2.85747E-05-2.85709E-05 1.50849E-09 2.96012E-18 2.95540E-18
 -1      3183 9.52402E-05-2.85748E-05-2.85709E-05 9.71657E-10 2.58182E-18 1.65581E-18
 -1      3184 9.52406E-05-2.85749E-05-2.85710E-05 7.07671E-10 2.87586E-18 2.10873E-18
 -1      3185 9.52403E-05-2.85746E-05-2.85710E-05 1.92656E-09 2.99725E-18 3.45718E-18
 -1      3186 1.34899E-04-4.17578E-05-4.03115E-05-7.22121E-06-1.56818E-18 1.41275E-18
 -1      3187 1.36296E-04-4.85757E-05-3.75534E-05 1.04634E-08-5.46204E-19 1.67022E-18
 -1      3188 6.95777E-05-1.83026E-05-2.16654E-05-2.95922E-05-1.00109E-18-3.24721E-18
 -1      3189 9.52402E-05-2.85749E-05-2.85709E-05-8.80172E-10-7.16653E-19-3.10793E-18
 -1      3190 9.52401E-05-2.85748E-05-2.85709E-05-1.43553E-09-5.63237E-19-2.98740E-18
 -1      3191 9.52403E-05-2.85747E-05-2.85710E-05-1.84556E-09-1.80159E-18-2.18303E-18
 -1      3192 9.52406E-05-2.85749E-05-2.85710E-05-5.90774E-10 2.34868E-20-1.81179E-19
 -1      3193 9.29460E-05-2.54998E-05-2.89254E-05 2.50473E-06-9.88248E-20 2.12910E-18
 -1      3194 9.23894E-05-2.48555E-05-2.89500E-05 2.97009E-06 3.19570E-19 2.70918E-18
 -1      3195 9.10526E-05-2.38680E-05-2.87557E-05 2.31911E-06 1.85584E-19 2.71663E-18
 -1      3196 9.26693E-05-2.53767E-05-2.88163E-05 1.92384E-06 7.18123E-19 1.65776E-18
 -1      3197 6.97530E-05-1.03899E-05-2.55212E-05 6.48246E-06 5.13845E-20 1.97572E-18
 -1      3198 6.50437E-05-8.61131E-06-2.41338E-05 7.81599E-06-2.13264E-19 1.19720E-18
 -1      3199 1.00777E-04-2.83454E-05-3.10446E-05-8.59444E-06-6.74151E-19-2.89377E-18
 -1      3200 1.01034E-04-2.93679E-05-3.07501E-05-8.26346E-06-6.80490E-19-2.61433E-18
 -1      3201 1.02880E-04-3.01807E-05-3.11363E-05-8.22856E-06-5.63098E-19-2.38579E-18
 -1      3202 7.88084E-05-1.49694E-05-2.74398E-05 5.54143E-06 1.19115E-18 2.29440E-18
 -1      3203 7.51684E-05-1.28802E-05-2.67441E-05 6.17301E-06 8.55712E-19 2.00624E-18
 -1      3204 7.88446E-05-1.51177E-05-2.71677E-05 2.15967E-06 9.00174E-19 1.55311E-18
 -1      3205 5.43017E-05-1.05629E-05-1.87450E-05 2.93808E-05 4.03571E-18-3.42318E-18
 -1      3206 4.61952E-05-3.38151E-06-1.77530E-05 1.67684E-05 3.55663E-18-3.98338E-18
 -1      3207 1.34578E-04-5.27761E-05-3.53979E-05 8.20571E-06 1.79313E-19 1.57694E-18
 -1      3208 1.28399E-04-5.31154E-05-3.22049E-05 1.75635E-05 1.38764E-18 1.23998E-18
 -1      3209 1.31650E-04-4.83282E-05-3.57168E-05 1.79886E-06 2.56962E-19 1.37696E-18
 -1      3210 1.23383E-04-1.05129E-05-4.88282E-05-8.48543E-06-3.65304E-18-1.53366E-18
 -1      3211 1.25706E-04-1.33875E-05-4.85812E-05-1.09302E-05-3.74844E-18-9.86635E-19
 -1      3212 1.18491E-04-5.41884E-05-2.73876E-05-3.10767E-05 3.25033E-18-1.25595E-18
 -1      3213 9.52384E-05-2.85735E-05-2.85707E-05-3.64172E-09 1.07869E-18-3.26958E-20
 -1      3214 9.52377E-05-2.85729E-05-2.85706E-05-3.83230E-09 1.19536E-18 2.01801E-19
 -1      3215 9.52376E-05-2.85728E-05-2.85706E-05-4.21471E-09 1.60979E-18 7.30624E-19
 -1      3216 9.52388E-05-2.85737E-05-2.85708E-05-3.75628E-09 1.41800E-18-1.82550E-18
 -1      3217 1.34442E-04-4.33214E-05-3.89629E-05 6.54744E-06 7.88376E-19-4.06179E-18
 -1      3218 1.31186E-04-3.40623E-05-4.22361E-05 1.15103E-05-1.76553E-19-4.27198E-18
 -1      3219 1.30543E-04-5.35482E-05-3.29340E-05-9.94746E-06 2.08084E-18-3.30531E-18
 -1      3220 1.34222E-04-5.11196E-05-3.60542E-05-1.44595E-06 1.55172E-18-3.55621E-18
 -1      3221 7.34978E-05-7.67481E-06-2.82695E-05-5.11273E-06 2.85252E-18-1.41416E-18
 -1      3222 7.14961E-05-5.45202E-06-2.81299E-05-3.11161E-07 3.29546E-18-1.79426E-18
 -1      3223 6.58042E-05-3.98105E-06-2.65345E-05 2.23222E-06 3.10725E-18-2.24697E-18
 -1      3224 6.95304E-05-6.76859E-06-2.69109E-05-7.35124E-06 2.34686E-18-1.89967E-18
 -1      3225 1.22338E-04-9.66028E-06-4.86748E-05 7.21933E-06-2.74079E-18-3.58144E-18
 -1      3226 1.21536E-04-7.53290E-06-4.93918E-05 3.17431E-06-3.12555E-18-3.25654E-18
 -1      3227 1.17368E-04-8.67891E-06-4.68789E-05 1.30728E-06-2.47477E-18-2.54438E-18
 -1      3228 4.18893E-05-5.79879E-06-1.48956E-05-1.40666E-05 1.00597E-18 3.21227E-18
 -1      3229 4.83516E-05-1.13173E-05-1.56746E-05-2.60121E-05 1.63800E-18 3.02645E-18
 -1      3230 5.87041E-05-1.40590E-05-1.87542E-05-2.52941E-05 1.51100E-18 3.18786E-18
 -1      3231 8.08503E-05-2.80142E-05-2.26497E-05 3.77326E-05 4.22090E-18-1.55939E-18
 -1      3232 6.64409E-05-1.78882E-05-2.02239E-05 3.50928E-05 4.41235E-18-2.73809E-18
 -1      3233 5.44752E-05-8.02331E-06-1.94229E-05-1.95802E-05 4.42482E-19-4.07423E-18
 -1      3234 9.91771E-05-2.46855E-05-3.18944E-05-8.60851E-06-4.43321E-19-3.40528E-18
 -1      3235 1.09548E-04-4.88911E-05-2.54751E-05-3.38301E-05 3.37913E-18-4.02344E-19
 -1      3236 1.22559E-04-5.42548E-05-2.95036E-05-2.30160E-05 2.86804E-18-2.73242E-18
 -1      3237 5.77793E-05-6.22450E-06-2.17140E-05-1.34182E-05 1.18274E-18-3.29030E-18
 -1      3238 9.54868E-05-2.37883E-05-3.07414E-05 1.26165E-05 2.97216E-18-2.13675E-18
 -1      3239 9.82553E-05-2.54844E-05-3.11603E-05 9.91375E-06 2.56884E-18-2.22295E-18
 -1      3240 9.60592E-05-2.59608E-05-3.01104E-05 1.57021E-05 2.95110E-18-1.88514E-18
 -1      3241 6.87640E-05-6.13871E-06-2.67161E-05 1.25246E-05 3.69361E-18-2.31098E-18
 -1      3242 7.13198E-05-6.65273E-06-2.78352E-05 1.37080E-05 4.05951E-18-2.14831E-18
 -1      3243 7.40842E-05-8.34549E-06-2.79883E-05 1.61606E-05 4.07035E-18-2.10140E-18
 -1      3244 1.01768E-04-4.30470E-05-2.49612E-05-3.23576E-05 2.71823E-18-1.22145E-19
 -1      3245 6.50342E-05-1.32910E-05-2.19629E-05 2.81052E-05 4.03198E-18-2.79981E-18
 -1      3246 1.25132E-04-2.86025E-05-4.15337E-05 1.22949E-05-3.96147E-19-3.71757E-18
 -1      3247 7.03279E-05-1.07388E-05-2.52965E-05 1.58450E-06 6.73656E-20 2.28464E-18
 -1      3248 8.29437E-05-1.50758E-05-2.89293E-05 1.84710E-05 3.91833E-18-2.08305E-18
 -1      3249 8.67444E-05-1.98958E-05-2.86965E-05 2.02901E-05 3.64412E-18-1.82499E-18
 -1      3250 7.84691E-05-1.23583E-05-2.84945E-05 1.82614E-05 4.14830E-18-1.95699E-18
 -1      3251 1.25354E-04-1.94944E-05-4.56721E-05-1.22087E-05-3.01051E-18-4.51098E-19
 -1      3252 1.22119E-04-5.08799E-05-3.05066E-05 2.21350E-05 2.28364E-18 6.06297E-19
 -1      3253 1.12799E-04-4.50277E-05-2.90259E-05 2.50881E-05 2.85688E-18 1.13297E-19
 -1      3254 1.23868E-04-4.87360E-05-3.21473E-05 1.33505E-05 1.95690E-18 8.57766E-19
 -1      3255 1.02133E-04-2.73510E-05-3.20158E-05 6.32821E-07 1.39547E-18-2.58605E-18
 -1      3256 1.02402E-04-2.75942E-05-3.21002E-05-1.79573E-06 9.78488E-19-2.80814E-18
 -1      3257 5.15215E-05-3.07477E-06-2.05342E-05 8.84138E-06 3.03547E-18-3.63393E-18
 -1      3258 9.52376E-05-2.85728E-05-2.85706E-05-4.49141E-09 1.29382E-18 1.76337E-18
 -1      3259 9.52375E-05-2.85727E-05-2.85706E-05-4.85763E-09 3.14164E-19 1.62541E-18
 -1      3260 9.52384E-05-2.85732E-05-2.85708E-05-4.96264E-09-3.03633E-19 1.39725E-18
 -1      3261 9.52383E-05-2.85732E-05-2.85707E-05-4.36963E-09 2.27531E-18 1.84776E-18
 -1      3262 1.30184E-04-4.51467E-05-3.64502E-05 4.34674E-06 1.00788E-18-3.48779E-18
 -1      3263 1.18768E-04-1.04484E-05-4.67130E-05-6.42516E-06-2.87552E-18-1.78748E-18
 -1      3264 6.18846E-05-5.07842E-06-2.42247E-05-9.39576E-06 1.87908E-18-2.61953E-18
 -1      3265 5.94775E-05-2.92180E-06-2.38195E-05-3.87644E-06 2.44165E-18-2.79108E-18
 -1      3266 1.28257E-04-3.14688E-05-4.17897E-05-1.25538E-05-2.06766E-18 7.91235E-19
 -1      3267 1.32751E-04-3.72340E-05-4.10920E-05-1.05938E-05-1.83091E-18 1.24458E-18
 -1      3268 1.29468E-04-4.03709E-05-3.83031E-05-7.76683E-06-8.37451E-19 1.20816E-18
 -1      3269 4.43384E-05-6.18033E-06-1.58965E-05 1.17859E-05-8.99575E-19 1.91768E-18
 -1      3270 3.94252E-05-4.20228E-06-1.46706E-05-2.55483E-06-1.04627E-19 2.68869E-18
 -1      3271 9.52383E-05-2.85733E-05-2.85707E-05 3.70174E-09 5.91547E-19-1.62702E-18
 -1      3272 9.52386E-05-2.85735E-05-2.85707E-05 3.50440E-09 1.02430E-18-1.52143E-18
 -1      3273 9.52390E-05-2.85737E-05-2.85708E-05 3.61251E-09 8.01714E-19-1.10541E-18
 -1      3274 9.52384E-05-2.85733E-05-2.85708E-05 3.98673E-09 5.37713E-19-2.34887E-18
 -1      3275 4.75409E-05-5.50716E-06-1.76059E-05-6.66034E-06 3.74375E-19 2.05046E-18
 -1      3276 1.04266E-04-2.97115E-05-3.19458E-05-3.00412E-06 5.93143E-19-2.40522E-18
 -1      3277 1.02153E-04-2.72713E-05-3.20667E-05-4.07372E-06 6.48524E-19-2.75376E-18
 -1      3278 1.01791E-04-2.72922E-05-3.19825E-05-5.89611E-06 2.04660E-19-2.95552E-18
 -1      3279 9.88812E-05-3.66070E-05-2.66976E-05 3.10116E-05 3.73654E-18-5.62496E-19
 -1      3280 9.05000E-05-3.25948E-05-2.44547E-05 3.58270E-05 3.98548E-18-1.05890E-18
 -1      3281 8.34360E-05-2.52783E-05-2.49007E-05 3.21388E-05 4.01163E-18-1.61598E-18
 -1      3282 1.18919E-04-1.37956E-05-4.53124E-05 8.93055E-06-1.89058E-18-3.29745E-18
 -1      3283 1.26203E-04-5.38658E-05-3.09756E-05-1.52125E-05 2.32553E-18-3.06194E-18
 -1      3284 1.25193E-04-5.03321E-05-3.20294E-05-7.32117E-06 1.98318E-18-3.00445E-18
 -1      3285 1.17438E-04-4.98126E-05-2.90526E-05-1.93055E-05 2.48307E-18-2.43142E-18
 -1      3286 9.98835E-05-2.63183E-05-3.15340E-05-8.20866E-06-5.04707E-19-3.24080E-18
 -1      3287 1.01312E-04-2.72888E-05-3.16991E-05-7.50902E-06-2.00669E-19-2.97001E-18
 -1      3288 4.93346E-05-8.59218E-06-1.68957E-05 1.90200E-05-1.43318E-18 2.30541E-18
 -1      3289 7.17369E-05-1.34962E-05-2.50241E-05 2.47319E-05 4.18401E-18-2.19567E-18
 -1      3290 6.34556E-05-6.67085E-06-2.40712E-05 1.88331E-05 3.94806E-18-2.75143E-18
 -1      3291 7.38943E-05-2.27524E-05-2.15868E-05-2.96716E-05 1.89952E-18 2.13802E-18
 -1      3292 8.29613E-05-3.01558E-05-2.28124E-05-3.24662E-05 2.16442E-18 1.46436E-18
 -1      3293 5.83867E-05-6.11589E-06-2.19331E-05 8.56980E-07-8.82767E-20 2.42511E-18
 -1      3294 5.83605E-05-6.72625E-06-2.21399E-05 8.65410E-06-5.86041E-20 1.05625E-18
 -1      3295 1.05954E-04-3.16112E-05-3.18832E-05-9.42777E-06-7.47558E-19-1.48624E-18
 -1      3296 1.05374E-04-3.04389E-05-3.21108E-05-9.61923E-06-7.47550E-19-1.32434E-18
 -1      3297 1.04629E-04-2.88319E-05-3.25370E-05-9.88070E-06-8.16291E-19-1.25031E-18
 -1      3298 1.03562E-04-2.68749E-05-3.28320E-05-9.37635E-06-1.04967E-18-1.25633E-18
 -1      3299 1.07626E-04-3.03264E-05-3.30908E-05-1.01730E-05-7.54770E-19-1.06543E-18
 -1      3300 1.02154E-04-2.46655E-05-3.32707E-05-8.44238E-06-1.25218E-18-1.07917E-18
 -1      3301 1.01028E-04-2.26877E-05-3.35262E-05-6.90256E-06-1.02603E-18-1.01478E-18
 -1      3302 1.05427E-04-2.59025E-05-3.40596E-05-9.72979E-06-9.98759E-19-6.73533E-19
 -1      3303 9.97467E-05-2.09163E-05-3.38208E-05-4.57326E-06-1.00134E-18-1.16393E-18
 -1      3304 9.91067E-05-1.98837E-05-3.39260E-05-2.17254E-06-1.00821E-18-1.44997E-18
 -1      3305 1.02640E-04-2.12560E-05-3.48854E-05-6.51314E-06-1.19512E-18-6.94173E-19
 -1      3306 9.87838E-05-1.95652E-05-3.39387E-05 9.45539E-07-8.59925E-19-1.81267E-18
 -1      3307 9.89453E-05-2.00606E-05-3.38284E-05 3.48590E-06-9.02054E-19-1.68854E-18
 -1      3308 1.00959E-04-1.88069E-05-3.52378E-05-8.50463E-07-1.13132E-18-1.05936E-18
 -1      3309 9.97817E-05-2.14233E-05-3.35321E-05 6.19211E-06-7.32879E-19-1.79603E-18
 -1      3310 1.00551E-04-2.32157E-05-3.32299E-05 8.00276E-06-3.41772E-19-1.68589E-18
 -1      3311 1.01554E-04-2.00375E-05-3.49311E-05 5.27495E-06-6.70614E-19-1.67124E-18
 -1      3312 1.01965E-04-2.55229E-05-3.27083E-05 9.53976E-06-2.54638E-19-1.75889E-18
 -1      3313 1.03046E-04-2.78495E-05-3.22906E-05 1.02460E-05-1.28603E-19-1.70773E-18
 -1      3314 1.03577E-04-2.40682E-05-3.40337E-05 9.58150E-06-4.59810E-19-1.61215E-18
 -1      3315 1.04057E-04-3.00943E-05-3.16822E-05 1.01635E-05-1.85586E-19-2.16046E-18
 -1      3316 1.04856E-04-3.20305E-05-3.12511E-05 9.87287E-06 3.52770E-19-2.00505E-18
 -1      3317 1.06242E-04-2.96291E-05-3.27975E-05 1.06646E-05-3.00725E-19-1.96483E-18
 -1      3318 1.05117E-04-3.35201E-05-3.06886E-05 8.83058E-06 6.26447E-19-2.23073E-18
 -1      3319 1.05370E-04-3.46487E-05-3.03180E-05 7.92576E-06 7.29994E-19-2.02516E-18
 -1      3320 1.07539E-04-3.39284E-05-3.15122E-05 9.28904E-06 4.87801E-19-2.55711E-18
 -1      3321 1.04876E-04-3.52017E-05-2.98769E-05 6.56497E-06 5.30710E-19-1.68328E-18
 -1      3322 1.04638E-04-3.55356E-05-2.96013E-05 5.48335E-06 4.57300E-19-1.60740E-18
 -1      3323 1.07253E-04-3.61891E-05-3.04342E-05 6.69636E-06 7.97786E-19-2.21825E-18
 -1      3324 1.03675E-04-3.53694E-05-2.92948E-05 4.23810E-06 3.83208E-20-1.40086E-18
 -1      3325 1.03121E-04-3.51380E-05-2.91123E-05 3.26029E-06-2.70512E-19-1.25596E-18
 -1      3326 1.05737E-04-3.65862E-05-2.96398E-05 4.03055E-06 3.60954E-19-1.73310E-18
 -1      3327 1.02010E-04-3.45701E-05-2.89199E-05 2.32848E-06-3.78415E-19-1.16129E-18
 -1      3328 1.01334E-04-3.40458E-05-2.88126E-05 1.57178E-06-6.47970E-19-9.56609E-19
 -1      3329 1.03614E-04-3.57160E-05-2.91157E-05 1.88839E-06 1.47136E-19-1.54089E-18
 -1      3330 1.00294E-04-3.33402E-05-2.87051E-05 9.67960E-07-9.17517E-19-4.32027E-19
 -1      3331 9.96395E-05-3.27346E-05-2.86510E-05 4.44734E-07-7.84117E-19-5.34517E-19
 -1      3332 1.01440E-04-3.42827E-05-2.88035E-05 4.41429E-07-2.87896E-19-8.00461E-19
 -1      3333 9.87787E-05-3.20587E-05-2.85996E-05 1.05031E-07-4.86008E-19-2.10255E-19
 -1      3334 9.82231E-05-3.14982E-05-2.85788E-05-2.22035E-07-2.64288E-19 1.98720E-21
 -1      3335 9.95355E-05-3.27592E-05-2.86395E-05-4.03436E-07-3.99173E-19 4.13284E-19
 -1      3336 9.75713E-05-3.09341E-05-2.85605E-05-3.78842E-07-3.21286E-19 1.74682E-19
 -1      3337 9.71404E-05-3.04763E-05-2.85578E-05-5.60904E-07 1.77759E-19 1.52729E-19
 -1      3338 9.80312E-05-3.14129E-05-2.85684E-05-8.11761E-07-1.49204E-20 1.15354E-18
 -1      3339 9.66803E-05-3.00473E-05-2.85566E-05-6.04778E-07 1.07508E-18-4.69972E-19
 -1      3340 9.63690E-05-2.97049E-05-2.85620E-05-6.88787E-07 1.29422E-18-2.65224E-19
 -1      3341 9.69318E-05-3.03486E-05-2.85492E-05-9.43436E-07 4.59735E-19 3.30760E-19
 -1      3342 9.60639E-05-2.94022E-05-2.85680E-05-6.70146E-07 1.47750E-18-1.36134E-19
 -1      3343 9.58524E-05-2.91643E-05-2.85755E-05-6.92778E-07 1.82597E-18-1.83188E-19
 -1      3344 9.61791E-05-2.95733E-05-2.85549E-05-9.19171E-07 1.26646E-18-3.42615E-19
 -1      3345 9.56627E-05-2.89651E-05-2.85832E-05-6.44302E-07 1.19012E-18 1.17369E-19
 -1      3346 9.55272E-05-2.88111E-05-2.85897E-05-6.31638E-07 6.46475E-19 3.41856E-19
 -1      3347 9.56947E-05-2.90473E-05-2.85696E-05-8.18905E-07 1.78488E-18 4.75863E-20
 -1      3348 9.54178E-05-2.86899E-05-2.85962E-05-5.72815E-07-3.66024E-20 1.92838E-19
 -1      3349 9.53362E-05-2.85980E-05-2.86006E-05-5.42243E-07 2.00383E-19 3.97453E-20
 -1      3350 9.54035E-05-2.87153E-05-2.85848E-05-6.90724E-07 3.97808E-19 2.04308E-19
 -1      3351 9.52796E-05-2.85316E-05-2.86051E-05-4.83807E-07 2.37049E-19 2.23312E-20
 -1      3352 9.52341E-05-2.84828E-05-2.86072E-05-4.46283E-07 3.19652E-19-2.26158E-19
 -1      3353 9.52431E-05-2.85236E-05-2.85965E-05-5.61113E-07 8.76513E-20-6.78169E-20
 -1      3354 9.52101E-05-2.84524E-05-2.86094E-05-3.93485E-07 4.03009E-19-1.17109E-18
 -1      3355 9.51873E-05-2.84315E-05-2.86096E-05-3.55470E-07 5.10047E-19-9.26554E-19
 -1      3356 9.51662E-05-2.84271E-05-2.86038E-05-4.43105E-07 4.50655E-20-6.06940E-19
 -1      3357 9.51819E-05-2.84233E-05-2.86101E-05-3.10354E-07 7.43522E-19-9.60651E-19
 -1      3358 9.51727E-05-2.84192E-05-2.86089E-05-2.75353E-07 7.96443E-19-3.78956E-19
 -1      3359 9.51390E-05-2.83910E-05-2.86069E-05-3.41825E-07 3.61115E-19-1.49976E-18
 -1      3360 9.51769E-05-2.84234E-05-2.86080E-05-2.38229E-07 1.11613E-19-5.92696E-19
 -1      3361 9.51751E-05-2.84285E-05-2.86060E-05-2.07868E-07-4.29770E-19-6.10078E-19
 -1      3362 9.51391E-05-2.83904E-05-2.86069E-05-2.58172E-07 8.00368E-19-1.59109E-18
 -1      3363 9.51834E-05-2.84388E-05-2.86043E-05-1.78177E-07-4.79799E-19-4.94520E-19
 -1      3364 9.51851E-05-2.84482E-05-2.86019E-05-1.52940E-07-6.28591E-19-1.80407E-19
 -1      3365 9.51523E-05-2.84085E-05-2.86046E-05-1.90976E-07-3.47269E-19-1.43251E-18
 -1      3366 9.51943E-05-2.84606E-05-2.85998E-05-1.29746E-07-9.58966E-19-4.59270E-19
 -1      3367 9.51974E-05-2.84712E-05-2.85973E-05-1.09464E-07-3.10570E-19-5.30643E-19
 -1      3368 9.51702E-05-2.84345E-05-2.86009E-05-1.38186E-07-7.94090E-19-1.12429E-18
 -1      3369 9.52059E-05-2.84834E-05-2.85951E-05-9.17251E-08-3.25261E-19-4.81428E-19
 -1      3370 9.52092E-05-2.84935E-05-2.85927E-05-7.58931E-08 2.36304E-19-5.71515E-19
 -1      3371 9.51880E-05-2.84621E-05-2.85967E-05-9.75128E-08-5.34311E-19-3.54875E-19
 -1      3372 9.52162E-05-2.85044E-05-2.85906E-05-6.26014E-08 7.01653E-19-1.79283E-18
 -1      3373 9.52191E-05-2.85133E-05-2.85884E-05-5.05707E-08 3.11229E-19-2.45282E-18
 -1      3374 9.52036E-05-2.84877E-05-2.85924E-05-6.67518E-08-2.12827E-19-8.69085E-19
 -1      3375 9.52245E-05-2.85224E-05-2.85865E-05-4.08214E-08 9.95193E-19-1.78169E-18
 -1      3376 9.52268E-05-2.85297E-05-2.85846E-05-3.19193E-08 1.24907E-18-1.67922E-18
 -1      3377 9.52161E-05-2.85098E-05-2.85884E-05-4.39236E-08 1.05525E-18-1.38464E-18
 -1      3378 9.52308E-05-2.85370E-05-2.85829E-05-2.49342E-08 1.07483E-18-1.09499E-18
 -1      3379 9.52324E-05-2.85427E-05-2.85814E-05-1.85298E-08 5.02563E-19-5.70538E-19
 -1      3380 9.52256E-05-2.85277E-05-2.85847E-05-2.73269E-08 1.37489E-18-1.86732E-18
 -1      3381 9.52351E-05-2.85483E-05-2.85800E-05-1.36600E-08 2.02742E-19-3.04708E-19
 -1      3382 9.52362E-05-2.85527E-05-2.85787E-05-9.19654E-09 3.49218E-19-1.11654E-19
 -1      3383 9.52323E-05-2.85418E-05-2.85816E-05-1.55401E-08 7.36715E-19-6.43582E-19
 -1      3384 9.52379E-05-2.85567E-05-2.85776E-05-5.91419E-09 1.02929E-19 8.91136E-19
 -1      3385 9.52386E-05-2.85599E-05-2.85766E-05-2.92108E-09-4.14907E-19 9.32409E-19
 -1      3386 9.52367E-05-2.85523E-05-2.85790E-05-7.40173E-09 5.99443E-19 8.27984E-20
 -1      3387 9.52396E-05-2.85628E-05-2.85757E-05-8.05573E-10-1.48445E-18 1.03738E-18
 -1      3388 9.52399E-05-2.85651E-05-2.85750E-05 1.10162E-09-6.64631E-19 1.09395E-18
 -1      3389 9.52395E-05-2.85600E-05-2.85769E-05-1.98012E-09-6.62194E-19 1.68369E-18
 -1      3390 9.52404E-05-2.85671E-05-2.85743E-05 2.37894E-09 3.50561E-19 6.21982E-19
 -1      3391 9.52406E-05-2.85686E-05-2.85737E-05 3.50545E-09 1.36259E-18 1.16954E-18
 -1      3392 9.52410E-05-2.85654E-05-2.85753E-05 1.45903E-09-6.72460E-19 1.27321E-18
 -1      3393 9.52407E-05-2.85699E-05-2.85732E-05 4.19648E-09 1.38856E-18 3.42606E-19
 -1      3394 9.52407E-05-2.85709E-05-2.85728E-05 4.77827E-09 9.88404E-19 1.04708E-18
 -1      3395 9.52416E-05-2.85690E-05-2.85740E-05 3.48452E-09 1.19051E-18 9.23919E-19
 -1      3396 9.52406E-05-2.85716E-05-2.85724E-05 5.07213E-09 6.82002E-19 1.35116E-18
 -1      3397 9.52405E-05-2.85722E-05-2.85721E-05 5.28681E-09 3.54488E-19 1.56898E-18
 -1      3398 9.52416E-05-2.85713E-05-2.85730E-05 4.52894E-09 1.35973E-18 1.38489E-18
 -1      3399 9.52402E-05-2.85726E-05-2.85718E-05 5.32217E-09-1.16696E-19 1.19955E-18
 -1      3400 9.52401E-05-2.85730E-05-2.85716E-05 5.29951E-09 2.61820E-19 9.56835E-19
 -1      3401 9.52413E-05-2.85727E-05-2.85723E-05 4.91473E-09-1.28013E-19 5.55367E-19
 -1      3402 9.52398E-05-2.85732E-05-2.85714E-05 5.17511E-09 5.19217E-19-9.47038E-20
 -1      3403 9.52396E-05-2.85733E-05-2.85713E-05 5.00656E-09 2.58532E-19-1.51210E-18
 -1      3404 9.52408E-05-2.85734E-05-2.85718E-05 4.87573E-09 3.89136E-20 2.28866E-19
 -1      3405 9.52393E-05-2.85734E-05-2.85711E-05 4.79007E-09-1.09659E-18-2.24573E-18
 -1      3406 9.52392E-05-2.85734E-05-2.85710E-05 4.53667E-09-1.75357E-18-2.36396E-18
 -1      3407 9.52402E-05-2.85737E-05-2.85714E-05 4.57796E-09-5.75806E-19-3.09338E-19
 -1      3408 9.45989E-05-2.76017E-05-2.87174E-05 6.96960E-07-5.30946E-19 4.35308E-19
 -1      3409 9.44478E-05-2.74074E-05-2.87336E-05 8.13211E-07-5.92520E-19 7.95830E-19
 -1      3410 8.52744E-05-1.99025E-05-2.80404E-05 4.80043E-07 7.45199E-19 1.33614E-18
 -1      3411 8.28544E-05-1.83805E-05-2.77092E-05 1.60071E-07 7.55962E-19 1.48434E-18
 -1      3412 1.01537E-04-2.72973E-05-3.18336E-05 3.67905E-06 1.67364E-18-2.37011E-18
 -1      3413 1.04335E-04-3.01125E-05-3.18136E-05 2.24861E-06 1.37502E-18-2.15701E-18
 -1      3414 1.00179E-04-2.64509E-05-3.15720E-05 6.48351E-06 2.16943E-18-2.13898E-18
 -1      3415 5.90202E-05-3.88464E-06-2.35387E-05 7.92175E-06 3.29124E-18-2.84457E-18
 -1      3416 9.41982E-05-2.71537E-05-2.87394E-05 8.78466E-07-5.19134E-19 8.30568E-19
 -1      3417 9.39485E-05-2.68677E-05-2.87534E-05 1.01649E-06-3.33868E-19 1.06055E-18
 -1      3418 9.41507E-05-2.71546E-05-2.87047E-05 6.61118E-07-3.37429E-19 1.20163E-18
 -1      3419 9.35646E-05-2.65006E-05-2.87500E-05 1.06749E-06-4.47261E-20 1.14557E-18
 -1      3420 9.31579E-05-2.60827E-05-2.87554E-05 1.21977E-06 9.15945E-19 1.17934E-18
 -1      3421 9.35369E-05-2.65353E-05-2.87025E-05 7.37791E-07-5.48940E-20 1.52767E-18
 -1      3422 9.48498E-05-2.79074E-05-2.86926E-05 5.38248E-07-1.38087E-19-9.75275E-19
 -1      3423 9.47597E-05-2.77758E-05-2.87080E-05 6.32067E-07-3.98728E-19-6.77715E-19
 -1      3424 9.45490E-05-2.75876E-05-2.86928E-05 5.54404E-07-7.60295E-20 1.57868E-19
 -1      3425 9.50054E-05-2.81158E-05-2.86691E-05 4.06421E-07 8.04949E-20-3.66856E-19
 -1      3426 9.49525E-05-2.80266E-05-2.86826E-05 4.80148E-07 2.83749E-19-3.89626E-19
 -1      3427 9.48051E-05-2.78881E-05-2.86757E-05 4.44911E-07-1.98626E-19-5.91352E-19
 -1      3428 9.51048E-05-2.82639E-05-2.86476E-05 2.96186E-07 2.72431E-19-2.81824E-19
 -1      3429 9.50733E-05-2.82010E-05-2.86592E-05 3.55034E-07 1.31635E-19-4.09348E-19
 -1      3430 9.49720E-05-2.81007E-05-2.86573E-05 3.43224E-07-3.92789E-20 1.20876E-18
 -1      3431 9.51620E-05-2.83597E-05-2.86305E-05 2.14777E-07-4.36993E-19-9.28067E-19
 -1      3432 9.51453E-05-2.83190E-05-2.86395E-05 2.57184E-07-3.41193E-19-4.45191E-19
 -1      3433 9.50773E-05-2.82473E-05-2.86403E-05 2.57289E-07 1.77988E-19 5.62592E-19
 -1      3434 9.51966E-05-2.84259E-05-2.86167E-05 1.52357E-07-6.95735E-19-7.59321E-19
 -1      3435 9.51875E-05-2.83978E-05-2.86237E-05 1.84052E-07-5.86412E-19-8.75511E-19
 -1      3436 9.51419E-05-2.83464E-05-2.86260E-05 1.89399E-07-6.05443E-19 2.78397E-19
 -1      3437 9.52173E-05-2.84719E-05-2.86056E-05 1.05382E-07-1.19499E-18-5.86096E-19
 -1      3438 9.52125E-05-2.84523E-05-2.86111E-05 1.28777E-07-5.14227E-19-8.28535E-19
 -1      3439 9.51825E-05-2.84158E-05-2.86140E-05 1.35917E-07-7.97206E-19-1.17295E-19
 -1      3440 9.52294E-05-2.85040E-05-2.85969E-05 7.06217E-08-9.31519E-19-1.03584E-18
 -1      3441 9.52271E-05-2.84903E-05-2.86012E-05 8.76564E-08-1.64874E-18-9.11012E-19
 -1      3442 9.52080E-05-2.84646E-05-2.86041E-05 9.48404E-08-1.02740E-18-7.50910E-19
 -1      3443 9.52364E-05-2.85265E-05-2.85902E-05 4.53533E-08 7.56028E-20-8.92197E-19
 -1      3444 9.52355E-05-2.85169E-05-2.85934E-05 5.75652E-08-4.29869E-19-9.63226E-19
 -1      3445 9.52237E-05-2.84989E-05-2.85962E-05 6.39877E-08-5.23035E-19-7.20465E-19
 -1      3446 9.52402E-05-2.85422E-05-2.85850E-05 2.73454E-08 2.12856E-19 1.54491E-19
 -1      3447 9.52399E-05-2.85355E-05-2.85874E-05 3.59391E-08-1.25832E-19-3.47999E-19
 -1      3448 9.52332E-05-2.85231E-05-2.85900E-05 4.13114E-08-8.21821E-19 5.93825E-19
 -1      3449 9.52420E-05-2.85531E-05-2.85811E-05 1.48089E-08 1.45079E-18 1.09442E-18
 -1      3450 9.52422E-05-2.85485E-05-2.85829E-05 2.07187E-08 1.39323E-18 7.50990E-19
 -1      3451 9.52387E-05-2.85402E-05-2.85851E-05 2.50198E-08 4.21728E-19 7.52199E-19
 -1      3452 9.52427E-05-2.85607E-05-2.85781E-05 6.33198E-09-1.82157E-21 1.32845E-18
 -1      3453 9.52430E-05-2.85574E-05-2.85794E-05 1.02764E-08 6.96140E-19 1.26310E-18
 -1      3454 9.52417E-05-2.85520E-05-2.85813E-05 1.36107E-08 5.86603E-19 1.82130E-18
 -1      3455 9.52428E-05-2.85658E-05-2.85759E-05 8.16608E-10 9.23724E-19 1.60358E-18
 -1      3456 9.52431E-05-2.85636E-05-2.85769E-05 3.34349E-09 5.55226E-19 1.89518E-18
 -1      3457 9.52431E-05-2.85602E-05-2.85784E-05 5.86249E-09-4.68028E-20 2.04754E-18
 -1      3458 9.52424E-05-2.85691E-05-2.85743E-05-2.57969E-09 1.48909E-18 1.45051E-18
 -1      3459 9.52428E-05-2.85677E-05-2.85750E-05-1.05658E-09 1.38470E-18 8.04401E-19
 -1      3460 9.52436E-05-2.85657E-05-2.85762E-05 8.04510E-10 1.90592E-18 2.68210E-18
 -1      3461 9.52418E-05-2.85712E-05-2.85731E-05-4.49397E-09 1.83283E-18 1.06516E-18
 -1      3462 9.52422E-05-2.85703E-05-2.85736E-05-3.66579E-09 1.79584E-18 1.07491E-18
 -1      3463 9.52434E-05-2.85693E-05-2.85746E-05-2.31869E-09 1.52874E-18 9.54642E-19
 -1      3464 9.52412E-05-2.85725E-05-2.85723E-05-5.40022E-09-1.14458E-18 3.21181E-18
 -1      3465 9.52415E-05-2.85719E-05-2.85726E-05-5.03977E-09 9.87784E-19 1.88630E-18
 -1      3466 9.52428E-05-2.85716E-05-2.85734E-05-4.08408E-09 3.54627E-19 1.04728E-18
 -1      3467 9.52405E-05-2.85732E-05-2.85717E-05-5.64425E-09-1.31169E-18 2.68139E-18
 -1      3468 9.52408E-05-2.85729E-05-2.85720E-05-5.58755E-09-1.73382E-18 3.28496E-18
 -1      3469 9.52421E-05-2.85729E-05-2.85725E-05-4.92377E-09-1.64210E-18 2.18808E-18
 -1      3470 9.52399E-05-2.85735E-05-2.85713E-05-5.47230E-09 1.22891E-18 1.61767E-20
 -1      3471 9.52401E-05-2.85733E-05-2.85715E-05-5.60392E-09 6.47394E-20 2.27589E-18
 -1      3472 9.52414E-05-2.85736E-05-2.85719E-05-5.15447E-09-3.59426E-19 1.03150E-18
 -1      3473 9.52393E-05-2.85735E-05-2.85711E-05-5.05286E-09-2.33381E-19-3.24196E-19
 -1      3474 9.52395E-05-2.85735E-05-2.85712E-05-5.29280E-09 1.28511E-18 6.74374E-19
 -1      3475 9.52406E-05-2.85739E-05-2.85715E-05-5.00088E-09 1.02406E-18-1.39706E-18
 -1      3476 7.21866E-05-1.26678E-05-2.55529E-05-3.30362E-06 6.93204E-19 1.77981E-18
 -1      3477 6.66016E-05-1.03821E-05-2.41850E-05-3.92595E-06 2.22834E-19 1.95511E-18
 -1      3478 9.52397E-05-2.85741E-05-2.85710E-05 3.37506E-09 1.26032E-18 1.97359E-19
 -1      3479 9.52402E-05-2.85744E-05-2.85711E-05 2.92507E-09 1.79249E-18 1.52353E-18
 -1      3480 1.19211E-04-1.74844E-05-4.38783E-05-1.15541E-05-2.54327E-18-5.89191E-19
 -1      3481 1.24177E-04-2.38252E-05-4.31543E-05-1.35920E-05-2.34035E-18 2.16708E-19
 -1      3482 5.01992E-05-7.18512E-06-1.83804E-05 1.34346E-05-1.03351E-18 1.56256E-18
 -1      3483 1.03009E-04-2.92841E-05-3.15962E-05-6.71039E-06-1.70364E-19-2.58949E-18
 -1      3484 1.27554E-04-4.44614E-05-3.57969E-05-2.65593E-06 4.18223E-21 1.13294E-18
 -1      3485 1.26877E-04-4.73089E-05-3.40656E-05 3.90547E-06 7.87913E-19 1.15526E-18
 -1      3486 9.52403E-05-2.85745E-05-2.85710E-05-2.86067E-09-8.37119E-19-2.32624E-18
 -1      3487 9.52399E-05-2.85742E-05-2.85710E-05-3.32250E-09 4.09089E-19-3.70061E-18
 -1      3488 5.86715E-05-1.04698E-05-2.00706E-05-1.84605E-05 8.29047E-19 2.57350E-18
 -1      3489 6.49927E-05-1.63937E-05-2.08898E-05-2.51613E-05 1.32076E-18 3.05382E-18
 -1      3490 8.87279E-05-2.23692E-05-2.84585E-05 1.11340E-06 6.07692E-19 1.24037E-18
 -1      3491 8.71341E-05-2.12060E-05-2.83034E-05 1.07116E-06 1.04551E-18 1.10211E-18
 -1      3492 8.60789E-05-2.06685E-05-2.79689E-05-1.11835E-06 1.15972E-18 6.14913E-19
 -1      3493 1.05661E-04-3.21524E-05-3.15085E-05-8.23186E-06-4.96439E-19-1.83801E-18
 -1      3494 1.05748E-04-3.20780E-05-3.15920E-05-8.61255E-06-5.90496E-19-1.70431E-18
 -1      3495 1.08149E-04-3.27403E-05-3.22858E-05-8.86139E-06-5.51385E-19-1.18556E-18
 -1      3496 5.27249E-05-6.63039E-06-1.93715E-05 1.04765E-05-8.21946E-19 1.65251E-18
 -1      3497 1.04281E-04-3.07407E-05-3.15244E-05-7.22739E-06-2.34600E-19-2.28859E-18
 -1      3498 1.04972E-04-3.16629E-05-3.14457E-05-7.44672E-06-4.01958E-19-2.04985E-18
 -1      3499 1.07206E-04-3.27560E-05-3.18780E-05-7.16206E-06-2.52923E-19-1.34892E-18
 -1      3500 1.05122E-04-3.07800E-05-3.18289E-05-5.76164E-06 1.05086E-19-1.99285E-18
 -1      3501 8.02397E-05-1.67967E-05-2.72168E-05-9.71401E-07 1.02407E-18 1.70331E-18
 -1      3502 7.67186E-05-1.49468E-05-2.65671E-05-1.77242E-06 1.23412E-18 1.59652E-18
 -1      3503 8.17920E-05-1.80792E-05-2.72110E-05-3.26737E-06 1.03910E-18 1.44357E-18
 -1      3504 1.22471E-04-3.19538E-05-3.86878E-05 1.22408E-05-2.12711E-19-3.19551E-18
 -1      3505 1.18143E-04-2.37688E-05-4.08433E-05 1.24289E-05-7.73341E-19-3.05966E-18
 -1      3506 9.42098E-05-3.65563E-05-2.43489E-05-3.11302E-05 2.30685E-18 1.43787E-19
 -1      3507 1.06304E-04-4.42547E-05-2.67182E-05-2.64629E-05 2.61716E-18-1.70586E-18
 -1      3508 1.14190E-04-1.03995E-05-4.47617E-05-4.21722E-06-2.34978E-18-1.57174E-18
 -1      3509 1.16074E-04-1.27568E-05-4.44522E-05-8.38291E-06-2.63988E-18-1.10754E-18
 -1      3510 1.15308E-04-1.60749E-05-4.25495E-05 1.00850E-05-1.34361E-18-3.11274E-18
 -1      3511 1.14052E-04-1.23897E-05-4.38861E-05 6.14405E-06-1.80442E-18-2.53851E-18
 -1      3512 1.25979E-04-4.57061E-05-3.43559E-05 2.75468E-06 8.94282E-19-2.93639E-18
 -1      3513 1.25430E-04-4.05280E-05-3.67366E-05 8.78053E-06 4.37823E-19-2.93150E-18
 -1      3514 1.13534E-04-1.02292E-05-4.45161E-05 2.96395E-06-2.06380E-18-2.41960E-18
 -1      3515 1.13398E-04-9.82857E-06-4.46451E-05-8.10508E-07-2.06697E-18-2.00536E-18
 -1      3516 1.11089E-04-1.21066E-05-4.25750E-05-2.61282E-06-1.96562E-18-1.38614E-18
 -1      3517 1.10635E-04-1.32403E-05-4.18601E-05 4.17338E-06-1.57437E-18-2.03283E-18
 -1      3518 9.10462E-05-2.42201E-05-2.86546E-05 1.28767E-06-1.64540E-19 1.48658E-18
 -1      3519 9.00170E-05-2.33700E-05-2.85919E-05 1.38174E-06 1.10616E-19 1.50313E-18
 -1      3520 8.91061E-05-2.27988E-05-2.83736E-05 1.73733E-08 2.16803E-19 8.74125E-19
 -1      3521 9.52409E-05-2.85749E-05-2.85711E-05-1.63824E-09-7.94510E-19-1.35739E-18
 -1      3522 9.52406E-05-2.85747E-05-2.85711E-05-2.23421E-09-1.61221E-18-1.30353E-18
 -1      3523 9.52408E-05-2.85747E-05-2.85712E-05-2.68679E-09 1.25153E-19-2.83349E-18
 -1      3524 9.06296E-05-3.26246E-05-2.47216E-05-2.74589E-05 2.44262E-18 2.73496E-19
 -1      3525 7.56999E-05-1.19360E-05-2.73349E-05 1.97833E-05 3.99209E-18-2.08722E-18
 -1      3526 9.26008E-05-2.56592E-05-2.86699E-05 7.31090E-07 1.05415E-18 1.44259E-18
 -1      3527 9.25740E-05-2.55580E-05-2.87324E-05 1.22799E-06 1.18524E-18 1.35319E-18
 -1      3528 9.19215E-05-2.49556E-05-2.87161E-05 1.37372E-06 5.43689E-19 1.47961E-18
 -1      3529 9.52388E-05-2.85734E-05-2.85709E-05 4.39985E-09-3.53271E-19-2.85218E-18
 -1      3530 9.52387E-05-2.85734E-05-2.85708E-05 4.15066E-09 7.23673E-19-1.76544E-18
 -1      3531 9.52390E-05-2.85736E-05-2.85709E-05 3.97730E-09 7.15938E-19-2.16606E-18
 -1      3532 9.52396E-05-2.85737E-05-2.85711E-05 4.25536E-09-6.28944E-19-1.19001E-18
 -1      3533 1.24829E-04-4.82885E-05-3.28939E-05-1.45778E-06 1.52101E-18-2.54657E-18
 -1      3534 1.21608E-04-4.36231E-05-3.33368E-05 3.81609E-06 9.34032E-19-2.01806E-18
 -1      3535 1.20595E-04-4.78504E-05-3.12581E-05-6.05048E-06 1.71683E-18-2.30538E-18
 -1      3536 1.23440E-04-4.68848E-05-3.28678E-05 8.13495E-06 1.35282E-18 7.95523E-19
 -1      3537 1.17677E-04-4.41082E-05-3.15252E-05 1.20174E-05 1.84728E-18 2.22786E-19
 -1      3538 1.21099E-04-4.35576E-05-3.31945E-05 2.78754E-06 1.15290E-18 4.52134E-19
 -1      3539 1.13513E-04-2.07985E-05-3.97956E-05 1.08714E-05-1.01022E-18-2.77321E-18
 -1      3540 1.07102E-04-3.27863E-05-3.18068E-05 3.26653E-06 1.48157E-18-1.62855E-18
 -1      3541 1.07281E-04-3.27525E-05-3.19783E-05 3.20189E-07 1.12054E-18-2.00718E-18
 -1      3542 6.76797E-05-1.27402E-05-2.33620E-05-1.37146E-05 6.36135E-19 1.84314E-18
 -1      3543 6.32409E-05-1.00562E-05-2.27829E-05-8.66229E-06 1.49587E-20 2.03113E-18
 -1      3544 9.52391E-05-2.85735E-05-2.85710E-05-4.80577E-09-8.39808E-19-1.36848E-18
 -1      3545 9.52401E-05-2.85739E-05-2.85712E-05-4.60021E-09-1.38272E-19-1.94335E-18
 -1      3546 9.52391E-05-2.85736E-05-2.85709E-05-4.54146E-09 5.78935E-19-1.28096E-18
 -1      3547 7.51514E-05-1.48146E-05-2.57384E-05-6.71359E-06 1.13351E-18 1.92064E-18
 -1      3548 1.10965E-04-4.10032E-05-2.99560E-05 1.95918E-05 2.89558E-18-2.81596E-19
 -1      3549 1.06152E-04-3.98025E-05-2.82656E-05 2.66550E-05 3.27935E-18-5.04203E-19
 -1      3550 9.80622E-05-3.30998E-05-2.78826E-05 2.62186E-05 3.54868E-18-9.63219E-19
 -1      3551 1.23095E-04-2.91100E-05-4.04208E-05-1.24516E-05-1.58215E-18 6.76382E-19
 -1      3552 1.01923E-04-2.92218E-05-3.12011E-05 8.86063E-06 2.20790E-18-1.79300E-18
 -1      3553 9.52393E-05-2.85738E-05-2.85709E-05 3.75741E-09 1.05735E-18-1.16300E-18
 -1      3554 9.52407E-05-2.85745E-05-2.85712E-05 2.80306E-09 6.30481E-19 2.43930E-18
 -1      3555 9.52405E-05-2.85746E-05-2.85711E-05 2.33701E-09 2.55123E-18 3.82480E-18
 -1      3556 9.52408E-05-2.85748E-05-2.85712E-05 1.76553E-09 2.04785E-18 3.52225E-18
 -1      3557 1.24657E-04-3.84385E-05-3.71562E-05-8.84352E-06-6.86474E-19 1.00483E-18
 -1      3558 1.27103E-04-4.21361E-05-3.64147E-05-6.02982E-06-2.26859E-19 1.14639E-18
 -1      3559 1.23360E-04-4.22733E-05-3.48051E-05-3.48099E-06 2.51850E-19 6.89217E-19
 -1      3560 6.05400E-05-4.32895E-06-2.39018E-05 1.30536E-05 3.62140E-18-2.83796E-18
 -1      3561 9.52411E-05-2.85750E-05-2.85712E-05-2.79222E-10 1.78940E-18 2.49535E-18
 -1      3562 9.52411E-05-2.85750E-05-2.85712E-05-9.34453E-10 6.53303E-20 8.24518E-19
 -1      3563 9.52414E-05-2.85750E-05-2.85713E-05-1.34342E-09 1.12249E-18 3.47254E-19
 -1      3564 9.52402E-05-2.85742E-05-2.85711E-05-3.81396E-09 1.01341E-18-4.46093E-18
 -1      3565 9.52396E-05-2.85740E-05-2.85710E-05-3.86763E-09 9.71104E-19-3.99357E-18
 -1      3566 7.27284E-05-1.95936E-05-2.26272E-05-2.36947E-05 1.50302E-18 2.26208E-18
 -1      3567 1.15183E-04-1.71470E-05-4.21753E-05-9.76504E-06-2.05866E-18-5.83235E-19
 -1      3568 9.52398E-05-2.85740E-05-2.85711E-05 3.76677E-09 1.92559E-19-1.19689E-18
 -1      3569 1.06785E-04-3.20022E-05-3.20128E-05-2.04549E-06 9.23896E-19-2.08065E-18
 -1      3570 1.06105E-04-3.16001E-05-3.19601E-05-4.16590E-06 4.45047E-19-2.14268E-18
 -1      3571 1.07400E-04-3.29084E-05-3.19440E-05-4.80690E-06 1.88806E-19-1.72982E-18
 -1      3572 1.09381E-04-3.44644E-05-3.20741E-05-1.17176E-06 8.84903E-19-1.69213E-18
 -1      3573 1.20001E-04-3.49882E-05-3.64446E-05 1.05829E-05 3.39210E-20-2.24940E-18
 -1      3574 1.04510E-04-4.10670E-05-2.72523E-05-2.14487E-05 2.36220E-18-1.53904E-18
 -1      3575 1.12151E-04-4.64942E-05-2.80078E-05-2.12233E-05 2.58727E-18-1.93013E-18
 -1      3576 1.14921E-04-4.65379E-05-2.93026E-05-1.44163E-05 1.97570E-18-2.20116E-18
 -1      3577 9.52410E-05-2.85749E-05-2.85712E-05 1.08604E-09 2.45137E-18 2.89675E-18
 -1      3578 9.52411E-05-2.85750E-05-2.85712E-05 4.44366E-10 2.04972E-18 2.00433E-18
 -1      3579 9.52413E-05-2.85749E-05-2.85713E-05 1.52250E-09 1.80780E-18 2.97751E-18
 -1      3580 5.71743E-05-8.54735E-06-2.07760E-05-1.01346E-05 2.15332E-19 1.81742E-18
 -1      3581 8.55727E-05-2.23177E-05-2.71720E-05 2.53983E-05 4.11865E-18-1.50385E-18
 -1      3582 7.88618E-05-1.80091E-05-2.58115E-05 2.64619E-05 4.25128E-18-1.98794E-18
 -1      3583 9.21518E-05-2.63287E-05-2.80467E-05 2.40142E-05 3.75702E-18-1.36155E-18
 -1      3584 9.77953E-05-2.94676E-05-2.93108E-05 2.00673E-05 3.42348E-18-1.29124E-18
 -1      3585 1.02260E-04-3.20069E-05-3.00562E-05 1.67764E-05 2.94675E-18-1.46873E-18
 -1      3586 9.52416E-05-2.85750E-05-2.85714E-05 1.03466E-10 1.98782E-18 3.05450E-18
 -1      3587 9.52390E-05-2.85736E-05-2.85709E-05-4.23750E-09 1.64373E-18-1.95764E-18
 -1      3588 9.52401E-05-2.85740E-05-2.85712E-05 3.84898E-09-4.69000E-19-8.89964E-19
 -1      3589 1.09055E-04-2.79651E-05-3.48427E-05-1.09526E-05-7.48196E-19-8.33151E-19
 -1      3590 1.07537E-04-2.48484E-05-3.53975E-05-1.01437E-05-1.08434E-18-6.60565E-19
 -1      3591 1.05702E-04-2.16586E-05-3.61112E-05-8.59028E-06-1.28610E-18-6.76834E-19
 -1      3592 1.04322E-04-1.90741E-05-3.64960E-05-6.31771E-06-1.29001E-18-6.62855E-19
 -1      3593 1.09550E-04-2.31496E-05-3.70508E-05-1.04068E-05-1.16264E-18-7.77735E-19
 -1      3594 1.03076E-04-1.76151E-05-3.66227E-05 4.42387E-06-7.64904E-19-1.23152E-18
 -1      3595 1.03836E-04-1.93697E-05-3.63044E-05 7.12440E-06-4.55078E-19-1.31096E-18
 -1      3596 1.08561E-04-2.35359E-05-3.64468E-05 1.04424E-05-7.36641E-19-1.77462E-18
 -1      3597 1.10264E-04-2.72447E-05-3.56509E-05 1.16177E-05-7.91117E-19-1.99052E-18
 -1      3598 1.10184E-04-3.48713E-05-3.22953E-05 9.26736E-06 4.22921E-19-1.79193E-18
 -1      3599 1.10489E-04-3.66713E-05-3.16407E-05 8.10305E-06 6.78205E-19-1.91936E-18
 -1      3600 1.09679E-04-3.76448E-05-3.09039E-05 6.21113E-06 7.83596E-19-1.58345E-18
 -1      3601 1.09256E-04-3.82171E-05-3.04062E-05 4.81984E-06 9.12463E-19-1.64264E-18
 -1      3602 1.12514E-04-3.86519E-05-3.16235E-05 6.33241E-06 7.20631E-19-1.35875E-18
 -1      3603 1.07681E-04-3.79977E-05-2.98969E-05 3.12497E-06 8.32677E-19-1.66786E-18
 -1      3604 1.06711E-04-3.76519E-05-2.95598E-05 1.97497E-06 5.65813E-19-1.23479E-18
 -1      3605 1.10199E-04-3.94760E-05-3.03301E-05 2.70838E-06 8.70022E-19-1.15254E-18
 -1      3606 1.05044E-04-3.68657E-05-2.92406E-05 9.07037E-07 2.46338E-19-8.77659E-19
 -1      3607 1.03920E-04-3.60892E-05-2.90322E-05 8.92388E-08-4.90191E-20-5.83738E-19
 -1      3608 1.06792E-04-3.81911E-05-2.94495E-05 3.80762E-08 4.75401E-19-6.06330E-19
 -1      3609 1.02389E-04-3.50918E-05-2.88523E-05-4.85075E-07 1.94230E-19-4.99415E-19
 -1      3610 1.01338E-04-3.42105E-05-2.87377E-05-9.66584E-07 3.14584E-19 1.51999E-19
 -1      3611 1.03583E-04-3.61374E-05-2.89429E-05-1.49022E-06 3.00966E-19-1.35570E-19
 -1      3612 1.00116E-04-3.32720E-05-2.86489E-05-1.17591E-06-1.64774E-21 1.75680E-19
 -1      3613 9.92457E-05-3.24716E-05-2.85948E-05-1.40802E-06 1.31094E-20 5.58785E-19
 -1      3614 1.00827E-04-3.39941E-05-2.86762E-05-2.09922E-06 2.83024E-19 3.76491E-21
 -1      3615 9.83510E-05-3.17042E-05-2.85598E-05-1.40443E-06 2.93246E-20 1.03689E-18
 -1      3616 9.76928E-05-3.10624E-05-2.85409E-05-1.47702E-06 8.58283E-20 7.94950E-19
 -1      3617 9.87286E-05-3.21585E-05-2.85568E-05-2.15899E-06 2.91660E-19 5.42379E-19
 -1      3618 9.70811E-05-3.04898E-05-2.85342E-05-1.37015E-06-2.35799E-19 8.88286E-19
 -1      3619 9.66168E-05-3.00176E-05-2.85334E-05-1.35325E-06 5.49124E-19 4.58219E-19
 -1      3620 9.72460E-05-3.07473E-05-2.85190E-05-1.93943E-06-1.25335E-19 1.00607E-18
 -1      3621 9.62245E-05-2.96205E-05-2.85395E-05-1.21043E-06 1.06696E-18 1.26137E-19
 -1      3622 9.59168E-05-2.92971E-05-2.85462E-05-1.15075E-06 1.45845E-18-5.06916E-20
 -1      3623 9.62636E-05-2.97447E-05-2.85216E-05-1.61447E-06 4.83180E-19 9.73583E-19
 -1      3624 9.56820E-05-2.90400E-05-2.85564E-05-1.00845E-06 1.76346E-18-3.05167E-19
 -1      3625 9.54907E-05-2.88336E-05-2.85648E-05-9.33906E-07 9.80410E-19-2.22215E-19
 -1      3626 9.56538E-05-2.90806E-05-2.85401E-05-1.28067E-06 1.23154E-18-1.97198E-20
 -1      3627 9.53623E-05-2.86798E-05-2.85747E-05-8.08585E-07 6.54790E-19-3.60523E-19
 -1      3628 9.52521E-05-2.85586E-05-2.85820E-05-7.34193E-07 7.20570E-19-3.14915E-19
 -1      3629 9.53033E-05-2.86717E-05-2.85617E-05-9.83461E-07 5.19036E-19-7.90482E-19
 -1      3630 9.51915E-05-2.84764E-05-2.85896E-05-6.31023E-07 2.00699E-19-4.47593E-19
 -1      3631 9.51345E-05-2.84135E-05-2.85946E-05-5.63984E-07 5.76847E-20-6.10658E-19
 -1      3632 9.51229E-05-2.84429E-05-2.85802E-05-7.38179E-07 3.78082E-19-6.44832E-19
 -1      3633 9.51145E-05-2.83778E-05-2.85996E-05-4.82538E-07 1.42322E-19-9.31006E-19
 -1      3634 9.50903E-05-2.83523E-05-2.86023E-05-4.25445E-07 2.78146E-19-1.06541E-18
 -1      3635 9.50480E-05-2.83337E-05-2.85934E-05-5.44983E-07-1.57780E-20-1.12893E-18
 -1      3636 9.50926E-05-2.83449E-05-2.86049E-05-3.62801E-07-8.56281E-20-1.06806E-18
 -1      3637 9.50872E-05-2.83418E-05-2.86057E-05-3.15900E-07 2.40068E-19-1.28509E-18
 -1      3638 9.50338E-05-2.82989E-05-2.86014E-05-3.97146E-07 1.46358E-19-9.58072E-19
 -1      3639 9.51003E-05-2.83500E-05-2.86064E-05-2.68573E-07 9.34452E-19-1.47977E-18
 -1      3640 9.51045E-05-2.83590E-05-2.86058E-05-2.31013E-07 4.75519E-19-1.55293E-18
 -1      3641 9.50512E-05-2.83069E-05-2.86049E-05-2.86125E-07 2.84065E-19-7.79989E-19
 -1      3642 9.51215E-05-2.83747E-05-2.86052E-05-1.95713E-07 9.13676E-20-2.01800E-18
 -1      3643 9.51298E-05-2.83891E-05-2.86037E-05-1.66218E-07-2.31805E-19-1.44744E-18
 -1      3644 9.50823E-05-2.83369E-05-2.86051E-05-2.03805E-07 4.42356E-19-2.05049E-18
 -1      3645 9.51467E-05-2.84072E-05-2.86022E-05-1.40157E-07-8.17870E-19-1.08287E-18
 -1      3646 9.51559E-05-2.84231E-05-2.86002E-05-1.17386E-07-6.24387E-19-1.00352E-18
 -1      3647 9.51165E-05-2.83756E-05-2.86031E-05-1.43309E-07-3.56557E-19-1.44397E-18
 -1      3648 9.51708E-05-2.84407E-05-2.85984E-05-9.83228E-08-2.59191E-19-1.70441E-19
 -1      3649 9.51794E-05-2.84558E-05-2.85962E-05-8.10218E-08-8.32267E-20 1.62345E-19
 -1      3650 9.51484E-05-2.84151E-05-2.85998E-05-9.91748E-08 2.83107E-19-1.06938E-18
 -1      3651 9.51916E-05-2.84714E-05-2.85942E-05-6.72148E-08-4.82860E-19 3.40348E-19
 -1      3652 9.51987E-05-2.84845E-05-2.85921E-05-5.42825E-08-2.67507E-19-1.11844E-19
 -1      3653 9.51755E-05-2.84513E-05-2.85959E-05-6.72048E-08-2.09436E-20-1.44674E-19
 -1      3654 9.52081E-05-2.84976E-05-2.85901E-05-4.43979E-08 2.93938E-19-3.94600E-19
 -1      3655 9.52137E-05-2.85085E-05-2.85882E-05-3.49006E-08 1.27708E-18-2.98392E-19
 -1      3656 9.51970E-05-2.84823E-05-2.85918E-05-4.42371E-08 4.18754E-19 9.44037E-19
 -1      3657 9.52206E-05-2.85189E-05-2.85863E-05-2.79267E-08 1.52315E-18-1.22990E-18
 -1      3658 9.52246E-05-2.85275E-05-2.85846E-05-2.10911E-08 8.26440E-19-1.54510E-18
 -1      3659 9.52133E-05-2.85076E-05-2.85880E-05-2.79118E-08 7.45150E-19-1.14276E-18
 -1      3660 9.52295E-05-2.85356E-05-2.85831E-05-1.62632E-08 1.30164E-18-1.52581E-18
 -1      3661 9.52323E-05-2.85421E-05-2.85816E-05-1.14596E-08 1.23601E-18-8.64906E-19
 -1      3662 9.52250E-05-2.85274E-05-2.85846E-05-1.64718E-08 1.31218E-18-1.71780E-18
 -1      3663 9.52355E-05-2.85481E-05-2.85803E-05-8.20077E-09 1.35082E-18 1.35867E-19
 -1      3664 9.52373E-05-2.85530E-05-2.85791E-05-4.92382E-09 8.59200E-19 1.16764E-18
 -1      3665 9.52330E-05-2.85424E-05-2.85816E-05-8.60815E-09 1.73460E-18-8.31196E-20
 -1      3666 9.52393E-05-2.85573E-05-2.85780E-05-2.79966E-09-4.10434E-19 1.25608E-18
 -1      3667 9.52403E-05-2.85608E-05-2.85770E-05-6.49746E-10-6.29815E-19 1.45140E-18
 -1      3668 9.52382E-05-2.85535E-05-2.85791E-05-3.34396E-09 4.71871E-19 1.03993E-18
 -1      3669 9.52414E-05-2.85638E-05-2.85761E-05 6.65798E-10-1.44418E-18 1.08046E-18
 -1      3670 9.52419E-05-2.85661E-05-2.85754E-05 2.00024E-09-7.19833E-19 7.52675E-19
 -1      3671 9.52413E-05-2.85613E-05-2.85771E-05 5.03169E-11-1.53514E-18 3.56417E-19
 -1      3672 9.52424E-05-2.85681E-05-2.85747E-05 2.75037E-09 5.14330E-19 6.49765E-19
 -1      3673 9.52425E-05-2.85697E-05-2.85741E-05 3.50845E-09 1.52026E-18 3.85176E-19
 -1      3674 9.52428E-05-2.85667E-05-2.85755E-05 2.11864E-09-2.67538E-20 3.92367E-19
 -1      3675 9.52426E-05-2.85710E-05-2.85735E-05 3.87290E-09 1.41148E-18 1.81486E-19
 -1      3676 9.52425E-05-2.85719E-05-2.85731E-05 4.23488E-09 1.14627E-18-2.34429E-19
 -1      3677 9.52433E-05-2.85702E-05-2.85742E-05 3.26460E-09 1.21003E-18-9.20135E-19
 -1      3678 9.52423E-05-2.85726E-05-2.85727E-05 4.34486E-09-2.97324E-20-3.95757E-19
 -1      3679 9.52421E-05-2.85732E-05-2.85724E-05 4.44385E-09-5.86480E-19-2.87946E-19
 -1      3680 9.52432E-05-2.85724E-05-2.85732E-05 3.78499E-09 3.70374E-19-1.84986E-18
 -1      3681 9.52417E-05-2.85736E-05-2.85721E-05 4.39450E-09-4.08399E-20 1.42276E-20
 -1      3682 9.52414E-05-2.85738E-05-2.85718E-05 4.32716E-09 4.37855E-19 3.64105E-19
 -1      3683 9.52426E-05-2.85736E-05-2.85725E-05 3.89536E-09 1.19635E-19-3.70399E-19
 -1      3684 9.52410E-05-2.85740E-05-2.85716E-05 4.17729E-09-1.48682E-20-2.19677E-19
 -1      3685 9.52407E-05-2.85741E-05-2.85714E-05 4.01705E-09-6.97979E-19-3.16412E-19
 -1      3686 9.52419E-05-2.85742E-05-2.85719E-05 3.75339E-09-1.70371E-19-1.32069E-18
 -1      3687 9.47822E-05-2.79141E-05-2.86595E-05 3.30798E-07-9.34314E-19 2.51963E-20
 -1      3688 9.46789E-05-2.77922E-05-2.86677E-05 3.76924E-07-1.63433E-19-5.64637E-19
 -1      3689 7.39736E-05-1.62849E-05-2.45762E-05-1.37882E-05 1.31507E-18 1.36120E-18
 -1      3690 7.15308E-05-1.67385E-05-2.34097E-05-1.86512E-05 1.26958E-18 2.28814E-18
 -1      3691 7.84898E-05-2.28537E-05-2.39566E-05-2.34149E-05 2.01050E-18 1.08762E-18
 -1      3692 1.06504E-04-3.31086E-05-3.14646E-05 7.20683E-06 1.85498E-18-1.34272E-18
 -1      3693 1.09676E-04-3.57336E-05-3.17089E-05 5.03994E-06 1.49613E-18-1.09797E-18
 -1      3694 1.04739E-04-3.22058E-05-3.10461E-05 1.06606E-05 2.39235E-18-1.39990E-18
 -1      3695 1.10443E-04-3.46061E-05-3.25117E-05-7.54920E-06-3.27803E-19-1.09551E-18
 -1      3696 1.10715E-04-3.40627E-05-3.28686E-05-8.47078E-06-5.71841E-19-1.00816E-18
 -1      3697 9.41627E-05-2.72587E-05-2.86760E-05 4.23528E-07-2.27606E-20 3.69489E-19
 -1      3698 9.39130E-05-2.70133E-05-2.86777E-05 4.54912E-07 1.12086E-19 5.09626E-19
 -1      3699 9.36050E-05-2.67226E-05-2.86672E-05 3.99544E-07 1.40540E-19 9.34605E-19
 -1      3700 9.32220E-05-2.63789E-05-2.86580E-05 3.95661E-07 5.48589E-19 1.28164E-18
 -1      3701 9.36916E-05-2.68437E-05-2.86399E-05 1.51476E-07 6.76316E-19 6.88958E-20
 -1      3702 9.49517E-05-2.81152E-05-2.86456E-05 2.63939E-07 2.64361E-19 9.51431E-19
 -1      3703 9.48834E-05-2.80261E-05-2.86541E-05 3.07520E-07-4.37858E-19 6.37371E-19
 -1      3704 9.47810E-05-2.79307E-05-2.86474E-05 2.46575E-07-1.35614E-18-4.05625E-19
 -1      3705 9.50566E-05-2.82497E-05-2.86325E-05 2.04619E-07 6.27087E-19 8.01035E-19
 -1      3706 9.50158E-05-2.81903E-05-2.86399E-05 2.40012E-07 9.90506E-19 1.23713E-18
 -1      3707 9.49416E-05-2.81170E-05-2.86374E-05 2.07559E-07 6.44979E-19 9.52215E-19
 -1      3708 9.51254E-05-2.83454E-05-2.86207E-05 1.53513E-07-1.15930E-18 3.38229E-19
 -1      3709 9.50997E-05-2.83033E-05-2.86271E-05 1.82295E-07-3.00013E-19 6.33797E-19
 -1      3710 9.50465E-05-2.82478E-05-2.86269E-05 1.65956E-07 5.69303E-19 6.52001E-19
 -1      3711 9.51703E-05-2.84137E-05-2.86105E-05 1.11661E-07-7.05416E-19-4.83341E-19
 -1      3712 9.51542E-05-2.83837E-05-2.86158E-05 1.34322E-07-8.43476E-19-1.22347E-19
 -1      3713 9.51168E-05-2.83422E-05-2.86170E-05 1.27194E-07-4.25885E-19-1.20498E-18
 -1      3714 9.51994E-05-2.84624E-05-2.86020E-05 7.86304E-08-8.84248E-19-6.75365E-19
 -1      3715 9.51894E-05-2.84410E-05-2.86063E-05 9.60121E-08-1.02192E-18-5.55569E-19
 -1      3716 9.51637E-05-2.84105E-05-2.86081E-05 9.39285E-08-9.22985E-19-1.28070E-18
 -1      3717 9.52181E-05-2.84972E-05-2.85950E-05 5.33428E-08-7.39101E-19-2.30175E-19
 -1      3718 9.52120E-05-2.84820E-05-2.85984E-05 6.63651E-08-7.68016E-19-6.70393E-19
 -1      3719 9.51948E-05-2.84597E-05-2.86005E-05 6.68734E-08-9.18477E-19-5.08166E-19
 -1      3720 9.52299E-05-2.85220E-05-2.85893E-05 3.45078E-08-1.22897E-18-3.00307E-19
 -1      3721 9.52262E-05-2.85112E-05-2.85920E-05 4.40425E-08-1.24920E-18-5.37768E-19
 -1      3722 9.52152E-05-2.84953E-05-2.85941E-05 4.57372E-08-1.21289E-18-5.98931E-19
 -1      3723 9.52370E-05-2.85396E-05-2.85848E-05 2.08541E-08 1.56867E-19-2.38634E-19
 -1      3724 9.52350E-05-2.85319E-05-2.85869E-05 2.76681E-08-8.11795E-19-1.71851E-19
 -1      3725 9.52282E-05-2.85207E-05-2.85888E-05 2.97732E-08-7.17307E-19-1.20084E-18
 -1      3726 9.52411E-05-2.85518E-05-2.85812E-05 1.12390E-08-4.95845E-19 1.61316E-18
 -1      3727 9.52401E-05-2.85465E-05-2.85829E-05 1.59771E-08 2.62251E-19 6.10464E-19
 -1      3728 9.52363E-05-2.85388E-05-2.85846E-05 1.80875E-08-6.22772E-19-1.06085E-18
 -1      3729 9.52432E-05-2.85603E-05-2.85785E-05 4.69168E-09 9.01594E-19 4.79246E-19
 -1      3730 9.52428E-05-2.85566E-05-2.85797E-05 7.87850E-09-1.50299E-19 1.01518E-18
 -1      3731 9.52410E-05-2.85515E-05-2.85812E-05 9.80195E-09 5.89757E-19-8.62925E-19
 -1      3732 9.52441E-05-2.85660E-05-2.85764E-05 4.17871E-10 2.01848E-18 1.50312E-18
 -1      3733 9.52441E-05-2.85635E-05-2.85773E-05 2.46992E-09 1.99373E-18 1.58782E-18
 -1      3734 9.52435E-05-2.85603E-05-2.85785E-05 4.13243E-09 1.08608E-18-1.34809E-18
 -1      3735 9.52441E-05-2.85697E-05-2.85748E-05-2.21252E-09 1.71942E-18 1.18471E-18
 -1      3736 9.52443E-05-2.85681E-05-2.85755E-05-9.71824E-10 2.05436E-18 1.59713E-18
 -1      3737 9.52446E-05-2.85662E-05-2.85765E-05 4.18449E-10 1.85723E-18 1.83716E-18
 -1      3738 9.52436E-05-2.85720E-05-2.85736E-05-3.68670E-09-1.42441E-18 2.52333E-18
 -1      3739 9.52440E-05-2.85710E-05-2.85741E-05-3.01133E-09-1.16173E-19 1.63995E-18
 -1      3740 9.52447E-05-2.85700E-05-2.85749E-05-1.87397E-09 4.34422E-19 3.21515E-18
 -1      3741 9.52429E-05-2.85733E-05-2.85727E-05-4.37263E-09-1.44842E-18 2.12901E-18
 -1      3742 9.52433E-05-2.85728E-05-2.85731E-05-4.07923E-09-1.26734E-18 2.43537E-18
 -1      3743 9.52442E-05-2.85723E-05-2.85737E-05-3.16262E-09-8.05811E-19 2.87736E-18
 -1      3744 9.52421E-05-2.85740E-05-2.85720E-05-4.53957E-09 2.32031E-18-1.21632E-18
 -1      3745 9.52425E-05-2.85737E-05-2.85723E-05-4.49554E-09 1.15160E-19 4.38381E-19
 -1      3746 9.52435E-05-2.85736E-05-2.85728E-05-3.76561E-09 4.18650E-19 7.18501E-19
 -1      3747 9.52412E-05-2.85742E-05-2.85716E-05-4.38516E-09 1.06197E-18-2.71912E-18
 -1      3748 9.52416E-05-2.85741E-05-2.85718E-05-4.49634E-09 1.93607E-18-1.94862E-18
 -1      3749 9.52425E-05-2.85743E-05-2.85721E-05-3.91646E-09 2.86818E-18-2.12997E-18
 -1      3750 9.52406E-05-2.85743E-05-2.85713E-05-4.00852E-09 1.07851E-18-4.20664E-18
 -1      3751 9.52408E-05-2.85742E-05-2.85714E-05-4.22983E-09 8.16385E-19-2.96893E-18
 -1      3752 9.52417E-05-2.85745E-05-2.85716E-05-3.79193E-09 1.39480E-18-3.55610E-18
 -1      3753 9.52408E-05-2.85745E-05-2.85713E-05-3.46548E-09 1.64446E-18-4.22839E-18
 -1      3754 1.13534E-04-4.09834E-05-3.10603E-05 1.31878E-05 2.13678E-18-3.80581E-19
 -1      3755 1.07108E-04-3.62723E-05-3.04023E-05 1.51221E-05 2.37512E-18-8.71122E-19
 -1      3756 4.91869E-05-5.98332E-06-1.86710E-05-8.29103E-06 6.97725E-19 1.92102E-18
 -1      3757 8.62875E-05-2.81540E-05-2.47146E-05-2.47854E-05 2.50060E-18 5.39117E-19
 -1      3758 9.46391E-05-3.43078E-05-2.59618E-05-2.37511E-05 2.59728E-18-7.12944E-19
 -1      3759 8.45142E-05-2.52872E-05-2.52561E-05-2.04652E-05 2.35254E-18 2.28768E-19
 -1      3760 8.74283E-05-2.20381E-05-2.80196E-05-2.25964E-06 1.19323E-18 7.98854E-19
 -1      3761 8.56024E-05-2.10197E-05-2.77466E-05-3.17574E-06 1.14698E-18 7.23206E-19
 -1      3762 8.41429E-05-2.01503E-05-2.74103E-05-4.68995E-06 1.08416E-18 3.05644E-19
 -1      3763 8.16095E-05-1.90237E-05-2.69151E-05-6.29415E-06 9.65409E-19 3.94269E-19
 -1      3764 8.60415E-05-2.17476E-05-2.75110E-05-5.82976E-06 9.06273E-19-5.47720E-19
 -1      3765 7.99623E-05-1.82432E-05-2.64154E-05-8.36150E-06 8.68503E-19 7.09307E-19
 -1      3766 7.58522E-05-1.66630E-05-2.54217E-05-1.08267E-05 1.22233E-18 8.48052E-19
 -1      3767 7.95186E-05-2.01705E-05-2.54400E-05-1.53312E-05 1.75860E-18 7.34257E-19
 -1      3768 8.30364E-05-2.06626E-05-2.66904E-05-9.80398E-06 1.09611E-18-5.00169E-19
 -1      3769 4.96038E-05-3.91317E-06-1.86594E-05 2.46130E-06-3.27663E-19 1.25933E-18
 -1      3770 1.17567E-04-2.57096E-05-3.95564E-05-1.25763E-05-1.40390E-18-1.51242E-20
 -1      3771 1.22123E-04-3.22782E-05-3.84375E-05-1.21522E-05-1.07938E-18 6.66416E-19
 -1      3772 1.10946E-04-3.28532E-05-3.35168E-05-9.94878E-06-5.72317E-19-7.70575E-19
 -1      3773 1.10200E-04-3.07424E-05-3.40433E-05-1.03579E-05-6.64339E-19-6.94772E-19
 -1      3774 1.13542E-04-3.47436E-05-3.37213E-05-8.84391E-06-3.84349E-19-4.86945E-19
 -1      3775 9.45351E-05-2.76419E-05-2.86709E-05 3.89258E-07 3.18834E-19-3.43870E-19
 -1      3776 9.43740E-05-2.74685E-05-2.86774E-05 4.33802E-07 1.15072E-19 5.33670E-19
 -1      3777 9.45417E-05-2.76716E-05-2.86545E-05 2.68723E-07 1.65469E-19-4.37070E-20
 -1      3778 9.52409E-05-2.85743E-05-2.85714E-05 3.48816E-09-8.17779E-19-5.14158E-19
 -1      3779 9.52420E-05-2.85751E-05-2.85716E-05 4.89169E-10 2.31096E-18 2.73150E-18
 -1      3780 9.52421E-05-2.85751E-05-2.85716E-05-2.31205E-10 2.09843E-18 3.12049E-18
 -1      3781 1.09442E-04-1.61772E-05-4.01162E-05-7.42993E-06-1.98566E-18-8.59236E-19
 -1      3782 1.12641E-04-2.01487E-05-3.96503E-05-1.09698E-05-1.64778E-18-4.13604E-19
 -1      3783 1.08316E-04-1.61641E-05-3.96553E-05 7.08158E-06-8.79855E-19-1.92606E-18
 -1      3784 1.07762E-04-1.42300E-05-4.01863E-05 3.81297E-06-1.15100E-18-1.45440E-18
 -1      3785 1.08818E-04-3.39369E-05-3.20991E-05-5.63533E-06 6.06042E-20-1.55375E-18
 -1      3786 1.09493E-04-3.43504E-05-3.22238E-05-6.51610E-06-1.50832E-19-1.29422E-18
 -1      3787 1.12177E-04-3.56944E-05-3.27419E-05-6.08177E-06-4.22582E-20-1.09270E-18
 -1      3788 1.09995E-04-3.47867E-05-3.22484E-05-4.11674E-06 4.03434E-19-1.61648E-18
 -1      3789 9.27800E-05-2.59836E-05-2.86304E-05 2.56237E-07 8.11198E-19 1.15299E-18
 -1      3790 9.21989E-05-2.55088E-05-2.85995E-05 1.76296E-07 9.55905E-19 7.72871E-19
 -1      3791 9.29635E-05-2.62034E-05-2.85985E-05-9.35290E-08 7.36051E-19 3.69819E-19
 -1      3792 1.12827E-04-3.05086E-05-3.52883E-05-1.10062E-05-7.24609E-19-4.33072E-19
 -1      3793 1.16994E-04-4.16614E-05-3.23160E-05 4.39381E-06 9.24864E-19-1.69222E-18
 -1      3794 1.17693E-04-3.96772E-05-3.35094E-05 7.67462E-06 5.69818E-19-1.61468E-18
 -1      3795 1.06188E-04-1.71088E-05-3.82238E-05-5.02405E-06-1.60770E-18-8.79624E-19
 -1      3796 1.03064E-04-1.71780E-05-3.68563E-05-2.55182E-06-1.55829E-18-8.98613E-19
 -1      3797 1.02776E-04-1.67600E-05-3.68754E-05 6.37638E-07-1.43866E-18-1.19586E-18
 -1      3798 1.08204E-04-1.36945E-05-4.05572E-05-3.62486E-06-1.93221E-18-1.04227E-18
 -1      3799 1.05300E-04-1.59445E-05-3.83484E-05 2.75125E-06-1.14103E-18-1.14298E-18
 -1      3800 1.14737E-04-3.09879E-05-3.59863E-05 1.18169E-05-4.12670E-19-1.94951E-18
 -1      3801 1.09189E-04-3.04326E-05-3.37814E-05 1.06630E-05-6.15786E-19-1.60192E-18
 -1      3802 9.52413E-05-2.85746E-05-2.85715E-05 2.90714E-09 3.81167E-19 9.56655E-19
 -1      3803 1.10221E-04-3.31065E-05-3.30984E-05 1.05086E-05 6.17011E-20-1.81749E-18
 -1      3804 1.20404E-04-4.18727E-05-3.36477E-05-1.60873E-06 7.70558E-19 1.67997E-19
 -1      3805 1.17415E-04-4.11281E-05-3.27200E-05 1.90137E-06 1.03931E-18-7.47804E-20
 -1      3806 9.52425E-05-2.85751E-05-2.85717E-05-6.40002E-10 2.20170E-18 2.68647E-18
 -1      3807 9.52420E-05-2.85751E-05-2.85715E-05-1.03358E-09 2.15864E-18 2.18420E-18
 -1      3808 9.52418E-05-2.85750E-05-2.85715E-05-1.74337E-09 9.55934E-19-1.62741E-19
 -1      3809 9.41964E-05-2.73218E-05-2.86544E-05 2.50191E-07 2.70431E-19-2.10993E-19
 -1      3810 9.52413E-05-2.85747E-05-2.85714E-05-2.83972E-09 3.19209E-19-2.87586E-18
 -1      3811 1.20314E-04-3.49912E-05-3.65875E-05-1.01056E-05-6.20101E-19 4.24152E-19
 -1      3812 1.17886E-04-3.74734E-05-3.44313E-05 9.28284E-06 1.85381E-19-1.76937E-18
 -1      3813 9.11919E-05-2.44422E-05-2.85776E-05 5.45423E-07 1.82188E-19 9.97891E-19
 -1      3814 1.13320E-04-3.56402E-05-3.32328E-05 9.63190E-06 2.49120E-19-1.46472E-18
 -1      3815 1.19586E-04-3.99680E-05-3.41514E-05-4.55641E-06 2.97593E-19 1.76937E-19
 -1      3816 8.85746E-05-2.28428E-05-2.82158E-05-1.34381E-06 3.25326E-19 4.47717E-19
 -1      3817 8.85500E-05-2.30568E-05-2.80339E-05-3.14510E-06 6.22202E-19-4.01932E-19
 -1      3818 8.98466E-05-2.36729E-05-2.83605E-05-8.61160E-07-1.65226E-19 6.83180E-19
 -1      3819 9.52419E-05-2.85750E-05-2.85715E-05 1.27000E-09 2.26824E-18 2.07532E-18
 -1      3820 9.52424E-05-2.85750E-05-2.85717E-05 9.33037E-10 2.07984E-18 2.09845E-18
 -1      3821 9.52417E-05-2.85749E-05-2.85715E-05 1.94355E-09 1.89022E-18 2.72969E-18
 -1      3822 1.13427E-04-3.92412E-05-3.17563E-05 7.58462E-06 1.76121E-18-2.45573E-19
 -1      3823 1.13927E-04-3.89276E-05-3.21190E-05 3.68893E-06 1.35135E-18-5.95862E-19
 -1      3824 9.58934E-05-3.36422E-05-2.67324E-05-1.94387E-05 2.06809E-18-1.03560E-18
 -1      3825 1.00625E-04-3.76362E-05-2.68732E-05-2.10458E-05 2.01715E-18-1.48761E-18
 -1      3826 1.04950E-04-3.99726E-05-2.79134E-05-1.67632E-05 1.84474E-18-1.40363E-18
 -1      3827 1.10892E-04-2.15094E-05-3.82973E-05 1.00383E-05-8.00459E-19-2.22032E-18
 -1      3828 1.10880E-04-3.56842E-05-3.22396E-05-1.92187E-06 6.79016E-19-1.52301E-18
 -1      3829 1.13415E-04-3.75462E-05-3.25107E-05-5.94858E-07 8.85766E-19-8.83905E-19
 -1      3830 1.14098E-04-3.75653E-05-3.27712E-05-3.76002E-06 4.02907E-19-9.30231E-19
 -1      3831 1.17635E-04-4.71054E-05-3.01709E-05-9.37044E-06 1.38815E-18-2.12662E-18
 -1      3832 1.17538E-04-4.51645E-05-3.09773E-05-3.37897E-06 1.13870E-18-1.98938E-18
 -1      3833 1.12135E-04-4.41900E-05-2.91790E-05-1.17884E-05 1.34108E-18-1.49451E-18
 -1      3834 1.07476E-04-1.33583E-05-4.04576E-05 7.96129E-08-1.61255E-18-1.42436E-18
 -1      3835 1.16138E-04-4.26142E-05-3.14779E-05 2.35889E-06 1.05656E-18-1.57334E-18
 -1      3836 1.14893E-04-3.77625E-05-3.30905E-05-4.80546E-06 1.70618E-19-7.05175E-19
 -1      3837 1.13510E-04-4.23664E-05-3.05265E-05-8.07841E-07 8.82476E-19-1.39014E-18
 -1      3838 1.17688E-04-3.81467E-05-3.41390E-05-6.79237E-06-9.56519E-20-1.44806E-19
 -1      3839 9.15749E-05-2.49836E-05-2.85417E-05-1.08685E-07 5.05610E-19 5.38241E-19
 -1      3840 9.07072E-05-2.43441E-05-2.84702E-05-3.33656E-07 4.66876E-19 5.18501E-19
 -1      3841 9.04906E-05-2.43045E-05-2.83392E-05-1.52742E-06 2.50797E-19-3.44933E-19
 -1      3842 9.19290E-05-2.53631E-05-2.85094E-05-5.95991E-07 9.63964E-19-5.27528E-19
 -1      3843 9.52419E-05-2.85746E-05-2.85717E-05 2.67208E-09 4.16835E-19 9.96807E-19
 -1      3844 1.11679E-04-4.16856E-05-2.99612E-05-2.33114E-06 8.15483E-19-1.36214E-18
 -1      3845 1.04452E-04-3.69160E-05-2.89479E-05-2.97193E-06 4.66126E-19-8.03662E-19
 -1      3846 1.02881E-04-3.56559E-05-2.87682E-05-3.34492E-06 5.71975E-19-6.75301E-19
 -1      3847 1.01261E-04-3.43920E-05-2.86517E-05-3.28449E-06 4.06401E-19-5.78487E-20
 -1      3848 1.00018E-04-3.33003E-05-2.85666E-05-3.32579E-06 3.86902E-19 7.52621E-20
 -1      3849 1.01722E-04-3.50432E-05-2.86286E-05-4.74969E-06 7.78674E-19-1.00684E-18
 -1      3850 9.88952E-05-3.23104E-05-2.85251E-05-3.03964E-06 3.85127E-19-2.08324E-19
 -1      3851 9.79906E-05-3.14667E-05-2.84939E-05-2.90977E-06 1.95162E-19 1.92783E-19
 -1      3852 9.90157E-05-3.26341E-05-2.84859E-05-4.17742E-06 6.92363E-20-4.05599E-19
 -1      3853 9.72613E-05-3.07570E-05-2.84901E-05-2.55585E-06 4.39770E-19 1.90170E-19
 -1      3854 9.66447E-05-3.01567E-05-2.84864E-05-2.36099E-06 5.34789E-19 4.78843E-19
 -1      3855 9.72051E-05-3.08792E-05-2.84512E-05-3.38726E-06 4.18040E-19-8.89784E-19
 -1      3856 9.62040E-05-2.96831E-05-2.84984E-05-2.02269E-06 3.07329E-19 1.14677E-18
 -1      3857 9.58093E-05-2.92852E-05-2.85067E-05-1.82252E-06 7.06173E-19 1.01912E-18
 -1      3858 9.60684E-05-2.96856E-05-2.84666E-05-2.59348E-06 8.77615E-19 3.26763E-19
 -1      3859 9.55637E-05-2.89903E-05-2.85231E-05-1.53731E-06 4.63038E-19 1.01217E-18
 -1      3860 9.53280E-05-2.87448E-05-2.85348E-05-1.35935E-06 6.42474E-19 1.86994E-19
 -1      3861 9.54075E-05-2.89329E-05-2.84993E-05-1.90965E-06 4.88876E-19 6.47908E-19
 -1      3862 9.52082E-05-2.85770E-05-2.85500E-05-1.13587E-06 7.03943E-19-9.23714E-20
 -1      3863 9.50793E-05-2.84385E-05-2.85609E-05-9.90132E-07 6.24695E-19 1.56949E-20
 -1      3864 9.50602E-05-2.84961E-05-2.85334E-05-1.36554E-06 6.75429E-19 7.93039E-19
 -1      3865 9.50350E-05-2.83549E-05-2.85728E-05-8.22498E-07 5.73087E-19-1.44906E-19
 -1      3866 9.49745E-05-2.82878E-05-2.85811E-05-7.08637E-07 8.59131E-20-2.21722E-19
 -1      3867 9.49074E-05-2.82700E-05-2.85620E-05-9.55713E-07 2.56144E-19 2.20936E-19
 -1      3868 9.49724E-05-2.82573E-05-2.85892E-05-5.87234E-07-4.38511E-19-2.50752E-19
 -1      3869 9.49525E-05-2.82346E-05-2.85946E-05-5.00887E-07-6.42273E-20-4.86555E-19
 -1      3870 9.48679E-05-2.81783E-05-2.85827E-05-6.58726E-07-1.27699E-19-5.33510E-19
 -1      3871 9.49717E-05-2.82352E-05-2.85994E-05-4.14758E-07 2.98236E-19-6.48389E-19
 -1      3872 9.49742E-05-2.82382E-05-2.86023E-05-3.50539E-07 4.59877E-19-3.07553E-19
 -1      3873 9.48891E-05-2.81662E-05-2.85960E-05-4.48645E-07-1.91600E-19-1.43908E-19
 -1      3874 9.50020E-05-2.82553E-05-2.86045E-05-2.90399E-07 3.22345E-19-2.57442E-19
 -1      3875 9.50153E-05-2.82718E-05-2.86053E-05-2.43226E-07 8.61082E-19-5.05534E-19
 -1      3876 9.49383E-05-2.81974E-05-2.86032E-05-3.02746E-07 7.14517E-19-8.41377E-19
 -1      3877 9.50444E-05-2.82960E-05-2.86057E-05-2.01687E-07 3.99653E-19-7.49786E-19
 -1      3878 9.50615E-05-2.83179E-05-2.86052E-05-1.67298E-07-1.66817E-19-9.45427E-19
 -1      3879 9.49962E-05-2.82487E-05-2.86058E-05-2.02734E-07-2.20086E-20-5.35139E-19
 -1      3880 9.50882E-05-2.83437E-05-2.86043E-05-1.38789E-07-2.06762E-20-1.35402E-18
 -1      3881 9.51051E-05-2.83664E-05-2.86029E-05-1.13859E-07-3.86644E-19-1.08308E-18
 -1      3882 9.50524E-05-2.83059E-05-2.86053E-05-1.34727E-07-5.74077E-21-3.48270E-19
 -1      3883 9.51277E-05-2.83907E-05-2.86013E-05-9.43853E-08-9.67213E-20-1.42594E-18
 -1      3884 9.51427E-05-2.84117E-05-2.85995E-05-7.63935E-08 1.74786E-19-9.06094E-19
 -1      3885 9.51017E-05-2.83610E-05-2.86028E-05-8.87057E-08-2.04448E-19-1.06353E-18
 -1      3886 9.51608E-05-2.84329E-05-2.85975E-05-6.31347E-08-5.34955E-20-8.05338E-19
 -1      3887 9.51731E-05-2.84510E-05-2.85955E-05-5.02158E-08 1.17281E-19 6.08044E-21
 -1      3888 9.51423E-05-2.84101E-05-2.85992E-05-5.76438E-08 2.06674E-19-5.14893E-19
 -1      3889 9.51870E-05-2.84686E-05-2.85935E-05-4.12234E-08 3.71734E-19 1.59724E-19
 -1      3890 9.51965E-05-2.84836E-05-2.85915E-05-3.20116E-08 1.67771E-19 8.16754E-20
 -1      3891 9.51741E-05-2.84514E-05-2.85952E-05-3.67107E-08 3.14194E-19 2.20630E-19
 -1      3892 9.52067E-05-2.84976E-05-2.85896E-05-2.59497E-08 5.23612E-19-2.78653E-19
 -1      3893 9.52137E-05-2.85095E-05-2.85877E-05-1.94470E-08 9.02255E-19-5.97385E-19
 -1      3894 9.51980E-05-2.84848E-05-2.85912E-05-2.26362E-08 1.05271E-19-7.44303E-19
 -1      3895 9.52210E-05-2.85203E-05-2.85860E-05-1.54016E-08 1.42419E-18-3.95614E-19
 -1      3896 9.52259E-05-2.85294E-05-2.85844E-05-1.08764E-08 1.62247E-18-1.02000E-19
 -1      3897 9.52154E-05-2.85110E-05-2.85875E-05-1.32182E-08 1.23468E-18 3.34254E-19
 -1      3898 9.52308E-05-2.85375E-05-2.85828E-05-8.22076E-09 1.91891E-18-3.46114E-19
 -1      3899 9.52341E-05-2.85443E-05-2.85814E-05-5.13455E-09 2.36395E-18 2.04430E-19
 -1      3900 9.52274E-05-2.85309E-05-2.85841E-05-6.97400E-09 1.87179E-18-3.73039E-19
 -1      3901 9.52372E-05-2.85502E-05-2.85801E-05-3.43654E-09 6.34444E-19-3.11166E-19
 -1      3902 9.52392E-05-2.85551E-05-2.85790E-05-1.39081E-09-9.62377E-19-1.52267E-19
 -1      3903 9.52354E-05-2.85456E-05-2.85813E-05-2.90094E-09 9.20616E-19-1.49315E-18
 -1      3904 9.52411E-05-2.85592E-05-2.85779E-05-3.50134E-10-1.21542E-18-6.35270E-20
 -1      3905 9.52422E-05-2.85626E-05-2.85770E-05 9.50777E-10-1.75315E-18 2.54715E-21
 -1      3906 9.52403E-05-2.85562E-05-2.85789E-05-3.15393E-10-8.15565E-19-1.43475E-18
 -1      3907 9.52432E-05-2.85655E-05-2.85761E-05 1.54422E-09-9.97823E-19 9.36680E-19
 -1      3908 9.52436E-05-2.85677E-05-2.85754E-05 2.31966E-09 6.77363E-19 8.08162E-19
 -1      3909 9.52431E-05-2.85635E-05-2.85769E-05 1.25335E-09-6.50430E-19-6.02722E-20
 -1      3910 9.52439E-05-2.85696E-05-2.85747E-05 2.61356E-09 1.08187E-18-4.49102E-20
 -1      3911 9.52440E-05-2.85710E-05-2.85742E-05 3.02551E-09 8.79800E-19-3.30468E-19
 -1      3912 9.52443E-05-2.85684E-05-2.85753E-05 2.13247E-09-1.09037E-19 9.38313E-20
 -1      3913 9.52439E-05-2.85721E-05-2.85736E-05 3.12354E-09 1.63306E-19-7.82241E-19
 -1      3914 9.52437E-05-2.85730E-05-2.85732E-05 3.29043E-09-7.95492E-19-1.64267E-18
 -1      3915 9.52445E-05-2.85715E-05-2.85741E-05 2.55070E-09-1.63987E-19 7.40192E-19
 -1      3916 9.52434E-05-2.85736E-05-2.85728E-05 3.26507E-09 5.53135E-19-9.56602E-19
 -1      3917 9.52431E-05-2.85740E-05-2.85724E-05 3.27019E-09 2.08928E-19-1.42642E-19
 -1      3918 9.52441E-05-2.85734E-05-2.85732E-05 2.66774E-09-1.17711E-19 3.26749E-19
 -1      3919 9.52427E-05-2.85743E-05-2.85722E-05 3.02663E-09-5.84732E-20-2.41304E-19
 -1      3920 9.52423E-05-2.85745E-05-2.85719E-05 2.93957E-09 1.76112E-19 2.59886E-19
 -1      3921 9.52427E-05-2.85748E-05-2.85719E-05 1.97228E-09 1.11192E-18 1.67747E-18
 -1      3922 9.52434E-05-2.85744E-05-2.85725E-05 2.45342E-09 4.45107E-19 1.17956E-19
 -1      3923 9.49438E-05-2.81433E-05-2.86296E-05 1.45059E-07 7.64453E-20 1.73467E-19
 -1      3924 9.48797E-05-2.80692E-05-2.86344E-05 1.62175E-07-4.37459E-19-6.42398E-19
 -1      3925 9.47949E-05-2.79771E-05-2.86370E-05 1.59651E-07-8.88905E-19-7.61794E-19
 -1      3926 9.46936E-05-2.78699E-05-2.86410E-05 1.70739E-07-1.04907E-18-4.46725E-19
 -1      3927 9.48125E-05-2.80063E-05-2.86292E-05 9.46029E-08-9.12430E-19-2.71370E-19
 -1      3928 1.15282E-04-3.16735E-05-3.59606E-05-1.12340E-05-8.53050E-19-2.68251E-19
 -1      3929 1.14166E-04-2.79564E-05-3.69346E-05-1.20221E-05-1.01427E-18-4.55664E-19
 -1      3930 9.50439E-05-2.82625E-05-2.86212E-05 1.21076E-07 9.15744E-19 1.63824E-19
 -1      3931 9.50007E-05-2.82081E-05-2.86261E-05 1.39179E-07 7.40256E-19 6.90997E-19
 -1      3932 9.49511E-05-2.81591E-05-2.86237E-05 9.80906E-08 1.45834E-19-1.94129E-19
 -1      3933 9.51128E-05-2.83504E-05-2.86129E-05 9.53593E-08 1.38205E-19-1.47746E-18
 -1      3934 9.50839E-05-2.83106E-05-2.86175E-05 1.12002E-07 1.02098E-18-1.83373E-19
 -1      3935 9.50462E-05-2.82710E-05-2.86170E-05 8.74480E-08 1.52403E-18 7.77907E-19
 -1      3936 9.51599E-05-2.84151E-05-2.86053E-05 7.16717E-08-1.23816E-18-1.41045E-18
 -1      3937 9.51407E-05-2.83860E-05-2.86093E-05 8.58274E-08-1.05837E-18-1.94181E-18
 -1      3938 9.51129E-05-2.83549E-05-2.86099E-05 7.16480E-08-3.58311E-20-6.80511E-19
 -1      3939 9.51918E-05-2.84625E-05-2.85986E-05 5.15947E-08-1.41246E-18-8.36617E-19
 -1      3940 9.51791E-05-2.84412E-05-2.86020E-05 6.30246E-08-1.24352E-18-1.18766E-18
 -1      3941 9.51592E-05-2.84175E-05-2.86032E-05 5.52516E-08-1.38491E-18-2.00535E-18
 -1      3942 9.52130E-05-2.84970E-05-2.85928E-05 3.55016E-08-8.50317E-19-1.89140E-18
 -1      3943 9.52048E-05-2.84816E-05-2.85957E-05 4.43717E-08-9.08697E-19-1.15282E-18
 -1      3944 9.51911E-05-2.84638E-05-2.85971E-05 4.04896E-08-7.84957E-19-1.55746E-18
 -1      3945 9.52269E-05-2.85220E-05-2.85880E-05 2.31467E-08-5.14440E-19-1.53100E-18
 -1      3946 9.52217E-05-2.85109E-05-2.85903E-05 2.98017E-08-3.95307E-19-1.46794E-18
 -1      3947 9.52125E-05-2.84978E-05-2.85918E-05 2.82312E-08-5.92221E-19-1.84278E-18
 -1      3948 9.52357E-05-2.85398E-05-2.85840E-05 1.40111E-08-1.01411E-18-1.78181E-18
 -1      3949 9.52325E-05-2.85319E-05-2.85859E-05 1.88479E-08-9.72211E-19-1.57975E-18
 -1      3950 9.52267E-05-2.85226E-05-2.85874E-05 1.86075E-08-4.89276E-19-1.54365E-18
 -1      3951 9.52409E-05-2.85524E-05-2.85809E-05 7.49722E-09 1.34485E-18-1.40364E-18
 -1      3952 9.52391E-05-2.85468E-05-2.85824E-05 1.08990E-08 2.03294E-20-7.83646E-19
 -1      3953 9.52357E-05-2.85403E-05-2.85837E-05 1.13848E-08-6.15829E-19-2.00849E-18
 -1      3954 9.52437E-05-2.85610E-05-2.85784E-05 3.03111E-09 4.76910E-19 2.48108E-19
 -1      3955 9.52429E-05-2.85572E-05-2.85795E-05 5.33601E-09 5.95157E-19-4.32895E-19
 -1      3956 9.52410E-05-2.85528E-05-2.85806E-05 6.18158E-09 5.34857E-19-1.44497E-20
 -1      3957 9.52449E-05-2.85668E-05-2.85764E-05 1.09450E-10 1.64632E-18 1.63487E-18
 -1      3958 9.52447E-05-2.85643E-05-2.85773E-05 1.59988E-09 1.44816E-18 5.04378E-19
 -1      3959 9.52440E-05-2.85614E-05-2.85782E-05 2.58697E-09 5.76439E-19 9.52595E-19
 -1      3960 9.52451E-05-2.85705E-05-2.85749E-05-1.68425E-09-9.73214E-20 2.64301E-18
 -1      3961 9.52452E-05-2.85689E-05-2.85755E-05-7.81758E-10 7.79526E-19 2.33488E-18
 -1      3962 9.52452E-05-2.85672E-05-2.85763E-05 2.20808E-10 7.35969E-19 1.47821E-18
 -1      3963 9.52447E-05-2.85727E-05-2.85737E-05-2.68003E-09-8.76731E-19 2.48472E-18
 -1      3964 9.52450E-05-2.85718E-05-2.85742E-05-2.18951E-09 1.54242E-19 2.72765E-18
 -1      3965 9.52454E-05-2.85708E-05-2.85748E-05-1.24083E-09 3.86997E-19 1.85531E-18
 -1      3966 9.52439E-05-2.85740E-05-2.85728E-05-3.13398E-09 3.14696E-18-6.04883E-20
 -1      3967 9.52443E-05-2.85735E-05-2.85732E-05-2.92007E-09 5.25760E-19 2.12955E-18
 -1      3968 9.52449E-05-2.85730E-05-2.85737E-05-2.05663E-09 9.76385E-19 2.27564E-18
 -1      3969 9.52429E-05-2.85745E-05-2.85721E-05-3.21598E-09 2.84569E-18-1.25174E-18
 -1      3970 9.52434E-05-2.85743E-05-2.85724E-05-3.19347E-09 3.84203E-18-1.11807E-18
 -1      3971 9.52441E-05-2.85742E-05-2.85728E-05-2.44565E-09 3.69972E-18-2.63746E-19
 -1      3972 8.83111E-05-2.35453E-05-2.77233E-05-6.01004E-06 9.44409E-19-2.75857E-19
 -1      3973 8.69551E-05-2.31239E-05-2.74017E-05-7.78171E-06 6.24488E-19-3.39608E-19
 -1      3974 1.18116E-04-3.64215E-05-3.49841E-05-8.83893E-06-4.69435E-19 1.43260E-19
 -1      3975 8.39012E-05-2.37812E-05-2.57501E-05-1.72477E-05 2.04359E-18 1.98177E-19
 -1      3976 9.00605E-05-2.87595E-05-2.63200E-05-1.85407E-05 2.20490E-18-4.66718E-19
 -1      3977 8.56441E-05-2.37270E-05-2.64425E-05-1.39418E-05 1.82013E-18-7.65043E-20
 -1      3978 9.52419E-05-2.85748E-05-2.85716E-05-2.56971E-09 1.84941E-18-1.65697E-18
 -1      3979 9.42773E-05-2.74554E-05-2.86385E-05 9.17753E-08-7.73843E-21 1.07227E-18
 -1      3980 9.40671E-05-2.72681E-05-2.86346E-05 5.41788E-08 6.60302E-19 1.01538E-18
 -1      3981 1.12235E-04-2.40444E-05-3.78420E-05-1.09058E-05-1.22436E-18-4.75047E-19
 -1      3982 9.45791E-05-2.77514E-05-2.86412E-05 1.50044E-07 9.64381E-20 2.34320E-19
 -1      3983 9.44357E-05-2.76122E-05-2.86426E-05 1.44847E-07 6.83685E-19 2.08984E-19
 -1      3984 9.43500E-05-2.75470E-05-2.86258E-05-2.86655E-08 7.71991E-19 9.16499E-19
 -1      3985 9.46168E-05-2.78044E-05-2.86309E-05 6.04079E-08 1.41152E-19 3.82106E-19
 -1      3986 9.38509E-05-2.70635E-05-2.86229E-05-5.62703E-08 3.98266E-19 1.36295E-19
 -1      3987 9.35449E-05-2.68140E-05-2.86092E-05-1.53835E-07 2.29040E-19 1.99876E-19
 -1      3988 9.39841E-05-2.72181E-05-2.86085E-05-2.14512E-07 2.30366E-19 1.45003E-18
 -1      3989 9.52430E-05-2.85751E-05-2.85720E-05-2.34014E-10 2.44867E-18 3.82218E-18
 -1      3990 9.52429E-05-2.85750E-05-2.85720E-05-1.01346E-09 2.29835E-18 3.19290E-18
 -1      3991 8.99676E-05-2.43033E-05-2.81223E-05-3.48109E-06 6.83238E-19-8.05842E-19
 -1      3992 8.88551E-05-2.37959E-05-2.79284E-05-4.58103E-06 1.04108E-18-5.26051E-19
 -1      3993 8.99387E-05-2.49527E-05-2.78429E-05-6.28478E-06 9.39970E-19-7.87055E-19
 -1      3994 1.08455E-04-3.94713E-05-2.95455E-05-1.53643E-06 8.58817E-19-1.26396E-18
 -1      3995 1.06644E-04-3.83490E-05-2.92004E-05-2.55130E-06 6.19803E-19-1.12562E-18
 -1      3996 9.52428E-05-2.85750E-05-2.85719E-05-1.89618E-09 3.22868E-18 6.91931E-19
 -1      3997 9.52422E-05-2.85747E-05-2.85718E-05-3.00447E-09 2.32406E-18-2.39950E-18
 -1      3998 9.52426E-05-2.85746E-05-2.85720E-05-3.09298E-09 2.56804E-18-1.11495E-18
 -1      3999 9.52433E-05-2.85749E-05-2.85722E-05-1.46126E-09 3.37304E-18 1.35558E-18
 -1      4000 9.32526E-05-2.65507E-05-2.85846E-05-3.58371E-07 7.66034E-19-3.11305E-19
 -1      4001 9.28120E-05-2.62288E-05-2.85528E-05-5.57931E-07 1.24206E-18-4.16503E-19
 -1      4002 9.34888E-05-2.68063E-05-2.85709E-05-5.65857E-07 2.37289E-19 4.64203E-19
 -1      4003 9.51280E-05-3.19156E-05-2.70466E-05-1.65782E-05 1.85034E-18-6.70045E-19
 -1      4004 9.52434E-05-2.85747E-05-2.85723E-05-2.43499E-09 3.16367E-18 1.41166E-19
 -1      4005 1.04759E-04-3.90130E-05-2.81932E-05-1.36851E-05 1.22828E-18-7.55623E-19
 -1      4006 1.08958E-04-4.19636E-05-2.86128E-05-1.33288E-05 1.36789E-18-1.02836E-18
 -1      4007 1.11210E-04-4.26359E-05-2.93649E-05-8.53638E-06 1.08750E-18-1.56286E-18
 -1      4008 8.68272E-05-2.32833E-05-2.71789E-05-9.43390E-06 7.39422E-19-6.13181E-20
 -1      4009 8.53029E-05-2.29967E-05-2.67208E-05-1.17728E-05 1.49828E-18 1.22631E-19
 -1      4010 8.92695E-05-2.64786E-05-2.69656E-05-1.33414E-05 1.51343E-18 4.86713E-21
 -1      4011 8.92078E-05-2.52702E-05-2.74315E-05-9.50951E-06 1.13023E-18 5.02806E-19
 -1      4012 9.52429E-05-2.85749E-05-2.85720E-05 1.26160E-09 1.35832E-18 1.50155E-18
 -1      4013 9.52430E-05-2.85750E-05-2.85720E-05 5.00496E-10 1.59220E-18 2.47637E-18
 -1      4014 9.52435E-05-2.85749E-05-2.85722E-05 1.06800E-10 1.85435E-18 2.89078E-18
 -1      4015 9.52433E-05-2.85748E-05-2.85722E-05 1.51034E-09 7.92614E-19 7.09945E-19
 -1      4016 1.05497E-04-3.80405E-05-2.89780E-05-4.70137E-06 8.42698E-19-1.43540E-18
 -1      4017 1.10829E-04-4.19127E-05-2.95762E-05-5.50796E-06 8.56597E-19-1.84641E-18
 -1      4018 1.07912E-04-4.01100E-05-2.90416E-05-7.12179E-06 8.60640E-19-1.74312E-18
 -1      4019 1.05349E-04-3.80850E-05-2.88073E-05-7.04357E-06 1.01357E-18-1.46696E-18
 -1      4020 1.03189E-04-3.63816E-05-2.85817E-05-7.09649E-06 1.20771E-18-1.04007E-18
 -1      4021 1.05116E-04-3.86343E-05-2.85894E-05-9.90074E-06 1.21617E-18-6.20662E-19
 -1      4022 9.88644E-05-3.25155E-05-2.84069E-05-5.35187E-06-2.27545E-20-1.74186E-19
 -1      4023 9.77116E-05-3.14726E-05-2.83756E-05-4.89963E-06-7.19572E-20-2.57773E-19
 -1      4024 9.69570E-05-3.06463E-05-2.83936E-05-4.18057E-06 1.22055E-19 4.04891E-19
 -1      4025 9.62126E-05-2.99414E-05-2.83975E-05-3.70563E-06 5.27259E-19 1.44519E-19
 -1      4026 9.64860E-05-3.05376E-05-2.83098E-05-5.28837E-06 3.71293E-19 3.37314E-19
 -1      4027 9.58165E-05-2.94365E-05-2.84280E-05-3.10057E-06 1.31314E-18 1.30058E-19
 -1      4028 9.53648E-05-2.89952E-05-2.84448E-05-2.68716E-06 1.36686E-18 4.37822E-19
 -1      4029 9.53766E-05-2.92471E-05-2.83699E-05-3.81486E-06 1.01071E-18 6.08117E-19
 -1      4030 9.51831E-05-2.87079E-05-2.84751E-05-2.21194E-06 5.20154E-19 4.62915E-19
 -1      4031 9.49343E-05-2.84528E-05-2.84944E-05-1.88539E-06 4.89907E-19 7.54504E-19
 -1      4032 9.48092E-05-2.84865E-05-2.84375E-05-2.65311E-06 1.11591E-18 6.64044E-19
 -1      4033 9.48722E-05-2.83057E-05-2.85191E-05-1.53280E-06 3.54705E-19 4.50262E-19
 -1      4034 9.47526E-05-2.81777E-05-2.85358E-05-1.28668E-06-4.67797E-20 2.61040E-19
 -1      4035 9.45829E-05-2.81026E-05-2.84968E-05-1.79658E-06 4.38443E-20 5.12913E-19
 -1      4036 9.47630E-05-2.81197E-05-2.85541E-05-1.04187E-06-3.54198E-19-1.94025E-19
 -1      4037 9.47160E-05-2.80684E-05-2.85667E-05-8.62802E-07 9.54414E-20-5.55659E-19
 -1      4038 9.45470E-05-2.79602E-05-2.85409E-05-1.18575E-06-2.92634E-19-7.62810E-19
 -1      4039 9.47577E-05-2.80623E-05-2.85790E-05-6.94720E-07 3.07666E-19-9.12741E-19
 -1      4040 9.47536E-05-2.80564E-05-2.85874E-05-5.68783E-07 1.02531E-20-7.53520E-19
 -1      4041 9.45972E-05-2.79330E-05-2.85719E-05-7.63668E-07-1.08619E-19-1.34391E-18
 -1      4042 9.48065E-05-2.80782E-05-2.85948E-05-4.56561E-07-2.62391E-19-5.78524E-19
 -1      4043 9.48245E-05-2.80970E-05-2.85998E-05-3.69774E-07-2.97751E-19-6.97650E-19
 -1      4044 9.46907E-05-2.79767E-05-2.85918E-05-4.81819E-07 6.27990E-21-1.63992E-18
 -1      4045 9.48774E-05-2.81315E-05-2.86036E-05-2.96605E-07-5.01222E-20-1.10213E-18
 -1      4046 9.49043E-05-2.81615E-05-2.86058E-05-2.37676E-07 8.12454E-19-1.60135E-18
 -1      4047 9.47950E-05-2.80534E-05-2.86029E-05-2.98242E-07-7.30755E-20-1.64370E-18
 -1      4048 9.49519E-05-2.81997E-05-2.86070E-05-1.90835E-07 6.83232E-19-1.79741E-18
 -1      4049 9.49804E-05-2.82329E-05-2.86073E-05-1.51279E-07 3.60002E-20-1.63087E-18
 -1      4050 9.48937E-05-2.81402E-05-2.86077E-05-1.81206E-07 4.68120E-19-1.79838E-18
 -1      4051 9.50204E-05-2.82696E-05-2.86069E-05-1.21668E-07-1.54115E-19-1.22826E-18
 -1      4052 9.50467E-05-2.83016E-05-2.86060E-05-9.52308E-08 2.03509E-19-9.94751E-19
 -1      4053 9.49796E-05-2.82244E-05-2.86084E-05-1.07960E-07 2.42661E-19-1.75672E-18
 -1      4054 9.50789E-05-2.83342E-05-2.86046E-05-7.68868E-08 3.07828E-19-7.10578E-19
 -1      4055 9.51013E-05-2.83627E-05-2.86029E-05-5.92343E-08 4.47731E-19-3.04693E-19
 -1      4056 9.50505E-05-2.83003E-05-2.86064E-05-6.30533E-08 2.72484E-19-1.13524E-18
 -1      4057 9.51263E-05-2.83904E-05-2.86010E-05-4.80040E-08 4.86956E-19-1.32415E-19
 -1      4058 9.51443E-05-2.84144E-05-2.85990E-05-3.62130E-08 5.64315E-19 5.27773E-19
 -1      4059 9.51067E-05-2.83651E-05-2.86028E-05-3.59025E-08 6.44401E-19 5.78501E-19
 -1      4060 9.51632E-05-2.84370E-05-2.85969E-05-2.94317E-08 1.15504E-19 5.15231E-19
 -1      4061 9.51770E-05-2.84565E-05-2.85948E-05-2.15469E-08 5.35092E-21 3.14083E-19
 -1      4062 9.51497E-05-2.84182E-05-2.85987E-05-1.97414E-08 5.55635E-19 7.20751E-19
 -1      4063 9.51908E-05-2.84744E-05-2.85927E-05-1.75129E-08 3.25195E-19 4.38563E-19
 -1      4064 9.52010E-05-2.84898E-05-2.85907E-05-1.22383E-08 1.12222E-18 5.32352E-19
 -1      4065 9.51818E-05-2.84606E-05-2.85944E-05-1.02690E-08 3.47665E-19 1.41375E-18
 -1      4066 9.52108E-05-2.85036E-05-2.85888E-05-9.88379E-09 1.36213E-18 4.03971E-19
 -1      4067 9.52180E-05-2.85153E-05-2.85870E-05-6.36353E-09 1.15059E-18 3.83048E-19
 -1      4068 9.52049E-05-2.84936E-05-2.85903E-05-4.80661E-09 1.54100E-18 1.49228E-18
 -1      4069 9.52247E-05-2.85257E-05-2.85853E-05-5.02724E-09 1.07162E-18 5.28941E-19
 -1      4070 9.52296E-05-2.85345E-05-2.85837E-05-2.69458E-09 1.20301E-18-3.21339E-19
 -1      4071 9.52210E-05-2.85186E-05-2.85865E-05-1.71815E-09 6.50623E-19-4.05314E-20
 -1      4072 9.52339E-05-2.85421E-05-2.85822E-05-1.97126E-09 3.20030E-19-6.94361E-19
 -1      4073 9.52371E-05-2.85484E-05-2.85809E-05-4.48068E-10 2.78898E-19-1.49540E-18
 -1      4074 9.52317E-05-2.85371E-05-2.85833E-05-2.03405E-11 3.04721E-19-7.66610E-19
 -1      4075 9.52397E-05-2.85539E-05-2.85797E-05-9.08384E-11-5.46422E-20-1.14791E-18
 -1      4076 9.52416E-05-2.85583E-05-2.85786E-05 8.78134E-10-9.79616E-19-8.96954E-19
 -1      4077 9.52386E-05-2.85504E-05-2.85806E-05 8.69739E-10-1.90724E-19-8.80852E-19
 -1      4078 9.52430E-05-2.85621E-05-2.85776E-05 1.01926E-09-3.52646E-19-1.23923E-18
 -1      4079 9.52440E-05-2.85651E-05-2.85767E-05 1.60867E-09-4.29566E-19-1.34066E-18
 -1      4080 9.52426E-05-2.85598E-05-2.85783E-05 1.29416E-09-3.67569E-19-5.17458E-19
 -1      4081 9.52446E-05-2.85676E-05-2.85759E-05 1.62492E-09-1.25289E-19-1.01467E-18
 -1      4082 9.52449E-05-2.85696E-05-2.85752E-05 1.95577E-09 6.61044E-19-1.08538E-18
 -1      4083 9.52446E-05-2.85662E-05-2.85764E-05 1.45249E-09 6.41943E-19-2.77613E-18
 -1      4084 9.52450E-05-2.85711E-05-2.85745E-05 1.90297E-09 7.96541E-19-1.17567E-18
 -1      4085 9.52449E-05-2.85723E-05-2.85740E-05 2.05969E-09-5.25140E-19-6.81427E-19
 -1      4086 9.52453E-05-2.85703E-05-2.85750E-05 1.46131E-09 9.48951E-19-2.08959E-18
 -1      4087 9.52446E-05-2.85732E-05-2.85735E-05 1.97134E-09-5.90399E-19 3.22084E-19
 -1      4088 9.52443E-05-2.85739E-05-2.85730E-05 2.00680E-09 2.59816E-19 1.79387E-19
 -1      4089 9.52451E-05-2.85728E-05-2.85738E-05 1.38990E-09-1.12730E-19-2.01167E-18
 -1      4090 9.51176E-05-2.83689E-05-2.86069E-05 4.59913E-08-3.19630E-19 4.35603E-19
 -1      4091 9.50894E-05-2.83335E-05-2.86102E-05 5.30253E-08 1.37578E-18 1.31577E-18
 -1      4092 9.52438E-05-2.85749E-05-2.85724E-05-7.12150E-10 3.83592E-18 1.71576E-18
 -1      4093 9.52437E-05-2.85748E-05-2.85724E-05-1.55545E-09 4.21928E-18 1.27341E-18
 -1      4094 9.52439E-05-2.85747E-05-2.85725E-05-1.64208E-09 3.77078E-18 1.01856E-18
 -1      4095 9.50555E-05-2.82925E-05-2.86130E-05 5.25881E-08 1.48179E-18 1.11662E-18
 -1      4096 9.50151E-05-2.82458E-05-2.86163E-05 5.78355E-08 1.24108E-18 4.93573E-19
 -1      4097 9.50655E-05-2.83071E-05-2.86098E-05 2.58075E-08 1.63591E-18 1.71052E-18
 -1      4098 9.49689E-05-2.81926E-05-2.86186E-05 5.17655E-08 2.56162E-19 3.89457E-19
 -1      4099 9.49116E-05-2.81317E-05-2.86215E-05 5.20912E-08-7.44279E-19-3.68541E-21
 -1      4100 9.49860E-05-2.82159E-05-2.86145E-05 1.56804E-08 6.28790E-19 2.20967E-19
 -1      4101 9.48462E-05-2.80597E-05-2.86228E-05 3.40918E-08-7.87653E-19 3.10958E-19
 -1      4102 9.47605E-05-2.79759E-05-2.86244E-05 2.20765E-08-6.44301E-19 1.20937E-19
 -1      4103 9.48754E-05-2.80974E-05-2.86176E-05-1.36012E-08-7.07547E-19 3.56055E-20
 -1      4104 9.51616E-05-2.84267E-05-2.86009E-05 3.68199E-08-1.16017E-18-2.59394E-19
 -1      4105 9.51421E-05-2.84001E-05-2.86040E-05 4.38740E-08-1.10755E-18-3.28677E-19
 -1      4106 9.51235E-05-2.83782E-05-2.86044E-05 2.66142E-08 1.45337E-19 2.09585E-18
 -1      4107 9.51922E-05-2.84701E-05-2.85954E-05 2.76027E-08-7.36536E-19-7.48947E-19
 -1      4108 9.51790E-05-2.84502E-05-2.85982E-05 3.38428E-08-9.13166E-19-7.45474E-19
 -1      4109 9.51651E-05-2.84327E-05-2.85991E-05 2.31849E-08-5.32328E-19 7.35153E-19
 -1      4110 9.52132E-05-2.85022E-05-2.85906E-05 1.95130E-08-6.22184E-19-7.36025E-19
 -1      4111 9.52044E-05-2.84876E-05-2.85930E-05 2.46376E-08-6.04456E-19-1.21977E-18
 -1      4112 9.51944E-05-2.84741E-05-2.85941E-05 1.83222E-08-4.57255E-19-1.34794E-19
 -1      4113 9.52271E-05-2.85256E-05-2.85865E-05 1.29602E-08-6.22103E-19-5.11889E-19
 -1      4114 9.52214E-05-2.85150E-05-2.85885E-05 1.69520E-08-4.02512E-19-6.78496E-19
 -1      4115 9.52145E-05-2.85049E-05-2.85896E-05 1.34638E-08-6.39589E-19-2.80859E-19
 -1      4116 9.52360E-05-2.85425E-05-2.85830E-05 7.95105E-09-5.60501E-19-8.19430E-19
 -1      4117 9.52325E-05-2.85349E-05-2.85847E-05 1.09293E-08-1.17325E-18-1.00209E-18
 -1      4118 9.52279E-05-2.85276E-05-2.85857E-05 9.25486E-09-5.25245E-19-3.41583E-19
 -1      4119 9.52413E-05-2.85544E-05-2.85802E-05 4.30446E-09 2.35870E-19-7.17136E-19
 -1      4120 9.52393E-05-2.85491E-05-2.85815E-05 6.44005E-09 3.47433E-19-1.44549E-18
 -1      4121 9.52365E-05-2.85439E-05-2.85825E-05 5.90327E-09-1.89086E-19-1.93385E-18
 -1      4122 9.52442E-05-2.85626E-05-2.85779E-05 1.77230E-09 6.20876E-19-2.44838E-19
 -1      4123 9.52432E-05-2.85590E-05-2.85790E-05 3.24206E-09-6.87621E-20-9.26066E-19
 -1      4124 9.52417E-05-2.85554E-05-2.85798E-05 3.39377E-09-1.23555E-19-2.71651E-18
 -1      4125 9.52454E-05-2.85680E-05-2.85761E-05 1.03777E-10 1.05654E-19 5.72982E-19
 -1      4126 9.52451E-05-2.85656E-05-2.85769E-05 1.06810E-09 9.14994E-19 7.60727E-19
 -1      4127 9.52444E-05-2.85633E-05-2.85776E-05 1.61197E-09 7.03070E-19-7.86789E-19
 -1      4128 9.52456E-05-2.85714E-05-2.85747E-05-9.23923E-10 1.82099E-19 1.82505E-19
 -1      4129 9.52457E-05-2.85699E-05-2.85753E-05-3.30479E-10 5.02729E-19 8.35609E-19
 -1      4130 9.52455E-05-2.85685E-05-2.85759E-05 4.12468E-10 3.04364E-19-1.07325E-18
 -1      4131 9.52451E-05-2.85734E-05-2.85736E-05-1.48618E-09 1.70037E-18 4.63933E-19
 -1      4132 9.52454E-05-2.85726E-05-2.85741E-05-1.16621E-09 3.99352E-19 7.95099E-19
 -1      4133 9.52456E-05-2.85718E-05-2.85745E-05-3.47584E-10 6.62635E-20-1.40824E-18
 -1      4134 9.52443E-05-2.85744E-05-2.85728E-05-1.65537E-09 3.25647E-18 1.13639E-18
 -1      4135 9.52448E-05-2.85739E-05-2.85732E-05-1.51230E-09 2.84425E-18 8.29307E-19
 -1      4136 9.52451E-05-2.85735E-05-2.85736E-05-7.05977E-10 2.26478E-18 1.77854E-19
 -1      4137 9.52445E-05-2.85744E-05-2.85729E-05-7.90597E-10 4.32789E-18 1.43877E-18
 -1      4138 9.41634E-05-2.74188E-05-2.86019E-05-3.17193E-07 6.06637E-20 6.88566E-19
 -1      4139 9.39476E-05-2.72605E-05-2.85884E-05-4.52917E-07-3.99269E-19 4.14530E-19
 -1      4140 9.32979E-05-2.98911E-05-2.72047E-05-1.41236E-05 1.40341E-18-3.47507E-19
 -1      4141 9.87263E-05-3.44448E-05-2.76006E-05-1.46785E-05 1.52341E-18-6.80868E-19
 -1      4142 1.01557E-04-3.49529E-05-2.85146E-05-6.41692E-06 1.14939E-18-1.10006E-18
 -1      4143 9.99067E-05-3.35384E-05-2.84146E-05-6.10227E-06 5.60110E-19-6.55733E-19
 -1      4144 9.82621E-05-3.24241E-05-2.82814E-05-6.95726E-06 5.51056E-19-8.53902E-19
 -1      4145 1.00784E-04-3.49203E-05-2.83287E-05-8.63238E-06 1.33745E-18-6.10675E-19
 -1      4146 9.05094E-05-2.46649E-05-2.82529E-05-2.54193E-06 5.90599E-19-9.72949E-19
 -1      4147 9.10150E-05-2.52626E-05-2.81670E-05-3.79817E-06 8.68716E-19-1.36364E-18
 -1      4148 9.13573E-05-2.51445E-05-2.83652E-05-1.88291E-06 6.94747E-19-1.45575E-18
 -1      4149 9.24414E-05-2.59101E-05-2.85067E-05-9.16480E-07 1.05342E-18-8.89625E-19
 -1      4150 9.18191E-05-2.55051E-05-2.84447E-05-1.29035E-06 5.57134E-19-1.35896E-18
 -1      4151 9.20053E-05-2.57793E-05-2.83728E-05-2.18742E-06 5.16528E-19-1.88006E-18
 -1      4152 9.28344E-05-2.63237E-05-2.84980E-05-1.17890E-06 8.42672E-19-5.76265E-19
 -1      4153 9.16982E-05-2.62417E-05-2.80139E-05-5.80995E-06 1.32009E-18-9.76256E-19
 -1      4154 9.12055E-05-2.63174E-05-2.78280E-05-7.32717E-06 1.52301E-18-3.56034E-19
 -1      4155 9.52440E-05-2.85742E-05-2.85728E-05 1.85118E-09 5.39081E-19 5.55760E-19
 -1      4156 9.52437E-05-2.85746E-05-2.85725E-05 1.64312E-09 8.93216E-19 8.35259E-19
 -1      4157 9.52438E-05-2.85747E-05-2.85725E-05 9.75754E-10 9.72770E-19 1.15172E-18
 -1      4158 9.52445E-05-2.85741E-05-2.85730E-05 1.22607E-09 1.10927E-18-9.95014E-19
 -1      4159 9.40010E-05-2.73502E-05-2.85643E-05-7.60212E-07-3.58991E-19-2.78959E-19
 -1      4160 9.37895E-05-2.71161E-05-2.85689E-05-6.62043E-07-4.97981E-19 2.95498E-19
 -1      4161 9.35006E-05-2.69184E-05-2.85419E-05-9.13837E-07-8.05569E-20-3.13012E-19
 -1      4162 9.42969E-05-2.75484E-05-2.86123E-05-1.91291E-07 1.04739E-18 1.13313E-18
 -1      4163 9.42994E-05-2.75730E-05-2.85952E-05-4.06362E-07 1.43185E-19-3.49675E-19
 -1      4164 9.44562E-05-2.76779E-05-2.86180E-05-1.20082E-07 1.14333E-18 6.66529E-19
 -1      4165 9.30236E-05-2.89021E-05-2.74309E-05-1.21196E-05 1.11395E-18-2.11283E-19
 -1      4166 1.01966E-04-3.64890E-05-2.80109E-05-1.28856E-05 1.52680E-18-6.16309E-19
 -1      4167 9.32367E-05-2.82372E-05-2.79128E-05-7.95175E-06 1.79325E-18-2.69979E-19
 -1      4168 9.16161E-05-2.68045E-05-2.77202E-05-8.55261E-06 1.53022E-18-4.68473E-19
 -1      4169 9.14533E-05-2.72254E-05-2.75249E-05-1.01988E-05 1.46118E-18-5.65402E-19
 -1      4170 1.00086E-04-3.44839E-05-2.80618E-05-1.09530E-05 1.37800E-18-5.72373E-19
 -1      4171 9.52439E-05-2.85748E-05-2.85725E-05 4.81587E-10 1.14303E-18 7.44208E-19
 -1      4172 9.52439E-05-2.85748E-05-2.85725E-05-2.33075E-10 2.79936E-18 1.66900E-18
 -1      4173 9.52442E-05-2.85747E-05-2.85726E-05-3.38352E-10 4.06300E-18 7.85879E-19
 -1      4174 9.52443E-05-2.85746E-05-2.85727E-05 6.04360E-10 2.19542E-18-4.71134E-19
 -1      4175 9.46778E-05-2.78886E-05-2.86235E-05-1.55927E-08-3.57060E-19 5.49673E-19
 -1      4176 9.45627E-05-2.77857E-05-2.86225E-05-4.87507E-08 6.10214E-19 6.49595E-19
 -1      4177 9.47278E-05-2.79501E-05-2.86172E-05-7.70042E-08-1.49996E-19 3.76237E-19
 -1      4178 9.52863E-05-2.95006E-05-2.81484E-05-6.56001E-06 1.17748E-18-1.75225E-19
 -1      4179 9.45403E-05-2.87478E-05-2.81865E-05-5.65993E-06 1.30004E-18 4.48264E-19
 -1      4180 9.16476E-05-2.60873E-05-2.81272E-05-4.64096E-06 8.79463E-19-1.37872E-18
 -1      4181 9.28732E-05-2.73258E-05-2.81172E-05-5.58129E-06 1.30275E-18-6.97798E-19
 -1      4182 9.21796E-05-2.62031E-05-2.82522E-05-3.63710E-06 6.58482E-19-1.02024E-18
 -1      4183 9.51362E-05-2.84005E-05-2.86012E-05-2.78917E-10 1.57066E-19 1.08714E-18
 -1      4184 9.51117E-05-2.83710E-05-2.86038E-05-8.12651E-10 1.10326E-18 1.31895E-18
 -1      4185 9.44444E-05-2.83790E-05-2.82788E-05-4.54905E-06 8.16466E-19 2.74856E-19
 -1      4186 9.40436E-05-2.79680E-05-2.83197E-05-3.84384E-06 1.27313E-18 2.50624E-19
 -1      4187 9.42812E-05-2.77961E-05-2.84799E-05-1.92783E-06 1.78089E-19-6.22922E-19
 -1      4188 9.42170E-05-2.77103E-05-2.85059E-05-1.57242E-06-3.43612E-19-7.68660E-19
 -1      4189 9.41824E-05-2.75951E-05-2.85306E-05-1.24427E-06-2.70692E-19-5.29051E-19
 -1      4190 9.42067E-05-2.75978E-05-2.85504E-05-9.90567E-07-3.84235E-19-6.74156E-19
 -1      4191 9.43565E-05-2.76789E-05-2.85701E-05-7.57716E-07-3.95835E-19-6.54694E-19
 -1      4192 9.44010E-05-2.77156E-05-2.85828E-05-5.89090E-07-1.25197E-19-1.16323E-18
 -1      4193 9.45270E-05-2.78005E-05-2.85938E-05-4.45709E-07 3.24252E-19-6.78031E-19
 -1      4194 9.45826E-05-2.78529E-05-2.86012E-05-3.36714E-07 2.20985E-19-5.71399E-19
 -1      4195 9.46846E-05-2.79321E-05-2.86066E-05-2.51902E-07-5.65337E-20-2.47285E-19
 -1      4196 9.47396E-05-2.79877E-05-2.86102E-05-1.83021E-07 2.49202E-19-6.04171E-20
 -1      4197 9.48196E-05-2.80569E-05-2.86119E-05-1.35189E-07 2.41550E-20-5.84380E-19
 -1      4198 9.48687E-05-2.81093E-05-2.86129E-05-9.25352E-08-2.72124E-19-6.03341E-19
 -1      4199 9.49326E-05-2.81701E-05-2.86123E-05-6.63157E-08-1.10475E-19-1.07375E-18
 -1      4200 9.49737E-05-2.82161E-05-2.86117E-05-4.06454E-08-4.10069E-20-7.60214E-19
 -1      4201 9.50193E-05-2.82632E-05-2.86099E-05-2.91899E-08 5.86766E-19-3.80031E-19
 -1      4202 9.50523E-05-2.83019E-05-2.86083E-05-1.39217E-08 1.18964E-18 5.15577E-19
 -1      4203 9.50861E-05-2.83395E-05-2.86059E-05-9.65998E-09 9.76433E-19 9.16513E-19
 -1      4204 9.51555E-05-2.84256E-05-2.85990E-05 4.72963E-09-2.09081E-19 1.21258E-18
 -1      4205 9.51730E-05-2.84483E-05-2.85965E-05 3.54967E-09-3.24153E-19 8.90599E-19
 -1      4206 9.51870E-05-2.84677E-05-2.85943E-05 6.31798E-09 5.18784E-19 7.60177E-19
 -1      4207 9.51993E-05-2.84850E-05-2.85920E-05 4.53719E-09 7.09776E-20 5.02000E-19
 -1      4208 9.52092E-05-2.84997E-05-2.85900E-05 6.02736E-09 8.87927E-21-5.16014E-20
 -1      4209 9.52175E-05-2.85126E-05-2.85879E-05 4.21707E-09 3.44900E-19-1.21102E-18
 -1      4210 9.52243E-05-2.85236E-05-2.85862E-05 4.99427E-09-1.16723E-19-9.76243E-19
 -1      4211 9.52298E-05-2.85329E-05-2.85844E-05 3.41242E-09-3.29503E-19-1.31055E-18
 -1      4212 9.52342E-05-2.85409E-05-2.85829E-05 3.80072E-09-5.53778E-19-2.10707E-18
 -1      4213 9.52376E-05-2.85476E-05-2.85815E-05 2.53303E-09 1.32118E-19-2.17634E-18
 -1      4214 9.52403E-05-2.85533E-05-2.85802E-05 2.71375E-09 2.45847E-19-1.82255E-18
 -1      4215 9.52422E-05-2.85579E-05-2.85790E-05 1.75826E-09-2.77622E-19-1.67127E-18
 -1      4216 9.52437E-05-2.85618E-05-2.85780E-05 1.83039E-09-1.89084E-19-2.03899E-18
 -1      4217 9.52446E-05-2.85650E-05-2.85770E-05 1.14612E-09 8.18093E-19-1.99570E-18
 -1      4218 9.52453E-05-2.85676E-05-2.85762E-05 1.16254E-09 9.89154E-19-2.07280E-18
 -1      4219 9.52455E-05-2.85696E-05-2.85754E-05 6.96082E-10-1.77360E-20-2.40476E-18
 -1      4220 9.52456E-05-2.85712E-05-2.85748E-05 6.84898E-10 1.31551E-19-2.42615E-18
 -1      4221 9.52455E-05-2.85724E-05-2.85742E-05 3.83668E-10 3.64018E-19-2.50761E-18
 -1      4222 9.52452E-05-2.85734E-05-2.85737E-05 3.56644E-10-7.88944E-21-1.99977E-18
 -1      4223 9.84165E-05-3.29280E-05-2.80205E-05-1.00489E-05 9.47302E-19-9.82606E-19
 -1      4224 9.56857E-05-3.01404E-05-2.80690E-05-7.67081E-06 1.03753E-18-3.65644E-19
 -1      4225 9.50600E-05-3.04836E-05-2.77447E-05-1.08700E-05 1.21322E-18-1.16521E-18
 -1      4226 9.52449E-05-2.85739E-05-2.85733E-05 2.56570E-10 1.73687E-18-1.92911E-18
 -1      4227 9.35024E-05-2.69558E-05-2.85127E-05-1.28077E-06 1.98926E-19-6.49632E-19
 -1      4228 9.31609E-05-2.67691E-05-2.84673E-05-1.69116E-06 3.94777E-19-9.90363E-19
 -1      4229 9.52446E-05-2.85743E-05-2.85730E-05 1.60368E-10 3.44702E-18-2.90592E-19
 -1      4230 9.45394E-05-2.77759E-05-2.86110E-05-1.95751E-07 6.62237E-19 6.71126E-19
 -1      4231 9.32031E-05-2.71523E-05-2.83124E-05-3.57069E-06 8.97661E-19-5.25564E-19
 -1      4232 9.42837E-05-2.79664E-05-2.83989E-05-2.98436E-06 9.32775E-19 1.54581E-19
 -1      4233 9.38351E-05-2.73074E-05-2.85156E-05-1.34479E-06-1.93502E-19-7.96869E-19
 -1      4234 9.40891E-05-2.77647E-05-2.84328E-05-2.46759E-06 5.86745E-19-4.97816E-19
 -1      4235 9.66798E-05-3.11374E-05-2.80460E-05-8.61957E-06 1.08462E-18-9.21145E-19
 -1      4236 9.36940E-05-2.73261E-05-2.84436E-05-2.20709E-06 2.78454E-19-1.41597E-18
 -1      4237 9.24921E-05-2.64191E-05-2.83409E-05-2.83571E-06 6.07061E-19-1.21071E-18
 -1      4238 9.29349E-05-2.65944E-05-2.84173E-05-2.19433E-06 4.54197E-19-1.18278E-18
 -1      4239 9.52446E-05-2.85744E-05-2.85729E-05-3.14753E-10 3.99762E-18 1.34455E-19
 -3
    1PSTEP                         4           1           1          
  100CL  101 1.000000000        4239                     0    1           1
 -4  ERROR       1    1
 -5  STR(%)      1    1    0    0
 -1         1 1.20448E+01
 -1         2 2.38720E+01
 -1         3 4.20282E-05
 -1         4 4.70890E-05
 -1         5 1.24113E+01
 -1         6 1.33154E+01
 -1         7 1.33154E+01
 -1         8 3.66799E+00
 -1         9 1.75024E+00
 -1        10 1.37692E+00
 -1        11 1.25644E+00
 -1        12 1.24064E+00
 -1        13 1.20891E+00
 -1        14 1.16926E+00
 -1        15 1.06841E+00
 -1        16 8.76858E-01
 -1        17 6.08434E-01
 -1        18 1.24372E+00
 -1        19 1.99943E+00
 -1        20 2.76470E+00
 -1        21 3.90823E+00
 -1        22 7.94685E+00
 -1        23 1.33154E+01
 -1        24 4.36795E+00
 -1        25 3.50506E+00
 -1        26 2.43962E+00
 -1        27 1.96856E+00
 -1        28 2.08669E+00
 -1        29 2.38924E+00
 -1        30 2.67069E+00
 -1        31 2.79992E+00
 -1        32 2.79992E+00
 -1        33 2.81921E+00
 -1        34 2.81921E+00
 -1        35 2.62341E+00
 -1        36 2.21860E+00
 -1        37 1.70677E+00
 -1        38 1.24767E+00
 -1        39 8.51359E-01
 -1        40 6.36886E-01
 -1        41 4.58861E-01
 -1        42 3.04883E-01
 -1        43 1.93298E-01
 -1        44 1.48083E-01
 -1        45 1.03086E-01
 -1        46 7.60328E-02
 -1        47 6.00067E-02
 -1        48 4.33295E-02
 -1        49 2.86047E-02
 -1        50 2.58926E-02
 -1        51 2.16379E-02
 -1        52 1.69686E-02
 -1        53 1.26008E-02
 -1        54 1.11901E-02
 -1        55 9.49459E-03
 -1        56 7.73561E-03
 -1        57 6.09355E-03
 -1        58 4.65712E-03
 -1        59 3.69597E-03
 -1        60 3.08194E-03
 -1        61 2.49979E-03
 -1        62 1.97797E-03
 -1        63 1.52772E-03
 -1        64 1.17833E-03
 -1        65 8.90852E-04
 -1        66 6.47962E-04
 -1        67 5.42482E-04
 -1        68 4.55636E-04
 -1        69 3.63612E-04
 -1        70 2.85949E-04
 -1        71 2.05291E-04
 -1        72 1.24113E+01
 -1        73 2.72265E+00
 -1        74 2.34914E+00
 -1        75 2.94622E+00
 -1        76 3.15547E+00
 -1        77 4.80056E+00
 -1        78 5.14300E+00
 -1        79 5.14300E+00
 -1        80 6.99387E+00
 -1        81 1.60374E+01
 -1        82 1.90315E+01
 -1        83 1.90315E+01
 -1        84 1.55145E+01
 -1        85 5.51472E+00
 -1        86 6.41462E+00
 -1        87 6.41462E+00
 -1        88 6.04395E+00
 -1        89 4.80297E+00
 -1        90 3.53726E+00
 -1        91 2.43089E+00
 -1        92 1.58722E+00
 -1        93 9.98809E-01
 -1        94 6.47780E-01
 -1        95 4.23283E-01
 -1        96 2.74493E-01
 -1        97 1.77561E-01
 -1        98 1.14857E-01
 -1        99 7.43180E-02
 -1       100 4.80219E-02
 -1       101 3.08751E-02
 -1       102 2.20975E-02
 -1       103 1.67155E-02
 -1       104 1.27630E-02
 -1       105 9.76328E-03
 -1       106 7.44700E-03
 -1       107 5.64858E-03
 -1       108 4.81411E-03
 -1       109 4.05101E-03
 -1       110 3.35353E-03
 -1       111 2.73409E-03
 -1       112 2.19632E-03
 -1       113 1.76150E-03
 -1       114 1.40611E-03
 -1       115 1.10079E-03
 -1       116 8.40980E-04
 -1       117 6.19951E-04
 -1       118 4.66036E-04
 -1       119 3.70328E-04
 -1       120 2.60022E-04
 -1       121 1.58142E-04
 -1       122 6.92601E-05
 -1       123 6.92601E-05
 -1       124 5.63225E-05
 -1       125 2.50832E-05
 -1       126 3.14660E-05
 -1       127 4.82770E-05
 -1       128 5.79028E-05
 -1       129 6.04547E-05
 -1       130 6.04547E-05
 -1       131 5.73532E-05
 -1       132 4.69730E-05
 -1       133 3.07861E-05
 -1       134 2.51377E-05
 -1       135 5.34257E-05
 -1       136 9.08853E-05
 -1       137 1.05062E-04
 -1       138 2.48398E+01
 -1       139 2.48398E+01
 -1       140 3.66870E+01
 -1       141 3.66870E+01
 -1       142 1.49531E+01
 -1       143 1.39342E+01
 -1       144 1.42188E+01
 -1       145 1.46419E+01
 -1       146 1.46419E+01
 -1       147 1.64442E+01
 -1       148 4.23856E+01
 -1       149 4.23856E+01
 -1       150 2.47366E+01
 -1       151 2.47366E+01
 -1       152 2.41975E+01
 -1       153 2.46409E+01
 -1       154 3.89370E+01
 -1       155 3.89370E+01
 -1       156 1.43401E+01
 -1       157 1.31625E+01
 -1       158 1.31625E+01
 -1       159 1.24198E+01
 -1       160 1.24198E+01
 -1       161 1.13574E+01
 -1       162 1.91210E+01
 -1       163 4.60691E+01
 -1       164 4.60691E+01
 -1       165 2.38720E+01
 -1       166 6.12719E+00
 -1       167 2.26698E+00
 -1       168 1.56616E+00
 -1       169 1.32175E+00
 -1       170 1.25644E+00
 -1       171 1.24064E+00
 -1       172 1.20891E+00
 -1       173 1.11526E+00
 -1       174 9.90340E-01
 -1       175 7.85999E-01
 -1       176 7.44439E-01
 -1       177 1.55367E+00
 -1       178 2.22158E+00
 -1       179 3.01910E+00
 -1       180 4.00492E+00
 -1       181 1.24113E+01
 -1       182 4.36795E+00
 -1       183 3.50506E+00
 -1       184 2.43962E+00
 -1       185 1.96856E+00
 -1       186 1.90134E+00
 -1       187 2.08669E+00
 -1       188 2.38924E+00
 -1       189 2.67069E+00
 -1       190 2.79992E+00
 -1       191 2.75367E+00
 -1       192 2.81921E+00
 -1       193 2.62341E+00
 -1       194 2.21860E+00
 -1       195 1.74349E+00
 -1       196 1.35242E+00
 -1       197 1.04117E+00
 -1       198 7.66933E-01
 -1       199 5.26653E-01
 -1       200 3.33316E-01
 -1       201 1.99969E-01
 -1       202 1.48083E-01
 -1       203 1.03086E-01
 -1       204 7.60328E-02
 -1       205 6.00067E-02
 -1       206 4.33295E-02
 -1       207 3.19470E-02
 -1       208 2.58926E-02
 -1       209 2.16379E-02
 -1       210 1.69686E-02
 -1       211 1.29248E-02
 -1       212 1.11901E-02
 -1       213 9.49459E-03
 -1       214 7.73561E-03
 -1       215 6.09355E-03
 -1       216 4.65712E-03
 -1       217 3.69597E-03
 -1       218 3.08194E-03
 -1       219 2.49979E-03
 -1       220 1.97797E-03
 -1       221 1.58808E-03
 -1       222 1.24591E-03
 -1       223 9.98734E-04
 -1       224 7.74853E-04
 -1       225 5.78357E-04
 -1       226 4.55636E-04
 -1       227 3.63612E-04
 -1       228 2.85949E-04
 -1       229 2.05291E-04
 -1       230 2.72265E+00
 -1       231 2.18830E+00
 -1       232 2.40935E+00
 -1       233 3.07377E+00
 -1       234 3.87865E+00
 -1       235 4.80056E+00
 -1       236 5.14300E+00
 -1       237 5.64981E+00
 -1       238 1.02652E+01
 -1       239 1.60374E+01
 -1       240 1.90315E+01
 -1       241 1.55145E+01
 -1       242 6.09225E+00
 -1       243 6.92441E+00
 -1       244 6.41462E+00
 -1       245 6.04395E+00
 -1       246 4.80297E+00
 -1       247 3.60158E+00
 -1       248 2.60891E+00
 -1       249 1.77719E+00
 -1       250 1.15794E+00
 -1       251 7.32109E-01
 -1       252 4.53932E-01
 -1       253 2.77735E-01
 -1       254 1.78084E-01
 -1       255 1.17367E-01
 -1       256 7.74355E-02
 -1       257 5.11007E-02
 -1       258 3.36497E-02
 -1       259 2.20975E-02
 -1       260 1.68368E-02
 -1       261 1.29139E-02
 -1       262 9.89000E-03
 -1       263 7.53118E-03
 -1       264 5.69104E-03
 -1       265 4.81411E-03
 -1       266 4.05101E-03
 -1       267 3.35353E-03
 -1       268 2.73409E-03
 -1       269 2.19632E-03
 -1       270 1.76150E-03
 -1       271 1.40611E-03
 -1       272 1.10079E-03
 -1       273 8.52660E-04
 -1       274 6.42585E-04
 -1       275 4.66036E-04
 -1       276 3.70328E-04
 -1       277 2.60022E-04
 -1       278 1.58142E-04
 -1       279 1.29138E-04
 -1       280 1.29138E-04
 -1       281 7.94087E-05
 -1       282 5.14884E-05
 -1       283 8.44020E-05
 -1       284 1.04923E-04
 -1       285 1.12669E-04
 -1       286 1.12669E-04
 -1       287 1.12459E-04
 -1       288 1.03233E-04
 -1       289 8.27850E-05
 -1       290 5.06780E-05
 -1       291 7.89182E-05
 -1       292 7.89182E-05
 -1       293 1.11107E-04
 -1       294 2.94434E+01
 -1       295 2.81159E+01
 -1       296 3.26865E+01
 -1       297 3.66870E+01
 -1       298 1.49531E+01
 -1       299 1.30639E+01
 -1       300 1.59138E+01
 -1       301 1.59138E+01
 -1       302 1.54584E+01
 -1       303 1.22378E+01
 -1       304 1.64442E+01
 -1       305 4.23856E+01
 -1       306 3.69571E+01
 -1       307 2.86393E+01
 -1       308 2.94327E+01
 -1       309 2.94327E+01
 -1       310 3.58508E+01
 -1       311 3.89370E+01
 -1       312 1.43401E+01
 -1       313 1.16768E+01
 -1       314 1.31625E+01
 -1       315 1.20448E+01
 -1       316 1.16450E+01
 -1       317 1.24198E+01
 -1       318 1.13574E+01
 -1       319 1.06409E+01
 -1       320 2.01937E+01
 -1       321 4.60691E+01
 -1       322 2.72499E+01
 -1       323 2.94434E+01
 -1       324 9.71832E-01
 -1       325 2.51223E+00
 -1       326 9.36531E-01
 -1       327 9.72804E-01
 -1       328 1.05586E+00
 -1       329 1.11637E+00
 -1       330 1.11637E+00
 -1       331 1.00051E+00
 -1       332 8.76526E-01
 -1       333 1.43791E+00
 -1       334 1.99959E+00
 -1       335 2.95144E+00
 -1       336 2.48014E+00
 -1       337 2.02778E+00
 -1       338 2.79727E+00
 -1       339 2.07453E+00
 -1       340 1.82234E+00
 -1       341 1.72584E+00
 -1       342 1.78509E+00
 -1       343 1.92382E+00
 -1       344 2.06092E+00
 -1       345 2.12540E+00
 -1       346 2.07342E+00
 -1       347 2.08244E+00
 -1       348 2.06904E+00
 -1       349 1.91892E+00
 -1       350 1.65339E+00
 -1       351 1.38147E+00
 -1       352 1.10926E+00
 -1       353 8.35405E-01
 -1       354 6.22737E-01
 -1       355 4.35165E-01
 -1       356 2.82199E-01
 -1       357 1.66190E-01
 -1       358 8.43557E-02
 -1       359 4.55254E-02
 -1       360 4.06086E-02
 -1       361 3.72777E-02
 -1       362 3.03515E-02
 -1       363 2.55041E-02
 -1       364 2.00909E-02
 -1       365 1.62616E-02
 -1       366 1.29248E-02
 -1       367 9.75881E-03
 -1       368 7.01630E-03
 -1       369 5.83875E-03
 -1       370 4.99348E-03
 -1       371 4.12251E-03
 -1       372 3.30263E-03
 -1       373 2.57414E-03
 -1       374 2.21040E-03
 -1       375 1.87274E-03
 -1       376 1.53986E-03
 -1       377 1.24681E-03
 -1       378 1.00599E-03
 -1       379 7.85500E-04
 -1       380 6.18499E-04
 -1       381 4.68907E-04
 -1       382 3.40070E-04
 -1       383 2.56044E-04
 -1       384 1.79751E-04
 -1       385 3.95237E+00
 -1       386 5.25541E+00
 -1       387 5.94588E+00
 -1       388 7.37656E+00
 -1       389 1.01281E+01
 -1       390 9.42818E+00
 -1       391 6.85991E+00
 -1       392 1.29360E+01
 -1       393 9.51700E+00
 -1       394 7.60158E+00
 -1       395 6.12772E+00
 -1       396 4.64938E+00
 -1       397 3.30812E+00
 -1       398 2.24368E+00
 -1       399 1.47353E+00
 -1       400 9.47472E-01
 -1       401 6.00723E-01
 -1       402 3.77139E-01
 -1       403 2.34875E-01
 -1       404 1.45062E-01
 -1       405 8.86229E-02
 -1       406 5.32648E-02
 -1       407 3.65295E-02
 -1       408 2.50926E-02
 -1       409 1.76771E-02
 -1       410 1.29139E-02
 -1       411 9.89000E-03
 -1       412 7.53118E-03
 -1       413 5.77656E-03
 -1       414 4.55811E-03
 -1       415 3.55272E-03
 -1       416 2.80910E-03
 -1       417 2.29060E-03
 -1       418 1.86945E-03
 -1       419 1.53947E-03
 -1       420 1.24665E-03
 -1       421 1.00387E-03
 -1       422 7.86870E-04
 -1       423 5.97949E-04
 -1       424 4.37621E-04
 -1       425 3.25014E-04
 -1       426 2.45517E-04
 -1       427 2.06958E-04
 -1       428 9.15468E-05
 -1       429 2.45517E-04
 -1       430 1.14047E-04
 -1       431 1.43471E-04
 -1       432 1.56172E-04
 -1       433 1.56172E-04
 -1       434 1.54918E-04
 -1       435 1.54918E-04
 -1       436 1.41144E-04
 -1       437 1.10763E-04
 -1       438 8.83552E-05
 -1       439 1.42910E-04
 -1       440 2.50777E+01
 -1       441 4.23554E+01
 -1       442 4.23554E+01
 -1       443 2.19693E+01
 -1       444 1.33658E+01
 -1       445 9.71832E-01
 -1       446 1.49553E+01
 -1       447 2.52376E+01
 -1       448 2.86751E+01
 -1       449 4.98902E+01
 -1       450 4.98902E+01
 -1       451 2.69108E+01
 -1       452 2.29588E+01
 -1       453 1.29883E+01
 -1       454 6.91560E+00
 -1       455 7.94722E+00
 -1       456 1.08497E+01
 -1       457 1.00880E+01
 -1       458 1.03104E+01
 -1       459 9.04013E+00
 -1       460 6.45175E+00
 -1       461 9.42599E+00
 -1       462 1.63575E+01
 -1       463 2.72499E+01
 -1       464 2.48474E+01
 -1       465 1.16432E+01
 -1       466 7.69069E+00
 -1       467 3.61554E+00
 -1       468 1.13223E+00
 -1       469 8.48965E-01
 -1       470 1.39968E+00
 -1       471 1.39968E+00
 -1       472 1.30587E+00
 -1       473 1.56880E+00
 -1       474 2.44624E+00
 -1       475 3.61554E+00
 -1       476 5.05199E+00
 -1       477 1.19524E+00
 -1       478 1.01200E+00
 -1       479 1.37436E+00
 -1       480 1.48630E+00
 -1       481 1.60018E+00
 -1       482 1.69195E+00
 -1       483 1.72481E+00
 -1       484 1.67726E+00
 -1       485 1.56521E+00
 -1       486 1.61621E+00
 -1       487 1.59958E+00
 -1       488 1.49127E+00
 -1       489 1.33685E+00
 -1       490 1.15121E+00
 -1       491 9.17837E-01
 -1       492 6.79683E-01
 -1       493 4.69320E-01
 -1       494 3.24375E-01
 -1       495 2.07692E-01
 -1       496 1.24506E-01
 -1       497 6.92445E-02
 -1       498 4.88530E-02
 -1       499 3.38921E-02
 -1       500 2.86688E-02
 -1       501 2.63245E-02
 -1       502 2.24434E-02
 -1       503 1.75799E-02
 -1       504 1.39089E-02
 -1       505 1.03098E-02
 -1       506 7.15154E-03
 -1       507 4.91394E-03
 -1       508 3.45226E-03
 -1       509 2.98370E-03
 -1       510 2.67364E-03
 -1       511 2.30186E-03
 -1       512 1.91710E-03
 -1       513 1.57798E-03
 -1       514 1.39297E-03
 -1       515 1.18359E-03
 -1       516 9.72139E-04
 -1       517 7.91437E-04
 -1       518 6.25189E-04
 -1       519 4.74970E-04
 -1       520 3.58333E-04
 -1       521 2.61156E-04
 -1       522 8.14058E+00
 -1       523 1.01281E+01
 -1       524 6.10101E+00
 -1       525 1.35290E+01
 -1       526 3.86818E+00
 -1       527 2.43893E+00
 -1       528 1.54867E+00
 -1       529 9.77979E-01
 -1       530 6.49651E-01
 -1       531 4.29695E-01
 -1       532 2.82787E-01
 -1       533 1.85097E-01
 -1       534 1.20395E-01
 -1       535 7.76824E-02
 -1       536 4.95608E-02
 -1       537 3.11047E-02
 -1       538 1.94263E-02
 -1       539 1.13793E-02
 -1       540 8.18129E-03
 -1       541 6.79302E-03
 -1       542 5.54179E-03
 -1       543 4.45322E-03
 -1       544 3.52876E-03
 -1       545 2.78341E-03
 -1       546 2.28690E-03
 -1       547 1.86945E-03
 -1       548 1.53947E-03
 -1       549 1.24665E-03
 -1       550 1.00637E-03
 -1       551 7.92401E-04
 -1       552 6.04647E-04
 -1       553 4.63209E-04
 -1       554 3.68112E-04
 -1       555 2.75277E-04
 -1       556 1.82133E-04
 -1       557 2.06857E-04
 -1       558 1.81994E-04
 -1       559 4.23554E+01
 -1       560 2.01023E-04
 -1       561 2.01023E-04
 -1       562 1.99176E-04
 -1       563 1.99176E-04
 -1       564 1.98471E-04
 -1       565 1.77603E-04
 -1       566 1.51002E-04
 -1       567 1.51002E-04
 -1       568 2.48474E+01
 -1       569 7.10181E+00
 -1       570 1.76712E+01
 -1       571 1.42096E+01
 -1       572 6.88089E+00
 -1       573 1.19271E+01
 -1       574 2.50777E+01
 -1       575 5.58062E+00
 -1       576 8.51064E+00
 -1       577 1.35713E+00
 -1       578 2.69108E+01
 -1       579 2.86751E+01
 -1       580 4.98902E+01
 -1       581 1.72274E+01
 -1       582 6.79692E+00
 -1       583 4.02342E+00
 -1       584 8.03518E+00
 -1       585 8.54606E+00
 -1       586 4.28474E+00
 -1       587 5.49497E+00
 -1       588 8.20228E+00
 -1       589 1.71304E+01
 -1       590 3.61554E+00
 -1       591 1.80191E+01
 -1       592 1.17287E+01
 -1       593 6.71575E-01
 -1       594 7.09821E+00
 -1       595 1.59554E-04
 -1       596 2.07338E+00
 -1       597 1.82861E+00
 -1       598 2.97835E+00
 -1       599 3.74821E+00
 -1       600 2.11563E+00
 -1       601 8.48369E-01
 -1       602 2.63954E+00
 -1       603 1.10760E+00
 -1       604 1.29262E+00
 -1       605 1.42704E+00
 -1       606 1.49127E+00
 -1       607 1.46497E+00
 -1       608 1.41544E+00
 -1       609 1.32716E+00
 -1       610 1.38306E+00
 -1       611 1.35946E+00
 -1       612 1.29529E+00
 -1       613 1.16781E+00
 -1       614 9.57527E-01
 -1       615 7.91065E-01
 -1       616 6.32101E-01
 -1       617 4.69320E-01
 -1       618 3.24375E-01
 -1       619 2.07692E-01
 -1       620 1.21367E-01
 -1       621 7.82094E-02
 -1       622 4.93205E-02
 -1       623 3.61188E-02
 -1       624 3.01037E-02
 -1       625 2.51796E-02
 -1       626 2.04105E-02
 -1       627 1.55319E-02
 -1       628 1.16703E-02
 -1       629 8.47441E-03
 -1       630 5.83068E-03
 -1       631 3.75246E-03
 -1       632 2.21192E-03
 -1       633 1.64714E-03
 -1       634 1.68184E-03
 -1       635 1.59115E-03
 -1       636 1.42741E-03
 -1       637 1.22857E-03
 -1       638 1.03761E-03
 -1       639 8.99550E-04
 -1       640 7.49770E-04
 -1       641 6.02373E-04
 -1       642 4.74810E-04
 -1       643 3.59009E-04
 -1       644 2.61156E-04
 -1       645 1.12542E+01
 -1       646 1.33980E+00
 -1       647 3.29707E-04
 -1       648 3.38256E+00
 -1       649 8.46348E-01
 -1       650 5.32279E-01
 -1       651 3.32454E-01
 -1       652 2.06181E-01
 -1       653 1.31792E-01
 -1       654 8.34245E-02
 -1       655 5.70063E-02
 -1       656 3.84298E-02
 -1       657 2.54577E-02
 -1       658 1.61354E-02
 -1       659 1.00935E-02
 -1       660 6.01630E-03
 -1       661 3.85799E-03
 -1       662 3.46709E-03
 -1       663 3.02707E-03
 -1       664 2.56781E-03
 -1       665 2.12809E-03
 -1       666 1.72761E-03
 -1       667 1.45617E-03
 -1       668 1.20873E-03
 -1       669 9.77934E-04
 -1       670 7.70412E-04
 -1       671 6.04183E-04
 -1       672 4.63543E-04
 -1       673 3.76290E-04
 -1       674 2.48737E-04
 -1       675 5.67278E+00
 -1       676 2.47903E-04
 -1       677 2.46775E-04
 -1       678 2.46775E-04
 -1       679 2.42199E-04
 -1       680 2.06182E-04
 -1       681 1.70190E+01
 -1       682 7.37555E+00
 -1       683 1.22819E+01
 -1       684 9.69905E+00
 -1       685 1.08251E+01
 -1       686 1.03856E+01
 -1       687 7.86652E+00
 -1       688 1.70187E+01
 -1       689 1.18845E+01
 -1       690 5.14910E+00
 -1       691 1.49251E+01
 -1       692 5.36236E+00
 -1       693 3.29707E-04
 -1       694 2.19273E+00
 -1       695 2.48737E-04
 -1       696 3.93798E+00
 -1       697 1.58273E+01
 -1       698 3.47625E+00
 -1       699 9.94571E-01
 -1       700 1.68360E-04
 -1       701 6.03141E+00
 -1       702 3.34175E+00
 -1       703 4.62478E+00
 -1       704 7.56025E-01
 -1       705 1.75872E+00
 -1       706 5.61270E-01
 -1       707 7.60280E+00
 -1       708 1.37735E+01
 -1       709 3.56416E+00
 -1       710 5.38325E+00
 -1       711 2.13242E-04
 -1       712 1.40847E+00
 -1       713 7.22660E+00
 -1       714 9.01994E-01
 -1       715 5.78459E+00
 -1       716 6.58114E+00
 -1       717 2.83135E-04
 -1       718 3.89861E+00
 -1       719 3.16132E+00
 -1       720 7.96408E+00
 -1       721 1.04565E+00
 -1       722 1.23971E+00
 -1       723 1.38313E+00
 -1       724 1.45926E+00
 -1       725 1.58641E+00
 -1       726 1.44409E+00
 -1       727 1.54315E+00
 -1       728 1.51397E+00
 -1       729 1.33541E+00
 -1       730 1.21150E+00
 -1       731 1.12550E+00
 -1       732 9.52482E-01
 -1       733 7.86750E-01
 -1       734 5.98013E-01
 -1       735 4.22236E-01
 -1       736 2.76378E-01
 -1       737 1.79921E-01
 -1       738 1.20386E-01
 -1       739 7.82094E-02
 -1       740 5.12286E-02
 -1       741 3.88987E-02
 -1       742 3.01037E-02
 -1       743 2.37069E-02
 -1       744 1.78202E-02
 -1       745 1.29378E-02
 -1       746 9.13213E-03
 -1       747 6.32649E-03
 -1       748 4.22633E-03
 -1       749 2.62771E-03
 -1       750 1.50413E-03
 -1       751 8.81595E-04
 -1       752 1.04252E-03
 -1       753 1.10965E-03
 -1       754 1.07515E-03
 -1       755 9.79289E-04
 -1       756 8.51257E-04
 -1       757 7.52337E-04
 -1       758 6.45250E-04
 -1       759 5.30642E-04
 -1       760 4.17856E-04
 -1       761 3.11619E-04
 -1       762 1.36155E+00
 -1       763 2.81701E-04
 -1       764 2.10636E+00
 -1       765 3.96579E-01
 -1       766 2.61085E-01
 -1       767 1.70673E-01
 -1       768 1.10629E-01
 -1       769 7.12393E-02
 -1       770 4.67315E-02
 -1       771 2.99463E-02
 -1       772 1.89061E-02
 -1       773 1.19601E-02
 -1       774 7.89784E-03
 -1       775 4.99681E-03
 -1       776 2.96885E-03
 -1       777 1.93831E-03
 -1       778 1.92741E-03
 -1       779 1.78936E-03
 -1       780 1.58770E-03
 -1       781 1.36177E-03
 -1       782 1.13531E-03
 -1       783 9.77291E-04
 -1       784 8.19994E-04
 -1       785 6.66852E-04
 -1       786 5.25274E-04
 -1       787 3.00738E-04
 -1       788 2.78734E+00
 -1       789 1.00541E+01
 -1       790 3.85158E+00
 -1       791 4.17245E-04
 -1       792 2.93423E-04
 -1       793 2.93423E-04
 -1       794 2.30903E+00
 -1       795 3.00738E-04
 -1       796 5.98971E-01
 -1       797 5.70681E+00
 -1       798 9.43553E-01
 -1       799 3.50568E+00
 -1       800 1.00541E+01
 -1       801 2.81140E+00
 -1       802 3.50937E+00
 -1       803 4.17245E-04
 -1       804 2.42998E+00
 -1       805 2.71781E+00
 -1       806 7.22288E+00
 -1       807 3.74257E+00
 -1       808 1.07745E+01
 -1       809 7.16480E+00
 -1       810 6.58114E+00
 -1       811 2.55150E+00
 -1       812 5.78459E+00
 -1       813 3.51835E+00
 -1       814 4.10303E+00
 -1       815 1.16413E+00
 -1       816 4.16224E-04
 -1       817 2.42760E+00
 -1       818 1.07745E+01
 -1       819 2.70554E-04
 -1       820 1.01703E+00
 -1       821 4.65572E+00
 -1       822 3.98641E+00
 -1       823 5.01716E+00
 -1       824 8.84447E+00
 -1       825 1.37269E+00
 -1       826 1.45926E+00
 -1       827 1.70751E+00
 -1       828 1.91260E+00
 -1       829 1.75198E+00
 -1       830 3.26307E+00
 -1       831 2.55761E+00
 -1       832 1.50105E+00
 -1       833 1.37245E+00
 -1       834 1.16597E+00
 -1       835 9.35032E-01
 -1       836 7.01421E-01
 -1       837 5.20652E-01
 -1       838 3.72758E-01
 -1       839 2.67515E-01
 -1       840 1.79921E-01
 -1       841 1.13515E-01
 -1       842 7.47796E-02
 -1       843 5.32043E-02
 -1       844 3.98991E-02
 -1       845 2.89829E-02
 -1       846 2.10651E-02
 -1       847 1.60711E-02
 -1       848 1.24561E-02
 -1       849 9.13213E-03
 -1       850 6.32649E-03
 -1       851 4.17565E-03
 -1       852 2.62771E-03
 -1       853 1.48141E-03
 -1       854 9.28553E-04
 -1       855 6.65441E-04
 -1       856 8.01349E-04
 -1       857 8.29576E-04
 -1       858 7.88930E-04
 -1       859 7.07998E-04
 -1       860 6.28689E-04
 -1       861 5.45869E-04
 -1       862 4.53333E-04
 -1       863 1.19698E-01
 -1       864 1.46279E+00
 -1       865 1.85400E+00
 -1       866 1.71074E-01
 -1       867 2.46245E-01
 -1       868 8.24752E-02
 -1       869 5.60870E-02
 -1       870 3.73261E-02
 -1       871 2.48468E-02
 -1       872 1.65793E-02
 -1       873 1.08359E-02
 -1       874 6.84236E-03
 -1       875 4.10520E-03
 -1       876 2.26261E-03
 -1       877 1.28994E-03
 -1       878 1.14567E-03
 -1       879 1.20309E-03
 -1       880 1.15504E-03
 -1       881 1.04798E-03
 -1       882 9.12317E-04
 -1       883 7.74487E-04
 -1       884 6.68639E-04
 -1       885 5.57740E-04
 -1       886 3.91467E+00
 -1       887 3.61537E-04
 -1       888 2.88121E+00
 -1       889 2.09072E+00
 -1       890 3.10426E-04
 -1       891 8.84447E+00
 -1       892 9.65478E-01
 -1       893 1.23693E+00
 -1       894 1.12502E+00
 -1       895 2.77956E+00
 -1       896 3.26307E+00
 -1       897 4.72805E+00
 -1       898 2.92077E+00
 -1       899 2.74386E+00
 -1       900 2.01114E+00
 -1       901 2.93558E+00
 -1       902 6.21783E-01
 -1       903 3.51084E-04
 -1       904 3.93967E-01
 -1       905 3.53738E-04
 -1       906 2.19758E+00
 -1       907 2.75779E+00
 -1       908 1.80701E+00
 -1       909 4.64373E-04
 -1       910 3.65348E+00
 -1       911 3.53762E-04
 -1       912 2.04366E+00
 -1       913 3.51084E-04
 -1       914 1.12502E+00
 -1       915 3.43588E+00
 -1       916 3.39066E-04
 -1       917 1.70751E+00
 -1       918 2.88121E+00
 -1       919 3.26307E+00
 -1       920 2.01114E+00
 -1       921 1.80967E+00
 -1       922 1.27052E+00
 -1       923 9.42590E-01
 -1       924 6.95246E-01
 -1       925 5.20652E-01
 -1       926 3.62778E-01
 -1       927 2.36082E-01
 -1       928 1.60549E-01
 -1       929 1.14728E-01
 -1       930 7.93770E-02
 -1       931 5.45213E-02
 -1       932 3.67314E-02
 -1       933 2.71960E-02
 -1       934 2.10651E-02
 -1       935 1.59887E-02
 -1       936 1.16793E-02
 -1       937 8.20028E-03
 -1       938 5.49998E-03
 -1       939 3.56677E-03
 -1       940 2.26478E-03
 -1       941 1.47382E-03
 -1       942 9.28553E-04
 -1       943 5.45028E-04
 -1       944 6.11982E-04
 -1       945 6.57915E-04
 -1       946 6.40224E-04
 -1       947 5.84021E-04
 -1       948 5.16376E-04
 -1       949 4.77175E-04
 -1       950 5.43081E-02
 -1       951 3.91467E+00
 -1       952 2.72759E+00
 -1       953 2.04366E+00
 -1       954 1.29995E-01
 -1       955 1.97289E-01
 -1       956 3.88984E-02
 -1       957 2.73486E-02
 -1       958 1.89964E-02
 -1       959 1.31553E-02
 -1       960 8.92750E-03
 -1       961 5.88849E-03
 -1       962 3.72613E-03
 -1       963 2.21031E-03
 -1       964 1.17423E-03
 -1       965 6.38717E-04
 -1       966 7.89246E-04
 -1       967 8.26417E-04
 -1       968 7.91713E-04
 -1       969 7.15978E-04
 -1       970 6.19780E-04
 -1       971 5.29882E-04
 -1       972 5.29882E-04
 -1       973 3.51824E+00
 -1       974 1.13004E+00
 -1       975 1.89988E+00
 -1       976 2.99811E+00
 -1       977 2.15105E+00
 -1       978 1.79927E+00
 -1       979 8.44276E-02
 -1       980 3.71323E-04
 -1       981 1.54521E+00
 -1       982 2.93861E-01
 -1       983 2.49217E+00
 -1       984 2.55761E+00
 -1       985 2.04366E+00
 -1       986 5.07625E-04
 -1       987 6.76055E-01
 -1       988 4.09312E-04
 -1       989 2.45788E+00
 -1       990 2.49855E+00
 -1       991 4.27849E-01
 -1       992 9.86799E-01
 -1       993 6.71916E-01
 -1       994 4.79701E-01
 -1       995 3.63124E-01
 -1       996 2.57477E-01
 -1       997 1.73285E-01
 -1       998 1.12101E-01
 -1       999 7.31100E-02
 -1      1000 5.11705E-02
 -1      1001 3.67314E-02
 -1      1002 2.71960E-02
 -1      1003 1.96600E-02
 -1      1004 1.38933E-02
 -1      1005 9.56851E-03
 -1      1006 6.55007E-03
 -1      1007 4.64513E-03
 -1      1008 3.31637E-03
 -1      1009 2.26478E-03
 -1      1010 1.46297E-03
 -1      1011 8.72645E-04
 -1      1012 5.34901E-04
 -1      1013 4.91765E-04
 -1      1014 5.29047E-04
 -1      1015 5.15627E-04
 -1      1016 4.72417E-04
 -1      1017 4.77175E-04
 -1      1018 3.22088E-02
 -1      1019 4.58027E-02
 -1      1020 2.02961E-02
 -1      1021 1.34845E-02
 -1      1022 9.46665E-03
 -1      1023 6.68677E-03
 -1      1024 4.55921E-03
 -1      1025 3.00339E-03
 -1      1026 1.87164E-03
 -1      1027 1.07132E-03
 -1      1028 5.23610E-04
 -1      1029 5.10642E-04
 -1      1030 5.83280E-04
 -1      1031 5.86268E-04
 -1      1032 5.46536E-04
 -1      1033 4.85339E-04
 -1      1034 1.13004E+00
 -1      1035 2.99811E+00
 -1      1036 9.64783E-02
 -1      1037 6.69955E-02
 -1      1038 1.37369E-01
 -1      1039 3.49219E-04
 -1      1040 8.16599E-01
 -1      1041 1.60655E+00
 -1      1042 5.29882E-04
 -1      1043 2.89864E-01
 -1      1044 1.93226E+00
 -1      1045 1.89988E+00
 -1      1046 3.71941E-04
 -1      1047 1.28269E+00
 -1      1048 1.01995E+00
 -1      1049 7.10478E-01
 -1      1050 4.89268E-01
 -1      1051 2.70100E-01
 -1      1052 1.54172E-01
 -1      1053 1.52013E-01
 -1      1054 9.38759E-02
 -1      1055 6.22537E-02
 -1      1056 4.19394E-02
 -1      1057 2.80464E-02
 -1      1058 1.78190E-02
 -1      1059 1.27943E-02
 -1      1060 9.30595E-03
 -1      1061 6.55007E-03
 -1      1062 4.59046E-03
 -1      1063 3.13152E-03
 -1      1064 2.04433E-03
 -1      1065 1.25400E-03
 -1      1066 6.94466E-04
 -1      1067 4.38126E-04
 -1      1068 4.01167E-04
 -1      1069 4.18776E-04
 -1      1070 4.02186E-04
 -1      1071 1.18865E-02
 -1      1072 4.00320E-04
 -1      1073 1.71324E-02
 -1      1074 2.56390E-02
 -1      1075 3.42582E-02
 -1      1076 8.17704E-03
 -1      1077 5.63455E-03
 -1      1078 3.77982E-03
 -1      1079 2.44501E-03
 -1      1080 1.55145E-03
 -1      1081 9.89385E-04
 -1      1082 5.81384E-04
 -1      1083 3.63409E-04
 -1      1084 4.10667E-04
 -1      1085 4.22745E-04
 -1      1086 4.81394E-04
 -1      1087 1.52013E-01
 -1      1088 2.29559E+00
 -1      1089 1.33238E+00
 -1      1090 5.30826E-01
 -1      1091 4.06304E-01
 -1      1092 1.01995E+00
 -1      1093 3.82005E-04
 -1      1094 1.54172E-01
 -1      1095 9.38759E-02
 -1      1096 1.44515E+00
 -1      1097 3.19305E-04
 -1      1098 5.73234E-02
 -1      1099 7.08795E-01
 -1      1100 3.00326E-01
 -1      1101 4.85671E-01
 -1      1102 1.33154E+01
 -1      1103 8.49170E+00
 -1      1104 2.70911E+00
 -1      1105 1.56358E+00
 -1      1106 1.31668E+00
 -1      1107 1.24854E+00
 -1      1108 1.22477E+00
 -1      1109 1.18909E+00
 -1      1110 1.11883E+00
 -1      1111 9.72633E-01
 -1      1112 7.42646E-01
 -1      1113 9.26076E-01
 -1      1114 1.62157E+00
 -1      1115 2.38207E+00
 -1      1116 3.33647E+00
 -1      1117 5.92754E+00
 -1      1118 1.01791E+01
 -1      1119 1.33154E+01
 -1      1120 8.84169E+00
 -1      1121 3.93651E+00
 -1      1122 2.97234E+00
 -1      1123 2.20409E+00
 -1      1124 2.02762E+00
 -1      1125 2.23797E+00
 -1      1126 2.52997E+00
 -1      1127 2.73531E+00
 -1      1128 2.79992E+00
 -1      1129 2.80957E+00
 -1      1130 2.81921E+00
 -1      1131 2.72131E+00
 -1      1132 2.42100E+00
 -1      1133 1.96268E+00
 -1      1134 1.47722E+00
 -1      1135 1.04951E+00
 -1      1136 7.44123E-01
 -1      1137 5.47874E-01
 -1      1138 3.81872E-01
 -1      1139 2.49090E-01
 -1      1140 1.70690E-01
 -1      1141 1.25584E-01
 -1      1142 8.95593E-02
 -1      1143 6.80197E-02
 -1      1144 5.16681E-02
 -1      1145 3.59671E-02
 -1      1146 2.72487E-02
 -1      1147 2.37652E-02
 -1      1148 1.93032E-02
 -1      1149 1.47847E-02
 -1      1150 1.18955E-02
 -1      1151 1.03424E-02
 -1      1152 8.61510E-03
 -1      1153 6.91458E-03
 -1      1154 5.37533E-03
 -1      1155 4.17654E-03
 -1      1156 3.38895E-03
 -1      1157 2.79086E-03
 -1      1158 2.23888E-03
 -1      1159 1.75284E-03
 -1      1160 1.35302E-03
 -1      1161 1.03459E-03
 -1      1162 7.69407E-04
 -1      1163 5.95222E-04
 -1      1164 4.99059E-04
 -1      1165 4.09624E-04
 -1      1166 3.24781E-04
 -1      1167 2.45620E-04
 -1      1168 1.26190E-04
 -1      1169 1.24113E+01
 -1      1170 7.56698E+00
 -1      1171 2.53589E+00
 -1      1172 2.64768E+00
 -1      1173 3.05085E+00
 -1      1174 3.97802E+00
 -1      1175 4.97178E+00
 -1      1176 5.14300E+00
 -1      1177 6.06844E+00
 -1      1178 1.15156E+01
 -1      1179 1.75344E+01
 -1      1180 1.90315E+01
 -1      1181 1.72730E+01
 -1      1182 1.05146E+01
 -1      1183 5.96467E+00
 -1      1184 6.41462E+00
 -1      1185 6.22929E+00
 -1      1186 5.42346E+00
 -1      1187 4.17012E+00
 -1      1188 2.98408E+00
 -1      1189 2.00906E+00
 -1      1190 1.29301E+00
 -1      1191 8.23295E-01
 -1      1192 5.35531E-01
 -1      1193 3.48888E-01
 -1      1194 2.26027E-01
 -1      1195 1.46209E-01
 -1      1196 9.45874E-02
 -1      1197 6.11699E-02
 -1      1198 3.94485E-02
 -1      1199 2.64863E-02
 -1      1200 1.94065E-02
 -1      1201 1.47393E-02
 -1      1202 1.12631E-02
 -1      1203 8.60514E-03
 -1      1204 6.54779E-03
 -1      1205 5.23134E-03
 -1      1206 4.43256E-03
 -1      1207 3.70227E-03
 -1      1208 3.04381E-03
 -1      1209 2.46521E-03
 -1      1210 1.97891E-03
 -1      1211 1.58380E-03
 -1      1212 1.25345E-03
 -1      1213 9.70886E-04
 -1      1214 7.30465E-04
 -1      1215 5.42994E-04
 -1      1216 4.18182E-04
 -1      1217 3.15175E-04
 -1      1218 2.09082E-04
 -1      1219 1.00085E-04
 -1      1220 5.56442E-05
 -1      1221 6.92601E-05
 -1      1222 6.27913E-05
 -1      1223 4.07028E-05
 -1      1224 2.82746E-05
 -1      1225 3.98715E-05
 -1      1226 5.30899E-05
 -1      1227 5.91788E-05
 -1      1228 6.04547E-05
 -1      1229 5.89040E-05
 -1      1230 5.21631E-05
 -1      1231 3.88796E-05
 -1      1232 2.79619E-05
 -1      1233 3.92817E-05
 -1      1234 7.21555E-05
 -1      1235 9.79735E-05
 -1      1236 7.60754E-05
 -1      1237 2.43559E+01
 -1      1238 2.48398E+01
 -1      1239 3.07634E+01
 -1      1240 3.66870E+01
 -1      1241 2.58200E+01
 -1      1242 1.44437E+01
 -1      1243 1.40765E+01
 -1      1244 1.44304E+01
 -1      1245 1.46419E+01
 -1      1246 1.55431E+01
 -1      1247 2.94149E+01
 -1      1248 4.23856E+01
 -1      1249 3.35611E+01
 -1      1250 2.47366E+01
 -1      1251 2.44670E+01
 -1      1252 2.44192E+01
 -1      1253 3.17890E+01
 -1      1254 3.89370E+01
 -1      1255 2.66385E+01
 -1      1256 1.37513E+01
 -1      1257 1.31625E+01
 -1      1258 1.26036E+01
 -1      1259 1.22323E+01
 -1      1260 1.24198E+01
 -1      1261 1.18886E+01
 -1      1262 1.52392E+01
 -1      1263 3.25951E+01
 -1      1264 4.60691E+01
 -1      1265 3.49706E+01
 -1      1266 2.38720E+01
 -1      1267 1.33154E+01
 -1      1268 4.89759E+00
 -1      1269 9.72130E+00
 -1      1270 2.00861E+00
 -1      1271 2.96748E+00
 -1      1272 4.19708E+00
 -1      1273 1.47154E+00
 -1      1274 1.65820E+00
 -1      1275 1.91657E+00
 -1      1276 1.28910E+00
 -1      1277 1.34934E+00
 -1      1278 1.44396E+00
 -1      1279 1.24854E+00
 -1      1280 1.25644E+00
 -1      1281 1.28910E+00
 -1      1282 1.22477E+00
 -1      1283 1.24064E+00
 -1      1284 1.24854E+00
 -1      1285 1.18909E+00
 -1      1286 1.20891E+00
 -1      1287 1.22477E+00
 -1      1288 1.09183E+00
 -1      1289 1.14226E+00
 -1      1290 1.16208E+00
 -1      1291 9.33599E-01
 -1      1292 1.02937E+00
 -1      1293 1.05280E+00
 -1      1294 6.97217E-01
 -1      1295 8.31429E-01
 -1      1296 8.88170E-01
 -1      1297 9.94078E-01
 -1      1298 6.76437E-01
 -1      1299 7.65219E-01
 -1      1300 1.77655E+00
 -1      1301 1.39869E+00
 -1      1302 1.14905E+00
 -1      1303 2.49314E+00
 -1      1304 2.11051E+00
 -1      1305 1.88763E+00
 -1      1306 3.46367E+00
 -1      1307 2.89190E+00
 -1      1308 2.62034E+00
 -1      1309 5.97588E+00
 -1      1310 3.95657E+00
 -1      1311 3.51201E+00
 -1      1312 1.24113E+01
 -1      1313 1.01791E+01
 -1      1314 8.20811E+00
 -1      1315 1.24113E+01
 -1      1316 8.84169E+00
 -1      1317 4.36795E+00
 -1      1318 3.93651E+00
 -1      1319 3.50506E+00
 -1      1320 3.93651E+00
 -1      1321 2.97234E+00
 -1      1322 2.43962E+00
 -1      1323 2.97234E+00
 -1      1324 2.20409E+00
 -1      1325 1.96856E+00
 -1      1326 2.20409E+00
 -1      1327 1.93495E+00
 -1      1328 1.99402E+00
 -1      1329 1.93495E+00
 -1      1330 2.08669E+00
 -1      1331 2.23797E+00
 -1      1332 1.99402E+00
 -1      1333 2.38924E+00
 -1      1334 2.52997E+00
 -1      1335 2.23797E+00
 -1      1336 2.67069E+00
 -1      1337 2.73531E+00
 -1      1338 2.52997E+00
 -1      1339 2.79992E+00
 -1      1340 2.79992E+00
 -1      1341 2.73531E+00
 -1      1342 2.77680E+00
 -1      1343 2.78644E+00
 -1      1344 2.77680E+00
 -1      1345 2.81921E+00
 -1      1346 2.81921E+00
 -1      1347 2.78644E+00
 -1      1348 2.72131E+00
 -1      1349 2.62341E+00
 -1      1350 2.72131E+00
 -1      1351 2.42100E+00
 -1      1352 2.21860E+00
 -1      1353 2.42100E+00
 -1      1354 1.98104E+00
 -1      1355 1.72513E+00
 -1      1356 1.98104E+00
 -1      1357 1.52959E+00
 -1      1358 1.30004E+00
 -1      1359 1.54795E+00
 -1      1360 1.14442E+00
 -1      1361 9.46263E-01
 -1      1362 1.19679E+00
 -1      1363 8.09146E-01
 -1      1364 7.01910E-01
 -1      1365 9.04051E-01
 -1      1366 5.81770E-01
 -1      1367 4.92757E-01
 -1      1368 6.46793E-01
 -1      1369 3.96089E-01
 -1      1370 3.19099E-01
 -1      1371 4.29985E-01
 -1      1372 2.52426E-01
 -1      1373 1.96634E-01
 -1      1374 2.66643E-01
 -1      1375 1.70690E-01
 -1      1376 1.48083E-01
 -1      1377 1.74026E-01
 -1      1378 1.25584E-01
 -1      1379 1.03086E-01
 -1      1380 1.25584E-01
 -1      1381 8.95593E-02
 -1      1382 7.60328E-02
 -1      1383 8.95593E-02
 -1      1384 6.80197E-02
 -1      1385 6.00067E-02
 -1      1386 6.80197E-02
 -1      1387 5.16681E-02
 -1      1388 4.33295E-02
 -1      1389 5.16681E-02
 -1      1390 3.76383E-02
 -1      1391 3.02759E-02
 -1      1392 3.76383E-02
 -1      1393 2.72487E-02
 -1      1394 2.58926E-02
 -1      1395 2.89198E-02
 -1      1396 2.37652E-02
 -1      1397 2.16379E-02
 -1      1398 2.37652E-02
 -1      1399 1.93032E-02
 -1      1400 1.69686E-02
 -1      1401 1.93032E-02
 -1      1402 1.49467E-02
 -1      1403 1.27628E-02
 -1      1404 1.49467E-02
 -1      1405 1.18955E-02
 -1      1406 1.11901E-02
 -1      1407 1.20575E-02
 -1      1408 1.03424E-02
 -1      1409 9.49459E-03
 -1      1410 1.03424E-02
 -1      1411 8.61510E-03
 -1      1412 7.73561E-03
 -1      1413 8.61510E-03
 -1      1414 6.91458E-03
 -1      1415 6.09355E-03
 -1      1416 6.91458E-03
 -1      1417 5.37533E-03
 -1      1418 4.65712E-03
 -1      1419 5.37533E-03
 -1      1420 4.17654E-03
 -1      1421 3.69597E-03
 -1      1422 4.17654E-03
 -1      1423 3.38895E-03
 -1      1424 3.08194E-03
 -1      1425 3.38895E-03
 -1      1426 2.79086E-03
 -1      1427 2.49979E-03
 -1      1428 2.79086E-03
 -1      1429 2.23888E-03
 -1      1430 1.97797E-03
 -1      1431 2.23888E-03
 -1      1432 1.78302E-03
 -1      1433 1.55790E-03
 -1      1434 1.78302E-03
 -1      1435 1.38681E-03
 -1      1436 1.21212E-03
 -1      1437 1.41699E-03
 -1      1438 1.08853E-03
 -1      1439 9.44793E-04
 -1      1440 1.12232E-03
 -1      1441 8.32852E-04
 -1      1442 7.11407E-04
 -1      1443 8.86794E-04
 -1      1444 6.13160E-04
 -1      1445 5.60420E-04
 -1      1446 6.76605E-04
 -1      1447 4.99059E-04
 -1      1448 4.55636E-04
 -1      1449 5.16997E-04
 -1      1450 4.09624E-04
 -1      1451 3.63612E-04
 -1      1452 4.09624E-04
 -1      1453 3.24781E-04
 -1      1454 2.85949E-04
 -1      1455 3.24781E-04
 -1      1456 2.45620E-04
 -1      1457 2.05291E-04
 -1      1458 2.45620E-04
 -1      1459 1.55176E-04
 -1      1460 1.55176E-04
 -1      1461 2.72265E+00
 -1      1462 7.56698E+00
 -1      1463 7.56698E+00
 -1      1464 2.26872E+00
 -1      1465 2.45547E+00
 -1      1466 2.45547E+00
 -1      1467 2.67779E+00
 -1      1468 2.37924E+00
 -1      1469 2.29882E+00
 -1      1470 3.11462E+00
 -1      1471 3.01000E+00
 -1      1472 2.74156E+00
 -1      1473 4.33961E+00
 -1      1474 3.51706E+00
 -1      1475 3.47621E+00
 -1      1476 4.97178E+00
 -1      1477 4.80056E+00
 -1      1478 4.33961E+00
 -1      1479 5.14300E+00
 -1      1480 5.14300E+00
 -1      1481 4.97178E+00
 -1      1482 6.32184E+00
 -1      1483 5.39641E+00
 -1      1484 5.39641E+00
 -1      1485 1.31513E+01
 -1      1486 8.62953E+00
 -1      1487 7.95750E+00
 -1      1488 1.75344E+01
 -1      1489 1.60374E+01
 -1      1490 1.31513E+01
 -1      1491 1.90315E+01
 -1      1492 1.90315E+01
 -1      1493 1.75344E+01
 -1      1494 1.55145E+01
 -1      1495 1.72730E+01
 -1      1496 1.72730E+01
 -1      1497 5.80348E+00
 -1      1498 1.08034E+01
 -1      1499 1.08034E+01
 -1      1500 6.66952E+00
 -1      1501 6.21957E+00
 -1      1502 6.50833E+00
 -1      1503 6.41462E+00
 -1      1504 6.41462E+00
 -1      1505 6.66952E+00
 -1      1506 6.04395E+00
 -1      1507 6.22929E+00
 -1      1508 6.22929E+00
 -1      1509 4.80297E+00
 -1      1510 5.42346E+00
 -1      1511 5.42346E+00
 -1      1512 3.56942E+00
 -1      1513 4.20228E+00
 -1      1514 4.20228E+00
 -1      1515 2.51990E+00
 -1      1516 3.07309E+00
 -1      1517 3.10524E+00
 -1      1518 1.68220E+00
 -1      1519 2.10404E+00
 -1      1520 2.19305E+00
 -1      1521 1.07837E+00
 -1      1522 1.37258E+00
 -1      1523 1.46756E+00
 -1      1524 6.89944E-01
 -1      1525 8.65459E-01
 -1      1526 9.45024E-01
 -1      1527 4.38607E-01
 -1      1528 5.50856E-01
 -1      1529 5.93020E-01
 -1      1530 2.76114E-01
 -1      1531 3.50509E-01
 -1      1532 3.65833E-01
 -1      1533 1.77822E-01
 -1      1534 2.26288E-01
 -1      1535 2.27909E-01
 -1      1536 1.16112E-01
 -1      1537 1.47464E-01
 -1      1538 1.47725E-01
 -1      1539 7.58768E-02
 -1      1540 9.61462E-02
 -1      1541 9.74012E-02
 -1      1542 4.95613E-02
 -1      1543 6.27093E-02
 -1      1544 6.42681E-02
 -1      1545 3.22624E-02
 -1      1546 4.08358E-02
 -1      1547 4.23752E-02
 -1      1548 2.20975E-02
 -1      1549 2.64863E-02
 -1      1550 2.78736E-02
 -1      1551 1.67761E-02
 -1      1552 1.94671E-02
 -1      1553 1.94671E-02
 -1      1554 1.28385E-02
 -1      1555 1.48147E-02
 -1      1556 1.48753E-02
 -1      1557 9.82664E-03
 -1      1558 1.13265E-02
 -1      1559 1.14020E-02
 -1      1560 7.48909E-03
 -1      1561 8.64723E-03
 -1      1562 8.71059E-03
 -1      1563 5.66981E-03
 -1      1564 6.56902E-03
 -1      1565 6.61111E-03
 -1      1566 4.81411E-03
 -1      1567 5.23134E-03
 -1      1568 5.25257E-03
 -1      1569 4.05101E-03
 -1      1570 4.43256E-03
 -1      1571 4.43256E-03
 -1      1572 3.35353E-03
 -1      1573 3.70227E-03
 -1      1574 3.70227E-03
 -1      1575 2.73409E-03
 -1      1576 3.04381E-03
 -1      1577 3.04381E-03
 -1      1578 2.19632E-03
 -1      1579 2.46521E-03
 -1      1580 2.46521E-03
 -1      1581 1.76150E-03
 -1      1582 1.97891E-03
 -1      1583 1.97891E-03
 -1      1584 1.40611E-03
 -1      1585 1.58380E-03
 -1      1586 1.58380E-03
 -1      1587 1.10079E-03
 -1      1588 1.25345E-03
 -1      1589 1.25345E-03
 -1      1590 8.46820E-04
 -1      1591 9.76726E-04
 -1      1592 9.76726E-04
 -1      1593 6.31268E-04
 -1      1594 7.41783E-04
 -1      1595 7.47623E-04
 -1      1596 4.66036E-04
 -1      1597 5.42994E-04
 -1      1598 5.54311E-04
 -1      1599 3.70328E-04
 -1      1600 4.18182E-04
 -1      1601 4.18182E-04
 -1      1602 2.60022E-04
 -1      1603 3.15175E-04
 -1      1604 3.15175E-04
 -1      1605 1.58142E-04
 -1      1606 2.09082E-04
 -1      1607 2.09082E-04
 -1      1608 1.13701E-04
 -1      1609 9.91989E-05
 -1      1610 9.91989E-05
 -1      1611 9.27301E-05
 -1      1612 9.91989E-05
 -1      1613 1.29138E-04
 -1      1614 5.22459E-05
 -1      1615 6.78656E-05
 -1      1616 1.04273E-04
 -1      1617 4.14772E-05
 -1      1618 3.82858E-05
 -1      1619 6.54485E-05
 -1      1620 6.63395E-05
 -1      1621 5.79340E-05
 -1      1622 6.79452E-05
 -1      1623 8.14128E-05
 -1      1624 7.66000E-05
 -1      1625 9.46624E-05
 -1      1626 8.65620E-05
 -1      1627 8.52860E-05
 -1      1628 1.08796E-04
 -1      1629 8.65620E-05
 -1      1630 8.65620E-05
 -1      1631 1.12669E-04
 -1      1632 8.49059E-05
 -1      1633 8.64567E-05
 -1      1634 1.12564E-04
 -1      1635 7.51032E-05
 -1      1636 8.02933E-05
 -1      1637 1.07846E-04
 -1      1638 5.67855E-05
 -1      1639 6.48790E-05
 -1      1640 9.30092E-05
 -1      1641 3.79078E-05
 -1      1642 4.07321E-05
 -1      1643 6.67315E-05
 -1      1644 6.61720E-05
 -1      1645 5.20280E-05
 -1      1646 6.47981E-05
 -1      1647 8.49018E-05
 -1      1648 6.61720E-05
 -1      1649 7.89182E-05
 -1      1650 1.08084E-04
 -1      1651 1.00996E-04
 -1      1652 9.50127E-05
 -1      1653 1.58199E-04
 -1      1654 2.71416E+01
 -1      1655 2.66577E+01
 -1      1656 2.64778E+01
 -1      1657 2.64778E+01
 -1      1658 3.46867E+01
 -1      1659 2.87631E+01
 -1      1660 3.66870E+01
 -1      1661 3.66870E+01
 -1      1662 1.49531E+01
 -1      1663 2.58200E+01
 -1      1664 1.34990E+01
 -1      1665 1.40085E+01
 -1      1666 1.50663E+01
 -1      1667 1.49240E+01
 -1      1668 1.52779E+01
 -1      1669 1.50663E+01
 -1      1670 1.50502E+01
 -1      1671 1.50502E+01
 -1      1672 1.43410E+01
 -1      1673 1.34399E+01
 -1      1674 2.94149E+01
 -1      1675 1.64442E+01
 -1      1676 4.23856E+01
 -1      1677 4.23856E+01
 -1      1678 3.08468E+01
 -1      1679 3.96713E+01
 -1      1680 2.66879E+01
 -1      1681 2.66879E+01
 -1      1682 2.68151E+01
 -1      1683 2.70846E+01
 -1      1684 2.70368E+01
 -1      1685 2.68151E+01
 -1      1686 3.73939E+01
 -1      1687 3.02459E+01
 -1      1688 3.89370E+01
 -1      1689 3.89370E+01
 -1      1690 1.43401E+01
 -1      1691 2.66385E+01
 -1      1692 1.24196E+01
 -1      1693 1.30084E+01
 -1      1694 1.31625E+01
 -1      1695 1.31625E+01
 -1      1696 1.20448E+01
 -1      1697 1.26036E+01
 -1      1698 1.20324E+01
 -1      1699 1.18449E+01
 -1      1700 1.24198E+01
 -1      1701 1.24198E+01
 -1      1702 1.13574E+01
 -1      1703 1.18886E+01
 -1      1704 1.48809E+01
 -1      1705 1.09992E+01
 -1      1706 3.31314E+01
 -1      1707 1.96573E+01
 -1      1708 4.60691E+01
 -1      1709 4.60691E+01
 -1      1710 2.55609E+01
 -1      1711 3.66595E+01
 -1      1712 2.66577E+01
 -1      1713 2.66577E+01
 -1      1714 2.58200E+01
 -1      1715 3.46867E+01
 -1      1716 1.13701E-04
 -1      1717 1.43640E-04
 -1      1718 2.87796E+01
 -1      1719 3.04012E+01
 -1      1720 2.94434E+01
 -1      1721 1.40085E+01
 -1      1722 1.44888E+01
 -1      1723 1.59138E+01
 -1      1724 1.56861E+01
 -1      1725 1.38481E+01
 -1      1726 1.43410E+01
 -1      1727 2.94149E+01
 -1      1728 3.96713E+01
 -1      1729 3.27982E+01
 -1      1730 2.90360E+01
 -1      1731 2.94327E+01
 -1      1732 3.26417E+01
 -1      1733 3.73939E+01
 -1      1734 2.66385E+01
 -1      1735 1.30084E+01
 -1      1736 1.24196E+01
 -1      1737 1.26036E+01
 -1      1738 1.18449E+01
 -1      1739 1.20324E+01
 -1      1740 1.18886E+01
 -1      1741 1.09992E+01
 -1      1742 1.54173E+01
 -1      1743 3.31314E+01
 -1      1744 3.66595E+01
 -1      1745 2.83466E+01
 -1      1746 9.72130E+00
 -1      1747 1.26899E+00
 -1      1748 1.61940E+00
 -1      1749 2.38960E+00
 -1      1750 4.31971E+00
 -1      1751 1.74203E+00
 -1      1752 1.09649E+00
 -1      1753 1.12914E+00
 -1      1754 1.10672E+00
 -1      1755 1.11462E+00
 -1      1756 9.54667E-01
 -1      1757 1.13239E+00
 -1      1758 1.14825E+00
 -1      1759 1.01433E+00
 -1      1760 1.11581E+00
 -1      1761 1.16264E+00
 -1      1762 1.08611E+00
 -1      1763 1.05335E+00
 -1      1764 1.11581E+00
 -1      1765 1.11637E+00
 -1      1766 8.93253E-01
 -1      1767 9.95423E-01
 -1      1768 1.05844E+00
 -1      1769 8.10483E-01
 -1      1770 8.31263E-01
 -1      1771 9.38516E-01
 -1      1772 1.49579E+00
 -1      1773 1.09117E+00
 -1      1774 1.15722E+00
 -1      1775 2.11059E+00
 -1      1776 1.77663E+00
 -1      1777 1.71875E+00
 -1      1778 2.98527E+00
 -1      1779 2.58651E+00
 -1      1780 2.47551E+00
 -1      1781 3.24253E+00
 -1      1782 2.74962E+00
 -1      1783 2.71579E+00
 -1      1784 7.21954E+00
 -1      1785 3.01635E+00
 -1      1786 2.25396E+00
 -1      1787 2.37521E+00
 -1      1788 5.24757E+00
 -1      1789 2.49279E+00
 -1      1790 2.75996E+00
 -1      1791 2.41252E+00
 -1      1792 3.44009E+00
 -1      1793 2.78980E+00
 -1      1794 2.25708E+00
 -1      1795 2.13098E+00
 -1      1796 1.89545E+00
 -1      1797 1.94843E+00
 -1      1798 1.84720E+00
 -1      1799 1.81359E+00
 -1      1800 1.77409E+00
 -1      1801 1.84321E+00
 -1      1802 1.93589E+00
 -1      1803 1.75546E+00
 -1      1804 2.00526E+00
 -1      1805 2.15653E+00
 -1      1806 1.85445E+00
 -1      1807 2.22508E+00
 -1      1808 2.36580E+00
 -1      1809 1.99237E+00
 -1      1810 2.39805E+00
 -1      1811 2.46266E+00
 -1      1812 2.09316E+00
 -1      1813 2.43667E+00
 -1      1814 2.41355E+00
 -1      1815 2.09941E+00
 -1      1816 2.41805E+00
 -1      1817 2.45082E+00
 -1      1818 2.07793E+00
 -1      1819 2.44412E+00
 -1      1820 2.34622E+00
 -1      1821 2.07574E+00
 -1      1822 2.27116E+00
 -1      1823 2.06876E+00
 -1      1824 1.99398E+00
 -1      1825 1.93599E+00
 -1      1826 1.69844E+00
 -1      1827 1.78615E+00
 -1      1828 1.56248E+00
 -1      1829 1.36694E+00
 -1      1830 1.51743E+00
 -1      1831 1.23084E+00
 -1      1832 1.07522E+00
 -1      1833 1.24537E+00
 -1      1834 9.38286E-01
 -1      1835 8.01169E-01
 -1      1836 9.72334E-01
 -1      1837 6.94835E-01
 -1      1838 5.74695E-01
 -1      1839 7.29071E-01
 -1      1840 4.80909E-01
 -1      1841 3.84241E-01
 -1      1842 5.28951E-01
 -1      1843 3.07758E-01
 -1      1844 2.41084E-01
 -1      1845 3.58682E-01
 -1      1846 1.83080E-01
 -1      1847 1.57137E-01
 -1      1848 2.24195E-01
 -1      1849 1.16219E-01
 -1      1850 9.37208E-02
 -1      1851 1.25273E-01
 -1      1852 7.43057E-02
 -1      1853 6.07791E-02
 -1      1854 6.49405E-02
 -1      1855 5.83207E-02
 -1      1856 5.03076E-02
 -1      1857 4.30670E-02
 -1      1858 4.86422E-02
 -1      1859 4.03036E-02
 -1      1860 3.89431E-02
 -1      1861 3.68405E-02
 -1      1862 3.11493E-02
 -1      1863 3.38146E-02
 -1      1864 2.87256E-02
 -1      1865 2.56984E-02
 -1      1866 2.79278E-02
 -1      1867 2.29918E-02
 -1      1868 2.08644E-02
 -1      1869 2.27975E-02
 -1      1870 1.89498E-02
 -1      1871 1.66151E-02
 -1      1872 1.81763E-02
 -1      1873 1.49467E-02
 -1      1874 1.29248E-02
 -1      1875 1.45932E-02
 -1      1876 1.13418E-02
 -1      1877 1.04745E-02
 -1      1878 1.13418E-02
 -1      1879 9.10322E-03
 -1      1880 8.25545E-03
 -1      1881 8.38756E-03
 -1      1882 7.66667E-03
 -1      1883 6.78718E-03
 -1      1884 6.42753E-03
 -1      1885 6.36454E-03
 -1      1886 5.54351E-03
 -1      1887 5.41611E-03
 -1      1888 5.10803E-03
 -1      1889 4.38981E-03
 -1      1890 4.55799E-03
 -1      1891 3.97987E-03
 -1      1892 3.49930E-03
 -1      1893 3.71257E-03
 -1      1894 3.13505E-03
 -1      1895 2.82804E-03
 -1      1896 2.93838E-03
 -1      1897 2.64617E-03
 -1      1898 2.35510E-03
 -1      1899 2.39227E-03
 -1      1900 2.18627E-03
 -1      1901 1.92536E-03
 -1      1902 2.04157E-03
 -1      1903 1.75891E-03
 -1      1904 1.56397E-03
 -1      1905 1.70630E-03
 -1      1906 1.41744E-03
 -1      1907 1.24636E-03
 -1      1908 1.39333E-03
 -1      1909 1.12595E-03
 -1      1910 1.00236E-03
 -1      1911 1.12640E-03
 -1      1912 8.92117E-04
 -1      1913 7.80176E-04
 -1      1914 8.95743E-04
 -1      1915 6.96676E-04
 -1      1916 5.98428E-04
 -1      1917 7.01999E-04
 -1      1918 5.23632E-04
 -1      1919 4.62272E-04
 -1      1920 5.43703E-04
 -1      1921 3.97853E-04
 -1      1922 3.51841E-04
 -1      1923 4.04489E-04
 -1      1924 3.09828E-04
 -1      1925 2.70997E-04
 -1      1926 2.98057E-04
 -1      1927 2.32850E-04
 -1      1928 1.92521E-04
 -1      1929 1.45429E-04
 -1      1930 2.17898E-04
 -1      1931 3.18086E+00
 -1      1932 3.07033E+00
 -1      1933 3.37482E+00
 -1      1934 4.16459E+00
 -1      1935 3.83238E+00
 -1      1936 4.60389E+00
 -1      1937 4.91226E+00
 -1      1938 4.50982E+00
 -1      1939 5.60064E+00
 -1      1940 6.08856E+00
 -1      1941 5.62760E+00
 -1      1942 6.66122E+00
 -1      1943 7.63557E+00
 -1      1944 7.46435E+00
 -1      1945 8.75235E+00
 -1      1946 9.84669E+00
 -1      1947 7.53900E+00
 -1      1948 1.57479E+01
 -1      1949 1.28618E+01
 -1      1950 1.74727E+01
 -1      1951 1.59756E+01
 -1      1952 6.47608E+00
 -1      1953 1.11872E+01
 -1      1954 9.93021E+00
 -1      1955 9.51413E+00
 -1      1956 7.96581E+00
 -1      1957 8.22071E+00
 -1      1958 6.82277E+00
 -1      1959 7.00810E+00
 -1      1960 8.55929E+00
 -1      1961 5.46535E+00
 -1      1962 6.08584E+00
 -1      1963 6.86465E+00
 -1      1964 4.12548E+00
 -1      1965 4.72618E+00
 -1      1966 5.38855E+00
 -1      1967 2.95851E+00
 -1      1968 3.45485E+00
 -1      1969 3.97875E+00
 -1      1970 2.01044E+00
 -1      1971 2.42630E+00
 -1      1972 2.77590E+00
 -1      1973 1.31574E+00
 -1      1974 1.62536E+00
 -1      1975 1.85861E+00
 -1      1976 8.39790E-01
 -1      1977 1.05271E+00
 -1      1978 1.21050E+00
 -1      1979 5.27327E-01
 -1      1980 6.66416E-01
 -1      1981 7.74097E-01
 -1      1982 3.27437E-01
 -1      1983 4.15535E-01
 -1      1984 4.88931E-01
 -1      1985 2.06479E-01
 -1      1986 2.56305E-01
 -1      1987 3.06007E-01
 -1      1988 1.31214E-01
 -1      1989 1.61573E-01
 -1      1990 1.89968E-01
 -1      1991 8.30292E-02
 -1      1992 1.02995E-01
 -1      1993 1.16842E-01
 -1      1994 5.21827E-02
 -1      1995 6.53502E-02
 -1      1996 7.09439E-02
 -1      1997 3.50896E-02
 -1      1998 4.38151E-02
 -1      1999 4.48972E-02
 -1      2000 2.35950E-02
 -1      2001 2.93711E-02
 -1      2002 3.08111E-02
 -1      2003 1.72569E-02
 -1      2004 1.98873E-02
 -1      2005 2.13848E-02
 -1      2006 1.29139E-02
 -1      2007 1.48753E-02
 -1      2008 1.52955E-02
 -1      2009 9.89000E-03
 -1      2010 1.14020E-02
 -1      2011 1.14020E-02
 -1      2012 7.53118E-03
 -1      2013 8.71059E-03
 -1      2014 8.71059E-03
 -1      2015 5.73380E-03
 -1      2016 6.65387E-03
 -1      2017 6.65387E-03
 -1      2018 4.68611E-03
 -1      2019 5.12458E-03
 -1      2020 5.16734E-03
 -1      2021 3.80187E-03
 -1      2022 4.18342E-03
 -1      2023 4.05542E-03
 -1      2024 3.08131E-03
 -1      2025 3.43005E-03
 -1      2026 3.18091E-03
 -1      2027 2.51235E-03
 -1      2028 2.82206E-03
 -1      2029 2.54985E-03
 -1      2030 2.03289E-03
 -1      2031 2.30177E-03
 -1      2032 2.08003E-03
 -1      2033 1.65048E-03
 -1      2034 1.86789E-03
 -1      2035 1.70446E-03
 -1      2036 1.32638E-03
 -1      2037 1.50407E-03
 -1      2038 1.39306E-03
 -1      2039 1.05233E-03
 -1      2040 1.20499E-03
 -1      2041 1.12526E-03
 -1      2042 8.19765E-04
 -1      2043 9.43831E-04
 -1      2044 8.95368E-04
 -1      2045 6.20267E-04
 -1      2046 7.25305E-04
 -1      2047 6.92410E-04
 -1      2048 4.51829E-04
 -1      2049 5.40103E-04
 -1      2050 5.17785E-04
 -1      2051 3.47671E-04
 -1      2052 3.95525E-04
 -1      2053 3.81318E-04
 -1      2054 2.52769E-04
 -1      2055 3.07922E-04
 -1      2056 2.85266E-04
 -1      2057 1.82550E-04
 -1      2058 2.33490E-04
 -1      2059 2.26237E-04
 -1      2060 1.68048E-04
 -1      2061 7.15176E-05
 -1      2062 8.54777E-05
 -1      2063 1.62463E-04
 -1      2064 1.87327E-04
 -1      2065 1.68532E-04
 -1      2066 1.68048E-04
 -1      2067 9.92244E-05
 -1      2068 8.27676E-05
 -1      2069 1.02797E-04
 -1      2070 1.24197E-04
 -1      2071 1.13937E-04
 -1      2072 1.28759E-04
 -1      2073 1.34421E-04
 -1      2074 1.30548E-04
 -1      2075 1.49822E-04
 -1      2076 1.34421E-04
 -1      2077 1.34421E-04
 -1      2078 1.56172E-04
 -1      2079 1.33688E-04
 -1      2080 1.33793E-04
 -1      2081 1.55545E-04
 -1      2082 1.29076E-04
 -1      2083 1.33688E-04
 -1      2084 1.54918E-04
 -1      2085 1.11965E-04
 -1      2086 1.22189E-04
 -1      2087 1.48031E-04
 -1      2088 8.07205E-05
 -1      2089 9.67740E-05
 -1      2090 1.25954E-04
 -1      2091 8.36367E-05
 -1      2092 6.95166E-05
 -1      2093 9.95591E-05
 -1      2094 1.10914E-04
 -1      2095 1.10914E-04
 -1      2096 1.15633E-04
 -1      2097 2.88821E+01
 -1      2098 2.65968E+01
 -1      2099 3.58994E+01
 -1      2100 3.58994E+01
 -1      2101 3.52356E+01
 -1      2102 3.58994E+01
 -1      2103 3.37165E+01
 -1      2104 2.93281E+01
 -1      2105 2.73279E+01
 -1      2106 1.41595E+01
 -1      2107 2.50264E+01
 -1      2108 1.14679E+00
 -1      2109 1.26899E+00
 -1      2110 9.71832E-01
 -1      2111 9.54182E-01
 -1      2112 1.74727E+01
 -1      2113 1.29362E+01
 -1      2114 1.08330E+01
 -1      2115 2.86705E+01
 -1      2116 1.56998E+01
 -1      2117 3.10973E+01
 -1      2118 3.38116E+01
 -1      2119 2.86572E+01
 -1      2120 3.28161E+01
 -1      2121 3.96614E+01
 -1      2122 3.92648E+01
 -1      2123 3.96614E+01
 -1      2124 3.96614E+01
 -1      2125 3.13808E+01
 -1      2126 2.81717E+01
 -1      2127 3.09479E+01
 -1      2128 2.94048E+01
 -1      2129 1.36642E+01
 -1      2130 2.59626E+01
 -1      2131 9.29620E+00
 -1      2132 1.06278E+01
 -1      2133 9.95193E+00
 -1      2134 1.05548E+01
 -1      2135 9.81201E+00
 -1      2136 1.14472E+01
 -1      2137 1.20061E+01
 -1      2138 1.08665E+01
 -1      2139 1.10664E+01
 -1      2140 1.13651E+01
 -1      2141 1.09777E+01
 -1      2142 1.01988E+01
 -1      2143 1.07300E+01
 -1      2144 8.54631E+00
 -1      2145 8.90460E+00
 -1      2146 7.74594E+00
 -1      2147 1.48098E+01
 -1      2148 1.00334E+01
 -1      2149 3.12133E+01
 -1      2150 1.82756E+01
 -1      2151 1.28917E+01
 -1      2152 2.72499E+01
 -1      2153 3.66595E+01
 -1      2154 2.71454E+01
 -1      2155 2.60487E+01
 -1      2156 2.60487E+01
 -1      2157 9.96189E+00
 -1      2158 1.09065E+01
 -1      2159 2.69564E+01
 -1      2160 3.00864E+00
 -1      2161 9.89796E+00
 -1      2162 1.53374E+01
 -1      2163 1.37785E+01
 -1      2164 2.29338E+00
 -1      2165 1.21918E+01
 -1      2166 6.67025E+00
 -1      2167 6.41685E+00
 -1      2168 1.24433E+01
 -1      2169 1.35788E+01
 -1      2170 1.23535E+01
 -1      2171 1.12265E+01
 -1      2172 2.26237E-04
 -1      2173 4.23554E+01
 -1      2174 2.35235E+01
 -1      2175 1.27009E-04
 -1      2176 3.36014E+01
 -1      2177 1.76675E+01
 -1      2178 2.18037E+01
 -1      2179 7.93887E+00
 -1      2180 9.67528E+00
 -1      2181 1.01992E+01
 -1      2182 1.04689E+01
 -1      2183 7.43141E+00
 -1      2184 1.79735E+01
 -1      2185 2.49348E+01
 -1      2186 4.98902E+01
 -1      2187 3.84005E+01
 -1      2188 3.92827E+01
 -1      2189 2.00965E+01
 -1      2190 8.90942E+00
 -1      2191 9.39847E+00
 -1      2192 8.55944E+00
 -1      2193 9.25155E+00
 -1      2194 3.78395E+00
 -1      2195 3.20641E+00
 -1      2196 1.09405E+00
 -1      2197 1.05252E+00
 -1      2198 9.10884E-01
 -1      2199 8.92748E-01
 -1      2200 9.90599E-01
 -1      2201 1.25803E+00
 -1      2202 1.25803E+00
 -1      2203 1.20010E+00
 -1      2204 1.25803E+00
 -1      2205 1.39968E+00
 -1      2206 1.09120E+00
 -1      2207 1.15319E+00
 -1      2208 1.35278E+00
 -1      2209 1.50335E+00
 -1      2210 1.22266E+00
 -1      2211 1.43733E+00
 -1      2212 2.22291E+00
 -1      2213 1.94207E+00
 -1      2214 2.00752E+00
 -1      2215 3.28349E+00
 -1      2216 2.80757E+00
 -1      2217 3.03089E+00
 -1      2218 5.15370E+00
 -1      2219 4.50218E+00
 -1      2220 4.33376E+00
 -1      2221 1.63488E+00
 -1      2222 1.50879E+00
 -1      2223 1.76212E+00
 -1      2224 1.54327E+00
 -1      2225 1.10362E+00
 -1      2226 9.91918E-01
 -1      2227 1.59835E+00
 -1      2228 1.55010E+00
 -1      2229 1.28480E+00
 -1      2230 1.60607E+00
 -1      2231 1.63569E+00
 -1      2232 1.43033E+00
 -1      2233 1.69263E+00
 -1      2234 1.76200E+00
 -1      2235 1.54324E+00
 -1      2236 1.80789E+00
 -1      2237 1.87643E+00
 -1      2238 1.64606E+00
 -1      2239 1.89287E+00
 -1      2240 1.92511E+00
 -1      2241 1.70838E+00
 -1      2242 1.90133E+00
 -1      2243 1.87534E+00
 -1      2244 1.70104E+00
 -1      2245 1.81931E+00
 -1      2246 1.82382E+00
 -1      2247 1.62123E+00
 -1      2248 1.84932E+00
 -1      2249 1.84262E+00
 -1      2250 1.59071E+00
 -1      2251 1.83431E+00
 -1      2252 1.75925E+00
 -1      2253 1.60790E+00
 -1      2254 1.70509E+00
 -1      2255 1.57233E+00
 -1      2256 1.54542E+00
 -1      2257 1.49512E+00
 -1      2258 1.35916E+00
 -1      2259 1.41406E+00
 -1      2260 1.26634E+00
 -1      2261 1.13024E+00
 -1      2262 1.24403E+00
 -1      2263 1.01355E+00
 -1      2264 8.76621E-01
 -1      2265 1.03452E+00
 -1      2266 7.57544E-01
 -1      2267 6.51210E-01
 -1      2268 7.98760E-01
 -1      2269 5.46029E-01
 -1      2270 4.52243E-01
 -1      2271 5.74502E-01
 -1      2272 3.79770E-01
 -1      2273 3.03287E-01
 -1      2274 3.96848E-01
 -1      2275 2.44946E-01
 -1      2276 1.86941E-01
 -1      2277 2.66034E-01
 -1      2278 1.45348E-01
 -1      2279 1.04431E-01
 -1      2280 1.66099E-01
 -1      2281 7.68001E-02
 -1      2282 5.73850E-02
 -1      2283 9.68752E-02
 -1      2284 4.71892E-02
 -1      2285 4.47308E-02
 -1      2286 5.90487E-02
 -1      2287 3.72504E-02
 -1      2288 3.55849E-02
 -1      2289 4.13726E-02
 -1      2290 3.29732E-02
 -1      2291 2.95101E-02
 -1      2292 3.12805E-02
 -1      2293 2.83380E-02
 -1      2294 2.59143E-02
 -1      2295 2.74967E-02
 -1      2296 2.39737E-02
 -1      2297 2.12671E-02
 -1      2298 2.43839E-02
 -1      2299 1.88354E-02
 -1      2300 1.69208E-02
 -1      2301 2.00116E-02
 -1      2302 1.50853E-02
 -1      2303 1.34168E-02
 -1      2304 1.57444E-02
 -1      2305 1.16173E-02
 -1      2306 1.00343E-02
 -1      2307 1.21093E-02
 -1      2308 8.45518E-03
 -1      2309 7.08392E-03
 -1      2310 8.73066E-03
 -1      2311 5.96512E-03
 -1      2312 5.37634E-03
 -1      2313 6.03274E-03
 -1      2314 4.64550E-03
 -1      2315 4.22287E-03
 -1      2316 4.18310E-03
 -1      2317 3.98859E-03
 -1      2318 3.55310E-03
 -1      2319 3.21798E-03
 -1      2320 3.39807E-03
 -1      2321 2.98813E-03
 -1      2322 2.82867E-03
 -1      2323 2.80224E-03
 -1      2324 2.43800E-03
 -1      2325 2.48775E-03
 -1      2326 2.24562E-03
 -1      2327 2.06375E-03
 -1      2328 2.10948E-03
 -1      2329 1.89419E-03
 -1      2330 1.72536E-03
 -1      2331 1.74754E-03
 -1      2332 1.63286E-03
 -1      2333 1.46641E-03
 -1      2334 1.48547E-03
 -1      2335 1.36173E-03
 -1      2336 1.21520E-03
 -1      2337 1.28828E-03
 -1      2338 1.10947E-03
 -1      2339 9.89062E-04
 -1      2340 1.07786E-03
 -1      2341 8.98711E-04
 -1      2342 7.88468E-04
 -1      2343 8.81788E-04
 -1      2344 7.05344E-04
 -1      2345 6.21844E-04
 -1      2346 7.08313E-04
 -1      2347 5.46735E-04
 -1      2348 4.71939E-04
 -1      2349 5.50079E-04
 -1      2350 4.13620E-04
 -1      2351 3.49202E-04
 -1      2352 4.16652E-04
 -1      2353 3.00613E-04
 -1      2354 2.58600E-04
 -1      2355 3.09745E-04
 -1      2356 7.75857E+00
 -1      2357 7.04323E+00
 -1      2358 1.01281E+01
 -1      2359 8.75235E+00
 -1      2360 9.13436E+00
 -1      2361 8.47537E+00
 -1      2362 7.02411E+00
 -1      2363 1.05653E+01
 -1      2364 1.15230E+01
 -1      2365 3.58815E+00
 -1      2366 4.25878E+00
 -1      2367 2.34131E+00
 -1      2368 2.87352E+00
 -1      2369 3.15355E+00
 -1      2370 1.51110E+00
 -1      2371 1.89618E+00
 -1      2372 1.99380E+00
 -1      2373 9.62726E-01
 -1      2374 1.22576E+00
 -1      2375 1.26332E+00
 -1      2376 6.25187E-01
 -1      2377 7.98561E-01
 -1      2378 8.13815E-01
 -1      2379 4.03417E-01
 -1      2380 5.15209E-01
 -1      2381 5.39673E-01
 -1      2382 2.58831E-01
 -1      2383 3.29963E-01
 -1      2384 3.56241E-01
 -1      2385 1.65079E-01
 -1      2386 2.09986E-01
 -1      2387 2.33942E-01
 -1      2388 1.04509E-01
 -1      2389 1.32729E-01
 -1      2390 1.52746E-01
 -1      2391 6.54736E-02
 -1      2392 8.31527E-02
 -1      2393 9.90390E-02
 -1      2394 4.30452E-02
 -1      2395 5.14128E-02
 -1      2396 6.36216E-02
 -1      2397 2.80987E-02
 -1      2398 3.38171E-02
 -1      2399 4.03328E-02
 -1      2400 1.85517E-02
 -1      2401 2.22595E-02
 -1      2402 2.52655E-02
 -1      2403 1.21466E-02
 -1      2404 1.45282E-02
 -1      2405 1.54028E-02
 -1      2406 9.03564E-03
 -1      2407 1.05476E-02
 -1      2408 9.78031E-03
 -1      2409 7.16210E-03
 -1      2410 8.34151E-03
 -1      2411 7.48715E-03
 -1      2412 5.65918E-03
 -1      2413 6.53649E-03
 -1      2414 6.16740E-03
 -1      2415 4.50567E-03
 -1      2416 5.11489E-03
 -1      2417 4.99751E-03
 -1      2418 3.54074E-03
 -1      2419 4.04344E-03
 -1      2420 3.99099E-03
 -1      2421 2.79625E-03
 -1      2422 3.16807E-03
 -1      2423 3.15608E-03
 -1      2424 2.28875E-03
 -1      2425 2.54800E-03
 -1      2426 2.53515E-03
 -1      2427 1.86945E-03
 -1      2428 2.08003E-03
 -1      2429 2.07818E-03
 -1      2430 1.53947E-03
 -1      2431 1.70446E-03
 -1      2432 1.70446E-03
 -1      2433 1.24665E-03
 -1      2434 1.39306E-03
 -1      2435 1.39306E-03
 -1      2436 1.00512E-03
 -1      2437 1.12651E-03
 -1      2438 1.12651E-03
 -1      2439 7.89636E-04
 -1      2440 8.98134E-04
 -1      2441 8.99386E-04
 -1      2442 6.01298E-04
 -1      2443 6.95758E-04
 -1      2444 6.98524E-04
 -1      2445 4.50415E-04
 -1      2446 5.30579E-04
 -1      2447 5.33928E-04
 -1      2448 3.46563E-04
 -1      2449 4.02867E-04
 -1      2450 4.15661E-04
 -1      2451 2.60397E-04
 -1      2452 3.00145E-04
 -1      2453 3.21694E-04
 -1      2454 1.62802E-04
 -1      2455 1.48090E-04
 -1      2456 1.60452E-04
 -1      2457 1.49202E-04
 -1      2458 1.94495E-04
 -1      2459 1.36770E-04
 -1      2460 2.13755E-04
 -1      2461 1.94425E-04
 -1      2462 4.23554E+01
 -1      2463 4.23554E+01
 -1      2464 1.78598E-04
 -1      2465 1.72247E-04
 -1      2466 1.91578E-04
 -1      2467 1.78598E-04
 -1      2468 1.78598E-04
 -1      2469 2.01023E-04
 -1      2470 1.77047E-04
 -1      2471 1.77674E-04
 -1      2472 2.00100E-04
 -1      2473 1.77047E-04
 -1      2474 1.77047E-04
 -1      2475 1.99176E-04
 -1      2476 1.69808E-04
 -1      2477 1.76694E-04
 -1      2478 1.98823E-04
 -1      2479 1.44183E-04
 -1      2480 1.59374E-04
 -1      2481 1.88037E-04
 -1      2482 1.19679E-04
 -1      2483 1.30883E-04
 -1      2484 1.64303E-04
 -1      2485 1.46956E-04
 -1      2486 1.19679E-04
 -1      2487 1.51002E-04
 -1      2488 1.61331E-04
 -1      2489 3.36014E+01
 -1      2490 2.48474E+01
 -1      2491 6.52384E+00
 -1      2492 6.17861E+00
 -1      2493 6.07690E+00
 -1      2494 1.98203E+01
 -1      2495 2.13744E+01
 -1      2496 2.07297E+01
 -1      2497 1.52835E+01
 -1      2498 7.96051E+00
 -1      2499 8.59565E+00
 -1      2500 1.24577E+01
 -1      2501 1.74430E+01
 -1      2502 1.01128E+01
 -1      2503 2.50777E+01
 -1      2504 3.37165E+01
 -1      2505 5.11500E+00
 -1      2506 5.85417E+00
 -1      2507 4.72440E+00
 -1      2508 7.31918E+00
 -1      2509 8.05611E+00
 -1      2510 7.04563E+00
 -1      2511 1.23675E+00
 -1      2512 1.20649E+00
 -1      2513 1.24468E+00
 -1      2514 1.37841E+00
 -1      2515 1.35941E+01
 -1      2516 1.53036E+01
 -1      2517 1.13230E+01
 -1      2518 2.69108E+01
 -1      2519 3.84005E+01
 -1      2520 3.92827E+01
 -1      2521 2.86751E+01
 -1      2522 4.98902E+01
 -1      2523 4.98902E+01
 -1      2524 3.92827E+01
 -1      2525 2.00931E+01
 -1      2526 2.20691E+01
 -1      2527 2.20691E+01
 -1      2528 6.85626E+00
 -1      2529 9.89259E+00
 -1      2530 5.98532E+00
 -1      2531 5.46951E+00
 -1      2532 9.06161E+00
 -1      2533 9.44245E+00
 -1      2534 9.42824E+00
 -1      2535 9.31705E+00
 -1      2536 8.29062E+00
 -1      2537 5.36824E+00
 -1      2538 6.66244E+00
 -1      2539 7.46048E+00
 -1      2540 5.97336E+00
 -1      2541 4.88986E+00
 -1      2542 1.22799E+01
 -1      2543 8.81413E+00
 -1      2544 6.84862E+00
 -1      2545 1.12059E+01
 -1      2546 2.09889E+01
 -1      2547 2.21902E+01
 -1      2548 2.09889E+01
 -1      2549 3.20641E+00
 -1      2550 2.82166E+00
 -1      2551 3.04784E+00
 -1      2552 3.61554E+00
 -1      2553 2.33471E+01
 -1      2554 2.16283E+01
 -1      2555 1.31509E+01
 -1      2556 1.33420E+01
 -1      2557 9.70969E+00
 -1      2558 1.09284E+01
 -1      2559 1.84831E+01
 -1      2560 1.74527E+01
 -1      2561 7.60270E-01
 -1      2562 8.04053E-01
 -1      2563 8.21704E-01
 -1      2564 1.10198E+01
 -1      2565 3.28349E+00
 -1      2566 2.33471E+01
 -1      2567 9.91918E-01
 -1      2568 1.09284E+01
 -1      2569 5.06221E+00
 -1      2570 1.56001E+01
 -1      2571 8.97397E+00
 -1      2572 6.59961E+00
 -1      2573 7.56670E+00
 -1      2574 2.13744E+01
 -1      2575 7.62120E+00
 -1      2576 3.61554E+00
 -1      2577 2.28635E-04
 -1      2578 2.60397E-04
 -1      2579 2.45517E-04
 -1      2580 3.36014E+01
 -1      2581 3.37165E+01
 -1      2582 1.69653E-04
 -1      2583 1.51232E-04
 -1      2584 1.55278E-04
 -1      2585 2.07799E-04
 -1      2586 1.56700E+01
 -1      2587 7.71348E+00
 -1      2588 1.45772E+01
 -1      2589 5.58282E+00
 -1      2590 3.84005E+01
 -1      2591 2.10355E-04
 -1      2592 9.36200E+00
 -1      2593 5.41017E+00
 -1      2594 1.68962E+00
 -1      2595 1.73653E+00
 -1      2596 1.61415E+00
 -1      2597 1.61415E+00
 -1      2598 1.95100E+00
 -1      2599 2.71229E+00
 -1      2600 2.27358E+00
 -1      2601 3.68188E+00
 -1      2602 3.09722E+00
 -1      2603 3.36328E+00
 -1      2604 1.83215E+00
 -1      2605 2.27728E+00
 -1      2606 1.02180E+00
 -1      2607 1.11137E+00
 -1      2608 4.37027E+00
 -1      2609 3.33148E+00
 -1      2610 1.24098E+00
 -1      2611 1.29695E+00
 -1      2612 9.77983E-01
 -1      2613 1.38946E+00
 -1      2614 1.44640E+00
 -1      2615 1.20011E+00
 -1      2616 1.51361E+00
 -1      2617 1.55950E+00
 -1      2618 1.35983E+00
 -1      2619 1.59161E+00
 -1      2620 1.60804E+00
 -1      2621 1.45916E+00
 -1      2622 1.59489E+00
 -1      2623 1.57112E+00
 -1      2624 1.47812E+00
 -1      2625 1.54635E+00
 -1      2626 1.49032E+00
 -1      2627 1.44020E+00
 -1      2628 1.44618E+00
 -1      2629 1.47168E+00
 -1      2630 1.37130E+00
 -1      2631 1.49963E+00
 -1      2632 1.49132E+00
 -1      2633 1.35511E+00
 -1      2634 1.47952E+00
 -1      2635 1.42536E+00
 -1      2636 1.37126E+00
 -1      2637 1.39328E+00
 -1      2638 1.31607E+00
 -1      2639 1.32737E+00
 -1      2640 1.25233E+00
 -1      2641 1.15951E+00
 -1      2642 1.23155E+00
 -1      2643 1.05437E+00
 -1      2644 9.37682E-01
 -1      2645 1.06267E+00
 -1      2646 8.54451E-01
 -1      2647 7.35374E-01
 -1      2648 8.74296E-01
 -1      2649 6.55892E-01
 -1      2650 5.50711E-01
 -1      2651 7.11583E-01
 -1      2652 4.69320E-01
 -1      2653 3.96848E-01
 -1      2654 5.50711E-01
 -1      2655 3.24375E-01
 -1      2656 2.66034E-01
 -1      2657 3.96848E-01
 -1      2658 2.07692E-01
 -1      2659 1.66099E-01
 -1      2660 2.66034E-01
 -1      2661 1.22937E-01
 -1      2662 9.53059E-02
 -1      2663 1.64530E-01
 -1      2664 7.37269E-02
 -1      2665 6.35312E-02
 -1      2666 9.97884E-02
 -1      2667 4.90867E-02
 -1      2668 4.16063E-02
 -1      2669 6.37649E-02
 -1      2670 3.50055E-02
 -1      2671 3.23938E-02
 -1      2672 4.27196E-02
 -1      2673 2.93862E-02
 -1      2674 2.82141E-02
 -1      2675 3.31112E-02
 -1      2676 2.57520E-02
 -1      2677 2.38115E-02
 -1      2678 2.76416E-02
 -1      2679 2.14269E-02
 -1      2680 1.89952E-02
 -1      2681 2.27950E-02
 -1      2682 1.65559E-02
 -1      2683 1.47204E-02
 -1      2684 1.79712E-02
 -1      2685 1.27896E-02
 -1      2686 1.09901E-02
 -1      2687 1.36011E-02
 -1      2688 9.39209E-03
 -1      2689 7.81298E-03
 -1      2690 1.00724E-02
 -1      2691 6.49111E-03
 -1      2692 5.37231E-03
 -1      2693 7.15255E-03
 -1      2694 4.33320E-03
 -1      2695 3.60236E-03
 -1      2696 4.79157E-03
 -1      2697 2.83209E-03
 -1      2698 2.59781E-03
 -1      2699 2.98219E-03
 -1      2700 2.31542E-03
 -1      2701 2.16039E-03
 -1      2702 1.92953E-03
 -1      2703 2.17774E-03
 -1      2704 1.99185E-03
 -1      2705 1.66449E-03
 -1      2706 1.94651E-03
 -1      2707 1.75413E-03
 -1      2708 1.63650E-03
 -1      2709 1.67226E-03
 -1      2710 1.50269E-03
 -1      2711 1.50928E-03
 -1      2712 1.40328E-03
 -1      2713 1.31077E-03
 -1      2714 1.32799E-03
 -1      2715 1.21529E-03
 -1      2716 1.11060E-03
 -1      2717 1.13309E-03
 -1      2718 1.04157E-03
 -1      2719 9.35844E-04
 -1      2720 9.68581E-04
 -1      2721 8.60954E-04
 -1      2722 7.70603E-04
 -1      2723 8.24660E-04
 -1      2724 6.96905E-04
 -1      2725 6.13781E-04
 -1      2726 6.76071E-04
 -1      2727 5.49999E-04
 -1      2728 4.74890E-04
 -1      2729 5.38591E-04
 -1      2730 4.16990E-04
 -1      2731 3.58671E-04
 -1      2732 4.16909E-04
 -1      2733 3.09745E-04
 -1      2734 2.61156E-04
 -1      2735 3.10082E-04
 -1      2736 1.41923E+01
 -1      2737 1.27319E+01
 -1      2738 1.15889E+00
 -1      2739 1.44423E+00
 -1      2740 1.72772E+00
 -1      2741 1.48739E+01
 -1      2742 2.55851E-04
 -1      2743 3.02492E-04
 -1      2744 3.48910E-04
 -1      2745 2.91074E+00
 -1      2746 3.62537E+00
 -1      2747 2.74910E+00
 -1      2748 7.47999E-01
 -1      2749 9.12163E-01
 -1      2750 1.09307E+00
 -1      2751 4.80987E-01
 -1      2752 5.90965E-01
 -1      2753 6.89313E-01
 -1      2754 3.07620E-01
 -1      2755 3.81074E-01
 -1      2756 4.32366E-01
 -1      2757 1.95639E-01
 -1      2758 2.44484E-01
 -1      2759 2.69317E-01
 -1      2760 1.26094E-01
 -1      2761 1.58444E-01
 -1      2762 1.68986E-01
 -1      2763 8.05535E-02
 -1      2764 1.01910E-01
 -1      2765 1.07608E-01
 -1      2766 5.32835E-02
 -1      2767 6.73444E-02
 -1      2768 7.02154E-02
 -1      2769 3.47673E-02
 -1      2770 4.39953E-02
 -1      2771 4.77180E-02
 -1      2772 2.24420E-02
 -1      2773 2.82812E-02
 -1      2774 3.19437E-02
 -1      2775 1.37574E-02
 -1      2776 1.77809E-02
 -1      2777 2.07965E-02
 -1      2778 9.13737E-03
 -1      2779 1.07364E-02
 -1      2780 1.31144E-02
 -1      2781 6.40466E-03
 -1      2782 7.09880E-03
 -1      2783 8.05488E-03
 -1      2784 4.69989E-03
 -1      2785 5.32550E-03
 -1      2786 4.93714E-03
 -1      2787 3.96016E-03
 -1      2788 4.50444E-03
 -1      2789 3.66254E-03
 -1      2790 3.27792E-03
 -1      2791 3.74015E-03
 -1      2792 3.24708E-03
 -1      2793 2.67561E-03
 -1      2794 3.04828E-03
 -1      2795 2.79744E-03
 -1      2796 2.20750E-03
 -1      2797 2.45575E-03
 -1      2798 2.34795E-03
 -1      2799 1.79853E-03
 -1      2800 2.00726E-03
 -1      2801 1.92785E-03
 -1      2802 1.49782E-03
 -1      2803 1.66281E-03
 -1      2804 1.59189E-03
 -1      2805 1.22769E-03
 -1      2806 1.37410E-03
 -1      2807 1.33245E-03
 -1      2808 9.92153E-04
 -1      2809 1.11229E-03
 -1      2810 1.09333E-03
 -1      2811 7.81407E-04
 -1      2812 8.88392E-04
 -1      2813 8.74173E-04
 -1      2814 6.04415E-04
 -1      2815 6.98292E-04
 -1      2816 6.87298E-04
 -1      2817 4.63376E-04
 -1      2818 5.34095E-04
 -1      2819 5.33863E-04
 -1      2820 3.72201E-04
 -1      2821 4.19750E-04
 -1      2822 4.19917E-04
 -1      2823 3.52999E-04
 -1      2824 2.24880E-04
 -1      2825 2.24880E-04
 -1      2826 2.68282E-04
 -1      2827 6.23485E+00
 -1      2828 8.79993E+00
 -1      2829 2.24463E-04
 -1      2830 2.15018E-04
 -1      2831 2.48320E-04
 -1      2832 2.22975E-04
 -1      2833 2.22975E-04
 -1      2834 2.22623E-04
 -1      2835 2.22975E-04
 -1      2836 2.46775E-04
 -1      2837 2.09901E-04
 -1      2838 2.20335E-04
 -1      2839 2.44487E-04
 -1      2840 1.78592E-04
 -1      2841 1.91892E-04
 -1      2842 2.24191E-04
 -1      2843 3.61554E+00
 -1      2844 2.10483E+01
 -1      2845 2.96872E+01
 -1      2846 7.23868E+00
 -1      2847 6.21377E+00
 -1      2848 1.85646E+01
 -1      2849 1.47061E+01
 -1      2850 1.08131E+01
 -1      2851 1.34632E+01
 -1      2852 1.93034E+01
 -1      2853 9.66786E+00
 -1      2854 1.21771E+01
 -1      2855 9.26309E+00
 -1      2856 8.74371E+00
 -1      2857 6.72357E+00
 -1      2858 8.18858E+00
 -1      2859 2.96871E+01
 -1      2860 2.09331E+01
 -1      2861 1.45559E+01
 -1      2862 1.93976E+01
 -1      2863 1.40736E+01
 -1      2864 4.50864E+00
 -1      2865 5.36486E+00
 -1      2866 4.26583E+00
 -1      2867 2.09180E+01
 -1      2868 3.24077E+01
 -1      2869 1.34048E+01
 -1      2870 6.12162E+00
 -1      2871 6.95421E+00
 -1      2872 2.55920E-04
 -1      2873 2.68282E-04
 -1      2874 2.88805E-04
 -1      2875 1.88076E+00
 -1      2876 1.74930E+00
 -1      2877 2.13306E+00
 -1      2878 2.58554E+00
 -1      2879 2.23957E-04
 -1      2880 2.24880E-04
 -1      2881 2.47756E-04
 -1      2882 3.98070E+00
 -1      2883 5.36745E+00
 -1      2884 8.41790E-01
 -1      2885 3.28587E+01
 -1      2886 2.22512E+01
 -1      2887 3.88050E+00
 -1      2888 5.17857E+00
 -1      2889 1.06340E+00
 -1      2890 9.21768E-01
 -1      2891 2.14758E-04
 -1      2892 1.63957E-04
 -1      2893 2.14758E-04
 -1      2894 7.28874E+00
 -1      2895 7.03329E+00
 -1      2896 5.69688E+00
 -1      2897 4.41836E+00
 -1      2898 3.81325E+00
 -1      2899 1.59681E-04
 -1      2900 4.12016E+00
 -1      2901 4.12016E+00
 -1      2902 4.18650E+00
 -1      2903 4.83839E+00
 -1      2904 8.02495E-01
 -1      2905 7.13800E-01
 -1      2906 8.75298E-01
 -1      2907 1.79366E+00
 -1      2908 1.57920E+00
 -1      2909 1.55792E+00
 -1      2910 6.50781E+00
 -1      2911 3.28876E+00
 -1      2912 7.86637E-01
 -1      2913 8.78255E-01
 -1      2914 9.42851E+00
 -1      2915 1.09062E+01
 -1      2916 2.12243E+01
 -1      2917 1.58963E+01
 -1      2918 1.17681E+01
 -1      2919 5.33118E+00
 -1      2920 4.83258E+00
 -1      2921 3.10185E+00
 -1      2922 5.52802E+00
 -1      2923 8.65516E+00
 -1      2924 7.54115E+00
 -1      2925 2.48737E-04
 -1      2926 1.53762E+01
 -1      2927 3.29707E-04
 -1      2928 4.80538E+00
 -1      2929 8.88058E+00
 -1      2930 1.59681E-04
 -1      2931 1.07918E+01
 -1      2932 1.70189E+01
 -1      2933 6.00017E+00
 -1      2934 1.48004E+01
 -1      2935 1.79514E+01
 -1      2936 1.46503E+01
 -1      2937 9.34580E+00
 -1      2938 1.90801E-04
 -1      2939 1.82122E-04
 -1      2940 2.09712E-04
 -1      2941 2.37199E-04
 -1      2942 1.38280E+00
 -1      2943 1.27035E+00
 -1      2944 1.20152E+00
 -1      2945 1.58360E+00
 -1      2946 3.40900E+00
 -1      2947 1.19508E+01
 -1      2948 4.41931E+00
 -1      2949 7.04819E-01
 -1      2950 6.36079E+00
 -1      2951 5.28418E+00
 -1      2952 7.71444E+00
 -1      2953 8.74171E-01
 -1      2954 1.12090E+00
 -1      2955 4.76640E+00
 -1      2956 4.38147E+00
 -1      2957 8.91769E+00
 -1      2958 7.09197E+00
 -1      2959 2.64955E-04
 -1      2960 2.65936E-04
 -1      2961 4.96501E+00
 -1      2962 5.96690E+00
 -1      2963 6.16423E-01
 -1      2964 7.90254E+00
 -1      2965 3.31879E+00
 -1      2966 4.26184E+00
 -1      2967 1.01230E+01
 -1      2968 9.60915E+00
 -1      2969 7.27261E+00
 -1      2970 1.07662E+00
 -1      2971 1.16914E+00
 -1      2972 1.26616E+00
 -1      2973 1.33337E+00
 -1      2974 1.14268E+00
 -1      2975 1.40508E+00
 -1      2976 1.43720E+00
 -1      2977 1.31142E+00
 -1      2978 1.47527E+00
 -1      2979 1.46212E+00
 -1      2980 1.42119E+00
 -1      2981 1.52569E+00
 -1      2982 1.50092E+00
 -1      2983 1.52284E+00
 -1      2984 1.42976E+00
 -1      2985 1.38562E+00
 -1      2986 1.51525E+00
 -1      2987 1.43515E+00
 -1      2988 1.46311E+00
 -1      2989 1.49362E+00
 -1      2990 1.44851E+00
 -1      2991 1.43671E+00
 -1      2992 1.52856E+00
 -1      2993 1.34743E+00
 -1      2994 1.31535E+00
 -1      2995 1.42469E+00
 -1      2996 1.25340E+00
 -1      2997 1.18966E+00
 -1      2998 1.27346E+00
 -1      2999 1.14666E+00
 -1      3000 1.04151E+00
 -1      3001 1.16850E+00
 -1      3002 9.55004E-01
 -1      3003 8.71773E-01
 -1      3004 1.03899E+00
 -1      3005 7.88908E-01
 -1      3006 7.09426E-01
 -1      3007 8.69616E-01
 -1      3008 6.15057E-01
 -1      3009 5.33667E-01
 -1      3010 6.92382E-01
 -1      3011 4.45778E-01
 -1      3012 3.73305E-01
 -1      3013 5.10125E-01
 -1      3014 3.00376E-01
 -1      3015 2.42035E-01
 -1      3016 3.49307E-01
 -1      3017 1.93807E-01
 -1      3018 1.50644E-01
 -1      3019 2.28150E-01
 -1      3020 1.20877E-01
 -1      3021 9.92977E-02
 -1      3022 1.50154E-01
 -1      3023 7.82094E-02
 -1      3024 6.37649E-02
 -1      3025 9.92977E-02
 -1      3026 5.02745E-02
 -1      3027 4.36737E-02
 -1      3028 6.47190E-02
 -1      3029 3.75088E-02
 -1      3030 3.45012E-02
 -1      3031 4.50637E-02
 -1      3032 3.01037E-02
 -1      3033 2.76416E-02
 -1      3034 3.45012E-02
 -1      3035 2.44432E-02
 -1      3036 2.20587E-02
 -1      3037 2.69053E-02
 -1      3038 1.91153E-02
 -1      3039 1.66760E-02
 -1      3040 2.07635E-02
 -1      3041 1.42349E-02
 -1      3042 1.23041E-02
 -1      3043 1.53790E-02
 -1      3044 1.04012E-02
 -1      3045 8.80327E-03
 -1      3046 1.10350E-02
 -1      3047 7.40045E-03
 -1      3048 6.07858E-03
 -1      3049 7.72931E-03
 -1      3050 5.02850E-03
 -1      3051 3.98939E-03
 -1      3052 5.27641E-03
 -1      3053 3.19008E-03
 -1      3054 2.41981E-03
 -1      3055 3.42702E-03
 -1      3056 1.85802E-03
 -1      3057 1.57564E-03
 -1      3058 2.06592E-03
 -1      3059 1.26437E-03
 -1      3060 1.28172E-03
 -1      3061 1.19286E-03
 -1      3062 1.36218E-03
 -1      3063 1.31684E-03
 -1      3064 9.62056E-04
 -1      3065 1.35040E-03
 -1      3066 1.26853E-03
 -1      3067 1.07608E-03
 -1      3068 1.25128E-03
 -1      3069 1.15186E-03
 -1      3070 1.09240E-03
 -1      3071 1.10393E-03
 -1      3072 1.00845E-03
 -1      3073 1.02722E-03
 -1      3074 9.44435E-04
 -1      3075 8.75403E-04
 -1      3076 9.15273E-04
 -1      3077 8.25944E-04
 -1      3078 7.51054E-04
 -1      3079 8.01797E-04
 -1      3080 6.97510E-04
 -1      3081 6.23811E-04
 -1      3082 6.98794E-04
 -1      3083 5.66508E-04
 -1      3084 5.02726E-04
 -1      3085 5.87946E-04
 -1      3086 4.46333E-04
 -1      3087 3.88432E-04
 -1      3088 4.74249E-04
 -1      3089 3.35314E-04
 -1      3090 2.86387E-04
 -1      3091 2.62430E-04
 -1      3092 3.64737E-04
 -1      3093 1.35067E+00
 -1      3094 1.73859E+00
 -1      3095 1.13177E+00
 -1      3096 5.49841E+00
 -1      3097 1.09570E+01
 -1      3098 2.43942E-04
 -1      3099 2.61950E-04
 -1      3100 2.11100E+00
 -1      3101 2.74446E+00
 -1      3102 1.73396E+00
 -1      3103 3.64516E-01
 -1      3104 4.64429E-01
 -1      3105 2.33633E-01
 -1      3106 2.96769E-01
 -1      3107 3.28832E-01
 -1      3108 1.51232E-01
 -1      3109 1.88427E-01
 -1      3110 2.15879E-01
 -1      3111 9.70267E-02
 -1      3112 1.21210E-01
 -1      3113 1.40651E-01
 -1      3114 6.41228E-02
 -1      3115 7.73319E-02
 -1      3116 9.09341E-02
 -1      3117 4.25806E-02
 -1      3118 5.18689E-02
 -1      3119 5.89854E-02
 -1      3120 2.77020E-02
 -1      3121 3.41880E-02
 -1      3122 3.83389E-02
 -1      3123 1.75208E-02
 -1      3124 2.21819E-02
 -1      3125 2.44262E-02
 -1      3126 1.10268E-02
 -1      3127 1.40477E-02
 -1      3128 1.54331E-02
 -1      3129 6.95707E-03
 -1      3130 8.99565E-03
 -1      3131 9.92895E-03
 -1      3132 4.42740E-03
 -1      3133 5.50655E-03
 -1      3134 6.44732E-03
 -1      3135 3.21797E-03
 -1      3136 3.41342E-03
 -1      3137 3.98283E-03
 -1      3138 2.48269E-03
 -1      3139 2.70270E-03
 -1      3140 2.45358E-03
 -1      3141 2.24761E-03
 -1      3142 2.47724E-03
 -1      3143 1.93286E-03
 -1      3144 1.95873E-03
 -1      3145 2.17858E-03
 -1      3146 1.85839E-03
 -1      3147 1.65766E-03
 -1      3148 1.85790E-03
 -1      3149 1.68853E-03
 -1      3150 1.40897E-03
 -1      3151 1.54469E-03
 -1      3152 1.47474E-03
 -1      3153 1.17202E-03
 -1      3154 1.29574E-03
 -1      3155 1.24854E-03
 -1      3156 9.77613E-04
 -1      3157 1.09301E-03
 -1      3158 1.05630E-03
 -1      3159 7.95203E-04
 -1      3160 8.98964E-04
 -1      3161 8.98643E-04
 -1      3162 6.35517E-04
 -1      3163 7.18632E-04
 -1      3164 7.43423E-04
 -1      3165 4.94409E-04
 -1      3166 5.64729E-04
 -1      3167 5.96063E-04
 -1      3168 2.74738E-04
 -1      3169 2.74321E-04
 -1      3170 2.43036E+00
 -1      3171 2.30798E+00
 -1      3172 1.24896E+01
 -1      3173 1.29407E+01
 -1      3174 4.94149E+00
 -1      3175 3.87509E+00
 -1      3176 3.32574E-04
 -1      3177 3.73476E-04
 -1      3178 3.58991E-04
 -1      3179 2.67811E-04
 -1      3180 2.70099E-04
 -1      3181 2.87562E-04
 -1      3182 2.70099E-04
 -1      3183 2.70099E-04
 -1      3184 2.88279E-04
 -1      3185 2.93423E-04
 -1      3186 2.47429E+00
 -1      3187 3.12351E+00
 -1      3188 1.20796E+01
 -1      3189 2.74738E-04
 -1      3190 2.74738E-04
 -1      3191 3.00738E-04
 -1      3192 2.91937E-04
 -1      3193 5.65625E-01
 -1      3194 7.22659E-01
 -1      3195 7.50483E-01
 -1      3196 4.97775E-01
 -1      3197 5.42795E+00
 -1      3198 6.78666E+00
 -1      3199 8.95961E-01
 -1      3200 1.02557E+00
 -1      3201 9.94602E-01
 -1      3202 3.44412E+00
 -1      3203 4.32739E+00
 -1      3204 2.80602E+00
 -1      3205 1.09693E+01
 -1      3206 1.24896E+01
 -1      3207 3.37469E+00
 -1      3208 4.24209E+00
 -1      3209 2.56022E+00
 -1      3210 3.70399E+00
 -1      3211 5.30379E+00
 -1      3212 7.41470E+00
 -1      3213 3.73476E-04
 -1      3214 3.73476E-04
 -1      3215 3.96768E-04
 -1      3216 4.17245E-04
 -1      3217 2.88586E+00
 -1      3218 2.95311E+00
 -1      3219 4.97221E+00
 -1      3220 3.02978E+00
 -1      3221 5.92383E+00
 -1      3222 5.48555E+00
 -1      3223 6.50374E+00
 -1      3224 7.29922E+00
 -1      3225 4.55247E+00
 -1      3226 4.88699E+00
 -1      3227 3.79707E+00
 -1      3228 1.38966E+01
 -1      3229 1.15282E+01
 -1      3230 9.36929E+00
 -1      3231 8.43193E+00
 -1      3232 9.52463E+00
 -1      3233 1.31064E+01
 -1      3234 6.58647E-01
 -1      3235 7.09197E+00
 -1      3236 6.90387E+00
 -1      3237 1.02198E+01
 -1      3238 2.19006E+00
 -1      3239 2.15511E+00
 -1      3240 2.66942E+00
 -1      3241 5.78459E+00
 -1      3242 4.38147E+00
 -1      3243 3.98866E+00
 -1      3244 6.58114E+00
 -1      3245 8.60945E+00
 -1      3246 2.79565E+00
 -1      3247 4.60625E+00
 -1      3248 2.79587E+00
 -1      3249 3.15285E+00
 -1      3250 2.85554E+00
 -1      3251 3.53676E+00
 -1      3252 4.88791E+00
 -1      3253 4.74314E+00
 -1      3254 3.45721E+00
 -1      3255 1.28630E+00
 -1      3256 1.07935E+00
 -1      3257 1.00541E+01
 -1      3258 3.96257E-04
 -1      3259 4.39884E-04
 -1      3260 4.70749E-04
 -1      3261 4.16735E-04
 -1      3262 2.57389E+00
 -1      3263 3.68047E+00
 -1      3264 8.71483E+00
 -1      3265 8.63849E+00
 -1      3266 2.99588E+00
 -1      3267 2.53357E+00
 -1      3268 2.36832E+00
 -1      3269 1.38967E+01
 -1      3270 1.38966E+01
 -1      3271 2.41898E-04
 -1      3272 2.38368E-04
 -1      3273 2.76128E-04
 -1      3274 2.91086E-04
 -1      3275 1.07745E+01
 -1      3276 1.09058E+00
 -1      3277 1.00580E+00
 -1      3278 8.86527E-01
 -1      3279 5.01948E+00
 -1      3280 7.17739E+00
 -1      3281 5.91026E+00
 -1      3282 3.45195E+00
 -1      3283 5.60651E+00
 -1      3284 3.35211E+00
 -1      3285 5.28378E+00
 -1      3286 8.02197E-01
 -1      3287 8.49789E-01
 -1      3288 1.39220E+01
 -1      3289 6.47470E+00
 -1      3290 7.91935E+00
 -1      3291 6.49062E+00
 -1      3292 5.79915E+00
 -1      3293 7.27564E+00
 -1      3294 8.35549E+00
 -1      3295 1.30620E+00
 -1      3296 1.37791E+00
 -1      3297 1.42119E+00
 -1      3298 1.45926E+00
 -1      3299 1.41598E+00
 -1      3300 1.58339E+00
 -1      3301 1.64696E+00
 -1      3302 1.58339E+00
 -1      3303 1.74950E+00
 -1      3304 1.67834E+00
 -1      3305 1.81006E+00
 -1      3306 1.59803E+00
 -1      3307 1.64757E+00
 -1      3308 1.83229E+00
 -1      3309 2.40311E+00
 -1      3310 2.38852E+00
 -1      3311 2.50752E+00
 -1      3312 2.03579E+00
 -1      3313 1.94651E+00
 -1      3314 2.91034E+00
 -1      3315 1.41823E+00
 -1      3316 1.35628E+00
 -1      3317 2.02933E+00
 -1      3318 1.29198E+00
 -1      3319 1.24897E+00
 -1      3320 1.43675E+00
 -1      3321 1.14573E+00
 -1      3322 1.05923E+00
 -1      3323 1.26921E+00
 -1      3324 9.43757E-01
 -1      3325 8.60891E-01
 -1      3326 1.05050E+00
 -1      3327 7.44086E-01
 -1      3328 6.49717E-01
 -1      3329 8.18227E-01
 -1      3330 5.59332E-01
 -1      3331 4.71444E-01
 -1      3332 6.11036E-01
 -1      3333 3.97497E-01
 -1      3334 3.24568E-01
 -1      3335 4.46705E-01
 -1      3336 2.71946E-01
 -1      3337 2.23718E-01
 -1      3338 3.20136E-01
 -1      3339 1.79921E-01
 -1      3340 1.50154E-01
 -1      3341 2.23718E-01
 -1      3342 1.16950E-01
 -1      3343 9.58622E-02
 -1      3344 1.46718E-01
 -1      3345 7.64945E-02
 -1      3346 6.30041E-02
 -1      3347 9.41473E-02
 -1      3348 5.22164E-02
 -1      3349 4.60515E-02
 -1      3350 6.39919E-02
 -1      3351 3.93989E-02
 -1      3352 3.50014E-02
 -1      3353 4.65517E-02
 -1      3354 2.95433E-02
 -1      3355 2.63449E-02
 -1      3356 3.44410E-02
 -1      3357 2.23860E-02
 -1      3358 1.94426E-02
 -1      3359 2.50240E-02
 -1      3360 1.69456E-02
 -1      3361 1.45045E-02
 -1      3362 1.85681E-02
 -1      3363 1.26970E-02
 -1      3364 1.07941E-02
 -1      3365 1.42636E-02
 -1      3366 9.13213E-03
 -1      3367 7.72931E-03
 -1      3368 1.07941E-02
 -1      3369 6.32649E-03
 -1      3370 5.27641E-03
 -1      3371 7.72931E-03
 -1      3372 4.20099E-03
 -1      3373 3.40168E-03
 -1      3374 5.25107E-03
 -1      3375 2.62771E-03
 -1      3376 2.06592E-03
 -1      3377 3.40168E-03
 -1      3378 1.49277E-03
 -1      3379 1.18150E-03
 -1      3380 2.05456E-03
 -1      3381 9.05074E-04
 -1      3382 9.85535E-04
 -1      3383 1.20498E-03
 -1      3384 8.53978E-04
 -1      3385 8.87544E-04
 -1      3386 7.96997E-04
 -1      3387 9.55499E-04
 -1      3388 9.38250E-04
 -1      3389 7.33395E-04
 -1      3390 9.52364E-04
 -1      3391 9.04433E-04
 -1      3392 8.15463E-04
 -1      3393 8.84110E-04
 -1      3394 8.20094E-04
 -1      3395 8.09253E-04
 -1      3396 7.79627E-04
 -1      3397 7.30168E-04
 -1      3398 7.48464E-04
 -1      3399 6.90513E-04
 -1      3400 6.36970E-04
 -1      3401 6.68344E-04
 -1      3402 5.95559E-04
 -1      3403 5.38256E-04
 -1      3404 5.87279E-04
 -1      3405 4.91988E-04
 -1      3406 4.35595E-04
 -1      3407 4.99601E-04
 -1      3408 1.15164E-01
 -1      3409 1.45185E-01
 -1      3410 1.41217E+00
 -1      3411 1.78458E+00
 -1      3412 1.63124E+00
 -1      3413 1.50907E+00
 -1      3414 1.80636E+00
 -1      3415 8.63849E+00
 -1      3416 1.70873E-01
 -1      3417 2.16080E-01
 -1      3418 1.45386E-01
 -1      3419 2.53665E-01
 -1      3420 3.21412E-01
 -1      3421 2.08660E-01
 -1      3422 7.68572E-02
 -1      3423 9.65520E-02
 -1      3424 1.01087E-01
 -1      3425 5.14092E-02
 -1      3426 6.36631E-02
 -1      3427 6.92811E-02
 -1      3428 3.36362E-02
 -1      3429 4.20288E-02
 -1      3430 4.67066E-02
 -1      3431 2.18765E-02
 -1      3432 2.73966E-02
 -1      3433 3.10865E-02
 -1      3434 1.42697E-02
 -1      3435 1.77427E-02
 -1      3436 2.07131E-02
 -1      3437 9.36688E-03
 -1      3438 1.13980E-02
 -1      3439 1.37076E-02
 -1      3440 5.91958E-03
 -1      3441 7.37010E-03
 -1      3442 8.83914E-03
 -1      3443 3.53703E-03
 -1      3444 4.55101E-03
 -1      3445 5.47378E-03
 -1      3446 2.10046E-03
 -1      3447 2.61573E-03
 -1      3448 3.18391E-03
 -1      3449 1.60868E-03
 -1      3450 1.61413E-03
 -1      3451 1.77627E-03
 -1      3452 1.46751E-03
 -1      3453 1.53654E-03
 -1      3454 1.21780E-03
 -1      3455 1.39539E-03
 -1      3456 1.49622E-03
 -1      3457 1.17438E-03
 -1      3458 1.25841E-03
 -1      3459 1.37137E-03
 -1      3460 1.17906E-03
 -1      3461 1.09165E-03
 -1      3462 1.20488E-03
 -1      3463 1.10151E-03
 -1      3464 9.44804E-04
 -1      3465 1.02381E-03
 -1      3466 9.80151E-04
 -1      3467 7.97241E-04
 -1      3468 8.75889E-04
 -1      3469 8.43402E-04
 -1      3470 6.67745E-04
 -1      3471 7.44317E-04
 -1      3472 7.21563E-04
 -1      3473 5.41507E-04
 -1      3474 6.12296E-04
 -1      3475 6.13189E-04
 -1      3476 3.71018E+00
 -1      3477 4.81074E+00
 -1      3478 3.21619E-04
 -1      3479 3.27480E-04
 -1      3480 3.19529E+00
 -1      3481 3.22268E+00
 -1      3482 1.07998E+01
 -1      3483 9.80291E-01
 -1      3484 2.19987E+00
 -1      3485 2.45106E+00
 -1      3486 3.05582E-04
 -1      3487 3.63836E-04
 -1      3488 9.80948E+00
 -1      3489 8.40427E+00
 -1      3490 9.33736E-01
 -1      3491 1.16352E+00
 -1      3492 1.21413E+00
 -1      3493 1.14129E+00
 -1      3494 1.23832E+00
 -1      3495 1.30481E+00
 -1      3496 9.83478E+00
 -1      3497 1.03429E+00
 -1      3498 1.08534E+00
 -1      3499 1.18098E+00
 -1      3500 1.07102E+00
 -1      3501 2.44296E+00
 -1      3502 3.14262E+00
 -1      3503 2.12118E+00
 -1      3504 2.84652E+00
 -1      3505 3.21220E+00
 -1      3506 5.65459E+00
 -1      3507 5.65459E+00
 -1      3508 3.38618E+00
 -1      3509 3.21507E+00
 -1      3510 2.95259E+00
 -1      3511 3.24322E+00
 -1      3512 2.36447E+00
 -1      3513 2.22056E+00
 -1      3514 3.33908E+00
 -1      3515 3.39358E+00
 -1      3516 2.92818E+00
 -1      3517 2.83972E+00
 -1      3518 6.10377E-01
 -1      3519 7.61889E-01
 -1      3520 7.93631E-01
 -1      3521 3.25911E-04
 -1      3522 3.25911E-04
 -1      3523 3.30755E-04
 -1      3524 4.87260E+00
 -1      3525 4.65147E+00
 -1      3526 3.20106E-01
 -1      3527 3.95273E-01
 -1      3528 4.96469E-01
 -1      3529 3.85797E-04
 -1      3530 3.32679E-04
 -1      3531 3.12146E-04
 -1      3532 4.03536E-04
 -1      3533 2.45769E+00
 -1      3534 2.10436E+00
 -1      3535 3.09199E+00
 -1      3536 2.78460E+00
 -1      3537 3.43041E+00
 -1      3538 2.42425E+00
 -1      3539 3.00347E+00
 -1      3540 1.83050E+00
 -1      3541 1.48557E+00
 -1      3542 6.37957E+00
 -1      3543 7.27564E+00
 -1      3544 4.94823E-04
 -1      3545 5.11056E-04
 -1      3546 4.40298E-04
 -1      3547 3.34712E+00
 -1      3548 3.87826E+00
 -1      3549 4.51837E+00
 -1      3550 4.15460E+00
 -1      3551 2.65441E+00
 -1      3552 2.20275E+00
 -1      3553 3.17720E-04
 -1      3554 3.57649E-04
 -1      3555 3.23593E-04
 -1      3556 3.23593E-04
 -1      3557 2.23563E+00
 -1      3558 2.17634E+00
 -1      3559 2.06719E+00
 -1      3560 7.91935E+00
 -1      3561 3.17110E-04
 -1      3562 3.25911E-04
 -1      3563 3.51084E-04
 -1      3564 3.87399E-04
 -1      3565 4.40809E-04
 -1      3566 6.93081E+00
 -1      3567 2.90099E+00
 -1      3568 3.57638E-04
 -1      3569 1.14458E+00
 -1      3570 1.07102E+00
 -1      3571 1.12502E+00
 -1      3572 1.46601E+00
 -1      3573 2.63710E+00
 -1      3574 4.08196E+00
 -1      3575 5.00851E+00
 -1      3576 3.71115E+00
 -1      3577 3.16245E-04
 -1      3578 3.11101E-04
 -1      3579 3.46414E-04
 -1      3580 8.84447E+00
 -1      3581 4.08704E+00
 -1      3582 5.34158E+00
 -1      3583 3.72153E+00
 -1      3584 3.22041E+00
 -1      3585 3.10249E+00
 -1      3586 3.45075E-04
 -1      3587 4.40809E-04
 -1      3588 4.07435E-04
 -1      3589 1.58339E+00
 -1      3590 1.70751E+00
 -1      3591 2.29436E+00
 -1      3592 2.39690E+00
 -1      3593 2.29436E+00
 -1      3594 2.50752E+00
 -1      3595 3.26307E+00
 -1      3596 3.26307E+00
 -1      3597 2.91034E+00
 -1      3598 1.75609E+00
 -1      3599 1.69179E+00
 -1      3600 1.59106E+00
 -1      3601 1.48782E+00
 -1      3602 1.91041E+00
 -1      3603 1.21825E+00
 -1      3604 1.10278E+00
 -1      3605 1.54010E+00
 -1      3606 9.38811E-01
 -1      3607 8.22005E-01
 -1      3608 1.10656E+00
 -1      3609 6.98333E-01
 -1      3610 6.07949E-01
 -1      3611 8.18918E-01
 -1      3612 5.20652E-01
 -1      3613 4.46705E-01
 -1      3614 6.07949E-01
 -1      3615 3.67768E-01
 -1      3616 3.15146E-01
 -1      3617 4.41715E-01
 -1      3618 2.51798E-01
 -1      3619 2.08001E-01
 -1      3620 2.99430E-01
 -1      3621 1.70235E-01
 -1      3622 1.37032E-01
 -1      3623 1.98315E-01
 -1      3624 1.14121E-01
 -1      3625 9.47536E-02
 -1      3626 1.37638E-01
 -1      3627 7.70783E-02
 -1      3628 6.62906E-02
 -1      3629 9.70523E-02
 -1      3630 5.38628E-02
 -1      3631 4.72102E-02
 -1      3632 6.69492E-02
 -1      3633 3.83152E-02
 -1      3634 3.28572E-02
 -1      3635 4.56264E-02
 -1      3636 2.80894E-02
 -1      3637 2.41305E-02
 -1      3638 3.19637E-02
 -1      3639 2.10651E-02
 -1      3640 1.85681E-02
 -1      3641 2.41305E-02
 -1      3642 1.60299E-02
 -1      3643 1.42224E-02
 -1      3644 1.85269E-02
 -1      3645 1.20677E-02
 -1      3646 1.04057E-02
 -1      3647 1.38340E-02
 -1      3648 8.66621E-03
 -1      3649 7.26339E-03
 -1      3650 9.93979E-03
 -1      3651 5.91324E-03
 -1      3652 4.83782E-03
 -1      3653 6.85013E-03
 -1      3654 3.87121E-03
 -1      3655 3.09724E-03
 -1      3656 4.53338E-03
 -1      3657 2.44624E-03
 -1      3658 1.87310E-03
 -1      3659 2.91578E-03
 -1      3660 1.47761E-03
 -1      3661 1.20118E-03
 -1      3662 1.86930E-03
 -1      3663 9.28553E-04
 -1      3664 7.96997E-04
 -1      3665 1.20118E-03
 -1      3666 6.05234E-04
 -1      3667 6.73188E-04
 -1      3668 7.36790E-04
 -1      3669 7.06665E-04
 -1      3670 7.20779E-04
 -1      3671 5.78505E-04
 -1      3672 7.43746E-04
 -1      3673 7.23423E-04
 -1      3674 6.34949E-04
 -1      3675 7.14577E-04
 -1      3676 6.74111E-04
 -1      3677 6.49070E-04
 -1      3678 6.46010E-04
 -1      3679 6.06355E-04
 -1      3680 6.12123E-04
 -1      3681 5.72533E-04
 -1      3682 5.31122E-04
 -1      3683 5.50198E-04
 -1      3684 5.11522E-04
 -1      3685 4.65254E-04
 -1      3686 4.96775E-04
 -1      3687 5.51976E-02
 -1      3688 6.83917E-02
 -1      3689 3.91467E+00
 -1      3690 6.37957E+00
 -1      3691 4.46592E+00
 -1      3692 2.29080E+00
 -1      3693 2.26730E+00
 -1      3694 2.63955E+00
 -1      3695 1.64029E+00
 -1      3696 1.70817E+00
 -1      3697 1.24847E-01
 -1      3698 1.50535E-01
 -1      3699 1.84181E-01
 -1      3700 2.21767E-01
 -1      3701 1.63642E-01
 -1      3702 3.81123E-02
 -1      3703 4.74927E-02
 -1      3704 4.66033E-02
 -1      3705 2.60977E-02
 -1      3706 3.23374E-02
 -1      3707 3.31235E-02
 -1      3708 1.77878E-02
 -1      3709 2.19216E-02
 -1      3710 2.31725E-02
 -1      3711 1.19956E-02
 -1      3712 1.48673E-02
 -1      3713 1.60758E-02
 -1      3714 7.88493E-03
 -1      3715 9.88171E-03
 -1      3716 1.10414E-02
 -1      3717 4.99685E-03
 -1      3718 6.36542E-03
 -1      3719 7.40799E-03
 -1      3720 2.99437E-03
 -1      3721 3.91567E-03
 -1      3722 4.80731E-03
 -1      3723 1.75012E-03
 -1      3724 2.23646E-03
 -1      3725 2.96822E-03
 -1      3726 1.15995E-03
 -1      3727 1.23208E-03
 -1      3728 1.69227E-03
 -1      3729 9.20901E-04
 -1      3730 8.92191E-04
 -1      3731 9.06474E-04
 -1      3732 9.72142E-04
 -1      3733 9.96166E-04
 -1      3734 7.13981E-04
 -1      3735 9.37201E-04
 -1      3736 9.90728E-04
 -1      3737 8.07832E-04
 -1      3738 8.52015E-04
 -1      3739 9.19849E-04
 -1      3740 8.09065E-04
 -1      3741 7.45232E-04
 -1      3742 8.14147E-04
 -1      3743 7.53845E-04
 -1      3744 6.44210E-04
 -1      3745 6.97134E-04
 -1      3746 6.67879E-04
 -1      3747 5.43811E-04
 -1      3748 5.99260E-04
 -1      3749 5.74831E-04
 -1      3750 4.97127E-04
 -1      3751 5.43811E-04
 -1      3752 5.29882E-04
 -1      3753 4.20154E-04
 -1      3754 3.41531E+00
 -1      3755 3.19054E+00
 -1      3756 9.80948E+00
 -1      3757 4.26770E+00
 -1      3758 4.12314E+00
 -1      3759 3.71646E+00
 -1      3760 1.04776E+00
 -1      3761 1.29641E+00
 -1      3762 1.68133E+00
 -1      3763 2.33972E+00
 -1      3764 1.51496E+00
 -1      3765 2.88884E+00
 -1      3766 3.45639E+00
 -1      3767 3.45639E+00
 -1      3768 2.44899E+00
 -1      3769 9.80948E+00
 -1      3770 2.51613E+00
 -1      3771 2.28933E+00
 -1      3772 1.58598E+00
 -1      3773 1.62927E+00
 -1      3774 1.92147E+00
 -1      3775 8.34514E-02
 -1      3776 1.02063E-01
 -1      3777 6.93679E-02
 -1      3778 4.19356E-04
 -1      3779 3.55194E-04
 -1      3780 3.61203E-04
 -1      3781 2.90099E+00
 -1      3782 2.88121E+00
 -1      3783 3.00347E+00
 -1      3784 3.09933E+00
 -1      3785 1.33511E+00
 -1      3786 1.39107E+00
 -1      3787 1.79443E+00
 -1      3788 1.33511E+00
 -1      3789 2.70053E-01
 -1      3790 3.43914E-01
 -1      3791 2.45575E-01
 -1      3792 1.75339E+00
 -1      3793 2.10436E+00
 -1      3794 2.01114E+00
 -1      3795 2.68669E+00
 -1      3796 2.20238E+00
 -1      3797 2.12207E+00
 -1      3798 2.70647E+00
 -1      3799 2.87762E+00
 -1      3800 2.91034E+00
 -1      3801 2.55761E+00
 -1      3802 4.15469E-04
 -1      3803 2.02933E+00
 -1      3804 2.06719E+00
 -1      3805 2.40072E+00
 -1      3806 4.39474E-04
 -1      3807 4.29354E-04
 -1      3808 4.29354E-04
 -1      3809 1.07212E-01
 -1      3810 4.40483E-04
 -1      3811 2.09735E+00
 -1      3812 2.28437E+00
 -1      3813 5.07875E-01
 -1      3814 2.28437E+00
 -1      3815 2.04366E+00
 -1      3816 8.20767E-01
 -1      3817 9.03045E-01
 -1      3818 6.48919E-01
 -1      3819 3.74189E-04
 -1      3820 3.90317E-04
 -1      3821 3.81537E-04
 -1      3822 2.74269E+00
 -1      3823 2.28240E+00
 -1      3824 2.98806E+00
 -1      3825 3.59296E+00
 -1      3826 2.94688E+00
 -1      3827 3.26307E+00
 -1      3828 1.67611E+00
 -1      3829 1.92533E+00
 -1      3830 1.79443E+00
 -1      3831 3.24248E+00
 -1      3832 2.34806E+00
 -1      3833 2.96722E+00
 -1      3834 2.71387E+00
 -1      3835 2.00363E+00
 -1      3836 2.04366E+00
 -1      3837 2.15411E+00
 -1      3838 2.04366E+00
 -1      3839 4.10908E-01
 -1      3840 5.24816E-01
 -1      3841 5.51952E-01
 -1      3842 3.60855E-01
 -1      3843 4.43243E-04
 -1      3844 1.88453E+00
 -1      3845 9.64695E-01
 -1      3846 8.41023E-01
 -1      3847 6.83581E-01
 -1      3848 5.96284E-01
 -1      3849 8.29358E-01
 -1      3850 5.00176E-01
 -1      3851 4.21240E-01
 -1      3852 5.75808E-01
 -1      3853 3.62951E-01
 -1      3854 2.99603E-01
 -1      3855 4.21413E-01
 -1      3856 2.46779E-01
 -1      3857 2.09013E-01
 -1      3858 3.10301E-01
 -1      3859 1.66917E-01
 -1      3860 1.44006E-01
 -1      3861 2.15381E-01
 -1      3862 1.13414E-01
 -1      3863 9.57392E-02
 -1      3864 1.42693E-01
 -1      3865 7.62435E-02
 -1      3866 6.38157E-02
 -1      3867 9.26057E-02
 -1      3868 5.28459E-02
 -1      3869 4.39510E-02
 -1      3870 6.21403E-02
 -1      3871 3.67314E-02
 -1      3872 3.19637E-02
 -1      3873 4.39510E-02
 -1      3874 2.71960E-02
 -1      3875 2.41305E-02
 -1      3876 3.19637E-02
 -1      3877 2.03626E-02
 -1      3878 1.78244E-02
 -1      3879 2.34280E-02
 -1      3880 1.49410E-02
 -1      3881 1.27863E-02
 -1      3882 1.67766E-02
 -1      3883 1.06239E-02
 -1      3884 8.88440E-03
 -1      3885 1.17309E-02
 -1      3886 7.37518E-03
 -1      3887 6.02503E-03
 -1      3888 8.05929E-03
 -1      3889 5.07256E-03
 -1      3890 4.10595E-03
 -1      3891 5.59760E-03
 -1      3892 3.44157E-03
 -1      3893 2.79058E-03
 -1      3894 3.98075E-03
 -1      3895 2.26478E-03
 -1      3896 1.86930E-03
 -1      3897 2.79058E-03
 -1      3898 1.46839E-03
 -1      3899 1.19576E-03
 -1      3900 1.86387E-03
 -1      3901 9.00599E-04
 -1      3902 7.08836E-04
 -1      3903 1.16781E-03
 -1      3904 5.39964E-04
 -1      3905 5.73442E-04
 -1      3906 7.03773E-04
 -1      3907 5.51873E-04
 -1      3908 5.74840E-04
 -1      3909 5.13333E-04
 -1      3910 5.93481E-04
 -1      3911 5.84635E-04
 -1      3912 5.10406E-04
 -1      3913 5.77926E-04
 -1      3914 5.49824E-04
 -1      3915 5.22337E-04
 -1      3916 5.28219E-04
 -1      3917 4.94397E-04
 -1      3918 4.94022E-04
 -1      3919 4.96775E-04
 -1      3920 4.77175E-04
 -1      3921 4.43243E-04
 -1      3922 4.74796E-04
 -1      3923 2.97787E-02
 -1      3924 3.55536E-02
 -1      3925 4.23505E-02
 -1      3926 5.00554E-02
 -1      3927 3.90057E-02
 -1      3928 1.97516E+00
 -1      3929 1.92928E+00
 -1      3930 1.96462E-02
 -1      3931 2.38223E-02
 -1      3932 2.62524E-02
 -1      3933 1.33199E-02
 -1      3934 1.62405E-02
 -1      3935 1.68903E-02
 -1      3936 9.19707E-03
 -1      3937 1.13110E-02
 -1      3938 1.14756E-02
 -1      3939 6.28763E-03
 -1      3940 7.80713E-03
 -1      3941 8.07671E-03
 -1      3942 4.14267E-03
 -1      3943 5.22385E-03
 -1      3944 5.62299E-03
 -1      3945 2.60685E-03
 -1      3946 3.36476E-03
 -1      3947 3.78130E-03
 -1      3948 1.52294E-03
 -1      3949 2.04098E-03
 -1      3950 2.43752E-03
 -1      3951 8.55017E-04
 -1      3952 1.12277E-03
 -1      3953 1.47148E-03
 -1      3954 6.56428E-04
 -1      3955 5.81164E-04
 -1      3956 7.97464E-04
 -1      3957 6.68530E-04
 -1      3958 6.49944E-04
 -1      3959 5.17126E-04
 -1      3960 6.87496E-04
 -1      3961 7.04849E-04
 -1      3962 5.46961E-04
 -1      3963 6.51123E-04
 -1      3964 6.88990E-04
 -1      3965 5.84774E-04
 -1      3966 5.83158E-04
 -1      3967 6.31257E-04
 -1      3968 5.66402E-04
 -1      3969 5.07611E-04
 -1      3970 5.52560E-04
 -1      3971 5.15938E-04
 -1      3972 1.13004E+00
 -1      3973 1.51496E+00
 -1      3974 1.92147E+00
 -1      3975 3.45639E+00
 -1      3976 3.25818E+00
 -1      3977 2.99811E+00
 -1      3978 5.18753E-04
 -1      3979 9.04529E-02
 -1      3980 1.13237E-01
 -1      3981 2.51613E+00
 -1      3982 6.06518E-02
 -1      3983 7.57115E-02
 -1      3984 8.17369E-02
 -1      3985 5.63991E-02
 -1      3986 1.33682E-01
 -1      3987 1.67329E-01
 -1      3988 1.16924E-01
 -1      3989 3.60271E-04
 -1      3990 4.28422E-04
 -1      3991 7.46327E-01
 -1      3992 9.73317E-01
 -1      3993 9.73317E-01
 -1      3994 1.43853E+00
 -1      3995 1.27457E+00
 -1      3996 5.18753E-04
 -1      3997 5.29882E-04
 -1      3998 5.29882E-04
 -1      3999 4.39551E-04
 -1      4000 2.43576E-01
 -1      4001 2.91862E-01
 -1      4002 2.13616E-01
 -1      4003 2.72799E+00
 -1      4004 5.07611E-04
 -1      4005 2.19507E+00
 -1      4006 2.68407E+00
 -1      4007 2.21540E+00
 -1      4008 1.89988E+00
 -1      4009 2.44899E+00
 -1      4010 2.44899E+00
 -1      4011 1.51496E+00
 -1      4012 3.90626E-04
 -1      4013 3.71632E-04
 -1      4014 3.60580E-04
 -1      4015 4.24558E-04
 -1      4016 1.29667E+00
 -1      4017 2.05255E+00
 -1      4018 1.76940E+00
 -1      4019 1.44462E+00
 -1      4020 1.13475E+00
 -1      4021 1.60747E+00
 -1      4022 8.45935E-01
 -1      4023 7.49827E-01
 -1      4024 5.95090E-01
 -1      4025 5.36801E-01
 -1      4026 8.65216E-01
 -1      4027 4.26196E-01
 -1      4028 3.73373E-01
 -1      4029 5.99873E-01
 -1      4030 2.63788E-01
 -1      4031 2.21692E-01
 -1      4032 3.79684E-01
 -1      4033 1.63728E-01
 -1      4034 1.33137E-01
 -1      4035 2.12136E-01
 -1      4036 1.32057E-01
 -1      4037 1.12561E-01
 -1      4038 1.53092E-01
 -1      4039 8.34930E-02
 -1      4040 7.25232E-02
 -1      4041 1.22944E-01
 -1      4042 5.67121E-02
 -1      4043 4.94925E-02
 -1      4044 7.80648E-02
 -1      4045 3.93354E-02
 -1      4046 3.45677E-02
 -1      4047 5.20965E-02
 -1      4048 2.76212E-02
 -1      4049 2.38532E-02
 -1      4050 3.49929E-02
 -1      4051 1.87395E-02
 -1      4052 1.58561E-02
 -1      4053 2.29327E-02
 -1      4054 1.33438E-02
 -1      4055 1.11814E-02
 -1      4056 1.53066E-02
 -1      4057 9.43723E-03
 -1      4058 7.92801E-03
 -1      4059 1.10501E-02
 -1      4060 6.55007E-03
 -1      4061 5.59760E-03
 -1      4062 7.92801E-03
 -1      4063 4.61780E-03
 -1      4064 3.95342E-03
 -1      4065 5.57026E-03
 -1      4066 3.22394E-03
 -1      4067 2.69815E-03
 -1      4068 3.86099E-03
 -1      4069 2.15456E-03
 -1      4070 1.75365E-03
 -1      4071 2.58792E-03
 -1      4072 1.35848E-03
 -1      4073 1.06332E-03
 -1      4074 1.64917E-03
 -1      4075 7.83555E-04
 -1      4076 6.14684E-04
 -1      4077 9.74233E-04
 -1      4078 4.86514E-04
 -1      4079 4.64945E-04
 -1      4080 5.66296E-04
 -1      4081 4.46466E-04
 -1      4082 4.65107E-04
 -1      4083 4.19647E-04
 -1      4084 4.73911E-04
 -1      4085 4.67201E-04
 -1      4086 4.09972E-04
 -1      4087 4.58906E-04
 -1      4088 4.37302E-04
 -1      4089 4.10481E-04
 -1      4090 1.06766E-02
 -1      4091 1.26855E-02
 -1      4092 3.74770E-04
 -1      4093 4.65101E-04
 -1      4094 4.42830E-04
 -1      4095 1.53084E-02
 -1      4096 1.87142E-02
 -1      4097 1.45094E-02
 -1      4098 2.29675E-02
 -1      4099 2.89239E-02
 -1      4100 2.13857E-02
 -1      4101 3.32335E-02
 -1      4102 4.00304E-02
 -1      4103 2.99486E-02
 -1      4104 7.43190E-03
 -1      4105 8.82185E-03
 -1      4106 1.00318E-02
 -1      4107 5.09688E-03
 -1      4108 6.16066E-03
 -1      4109 6.90580E-03
 -1      4110 3.39161E-03
 -1      4111 4.16951E-03
 -1      4112 4.70719E-03
 -1      4113 2.15833E-03
 -1      4114 2.72420E-03
 -1      4115 3.11241E-03
 -1      4116 1.31138E-03
 -1      4117 1.71155E-03
 -1      4118 1.99823E-03
 -1      4119 7.56498E-04
 -1      4120 1.03035E-03
 -1      4121 1.27042E-03
 -1      4122 5.46013E-04
 -1      4123 5.52497E-04
 -1      4124 7.85385E-04
 -1      4125 4.73345E-04
 -1      4126 4.37025E-04
 -1      4127 4.72397E-04
 -1      4128 4.98468E-04
 -1      4129 4.96974E-04
 -1      4130 3.87038E-04
 -1      4131 4.84640E-04
 -1      4132 5.04506E-04
 -1      4133 4.16706E-04
 -1      4134 4.83367E-04
 -1      4135 5.13965E-04
 -1      4136 4.52069E-04
 -1      4137 4.40857E-04
 -1      4138 1.24246E-01
 -1      4139 1.44691E-01
 -1      4140 2.64685E+00
 -1      4141 2.37673E+00
 -1      4142 1.15959E+00
 -1      4143 1.00215E+00
 -1      4144 1.17616E+00
 -1      4145 1.30753E+00
 -1      4146 6.03440E-01
 -1      4147 6.73712E-01
 -1      4148 4.79337E-01
 -1      4149 3.50082E-01
 -1      4150 4.17076E-01
 -1      4151 4.68565E-01
 -1      4152 3.48084E-01
 -1      4153 9.18276E-01
 -1      4154 1.07499E+00
 -1      4155 4.27211E-04
 -1      4156 4.29590E-04
 -1      4157 3.76973E-04
 -1      4158 3.92095E-04
 -1      4159 1.53092E-01
 -1      4160 1.45770E-01
 -1      4161 2.22018E-01
 -1      4162 9.51771E-02
 -1      4163 1.22944E-01
 -1      4164 8.04357E-02
 -1      4165 2.09773E+00
 -1      4166 1.87028E+00
 -1      4167 1.23255E+00
 -1      4168 1.28759E+00
 -1      4169 1.67251E+00
 -1      4170 1.78914E+00
 -1      4171 3.45623E-04
 -1      4172 3.34262E-04
 -1      4173 3.59813E-04
 -1      4174 3.50655E-04
 -1      4175 5.15630E-02
 -1      4176 6.21594E-02
 -1      4177 4.57908E-02
 -1      4178 1.01995E+00
 -1      4179 8.65216E-01
 -1      4180 7.62697E-01
 -1      4181 8.64374E-01
 -1      4182 6.19811E-01
 -1      4183 8.74150E-03
 -1      4184 1.05962E-02
 -1      4185 7.09637E-01
 -1      4186 5.99032E-01
 -1      4187 2.85213E-01
 -1      4188 2.27249E-01
 -1      4189 1.54172E-01
 -1      4190 1.53092E-01
 -1      4191 1.52013E-01
 -1      4192 1.22944E-01
 -1      4193 9.38759E-02
 -1      4194 7.80648E-02
 -1      4195 5.97885E-02
 -1      4196 4.96314E-02
 -1      4197 3.80988E-02
 -1      4198 3.11523E-02
 -1      4199 2.68427E-02
 -1      4200 2.17290E-02
 -1      4201 1.74757E-02
 -1      4202 1.49633E-02
 -1      4203 1.23404E-02
 -1      4204 7.36355E-03
 -1      4205 6.09231E-03
 -1      4206 5.11251E-03
 -1      4207 4.18514E-03
 -1      4208 3.45567E-03
 -1      4209 2.78826E-03
 -1      4210 2.24467E-03
 -1      4211 1.79789E-03
 -1      4212 1.40273E-03
 -1      4213 1.12169E-03
 -1      4214 8.41926E-04
 -1      4215 6.37925E-04
 -1      4216 5.09755E-04
 -1      4217 4.00768E-04
 -1      4218 3.82288E-04
 -1      4219 4.05917E-04
 -1      4220 4.14722E-04
 -1      4221 4.20760E-04
 -1      4222 4.12465E-04
 -1      4223 1.81398E+00
 -1      4224 1.23255E+00
 -1      4225 1.87037E+00
 -1      4226 4.41790E-04
 -1      4227 2.95095E-01
 -1      4228 3.53315E-01
 -1      4229 4.31699E-04
 -1      4230 7.55996E-02
 -1      4231 5.97233E-01
 -1      4232 4.87469E-01
 -1      4233 2.27249E-01
 -1      4234 3.77885E-01
 -1      4235 1.38876E+00
 -1      4236 3.92998E-01
 -1      4237 5.08248E-01
 -1      4238 4.45987E-01
 -1      4239 4.00350E-04
 -3
 9999
