    1C
    1UUSER                                                              
    1UDATE              27.october.2022                                 
    1UTIME              00:05:20                                        
    1UHOST                                                              
    1UPGM               CalculiX                                        
    1UVERSION           Version 2.17                             
    1UCOMPILETIME       Thu Jul 23 21:43:50 CEST 2020                    
    1UDIR                                                               
    1UDBN                                                               
    1UMAT    1SOLIDMATERIAL                                             
    2C                          4265                                     1
 -1         1 1.24698E+02 2.90330E+01 0.00000E+00
 -1         2 1.35440E+02 2.31172E+01 0.00000E+00
 -1         3 1.50000E+02 0.00000E+00 0.00000E+00
 -1         4 1.50000E+02 5.00000E+01 0.00000E+00
 -1         5 0.00000E+00 0.00000E+00 0.00000E+00
 -1         6 0.00000E+00 5.00000E+01 0.00000E+00
 -1         7 0.00000E+00 4.70500E+01 0.00000E+00
 -1         8 0.00000E+00 4.41000E+01 0.00000E+00
 -1         9 0.00000E+00 4.11500E+01 0.00000E+00
 -1        10 0.00000E+00 3.82000E+01 0.00000E+00
 -1        11 0.00000E+00 3.52500E+01 0.00000E+00
 -1        12 0.00000E+00 3.23500E+01 0.00000E+00
 -1        13 0.00000E+00 2.94000E+01 0.00000E+00
 -1        14 0.00000E+00 2.64500E+01 0.00000E+00
 -1        15 0.00000E+00 2.35000E+01 0.00000E+00
 -1        16 0.00000E+00 2.05500E+01 0.00000E+00
 -1        17 0.00000E+00 1.76000E+01 0.00000E+00
 -1        18 0.00000E+00 1.47000E+01 0.00000E+00
 -1        19 0.00000E+00 1.17500E+01 0.00000E+00
 -1        20 0.00000E+00 8.80000E+00 0.00000E+00
 -1        21 0.00000E+00 5.85000E+00 0.00000E+00
 -1        22 0.00000E+00 2.90000E+00 0.00000E+00
 -1        23 3.15000E+00 5.00000E+01 0.00000E+00
 -1        24 6.15000E+00 5.00000E+01 0.00000E+00
 -1        25 9.15000E+00 5.00000E+01 0.00000E+00
 -1        26 1.21500E+01 5.00000E+01 0.00000E+00
 -1        27 1.51500E+01 5.00000E+01 0.00000E+00
 -1        28 1.81500E+01 5.00000E+01 0.00000E+00
 -1        29 2.11500E+01 5.00000E+01 0.00000E+00
 -1        30 2.41500E+01 5.00000E+01 0.00000E+00
 -1        31 2.71500E+01 5.00000E+01 0.00000E+00
 -1        32 3.01500E+01 5.00000E+01 0.00000E+00
 -1        33 3.31500E+01 5.00000E+01 0.00000E+00
 -1        34 3.61500E+01 5.00000E+01 0.00000E+00
 -1        35 3.91500E+01 5.00000E+01 0.00000E+00
 -1        36 4.21500E+01 5.00000E+01 0.00000E+00
 -1        37 4.51500E+01 5.00000E+01 0.00000E+00
 -1        38 4.81500E+01 5.00000E+01 0.00000E+00
 -1        39 5.11500E+01 5.00000E+01 0.00000E+00
 -1        40 5.41500E+01 5.00000E+01 0.00000E+00
 -1        41 5.71500E+01 5.00000E+01 0.00000E+00
 -1        42 6.01500E+01 5.00000E+01 0.00000E+00
 -1        43 6.31500E+01 5.00000E+01 0.00000E+00
 -1        44 6.61500E+01 5.00000E+01 0.00000E+00
 -1        45 6.91500E+01 5.00000E+01 0.00000E+00
 -1        46 7.21500E+01 5.00000E+01 0.00000E+00
 -1        47 7.51500E+01 5.00000E+01 0.00000E+00
 -1        48 7.81500E+01 5.00000E+01 0.00000E+00
 -1        49 8.11500E+01 5.00000E+01 0.00000E+00
 -1        50 8.41500E+01 5.00000E+01 0.00000E+00
 -1        51 8.71500E+01 5.00000E+01 0.00000E+00
 -1        52 9.01500E+01 5.00000E+01 0.00000E+00
 -1        53 9.31500E+01 5.00000E+01 0.00000E+00
 -1        54 9.61500E+01 5.00000E+01 0.00000E+00
 -1        55 9.91500E+01 5.00000E+01 0.00000E+00
 -1        56 1.02150E+02 5.00000E+01 0.00000E+00
 -1        57 1.05150E+02 5.00000E+01 0.00000E+00
 -1        58 1.08150E+02 5.00000E+01 0.00000E+00
 -1        59 1.11150E+02 5.00000E+01 0.00000E+00
 -1        60 1.14150E+02 5.00000E+01 0.00000E+00
 -1        61 1.17150E+02 5.00000E+01 0.00000E+00
 -1        62 1.20150E+02 5.00000E+01 0.00000E+00
 -1        63 1.23150E+02 5.00000E+01 0.00000E+00
 -1        64 1.26150E+02 5.00000E+01 0.00000E+00
 -1        65 1.29150E+02 5.00000E+01 0.00000E+00
 -1        66 1.32150E+02 5.00000E+01 0.00000E+00
 -1        67 1.35150E+02 5.00000E+01 0.00000E+00
 -1        68 1.38150E+02 5.00000E+01 0.00000E+00
 -1        69 1.41150E+02 5.00000E+01 0.00000E+00
 -1        70 1.44150E+02 5.00000E+01 0.00000E+00
 -1        71 1.47150E+02 5.00000E+01 0.00000E+00
 -1        72 3.15000E+00 0.00000E+00 0.00000E+00
 -1        73 6.15000E+00 0.00000E+00 0.00000E+00
 -1        74 9.15000E+00 0.00000E+00 0.00000E+00
 -1        75 1.21500E+01 0.00000E+00 0.00000E+00
 -1        76 1.51500E+01 0.00000E+00 0.00000E+00
 -1        77 1.81500E+01 0.00000E+00 0.00000E+00
 -1        78 2.11500E+01 0.00000E+00 0.00000E+00
 -1        79 2.41500E+01 0.00000E+00 0.00000E+00
 -1        80 2.71500E+01 0.00000E+00 0.00000E+00
 -1        81 3.01500E+01 0.00000E+00 0.00000E+00
 -1        82 3.31500E+01 0.00000E+00 0.00000E+00
 -1        83 3.61500E+01 0.00000E+00 0.00000E+00
 -1        84 3.91500E+01 0.00000E+00 0.00000E+00
 -1        85 4.21500E+01 0.00000E+00 0.00000E+00
 -1        86 4.51500E+01 0.00000E+00 0.00000E+00
 -1        87 4.81500E+01 0.00000E+00 0.00000E+00
 -1        88 5.11500E+01 0.00000E+00 0.00000E+00
 -1        89 5.41500E+01 0.00000E+00 0.00000E+00
 -1        90 5.71500E+01 0.00000E+00 0.00000E+00
 -1        91 6.01500E+01 0.00000E+00 0.00000E+00
 -1        92 6.31500E+01 0.00000E+00 0.00000E+00
 -1        93 6.61500E+01 0.00000E+00 0.00000E+00
 -1        94 6.91500E+01 0.00000E+00 0.00000E+00
 -1        95 7.21500E+01 0.00000E+00 0.00000E+00
 -1        96 7.51500E+01 0.00000E+00 0.00000E+00
 -1        97 7.81500E+01 0.00000E+00 0.00000E+00
 -1        98 8.11500E+01 0.00000E+00 0.00000E+00
 -1        99 8.41500E+01 0.00000E+00 0.00000E+00
 -1       100 8.71500E+01 0.00000E+00 0.00000E+00
 -1       101 9.01500E+01 0.00000E+00 0.00000E+00
 -1       102 9.31500E+01 0.00000E+00 0.00000E+00
 -1       103 9.61500E+01 0.00000E+00 0.00000E+00
 -1       104 9.91500E+01 0.00000E+00 0.00000E+00
 -1       105 1.02150E+02 0.00000E+00 0.00000E+00
 -1       106 1.05150E+02 0.00000E+00 0.00000E+00
 -1       107 1.08150E+02 0.00000E+00 0.00000E+00
 -1       108 1.11150E+02 0.00000E+00 0.00000E+00
 -1       109 1.14150E+02 0.00000E+00 0.00000E+00
 -1       110 1.17150E+02 0.00000E+00 0.00000E+00
 -1       111 1.20150E+02 0.00000E+00 0.00000E+00
 -1       112 1.23150E+02 0.00000E+00 0.00000E+00
 -1       113 1.26150E+02 0.00000E+00 0.00000E+00
 -1       114 1.29150E+02 0.00000E+00 0.00000E+00
 -1       115 1.32150E+02 0.00000E+00 0.00000E+00
 -1       116 1.35150E+02 0.00000E+00 0.00000E+00
 -1       117 1.38150E+02 0.00000E+00 0.00000E+00
 -1       118 1.41150E+02 0.00000E+00 0.00000E+00
 -1       119 1.44150E+02 0.00000E+00 0.00000E+00
 -1       120 1.47150E+02 0.00000E+00 0.00000E+00
 -1       121 1.50000E+02 2.95000E+00 0.00000E+00
 -1       122 1.50000E+02 5.90000E+00 0.00000E+00
 -1       123 1.50000E+02 8.85000E+00 0.00000E+00
 -1       124 1.50000E+02 1.18000E+01 0.00000E+00
 -1       125 1.50000E+02 1.47500E+01 0.00000E+00
 -1       126 1.50000E+02 1.76500E+01 0.00000E+00
 -1       127 1.50000E+02 2.06000E+01 0.00000E+00
 -1       128 1.50000E+02 2.35500E+01 0.00000E+00
 -1       129 1.50000E+02 2.65000E+01 0.00000E+00
 -1       130 1.50000E+02 2.94500E+01 0.00000E+00
 -1       131 1.50000E+02 3.24000E+01 0.00000E+00
 -1       132 1.50000E+02 3.53000E+01 0.00000E+00
 -1       133 1.50000E+02 3.82500E+01 0.00000E+00
 -1       134 1.50000E+02 4.12000E+01 0.00000E+00
 -1       135 1.50000E+02 4.41500E+01 0.00000E+00
 -1       136 1.50000E+02 4.71000E+01 0.00000E+00
 -1       137 1.35272E+02 2.15949E+01 0.00000E+00
 -1       138 1.34829E+02 2.02572E+01 0.00000E+00
 -1       139 1.34008E+02 1.88746E+01 0.00000E+00
 -1       140 1.32990E+02 1.77978E+01 0.00000E+00
 -1       141 1.31811E+02 1.69822E+01 0.00000E+00
 -1       142 1.30390E+02 1.63942E+01 0.00000E+00
 -1       143 1.28898E+02 1.61322E+01 0.00000E+00
 -1       144 1.27364E+02 1.62004E+01 0.00000E+00
 -1       145 1.25737E+02 1.66599E+01 0.00000E+00
 -1       146 1.24488E+02 1.73397E+01 0.00000E+00
 -1       147 1.23285E+02 1.83815E+01 0.00000E+00
 -1       148 1.22388E+02 1.95987E+01 0.00000E+00
 -1       149 1.21774E+02 2.09818E+01 0.00000E+00
 -1       150 1.21473E+02 2.24425E+01 0.00000E+00
 -1       151 1.21489E+02 2.39441E+01 0.00000E+00
 -1       152 1.21832E+02 2.54258E+01 0.00000E+00
 -1       153 1.22472E+02 2.67762E+01 0.00000E+00
 -1       154 1.23466E+02 2.80425E+01 0.00000E+00
 -1       155 1.26014E+02 2.96834E+01 0.00000E+00
 -1       156 1.27475E+02 3.00503E+01 0.00000E+00
 -1       157 1.28988E+02 3.00957E+01 0.00000E+00
 -1       158 1.30404E+02 2.98359E+01 0.00000E+00
 -1       159 1.31803E+02 2.92563E+01 0.00000E+00
 -1       160 1.33023E+02 2.84080E+01 0.00000E+00
 -1       161 1.34026E+02 2.73351E+01 0.00000E+00
 -1       162 1.34775E+02 2.60939E+01 0.00000E+00
 -1       163 1.35278E+02 2.46124E+01 0.00000E+00
 -1       164 2.59800E+00 4.55750E+01 0.00000E+00
 -1       165 2.59800E+00 4.26250E+01 0.00000E+00
 -1       166 2.59800E+00 3.96750E+01 0.00000E+00
 -1       167 2.59800E+00 3.67250E+01 0.00000E+00
 -1       168 2.59800E+00 3.38250E+01 0.00000E+00
 -1       169 2.59800E+00 3.08750E+01 0.00000E+00
 -1       170 2.59800E+00 2.79250E+01 0.00000E+00
 -1       171 2.59800E+00 2.49750E+01 0.00000E+00
 -1       172 2.59800E+00 2.20250E+01 0.00000E+00
 -1       173 2.59800E+00 1.90750E+01 0.00000E+00
 -1       174 2.59800E+00 1.61750E+01 0.00000E+00
 -1       175 2.59800E+00 1.32250E+01 0.00000E+00
 -1       176 2.59800E+00 1.02750E+01 0.00000E+00
 -1       177 2.59800E+00 7.32500E+00 0.00000E+00
 -1       178 2.59800E+00 4.37500E+00 0.00000E+00
 -1       179 2.87400E+00 2.18750E+00 0.00000E+00
 -1       180 4.65000E+00 4.74020E+01 0.00000E+00
 -1       181 7.65000E+00 4.74020E+01 0.00000E+00
 -1       182 1.06500E+01 4.74020E+01 0.00000E+00
 -1       183 1.36500E+01 4.74020E+01 0.00000E+00
 -1       184 1.66500E+01 4.74020E+01 0.00000E+00
 -1       185 1.96500E+01 4.74020E+01 0.00000E+00
 -1       186 2.26500E+01 4.74020E+01 0.00000E+00
 -1       187 2.56500E+01 4.74020E+01 0.00000E+00
 -1       188 2.86500E+01 4.74020E+01 0.00000E+00
 -1       189 3.16500E+01 4.74020E+01 0.00000E+00
 -1       190 3.46500E+01 4.74020E+01 0.00000E+00
 -1       191 3.76500E+01 4.74020E+01 0.00000E+00
 -1       192 4.06500E+01 4.74020E+01 0.00000E+00
 -1       193 4.36500E+01 4.74020E+01 0.00000E+00
 -1       194 4.66500E+01 4.74020E+01 0.00000E+00
 -1       195 4.96500E+01 4.74020E+01 0.00000E+00
 -1       196 5.26500E+01 4.74020E+01 0.00000E+00
 -1       197 5.56500E+01 4.74020E+01 0.00000E+00
 -1       198 5.86500E+01 4.74020E+01 0.00000E+00
 -1       199 6.16500E+01 4.74020E+01 0.00000E+00
 -1       200 6.46500E+01 4.74020E+01 0.00000E+00
 -1       201 6.76500E+01 4.74020E+01 0.00000E+00
 -1       202 7.06500E+01 4.74020E+01 0.00000E+00
 -1       203 7.36500E+01 4.74020E+01 0.00000E+00
 -1       204 7.66500E+01 4.74020E+01 0.00000E+00
 -1       205 7.96500E+01 4.74020E+01 0.00000E+00
 -1       206 8.26500E+01 4.74020E+01 0.00000E+00
 -1       207 8.56500E+01 4.74020E+01 0.00000E+00
 -1       208 8.86500E+01 4.74020E+01 0.00000E+00
 -1       209 9.16500E+01 4.74020E+01 0.00000E+00
 -1       210 9.46500E+01 4.74020E+01 0.00000E+00
 -1       211 9.76500E+01 4.74020E+01 0.00000E+00
 -1       212 1.00650E+02 4.74020E+01 0.00000E+00
 -1       213 1.03650E+02 4.74020E+01 0.00000E+00
 -1       214 1.06650E+02 4.74020E+01 0.00000E+00
 -1       215 1.09650E+02 4.74020E+01 0.00000E+00
 -1       216 1.12650E+02 4.74020E+01 0.00000E+00
 -1       217 1.15650E+02 4.74020E+01 0.00000E+00
 -1       218 1.18650E+02 4.74020E+01 0.00000E+00
 -1       219 1.21650E+02 4.74020E+01 0.00000E+00
 -1       220 1.24650E+02 4.74020E+01 0.00000E+00
 -1       221 1.27650E+02 4.74020E+01 0.00000E+00
 -1       222 1.30650E+02 4.74020E+01 0.00000E+00
 -1       223 1.33650E+02 4.74020E+01 0.00000E+00
 -1       224 1.36650E+02 4.74020E+01 0.00000E+00
 -1       225 1.39650E+02 4.74020E+01 0.00000E+00
 -1       226 1.42650E+02 4.74020E+01 0.00000E+00
 -1       227 1.45650E+02 4.74020E+01 0.00000E+00
 -1       228 5.87400E+00 2.18750E+00 0.00000E+00
 -1       229 8.87400E+00 2.18750E+00 0.00000E+00
 -1       230 1.18740E+01 2.18750E+00 0.00000E+00
 -1       231 1.48740E+01 2.18750E+00 0.00000E+00
 -1       232 1.78740E+01 2.18750E+00 0.00000E+00
 -1       233 2.08740E+01 2.18750E+00 0.00000E+00
 -1       234 2.38740E+01 2.18750E+00 0.00000E+00
 -1       235 2.68740E+01 2.18750E+00 0.00000E+00
 -1       236 2.98740E+01 2.18750E+00 0.00000E+00
 -1       237 3.28740E+01 2.18750E+00 0.00000E+00
 -1       238 3.58740E+01 2.18750E+00 0.00000E+00
 -1       239 3.88740E+01 2.18750E+00 0.00000E+00
 -1       240 4.18740E+01 2.18750E+00 0.00000E+00
 -1       241 4.48740E+01 2.18750E+00 0.00000E+00
 -1       242 4.78740E+01 2.18750E+00 0.00000E+00
 -1       243 5.08740E+01 2.18750E+00 0.00000E+00
 -1       244 5.38740E+01 2.18750E+00 0.00000E+00
 -1       245 5.68740E+01 2.18750E+00 0.00000E+00
 -1       246 5.98740E+01 2.18750E+00 0.00000E+00
 -1       247 6.28740E+01 2.18750E+00 0.00000E+00
 -1       248 6.58740E+01 2.18750E+00 0.00000E+00
 -1       249 6.88740E+01 2.18750E+00 0.00000E+00
 -1       250 7.18740E+01 2.18750E+00 0.00000E+00
 -1       251 7.48740E+01 2.18750E+00 0.00000E+00
 -1       252 7.78740E+01 2.18750E+00 0.00000E+00
 -1       253 8.08740E+01 2.18750E+00 0.00000E+00
 -1       254 8.38740E+01 2.18750E+00 0.00000E+00
 -1       255 8.68740E+01 2.18750E+00 0.00000E+00
 -1       256 8.98740E+01 2.18750E+00 0.00000E+00
 -1       257 9.28740E+01 2.18750E+00 0.00000E+00
 -1       258 9.58740E+01 2.18750E+00 0.00000E+00
 -1       259 9.88740E+01 2.18750E+00 0.00000E+00
 -1       260 1.01874E+02 2.18750E+00 0.00000E+00
 -1       261 1.04874E+02 2.18750E+00 0.00000E+00
 -1       262 1.07874E+02 2.18750E+00 0.00000E+00
 -1       263 1.10874E+02 2.18750E+00 0.00000E+00
 -1       264 1.13874E+02 2.18750E+00 0.00000E+00
 -1       265 1.16874E+02 2.18750E+00 0.00000E+00
 -1       266 1.19874E+02 2.18750E+00 0.00000E+00
 -1       267 1.22874E+02 2.18750E+00 0.00000E+00
 -1       268 1.25874E+02 2.18750E+00 0.00000E+00
 -1       269 1.28874E+02 2.18750E+00 0.00000E+00
 -1       270 1.31874E+02 2.18750E+00 0.00000E+00
 -1       271 1.34874E+02 2.18750E+00 0.00000E+00
 -1       272 1.37874E+02 2.18750E+00 0.00000E+00
 -1       273 1.40874E+02 2.18750E+00 0.00000E+00
 -1       274 1.43874E+02 2.18750E+00 0.00000E+00
 -1       275 1.46874E+02 2.18750E+00 0.00000E+00
 -1       276 1.47402E+02 4.42500E+00 0.00000E+00
 -1       277 1.47402E+02 7.37500E+00 0.00000E+00
 -1       278 1.47402E+02 1.03250E+01 0.00000E+00
 -1       279 1.47402E+02 1.32750E+01 0.00000E+00
 -1       280 1.47402E+02 1.61750E+01 0.00000E+00
 -1       281 1.47402E+02 1.91250E+01 0.00000E+00
 -1       282 1.47402E+02 2.20750E+01 0.00000E+00
 -1       283 1.47402E+02 2.50250E+01 0.00000E+00
 -1       284 1.47402E+02 2.79750E+01 0.00000E+00
 -1       285 1.47402E+02 3.09250E+01 0.00000E+00
 -1       286 1.47402E+02 3.38250E+01 0.00000E+00
 -1       287 1.47402E+02 3.67750E+01 0.00000E+00
 -1       288 1.47402E+02 3.97250E+01 0.00000E+00
 -1       289 1.47402E+02 4.26750E+01 0.00000E+00
 -1       290 1.46526E+02 4.50385E+01 0.00000E+00
 -1       291 1.36728E+02 2.22051E+01 0.00000E+00
 -1       292 1.36202E+02 2.05446E+01 0.00000E+00
 -1       293 1.35605E+02 1.88612E+01 0.00000E+00
 -1       294 1.34380E+02 1.75035E+01 0.00000E+00
 -1       295 1.33090E+02 1.63928E+01 0.00000E+00
 -1       296 1.31596E+02 1.54905E+01 0.00000E+00
 -1       297 1.29853E+02 1.50690E+01 0.00000E+00
 -1       298 1.28073E+02 1.48714E+01 0.00000E+00
 -1       299 1.26130E+02 1.49409E+01 0.00000E+00
 -1       300 1.24533E+02 1.59348E+01 0.00000E+00
 -1       301 1.22928E+02 1.67543E+01 0.00000E+00
 -1       302 1.21793E+02 1.82214E+01 0.00000E+00
 -1       303 1.20820E+02 1.97297E+01 0.00000E+00
 -1       304 1.20354E+02 2.14505E+01 0.00000E+00
 -1       305 1.20101E+02 2.32084E+01 0.00000E+00
 -1       306 1.20397E+02 2.49770E+01 0.00000E+00
 -1       307 1.21057E+02 2.66208E+01 0.00000E+00
 -1       308 1.21818E+02 2.83129E+01 0.00000E+00
 -1       309 1.23112E+02 2.97438E+01 0.00000E+00
 -1       310 1.24819E+02 3.04451E+01 0.00000E+00
 -1       311 1.26429E+02 3.11240E+01 0.00000E+00
 -1       312 1.28192E+02 3.13686E+01 0.00000E+00
 -1       313 1.29975E+02 3.14879E+01 0.00000E+00
 -1       314 1.31600E+02 3.07436E+01 0.00000E+00
 -1       315 1.33105E+02 2.98276E+01 0.00000E+00
 -1       316 1.34472E+02 2.87568E+01 0.00000E+00
 -1       317 1.35439E+02 2.73409E+01 0.00000E+00
 -1       318 1.36334E+02 2.57967E+01 0.00000E+00
 -1       319 1.36648E+02 2.40040E+01 0.00000E+00
 -1       320 5.19600E+00 4.11500E+01 0.00000E+00
 -1       321 5.19600E+00 4.41000E+01 0.00000E+00
 -1       322 5.19600E+00 3.52750E+01 0.00000E+00
 -1       323 5.19600E+00 3.23250E+01 0.00000E+00
 -1       324 5.19600E+00 2.93750E+01 0.00000E+00
 -1       325 5.19600E+00 2.64250E+01 0.00000E+00
 -1       326 5.19600E+00 2.34750E+01 0.00000E+00
 -1       327 5.19600E+00 2.05250E+01 0.00000E+00
 -1       328 5.19600E+00 1.76250E+01 0.00000E+00
 -1       329 5.19600E+00 1.46750E+01 0.00000E+00
 -1       330 5.19600E+00 1.17250E+01 0.00000E+00
 -1       331 5.19600E+00 8.77500E+00 0.00000E+00
 -1       332 5.19600E+00 5.82500E+00 0.00000E+00
 -1       333 5.53500E+00 4.00625E+00 0.00000E+00
 -1       334 8.53500E+00 4.00625E+00 0.00000E+00
 -1       335 9.15000E+00 4.48040E+01 0.00000E+00
 -1       336 1.21500E+01 4.48040E+01 0.00000E+00
 -1       337 1.51500E+01 4.48040E+01 0.00000E+00
 -1       338 1.81500E+01 4.48040E+01 0.00000E+00
 -1       339 2.11500E+01 4.48040E+01 0.00000E+00
 -1       340 2.41500E+01 4.48040E+01 0.00000E+00
 -1       341 2.71500E+01 4.48040E+01 0.00000E+00
 -1       342 3.01500E+01 4.48040E+01 0.00000E+00
 -1       343 3.31500E+01 4.48040E+01 0.00000E+00
 -1       344 3.61500E+01 4.48040E+01 0.00000E+00
 -1       345 3.91500E+01 4.48040E+01 0.00000E+00
 -1       346 4.21500E+01 4.48040E+01 0.00000E+00
 -1       347 4.51500E+01 4.48040E+01 0.00000E+00
 -1       348 4.81500E+01 4.48040E+01 0.00000E+00
 -1       349 5.11500E+01 4.48040E+01 0.00000E+00
 -1       350 5.41500E+01 4.48040E+01 0.00000E+00
 -1       351 5.71500E+01 4.48040E+01 0.00000E+00
 -1       352 6.01500E+01 4.48040E+01 0.00000E+00
 -1       353 6.31500E+01 4.48040E+01 0.00000E+00
 -1       354 6.61500E+01 4.48040E+01 0.00000E+00
 -1       355 6.91500E+01 4.48040E+01 0.00000E+00
 -1       356 7.21500E+01 4.48040E+01 0.00000E+00
 -1       357 7.51500E+01 4.48040E+01 0.00000E+00
 -1       358 7.81500E+01 4.48040E+01 0.00000E+00
 -1       359 8.11500E+01 4.48040E+01 0.00000E+00
 -1       360 8.41500E+01 4.48040E+01 0.00000E+00
 -1       361 8.71500E+01 4.48040E+01 0.00000E+00
 -1       362 9.01500E+01 4.48040E+01 0.00000E+00
 -1       363 9.31500E+01 4.48040E+01 0.00000E+00
 -1       364 9.61500E+01 4.48040E+01 0.00000E+00
 -1       365 9.91500E+01 4.48040E+01 0.00000E+00
 -1       366 1.02150E+02 4.48040E+01 0.00000E+00
 -1       367 1.05150E+02 4.48040E+01 0.00000E+00
 -1       368 1.08150E+02 4.48040E+01 0.00000E+00
 -1       369 1.11150E+02 4.48040E+01 0.00000E+00
 -1       370 1.14150E+02 4.48040E+01 0.00000E+00
 -1       371 1.17150E+02 4.48040E+01 0.00000E+00
 -1       372 1.20150E+02 4.48040E+01 0.00000E+00
 -1       373 1.23150E+02 4.48040E+01 0.00000E+00
 -1       374 1.26150E+02 4.48040E+01 0.00000E+00
 -1       375 1.29150E+02 4.48040E+01 0.00000E+00
 -1       376 1.32150E+02 4.48040E+01 0.00000E+00
 -1       377 1.35150E+02 4.48040E+01 0.00000E+00
 -1       378 1.38150E+02 4.48040E+01 0.00000E+00
 -1       379 1.41150E+02 4.48040E+01 0.00000E+00
 -1       380 1.43838E+02 4.49212E+01 0.00000E+00
 -1       381 1.15350E+01 4.00625E+00 0.00000E+00
 -1       382 1.45350E+01 4.00625E+00 0.00000E+00
 -1       383 1.75350E+01 4.00625E+00 0.00000E+00
 -1       384 2.05350E+01 4.00625E+00 0.00000E+00
 -1       385 2.35350E+01 4.00625E+00 0.00000E+00
 -1       386 2.65350E+01 4.00625E+00 0.00000E+00
 -1       387 2.95350E+01 4.00625E+00 0.00000E+00
 -1       388 3.25350E+01 4.00625E+00 0.00000E+00
 -1       389 3.55350E+01 4.00625E+00 0.00000E+00
 -1       390 3.85350E+01 4.00625E+00 0.00000E+00
 -1       391 4.15350E+01 4.00625E+00 0.00000E+00
 -1       392 4.45350E+01 4.00625E+00 0.00000E+00
 -1       393 4.75350E+01 4.00625E+00 0.00000E+00
 -1       394 5.05350E+01 4.00625E+00 0.00000E+00
 -1       395 5.35350E+01 4.00625E+00 0.00000E+00
 -1       396 5.65350E+01 4.00625E+00 0.00000E+00
 -1       397 5.95350E+01 4.00625E+00 0.00000E+00
 -1       398 6.25350E+01 4.00625E+00 0.00000E+00
 -1       399 6.55350E+01 4.00625E+00 0.00000E+00
 -1       400 6.85350E+01 4.00625E+00 0.00000E+00
 -1       401 7.15350E+01 4.00625E+00 0.00000E+00
 -1       402 7.45350E+01 4.00625E+00 0.00000E+00
 -1       403 7.75350E+01 4.00625E+00 0.00000E+00
 -1       404 8.05350E+01 4.00625E+00 0.00000E+00
 -1       405 8.35350E+01 4.00625E+00 0.00000E+00
 -1       406 8.65350E+01 4.00625E+00 0.00000E+00
 -1       407 8.95350E+01 4.00625E+00 0.00000E+00
 -1       408 9.25350E+01 4.00625E+00 0.00000E+00
 -1       409 9.55350E+01 4.00625E+00 0.00000E+00
 -1       410 9.85350E+01 4.00625E+00 0.00000E+00
 -1       411 1.01535E+02 4.00625E+00 0.00000E+00
 -1       412 1.04535E+02 4.00625E+00 0.00000E+00
 -1       413 1.07535E+02 4.00625E+00 0.00000E+00
 -1       414 1.10535E+02 4.00625E+00 0.00000E+00
 -1       415 1.13535E+02 4.00625E+00 0.00000E+00
 -1       416 1.16535E+02 4.00625E+00 0.00000E+00
 -1       417 1.19535E+02 4.00625E+00 0.00000E+00
 -1       418 1.22535E+02 4.00625E+00 0.00000E+00
 -1       419 1.25535E+02 4.00625E+00 0.00000E+00
 -1       420 1.28535E+02 4.00625E+00 0.00000E+00
 -1       421 1.31535E+02 4.00625E+00 0.00000E+00
 -1       422 1.34535E+02 4.00625E+00 0.00000E+00
 -1       423 1.37535E+02 4.00625E+00 0.00000E+00
 -1       424 1.40535E+02 4.00625E+00 0.00000E+00
 -1       425 1.43535E+02 4.00625E+00 0.00000E+00
 -1       426 1.45469E+02 4.21562E+00 0.00000E+00
 -1       427 1.44804E+02 1.18000E+01 0.00000E+00
 -1       428 1.44804E+02 8.85000E+00 0.00000E+00
 -1       429 1.45136E+02 6.53281E+00 0.00000E+00
 -1       430 1.44804E+02 1.47000E+01 0.00000E+00
 -1       431 1.44804E+02 1.76500E+01 0.00000E+00
 -1       432 1.44804E+02 2.06000E+01 0.00000E+00
 -1       433 1.44804E+02 2.35500E+01 0.00000E+00
 -1       434 1.44804E+02 2.65000E+01 0.00000E+00
 -1       435 1.44804E+02 2.94500E+01 0.00000E+00
 -1       436 1.44804E+02 3.23500E+01 0.00000E+00
 -1       437 1.44804E+02 3.53000E+01 0.00000E+00
 -1       438 1.44804E+02 3.82500E+01 0.00000E+00
 -1       439 1.44804E+02 4.12000E+01 0.00000E+00
 -1       440 1.37204E+02 1.92418E+01 0.00000E+00
 -1       441 1.38318E+02 2.31770E+01 0.00000E+00
 -1       442 1.37730E+02 2.09023E+01 0.00000E+00
 -1       443 1.36017E+02 1.72580E+01 0.00000E+00
 -1       444 1.34635E+02 1.59023E+01 0.00000E+00
 -1       445 5.19600E+00 3.82125E+01 0.00000E+00
 -1       446 1.31049E+02 1.39385E+01 0.00000E+00
 -1       447 1.29106E+02 1.36819E+01 0.00000E+00
 -1       448 1.27049E+02 1.34433E+01 0.00000E+00
 -1       449 1.24469E+02 1.40529E+01 0.00000E+00
 -1       450 1.22864E+02 1.48724E+01 0.00000E+00
 -1       451 1.21136E+02 1.65410E+01 0.00000E+00
 -1       452 1.20147E+02 1.82274E+01 0.00000E+00
 -1       453 1.19336E+02 2.02509E+01 0.00000E+00
 -1       454 1.18612E+02 2.20973E+01 0.00000E+00
 -1       455 1.18971E+02 2.43070E+01 0.00000E+00
 -1       456 1.19213E+02 2.64062E+01 0.00000E+00
 -1       457 1.19974E+02 2.80982E+01 0.00000E+00
 -1       458 1.21379E+02 3.00104E+01 0.00000E+00
 -1       459 1.23345E+02 3.16033E+01 0.00000E+00
 -1       460 1.24955E+02 3.22822E+01 0.00000E+00
 -1       461 1.27132E+02 3.25302E+01 0.00000E+00
 -1       462 1.28986E+02 3.28888E+01 0.00000E+00
 -1       463 1.31397E+02 3.24465E+01 0.00000E+00
 -1       464 1.33113E+02 3.15361E+01 0.00000E+00
 -1       465 1.34743E+02 3.05102E+01 0.00000E+00
 -1       466 1.36302E+02 2.89691E+01 0.00000E+00
 -1       467 1.37197E+02 2.74249E+01 0.00000E+00
 -1       468 1.38003E+02 2.49697E+01 0.00000E+00
 -1       469 1.33013E+02 1.48321E+01 0.00000E+00
 -1       470 1.30408E+02 3.38473E+01 0.00000E+00
 -1       471 1.25389E+02 1.25553E+01 0.00000E+00
 -1       472 1.00350E+01 6.60425E+00 0.00000E+00
 -1       473 7.79400E+00 3.08500E+01 0.00000E+00
 -1       474 7.79400E+00 3.38000E+01 0.00000E+00
 -1       475 7.79400E+00 2.49500E+01 0.00000E+00
 -1       476 7.79400E+00 2.20000E+01 0.00000E+00
 -1       477 7.79400E+00 1.91000E+01 0.00000E+00
 -1       478 7.79400E+00 1.61500E+01 0.00000E+00
 -1       479 7.79400E+00 1.32000E+01 0.00000E+00
 -1       480 7.79400E+00 1.02500E+01 0.00000E+00
 -1       481 1.30350E+01 6.60425E+00 0.00000E+00
 -1       482 1.06500E+01 4.22060E+01 0.00000E+00
 -1       483 1.32637E+02 1.30529E+01 0.00000E+00
 -1       484 1.36500E+01 4.22060E+01 0.00000E+00
 -1       485 1.66500E+01 4.22060E+01 0.00000E+00
 -1       486 1.96500E+01 4.22060E+01 0.00000E+00
 -1       487 2.26500E+01 4.22060E+01 0.00000E+00
 -1       488 2.56500E+01 4.22060E+01 0.00000E+00
 -1       489 2.86500E+01 4.22060E+01 0.00000E+00
 -1       490 3.16500E+01 4.22060E+01 0.00000E+00
 -1       491 3.46500E+01 4.22060E+01 0.00000E+00
 -1       492 3.76500E+01 4.22060E+01 0.00000E+00
 -1       493 4.06500E+01 4.22060E+01 0.00000E+00
 -1       494 4.36500E+01 4.22060E+01 0.00000E+00
 -1       495 4.66500E+01 4.22060E+01 0.00000E+00
 -1       496 4.96500E+01 4.22060E+01 0.00000E+00
 -1       497 5.26500E+01 4.22060E+01 0.00000E+00
 -1       498 5.56500E+01 4.22060E+01 0.00000E+00
 -1       499 5.86500E+01 4.22060E+01 0.00000E+00
 -1       500 6.16500E+01 4.22060E+01 0.00000E+00
 -1       501 6.46500E+01 4.22060E+01 0.00000E+00
 -1       502 6.76500E+01 4.22060E+01 0.00000E+00
 -1       503 7.06500E+01 4.22060E+01 0.00000E+00
 -1       504 7.36500E+01 4.22060E+01 0.00000E+00
 -1       505 7.66500E+01 4.22060E+01 0.00000E+00
 -1       506 7.96500E+01 4.22060E+01 0.00000E+00
 -1       507 8.26500E+01 4.22060E+01 0.00000E+00
 -1       508 8.56500E+01 4.22060E+01 0.00000E+00
 -1       509 8.86500E+01 4.22060E+01 0.00000E+00
 -1       510 9.16500E+01 4.22060E+01 0.00000E+00
 -1       511 9.46500E+01 4.22060E+01 0.00000E+00
 -1       512 9.76500E+01 4.22060E+01 0.00000E+00
 -1       513 1.00650E+02 4.22060E+01 0.00000E+00
 -1       514 1.03650E+02 4.22060E+01 0.00000E+00
 -1       515 1.06650E+02 4.22060E+01 0.00000E+00
 -1       516 1.09650E+02 4.22060E+01 0.00000E+00
 -1       517 1.12650E+02 4.22060E+01 0.00000E+00
 -1       518 1.15650E+02 4.22060E+01 0.00000E+00
 -1       519 1.18650E+02 4.22060E+01 0.00000E+00
 -1       520 1.21650E+02 4.22060E+01 0.00000E+00
 -1       521 1.24650E+02 4.22060E+01 0.00000E+00
 -1       522 1.27650E+02 4.22060E+01 0.00000E+00
 -1       523 1.30650E+02 4.22060E+01 0.00000E+00
 -1       524 1.33650E+02 4.22060E+01 0.00000E+00
 -1       525 1.36650E+02 4.22060E+01 0.00000E+00
 -1       526 1.39650E+02 4.22060E+01 0.00000E+00
 -1       527 1.38862E+02 1.96298E+01 0.00000E+00
 -1       528 1.90350E+01 6.60425E+00 0.00000E+00
 -1       529 2.20350E+01 6.60425E+00 0.00000E+00
 -1       530 2.50350E+01 6.60425E+00 0.00000E+00
 -1       531 2.80350E+01 6.60425E+00 0.00000E+00
 -1       532 3.10350E+01 6.60425E+00 0.00000E+00
 -1       533 3.40350E+01 6.60425E+00 0.00000E+00
 -1       534 3.70350E+01 6.60425E+00 0.00000E+00
 -1       535 4.00350E+01 6.60425E+00 0.00000E+00
 -1       536 4.30350E+01 6.60425E+00 0.00000E+00
 -1       537 4.60350E+01 6.60425E+00 0.00000E+00
 -1       538 4.90350E+01 6.60425E+00 0.00000E+00
 -1       539 5.20350E+01 6.60425E+00 0.00000E+00
 -1       540 5.50350E+01 6.60425E+00 0.00000E+00
 -1       541 5.80350E+01 6.60425E+00 0.00000E+00
 -1       542 6.10350E+01 6.60425E+00 0.00000E+00
 -1       543 6.40350E+01 6.60425E+00 0.00000E+00
 -1       544 6.70350E+01 6.60425E+00 0.00000E+00
 -1       545 7.00350E+01 6.60425E+00 0.00000E+00
 -1       546 7.30350E+01 6.60425E+00 0.00000E+00
 -1       547 7.60350E+01 6.60425E+00 0.00000E+00
 -1       548 7.90350E+01 6.60425E+00 0.00000E+00
 -1       549 8.20350E+01 6.60425E+00 0.00000E+00
 -1       550 8.50350E+01 6.60425E+00 0.00000E+00
 -1       551 8.80350E+01 6.60425E+00 0.00000E+00
 -1       552 9.10350E+01 6.60425E+00 0.00000E+00
 -1       553 9.40350E+01 6.60425E+00 0.00000E+00
 -1       554 9.70350E+01 6.60425E+00 0.00000E+00
 -1       555 1.00035E+02 6.60425E+00 0.00000E+00
 -1       556 1.03035E+02 6.60425E+00 0.00000E+00
 -1       557 1.06035E+02 6.60425E+00 0.00000E+00
 -1       558 1.09035E+02 6.60425E+00 0.00000E+00
 -1       559 1.12035E+02 6.60425E+00 0.00000E+00
 -1       560 1.15035E+02 6.60425E+00 0.00000E+00
 -1       561 1.18035E+02 6.60425E+00 0.00000E+00
 -1       562 1.21035E+02 6.60425E+00 0.00000E+00
 -1       563 1.24035E+02 6.60425E+00 0.00000E+00
 -1       564 1.27035E+02 6.60425E+00 0.00000E+00
 -1       565 1.30035E+02 6.60425E+00 0.00000E+00
 -1       566 1.33035E+02 6.60425E+00 0.00000E+00
 -1       567 1.36035E+02 6.60425E+00 0.00000E+00
 -1       568 1.39035E+02 6.60425E+00 0.00000E+00
 -1       569 1.42035E+02 6.60425E+00 0.00000E+00
 -1       570 1.42206E+02 1.61750E+01 0.00000E+00
 -1       571 1.42206E+02 1.91250E+01 0.00000E+00
 -1       572 1.42206E+02 1.03250E+01 0.00000E+00
 -1       573 1.42206E+02 1.32500E+01 0.00000E+00
 -1       574 1.42206E+02 2.20750E+01 0.00000E+00
 -1       575 1.42206E+02 2.50250E+01 0.00000E+00
 -1       576 1.42206E+02 2.79750E+01 0.00000E+00
 -1       577 1.42206E+02 3.08750E+01 0.00000E+00
 -1       578 1.42206E+02 3.38250E+01 0.00000E+00
 -1       579 1.42206E+02 3.67750E+01 0.00000E+00
 -1       580 1.42206E+02 3.97250E+01 0.00000E+00
 -1       581 1.36527E+02 1.53559E+01 0.00000E+00
 -1       582 1.60350E+01 6.60425E+00 0.00000E+00
 -1       583 1.39603E+02 2.16318E+01 0.00000E+00
 -1       584 1.38010E+02 1.74125E+01 0.00000E+00
 -1       585 1.39389E+02 2.67848E+01 0.00000E+00
 -1       586 1.36669E+02 3.08999E+01 0.00000E+00
 -1       587 1.19362E+02 3.00205E+01 0.00000E+00
 -1       588 1.17388E+02 2.55532E+01 0.00000E+00
 -1       589 7.79400E+00 2.79000E+01 0.00000E+00
 -1       590 1.28266E+02 1.19421E+01 0.00000E+00
 -1       591 1.19235E+02 1.65587E+01 0.00000E+00
 -1       592 1.30208E+02 1.21987E+01 0.00000E+00
 -1       593 1.22811E+02 1.27858E+01 0.00000E+00
 -1       594 1.21283E+02 3.21395E+01 0.00000E+00
 -1       595 1.20692E+02 1.43525E+01 0.00000E+00
 -1       596 1.18305E+02 1.86633E+01 0.00000E+00
 -1       597 1.17582E+02 2.05097E+01 0.00000E+00
 -1       598 1.17030E+02 2.33434E+01 0.00000E+00
 -1       599 1.17876E+02 2.80243E+01 0.00000E+00
 -1       600 1.27734E+02 3.43934E+01 0.00000E+00
 -1       601 1.23484E+02 3.35231E+01 0.00000E+00
 -1       602 1.25556E+02 3.41454E+01 0.00000E+00
 -1       603 1.33020E+02 3.34324E+01 0.00000E+00
 -1       604 1.34649E+02 3.24066E+01 0.00000E+00
 -1       605 1.38234E+02 2.90568E+01 0.00000E+00
 -1       606 1.39685E+02 2.43405E+01 0.00000E+00
 -1       607 7.92300E+00 4.16780E+01 0.00000E+00
 -1       608 7.61550E+00 6.21462E+00 0.00000E+00
 -1       609 1.34953E+02 1.36558E+01 0.00000E+00
 -1       610 7.79400E+00 3.67375E+01 0.00000E+00
 -1       611 1.29156E+02 3.53519E+01 0.00000E+00
 -1       612 1.41678E+02 4.22645E+01 0.00000E+00
 -1       613 1.15999E+02 2.17558E+01 0.00000E+00
 -1       614 1.32031E+02 3.48332E+01 0.00000E+00
 -1       615 1.26605E+02 1.10542E+01 0.00000E+00
 -1       616 1.03920E+01 2.05500E+01 0.00000E+00
 -1       617 1.03920E+01 2.35000E+01 0.00000E+00
 -1       618 1.03920E+01 1.46750E+01 0.00000E+00
 -1       619 1.03920E+01 1.17250E+01 0.00000E+00
 -1       620 1.15350E+01 9.20225E+00 0.00000E+00
 -1       621 1.45350E+01 9.20225E+00 0.00000E+00
 -1       622 1.26451E+02 3.59735E+01 0.00000E+00
 -1       623 1.51500E+01 3.96080E+01 0.00000E+00
 -1       624 1.81500E+01 3.96080E+01 0.00000E+00
 -1       625 2.11500E+01 3.96080E+01 0.00000E+00
 -1       626 2.41500E+01 3.96080E+01 0.00000E+00
 -1       627 2.71500E+01 3.96080E+01 0.00000E+00
 -1       628 3.01500E+01 3.96080E+01 0.00000E+00
 -1       629 3.31500E+01 3.96080E+01 0.00000E+00
 -1       630 3.61500E+01 3.96080E+01 0.00000E+00
 -1       631 3.91500E+01 3.96080E+01 0.00000E+00
 -1       632 4.21500E+01 3.96080E+01 0.00000E+00
 -1       633 4.51500E+01 3.96080E+01 0.00000E+00
 -1       634 4.81500E+01 3.96080E+01 0.00000E+00
 -1       635 5.11500E+01 3.96080E+01 0.00000E+00
 -1       636 5.41500E+01 3.96080E+01 0.00000E+00
 -1       637 5.71500E+01 3.96080E+01 0.00000E+00
 -1       638 6.01500E+01 3.96080E+01 0.00000E+00
 -1       639 6.31500E+01 3.96080E+01 0.00000E+00
 -1       640 6.61500E+01 3.96080E+01 0.00000E+00
 -1       641 6.91500E+01 3.96080E+01 0.00000E+00
 -1       642 7.21500E+01 3.96080E+01 0.00000E+00
 -1       643 7.51500E+01 3.96080E+01 0.00000E+00
 -1       644 7.81500E+01 3.96080E+01 0.00000E+00
 -1       645 8.11500E+01 3.96080E+01 0.00000E+00
 -1       646 8.41500E+01 3.96080E+01 0.00000E+00
 -1       647 8.71500E+01 3.96080E+01 0.00000E+00
 -1       648 9.01500E+01 3.96080E+01 0.00000E+00
 -1       649 9.31500E+01 3.96080E+01 0.00000E+00
 -1       650 9.61500E+01 3.96080E+01 0.00000E+00
 -1       651 9.91500E+01 3.96080E+01 0.00000E+00
 -1       652 1.02150E+02 3.96080E+01 0.00000E+00
 -1       653 1.05150E+02 3.96080E+01 0.00000E+00
 -1       654 1.08150E+02 3.96080E+01 0.00000E+00
 -1       655 1.11150E+02 3.96080E+01 0.00000E+00
 -1       656 1.14150E+02 3.96080E+01 0.00000E+00
 -1       657 1.17150E+02 3.96080E+01 0.00000E+00
 -1       658 1.20150E+02 3.96080E+01 0.00000E+00
 -1       659 1.23150E+02 3.96080E+01 0.00000E+00
 -1       660 1.26150E+02 3.96080E+01 0.00000E+00
 -1       661 1.29150E+02 3.96080E+01 0.00000E+00
 -1       662 1.32150E+02 3.96080E+01 0.00000E+00
 -1       663 1.35150E+02 3.96080E+01 0.00000E+00
 -1       664 1.38150E+02 3.96080E+01 0.00000E+00
 -1       665 1.36685E+02 3.30280E+01 0.00000E+00
 -1       666 2.05350E+01 9.20225E+00 0.00000E+00
 -1       667 2.95350E+01 9.20225E+00 0.00000E+00
 -1       668 3.25350E+01 9.20225E+00 0.00000E+00
 -1       669 3.55350E+01 9.20225E+00 0.00000E+00
 -1       670 3.85350E+01 9.20225E+00 0.00000E+00
 -1       671 4.15350E+01 9.20225E+00 0.00000E+00
 -1       672 4.45350E+01 9.20225E+00 0.00000E+00
 -1       673 4.75350E+01 9.20225E+00 0.00000E+00
 -1       674 5.05350E+01 9.20225E+00 0.00000E+00
 -1       675 5.35350E+01 9.20225E+00 0.00000E+00
 -1       676 5.65350E+01 9.20225E+00 0.00000E+00
 -1       677 5.95350E+01 9.20225E+00 0.00000E+00
 -1       678 6.25350E+01 9.20225E+00 0.00000E+00
 -1       679 6.55350E+01 9.20225E+00 0.00000E+00
 -1       680 6.85350E+01 9.20225E+00 0.00000E+00
 -1       681 7.15350E+01 9.20225E+00 0.00000E+00
 -1       682 7.45350E+01 9.20225E+00 0.00000E+00
 -1       683 7.75350E+01 9.20225E+00 0.00000E+00
 -1       684 8.05350E+01 9.20225E+00 0.00000E+00
 -1       685 8.35350E+01 9.20225E+00 0.00000E+00
 -1       686 8.65350E+01 9.20225E+00 0.00000E+00
 -1       687 8.95350E+01 9.20225E+00 0.00000E+00
 -1       688 9.25350E+01 9.20225E+00 0.00000E+00
 -1       689 9.55350E+01 9.20225E+00 0.00000E+00
 -1       690 9.85350E+01 9.20225E+00 0.00000E+00
 -1       691 1.01535E+02 9.20225E+00 0.00000E+00
 -1       692 1.04535E+02 9.20225E+00 0.00000E+00
 -1       693 1.07535E+02 9.20225E+00 0.00000E+00
 -1       694 1.10535E+02 9.20225E+00 0.00000E+00
 -1       695 1.13535E+02 9.20225E+00 0.00000E+00
 -1       696 1.16535E+02 9.20225E+00 0.00000E+00
 -1       697 1.19535E+02 9.20225E+00 0.00000E+00
 -1       698 1.22535E+02 9.20225E+00 0.00000E+00
 -1       699 1.31535E+02 9.15721E+00 0.00000E+00
 -1       700 1.34535E+02 9.15721E+00 0.00000E+00
 -1       701 1.37535E+02 9.15721E+00 0.00000E+00
 -1       702 1.39870E+02 9.74111E+00 0.00000E+00
 -1       703 1.40178E+02 3.96665E+01 0.00000E+00
 -1       704 1.40156E+02 2.94250E+01 0.00000E+00
 -1       705 1.39821E+02 3.23500E+01 0.00000E+00
 -1       706 1.39821E+02 3.53000E+01 0.00000E+00
 -1       707 1.75350E+01 9.20225E+00 0.00000E+00
 -1       708 1.37122E+02 1.32267E+01 0.00000E+00
 -1       709 1.24027E+02 3.54769E+01 0.00000E+00
 -1       710 1.29505E+02 1.00378E+01 0.00000E+00
 -1       711 1.18927E+02 3.23443E+01 0.00000E+00
 -1       712 2.65350E+01 9.20225E+00 0.00000E+00
 -1       713 2.35350E+01 9.20225E+00 0.00000E+00
 -1       714 1.21500E+01 3.96080E+01 0.00000E+00
 -1       715 1.34227E+02 1.16945E+01 0.00000E+00
 -1       716 1.21381E+02 3.44252E+01 0.00000E+00
 -1       717 1.03920E+01 1.76125E+01 0.00000E+00
 -1       718 1.20532E+02 1.19207E+01 0.00000E+00
 -1       719 1.38887E+02 3.11966E+01 0.00000E+00
 -1       720 1.03920E+01 3.23250E+01 0.00000E+00
 -1       721 1.31866E+02 1.08662E+01 0.00000E+00
 -1       722 1.16424E+02 1.89915E+01 0.00000E+00
 -1       723 1.15185E+02 2.47765E+01 0.00000E+00
 -1       724 1.15673E+02 2.72476E+01 0.00000E+00
 -1       725 1.17354E+02 1.68869E+01 0.00000E+00
 -1       726 1.17109E+02 3.01466E+01 0.00000E+00
 -1       727 1.34838E+02 3.45128E+01 0.00000E+00
 -1       728 1.18253E+02 1.43254E+01 0.00000E+00
 -1       729 1.23932E+02 1.07953E+01 0.00000E+00
 -1       730 1.03920E+01 3.52625E+01 0.00000E+00
 -1       731 1.03920E+01 2.64500E+01 0.00000E+00
 -1       732 1.27873E+02 3.69320E+01 0.00000E+00
 -1       733 1.41358E+02 2.29347E+01 0.00000E+00
 -1       734 1.05210E+01 3.87342E+01 0.00000E+00
 -1       735 1.39367E+02 1.43030E+01 0.00000E+00
 -1       736 1.14842E+02 2.02376E+01 0.00000E+00
 -1       737 1.28535E+02 9.20225E+00 0.00000E+00
 -1       738 1.39619E+02 1.20220E+01 0.00000E+00
 -1       739 1.30778E+02 3.63378E+01 0.00000E+00
 -1       740 1.14154E+02 2.31889E+01 0.00000E+00
 -1       741 1.33848E+02 3.59136E+01 0.00000E+00
 -1       742 1.03920E+01 2.93875E+01 0.00000E+00
 -1       743 1.36555E+02 1.07967E+01 0.00000E+00
 -1       744 1.29900E+01 1.32000E+01 0.00000E+00
 -1       745 1.17783E+02 1.15972E+01 0.00000E+00
 -1       746 2.20350E+01 1.18003E+01 0.00000E+00
 -1       747 1.96500E+01 3.70100E+01 0.00000E+00
 -1       748 2.26500E+01 3.70100E+01 0.00000E+00
 -1       749 2.56500E+01 3.70100E+01 0.00000E+00
 -1       750 2.86500E+01 3.70100E+01 0.00000E+00
 -1       751 3.16500E+01 3.70100E+01 0.00000E+00
 -1       752 3.46500E+01 3.70100E+01 0.00000E+00
 -1       753 3.76500E+01 3.70100E+01 0.00000E+00
 -1       754 4.06500E+01 3.70100E+01 0.00000E+00
 -1       755 4.36500E+01 3.70100E+01 0.00000E+00
 -1       756 4.66500E+01 3.70100E+01 0.00000E+00
 -1       757 4.96500E+01 3.70100E+01 0.00000E+00
 -1       758 5.26500E+01 3.70100E+01 0.00000E+00
 -1       759 5.56500E+01 3.70100E+01 0.00000E+00
 -1       760 5.86500E+01 3.70100E+01 0.00000E+00
 -1       761 6.16500E+01 3.70100E+01 0.00000E+00
 -1       762 6.46500E+01 3.70100E+01 0.00000E+00
 -1       763 6.76500E+01 3.70100E+01 0.00000E+00
 -1       764 7.06500E+01 3.70100E+01 0.00000E+00
 -1       765 7.36500E+01 3.70100E+01 0.00000E+00
 -1       766 7.66500E+01 3.70100E+01 0.00000E+00
 -1       767 7.96500E+01 3.70100E+01 0.00000E+00
 -1       768 8.26500E+01 3.70100E+01 0.00000E+00
 -1       769 8.56500E+01 3.70100E+01 0.00000E+00
 -1       770 8.86500E+01 3.70100E+01 0.00000E+00
 -1       771 9.16500E+01 3.70100E+01 0.00000E+00
 -1       772 9.46500E+01 3.70100E+01 0.00000E+00
 -1       773 9.76500E+01 3.70100E+01 0.00000E+00
 -1       774 1.00650E+02 3.70100E+01 0.00000E+00
 -1       775 1.03650E+02 3.70100E+01 0.00000E+00
 -1       776 1.06650E+02 3.70100E+01 0.00000E+00
 -1       777 1.09650E+02 3.70100E+01 0.00000E+00
 -1       778 1.12650E+02 3.70100E+01 0.00000E+00
 -1       779 1.15650E+02 3.70100E+01 0.00000E+00
 -1       780 1.18650E+02 3.70100E+01 0.00000E+00
 -1       781 1.24650E+02 3.73902E+01 0.00000E+00
 -1       782 3.10350E+01 1.18003E+01 0.00000E+00
 -1       783 4.00350E+01 1.18003E+01 0.00000E+00
 -1       784 4.30350E+01 1.18003E+01 0.00000E+00
 -1       785 4.60350E+01 1.18003E+01 0.00000E+00
 -1       786 4.90350E+01 1.18003E+01 0.00000E+00
 -1       787 5.20350E+01 1.18003E+01 0.00000E+00
 -1       788 5.50350E+01 1.18003E+01 0.00000E+00
 -1       789 5.80350E+01 1.18003E+01 0.00000E+00
 -1       790 6.10350E+01 1.18003E+01 0.00000E+00
 -1       791 6.40350E+01 1.18003E+01 0.00000E+00
 -1       792 6.70350E+01 1.18003E+01 0.00000E+00
 -1       793 7.00350E+01 1.18003E+01 0.00000E+00
 -1       794 7.30350E+01 1.18003E+01 0.00000E+00
 -1       795 7.60350E+01 1.18003E+01 0.00000E+00
 -1       796 7.90350E+01 1.18003E+01 0.00000E+00
 -1       797 8.20350E+01 1.18003E+01 0.00000E+00
 -1       798 8.50350E+01 1.18003E+01 0.00000E+00
 -1       799 8.80350E+01 1.18003E+01 0.00000E+00
 -1       800 9.10350E+01 1.18003E+01 0.00000E+00
 -1       801 9.40350E+01 1.18003E+01 0.00000E+00
 -1       802 9.70350E+01 1.18003E+01 0.00000E+00
 -1       803 1.00035E+02 1.18003E+01 0.00000E+00
 -1       804 1.03035E+02 1.18003E+01 0.00000E+00
 -1       805 1.06035E+02 1.18003E+01 0.00000E+00
 -1       806 1.09035E+02 1.18003E+01 0.00000E+00
 -1       807 1.12035E+02 1.18003E+01 0.00000E+00
 -1       808 1.14554E+02 2.96070E+01 0.00000E+00
 -1       809 1.29900E+01 2.20250E+01 0.00000E+00
 -1       810 1.18612E+02 3.52041E+01 0.00000E+00
 -1       811 2.80350E+01 1.18003E+01 0.00000E+00
 -1       812 3.70350E+01 1.18003E+01 0.00000E+00
 -1       813 1.36500E+01 3.70100E+01 0.00000E+00
 -1       814 3.40350E+01 1.18003E+01 0.00000E+00
 -1       815 2.50350E+01 1.18003E+01 0.00000E+00
 -1       816 1.15711E+02 1.48718E+01 0.00000E+00
 -1       817 1.66500E+01 3.70100E+01 0.00000E+00
 -1       818 1.16439E+02 3.25525E+01 0.00000E+00
 -1       819 1.13418E+02 2.64094E+01 0.00000E+00
 -1       820 1.14781E+02 1.69764E+01 0.00000E+00
 -1       821 1.37625E+01 1.12011E+01 0.00000E+00
 -1       822 1.21947E+02 3.68563E+01 0.00000E+00
 -1       823 1.20210E+01 3.61362E+01 0.00000E+00
 -1       824 1.37151E+02 3.54991E+01 0.00000E+00
 -1       825 1.29900E+01 2.49750E+01 0.00000E+00
 -1       826 1.29900E+01 1.61375E+01 0.00000E+00
 -1       827 1.36161E+02 3.68999E+01 0.00000E+00
 -1       828 1.20210E+01 3.31987E+01 0.00000E+00
 -1       829 1.90350E+01 1.18003E+01 0.00000E+00
 -1       830 1.12997E+02 2.16707E+01 0.00000E+00
 -1       831 1.14623E+02 1.20370E+01 0.00000E+00
 -1       832 1.20210E+01 3.02612E+01 0.00000E+00
 -1       833 1.29900E+01 1.90875E+01 0.00000E+00
 -1       834 1.12387E+02 2.48218E+01 0.00000E+00
 -1       835 1.63988E+01 1.15007E+01 0.00000E+00
 -1       836 2.41500E+01 3.44120E+01 0.00000E+00
 -1       837 2.71500E+01 3.44120E+01 0.00000E+00
 -1       838 3.01500E+01 3.44120E+01 0.00000E+00
 -1       839 3.31500E+01 3.44120E+01 0.00000E+00
 -1       840 3.61500E+01 3.44120E+01 0.00000E+00
 -1       841 3.91500E+01 3.44120E+01 0.00000E+00
 -1       842 4.21500E+01 3.44120E+01 0.00000E+00
 -1       843 4.51500E+01 3.44120E+01 0.00000E+00
 -1       844 4.81500E+01 3.44120E+01 0.00000E+00
 -1       845 5.11500E+01 3.44120E+01 0.00000E+00
 -1       846 5.41500E+01 3.44120E+01 0.00000E+00
 -1       847 5.71500E+01 3.44120E+01 0.00000E+00
 -1       848 6.01500E+01 3.44120E+01 0.00000E+00
 -1       849 6.31500E+01 3.44120E+01 0.00000E+00
 -1       850 6.61500E+01 3.44120E+01 0.00000E+00
 -1       851 6.91500E+01 3.44120E+01 0.00000E+00
 -1       852 7.21500E+01 3.44120E+01 0.00000E+00
 -1       853 7.51500E+01 3.44120E+01 0.00000E+00
 -1       854 7.81500E+01 3.44120E+01 0.00000E+00
 -1       855 8.11500E+01 3.44120E+01 0.00000E+00
 -1       856 8.41500E+01 3.44120E+01 0.00000E+00
 -1       857 8.71500E+01 3.44120E+01 0.00000E+00
 -1       858 9.01500E+01 3.44120E+01 0.00000E+00
 -1       859 9.31500E+01 3.44120E+01 0.00000E+00
 -1       860 9.61500E+01 3.44120E+01 0.00000E+00
 -1       861 9.91500E+01 3.44120E+01 0.00000E+00
 -1       862 1.02150E+02 3.44120E+01 0.00000E+00
 -1       863 1.05150E+02 3.44120E+01 0.00000E+00
 -1       864 1.08150E+02 3.44120E+01 0.00000E+00
 -1       865 1.11150E+02 3.44120E+01 0.00000E+00
 -1       866 1.14150E+02 3.44120E+01 0.00000E+00
 -1       867 2.95350E+01 1.43982E+01 0.00000E+00
 -1       868 4.45350E+01 1.43982E+01 0.00000E+00
 -1       869 2.65350E+01 1.43982E+01 0.00000E+00
 -1       870 1.13123E+02 1.46350E+01 0.00000E+00
 -1       871 4.15350E+01 1.43982E+01 0.00000E+00
 -1       872 5.05350E+01 1.43982E+01 0.00000E+00
 -1       873 5.35350E+01 1.43982E+01 0.00000E+00
 -1       874 5.65350E+01 1.43982E+01 0.00000E+00
 -1       875 5.95350E+01 1.43982E+01 0.00000E+00
 -1       876 6.25350E+01 1.43982E+01 0.00000E+00
 -1       877 6.55350E+01 1.43982E+01 0.00000E+00
 -1       878 6.85350E+01 1.43982E+01 0.00000E+00
 -1       879 7.15350E+01 1.43982E+01 0.00000E+00
 -1       880 7.45350E+01 1.43982E+01 0.00000E+00
 -1       881 7.75350E+01 1.43982E+01 0.00000E+00
 -1       882 8.05350E+01 1.43982E+01 0.00000E+00
 -1       883 8.35350E+01 1.43982E+01 0.00000E+00
 -1       884 8.65350E+01 1.43982E+01 0.00000E+00
 -1       885 8.95350E+01 1.43982E+01 0.00000E+00
 -1       886 9.25350E+01 1.43982E+01 0.00000E+00
 -1       887 9.55350E+01 1.43982E+01 0.00000E+00
 -1       888 9.85350E+01 1.43982E+01 0.00000E+00
 -1       889 1.01535E+02 1.43982E+01 0.00000E+00
 -1       890 1.04535E+02 1.43982E+01 0.00000E+00
 -1       891 1.07535E+02 1.43982E+01 0.00000E+00
 -1       892 1.10329E+02 1.45166E+01 0.00000E+00
 -1       893 1.12929E+02 1.86420E+01 0.00000E+00
 -1       894 1.81500E+01 3.44120E+01 0.00000E+00
 -1       895 1.36500E+01 3.40725E+01 0.00000E+00
 -1       896 4.75350E+01 1.43982E+01 0.00000E+00
 -1       897 1.25055E+01 2.76181E+01 0.00000E+00
 -1       898 3.85350E+01 1.43982E+01 0.00000E+00
 -1       899 2.11500E+01 3.44120E+01 0.00000E+00
 -1       900 1.56263E+01 1.34996E+01 0.00000E+00
 -1       901 1.13628E+02 3.22751E+01 0.00000E+00
 -1       902 1.11538E+02 2.88780E+01 0.00000E+00
 -1       903 1.59000E+01 3.42422E+01 0.00000E+00
 -1       904 2.35350E+01 1.43982E+01 0.00000E+00
 -1       905 1.55880E+01 2.35000E+01 0.00000E+00
 -1       906 2.05350E+01 1.43982E+01 0.00000E+00
 -1       907 1.11230E+02 2.33036E+01 0.00000E+00
 -1       908 1.36500E+01 3.11350E+01 0.00000E+00
 -1       909 3.55350E+01 1.43982E+01 0.00000E+00
 -1       910 1.55880E+01 2.05625E+01 0.00000E+00
 -1       911 3.25350E+01 1.43982E+01 0.00000E+00
 -1       912 1.10507E+02 2.72904E+01 0.00000E+00
 -1       913 1.55717E+01 2.64968E+01 0.00000E+00
 -1       914 2.80350E+01 1.69963E+01 0.00000E+00
 -1       915 2.86500E+01 3.18140E+01 0.00000E+00
 -1       916 3.16500E+01 3.18140E+01 0.00000E+00
 -1       917 3.46500E+01 3.18140E+01 0.00000E+00
 -1       918 3.76500E+01 3.18140E+01 0.00000E+00
 -1       919 4.06500E+01 3.18140E+01 0.00000E+00
 -1       920 4.36500E+01 3.18140E+01 0.00000E+00
 -1       921 4.66500E+01 3.18140E+01 0.00000E+00
 -1       922 4.96500E+01 3.18140E+01 0.00000E+00
 -1       923 5.26500E+01 3.18140E+01 0.00000E+00
 -1       924 5.56500E+01 3.18140E+01 0.00000E+00
 -1       925 5.86500E+01 3.18140E+01 0.00000E+00
 -1       926 6.16500E+01 3.18140E+01 0.00000E+00
 -1       927 6.46500E+01 3.18140E+01 0.00000E+00
 -1       928 6.76500E+01 3.18140E+01 0.00000E+00
 -1       929 7.06500E+01 3.18140E+01 0.00000E+00
 -1       930 7.36500E+01 3.18140E+01 0.00000E+00
 -1       931 7.66500E+01 3.18140E+01 0.00000E+00
 -1       932 7.96500E+01 3.18140E+01 0.00000E+00
 -1       933 8.26500E+01 3.18140E+01 0.00000E+00
 -1       934 8.56500E+01 3.18140E+01 0.00000E+00
 -1       935 8.86500E+01 3.18140E+01 0.00000E+00
 -1       936 9.16500E+01 3.18140E+01 0.00000E+00
 -1       937 9.46500E+01 3.18140E+01 0.00000E+00
 -1       938 9.76500E+01 3.18140E+01 0.00000E+00
 -1       939 1.00650E+02 3.18140E+01 0.00000E+00
 -1       940 1.03650E+02 3.18140E+01 0.00000E+00
 -1       941 1.06650E+02 3.18140E+01 0.00000E+00
 -1       942 1.09650E+02 3.18140E+01 0.00000E+00
 -1       943 5.80350E+01 1.69963E+01 0.00000E+00
 -1       944 1.61458E+01 1.66550E+01 0.00000E+00
 -1       945 4.30350E+01 1.69963E+01 0.00000E+00
 -1       946 5.50350E+01 1.69963E+01 0.00000E+00
 -1       947 5.20350E+01 1.69963E+01 0.00000E+00
 -1       948 6.10350E+01 1.69963E+01 0.00000E+00
 -1       949 6.40350E+01 1.69963E+01 0.00000E+00
 -1       950 6.70350E+01 1.69963E+01 0.00000E+00
 -1       951 7.00350E+01 1.69963E+01 0.00000E+00
 -1       952 7.30350E+01 1.69963E+01 0.00000E+00
 -1       953 7.60350E+01 1.69963E+01 0.00000E+00
 -1       954 7.90350E+01 1.69963E+01 0.00000E+00
 -1       955 8.20350E+01 1.69963E+01 0.00000E+00
 -1       956 8.50350E+01 1.69963E+01 0.00000E+00
 -1       957 8.80350E+01 1.69963E+01 0.00000E+00
 -1       958 9.10350E+01 1.69963E+01 0.00000E+00
 -1       959 9.40350E+01 1.69963E+01 0.00000E+00
 -1       960 9.70350E+01 1.69963E+01 0.00000E+00
 -1       961 1.00035E+02 1.69963E+01 0.00000E+00
 -1       962 1.03035E+02 1.69963E+01 0.00000E+00
 -1       963 1.06035E+02 1.69963E+01 0.00000E+00
 -1       964 2.50350E+01 1.69963E+01 0.00000E+00
 -1       965 4.00350E+01 1.69963E+01 0.00000E+00
 -1       966 2.26500E+01 3.18140E+01 0.00000E+00
 -1       967 1.80806E+01 1.39489E+01 0.00000E+00
 -1       968 1.10578E+02 2.02098E+01 0.00000E+00
 -1       969 1.96500E+01 3.18140E+01 0.00000E+00
 -1       970 2.56500E+01 3.18140E+01 0.00000E+00
 -1       971 1.10454E+02 1.73632E+01 0.00000E+00
 -1       972 3.10350E+01 1.69963E+01 0.00000E+00
 -1       973 1.59000E+01 3.13048E+01 0.00000E+00
 -1       974 3.70350E+01 1.69963E+01 0.00000E+00
 -1       975 2.20350E+01 1.69963E+01 0.00000E+00
 -1       976 1.09350E+02 2.57722E+01 0.00000E+00
 -1       977 1.46108E+01 2.88159E+01 0.00000E+00
 -1       978 1.77750E+01 3.15594E+01 0.00000E+00
 -1       979 1.08244E+02 1.71797E+01 0.00000E+00
 -1       980 3.40350E+01 1.69963E+01 0.00000E+00
 -1       981 4.90350E+01 1.69963E+01 0.00000E+00
 -1       982 4.60350E+01 1.69963E+01 0.00000E+00
 -1       983 1.81778E+01 2.50125E+01 0.00000E+00
 -1       984 1.81778E+01 2.20750E+01 0.00000E+00
 -1       985 1.08578E+02 2.95522E+01 0.00000E+00
 -1       986 2.95350E+01 1.95942E+01 0.00000E+00
 -1       987 1.81292E+01 1.80120E+01 0.00000E+00
 -1       988 3.31500E+01 2.92160E+01 0.00000E+00
 -1       989 3.61500E+01 2.92160E+01 0.00000E+00
 -1       990 3.91500E+01 2.92160E+01 0.00000E+00
 -1       991 4.21500E+01 2.92160E+01 0.00000E+00
 -1       992 4.51500E+01 2.92160E+01 0.00000E+00
 -1       993 4.81500E+01 2.92160E+01 0.00000E+00
 -1       994 5.11500E+01 2.92160E+01 0.00000E+00
 -1       995 5.41500E+01 2.92160E+01 0.00000E+00
 -1       996 5.71500E+01 2.92160E+01 0.00000E+00
 -1       997 6.01500E+01 2.92160E+01 0.00000E+00
 -1       998 6.31500E+01 2.92160E+01 0.00000E+00
 -1       999 6.61500E+01 2.92160E+01 0.00000E+00
 -1      1000 6.91500E+01 2.92160E+01 0.00000E+00
 -1      1001 7.21500E+01 2.92160E+01 0.00000E+00
 -1      1002 7.51500E+01 2.92160E+01 0.00000E+00
 -1      1003 7.81500E+01 2.92160E+01 0.00000E+00
 -1      1004 8.11500E+01 2.92160E+01 0.00000E+00
 -1      1005 8.41500E+01 2.92160E+01 0.00000E+00
 -1      1006 8.71500E+01 2.92160E+01 0.00000E+00
 -1      1007 9.01500E+01 2.92160E+01 0.00000E+00
 -1      1008 9.31500E+01 2.92160E+01 0.00000E+00
 -1      1009 9.61500E+01 2.92160E+01 0.00000E+00
 -1      1010 9.91500E+01 2.92160E+01 0.00000E+00
 -1      1011 1.02150E+02 2.92160E+01 0.00000E+00
 -1      1012 1.05150E+02 2.92160E+01 0.00000E+00
 -1      1013 6.25350E+01 1.95942E+01 0.00000E+00
 -1      1014 5.95350E+01 1.95942E+01 0.00000E+00
 -1      1015 5.35350E+01 1.95942E+01 0.00000E+00
 -1      1016 6.55350E+01 1.95942E+01 0.00000E+00
 -1      1017 6.85350E+01 1.95942E+01 0.00000E+00
 -1      1018 7.15350E+01 1.95942E+01 0.00000E+00
 -1      1019 7.45350E+01 1.95942E+01 0.00000E+00
 -1      1020 7.75350E+01 1.95942E+01 0.00000E+00
 -1      1021 8.05350E+01 1.95942E+01 0.00000E+00
 -1      1022 8.35350E+01 1.95942E+01 0.00000E+00
 -1      1023 8.65350E+01 1.95942E+01 0.00000E+00
 -1      1024 8.95350E+01 1.95942E+01 0.00000E+00
 -1      1025 9.25350E+01 1.95942E+01 0.00000E+00
 -1      1026 9.55350E+01 1.95942E+01 0.00000E+00
 -1      1027 9.85350E+01 1.95942E+01 0.00000E+00
 -1      1028 1.01535E+02 1.95942E+01 0.00000E+00
 -1      1029 1.04535E+02 1.95942E+01 0.00000E+00
 -1      1030 2.65350E+01 1.95942E+01 0.00000E+00
 -1      1031 4.15350E+01 1.95942E+01 0.00000E+00
 -1      1032 5.65350E+01 1.95942E+01 0.00000E+00
 -1      1033 2.11500E+01 2.92160E+01 0.00000E+00
 -1      1034 1.08734E+02 2.22138E+01 0.00000E+00
 -1      1035 3.01500E+01 2.92160E+01 0.00000E+00
 -1      1036 2.71500E+01 2.92160E+01 0.00000E+00
 -1      1037 2.41500E+01 2.92160E+01 0.00000E+00
 -1      1038 1.81605E+01 2.80122E+01 0.00000E+00
 -1      1039 3.85350E+01 1.95942E+01 0.00000E+00
 -1      1040 5.05350E+01 1.95942E+01 0.00000E+00
 -1      1041 2.35350E+01 1.95942E+01 0.00000E+00
 -1      1042 3.25350E+01 1.95942E+01 0.00000E+00
 -1      1043 1.06744E+02 1.97777E+01 0.00000E+00
 -1      1044 4.45350E+01 1.95942E+01 0.00000E+00
 -1      1045 2.11673E+01 2.62163E+01 0.00000E+00
 -1      1046 1.07250E+02 2.74941E+01 0.00000E+00
 -1      1047 2.11673E+01 2.32788E+01 0.00000E+00
 -1      1048 3.46500E+01 2.66180E+01 0.00000E+00
 -1      1049 3.76500E+01 2.66180E+01 0.00000E+00
 -1      1050 4.06500E+01 2.66180E+01 0.00000E+00
 -1      1051 4.36500E+01 2.66180E+01 0.00000E+00
 -1      1052 4.66500E+01 2.66180E+01 0.00000E+00
 -1      1053 4.96500E+01 2.66180E+01 0.00000E+00
 -1      1054 5.26500E+01 2.66180E+01 0.00000E+00
 -1      1055 5.56500E+01 2.66180E+01 0.00000E+00
 -1      1056 5.86500E+01 2.66180E+01 0.00000E+00
 -1      1057 6.16500E+01 2.66180E+01 0.00000E+00
 -1      1058 6.46500E+01 2.66180E+01 0.00000E+00
 -1      1059 6.76500E+01 2.66180E+01 0.00000E+00
 -1      1060 7.06500E+01 2.66180E+01 0.00000E+00
 -1      1061 7.36500E+01 2.66180E+01 0.00000E+00
 -1      1062 7.66500E+01 2.66180E+01 0.00000E+00
 -1      1063 7.96500E+01 2.66180E+01 0.00000E+00
 -1      1064 8.26500E+01 2.66180E+01 0.00000E+00
 -1      1065 8.56500E+01 2.66180E+01 0.00000E+00
 -1      1066 8.86500E+01 2.66180E+01 0.00000E+00
 -1      1067 9.16500E+01 2.66180E+01 0.00000E+00
 -1      1068 9.46500E+01 2.66180E+01 0.00000E+00
 -1      1069 9.76500E+01 2.66180E+01 0.00000E+00
 -1      1070 1.00650E+02 2.66180E+01 0.00000E+00
 -1      1071 1.03650E+02 2.66180E+01 0.00000E+00
 -1      1072 6.70350E+01 2.21922E+01 0.00000E+00
 -1      1073 6.40350E+01 2.21922E+01 0.00000E+00
 -1      1074 7.30350E+01 2.21922E+01 0.00000E+00
 -1      1075 7.60350E+01 2.21922E+01 0.00000E+00
 -1      1076 7.90350E+01 2.21922E+01 0.00000E+00
 -1      1077 8.20350E+01 2.21922E+01 0.00000E+00
 -1      1078 8.50350E+01 2.21922E+01 0.00000E+00
 -1      1079 8.80350E+01 2.21922E+01 0.00000E+00
 -1      1080 9.10350E+01 2.21922E+01 0.00000E+00
 -1      1081 9.40350E+01 2.21922E+01 0.00000E+00
 -1      1082 9.70350E+01 2.21922E+01 0.00000E+00
 -1      1083 1.00035E+02 2.21922E+01 0.00000E+00
 -1      1084 1.03035E+02 2.21922E+01 0.00000E+00
 -1      1085 5.80350E+01 2.21922E+01 0.00000E+00
 -1      1086 2.80350E+01 2.21922E+01 0.00000E+00
 -1      1087 7.00350E+01 2.21922E+01 0.00000E+00
 -1      1088 6.10350E+01 2.21922E+01 0.00000E+00
 -1      1089 1.05891E+02 2.25046E+01 0.00000E+00
 -1      1090 3.55350E+01 1.95942E+01 0.00000E+00
 -1      1091 2.86500E+01 2.66180E+01 0.00000E+00
 -1      1092 3.16500E+01 2.66180E+01 0.00000E+00
 -1      1093 5.50350E+01 2.21922E+01 0.00000E+00
 -1      1094 1.06571E+02 2.49994E+01 0.00000E+00
 -1      1095 4.75350E+01 1.95942E+01 0.00000E+00
 -1      1096 2.07513E+01 2.00124E+01 0.00000E+00
 -1      1097 5.20350E+01 2.21922E+01 0.00000E+00
 -1      1098 2.50350E+01 2.21922E+01 0.00000E+00
 -1      1099 3.10350E+01 2.21922E+01 0.00000E+00
 -1      1100 2.56500E+01 2.66180E+01 0.00000E+00
 -1      1101 4.00350E+01 2.21922E+01 0.00000E+00
 -1      1102 4.30350E+01 2.21922E+01 0.00000E+00
 -1      1103 3.91500E+01 2.40200E+01 0.00000E+00
 -1      1104 4.81500E+01 2.40200E+01 0.00000E+00
 -1      1105 3.40350E+01 2.21922E+01 0.00000E+00
 -1      1106 3.70350E+01 2.21922E+01 0.00000E+00
 -1      1107 4.55925E+01 2.31061E+01 0.00000E+00
 -1      1108 0.00000E+00 4.85250E+01 0.00000E+00
 -1      1109 0.00000E+00 4.55750E+01 0.00000E+00
 -1      1110 0.00000E+00 4.26250E+01 0.00000E+00
 -1      1111 0.00000E+00 3.96750E+01 0.00000E+00
 -1      1112 0.00000E+00 3.67250E+01 0.00000E+00
 -1      1113 0.00000E+00 3.38000E+01 0.00000E+00
 -1      1114 0.00000E+00 3.08750E+01 0.00000E+00
 -1      1115 0.00000E+00 2.79250E+01 0.00000E+00
 -1      1116 0.00000E+00 2.49750E+01 0.00000E+00
 -1      1117 0.00000E+00 2.20250E+01 0.00000E+00
 -1      1118 0.00000E+00 1.90750E+01 0.00000E+00
 -1      1119 0.00000E+00 1.61500E+01 0.00000E+00
 -1      1120 0.00000E+00 1.32250E+01 0.00000E+00
 -1      1121 0.00000E+00 1.02750E+01 0.00000E+00
 -1      1122 0.00000E+00 7.32500E+00 0.00000E+00
 -1      1123 0.00000E+00 4.37500E+00 0.00000E+00
 -1      1124 0.00000E+00 1.45000E+00 0.00000E+00
 -1      1125 1.57500E+00 5.00000E+01 0.00000E+00
 -1      1126 4.65000E+00 5.00000E+01 0.00000E+00
 -1      1127 7.65000E+00 5.00000E+01 0.00000E+00
 -1      1128 1.06500E+01 5.00000E+01 0.00000E+00
 -1      1129 1.36500E+01 5.00000E+01 0.00000E+00
 -1      1130 1.66500E+01 5.00000E+01 0.00000E+00
 -1      1131 1.96500E+01 5.00000E+01 0.00000E+00
 -1      1132 2.26500E+01 5.00000E+01 0.00000E+00
 -1      1133 2.56500E+01 5.00000E+01 0.00000E+00
 -1      1134 2.86500E+01 5.00000E+01 0.00000E+00
 -1      1135 3.16500E+01 5.00000E+01 0.00000E+00
 -1      1136 3.46500E+01 5.00000E+01 0.00000E+00
 -1      1137 3.76500E+01 5.00000E+01 0.00000E+00
 -1      1138 4.06500E+01 5.00000E+01 0.00000E+00
 -1      1139 4.36500E+01 5.00000E+01 0.00000E+00
 -1      1140 4.66500E+01 5.00000E+01 0.00000E+00
 -1      1141 4.96500E+01 5.00000E+01 0.00000E+00
 -1      1142 5.26500E+01 5.00000E+01 0.00000E+00
 -1      1143 5.56500E+01 5.00000E+01 0.00000E+00
 -1      1144 5.86500E+01 5.00000E+01 0.00000E+00
 -1      1145 6.16500E+01 5.00000E+01 0.00000E+00
 -1      1146 6.46500E+01 5.00000E+01 0.00000E+00
 -1      1147 6.76500E+01 5.00000E+01 0.00000E+00
 -1      1148 7.06500E+01 5.00000E+01 0.00000E+00
 -1      1149 7.36500E+01 5.00000E+01 0.00000E+00
 -1      1150 7.66500E+01 5.00000E+01 0.00000E+00
 -1      1151 7.96500E+01 5.00000E+01 0.00000E+00
 -1      1152 8.26500E+01 5.00000E+01 0.00000E+00
 -1      1153 8.56500E+01 5.00000E+01 0.00000E+00
 -1      1154 8.86500E+01 5.00000E+01 0.00000E+00
 -1      1155 9.16500E+01 5.00000E+01 0.00000E+00
 -1      1156 9.46500E+01 5.00000E+01 0.00000E+00
 -1      1157 9.76500E+01 5.00000E+01 0.00000E+00
 -1      1158 1.00650E+02 5.00000E+01 0.00000E+00
 -1      1159 1.03650E+02 5.00000E+01 0.00000E+00
 -1      1160 1.06650E+02 5.00000E+01 0.00000E+00
 -1      1161 1.09650E+02 5.00000E+01 0.00000E+00
 -1      1162 1.12650E+02 5.00000E+01 0.00000E+00
 -1      1163 1.15650E+02 5.00000E+01 0.00000E+00
 -1      1164 1.18650E+02 5.00000E+01 0.00000E+00
 -1      1165 1.21650E+02 5.00000E+01 0.00000E+00
 -1      1166 1.24650E+02 5.00000E+01 0.00000E+00
 -1      1167 1.27650E+02 5.00000E+01 0.00000E+00
 -1      1168 1.30650E+02 5.00000E+01 0.00000E+00
 -1      1169 1.33650E+02 5.00000E+01 0.00000E+00
 -1      1170 1.36650E+02 5.00000E+01 0.00000E+00
 -1      1171 1.39650E+02 5.00000E+01 0.00000E+00
 -1      1172 1.42650E+02 5.00000E+01 0.00000E+00
 -1      1173 1.45650E+02 5.00000E+01 0.00000E+00
 -1      1174 1.48575E+02 5.00000E+01 0.00000E+00
 -1      1175 1.57500E+00 0.00000E+00 0.00000E+00
 -1      1176 4.65000E+00 0.00000E+00 0.00000E+00
 -1      1177 7.65000E+00 0.00000E+00 0.00000E+00
 -1      1178 1.06500E+01 0.00000E+00 0.00000E+00
 -1      1179 1.36500E+01 0.00000E+00 0.00000E+00
 -1      1180 1.66500E+01 0.00000E+00 0.00000E+00
 -1      1181 1.96500E+01 0.00000E+00 0.00000E+00
 -1      1182 2.26500E+01 0.00000E+00 0.00000E+00
 -1      1183 2.56500E+01 0.00000E+00 0.00000E+00
 -1      1184 2.86500E+01 0.00000E+00 0.00000E+00
 -1      1185 3.16500E+01 0.00000E+00 0.00000E+00
 -1      1186 3.46500E+01 0.00000E+00 0.00000E+00
 -1      1187 3.76500E+01 0.00000E+00 0.00000E+00
 -1      1188 4.06500E+01 0.00000E+00 0.00000E+00
 -1      1189 4.36500E+01 0.00000E+00 0.00000E+00
 -1      1190 4.66500E+01 0.00000E+00 0.00000E+00
 -1      1191 4.96500E+01 0.00000E+00 0.00000E+00
 -1      1192 5.26500E+01 0.00000E+00 0.00000E+00
 -1      1193 5.56500E+01 0.00000E+00 0.00000E+00
 -1      1194 5.86500E+01 0.00000E+00 0.00000E+00
 -1      1195 6.16500E+01 0.00000E+00 0.00000E+00
 -1      1196 6.46500E+01 0.00000E+00 0.00000E+00
 -1      1197 6.76500E+01 0.00000E+00 0.00000E+00
 -1      1198 7.06500E+01 0.00000E+00 0.00000E+00
 -1      1199 7.36500E+01 0.00000E+00 0.00000E+00
 -1      1200 7.66500E+01 0.00000E+00 0.00000E+00
 -1      1201 7.96500E+01 0.00000E+00 0.00000E+00
 -1      1202 8.26500E+01 0.00000E+00 0.00000E+00
 -1      1203 8.56500E+01 0.00000E+00 0.00000E+00
 -1      1204 8.86500E+01 0.00000E+00 0.00000E+00
 -1      1205 9.16500E+01 0.00000E+00 0.00000E+00
 -1      1206 9.46500E+01 0.00000E+00 0.00000E+00
 -1      1207 9.76500E+01 0.00000E+00 0.00000E+00
 -1      1208 1.00650E+02 0.00000E+00 0.00000E+00
 -1      1209 1.03650E+02 0.00000E+00 0.00000E+00
 -1      1210 1.06650E+02 0.00000E+00 0.00000E+00
 -1      1211 1.09650E+02 0.00000E+00 0.00000E+00
 -1      1212 1.12650E+02 0.00000E+00 0.00000E+00
 -1      1213 1.15650E+02 0.00000E+00 0.00000E+00
 -1      1214 1.18650E+02 0.00000E+00 0.00000E+00
 -1      1215 1.21650E+02 0.00000E+00 0.00000E+00
 -1      1216 1.24650E+02 0.00000E+00 0.00000E+00
 -1      1217 1.27650E+02 0.00000E+00 0.00000E+00
 -1      1218 1.30650E+02 0.00000E+00 0.00000E+00
 -1      1219 1.33650E+02 0.00000E+00 0.00000E+00
 -1      1220 1.36650E+02 0.00000E+00 0.00000E+00
 -1      1221 1.39650E+02 0.00000E+00 0.00000E+00
 -1      1222 1.42650E+02 0.00000E+00 0.00000E+00
 -1      1223 1.45650E+02 0.00000E+00 0.00000E+00
 -1      1224 1.48575E+02 0.00000E+00 0.00000E+00
 -1      1225 1.50000E+02 1.47500E+00 0.00000E+00
 -1      1226 1.50000E+02 4.42500E+00 0.00000E+00
 -1      1227 1.50000E+02 7.37500E+00 0.00000E+00
 -1      1228 1.50000E+02 1.03250E+01 0.00000E+00
 -1      1229 1.50000E+02 1.32750E+01 0.00000E+00
 -1      1230 1.50000E+02 1.62000E+01 0.00000E+00
 -1      1231 1.50000E+02 1.91250E+01 0.00000E+00
 -1      1232 1.50000E+02 2.20750E+01 0.00000E+00
 -1      1233 1.50000E+02 2.50250E+01 0.00000E+00
 -1      1234 1.50000E+02 2.79750E+01 0.00000E+00
 -1      1235 1.50000E+02 3.09250E+01 0.00000E+00
 -1      1236 1.50000E+02 3.38500E+01 0.00000E+00
 -1      1237 1.50000E+02 3.67750E+01 0.00000E+00
 -1      1238 1.50000E+02 3.97250E+01 0.00000E+00
 -1      1239 1.50000E+02 4.26750E+01 0.00000E+00
 -1      1240 1.50000E+02 4.56250E+01 0.00000E+00
 -1      1241 1.50000E+02 4.85500E+01 0.00000E+00
 -1      1242 1.35398E+02 2.23514E+01 0.00000E+00
 -1      1243 1.35084E+02 2.09149E+01 0.00000E+00
 -1      1244 1.34458E+02 1.95423E+01 0.00000E+00
 -1      1245 1.33528E+02 1.83092E+01 0.00000E+00
 -1      1246 1.32421E+02 1.73597E+01 0.00000E+00
 -1      1247 1.31116E+02 1.66490E+01 0.00000E+00
 -1      1248 1.29651E+02 1.62227E+01 0.00000E+00
 -1      1249 1.28129E+02 1.61241E+01 0.00000E+00
 -1      1250 1.26537E+02 1.63809E+01 0.00000E+00
 -1      1251 1.25095E+02 1.69680E+01 0.00000E+00
 -1      1252 1.23857E+02 1.78263E+01 0.00000E+00
 -1      1253 1.22804E+02 1.89658E+01 0.00000E+00
 -1      1254 1.22044E+02 2.02736E+01 0.00000E+00
 -1      1255 1.21584E+02 2.17041E+01 0.00000E+00
 -1      1256 1.21440E+02 2.31937E+01 0.00000E+00
 -1      1257 1.21620E+02 2.46943E+01 0.00000E+00
 -1      1258 1.22116E+02 2.61182E+01 0.00000E+00
 -1      1259 1.22933E+02 2.74380E+01 0.00000E+00
 -1      1260 1.24054E+02 2.85726E+01 0.00000E+00
 -1      1261 1.25339E+02 2.93928E+01 0.00000E+00
 -1      1262 1.26735E+02 2.99063E+01 0.00000E+00
 -1      1263 1.28230E+02 3.01140E+01 0.00000E+00
 -1      1264 1.29703E+02 3.00023E+01 0.00000E+00
 -1      1265 1.31119E+02 2.95840E+01 0.00000E+00
 -1      1266 1.32436E+02 2.88646E+01 0.00000E+00
 -1      1267 1.33553E+02 2.78979E+01 0.00000E+00
 -1      1268 1.34433E+02 2.67340E+01 0.00000E+00
 -1      1269 1.35068E+02 2.53672E+01 0.00000E+00
 -1      1270 1.35399E+02 2.38691E+01 0.00000E+00
 -1      1271 1.57500E+00 4.85250E+01 0.00000E+00
 -1      1272 1.29900E+00 4.48375E+01 0.00000E+00
 -1      1273 1.29900E+00 4.63125E+01 0.00000E+00
 -1      1274 1.29900E+00 4.18875E+01 0.00000E+00
 -1      1275 1.29900E+00 4.33625E+01 0.00000E+00
 -1      1276 2.59800E+00 4.41000E+01 0.00000E+00
 -1      1277 1.29900E+00 3.89375E+01 0.00000E+00
 -1      1278 1.29900E+00 4.04125E+01 0.00000E+00
 -1      1279 2.59800E+00 4.11500E+01 0.00000E+00
 -1      1280 1.29900E+00 3.59875E+01 0.00000E+00
 -1      1281 1.29900E+00 3.74625E+01 0.00000E+00
 -1      1282 2.59800E+00 3.82000E+01 0.00000E+00
 -1      1283 1.29900E+00 3.30875E+01 0.00000E+00
 -1      1284 1.29900E+00 3.45375E+01 0.00000E+00
 -1      1285 2.59800E+00 3.52750E+01 0.00000E+00
 -1      1286 1.29900E+00 3.01375E+01 0.00000E+00
 -1      1287 1.29900E+00 3.16125E+01 0.00000E+00
 -1      1288 2.59800E+00 3.23500E+01 0.00000E+00
 -1      1289 1.29900E+00 2.71875E+01 0.00000E+00
 -1      1290 1.29900E+00 2.86625E+01 0.00000E+00
 -1      1291 2.59800E+00 2.94000E+01 0.00000E+00
 -1      1292 1.29900E+00 2.42375E+01 0.00000E+00
 -1      1293 1.29900E+00 2.57125E+01 0.00000E+00
 -1      1294 2.59800E+00 2.64500E+01 0.00000E+00
 -1      1295 1.29900E+00 2.12875E+01 0.00000E+00
 -1      1296 1.29900E+00 2.27625E+01 0.00000E+00
 -1      1297 2.59800E+00 2.35000E+01 0.00000E+00
 -1      1298 1.29900E+00 1.83375E+01 0.00000E+00
 -1      1299 1.29900E+00 1.98125E+01 0.00000E+00
 -1      1300 2.59800E+00 2.05500E+01 0.00000E+00
 -1      1301 1.29900E+00 1.54375E+01 0.00000E+00
 -1      1302 1.29900E+00 1.68875E+01 0.00000E+00
 -1      1303 2.59800E+00 1.76250E+01 0.00000E+00
 -1      1304 1.29900E+00 1.24875E+01 0.00000E+00
 -1      1305 1.29900E+00 1.39625E+01 0.00000E+00
 -1      1306 2.59800E+00 1.47000E+01 0.00000E+00
 -1      1307 1.29900E+00 9.53750E+00 0.00000E+00
 -1      1308 1.29900E+00 1.10125E+01 0.00000E+00
 -1      1309 2.59800E+00 1.17500E+01 0.00000E+00
 -1      1310 1.29900E+00 6.58750E+00 0.00000E+00
 -1      1311 1.29900E+00 8.06250E+00 0.00000E+00
 -1      1312 2.59800E+00 8.80000E+00 0.00000E+00
 -1      1313 1.29900E+00 3.63750E+00 0.00000E+00
 -1      1314 1.29900E+00 5.11250E+00 0.00000E+00
 -1      1315 2.59800E+00 5.85000E+00 0.00000E+00
 -1      1316 1.43700E+00 1.09375E+00 0.00000E+00
 -1      1317 1.43700E+00 2.54375E+00 0.00000E+00
 -1      1318 2.73600E+00 3.28125E+00 0.00000E+00
 -1      1319 3.01200E+00 1.09375E+00 0.00000E+00
 -1      1320 3.90000E+00 4.87010E+01 0.00000E+00
 -1      1321 5.40000E+00 4.87010E+01 0.00000E+00
 -1      1322 6.90000E+00 4.87010E+01 0.00000E+00
 -1      1323 8.40000E+00 4.87010E+01 0.00000E+00
 -1      1324 6.15000E+00 4.74020E+01 0.00000E+00
 -1      1325 9.90000E+00 4.87010E+01 0.00000E+00
 -1      1326 1.14000E+01 4.87010E+01 0.00000E+00
 -1      1327 9.15000E+00 4.74020E+01 0.00000E+00
 -1      1328 1.29000E+01 4.87010E+01 0.00000E+00
 -1      1329 1.44000E+01 4.87010E+01 0.00000E+00
 -1      1330 1.21500E+01 4.74020E+01 0.00000E+00
 -1      1331 1.59000E+01 4.87010E+01 0.00000E+00
 -1      1332 1.74000E+01 4.87010E+01 0.00000E+00
 -1      1333 1.51500E+01 4.74020E+01 0.00000E+00
 -1      1334 1.89000E+01 4.87010E+01 0.00000E+00
 -1      1335 2.04000E+01 4.87010E+01 0.00000E+00
 -1      1336 1.81500E+01 4.74020E+01 0.00000E+00
 -1      1337 2.19000E+01 4.87010E+01 0.00000E+00
 -1      1338 2.34000E+01 4.87010E+01 0.00000E+00
 -1      1339 2.11500E+01 4.74020E+01 0.00000E+00
 -1      1340 2.49000E+01 4.87010E+01 0.00000E+00
 -1      1341 2.64000E+01 4.87010E+01 0.00000E+00
 -1      1342 2.41500E+01 4.74020E+01 0.00000E+00
 -1      1343 2.79000E+01 4.87010E+01 0.00000E+00
 -1      1344 2.94000E+01 4.87010E+01 0.00000E+00
 -1      1345 2.71500E+01 4.74020E+01 0.00000E+00
 -1      1346 3.09000E+01 4.87010E+01 0.00000E+00
 -1      1347 3.24000E+01 4.87010E+01 0.00000E+00
 -1      1348 3.01500E+01 4.74020E+01 0.00000E+00
 -1      1349 3.39000E+01 4.87010E+01 0.00000E+00
 -1      1350 3.54000E+01 4.87010E+01 0.00000E+00
 -1      1351 3.31500E+01 4.74020E+01 0.00000E+00
 -1      1352 3.69000E+01 4.87010E+01 0.00000E+00
 -1      1353 3.84000E+01 4.87010E+01 0.00000E+00
 -1      1354 3.61500E+01 4.74020E+01 0.00000E+00
 -1      1355 3.99000E+01 4.87010E+01 0.00000E+00
 -1      1356 4.14000E+01 4.87010E+01 0.00000E+00
 -1      1357 3.91500E+01 4.74020E+01 0.00000E+00
 -1      1358 4.29000E+01 4.87010E+01 0.00000E+00
 -1      1359 4.44000E+01 4.87010E+01 0.00000E+00
 -1      1360 4.21500E+01 4.74020E+01 0.00000E+00
 -1      1361 4.59000E+01 4.87010E+01 0.00000E+00
 -1      1362 4.74000E+01 4.87010E+01 0.00000E+00
 -1      1363 4.51500E+01 4.74020E+01 0.00000E+00
 -1      1364 4.89000E+01 4.87010E+01 0.00000E+00
 -1      1365 5.04000E+01 4.87010E+01 0.00000E+00
 -1      1366 4.81500E+01 4.74020E+01 0.00000E+00
 -1      1367 5.19000E+01 4.87010E+01 0.00000E+00
 -1      1368 5.34000E+01 4.87010E+01 0.00000E+00
 -1      1369 5.11500E+01 4.74020E+01 0.00000E+00
 -1      1370 5.49000E+01 4.87010E+01 0.00000E+00
 -1      1371 5.64000E+01 4.87010E+01 0.00000E+00
 -1      1372 5.41500E+01 4.74020E+01 0.00000E+00
 -1      1373 5.79000E+01 4.87010E+01 0.00000E+00
 -1      1374 5.94000E+01 4.87010E+01 0.00000E+00
 -1      1375 5.71500E+01 4.74020E+01 0.00000E+00
 -1      1376 6.09000E+01 4.87010E+01 0.00000E+00
 -1      1377 6.24000E+01 4.87010E+01 0.00000E+00
 -1      1378 6.01500E+01 4.74020E+01 0.00000E+00
 -1      1379 6.39000E+01 4.87010E+01 0.00000E+00
 -1      1380 6.54000E+01 4.87010E+01 0.00000E+00
 -1      1381 6.31500E+01 4.74020E+01 0.00000E+00
 -1      1382 6.69000E+01 4.87010E+01 0.00000E+00
 -1      1383 6.84000E+01 4.87010E+01 0.00000E+00
 -1      1384 6.61500E+01 4.74020E+01 0.00000E+00
 -1      1385 6.99000E+01 4.87010E+01 0.00000E+00
 -1      1386 7.14000E+01 4.87010E+01 0.00000E+00
 -1      1387 6.91500E+01 4.74020E+01 0.00000E+00
 -1      1388 7.29000E+01 4.87010E+01 0.00000E+00
 -1      1389 7.44000E+01 4.87010E+01 0.00000E+00
 -1      1390 7.21500E+01 4.74020E+01 0.00000E+00
 -1      1391 7.59000E+01 4.87010E+01 0.00000E+00
 -1      1392 7.74000E+01 4.87010E+01 0.00000E+00
 -1      1393 7.51500E+01 4.74020E+01 0.00000E+00
 -1      1394 7.89000E+01 4.87010E+01 0.00000E+00
 -1      1395 8.04000E+01 4.87010E+01 0.00000E+00
 -1      1396 7.81500E+01 4.74020E+01 0.00000E+00
 -1      1397 8.19000E+01 4.87010E+01 0.00000E+00
 -1      1398 8.34000E+01 4.87010E+01 0.00000E+00
 -1      1399 8.11500E+01 4.74020E+01 0.00000E+00
 -1      1400 8.49000E+01 4.87010E+01 0.00000E+00
 -1      1401 8.64000E+01 4.87010E+01 0.00000E+00
 -1      1402 8.41500E+01 4.74020E+01 0.00000E+00
 -1      1403 8.79000E+01 4.87010E+01 0.00000E+00
 -1      1404 8.94000E+01 4.87010E+01 0.00000E+00
 -1      1405 8.71500E+01 4.74020E+01 0.00000E+00
 -1      1406 9.09000E+01 4.87010E+01 0.00000E+00
 -1      1407 9.24000E+01 4.87010E+01 0.00000E+00
 -1      1408 9.01500E+01 4.74020E+01 0.00000E+00
 -1      1409 9.39000E+01 4.87010E+01 0.00000E+00
 -1      1410 9.54000E+01 4.87010E+01 0.00000E+00
 -1      1411 9.31500E+01 4.74020E+01 0.00000E+00
 -1      1412 9.69000E+01 4.87010E+01 0.00000E+00
 -1      1413 9.84000E+01 4.87010E+01 0.00000E+00
 -1      1414 9.61500E+01 4.74020E+01 0.00000E+00
 -1      1415 9.99000E+01 4.87010E+01 0.00000E+00
 -1      1416 1.01400E+02 4.87010E+01 0.00000E+00
 -1      1417 9.91500E+01 4.74020E+01 0.00000E+00
 -1      1418 1.02900E+02 4.87010E+01 0.00000E+00
 -1      1419 1.04400E+02 4.87010E+01 0.00000E+00
 -1      1420 1.02150E+02 4.74020E+01 0.00000E+00
 -1      1421 1.05900E+02 4.87010E+01 0.00000E+00
 -1      1422 1.07400E+02 4.87010E+01 0.00000E+00
 -1      1423 1.05150E+02 4.74020E+01 0.00000E+00
 -1      1424 1.08900E+02 4.87010E+01 0.00000E+00
 -1      1425 1.10400E+02 4.87010E+01 0.00000E+00
 -1      1426 1.08150E+02 4.74020E+01 0.00000E+00
 -1      1427 1.11900E+02 4.87010E+01 0.00000E+00
 -1      1428 1.13400E+02 4.87010E+01 0.00000E+00
 -1      1429 1.11150E+02 4.74020E+01 0.00000E+00
 -1      1430 1.14900E+02 4.87010E+01 0.00000E+00
 -1      1431 1.16400E+02 4.87010E+01 0.00000E+00
 -1      1432 1.14150E+02 4.74020E+01 0.00000E+00
 -1      1433 1.17900E+02 4.87010E+01 0.00000E+00
 -1      1434 1.19400E+02 4.87010E+01 0.00000E+00
 -1      1435 1.17150E+02 4.74020E+01 0.00000E+00
 -1      1436 1.20900E+02 4.87010E+01 0.00000E+00
 -1      1437 1.22400E+02 4.87010E+01 0.00000E+00
 -1      1438 1.20150E+02 4.74020E+01 0.00000E+00
 -1      1439 1.23900E+02 4.87010E+01 0.00000E+00
 -1      1440 1.25400E+02 4.87010E+01 0.00000E+00
 -1      1441 1.23150E+02 4.74020E+01 0.00000E+00
 -1      1442 1.26900E+02 4.87010E+01 0.00000E+00
 -1      1443 1.28400E+02 4.87010E+01 0.00000E+00
 -1      1444 1.26150E+02 4.74020E+01 0.00000E+00
 -1      1445 1.29900E+02 4.87010E+01 0.00000E+00
 -1      1446 1.31400E+02 4.87010E+01 0.00000E+00
 -1      1447 1.29150E+02 4.74020E+01 0.00000E+00
 -1      1448 1.32900E+02 4.87010E+01 0.00000E+00
 -1      1449 1.34400E+02 4.87010E+01 0.00000E+00
 -1      1450 1.32150E+02 4.74020E+01 0.00000E+00
 -1      1451 1.35900E+02 4.87010E+01 0.00000E+00
 -1      1452 1.37400E+02 4.87010E+01 0.00000E+00
 -1      1453 1.35150E+02 4.74020E+01 0.00000E+00
 -1      1454 1.38900E+02 4.87010E+01 0.00000E+00
 -1      1455 1.40400E+02 4.87010E+01 0.00000E+00
 -1      1456 1.38150E+02 4.74020E+01 0.00000E+00
 -1      1457 1.41900E+02 4.87010E+01 0.00000E+00
 -1      1458 1.43400E+02 4.87010E+01 0.00000E+00
 -1      1459 1.41150E+02 4.74020E+01 0.00000E+00
 -1      1460 1.44900E+02 4.87010E+01 0.00000E+00
 -1      1461 1.46400E+02 4.87010E+01 0.00000E+00
 -1      1462 1.44150E+02 4.74020E+01 0.00000E+00
 -1      1463 1.48575E+02 4.85500E+01 0.00000E+00
 -1      1464 1.47825E+02 4.72510E+01 0.00000E+00
 -1      1465 6.01200E+00 1.09375E+00 0.00000E+00
 -1      1466 4.51200E+00 1.09375E+00 0.00000E+00
 -1      1467 4.37400E+00 2.18750E+00 0.00000E+00
 -1      1468 9.01200E+00 1.09375E+00 0.00000E+00
 -1      1469 7.51200E+00 1.09375E+00 0.00000E+00
 -1      1470 7.37400E+00 2.18750E+00 0.00000E+00
 -1      1471 1.20120E+01 1.09375E+00 0.00000E+00
 -1      1472 1.05120E+01 1.09375E+00 0.00000E+00
 -1      1473 1.03740E+01 2.18750E+00 0.00000E+00
 -1      1474 1.50120E+01 1.09375E+00 0.00000E+00
 -1      1475 1.35120E+01 1.09375E+00 0.00000E+00
 -1      1476 1.33740E+01 2.18750E+00 0.00000E+00
 -1      1477 1.80120E+01 1.09375E+00 0.00000E+00
 -1      1478 1.65120E+01 1.09375E+00 0.00000E+00
 -1      1479 1.63740E+01 2.18750E+00 0.00000E+00
 -1      1480 2.10120E+01 1.09375E+00 0.00000E+00
 -1      1481 1.95120E+01 1.09375E+00 0.00000E+00
 -1      1482 1.93740E+01 2.18750E+00 0.00000E+00
 -1      1483 2.40120E+01 1.09375E+00 0.00000E+00
 -1      1484 2.25120E+01 1.09375E+00 0.00000E+00
 -1      1485 2.23740E+01 2.18750E+00 0.00000E+00
 -1      1486 2.70120E+01 1.09375E+00 0.00000E+00
 -1      1487 2.55120E+01 1.09375E+00 0.00000E+00
 -1      1488 2.53740E+01 2.18750E+00 0.00000E+00
 -1      1489 3.00120E+01 1.09375E+00 0.00000E+00
 -1      1490 2.85120E+01 1.09375E+00 0.00000E+00
 -1      1491 2.83740E+01 2.18750E+00 0.00000E+00
 -1      1492 3.30120E+01 1.09375E+00 0.00000E+00
 -1      1493 3.15120E+01 1.09375E+00 0.00000E+00
 -1      1494 3.13740E+01 2.18750E+00 0.00000E+00
 -1      1495 3.60120E+01 1.09375E+00 0.00000E+00
 -1      1496 3.45120E+01 1.09375E+00 0.00000E+00
 -1      1497 3.43740E+01 2.18750E+00 0.00000E+00
 -1      1498 3.90120E+01 1.09375E+00 0.00000E+00
 -1      1499 3.75120E+01 1.09375E+00 0.00000E+00
 -1      1500 3.73740E+01 2.18750E+00 0.00000E+00
 -1      1501 4.20120E+01 1.09375E+00 0.00000E+00
 -1      1502 4.05120E+01 1.09375E+00 0.00000E+00
 -1      1503 4.03740E+01 2.18750E+00 0.00000E+00
 -1      1504 4.50120E+01 1.09375E+00 0.00000E+00
 -1      1505 4.35120E+01 1.09375E+00 0.00000E+00
 -1      1506 4.33740E+01 2.18750E+00 0.00000E+00
 -1      1507 4.80120E+01 1.09375E+00 0.00000E+00
 -1      1508 4.65120E+01 1.09375E+00 0.00000E+00
 -1      1509 4.63740E+01 2.18750E+00 0.00000E+00
 -1      1510 5.10120E+01 1.09375E+00 0.00000E+00
 -1      1511 4.95120E+01 1.09375E+00 0.00000E+00
 -1      1512 4.93740E+01 2.18750E+00 0.00000E+00
 -1      1513 5.40120E+01 1.09375E+00 0.00000E+00
 -1      1514 5.25120E+01 1.09375E+00 0.00000E+00
 -1      1515 5.23740E+01 2.18750E+00 0.00000E+00
 -1      1516 5.70120E+01 1.09375E+00 0.00000E+00
 -1      1517 5.55120E+01 1.09375E+00 0.00000E+00
 -1      1518 5.53740E+01 2.18750E+00 0.00000E+00
 -1      1519 6.00120E+01 1.09375E+00 0.00000E+00
 -1      1520 5.85120E+01 1.09375E+00 0.00000E+00
 -1      1521 5.83740E+01 2.18750E+00 0.00000E+00
 -1      1522 6.30120E+01 1.09375E+00 0.00000E+00
 -1      1523 6.15120E+01 1.09375E+00 0.00000E+00
 -1      1524 6.13740E+01 2.18750E+00 0.00000E+00
 -1      1525 6.60120E+01 1.09375E+00 0.00000E+00
 -1      1526 6.45120E+01 1.09375E+00 0.00000E+00
 -1      1527 6.43740E+01 2.18750E+00 0.00000E+00
 -1      1528 6.90120E+01 1.09375E+00 0.00000E+00
 -1      1529 6.75120E+01 1.09375E+00 0.00000E+00
 -1      1530 6.73740E+01 2.18750E+00 0.00000E+00
 -1      1531 7.20120E+01 1.09375E+00 0.00000E+00
 -1      1532 7.05120E+01 1.09375E+00 0.00000E+00
 -1      1533 7.03740E+01 2.18750E+00 0.00000E+00
 -1      1534 7.50120E+01 1.09375E+00 0.00000E+00
 -1      1535 7.35120E+01 1.09375E+00 0.00000E+00
 -1      1536 7.33740E+01 2.18750E+00 0.00000E+00
 -1      1537 7.80120E+01 1.09375E+00 0.00000E+00
 -1      1538 7.65120E+01 1.09375E+00 0.00000E+00
 -1      1539 7.63740E+01 2.18750E+00 0.00000E+00
 -1      1540 8.10120E+01 1.09375E+00 0.00000E+00
 -1      1541 7.95120E+01 1.09375E+00 0.00000E+00
 -1      1542 7.93740E+01 2.18750E+00 0.00000E+00
 -1      1543 8.40120E+01 1.09375E+00 0.00000E+00
 -1      1544 8.25120E+01 1.09375E+00 0.00000E+00
 -1      1545 8.23740E+01 2.18750E+00 0.00000E+00
 -1      1546 8.70120E+01 1.09375E+00 0.00000E+00
 -1      1547 8.55120E+01 1.09375E+00 0.00000E+00
 -1      1548 8.53740E+01 2.18750E+00 0.00000E+00
 -1      1549 9.00120E+01 1.09375E+00 0.00000E+00
 -1      1550 8.85120E+01 1.09375E+00 0.00000E+00
 -1      1551 8.83740E+01 2.18750E+00 0.00000E+00
 -1      1552 9.30120E+01 1.09375E+00 0.00000E+00
 -1      1553 9.15120E+01 1.09375E+00 0.00000E+00
 -1      1554 9.13740E+01 2.18750E+00 0.00000E+00
 -1      1555 9.60120E+01 1.09375E+00 0.00000E+00
 -1      1556 9.45120E+01 1.09375E+00 0.00000E+00
 -1      1557 9.43740E+01 2.18750E+00 0.00000E+00
 -1      1558 9.90120E+01 1.09375E+00 0.00000E+00
 -1      1559 9.75120E+01 1.09375E+00 0.00000E+00
 -1      1560 9.73740E+01 2.18750E+00 0.00000E+00
 -1      1561 1.02012E+02 1.09375E+00 0.00000E+00
 -1      1562 1.00512E+02 1.09375E+00 0.00000E+00
 -1      1563 1.00374E+02 2.18750E+00 0.00000E+00
 -1      1564 1.05012E+02 1.09375E+00 0.00000E+00
 -1      1565 1.03512E+02 1.09375E+00 0.00000E+00
 -1      1566 1.03374E+02 2.18750E+00 0.00000E+00
 -1      1567 1.08012E+02 1.09375E+00 0.00000E+00
 -1      1568 1.06512E+02 1.09375E+00 0.00000E+00
 -1      1569 1.06374E+02 2.18750E+00 0.00000E+00
 -1      1570 1.11012E+02 1.09375E+00 0.00000E+00
 -1      1571 1.09512E+02 1.09375E+00 0.00000E+00
 -1      1572 1.09374E+02 2.18750E+00 0.00000E+00
 -1      1573 1.14012E+02 1.09375E+00 0.00000E+00
 -1      1574 1.12512E+02 1.09375E+00 0.00000E+00
 -1      1575 1.12374E+02 2.18750E+00 0.00000E+00
 -1      1576 1.17012E+02 1.09375E+00 0.00000E+00
 -1      1577 1.15512E+02 1.09375E+00 0.00000E+00
 -1      1578 1.15374E+02 2.18750E+00 0.00000E+00
 -1      1579 1.20012E+02 1.09375E+00 0.00000E+00
 -1      1580 1.18512E+02 1.09375E+00 0.00000E+00
 -1      1581 1.18374E+02 2.18750E+00 0.00000E+00
 -1      1582 1.23012E+02 1.09375E+00 0.00000E+00
 -1      1583 1.21512E+02 1.09375E+00 0.00000E+00
 -1      1584 1.21374E+02 2.18750E+00 0.00000E+00
 -1      1585 1.26012E+02 1.09375E+00 0.00000E+00
 -1      1586 1.24512E+02 1.09375E+00 0.00000E+00
 -1      1587 1.24374E+02 2.18750E+00 0.00000E+00
 -1      1588 1.29012E+02 1.09375E+00 0.00000E+00
 -1      1589 1.27512E+02 1.09375E+00 0.00000E+00
 -1      1590 1.27374E+02 2.18750E+00 0.00000E+00
 -1      1591 1.32012E+02 1.09375E+00 0.00000E+00
 -1      1592 1.30512E+02 1.09375E+00 0.00000E+00
 -1      1593 1.30374E+02 2.18750E+00 0.00000E+00
 -1      1594 1.35012E+02 1.09375E+00 0.00000E+00
 -1      1595 1.33512E+02 1.09375E+00 0.00000E+00
 -1      1596 1.33374E+02 2.18750E+00 0.00000E+00
 -1      1597 1.38012E+02 1.09375E+00 0.00000E+00
 -1      1598 1.36512E+02 1.09375E+00 0.00000E+00
 -1      1599 1.36374E+02 2.18750E+00 0.00000E+00
 -1      1600 1.41012E+02 1.09375E+00 0.00000E+00
 -1      1601 1.39512E+02 1.09375E+00 0.00000E+00
 -1      1602 1.39374E+02 2.18750E+00 0.00000E+00
 -1      1603 1.44012E+02 1.09375E+00 0.00000E+00
 -1      1604 1.42512E+02 1.09375E+00 0.00000E+00
 -1      1605 1.42374E+02 2.18750E+00 0.00000E+00
 -1      1606 1.47012E+02 1.09375E+00 0.00000E+00
 -1      1607 1.45512E+02 1.09375E+00 0.00000E+00
 -1      1608 1.45374E+02 2.18750E+00 0.00000E+00
 -1      1609 1.48575E+02 1.47500E+00 0.00000E+00
 -1      1610 1.48701E+02 5.16250E+00 0.00000E+00
 -1      1611 1.48701E+02 3.68750E+00 0.00000E+00
 -1      1612 1.48701E+02 8.11250E+00 0.00000E+00
 -1      1613 1.48701E+02 6.63750E+00 0.00000E+00
 -1      1614 1.47402E+02 5.90000E+00 0.00000E+00
 -1      1615 1.48701E+02 1.10625E+01 0.00000E+00
 -1      1616 1.48701E+02 9.58750E+00 0.00000E+00
 -1      1617 1.47402E+02 8.85000E+00 0.00000E+00
 -1      1618 1.48701E+02 1.40125E+01 0.00000E+00
 -1      1619 1.48701E+02 1.25375E+01 0.00000E+00
 -1      1620 1.47402E+02 1.18000E+01 0.00000E+00
 -1      1621 1.48701E+02 1.69125E+01 0.00000E+00
 -1      1622 1.48701E+02 1.54625E+01 0.00000E+00
 -1      1623 1.47402E+02 1.47250E+01 0.00000E+00
 -1      1624 1.48701E+02 1.98625E+01 0.00000E+00
 -1      1625 1.48701E+02 1.83875E+01 0.00000E+00
 -1      1626 1.47402E+02 1.76500E+01 0.00000E+00
 -1      1627 1.48701E+02 2.28125E+01 0.00000E+00
 -1      1628 1.48701E+02 2.13375E+01 0.00000E+00
 -1      1629 1.47402E+02 2.06000E+01 0.00000E+00
 -1      1630 1.48701E+02 2.57625E+01 0.00000E+00
 -1      1631 1.48701E+02 2.42875E+01 0.00000E+00
 -1      1632 1.47402E+02 2.35500E+01 0.00000E+00
 -1      1633 1.48701E+02 2.87125E+01 0.00000E+00
 -1      1634 1.48701E+02 2.72375E+01 0.00000E+00
 -1      1635 1.47402E+02 2.65000E+01 0.00000E+00
 -1      1636 1.48701E+02 3.16625E+01 0.00000E+00
 -1      1637 1.48701E+02 3.01875E+01 0.00000E+00
 -1      1638 1.47402E+02 2.94500E+01 0.00000E+00
 -1      1639 1.48701E+02 3.45625E+01 0.00000E+00
 -1      1640 1.48701E+02 3.31125E+01 0.00000E+00
 -1      1641 1.47402E+02 3.23750E+01 0.00000E+00
 -1      1642 1.48701E+02 3.75125E+01 0.00000E+00
 -1      1643 1.48701E+02 3.60375E+01 0.00000E+00
 -1      1644 1.47402E+02 3.53000E+01 0.00000E+00
 -1      1645 1.48701E+02 4.04625E+01 0.00000E+00
 -1      1646 1.48701E+02 3.89875E+01 0.00000E+00
 -1      1647 1.47402E+02 3.82500E+01 0.00000E+00
 -1      1648 1.48701E+02 4.34125E+01 0.00000E+00
 -1      1649 1.48701E+02 4.19375E+01 0.00000E+00
 -1      1650 1.47402E+02 4.12000E+01 0.00000E+00
 -1      1651 1.48263E+02 4.60692E+01 0.00000E+00
 -1      1652 1.48263E+02 4.45942E+01 0.00000E+00
 -1      1653 1.46964E+02 4.38568E+01 0.00000E+00
 -1      1654 1.46088E+02 4.62202E+01 0.00000E+00
 -1      1655 1.36000E+02 2.19000E+01 0.00000E+00
 -1      1656 1.36084E+02 2.26611E+01 0.00000E+00
 -1      1657 1.35515E+02 2.04009E+01 0.00000E+00
 -1      1658 1.35737E+02 2.10697E+01 0.00000E+00
 -1      1659 1.34806E+02 1.88679E+01 0.00000E+00
 -1      1660 1.35217E+02 1.95592E+01 0.00000E+00
 -1      1661 1.33685E+02 1.76507E+01 0.00000E+00
 -1      1662 1.34194E+02 1.81891E+01 0.00000E+00
 -1      1663 1.32450E+02 1.66875E+01 0.00000E+00
 -1      1664 1.33040E+02 1.70953E+01 0.00000E+00
 -1      1665 1.30993E+02 1.59423E+01 0.00000E+00
 -1      1666 1.31703E+02 1.62363E+01 0.00000E+00
 -1      1667 1.29375E+02 1.56006E+01 0.00000E+00
 -1      1668 1.30121E+02 1.57316E+01 0.00000E+00
 -1      1669 1.27718E+02 1.55359E+01 0.00000E+00
 -1      1670 1.28485E+02 1.55018E+01 0.00000E+00
 -1      1671 1.25934E+02 1.58004E+01 0.00000E+00
 -1      1672 1.26747E+02 1.55706E+01 0.00000E+00
 -1      1673 1.24510E+02 1.66372E+01 0.00000E+00
 -1      1674 1.25135E+02 1.62973E+01 0.00000E+00
 -1      1675 1.23106E+02 1.75679E+01 0.00000E+00
 -1      1676 1.23708E+02 1.70470E+01 0.00000E+00
 -1      1677 1.22091E+02 1.89100E+01 0.00000E+00
 -1      1678 1.22539E+02 1.83014E+01 0.00000E+00
 -1      1679 1.21297E+02 2.03557E+01 0.00000E+00
 -1      1680 1.21604E+02 1.96642E+01 0.00000E+00
 -1      1681 1.20913E+02 2.19465E+01 0.00000E+00
 -1      1682 1.21064E+02 2.12162E+01 0.00000E+00
 -1      1683 1.20795E+02 2.35763E+01 0.00000E+00
 -1      1684 1.20787E+02 2.28254E+01 0.00000E+00
 -1      1685 1.21115E+02 2.52014E+01 0.00000E+00
 -1      1686 1.20943E+02 2.44606E+01 0.00000E+00
 -1      1687 1.21765E+02 2.66985E+01 0.00000E+00
 -1      1688 1.21444E+02 2.60233E+01 0.00000E+00
 -1      1689 1.22642E+02 2.81777E+01 0.00000E+00
 -1      1690 1.22145E+02 2.75446E+01 0.00000E+00
 -1      1691 1.23905E+02 2.93884E+01 0.00000E+00
 -1      1692 1.23289E+02 2.88932E+01 0.00000E+00
 -1      1693 1.25416E+02 3.00642E+01 0.00000E+00
 -1      1694 1.24758E+02 2.97390E+01 0.00000E+00
 -1      1695 1.26952E+02 3.05872E+01 0.00000E+00
 -1      1696 1.26221E+02 3.04037E+01 0.00000E+00
 -1      1697 1.28590E+02 3.07322E+01 0.00000E+00
 -1      1698 1.27834E+02 3.07095E+01 0.00000E+00
 -1      1699 1.30190E+02 3.06619E+01 0.00000E+00
 -1      1700 1.29482E+02 3.07918E+01 0.00000E+00
 -1      1701 1.31701E+02 2.99999E+01 0.00000E+00
 -1      1702 1.31002E+02 3.02897E+01 0.00000E+00
 -1      1703 1.33064E+02 2.91178E+01 0.00000E+00
 -1      1704 1.32454E+02 2.95420E+01 0.00000E+00
 -1      1705 1.34249E+02 2.80459E+01 0.00000E+00
 -1      1706 1.33747E+02 2.85824E+01 0.00000E+00
 -1      1707 1.35107E+02 2.67174E+01 0.00000E+00
 -1      1708 1.34733E+02 2.73380E+01 0.00000E+00
 -1      1709 1.35806E+02 2.52045E+01 0.00000E+00
 -1      1710 1.35555E+02 2.59453E+01 0.00000E+00
 -1      1711 1.36044E+02 2.35606E+01 0.00000E+00
 -1      1712 1.35963E+02 2.43082E+01 0.00000E+00
 -1      1713 1.33735E+02 1.69481E+01 0.00000E+00
 -1      1714 1.34992E+02 1.81823E+01 0.00000E+00
 -1      1715 1.48437E+02 2.56875E+00 0.00000E+00
 -1      1716 1.47138E+02 3.30625E+00 0.00000E+00
 -1      1717 1.36465E+02 2.13748E+01 0.00000E+00
 -1      1718 1.35903E+02 1.97029E+01 0.00000E+00
 -1      1719 1.36688E+02 2.31045E+01 0.00000E+00
 -1      1720 1.32343E+02 1.59416E+01 0.00000E+00
 -1      1721 1.30725E+02 1.52798E+01 0.00000E+00
 -1      1722 1.28963E+02 1.49702E+01 0.00000E+00
 -1      1723 1.27101E+02 1.49061E+01 0.00000E+00
 -1      1724 1.25332E+02 1.54378E+01 0.00000E+00
 -1      1725 1.23731E+02 1.63445E+01 0.00000E+00
 -1      1726 1.22360E+02 1.74878E+01 0.00000E+00
 -1      1727 1.21307E+02 1.89755E+01 0.00000E+00
 -1      1728 1.20587E+02 2.05901E+01 0.00000E+00
 -1      1729 1.20227E+02 2.23294E+01 0.00000E+00
 -1      1730 1.20249E+02 2.40927E+01 0.00000E+00
 -1      1731 1.20727E+02 2.57989E+01 0.00000E+00
 -1      1732 1.21437E+02 2.74669E+01 0.00000E+00
 -1      1733 1.22465E+02 2.90283E+01 0.00000E+00
 -1      1734 1.23965E+02 3.00944E+01 0.00000E+00
 -1      1735 1.25624E+02 3.07845E+01 0.00000E+00
 -1      1736 1.27311E+02 3.12463E+01 0.00000E+00
 -1      1737 1.29084E+02 3.14283E+01 0.00000E+00
 -1      1738 1.30788E+02 3.11158E+01 0.00000E+00
 -1      1739 1.32353E+02 3.02856E+01 0.00000E+00
 -1      1740 1.33788E+02 2.92922E+01 0.00000E+00
 -1      1741 1.34955E+02 2.80489E+01 0.00000E+00
 -1      1742 1.35886E+02 2.65688E+01 0.00000E+00
 -1      1743 1.36491E+02 2.49004E+01 0.00000E+00
 -1      1744 2.87400E+00 4.77875E+01 0.00000E+00
 -1      1745 3.89700E+00 4.04125E+01 0.00000E+00
 -1      1746 3.89700E+00 4.18875E+01 0.00000E+00
 -1      1747 3.89700E+00 4.33625E+01 0.00000E+00
 -1      1748 3.89700E+00 4.48375E+01 0.00000E+00
 -1      1749 5.19600E+00 4.26250E+01 0.00000E+00
 -1      1750 3.89700E+00 3.45500E+01 0.00000E+00
 -1      1751 3.89700E+00 3.60000E+01 0.00000E+00
 -1      1752 3.89700E+00 3.16000E+01 0.00000E+00
 -1      1753 3.89700E+00 3.30750E+01 0.00000E+00
 -1      1754 5.19600E+00 3.38000E+01 0.00000E+00
 -1      1755 3.89700E+00 2.86500E+01 0.00000E+00
 -1      1756 3.89700E+00 3.01250E+01 0.00000E+00
 -1      1757 5.19600E+00 3.08500E+01 0.00000E+00
 -1      1758 3.89700E+00 2.57000E+01 0.00000E+00
 -1      1759 3.89700E+00 2.71750E+01 0.00000E+00
 -1      1760 5.19600E+00 2.79000E+01 0.00000E+00
 -1      1761 3.89700E+00 2.27500E+01 0.00000E+00
 -1      1762 3.89700E+00 2.42250E+01 0.00000E+00
 -1      1763 5.19600E+00 2.49500E+01 0.00000E+00
 -1      1764 3.89700E+00 1.98000E+01 0.00000E+00
 -1      1765 3.89700E+00 2.12750E+01 0.00000E+00
 -1      1766 5.19600E+00 2.20000E+01 0.00000E+00
 -1      1767 3.89700E+00 1.69000E+01 0.00000E+00
 -1      1768 3.89700E+00 1.83500E+01 0.00000E+00
 -1      1769 5.19600E+00 1.90750E+01 0.00000E+00
 -1      1770 3.89700E+00 1.39500E+01 0.00000E+00
 -1      1771 3.89700E+00 1.54250E+01 0.00000E+00
 -1      1772 5.19600E+00 1.61500E+01 0.00000E+00
 -1      1773 3.89700E+00 1.10000E+01 0.00000E+00
 -1      1774 3.89700E+00 1.24750E+01 0.00000E+00
 -1      1775 5.19600E+00 1.32000E+01 0.00000E+00
 -1      1776 3.89700E+00 8.05000E+00 0.00000E+00
 -1      1777 3.89700E+00 9.52500E+00 0.00000E+00
 -1      1778 5.19600E+00 1.02500E+01 0.00000E+00
 -1      1779 3.89700E+00 5.10000E+00 0.00000E+00
 -1      1780 3.89700E+00 6.57500E+00 0.00000E+00
 -1      1781 5.19600E+00 7.30000E+00 0.00000E+00
 -1      1782 4.20450E+00 3.09687E+00 0.00000E+00
 -1      1783 4.06650E+00 4.19063E+00 0.00000E+00
 -1      1784 5.36550E+00 4.91563E+00 0.00000E+00
 -1      1785 5.70450E+00 3.09687E+00 0.00000E+00
 -1      1786 3.62400E+00 4.64885E+01 0.00000E+00
 -1      1787 8.70450E+00 3.09687E+00 0.00000E+00
 -1      1788 7.20450E+00 3.09687E+00 0.00000E+00
 -1      1789 7.03500E+00 4.00625E+00 0.00000E+00
 -1      1790 4.92300E+00 4.57510E+01 0.00000E+00
 -1      1791 8.40000E+00 4.61030E+01 0.00000E+00
 -1      1792 9.90000E+00 4.61030E+01 0.00000E+00
 -1      1793 1.14000E+01 4.61030E+01 0.00000E+00
 -1      1794 1.29000E+01 4.61030E+01 0.00000E+00
 -1      1795 1.06500E+01 4.48040E+01 0.00000E+00
 -1      1796 1.44000E+01 4.61030E+01 0.00000E+00
 -1      1797 1.59000E+01 4.61030E+01 0.00000E+00
 -1      1798 1.36500E+01 4.48040E+01 0.00000E+00
 -1      1799 1.74000E+01 4.61030E+01 0.00000E+00
 -1      1800 1.89000E+01 4.61030E+01 0.00000E+00
 -1      1801 1.66500E+01 4.48040E+01 0.00000E+00
 -1      1802 2.04000E+01 4.61030E+01 0.00000E+00
 -1      1803 2.19000E+01 4.61030E+01 0.00000E+00
 -1      1804 1.96500E+01 4.48040E+01 0.00000E+00
 -1      1805 2.34000E+01 4.61030E+01 0.00000E+00
 -1      1806 2.49000E+01 4.61030E+01 0.00000E+00
 -1      1807 2.26500E+01 4.48040E+01 0.00000E+00
 -1      1808 2.64000E+01 4.61030E+01 0.00000E+00
 -1      1809 2.79000E+01 4.61030E+01 0.00000E+00
 -1      1810 2.56500E+01 4.48040E+01 0.00000E+00
 -1      1811 2.94000E+01 4.61030E+01 0.00000E+00
 -1      1812 3.09000E+01 4.61030E+01 0.00000E+00
 -1      1813 2.86500E+01 4.48040E+01 0.00000E+00
 -1      1814 3.24000E+01 4.61030E+01 0.00000E+00
 -1      1815 3.39000E+01 4.61030E+01 0.00000E+00
 -1      1816 3.16500E+01 4.48040E+01 0.00000E+00
 -1      1817 3.54000E+01 4.61030E+01 0.00000E+00
 -1      1818 3.69000E+01 4.61030E+01 0.00000E+00
 -1      1819 3.46500E+01 4.48040E+01 0.00000E+00
 -1      1820 3.84000E+01 4.61030E+01 0.00000E+00
 -1      1821 3.99000E+01 4.61030E+01 0.00000E+00
 -1      1822 3.76500E+01 4.48040E+01 0.00000E+00
 -1      1823 4.14000E+01 4.61030E+01 0.00000E+00
 -1      1824 4.29000E+01 4.61030E+01 0.00000E+00
 -1      1825 4.06500E+01 4.48040E+01 0.00000E+00
 -1      1826 4.44000E+01 4.61030E+01 0.00000E+00
 -1      1827 4.59000E+01 4.61030E+01 0.00000E+00
 -1      1828 4.36500E+01 4.48040E+01 0.00000E+00
 -1      1829 4.74000E+01 4.61030E+01 0.00000E+00
 -1      1830 4.89000E+01 4.61030E+01 0.00000E+00
 -1      1831 4.66500E+01 4.48040E+01 0.00000E+00
 -1      1832 5.04000E+01 4.61030E+01 0.00000E+00
 -1      1833 5.19000E+01 4.61030E+01 0.00000E+00
 -1      1834 4.96500E+01 4.48040E+01 0.00000E+00
 -1      1835 5.34000E+01 4.61030E+01 0.00000E+00
 -1      1836 5.49000E+01 4.61030E+01 0.00000E+00
 -1      1837 5.26500E+01 4.48040E+01 0.00000E+00
 -1      1838 5.64000E+01 4.61030E+01 0.00000E+00
 -1      1839 5.79000E+01 4.61030E+01 0.00000E+00
 -1      1840 5.56500E+01 4.48040E+01 0.00000E+00
 -1      1841 5.94000E+01 4.61030E+01 0.00000E+00
 -1      1842 6.09000E+01 4.61030E+01 0.00000E+00
 -1      1843 5.86500E+01 4.48040E+01 0.00000E+00
 -1      1844 6.24000E+01 4.61030E+01 0.00000E+00
 -1      1845 6.39000E+01 4.61030E+01 0.00000E+00
 -1      1846 6.16500E+01 4.48040E+01 0.00000E+00
 -1      1847 6.54000E+01 4.61030E+01 0.00000E+00
 -1      1848 6.69000E+01 4.61030E+01 0.00000E+00
 -1      1849 6.46500E+01 4.48040E+01 0.00000E+00
 -1      1850 6.84000E+01 4.61030E+01 0.00000E+00
 -1      1851 6.99000E+01 4.61030E+01 0.00000E+00
 -1      1852 6.76500E+01 4.48040E+01 0.00000E+00
 -1      1853 7.14000E+01 4.61030E+01 0.00000E+00
 -1      1854 7.29000E+01 4.61030E+01 0.00000E+00
 -1      1855 7.06500E+01 4.48040E+01 0.00000E+00
 -1      1856 7.44000E+01 4.61030E+01 0.00000E+00
 -1      1857 7.59000E+01 4.61030E+01 0.00000E+00
 -1      1858 7.36500E+01 4.48040E+01 0.00000E+00
 -1      1859 7.74000E+01 4.61030E+01 0.00000E+00
 -1      1860 7.89000E+01 4.61030E+01 0.00000E+00
 -1      1861 7.66500E+01 4.48040E+01 0.00000E+00
 -1      1862 8.04000E+01 4.61030E+01 0.00000E+00
 -1      1863 8.19000E+01 4.61030E+01 0.00000E+00
 -1      1864 7.96500E+01 4.48040E+01 0.00000E+00
 -1      1865 8.34000E+01 4.61030E+01 0.00000E+00
 -1      1866 8.49000E+01 4.61030E+01 0.00000E+00
 -1      1867 8.26500E+01 4.48040E+01 0.00000E+00
 -1      1868 8.64000E+01 4.61030E+01 0.00000E+00
 -1      1869 8.79000E+01 4.61030E+01 0.00000E+00
 -1      1870 8.56500E+01 4.48040E+01 0.00000E+00
 -1      1871 8.94000E+01 4.61030E+01 0.00000E+00
 -1      1872 9.09000E+01 4.61030E+01 0.00000E+00
 -1      1873 8.86500E+01 4.48040E+01 0.00000E+00
 -1      1874 9.24000E+01 4.61030E+01 0.00000E+00
 -1      1875 9.39000E+01 4.61030E+01 0.00000E+00
 -1      1876 9.16500E+01 4.48040E+01 0.00000E+00
 -1      1877 9.54000E+01 4.61030E+01 0.00000E+00
 -1      1878 9.69000E+01 4.61030E+01 0.00000E+00
 -1      1879 9.46500E+01 4.48040E+01 0.00000E+00
 -1      1880 9.84000E+01 4.61030E+01 0.00000E+00
 -1      1881 9.99000E+01 4.61030E+01 0.00000E+00
 -1      1882 9.76500E+01 4.48040E+01 0.00000E+00
 -1      1883 1.01400E+02 4.61030E+01 0.00000E+00
 -1      1884 1.02900E+02 4.61030E+01 0.00000E+00
 -1      1885 1.00650E+02 4.48040E+01 0.00000E+00
 -1      1886 1.04400E+02 4.61030E+01 0.00000E+00
 -1      1887 1.05900E+02 4.61030E+01 0.00000E+00
 -1      1888 1.03650E+02 4.48040E+01 0.00000E+00
 -1      1889 1.07400E+02 4.61030E+01 0.00000E+00
 -1      1890 1.08900E+02 4.61030E+01 0.00000E+00
 -1      1891 1.06650E+02 4.48040E+01 0.00000E+00
 -1      1892 1.10400E+02 4.61030E+01 0.00000E+00
 -1      1893 1.11900E+02 4.61030E+01 0.00000E+00
 -1      1894 1.09650E+02 4.48040E+01 0.00000E+00
 -1      1895 1.13400E+02 4.61030E+01 0.00000E+00
 -1      1896 1.14900E+02 4.61030E+01 0.00000E+00
 -1      1897 1.12650E+02 4.48040E+01 0.00000E+00
 -1      1898 1.16400E+02 4.61030E+01 0.00000E+00
 -1      1899 1.17900E+02 4.61030E+01 0.00000E+00
 -1      1900 1.15650E+02 4.48040E+01 0.00000E+00
 -1      1901 1.19400E+02 4.61030E+01 0.00000E+00
 -1      1902 1.20900E+02 4.61030E+01 0.00000E+00
 -1      1903 1.18650E+02 4.48040E+01 0.00000E+00
 -1      1904 1.22400E+02 4.61030E+01 0.00000E+00
 -1      1905 1.23900E+02 4.61030E+01 0.00000E+00
 -1      1906 1.21650E+02 4.48040E+01 0.00000E+00
 -1      1907 1.25400E+02 4.61030E+01 0.00000E+00
 -1      1908 1.26900E+02 4.61030E+01 0.00000E+00
 -1      1909 1.24650E+02 4.48040E+01 0.00000E+00
 -1      1910 1.28400E+02 4.61030E+01 0.00000E+00
 -1      1911 1.29900E+02 4.61030E+01 0.00000E+00
 -1      1912 1.27650E+02 4.48040E+01 0.00000E+00
 -1      1913 1.31400E+02 4.61030E+01 0.00000E+00
 -1      1914 1.32900E+02 4.61030E+01 0.00000E+00
 -1      1915 1.30650E+02 4.48040E+01 0.00000E+00
 -1      1916 1.34400E+02 4.61030E+01 0.00000E+00
 -1      1917 1.35900E+02 4.61030E+01 0.00000E+00
 -1      1918 1.33650E+02 4.48040E+01 0.00000E+00
 -1      1919 1.37400E+02 4.61030E+01 0.00000E+00
 -1      1920 1.38900E+02 4.61030E+01 0.00000E+00
 -1      1921 1.36650E+02 4.48040E+01 0.00000E+00
 -1      1922 1.40400E+02 4.61030E+01 0.00000E+00
 -1      1923 1.41900E+02 4.61030E+01 0.00000E+00
 -1      1924 1.39650E+02 4.48040E+01 0.00000E+00
 -1      1925 1.43244E+02 4.61616E+01 0.00000E+00
 -1      1926 1.44744E+02 4.61616E+01 0.00000E+00
 -1      1927 1.45182E+02 4.49799E+01 0.00000E+00
 -1      1928 1.42494E+02 4.48626E+01 0.00000E+00
 -1      1929 1.17045E+01 3.09687E+00 0.00000E+00
 -1      1930 1.02045E+01 3.09687E+00 0.00000E+00
 -1      1931 1.00350E+01 4.00625E+00 0.00000E+00
 -1      1932 1.47045E+01 3.09687E+00 0.00000E+00
 -1      1933 1.32045E+01 3.09687E+00 0.00000E+00
 -1      1934 1.30350E+01 4.00625E+00 0.00000E+00
 -1      1935 1.77045E+01 3.09687E+00 0.00000E+00
 -1      1936 1.62045E+01 3.09687E+00 0.00000E+00
 -1      1937 1.60350E+01 4.00625E+00 0.00000E+00
 -1      1938 2.07045E+01 3.09687E+00 0.00000E+00
 -1      1939 1.92045E+01 3.09687E+00 0.00000E+00
 -1      1940 1.90350E+01 4.00625E+00 0.00000E+00
 -1      1941 2.37045E+01 3.09687E+00 0.00000E+00
 -1      1942 2.22045E+01 3.09687E+00 0.00000E+00
 -1      1943 2.20350E+01 4.00625E+00 0.00000E+00
 -1      1944 2.67045E+01 3.09687E+00 0.00000E+00
 -1      1945 2.52045E+01 3.09687E+00 0.00000E+00
 -1      1946 2.50350E+01 4.00625E+00 0.00000E+00
 -1      1947 2.97045E+01 3.09687E+00 0.00000E+00
 -1      1948 2.82045E+01 3.09687E+00 0.00000E+00
 -1      1949 2.80350E+01 4.00625E+00 0.00000E+00
 -1      1950 3.27045E+01 3.09687E+00 0.00000E+00
 -1      1951 3.12045E+01 3.09687E+00 0.00000E+00
 -1      1952 3.10350E+01 4.00625E+00 0.00000E+00
 -1      1953 3.57045E+01 3.09687E+00 0.00000E+00
 -1      1954 3.42045E+01 3.09687E+00 0.00000E+00
 -1      1955 3.40350E+01 4.00625E+00 0.00000E+00
 -1      1956 3.87045E+01 3.09687E+00 0.00000E+00
 -1      1957 3.72045E+01 3.09687E+00 0.00000E+00
 -1      1958 3.70350E+01 4.00625E+00 0.00000E+00
 -1      1959 4.17045E+01 3.09687E+00 0.00000E+00
 -1      1960 4.02045E+01 3.09687E+00 0.00000E+00
 -1      1961 4.00350E+01 4.00625E+00 0.00000E+00
 -1      1962 4.47045E+01 3.09687E+00 0.00000E+00
 -1      1963 4.32045E+01 3.09687E+00 0.00000E+00
 -1      1964 4.30350E+01 4.00625E+00 0.00000E+00
 -1      1965 4.77045E+01 3.09687E+00 0.00000E+00
 -1      1966 4.62045E+01 3.09687E+00 0.00000E+00
 -1      1967 4.60350E+01 4.00625E+00 0.00000E+00
 -1      1968 5.07045E+01 3.09687E+00 0.00000E+00
 -1      1969 4.92045E+01 3.09687E+00 0.00000E+00
 -1      1970 4.90350E+01 4.00625E+00 0.00000E+00
 -1      1971 5.37045E+01 3.09687E+00 0.00000E+00
 -1      1972 5.22045E+01 3.09687E+00 0.00000E+00
 -1      1973 5.20350E+01 4.00625E+00 0.00000E+00
 -1      1974 5.67045E+01 3.09687E+00 0.00000E+00
 -1      1975 5.52045E+01 3.09687E+00 0.00000E+00
 -1      1976 5.50350E+01 4.00625E+00 0.00000E+00
 -1      1977 5.97045E+01 3.09687E+00 0.00000E+00
 -1      1978 5.82045E+01 3.09687E+00 0.00000E+00
 -1      1979 5.80350E+01 4.00625E+00 0.00000E+00
 -1      1980 6.27045E+01 3.09687E+00 0.00000E+00
 -1      1981 6.12045E+01 3.09687E+00 0.00000E+00
 -1      1982 6.10350E+01 4.00625E+00 0.00000E+00
 -1      1983 6.57045E+01 3.09687E+00 0.00000E+00
 -1      1984 6.42045E+01 3.09687E+00 0.00000E+00
 -1      1985 6.40350E+01 4.00625E+00 0.00000E+00
 -1      1986 6.87045E+01 3.09687E+00 0.00000E+00
 -1      1987 6.72045E+01 3.09687E+00 0.00000E+00
 -1      1988 6.70350E+01 4.00625E+00 0.00000E+00
 -1      1989 7.17045E+01 3.09687E+00 0.00000E+00
 -1      1990 7.02045E+01 3.09687E+00 0.00000E+00
 -1      1991 7.00350E+01 4.00625E+00 0.00000E+00
 -1      1992 7.47045E+01 3.09687E+00 0.00000E+00
 -1      1993 7.32045E+01 3.09687E+00 0.00000E+00
 -1      1994 7.30350E+01 4.00625E+00 0.00000E+00
 -1      1995 7.77045E+01 3.09687E+00 0.00000E+00
 -1      1996 7.62045E+01 3.09687E+00 0.00000E+00
 -1      1997 7.60350E+01 4.00625E+00 0.00000E+00
 -1      1998 8.07045E+01 3.09687E+00 0.00000E+00
 -1      1999 7.92045E+01 3.09687E+00 0.00000E+00
 -1      2000 7.90350E+01 4.00625E+00 0.00000E+00
 -1      2001 8.37045E+01 3.09687E+00 0.00000E+00
 -1      2002 8.22045E+01 3.09687E+00 0.00000E+00
 -1      2003 8.20350E+01 4.00625E+00 0.00000E+00
 -1      2004 8.67045E+01 3.09687E+00 0.00000E+00
 -1      2005 8.52045E+01 3.09687E+00 0.00000E+00
 -1      2006 8.50350E+01 4.00625E+00 0.00000E+00
 -1      2007 8.97045E+01 3.09687E+00 0.00000E+00
 -1      2008 8.82045E+01 3.09687E+00 0.00000E+00
 -1      2009 8.80350E+01 4.00625E+00 0.00000E+00
 -1      2010 9.27045E+01 3.09687E+00 0.00000E+00
 -1      2011 9.12045E+01 3.09687E+00 0.00000E+00
 -1      2012 9.10350E+01 4.00625E+00 0.00000E+00
 -1      2013 9.57045E+01 3.09687E+00 0.00000E+00
 -1      2014 9.42045E+01 3.09687E+00 0.00000E+00
 -1      2015 9.40350E+01 4.00625E+00 0.00000E+00
 -1      2016 9.87045E+01 3.09687E+00 0.00000E+00
 -1      2017 9.72045E+01 3.09687E+00 0.00000E+00
 -1      2018 9.70350E+01 4.00625E+00 0.00000E+00
 -1      2019 1.01704E+02 3.09687E+00 0.00000E+00
 -1      2020 1.00204E+02 3.09687E+00 0.00000E+00
 -1      2021 1.00035E+02 4.00625E+00 0.00000E+00
 -1      2022 1.04704E+02 3.09687E+00 0.00000E+00
 -1      2023 1.03204E+02 3.09687E+00 0.00000E+00
 -1      2024 1.03035E+02 4.00625E+00 0.00000E+00
 -1      2025 1.07704E+02 3.09687E+00 0.00000E+00
 -1      2026 1.06204E+02 3.09687E+00 0.00000E+00
 -1      2027 1.06035E+02 4.00625E+00 0.00000E+00
 -1      2028 1.10704E+02 3.09687E+00 0.00000E+00
 -1      2029 1.09204E+02 3.09687E+00 0.00000E+00
 -1      2030 1.09035E+02 4.00625E+00 0.00000E+00
 -1      2031 1.13704E+02 3.09687E+00 0.00000E+00
 -1      2032 1.12204E+02 3.09687E+00 0.00000E+00
 -1      2033 1.12035E+02 4.00625E+00 0.00000E+00
 -1      2034 1.16704E+02 3.09687E+00 0.00000E+00
 -1      2035 1.15204E+02 3.09687E+00 0.00000E+00
 -1      2036 1.15035E+02 4.00625E+00 0.00000E+00
 -1      2037 1.19704E+02 3.09687E+00 0.00000E+00
 -1      2038 1.18204E+02 3.09687E+00 0.00000E+00
 -1      2039 1.18035E+02 4.00625E+00 0.00000E+00
 -1      2040 1.22704E+02 3.09687E+00 0.00000E+00
 -1      2041 1.21204E+02 3.09687E+00 0.00000E+00
 -1      2042 1.21035E+02 4.00625E+00 0.00000E+00
 -1      2043 1.25704E+02 3.09687E+00 0.00000E+00
 -1      2044 1.24204E+02 3.09687E+00 0.00000E+00
 -1      2045 1.24035E+02 4.00625E+00 0.00000E+00
 -1      2046 1.28704E+02 3.09687E+00 0.00000E+00
 -1      2047 1.27204E+02 3.09687E+00 0.00000E+00
 -1      2048 1.27035E+02 4.00625E+00 0.00000E+00
 -1      2049 1.31704E+02 3.09687E+00 0.00000E+00
 -1      2050 1.30204E+02 3.09687E+00 0.00000E+00
 -1      2051 1.30035E+02 4.00625E+00 0.00000E+00
 -1      2052 1.34704E+02 3.09687E+00 0.00000E+00
 -1      2053 1.33204E+02 3.09687E+00 0.00000E+00
 -1      2054 1.33035E+02 4.00625E+00 0.00000E+00
 -1      2055 1.37704E+02 3.09687E+00 0.00000E+00
 -1      2056 1.36204E+02 3.09687E+00 0.00000E+00
 -1      2057 1.36035E+02 4.00625E+00 0.00000E+00
 -1      2058 1.40704E+02 3.09687E+00 0.00000E+00
 -1      2059 1.39204E+02 3.09687E+00 0.00000E+00
 -1      2060 1.39035E+02 4.00625E+00 0.00000E+00
 -1      2061 1.43704E+02 3.09687E+00 0.00000E+00
 -1      2062 1.42204E+02 3.09687E+00 0.00000E+00
 -1      2063 1.42035E+02 4.00625E+00 0.00000E+00
 -1      2064 1.46171E+02 3.20156E+00 0.00000E+00
 -1      2065 1.44671E+02 3.20156E+00 0.00000E+00
 -1      2066 1.44502E+02 4.11094E+00 0.00000E+00
 -1      2067 1.46435E+02 4.32031E+00 0.00000E+00
 -1      2068 1.46103E+02 1.25375E+01 0.00000E+00
 -1      2069 1.46103E+02 1.10625E+01 0.00000E+00
 -1      2070 1.46103E+02 9.58750E+00 0.00000E+00
 -1      2071 1.46103E+02 8.11250E+00 0.00000E+00
 -1      2072 1.44804E+02 1.03250E+01 0.00000E+00
 -1      2073 1.46269E+02 6.95391E+00 0.00000E+00
 -1      2074 1.46269E+02 5.47891E+00 0.00000E+00
 -1      2075 1.45302E+02 5.37422E+00 0.00000E+00
 -1      2076 1.44970E+02 7.69141E+00 0.00000E+00
 -1      2077 1.46103E+02 1.54375E+01 0.00000E+00
 -1      2078 1.46103E+02 1.39875E+01 0.00000E+00
 -1      2079 1.44804E+02 1.32500E+01 0.00000E+00
 -1      2080 1.46103E+02 1.83875E+01 0.00000E+00
 -1      2081 1.46103E+02 1.69125E+01 0.00000E+00
 -1      2082 1.44804E+02 1.61750E+01 0.00000E+00
 -1      2083 1.46103E+02 2.13375E+01 0.00000E+00
 -1      2084 1.46103E+02 1.98625E+01 0.00000E+00
 -1      2085 1.44804E+02 1.91250E+01 0.00000E+00
 -1      2086 1.46103E+02 2.42875E+01 0.00000E+00
 -1      2087 1.46103E+02 2.28125E+01 0.00000E+00
 -1      2088 1.44804E+02 2.20750E+01 0.00000E+00
 -1      2089 1.46103E+02 2.72375E+01 0.00000E+00
 -1      2090 1.46103E+02 2.57625E+01 0.00000E+00
 -1      2091 1.44804E+02 2.50250E+01 0.00000E+00
 -1      2092 1.46103E+02 3.01875E+01 0.00000E+00
 -1      2093 1.46103E+02 2.87125E+01 0.00000E+00
 -1      2094 1.44804E+02 2.79750E+01 0.00000E+00
 -1      2095 1.46103E+02 3.30875E+01 0.00000E+00
 -1      2096 1.46103E+02 3.16375E+01 0.00000E+00
 -1      2097 1.44804E+02 3.09000E+01 0.00000E+00
 -1      2098 1.46103E+02 3.60375E+01 0.00000E+00
 -1      2099 1.46103E+02 3.45625E+01 0.00000E+00
 -1      2100 1.44804E+02 3.38250E+01 0.00000E+00
 -1      2101 1.46103E+02 3.89875E+01 0.00000E+00
 -1      2102 1.46103E+02 3.75125E+01 0.00000E+00
 -1      2103 1.44804E+02 3.67750E+01 0.00000E+00
 -1      2104 1.46103E+02 4.19375E+01 0.00000E+00
 -1      2105 1.46103E+02 4.04625E+01 0.00000E+00
 -1      2106 1.44804E+02 3.97250E+01 0.00000E+00
 -1      2107 1.36404E+02 1.90515E+01 0.00000E+00
 -1      2108 1.36703E+02 1.98932E+01 0.00000E+00
 -1      2109 1.37523E+02 2.26911E+01 0.00000E+00
 -1      2110 1.37483E+02 2.35905E+01 0.00000E+00
 -1      2111 1.36966E+02 2.07235E+01 0.00000E+00
 -1      2112 1.37229E+02 2.15537E+01 0.00000E+00
 -1      2113 1.37467E+02 2.00721E+01 0.00000E+00
 -1      2114 1.35199E+02 1.73808E+01 0.00000E+00
 -1      2115 1.35811E+02 1.80596E+01 0.00000E+00
 -1      2116 1.33863E+02 1.61476E+01 0.00000E+00
 -1      2117 1.34508E+02 1.67029E+01 0.00000E+00
 -1      2118 3.89700E+00 3.74688E+01 0.00000E+00
 -1      2119 3.89700E+00 3.89437E+01 0.00000E+00
 -1      2120 5.19600E+00 3.96813E+01 0.00000E+00
 -1      2121 5.19600E+00 3.67438E+01 0.00000E+00
 -1      2122 1.30451E+02 1.45037E+01 0.00000E+00
 -1      2123 1.31322E+02 1.47145E+01 0.00000E+00
 -1      2124 1.28590E+02 1.42766E+01 0.00000E+00
 -1      2125 1.29480E+02 1.43755E+01 0.00000E+00
 -1      2126 1.26589E+02 1.41921E+01 0.00000E+00
 -1      2127 1.27561E+02 1.41573E+01 0.00000E+00
 -1      2128 1.24501E+02 1.49938E+01 0.00000E+00
 -1      2129 1.25300E+02 1.44969E+01 0.00000E+00
 -1      2130 1.22896E+02 1.58133E+01 0.00000E+00
 -1      2131 1.23699E+02 1.54036E+01 0.00000E+00
 -1      2132 1.23667E+02 1.44626E+01 0.00000E+00
 -1      2133 1.21465E+02 1.73812E+01 0.00000E+00
 -1      2134 1.22032E+02 1.66476E+01 0.00000E+00
 -1      2135 1.20484E+02 1.89785E+01 0.00000E+00
 -1      2136 1.20970E+02 1.82244E+01 0.00000E+00
 -1      2137 1.19845E+02 2.08507E+01 0.00000E+00
 -1      2138 1.20078E+02 1.99903E+01 0.00000E+00
 -1      2139 1.19357E+02 2.26528E+01 0.00000E+00
 -1      2140 1.19483E+02 2.17739E+01 0.00000E+00
 -1      2141 1.19684E+02 2.46420E+01 0.00000E+00
 -1      2142 1.19536E+02 2.37577E+01 0.00000E+00
 -1      2143 1.20135E+02 2.65135E+01 0.00000E+00
 -1      2144 1.19805E+02 2.56916E+01 0.00000E+00
 -1      2145 1.20896E+02 2.82056E+01 0.00000E+00
 -1      2146 1.20515E+02 2.73595E+01 0.00000E+00
 -1      2147 1.19593E+02 2.72522E+01 0.00000E+00
 -1      2148 1.22246E+02 2.98771E+01 0.00000E+00
 -1      2149 1.21598E+02 2.91616E+01 0.00000E+00
 -1      2150 1.24082E+02 3.10242E+01 0.00000E+00
 -1      2151 1.23229E+02 3.06736E+01 0.00000E+00
 -1      2152 1.25692E+02 3.17031E+01 0.00000E+00
 -1      2153 1.24887E+02 3.13637E+01 0.00000E+00
 -1      2154 1.24150E+02 3.19428E+01 0.00000E+00
 -1      2155 1.27662E+02 3.19494E+01 0.00000E+00
 -1      2156 1.26781E+02 3.18271E+01 0.00000E+00
 -1      2157 1.29481E+02 3.21884E+01 0.00000E+00
 -1      2158 1.28589E+02 3.21287E+01 0.00000E+00
 -1      2159 1.31499E+02 3.15950E+01 0.00000E+00
 -1      2160 1.30686E+02 3.19672E+01 0.00000E+00
 -1      2161 1.33109E+02 3.06818E+01 0.00000E+00
 -1      2162 1.32357E+02 3.11398E+01 0.00000E+00
 -1      2163 1.34607E+02 2.96335E+01 0.00000E+00
 -1      2164 1.33924E+02 3.01689E+01 0.00000E+00
 -1      2165 1.35871E+02 2.81550E+01 0.00000E+00
 -1      2166 1.35387E+02 2.88629E+01 0.00000E+00
 -1      2167 1.36765E+02 2.66108E+01 0.00000E+00
 -1      2168 1.36318E+02 2.73829E+01 0.00000E+00
 -1      2169 1.36750E+02 2.81970E+01 0.00000E+00
 -1      2170 1.37326E+02 2.44869E+01 0.00000E+00
 -1      2171 1.37169E+02 2.53832E+01 0.00000E+00
 -1      2172 1.38160E+02 2.40734E+01 0.00000E+00
 -1      2173 1.32304E+02 1.51613E+01 0.00000E+00
 -1      2174 1.33051E+02 1.56124E+01 0.00000E+00
 -1      2175 1.33824E+02 1.53672E+01 0.00000E+00
 -1      2176 6.42300E+00 4.57510E+01 0.00000E+00
 -1      2177 1.32031E+02 1.43853E+01 0.00000E+00
 -1      2178 7.17300E+00 4.44520E+01 0.00000E+00
 -1      2179 1.38024E+02 2.20397E+01 0.00000E+00
 -1      2180 1.36611E+02 1.82499E+01 0.00000E+00
 -1      2181 1.45665E+02 4.31193E+01 0.00000E+00
 -1      2182 1.35326E+02 1.65802E+01 0.00000E+00
 -1      2183 1.37600E+02 2.61973E+01 0.00000E+00
 -1      2184 1.35523E+02 2.97397E+01 0.00000E+00
 -1      2185 1.33928E+02 3.10232E+01 0.00000E+00
 -1      2186 1.32255E+02 3.19913E+01 0.00000E+00
 -1      2187 1.30192E+02 3.26676E+01 0.00000E+00
 -1      2188 1.29697E+02 3.33680E+01 0.00000E+00
 -1      2189 1.30903E+02 3.31469E+01 0.00000E+00
 -1      2190 1.26044E+02 3.24062E+01 0.00000E+00
 -1      2191 1.20677E+02 2.90543E+01 0.00000E+00
 -1      2192 1.19092E+02 2.53566E+01 0.00000E+00
 -1      2193 1.18792E+02 2.32022E+01 0.00000E+00
 -1      2194 1.18974E+02 2.11741E+01 0.00000E+00
 -1      2195 1.19741E+02 1.92392E+01 0.00000E+00
 -1      2196 1.22000E+02 1.57067E+01 0.00000E+00
 -1      2197 1.25759E+02 1.37481E+01 0.00000E+00
 -1      2198 1.26219E+02 1.29993E+01 0.00000E+00
 -1      2199 1.24929E+02 1.33041E+01 0.00000E+00
 -1      2200 1.30078E+02 1.38102E+01 0.00000E+00
 -1      2201 1.28078E+02 1.35626E+01 0.00000E+00
 -1      2202 1.20642E+02 1.73842E+01 0.00000E+00
 -1      2203 1.22362E+02 3.08069E+01 0.00000E+00
 -1      2204 1.28059E+02 3.27095E+01 0.00000E+00
 -1      2205 1.07850E+01 5.30525E+00 0.00000E+00
 -1      2206 9.28500E+00 5.30525E+00 0.00000E+00
 -1      2207 6.49500E+00 3.01125E+01 0.00000E+00
 -1      2208 6.49500E+00 3.15875E+01 0.00000E+00
 -1      2209 6.49500E+00 3.30625E+01 0.00000E+00
 -1      2210 6.49500E+00 3.45375E+01 0.00000E+00
 -1      2211 7.79400E+00 3.23250E+01 0.00000E+00
 -1      2212 6.49500E+00 2.42125E+01 0.00000E+00
 -1      2213 6.49500E+00 2.56875E+01 0.00000E+00
 -1      2214 6.49500E+00 2.12625E+01 0.00000E+00
 -1      2215 6.49500E+00 2.27375E+01 0.00000E+00
 -1      2216 7.79400E+00 2.34750E+01 0.00000E+00
 -1      2217 6.49500E+00 1.83625E+01 0.00000E+00
 -1      2218 6.49500E+00 1.98125E+01 0.00000E+00
 -1      2219 7.79400E+00 2.05500E+01 0.00000E+00
 -1      2220 6.49500E+00 1.54125E+01 0.00000E+00
 -1      2221 6.49500E+00 1.68875E+01 0.00000E+00
 -1      2222 7.79400E+00 1.76250E+01 0.00000E+00
 -1      2223 6.49500E+00 1.24625E+01 0.00000E+00
 -1      2224 6.49500E+00 1.39375E+01 0.00000E+00
 -1      2225 7.79400E+00 1.46750E+01 0.00000E+00
 -1      2226 6.49500E+00 9.51250E+00 0.00000E+00
 -1      2227 6.49500E+00 1.09875E+01 0.00000E+00
 -1      2228 7.79400E+00 1.17250E+01 0.00000E+00
 -1      2229 1.37850E+01 5.30525E+00 0.00000E+00
 -1      2230 1.22850E+01 5.30525E+00 0.00000E+00
 -1      2231 1.15350E+01 6.60425E+00 0.00000E+00
 -1      2232 9.90000E+00 4.35050E+01 0.00000E+00
 -1      2233 1.14000E+01 4.35050E+01 0.00000E+00
 -1      2234 1.31843E+02 1.34957E+01 0.00000E+00
 -1      2235 1.32825E+02 1.39425E+01 0.00000E+00
 -1      2236 1.29000E+01 4.35050E+01 0.00000E+00
 -1      2237 1.44000E+01 4.35050E+01 0.00000E+00
 -1      2238 1.21500E+01 4.22060E+01 0.00000E+00
 -1      2239 1.59000E+01 4.35050E+01 0.00000E+00
 -1      2240 1.74000E+01 4.35050E+01 0.00000E+00
 -1      2241 1.51500E+01 4.22060E+01 0.00000E+00
 -1      2242 1.89000E+01 4.35050E+01 0.00000E+00
 -1      2243 2.04000E+01 4.35050E+01 0.00000E+00
 -1      2244 1.81500E+01 4.22060E+01 0.00000E+00
 -1      2245 2.19000E+01 4.35050E+01 0.00000E+00
 -1      2246 2.34000E+01 4.35050E+01 0.00000E+00
 -1      2247 2.11500E+01 4.22060E+01 0.00000E+00
 -1      2248 2.49000E+01 4.35050E+01 0.00000E+00
 -1      2249 2.64000E+01 4.35050E+01 0.00000E+00
 -1      2250 2.41500E+01 4.22060E+01 0.00000E+00
 -1      2251 2.79000E+01 4.35050E+01 0.00000E+00
 -1      2252 2.94000E+01 4.35050E+01 0.00000E+00
 -1      2253 2.71500E+01 4.22060E+01 0.00000E+00
 -1      2254 3.09000E+01 4.35050E+01 0.00000E+00
 -1      2255 3.24000E+01 4.35050E+01 0.00000E+00
 -1      2256 3.01500E+01 4.22060E+01 0.00000E+00
 -1      2257 3.39000E+01 4.35050E+01 0.00000E+00
 -1      2258 3.54000E+01 4.35050E+01 0.00000E+00
 -1      2259 3.31500E+01 4.22060E+01 0.00000E+00
 -1      2260 3.69000E+01 4.35050E+01 0.00000E+00
 -1      2261 3.84000E+01 4.35050E+01 0.00000E+00
 -1      2262 3.61500E+01 4.22060E+01 0.00000E+00
 -1      2263 3.99000E+01 4.35050E+01 0.00000E+00
 -1      2264 4.14000E+01 4.35050E+01 0.00000E+00
 -1      2265 3.91500E+01 4.22060E+01 0.00000E+00
 -1      2266 4.29000E+01 4.35050E+01 0.00000E+00
 -1      2267 4.44000E+01 4.35050E+01 0.00000E+00
 -1      2268 4.21500E+01 4.22060E+01 0.00000E+00
 -1      2269 4.59000E+01 4.35050E+01 0.00000E+00
 -1      2270 4.74000E+01 4.35050E+01 0.00000E+00
 -1      2271 4.51500E+01 4.22060E+01 0.00000E+00
 -1      2272 4.89000E+01 4.35050E+01 0.00000E+00
 -1      2273 5.04000E+01 4.35050E+01 0.00000E+00
 -1      2274 4.81500E+01 4.22060E+01 0.00000E+00
 -1      2275 5.19000E+01 4.35050E+01 0.00000E+00
 -1      2276 5.34000E+01 4.35050E+01 0.00000E+00
 -1      2277 5.11500E+01 4.22060E+01 0.00000E+00
 -1      2278 5.49000E+01 4.35050E+01 0.00000E+00
 -1      2279 5.64000E+01 4.35050E+01 0.00000E+00
 -1      2280 5.41500E+01 4.22060E+01 0.00000E+00
 -1      2281 5.79000E+01 4.35050E+01 0.00000E+00
 -1      2282 5.94000E+01 4.35050E+01 0.00000E+00
 -1      2283 5.71500E+01 4.22060E+01 0.00000E+00
 -1      2284 6.09000E+01 4.35050E+01 0.00000E+00
 -1      2285 6.24000E+01 4.35050E+01 0.00000E+00
 -1      2286 6.01500E+01 4.22060E+01 0.00000E+00
 -1      2287 6.39000E+01 4.35050E+01 0.00000E+00
 -1      2288 6.54000E+01 4.35050E+01 0.00000E+00
 -1      2289 6.31500E+01 4.22060E+01 0.00000E+00
 -1      2290 6.69000E+01 4.35050E+01 0.00000E+00
 -1      2291 6.84000E+01 4.35050E+01 0.00000E+00
 -1      2292 6.61500E+01 4.22060E+01 0.00000E+00
 -1      2293 6.99000E+01 4.35050E+01 0.00000E+00
 -1      2294 7.14000E+01 4.35050E+01 0.00000E+00
 -1      2295 6.91500E+01 4.22060E+01 0.00000E+00
 -1      2296 7.29000E+01 4.35050E+01 0.00000E+00
 -1      2297 7.44000E+01 4.35050E+01 0.00000E+00
 -1      2298 7.21500E+01 4.22060E+01 0.00000E+00
 -1      2299 7.59000E+01 4.35050E+01 0.00000E+00
 -1      2300 7.74000E+01 4.35050E+01 0.00000E+00
 -1      2301 7.51500E+01 4.22060E+01 0.00000E+00
 -1      2302 7.89000E+01 4.35050E+01 0.00000E+00
 -1      2303 8.04000E+01 4.35050E+01 0.00000E+00
 -1      2304 7.81500E+01 4.22060E+01 0.00000E+00
 -1      2305 8.19000E+01 4.35050E+01 0.00000E+00
 -1      2306 8.34000E+01 4.35050E+01 0.00000E+00
 -1      2307 8.11500E+01 4.22060E+01 0.00000E+00
 -1      2308 8.49000E+01 4.35050E+01 0.00000E+00
 -1      2309 8.64000E+01 4.35050E+01 0.00000E+00
 -1      2310 8.41500E+01 4.22060E+01 0.00000E+00
 -1      2311 8.79000E+01 4.35050E+01 0.00000E+00
 -1      2312 8.94000E+01 4.35050E+01 0.00000E+00
 -1      2313 8.71500E+01 4.22060E+01 0.00000E+00
 -1      2314 9.09000E+01 4.35050E+01 0.00000E+00
 -1      2315 9.24000E+01 4.35050E+01 0.00000E+00
 -1      2316 9.01500E+01 4.22060E+01 0.00000E+00
 -1      2317 9.39000E+01 4.35050E+01 0.00000E+00
 -1      2318 9.54000E+01 4.35050E+01 0.00000E+00
 -1      2319 9.31500E+01 4.22060E+01 0.00000E+00
 -1      2320 9.69000E+01 4.35050E+01 0.00000E+00
 -1      2321 9.84000E+01 4.35050E+01 0.00000E+00
 -1      2322 9.61500E+01 4.22060E+01 0.00000E+00
 -1      2323 9.99000E+01 4.35050E+01 0.00000E+00
 -1      2324 1.01400E+02 4.35050E+01 0.00000E+00
 -1      2325 9.91500E+01 4.22060E+01 0.00000E+00
 -1      2326 1.02900E+02 4.35050E+01 0.00000E+00
 -1      2327 1.04400E+02 4.35050E+01 0.00000E+00
 -1      2328 1.02150E+02 4.22060E+01 0.00000E+00
 -1      2329 1.05900E+02 4.35050E+01 0.00000E+00
 -1      2330 1.07400E+02 4.35050E+01 0.00000E+00
 -1      2331 1.05150E+02 4.22060E+01 0.00000E+00
 -1      2332 1.08900E+02 4.35050E+01 0.00000E+00
 -1      2333 1.10400E+02 4.35050E+01 0.00000E+00
 -1      2334 1.08150E+02 4.22060E+01 0.00000E+00
 -1      2335 1.11900E+02 4.35050E+01 0.00000E+00
 -1      2336 1.13400E+02 4.35050E+01 0.00000E+00
 -1      2337 1.11150E+02 4.22060E+01 0.00000E+00
 -1      2338 1.14900E+02 4.35050E+01 0.00000E+00
 -1      2339 1.16400E+02 4.35050E+01 0.00000E+00
 -1      2340 1.14150E+02 4.22060E+01 0.00000E+00
 -1      2341 1.17900E+02 4.35050E+01 0.00000E+00
 -1      2342 1.19400E+02 4.35050E+01 0.00000E+00
 -1      2343 1.17150E+02 4.22060E+01 0.00000E+00
 -1      2344 1.20900E+02 4.35050E+01 0.00000E+00
 -1      2345 1.22400E+02 4.35050E+01 0.00000E+00
 -1      2346 1.20150E+02 4.22060E+01 0.00000E+00
 -1      2347 1.23900E+02 4.35050E+01 0.00000E+00
 -1      2348 1.25400E+02 4.35050E+01 0.00000E+00
 -1      2349 1.23150E+02 4.22060E+01 0.00000E+00
 -1      2350 1.26900E+02 4.35050E+01 0.00000E+00
 -1      2351 1.28400E+02 4.35050E+01 0.00000E+00
 -1      2352 1.26150E+02 4.22060E+01 0.00000E+00
 -1      2353 1.29900E+02 4.35050E+01 0.00000E+00
 -1      2354 1.31400E+02 4.35050E+01 0.00000E+00
 -1      2355 1.29150E+02 4.22060E+01 0.00000E+00
 -1      2356 1.32900E+02 4.35050E+01 0.00000E+00
 -1      2357 1.34400E+02 4.35050E+01 0.00000E+00
 -1      2358 1.32150E+02 4.22060E+01 0.00000E+00
 -1      2359 1.35900E+02 4.35050E+01 0.00000E+00
 -1      2360 1.37400E+02 4.35050E+01 0.00000E+00
 -1      2361 1.35150E+02 4.22060E+01 0.00000E+00
 -1      2362 1.38900E+02 4.35050E+01 0.00000E+00
 -1      2363 1.40400E+02 4.35050E+01 0.00000E+00
 -1      2364 1.38150E+02 4.22060E+01 0.00000E+00
 -1      2365 1.38033E+02 1.94358E+01 0.00000E+00
 -1      2366 1.38296E+02 2.02661E+01 0.00000E+00
 -1      2367 1.97850E+01 5.30525E+00 0.00000E+00
 -1      2368 1.82850E+01 5.30525E+00 0.00000E+00
 -1      2369 2.27850E+01 5.30525E+00 0.00000E+00
 -1      2370 2.12850E+01 5.30525E+00 0.00000E+00
 -1      2371 2.05350E+01 6.60425E+00 0.00000E+00
 -1      2372 2.57850E+01 5.30525E+00 0.00000E+00
 -1      2373 2.42850E+01 5.30525E+00 0.00000E+00
 -1      2374 2.35350E+01 6.60425E+00 0.00000E+00
 -1      2375 2.87850E+01 5.30525E+00 0.00000E+00
 -1      2376 2.72850E+01 5.30525E+00 0.00000E+00
 -1      2377 2.65350E+01 6.60425E+00 0.00000E+00
 -1      2378 3.17850E+01 5.30525E+00 0.00000E+00
 -1      2379 3.02850E+01 5.30525E+00 0.00000E+00
 -1      2380 2.95350E+01 6.60425E+00 0.00000E+00
 -1      2381 3.47850E+01 5.30525E+00 0.00000E+00
 -1      2382 3.32850E+01 5.30525E+00 0.00000E+00
 -1      2383 3.25350E+01 6.60425E+00 0.00000E+00
 -1      2384 3.77850E+01 5.30525E+00 0.00000E+00
 -1      2385 3.62850E+01 5.30525E+00 0.00000E+00
 -1      2386 3.55350E+01 6.60425E+00 0.00000E+00
 -1      2387 4.07850E+01 5.30525E+00 0.00000E+00
 -1      2388 3.92850E+01 5.30525E+00 0.00000E+00
 -1      2389 3.85350E+01 6.60425E+00 0.00000E+00
 -1      2390 4.37850E+01 5.30525E+00 0.00000E+00
 -1      2391 4.22850E+01 5.30525E+00 0.00000E+00
 -1      2392 4.15350E+01 6.60425E+00 0.00000E+00
 -1      2393 4.67850E+01 5.30525E+00 0.00000E+00
 -1      2394 4.52850E+01 5.30525E+00 0.00000E+00
 -1      2395 4.45350E+01 6.60425E+00 0.00000E+00
 -1      2396 4.97850E+01 5.30525E+00 0.00000E+00
 -1      2397 4.82850E+01 5.30525E+00 0.00000E+00
 -1      2398 4.75350E+01 6.60425E+00 0.00000E+00
 -1      2399 5.27850E+01 5.30525E+00 0.00000E+00
 -1      2400 5.12850E+01 5.30525E+00 0.00000E+00
 -1      2401 5.05350E+01 6.60425E+00 0.00000E+00
 -1      2402 5.57850E+01 5.30525E+00 0.00000E+00
 -1      2403 5.42850E+01 5.30525E+00 0.00000E+00
 -1      2404 5.35350E+01 6.60425E+00 0.00000E+00
 -1      2405 5.87850E+01 5.30525E+00 0.00000E+00
 -1      2406 5.72850E+01 5.30525E+00 0.00000E+00
 -1      2407 5.65350E+01 6.60425E+00 0.00000E+00
 -1      2408 6.17850E+01 5.30525E+00 0.00000E+00
 -1      2409 6.02850E+01 5.30525E+00 0.00000E+00
 -1      2410 5.95350E+01 6.60425E+00 0.00000E+00
 -1      2411 6.47850E+01 5.30525E+00 0.00000E+00
 -1      2412 6.32850E+01 5.30525E+00 0.00000E+00
 -1      2413 6.25350E+01 6.60425E+00 0.00000E+00
 -1      2414 6.77850E+01 5.30525E+00 0.00000E+00
 -1      2415 6.62850E+01 5.30525E+00 0.00000E+00
 -1      2416 6.55350E+01 6.60425E+00 0.00000E+00
 -1      2417 7.07850E+01 5.30525E+00 0.00000E+00
 -1      2418 6.92850E+01 5.30525E+00 0.00000E+00
 -1      2419 6.85350E+01 6.60425E+00 0.00000E+00
 -1      2420 7.37850E+01 5.30525E+00 0.00000E+00
 -1      2421 7.22850E+01 5.30525E+00 0.00000E+00
 -1      2422 7.15350E+01 6.60425E+00 0.00000E+00
 -1      2423 7.67850E+01 5.30525E+00 0.00000E+00
 -1      2424 7.52850E+01 5.30525E+00 0.00000E+00
 -1      2425 7.45350E+01 6.60425E+00 0.00000E+00
 -1      2426 7.97850E+01 5.30525E+00 0.00000E+00
 -1      2427 7.82850E+01 5.30525E+00 0.00000E+00
 -1      2428 7.75350E+01 6.60425E+00 0.00000E+00
 -1      2429 8.27850E+01 5.30525E+00 0.00000E+00
 -1      2430 8.12850E+01 5.30525E+00 0.00000E+00
 -1      2431 8.05350E+01 6.60425E+00 0.00000E+00
 -1      2432 8.57850E+01 5.30525E+00 0.00000E+00
 -1      2433 8.42850E+01 5.30525E+00 0.00000E+00
 -1      2434 8.35350E+01 6.60425E+00 0.00000E+00
 -1      2435 8.87850E+01 5.30525E+00 0.00000E+00
 -1      2436 8.72850E+01 5.30525E+00 0.00000E+00
 -1      2437 8.65350E+01 6.60425E+00 0.00000E+00
 -1      2438 9.17850E+01 5.30525E+00 0.00000E+00
 -1      2439 9.02850E+01 5.30525E+00 0.00000E+00
 -1      2440 8.95350E+01 6.60425E+00 0.00000E+00
 -1      2441 9.47850E+01 5.30525E+00 0.00000E+00
 -1      2442 9.32850E+01 5.30525E+00 0.00000E+00
 -1      2443 9.25350E+01 6.60425E+00 0.00000E+00
 -1      2444 9.77850E+01 5.30525E+00 0.00000E+00
 -1      2445 9.62850E+01 5.30525E+00 0.00000E+00
 -1      2446 9.55350E+01 6.60425E+00 0.00000E+00
 -1      2447 1.00785E+02 5.30525E+00 0.00000E+00
 -1      2448 9.92850E+01 5.30525E+00 0.00000E+00
 -1      2449 9.85350E+01 6.60425E+00 0.00000E+00
 -1      2450 1.03785E+02 5.30525E+00 0.00000E+00
 -1      2451 1.02285E+02 5.30525E+00 0.00000E+00
 -1      2452 1.01535E+02 6.60425E+00 0.00000E+00
 -1      2453 1.06785E+02 5.30525E+00 0.00000E+00
 -1      2454 1.05285E+02 5.30525E+00 0.00000E+00
 -1      2455 1.04535E+02 6.60425E+00 0.00000E+00
 -1      2456 1.09785E+02 5.30525E+00 0.00000E+00
 -1      2457 1.08285E+02 5.30525E+00 0.00000E+00
 -1      2458 1.07535E+02 6.60425E+00 0.00000E+00
 -1      2459 1.12785E+02 5.30525E+00 0.00000E+00
 -1      2460 1.11285E+02 5.30525E+00 0.00000E+00
 -1      2461 1.10535E+02 6.60425E+00 0.00000E+00
 -1      2462 1.15785E+02 5.30525E+00 0.00000E+00
 -1      2463 1.14285E+02 5.30525E+00 0.00000E+00
 -1      2464 1.13535E+02 6.60425E+00 0.00000E+00
 -1      2465 1.18785E+02 5.30525E+00 0.00000E+00
 -1      2466 1.17285E+02 5.30525E+00 0.00000E+00
 -1      2467 1.16535E+02 6.60425E+00 0.00000E+00
 -1      2468 1.21785E+02 5.30525E+00 0.00000E+00
 -1      2469 1.20285E+02 5.30525E+00 0.00000E+00
 -1      2470 1.19535E+02 6.60425E+00 0.00000E+00
 -1      2471 1.24785E+02 5.30525E+00 0.00000E+00
 -1      2472 1.23285E+02 5.30525E+00 0.00000E+00
 -1      2473 1.22535E+02 6.60425E+00 0.00000E+00
 -1      2474 1.27785E+02 5.30525E+00 0.00000E+00
 -1      2475 1.26285E+02 5.30525E+00 0.00000E+00
 -1      2476 1.25535E+02 6.60425E+00 0.00000E+00
 -1      2477 1.30785E+02 5.30525E+00 0.00000E+00
 -1      2478 1.29285E+02 5.30525E+00 0.00000E+00
 -1      2479 1.28535E+02 6.60425E+00 0.00000E+00
 -1      2480 1.33785E+02 5.30525E+00 0.00000E+00
 -1      2481 1.32285E+02 5.30525E+00 0.00000E+00
 -1      2482 1.31535E+02 6.60425E+00 0.00000E+00
 -1      2483 1.36785E+02 5.30525E+00 0.00000E+00
 -1      2484 1.35285E+02 5.30525E+00 0.00000E+00
 -1      2485 1.34535E+02 6.60425E+00 0.00000E+00
 -1      2486 1.39785E+02 5.30525E+00 0.00000E+00
 -1      2487 1.38285E+02 5.30525E+00 0.00000E+00
 -1      2488 1.37535E+02 6.60425E+00 0.00000E+00
 -1      2489 1.42785E+02 5.30525E+00 0.00000E+00
 -1      2490 1.41285E+02 5.30525E+00 0.00000E+00
 -1      2491 1.40535E+02 6.60425E+00 0.00000E+00
 -1      2492 1.44336E+02 5.26953E+00 0.00000E+00
 -1      2493 1.43505E+02 1.69125E+01 0.00000E+00
 -1      2494 1.43505E+02 1.54375E+01 0.00000E+00
 -1      2495 1.43505E+02 1.98625E+01 0.00000E+00
 -1      2496 1.43505E+02 1.83875E+01 0.00000E+00
 -1      2497 1.42206E+02 1.76500E+01 0.00000E+00
 -1      2498 1.43505E+02 1.10625E+01 0.00000E+00
 -1      2499 1.43505E+02 9.58750E+00 0.00000E+00
 -1      2500 1.43505E+02 1.39750E+01 0.00000E+00
 -1      2501 1.43505E+02 1.25250E+01 0.00000E+00
 -1      2502 1.42206E+02 1.17875E+01 0.00000E+00
 -1      2503 1.42206E+02 1.47125E+01 0.00000E+00
 -1      2504 1.43505E+02 2.28125E+01 0.00000E+00
 -1      2505 1.43505E+02 2.13375E+01 0.00000E+00
 -1      2506 1.42206E+02 2.06000E+01 0.00000E+00
 -1      2507 1.43505E+02 2.57625E+01 0.00000E+00
 -1      2508 1.43505E+02 2.42875E+01 0.00000E+00
 -1      2509 1.42206E+02 2.35500E+01 0.00000E+00
 -1      2510 1.43505E+02 2.87125E+01 0.00000E+00
 -1      2511 1.43505E+02 2.72375E+01 0.00000E+00
 -1      2512 1.42206E+02 2.65000E+01 0.00000E+00
 -1      2513 1.43505E+02 3.16125E+01 0.00000E+00
 -1      2514 1.43505E+02 3.01625E+01 0.00000E+00
 -1      2515 1.42206E+02 2.94250E+01 0.00000E+00
 -1      2516 1.43505E+02 3.45625E+01 0.00000E+00
 -1      2517 1.43505E+02 3.30875E+01 0.00000E+00
 -1      2518 1.42206E+02 3.23500E+01 0.00000E+00
 -1      2519 1.43505E+02 3.75125E+01 0.00000E+00
 -1      2520 1.43505E+02 3.60375E+01 0.00000E+00
 -1      2521 1.42206E+02 3.53000E+01 0.00000E+00
 -1      2522 1.43505E+02 4.04625E+01 0.00000E+00
 -1      2523 1.43505E+02 3.89875E+01 0.00000E+00
 -1      2524 1.42206E+02 3.82500E+01 0.00000E+00
 -1      2525 1.44321E+02 4.30606E+01 0.00000E+00
 -1      2526 1.35581E+02 1.56291E+01 0.00000E+00
 -1      2527 1.36272E+02 1.63070E+01 0.00000E+00
 -1      2528 1.67850E+01 5.30525E+00 0.00000E+00
 -1      2529 1.52850E+01 5.30525E+00 0.00000E+00
 -1      2530 1.75350E+01 6.60425E+00 0.00000E+00
 -1      2531 1.38667E+02 2.12671E+01 0.00000E+00
 -1      2532 1.38960E+02 2.24044E+01 0.00000E+00
 -1      2533 1.37014E+02 1.73352E+01 0.00000E+00
 -1      2534 1.37607E+02 1.83272E+01 0.00000E+00
 -1      2535 1.38696E+02 2.58773E+01 0.00000E+00
 -1      2536 1.38293E+02 2.71049E+01 0.00000E+00
 -1      2537 1.36486E+02 2.99345E+01 0.00000E+00
 -1      2538 1.35706E+02 3.07051E+01 0.00000E+00
 -1      2539 1.20371E+02 3.00155E+01 0.00000E+00
 -1      2540 1.19668E+02 2.90594E+01 0.00000E+00
 -1      2541 1.18301E+02 2.59797E+01 0.00000E+00
 -1      2542 1.18179E+02 2.49301E+01 0.00000E+00
 -1      2543 6.49500E+00 2.71625E+01 0.00000E+00
 -1      2544 6.49500E+00 2.86375E+01 0.00000E+00
 -1      2545 7.79400E+00 2.93750E+01 0.00000E+00
 -1      2546 7.79400E+00 2.64250E+01 0.00000E+00
 -1      2547 1.27657E+02 1.26927E+01 0.00000E+00
 -1      2548 1.28686E+02 1.28120E+01 0.00000E+00
 -1      2549 1.19691E+02 1.73931E+01 0.00000E+00
 -1      2550 1.20186E+02 1.65498E+01 0.00000E+00
 -1      2551 1.29657E+02 1.29403E+01 0.00000E+00
 -1      2552 1.30629E+02 1.30686E+01 0.00000E+00
 -1      2553 1.29237E+02 1.20704E+01 0.00000E+00
 -1      2554 1.22837E+02 1.38291E+01 0.00000E+00
 -1      2555 1.23640E+02 1.34193E+01 0.00000E+00
 -1      2556 1.22314E+02 3.18714E+01 0.00000E+00
 -1      2557 1.21331E+02 3.10749E+01 0.00000E+00
 -1      2558 1.20914E+02 1.54467E+01 0.00000E+00
 -1      2559 1.21778E+02 1.46124E+01 0.00000E+00
 -1      2560 1.18820E+02 1.94571E+01 0.00000E+00
 -1      2561 1.19226E+02 1.84454E+01 0.00000E+00
 -1      2562 1.18097E+02 2.13035E+01 0.00000E+00
 -1      2563 1.18459E+02 2.03803E+01 0.00000E+00
 -1      2564 1.17943E+02 1.95865E+01 0.00000E+00
 -1      2565 1.18000E+02 2.38252E+01 0.00000E+00
 -1      2566 1.17821E+02 2.27204E+01 0.00000E+00
 -1      2567 1.17209E+02 2.44483E+01 0.00000E+00
 -1      2568 1.18925E+02 2.80613E+01 0.00000E+00
 -1      2569 1.18545E+02 2.72152E+01 0.00000E+00
 -1      2570 1.28360E+02 3.36411E+01 0.00000E+00
 -1      2571 1.27433E+02 3.34618E+01 0.00000E+00
 -1      2572 1.24220E+02 3.29027E+01 0.00000E+00
 -1      2573 1.23415E+02 3.25632E+01 0.00000E+00
 -1      2574 1.26344E+02 3.33378E+01 0.00000E+00
 -1      2575 1.25256E+02 3.32138E+01 0.00000E+00
 -1      2576 1.26645E+02 3.42694E+01 0.00000E+00
 -1      2577 1.33067E+02 3.24842E+01 0.00000E+00
 -1      2578 1.32209E+02 3.29394E+01 0.00000E+00
 -1      2579 1.34696E+02 3.14584E+01 0.00000E+00
 -1      2580 1.33881E+02 3.19713E+01 0.00000E+00
 -1      2581 1.33835E+02 3.29195E+01 0.00000E+00
 -1      2582 1.37715E+02 2.82409E+01 0.00000E+00
 -1      2583 1.37268E+02 2.90130E+01 0.00000E+00
 -1      2584 1.39001E+02 2.37588E+01 0.00000E+00
 -1      2585 1.38844E+02 2.46551E+01 0.00000E+00
 -1      2586 6.55950E+00 4.28890E+01 0.00000E+00
 -1      2587 8.53650E+00 4.32410E+01 0.00000E+00
 -1      2588 9.28650E+00 4.19420E+01 0.00000E+00
 -1      2589 6.55950E+00 4.14140E+01 0.00000E+00
 -1      2590 8.07525E+00 5.11044E+00 0.00000E+00
 -1      2591 6.57525E+00 5.11044E+00 0.00000E+00
 -1      2592 6.40575E+00 6.01981E+00 0.00000E+00
 -1      2593 8.82525E+00 6.40944E+00 0.00000E+00
 -1      2594 1.33983E+02 1.42439E+01 0.00000E+00
 -1      2595 1.34794E+02 1.47791E+01 0.00000E+00
 -1      2596 1.24100E+02 1.26706E+01 0.00000E+00
 -1      2597 7.79400E+00 3.52687E+01 0.00000E+00
 -1      2598 6.49500E+00 3.60062E+01 0.00000E+00
 -1      2599 6.49500E+00 3.74750E+01 0.00000E+00
 -1      2600 1.45350E+01 6.60425E+00 0.00000E+00
 -1      2601 6.40575E+00 7.49481E+00 0.00000E+00
 -1      2602 1.33795E+02 1.33543E+01 0.00000E+00
 -1      2603 1.39644E+02 2.29862E+01 0.00000E+00
 -1      2604 1.35659E+02 3.16532E+01 0.00000E+00
 -1      2605 1.24520E+02 3.38343E+01 0.00000E+00
 -1      2606 1.37269E+02 1.63842E+01 0.00000E+00
 -1      2607 1.38436E+02 1.85211E+01 0.00000E+00
 -1      2608 1.43586E+02 6.56853E+00 0.00000E+00
 -1      2609 1.43419E+02 7.72713E+00 0.00000E+00
 -1      2610 1.29071E+02 3.41203E+01 0.00000E+00
 -1      2611 1.28445E+02 3.48726E+01 0.00000E+00
 -1      2612 1.29782E+02 3.45996E+01 0.00000E+00
 -1      2613 1.42758E+02 4.35929E+01 0.00000E+00
 -1      2614 1.43241E+02 4.17323E+01 0.00000E+00
 -1      2615 1.41942E+02 4.09948E+01 0.00000E+00
 -1      2616 1.41414E+02 4.35342E+01 0.00000E+00
 -1      2617 1.17306E+02 2.19266E+01 0.00000E+00
 -1      2618 1.16790E+02 2.11328E+01 0.00000E+00
 -1      2619 1.16514E+02 2.25496E+01 0.00000E+00
 -1      2620 1.35740E+02 1.45058E+01 0.00000E+00
 -1      2621 7.70475E+00 8.23231E+00 0.00000E+00
 -1      2622 1.39233E+02 2.06308E+01 0.00000E+00
 -1      2623 1.38811E+02 2.79208E+01 0.00000E+00
 -1      2624 1.19963E+02 1.54556E+01 0.00000E+00
 -1      2625 6.55950E+00 3.99453E+01 0.00000E+00
 -1      2626 1.22383E+02 3.28313E+01 0.00000E+00
 -1      2627 1.18619E+02 2.90224E+01 0.00000E+00
 -1      2628 1.31714E+02 3.36398E+01 0.00000E+00
 -1      2629 1.31219E+02 3.43402E+01 0.00000E+00
 -1      2630 1.32525E+02 3.41328E+01 0.00000E+00
 -1      2631 1.17632E+02 2.67887E+01 0.00000E+00
 -1      2632 1.20322E+02 3.10800E+01 0.00000E+00
 -1      2633 1.37452E+02 2.99784E+01 0.00000E+00
 -1      2634 1.39537E+02 2.55627E+01 0.00000E+00
 -1      2635 1.25997E+02 1.18047E+01 0.00000E+00
 -1      2636 1.26827E+02 1.22487E+01 0.00000E+00
 -1      2637 1.27435E+02 1.14981E+01 0.00000E+00
 -1      2638 1.18770E+02 1.76110E+01 0.00000E+00
 -1      2639 1.31423E+02 1.26258E+01 0.00000E+00
 -1      2640 1.21752E+02 1.35691E+01 0.00000E+00
 -1      2641 1.42120E+02 8.46463E+00 0.00000E+00
 -1      2642 1.40664E+02 4.22352E+01 0.00000E+00
 -1      2643 9.09300E+00 1.98250E+01 0.00000E+00
 -1      2644 9.09300E+00 2.12750E+01 0.00000E+00
 -1      2645 9.09300E+00 2.27500E+01 0.00000E+00
 -1      2646 9.09300E+00 2.42250E+01 0.00000E+00
 -1      2647 1.03920E+01 2.20250E+01 0.00000E+00
 -1      2648 9.09300E+00 1.39375E+01 0.00000E+00
 -1      2649 9.09300E+00 1.54125E+01 0.00000E+00
 -1      2650 9.09300E+00 1.09875E+01 0.00000E+00
 -1      2651 9.09300E+00 1.24625E+01 0.00000E+00
 -1      2652 1.03920E+01 1.32000E+01 0.00000E+00
 -1      2653 1.22850E+01 7.90325E+00 0.00000E+00
 -1      2654 1.07850E+01 7.90325E+00 0.00000E+00
 -1      2655 1.52850E+01 7.90325E+00 0.00000E+00
 -1      2656 1.37850E+01 7.90325E+00 0.00000E+00
 -1      2657 1.30350E+01 9.20225E+00 0.00000E+00
 -1      2658 8.91450E+00 8.42712E+00 0.00000E+00
 -1      2659 1.27092E+02 3.51834E+01 0.00000E+00
 -1      2660 1.26004E+02 3.50594E+01 0.00000E+00
 -1      2661 1.44000E+01 4.09070E+01 0.00000E+00
 -1      2662 1.59000E+01 4.09070E+01 0.00000E+00
 -1      2663 1.74000E+01 4.09070E+01 0.00000E+00
 -1      2664 1.89000E+01 4.09070E+01 0.00000E+00
 -1      2665 1.66500E+01 3.96080E+01 0.00000E+00
 -1      2666 2.04000E+01 4.09070E+01 0.00000E+00
 -1      2667 2.19000E+01 4.09070E+01 0.00000E+00
 -1      2668 1.96500E+01 3.96080E+01 0.00000E+00
 -1      2669 2.34000E+01 4.09070E+01 0.00000E+00
 -1      2670 2.49000E+01 4.09070E+01 0.00000E+00
 -1      2671 2.26500E+01 3.96080E+01 0.00000E+00
 -1      2672 2.64000E+01 4.09070E+01 0.00000E+00
 -1      2673 2.79000E+01 4.09070E+01 0.00000E+00
 -1      2674 2.56500E+01 3.96080E+01 0.00000E+00
 -1      2675 2.94000E+01 4.09070E+01 0.00000E+00
 -1      2676 3.09000E+01 4.09070E+01 0.00000E+00
 -1      2677 2.86500E+01 3.96080E+01 0.00000E+00
 -1      2678 3.24000E+01 4.09070E+01 0.00000E+00
 -1      2679 3.39000E+01 4.09070E+01 0.00000E+00
 -1      2680 3.16500E+01 3.96080E+01 0.00000E+00
 -1      2681 3.54000E+01 4.09070E+01 0.00000E+00
 -1      2682 3.69000E+01 4.09070E+01 0.00000E+00
 -1      2683 3.46500E+01 3.96080E+01 0.00000E+00
 -1      2684 3.84000E+01 4.09070E+01 0.00000E+00
 -1      2685 3.99000E+01 4.09070E+01 0.00000E+00
 -1      2686 3.76500E+01 3.96080E+01 0.00000E+00
 -1      2687 4.14000E+01 4.09070E+01 0.00000E+00
 -1      2688 4.29000E+01 4.09070E+01 0.00000E+00
 -1      2689 4.06500E+01 3.96080E+01 0.00000E+00
 -1      2690 4.44000E+01 4.09070E+01 0.00000E+00
 -1      2691 4.59000E+01 4.09070E+01 0.00000E+00
 -1      2692 4.36500E+01 3.96080E+01 0.00000E+00
 -1      2693 4.74000E+01 4.09070E+01 0.00000E+00
 -1      2694 4.89000E+01 4.09070E+01 0.00000E+00
 -1      2695 4.66500E+01 3.96080E+01 0.00000E+00
 -1      2696 5.04000E+01 4.09070E+01 0.00000E+00
 -1      2697 5.19000E+01 4.09070E+01 0.00000E+00
 -1      2698 4.96500E+01 3.96080E+01 0.00000E+00
 -1      2699 5.34000E+01 4.09070E+01 0.00000E+00
 -1      2700 5.49000E+01 4.09070E+01 0.00000E+00
 -1      2701 5.26500E+01 3.96080E+01 0.00000E+00
 -1      2702 5.64000E+01 4.09070E+01 0.00000E+00
 -1      2703 5.79000E+01 4.09070E+01 0.00000E+00
 -1      2704 5.56500E+01 3.96080E+01 0.00000E+00
 -1      2705 5.94000E+01 4.09070E+01 0.00000E+00
 -1      2706 6.09000E+01 4.09070E+01 0.00000E+00
 -1      2707 5.86500E+01 3.96080E+01 0.00000E+00
 -1      2708 6.24000E+01 4.09070E+01 0.00000E+00
 -1      2709 6.39000E+01 4.09070E+01 0.00000E+00
 -1      2710 6.16500E+01 3.96080E+01 0.00000E+00
 -1      2711 6.54000E+01 4.09070E+01 0.00000E+00
 -1      2712 6.69000E+01 4.09070E+01 0.00000E+00
 -1      2713 6.46500E+01 3.96080E+01 0.00000E+00
 -1      2714 6.84000E+01 4.09070E+01 0.00000E+00
 -1      2715 6.99000E+01 4.09070E+01 0.00000E+00
 -1      2716 6.76500E+01 3.96080E+01 0.00000E+00
 -1      2717 7.14000E+01 4.09070E+01 0.00000E+00
 -1      2718 7.29000E+01 4.09070E+01 0.00000E+00
 -1      2719 7.06500E+01 3.96080E+01 0.00000E+00
 -1      2720 7.44000E+01 4.09070E+01 0.00000E+00
 -1      2721 7.59000E+01 4.09070E+01 0.00000E+00
 -1      2722 7.36500E+01 3.96080E+01 0.00000E+00
 -1      2723 7.74000E+01 4.09070E+01 0.00000E+00
 -1      2724 7.89000E+01 4.09070E+01 0.00000E+00
 -1      2725 7.66500E+01 3.96080E+01 0.00000E+00
 -1      2726 8.04000E+01 4.09070E+01 0.00000E+00
 -1      2727 8.19000E+01 4.09070E+01 0.00000E+00
 -1      2728 7.96500E+01 3.96080E+01 0.00000E+00
 -1      2729 8.34000E+01 4.09070E+01 0.00000E+00
 -1      2730 8.49000E+01 4.09070E+01 0.00000E+00
 -1      2731 8.26500E+01 3.96080E+01 0.00000E+00
 -1      2732 8.64000E+01 4.09070E+01 0.00000E+00
 -1      2733 8.79000E+01 4.09070E+01 0.00000E+00
 -1      2734 8.56500E+01 3.96080E+01 0.00000E+00
 -1      2735 8.94000E+01 4.09070E+01 0.00000E+00
 -1      2736 9.09000E+01 4.09070E+01 0.00000E+00
 -1      2737 8.86500E+01 3.96080E+01 0.00000E+00
 -1      2738 9.24000E+01 4.09070E+01 0.00000E+00
 -1      2739 9.39000E+01 4.09070E+01 0.00000E+00
 -1      2740 9.16500E+01 3.96080E+01 0.00000E+00
 -1      2741 9.54000E+01 4.09070E+01 0.00000E+00
 -1      2742 9.69000E+01 4.09070E+01 0.00000E+00
 -1      2743 9.46500E+01 3.96080E+01 0.00000E+00
 -1      2744 9.84000E+01 4.09070E+01 0.00000E+00
 -1      2745 9.99000E+01 4.09070E+01 0.00000E+00
 -1      2746 9.76500E+01 3.96080E+01 0.00000E+00
 -1      2747 1.01400E+02 4.09070E+01 0.00000E+00
 -1      2748 1.02900E+02 4.09070E+01 0.00000E+00
 -1      2749 1.00650E+02 3.96080E+01 0.00000E+00
 -1      2750 1.04400E+02 4.09070E+01 0.00000E+00
 -1      2751 1.05900E+02 4.09070E+01 0.00000E+00
 -1      2752 1.03650E+02 3.96080E+01 0.00000E+00
 -1      2753 1.07400E+02 4.09070E+01 0.00000E+00
 -1      2754 1.08900E+02 4.09070E+01 0.00000E+00
 -1      2755 1.06650E+02 3.96080E+01 0.00000E+00
 -1      2756 1.10400E+02 4.09070E+01 0.00000E+00
 -1      2757 1.11900E+02 4.09070E+01 0.00000E+00
 -1      2758 1.09650E+02 3.96080E+01 0.00000E+00
 -1      2759 1.13400E+02 4.09070E+01 0.00000E+00
 -1      2760 1.14900E+02 4.09070E+01 0.00000E+00
 -1      2761 1.12650E+02 3.96080E+01 0.00000E+00
 -1      2762 1.16400E+02 4.09070E+01 0.00000E+00
 -1      2763 1.17900E+02 4.09070E+01 0.00000E+00
 -1      2764 1.15650E+02 3.96080E+01 0.00000E+00
 -1      2765 1.19400E+02 4.09070E+01 0.00000E+00
 -1      2766 1.20900E+02 4.09070E+01 0.00000E+00
 -1      2767 1.18650E+02 3.96080E+01 0.00000E+00
 -1      2768 1.22400E+02 4.09070E+01 0.00000E+00
 -1      2769 1.23900E+02 4.09070E+01 0.00000E+00
 -1      2770 1.21650E+02 3.96080E+01 0.00000E+00
 -1      2771 1.25400E+02 4.09070E+01 0.00000E+00
 -1      2772 1.26900E+02 4.09070E+01 0.00000E+00
 -1      2773 1.24650E+02 3.96080E+01 0.00000E+00
 -1      2774 1.28400E+02 4.09070E+01 0.00000E+00
 -1      2775 1.29900E+02 4.09070E+01 0.00000E+00
 -1      2776 1.27650E+02 3.96080E+01 0.00000E+00
 -1      2777 1.31400E+02 4.09070E+01 0.00000E+00
 -1      2778 1.32900E+02 4.09070E+01 0.00000E+00
 -1      2779 1.30650E+02 3.96080E+01 0.00000E+00
 -1      2780 1.34400E+02 4.09070E+01 0.00000E+00
 -1      2781 1.35900E+02 4.09070E+01 0.00000E+00
 -1      2782 1.33650E+02 3.96080E+01 0.00000E+00
 -1      2783 1.37400E+02 4.09070E+01 0.00000E+00
 -1      2784 1.38900E+02 4.09070E+01 0.00000E+00
 -1      2785 1.36650E+02 3.96080E+01 0.00000E+00
 -1      2786 1.36677E+02 3.19640E+01 0.00000E+00
 -1      2787 1.35667E+02 3.27173E+01 0.00000E+00
 -1      2788 2.12850E+01 7.90325E+00 0.00000E+00
 -1      2789 1.97850E+01 7.90325E+00 0.00000E+00
 -1      2790 3.02850E+01 7.90325E+00 0.00000E+00
 -1      2791 2.87850E+01 7.90325E+00 0.00000E+00
 -1      2792 3.32850E+01 7.90325E+00 0.00000E+00
 -1      2793 3.17850E+01 7.90325E+00 0.00000E+00
 -1      2794 3.10350E+01 9.20225E+00 0.00000E+00
 -1      2795 3.62850E+01 7.90325E+00 0.00000E+00
 -1      2796 3.47850E+01 7.90325E+00 0.00000E+00
 -1      2797 3.40350E+01 9.20225E+00 0.00000E+00
 -1      2798 3.92850E+01 7.90325E+00 0.00000E+00
 -1      2799 3.77850E+01 7.90325E+00 0.00000E+00
 -1      2800 3.70350E+01 9.20225E+00 0.00000E+00
 -1      2801 4.22850E+01 7.90325E+00 0.00000E+00
 -1      2802 4.07850E+01 7.90325E+00 0.00000E+00
 -1      2803 4.00350E+01 9.20225E+00 0.00000E+00
 -1      2804 4.52850E+01 7.90325E+00 0.00000E+00
 -1      2805 4.37850E+01 7.90325E+00 0.00000E+00
 -1      2806 4.30350E+01 9.20225E+00 0.00000E+00
 -1      2807 4.82850E+01 7.90325E+00 0.00000E+00
 -1      2808 4.67850E+01 7.90325E+00 0.00000E+00
 -1      2809 4.60350E+01 9.20225E+00 0.00000E+00
 -1      2810 5.12850E+01 7.90325E+00 0.00000E+00
 -1      2811 4.97850E+01 7.90325E+00 0.00000E+00
 -1      2812 4.90350E+01 9.20225E+00 0.00000E+00
 -1      2813 5.42850E+01 7.90325E+00 0.00000E+00
 -1      2814 5.27850E+01 7.90325E+00 0.00000E+00
 -1      2815 5.20350E+01 9.20225E+00 0.00000E+00
 -1      2816 5.72850E+01 7.90325E+00 0.00000E+00
 -1      2817 5.57850E+01 7.90325E+00 0.00000E+00
 -1      2818 5.50350E+01 9.20225E+00 0.00000E+00
 -1      2819 6.02850E+01 7.90325E+00 0.00000E+00
 -1      2820 5.87850E+01 7.90325E+00 0.00000E+00
 -1      2821 5.80350E+01 9.20225E+00 0.00000E+00
 -1      2822 6.32850E+01 7.90325E+00 0.00000E+00
 -1      2823 6.17850E+01 7.90325E+00 0.00000E+00
 -1      2824 6.10350E+01 9.20225E+00 0.00000E+00
 -1      2825 6.62850E+01 7.90325E+00 0.00000E+00
 -1      2826 6.47850E+01 7.90325E+00 0.00000E+00
 -1      2827 6.40350E+01 9.20225E+00 0.00000E+00
 -1      2828 6.92850E+01 7.90325E+00 0.00000E+00
 -1      2829 6.77850E+01 7.90325E+00 0.00000E+00
 -1      2830 6.70350E+01 9.20225E+00 0.00000E+00
 -1      2831 7.22850E+01 7.90325E+00 0.00000E+00
 -1      2832 7.07850E+01 7.90325E+00 0.00000E+00
 -1      2833 7.00350E+01 9.20225E+00 0.00000E+00
 -1      2834 7.52850E+01 7.90325E+00 0.00000E+00
 -1      2835 7.37850E+01 7.90325E+00 0.00000E+00
 -1      2836 7.30350E+01 9.20225E+00 0.00000E+00
 -1      2837 7.82850E+01 7.90325E+00 0.00000E+00
 -1      2838 7.67850E+01 7.90325E+00 0.00000E+00
 -1      2839 7.60350E+01 9.20225E+00 0.00000E+00
 -1      2840 8.12850E+01 7.90325E+00 0.00000E+00
 -1      2841 7.97850E+01 7.90325E+00 0.00000E+00
 -1      2842 7.90350E+01 9.20225E+00 0.00000E+00
 -1      2843 8.42850E+01 7.90325E+00 0.00000E+00
 -1      2844 8.27850E+01 7.90325E+00 0.00000E+00
 -1      2845 8.20350E+01 9.20225E+00 0.00000E+00
 -1      2846 8.72850E+01 7.90325E+00 0.00000E+00
 -1      2847 8.57850E+01 7.90325E+00 0.00000E+00
 -1      2848 8.50350E+01 9.20225E+00 0.00000E+00
 -1      2849 9.02850E+01 7.90325E+00 0.00000E+00
 -1      2850 8.87850E+01 7.90325E+00 0.00000E+00
 -1      2851 8.80350E+01 9.20225E+00 0.00000E+00
 -1      2852 9.32850E+01 7.90325E+00 0.00000E+00
 -1      2853 9.17850E+01 7.90325E+00 0.00000E+00
 -1      2854 9.10350E+01 9.20225E+00 0.00000E+00
 -1      2855 9.62850E+01 7.90325E+00 0.00000E+00
 -1      2856 9.47850E+01 7.90325E+00 0.00000E+00
 -1      2857 9.40350E+01 9.20225E+00 0.00000E+00
 -1      2858 9.92850E+01 7.90325E+00 0.00000E+00
 -1      2859 9.77850E+01 7.90325E+00 0.00000E+00
 -1      2860 9.70350E+01 9.20225E+00 0.00000E+00
 -1      2861 1.02285E+02 7.90325E+00 0.00000E+00
 -1      2862 1.00785E+02 7.90325E+00 0.00000E+00
 -1      2863 1.00035E+02 9.20225E+00 0.00000E+00
 -1      2864 1.05285E+02 7.90325E+00 0.00000E+00
 -1      2865 1.03785E+02 7.90325E+00 0.00000E+00
 -1      2866 1.03035E+02 9.20225E+00 0.00000E+00
 -1      2867 1.08285E+02 7.90325E+00 0.00000E+00
 -1      2868 1.06785E+02 7.90325E+00 0.00000E+00
 -1      2869 1.06035E+02 9.20225E+00 0.00000E+00
 -1      2870 1.11285E+02 7.90325E+00 0.00000E+00
 -1      2871 1.09785E+02 7.90325E+00 0.00000E+00
 -1      2872 1.09035E+02 9.20225E+00 0.00000E+00
 -1      2873 1.14285E+02 7.90325E+00 0.00000E+00
 -1      2874 1.12785E+02 7.90325E+00 0.00000E+00
 -1      2875 1.12035E+02 9.20225E+00 0.00000E+00
 -1      2876 1.17285E+02 7.90325E+00 0.00000E+00
 -1      2877 1.15785E+02 7.90325E+00 0.00000E+00
 -1      2878 1.15035E+02 9.20225E+00 0.00000E+00
 -1      2879 1.20285E+02 7.90325E+00 0.00000E+00
 -1      2880 1.18785E+02 7.90325E+00 0.00000E+00
 -1      2881 1.18035E+02 9.20225E+00 0.00000E+00
 -1      2882 1.23285E+02 7.90325E+00 0.00000E+00
 -1      2883 1.21785E+02 7.90325E+00 0.00000E+00
 -1      2884 1.21035E+02 9.20225E+00 0.00000E+00
 -1      2885 1.26820E+02 8.82920E+00 0.00000E+00
 -1      2886 1.25320E+02 8.82920E+00 0.00000E+00
 -1      2887 1.32285E+02 7.88073E+00 0.00000E+00
 -1      2888 1.30785E+02 7.88073E+00 0.00000E+00
 -1      2889 1.35285E+02 7.88073E+00 0.00000E+00
 -1      2890 1.33785E+02 7.88073E+00 0.00000E+00
 -1      2891 1.33035E+02 9.15721E+00 0.00000E+00
 -1      2892 1.38285E+02 7.88073E+00 0.00000E+00
 -1      2893 1.36785E+02 7.88073E+00 0.00000E+00
 -1      2894 1.36035E+02 9.15721E+00 0.00000E+00
 -1      2895 1.40953E+02 8.17268E+00 0.00000E+00
 -1      2896 1.39453E+02 8.17268E+00 0.00000E+00
 -1      2897 1.38703E+02 9.44916E+00 0.00000E+00
 -1      2898 1.41038E+02 1.00331E+01 0.00000E+00
 -1      2899 1.39914E+02 4.09362E+01 0.00000E+00
 -1      2900 1.40928E+02 4.09655E+01 0.00000E+00
 -1      2901 1.39164E+02 3.96372E+01 0.00000E+00
 -1      2902 1.40108E+02 1.82687E+01 0.00000E+00
 -1      2903 1.40108E+02 1.67937E+01 0.00000E+00
 -1      2904 1.40905E+02 2.18534E+01 0.00000E+00
 -1      2905 1.40905E+02 2.03784E+01 0.00000E+00
 -1      2906 1.41181E+02 3.01500E+01 0.00000E+00
 -1      2907 1.41181E+02 2.87000E+01 0.00000E+00
 -1      2908 1.41013E+02 3.30875E+01 0.00000E+00
 -1      2909 1.41013E+02 3.16125E+01 0.00000E+00
 -1      2910 1.41013E+02 3.60375E+01 0.00000E+00
 -1      2911 1.41013E+02 3.45625E+01 0.00000E+00
 -1      2912 1.39821E+02 3.38250E+01 0.00000E+00
 -1      2913 1.82850E+01 7.90325E+00 0.00000E+00
 -1      2914 1.67850E+01 7.90325E+00 0.00000E+00
 -1      2915 1.60350E+01 9.20225E+00 0.00000E+00
 -1      2916 1.90350E+01 9.20225E+00 0.00000E+00
 -1      2917 1.36037E+02 1.34412E+01 0.00000E+00
 -1      2918 1.36825E+02 1.42913E+01 0.00000E+00
 -1      2919 1.24792E+02 3.48112E+01 0.00000E+00
 -1      2920 1.23755E+02 3.45000E+01 0.00000E+00
 -1      2921 1.28886E+02 1.09900E+01 0.00000E+00
 -1      2922 1.29857E+02 1.11182E+01 0.00000E+00
 -1      2923 1.20105E+02 3.22419E+01 0.00000E+00
 -1      2924 1.19145E+02 3.11824E+01 0.00000E+00
 -1      2925 2.72850E+01 7.90325E+00 0.00000E+00
 -1      2926 2.57850E+01 7.90325E+00 0.00000E+00
 -1      2927 2.80350E+01 9.20225E+00 0.00000E+00
 -1      2928 2.42850E+01 7.90325E+00 0.00000E+00
 -1      2929 2.27850E+01 7.90325E+00 0.00000E+00
 -1      2930 2.50350E+01 9.20225E+00 0.00000E+00
 -1      2931 1.14000E+01 4.09070E+01 0.00000E+00
 -1      2932 1.29000E+01 4.09070E+01 0.00000E+00
 -1      2933 1.36500E+01 3.96080E+01 0.00000E+00
 -1      2934 1.33432E+02 1.23737E+01 0.00000E+00
 -1      2935 1.34590E+02 1.26752E+01 0.00000E+00
 -1      2936 1.22433E+02 3.39742E+01 0.00000E+00
 -1      2937 1.21332E+02 3.32823E+01 0.00000E+00
 -1      2938 9.09300E+00 1.68813E+01 0.00000E+00
 -1      2939 9.09300E+00 1.83563E+01 0.00000E+00
 -1      2940 1.03920E+01 1.90812E+01 0.00000E+00
 -1      2941 1.03920E+01 1.61437E+01 0.00000E+00
 -1      2942 7.85850E+00 3.92077E+01 0.00000E+00
 -1      2943 1.20612E+02 1.31366E+01 0.00000E+00
 -1      2944 1.21672E+02 1.23532E+01 0.00000E+00
 -1      2945 1.38560E+02 3.01267E+01 0.00000E+00
 -1      2946 1.37778E+02 3.10483E+01 0.00000E+00
 -1      2947 9.09300E+00 3.15875E+01 0.00000E+00
 -1      2948 9.09300E+00 3.30625E+01 0.00000E+00
 -1      2949 1.31037E+02 1.15324E+01 0.00000E+00
 -1      2950 1.32252E+02 1.19596E+01 0.00000E+00
 -1      2951 1.33047E+02 1.12804E+01 0.00000E+00
 -1      2952 1.30686E+02 1.04520E+01 0.00000E+00
 -1      2953 1.17003E+02 1.97506E+01 0.00000E+00
 -1      2954 1.17365E+02 1.88274E+01 0.00000E+00
 -1      2955 1.16287E+02 2.51648E+01 0.00000E+00
 -1      2956 1.16107E+02 2.40599E+01 0.00000E+00
 -1      2957 1.16775E+02 2.76359E+01 0.00000E+00
 -1      2958 1.16531E+02 2.64004E+01 0.00000E+00
 -1      2959 1.15429E+02 2.60120E+01 0.00000E+00
 -1      2960 1.17829E+02 1.77751E+01 0.00000E+00
 -1      2961 1.18294E+02 1.67228E+01 0.00000E+00
 -1      2962 1.16889E+02 1.79392E+01 0.00000E+00
 -1      2963 1.18236E+02 3.00835E+01 0.00000E+00
 -1      2964 1.17493E+02 2.90854E+01 0.00000E+00
 -1      2965 1.39772E+02 2.81049E+01 0.00000E+00
 -1      2966 1.39195E+02 2.92409E+01 0.00000E+00
 -1      2967 1.41192E+02 3.96958E+01 0.00000E+00
 -1      2968 1.34744E+02 3.34597E+01 0.00000E+00
 -1      2969 1.33929E+02 3.39726E+01 0.00000E+00
 -1      2970 1.18744E+02 1.54420E+01 0.00000E+00
 -1      2971 1.19473E+02 1.43389E+01 0.00000E+00
 -1      2972 1.23371E+02 1.17906E+01 0.00000E+00
 -1      2973 1.24660E+02 1.16753E+01 0.00000E+00
 -1      2974 9.09300E+00 3.45313E+01 0.00000E+00
 -1      2975 9.09300E+00 3.60000E+01 0.00000E+00
 -1      2976 1.03920E+01 3.37938E+01 0.00000E+00
 -1      2977 1.03920E+01 2.49750E+01 0.00000E+00
 -1      2978 9.09300E+00 2.57000E+01 0.00000E+00
 -1      2979 9.09300E+00 2.71750E+01 0.00000E+00
 -1      2980 9.66450E+00 9.72612E+00 0.00000E+00
 -1      2981 1.35674E+02 1.24606E+01 0.00000E+00
 -1      2982 1.27803E+02 3.56627E+01 0.00000E+00
 -1      2983 1.27162E+02 3.64527E+01 0.00000E+00
 -1      2984 1.28514E+02 3.61420E+01 0.00000E+00
 -1      2985 1.40481E+02 2.22832E+01 0.00000E+00
 -1      2986 1.40522E+02 2.36376E+01 0.00000E+00
 -1      2987 9.15750E+00 3.77359E+01 0.00000E+00
 -1      2988 9.22200E+00 4.02061E+01 0.00000E+00
 -1      2989 1.05855E+01 4.04701E+01 0.00000E+00
 -1      2990 1.04565E+01 3.69984E+01 0.00000E+00
 -1      2991 1.35761E+02 3.37704E+01 0.00000E+00
 -1      2992 1.22232E+02 1.13580E+01 0.00000E+00
 -1      2993 1.17803E+02 1.56061E+01 0.00000E+00
 -1      2994 1.38689E+02 1.58577E+01 0.00000E+00
 -1      2995 1.40786E+02 1.52390E+01 0.00000E+00
 -1      2996 1.40786E+02 1.37765E+01 0.00000E+00
 -1      2997 1.37947E+02 1.48294E+01 0.00000E+00
 -1      2998 1.37786E+02 3.21123E+01 0.00000E+00
 -1      2999 1.15420E+02 2.09967E+01 0.00000E+00
 -1      3000 1.16212E+02 2.03737E+01 0.00000E+00
 -1      3001 1.15633E+02 1.96146E+01 0.00000E+00
 -1      3002 1.38244E+02 1.37648E+01 0.00000E+00
 -1      3003 2.20350E+01 9.20225E+00 0.00000E+00
 -1      3004 1.29285E+02 7.90325E+00 0.00000E+00
 -1      3005 1.27785E+02 7.90325E+00 0.00000E+00
 -1      3006 1.16391E+02 2.86971E+01 0.00000E+00
 -1      3007 1.40912E+02 1.26360E+01 0.00000E+00
 -1      3008 1.40912E+02 1.11735E+01 0.00000E+00
 -1      3009 1.39745E+02 1.08816E+01 0.00000E+00
 -1      3010 1.39493E+02 1.31625E+01 0.00000E+00
 -1      3011 1.30593E+02 3.50925E+01 0.00000E+00
 -1      3012 1.29967E+02 3.58448E+01 0.00000E+00
 -1      3013 1.31404E+02 3.55855E+01 0.00000E+00
 -1      3014 1.39521E+02 3.03108E+01 0.00000E+00
 -1      3015 1.41192E+02 3.82207E+01 0.00000E+00
 -1      3016 1.15592E+02 2.32661E+01 0.00000E+00
 -1      3017 1.15077E+02 2.24723E+01 0.00000E+00
 -1      3018 1.14670E+02 2.39827E+01 0.00000E+00
 -1      3019 1.25239E+02 3.57252E+01 0.00000E+00
 -1      3020 1.22704E+02 3.49511E+01 0.00000E+00
 -1      3021 1.20154E+02 3.33848E+01 0.00000E+00
 -1      3022 1.28055E+02 1.05460E+01 0.00000E+00
 -1      3023 1.39999E+02 3.74832E+01 0.00000E+00
 -1      3024 1.33434E+02 3.46730E+01 0.00000E+00
 -1      3025 1.32940E+02 3.53734E+01 0.00000E+00
 -1      3026 1.34343E+02 3.52132E+01 0.00000E+00
 -1      3027 1.18018E+02 3.12454E+01 0.00000E+00
 -1      3028 1.09635E+01 1.04636E+01 0.00000E+00
 -1      3029 9.09300E+00 2.86437E+01 0.00000E+00
 -1      3030 9.09300E+00 3.01187E+01 0.00000E+00
 -1      3031 1.03920E+01 3.08563E+01 0.00000E+00
 -1      3032 1.03920E+01 2.79188E+01 0.00000E+00
 -1      3033 1.25269E+02 1.09247E+01 0.00000E+00
 -1      3034 1.13355E+01 3.91711E+01 0.00000E+00
 -1      3035 1.19393E+02 1.31230E+01 0.00000E+00
 -1      3036 1.35391E+02 1.12456E+01 0.00000E+00
 -1      3037 1.36838E+02 1.20117E+01 0.00000E+00
 -1      3038 1.16910E+01 1.24625E+01 0.00000E+00
 -1      3039 1.16910E+01 1.39375E+01 0.00000E+00
 -1      3040 1.40534E+02 1.93774E+01 0.00000E+00
 -1      3041 1.18018E+02 1.29613E+01 0.00000E+00
 -1      3042 1.19158E+02 1.17589E+01 0.00000E+00
 -1      3043 2.27850E+01 1.05013E+01 0.00000E+00
 -1      3044 2.12850E+01 1.05013E+01 0.00000E+00
 -1      3045 1.89000E+01 3.83090E+01 0.00000E+00
 -1      3046 2.04000E+01 3.83090E+01 0.00000E+00
 -1      3047 2.19000E+01 3.83090E+01 0.00000E+00
 -1      3048 2.34000E+01 3.83090E+01 0.00000E+00
 -1      3049 2.11500E+01 3.70100E+01 0.00000E+00
 -1      3050 2.49000E+01 3.83090E+01 0.00000E+00
 -1      3051 2.64000E+01 3.83090E+01 0.00000E+00
 -1      3052 2.41500E+01 3.70100E+01 0.00000E+00
 -1      3053 2.79000E+01 3.83090E+01 0.00000E+00
 -1      3054 2.94000E+01 3.83090E+01 0.00000E+00
 -1      3055 2.71500E+01 3.70100E+01 0.00000E+00
 -1      3056 3.09000E+01 3.83090E+01 0.00000E+00
 -1      3057 3.24000E+01 3.83090E+01 0.00000E+00
 -1      3058 3.01500E+01 3.70100E+01 0.00000E+00
 -1      3059 3.39000E+01 3.83090E+01 0.00000E+00
 -1      3060 3.54000E+01 3.83090E+01 0.00000E+00
 -1      3061 3.31500E+01 3.70100E+01 0.00000E+00
 -1      3062 3.69000E+01 3.83090E+01 0.00000E+00
 -1      3063 3.84000E+01 3.83090E+01 0.00000E+00
 -1      3064 3.61500E+01 3.70100E+01 0.00000E+00
 -1      3065 3.99000E+01 3.83090E+01 0.00000E+00
 -1      3066 4.14000E+01 3.83090E+01 0.00000E+00
 -1      3067 3.91500E+01 3.70100E+01 0.00000E+00
 -1      3068 4.29000E+01 3.83090E+01 0.00000E+00
 -1      3069 4.44000E+01 3.83090E+01 0.00000E+00
 -1      3070 4.21500E+01 3.70100E+01 0.00000E+00
 -1      3071 4.59000E+01 3.83090E+01 0.00000E+00
 -1      3072 4.74000E+01 3.83090E+01 0.00000E+00
 -1      3073 4.51500E+01 3.70100E+01 0.00000E+00
 -1      3074 4.89000E+01 3.83090E+01 0.00000E+00
 -1      3075 5.04000E+01 3.83090E+01 0.00000E+00
 -1      3076 4.81500E+01 3.70100E+01 0.00000E+00
 -1      3077 5.19000E+01 3.83090E+01 0.00000E+00
 -1      3078 5.34000E+01 3.83090E+01 0.00000E+00
 -1      3079 5.11500E+01 3.70100E+01 0.00000E+00
 -1      3080 5.49000E+01 3.83090E+01 0.00000E+00
 -1      3081 5.64000E+01 3.83090E+01 0.00000E+00
 -1      3082 5.41500E+01 3.70100E+01 0.00000E+00
 -1      3083 5.79000E+01 3.83090E+01 0.00000E+00
 -1      3084 5.94000E+01 3.83090E+01 0.00000E+00
 -1      3085 5.71500E+01 3.70100E+01 0.00000E+00
 -1      3086 6.09000E+01 3.83090E+01 0.00000E+00
 -1      3087 6.24000E+01 3.83090E+01 0.00000E+00
 -1      3088 6.01500E+01 3.70100E+01 0.00000E+00
 -1      3089 6.39000E+01 3.83090E+01 0.00000E+00
 -1      3090 6.54000E+01 3.83090E+01 0.00000E+00
 -1      3091 6.31500E+01 3.70100E+01 0.00000E+00
 -1      3092 6.69000E+01 3.83090E+01 0.00000E+00
 -1      3093 6.84000E+01 3.83090E+01 0.00000E+00
 -1      3094 6.61500E+01 3.70100E+01 0.00000E+00
 -1      3095 6.99000E+01 3.83090E+01 0.00000E+00
 -1      3096 7.14000E+01 3.83090E+01 0.00000E+00
 -1      3097 6.91500E+01 3.70100E+01 0.00000E+00
 -1      3098 7.29000E+01 3.83090E+01 0.00000E+00
 -1      3099 7.44000E+01 3.83090E+01 0.00000E+00
 -1      3100 7.21500E+01 3.70100E+01 0.00000E+00
 -1      3101 7.59000E+01 3.83090E+01 0.00000E+00
 -1      3102 7.74000E+01 3.83090E+01 0.00000E+00
 -1      3103 7.51500E+01 3.70100E+01 0.00000E+00
 -1      3104 7.89000E+01 3.83090E+01 0.00000E+00
 -1      3105 8.04000E+01 3.83090E+01 0.00000E+00
 -1      3106 7.81500E+01 3.70100E+01 0.00000E+00
 -1      3107 8.19000E+01 3.83090E+01 0.00000E+00
 -1      3108 8.34000E+01 3.83090E+01 0.00000E+00
 -1      3109 8.11500E+01 3.70100E+01 0.00000E+00
 -1      3110 8.49000E+01 3.83090E+01 0.00000E+00
 -1      3111 8.64000E+01 3.83090E+01 0.00000E+00
 -1      3112 8.41500E+01 3.70100E+01 0.00000E+00
 -1      3113 8.79000E+01 3.83090E+01 0.00000E+00
 -1      3114 8.94000E+01 3.83090E+01 0.00000E+00
 -1      3115 8.71500E+01 3.70100E+01 0.00000E+00
 -1      3116 9.09000E+01 3.83090E+01 0.00000E+00
 -1      3117 9.24000E+01 3.83090E+01 0.00000E+00
 -1      3118 9.01500E+01 3.70100E+01 0.00000E+00
 -1      3119 9.39000E+01 3.83090E+01 0.00000E+00
 -1      3120 9.54000E+01 3.83090E+01 0.00000E+00
 -1      3121 9.31500E+01 3.70100E+01 0.00000E+00
 -1      3122 9.69000E+01 3.83090E+01 0.00000E+00
 -1      3123 9.84000E+01 3.83090E+01 0.00000E+00
 -1      3124 9.61500E+01 3.70100E+01 0.00000E+00
 -1      3125 9.99000E+01 3.83090E+01 0.00000E+00
 -1      3126 1.01400E+02 3.83090E+01 0.00000E+00
 -1      3127 9.91500E+01 3.70100E+01 0.00000E+00
 -1      3128 1.02900E+02 3.83090E+01 0.00000E+00
 -1      3129 1.04400E+02 3.83090E+01 0.00000E+00
 -1      3130 1.02150E+02 3.70100E+01 0.00000E+00
 -1      3131 1.05900E+02 3.83090E+01 0.00000E+00
 -1      3132 1.07400E+02 3.83090E+01 0.00000E+00
 -1      3133 1.05150E+02 3.70100E+01 0.00000E+00
 -1      3134 1.08900E+02 3.83090E+01 0.00000E+00
 -1      3135 1.10400E+02 3.83090E+01 0.00000E+00
 -1      3136 1.08150E+02 3.70100E+01 0.00000E+00
 -1      3137 1.11900E+02 3.83090E+01 0.00000E+00
 -1      3138 1.13400E+02 3.83090E+01 0.00000E+00
 -1      3139 1.11150E+02 3.70100E+01 0.00000E+00
 -1      3140 1.14900E+02 3.83090E+01 0.00000E+00
 -1      3141 1.16400E+02 3.83090E+01 0.00000E+00
 -1      3142 1.14150E+02 3.70100E+01 0.00000E+00
 -1      3143 1.17900E+02 3.83090E+01 0.00000E+00
 -1      3144 1.19400E+02 3.83090E+01 0.00000E+00
 -1      3145 1.17150E+02 3.70100E+01 0.00000E+00
 -1      3146 1.23900E+02 3.84991E+01 0.00000E+00
 -1      3147 1.25400E+02 3.84991E+01 0.00000E+00
 -1      3148 1.27011E+02 3.82700E+01 0.00000E+00
 -1      3149 1.28511E+02 3.82700E+01 0.00000E+00
 -1      3150 1.29964E+02 3.79729E+01 0.00000E+00
 -1      3151 1.31464E+02 3.79729E+01 0.00000E+00
 -1      3152 1.32999E+02 3.77608E+01 0.00000E+00
 -1      3153 1.34499E+02 3.77608E+01 0.00000E+00
 -1      3154 1.40797E+02 2.73799E+01 0.00000E+00
 -1      3155 1.30035E+02 9.17973E+00 0.00000E+00
 -1      3156 3.17850E+01 1.05013E+01 0.00000E+00
 -1      3157 3.02850E+01 1.05013E+01 0.00000E+00
 -1      3158 4.07850E+01 1.05013E+01 0.00000E+00
 -1      3159 3.92850E+01 1.05013E+01 0.00000E+00
 -1      3160 4.37850E+01 1.05013E+01 0.00000E+00
 -1      3161 4.22850E+01 1.05013E+01 0.00000E+00
 -1      3162 4.15350E+01 1.18003E+01 0.00000E+00
 -1      3163 4.67850E+01 1.05013E+01 0.00000E+00
 -1      3164 4.52850E+01 1.05013E+01 0.00000E+00
 -1      3165 4.45350E+01 1.18003E+01 0.00000E+00
 -1      3166 4.97850E+01 1.05013E+01 0.00000E+00
 -1      3167 4.82850E+01 1.05013E+01 0.00000E+00
 -1      3168 4.75350E+01 1.18003E+01 0.00000E+00
 -1      3169 5.27850E+01 1.05013E+01 0.00000E+00
 -1      3170 5.12850E+01 1.05013E+01 0.00000E+00
 -1      3171 5.05350E+01 1.18003E+01 0.00000E+00
 -1      3172 5.57850E+01 1.05013E+01 0.00000E+00
 -1      3173 5.42850E+01 1.05013E+01 0.00000E+00
 -1      3174 5.35350E+01 1.18003E+01 0.00000E+00
 -1      3175 5.87850E+01 1.05013E+01 0.00000E+00
 -1      3176 5.72850E+01 1.05013E+01 0.00000E+00
 -1      3177 5.65350E+01 1.18003E+01 0.00000E+00
 -1      3178 6.17850E+01 1.05013E+01 0.00000E+00
 -1      3179 6.02850E+01 1.05013E+01 0.00000E+00
 -1      3180 5.95350E+01 1.18003E+01 0.00000E+00
 -1      3181 6.47850E+01 1.05013E+01 0.00000E+00
 -1      3182 6.32850E+01 1.05013E+01 0.00000E+00
 -1      3183 6.25350E+01 1.18003E+01 0.00000E+00
 -1      3184 6.77850E+01 1.05013E+01 0.00000E+00
 -1      3185 6.62850E+01 1.05013E+01 0.00000E+00
 -1      3186 6.55350E+01 1.18003E+01 0.00000E+00
 -1      3187 7.07850E+01 1.05013E+01 0.00000E+00
 -1      3188 6.92850E+01 1.05013E+01 0.00000E+00
 -1      3189 6.85350E+01 1.18003E+01 0.00000E+00
 -1      3190 7.37850E+01 1.05013E+01 0.00000E+00
 -1      3191 7.22850E+01 1.05013E+01 0.00000E+00
 -1      3192 7.15350E+01 1.18003E+01 0.00000E+00
 -1      3193 7.67850E+01 1.05013E+01 0.00000E+00
 -1      3194 7.52850E+01 1.05013E+01 0.00000E+00
 -1      3195 7.45350E+01 1.18003E+01 0.00000E+00
 -1      3196 7.97850E+01 1.05013E+01 0.00000E+00
 -1      3197 7.82850E+01 1.05013E+01 0.00000E+00
 -1      3198 7.75350E+01 1.18003E+01 0.00000E+00
 -1      3199 8.27850E+01 1.05013E+01 0.00000E+00
 -1      3200 8.12850E+01 1.05013E+01 0.00000E+00
 -1      3201 8.05350E+01 1.18003E+01 0.00000E+00
 -1      3202 8.57850E+01 1.05013E+01 0.00000E+00
 -1      3203 8.42850E+01 1.05013E+01 0.00000E+00
 -1      3204 8.35350E+01 1.18003E+01 0.00000E+00
 -1      3205 8.87850E+01 1.05013E+01 0.00000E+00
 -1      3206 8.72850E+01 1.05013E+01 0.00000E+00
 -1      3207 8.65350E+01 1.18003E+01 0.00000E+00
 -1      3208 9.17850E+01 1.05013E+01 0.00000E+00
 -1      3209 9.02850E+01 1.05013E+01 0.00000E+00
 -1      3210 8.95350E+01 1.18003E+01 0.00000E+00
 -1      3211 9.47850E+01 1.05013E+01 0.00000E+00
 -1      3212 9.32850E+01 1.05013E+01 0.00000E+00
 -1      3213 9.25350E+01 1.18003E+01 0.00000E+00
 -1      3214 9.77850E+01 1.05013E+01 0.00000E+00
 -1      3215 9.62850E+01 1.05013E+01 0.00000E+00
 -1      3216 9.55350E+01 1.18003E+01 0.00000E+00
 -1      3217 1.00785E+02 1.05013E+01 0.00000E+00
 -1      3218 9.92850E+01 1.05013E+01 0.00000E+00
 -1      3219 9.85350E+01 1.18003E+01 0.00000E+00
 -1      3220 1.03785E+02 1.05013E+01 0.00000E+00
 -1      3221 1.02285E+02 1.05013E+01 0.00000E+00
 -1      3222 1.01535E+02 1.18003E+01 0.00000E+00
 -1      3223 1.06785E+02 1.05013E+01 0.00000E+00
 -1      3224 1.05285E+02 1.05013E+01 0.00000E+00
 -1      3225 1.04535E+02 1.18003E+01 0.00000E+00
 -1      3226 1.09785E+02 1.05013E+01 0.00000E+00
 -1      3227 1.08285E+02 1.05013E+01 0.00000E+00
 -1      3228 1.07535E+02 1.18003E+01 0.00000E+00
 -1      3229 1.12785E+02 1.05013E+01 0.00000E+00
 -1      3230 1.11285E+02 1.05013E+01 0.00000E+00
 -1      3231 1.10535E+02 1.18003E+01 0.00000E+00
 -1      3232 1.18659E+02 1.03997E+01 0.00000E+00
 -1      3233 1.17159E+02 1.03997E+01 0.00000E+00
 -1      3234 1.23984E+02 8.69980E+00 0.00000E+00
 -1      3235 1.15831E+02 2.98768E+01 0.00000E+00
 -1      3236 1.15114E+02 2.84273E+01 0.00000E+00
 -1      3237 1.41782E+02 2.25048E+01 0.00000E+00
 -1      3238 1.16910E+01 2.12875E+01 0.00000E+00
 -1      3239 1.16910E+01 2.27625E+01 0.00000E+00
 -1      3240 1.40797E+02 2.59049E+01 0.00000E+00
 -1      3241 1.40945E+02 2.46828E+01 0.00000E+00
 -1      3242 1.41782E+02 2.39798E+01 0.00000E+00
 -1      3243 1.39988E+02 3.08875E+01 0.00000E+00
 -1      3244 1.19997E+02 3.48147E+01 0.00000E+00
 -1      3245 1.18770E+02 3.37742E+01 0.00000E+00
 -1      3246 2.87850E+01 1.05013E+01 0.00000E+00
 -1      3247 2.72850E+01 1.05013E+01 0.00000E+00
 -1      3248 2.95350E+01 1.18003E+01 0.00000E+00
 -1      3249 1.38577E+02 1.05896E+01 0.00000E+00
 -1      3250 3.77850E+01 1.05013E+01 0.00000E+00
 -1      3251 3.62850E+01 1.05013E+01 0.00000E+00
 -1      3252 3.85350E+01 1.18003E+01 0.00000E+00
 -1      3253 1.29000E+01 3.83090E+01 0.00000E+00
 -1      3254 1.44000E+01 3.83090E+01 0.00000E+00
 -1      3255 3.47850E+01 1.05013E+01 0.00000E+00
 -1      3256 3.32850E+01 1.05013E+01 0.00000E+00
 -1      3257 3.25350E+01 1.18003E+01 0.00000E+00
 -1      3258 3.55350E+01 1.18003E+01 0.00000E+00
 -1      3259 2.57850E+01 1.05013E+01 0.00000E+00
 -1      3260 2.42850E+01 1.05013E+01 0.00000E+00
 -1      3261 2.65350E+01 1.18003E+01 0.00000E+00
 -1      3262 1.16532E+02 1.58793E+01 0.00000E+00
 -1      3263 1.16982E+02 1.45986E+01 0.00000E+00
 -1      3264 1.38370E+02 1.26243E+01 0.00000E+00
 -1      3265 1.59000E+01 3.83090E+01 0.00000E+00
 -1      3266 1.74000E+01 3.83090E+01 0.00000E+00
 -1      3267 1.81500E+01 3.70100E+01 0.00000E+00
 -1      3268 1.17683E+02 3.24484E+01 0.00000E+00
 -1      3269 1.16774E+02 3.13495E+01 0.00000E+00
 -1      3270 1.25550E+02 3.66818E+01 0.00000E+00
 -1      3271 1.24338E+02 3.64335E+01 0.00000E+00
 -1      3272 1.14546E+02 2.68285E+01 0.00000E+00
 -1      3273 1.14301E+02 2.55929E+01 0.00000E+00
 -1      3274 1.15603E+02 1.79840E+01 0.00000E+00
 -1      3275 1.16068E+02 1.69316E+01 0.00000E+00
 -1      3276 1.15246E+02 1.59241E+01 0.00000E+00
 -1      3277 1.26488E+01 1.02017E+01 0.00000E+00
 -1      3278 1.20772E+01 1.14631E+01 0.00000E+00
 -1      3279 1.33763E+01 1.22006E+01 0.00000E+00
 -1      3280 1.41488E+01 1.02017E+01 0.00000E+00
 -1      3281 1.22987E+02 3.61666E+01 0.00000E+00
 -1      3282 1.21664E+02 3.56408E+01 0.00000E+00
 -1      3283 1.12710E+01 3.74352E+01 0.00000E+00
 -1      3284 1.20855E+01 3.78721E+01 0.00000E+00
 -1      3285 1.12065E+01 3.56994E+01 0.00000E+00
 -1      3286 1.36918E+02 3.42636E+01 0.00000E+00
 -1      3287 1.35994E+02 3.50059E+01 0.00000E+00
 -1      3288 1.16910E+01 2.42375E+01 0.00000E+00
 -1      3289 1.16910E+01 2.57125E+01 0.00000E+00
 -1      3290 1.29900E+01 2.35000E+01 0.00000E+00
 -1      3291 1.29900E+01 1.46687E+01 0.00000E+00
 -1      3292 1.16910E+01 1.54063E+01 0.00000E+00
 -1      3293 1.16910E+01 1.68750E+01 0.00000E+00
 -1      3294 1.36656E+02 3.61995E+01 0.00000E+00
 -1      3295 1.35500E+02 3.57063E+01 0.00000E+00
 -1      3296 1.35005E+02 3.64067E+01 0.00000E+00
 -1      3297 1.20279E+02 3.60302E+01 0.00000E+00
 -1      3298 1.16747E+02 1.32345E+01 0.00000E+00
 -1      3299 1.12065E+01 3.27619E+01 0.00000E+00
 -1      3300 1.12065E+01 3.42306E+01 0.00000E+00
 -1      3301 1.20210E+01 3.46675E+01 0.00000E+00
 -1      3302 1.29326E+02 3.66349E+01 0.00000E+00
 -1      3303 2.05350E+01 1.18003E+01 0.00000E+00
 -1      3304 1.97850E+01 1.05013E+01 0.00000E+00
 -1      3305 1.82850E+01 1.05013E+01 0.00000E+00
 -1      3306 1.26300E+02 3.77907E+01 0.00000E+00
 -1      3307 1.21048E+02 3.82321E+01 0.00000E+00
 -1      3308 1.22548E+02 3.82321E+01 0.00000E+00
 -1      3309 1.35656E+02 3.82540E+01 0.00000E+00
 -1      3310 1.37156E+02 3.82540E+01 0.00000E+00
 -1      3311 1.14498E+02 2.17132E+01 0.00000E+00
 -1      3312 1.13919E+02 2.09541E+01 0.00000E+00
 -1      3313 1.13576E+02 2.24298E+01 0.00000E+00
 -1      3314 1.51500E+01 3.70100E+01 0.00000E+00
 -1      3315 1.16203E+02 1.18171E+01 0.00000E+00
 -1      3316 1.15579E+02 1.06196E+01 0.00000E+00
 -1      3317 1.14079E+02 1.06196E+01 0.00000E+00
 -1      3318 1.15167E+02 1.34544E+01 0.00000E+00
 -1      3319 1.13329E+02 1.19186E+01 0.00000E+00
 -1      3320 1.20034E+02 1.05615E+01 0.00000E+00
 -1      3321 1.23234E+02 9.99880E+00 0.00000E+00
 -1      3322 1.21534E+02 1.05615E+01 0.00000E+00
 -1      3323 1.15496E+02 3.10797E+01 0.00000E+00
 -1      3324 1.12065E+01 3.12931E+01 0.00000E+00
 -1      3325 1.20210E+01 3.17300E+01 0.00000E+00
 -1      3326 1.12065E+01 2.98244E+01 0.00000E+00
 -1      3327 1.38985E+02 3.74540E+01 0.00000E+00
 -1      3328 1.32313E+02 3.61257E+01 0.00000E+00
 -1      3329 1.16910E+01 1.98188E+01 0.00000E+00
 -1      3330 1.29900E+01 2.05562E+01 0.00000E+00
 -1      3331 1.16910E+01 1.83500E+01 0.00000E+00
 -1      3332 1.14811E+02 1.86070E+01 0.00000E+00
 -1      3333 1.13986E+02 2.80082E+01 0.00000E+00
 -1      3334 1.38486E+02 3.53995E+01 0.00000E+00
 -1      3335 1.38486E+02 3.39245E+01 0.00000E+00
 -1      3336 1.13786E+02 2.47991E+01 0.00000E+00
 -1      3337 1.13271E+02 2.40053E+01 0.00000E+00
 -1      3338 1.12902E+02 2.56156E+01 0.00000E+00
 -1      3339 1.39354E+02 3.17733E+01 0.00000E+00
 -1      3340 2.35350E+01 1.18003E+01 0.00000E+00
 -1      3341 1.69669E+01 1.03515E+01 0.00000E+00
 -1      3342 1.54669E+01 1.03515E+01 0.00000E+00
 -1      3343 1.50806E+01 1.13509E+01 0.00000E+00
 -1      3344 1.77169E+01 1.16505E+01 0.00000E+00
 -1      3345 1.17525E+02 3.38783E+01 0.00000E+00
 -1      3346 1.37045E+02 9.97693E+00 0.00000E+00
 -1      3347 1.35545E+02 9.97693E+00 0.00000E+00
 -1      3348 1.28355E+01 3.65731E+01 0.00000E+00
 -1      3349 1.23298E+02 3.71232E+01 0.00000E+00
 -1      3350 1.34381E+02 1.04259E+01 0.00000E+00
 -1      3351 1.38087E+02 1.14093E+01 0.00000E+00
 -1      3352 1.37650E+02 3.75535E+01 0.00000E+00
 -1      3353 1.38253E+02 3.26890E+01 0.00000E+00
 -1      3354 1.33201E+02 1.00117E+01 0.00000E+00
 -1      3355 1.20298E+02 3.69331E+01 0.00000E+00
 -1      3356 2.34000E+01 3.57110E+01 0.00000E+00
 -1      3357 2.49000E+01 3.57110E+01 0.00000E+00
 -1      3358 2.64000E+01 3.57110E+01 0.00000E+00
 -1      3359 2.79000E+01 3.57110E+01 0.00000E+00
 -1      3360 2.56500E+01 3.44120E+01 0.00000E+00
 -1      3361 2.94000E+01 3.57110E+01 0.00000E+00
 -1      3362 3.09000E+01 3.57110E+01 0.00000E+00
 -1      3363 2.86500E+01 3.44120E+01 0.00000E+00
 -1      3364 3.24000E+01 3.57110E+01 0.00000E+00
 -1      3365 3.39000E+01 3.57110E+01 0.00000E+00
 -1      3366 3.16500E+01 3.44120E+01 0.00000E+00
 -1      3367 3.54000E+01 3.57110E+01 0.00000E+00
 -1      3368 3.69000E+01 3.57110E+01 0.00000E+00
 -1      3369 3.46500E+01 3.44120E+01 0.00000E+00
 -1      3370 3.84000E+01 3.57110E+01 0.00000E+00
 -1      3371 3.99000E+01 3.57110E+01 0.00000E+00
 -1      3372 3.76500E+01 3.44120E+01 0.00000E+00
 -1      3373 4.14000E+01 3.57110E+01 0.00000E+00
 -1      3374 4.29000E+01 3.57110E+01 0.00000E+00
 -1      3375 4.06500E+01 3.44120E+01 0.00000E+00
 -1      3376 4.44000E+01 3.57110E+01 0.00000E+00
 -1      3377 4.59000E+01 3.57110E+01 0.00000E+00
 -1      3378 4.36500E+01 3.44120E+01 0.00000E+00
 -1      3379 4.74000E+01 3.57110E+01 0.00000E+00
 -1      3380 4.89000E+01 3.57110E+01 0.00000E+00
 -1      3381 4.66500E+01 3.44120E+01 0.00000E+00
 -1      3382 5.04000E+01 3.57110E+01 0.00000E+00
 -1      3383 5.19000E+01 3.57110E+01 0.00000E+00
 -1      3384 4.96500E+01 3.44120E+01 0.00000E+00
 -1      3385 5.34000E+01 3.57110E+01 0.00000E+00
 -1      3386 5.49000E+01 3.57110E+01 0.00000E+00
 -1      3387 5.26500E+01 3.44120E+01 0.00000E+00
 -1      3388 5.64000E+01 3.57110E+01 0.00000E+00
 -1      3389 5.79000E+01 3.57110E+01 0.00000E+00
 -1      3390 5.56500E+01 3.44120E+01 0.00000E+00
 -1      3391 5.94000E+01 3.57110E+01 0.00000E+00
 -1      3392 6.09000E+01 3.57110E+01 0.00000E+00
 -1      3393 5.86500E+01 3.44120E+01 0.00000E+00
 -1      3394 6.24000E+01 3.57110E+01 0.00000E+00
 -1      3395 6.39000E+01 3.57110E+01 0.00000E+00
 -1      3396 6.16500E+01 3.44120E+01 0.00000E+00
 -1      3397 6.54000E+01 3.57110E+01 0.00000E+00
 -1      3398 6.69000E+01 3.57110E+01 0.00000E+00
 -1      3399 6.46500E+01 3.44120E+01 0.00000E+00
 -1      3400 6.84000E+01 3.57110E+01 0.00000E+00
 -1      3401 6.99000E+01 3.57110E+01 0.00000E+00
 -1      3402 6.76500E+01 3.44120E+01 0.00000E+00
 -1      3403 7.14000E+01 3.57110E+01 0.00000E+00
 -1      3404 7.29000E+01 3.57110E+01 0.00000E+00
 -1      3405 7.06500E+01 3.44120E+01 0.00000E+00
 -1      3406 7.44000E+01 3.57110E+01 0.00000E+00
 -1      3407 7.59000E+01 3.57110E+01 0.00000E+00
 -1      3408 7.36500E+01 3.44120E+01 0.00000E+00
 -1      3409 7.74000E+01 3.57110E+01 0.00000E+00
 -1      3410 7.89000E+01 3.57110E+01 0.00000E+00
 -1      3411 7.66500E+01 3.44120E+01 0.00000E+00
 -1      3412 8.04000E+01 3.57110E+01 0.00000E+00
 -1      3413 8.19000E+01 3.57110E+01 0.00000E+00
 -1      3414 7.96500E+01 3.44120E+01 0.00000E+00
 -1      3415 8.34000E+01 3.57110E+01 0.00000E+00
 -1      3416 8.49000E+01 3.57110E+01 0.00000E+00
 -1      3417 8.26500E+01 3.44120E+01 0.00000E+00
 -1      3418 8.64000E+01 3.57110E+01 0.00000E+00
 -1      3419 8.79000E+01 3.57110E+01 0.00000E+00
 -1      3420 8.56500E+01 3.44120E+01 0.00000E+00
 -1      3421 8.94000E+01 3.57110E+01 0.00000E+00
 -1      3422 9.09000E+01 3.57110E+01 0.00000E+00
 -1      3423 8.86500E+01 3.44120E+01 0.00000E+00
 -1      3424 9.24000E+01 3.57110E+01 0.00000E+00
 -1      3425 9.39000E+01 3.57110E+01 0.00000E+00
 -1      3426 9.16500E+01 3.44120E+01 0.00000E+00
 -1      3427 9.54000E+01 3.57110E+01 0.00000E+00
 -1      3428 9.69000E+01 3.57110E+01 0.00000E+00
 -1      3429 9.46500E+01 3.44120E+01 0.00000E+00
 -1      3430 9.84000E+01 3.57110E+01 0.00000E+00
 -1      3431 9.99000E+01 3.57110E+01 0.00000E+00
 -1      3432 9.76500E+01 3.44120E+01 0.00000E+00
 -1      3433 1.01400E+02 3.57110E+01 0.00000E+00
 -1      3434 1.02900E+02 3.57110E+01 0.00000E+00
 -1      3435 1.00650E+02 3.44120E+01 0.00000E+00
 -1      3436 1.04400E+02 3.57110E+01 0.00000E+00
 -1      3437 1.05900E+02 3.57110E+01 0.00000E+00
 -1      3438 1.03650E+02 3.44120E+01 0.00000E+00
 -1      3439 1.07400E+02 3.57110E+01 0.00000E+00
 -1      3440 1.08900E+02 3.57110E+01 0.00000E+00
 -1      3441 1.06650E+02 3.44120E+01 0.00000E+00
 -1      3442 1.10400E+02 3.57110E+01 0.00000E+00
 -1      3443 1.11900E+02 3.57110E+01 0.00000E+00
 -1      3444 1.09650E+02 3.44120E+01 0.00000E+00
 -1      3445 1.13400E+02 3.57110E+01 0.00000E+00
 -1      3446 1.14900E+02 3.57110E+01 0.00000E+00
 -1      3447 1.12650E+02 3.44120E+01 0.00000E+00
 -1      3448 3.02850E+01 1.30992E+01 0.00000E+00
 -1      3449 2.87850E+01 1.30992E+01 0.00000E+00
 -1      3450 4.52850E+01 1.30992E+01 0.00000E+00
 -1      3451 4.37850E+01 1.30992E+01 0.00000E+00
 -1      3452 2.72850E+01 1.30992E+01 0.00000E+00
 -1      3453 2.57850E+01 1.30992E+01 0.00000E+00
 -1      3454 2.80350E+01 1.43982E+01 0.00000E+00
 -1      3455 1.14417E+02 1.47534E+01 0.00000E+00
 -1      3456 1.13873E+02 1.33360E+01 0.00000E+00
 -1      3457 1.12579E+02 1.32176E+01 0.00000E+00
 -1      3458 4.22850E+01 1.30992E+01 0.00000E+00
 -1      3459 4.07850E+01 1.30992E+01 0.00000E+00
 -1      3460 4.30350E+01 1.43982E+01 0.00000E+00
 -1      3461 5.12850E+01 1.30992E+01 0.00000E+00
 -1      3462 4.97850E+01 1.30992E+01 0.00000E+00
 -1      3463 5.42850E+01 1.30992E+01 0.00000E+00
 -1      3464 5.27850E+01 1.30992E+01 0.00000E+00
 -1      3465 5.20350E+01 1.43982E+01 0.00000E+00
 -1      3466 5.72850E+01 1.30992E+01 0.00000E+00
 -1      3467 5.57850E+01 1.30992E+01 0.00000E+00
 -1      3468 5.50350E+01 1.43982E+01 0.00000E+00
 -1      3469 6.02850E+01 1.30992E+01 0.00000E+00
 -1      3470 5.87850E+01 1.30992E+01 0.00000E+00
 -1      3471 5.80350E+01 1.43982E+01 0.00000E+00
 -1      3472 6.32850E+01 1.30992E+01 0.00000E+00
 -1      3473 6.17850E+01 1.30992E+01 0.00000E+00
 -1      3474 6.10350E+01 1.43982E+01 0.00000E+00
 -1      3475 6.62850E+01 1.30992E+01 0.00000E+00
 -1      3476 6.47850E+01 1.30992E+01 0.00000E+00
 -1      3477 6.40350E+01 1.43982E+01 0.00000E+00
 -1      3478 6.92850E+01 1.30992E+01 0.00000E+00
 -1      3479 6.77850E+01 1.30992E+01 0.00000E+00
 -1      3480 6.70350E+01 1.43982E+01 0.00000E+00
 -1      3481 7.22850E+01 1.30992E+01 0.00000E+00
 -1      3482 7.07850E+01 1.30992E+01 0.00000E+00
 -1      3483 7.00350E+01 1.43982E+01 0.00000E+00
 -1      3484 7.52850E+01 1.30992E+01 0.00000E+00
 -1      3485 7.37850E+01 1.30992E+01 0.00000E+00
 -1      3486 7.30350E+01 1.43982E+01 0.00000E+00
 -1      3487 7.82850E+01 1.30992E+01 0.00000E+00
 -1      3488 7.67850E+01 1.30992E+01 0.00000E+00
 -1      3489 7.60350E+01 1.43982E+01 0.00000E+00
 -1      3490 8.12850E+01 1.30992E+01 0.00000E+00
 -1      3491 7.97850E+01 1.30992E+01 0.00000E+00
 -1      3492 7.90350E+01 1.43982E+01 0.00000E+00
 -1      3493 8.42850E+01 1.30992E+01 0.00000E+00
 -1      3494 8.27850E+01 1.30992E+01 0.00000E+00
 -1      3495 8.20350E+01 1.43982E+01 0.00000E+00
 -1      3496 8.72850E+01 1.30992E+01 0.00000E+00
 -1      3497 8.57850E+01 1.30992E+01 0.00000E+00
 -1      3498 8.50350E+01 1.43982E+01 0.00000E+00
 -1      3499 9.02850E+01 1.30992E+01 0.00000E+00
 -1      3500 8.87850E+01 1.30992E+01 0.00000E+00
 -1      3501 8.80350E+01 1.43982E+01 0.00000E+00
 -1      3502 9.32850E+01 1.30992E+01 0.00000E+00
 -1      3503 9.17850E+01 1.30992E+01 0.00000E+00
 -1      3504 9.10350E+01 1.43982E+01 0.00000E+00
 -1      3505 9.62850E+01 1.30992E+01 0.00000E+00
 -1      3506 9.47850E+01 1.30992E+01 0.00000E+00
 -1      3507 9.40350E+01 1.43982E+01 0.00000E+00
 -1      3508 9.92850E+01 1.30992E+01 0.00000E+00
 -1      3509 9.77850E+01 1.30992E+01 0.00000E+00
 -1      3510 9.70350E+01 1.43982E+01 0.00000E+00
 -1      3511 1.02285E+02 1.30992E+01 0.00000E+00
 -1      3512 1.00785E+02 1.30992E+01 0.00000E+00
 -1      3513 1.00035E+02 1.43982E+01 0.00000E+00
 -1      3514 1.05285E+02 1.30992E+01 0.00000E+00
 -1      3515 1.03785E+02 1.30992E+01 0.00000E+00
 -1      3516 1.03035E+02 1.43982E+01 0.00000E+00
 -1      3517 1.08285E+02 1.30992E+01 0.00000E+00
 -1      3518 1.06785E+02 1.30992E+01 0.00000E+00
 -1      3519 1.06035E+02 1.43982E+01 0.00000E+00
 -1      3520 1.11182E+02 1.31584E+01 0.00000E+00
 -1      3521 1.09682E+02 1.31584E+01 0.00000E+00
 -1      3522 1.08932E+02 1.44574E+01 0.00000E+00
 -1      3523 1.11726E+02 1.45758E+01 0.00000E+00
 -1      3524 1.27570E+02 1.01282E+01 0.00000E+00
 -1      3525 1.13885E+02 1.94398E+01 0.00000E+00
 -1      3526 1.13855E+02 1.78092E+01 0.00000E+00
 -1      3527 1.31701E+02 1.00117E+01 0.00000E+00
 -1      3528 1.74000E+01 3.57110E+01 0.00000E+00
 -1      3529 1.89000E+01 3.57110E+01 0.00000E+00
 -1      3530 1.30201E+02 1.00342E+01 0.00000E+00
 -1      3531 1.28355E+01 3.36356E+01 0.00000E+00
 -1      3532 1.28355E+01 3.51044E+01 0.00000E+00
 -1      3533 1.36500E+01 3.55412E+01 0.00000E+00
 -1      3534 4.82850E+01 1.30992E+01 0.00000E+00
 -1      3535 4.67850E+01 1.30992E+01 0.00000E+00
 -1      3536 4.60350E+01 1.43982E+01 0.00000E+00
 -1      3537 4.90350E+01 1.43982E+01 0.00000E+00
 -1      3538 1.14487E+01 2.70341E+01 0.00000E+00
 -1      3539 1.14487E+01 2.85028E+01 0.00000E+00
 -1      3540 1.22633E+01 2.89397E+01 0.00000E+00
 -1      3541 1.27478E+01 2.62966E+01 0.00000E+00
 -1      3542 3.92850E+01 1.30992E+01 0.00000E+00
 -1      3543 3.77850E+01 1.30992E+01 0.00000E+00
 -1      3544 4.00350E+01 1.43982E+01 0.00000E+00
 -1      3545 2.04000E+01 3.57110E+01 0.00000E+00
 -1      3546 2.19000E+01 3.57110E+01 0.00000E+00
 -1      3547 2.26500E+01 3.44120E+01 0.00000E+00
 -1      3548 1.46944E+01 1.23503E+01 0.00000E+00
 -1      3549 1.43081E+01 1.33498E+01 0.00000E+00
 -1      3550 1.60125E+01 1.25001E+01 0.00000E+00
 -1      3551 1.15033E+02 3.24138E+01 0.00000E+00
 -1      3552 1.14091E+02 3.09410E+01 0.00000E+00
 -1      3553 1.13046E+02 2.92425E+01 0.00000E+00
 -1      3554 1.12478E+02 2.76437E+01 0.00000E+00
 -1      3555 1.16381E+02 3.48081E+01 0.00000E+00
 -1      3556 1.15294E+02 3.34822E+01 0.00000E+00
 -1      3557 1.13952E+02 1.58057E+01 0.00000E+00
 -1      3558 1.47750E+01 3.56261E+01 0.00000E+00
 -1      3559 1.62750E+01 3.56261E+01 0.00000E+00
 -1      3560 1.70250E+01 3.43271E+01 0.00000E+00
 -1      3561 1.47750E+01 3.41574E+01 0.00000E+00
 -1      3562 2.42850E+01 1.30992E+01 0.00000E+00
 -1      3563 2.27850E+01 1.30992E+01 0.00000E+00
 -1      3564 2.50350E+01 1.43982E+01 0.00000E+00
 -1      3565 1.43081E+01 1.48185E+01 0.00000E+00
 -1      3566 1.42890E+01 2.27625E+01 0.00000E+00
 -1      3567 1.42890E+01 2.42375E+01 0.00000E+00
 -1      3568 2.12850E+01 1.30992E+01 0.00000E+00
 -1      3569 1.97850E+01 1.30992E+01 0.00000E+00
 -1      3570 2.20350E+01 1.43982E+01 0.00000E+00
 -1      3571 1.29900E+01 1.76125E+01 0.00000E+00
 -1      3572 1.17131E+02 3.61071E+01 0.00000E+00
 -1      3573 1.18631E+02 3.61071E+01 0.00000E+00
 -1      3574 1.12692E+02 2.32462E+01 0.00000E+00
 -1      3575 1.12113E+02 2.24871E+01 0.00000E+00
 -1      3576 1.11808E+02 2.40627E+01 0.00000E+00
 -1      3577 1.12963E+02 2.01563E+01 0.00000E+00
 -1      3578 1.28355E+01 3.21669E+01 0.00000E+00
 -1      3579 1.36500E+01 3.26037E+01 0.00000E+00
 -1      3580 1.28355E+01 3.06981E+01 0.00000E+00
 -1      3581 3.62850E+01 1.30992E+01 0.00000E+00
 -1      3582 3.47850E+01 1.30992E+01 0.00000E+00
 -1      3583 3.70350E+01 1.43982E+01 0.00000E+00
 -1      3584 1.42890E+01 2.12938E+01 0.00000E+00
 -1      3585 1.55880E+01 2.20313E+01 0.00000E+00
 -1      3586 1.42890E+01 1.98250E+01 0.00000E+00
 -1      3587 1.12583E+02 3.05765E+01 0.00000E+00
 -1      3588 1.96500E+01 3.44120E+01 0.00000E+00
 -1      3589 3.32850E+01 1.30992E+01 0.00000E+00
 -1      3590 3.17850E+01 1.30992E+01 0.00000E+00
 -1      3591 3.40350E+01 1.43982E+01 0.00000E+00
 -1      3592 3.10350E+01 1.43982E+01 0.00000E+00
 -1      3593 1.13889E+02 3.33435E+01 0.00000E+00
 -1      3594 1.13026E+02 1.66385E+01 0.00000E+00
 -1      3595 1.11022E+02 2.80842E+01 0.00000E+00
 -1      3596 1.11962E+02 2.68499E+01 0.00000E+00
 -1      3597 1.11447E+02 2.60561E+01 0.00000E+00
 -1      3598 1.55798E+01 2.49984E+01 0.00000E+00
 -1      3599 1.42808E+01 2.57359E+01 0.00000E+00
 -1      3600 2.87850E+01 1.56973E+01 0.00000E+00
 -1      3601 2.72850E+01 1.56973E+01 0.00000E+00
 -1      3602 2.79000E+01 3.31130E+01 0.00000E+00
 -1      3603 2.94000E+01 3.31130E+01 0.00000E+00
 -1      3604 3.09000E+01 3.31130E+01 0.00000E+00
 -1      3605 3.24000E+01 3.31130E+01 0.00000E+00
 -1      3606 3.01500E+01 3.18140E+01 0.00000E+00
 -1      3607 3.39000E+01 3.31130E+01 0.00000E+00
 -1      3608 3.54000E+01 3.31130E+01 0.00000E+00
 -1      3609 3.31500E+01 3.18140E+01 0.00000E+00
 -1      3610 3.69000E+01 3.31130E+01 0.00000E+00
 -1      3611 3.84000E+01 3.31130E+01 0.00000E+00
 -1      3612 3.61500E+01 3.18140E+01 0.00000E+00
 -1      3613 3.99000E+01 3.31130E+01 0.00000E+00
 -1      3614 4.14000E+01 3.31130E+01 0.00000E+00
 -1      3615 3.91500E+01 3.18140E+01 0.00000E+00
 -1      3616 4.29000E+01 3.31130E+01 0.00000E+00
 -1      3617 4.44000E+01 3.31130E+01 0.00000E+00
 -1      3618 4.21500E+01 3.18140E+01 0.00000E+00
 -1      3619 4.59000E+01 3.31130E+01 0.00000E+00
 -1      3620 4.74000E+01 3.31130E+01 0.00000E+00
 -1      3621 4.51500E+01 3.18140E+01 0.00000E+00
 -1      3622 4.89000E+01 3.31130E+01 0.00000E+00
 -1      3623 5.04000E+01 3.31130E+01 0.00000E+00
 -1      3624 4.81500E+01 3.18140E+01 0.00000E+00
 -1      3625 5.19000E+01 3.31130E+01 0.00000E+00
 -1      3626 5.34000E+01 3.31130E+01 0.00000E+00
 -1      3627 5.11500E+01 3.18140E+01 0.00000E+00
 -1      3628 5.49000E+01 3.31130E+01 0.00000E+00
 -1      3629 5.64000E+01 3.31130E+01 0.00000E+00
 -1      3630 5.41500E+01 3.18140E+01 0.00000E+00
 -1      3631 5.79000E+01 3.31130E+01 0.00000E+00
 -1      3632 5.94000E+01 3.31130E+01 0.00000E+00
 -1      3633 5.71500E+01 3.18140E+01 0.00000E+00
 -1      3634 6.09000E+01 3.31130E+01 0.00000E+00
 -1      3635 6.24000E+01 3.31130E+01 0.00000E+00
 -1      3636 6.01500E+01 3.18140E+01 0.00000E+00
 -1      3637 6.39000E+01 3.31130E+01 0.00000E+00
 -1      3638 6.54000E+01 3.31130E+01 0.00000E+00
 -1      3639 6.31500E+01 3.18140E+01 0.00000E+00
 -1      3640 6.69000E+01 3.31130E+01 0.00000E+00
 -1      3641 6.84000E+01 3.31130E+01 0.00000E+00
 -1      3642 6.61500E+01 3.18140E+01 0.00000E+00
 -1      3643 6.99000E+01 3.31130E+01 0.00000E+00
 -1      3644 7.14000E+01 3.31130E+01 0.00000E+00
 -1      3645 6.91500E+01 3.18140E+01 0.00000E+00
 -1      3646 7.29000E+01 3.31130E+01 0.00000E+00
 -1      3647 7.44000E+01 3.31130E+01 0.00000E+00
 -1      3648 7.21500E+01 3.18140E+01 0.00000E+00
 -1      3649 7.59000E+01 3.31130E+01 0.00000E+00
 -1      3650 7.74000E+01 3.31130E+01 0.00000E+00
 -1      3651 7.51500E+01 3.18140E+01 0.00000E+00
 -1      3652 7.89000E+01 3.31130E+01 0.00000E+00
 -1      3653 8.04000E+01 3.31130E+01 0.00000E+00
 -1      3654 7.81500E+01 3.18140E+01 0.00000E+00
 -1      3655 8.19000E+01 3.31130E+01 0.00000E+00
 -1      3656 8.34000E+01 3.31130E+01 0.00000E+00
 -1      3657 8.11500E+01 3.18140E+01 0.00000E+00
 -1      3658 8.49000E+01 3.31130E+01 0.00000E+00
 -1      3659 8.64000E+01 3.31130E+01 0.00000E+00
 -1      3660 8.41500E+01 3.18140E+01 0.00000E+00
 -1      3661 8.79000E+01 3.31130E+01 0.00000E+00
 -1      3662 8.94000E+01 3.31130E+01 0.00000E+00
 -1      3663 8.71500E+01 3.18140E+01 0.00000E+00
 -1      3664 9.09000E+01 3.31130E+01 0.00000E+00
 -1      3665 9.24000E+01 3.31130E+01 0.00000E+00
 -1      3666 9.01500E+01 3.18140E+01 0.00000E+00
 -1      3667 9.39000E+01 3.31130E+01 0.00000E+00
 -1      3668 9.54000E+01 3.31130E+01 0.00000E+00
 -1      3669 9.31500E+01 3.18140E+01 0.00000E+00
 -1      3670 9.69000E+01 3.31130E+01 0.00000E+00
 -1      3671 9.84000E+01 3.31130E+01 0.00000E+00
 -1      3672 9.61500E+01 3.18140E+01 0.00000E+00
 -1      3673 9.99000E+01 3.31130E+01 0.00000E+00
 -1      3674 1.01400E+02 3.31130E+01 0.00000E+00
 -1      3675 9.91500E+01 3.18140E+01 0.00000E+00
 -1      3676 1.02900E+02 3.31130E+01 0.00000E+00
 -1      3677 1.04400E+02 3.31130E+01 0.00000E+00
 -1      3678 1.02150E+02 3.18140E+01 0.00000E+00
 -1      3679 1.05900E+02 3.31130E+01 0.00000E+00
 -1      3680 1.07400E+02 3.31130E+01 0.00000E+00
 -1      3681 1.05150E+02 3.18140E+01 0.00000E+00
 -1      3682 1.08900E+02 3.31130E+01 0.00000E+00
 -1      3683 1.10400E+02 3.31130E+01 0.00000E+00
 -1      3684 1.08150E+02 3.18140E+01 0.00000E+00
 -1      3685 1.12389E+02 3.33435E+01 0.00000E+00
 -1      3686 5.87850E+01 1.56973E+01 0.00000E+00
 -1      3687 5.72850E+01 1.56973E+01 0.00000E+00
 -1      3688 1.58860E+01 1.50773E+01 0.00000E+00
 -1      3689 1.45679E+01 1.63963E+01 0.00000E+00
 -1      3690 4.37850E+01 1.56973E+01 0.00000E+00
 -1      3691 4.22850E+01 1.56973E+01 0.00000E+00
 -1      3692 5.57850E+01 1.56973E+01 0.00000E+00
 -1      3693 5.42850E+01 1.56973E+01 0.00000E+00
 -1      3694 5.65350E+01 1.69963E+01 0.00000E+00
 -1      3695 5.27850E+01 1.56973E+01 0.00000E+00
 -1      3696 5.12850E+01 1.56973E+01 0.00000E+00
 -1      3697 5.35350E+01 1.69963E+01 0.00000E+00
 -1      3698 6.17850E+01 1.56973E+01 0.00000E+00
 -1      3699 6.02850E+01 1.56973E+01 0.00000E+00
 -1      3700 5.95350E+01 1.69963E+01 0.00000E+00
 -1      3701 6.47850E+01 1.56973E+01 0.00000E+00
 -1      3702 6.32850E+01 1.56973E+01 0.00000E+00
 -1      3703 6.25350E+01 1.69963E+01 0.00000E+00
 -1      3704 6.77850E+01 1.56973E+01 0.00000E+00
 -1      3705 6.62850E+01 1.56973E+01 0.00000E+00
 -1      3706 6.55350E+01 1.69963E+01 0.00000E+00
 -1      3707 7.07850E+01 1.56973E+01 0.00000E+00
 -1      3708 6.92850E+01 1.56973E+01 0.00000E+00
 -1      3709 6.85350E+01 1.69963E+01 0.00000E+00
 -1      3710 7.37850E+01 1.56973E+01 0.00000E+00
 -1      3711 7.22850E+01 1.56973E+01 0.00000E+00
 -1      3712 7.15350E+01 1.69963E+01 0.00000E+00
 -1      3713 7.67850E+01 1.56973E+01 0.00000E+00
 -1      3714 7.52850E+01 1.56973E+01 0.00000E+00
 -1      3715 7.45350E+01 1.69963E+01 0.00000E+00
 -1      3716 7.97850E+01 1.56973E+01 0.00000E+00
 -1      3717 7.82850E+01 1.56973E+01 0.00000E+00
 -1      3718 7.75350E+01 1.69963E+01 0.00000E+00
 -1      3719 8.27850E+01 1.56973E+01 0.00000E+00
 -1      3720 8.12850E+01 1.56973E+01 0.00000E+00
 -1      3721 8.05350E+01 1.69963E+01 0.00000E+00
 -1      3722 8.57850E+01 1.56973E+01 0.00000E+00
 -1      3723 8.42850E+01 1.56973E+01 0.00000E+00
 -1      3724 8.35350E+01 1.69963E+01 0.00000E+00
 -1      3725 8.87850E+01 1.56973E+01 0.00000E+00
 -1      3726 8.72850E+01 1.56973E+01 0.00000E+00
 -1      3727 8.65350E+01 1.69963E+01 0.00000E+00
 -1      3728 9.17850E+01 1.56973E+01 0.00000E+00
 -1      3729 9.02850E+01 1.56973E+01 0.00000E+00
 -1      3730 8.95350E+01 1.69963E+01 0.00000E+00
 -1      3731 9.47850E+01 1.56973E+01 0.00000E+00
 -1      3732 9.32850E+01 1.56973E+01 0.00000E+00
 -1      3733 9.25350E+01 1.69963E+01 0.00000E+00
 -1      3734 9.77850E+01 1.56973E+01 0.00000E+00
 -1      3735 9.62850E+01 1.56973E+01 0.00000E+00
 -1      3736 9.55350E+01 1.69963E+01 0.00000E+00
 -1      3737 1.00785E+02 1.56973E+01 0.00000E+00
 -1      3738 9.92850E+01 1.56973E+01 0.00000E+00
 -1      3739 9.85350E+01 1.69963E+01 0.00000E+00
 -1      3740 1.03785E+02 1.56973E+01 0.00000E+00
 -1      3741 1.02285E+02 1.56973E+01 0.00000E+00
 -1      3742 1.01535E+02 1.69963E+01 0.00000E+00
 -1      3743 1.06785E+02 1.56973E+01 0.00000E+00
 -1      3744 1.05285E+02 1.56973E+01 0.00000E+00
 -1      3745 1.04535E+02 1.69963E+01 0.00000E+00
 -1      3746 1.45679E+01 1.78713E+01 0.00000E+00
 -1      3747 2.57850E+01 1.56973E+01 0.00000E+00
 -1      3748 2.42850E+01 1.56973E+01 0.00000E+00
 -1      3749 2.65350E+01 1.69963E+01 0.00000E+00
 -1      3750 4.07850E+01 1.56973E+01 0.00000E+00
 -1      3751 3.92850E+01 1.56973E+01 0.00000E+00
 -1      3752 4.15350E+01 1.69963E+01 0.00000E+00
 -1      3753 2.19000E+01 3.31130E+01 0.00000E+00
 -1      3754 2.34000E+01 3.31130E+01 0.00000E+00
 -1      3755 1.85578E+01 1.28746E+01 0.00000E+00
 -1      3756 1.72397E+01 1.27248E+01 0.00000E+00
 -1      3757 1.68534E+01 1.37242E+01 0.00000E+00
 -1      3758 1.93078E+01 1.41736E+01 0.00000E+00
 -1      3759 1.11788E+02 2.09402E+01 0.00000E+00
 -1      3760 1.11754E+02 1.94259E+01 0.00000E+00
 -1      3761 1.89000E+01 3.31130E+01 0.00000E+00
 -1      3762 2.04000E+01 3.31130E+01 0.00000E+00
 -1      3763 2.11500E+01 3.18140E+01 0.00000E+00
 -1      3764 2.49000E+01 3.31130E+01 0.00000E+00
 -1      3765 2.64000E+01 3.31130E+01 0.00000E+00
 -1      3766 2.41500E+01 3.18140E+01 0.00000E+00
 -1      3767 1.11691E+02 1.80026E+01 0.00000E+00
 -1      3768 1.11788E+02 1.59991E+01 0.00000E+00
 -1      3769 1.10391E+02 1.59399E+01 0.00000E+00
 -1      3770 1.10516E+02 1.87865E+01 0.00000E+00
 -1      3771 3.17850E+01 1.56973E+01 0.00000E+00
 -1      3772 3.02850E+01 1.56973E+01 0.00000E+00
 -1      3773 2.95350E+01 1.69963E+01 0.00000E+00
 -1      3774 1.11639E+02 3.20445E+01 0.00000E+00
 -1      3775 1.47750E+01 3.12199E+01 0.00000E+00
 -1      3776 1.47750E+01 3.26886E+01 0.00000E+00
 -1      3777 1.59000E+01 3.27735E+01 0.00000E+00
 -1      3778 3.85350E+01 1.69963E+01 0.00000E+00
 -1      3779 3.77850E+01 1.56973E+01 0.00000E+00
 -1      3780 3.62850E+01 1.56973E+01 0.00000E+00
 -1      3781 1.71132E+01 1.53020E+01 0.00000E+00
 -1      3782 2.35350E+01 1.69963E+01 0.00000E+00
 -1      3783 2.27850E+01 1.56973E+01 0.00000E+00
 -1      3784 2.12850E+01 1.56973E+01 0.00000E+00
 -1      3785 1.10868E+02 2.52970E+01 0.00000E+00
 -1      3786 1.10290E+02 2.45379E+01 0.00000E+00
 -1      3787 1.09928E+02 2.65313E+01 0.00000E+00
 -1      3788 1.40386E+01 2.70574E+01 0.00000E+00
 -1      3789 1.35582E+01 2.82170E+01 0.00000E+00
 -1      3790 1.33159E+01 2.95386E+01 0.00000E+00
 -1      3791 1.41304E+01 2.99754E+01 0.00000E+00
 -1      3792 1.50913E+01 2.76563E+01 0.00000E+00
 -1      3793 1.68375E+01 3.29008E+01 0.00000E+00
 -1      3794 1.79625E+01 3.29857E+01 0.00000E+00
 -1      3795 1.87125E+01 3.16867E+01 0.00000E+00
 -1      3796 1.68375E+01 3.14321E+01 0.00000E+00
 -1      3797 1.58669E+01 1.86088E+01 0.00000E+00
 -1      3798 1.09287E+02 1.58482E+01 0.00000E+00
 -1      3799 1.07890E+02 1.57890E+01 0.00000E+00
 -1      3800 1.07140E+02 1.70880E+01 0.00000E+00
 -1      3801 1.09349E+02 1.72715E+01 0.00000E+00
 -1      3802 3.32850E+01 1.56973E+01 0.00000E+00
 -1      3803 3.25350E+01 1.69963E+01 0.00000E+00
 -1      3804 3.47850E+01 1.56973E+01 0.00000E+00
 -1      3805 1.10904E+02 2.17567E+01 0.00000E+00
 -1      3806 2.71500E+01 3.18140E+01 0.00000E+00
 -1      3807 4.97850E+01 1.56973E+01 0.00000E+00
 -1      3808 4.82850E+01 1.56973E+01 0.00000E+00
 -1      3809 5.05350E+01 1.69963E+01 0.00000E+00
 -1      3810 4.52850E+01 1.56973E+01 0.00000E+00
 -1      3811 4.45350E+01 1.69963E+01 0.00000E+00
 -1      3812 4.67850E+01 1.56973E+01 0.00000E+00
 -1      3813 1.10594E+02 3.03460E+01 0.00000E+00
 -1      3814 1.68829E+01 2.42563E+01 0.00000E+00
 -1      3815 1.68747E+01 2.57547E+01 0.00000E+00
 -1      3816 1.68829E+01 2.13188E+01 0.00000E+00
 -1      3817 1.68829E+01 2.27875E+01 0.00000E+00
 -1      3818 1.81778E+01 2.35438E+01 0.00000E+00
 -1      3819 1.09114E+02 3.06831E+01 0.00000E+00
 -1      3820 1.10058E+02 2.92151E+01 0.00000E+00
 -1      3821 1.09543E+02 2.84213E+01 0.00000E+00
 -1      3822 1.07614E+02 3.06831E+01 0.00000E+00
 -1      3823 3.02850E+01 1.82952E+01 0.00000E+00
 -1      3824 2.87850E+01 1.82952E+01 0.00000E+00
 -1      3825 1.71375E+01 1.73335E+01 0.00000E+00
 -1      3826 1.68586E+01 1.92872E+01 0.00000E+00
 -1      3827 1.81535E+01 2.00435E+01 0.00000E+00
 -1      3828 1.81049E+01 1.59804E+01 0.00000E+00
 -1      3829 3.24000E+01 3.05150E+01 0.00000E+00
 -1      3830 3.39000E+01 3.05150E+01 0.00000E+00
 -1      3831 3.54000E+01 3.05150E+01 0.00000E+00
 -1      3832 3.69000E+01 3.05150E+01 0.00000E+00
 -1      3833 3.46500E+01 2.92160E+01 0.00000E+00
 -1      3834 3.84000E+01 3.05150E+01 0.00000E+00
 -1      3835 3.99000E+01 3.05150E+01 0.00000E+00
 -1      3836 3.76500E+01 2.92160E+01 0.00000E+00
 -1      3837 4.14000E+01 3.05150E+01 0.00000E+00
 -1      3838 4.29000E+01 3.05150E+01 0.00000E+00
 -1      3839 4.06500E+01 2.92160E+01 0.00000E+00
 -1      3840 4.44000E+01 3.05150E+01 0.00000E+00
 -1      3841 4.59000E+01 3.05150E+01 0.00000E+00
 -1      3842 4.36500E+01 2.92160E+01 0.00000E+00
 -1      3843 4.74000E+01 3.05150E+01 0.00000E+00
 -1      3844 4.89000E+01 3.05150E+01 0.00000E+00
 -1      3845 4.66500E+01 2.92160E+01 0.00000E+00
 -1      3846 5.04000E+01 3.05150E+01 0.00000E+00
 -1      3847 5.19000E+01 3.05150E+01 0.00000E+00
 -1      3848 4.96500E+01 2.92160E+01 0.00000E+00
 -1      3849 5.34000E+01 3.05150E+01 0.00000E+00
 -1      3850 5.49000E+01 3.05150E+01 0.00000E+00
 -1      3851 5.26500E+01 2.92160E+01 0.00000E+00
 -1      3852 5.64000E+01 3.05150E+01 0.00000E+00
 -1      3853 5.79000E+01 3.05150E+01 0.00000E+00
 -1      3854 5.56500E+01 2.92160E+01 0.00000E+00
 -1      3855 5.94000E+01 3.05150E+01 0.00000E+00
 -1      3856 6.09000E+01 3.05150E+01 0.00000E+00
 -1      3857 5.86500E+01 2.92160E+01 0.00000E+00
 -1      3858 6.24000E+01 3.05150E+01 0.00000E+00
 -1      3859 6.39000E+01 3.05150E+01 0.00000E+00
 -1      3860 6.16500E+01 2.92160E+01 0.00000E+00
 -1      3861 6.54000E+01 3.05150E+01 0.00000E+00
 -1      3862 6.69000E+01 3.05150E+01 0.00000E+00
 -1      3863 6.46500E+01 2.92160E+01 0.00000E+00
 -1      3864 6.84000E+01 3.05150E+01 0.00000E+00
 -1      3865 6.99000E+01 3.05150E+01 0.00000E+00
 -1      3866 6.76500E+01 2.92160E+01 0.00000E+00
 -1      3867 7.14000E+01 3.05150E+01 0.00000E+00
 -1      3868 7.29000E+01 3.05150E+01 0.00000E+00
 -1      3869 7.06500E+01 2.92160E+01 0.00000E+00
 -1      3870 7.44000E+01 3.05150E+01 0.00000E+00
 -1      3871 7.59000E+01 3.05150E+01 0.00000E+00
 -1      3872 7.36500E+01 2.92160E+01 0.00000E+00
 -1      3873 7.74000E+01 3.05150E+01 0.00000E+00
 -1      3874 7.89000E+01 3.05150E+01 0.00000E+00
 -1      3875 7.66500E+01 2.92160E+01 0.00000E+00
 -1      3876 8.04000E+01 3.05150E+01 0.00000E+00
 -1      3877 8.19000E+01 3.05150E+01 0.00000E+00
 -1      3878 7.96500E+01 2.92160E+01 0.00000E+00
 -1      3879 8.34000E+01 3.05150E+01 0.00000E+00
 -1      3880 8.49000E+01 3.05150E+01 0.00000E+00
 -1      3881 8.26500E+01 2.92160E+01 0.00000E+00
 -1      3882 8.64000E+01 3.05150E+01 0.00000E+00
 -1      3883 8.79000E+01 3.05150E+01 0.00000E+00
 -1      3884 8.56500E+01 2.92160E+01 0.00000E+00
 -1      3885 8.94000E+01 3.05150E+01 0.00000E+00
 -1      3886 9.09000E+01 3.05150E+01 0.00000E+00
 -1      3887 8.86500E+01 2.92160E+01 0.00000E+00
 -1      3888 9.24000E+01 3.05150E+01 0.00000E+00
 -1      3889 9.39000E+01 3.05150E+01 0.00000E+00
 -1      3890 9.16500E+01 2.92160E+01 0.00000E+00
 -1      3891 9.54000E+01 3.05150E+01 0.00000E+00
 -1      3892 9.69000E+01 3.05150E+01 0.00000E+00
 -1      3893 9.46500E+01 2.92160E+01 0.00000E+00
 -1      3894 9.84000E+01 3.05150E+01 0.00000E+00
 -1      3895 9.99000E+01 3.05150E+01 0.00000E+00
 -1      3896 9.76500E+01 2.92160E+01 0.00000E+00
 -1      3897 1.01400E+02 3.05150E+01 0.00000E+00
 -1      3898 1.02900E+02 3.05150E+01 0.00000E+00
 -1      3899 1.00650E+02 2.92160E+01 0.00000E+00
 -1      3900 1.04400E+02 3.05150E+01 0.00000E+00
 -1      3901 1.05900E+02 3.05150E+01 0.00000E+00
 -1      3902 1.03650E+02 2.92160E+01 0.00000E+00
 -1      3903 6.32850E+01 1.82952E+01 0.00000E+00
 -1      3904 6.17850E+01 1.82952E+01 0.00000E+00
 -1      3905 6.02850E+01 1.82952E+01 0.00000E+00
 -1      3906 5.87850E+01 1.82952E+01 0.00000E+00
 -1      3907 6.10350E+01 1.95942E+01 0.00000E+00
 -1      3908 5.42850E+01 1.82952E+01 0.00000E+00
 -1      3909 5.27850E+01 1.82952E+01 0.00000E+00
 -1      3910 6.62850E+01 1.82952E+01 0.00000E+00
 -1      3911 6.47850E+01 1.82952E+01 0.00000E+00
 -1      3912 6.40350E+01 1.95942E+01 0.00000E+00
 -1      3913 6.92850E+01 1.82952E+01 0.00000E+00
 -1      3914 6.77850E+01 1.82952E+01 0.00000E+00
 -1      3915 6.70350E+01 1.95942E+01 0.00000E+00
 -1      3916 7.22850E+01 1.82952E+01 0.00000E+00
 -1      3917 7.07850E+01 1.82952E+01 0.00000E+00
 -1      3918 7.00350E+01 1.95942E+01 0.00000E+00
 -1      3919 7.52850E+01 1.82952E+01 0.00000E+00
 -1      3920 7.37850E+01 1.82952E+01 0.00000E+00
 -1      3921 7.30350E+01 1.95942E+01 0.00000E+00
 -1      3922 7.82850E+01 1.82952E+01 0.00000E+00
 -1      3923 7.67850E+01 1.82952E+01 0.00000E+00
 -1      3924 7.60350E+01 1.95942E+01 0.00000E+00
 -1      3925 8.12850E+01 1.82952E+01 0.00000E+00
 -1      3926 7.97850E+01 1.82952E+01 0.00000E+00
 -1      3927 7.90350E+01 1.95942E+01 0.00000E+00
 -1      3928 8.42850E+01 1.82952E+01 0.00000E+00
 -1      3929 8.27850E+01 1.82952E+01 0.00000E+00
 -1      3930 8.20350E+01 1.95942E+01 0.00000E+00
 -1      3931 8.72850E+01 1.82952E+01 0.00000E+00
 -1      3932 8.57850E+01 1.82952E+01 0.00000E+00
 -1      3933 8.50350E+01 1.95942E+01 0.00000E+00
 -1      3934 9.02850E+01 1.82952E+01 0.00000E+00
 -1      3935 8.87850E+01 1.82952E+01 0.00000E+00
 -1      3936 8.80350E+01 1.95942E+01 0.00000E+00
 -1      3937 9.32850E+01 1.82952E+01 0.00000E+00
 -1      3938 9.17850E+01 1.82952E+01 0.00000E+00
 -1      3939 9.10350E+01 1.95942E+01 0.00000E+00
 -1      3940 9.62850E+01 1.82952E+01 0.00000E+00
 -1      3941 9.47850E+01 1.82952E+01 0.00000E+00
 -1      3942 9.40350E+01 1.95942E+01 0.00000E+00
 -1      3943 9.92850E+01 1.82952E+01 0.00000E+00
 -1      3944 9.77850E+01 1.82952E+01 0.00000E+00
 -1      3945 9.70350E+01 1.95942E+01 0.00000E+00
 -1      3946 1.02285E+02 1.82952E+01 0.00000E+00
 -1      3947 1.00785E+02 1.82952E+01 0.00000E+00
 -1      3948 1.00035E+02 1.95942E+01 0.00000E+00
 -1      3949 1.05285E+02 1.82952E+01 0.00000E+00
 -1      3950 1.03785E+02 1.82952E+01 0.00000E+00
 -1      3951 1.03035E+02 1.95942E+01 0.00000E+00
 -1      3952 1.93321E+01 1.62051E+01 0.00000E+00
 -1      3953 2.72850E+01 1.82952E+01 0.00000E+00
 -1      3954 2.57850E+01 1.82952E+01 0.00000E+00
 -1      3955 2.80350E+01 1.95942E+01 0.00000E+00
 -1      3956 4.22850E+01 1.82952E+01 0.00000E+00
 -1      3957 4.07850E+01 1.82952E+01 0.00000E+00
 -1      3958 5.72850E+01 1.82952E+01 0.00000E+00
 -1      3959 5.57850E+01 1.82952E+01 0.00000E+00
 -1      3960 5.80350E+01 1.95942E+01 0.00000E+00
 -1      3961 2.04000E+01 3.05150E+01 0.00000E+00
 -1      3962 2.19000E+01 3.05150E+01 0.00000E+00
 -1      3963 1.09982E+02 2.27587E+01 0.00000E+00
 -1      3964 1.09656E+02 2.12118E+01 0.00000E+00
 -1      3965 2.94000E+01 3.05150E+01 0.00000E+00
 -1      3966 3.09000E+01 3.05150E+01 0.00000E+00
 -1      3967 3.16500E+01 2.92160E+01 0.00000E+00
 -1      3968 2.64000E+01 3.05150E+01 0.00000E+00
 -1      3969 2.79000E+01 3.05150E+01 0.00000E+00
 -1      3970 2.86500E+01 2.92160E+01 0.00000E+00
 -1      3971 2.34000E+01 3.05150E+01 0.00000E+00
 -1      3972 2.49000E+01 3.05150E+01 0.00000E+00
 -1      3973 2.56500E+01 2.92160E+01 0.00000E+00
 -1      3974 2.26500E+01 2.92160E+01 0.00000E+00
 -1      3975 1.81691E+01 2.65124E+01 0.00000E+00
 -1      3976 1.68661E+01 2.72545E+01 0.00000E+00
 -1      3977 3.92850E+01 1.82952E+01 0.00000E+00
 -1      3978 3.77850E+01 1.82952E+01 0.00000E+00
 -1      3979 4.00350E+01 1.95942E+01 0.00000E+00
 -1      3980 1.52554E+01 3.00603E+01 0.00000E+00
 -1      3981 5.20350E+01 1.95942E+01 0.00000E+00
 -1      3982 5.12850E+01 1.82952E+01 0.00000E+00
 -1      3983 4.97850E+01 1.82952E+01 0.00000E+00
 -1      3984 2.42850E+01 1.82952E+01 0.00000E+00
 -1      3985 2.27850E+01 1.82952E+01 0.00000E+00
 -1      3986 2.50350E+01 1.95942E+01 0.00000E+00
 -1      3987 1.63857E+01 2.84140E+01 0.00000E+00
 -1      3988 3.32850E+01 1.82952E+01 0.00000E+00
 -1      3989 3.17850E+01 1.82952E+01 0.00000E+00
 -1      3990 3.10350E+01 1.95942E+01 0.00000E+00
 -1      3991 5.50350E+01 1.95942E+01 0.00000E+00
 -1      3992 2.00821E+01 1.75041E+01 0.00000E+00
 -1      3993 1.06390E+02 1.83870E+01 0.00000E+00
 -1      3994 1.05640E+02 1.96860E+01 0.00000E+00
 -1      3995 1.07494E+02 1.84787E+01 0.00000E+00
 -1      3996 3.55350E+01 1.69963E+01 0.00000E+00
 -1      3997 1.09042E+02 2.39930E+01 0.00000E+00
 -1      3998 4.37850E+01 1.82952E+01 0.00000E+00
 -1      3999 4.30350E+01 1.95942E+01 0.00000E+00
 -1      4000 4.52850E+01 1.82952E+01 0.00000E+00
 -1      4001 1.06864E+02 2.93841E+01 0.00000E+00
 -1      4002 4.75350E+01 1.69963E+01 0.00000E+00
 -1      4003 1.89052E+01 2.99131E+01 0.00000E+00
 -1      4004 1.96552E+01 2.86141E+01 0.00000E+00
 -1      4005 1.07739E+02 2.09958E+01 0.00000E+00
 -1      4006 1.08661E+02 1.99938E+01 0.00000E+00
 -1      4007 1.96726E+01 2.56144E+01 0.00000E+00
 -1      4008 1.96639E+01 2.71143E+01 0.00000E+00
 -1      4009 2.11587E+01 2.77162E+01 0.00000E+00
 -1      4010 1.07914E+02 2.85231E+01 0.00000E+00
 -1      4011 1.08878E+02 2.73922E+01 0.00000E+00
 -1      4012 1.08300E+02 2.66331E+01 0.00000E+00
 -1      4013 1.06200E+02 2.83550E+01 0.00000E+00
 -1      4014 1.96726E+01 2.26769E+01 0.00000E+00
 -1      4015 1.96726E+01 2.41457E+01 0.00000E+00
 -1      4016 2.11673E+01 2.47476E+01 0.00000E+00
 -1      4017 1.29020E+02 9.62003E+00 0.00000E+00
 -1      4018 1.09411E+02 1.86948E+01 0.00000E+00
 -1      4019 3.39000E+01 2.79170E+01 0.00000E+00
 -1      4020 3.54000E+01 2.79170E+01 0.00000E+00
 -1      4021 3.69000E+01 2.79170E+01 0.00000E+00
 -1      4022 3.84000E+01 2.79170E+01 0.00000E+00
 -1      4023 3.61500E+01 2.66180E+01 0.00000E+00
 -1      4024 3.99000E+01 2.79170E+01 0.00000E+00
 -1      4025 4.14000E+01 2.79170E+01 0.00000E+00
 -1      4026 3.91500E+01 2.66180E+01 0.00000E+00
 -1      4027 4.29000E+01 2.79170E+01 0.00000E+00
 -1      4028 4.44000E+01 2.79170E+01 0.00000E+00
 -1      4029 4.21500E+01 2.66180E+01 0.00000E+00
 -1      4030 4.59000E+01 2.79170E+01 0.00000E+00
 -1      4031 4.74000E+01 2.79170E+01 0.00000E+00
 -1      4032 4.51500E+01 2.66180E+01 0.00000E+00
 -1      4033 4.89000E+01 2.79170E+01 0.00000E+00
 -1      4034 5.04000E+01 2.79170E+01 0.00000E+00
 -1      4035 4.81500E+01 2.66180E+01 0.00000E+00
 -1      4036 5.19000E+01 2.79170E+01 0.00000E+00
 -1      4037 5.34000E+01 2.79170E+01 0.00000E+00
 -1      4038 5.11500E+01 2.66180E+01 0.00000E+00
 -1      4039 5.49000E+01 2.79170E+01 0.00000E+00
 -1      4040 5.64000E+01 2.79170E+01 0.00000E+00
 -1      4041 5.41500E+01 2.66180E+01 0.00000E+00
 -1      4042 5.79000E+01 2.79170E+01 0.00000E+00
 -1      4043 5.94000E+01 2.79170E+01 0.00000E+00
 -1      4044 5.71500E+01 2.66180E+01 0.00000E+00
 -1      4045 6.09000E+01 2.79170E+01 0.00000E+00
 -1      4046 6.24000E+01 2.79170E+01 0.00000E+00
 -1      4047 6.01500E+01 2.66180E+01 0.00000E+00
 -1      4048 6.39000E+01 2.79170E+01 0.00000E+00
 -1      4049 6.54000E+01 2.79170E+01 0.00000E+00
 -1      4050 6.31500E+01 2.66180E+01 0.00000E+00
 -1      4051 6.69000E+01 2.79170E+01 0.00000E+00
 -1      4052 6.84000E+01 2.79170E+01 0.00000E+00
 -1      4053 6.61500E+01 2.66180E+01 0.00000E+00
 -1      4054 6.99000E+01 2.79170E+01 0.00000E+00
 -1      4055 7.14000E+01 2.79170E+01 0.00000E+00
 -1      4056 6.91500E+01 2.66180E+01 0.00000E+00
 -1      4057 7.29000E+01 2.79170E+01 0.00000E+00
 -1      4058 7.44000E+01 2.79170E+01 0.00000E+00
 -1      4059 7.21500E+01 2.66180E+01 0.00000E+00
 -1      4060 7.59000E+01 2.79170E+01 0.00000E+00
 -1      4061 7.74000E+01 2.79170E+01 0.00000E+00
 -1      4062 7.51500E+01 2.66180E+01 0.00000E+00
 -1      4063 7.89000E+01 2.79170E+01 0.00000E+00
 -1      4064 8.04000E+01 2.79170E+01 0.00000E+00
 -1      4065 7.81500E+01 2.66180E+01 0.00000E+00
 -1      4066 8.19000E+01 2.79170E+01 0.00000E+00
 -1      4067 8.34000E+01 2.79170E+01 0.00000E+00
 -1      4068 8.11500E+01 2.66180E+01 0.00000E+00
 -1      4069 8.49000E+01 2.79170E+01 0.00000E+00
 -1      4070 8.64000E+01 2.79170E+01 0.00000E+00
 -1      4071 8.41500E+01 2.66180E+01 0.00000E+00
 -1      4072 8.79000E+01 2.79170E+01 0.00000E+00
 -1      4073 8.94000E+01 2.79170E+01 0.00000E+00
 -1      4074 8.71500E+01 2.66180E+01 0.00000E+00
 -1      4075 9.09000E+01 2.79170E+01 0.00000E+00
 -1      4076 9.24000E+01 2.79170E+01 0.00000E+00
 -1      4077 9.01500E+01 2.66180E+01 0.00000E+00
 -1      4078 9.39000E+01 2.79170E+01 0.00000E+00
 -1      4079 9.54000E+01 2.79170E+01 0.00000E+00
 -1      4080 9.31500E+01 2.66180E+01 0.00000E+00
 -1      4081 9.69000E+01 2.79170E+01 0.00000E+00
 -1      4082 9.84000E+01 2.79170E+01 0.00000E+00
 -1      4083 9.61500E+01 2.66180E+01 0.00000E+00
 -1      4084 9.99000E+01 2.79170E+01 0.00000E+00
 -1      4085 1.01400E+02 2.79170E+01 0.00000E+00
 -1      4086 9.91500E+01 2.66180E+01 0.00000E+00
 -1      4087 1.02900E+02 2.79170E+01 0.00000E+00
 -1      4088 1.04400E+02 2.79170E+01 0.00000E+00
 -1      4089 1.02150E+02 2.66180E+01 0.00000E+00
 -1      4090 6.77850E+01 2.08932E+01 0.00000E+00
 -1      4091 6.62850E+01 2.08932E+01 0.00000E+00
 -1      4092 1.70302E+01 2.96585E+01 0.00000E+00
 -1      4093 6.47850E+01 2.08932E+01 0.00000E+00
 -1      4094 6.32850E+01 2.08932E+01 0.00000E+00
 -1      4095 6.55350E+01 2.21922E+01 0.00000E+00
 -1      4096 7.37850E+01 2.08932E+01 0.00000E+00
 -1      4097 7.22850E+01 2.08932E+01 0.00000E+00
 -1      4098 7.67850E+01 2.08932E+01 0.00000E+00
 -1      4099 7.52850E+01 2.08932E+01 0.00000E+00
 -1      4100 7.45350E+01 2.21922E+01 0.00000E+00
 -1      4101 7.97850E+01 2.08932E+01 0.00000E+00
 -1      4102 7.82850E+01 2.08932E+01 0.00000E+00
 -1      4103 7.75350E+01 2.21922E+01 0.00000E+00
 -1      4104 8.27850E+01 2.08932E+01 0.00000E+00
 -1      4105 8.12850E+01 2.08932E+01 0.00000E+00
 -1      4106 8.05350E+01 2.21922E+01 0.00000E+00
 -1      4107 8.57850E+01 2.08932E+01 0.00000E+00
 -1      4108 8.42850E+01 2.08932E+01 0.00000E+00
 -1      4109 8.35350E+01 2.21922E+01 0.00000E+00
 -1      4110 8.87850E+01 2.08932E+01 0.00000E+00
 -1      4111 8.72850E+01 2.08932E+01 0.00000E+00
 -1      4112 8.65350E+01 2.21922E+01 0.00000E+00
 -1      4113 9.17850E+01 2.08932E+01 0.00000E+00
 -1      4114 9.02850E+01 2.08932E+01 0.00000E+00
 -1      4115 8.95350E+01 2.21922E+01 0.00000E+00
 -1      4116 9.47850E+01 2.08932E+01 0.00000E+00
 -1      4117 9.32850E+01 2.08932E+01 0.00000E+00
 -1      4118 9.25350E+01 2.21922E+01 0.00000E+00
 -1      4119 9.77850E+01 2.08932E+01 0.00000E+00
 -1      4120 9.62850E+01 2.08932E+01 0.00000E+00
 -1      4121 9.55350E+01 2.21922E+01 0.00000E+00
 -1      4122 1.00785E+02 2.08932E+01 0.00000E+00
 -1      4123 9.92850E+01 2.08932E+01 0.00000E+00
 -1      4124 9.85350E+01 2.21922E+01 0.00000E+00
 -1      4125 1.03785E+02 2.08932E+01 0.00000E+00
 -1      4126 1.02285E+02 2.08932E+01 0.00000E+00
 -1      4127 1.01535E+02 2.21922E+01 0.00000E+00
 -1      4128 5.87850E+01 2.08932E+01 0.00000E+00
 -1      4129 5.72850E+01 2.08932E+01 0.00000E+00
 -1      4130 2.87850E+01 2.08932E+01 0.00000E+00
 -1      4131 2.72850E+01 2.08932E+01 0.00000E+00
 -1      4132 7.07850E+01 2.08932E+01 0.00000E+00
 -1      4133 6.92850E+01 2.08932E+01 0.00000E+00
 -1      4134 6.85350E+01 2.21922E+01 0.00000E+00
 -1      4135 7.15350E+01 2.21922E+01 0.00000E+00
 -1      4136 6.17850E+01 2.08932E+01 0.00000E+00
 -1      4137 6.02850E+01 2.08932E+01 0.00000E+00
 -1      4138 6.25350E+01 2.21922E+01 0.00000E+00
 -1      4139 1.07313E+02 2.23592E+01 0.00000E+00
 -1      4140 1.06318E+02 2.11412E+01 0.00000E+00
 -1      4141 1.05213E+02 2.10494E+01 0.00000E+00
 -1      4142 1.79677E+01 2.97858E+01 0.00000E+00
 -1      4143 3.62850E+01 1.82952E+01 0.00000E+00
 -1      4144 3.47850E+01 1.82952E+01 0.00000E+00
 -1      4145 3.70350E+01 1.95942E+01 0.00000E+00
 -1      4146 2.26587E+01 2.77162E+01 0.00000E+00
 -1      4147 2.79000E+01 2.79170E+01 0.00000E+00
 -1      4148 2.94000E+01 2.79170E+01 0.00000E+00
 -1      4149 3.09000E+01 2.79170E+01 0.00000E+00
 -1      4150 3.24000E+01 2.79170E+01 0.00000E+00
 -1      4151 3.31500E+01 2.66180E+01 0.00000E+00
 -1      4152 5.57850E+01 2.08932E+01 0.00000E+00
 -1      4153 5.42850E+01 2.08932E+01 0.00000E+00
 -1      4154 5.65350E+01 2.21922E+01 0.00000E+00
 -1      4155 1.07960E+02 2.53858E+01 0.00000E+00
 -1      4156 1.07652E+02 2.36066E+01 0.00000E+00
 -1      4157 1.06231E+02 2.37520E+01 0.00000E+00
 -1      4158 1.06910E+02 2.62467E+01 0.00000E+00
 -1      4159 4.82850E+01 1.82952E+01 0.00000E+00
 -1      4160 4.67850E+01 1.82952E+01 0.00000E+00
 -1      4161 4.60350E+01 1.95942E+01 0.00000E+00
 -1      4162 4.90350E+01 1.95942E+01 0.00000E+00
 -1      4163 1.94403E+01 1.90122E+01 0.00000E+00
 -1      4164 1.94646E+01 2.10437E+01 0.00000E+00
 -1      4165 5.27850E+01 2.08932E+01 0.00000E+00
 -1      4166 5.12850E+01 2.08932E+01 0.00000E+00
 -1      4167 5.35350E+01 2.21922E+01 0.00000E+00
 -1      4168 1.05450E+02 2.70560E+01 0.00000E+00
 -1      4169 2.57850E+01 2.08932E+01 0.00000E+00
 -1      4170 2.42850E+01 2.08932E+01 0.00000E+00
 -1      4171 2.65350E+01 2.21922E+01 0.00000E+00
 -1      4172 3.40350E+01 1.95942E+01 0.00000E+00
 -1      4173 2.09593E+01 2.16456E+01 0.00000E+00
 -1      4174 3.17850E+01 2.08932E+01 0.00000E+00
 -1      4175 3.02850E+01 2.08932E+01 0.00000E+00
 -1      4176 2.95350E+01 2.21922E+01 0.00000E+00
 -1      4177 1.04463E+02 2.23484E+01 0.00000E+00
 -1      4178 5.95350E+01 2.21922E+01 0.00000E+00
 -1      4179 2.13932E+01 1.85043E+01 0.00000E+00
 -1      4180 2.21432E+01 1.98033E+01 0.00000E+00
 -1      4181 3.01500E+01 2.66180E+01 0.00000E+00
 -1      4182 2.49000E+01 2.79170E+01 0.00000E+00
 -1      4183 2.64000E+01 2.79170E+01 0.00000E+00
 -1      4184 2.71500E+01 2.66180E+01 0.00000E+00
 -1      4185 4.07850E+01 2.08932E+01 0.00000E+00
 -1      4186 3.92850E+01 2.08932E+01 0.00000E+00
 -1      4187 2.34087E+01 2.64172E+01 0.00000E+00
 -1      4188 4.37850E+01 2.08932E+01 0.00000E+00
 -1      4189 4.22850E+01 2.08932E+01 0.00000E+00
 -1      4190 4.15350E+01 2.21922E+01 0.00000E+00
 -1      4191 2.31012E+01 2.42043E+01 0.00000E+00
 -1      4192 2.53425E+01 2.44051E+01 0.00000E+00
 -1      4193 2.68425E+01 2.44051E+01 0.00000E+00
 -1      4194 3.84000E+01 2.53190E+01 0.00000E+00
 -1      4195 3.99000E+01 2.53190E+01 0.00000E+00
 -1      4196 4.18425E+01 2.44051E+01 0.00000E+00
 -1      4197 4.33425E+01 2.44051E+01 0.00000E+00
 -1      4198 4.74000E+01 2.53190E+01 0.00000E+00
 -1      4199 4.89000E+01 2.53190E+01 0.00000E+00
 -1      4200 5.08425E+01 2.44051E+01 0.00000E+00
 -1      4201 5.23425E+01 2.44051E+01 0.00000E+00
 -1      4202 5.38425E+01 2.44051E+01 0.00000E+00
 -1      4203 5.53425E+01 2.44051E+01 0.00000E+00
 -1      4204 5.68425E+01 2.44051E+01 0.00000E+00
 -1      4205 5.83425E+01 2.44051E+01 0.00000E+00
 -1      4206 5.98425E+01 2.44051E+01 0.00000E+00
 -1      4207 6.13425E+01 2.44051E+01 0.00000E+00
 -1      4208 6.28425E+01 2.44051E+01 0.00000E+00
 -1      4209 6.43425E+01 2.44051E+01 0.00000E+00
 -1      4210 6.58425E+01 2.44051E+01 0.00000E+00
 -1      4211 6.73425E+01 2.44051E+01 0.00000E+00
 -1      4212 6.88425E+01 2.44051E+01 0.00000E+00
 -1      4213 7.03425E+01 2.44051E+01 0.00000E+00
 -1      4214 7.18425E+01 2.44051E+01 0.00000E+00
 -1      4215 7.33425E+01 2.44051E+01 0.00000E+00
 -1      4216 7.48425E+01 2.44051E+01 0.00000E+00
 -1      4217 7.63425E+01 2.44051E+01 0.00000E+00
 -1      4218 7.78425E+01 2.44051E+01 0.00000E+00
 -1      4219 7.93425E+01 2.44051E+01 0.00000E+00
 -1      4220 8.08425E+01 2.44051E+01 0.00000E+00
 -1      4221 8.23425E+01 2.44051E+01 0.00000E+00
 -1      4222 8.38425E+01 2.44051E+01 0.00000E+00
 -1      4223 8.53425E+01 2.44051E+01 0.00000E+00
 -1      4224 8.68425E+01 2.44051E+01 0.00000E+00
 -1      4225 8.83425E+01 2.44051E+01 0.00000E+00
 -1      4226 8.98425E+01 2.44051E+01 0.00000E+00
 -1      4227 9.13425E+01 2.44051E+01 0.00000E+00
 -1      4228 9.28425E+01 2.44051E+01 0.00000E+00
 -1      4229 9.43425E+01 2.44051E+01 0.00000E+00
 -1      4230 9.58425E+01 2.44051E+01 0.00000E+00
 -1      4231 9.73425E+01 2.44051E+01 0.00000E+00
 -1      4232 9.88425E+01 2.44051E+01 0.00000E+00
 -1      4233 1.00342E+02 2.44051E+01 0.00000E+00
 -1      4234 1.01842E+02 2.44051E+01 0.00000E+00
 -1      4235 1.03342E+02 2.44051E+01 0.00000E+00
 -1      4236 2.23512E+01 2.14365E+01 0.00000E+00
 -1      4237 2.98425E+01 2.44051E+01 0.00000E+00
 -1      4238 3.13425E+01 2.44051E+01 0.00000E+00
 -1      4239 3.47850E+01 2.08932E+01 0.00000E+00
 -1      4240 3.32850E+01 2.08932E+01 0.00000E+00
 -1      4241 3.25350E+01 2.21922E+01 0.00000E+00
 -1      4242 3.77850E+01 2.08932E+01 0.00000E+00
 -1      4243 3.62850E+01 2.08932E+01 0.00000E+00
 -1      4244 3.85350E+01 2.21922E+01 0.00000E+00
 -1      4245 1.05110E+02 2.58087E+01 0.00000E+00
 -1      4246 3.28425E+01 2.44051E+01 0.00000E+00
 -1      4247 3.43425E+01 2.44051E+01 0.00000E+00
 -1      4248 2.31012E+01 2.27355E+01 0.00000E+00
 -1      4249 2.83425E+01 2.44051E+01 0.00000E+00
 -1      4250 3.58425E+01 2.44051E+01 0.00000E+00
 -1      4251 3.73425E+01 2.44051E+01 0.00000E+00
 -1      4252 5.00925E+01 2.31061E+01 0.00000E+00
 -1      4253 4.93425E+01 2.18071E+01 0.00000E+00
 -1      4254 4.43138E+01 2.26492E+01 0.00000E+00
 -1      4255 4.46213E+01 2.48621E+01 0.00000E+00
 -1      4256 4.61213E+01 2.48621E+01 0.00000E+00
 -1      4257 4.50638E+01 2.13502E+01 0.00000E+00
 -1      4258 4.65638E+01 2.13502E+01 0.00000E+00
 -1      4259 1.04803E+02 2.35958E+01 0.00000E+00
 -1      4260 3.55350E+01 2.21922E+01 0.00000E+00
 -1      4261 4.68713E+01 2.35631E+01 0.00000E+00
 -1      4262 4.78425E+01 2.18071E+01 0.00000E+00
 -1      4263 3.80925E+01 2.31061E+01 0.00000E+00
 -1      4264 4.10925E+01 2.31061E+01 0.00000E+00
 -1      4265 3.95925E+01 2.31061E+01 0.00000E+00
 -3
    3C                          2051                                     1
 -1       164    8    0    1
 -2         6         7        23      1108      1271      1125
 -1       165    8    0    1
 -2         7         8       164      1109      1272      1273
 -1       166    8    0    1
 -2         8         9       165      1110      1274      1275
 -1       167    8    0    1
 -2         8       165       164      1275      1276      1272
 -1       168    8    0    1
 -2         9        10       166      1111      1277      1278
 -1       169    8    0    1
 -2         9       166       165      1278      1279      1274
 -1       170    8    0    1
 -2        10        11       167      1112      1280      1281
 -1       171    8    0    1
 -2        10       167       166      1281      1282      1277
 -1       172    8    0    1
 -2        11        12       168      1113      1283      1284
 -1       173    8    0    1
 -2        11       168       167      1284      1285      1280
 -1       174    8    0    1
 -2        12        13       169      1114      1286      1287
 -1       175    8    0    1
 -2        12       169       168      1287      1288      1283
 -1       176    8    0    1
 -2        13        14       170      1115      1289      1290
 -1       177    8    0    1
 -2        13       170       169      1290      1291      1286
 -1       178    8    0    1
 -2        14        15       171      1116      1292      1293
 -1       179    8    0    1
 -2        14       171       170      1293      1294      1289
 -1       180    8    0    1
 -2        15        16       172      1117      1295      1296
 -1       181    8    0    1
 -2        15       172       171      1296      1297      1292
 -1       182    8    0    1
 -2        16        17       173      1118      1298      1299
 -1       183    8    0    1
 -2        16       173       172      1299      1300      1295
 -1       184    8    0    1
 -2        17        18       174      1119      1301      1302
 -1       185    8    0    1
 -2        17       174       173      1302      1303      1298
 -1       186    8    0    1
 -2        18        19       175      1120      1304      1305
 -1       187    8    0    1
 -2        18       175       174      1305      1306      1301
 -1       188    8    0    1
 -2        19        20       176      1121      1307      1308
 -1       189    8    0    1
 -2        19       176       175      1308      1309      1304
 -1       190    8    0    1
 -2        20        21       177      1122      1310      1311
 -1       191    8    0    1
 -2        20       177       176      1311      1312      1307
 -1       192    8    0    1
 -2        21        22       178      1123      1313      1314
 -1       193    8    0    1
 -2        21       178       177      1314      1315      1310
 -1       194    8    0    1
 -2        22         5       179      1124      1316      1317
 -1       195    8    0    1
 -2       178        22       179      1313      1317      1318
 -1       196    8    0    1
 -2         5        72       179      1175      1319      1316
 -1       197    8    0    1
 -2        24        23       180      1126      1320      1321
 -1       198    8    0    1
 -2        25        24       181      1127      1322      1323
 -1       199    8    0    1
 -2        24       180       181      1321      1324      1322
 -1       200    8    0    1
 -2        26        25       182      1128      1325      1326
 -1       201    8    0    1
 -2        25       181       182      1323      1327      1325
 -1       202    8    0    1
 -2        27        26       183      1129      1328      1329
 -1       203    8    0    1
 -2        26       182       183      1326      1330      1328
 -1       204    8    0    1
 -2        28        27       184      1130      1331      1332
 -1       205    8    0    1
 -2        27       183       184      1329      1333      1331
 -1       206    8    0    1
 -2        29        28       185      1131      1334      1335
 -1       207    8    0    1
 -2        28       184       185      1332      1336      1334
 -1       208    8    0    1
 -2        30        29       186      1132      1337      1338
 -1       209    8    0    1
 -2        29       185       186      1335      1339      1337
 -1       210    8    0    1
 -2        31        30       187      1133      1340      1341
 -1       211    8    0    1
 -2        30       186       187      1338      1342      1340
 -1       212    8    0    1
 -2        32        31       188      1134      1343      1344
 -1       213    8    0    1
 -2        31       187       188      1341      1345      1343
 -1       214    8    0    1
 -2        33        32       189      1135      1346      1347
 -1       215    8    0    1
 -2        32       188       189      1344      1348      1346
 -1       216    8    0    1
 -2        34        33       190      1136      1349      1350
 -1       217    8    0    1
 -2        33       189       190      1347      1351      1349
 -1       218    8    0    1
 -2        35        34       191      1137      1352      1353
 -1       219    8    0    1
 -2        34       190       191      1350      1354      1352
 -1       220    8    0    1
 -2        36        35       192      1138      1355      1356
 -1       221    8    0    1
 -2        35       191       192      1353      1357      1355
 -1       222    8    0    1
 -2        37        36       193      1139      1358      1359
 -1       223    8    0    1
 -2        36       192       193      1356      1360      1358
 -1       224    8    0    1
 -2        38        37       194      1140      1361      1362
 -1       225    8    0    1
 -2        37       193       194      1359      1363      1361
 -1       226    8    0    1
 -2        39        38       195      1141      1364      1365
 -1       227    8    0    1
 -2        38       194       195      1362      1366      1364
 -1       228    8    0    1
 -2        40        39       196      1142      1367      1368
 -1       229    8    0    1
 -2        39       195       196      1365      1369      1367
 -1       230    8    0    1
 -2        41        40       197      1143      1370      1371
 -1       231    8    0    1
 -2        40       196       197      1368      1372      1370
 -1       232    8    0    1
 -2        42        41       198      1144      1373      1374
 -1       233    8    0    1
 -2        41       197       198      1371      1375      1373
 -1       234    8    0    1
 -2        43        42       199      1145      1376      1377
 -1       235    8    0    1
 -2        42       198       199      1374      1378      1376
 -1       236    8    0    1
 -2        44        43       200      1146      1379      1380
 -1       237    8    0    1
 -2        43       199       200      1377      1381      1379
 -1       238    8    0    1
 -2        45        44       201      1147      1382      1383
 -1       239    8    0    1
 -2        44       200       201      1380      1384      1382
 -1       240    8    0    1
 -2        46        45       202      1148      1385      1386
 -1       241    8    0    1
 -2        45       201       202      1383      1387      1385
 -1       242    8    0    1
 -2        47        46       203      1149      1388      1389
 -1       243    8    0    1
 -2        46       202       203      1386      1390      1388
 -1       244    8    0    1
 -2        48        47       204      1150      1391      1392
 -1       245    8    0    1
 -2        47       203       204      1389      1393      1391
 -1       246    8    0    1
 -2        49        48       205      1151      1394      1395
 -1       247    8    0    1
 -2        48       204       205      1392      1396      1394
 -1       248    8    0    1
 -2        50        49       206      1152      1397      1398
 -1       249    8    0    1
 -2        49       205       206      1395      1399      1397
 -1       250    8    0    1
 -2        51        50       207      1153      1400      1401
 -1       251    8    0    1
 -2        50       206       207      1398      1402      1400
 -1       252    8    0    1
 -2        52        51       208      1154      1403      1404
 -1       253    8    0    1
 -2        51       207       208      1401      1405      1403
 -1       254    8    0    1
 -2        53        52       209      1155      1406      1407
 -1       255    8    0    1
 -2        52       208       209      1404      1408      1406
 -1       256    8    0    1
 -2        54        53       210      1156      1409      1410
 -1       257    8    0    1
 -2        53       209       210      1407      1411      1409
 -1       258    8    0    1
 -2        55        54       211      1157      1412      1413
 -1       259    8    0    1
 -2        54       210       211      1410      1414      1412
 -1       260    8    0    1
 -2        56        55       212      1158      1415      1416
 -1       261    8    0    1
 -2        55       211       212      1413      1417      1415
 -1       262    8    0    1
 -2        57        56       213      1159      1418      1419
 -1       263    8    0    1
 -2        56       212       213      1416      1420      1418
 -1       264    8    0    1
 -2        58        57       214      1160      1421      1422
 -1       265    8    0    1
 -2        57       213       214      1419      1423      1421
 -1       266    8    0    1
 -2        59        58       215      1161      1424      1425
 -1       267    8    0    1
 -2        58       214       215      1422      1426      1424
 -1       268    8    0    1
 -2        60        59       216      1162      1427      1428
 -1       269    8    0    1
 -2        59       215       216      1425      1429      1427
 -1       270    8    0    1
 -2        61        60       217      1163      1430      1431
 -1       271    8    0    1
 -2        60       216       217      1428      1432      1430
 -1       272    8    0    1
 -2        62        61       218      1164      1433      1434
 -1       273    8    0    1
 -2        61       217       218      1431      1435      1433
 -1       274    8    0    1
 -2        63        62       219      1165      1436      1437
 -1       275    8    0    1
 -2        62       218       219      1434      1438      1436
 -1       276    8    0    1
 -2        64        63       220      1166      1439      1440
 -1       277    8    0    1
 -2        63       219       220      1437      1441      1439
 -1       278    8    0    1
 -2        65        64       221      1167      1442      1443
 -1       279    8    0    1
 -2        64       220       221      1440      1444      1442
 -1       280    8    0    1
 -2        66        65       222      1168      1445      1446
 -1       281    8    0    1
 -2        65       221       222      1443      1447      1445
 -1       282    8    0    1
 -2        67        66       223      1169      1448      1449
 -1       283    8    0    1
 -2        66       222       223      1446      1450      1448
 -1       284    8    0    1
 -2        68        67       224      1170      1451      1452
 -1       285    8    0    1
 -2        67       223       224      1449      1453      1451
 -1       286    8    0    1
 -2        69        68       225      1171      1454      1455
 -1       287    8    0    1
 -2        68       224       225      1452      1456      1454
 -1       288    8    0    1
 -2        70        69       226      1172      1457      1458
 -1       289    8    0    1
 -2        69       225       226      1455      1459      1457
 -1       290    8    0    1
 -2        71        70       227      1173      1460      1461
 -1       291    8    0    1
 -2        70       226       227      1458      1462      1460
 -1       292    8    0    1
 -2         4        71       136      1174      1463      1241
 -1       293    8    0    1
 -2       136        71       227      1463      1461      1464
 -1       294    8    0    1
 -2        72        73       228      1176      1465      1466
 -1       295    8    0    1
 -2        72       228       179      1466      1467      1319
 -1       296    8    0    1
 -2        73        74       229      1177      1468      1469
 -1       297    8    0    1
 -2        73       229       228      1469      1470      1465
 -1       298    8    0    1
 -2        74        75       230      1178      1471      1472
 -1       299    8    0    1
 -2        74       230       229      1472      1473      1468
 -1       300    8    0    1
 -2        75        76       231      1179      1474      1475
 -1       301    8    0    1
 -2        75       231       230      1475      1476      1471
 -1       302    8    0    1
 -2        76        77       232      1180      1477      1478
 -1       303    8    0    1
 -2        76       232       231      1478      1479      1474
 -1       304    8    0    1
 -2        77        78       233      1181      1480      1481
 -1       305    8    0    1
 -2        77       233       232      1481      1482      1477
 -1       306    8    0    1
 -2        78        79       234      1182      1483      1484
 -1       307    8    0    1
 -2        78       234       233      1484      1485      1480
 -1       308    8    0    1
 -2        79        80       235      1183      1486      1487
 -1       309    8    0    1
 -2        79       235       234      1487      1488      1483
 -1       310    8    0    1
 -2        80        81       236      1184      1489      1490
 -1       311    8    0    1
 -2        80       236       235      1490      1491      1486
 -1       312    8    0    1
 -2        81        82       237      1185      1492      1493
 -1       313    8    0    1
 -2        81       237       236      1493      1494      1489
 -1       314    8    0    1
 -2        82        83       238      1186      1495      1496
 -1       315    8    0    1
 -2        82       238       237      1496      1497      1492
 -1       316    8    0    1
 -2        83        84       239      1187      1498      1499
 -1       317    8    0    1
 -2        83       239       238      1499      1500      1495
 -1       318    8    0    1
 -2        84        85       240      1188      1501      1502
 -1       319    8    0    1
 -2        84       240       239      1502      1503      1498
 -1       320    8    0    1
 -2        85        86       241      1189      1504      1505
 -1       321    8    0    1
 -2        85       241       240      1505      1506      1501
 -1       322    8    0    1
 -2        86        87       242      1190      1507      1508
 -1       323    8    0    1
 -2        86       242       241      1508      1509      1504
 -1       324    8    0    1
 -2        87        88       243      1191      1510      1511
 -1       325    8    0    1
 -2        87       243       242      1511      1512      1507
 -1       326    8    0    1
 -2        88        89       244      1192      1513      1514
 -1       327    8    0    1
 -2        88       244       243      1514      1515      1510
 -1       328    8    0    1
 -2        89        90       245      1193      1516      1517
 -1       329    8    0    1
 -2        89       245       244      1517      1518      1513
 -1       330    8    0    1
 -2        90        91       246      1194      1519      1520
 -1       331    8    0    1
 -2        90       246       245      1520      1521      1516
 -1       332    8    0    1
 -2        91        92       247      1195      1522      1523
 -1       333    8    0    1
 -2        91       247       246      1523      1524      1519
 -1       334    8    0    1
 -2        92        93       248      1196      1525      1526
 -1       335    8    0    1
 -2        92       248       247      1526      1527      1522
 -1       336    8    0    1
 -2        93        94       249      1197      1528      1529
 -1       337    8    0    1
 -2        93       249       248      1529      1530      1525
 -1       338    8    0    1
 -2        94        95       250      1198      1531      1532
 -1       339    8    0    1
 -2        94       250       249      1532      1533      1528
 -1       340    8    0    1
 -2        95        96       251      1199      1534      1535
 -1       341    8    0    1
 -2        95       251       250      1535      1536      1531
 -1       342    8    0    1
 -2        96        97       252      1200      1537      1538
 -1       343    8    0    1
 -2        96       252       251      1538      1539      1534
 -1       344    8    0    1
 -2        97        98       253      1201      1540      1541
 -1       345    8    0    1
 -2        97       253       252      1541      1542      1537
 -1       346    8    0    1
 -2        98        99       254      1202      1543      1544
 -1       347    8    0    1
 -2        98       254       253      1544      1545      1540
 -1       348    8    0    1
 -2        99       100       255      1203      1546      1547
 -1       349    8    0    1
 -2        99       255       254      1547      1548      1543
 -1       350    8    0    1
 -2       100       101       256      1204      1549      1550
 -1       351    8    0    1
 -2       100       256       255      1550      1551      1546
 -1       352    8    0    1
 -2       101       102       257      1205      1552      1553
 -1       353    8    0    1
 -2       101       257       256      1553      1554      1549
 -1       354    8    0    1
 -2       102       103       258      1206      1555      1556
 -1       355    8    0    1
 -2       102       258       257      1556      1557      1552
 -1       356    8    0    1
 -2       103       104       259      1207      1558      1559
 -1       357    8    0    1
 -2       103       259       258      1559      1560      1555
 -1       358    8    0    1
 -2       104       105       260      1208      1561      1562
 -1       359    8    0    1
 -2       104       260       259      1562      1563      1558
 -1       360    8    0    1
 -2       105       106       261      1209      1564      1565
 -1       361    8    0    1
 -2       105       261       260      1565      1566      1561
 -1       362    8    0    1
 -2       106       107       262      1210      1567      1568
 -1       363    8    0    1
 -2       106       262       261      1568      1569      1564
 -1       364    8    0    1
 -2       107       108       263      1211      1570      1571
 -1       365    8    0    1
 -2       107       263       262      1571      1572      1567
 -1       366    8    0    1
 -2       108       109       264      1212      1573      1574
 -1       367    8    0    1
 -2       108       264       263      1574      1575      1570
 -1       368    8    0    1
 -2       109       110       265      1213      1576      1577
 -1       369    8    0    1
 -2       109       265       264      1577      1578      1573
 -1       370    8    0    1
 -2       110       111       266      1214      1579      1580
 -1       371    8    0    1
 -2       110       266       265      1580      1581      1576
 -1       372    8    0    1
 -2       111       112       267      1215      1582      1583
 -1       373    8    0    1
 -2       111       267       266      1583      1584      1579
 -1       374    8    0    1
 -2       112       113       268      1216      1585      1586
 -1       375    8    0    1
 -2       112       268       267      1586      1587      1582
 -1       376    8    0    1
 -2       113       114       269      1217      1588      1589
 -1       377    8    0    1
 -2       113       269       268      1589      1590      1585
 -1       378    8    0    1
 -2       114       115       270      1218      1591      1592
 -1       379    8    0    1
 -2       114       270       269      1592      1593      1588
 -1       380    8    0    1
 -2       115       116       271      1219      1594      1595
 -1       381    8    0    1
 -2       115       271       270      1595      1596      1591
 -1       382    8    0    1
 -2       116       117       272      1220      1597      1598
 -1       383    8    0    1
 -2       116       272       271      1598      1599      1594
 -1       384    8    0    1
 -2       117       118       273      1221      1600      1601
 -1       385    8    0    1
 -2       117       273       272      1601      1602      1597
 -1       386    8    0    1
 -2       118       119       274      1222      1603      1604
 -1       387    8    0    1
 -2       118       274       273      1604      1605      1600
 -1       388    8    0    1
 -2       119       120       275      1223      1606      1607
 -1       389    8    0    1
 -2       119       275       274      1607      1608      1603
 -1       390    8    0    1
 -2       120         3       121      1224      1225      1609
 -1       391    8    0    1
 -2       121       122       276      1226      1610      1611
 -1       392    8    0    1
 -2       122       123       277      1227      1612      1613
 -1       393    8    0    1
 -2       122       277       276      1613      1614      1610
 -1       394    8    0    1
 -2       123       124       278      1228      1615      1616
 -1       395    8    0    1
 -2       123       278       277      1616      1617      1612
 -1       396    8    0    1
 -2       124       125       279      1229      1618      1619
 -1       397    8    0    1
 -2       124       279       278      1619      1620      1615
 -1       398    8    0    1
 -2       125       126       280      1230      1621      1622
 -1       399    8    0    1
 -2       125       280       279      1622      1623      1618
 -1       400    8    0    1
 -2       126       127       281      1231      1624      1625
 -1       401    8    0    1
 -2       126       281       280      1625      1626      1621
 -1       402    8    0    1
 -2       127       128       282      1232      1627      1628
 -1       403    8    0    1
 -2       127       282       281      1628      1629      1624
 -1       404    8    0    1
 -2       128       129       283      1233      1630      1631
 -1       405    8    0    1
 -2       128       283       282      1631      1632      1627
 -1       406    8    0    1
 -2       129       130       284      1234      1633      1634
 -1       407    8    0    1
 -2       129       284       283      1634      1635      1630
 -1       408    8    0    1
 -2       130       131       285      1235      1636      1637
 -1       409    8    0    1
 -2       130       285       284      1637      1638      1633
 -1       410    8    0    1
 -2       131       132       286      1236      1639      1640
 -1       411    8    0    1
 -2       131       286       285      1640      1641      1636
 -1       412    8    0    1
 -2       132       133       287      1237      1642      1643
 -1       413    8    0    1
 -2       132       287       286      1643      1644      1639
 -1       414    8    0    1
 -2       133       134       288      1238      1645      1646
 -1       415    8    0    1
 -2       133       288       287      1646      1647      1642
 -1       416    8    0    1
 -2       134       135       289      1239      1648      1649
 -1       417    8    0    1
 -2       134       289       288      1649      1650      1645
 -1       418    8    0    1
 -2       135       136       290      1240      1651      1652
 -1       419    8    0    1
 -2       289       135       290      1648      1652      1653
 -1       420    8    0    1
 -2       136       227       290      1464      1654      1651
 -1       421    8    0    1
 -2         2       137       291      1242      1655      1656
 -1       422    8    0    1
 -2       137       138       292      1243      1657      1658
 -1       423    8    0    1
 -2       138       139       293      1244      1659      1660
 -1       424    8    0    1
 -2       139       140       294      1245      1661      1662
 -1       425    8    0    1
 -2       140       141       295      1246      1663      1664
 -1       426    8    0    1
 -2       141       142       296      1247      1665      1666
 -1       427    8    0    1
 -2       142       143       297      1248      1667      1668
 -1       428    8    0    1
 -2       143       144       298      1249      1669      1670
 -1       429    8    0    1
 -2       144       145       299      1250      1671      1672
 -1       430    8    0    1
 -2       145       146       300      1251      1673      1674
 -1       431    8    0    1
 -2       146       147       301      1252      1675      1676
 -1       432    8    0    1
 -2       147       148       302      1253      1677      1678
 -1       433    8    0    1
 -2       148       149       303      1254      1679      1680
 -1       434    8    0    1
 -2       149       150       304      1255      1681      1682
 -1       435    8    0    1
 -2       150       151       305      1256      1683      1684
 -1       436    8    0    1
 -2       151       152       306      1257      1685      1686
 -1       437    8    0    1
 -2       152       153       307      1258      1687      1688
 -1       438    8    0    1
 -2       153       154       308      1259      1689      1690
 -1       439    8    0    1
 -2       154         1       309      1260      1691      1692
 -1       440    8    0    1
 -2         1       155       310      1261      1693      1694
 -1       441    8    0    1
 -2       155       156       311      1262      1695      1696
 -1       442    8    0    1
 -2       156       157       312      1263      1697      1698
 -1       443    8    0    1
 -2       157       158       313      1264      1699      1700
 -1       444    8    0    1
 -2       158       159       314      1265      1701      1702
 -1       445    8    0    1
 -2       159       160       315      1266      1703      1704
 -1       446    8    0    1
 -2       160       161       316      1267      1705      1706
 -1       447    8    0    1
 -2       161       162       317      1268      1707      1708
 -1       448    8    0    1
 -2       162       163       318      1269      1709      1710
 -1       449    8    0    1
 -2       163         2       319      1270      1711      1712
 -1       450    8    0    1
 -2       294       140       295      1661      1664      1713
 -1       451    8    0    1
 -2       293       139       294      1659      1662      1714
 -1       452    8    0    1
 -2       120       121       275      1609      1715      1606
 -1       453    8    0    1
 -2       121       276       275      1611      1716      1715
 -1       454    8    0    1
 -2       291       137       292      1655      1658      1717
 -1       455    8    0    1
 -2       292       138       293      1657      1660      1718
 -1       456    8    0    1
 -2         2       291       319      1656      1719      1711
 -1       457    8    0    1
 -2       141       296       295      1666      1720      1663
 -1       458    8    0    1
 -2       142       297       296      1668      1721      1665
 -1       459    8    0    1
 -2       143       298       297      1670      1722      1667
 -1       460    8    0    1
 -2       144       299       298      1672      1723      1669
 -1       461    8    0    1
 -2       145       300       299      1674      1724      1671
 -1       462    8    0    1
 -2       146       301       300      1676      1725      1673
 -1       463    8    0    1
 -2       147       302       301      1678      1726      1675
 -1       464    8    0    1
 -2       148       303       302      1680      1727      1677
 -1       465    8    0    1
 -2       149       304       303      1682      1728      1679
 -1       466    8    0    1
 -2       150       305       304      1684      1729      1681
 -1       467    8    0    1
 -2       151       306       305      1686      1730      1683
 -1       468    8    0    1
 -2       152       307       306      1688      1731      1685
 -1       469    8    0    1
 -2       153       308       307      1690      1732      1687
 -1       470    8    0    1
 -2       154       309       308      1692      1733      1689
 -1       471    8    0    1
 -2         1       310       309      1694      1734      1691
 -1       472    8    0    1
 -2       155       311       310      1696      1735      1693
 -1       473    8    0    1
 -2       156       312       311      1698      1736      1695
 -1       474    8    0    1
 -2       157       313       312      1700      1737      1697
 -1       475    8    0    1
 -2       158       314       313      1702      1738      1699
 -1       476    8    0    1
 -2       159       315       314      1704      1739      1701
 -1       477    8    0    1
 -2       160       316       315      1706      1740      1703
 -1       478    8    0    1
 -2       161       317       316      1708      1741      1705
 -1       479    8    0    1
 -2       162       318       317      1710      1742      1707
 -1       480    8    0    1
 -2       163       319       318      1712      1743      1709
 -1       481    8    0    1
 -2        23         7       164      1271      1273      1744
 -1       482    8    0    1
 -2       165       166       320      1279      1745      1746
 -1       483    8    0    1
 -2       164       165       321      1276      1747      1748
 -1       484    8    0    1
 -2       165       320       321      1746      1749      1747
 -1       485    8    0    1
 -2       167       168       322      1285      1750      1751
 -1       486    8    0    1
 -2       168       169       323      1288      1752      1753
 -1       487    8    0    1
 -2       168       323       322      1753      1754      1750
 -1       488    8    0    1
 -2       169       170       324      1291      1755      1756
 -1       489    8    0    1
 -2       169       324       323      1756      1757      1752
 -1       490    8    0    1
 -2       170       171       325      1294      1758      1759
 -1       491    8    0    1
 -2       170       325       324      1759      1760      1755
 -1       492    8    0    1
 -2       171       172       326      1297      1761      1762
 -1       493    8    0    1
 -2       171       326       325      1762      1763      1758
 -1       494    8    0    1
 -2       172       173       327      1300      1764      1765
 -1       495    8    0    1
 -2       172       327       326      1765      1766      1761
 -1       496    8    0    1
 -2       173       174       328      1303      1767      1768
 -1       497    8    0    1
 -2       173       328       327      1768      1769      1764
 -1       498    8    0    1
 -2       174       175       329      1306      1770      1771
 -1       499    8    0    1
 -2       174       329       328      1771      1772      1767
 -1       500    8    0    1
 -2       175       176       330      1309      1773      1774
 -1       501    8    0    1
 -2       175       330       329      1774      1775      1770
 -1       502    8    0    1
 -2       176       177       331      1312      1776      1777
 -1       503    8    0    1
 -2       176       331       330      1777      1778      1773
 -1       504    8    0    1
 -2       177       178       332      1315      1779      1780
 -1       505    8    0    1
 -2       177       332       331      1780      1781      1776
 -1       506    8    0    1
 -2       178       179       333      1318      1782      1783
 -1       507    8    0    1
 -2       332       178       333      1779      1783      1784
 -1       508    8    0    1
 -2       179       228       333      1467      1785      1782
 -1       509    8    0    1
 -2       180        23       164      1320      1744      1786
 -1       510    8    0    1
 -2       228       229       334      1470      1787      1788
 -1       511    8    0    1
 -2       228       334       333      1788      1789      1785
 -1       512    8    0    1
 -2       180       164       321      1786      1748      1790
 -1       513    8    0    1
 -2       182       181       335      1327      1791      1792
 -1       514    8    0    1
 -2       183       182       336      1330      1793      1794
 -1       515    8    0    1
 -2       182       335       336      1792      1795      1793
 -1       516    8    0    1
 -2       184       183       337      1333      1796      1797
 -1       517    8    0    1
 -2       183       336       337      1794      1798      1796
 -1       518    8    0    1
 -2       185       184       338      1336      1799      1800
 -1       519    8    0    1
 -2       184       337       338      1797      1801      1799
 -1       520    8    0    1
 -2       186       185       339      1339      1802      1803
 -1       521    8    0    1
 -2       185       338       339      1800      1804      1802
 -1       522    8    0    1
 -2       187       186       340      1342      1805      1806
 -1       523    8    0    1
 -2       186       339       340      1803      1807      1805
 -1       524    8    0    1
 -2       188       187       341      1345      1808      1809
 -1       525    8    0    1
 -2       187       340       341      1806      1810      1808
 -1       526    8    0    1
 -2       189       188       342      1348      1811      1812
 -1       527    8    0    1
 -2       188       341       342      1809      1813      1811
 -1       528    8    0    1
 -2       190       189       343      1351      1814      1815
 -1       529    8    0    1
 -2       189       342       343      1812      1816      1814
 -1       530    8    0    1
 -2       191       190       344      1354      1817      1818
 -1       531    8    0    1
 -2       190       343       344      1815      1819      1817
 -1       532    8    0    1
 -2       192       191       345      1357      1820      1821
 -1       533    8    0    1
 -2       191       344       345      1818      1822      1820
 -1       534    8    0    1
 -2       193       192       346      1360      1823      1824
 -1       535    8    0    1
 -2       192       345       346      1821      1825      1823
 -1       536    8    0    1
 -2       194       193       347      1363      1826      1827
 -1       537    8    0    1
 -2       193       346       347      1824      1828      1826
 -1       538    8    0    1
 -2       195       194       348      1366      1829      1830
 -1       539    8    0    1
 -2       194       347       348      1827      1831      1829
 -1       540    8    0    1
 -2       196       195       349      1369      1832      1833
 -1       541    8    0    1
 -2       195       348       349      1830      1834      1832
 -1       542    8    0    1
 -2       197       196       350      1372      1835      1836
 -1       543    8    0    1
 -2       196       349       350      1833      1837      1835
 -1       544    8    0    1
 -2       198       197       351      1375      1838      1839
 -1       545    8    0    1
 -2       197       350       351      1836      1840      1838
 -1       546    8    0    1
 -2       199       198       352      1378      1841      1842
 -1       547    8    0    1
 -2       198       351       352      1839      1843      1841
 -1       548    8    0    1
 -2       200       199       353      1381      1844      1845
 -1       549    8    0    1
 -2       199       352       353      1842      1846      1844
 -1       550    8    0    1
 -2       201       200       354      1384      1847      1848
 -1       551    8    0    1
 -2       200       353       354      1845      1849      1847
 -1       552    8    0    1
 -2       202       201       355      1387      1850      1851
 -1       553    8    0    1
 -2       201       354       355      1848      1852      1850
 -1       554    8    0    1
 -2       203       202       356      1390      1853      1854
 -1       555    8    0    1
 -2       202       355       356      1851      1855      1853
 -1       556    8    0    1
 -2       204       203       357      1393      1856      1857
 -1       557    8    0    1
 -2       203       356       357      1854      1858      1856
 -1       558    8    0    1
 -2       205       204       358      1396      1859      1860
 -1       559    8    0    1
 -2       204       357       358      1857      1861      1859
 -1       560    8    0    1
 -2       206       205       359      1399      1862      1863
 -1       561    8    0    1
 -2       205       358       359      1860      1864      1862
 -1       562    8    0    1
 -2       207       206       360      1402      1865      1866
 -1       563    8    0    1
 -2       206       359       360      1863      1867      1865
 -1       564    8    0    1
 -2       208       207       361      1405      1868      1869
 -1       565    8    0    1
 -2       207       360       361      1866      1870      1868
 -1       566    8    0    1
 -2       209       208       362      1408      1871      1872
 -1       567    8    0    1
 -2       208       361       362      1869      1873      1871
 -1       568    8    0    1
 -2       210       209       363      1411      1874      1875
 -1       569    8    0    1
 -2       209       362       363      1872      1876      1874
 -1       570    8    0    1
 -2       211       210       364      1414      1877      1878
 -1       571    8    0    1
 -2       210       363       364      1875      1879      1877
 -1       572    8    0    1
 -2       212       211       365      1417      1880      1881
 -1       573    8    0    1
 -2       211       364       365      1878      1882      1880
 -1       574    8    0    1
 -2       213       212       366      1420      1883      1884
 -1       575    8    0    1
 -2       212       365       366      1881      1885      1883
 -1       576    8    0    1
 -2       214       213       367      1423      1886      1887
 -1       577    8    0    1
 -2       213       366       367      1884      1888      1886
 -1       578    8    0    1
 -2       215       214       368      1426      1889      1890
 -1       579    8    0    1
 -2       214       367       368      1887      1891      1889
 -1       580    8    0    1
 -2       216       215       369      1429      1892      1893
 -1       581    8    0    1
 -2       215       368       369      1890      1894      1892
 -1       582    8    0    1
 -2       217       216       370      1432      1895      1896
 -1       583    8    0    1
 -2       216       369       370      1893      1897      1895
 -1       584    8    0    1
 -2       218       217       371      1435      1898      1899
 -1       585    8    0    1
 -2       217       370       371      1896      1900      1898
 -1       586    8    0    1
 -2       219       218       372      1438      1901      1902
 -1       587    8    0    1
 -2       218       371       372      1899      1903      1901
 -1       588    8    0    1
 -2       220       219       373      1441      1904      1905
 -1       589    8    0    1
 -2       219       372       373      1902      1906      1904
 -1       590    8    0    1
 -2       221       220       374      1444      1907      1908
 -1       591    8    0    1
 -2       220       373       374      1905      1909      1907
 -1       592    8    0    1
 -2       222       221       375      1447      1910      1911
 -1       593    8    0    1
 -2       221       374       375      1908      1912      1910
 -1       594    8    0    1
 -2       223       222       376      1450      1913      1914
 -1       595    8    0    1
 -2       222       375       376      1911      1915      1913
 -1       596    8    0    1
 -2       224       223       377      1453      1916      1917
 -1       597    8    0    1
 -2       223       376       377      1914      1918      1916
 -1       598    8    0    1
 -2       225       224       378      1456      1919      1920
 -1       599    8    0    1
 -2       224       377       378      1917      1921      1919
 -1       600    8    0    1
 -2       226       225       379      1459      1922      1923
 -1       601    8    0    1
 -2       225       378       379      1920      1924      1922
 -1       602    8    0    1
 -2       227       226       380      1462      1925      1926
 -1       603    8    0    1
 -2       290       227       380      1654      1926      1927
 -1       604    8    0    1
 -2       226       379       380      1923      1928      1925
 -1       605    8    0    1
 -2       229       230       381      1473      1929      1930
 -1       606    8    0    1
 -2       229       381       334      1930      1931      1787
 -1       607    8    0    1
 -2       230       231       382      1476      1932      1933
 -1       608    8    0    1
 -2       230       382       381      1933      1934      1929
 -1       609    8    0    1
 -2       231       232       383      1479      1935      1936
 -1       610    8    0    1
 -2       231       383       382      1936      1937      1932
 -1       611    8    0    1
 -2       232       233       384      1482      1938      1939
 -1       612    8    0    1
 -2       232       384       383      1939      1940      1935
 -1       613    8    0    1
 -2       233       234       385      1485      1941      1942
 -1       614    8    0    1
 -2       233       385       384      1942      1943      1938
 -1       615    8    0    1
 -2       234       235       386      1488      1944      1945
 -1       616    8    0    1
 -2       234       386       385      1945      1946      1941
 -1       617    8    0    1
 -2       235       236       387      1491      1947      1948
 -1       618    8    0    1
 -2       235       387       386      1948      1949      1944
 -1       619    8    0    1
 -2       236       237       388      1494      1950      1951
 -1       620    8    0    1
 -2       236       388       387      1951      1952      1947
 -1       621    8    0    1
 -2       237       238       389      1497      1953      1954
 -1       622    8    0    1
 -2       237       389       388      1954      1955      1950
 -1       623    8    0    1
 -2       238       239       390      1500      1956      1957
 -1       624    8    0    1
 -2       238       390       389      1957      1958      1953
 -1       625    8    0    1
 -2       239       240       391      1503      1959      1960
 -1       626    8    0    1
 -2       239       391       390      1960      1961      1956
 -1       627    8    0    1
 -2       240       241       392      1506      1962      1963
 -1       628    8    0    1
 -2       240       392       391      1963      1964      1959
 -1       629    8    0    1
 -2       241       242       393      1509      1965      1966
 -1       630    8    0    1
 -2       241       393       392      1966      1967      1962
 -1       631    8    0    1
 -2       242       243       394      1512      1968      1969
 -1       632    8    0    1
 -2       242       394       393      1969      1970      1965
 -1       633    8    0    1
 -2       243       244       395      1515      1971      1972
 -1       634    8    0    1
 -2       243       395       394      1972      1973      1968
 -1       635    8    0    1
 -2       244       245       396      1518      1974      1975
 -1       636    8    0    1
 -2       244       396       395      1975      1976      1971
 -1       637    8    0    1
 -2       245       246       397      1521      1977      1978
 -1       638    8    0    1
 -2       245       397       396      1978      1979      1974
 -1       639    8    0    1
 -2       246       247       398      1524      1980      1981
 -1       640    8    0    1
 -2       246       398       397      1981      1982      1977
 -1       641    8    0    1
 -2       247       248       399      1527      1983      1984
 -1       642    8    0    1
 -2       247       399       398      1984      1985      1980
 -1       643    8    0    1
 -2       248       249       400      1530      1986      1987
 -1       644    8    0    1
 -2       248       400       399      1987      1988      1983
 -1       645    8    0    1
 -2       249       250       401      1533      1989      1990
 -1       646    8    0    1
 -2       249       401       400      1990      1991      1986
 -1       647    8    0    1
 -2       250       251       402      1536      1992      1993
 -1       648    8    0    1
 -2       250       402       401      1993      1994      1989
 -1       649    8    0    1
 -2       251       252       403      1539      1995      1996
 -1       650    8    0    1
 -2       251       403       402      1996      1997      1992
 -1       651    8    0    1
 -2       252       253       404      1542      1998      1999
 -1       652    8    0    1
 -2       252       404       403      1999      2000      1995
 -1       653    8    0    1
 -2       253       254       405      1545      2001      2002
 -1       654    8    0    1
 -2       253       405       404      2002      2003      1998
 -1       655    8    0    1
 -2       254       255       406      1548      2004      2005
 -1       656    8    0    1
 -2       254       406       405      2005      2006      2001
 -1       657    8    0    1
 -2       255       256       407      1551      2007      2008
 -1       658    8    0    1
 -2       255       407       406      2008      2009      2004
 -1       659    8    0    1
 -2       256       257       408      1554      2010      2011
 -1       660    8    0    1
 -2       256       408       407      2011      2012      2007
 -1       661    8    0    1
 -2       257       258       409      1557      2013      2014
 -1       662    8    0    1
 -2       257       409       408      2014      2015      2010
 -1       663    8    0    1
 -2       258       259       410      1560      2016      2017
 -1       664    8    0    1
 -2       258       410       409      2017      2018      2013
 -1       665    8    0    1
 -2       259       260       411      1563      2019      2020
 -1       666    8    0    1
 -2       259       411       410      2020      2021      2016
 -1       667    8    0    1
 -2       260       261       412      1566      2022      2023
 -1       668    8    0    1
 -2       260       412       411      2023      2024      2019
 -1       669    8    0    1
 -2       261       262       413      1569      2025      2026
 -1       670    8    0    1
 -2       261       413       412      2026      2027      2022
 -1       671    8    0    1
 -2       262       263       414      1572      2028      2029
 -1       672    8    0    1
 -2       262       414       413      2029      2030      2025
 -1       673    8    0    1
 -2       263       264       415      1575      2031      2032
 -1       674    8    0    1
 -2       263       415       414      2032      2033      2028
 -1       675    8    0    1
 -2       264       265       416      1578      2034      2035
 -1       676    8    0    1
 -2       264       416       415      2035      2036      2031
 -1       677    8    0    1
 -2       265       266       417      1581      2037      2038
 -1       678    8    0    1
 -2       265       417       416      2038      2039      2034
 -1       679    8    0    1
 -2       266       267       418      1584      2040      2041
 -1       680    8    0    1
 -2       266       418       417      2041      2042      2037
 -1       681    8    0    1
 -2       267       268       419      1587      2043      2044
 -1       682    8    0    1
 -2       267       419       418      2044      2045      2040
 -1       683    8    0    1
 -2       268       269       420      1590      2046      2047
 -1       684    8    0    1
 -2       268       420       419      2047      2048      2043
 -1       685    8    0    1
 -2       269       270       421      1593      2049      2050
 -1       686    8    0    1
 -2       269       421       420      2050      2051      2046
 -1       687    8    0    1
 -2       270       271       422      1596      2052      2053
 -1       688    8    0    1
 -2       270       422       421      2053      2054      2049
 -1       689    8    0    1
 -2       271       272       423      1599      2055      2056
 -1       690    8    0    1
 -2       271       423       422      2056      2057      2052
 -1       691    8    0    1
 -2       272       273       424      1602      2058      2059
 -1       692    8    0    1
 -2       272       424       423      2059      2060      2055
 -1       693    8    0    1
 -2       273       274       425      1605      2061      2062
 -1       694    8    0    1
 -2       273       425       424      2062      2063      2058
 -1       695    8    0    1
 -2       274       275       426      1608      2064      2065
 -1       696    8    0    1
 -2       425       274       426      2061      2065      2066
 -1       697    8    0    1
 -2       275       276       426      1716      2067      2064
 -1       698    8    0    1
 -2       278       279       427      1620      2068      2069
 -1       699    8    0    1
 -2       277       278       428      1617      2070      2071
 -1       700    8    0    1
 -2       278       427       428      2069      2072      2070
 -1       701    8    0    1
 -2       276       277       429      1614      2073      2074
 -1       702    8    0    1
 -2       426       276       429      2067      2074      2075
 -1       703    8    0    1
 -2       277       428       429      2071      2076      2073
 -1       704    8    0    1
 -2       279       280       430      1623      2077      2078
 -1       705    8    0    1
 -2       279       430       427      2078      2079      2068
 -1       706    8    0    1
 -2       280       281       431      1626      2080      2081
 -1       707    8    0    1
 -2       280       431       430      2081      2082      2077
 -1       708    8    0    1
 -2       281       282       432      1629      2083      2084
 -1       709    8    0    1
 -2       281       432       431      2084      2085      2080
 -1       710    8    0    1
 -2       282       283       433      1632      2086      2087
 -1       711    8    0    1
 -2       282       433       432      2087      2088      2083
 -1       712    8    0    1
 -2       283       284       434      1635      2089      2090
 -1       713    8    0    1
 -2       283       434       433      2090      2091      2086
 -1       714    8    0    1
 -2       284       285       435      1638      2092      2093
 -1       715    8    0    1
 -2       284       435       434      2093      2094      2089
 -1       716    8    0    1
 -2       285       286       436      1641      2095      2096
 -1       717    8    0    1
 -2       285       436       435      2096      2097      2092
 -1       718    8    0    1
 -2       286       287       437      1644      2098      2099
 -1       719    8    0    1
 -2       286       437       436      2099      2100      2095
 -1       720    8    0    1
 -2       287       288       438      1647      2101      2102
 -1       721    8    0    1
 -2       287       438       437      2102      2103      2098
 -1       722    8    0    1
 -2       288       289       439      1650      2104      2105
 -1       723    8    0    1
 -2       288       439       438      2105      2106      2101
 -1       724    8    0    1
 -2       292       293       440      1718      2107      2108
 -1       725    8    0    1
 -2       319       291       441      1719      2109      2110
 -1       726    8    0    1
 -2       291       292       442      1717      2111      2112
 -1       727    8    0    1
 -2       292       440       442      2108      2113      2111
 -1       728    8    0    1
 -2       293       294       443      1714      2114      2115
 -1       729    8    0    1
 -2       294       295       444      1713      2116      2117
 -1       730    8    0    1
 -2       166       167       445      1282      2118      2119
 -1       731    8    0    1
 -2       320       166       445      1745      2119      2120
 -1       732    8    0    1
 -2       167       322       445      1751      2121      2118
 -1       733    8    0    1
 -2       296       297       446      1721      2122      2123
 -1       734    8    0    1
 -2       297       298       447      1722      2124      2125
 -1       735    8    0    1
 -2       298       299       448      1723      2126      2127
 -1       736    8    0    1
 -2       299       300       449      1724      2128      2129
 -1       737    8    0    1
 -2       300       301       450      1725      2130      2131
 -1       738    8    0    1
 -2       300       450       449      2131      2132      2128
 -1       739    8    0    1
 -2       301       302       451      1726      2133      2134
 -1       740    8    0    1
 -2       302       303       452      1727      2135      2136
 -1       741    8    0    1
 -2       303       304       453      1728      2137      2138
 -1       742    8    0    1
 -2       304       305       454      1729      2139      2140
 -1       743    8    0    1
 -2       305       306       455      1730      2141      2142
 -1       744    8    0    1
 -2       306       307       456      1731      2143      2144
 -1       745    8    0    1
 -2       307       308       457      1732      2145      2146
 -1       746    8    0    1
 -2       307       457       456      2146      2147      2143
 -1       747    8    0    1
 -2       308       309       458      1733      2148      2149
 -1       748    8    0    1
 -2       309       310       459      1734      2150      2151
 -1       749    8    0    1
 -2       310       311       460      1735      2152      2153
 -1       750    8    0    1
 -2       310       460       459      2153      2154      2150
 -1       751    8    0    1
 -2       311       312       461      1736      2155      2156
 -1       752    8    0    1
 -2       312       313       462      1737      2157      2158
 -1       753    8    0    1
 -2       313       314       463      1738      2159      2160
 -1       754    8    0    1
 -2       314       315       464      1739      2161      2162
 -1       755    8    0    1
 -2       315       316       465      1740      2163      2164
 -1       756    8    0    1
 -2       316       317       466      1741      2165      2166
 -1       757    8    0    1
 -2       317       318       467      1742      2167      2168
 -1       758    8    0    1
 -2       317       467       466      2168      2169      2165
 -1       759    8    0    1
 -2       318       319       468      1743      2170      2171
 -1       760    8    0    1
 -2       319       441       468      2110      2172      2170
 -1       761    8    0    1
 -2       295       296       469      1720      2173      2174
 -1       762    8    0    1
 -2       444       295       469      2116      2174      2175
 -1       763    8    0    1
 -2       180       321       181      1790      2176      1324
 -1       764    8    0    1
 -2       296       446       469      2123      2177      2173
 -1       765    8    0    1
 -2       335       181       321      1791      2176      2178
 -1       766    8    0    1
 -2       441       291       442      2109      2112      2179
 -1       767    8    0    1
 -2       293       443       440      2115      2180      2107
 -1       768    8    0    1
 -2       439       289       290      2104      1653      2181
 -1       769    8    0    1
 -2       443       294       444      2114      2117      2182
 -1       770    8    0    1
 -2       467       318       468      2167      2171      2183
 -1       771    8    0    1
 -2       465       316       466      2163      2166      2184
 -1       772    8    0    1
 -2       464       315       465      2161      2164      2185
 -1       773    8    0    1
 -2       463       314       464      2159      2162      2186
 -1       774    8    0    1
 -2       462       313       470      2157      2187      2188
 -1       775    8    0    1
 -2       313       463       470      2160      2189      2187
 -1       776    8    0    1
 -2       460       311       461      2152      2156      2190
 -1       777    8    0    1
 -2       457       308       458      2145      2149      2191
 -1       778    8    0    1
 -2       455       306       456      2141      2144      2192
 -1       779    8    0    1
 -2       454       305       455      2139      2142      2193
 -1       780    8    0    1
 -2       453       304       454      2137      2140      2194
 -1       781    8    0    1
 -2       452       303       453      2135      2138      2195
 -1       782    8    0    1
 -2       450       301       451      2130      2134      2196
 -1       783    8    0    1
 -2       448       299       471      2126      2197      2198
 -1       784    8    0    1
 -2       299       449       471      2129      2199      2197
 -1       785    8    0    1
 -2       446       297       447      2122      2125      2200
 -1       786    8    0    1
 -2       447       298       448      2124      2127      2201
 -1       787    8    0    1
 -2       451       302       452      2133      2136      2202
 -1       788    8    0    1
 -2       458       309       459      2148      2151      2203
 -1       789    8    0    1
 -2       461       312       462      2155      2158      2204
 -1       790    8    0    1
 -2       334       381       472      1931      2205      2206
 -1       791    8    0    1
 -2       323       324       473      1757      2207      2208
 -1       792    8    0    1
 -2       322       323       474      1754      2209      2210
 -1       793    8    0    1
 -2       323       473       474      2208      2211      2209
 -1       794    8    0    1
 -2       325       326       475      1763      2212      2213
 -1       795    8    0    1
 -2       326       327       476      1766      2214      2215
 -1       796    8    0    1
 -2       326       476       475      2215      2216      2212
 -1       797    8    0    1
 -2       327       328       477      1769      2217      2218
 -1       798    8    0    1
 -2       327       477       476      2218      2219      2214
 -1       799    8    0    1
 -2       328       329       478      1772      2220      2221
 -1       800    8    0    1
 -2       328       478       477      2221      2222      2217
 -1       801    8    0    1
 -2       329       330       479      1775      2223      2224
 -1       802    8    0    1
 -2       329       479       478      2224      2225      2220
 -1       803    8    0    1
 -2       330       331       480      1778      2226      2227
 -1       804    8    0    1
 -2       330       480       479      2227      2228      2223
 -1       805    8    0    1
 -2       381       382       481      1934      2229      2230
 -1       806    8    0    1
 -2       381       481       472      2230      2231      2205
 -1       807    8    0    1
 -2       336       335       482      1795      2232      2233
 -1       808    8    0    1
 -2       469       446       483      2177      2234      2235
 -1       809    8    0    1
 -2       337       336       484      1798      2236      2237
 -1       810    8    0    1
 -2       336       482       484      2233      2238      2236
 -1       811    8    0    1
 -2       338       337       485      1801      2239      2240
 -1       812    8    0    1
 -2       337       484       485      2237      2241      2239
 -1       813    8    0    1
 -2       339       338       486      1804      2242      2243
 -1       814    8    0    1
 -2       338       485       486      2240      2244      2242
 -1       815    8    0    1
 -2       340       339       487      1807      2245      2246
 -1       816    8    0    1
 -2       339       486       487      2243      2247      2245
 -1       817    8    0    1
 -2       341       340       488      1810      2248      2249
 -1       818    8    0    1
 -2       340       487       488      2246      2250      2248
 -1       819    8    0    1
 -2       342       341       489      1813      2251      2252
 -1       820    8    0    1
 -2       341       488       489      2249      2253      2251
 -1       821    8    0    1
 -2       343       342       490      1816      2254      2255
 -1       822    8    0    1
 -2       342       489       490      2252      2256      2254
 -1       823    8    0    1
 -2       344       343       491      1819      2257      2258
 -1       824    8    0    1
 -2       343       490       491      2255      2259      2257
 -1       825    8    0    1
 -2       345       344       492      1822      2260      2261
 -1       826    8    0    1
 -2       344       491       492      2258      2262      2260
 -1       827    8    0    1
 -2       346       345       493      1825      2263      2264
 -1       828    8    0    1
 -2       345       492       493      2261      2265      2263
 -1       829    8    0    1
 -2       347       346       494      1828      2266      2267
 -1       830    8    0    1
 -2       346       493       494      2264      2268      2266
 -1       831    8    0    1
 -2       348       347       495      1831      2269      2270
 -1       832    8    0    1
 -2       347       494       495      2267      2271      2269
 -1       833    8    0    1
 -2       349       348       496      1834      2272      2273
 -1       834    8    0    1
 -2       348       495       496      2270      2274      2272
 -1       835    8    0    1
 -2       350       349       497      1837      2275      2276
 -1       836    8    0    1
 -2       349       496       497      2273      2277      2275
 -1       837    8    0    1
 -2       351       350       498      1840      2278      2279
 -1       838    8    0    1
 -2       350       497       498      2276      2280      2278
 -1       839    8    0    1
 -2       352       351       499      1843      2281      2282
 -1       840    8    0    1
 -2       351       498       499      2279      2283      2281
 -1       841    8    0    1
 -2       353       352       500      1846      2284      2285
 -1       842    8    0    1
 -2       352       499       500      2282      2286      2284
 -1       843    8    0    1
 -2       354       353       501      1849      2287      2288
 -1       844    8    0    1
 -2       353       500       501      2285      2289      2287
 -1       845    8    0    1
 -2       355       354       502      1852      2290      2291
 -1       846    8    0    1
 -2       354       501       502      2288      2292      2290
 -1       847    8    0    1
 -2       356       355       503      1855      2293      2294
 -1       848    8    0    1
 -2       355       502       503      2291      2295      2293
 -1       849    8    0    1
 -2       357       356       504      1858      2296      2297
 -1       850    8    0    1
 -2       356       503       504      2294      2298      2296
 -1       851    8    0    1
 -2       358       357       505      1861      2299      2300
 -1       852    8    0    1
 -2       357       504       505      2297      2301      2299
 -1       853    8    0    1
 -2       359       358       506      1864      2302      2303
 -1       854    8    0    1
 -2       358       505       506      2300      2304      2302
 -1       855    8    0    1
 -2       360       359       507      1867      2305      2306
 -1       856    8    0    1
 -2       359       506       507      2303      2307      2305
 -1       857    8    0    1
 -2       361       360       508      1870      2308      2309
 -1       858    8    0    1
 -2       360       507       508      2306      2310      2308
 -1       859    8    0    1
 -2       362       361       509      1873      2311      2312
 -1       860    8    0    1
 -2       361       508       509      2309      2313      2311
 -1       861    8    0    1
 -2       363       362       510      1876      2314      2315
 -1       862    8    0    1
 -2       362       509       510      2312      2316      2314
 -1       863    8    0    1
 -2       364       363       511      1879      2317      2318
 -1       864    8    0    1
 -2       363       510       511      2315      2319      2317
 -1       865    8    0    1
 -2       365       364       512      1882      2320      2321
 -1       866    8    0    1
 -2       364       511       512      2318      2322      2320
 -1       867    8    0    1
 -2       366       365       513      1885      2323      2324
 -1       868    8    0    1
 -2       365       512       513      2321      2325      2323
 -1       869    8    0    1
 -2       367       366       514      1888      2326      2327
 -1       870    8    0    1
 -2       366       513       514      2324      2328      2326
 -1       871    8    0    1
 -2       368       367       515      1891      2329      2330
 -1       872    8    0    1
 -2       367       514       515      2327      2331      2329
 -1       873    8    0    1
 -2       369       368       516      1894      2332      2333
 -1       874    8    0    1
 -2       368       515       516      2330      2334      2332
 -1       875    8    0    1
 -2       370       369       517      1897      2335      2336
 -1       876    8    0    1
 -2       369       516       517      2333      2337      2335
 -1       877    8    0    1
 -2       371       370       518      1900      2338      2339
 -1       878    8    0    1
 -2       370       517       518      2336      2340      2338
 -1       879    8    0    1
 -2       372       371       519      1903      2341      2342
 -1       880    8    0    1
 -2       371       518       519      2339      2343      2341
 -1       881    8    0    1
 -2       373       372       520      1906      2344      2345
 -1       882    8    0    1
 -2       372       519       520      2342      2346      2344
 -1       883    8    0    1
 -2       374       373       521      1909      2347      2348
 -1       884    8    0    1
 -2       373       520       521      2345      2349      2347
 -1       885    8    0    1
 -2       375       374       522      1912      2350      2351
 -1       886    8    0    1
 -2       374       521       522      2348      2352      2350
 -1       887    8    0    1
 -2       376       375       523      1915      2353      2354
 -1       888    8    0    1
 -2       375       522       523      2351      2355      2353
 -1       889    8    0    1
 -2       377       376       524      1918      2356      2357
 -1       890    8    0    1
 -2       376       523       524      2354      2358      2356
 -1       891    8    0    1
 -2       378       377       525      1921      2359      2360
 -1       892    8    0    1
 -2       377       524       525      2357      2361      2359
 -1       893    8    0    1
 -2       379       378       526      1924      2362      2363
 -1       894    8    0    1
 -2       378       525       526      2360      2364      2362
 -1       895    8    0    1
 -2       442       440       527      2113      2365      2366
 -1       896    8    0    1
 -2       383       384       528      1940      2367      2368
 -1       897    8    0    1
 -2       384       385       529      1943      2369      2370
 -1       898    8    0    1
 -2       384       529       528      2370      2371      2367
 -1       899    8    0    1
 -2       385       386       530      1946      2372      2373
 -1       900    8    0    1
 -2       385       530       529      2373      2374      2369
 -1       901    8    0    1
 -2       386       387       531      1949      2375      2376
 -1       902    8    0    1
 -2       386       531       530      2376      2377      2372
 -1       903    8    0    1
 -2       387       388       532      1952      2378      2379
 -1       904    8    0    1
 -2       387       532       531      2379      2380      2375
 -1       905    8    0    1
 -2       388       389       533      1955      2381      2382
 -1       906    8    0    1
 -2       388       533       532      2382      2383      2378
 -1       907    8    0    1
 -2       389       390       534      1958      2384      2385
 -1       908    8    0    1
 -2       389       534       533      2385      2386      2381
 -1       909    8    0    1
 -2       390       391       535      1961      2387      2388
 -1       910    8    0    1
 -2       390       535       534      2388      2389      2384
 -1       911    8    0    1
 -2       391       392       536      1964      2390      2391
 -1       912    8    0    1
 -2       391       536       535      2391      2392      2387
 -1       913    8    0    1
 -2       392       393       537      1967      2393      2394
 -1       914    8    0    1
 -2       392       537       536      2394      2395      2390
 -1       915    8    0    1
 -2       393       394       538      1970      2396      2397
 -1       916    8    0    1
 -2       393       538       537      2397      2398      2393
 -1       917    8    0    1
 -2       394       395       539      1973      2399      2400
 -1       918    8    0    1
 -2       394       539       538      2400      2401      2396
 -1       919    8    0    1
 -2       395       396       540      1976      2402      2403
 -1       920    8    0    1
 -2       395       540       539      2403      2404      2399
 -1       921    8    0    1
 -2       396       397       541      1979      2405      2406
 -1       922    8    0    1
 -2       396       541       540      2406      2407      2402
 -1       923    8    0    1
 -2       397       398       542      1982      2408      2409
 -1       924    8    0    1
 -2       397       542       541      2409      2410      2405
 -1       925    8    0    1
 -2       398       399       543      1985      2411      2412
 -1       926    8    0    1
 -2       398       543       542      2412      2413      2408
 -1       927    8    0    1
 -2       399       400       544      1988      2414      2415
 -1       928    8    0    1
 -2       399       544       543      2415      2416      2411
 -1       929    8    0    1
 -2       400       401       545      1991      2417      2418
 -1       930    8    0    1
 -2       400       545       544      2418      2419      2414
 -1       931    8    0    1
 -2       401       402       546      1994      2420      2421
 -1       932    8    0    1
 -2       401       546       545      2421      2422      2417
 -1       933    8    0    1
 -2       402       403       547      1997      2423      2424
 -1       934    8    0    1
 -2       402       547       546      2424      2425      2420
 -1       935    8    0    1
 -2       403       404       548      2000      2426      2427
 -1       936    8    0    1
 -2       403       548       547      2427      2428      2423
 -1       937    8    0    1
 -2       404       405       549      2003      2429      2430
 -1       938    8    0    1
 -2       404       549       548      2430      2431      2426
 -1       939    8    0    1
 -2       405       406       550      2006      2432      2433
 -1       940    8    0    1
 -2       405       550       549      2433      2434      2429
 -1       941    8    0    1
 -2       406       407       551      2009      2435      2436
 -1       942    8    0    1
 -2       406       551       550      2436      2437      2432
 -1       943    8    0    1
 -2       407       408       552      2012      2438      2439
 -1       944    8    0    1
 -2       407       552       551      2439      2440      2435
 -1       945    8    0    1
 -2       408       409       553      2015      2441      2442
 -1       946    8    0    1
 -2       408       553       552      2442      2443      2438
 -1       947    8    0    1
 -2       409       410       554      2018      2444      2445
 -1       948    8    0    1
 -2       409       554       553      2445      2446      2441
 -1       949    8    0    1
 -2       410       411       555      2021      2447      2448
 -1       950    8    0    1
 -2       410       555       554      2448      2449      2444
 -1       951    8    0    1
 -2       411       412       556      2024      2450      2451
 -1       952    8    0    1
 -2       411       556       555      2451      2452      2447
 -1       953    8    0    1
 -2       412       413       557      2027      2453      2454
 -1       954    8    0    1
 -2       412       557       556      2454      2455      2450
 -1       955    8    0    1
 -2       413       414       558      2030      2456      2457
 -1       956    8    0    1
 -2       413       558       557      2457      2458      2453
 -1       957    8    0    1
 -2       414       415       559      2033      2459      2460
 -1       958    8    0    1
 -2       414       559       558      2460      2461      2456
 -1       959    8    0    1
 -2       415       416       560      2036      2462      2463
 -1       960    8    0    1
 -2       415       560       559      2463      2464      2459
 -1       961    8    0    1
 -2       416       417       561      2039      2465      2466
 -1       962    8    0    1
 -2       416       561       560      2466      2467      2462
 -1       963    8    0    1
 -2       417       418       562      2042      2468      2469
 -1       964    8    0    1
 -2       417       562       561      2469      2470      2465
 -1       965    8    0    1
 -2       418       419       563      2045      2471      2472
 -1       966    8    0    1
 -2       418       563       562      2472      2473      2468
 -1       967    8    0    1
 -2       419       420       564      2048      2474      2475
 -1       968    8    0    1
 -2       419       564       563      2475      2476      2471
 -1       969    8    0    1
 -2       420       421       565      2051      2477      2478
 -1       970    8    0    1
 -2       420       565       564      2478      2479      2474
 -1       971    8    0    1
 -2       421       422       566      2054      2480      2481
 -1       972    8    0    1
 -2       421       566       565      2481      2482      2477
 -1       973    8    0    1
 -2       422       423       567      2057      2483      2484
 -1       974    8    0    1
 -2       422       567       566      2484      2485      2480
 -1       975    8    0    1
 -2       423       424       568      2060      2486      2487
 -1       976    8    0    1
 -2       423       568       567      2487      2488      2483
 -1       977    8    0    1
 -2       424       425       569      2063      2489      2490
 -1       978    8    0    1
 -2       424       569       568      2490      2491      2486
 -1       979    8    0    1
 -2       425       426       429      2066      2075      2492
 -1       980    8    0    1
 -2       430       431       570      2082      2493      2494
 -1       981    8    0    1
 -2       431       432       571      2085      2495      2496
 -1       982    8    0    1
 -2       431       571       570      2496      2497      2493
 -1       983    8    0    1
 -2       428       427       572      2072      2498      2499
 -1       984    8    0    1
 -2       427       430       573      2079      2500      2501
 -1       985    8    0    1
 -2       572       427       573      2498      2501      2502
 -1       986    8    0    1
 -2       430       570       573      2494      2503      2500
 -1       987    8    0    1
 -2       432       433       574      2088      2504      2505
 -1       988    8    0    1
 -2       432       574       571      2505      2506      2495
 -1       989    8    0    1
 -2       433       434       575      2091      2507      2508
 -1       990    8    0    1
 -2       433       575       574      2508      2509      2504
 -1       991    8    0    1
 -2       434       435       576      2094      2510      2511
 -1       992    8    0    1
 -2       434       576       575      2511      2512      2507
 -1       993    8    0    1
 -2       435       436       577      2097      2513      2514
 -1       994    8    0    1
 -2       435       577       576      2514      2515      2510
 -1       995    8    0    1
 -2       436       437       578      2100      2516      2517
 -1       996    8    0    1
 -2       436       578       577      2517      2518      2513
 -1       997    8    0    1
 -2       437       438       579      2103      2519      2520
 -1       998    8    0    1
 -2       437       579       578      2520      2521      2516
 -1       999    8    0    1
 -2       438       439       580      2106      2522      2523
 -1      1000    8    0    1
 -2       438       580       579      2523      2524      2519
 -1      1001    8    0    1
 -2       439       290       380      2181      1927      2525
 -1      1002    8    0    1
 -2       443       444       581      2182      2526      2527
 -1      1003    8    0    1
 -2       382       383       582      1937      2528      2529
 -1      1004    8    0    1
 -2       383       528       582      2368      2530      2528
 -1      1005    8    0    1
 -2       441       442       583      2179      2531      2532
 -1      1006    8    0    1
 -2       440       443       584      2180      2533      2534
 -1      1007    8    0    1
 -2       467       468       585      2183      2535      2536
 -1      1008    8    0    1
 -2       465       466       586      2184      2537      2538
 -1      1009    8    0    1
 -2       457       458       587      2191      2539      2540
 -1      1010    8    0    1
 -2       455       456       588      2192      2541      2542
 -1      1011    8    0    1
 -2       324       325       589      1760      2543      2544
 -1      1012    8    0    1
 -2       473       324       589      2207      2544      2545
 -1      1013    8    0    1
 -2       325       475       589      2213      2546      2543
 -1      1014    8    0    1
 -2       447       448       590      2201      2547      2548
 -1      1015    8    0    1
 -2       451       452       591      2202      2549      2550
 -1      1016    8    0    1
 -2       446       447       592      2200      2551      2552
 -1      1017    8    0    1
 -2       447       590       592      2548      2553      2551
 -1      1018    8    0    1
 -2       449       450       593      2132      2554      2555
 -1      1019    8    0    1
 -2       458       459       594      2203      2556      2557
 -1      1020    8    0    1
 -2       450       451       595      2196      2558      2559
 -1      1021    8    0    1
 -2       452       453       596      2195      2560      2561
 -1      1022    8    0    1
 -2       453       454       597      2194      2562      2563
 -1      1023    8    0    1
 -2       453       597       596      2563      2564      2560
 -1      1024    8    0    1
 -2       454       455       598      2193      2565      2566
 -1      1025    8    0    1
 -2       455       588       598      2542      2567      2565
 -1      1026    8    0    1
 -2       456       457       599      2147      2568      2569
 -1      1027    8    0    1
 -2       461       462       600      2204      2570      2571
 -1      1028    8    0    1
 -2       459       460       601      2154      2572      2573
 -1      1029    8    0    1
 -2       460       461       602      2190      2574      2575
 -1      1030    8    0    1
 -2       461       600       602      2571      2576      2574
 -1      1031    8    0    1
 -2       463       464       603      2186      2577      2578
 -1      1032    8    0    1
 -2       464       465       604      2185      2579      2580
 -1      1033    8    0    1
 -2       464       604       603      2580      2581      2577
 -1      1034    8    0    1
 -2       466       467       605      2169      2582      2583
 -1      1035    8    0    1
 -2       468       441       606      2172      2584      2585
 -1      1036    8    0    1
 -2       335       321       607      2178      2586      2587
 -1      1037    8    0    1
 -2       482       335       607      2232      2587      2588
 -1      1038    8    0    1
 -2       321       320       607      1749      2589      2586
 -1      1039    8    0    1
 -2       333       334       608      1789      2590      2591
 -1      1040    8    0    1
 -2       332       333       608      1784      2591      2592
 -1      1041    8    0    1
 -2       334       472       608      2206      2593      2590
 -1      1042    8    0    1
 -2       444       469       609      2175      2594      2595
 -1      1043    8    0    1
 -2       449       593       471      2555      2596      2199
 -1      1044    8    0    1
 -2       322       474       610      2210      2597      2598
 -1      1045    8    0    1
 -2       322       610       445      2598      2599      2121
 -1      1046    8    0    1
 -2       481       382       582      2229      2529      2600
 -1      1047    8    0    1
 -2       331       332       608      1781      2592      2601
 -1      1048    8    0    1
 -2       609       469       483      2594      2235      2602
 -1      1049    8    0    1
 -2       606       441       583      2584      2532      2603
 -1      1050    8    0    1
 -2       604       465       586      2579      2538      2604
 -1      1051    8    0    1
 -2       601       460       602      2572      2575      2605
 -1      1052    8    0    1
 -2       443       581       584      2527      2606      2533
 -1      1053    8    0    1
 -2       527       440       584      2365      2534      2607
 -1      1054    8    0    1
 -2       425       429       569      2492      2608      2489
 -1      1055    8    0    1
 -2       429       428       569      2076      2609      2608
 -1      1056    8    0    1
 -2       600       462       611      2570      2610      2611
 -1      1057    8    0    1
 -2       462       470       611      2188      2612      2610
 -1      1058    8    0    1
 -2       439       380       612      2525      2613      2614
 -1      1059    8    0    1
 -2       580       439       612      2522      2614      2615
 -1      1060    8    0    1
 -2       380       379       612      1928      2616      2613
 -1      1061    8    0    1
 -2       597       454       613      2562      2617      2618
 -1      1062    8    0    1
 -2       454       598       613      2566      2619      2617
 -1      1063    8    0    1
 -2       581       444       609      2526      2595      2620
 -1      1064    8    0    1
 -2       331       608       480      2601      2621      2226
 -1      1065    8    0    1
 -2       583       442       527      2531      2366      2622
 -1      1066    8    0    1
 -2       467       585       605      2536      2623      2582
 -1      1067    8    0    1
 -2       595       451       591      2558      2550      2624
 -1      1068    8    0    1
 -2       607       320       445      2589      2120      2625
 -1      1069    8    0    1
 -2       594       459       601      2556      2573      2626
 -1      1070    8    0    1
 -2       457       587       599      2540      2627      2568
 -1      1071    8    0    1
 -2       470       463       614      2189      2628      2629
 -1      1072    8    0    1
 -2       463       603       614      2578      2630      2628
 -1      1073    8    0    1
 -2       588       456       599      2541      2569      2631
 -1      1074    8    0    1
 -2       587       458       594      2539      2557      2632
 -1      1075    8    0    1
 -2       586       466       605      2537      2583      2633
 -1      1076    8    0    1
 -2       585       468       606      2535      2585      2634
 -1      1077    8    0    1
 -2       448       471       615      2198      2635      2636
 -1      1078    8    0    1
 -2       448       615       590      2636      2637      2547
 -1      1079    8    0    1
 -2       591       452       596      2549      2561      2638
 -1      1080    8    0    1
 -2       483       446       592      2234      2552      2639
 -1      1081    8    0    1
 -2       593       450       595      2554      2559      2640
 -1      1082    8    0    1
 -2       569       428       572      2609      2499      2641
 -1      1083    8    0    1
 -2       612       379       526      2616      2363      2642
 -1      1084    8    0    1
 -2       476       477       616      2219      2643      2644
 -1      1085    8    0    1
 -2       475       476       617      2216      2645      2646
 -1      1086    8    0    1
 -2       476       616       617      2644      2647      2645
 -1      1087    8    0    1
 -2       478       479       618      2225      2648      2649
 -1      1088    8    0    1
 -2       479       480       619      2228      2650      2651
 -1      1089    8    0    1
 -2       479       619       618      2651      2652      2648
 -1      1090    8    0    1
 -2       472       481       620      2231      2653      2654
 -1      1091    8    0    1
 -2       481       582       621      2600      2655      2656
 -1      1092    8    0    1
 -2       481       621       620      2656      2657      2653
 -1      1093    8    0    1
 -2       608       472       480      2593      2658      2621
 -1      1094    8    0    1
 -2       602       600       622      2576      2659      2660
 -1      1095    8    0    1
 -2       485       484       623      2241      2661      2662
 -1      1096    8    0    1
 -2       486       485       624      2244      2663      2664
 -1      1097    8    0    1
 -2       485       623       624      2662      2665      2663
 -1      1098    8    0    1
 -2       487       486       625      2247      2666      2667
 -1      1099    8    0    1
 -2       486       624       625      2664      2668      2666
 -1      1100    8    0    1
 -2       488       487       626      2250      2669      2670
 -1      1101    8    0    1
 -2       487       625       626      2667      2671      2669
 -1      1102    8    0    1
 -2       489       488       627      2253      2672      2673
 -1      1103    8    0    1
 -2       488       626       627      2670      2674      2672
 -1      1104    8    0    1
 -2       490       489       628      2256      2675      2676
 -1      1105    8    0    1
 -2       489       627       628      2673      2677      2675
 -1      1106    8    0    1
 -2       491       490       629      2259      2678      2679
 -1      1107    8    0    1
 -2       490       628       629      2676      2680      2678
 -1      1108    8    0    1
 -2       492       491       630      2262      2681      2682
 -1      1109    8    0    1
 -2       491       629       630      2679      2683      2681
 -1      1110    8    0    1
 -2       493       492       631      2265      2684      2685
 -1      1111    8    0    1
 -2       492       630       631      2682      2686      2684
 -1      1112    8    0    1
 -2       494       493       632      2268      2687      2688
 -1      1113    8    0    1
 -2       493       631       632      2685      2689      2687
 -1      1114    8    0    1
 -2       495       494       633      2271      2690      2691
 -1      1115    8    0    1
 -2       494       632       633      2688      2692      2690
 -1      1116    8    0    1
 -2       496       495       634      2274      2693      2694
 -1      1117    8    0    1
 -2       495       633       634      2691      2695      2693
 -1      1118    8    0    1
 -2       497       496       635      2277      2696      2697
 -1      1119    8    0    1
 -2       496       634       635      2694      2698      2696
 -1      1120    8    0    1
 -2       498       497       636      2280      2699      2700
 -1      1121    8    0    1
 -2       497       635       636      2697      2701      2699
 -1      1122    8    0    1
 -2       499       498       637      2283      2702      2703
 -1      1123    8    0    1
 -2       498       636       637      2700      2704      2702
 -1      1124    8    0    1
 -2       500       499       638      2286      2705      2706
 -1      1125    8    0    1
 -2       499       637       638      2703      2707      2705
 -1      1126    8    0    1
 -2       501       500       639      2289      2708      2709
 -1      1127    8    0    1
 -2       500       638       639      2706      2710      2708
 -1      1128    8    0    1
 -2       502       501       640      2292      2711      2712
 -1      1129    8    0    1
 -2       501       639       640      2709      2713      2711
 -1      1130    8    0    1
 -2       503       502       641      2295      2714      2715
 -1      1131    8    0    1
 -2       502       640       641      2712      2716      2714
 -1      1132    8    0    1
 -2       504       503       642      2298      2717      2718
 -1      1133    8    0    1
 -2       503       641       642      2715      2719      2717
 -1      1134    8    0    1
 -2       505       504       643      2301      2720      2721
 -1      1135    8    0    1
 -2       504       642       643      2718      2722      2720
 -1      1136    8    0    1
 -2       506       505       644      2304      2723      2724
 -1      1137    8    0    1
 -2       505       643       644      2721      2725      2723
 -1      1138    8    0    1
 -2       507       506       645      2307      2726      2727
 -1      1139    8    0    1
 -2       506       644       645      2724      2728      2726
 -1      1140    8    0    1
 -2       508       507       646      2310      2729      2730
 -1      1141    8    0    1
 -2       507       645       646      2727      2731      2729
 -1      1142    8    0    1
 -2       509       508       647      2313      2732      2733
 -1      1143    8    0    1
 -2       508       646       647      2730      2734      2732
 -1      1144    8    0    1
 -2       510       509       648      2316      2735      2736
 -1      1145    8    0    1
 -2       509       647       648      2733      2737      2735
 -1      1146    8    0    1
 -2       511       510       649      2319      2738      2739
 -1      1147    8    0    1
 -2       510       648       649      2736      2740      2738
 -1      1148    8    0    1
 -2       512       511       650      2322      2741      2742
 -1      1149    8    0    1
 -2       511       649       650      2739      2743      2741
 -1      1150    8    0    1
 -2       513       512       651      2325      2744      2745
 -1      1151    8    0    1
 -2       512       650       651      2742      2746      2744
 -1      1152    8    0    1
 -2       514       513       652      2328      2747      2748
 -1      1153    8    0    1
 -2       513       651       652      2745      2749      2747
 -1      1154    8    0    1
 -2       515       514       653      2331      2750      2751
 -1      1155    8    0    1
 -2       514       652       653      2748      2752      2750
 -1      1156    8    0    1
 -2       516       515       654      2334      2753      2754
 -1      1157    8    0    1
 -2       515       653       654      2751      2755      2753
 -1      1158    8    0    1
 -2       517       516       655      2337      2756      2757
 -1      1159    8    0    1
 -2       516       654       655      2754      2758      2756
 -1      1160    8    0    1
 -2       518       517       656      2340      2759      2760
 -1      1161    8    0    1
 -2       517       655       656      2757      2761      2759
 -1      1162    8    0    1
 -2       519       518       657      2343      2762      2763
 -1      1163    8    0    1
 -2       518       656       657      2760      2764      2762
 -1      1164    8    0    1
 -2       520       519       658      2346      2765      2766
 -1      1165    8    0    1
 -2       519       657       658      2763      2767      2765
 -1      1166    8    0    1
 -2       521       520       659      2349      2768      2769
 -1      1167    8    0    1
 -2       520       658       659      2766      2770      2768
 -1      1168    8    0    1
 -2       522       521       660      2352      2771      2772
 -1      1169    8    0    1
 -2       521       659       660      2769      2773      2771
 -1      1170    8    0    1
 -2       523       522       661      2355      2774      2775
 -1      1171    8    0    1
 -2       522       660       661      2772      2776      2774
 -1      1172    8    0    1
 -2       524       523       662      2358      2777      2778
 -1      1173    8    0    1
 -2       523       661       662      2775      2779      2777
 -1      1174    8    0    1
 -2       525       524       663      2361      2780      2781
 -1      1175    8    0    1
 -2       524       662       663      2778      2782      2780
 -1      1176    8    0    1
 -2       526       525       664      2364      2783      2784
 -1      1177    8    0    1
 -2       525       663       664      2781      2785      2783
 -1      1178    8    0    1
 -2       604       586       665      2604      2786      2787
 -1      1179    8    0    1
 -2       528       529       666      2371      2788      2789
 -1      1180    8    0    1
 -2       531       532       667      2380      2790      2791
 -1      1181    8    0    1
 -2       532       533       668      2383      2792      2793
 -1      1182    8    0    1
 -2       532       668       667      2793      2794      2790
 -1      1183    8    0    1
 -2       533       534       669      2386      2795      2796
 -1      1184    8    0    1
 -2       533       669       668      2796      2797      2792
 -1      1185    8    0    1
 -2       534       535       670      2389      2798      2799
 -1      1186    8    0    1
 -2       534       670       669      2799      2800      2795
 -1      1187    8    0    1
 -2       535       536       671      2392      2801      2802
 -1      1188    8    0    1
 -2       535       671       670      2802      2803      2798
 -1      1189    8    0    1
 -2       536       537       672      2395      2804      2805
 -1      1190    8    0    1
 -2       536       672       671      2805      2806      2801
 -1      1191    8    0    1
 -2       537       538       673      2398      2807      2808
 -1      1192    8    0    1
 -2       537       673       672      2808      2809      2804
 -1      1193    8    0    1
 -2       538       539       674      2401      2810      2811
 -1      1194    8    0    1
 -2       538       674       673      2811      2812      2807
 -1      1195    8    0    1
 -2       539       540       675      2404      2813      2814
 -1      1196    8    0    1
 -2       539       675       674      2814      2815      2810
 -1      1197    8    0    1
 -2       540       541       676      2407      2816      2817
 -1      1198    8    0    1
 -2       540       676       675      2817      2818      2813
 -1      1199    8    0    1
 -2       541       542       677      2410      2819      2820
 -1      1200    8    0    1
 -2       541       677       676      2820      2821      2816
 -1      1201    8    0    1
 -2       542       543       678      2413      2822      2823
 -1      1202    8    0    1
 -2       542       678       677      2823      2824      2819
 -1      1203    8    0    1
 -2       543       544       679      2416      2825      2826
 -1      1204    8    0    1
 -2       543       679       678      2826      2827      2822
 -1      1205    8    0    1
 -2       544       545       680      2419      2828      2829
 -1      1206    8    0    1
 -2       544       680       679      2829      2830      2825
 -1      1207    8    0    1
 -2       545       546       681      2422      2831      2832
 -1      1208    8    0    1
 -2       545       681       680      2832      2833      2828
 -1      1209    8    0    1
 -2       546       547       682      2425      2834      2835
 -1      1210    8    0    1
 -2       546       682       681      2835      2836      2831
 -1      1211    8    0    1
 -2       547       548       683      2428      2837      2838
 -1      1212    8    0    1
 -2       547       683       682      2838      2839      2834
 -1      1213    8    0    1
 -2       548       549       684      2431      2840      2841
 -1      1214    8    0    1
 -2       548       684       683      2841      2842      2837
 -1      1215    8    0    1
 -2       549       550       685      2434      2843      2844
 -1      1216    8    0    1
 -2       549       685       684      2844      2845      2840
 -1      1217    8    0    1
 -2       550       551       686      2437      2846      2847
 -1      1218    8    0    1
 -2       550       686       685      2847      2848      2843
 -1      1219    8    0    1
 -2       551       552       687      2440      2849      2850
 -1      1220    8    0    1
 -2       551       687       686      2850      2851      2846
 -1      1221    8    0    1
 -2       552       553       688      2443      2852      2853
 -1      1222    8    0    1
 -2       552       688       687      2853      2854      2849
 -1      1223    8    0    1
 -2       553       554       689      2446      2855      2856
 -1      1224    8    0    1
 -2       553       689       688      2856      2857      2852
 -1      1225    8    0    1
 -2       554       555       690      2449      2858      2859
 -1      1226    8    0    1
 -2       554       690       689      2859      2860      2855
 -1      1227    8    0    1
 -2       555       556       691      2452      2861      2862
 -1      1228    8    0    1
 -2       555       691       690      2862      2863      2858
 -1      1229    8    0    1
 -2       556       557       692      2455      2864      2865
 -1      1230    8    0    1
 -2       556       692       691      2865      2866      2861
 -1      1231    8    0    1
 -2       557       558       693      2458      2867      2868
 -1      1232    8    0    1
 -2       557       693       692      2868      2869      2864
 -1      1233    8    0    1
 -2       558       559       694      2461      2870      2871
 -1      1234    8    0    1
 -2       558       694       693      2871      2872      2867
 -1      1235    8    0    1
 -2       559       560       695      2464      2873      2874
 -1      1236    8    0    1
 -2       559       695       694      2874      2875      2870
 -1      1237    8    0    1
 -2       560       561       696      2467      2876      2877
 -1      1238    8    0    1
 -2       560       696       695      2877      2878      2873
 -1      1239    8    0    1
 -2       561       562       697      2470      2879      2880
 -1      1240    8    0    1
 -2       561       697       696      2880      2881      2876
 -1      1241    8    0    1
 -2       562       563       698      2473      2882      2883
 -1      1242    8    0    1
 -2       562       698       697      2883      2884      2879
 -1      1243    8    0    1
 -2       563       564       615      2476      2885      2886
 -1      1244    8    0    1
 -2       565       566       699      2482      2887      2888
 -1      1245    8    0    1
 -2       566       567       700      2485      2889      2890
 -1      1246    8    0    1
 -2       566       700       699      2890      2891      2887
 -1      1247    8    0    1
 -2       567       568       701      2488      2892      2893
 -1      1248    8    0    1
 -2       567       701       700      2893      2894      2889
 -1      1249    8    0    1
 -2       568       569       702      2491      2895      2896
 -1      1250    8    0    1
 -2       701       568       702      2892      2896      2897
 -1      1251    8    0    1
 -2       569       572       702      2641      2898      2895
 -1      1252    8    0    1
 -2       612       526       703      2642      2899      2900
 -1      1253    8    0    1
 -2       526       664       703      2784      2901      2899
 -1      1254    8    0    1
 -2       570       571       584      2497      2902      2903
 -1      1255    8    0    1
 -2       571       574       583      2506      2904      2905
 -1      1256    8    0    1
 -2       576       577       704      2515      2906      2907
 -1      1257    8    0    1
 -2       577       578       705      2518      2908      2909
 -1      1258    8    0    1
 -2       578       579       706      2521      2910      2911
 -1      1259    8    0    1
 -2       578       706       705      2911      2912      2908
 -1      1260    8    0    1
 -2       582       528       707      2530      2913      2914
 -1      1261    8    0    1
 -2       621       582       707      2655      2914      2915
 -1      1262    8    0    1
 -2       528       666       707      2789      2916      2913
 -1      1263    8    0    1
 -2       581       609       708      2620      2917      2918
 -1      1264    8    0    1
 -2       601       602       709      2605      2919      2920
 -1      1265    8    0    1
 -2       592       590       710      2553      2921      2922
 -1      1266    8    0    1
 -2       587       594       711      2632      2923      2924
 -1      1267    8    0    1
 -2       530       531       712      2377      2925      2926
 -1      1268    8    0    1
 -2       531       667       712      2791      2927      2925
 -1      1269    8    0    1
 -2       529       530       713      2374      2928      2929
 -1      1270    8    0    1
 -2       530       712       713      2926      2930      2928
 -1      1271    8    0    1
 -2       484       482       714      2238      2931      2932
 -1      1272    8    0    1
 -2       484       714       623      2932      2933      2661
 -1      1273    8    0    1
 -2       609       483       715      2602      2934      2935
 -1      1274    8    0    1
 -2       594       601       716      2626      2936      2937
 -1      1275    8    0    1
 -2       477       478       717      2222      2938      2939
 -1      1276    8    0    1
 -2       616       477       717      2643      2939      2940
 -1      1277    8    0    1
 -2       478       618       717      2649      2941      2938
 -1      1278    8    0    1
 -2       607       445       610      2625      2599      2942
 -1      1279    8    0    1
 -2       593       595       718      2640      2943      2944
 -1      1280    8    0    1
 -2       586       605       719      2633      2945      2946
 -1      1281    8    0    1
 -2       474       473       720      2211      2947      2948
 -1      1282    8    0    1
 -2       483       592       721      2639      2949      2950
 -1      1283    8    0    1
 -2       715       483       721      2934      2950      2951
 -1      1284    8    0    1
 -2       592       710       721      2922      2952      2949
 -1      1285    8    0    1
 -2       596       597       722      2564      2953      2954
 -1      1286    8    0    1
 -2       598       588       723      2567      2955      2956
 -1      1287    8    0    1
 -2       588       599       724      2631      2957      2958
 -1      1288    8    0    1
 -2       588       724       723      2958      2959      2955
 -1      1289    8    0    1
 -2       591       596       725      2638      2960      2961
 -1      1290    8    0    1
 -2       596       722       725      2954      2962      2960
 -1      1291    8    0    1
 -2       599       587       726      2627      2963      2964
 -1      1292    8    0    1
 -2       605       585       704      2623      2965      2966
 -1      1293    8    0    1
 -2       580       612       703      2615      2900      2967
 -1      1294    8    0    1
 -2       603       604       727      2581      2968      2969
 -1      1295    8    0    1
 -2       595       591       728      2624      2970      2971
 -1      1296    8    0    1
 -2       471       593       729      2596      2972      2973
 -1      1297    8    0    1
 -2       610       474       730      2597      2974      2975
 -1      1298    8    0    1
 -2       474       720       730      2948      2976      2974
 -1      1299    8    0    1
 -2       475       617       731      2646      2977      2978
 -1      1300    8    0    1
 -2       475       731       589      2978      2979      2546
 -1      1301    8    0    1
 -2       480       472       620      2658      2654      2980
 -1      1302    8    0    1
 -2       609       715       708      2935      2981      2917
 -1      1303    8    0    1
 -2       622       600       732      2659      2982      2983
 -1      1304    8    0    1
 -2       600       611       732      2611      2984      2982
 -1      1305    8    0    1
 -2       606       583       733      2603      2985      2986
 -1      1306    8    0    1
 -2       607       610       734      2942      2987      2988
 -1      1307    8    0    1
 -2       482       607       734      2588      2988      2989
 -1      1308    8    0    1
 -2       610       730       734      2975      2990      2987
 -1      1309    8    0    1
 -2       604       665       727      2787      2991      2968
 -1      1310    8    0    1
 -2       729       593       718      2972      2944      2992
 -1      1311    8    0    1
 -2       728       591       725      2970      2961      2993
 -1      1312    8    0    1
 -2       570       584       735      2903      2994      2995
 -1      1313    8    0    1
 -2       573       570       735      2503      2995      2996
 -1      1314    8    0    1
 -2       584       581       735      2606      2997      2994
 -1      1315    8    0    1
 -2       665       586       719      2786      2946      2998
 -1      1316    8    0    1
 -2       597       613       736      2618      2999      3000
 -1      1317    8    0    1
 -2       597       736       722      3000      3001      2953
 -1      1318    8    0    1
 -2       581       708       735      2918      3002      2997
 -1      1319    8    0    1
 -2       529       713       666      2929      3003      2788
 -1      1320    8    0    1
 -2       564       565       737      2479      3004      3005
 -1      1321    8    0    1
 -2       724       599       726      2957      2964      3006
 -1      1322    8    0    1
 -2       572       573       738      2502      3007      3008
 -1      1323    8    0    1
 -2       702       572       738      2898      3008      3009
 -1      1324    8    0    1
 -2       573       735       738      2996      3010      3007
 -1      1325    8    0    1
 -2       611       470       739      2612      3011      3012
 -1      1326    8    0    1
 -2       470       614       739      2629      3013      3011
 -1      1327    8    0    1
 -2       719       605       704      2945      2966      3014
 -1      1328    8    0    1
 -2       579       580       703      2524      2967      3015
 -1      1329    8    0    1
 -2       613       598       740      2619      3016      3017
 -1      1330    8    0    1
 -2       598       723       740      2956      3018      3016
 -1      1331    8    0    1
 -2       709       602       622      2919      2660      3019
 -1      1332    8    0    1
 -2       601       709       716      2920      3020      2936
 -1      1333    8    0    1
 -2       711       594       716      2923      2937      3021
 -1      1334    8    0    1
 -2       710       590       615      2921      2637      3022
 -1      1335    8    0    1
 -2       706       579       703      2910      3015      3023
 -1      1336    8    0    1
 -2       614       603       741      2630      3024      3025
 -1      1337    8    0    1
 -2       603       727       741      2969      3026      3024
 -1      1338    8    0    1
 -2       587       711       726      2924      3027      2963
 -1      1339    8    0    1
 -2       480       620       619      2980      3028      2650
 -1      1340    8    0    1
 -2       473       589       742      2545      3029      3030
 -1      1341    8    0    1
 -2       720       473       742      2947      3030      3031
 -1      1342    8    0    1
 -2       589       731       742      2979      3032      3029
 -1      1343    8    0    1
 -2       615       471       729      2635      2973      3033
 -1      1344    8    0    1
 -2       714       482       734      2931      2989      3034
 -1      1345    8    0    1
 -2       718       595       728      2943      2971      3035
 -1      1346    8    0    1
 -2       708       715       743      2981      3036      3037
 -1      1347    8    0    1
 -2       618       619       744      2652      3038      3039
 -1      1348    8    0    1
 -2       583       527       571      2622      3040      2905
 -1      1349    8    0    1
 -2       718       728       745      3035      3041      3042
 -1      1350    8    0    1
 -2       666       713       746      3003      3043      3044
 -1      1351    8    0    1
 -2       625       624       747      2668      3045      3046
 -1      1352    8    0    1
 -2       626       625       748      2671      3047      3048
 -1      1353    8    0    1
 -2       625       747       748      3046      3049      3047
 -1      1354    8    0    1
 -2       627       626       749      2674      3050      3051
 -1      1355    8    0    1
 -2       626       748       749      3048      3052      3050
 -1      1356    8    0    1
 -2       628       627       750      2677      3053      3054
 -1      1357    8    0    1
 -2       627       749       750      3051      3055      3053
 -1      1358    8    0    1
 -2       629       628       751      2680      3056      3057
 -1      1359    8    0    1
 -2       628       750       751      3054      3058      3056
 -1      1360    8    0    1
 -2       630       629       752      2683      3059      3060
 -1      1361    8    0    1
 -2       629       751       752      3057      3061      3059
 -1      1362    8    0    1
 -2       631       630       753      2686      3062      3063
 -1      1363    8    0    1
 -2       630       752       753      3060      3064      3062
 -1      1364    8    0    1
 -2       632       631       754      2689      3065      3066
 -1      1365    8    0    1
 -2       631       753       754      3063      3067      3065
 -1      1366    8    0    1
 -2       633       632       755      2692      3068      3069
 -1      1367    8    0    1
 -2       632       754       755      3066      3070      3068
 -1      1368    8    0    1
 -2       634       633       756      2695      3071      3072
 -1      1369    8    0    1
 -2       633       755       756      3069      3073      3071
 -1      1370    8    0    1
 -2       635       634       757      2698      3074      3075
 -1      1371    8    0    1
 -2       634       756       757      3072      3076      3074
 -1      1372    8    0    1
 -2       636       635       758      2701      3077      3078
 -1      1373    8    0    1
 -2       635       757       758      3075      3079      3077
 -1      1374    8    0    1
 -2       637       636       759      2704      3080      3081
 -1      1375    8    0    1
 -2       636       758       759      3078      3082      3080
 -1      1376    8    0    1
 -2       638       637       760      2707      3083      3084
 -1      1377    8    0    1
 -2       637       759       760      3081      3085      3083
 -1      1378    8    0    1
 -2       639       638       761      2710      3086      3087
 -1      1379    8    0    1
 -2       638       760       761      3084      3088      3086
 -1      1380    8    0    1
 -2       640       639       762      2713      3089      3090
 -1      1381    8    0    1
 -2       639       761       762      3087      3091      3089
 -1      1382    8    0    1
 -2       641       640       763      2716      3092      3093
 -1      1383    8    0    1
 -2       640       762       763      3090      3094      3092
 -1      1384    8    0    1
 -2       642       641       764      2719      3095      3096
 -1      1385    8    0    1
 -2       641       763       764      3093      3097      3095
 -1      1386    8    0    1
 -2       643       642       765      2722      3098      3099
 -1      1387    8    0    1
 -2       642       764       765      3096      3100      3098
 -1      1388    8    0    1
 -2       644       643       766      2725      3101      3102
 -1      1389    8    0    1
 -2       643       765       766      3099      3103      3101
 -1      1390    8    0    1
 -2       645       644       767      2728      3104      3105
 -1      1391    8    0    1
 -2       644       766       767      3102      3106      3104
 -1      1392    8    0    1
 -2       646       645       768      2731      3107      3108
 -1      1393    8    0    1
 -2       645       767       768      3105      3109      3107
 -1      1394    8    0    1
 -2       647       646       769      2734      3110      3111
 -1      1395    8    0    1
 -2       646       768       769      3108      3112      3110
 -1      1396    8    0    1
 -2       648       647       770      2737      3113      3114
 -1      1397    8    0    1
 -2       647       769       770      3111      3115      3113
 -1      1398    8    0    1
 -2       649       648       771      2740      3116      3117
 -1      1399    8    0    1
 -2       648       770       771      3114      3118      3116
 -1      1400    8    0    1
 -2       650       649       772      2743      3119      3120
 -1      1401    8    0    1
 -2       649       771       772      3117      3121      3119
 -1      1402    8    0    1
 -2       651       650       773      2746      3122      3123
 -1      1403    8    0    1
 -2       650       772       773      3120      3124      3122
 -1      1404    8    0    1
 -2       652       651       774      2749      3125      3126
 -1      1405    8    0    1
 -2       651       773       774      3123      3127      3125
 -1      1406    8    0    1
 -2       653       652       775      2752      3128      3129
 -1      1407    8    0    1
 -2       652       774       775      3126      3130      3128
 -1      1408    8    0    1
 -2       654       653       776      2755      3131      3132
 -1      1409    8    0    1
 -2       653       775       776      3129      3133      3131
 -1      1410    8    0    1
 -2       655       654       777      2758      3134      3135
 -1      1411    8    0    1
 -2       654       776       777      3132      3136      3134
 -1      1412    8    0    1
 -2       656       655       778      2761      3137      3138
 -1      1413    8    0    1
 -2       655       777       778      3135      3139      3137
 -1      1414    8    0    1
 -2       657       656       779      2764      3140      3141
 -1      1415    8    0    1
 -2       656       778       779      3138      3142      3140
 -1      1416    8    0    1
 -2       658       657       780      2767      3143      3144
 -1      1417    8    0    1
 -2       657       779       780      3141      3145      3143
 -1      1418    8    0    1
 -2       660       659       781      2773      3146      3147
 -1      1419    8    0    1
 -2       661       660       732      2776      3148      3149
 -1      1420    8    0    1
 -2       662       661       739      2779      3150      3151
 -1      1421    8    0    1
 -2       663       662       741      2782      3152      3153
 -1      1422    8    0    1
 -2       704       585       576      2965      3154      2907
 -1      1423    8    0    1
 -2       737       565       699      3004      2888      3155
 -1      1424    8    0    1
 -2       667       668       782      2794      3156      3157
 -1      1425    8    0    1
 -2       670       671       783      2803      3158      3159
 -1      1426    8    0    1
 -2       671       672       784      2806      3160      3161
 -1      1427    8    0    1
 -2       671       784       783      3161      3162      3158
 -1      1428    8    0    1
 -2       672       673       785      2809      3163      3164
 -1      1429    8    0    1
 -2       672       785       784      3164      3165      3160
 -1      1430    8    0    1
 -2       673       674       786      2812      3166      3167
 -1      1431    8    0    1
 -2       673       786       785      3167      3168      3163
 -1      1432    8    0    1
 -2       674       675       787      2815      3169      3170
 -1      1433    8    0    1
 -2       674       787       786      3170      3171      3166
 -1      1434    8    0    1
 -2       675       676       788      2818      3172      3173
 -1      1435    8    0    1
 -2       675       788       787      3173      3174      3169
 -1      1436    8    0    1
 -2       676       677       789      2821      3175      3176
 -1      1437    8    0    1
 -2       676       789       788      3176      3177      3172
 -1      1438    8    0    1
 -2       677       678       790      2824      3178      3179
 -1      1439    8    0    1
 -2       677       790       789      3179      3180      3175
 -1      1440    8    0    1
 -2       678       679       791      2827      3181      3182
 -1      1441    8    0    1
 -2       678       791       790      3182      3183      3178
 -1      1442    8    0    1
 -2       679       680       792      2830      3184      3185
 -1      1443    8    0    1
 -2       679       792       791      3185      3186      3181
 -1      1444    8    0    1
 -2       680       681       793      2833      3187      3188
 -1      1445    8    0    1
 -2       680       793       792      3188      3189      3184
 -1      1446    8    0    1
 -2       681       682       794      2836      3190      3191
 -1      1447    8    0    1
 -2       681       794       793      3191      3192      3187
 -1      1448    8    0    1
 -2       682       683       795      2839      3193      3194
 -1      1449    8    0    1
 -2       682       795       794      3194      3195      3190
 -1      1450    8    0    1
 -2       683       684       796      2842      3196      3197
 -1      1451    8    0    1
 -2       683       796       795      3197      3198      3193
 -1      1452    8    0    1
 -2       684       685       797      2845      3199      3200
 -1      1453    8    0    1
 -2       684       797       796      3200      3201      3196
 -1      1454    8    0    1
 -2       685       686       798      2848      3202      3203
 -1      1455    8    0    1
 -2       685       798       797      3203      3204      3199
 -1      1456    8    0    1
 -2       686       687       799      2851      3205      3206
 -1      1457    8    0    1
 -2       686       799       798      3206      3207      3202
 -1      1458    8    0    1
 -2       687       688       800      2854      3208      3209
 -1      1459    8    0    1
 -2       687       800       799      3209      3210      3205
 -1      1460    8    0    1
 -2       688       689       801      2857      3211      3212
 -1      1461    8    0    1
 -2       688       801       800      3212      3213      3208
 -1      1462    8    0    1
 -2       689       690       802      2860      3214      3215
 -1      1463    8    0    1
 -2       689       802       801      3215      3216      3211
 -1      1464    8    0    1
 -2       690       691       803      2863      3217      3218
 -1      1465    8    0    1
 -2       690       803       802      3218      3219      3214
 -1      1466    8    0    1
 -2       691       692       804      2866      3220      3221
 -1      1467    8    0    1
 -2       691       804       803      3221      3222      3217
 -1      1468    8    0    1
 -2       692       693       805      2869      3223      3224
 -1      1469    8    0    1
 -2       692       805       804      3224      3225      3220
 -1      1470    8    0    1
 -2       693       694       806      2872      3226      3227
 -1      1471    8    0    1
 -2       693       806       805      3227      3228      3223
 -1      1472    8    0    1
 -2       694       695       807      2875      3229      3230
 -1      1473    8    0    1
 -2       694       807       806      3230      3231      3226
 -1      1474    8    0    1
 -2       696       697       745      2881      3232      3233
 -1      1475    8    0    1
 -2       563       615       729      2886      3033      3234
 -1      1476    8    0    1
 -2       724       726       808      3006      3235      3236
 -1      1477    8    0    1
 -2       583       574       733      2904      3237      2985
 -1      1478    8    0    1
 -2       617       616       809      2647      3238      3239
 -1      1479    8    0    1
 -2       584       571       527      2902      3040      2607
 -1      1480    8    0    1
 -2       575       576       585      2512      3154      3240
 -1      1481    8    0    1
 -2       575       585       606      3240      2634      3241
 -1      1482    8    0    1
 -2       575       606       733      3241      2986      3242
 -1      1483    8    0    1
 -2       577       705       704      2909      3243      2906
 -1      1484    8    0    1
 -2       711       716       810      3021      3244      3245
 -1      1485    8    0    1
 -2       712       667       811      2927      3246      3247
 -1      1486    8    0    1
 -2       667       782       811      3157      3248      3246
 -1      1487    8    0    1
 -2       701       702       738      2897      3009      3249
 -1      1488    8    0    1
 -2       669       670       812      2800      3250      3251
 -1      1489    8    0    1
 -2       670       783       812      3159      3252      3250
 -1      1490    8    0    1
 -2       623       714       813      2933      3253      3254
 -1      1491    8    0    1
 -2       668       669       814      2797      3255      3256
 -1      1492    8    0    1
 -2       782       668       814      3156      3256      3257
 -1      1493    8    0    1
 -2       669       812       814      3251      3258      3255
 -1      1494    8    0    1
 -2       713       712       815      2930      3259      3260
 -1      1495    8    0    1
 -2       712       811       815      3247      3261      3259
 -1      1496    8    0    1
 -2       728       725       816      2993      3262      3263
 -1      1497    8    0    1
 -2       735       708       738      3002      3264      3010
 -1      1498    8    0    1
 -2       624       623       817      2665      3265      3266
 -1      1499    8    0    1
 -2       624       817       747      3266      3267      3045
 -1      1500    8    0    1
 -2       726       711       818      3027      3268      3269
 -1      1501    8    0    1
 -2       709       622       781      3019      3270      3271
 -1      1502    8    0    1
 -2       723       724       819      2959      3272      3273
 -1      1503    8    0    1
 -2       725       722       820      2962      3274      3275
 -1      1504    8    0    1
 -2       725       820       816      3275      3276      3262
 -1      1505    8    0    1
 -2       619       620       821      3028      3277      3278
 -1      1506    8    0    1
 -2       744       619       821      3038      3278      3279
 -1      1507    8    0    1
 -2       620       621       821      2657      3280      3277
 -1      1508    8    0    1
 -2       716       709       822      3020      3281      3282
 -1      1509    8    0    1
 -2       714       734       823      3034      3283      3284
 -1      1510    8    0    1
 -2       734       730       823      2990      3285      3283
 -1      1511    8    0    1
 -2       727       665       824      2991      3286      3287
 -1      1512    8    0    1
 -2       731       617       825      2977      3288      3289
 -1      1513    8    0    1
 -2       617       809       825      3239      3290      3288
 -1      1514    8    0    1
 -2       618       744       826      3039      3291      3292
 -1      1515    8    0    1
 -2       618       826       717      3292      3293      2941
 -1      1516    8    0    1
 -2       727       824       827      3287      3294      3295
 -1      1517    8    0    1
 -2       727       827       741      3295      3296      3026
 -1      1518    8    0    1
 -2       716       822       810      3282      3297      3244
 -1      1519    8    0    1
 -2       745       728       816      3041      3263      3298
 -1      1520    8    0    1
 -2       730       720       828      2976      3299      3300
 -1      1521    8    0    1
 -2       730       828       823      3300      3301      3285
 -1      1522    8    0    1
 -2       732       611       739      2984      3012      3302
 -1      1523    8    0    1
 -2       666       746       829      3044      3303      3304
 -1      1524    8    0    1
 -2       666       829       707      3304      3305      2916
 -1      1525    8    0    1
 -2       660       781       622      3147      3270      3306
 -1      1526    8    0    1
 -2       659       658       822      2770      3307      3308
 -1      1527    8    0    1
 -2       661       732       739      3149      3302      3150
 -1      1528    8    0    1
 -2       663       741       827      3153      3296      3309
 -1      1529    8    0    1
 -2       664       663       827      2785      3309      3310
 -1      1530    8    0    1
 -2       736       613       830      2999      3311      3312
 -1      1531    8    0    1
 -2       613       740       830      3017      3313      3311
 -1      1532    8    0    1
 -2       623       813       817      3254      3314      3265
 -1      1533    8    0    1
 -2       696       745       831      3233      3315      3316
 -1      1534    8    0    1
 -2       695       696       831      2878      3316      3317
 -1      1535    8    0    1
 -2       745       816       831      3298      3318      3315
 -1      1536    8    0    1
 -2       807       695       831      3229      3317      3319
 -1      1537    8    0    1
 -2       745       697       718      3232      3320      3042
 -1      1538    8    0    1
 -2       563       729       698      3234      3321      2882
 -1      1539    8    0    1
 -2       697       698       718      2884      3322      3320
 -1      1540    8    0    1
 -2       808       726       818      3235      3269      3323
 -1      1541    8    0    1
 -2       718       698       729      3322      3321      2992
 -1      1542    8    0    1
 -2       828       720       832      3299      3324      3325
 -1      1543    8    0    1
 -2       720       742       832      3031      3326      3324
 -1      1544    8    0    1
 -2       703       664       706      2901      3327      3023
 -1      1545    8    0    1
 -2       739       614       741      3013      3025      3328
 -1      1546    8    0    1
 -2       809       616       833      3238      3329      3330
 -1      1547    8    0    1
 -2       616       717       833      2940      3331      3329
 -1      1548    8    0    1
 -2       574       575       733      2509      3242      3237
 -1      1549    8    0    1
 -2       820       722       736      3274      3001      3332
 -1      1550    8    0    1
 -2       819       724       808      3272      3236      3333
 -1      1551    8    0    1
 -2       705       706       824      2912      3334      3335
 -1      1552    8    0    1
 -2       660       622       732      3306      2983      3148
 -1      1553    8    0    1
 -2       740       723       834      3018      3336      3337
 -1      1554    8    0    1
 -2       723       819       834      3273      3338      3336
 -1      1555    8    0    1
 -2       704       705       719      3243      3339      3014
 -1      1556    8    0    1
 -2       741       662       739      3152      3151      3328
 -1      1557    8    0    1
 -2       713       815       746      3260      3340      3043
 -1      1558    8    0    1
 -2       621       707       835      2915      3341      3342
 -1      1559    8    0    1
 -2       821       621       835      3280      3342      3343
 -1      1560    8    0    1
 -2       707       829       835      3305      3344      3341
 -1      1561    8    0    1
 -2       711       810       818      3245      3345      3268
 -1      1562    8    0    1
 -2       700       701       743      2894      3346      3347
 -1      1563    8    0    1
 -2       813       714       823      3253      3284      3348
 -1      1564    8    0    1
 -2       822       709       781      3281      3271      3349
 -1      1565    8    0    1
 -2       700       743       715      3347      3036      3350
 -1      1566    8    0    1
 -2       743       701       738      3346      3249      3351
 -1      1567    8    0    1
 -2       706       664       824      3327      3352      3334
 -1      1568    8    0    1
 -2       705       824       665      3335      3286      3353
 -1      1569    8    0    1
 -2       700       715       721      3350      2951      3354
 -1      1570    8    0    1
 -2       719       705       665      3339      3353      2998
 -1      1571    8    0    1
 -2       708       743       738      3037      3351      3264
 -1      1572    8    0    1
 -2       822       658       780      3307      3144      3355
 -1      1573    8    0    1
 -2       749       748       836      3052      3356      3357
 -1      1574    8    0    1
 -2       750       749       837      3055      3358      3359
 -1      1575    8    0    1
 -2       749       836       837      3357      3360      3358
 -1      1576    8    0    1
 -2       751       750       838      3058      3361      3362
 -1      1577    8    0    1
 -2       750       837       838      3359      3363      3361
 -1      1578    8    0    1
 -2       752       751       839      3061      3364      3365
 -1      1579    8    0    1
 -2       751       838       839      3362      3366      3364
 -1      1580    8    0    1
 -2       753       752       840      3064      3367      3368
 -1      1581    8    0    1
 -2       752       839       840      3365      3369      3367
 -1      1582    8    0    1
 -2       754       753       841      3067      3370      3371
 -1      1583    8    0    1
 -2       753       840       841      3368      3372      3370
 -1      1584    8    0    1
 -2       755       754       842      3070      3373      3374
 -1      1585    8    0    1
 -2       754       841       842      3371      3375      3373
 -1      1586    8    0    1
 -2       756       755       843      3073      3376      3377
 -1      1587    8    0    1
 -2       755       842       843      3374      3378      3376
 -1      1588    8    0    1
 -2       757       756       844      3076      3379      3380
 -1      1589    8    0    1
 -2       756       843       844      3377      3381      3379
 -1      1590    8    0    1
 -2       758       757       845      3079      3382      3383
 -1      1591    8    0    1
 -2       757       844       845      3380      3384      3382
 -1      1592    8    0    1
 -2       759       758       846      3082      3385      3386
 -1      1593    8    0    1
 -2       758       845       846      3383      3387      3385
 -1      1594    8    0    1
 -2       760       759       847      3085      3388      3389
 -1      1595    8    0    1
 -2       759       846       847      3386      3390      3388
 -1      1596    8    0    1
 -2       761       760       848      3088      3391      3392
 -1      1597    8    0    1
 -2       760       847       848      3389      3393      3391
 -1      1598    8    0    1
 -2       762       761       849      3091      3394      3395
 -1      1599    8    0    1
 -2       761       848       849      3392      3396      3394
 -1      1600    8    0    1
 -2       763       762       850      3094      3397      3398
 -1      1601    8    0    1
 -2       762       849       850      3395      3399      3397
 -1      1602    8    0    1
 -2       764       763       851      3097      3400      3401
 -1      1603    8    0    1
 -2       763       850       851      3398      3402      3400
 -1      1604    8    0    1
 -2       765       764       852      3100      3403      3404
 -1      1605    8    0    1
 -2       764       851       852      3401      3405      3403
 -1      1606    8    0    1
 -2       766       765       853      3103      3406      3407
 -1      1607    8    0    1
 -2       765       852       853      3404      3408      3406
 -1      1608    8    0    1
 -2       767       766       854      3106      3409      3410
 -1      1609    8    0    1
 -2       766       853       854      3407      3411      3409
 -1      1610    8    0    1
 -2       768       767       855      3109      3412      3413
 -1      1611    8    0    1
 -2       767       854       855      3410      3414      3412
 -1      1612    8    0    1
 -2       769       768       856      3112      3415      3416
 -1      1613    8    0    1
 -2       768       855       856      3413      3417      3415
 -1      1614    8    0    1
 -2       770       769       857      3115      3418      3419
 -1      1615    8    0    1
 -2       769       856       857      3416      3420      3418
 -1      1616    8    0    1
 -2       771       770       858      3118      3421      3422
 -1      1617    8    0    1
 -2       770       857       858      3419      3423      3421
 -1      1618    8    0    1
 -2       772       771       859      3121      3424      3425
 -1      1619    8    0    1
 -2       771       858       859      3422      3426      3424
 -1      1620    8    0    1
 -2       773       772       860      3124      3427      3428
 -1      1621    8    0    1
 -2       772       859       860      3425      3429      3427
 -1      1622    8    0    1
 -2       774       773       861      3127      3430      3431
 -1      1623    8    0    1
 -2       773       860       861      3428      3432      3430
 -1      1624    8    0    1
 -2       775       774       862      3130      3433      3434
 -1      1625    8    0    1
 -2       774       861       862      3431      3435      3433
 -1      1626    8    0    1
 -2       776       775       863      3133      3436      3437
 -1      1627    8    0    1
 -2       775       862       863      3434      3438      3436
 -1      1628    8    0    1
 -2       777       776       864      3136      3439      3440
 -1      1629    8    0    1
 -2       776       863       864      3437      3441      3439
 -1      1630    8    0    1
 -2       778       777       865      3139      3442      3443
 -1      1631    8    0    1
 -2       777       864       865      3440      3444      3442
 -1      1632    8    0    1
 -2       779       778       866      3142      3445      3446
 -1      1633    8    0    1
 -2       778       865       866      3443      3447      3445
 -1      1634    8    0    1
 -2       781       659       822      3146      3308      3349
 -1      1635    8    0    1
 -2       811       782       867      3248      3448      3449
 -1      1636    8    0    1
 -2       784       785       868      3165      3450      3451
 -1      1637    8    0    1
 -2       815       811       869      3261      3452      3453
 -1      1638    8    0    1
 -2       811       867       869      3449      3454      3452
 -1      1639    8    0    1
 -2       831       816       870      3318      3455      3456
 -1      1640    8    0    1
 -2       831       870       807      3456      3457      3319
 -1      1641    8    0    1
 -2       783       784       871      3162      3458      3459
 -1      1642    8    0    1
 -2       784       868       871      3451      3460      3458
 -1      1643    8    0    1
 -2       786       787       872      3171      3461      3462
 -1      1644    8    0    1
 -2       787       788       873      3174      3463      3464
 -1      1645    8    0    1
 -2       787       873       872      3464      3465      3461
 -1      1646    8    0    1
 -2       788       789       874      3177      3466      3467
 -1      1647    8    0    1
 -2       788       874       873      3467      3468      3463
 -1      1648    8    0    1
 -2       789       790       875      3180      3469      3470
 -1      1649    8    0    1
 -2       789       875       874      3470      3471      3466
 -1      1650    8    0    1
 -2       790       791       876      3183      3472      3473
 -1      1651    8    0    1
 -2       790       876       875      3473      3474      3469
 -1      1652    8    0    1
 -2       791       792       877      3186      3475      3476
 -1      1653    8    0    1
 -2       791       877       876      3476      3477      3472
 -1      1654    8    0    1
 -2       792       793       878      3189      3478      3479
 -1      1655    8    0    1
 -2       792       878       877      3479      3480      3475
 -1      1656    8    0    1
 -2       793       794       879      3192      3481      3482
 -1      1657    8    0    1
 -2       793       879       878      3482      3483      3478
 -1      1658    8    0    1
 -2       794       795       880      3195      3484      3485
 -1      1659    8    0    1
 -2       794       880       879      3485      3486      3481
 -1      1660    8    0    1
 -2       795       796       881      3198      3487      3488
 -1      1661    8    0    1
 -2       795       881       880      3488      3489      3484
 -1      1662    8    0    1
 -2       796       797       882      3201      3490      3491
 -1      1663    8    0    1
 -2       796       882       881      3491      3492      3487
 -1      1664    8    0    1
 -2       797       798       883      3204      3493      3494
 -1      1665    8    0    1
 -2       797       883       882      3494      3495      3490
 -1      1666    8    0    1
 -2       798       799       884      3207      3496      3497
 -1      1667    8    0    1
 -2       798       884       883      3497      3498      3493
 -1      1668    8    0    1
 -2       799       800       885      3210      3499      3500
 -1      1669    8    0    1
 -2       799       885       884      3500      3501      3496
 -1      1670    8    0    1
 -2       800       801       886      3213      3502      3503
 -1      1671    8    0    1
 -2       800       886       885      3503      3504      3499
 -1      1672    8    0    1
 -2       801       802       887      3216      3505      3506
 -1      1673    8    0    1
 -2       801       887       886      3506      3507      3502
 -1      1674    8    0    1
 -2       802       803       888      3219      3508      3509
 -1      1675    8    0    1
 -2       802       888       887      3509      3510      3505
 -1      1676    8    0    1
 -2       803       804       889      3222      3511      3512
 -1      1677    8    0    1
 -2       803       889       888      3512      3513      3508
 -1      1678    8    0    1
 -2       804       805       890      3225      3514      3515
 -1      1679    8    0    1
 -2       804       890       889      3515      3516      3511
 -1      1680    8    0    1
 -2       805       806       891      3228      3517      3518
 -1      1681    8    0    1
 -2       805       891       890      3518      3519      3514
 -1      1682    8    0    1
 -2       806       807       892      3231      3520      3521
 -1      1683    8    0    1
 -2       891       806       892      3517      3521      3522
 -1      1684    8    0    1
 -2       807       870       892      3457      3523      3520
 -1      1685    8    0    1
 -2       615       564       737      2885      3005      3524
 -1      1686    8    0    1
 -2       820       736       893      3332      3525      3526
 -1      1687    8    0    1
 -2       699       700       721      2891      3354      3527
 -1      1688    8    0    1
 -2       747       817       894      3267      3528      3529
 -1      1689    8    0    1
 -2       737       699       721      3155      3527      3530
 -1      1690    8    0    1
 -2       823       828       895      3301      3531      3532
 -1      1691    8    0    1
 -2       823       895       813      3532      3533      3348
 -1      1692    8    0    1
 -2       785       786       896      3168      3534      3535
 -1      1693    8    0    1
 -2       868       785       896      3450      3535      3536
 -1      1694    8    0    1
 -2       786       872       896      3462      3537      3534
 -1      1695    8    0    1
 -2       742       731       897      3032      3538      3539
 -1      1696    8    0    1
 -2       832       742       897      3326      3539      3540
 -1      1697    8    0    1
 -2       731       825       897      3289      3541      3538
 -1      1698    8    0    1
 -2       812       783       898      3252      3542      3543
 -1      1699    8    0    1
 -2       783       871       898      3459      3544      3542
 -1      1700    8    0    1
 -2       748       747       899      3049      3545      3546
 -1      1701    8    0    1
 -2       748       899       836      3546      3547      3356
 -1      1702    8    0    1
 -2       744       821       900      3279      3548      3549
 -1      1703    8    0    1
 -2       821       835       900      3343      3550      3548
 -1      1704    8    0    1
 -2       808       818       901      3323      3551      3552
 -1      1705    8    0    1
 -2       819       808       902      3333      3553      3554
 -1      1706    8    0    1
 -2       818       810       866      3345      3555      3556
 -1      1707    8    0    1
 -2       816       820       870      3276      3557      3455
 -1      1708    8    0    1
 -2       817       813       903      3314      3558      3559
 -1      1709    8    0    1
 -2       894       817       903      3528      3559      3560
 -1      1710    8    0    1
 -2       813       895       903      3533      3561      3558
 -1      1711    8    0    1
 -2       746       815       904      3340      3562      3563
 -1      1712    8    0    1
 -2       815       869       904      3453      3564      3562
 -1      1713    8    0    1
 -2       826       744       900      3291      3549      3565
 -1      1714    8    0    1
 -2       825       809       905      3290      3566      3567
 -1      1715    8    0    1
 -2       829       746       906      3303      3568      3569
 -1      1716    8    0    1
 -2       746       904       906      3563      3570      3568
 -1      1717    8    0    1
 -2       717       826       833      3293      3571      3331
 -1      1718    8    0    1
 -2       779       866       810      3446      3555      3572
 -1      1719    8    0    1
 -2       780       779       810      3145      3572      3573
 -1      1720    8    0    1
 -2       830       740       907      3313      3574      3575
 -1      1721    8    0    1
 -2       740       834       907      3337      3576      3574
 -1      1722    8    0    1
 -2       893       736       830      3525      3312      3577
 -1      1723    8    0    1
 -2       824       664       827      3352      3310      3294
 -1      1724    8    0    1
 -2       895       828       908      3531      3578      3579
 -1      1725    8    0    1
 -2       828       832       908      3325      3580      3578
 -1      1726    8    0    1
 -2       814       812       909      3258      3581      3582
 -1      1727    8    0    1
 -2       812       898       909      3543      3583      3581
 -1      1728    8    0    1
 -2       905       809       910      3566      3584      3585
 -1      1729    8    0    1
 -2       809       833       910      3330      3586      3584
 -1      1730    8    0    1
 -2       780       810       822      3573      3297      3355
 -1      1731    8    0    1
 -2       902       808       901      3553      3552      3587
 -1      1732    8    0    1
 -2       899       747       894      3545      3529      3588
 -1      1733    8    0    1
 -2       782       814       911      3257      3589      3590
 -1      1734    8    0    1
 -2       814       909       911      3582      3591      3589
 -1      1735    8    0    1
 -2       867       782       911      3448      3590      3592
 -1      1736    8    0    1
 -2       901       818       866      3551      3556      3593
 -1      1737    8    0    1
 -2       820       893       870      3526      3594      3557
 -1      1738    8    0    1
 -2       819       902       912      3554      3595      3596
 -1      1739    8    0    1
 -2       819       912       834      3596      3597      3338
 -1      1740    8    0    1
 -2       825       905       913      3567      3598      3599
 -1      1741    8    0    1
 -2       869       867       914      3454      3600      3601
 -1      1742    8    0    1
 -2       838       837       915      3363      3602      3603
 -1      1743    8    0    1
 -2       839       838       916      3366      3604      3605
 -1      1744    8    0    1
 -2       838       915       916      3603      3606      3604
 -1      1745    8    0    1
 -2       840       839       917      3369      3607      3608
 -1      1746    8    0    1
 -2       839       916       917      3605      3609      3607
 -1      1747    8    0    1
 -2       841       840       918      3372      3610      3611
 -1      1748    8    0    1
 -2       840       917       918      3608      3612      3610
 -1      1749    8    0    1
 -2       842       841       919      3375      3613      3614
 -1      1750    8    0    1
 -2       841       918       919      3611      3615      3613
 -1      1751    8    0    1
 -2       843       842       920      3378      3616      3617
 -1      1752    8    0    1
 -2       842       919       920      3614      3618      3616
 -1      1753    8    0    1
 -2       844       843       921      3381      3619      3620
 -1      1754    8    0    1
 -2       843       920       921      3617      3621      3619
 -1      1755    8    0    1
 -2       845       844       922      3384      3622      3623
 -1      1756    8    0    1
 -2       844       921       922      3620      3624      3622
 -1      1757    8    0    1
 -2       846       845       923      3387      3625      3626
 -1      1758    8    0    1
 -2       845       922       923      3623      3627      3625
 -1      1759    8    0    1
 -2       847       846       924      3390      3628      3629
 -1      1760    8    0    1
 -2       846       923       924      3626      3630      3628
 -1      1761    8    0    1
 -2       848       847       925      3393      3631      3632
 -1      1762    8    0    1
 -2       847       924       925      3629      3633      3631
 -1      1763    8    0    1
 -2       849       848       926      3396      3634      3635
 -1      1764    8    0    1
 -2       848       925       926      3632      3636      3634
 -1      1765    8    0    1
 -2       850       849       927      3399      3637      3638
 -1      1766    8    0    1
 -2       849       926       927      3635      3639      3637
 -1      1767    8    0    1
 -2       851       850       928      3402      3640      3641
 -1      1768    8    0    1
 -2       850       927       928      3638      3642      3640
 -1      1769    8    0    1
 -2       852       851       929      3405      3643      3644
 -1      1770    8    0    1
 -2       851       928       929      3641      3645      3643
 -1      1771    8    0    1
 -2       853       852       930      3408      3646      3647
 -1      1772    8    0    1
 -2       852       929       930      3644      3648      3646
 -1      1773    8    0    1
 -2       854       853       931      3411      3649      3650
 -1      1774    8    0    1
 -2       853       930       931      3647      3651      3649
 -1      1775    8    0    1
 -2       855       854       932      3414      3652      3653
 -1      1776    8    0    1
 -2       854       931       932      3650      3654      3652
 -1      1777    8    0    1
 -2       856       855       933      3417      3655      3656
 -1      1778    8    0    1
 -2       855       932       933      3653      3657      3655
 -1      1779    8    0    1
 -2       857       856       934      3420      3658      3659
 -1      1780    8    0    1
 -2       856       933       934      3656      3660      3658
 -1      1781    8    0    1
 -2       858       857       935      3423      3661      3662
 -1      1782    8    0    1
 -2       857       934       935      3659      3663      3661
 -1      1783    8    0    1
 -2       859       858       936      3426      3664      3665
 -1      1784    8    0    1
 -2       858       935       936      3662      3666      3664
 -1      1785    8    0    1
 -2       860       859       937      3429      3667      3668
 -1      1786    8    0    1
 -2       859       936       937      3665      3669      3667
 -1      1787    8    0    1
 -2       861       860       938      3432      3670      3671
 -1      1788    8    0    1
 -2       860       937       938      3668      3672      3670
 -1      1789    8    0    1
 -2       862       861       939      3435      3673      3674
 -1      1790    8    0    1
 -2       861       938       939      3671      3675      3673
 -1      1791    8    0    1
 -2       863       862       940      3438      3676      3677
 -1      1792    8    0    1
 -2       862       939       940      3674      3678      3676
 -1      1793    8    0    1
 -2       864       863       941      3441      3679      3680
 -1      1794    8    0    1
 -2       863       940       941      3677      3681      3679
 -1      1795    8    0    1
 -2       865       864       942      3444      3682      3683
 -1      1796    8    0    1
 -2       864       941       942      3680      3684      3682
 -1      1797    8    0    1
 -2       866       865       901      3447      3685      3593
 -1      1798    8    0    1
 -2       874       875       943      3471      3686      3687
 -1      1799    8    0    1
 -2       826       900       944      3565      3688      3689
 -1      1800    8    0    1
 -2       871       868       945      3460      3690      3691
 -1      1801    8    0    1
 -2       873       874       946      3468      3692      3693
 -1      1802    8    0    1
 -2       874       943       946      3687      3694      3692
 -1      1803    8    0    1
 -2       872       873       947      3465      3695      3696
 -1      1804    8    0    1
 -2       873       946       947      3693      3697      3695
 -1      1805    8    0    1
 -2       875       876       948      3474      3698      3699
 -1      1806    8    0    1
 -2       875       948       943      3699      3700      3686
 -1      1807    8    0    1
 -2       876       877       949      3477      3701      3702
 -1      1808    8    0    1
 -2       876       949       948      3702      3703      3698
 -1      1809    8    0    1
 -2       877       878       950      3480      3704      3705
 -1      1810    8    0    1
 -2       877       950       949      3705      3706      3701
 -1      1811    8    0    1
 -2       878       879       951      3483      3707      3708
 -1      1812    8    0    1
 -2       878       951       950      3708      3709      3704
 -1      1813    8    0    1
 -2       879       880       952      3486      3710      3711
 -1      1814    8    0    1
 -2       879       952       951      3711      3712      3707
 -1      1815    8    0    1
 -2       880       881       953      3489      3713      3714
 -1      1816    8    0    1
 -2       880       953       952      3714      3715      3710
 -1      1817    8    0    1
 -2       881       882       954      3492      3716      3717
 -1      1818    8    0    1
 -2       881       954       953      3717      3718      3713
 -1      1819    8    0    1
 -2       882       883       955      3495      3719      3720
 -1      1820    8    0    1
 -2       882       955       954      3720      3721      3716
 -1      1821    8    0    1
 -2       883       884       956      3498      3722      3723
 -1      1822    8    0    1
 -2       883       956       955      3723      3724      3719
 -1      1823    8    0    1
 -2       884       885       957      3501      3725      3726
 -1      1824    8    0    1
 -2       884       957       956      3726      3727      3722
 -1      1825    8    0    1
 -2       885       886       958      3504      3728      3729
 -1      1826    8    0    1
 -2       885       958       957      3729      3730      3725
 -1      1827    8    0    1
 -2       886       887       959      3507      3731      3732
 -1      1828    8    0    1
 -2       886       959       958      3732      3733      3728
 -1      1829    8    0    1
 -2       887       888       960      3510      3734      3735
 -1      1830    8    0    1
 -2       887       960       959      3735      3736      3731
 -1      1831    8    0    1
 -2       888       889       961      3513      3737      3738
 -1      1832    8    0    1
 -2       888       961       960      3738      3739      3734
 -1      1833    8    0    1
 -2       889       890       962      3516      3740      3741
 -1      1834    8    0    1
 -2       889       962       961      3741      3742      3737
 -1      1835    8    0    1
 -2       890       891       963      3519      3743      3744
 -1      1836    8    0    1
 -2       890       963       962      3744      3745      3740
 -1      1837    8    0    1
 -2       833       826       944      3571      3689      3746
 -1      1838    8    0    1
 -2       904       869       964      3564      3747      3748
 -1      1839    8    0    1
 -2       869       914       964      3601      3749      3747
 -1      1840    8    0    1
 -2       898       871       965      3544      3750      3751
 -1      1841    8    0    1
 -2       871       945       965      3691      3752      3750
 -1      1842    8    0    1
 -2       836       899       966      3547      3753      3754
 -1      1843    8    0    1
 -2       835       829       967      3344      3755      3756
 -1      1844    8    0    1
 -2       900       835       967      3550      3756      3757
 -1      1845    8    0    1
 -2       829       906       967      3569      3758      3755
 -1      1846    8    0    1
 -2       893       830       968      3577      3759      3760
 -1      1847    8    0    1
 -2       899       894       969      3588      3761      3762
 -1      1848    8    0    1
 -2       899       969       966      3762      3763      3753
 -1      1849    8    0    1
 -2       837       836       970      3360      3764      3765
 -1      1850    8    0    1
 -2       836       966       970      3754      3766      3764
 -1      1851    8    0    1
 -2       870       893       971      3594      3767      3768
 -1      1852    8    0    1
 -2       892       870       971      3523      3768      3769
 -1      1853    8    0    1
 -2       893       968       971      3760      3770      3767
 -1      1854    8    0    1
 -2       867       911       972      3592      3771      3772
 -1      1855    8    0    1
 -2       867       972       914      3772      3773      3600
 -1      1856    8    0    1
 -2       901       865       942      3685      3683      3774
 -1      1857    8    0    1
 -2       895       908       973      3579      3775      3776
 -1      1858    8    0    1
 -2       895       973       903      3776      3777      3561
 -1      1859    8    0    1
 -2       898       965       974      3751      3778      3779
 -1      1860    8    0    1
 -2       898       974       909      3779      3780      3583
 -1      1861    8    0    1
 -2       944       900       967      3688      3757      3781
 -1      1862    8    0    1
 -2       904       964       975      3748      3782      3783
 -1      1863    8    0    1
 -2       904       975       906      3783      3784      3570
 -1      1864    8    0    1
 -2       907       834       976      3576      3785      3786
 -1      1865    8    0    1
 -2       834       912       976      3597      3787      3785
 -1      1866    8    0    1
 -2       897       825       913      3541      3599      3788
 -1      1867    8    0    1
 -2       832       897       977      3540      3789      3790
 -1      1868    8    0    1
 -2       908       832       977      3580      3790      3791
 -1      1869    8    0    1
 -2       897       913       977      3788      3792      3789
 -1      1870    8    0    1
 -2       894       903       978      3560      3793      3794
 -1      1871    8    0    1
 -2       969       894       978      3761      3794      3795
 -1      1872    8    0    1
 -2       903       973       978      3777      3796      3793
 -1      1873    8    0    1
 -2       833       944       910      3746      3797      3586
 -1      1874    8    0    1
 -2       891       892       979      3522      3798      3799
 -1      1875    8    0    1
 -2       963       891       979      3743      3799      3800
 -1      1876    8    0    1
 -2       892       971       979      3769      3801      3798
 -1      1877    8    0    1
 -2       972       911       980      3771      3802      3803
 -1      1878    8    0    1
 -2       911       909       980      3591      3804      3802
 -1      1879    8    0    1
 -2       830       907       968      3575      3805      3759
 -1      1880    8    0    1
 -2       837       970       915      3765      3806      3602
 -1      1881    8    0    1
 -2       896       872       981      3537      3807      3808
 -1      1882    8    0    1
 -2       872       947       981      3696      3809      3807
 -1      1883    8    0    1
 -2       945       868       982      3690      3810      3811
 -1      1884    8    0    1
 -2       868       896       982      3536      3812      3810
 -1      1885    8    0    1
 -2       901       942       902      3774      3813      3587
 -1      1886    8    0    1
 -2       913       905       983      3598      3814      3815
 -1      1887    8    0    1
 -2       905       910       984      3585      3816      3817
 -1      1888    8    0    1
 -2       905       984       983      3817      3818      3814
 -1      1889    8    0    1
 -2       902       942       985      3813      3819      3820
 -1      1890    8    0    1
 -2       912       902       985      3595      3820      3821
 -1      1891    8    0    1
 -2       942       941       985      3684      3822      3819
 -1      1892    8    0    1
 -2       914       972       986      3773      3823      3824
 -1      1893    8    0    1
 -2       910       944       987      3797      3825      3826
 -1      1894    8    0    1
 -2       984       910       987      3816      3826      3827
 -1      1895    8    0    1
 -2       944       967       987      3781      3828      3825
 -1      1896    8    0    1
 -2       917       916       988      3609      3829      3830
 -1      1897    8    0    1
 -2       918       917       989      3612      3831      3832
 -1      1898    8    0    1
 -2       917       988       989      3830      3833      3831
 -1      1899    8    0    1
 -2       919       918       990      3615      3834      3835
 -1      1900    8    0    1
 -2       918       989       990      3832      3836      3834
 -1      1901    8    0    1
 -2       920       919       991      3618      3837      3838
 -1      1902    8    0    1
 -2       919       990       991      3835      3839      3837
 -1      1903    8    0    1
 -2       921       920       992      3621      3840      3841
 -1      1904    8    0    1
 -2       920       991       992      3838      3842      3840
 -1      1905    8    0    1
 -2       922       921       993      3624      3843      3844
 -1      1906    8    0    1
 -2       921       992       993      3841      3845      3843
 -1      1907    8    0    1
 -2       923       922       994      3627      3846      3847
 -1      1908    8    0    1
 -2       922       993       994      3844      3848      3846
 -1      1909    8    0    1
 -2       924       923       995      3630      3849      3850
 -1      1910    8    0    1
 -2       923       994       995      3847      3851      3849
 -1      1911    8    0    1
 -2       925       924       996      3633      3852      3853
 -1      1912    8    0    1
 -2       924       995       996      3850      3854      3852
 -1      1913    8    0    1
 -2       926       925       997      3636      3855      3856
 -1      1914    8    0    1
 -2       925       996       997      3853      3857      3855
 -1      1915    8    0    1
 -2       927       926       998      3639      3858      3859
 -1      1916    8    0    1
 -2       926       997       998      3856      3860      3858
 -1      1917    8    0    1
 -2       928       927       999      3642      3861      3862
 -1      1918    8    0    1
 -2       927       998       999      3859      3863      3861
 -1      1919    8    0    1
 -2       929       928      1000      3645      3864      3865
 -1      1920    8    0    1
 -2       928       999      1000      3862      3866      3864
 -1      1921    8    0    1
 -2       930       929      1001      3648      3867      3868
 -1      1922    8    0    1
 -2       929      1000      1001      3865      3869      3867
 -1      1923    8    0    1
 -2       931       930      1002      3651      3870      3871
 -1      1924    8    0    1
 -2       930      1001      1002      3868      3872      3870
 -1      1925    8    0    1
 -2       932       931      1003      3654      3873      3874
 -1      1926    8    0    1
 -2       931      1002      1003      3871      3875      3873
 -1      1927    8    0    1
 -2       933       932      1004      3657      3876      3877
 -1      1928    8    0    1
 -2       932      1003      1004      3874      3878      3876
 -1      1929    8    0    1
 -2       934       933      1005      3660      3879      3880
 -1      1930    8    0    1
 -2       933      1004      1005      3877      3881      3879
 -1      1931    8    0    1
 -2       935       934      1006      3663      3882      3883
 -1      1932    8    0    1
 -2       934      1005      1006      3880      3884      3882
 -1      1933    8    0    1
 -2       936       935      1007      3666      3885      3886
 -1      1934    8    0    1
 -2       935      1006      1007      3883      3887      3885
 -1      1935    8    0    1
 -2       937       936      1008      3669      3888      3889
 -1      1936    8    0    1
 -2       936      1007      1008      3886      3890      3888
 -1      1937    8    0    1
 -2       938       937      1009      3672      3891      3892
 -1      1938    8    0    1
 -2       937      1008      1009      3889      3893      3891
 -1      1939    8    0    1
 -2       939       938      1010      3675      3894      3895
 -1      1940    8    0    1
 -2       938      1009      1010      3892      3896      3894
 -1      1941    8    0    1
 -2       940       939      1011      3678      3897      3898
 -1      1942    8    0    1
 -2       939      1010      1011      3895      3899      3897
 -1      1943    8    0    1
 -2       941       940      1012      3681      3900      3901
 -1      1944    8    0    1
 -2       940      1011      1012      3898      3902      3900
 -1      1945    8    0    1
 -2       948       949      1013      3703      3903      3904
 -1      1946    8    0    1
 -2       943       948      1014      3700      3905      3906
 -1      1947    8    0    1
 -2       948      1013      1014      3904      3907      3905
 -1      1948    8    0    1
 -2       947       946      1015      3697      3908      3909
 -1      1949    8    0    1
 -2       949       950      1016      3706      3910      3911
 -1      1950    8    0    1
 -2       949      1016      1013      3911      3912      3903
 -1      1951    8    0    1
 -2       950       951      1017      3709      3913      3914
 -1      1952    8    0    1
 -2       950      1017      1016      3914      3915      3910
 -1      1953    8    0    1
 -2       951       952      1018      3712      3916      3917
 -1      1954    8    0    1
 -2       951      1018      1017      3917      3918      3913
 -1      1955    8    0    1
 -2       952       953      1019      3715      3919      3920
 -1      1956    8    0    1
 -2       952      1019      1018      3920      3921      3916
 -1      1957    8    0    1
 -2       953       954      1020      3718      3922      3923
 -1      1958    8    0    1
 -2       953      1020      1019      3923      3924      3919
 -1      1959    8    0    1
 -2       954       955      1021      3721      3925      3926
 -1      1960    8    0    1
 -2       954      1021      1020      3926      3927      3922
 -1      1961    8    0    1
 -2       955       956      1022      3724      3928      3929
 -1      1962    8    0    1
 -2       955      1022      1021      3929      3930      3925
 -1      1963    8    0    1
 -2       956       957      1023      3727      3931      3932
 -1      1964    8    0    1
 -2       956      1023      1022      3932      3933      3928
 -1      1965    8    0    1
 -2       957       958      1024      3730      3934      3935
 -1      1966    8    0    1
 -2       957      1024      1023      3935      3936      3931
 -1      1967    8    0    1
 -2       958       959      1025      3733      3937      3938
 -1      1968    8    0    1
 -2       958      1025      1024      3938      3939      3934
 -1      1969    8    0    1
 -2       959       960      1026      3736      3940      3941
 -1      1970    8    0    1
 -2       959      1026      1025      3941      3942      3937
 -1      1971    8    0    1
 -2       960       961      1027      3739      3943      3944
 -1      1972    8    0    1
 -2       960      1027      1026      3944      3945      3940
 -1      1973    8    0    1
 -2       961       962      1028      3742      3946      3947
 -1      1974    8    0    1
 -2       961      1028      1027      3947      3948      3943
 -1      1975    8    0    1
 -2       962       963      1029      3745      3949      3950
 -1      1976    8    0    1
 -2       962      1029      1028      3950      3951      3946
 -1      1977    8    0    1
 -2       967       906       987      3758      3952      3828
 -1      1978    8    0    1
 -2       964       914      1030      3749      3953      3954
 -1      1979    8    0    1
 -2       914       986      1030      3824      3955      3953
 -1      1980    8    0    1
 -2       965       945      1031      3752      3956      3957
 -1      1981    8    0    1
 -2       946       943      1032      3694      3958      3959
 -1      1982    8    0    1
 -2       943      1014      1032      3906      3960      3958
 -1      1983    8    0    1
 -2       966       969      1033      3763      3961      3962
 -1      1984    8    0    1
 -2       968       907      1034      3805      3963      3964
 -1      1985    8    0    1
 -2       916       915      1035      3606      3965      3966
 -1      1986    8    0    1
 -2       916      1035       988      3966      3967      3829
 -1      1987    8    0    1
 -2       915       970      1036      3806      3968      3969
 -1      1988    8    0    1
 -2       915      1036      1035      3969      3970      3965
 -1      1989    8    0    1
 -2       970       966      1037      3766      3971      3972
 -1      1990    8    0    1
 -2      1036       970      1037      3968      3972      3973
 -1      1991    8    0    1
 -2       966      1033      1037      3962      3974      3971
 -1      1992    8    0    1
 -2       913       983      1038      3815      3975      3976
 -1      1993    8    0    1
 -2       974       965      1039      3778      3977      3978
 -1      1994    8    0    1
 -2       965      1031      1039      3957      3979      3977
 -1      1995    8    0    1
 -2       973       908       977      3775      3791      3980
 -1      1996    8    0    1
 -2       947      1015      1040      3909      3981      3982
 -1      1997    8    0    1
 -2       947      1040       981      3982      3983      3809
 -1      1998    8    0    1
 -2       975       964      1041      3782      3984      3985
 -1      1999    8    0    1
 -2       964      1030      1041      3954      3986      3984
 -1      2000    8    0    1
 -2       913      1038       977      3976      3987      3792
 -1      2001    8    0    1
 -2       972       980      1042      3803      3988      3989
 -1      2002    8    0    1
 -2       972      1042       986      3989      3990      3823
 -1      2003    8    0    1
 -2      1015       946      1032      3908      3959      3991
 -1      2004    8    0    1
 -2       987       906       975      3952      3784      3992
 -1      2005    8    0    1
 -2      1029       963      1043      3949      3993      3994
 -1      2006    8    0    1
 -2       963       979      1043      3800      3995      3993
 -1      2007    8    0    1
 -2       980       909       974      3804      3780      3996
 -1      2008    8    0    1
 -2      1034       907       976      3963      3786      3997
 -1      2009    8    0    1
 -2      1031       945      1044      3956      3998      3999
 -1      2010    8    0    1
 -2       945       982      1044      3811      4000      3998
 -1      2011    8    0    1
 -2       941      1012       985      3901      4001      3822
 -1      2012    8    0    1
 -2       982       896       981      3812      3808      4002
 -1      2013    8    0    1
 -2      1033       969      1038      3961      4003      4004
 -1      2014    8    0    1
 -2       968      1034      1043      3964      4005      4006
 -1      2015    8    0    1
 -2      1038       983      1045      3975      4007      4008
 -1      2016    8    0    1
 -2      1038      1045      1033      4008      4009      4004
 -1      2017    8    0    1
 -2       912       985      1046      3821      4010      4011
 -1      2018    8    0    1
 -2       976       912      1046      3787      4011      4012
 -1      2019    8    0    1
 -2       985      1012      1046      4001      4013      4010
 -1      2020    8    0    1
 -2       983       984      1047      3818      4014      4015
 -1      2021    8    0    1
 -2       983      1047      1045      4015      4016      4007
 -1      2022    8    0    1
 -2       710       615       737      3022      3524      4017
 -1      2023    8    0    1
 -2       971       968       979      3770      4018      3801
 -1      2024    8    0    1
 -2       979       968      1043      4018      4006      3995
 -1      2025    8    0    1
 -2       989       988      1048      3833      4019      4020
 -1      2026    8    0    1
 -2       990       989      1049      3836      4021      4022
 -1      2027    8    0    1
 -2       989      1048      1049      4020      4023      4021
 -1      2028    8    0    1
 -2       991       990      1050      3839      4024      4025
 -1      2029    8    0    1
 -2       990      1049      1050      4022      4026      4024
 -1      2030    8    0    1
 -2       992       991      1051      3842      4027      4028
 -1      2031    8    0    1
 -2       991      1050      1051      4025      4029      4027
 -1      2032    8    0    1
 -2       993       992      1052      3845      4030      4031
 -1      2033    8    0    1
 -2       992      1051      1052      4028      4032      4030
 -1      2034    8    0    1
 -2       994       993      1053      3848      4033      4034
 -1      2035    8    0    1
 -2       993      1052      1053      4031      4035      4033
 -1      2036    8    0    1
 -2       995       994      1054      3851      4036      4037
 -1      2037    8    0    1
 -2       994      1053      1054      4034      4038      4036
 -1      2038    8    0    1
 -2       996       995      1055      3854      4039      4040
 -1      2039    8    0    1
 -2       995      1054      1055      4037      4041      4039
 -1      2040    8    0    1
 -2       997       996      1056      3857      4042      4043
 -1      2041    8    0    1
 -2       996      1055      1056      4040      4044      4042
 -1      2042    8    0    1
 -2       998       997      1057      3860      4045      4046
 -1      2043    8    0    1
 -2       997      1056      1057      4043      4047      4045
 -1      2044    8    0    1
 -2       999       998      1058      3863      4048      4049
 -1      2045    8    0    1
 -2       998      1057      1058      4046      4050      4048
 -1      2046    8    0    1
 -2      1000       999      1059      3866      4051      4052
 -1      2047    8    0    1
 -2       999      1058      1059      4049      4053      4051
 -1      2048    8    0    1
 -2      1001      1000      1060      3869      4054      4055
 -1      2049    8    0    1
 -2      1000      1059      1060      4052      4056      4054
 -1      2050    8    0    1
 -2      1002      1001      1061      3872      4057      4058
 -1      2051    8    0    1
 -2      1001      1060      1061      4055      4059      4057
 -1      2052    8    0    1
 -2      1003      1002      1062      3875      4060      4061
 -1      2053    8    0    1
 -2      1002      1061      1062      4058      4062      4060
 -1      2054    8    0    1
 -2      1004      1003      1063      3878      4063      4064
 -1      2055    8    0    1
 -2      1003      1062      1063      4061      4065      4063
 -1      2056    8    0    1
 -2      1005      1004      1064      3881      4066      4067
 -1      2057    8    0    1
 -2      1004      1063      1064      4064      4068      4066
 -1      2058    8    0    1
 -2      1006      1005      1065      3884      4069      4070
 -1      2059    8    0    1
 -2      1005      1064      1065      4067      4071      4069
 -1      2060    8    0    1
 -2      1007      1006      1066      3887      4072      4073
 -1      2061    8    0    1
 -2      1006      1065      1066      4070      4074      4072
 -1      2062    8    0    1
 -2      1008      1007      1067      3890      4075      4076
 -1      2063    8    0    1
 -2      1007      1066      1067      4073      4077      4075
 -1      2064    8    0    1
 -2      1009      1008      1068      3893      4078      4079
 -1      2065    8    0    1
 -2      1008      1067      1068      4076      4080      4078
 -1      2066    8    0    1
 -2      1010      1009      1069      3896      4081      4082
 -1      2067    8    0    1
 -2      1009      1068      1069      4079      4083      4081
 -1      2068    8    0    1
 -2      1011      1010      1070      3899      4084      4085
 -1      2069    8    0    1
 -2      1010      1069      1070      4082      4086      4084
 -1      2070    8    0    1
 -2      1012      1011      1071      3902      4087      4088
 -1      2071    8    0    1
 -2      1011      1070      1071      4085      4089      4087
 -1      2072    8    0    1
 -2      1016      1017      1072      3915      4090      4091
 -1      2073    8    0    1
 -2       973       977      1038      3980      3987      4092
 -1      2074    8    0    1
 -2      1013      1016      1073      3912      4093      4094
 -1      2075    8    0    1
 -2      1016      1072      1073      4091      4095      4093
 -1      2076    8    0    1
 -2      1018      1019      1074      3921      4096      4097
 -1      2077    8    0    1
 -2      1019      1020      1075      3924      4098      4099
 -1      2078    8    0    1
 -2      1019      1075      1074      4099      4100      4096
 -1      2079    8    0    1
 -2      1020      1021      1076      3927      4101      4102
 -1      2080    8    0    1
 -2      1020      1076      1075      4102      4103      4098
 -1      2081    8    0    1
 -2      1021      1022      1077      3930      4104      4105
 -1      2082    8    0    1
 -2      1021      1077      1076      4105      4106      4101
 -1      2083    8    0    1
 -2      1022      1023      1078      3933      4107      4108
 -1      2084    8    0    1
 -2      1022      1078      1077      4108      4109      4104
 -1      2085    8    0    1
 -2      1023      1024      1079      3936      4110      4111
 -1      2086    8    0    1
 -2      1023      1079      1078      4111      4112      4107
 -1      2087    8    0    1
 -2      1024      1025      1080      3939      4113      4114
 -1      2088    8    0    1
 -2      1024      1080      1079      4114      4115      4110
 -1      2089    8    0    1
 -2      1025      1026      1081      3942      4116      4117
 -1      2090    8    0    1
 -2      1025      1081      1080      4117      4118      4113
 -1      2091    8    0    1
 -2      1026      1027      1082      3945      4119      4120
 -1      2092    8    0    1
 -2      1026      1082      1081      4120      4121      4116
 -1      2093    8    0    1
 -2      1027      1028      1083      3948      4122      4123
 -1      2094    8    0    1
 -2      1027      1083      1082      4123      4124      4119
 -1      2095    8    0    1
 -2      1028      1029      1084      3951      4125      4126
 -1      2096    8    0    1
 -2      1028      1084      1083      4126      4127      4122
 -1      2097    8    0    1
 -2      1032      1014      1085      3960      4128      4129
 -1      2098    8    0    1
 -2      1030       986      1086      3955      4130      4131
 -1      2099    8    0    1
 -2      1017      1018      1087      3918      4132      4133
 -1      2100    8    0    1
 -2      1072      1017      1087      4090      4133      4134
 -1      2101    8    0    1
 -2      1018      1074      1087      4097      4135      4132
 -1      2102    8    0    1
 -2       710       737       721      4017      3530      2952
 -1      2103    8    0    1
 -2      1014      1013      1088      3907      4136      4137
 -1      2104    8    0    1
 -2      1013      1073      1088      4094      4138      4136
 -1      2105    8    0    1
 -2      1043      1034      1089      4005      4139      4140
 -1      2106    8    0    1
 -2      1029      1043      1089      3994      4140      4141
 -1      2107    8    0    1
 -2      1038       969       978      4003      3795      4142
 -1      2108    8    0    1
 -2       980       974      1090      3996      4143      4144
 -1      2109    8    0    1
 -2       974      1039      1090      3978      4145      4143
 -1      2110    8    0    1
 -2      1033      1045      1037      4009      4146      3974
 -1      2111    8    0    1
 -2      1035      1036      1091      3970      4147      4148
 -1      2112    8    0    1
 -2       988      1035      1092      3967      4149      4150
 -1      2113    8    0    1
 -2       988      1092      1048      4150      4151      4019
 -1      2114    8    0    1
 -2      1015      1032      1093      3991      4152      4153
 -1      2115    8    0    1
 -2      1032      1085      1093      4129      4154      4152
 -1      2116    8    0    1
 -2      1034       976      1094      3997      4155      4156
 -1      2117    8    0    1
 -2      1089      1034      1094      4139      4156      4157
 -1      2118    8    0    1
 -2       976      1046      1094      4012      4158      4155
 -1      2119    8    0    1
 -2       982       981      1095      4002      4159      4160
 -1      2120    8    0    1
 -2      1044       982      1095      4000      4160      4161
 -1      2121    8    0    1
 -2       981      1040      1095      3983      4162      4159
 -1      2122    8    0    1
 -2       984       987      1096      3827      4163      4164
 -1      2123    8    0    1
 -2      1040      1015      1097      3981      4165      4166
 -1      2124    8    0    1
 -2      1015      1093      1097      4153      4167      4165
 -1      2125    8    0    1
 -2      1012      1071      1046      4088      4168      4013
 -1      2126    8    0    1
 -2      1041      1030      1098      3986      4169      4170
 -1      2127    8    0    1
 -2      1030      1086      1098      4131      4171      4169
 -1      2128    8    0    1
 -2       973      1038       978      4092      4142      3796
 -1      2129    8    0    1
 -2      1042       980      1090      3988      4144      4172
 -1      2130    8    0    1
 -2      1047       984      1096      4014      4164      4173
 -1      2131    8    0    1
 -2       986      1042      1099      3990      4174      4175
 -1      2132    8    0    1
 -2       986      1099      1086      4175      4176      4130
 -1      2133    8    0    1
 -2      1084      1029      1089      4125      4141      4177
 -1      2134    8    0    1
 -2      1085      1014      1088      4128      4137      4178
 -1      2135    8    0    1
 -2      1096       987       975      4163      3992      4179
 -1      2136    8    0    1
 -2       975      1041      1096      3985      4180      4179
 -1      2137    8    0    1
 -2      1092      1035      1091      4149      4148      4181
 -1      2138    8    0    1
 -2      1036      1037      1100      3973      4182      4183
 -1      2139    8    0    1
 -2      1036      1100      1091      4183      4184      4147
 -1      2140    8    0    1
 -2      1039      1031      1101      3979      4185      4186
 -1      2141    8    0    1
 -2      1037      1045      1100      4146      4187      4182
 -1      2142    8    0    1
 -2      1031      1044      1102      3999      4188      4189
 -1      2143    8    0    1
 -2      1031      1102      1101      4189      4190      4185
 -1      2144    8    0    1
 -2      1100      1045      1098      4187      4191      4192
 -1      2145    8    0    1
 -2      1098      1086      1100      4171      4193      4192
 -1      2146    8    0    1
 -2      1050      1049      1103      4026      4194      4195
 -1      2147    8    0    1
 -2      1051      1050      1102      4029      4196      4197
 -1      2148    8    0    1
 -2      1053      1052      1104      4035      4198      4199
 -1      2149    8    0    1
 -2      1054      1053      1097      4038      4200      4201
 -1      2150    8    0    1
 -2      1055      1054      1093      4041      4202      4203
 -1      2151    8    0    1
 -2      1056      1055      1085      4044      4204      4205
 -1      2152    8    0    1
 -2      1057      1056      1088      4047      4206      4207
 -1      2153    8    0    1
 -2      1058      1057      1073      4050      4208      4209
 -1      2154    8    0    1
 -2      1059      1058      1072      4053      4210      4211
 -1      2155    8    0    1
 -2      1060      1059      1087      4056      4212      4213
 -1      2156    8    0    1
 -2      1061      1060      1074      4059      4214      4215
 -1      2157    8    0    1
 -2      1062      1061      1075      4062      4216      4217
 -1      2158    8    0    1
 -2      1063      1062      1076      4065      4218      4219
 -1      2159    8    0    1
 -2      1064      1063      1077      4068      4220      4221
 -1      2160    8    0    1
 -2      1065      1064      1078      4071      4222      4223
 -1      2161    8    0    1
 -2      1066      1065      1079      4074      4224      4225
 -1      2162    8    0    1
 -2      1067      1066      1080      4077      4226      4227
 -1      2163    8    0    1
 -2      1068      1067      1081      4080      4228      4229
 -1      2164    8    0    1
 -2      1069      1068      1082      4083      4230      4231
 -1      2165    8    0    1
 -2      1070      1069      1083      4086      4232      4233
 -1      2166    8    0    1
 -2      1071      1070      1084      4089      4234      4235
 -1      2167    8    0    1
 -2      1080      1066      1079      4226      4225      4115
 -1      2168    8    0    1
 -2      1072      1058      1073      4210      4209      4095
 -1      2169    8    0    1
 -2      1088      1056      1085      4206      4205      4178
 -1      2170    8    0    1
 -2      1085      1055      1093      4204      4203      4154
 -1      2171    8    0    1
 -2      1075      1076      1062      4103      4218      4217
 -1      2172    8    0    1
 -2      1074      1075      1061      4100      4216      4215
 -1      2173    8    0    1
 -2      1077      1078      1064      4109      4222      4221
 -1      2174    8    0    1
 -2      1078      1079      1065      4112      4224      4223
 -1      2175    8    0    1
 -2      1080      1081      1067      4118      4228      4227
 -1      2176    8    0    1
 -2      1081      1082      1068      4121      4230      4229
 -1      2177    8    0    1
 -2      1082      1083      1069      4124      4232      4231
 -1      2178    8    0    1
 -2      1083      1084      1070      4127      4234      4233
 -1      2179    8    0    1
 -2      1093      1054      1097      4202      4201      4167
 -1      2180    8    0    1
 -2      1076      1077      1063      4106      4220      4219
 -1      2181    8    0    1
 -2      1096      1041      1047      4180      4236      4173
 -1      2182    8    0    1
 -2      1088      1073      1057      4138      4208      4207
 -1      2183    8    0    1
 -2      1092      1091      1099      4181      4237      4238
 -1      2184    8    0    1
 -2      1042      1090      1105      4172      4239      4240
 -1      2185    8    0    1
 -2      1042      1105      1099      4240      4241      4174
 -1      2186    8    0    1
 -2      1090      1039      1106      4145      4242      4243
 -1      2187    8    0    1
 -2      1039      1101      1106      4186      4244      4242
 -1      2188    8    0    1
 -2      1046      1071      1094      4168      4245      4158
 -1      2189    8    0    1
 -2      1048      1092      1105      4151      4246      4247
 -1      2190    8    0    1
 -2      1041      1098      1047      4170      4248      4236
 -1      2191    8    0    1
 -2      1091      1100      1086      4184      4193      4249
 -1      2192    8    0    1
 -2      1049      1048      1106      4023      4250      4251
 -1      2193    8    0    1
 -2      1045      1047      1098      4016      4248      4191
 -1      2194    8    0    1
 -2      1074      1060      1087      4214      4213      4135
 -1      2195    8    0    1
 -2      1059      1072      1087      4211      4134      4212
 -1      2196    8    0    1
 -2      1091      1086      1099      4249      4176      4237
 -1      2197    8    0    1
 -2      1040      1097      1104      4166      4252      4253
 -1      2198    8    0    1
 -2      1051      1102      1107      4197      4254      4255
 -1      2199    8    0    1
 -2      1052      1051      1107      4032      4255      4256
 -1      2200    8    0    1
 -2      1102      1044      1107      4188      4257      4254
 -1      2201    8    0    1
 -2      1053      1104      1097      4199      4252      4200
 -1      2202    8    0    1
 -2      1092      1099      1105      4238      4241      4246
 -1      2203    8    0    1
 -2      1107      1044      1095      4257      4161      4258
 -1      2204    8    0    1
 -2      1071      1084      1094      4235      4259      4245
 -1      2205    8    0    1
 -2      1090      1106      1105      4243      4260      4239
 -1      2206    8    0    1
 -2      1104      1052      1107      4198      4256      4261
 -1      2207    8    0    1
 -2      1095      1040      1104      4162      4253      4262
 -1      2208    8    0    1
 -2      1106      1048      1105      4250      4247      4260
 -1      2209    8    0    1
 -2      1095      1104      1107      4262      4261      4258
 -1      2210    8    0    1
 -2      1103      1049      1106      4194      4251      4263
 -1      2211    8    0    1
 -2      1102      1050      1103      4196      4195      4264
 -1      2212    8    0    1
 -2      1106      1101      1103      4244      4265      4263
 -1      2213    8    0    1
 -2      1084      1089      1094      4177      4157      4259
 -1      2214    8    0    1
 -2      1101      1102      1103      4190      4264      4265
 -3
    1PSTEP                         1           1           1          
  100CL  101 1.000000000        4265                     0    1           1
 -4  DISP        4    1
 -5  D1          1    2    1    0
 -5  D2          1    2    2    0
 -5  D3          1    2    3    0
 -5  ALL         1    2    0    0    1ALL
 -1         1 1.15147E-02-6.54664E-04-5.97866E-14
 -1         2 1.53437E-02 2.15610E-04-6.78739E-14
 -1         3 1.44993E-02 3.59439E-04-7.70433E-14
 -1         4 1.42227E-02-5.61610E-05-8.23995E-14
 -1         5 0.00000E+00 0.00000E+00 0.00000E+00
 -1         6 0.00000E+00 0.00000E+00 0.00000E+00
 -1         7 0.00000E+00 0.00000E+00 0.00000E+00
 -1         8 0.00000E+00 0.00000E+00 0.00000E+00
 -1         9 0.00000E+00 0.00000E+00 0.00000E+00
 -1        10 0.00000E+00 0.00000E+00 0.00000E+00
 -1        11 0.00000E+00 0.00000E+00 0.00000E+00
 -1        12 0.00000E+00 0.00000E+00 0.00000E+00
 -1        13 0.00000E+00 0.00000E+00 0.00000E+00
 -1        14 0.00000E+00 0.00000E+00 0.00000E+00
 -1        15 0.00000E+00 0.00000E+00 0.00000E+00
 -1        16 0.00000E+00 0.00000E+00 0.00000E+00
 -1        17 0.00000E+00 0.00000E+00 0.00000E+00
 -1        18 0.00000E+00 0.00000E+00 0.00000E+00
 -1        19 0.00000E+00 0.00000E+00 0.00000E+00
 -1        20 0.00000E+00 0.00000E+00 0.00000E+00
 -1        21 0.00000E+00 0.00000E+00 0.00000E+00
 -1        22 0.00000E+00 0.00000E+00 0.00000E+00
 -1        23 4.11415E-04-2.60739E-04 1.32205E-17
 -1        24 7.03439E-04-4.00987E-04-7.83980E-17
 -1        25 9.73555E-04-4.98375E-04-2.70288E-16
 -1        26 1.23810E-03-5.67139E-04-5.59835E-16
 -1        27 1.50169E-03-6.16423E-04-9.42741E-16
 -1        28 1.76642E-03-6.51618E-04-1.41583E-15
 -1        29 2.03325E-03-6.76437E-04-1.97810E-15
 -1        30 2.30254E-03-6.93582E-04-2.62798E-15
 -1        31 2.57434E-03-7.05076E-04-3.36479E-15
 -1        32 2.84851E-03-7.12452E-04-4.18647E-15
 -1        33 3.12482E-03-7.16870E-04-5.08894E-15
 -1        34 3.40297E-03-7.19196E-04-6.06462E-15
 -1        35 3.68270E-03-7.20070E-04-7.11706E-15
 -1        36 3.96371E-03-7.19952E-04-8.24337E-15
 -1        37 4.24575E-03-7.19160E-04-9.44276E-15
 -1        38 4.52862E-03-7.17900E-04-1.07105E-14
 -1        39 4.81213E-03-7.16294E-04-1.20460E-14
 -1        40 5.09615E-03-7.14397E-04-1.34452E-14
 -1        41 5.38059E-03-7.12212E-04-1.49112E-14
 -1        42 5.66539E-03-7.09705E-04-1.64443E-14
 -1        43 5.95058E-03-7.06816E-04-1.80431E-14
 -1        44 6.23621E-03-7.03469E-04-1.97049E-14
 -1        45 6.52242E-03-6.99587E-04-2.14325E-14
 -1        46 6.80941E-03-6.95108E-04-2.32347E-14
 -1        47 7.09750E-03-6.90004E-04-2.50971E-14
 -1        48 7.38710E-03-6.84314E-04-2.70060E-14
 -1        49 7.67873E-03-6.78182E-04-2.89636E-14
 -1        50 7.97308E-03-6.71908E-04-3.09802E-14
 -1        51 8.27095E-03-6.66020E-04-3.30497E-14
 -1        52 8.57328E-03-6.61359E-04-3.51688E-14
 -1        53 8.88108E-03-6.59177E-04-3.73312E-14
 -1        54 9.19532E-03-6.61244E-04-3.95248E-14
 -1        55 9.51673E-03-6.69922E-04-4.17382E-14
 -1        56 9.84553E-03-6.88165E-04-4.39738E-14
 -1        57 1.01809E-02-7.19336E-04-4.62382E-14
 -1        58 1.05204E-02-7.66697E-04-4.85286E-14
 -1        59 1.08595E-02-8.32386E-04-5.08424E-14
 -1        60 1.11912E-02-9.15801E-04-5.31720E-14
 -1        61 1.15066E-02-1.01161E-03-5.55103E-14
 -1        62 1.17971E-02-1.10819E-03-5.78718E-14
 -1        63 1.20574E-02-1.18799E-03-6.02764E-14
 -1        64 1.22892E-02-1.23099E-03-6.26952E-14
 -1        65 1.25015E-02-1.22097E-03-6.51300E-14
 -1        66 1.27087E-02-1.15134E-03-6.75828E-14
 -1        67 1.29240E-02-1.02700E-03-7.00501E-14
 -1        68 1.31559E-02-8.60853E-04-7.25254E-14
 -1        69 1.34062E-02-6.67981E-04-7.50083E-14
 -1        70 1.36728E-02-4.61447E-04-7.74862E-14
 -1        71 1.39518E-02-2.51539E-04-7.99920E-14
 -1        72 4.13860E-04 2.61444E-04 5.19434E-17
 -1        73 7.03262E-04 4.03693E-04 3.03848E-17
 -1        74 9.74091E-04 5.00145E-04-6.47743E-17
 -1        75 1.23893E-03 5.68848E-04-2.37254E-16
 -1        76 1.50265E-03 6.18182E-04-4.88606E-16
 -1        77 1.76745E-03 6.53469E-04-8.18017E-16
 -1        78 2.03431E-03 6.78400E-04-1.22459E-15
 -1        79 2.30363E-03 6.95667E-04-1.71001E-15
 -1        80 2.57544E-03 7.07289E-04-2.27359E-15
 -1        81 2.84962E-03 7.14796E-04-2.91849E-15
 -1        82 3.12593E-03 7.19347E-04-3.64255E-15
 -1        83 3.40409E-03 7.21807E-04-4.44329E-15
 -1        84 3.68382E-03 7.22816E-04-5.32256E-15
 -1        85 3.96483E-03 7.22833E-04-6.27656E-15
 -1        86 4.24687E-03 7.22175E-04-7.31220E-15
 -1        87 4.52974E-03 7.21049E-04-8.42563E-15
 -1        88 4.81324E-03 7.19576E-04-9.61177E-15
 -1        89 5.09725E-03 7.17810E-04-1.08786E-14
 -1        90 5.38168E-03 7.15752E-04-1.22274E-14
 -1        91 5.66647E-03 7.13364E-04-1.36487E-14
 -1        92 5.95163E-03 7.10582E-04-1.51352E-14
 -1        93 6.23722E-03 7.07320E-04-1.66857E-14
 -1        94 6.52339E-03 7.03488E-04-1.83073E-14
 -1        95 6.81034E-03 6.99004E-04-1.99993E-14
 -1        96 7.09840E-03 6.93812E-04-2.17487E-14
 -1        97 7.38799E-03 6.87911E-04-2.35600E-14
 -1        98 7.67972E-03 6.81390E-04-2.54356E-14
 -1        99 7.97434E-03 6.74486E-04-2.73544E-14
 -1       100 8.27284E-03 6.67656E-04-2.93109E-14
 -1       101 8.57643E-03 6.61683E-04-3.13127E-14
 -1       102 8.88654E-03 6.57816E-04-3.33486E-14
 -1       103 9.20485E-03 6.57956E-04-3.54196E-14
 -1       104 9.53305E-03 6.64865E-04-3.75271E-14
 -1       105 9.87267E-03 6.82389E-04-3.96746E-14
 -1       106 1.02245E-02 7.15559E-04-4.18579E-14
 -1       107 1.05876E-02 7.70385E-04-4.40826E-14
 -1       108 1.09581E-02 8.52910E-04-4.63361E-14
 -1       109 1.13280E-02 9.67006E-04-4.86232E-14
 -1       110 1.16844E-02 1.11056E-03-5.09514E-14
 -1       111 1.20115E-02 1.27086E-03-5.33018E-14
 -1       112 1.22964E-02 1.42219E-03-5.56783E-14
 -1       113 1.25369E-02 1.53016E-03-5.80629E-14
 -1       114 1.27463E-02 1.56427E-03-6.04622E-14
 -1       115 1.29486E-02 1.51241E-03-6.28676E-14
 -1       116 1.31659E-02 1.38561E-03-6.52673E-14
 -1       117 1.34081E-02 1.20875E-03-6.76484E-14
 -1       118 1.36715E-02 1.00585E-03-7.00110E-14
 -1       119 1.39473E-02 7.91184E-04-7.23944E-14
 -1       120 1.42289E-02 5.70546E-04-7.47816E-14
 -1       121 1.47171E-02 2.74166E-04-7.73498E-14
 -1       122 1.49385E-02 1.86018E-04-7.76634E-14
 -1       123 1.51739E-02 1.00763E-04-7.79709E-14
 -1       124 1.54268E-02 3.43216E-05-7.82569E-14
 -1       125 1.56850E-02 8.70838E-06-7.85345E-14
 -1       126 1.59123E-02 4.10622E-05-7.88273E-14
 -1       127 1.60689E-02 1.33304E-04-7.91426E-14
 -1       128 1.61076E-02 2.60623E-04-7.94592E-14
 -1       129 1.60149E-02 3.79868E-04-7.97699E-14
 -1       130 1.58160E-02 4.51326E-04-8.00582E-14
 -1       131 1.55593E-02 4.57642E-04-8.03799E-14
 -1       132 1.52959E-02 4.07473E-04-8.07331E-14
 -1       133 1.50450E-02 3.20043E-04-8.11112E-14
 -1       134 1.48201E-02 2.18275E-04-8.14704E-14
 -1       135 1.46156E-02 1.18314E-04-8.18072E-14
 -1       136 1.44189E-02 2.73471E-05-8.21125E-14
 -1       137 1.52811E-02 4.34845E-04-6.75821E-14
 -1       138 1.51094E-02 6.29617E-04-6.70864E-14
 -1       139 1.47945E-02 8.29282E-04-6.62772E-14
 -1       140 1.44122E-02 9.85018E-04-6.53457E-14
 -1       141 1.39784E-02 1.10045E-03-6.43130E-14
 -1       142 1.34686E-02 1.17840E-03-6.31102E-14
 -1       143 1.29429E-02 1.20251E-03-6.18829E-14
 -1       144 1.24131E-02 1.17222E-03-6.06560E-14
 -1       145 1.18660E-02 1.07840E-03-5.94022E-14
 -1       146 1.14489E-02 9.59505E-04-5.84767E-14
 -1       147 1.10561E-02 7.92748E-04-5.76256E-14
 -1       148 1.07664E-02 6.11446E-04-5.70397E-14
 -1       149 1.05698E-02 4.17108E-04-5.66937E-14
 -1       150 1.04747E-02 2.18872E-04-5.66040E-14
 -1       151 1.04805E-02 2.11811E-05-5.67739E-14
 -1       152 1.05900E-02-1.72976E-04-5.72010E-14
 -1       153 1.07950E-02-3.51037E-04-5.78400E-14
 -1       154 1.11151E-02-5.19338E-04-5.87291E-14
 -1       155 1.19496E-02-7.45459E-04-6.08922E-14
 -1       156 1.24389E-02-7.97727E-04-6.20918E-14
 -1       157 1.29571E-02-8.03203E-04-6.33129E-14
 -1       158 1.34480E-02-7.63443E-04-6.44278E-14
 -1       159 1.39494E-02-6.77558E-04-6.54990E-14
 -1       160 1.43985E-02-5.52346E-04-6.64032E-14
 -1       161 1.47786E-02-3.95602E-04-6.71121E-14
 -1       162 1.50715E-02-2.14867E-04-6.76067E-14
 -1       163 1.52746E-02-1.23513E-06-6.78821E-14
 -1       164 2.40425E-04-1.25509E-04-2.53907E-17
 -1       165 2.25288E-04-9.46053E-05-3.68934E-17
 -1       166 2.19525E-04-7.27614E-05-4.26227E-17
 -1       167 2.16705E-04-5.50931E-05-4.53095E-17
 -1       168 2.15212E-04-3.99555E-05-4.60210E-17
 -1       169 2.14371E-04-2.59060E-05-4.57635E-17
 -1       170 2.13949E-04-1.26393E-05-4.47606E-17
 -1       171 2.13826E-04 2.72865E-07-4.34901E-17
 -1       172 2.13968E-04 1.31974E-05-4.16943E-17
 -1       173 2.14412E-04 2.65040E-05-3.92651E-17
 -1       174 2.15260E-04 4.03807E-05-3.61073E-17
 -1       175 2.16815E-04 5.58990E-05-3.18179E-17
 -1       176 2.19678E-04 7.38015E-05-2.50959E-17
 -1       177 2.25458E-04 9.60049E-05-1.49383E-17
 -1       178 2.39356E-04 1.27588E-04 1.34848E-18
 -1       179 2.97737E-04 1.85497E-04 1.95800E-17
 -1       180 4.68671E-04-2.63545E-04-6.76169E-17
 -1       181 7.66849E-04-3.82140E-04-2.24969E-16
 -1       182 1.05074E-03-4.65035E-04-4.74904E-16
 -1       183 1.32817E-03-5.23828E-04-8.16665E-16
 -1       184 1.60282E-03-5.65547E-04-1.24692E-15
 -1       185 1.87675E-03-5.94883E-04-1.76456E-15
 -1       186 2.15111E-03-6.15145E-04-2.36887E-15
 -1       187 2.42649E-03-6.28760E-04-3.05883E-15
 -1       188 2.70313E-03-6.37546E-04-3.83166E-15
 -1       189 2.98112E-03-6.42867E-04-4.68675E-15
 -1       190 3.26038E-03-6.45746E-04-5.61875E-15
 -1       191 3.54081E-03-6.46934E-04-6.62509E-15
 -1       192 3.82226E-03-6.46977E-04-7.70719E-15
 -1       193 4.10457E-03-6.46254E-04-8.86025E-15
 -1       194 4.38760E-03-6.45019E-04-1.00850E-14
 -1       195 4.67123E-03-6.43424E-04-1.13775E-14
 -1       196 4.95534E-03-6.41547E-04-1.27358E-14
 -1       197 5.23988E-03-6.39405E-04-1.41601E-14
 -1       198 5.52479E-03-6.36971E-04-1.56520E-14
 -1       199 5.81008E-03-6.34184E-04-1.72085E-14
 -1       200 6.09579E-03-6.30962E-04-1.88326E-14
 -1       201 6.38201E-03-6.27212E-04-2.05203E-14
 -1       202 6.66889E-03-6.22841E-04-2.22765E-14
 -1       203 6.95664E-03-6.17783E-04-2.40999E-14
 -1       204 7.24556E-03-6.12014E-04-2.59762E-14
 -1       205 7.53601E-03-6.05591E-04-2.79029E-14
 -1       206 7.82845E-03-5.98699E-04-2.98796E-14
 -1       207 8.12345E-03-5.91713E-04-3.19134E-14
 -1       208 8.42163E-03-5.85279E-04-3.39981E-14
 -1       209 8.72368E-03-5.80415E-04-3.61308E-14
 -1       210 9.03027E-03-5.78626E-04-3.82999E-14
 -1       211 9.34197E-03-5.82019E-04-4.04950E-14
 -1       212 9.65906E-03-5.93371E-04-4.27110E-14
 -1       213 9.98133E-03-6.16086E-04-4.49537E-14
 -1       214 1.03077E-02-6.53897E-04-4.72235E-14
 -1       215 1.06361E-02-7.10133E-04-4.95192E-14
 -1       216 1.09629E-02-7.86343E-04-5.18340E-14
 -1       217 1.12833E-02-8.80273E-04-5.41655E-14
 -1       218 1.15917E-02-9.83640E-04-5.65136E-14
 -1       219 1.18835E-02-1.08097E-03-5.88916E-14
 -1       220 1.21569E-02-1.15131E-03-6.12954E-14
 -1       221 1.24149E-02-1.17380E-03-6.37124E-14
 -1       222 1.26644E-02-1.13523E-03-6.61461E-14
 -1       223 1.29138E-02-1.03509E-03-6.85994E-14
 -1       224 1.31694E-02-8.84336E-04-7.10598E-14
 -1       225 1.34340E-02-6.99221E-04-7.35290E-14
 -1       226 1.37069E-02-4.94976E-04-7.59997E-14
 -1       227 1.39861E-02-2.83261E-04-7.84870E-14
 -1       228 6.04626E-04 3.31032E-04-1.82010E-17
 -1       229 8.93757E-04 4.32653E-04-1.25568E-16
 -1       230 1.17269E-03 5.04412E-04-3.07900E-16
 -1       231 1.44708E-03 5.55522E-04-5.66418E-16
 -1       232 1.71994E-03 5.91806E-04-9.01816E-16
 -1       233 1.99289E-03 6.17247E-04-1.31476E-15
 -1       234 2.26677E-03 6.34721E-04-1.80579E-15
 -1       235 2.54199E-03 6.46367E-04-2.37479E-15
 -1       236 2.81867E-03 6.53791E-04-3.02349E-15
 -1       237 3.09679E-03 6.58201E-04-3.75030E-15
 -1       238 3.37626E-03 6.60499E-04-4.55462E-15
 -1       239 3.65690E-03 6.61345E-04-5.43467E-15
 -1       240 3.93855E-03 6.61210E-04-6.39011E-15
 -1       241 4.22105E-03 6.60420E-04-7.42339E-15
 -1       242 4.50424E-03 6.59184E-04-8.53408E-15
 -1       243 4.78800E-03 6.57623E-04-9.71844E-15
 -1       244 5.07223E-03 6.55788E-04-1.09840E-14
 -1       245 5.35686E-03 6.53675E-04-1.23265E-14
 -1       246 5.64187E-03 6.51242E-04-1.37396E-14
 -1       247 5.92727E-03 6.48414E-04-1.52252E-14
 -1       248 6.21312E-03 6.45095E-04-1.67751E-14
 -1       249 6.49955E-03 6.41181E-04-1.83938E-14
 -1       250 6.78673E-03 6.36569E-04-2.00777E-14
 -1       251 7.07494E-03 6.31179E-04-2.18225E-14
 -1       252 7.36455E-03 6.24978E-04-2.36299E-14
 -1       253 7.65602E-03 6.18014E-04-2.54990E-14
 -1       254 7.94998E-03 6.10469E-04-2.74160E-14
 -1       255 8.24716E-03 6.02737E-04-2.93741E-14
 -1       256 8.54850E-03 5.95519E-04-3.13738E-14
 -1       257 8.85504E-03 5.89974E-04-3.34121E-14
 -1       258 9.16796E-03 5.87904E-04-3.54854E-14
 -1       259 9.48843E-03 5.91984E-04-3.75945E-14
 -1       260 9.81743E-03 6.06020E-04-3.97412E-14
 -1       261 1.01554E-02 6.35122E-04-4.19231E-14
 -1       262 1.05018E-02 6.85605E-04-4.41416E-14
 -1       263 1.08543E-02 7.64206E-04-4.63873E-14
 -1       264 1.12079E-02 8.76014E-04-4.86659E-14
 -1       265 1.15552E-02 1.02058E-03-5.09800E-14
 -1       266 1.18866E-02 1.18671E-03-5.33220E-14
 -1       267 1.21938E-02 1.34883E-03-5.56896E-14
 -1       268 1.24740E-02 1.47019E-03-5.80696E-14
 -1       269 1.27335E-02 1.51610E-03-6.04703E-14
 -1       270 1.29857E-02 1.47110E-03-6.28738E-14
 -1       271 1.32436E-02 1.34600E-03-6.52718E-14
 -1       272 1.35133E-02 1.16812E-03-6.76537E-14
 -1       273 1.37930E-02 9.64094E-04-7.00259E-14
 -1       274 1.40777E-02 7.49213E-04-7.24021E-14
 -1       275 1.43632E-02 5.28664E-04-7.47889E-14
 -1       276 1.45784E-02 4.25096E-04-7.54426E-14
 -1       277 1.48058E-02 3.41153E-04-7.57536E-14
 -1       278 1.50538E-02 2.64317E-04-7.60543E-14
 -1       279 1.53208E-02 2.05252E-04-7.63485E-14
 -1       280 1.55799E-02 1.76165E-04-7.66388E-14
 -1       281 1.57948E-02 1.82566E-04-7.69401E-14
 -1       282 1.59054E-02 2.18867E-04-7.72428E-14
 -1       283 1.58756E-02 2.63797E-04-7.75409E-14
 -1       284 1.57127E-02 2.90848E-04-7.78392E-14
 -1       285 1.54630E-02 2.82609E-04-7.81464E-14
 -1       286 1.51877E-02 2.38162E-04-7.84641E-14
 -1       287 1.49183E-02 1.65134E-04-7.87986E-14
 -1       288 1.46777E-02 7.67062E-05-7.91362E-14
 -1       289 1.44651E-02-1.62553E-05-7.94632E-14
 -1       290 1.42230E-02-1.51613E-04-7.89819E-14
 -1       291 1.53580E-02 2.72649E-04-6.87853E-14
 -1       292 1.51868E-02 4.03149E-04-6.81985E-14
 -1       293 1.48608E-02 5.53503E-04-6.75474E-14
 -1       294 1.44471E-02 7.71433E-04-6.64290E-14
 -1       295 1.40109E-02 9.74308E-04-6.52801E-14
 -1       296 1.35598E-02 1.15324E-03-6.39931E-14
 -1       297 1.31290E-02 1.26450E-03-6.25490E-14
 -1       298 1.27073E-02 1.27680E-03-6.10947E-14
 -1       299 1.22822E-02 1.17417E-03-5.95438E-14
 -1       300 1.18282E-02 9.84100E-04-5.83759E-14
 -1       301 1.14321E-02 7.56520E-04-5.71950E-14
 -1       302 1.10203E-02 5.48898E-04-5.64547E-14
 -1       303 1.07051E-02 3.65982E-04-5.58508E-14
 -1       304 1.04987E-02 2.34390E-04-5.56620E-14
 -1       305 1.04320E-02 1.22694E-04-5.56393E-14
 -1       306 1.05162E-02 9.93167E-06-5.60428E-14
 -1       307 1.07324E-02-1.29696E-04-5.67170E-14
 -1       308 1.10769E-02-2.85266E-04-5.74729E-14
 -1       309 1.14952E-02-4.88820E-04-5.86228E-14
 -1       310 1.18851E-02-6.88232E-04-6.00301E-14
 -1       311 1.22962E-02-8.28271E-04-6.13694E-14
 -1       312 1.27036E-02-8.89605E-04-6.27957E-14
 -1       313 1.30937E-02-8.61129E-04-6.42332E-14
 -1       314 1.35282E-02-7.29098E-04-6.54705E-14
 -1       315 1.39859E-02-5.42180E-04-6.65966E-14
 -1       316 1.44223E-02-3.26986E-04-6.75944E-14
 -1       317 1.48340E-02-1.39039E-04-6.82426E-14
 -1       318 1.51607E-02 3.93016E-05-6.88152E-14
 -1       319 1.53522E-02 1.63006E-04-6.88981E-14
 -1       320 4.55413E-04-1.64770E-04-1.43884E-16
 -1       321 4.74292E-04-2.12961E-04-1.26340E-16
 -1       322 4.40436E-04-9.39933E-05-1.57145E-16
 -1       323 4.37460E-04-6.48938E-05-1.57585E-16
 -1       324 4.35829E-04-3.78954E-05-1.56237E-16
 -1       325 4.35115E-04-1.20142E-05-1.53137E-16
 -1       326 4.35145E-04 1.35322E-05-1.48668E-16
 -1       327 4.35926E-04 3.94713E-05-1.42271E-16
 -1       328 4.37600E-04 6.61222E-05-1.34045E-16
 -1       329 4.40668E-04 9.53935E-05-1.23467E-16
 -1       330 4.46069E-04 1.28304E-04-1.09006E-16
 -1       331 4.55919E-04 1.67285E-04-8.85759E-17
 -1       332 4.75927E-04 2.17030E-04-5.92618E-17
 -1       333 5.32065E-04 2.69961E-04-4.34087E-17
 -1       334 8.24575E-04 3.73497E-04-1.58277E-16
 -1       335 8.63345E-04-3.57394E-04-3.84936E-16
 -1       336 1.14973E-03-4.26161E-04-6.88194E-16
 -1       337 1.43254E-03-4.75351E-04-1.07867E-15
 -1       338 1.71329E-03-5.10118E-04-1.55436E-15
 -1       339 1.99310E-03-5.34262E-04-2.11486E-15
 -1       340 2.27274E-03-5.50611E-04-2.75919E-15
 -1       341 2.55266E-03-5.61284E-04-3.48634E-15
 -1       342 2.83312E-03-5.67877E-04-4.29437E-15
 -1       343 3.11424E-03-5.71584E-04-5.18173E-15
 -1       344 3.39605E-03-5.73291E-04-6.14355E-15
 -1       345 3.67850E-03-5.73642E-04-7.17990E-15
 -1       346 3.96155E-03-5.73092E-04-8.29016E-15
 -1       347 4.24512E-03-5.71950E-04-9.47010E-15
 -1       348 4.52914E-03-5.70411E-04-1.07199E-14
 -1       349 4.81354E-03-5.68583E-04-1.20365E-14
 -1       350 5.09828E-03-5.66505E-04-1.34193E-14
 -1       351 5.38333E-03-5.64163E-04-1.48685E-14
 -1       352 5.66869E-03-5.61504E-04-1.63850E-14
 -1       353 5.95437E-03-5.58448E-04-1.79687E-14
 -1       354 6.24043E-03-5.54895E-04-1.96174E-14
 -1       355 6.52697E-03-5.50740E-04-2.13321E-14
 -1       356 6.81411E-03-5.45888E-04-2.31138E-14
 -1       357 7.10203E-03-5.40272E-04-2.49550E-14
 -1       358 7.39097E-03-5.33886E-04-2.68477E-14
 -1       359 7.68122E-03-5.26820E-04-2.87920E-14
 -1       360 7.97314E-03-5.19318E-04-3.07885E-14
 -1       361 8.26714E-03-5.11844E-04-3.28413E-14
 -1       362 8.56370E-03-5.05181E-04-3.49415E-14
 -1       363 8.86332E-03-5.00534E-04-3.70840E-14
 -1       364 9.16654E-03-4.99657E-04-3.92566E-14
 -1       365 9.47387E-03-5.04962E-04-4.14540E-14
 -1       366 9.78571E-03-5.19571E-04-4.36762E-14
 -1       367 1.01022E-02-5.47221E-04-4.59251E-14
 -1       368 1.04232E-02-5.91861E-04-4.82012E-14
 -1       369 1.07476E-02-6.56735E-04-5.05023E-14
 -1       370 1.10733E-02-7.42709E-04-5.28241E-14
 -1       371 1.13965E-02-8.45825E-04-5.51609E-14
 -1       372 1.17123E-02-9.54700E-04-5.75201E-14
 -1       373 1.20160E-02-1.04959E-03-5.99061E-14
 -1       374 1.23062E-02-1.10572E-03-6.23086E-14
 -1       375 1.25863E-02-1.10183E-03-6.47239E-14
 -1       376 1.28636E-02-1.02977E-03-6.71562E-14
 -1       377 1.31445E-02-8.97452E-04-6.96051E-14
 -1       378 1.34308E-02-7.22706E-04-7.20593E-14
 -1       379 1.37204E-02-5.23765E-04-7.45176E-14
 -1       380 1.39727E-02-3.39143E-04-7.67408E-14
 -1       381 1.11009E-03 4.47827E-04-3.45711E-16
 -1       382 1.39087E-03 5.00908E-04-6.07970E-16
 -1       383 1.66922E-03 5.38551E-04-9.46641E-16
 -1       384 1.94667E-03 5.64879E-04-1.36201E-15
 -1       385 2.22413E-03 5.82905E-04-1.85509E-15
 -1       386 2.50216E-03 5.94870E-04-2.42553E-15
 -1       387 2.78102E-03 6.02457E-04-3.07500E-15
 -1       388 3.06081E-03 6.06929E-04-3.80172E-15
 -1       389 3.34154E-03 6.09225E-04-4.60497E-15
 -1       390 3.62312E-03 6.10034E-04-5.48368E-15
 -1       391 3.90548E-03 6.09847E-04-6.43703E-15
 -1       392 4.18850E-03 6.09000E-04-7.46596E-15
 -1       393 4.47208E-03 6.07712E-04-8.57249E-15
 -1       394 4.75614E-03 6.06107E-04-9.75402E-15
 -1       395 5.04061E-03 6.04240E-04-1.10144E-14
 -1       396 5.32543E-03 6.02107E-04-1.23504E-14
 -1       397 5.61060E-03 5.99663E-04-1.37575E-14
 -1       398 5.89613E-03 5.96828E-04-1.52362E-14
 -1       399 6.18206E-03 5.93504E-04-1.67824E-14
 -1       400 6.46851E-03 5.89575E-04-1.83970E-14
 -1       401 6.75562E-03 5.84928E-04-2.00736E-14
 -1       402 7.04361E-03 5.79467E-04-2.18137E-14
 -1       403 7.33275E-03 5.73134E-04-2.36137E-14
 -1       404 7.62342E-03 5.65949E-04-2.54762E-14
 -1       405 7.91609E-03 5.58053E-04-2.73901E-14
 -1       406 8.21132E-03 5.49784E-04-2.93461E-14
 -1       407 8.50980E-03 5.41773E-04-3.13457E-14
 -1       408 8.81231E-03 5.35083E-04-3.33832E-14
 -1       409 9.11971E-03 5.31395E-04-3.54584E-14
 -1       410 9.43294E-03 5.33236E-04-3.75660E-14
 -1       411 9.75283E-03 5.44245E-04-3.97115E-14
 -1       412 1.00801E-02 5.69385E-04-4.18912E-14
 -1       413 1.04149E-02 6.14951E-04-4.41022E-14
 -1       414 1.07567E-02 6.87999E-04-4.63441E-14
 -1       415 1.11033E-02 7.94620E-04-4.86141E-14
 -1       416 1.14506E-02 9.36395E-04-5.09159E-14
 -1       417 1.17916E-02 1.10486E-03-5.32494E-14
 -1       418 1.21179E-02 1.27626E-03-5.56097E-14
 -1       419 1.24243E-02 1.41235E-03-5.79865E-14
 -1       420 1.27134E-02 1.47277E-03-6.03863E-14
 -1       421 1.29956E-02 1.43675E-03-6.27907E-14
 -1       422 1.32821E-02 1.31434E-03-6.51896E-14
 -1       423 1.35767E-02 1.13627E-03-6.75744E-14
 -1       424 1.38756E-02 9.32628E-04-6.99481E-14
 -1       425 1.41725E-02 7.19850E-04-7.23226E-14
 -1       426 1.43764E-02 5.73659E-04-7.38830E-14
 -1       427 1.49292E-02 3.87067E-04-7.41429E-14
 -1       428 1.46687E-02 4.78512E-04-7.38367E-14
 -1       429 1.45170E-02 5.28196E-04-7.38610E-14
 -1       430 1.52057E-02 3.07914E-04-7.44376E-14
 -1       431 1.54736E-02 2.52407E-04-7.47334E-14
 -1       432 1.56655E-02 2.30275E-04-7.50287E-14
 -1       433 1.57156E-02 2.31224E-04-7.53172E-14
 -1       434 1.56017E-02 2.27212E-04-7.56123E-14
 -1       435 1.53639E-02 1.93963E-04-7.59104E-14
 -1       436 1.50777E-02 1.28625E-04-7.62149E-14
 -1       437 1.47900E-02 4.01740E-05-7.65279E-14
 -1       438 1.45335E-02-5.71040E-05-7.68406E-14
 -1       439 1.43120E-02-1.54340E-04-7.71557E-14
 -1       440 1.50376E-02 3.92142E-04-6.88550E-14
 -1       441 1.54058E-02 2.19816E-04-7.01338E-14
 -1       442 1.52823E-02 2.97614E-04-6.94427E-14
 -1       443 1.45752E-02 5.92710E-04-6.77079E-14
 -1       444 1.41396E-02 8.14657E-04-6.64658E-14
 -1       445 4.45600E-04-1.26462E-04-1.53174E-16
 -1       446 1.32670E-02 1.24106E-03-6.33990E-14
 -1       447 1.29083E-02 1.31782E-03-6.18100E-14
 -1       448 1.25506E-02 1.27717E-03-6.01319E-14
 -1       449 1.20777E-02 1.05480E-03-5.81393E-14
 -1       450 1.17347E-02 8.45200E-04-5.69605E-14
 -1       451 1.12567E-02 5.66501E-04-5.57842E-14
 -1       452 1.08944E-02 3.84798E-04-5.51906E-14
 -1       453 1.05817E-02 2.39747E-04-5.47695E-14
 -1       454 1.04302E-02 1.52806E-04-5.43957E-14
 -1       455 1.04440E-02 8.34670E-05-5.48813E-14
 -1       456 1.06210E-02-2.00418E-06-5.52665E-14
 -1       457 1.08873E-02-1.18859E-04-5.60174E-14
 -1       458 1.13183E-02-3.31264E-04-5.72940E-14
 -1       459 1.18071E-02-5.99307E-04-5.89882E-14
 -1       460 1.21283E-02-7.66952E-04-6.03191E-14
 -1       461 1.25136E-02-9.00178E-04-6.20638E-14
 -1       462 1.28326E-02-9.22756E-04-6.35723E-14
 -1       463 1.32708E-02-7.97703E-04-6.54619E-14
 -1       464 1.36664E-02-6.06643E-04-6.67567E-14
 -1       465 1.40876E-02-3.76315E-04-6.79727E-14
 -1       466 1.45783E-02-1.27532E-04-6.90811E-14
 -1       467 1.49430E-02 2.64022E-05-6.96486E-14
 -1       468 1.53135E-02 1.64549E-04-7.00578E-14
 -1       469 1.37087E-02 1.04348E-03-6.50625E-14
 -1       470 1.30197E-02-8.87630E-04-6.47961E-14
 -1       471 1.23181E-02 1.18967E-03-5.87197E-14
 -1       472 9.31318E-04 3.46019E-04-3.08317E-16
 -1       473 6.65796E-04-7.51249E-05-3.32606E-16
 -1       474 6.69772E-04-1.15878E-04-3.33650E-16
 -1       475 6.63117E-04 1.10363E-06-3.21137E-16
 -1       476 6.63839E-04 3.87607E-05-3.10621E-16
 -1       477 6.65984E-04 7.68095E-05-2.96899E-16
 -1       478 6.70089E-04 1.17717E-04-2.79243E-16
 -1       479 6.77112E-04 1.62333E-04-2.56604E-16
 -1       480 6.89042E-04 2.12697E-04-2.26287E-16
 -1       481 1.21722E-03 4.06520E-04-5.51510E-16
 -1       482 9.76345E-04-3.28640E-04-5.59662E-16
 -1       483 1.34549E-02 1.14854E-03-6.45854E-14
 -1       484 1.26229E-03-3.83510E-04-9.11634E-16
 -1       485 1.54732E-03-4.23284E-04-1.34748E-15
 -1       486 1.83146E-03-4.51378E-04-1.86640E-15
 -1       487 2.11502E-03-4.70697E-04-2.46712E-15
 -1       488 2.39831E-03-4.83536E-04-3.14967E-15
 -1       489 2.68157E-03-4.91667E-04-3.91197E-15
 -1       490 2.96497E-03-4.96440E-04-4.75282E-15
 -1       491 3.24860E-03-4.98866E-04-5.67089E-15
 -1       492 3.53249E-03-4.99689E-04-6.66335E-15
 -1       493 3.81666E-03-4.99444E-04-7.72898E-15
 -1       494 4.10110E-03-4.98500E-04-8.86681E-15
 -1       495 4.38578E-03-4.97100E-04-1.00722E-14
 -1       496 4.67068E-03-4.95385E-04-1.13474E-14
 -1       497 4.95578E-03-4.93424E-04-1.26876E-14
 -1       498 5.24107E-03-4.91223E-04-1.40962E-14
 -1       499 5.52654E-03-4.88745E-04-1.55715E-14
 -1       500 5.81220E-03-4.85919E-04-1.71137E-14
 -1       501 6.09808E-03-4.82648E-04-1.87247E-14
 -1       502 6.38422E-03-4.78826E-04-2.03984E-14
 -1       503 6.67069E-03-4.74344E-04-2.21388E-14
 -1       504 6.95757E-03-4.69109E-04-2.39422E-14
 -1       505 7.24498E-03-4.63067E-04-2.58015E-14
 -1       506 7.53308E-03-4.56237E-04-2.77142E-14
 -1       507 7.82206E-03-4.48747E-04-2.96756E-14
 -1       508 8.11214E-03-4.40901E-04-3.16934E-14
 -1       509 8.40365E-03-4.33246E-04-3.37624E-14
 -1       510 8.69694E-03-4.26673E-04-3.58753E-14
 -1       511 8.99249E-03-4.22521E-04-3.80248E-14
 -1       512 9.29094E-03-4.22702E-04-4.02019E-14
 -1       513 9.59309E-03-4.29802E-04-4.24045E-14
 -1       514 9.89997E-03-4.47140E-04-4.46350E-14
 -1       515 1.02128E-02-4.78680E-04-4.68922E-14
 -1       516 1.05327E-02-5.28659E-04-4.91750E-14
 -1       517 1.08602E-02-6.00640E-04-5.14848E-14
 -1       518 1.11940E-02-6.95573E-04-5.38117E-14
 -1       519 1.15300E-02-8.08480E-04-5.61558E-14
 -1       520 1.18612E-02-9.24427E-04-5.85245E-14
 -1       521 1.21808E-02-1.01699E-03-6.09112E-14
 -1       522 1.24877E-02-1.05466E-03-6.33078E-14
 -1       523 1.27884E-02-1.01622E-03-6.57229E-14
 -1       524 1.30925E-02-9.03417E-04-6.81574E-14
 -1       525 1.34036E-02-7.37496E-04-7.05998E-14
 -1       526 1.37174E-02-5.43436E-04-7.30404E-14
 -1       527 1.51974E-02 3.10893E-04-7.02121E-14
 -1       528 1.78412E-03 4.81137E-04-1.26280E-15
 -1       529 2.06614E-03 5.02537E-04-1.73223E-15
 -1       530 2.34791E-03 5.16918E-04-2.27777E-15
 -1       531 2.62977E-03 5.26196E-04-2.90139E-15
 -1       532 2.91193E-03 5.31821E-04-3.60245E-15
 -1       533 3.19450E-03 5.34881E-04-4.37941E-15
 -1       534 3.47750E-03 5.36178E-04-5.23073E-15
 -1       535 3.76094E-03 5.36292E-04-6.15612E-15
 -1       536 4.04478E-03 5.35627E-04-7.15544E-15
 -1       537 4.32898E-03 5.34453E-04-8.23141E-15
 -1       538 4.61350E-03 5.32933E-04-9.38318E-15
 -1       539 4.89830E-03 5.31149E-04-1.06114E-14
 -1       540 5.18336E-03 5.29120E-04-1.19144E-14
 -1       541 5.46866E-03 5.26815E-04-1.32893E-14
 -1       542 5.75422E-03 5.24166E-04-1.47364E-14
 -1       543 6.04005E-03 5.21078E-04-1.62526E-14
 -1       544 6.32621E-03 5.17435E-04-1.78355E-14
 -1       545 6.61279E-03 5.13114E-04-1.94872E-14
 -1       546 6.89989E-03 5.07999E-04-2.11958E-14
 -1       547 7.18768E-03 5.01998E-04-2.29679E-14
 -1       548 7.47634E-03 4.95073E-04-2.48017E-14
 -1       549 7.76614E-03 4.87274E-04-2.66930E-14
 -1       550 8.05736E-03 4.78806E-04-2.86302E-14
 -1       551 8.35037E-03 4.70096E-04-3.06142E-14
 -1       552 8.64560E-03 4.61913E-04-3.26391E-14
 -1       553 8.94357E-03 4.55508E-04-3.47020E-14
 -1       554 9.24488E-03 4.52811E-04-3.67993E-14
 -1       555 9.55033E-03 4.56659E-04-3.89317E-14
 -1       556 9.86093E-03 4.71050E-04-4.10952E-14
 -1       557 1.01781E-02 5.01345E-04-4.32925E-14
 -1       558 1.05035E-02 5.54259E-04-4.55183E-14
 -1       559 1.08391E-02 6.37296E-04-4.77684E-14
 -1       560 1.11858E-02 7.56952E-04-5.00453E-14
 -1       561 1.15416E-02 9.14539E-04-5.23533E-14
 -1       562 1.18987E-02 1.09835E-03-5.46926E-14
 -1       563 1.22457E-02 1.27560E-03-5.70552E-14
 -1       564 1.25750E-02 1.39419E-03-5.94477E-14
 -1       565 1.28931E-02 1.40971E-03-6.18538E-14
 -1       566 1.32139E-02 1.31529E-03-6.42582E-14
 -1       567 1.35445E-02 1.14632E-03-6.66517E-14
 -1       568 1.38784E-02 9.46391E-04-6.90334E-14
 -1       569 1.42034E-02 7.40808E-04-7.14086E-14
 -1       570 1.50948E-02 3.53101E-04-7.25215E-14
 -1       571 1.53802E-02 2.72335E-04-7.28167E-14
 -1       572 1.45141E-02 5.87815E-04-7.19275E-14
 -1       573 1.47893E-02 4.66499E-04-7.22249E-14
 -1       574 1.55441E-02 2.33592E-04-7.31072E-14
 -1       575 1.55037E-02 2.12386E-04-7.33933E-14
 -1       576 1.52761E-02 1.62933E-04-7.36839E-14
 -1       577 1.49651E-02 7.11852E-05-7.39755E-14
 -1       578 1.46494E-02-4.78419E-05-7.42742E-14
 -1       579 1.43756E-02-1.69856E-04-7.45755E-14
 -1       580 1.41468E-02-2.82881E-04-7.48780E-14
 -1       581 1.43236E-02 6.69559E-04-6.79224E-14
 -1       582 1.50135E-03 4.50215E-04-8.69222E-16
 -1       583 1.54045E-02 2.46902E-04-7.10008E-14
 -1       584 1.48198E-02 4.42189E-04-6.93087E-14
 -1       585 1.51895E-02 1.42615E-04-7.13288E-14
 -1       586 1.42987E-02-2.16785E-04-6.95520E-14
 -1       587 1.10772E-02-1.99384E-04-5.57231E-14
 -1       588 1.04687E-02 6.00698E-05-5.37805E-14
 -1       589 6.63727E-04-3.65177E-05-3.28324E-16
 -1       590 1.27523E-02 1.33716E-03-6.09589E-14
 -1       591 1.10398E-02 4.23724E-04-5.43240E-14
 -1       592 1.30379E-02 1.31514E-03-6.25487E-14
 -1       593 1.19198E-02 9.54020E-04-5.67114E-14
 -1       594 1.15524E-02-4.56269E-04-5.74190E-14
 -1       595 1.14782E-02 6.70701E-04-5.52220E-14
 -1       596 1.07027E-02 2.67899E-04-5.38241E-14
 -1       597 1.04915E-02 1.81134E-04-5.34531E-14
 -1       598 1.03783E-02 1.10823E-04-5.33010E-14
 -1       599 1.07120E-02-3.75966E-05-5.43849E-14
 -1       600 1.26167E-02-9.39921E-04-6.27132E-14
 -1       601 1.19757E-02-7.00797E-04-5.92752E-14
 -1       602 1.23034E-02-8.60005E-04-6.09655E-14
 -1       603 1.34413E-02-6.91154E-04-6.68557E-14
 -1       604 1.37963E-02-4.91560E-04-6.80723E-14
 -1       605 1.47752E-02-8.30317E-07-7.06254E-14
 -1       606 1.54124E-02 2.05008E-04-7.13280E-14
 -1       607 7.12662E-04-2.51811E-04-3.17709E-16
 -1       608 7.03864E-04 2.90879E-04-1.58839E-16
 -1       609 1.38710E-02 9.12735E-04-6.64983E-14
 -1       610 6.76615E-04-1.60035E-04-3.30306E-16
 -1       611 1.27931E-02-9.44173E-04-6.39316E-14
 -1       612 1.39237E-02-4.07078E-04-7.47024E-14
 -1       613 1.03683E-02 1.34272E-04-5.23625E-14
 -1       614 1.32011E-02-8.09614E-04-6.61912E-14
 -1       615 1.25250E-02 1.29742E-03-5.95406E-14
 -1       616 8.99723E-04 7.41099E-05-5.24679E-16
 -1       617 8.97630E-04 2.51782E-05-5.43768E-16
 -1       618 9.11823E-04 1.78227E-04-4.69429E-16
 -1       619 9.24209E-04 2.36791E-04-4.29910E-16
 -1       620 1.04892E-03 3.13918E-04-4.81352E-16
 -1       621 1.33467E-03 3.61569E-04-7.78616E-16
 -1       622 1.24369E-02-9.31399E-04-6.18365E-14
 -1       623 1.38333E-03-3.37070E-04-1.14580E-15
 -1       624 1.66952E-03-3.68017E-04-1.62387E-15
 -1       625 1.95574E-03-3.89835E-04-2.18273E-15
 -1       626 2.24178E-03-4.04686E-04-2.82162E-15
 -1       627 2.52764E-03-4.14362E-04-3.53913E-15
 -1       628 2.81335E-03-4.20282E-04-4.33460E-15
 -1       629 3.09897E-03-4.23542E-04-5.20826E-15
 -1       630 3.38454E-03-4.24961E-04-6.15687E-15
 -1       631 3.67009E-03-4.25140E-04-7.17928E-15
 -1       632 3.95564E-03-4.24503E-04-8.27289E-15
 -1       633 4.24120E-03-4.23336E-04-9.43622E-15
 -1       634 4.52679E-03-4.21818E-04-1.06683E-14
 -1       635 4.81241E-03-4.20047E-04-1.19671E-14
 -1       636 5.09805E-03-4.18054E-04-1.33331E-14
 -1       637 5.38374E-03-4.15822E-04-1.47683E-14
 -1       638 5.66946E-03-4.13297E-04-1.62695E-14
 -1       639 5.95522E-03-4.10395E-04-1.78400E-14
 -1       640 6.24104E-03-4.07015E-04-1.94750E-14
 -1       641 6.52692E-03-4.03049E-04-2.11720E-14
 -1       642 6.81288E-03-3.98393E-04-2.29370E-14
 -1       643 7.09895E-03-3.92964E-04-2.47613E-14
 -1       644 7.38517E-03-3.86726E-04-2.66393E-14
 -1       645 7.67157E-03-3.79721E-04-2.85716E-14
 -1       646 7.95826E-03-3.72111E-04-3.05562E-14
 -1       647 8.24535E-03-3.64236E-04-3.25928E-14
 -1       648 8.53307E-03-3.56685E-04-3.46757E-14
 -1       649 8.82176E-03-3.50380E-04-3.67996E-14
 -1       650 9.11199E-03-3.46681E-04-3.89549E-14
 -1       651 9.40464E-03-3.47495E-04-4.11373E-14
 -1       652 9.70110E-03-3.55399E-04-4.33484E-14
 -1       653 1.00034E-02-3.73758E-04-4.55868E-14
 -1       654 1.03141E-02-4.06805E-04-4.78525E-14
 -1       655 1.06362E-02-4.59539E-04-5.01466E-14
 -1       656 1.09721E-02-5.36987E-04-5.24598E-14
 -1       657 1.13212E-02-6.41988E-04-5.47892E-14
 -1       658 1.16774E-02-7.69276E-04-5.71441E-14
 -1       659 1.20297E-02-8.98382E-04-5.95202E-14
 -1       660 1.23679E-02-9.88820E-04-6.18994E-14
 -1       661 1.26941E-02-9.97500E-04-6.42950E-14
 -1       662 1.30212E-02-9.08955E-04-6.67137E-14
 -1       663 1.33586E-02-7.47498E-04-6.91456E-14
 -1       664 1.37027E-02-5.51905E-04-7.15744E-14
 -1       665 1.40270E-02-3.46559E-04-6.97650E-14
 -1       666 1.90574E-03 4.20770E-04-1.59754E-15
 -1       667 2.76019E-03 4.55602E-04-3.39240E-15
 -1       668 3.04487E-03 4.59593E-04-4.14356E-15
 -1       669 3.32962E-03 4.61536E-04-4.96892E-15
 -1       670 3.61447E-03 4.62091E-04-5.86802E-15
 -1       671 3.89943E-03 4.61728E-04-6.83922E-15
 -1       672 4.18452E-03 4.60768E-04-7.88621E-15
 -1       673 4.46972E-03 4.59416E-04-9.00799E-15
 -1       674 4.75504E-03 4.57785E-04-1.02050E-14
 -1       675 5.04046E-03 4.55922E-04-1.14777E-14
 -1       676 5.32599E-03 4.53816E-04-1.28221E-14
 -1       677 5.61163E-03 4.51417E-04-1.42370E-14
 -1       678 5.89738E-03 4.48642E-04-1.57221E-14
 -1       679 6.18328E-03 4.45384E-04-1.72758E-14
 -1       680 6.46934E-03 4.41526E-04-1.88976E-14
 -1       681 6.75559E-03 4.36946E-04-2.05800E-14
 -1       682 7.04210E-03 4.31536E-04-2.23213E-14
 -1       683 7.32891E-03 4.25225E-04-2.41273E-14
 -1       684 7.61611E-03 4.18004E-04-2.59913E-14
 -1       685 7.90376E-03 4.09977E-04-2.79092E-14
 -1       686 8.19199E-03 4.01414E-04-2.98755E-14
 -1       687 8.48092E-03 3.92833E-04-3.18865E-14
 -1       688 8.77074E-03 3.85108E-04-3.39362E-14
 -1       689 9.06175E-03 3.79604E-04-3.60227E-14
 -1       690 9.35448E-03 3.78345E-04-3.81459E-14
 -1       691 9.64986E-03 3.84214E-04-4.02998E-14
 -1       692 9.94952E-03 4.01189E-04-4.24803E-14
 -1       693 1.02562E-02 4.34611E-04-4.46917E-14
 -1       694 1.05740E-02 4.91455E-04-4.69282E-14
 -1       695 1.09083E-02 5.80326E-04-4.91886E-14
 -1       696 1.12639E-02 7.10592E-04-5.14743E-14
 -1       697 1.16400E-02 8.86665E-04-5.37911E-14
 -1       698 1.20249E-02 1.09394E-03-5.61316E-14
 -1       699 1.31173E-02 1.31795E-03-6.33157E-14
 -1       700 1.34868E-02 1.15129E-03-6.57144E-14
 -1       701 1.38628E-02 9.43952E-04-6.81043E-14
 -1       702 1.41921E-02 7.59147E-04-7.00149E-14
 -1       703 1.39286E-02-4.17492E-04-7.32241E-14
 -1       704 1.49236E-02 6.09783E-05-7.21913E-14
 -1       705 1.45242E-02-1.00659E-04-7.22090E-14
 -1       706 1.42214E-02-2.52941E-04-7.24990E-14
 -1       707 1.62038E-03 3.96253E-04-1.15073E-15
 -1       708 1.41433E-02 7.59194E-04-6.81841E-14
 -1       709 1.21154E-02-8.10378E-04-5.98766E-14
 -1       710 1.28905E-02 1.35901E-03-6.17708E-14
 -1       711 1.12481E-02-3.26191E-04-5.55947E-14
 -1       712 2.47551E-03 4.48662E-04-2.71753E-15
 -1       713 2.19074E-03 4.37574E-04-2.11906E-15
 -1       714 1.09774E-03-2.94649E-04-7.48991E-16
 -1       715 1.35906E-02 1.07325E-03-6.57234E-14
 -1       716 1.17163E-02-5.95534E-04-5.76977E-14
 -1       717 9.04185E-04 1.24614E-04-5.00336E-16
 -1       718 1.16469E-02 8.10199E-04-5.48466E-14
 -1       719 1.45492E-02-8.71519E-05-7.13517E-14
 -1       720 9.03823E-04-1.22207E-04-5.71961E-16
 -1       721 1.32179E-02 1.26436E-03-6.37514E-14
 -1       722 1.05492E-02 2.09797E-04-5.24204E-14
 -1       723 1.03408E-02 7.75755E-05-5.20206E-14
 -1       724 1.04912E-02 1.53825E-05-5.26161E-14
 -1       725 1.08148E-02 3.22542E-04-5.29185E-14
 -1       726 1.08470E-02-1.28509E-04-5.39843E-14
 -1       727 1.36190E-02-5.78918E-04-6.84205E-14
 -1       728 1.11617E-02 5.09395E-04-5.33418E-14
 -1       729 1.21694E-02 1.13564E-03-5.73919E-14
 -1       730 9.11256E-04-1.75620E-04-5.70883E-16
 -1       731 8.97570E-04-2.31629E-05-5.57903E-16
 -1       732 1.26018E-02-9.67818E-04-6.30492E-14
 -1       733 1.55114E-02 2.27215E-04-7.25193E-14
 -1       734 9.38250E-04-2.47146E-04-5.73075E-16
 -1       735 1.45645E-02 5.52998E-04-7.00773E-14
 -1       736 1.03774E-02 1.57535E-04-5.13338E-14
 -1       737 1.27620E-02 1.37273E-03-6.09073E-14
 -1       738 1.43578E-02 6.62718E-04-7.00475E-14
 -1       739 1.29703E-02-9.06751E-04-6.53200E-14
 -1       740 1.02722E-02 1.00068E-04-5.10891E-14
 -1       741 1.33862E-02-7.12152E-04-6.77567E-14
 -1       742 8.99523E-04-7.18292E-05-5.67390E-16
 -1       743 1.38498E-02 9.36474E-04-6.74916E-14
 -1       744 1.16154E-03 2.43657E-04-7.00157E-16
 -1       745 1.13003E-02 6.48868E-04-5.26912E-14
 -1       746 2.03273E-03 3.57728E-04-1.95117E-15
 -1       747 1.79729E-03-3.09544E-04-1.90719E-15
 -1       748 2.08494E-03-3.25664E-04-2.50355E-15
 -1       749 2.37273E-03-3.36491E-04-3.17736E-15
 -1       750 2.66043E-03-3.43379E-04-3.92841E-15
 -1       751 2.94792E-03-3.47418E-04-4.75692E-15
 -1       752 3.23518E-03-3.49451E-04-5.66180E-15
 -1       753 3.52220E-03-3.50112E-04-6.64027E-15
 -1       754 3.80899E-03-3.49857E-04-7.69078E-15
 -1       755 4.09559E-03-3.49005E-04-8.81049E-15
 -1       756 4.38200E-03-3.47765E-04-1.00005E-14
 -1       757 4.66826E-03-3.46259E-04-1.12571E-14
 -1       758 4.95439E-03-3.44544E-04-1.25807E-14
 -1       759 5.24040E-03-3.42626E-04-1.39751E-14
 -1       760 5.52628E-03-3.40469E-04-1.54365E-14
 -1       761 5.81205E-03-3.38010E-04-1.69648E-14
 -1       762 6.09768E-03-3.35162E-04-1.85607E-14
 -1       763 6.38315E-03-3.31827E-04-2.02194E-14
 -1       764 6.66842E-03-3.27903E-04-2.19417E-14
 -1       765 6.95345E-03-3.23295E-04-2.37289E-14
 -1       766 7.23819E-03-3.17936E-04-2.55737E-14
 -1       767 7.52256E-03-3.11804E-04-2.74740E-14
 -1       768 7.80652E-03-3.04957E-04-2.94281E-14
 -1       769 8.09005E-03-2.97565E-04-3.14316E-14
 -1       770 8.37317E-03-2.89963E-04-3.34854E-14
 -1       771 8.65603E-03-2.82707E-04-3.55819E-14
 -1       772 8.93898E-03-2.76642E-04-3.77133E-14
 -1       773 9.22270E-03-2.72989E-04-3.98765E-14
 -1       774 9.50842E-03-2.73457E-04-4.20679E-14
 -1       775 9.79813E-03-2.80407E-04-4.42863E-14
 -1       776 1.00949E-02-2.97131E-04-4.65339E-14
 -1       777 1.04032E-02-3.28326E-04-4.88091E-14
 -1       778 1.07283E-02-3.80646E-04-5.11085E-14
 -1       779 1.10751E-02-4.62317E-04-5.34244E-14
 -1       780 1.14450E-02-5.82262E-04-5.57640E-14
 -1       781 1.22095E-02-8.95825E-04-6.05299E-14
 -1       782 2.89344E-03 3.83412E-04-3.89950E-15
 -1       783 3.75268E-03 3.87176E-04-6.51760E-15
 -1       784 4.03883E-03 3.86524E-04-7.53662E-15
 -1       785 4.32489E-03 3.85426E-04-8.63023E-15
 -1       786 4.61088E-03 3.84028E-04-9.79582E-15
 -1       787 4.89680E-03 3.82403E-04-1.10381E-14
 -1       788 5.18267E-03 3.80563E-04-1.23517E-14
 -1       789 5.46850E-03 3.78481E-04-1.37372E-14
 -1       790 5.75427E-03 3.76092E-04-1.51915E-14
 -1       791 6.04000E-03 3.73307E-04-1.67146E-14
 -1       792 6.32567E-03 3.70022E-04-1.83060E-14
 -1       793 6.61125E-03 3.66124E-04-1.99614E-14
 -1       794 6.89672E-03 3.61506E-04-2.16779E-14
 -1       795 7.18203E-03 3.56082E-04-2.34527E-14
 -1       796 7.46712E-03 3.49812E-04-2.52910E-14
 -1       797 7.75191E-03 3.42732E-04-2.71855E-14
 -1       798 8.03631E-03 3.34998E-04-2.91330E-14
 -1       799 8.32021E-03 3.26939E-04-3.11265E-14
 -1       800 8.60351E-03 3.19131E-04-3.31639E-14
 -1       801 8.88618E-03 3.12479E-04-3.52388E-14
 -1       802 9.16834E-03 3.08319E-04-3.73505E-14
 -1       803 9.45045E-03 3.08529E-04-3.94970E-14
 -1       804 9.73363E-03 3.15677E-04-4.16673E-14
 -1       805 1.00201E-02 3.33260E-04-4.38621E-14
 -1       806 1.03141E-02 3.66168E-04-4.60866E-14
 -1       807 1.06223E-02 4.21695E-04-4.83349E-14
 -1       808 1.05633E-02-6.77362E-05-5.19664E-14
 -1       809 1.13821E-03 5.90579E-05-8.16889E-16
 -1       810 1.13762E-02-4.83133E-04-5.55879E-14
 -1       811 2.60670E-03 3.78487E-04-3.17478E-15
 -1       812 3.46641E-03 3.87142E-04-5.57241E-15
 -1       813 1.22453E-03-2.55024E-04-9.51611E-16
 -1       814 3.18000E-03 3.86060E-04-4.69897E-15
 -1       815 2.31978E-03 3.70335E-04-2.52511E-15
 -1       816 1.08268E-02 3.75547E-04-5.14543E-14
 -1       817 1.51020E-03-2.86555E-04-1.38977E-15
 -1       818 1.09571E-02-2.46212E-04-5.36741E-14
 -1       819 1.03040E-02 3.60122E-05-5.08184E-14
 -1       820 1.05809E-02 2.58415E-04-5.09650E-14
 -1       821 1.24624E-03 3.00849E-04-7.43088E-16
 -1       822 1.18644E-02-7.44435E-04-5.83478E-14
 -1       823 1.06661E-03-2.14935E-04-7.49926E-16
 -1       824 1.38581E-02-4.45386E-04-7.03747E-14
 -1       825 1.13683E-03 1.19628E-06-8.40629E-16
 -1       826 1.14978E-03 1.79136E-04-7.47581E-16
 -1       827 1.36281E-02-5.81470E-04-6.97122E-14
 -1       828 1.05675E-03-1.54462E-04-7.53409E-16
 -1       829 1.74569E-03 3.39132E-04-1.45282E-15
 -1       830 1.02312E-02 1.19234E-04-5.00670E-14
 -1       831 1.08937E-02 4.84737E-04-5.03211E-14
 -1       832 1.05075E-03-9.73234E-05-7.48984E-16
 -1       833 1.14231E-03 1.17796E-04-7.86175E-16
 -1       834 1.01975E-02 6.41075E-05-4.98941E-14
 -1       835 1.49560E-03 3.24141E-04-1.06767E-15
 -1       836 2.21828E-03-2.58953E-04-2.82772E-15
 -1       837 2.50734E-03-2.66294E-04-3.53521E-15
 -1       838 2.79635E-03-2.70821E-04-4.31913E-15
 -1       839 3.08510E-03-2.73325E-04-5.17919E-15
 -1       840 3.37351E-03-2.74418E-04-6.11332E-15
 -1       841 3.66155E-03-2.74553E-04-7.11903E-15
 -1       842 3.94921E-03-2.74057E-04-8.19606E-15
 -1       843 4.23652E-03-2.73150E-04-9.34362E-15
 -1       844 4.52351E-03-2.71971E-04-1.05585E-14
 -1       845 4.81021E-03-2.70595E-04-1.18395E-14
 -1       846 5.09664E-03-2.69048E-04-1.31911E-14
 -1       847 5.38280E-03-2.67315E-04-1.46122E-14
 -1       848 5.66869E-03-2.65354E-04-1.61008E-14
 -1       849 5.95430E-03-2.63099E-04-1.76558E-14
 -1       850 6.23956E-03-2.60470E-04-1.92771E-14
 -1       851 6.52441E-03-2.57377E-04-2.09616E-14
 -1       852 6.80876E-03-2.53730E-04-2.27077E-14
 -1       853 7.09249E-03-2.49449E-04-2.45155E-14
 -1       854 7.37544E-03-2.44477E-04-2.63822E-14
 -1       855 7.65746E-03-2.38803E-04-2.83058E-14
 -1       856 7.93839E-03-2.32476E-04-3.02792E-14
 -1       857 8.21807E-03-2.25643E-04-3.23025E-14
 -1       858 8.49643E-03-2.18575E-04-3.43739E-14
 -1       859 8.77352E-03-2.11708E-04-3.64813E-14
 -1       860 9.04965E-03-2.05687E-04-3.86228E-14
 -1       861 9.32552E-03-2.01435E-04-4.07934E-14
 -1       862 9.60250E-03-2.00257E-04-4.29939E-14
 -1       863 9.88299E-03-2.04083E-04-4.52243E-14
 -1       864 1.01709E-02-2.15977E-04-4.74777E-14
 -1       865 1.04727E-02-2.41350E-04-4.97585E-14
 -1       866 1.07966E-02-2.89501E-04-5.20592E-14
 -1       867 2.74114E-03 3.06641E-04-3.64849E-15
 -1       868 4.17922E-03 3.10872E-04-8.24686E-15
 -1       869 2.45269E-03 3.01025E-04-2.94889E-15
 -1       870 1.05820E-02 3.25257E-04-4.94599E-14
 -1       871 3.89221E-03 3.11648E-04-7.18114E-15
 -1       872 4.75251E-03 3.08457E-04-1.05957E-14
 -1       873 5.03883E-03 3.06948E-04-1.18797E-14
 -1       874 5.32494E-03 3.05243E-04-1.32352E-14
 -1       875 5.61086E-03 3.03300E-04-1.46604E-14
 -1       876 5.89656E-03 3.01054E-04-1.61535E-14
 -1       877 6.18202E-03 2.98419E-04-1.77165E-14
 -1       878 6.46716E-03 2.95301E-04-1.93436E-14
 -1       879 6.75192E-03 2.91605E-04-2.10321E-14
 -1       880 7.03617E-03 2.87249E-04-2.27820E-14
 -1       881 7.31976E-03 2.82180E-04-2.45920E-14
 -1       882 7.60250E-03 2.76397E-04-2.64624E-14
 -1       883 7.88415E-03 2.69983E-04-2.83885E-14
 -1       884 8.16444E-03 2.63139E-04-3.03650E-14
 -1       885 8.44303E-03 2.56230E-04-3.23852E-14
 -1       886 8.71960E-03 2.49835E-04-3.44480E-14
 -1       887 8.99386E-03 2.44795E-04-3.65486E-14
 -1       888 9.26569E-03 2.42252E-04-3.86832E-14
 -1       889 9.53531E-03 2.43694E-04-4.08477E-14
 -1       890 9.80364E-03 2.51027E-04-4.30345E-14
 -1       891 1.00729E-02 2.66747E-04-4.52453E-14
 -1       892 1.03230E-02 2.88353E-04-4.73397E-14
 -1       893 1.03368E-02 1.84148E-04-4.97249E-14
 -1       894 1.64156E-03-2.31787E-04-1.64305E-15
 -1       895 1.21222E-03-1.88435E-04-9.57730E-16
 -1       896 4.46598E-03 3.09778E-04-9.38467E-15
 -1       897 1.09275E-03-4.91792E-05-7.97075E-16
 -1       898 3.60491E-03 3.11937E-04-6.18876E-15
 -1       899 1.92950E-03-2.47825E-04-2.19699E-15
 -1       900 1.41043E-03 2.65986E-04-1.01638E-15
 -1       901 1.06328E-02-1.77191E-04-5.14837E-14
 -1       902 1.02725E-02-3.61917E-05-4.96033E-14
 -1       903 1.42607E-03-2.11731E-04-1.27852E-15
 -1       904 2.16417E-03 2.92123E-04-2.32409E-15
 -1       905 1.38097E-03 3.41122E-05-1.17293E-15
 -1       906 1.87589E-03 2.78807E-04-1.77506E-15
 -1       907 1.01168E-02 8.44910E-05-4.88827E-14
 -1       908 1.20436E-03-1.25234E-04-9.54501E-16
 -1       909 3.31730E-03 3.11477E-04-5.26825E-15
 -1       910 1.38413E-03 9.98601E-05-1.13679E-15
 -1       911 3.02937E-03 3.09889E-04-4.42163E-15
 -1       912 1.01373E-02 3.73984E-06-4.86888E-14
 -1       913 1.37935E-03-3.24152E-05-1.19815E-15
 -1       914 2.58901E-03 2.29825E-04-3.39024E-15
 -1       915 2.64518E-03-1.94286E-04-3.89446E-15
 -1       916 2.93508E-03-1.96920E-04-4.70913E-15
 -1       917 3.22466E-03-1.98253E-04-5.59898E-15
 -1       918 3.51380E-03-1.98688E-04-6.56081E-15
 -1       919 3.80247E-03-1.98521E-04-7.59405E-15
 -1       920 4.09065E-03-1.97958E-04-8.69741E-15
 -1       921 4.37838E-03-1.97138E-04-9.87060E-15
 -1       922 4.66569E-03-1.96141E-04-1.11108E-14
 -1       923 4.95259E-03-1.95004E-04-1.24194E-14
 -1       924 5.23911E-03-1.93732E-04-1.37989E-14
 -1       925 5.52524E-03-1.92302E-04-1.52466E-14
 -1       926 5.81096E-03-1.90671E-04-1.67620E-14
 -1       927 6.09622E-03-1.88781E-04-1.83434E-14
 -1       928 6.38092E-03-1.86563E-04-1.99901E-14
 -1       929 6.66495E-03-1.83942E-04-2.16992E-14
 -1       930 6.94815E-03-1.80844E-04-2.34692E-14
 -1       931 7.23030E-03-1.77204E-04-2.53006E-14
 -1       932 7.51118E-03-1.72971E-04-2.71910E-14
 -1       933 7.79051E-03-1.68126E-04-2.91339E-14
 -1       934 8.06801E-03-1.62692E-04-3.11261E-14
 -1       935 8.34339E-03-1.56749E-04-3.31702E-14
 -1       936 8.61643E-03-1.50449E-04-3.52564E-14
 -1       937 8.88701E-03-1.44033E-04-3.73767E-14
 -1       938 9.15522E-03-1.37845E-04-3.95253E-14
 -1       939 9.42154E-03-1.32378E-04-4.17064E-14
 -1       940 9.68704E-03-1.28370E-04-4.39188E-14
 -1       941 9.95390E-03-1.27144E-04-4.61530E-14
 -1       942 1.02259E-02-1.31316E-04-4.84133E-14
 -1       943 5.46725E-03 2.30144E-04-1.41267E-14
 -1       944 1.44666E-03 1.93713E-04-1.15073E-15
 -1       945 4.03301E-03 2.35725E-04-7.85850E-15
 -1       946 5.18109E-03 2.31598E-04-1.27297E-14
 -1       947 4.89459E-03 2.32880E-04-1.14042E-14
 -1       948 5.75307E-03 2.28474E-04-1.55921E-14
 -1       949 6.03850E-03 2.26528E-04-1.71254E-14
 -1       950 6.32345E-03 2.24236E-04-1.87252E-14
 -1       951 6.60783E-03 2.21523E-04-2.03866E-14
 -1       952 6.89148E-03 2.18323E-04-2.21104E-14
 -1       953 7.17418E-03 2.14585E-04-2.38941E-14
 -1       954 7.45569E-03 2.10296E-04-2.57387E-14
 -1       955 7.73568E-03 2.05497E-04-2.76426E-14
 -1       956 8.01375E-03 2.00311E-04-2.95992E-14
 -1       957 8.28944E-03 1.94968E-04-3.16025E-14
 -1       958 8.56223E-03 1.89841E-04-3.36522E-14
 -1       959 8.83152E-03 1.85459E-04-3.57401E-14
 -1       960 9.09670E-03 1.82517E-04-3.78641E-14
 -1       961 9.35722E-03 1.81856E-04-4.00169E-14
 -1       962 9.61263E-03 1.84430E-04-4.21969E-14
 -1       963 9.86291E-03 1.91334E-04-4.43978E-14
 -1       964 2.29940E-03 2.24055E-04-2.71653E-15
 -1       965 3.74503E-03 2.36153E-04-6.81884E-15
 -1       966 2.06550E-03-1.82890E-04-2.49060E-15
 -1       967 1.64264E-03 2.75327E-04-1.36941E-15
 -1       968 1.01193E-02 1.36637E-04-4.81003E-14
 -1       969 1.77671E-03-1.72733E-04-1.90321E-15
 -1       970 2.35519E-03-1.89826E-04-3.15460E-15
 -1       971 1.02089E-02 2.02636E-04-4.77257E-14
 -1       972 2.87853E-03 2.33353E-04-4.13807E-15
 -1       973 1.41716E-03-1.42406E-04-1.27399E-15
 -1       974 3.45662E-03 2.36090E-04-5.85294E-15
 -1       975 2.01008E-03 2.15250E-04-2.11729E-15
 -1       976 1.00200E-02 3.17784E-05-4.76873E-14
 -1       977 1.29081E-03-8.07367E-05-1.07620E-15
 -1       978 1.59640E-03-1.58105E-04-1.57371E-15
 -1       979 1.00382E-02 1.95363E-04-4.60537E-14
 -1       980 3.16777E-03 2.35278E-04-4.95895E-15
 -1       981 4.60776E-03 2.34010E-04-1.01503E-14
 -1       982 4.32057E-03 2.34975E-04-8.96861E-15
 -1       983 1.62667E-03 5.74609E-07-1.58908E-15
 -1       984 1.62838E-03 7.21163E-05-1.54929E-15
 -1       985 1.00556E-02-6.04956E-05-4.74260E-14
 -1       986 2.72832E-03 1.56949E-04-3.84798E-15
 -1       987 1.63176E-03 1.72223E-04-1.46944E-15
 -1       988 3.07627E-03-1.21933E-04-5.09784E-15
 -1       989 3.36629E-03-1.22461E-04-6.01587E-15
 -1       990 3.65580E-03-1.22512E-04-7.00393E-15
 -1       991 3.94475E-03-1.22246E-04-8.06431E-15
 -1       992 4.23315E-03-1.21772E-04-9.19487E-15
 -1       993 4.52103E-03-1.21162E-04-1.03934E-14
 -1       994 4.80842E-03-1.20451E-04-1.16612E-14
 -1       995 5.09533E-03-1.19653E-04-1.29973E-14
 -1       996 5.38177E-03-1.18762E-04-1.44040E-14
 -1       997 5.66772E-03-1.17754E-04-1.58793E-14
 -1       998 5.95313E-03-1.16596E-04-1.74193E-14
 -1       999 6.23791E-03-1.15243E-04-1.90269E-14
 -1      1000 6.52193E-03-1.13646E-04-2.06994E-14
 -1      1001 6.80502E-03-1.11747E-04-2.24336E-14
 -1      1002 7.08695E-03-1.09491E-04-2.42288E-14
 -1      1003 7.36743E-03-1.06822E-04-2.60824E-14
 -1      1004 7.64613E-03-1.03688E-04-2.79931E-14
 -1      1005 7.92266E-03-1.00048E-04-2.99558E-14
 -1      1006 8.19662E-03-9.58733E-05-3.19685E-14
 -1      1007 8.46754E-03-9.11469E-05-3.40309E-14
 -1      1008 8.73500E-03-8.58658E-05-3.61334E-14
 -1      1009 8.99858E-03-8.00332E-05-3.82653E-14
 -1      1010 9.25794E-03-7.36560E-05-4.04249E-14
 -1      1011 9.51289E-03-6.67671E-05-4.26158E-14
 -1      1012 9.76350E-03-5.95069E-05-4.48330E-14
 -1      1013 5.89514E-03 1.54191E-04-1.65332E-14
 -1      1014 5.60959E-03 1.55444E-04-1.50278E-14
 -1      1015 5.03705E-03 1.57473E-04-1.22234E-14
 -1      1016 6.18013E-03 1.52723E-04-1.81046E-14
 -1      1017 6.46444E-03 1.50992E-04-1.97405E-14
 -1      1018 6.74789E-03 1.48951E-04-2.14398E-14
 -1      1019 7.03027E-03 1.46567E-04-2.31996E-14
 -1      1020 7.31128E-03 1.43827E-04-2.50197E-14
 -1      1021 7.59057E-03 1.40757E-04-2.68967E-14
 -1      1022 7.86770E-03 1.37434E-04-2.88324E-14
 -1      1023 8.14213E-03 1.34012E-04-3.08164E-14
 -1      1024 8.41325E-03 1.30733E-04-3.28491E-14
 -1      1025 8.68033E-03 1.27948E-04-3.49264E-14
 -1      1026 8.94252E-03 1.26111E-04-3.70393E-14
 -1      1027 9.19880E-03 1.25755E-04-3.91790E-14
 -1      1028 9.44794E-03 1.27422E-04-4.13507E-14
 -1      1029 9.68844E-03 1.31662E-04-4.35483E-14
 -1      1030 2.43797E-03 1.53689E-04-3.12687E-15
 -1      1031 3.88661E-03 1.60026E-04-7.46455E-15
 -1      1032 5.32354E-03 1.56526E-04-1.35902E-14
 -1      1033 1.91527E-03-1.09558E-04-2.16806E-15
 -1      1034 9.96307E-03 9.35280E-05-4.69075E-14
 -1      1035 2.78586E-03-1.20707E-04-4.25302E-15
 -1      1036 2.49526E-03-1.18489E-04-3.48297E-15
 -1      1037 2.20488E-03-1.14903E-04-2.78791E-15
 -1      1038 1.62667E-03-7.24348E-05-1.61672E-15
 -1      1039 3.59776E-03 1.60147E-04-6.45077E-15
 -1      1040 4.75014E-03 1.58308E-04-1.09280E-14
 -1      1041 2.14786E-03 1.48592E-04-2.47913E-15
 -1      1042 3.01854E-03 1.58866E-04-4.64344E-15
 -1      1043 9.85518E-03 1.32902E-04-4.51956E-14
 -1      1044 4.17493E-03 1.59622E-04-8.54871E-15
 -1      1045 1.91380E-03-3.08771E-05-2.13777E-15
 -1      1046 9.89793E-03-1.29908E-05-4.62615E-14
 -1      1047 1.91419E-03 4.60233E-05-2.09264E-15
 -1      1048 3.21957E-03-4.61644E-05-5.48389E-15
 -1      1049 3.50968E-03-4.62262E-05-6.42772E-15
 -1      1050 3.79920E-03-4.61408E-05-7.44399E-15
 -1      1051 4.08815E-03-4.59492E-05-8.53089E-15
 -1      1052 4.37651E-03-4.56957E-05-9.68742E-15
 -1      1053 4.66430E-03-4.53970E-05-1.09125E-14
 -1      1054 4.95158E-03-4.50590E-05-1.22082E-14
 -1      1055 5.23834E-03-4.46882E-05-1.35715E-14
 -1      1056 5.52457E-03-4.42747E-05-1.50068E-14
 -1      1057 5.81024E-03-4.38061E-05-1.65057E-14
 -1      1058 6.09527E-03-4.32644E-05-1.80752E-14
 -1      1059 6.37952E-03-4.26261E-05-1.97087E-14
 -1      1060 6.66285E-03-4.18626E-05-2.14065E-14
 -1      1061 6.94500E-03-4.09392E-05-2.31650E-14
 -1      1062 7.22571E-03-3.98141E-05-2.49846E-14
 -1      1063 7.50460E-03-3.84368E-05-2.68597E-14
 -1      1064 7.78126E-03-3.67451E-05-2.87884E-14
 -1      1065 8.05519E-03-3.46615E-05-3.07702E-14
 -1      1066 8.32584E-03-3.20871E-05-3.28056E-14
 -1      1067 8.59257E-03-2.88949E-05-3.48847E-14
 -1      1068 8.85467E-03-2.49199E-05-3.70005E-14
 -1      1069 9.11133E-03-1.99489E-05-3.91438E-14
 -1      1070 9.36152E-03-1.37090E-05-4.13152E-14
 -1      1071 9.60394E-03-6.03204E-06-4.35130E-14
 -1      1072 6.32161E-03 7.98044E-05-1.90928E-14
 -1      1073 6.03714E-03 8.06106E-05-1.74819E-14
 -1      1074 6.88771E-03 7.77586E-05-2.25017E-14
 -1      1075 7.16883E-03 7.65071E-05-2.42995E-14
 -1      1076 7.44822E-03 7.51268E-05-2.61545E-14
 -1      1077 7.72543E-03 7.36749E-05-2.80607E-14
 -1      1078 7.99996E-03 7.22551E-05-3.00265E-14
 -1      1079 8.27117E-03 7.10314E-05-3.20426E-14
 -1      1080 8.53834E-03 7.02406E-05-3.41036E-14
 -1      1081 8.80059E-03 7.01984E-05-3.62053E-14
 -1      1082 9.05686E-03 7.12938E-05-3.83359E-14
 -1      1083 9.30576E-03 7.39639E-05-4.04950E-14
 -1      1084 9.54522E-03 7.85093E-05-4.26836E-14
 -1      1085 5.46616E-03 8.18835E-05-1.44617E-14
 -1      1086 2.57949E-03 8.12974E-05-3.55437E-15
 -1      1087 6.60521E-03 7.88580E-05-2.07667E-14
 -1      1088 5.75195E-03 8.12963E-05-1.59381E-14
 -1      1089 9.76038E-03 7.94197E-05-4.48193E-14
 -1      1090 3.30839E-03 1.59833E-04-5.51025E-15
 -1      1091 2.63812E-03-4.52569E-05-3.81120E-15
 -1      1092 2.92899E-03-4.58738E-05-4.61064E-15
 -1      1093 5.17983E-03 8.23916E-05-1.30538E-14
 -1      1094 9.81305E-03 3.59055E-05-4.55436E-14
 -1      1095 4.46277E-03 1.59029E-04-9.70265E-15
 -1      1096 1.87854E-03 1.30777E-04-1.95365E-15
 -1      1097 4.89299E-03 8.28337E-05-1.17161E-14
 -1      1098 2.28882E-03 7.90713E-05-2.85987E-15
 -1      1099 2.87027E-03 8.26850E-05-4.32272E-15
 -1      1100 2.34728E-03-4.41924E-05-3.08661E-15
 -1      1101 3.74044E-03 8.38959E-05-7.06337E-15
 -1      1102 4.02941E-03 8.37829E-05-8.12302E-15
 -1      1103 3.65442E-03 3.01856E-05-6.83608E-15
 -1      1104 4.52047E-03 3.01105E-05-1.01758E-14
 -1      1105 3.16081E-03 8.34670E-05-5.16385E-15
 -1      1106 3.45090E-03 8.38276E-05-6.07734E-15
 -1      1107 4.27506E-03 5.68787E-05-9.12258E-15
 -1      1108 0.00000E+00 0.00000E+00 0.00000E+00
 -1      1109 0.00000E+00 0.00000E+00 0.00000E+00
 -1      1110 0.00000E+00 0.00000E+00 0.00000E+00
 -1      1111 0.00000E+00 0.00000E+00 0.00000E+00
 -1      1112 0.00000E+00 0.00000E+00 0.00000E+00
 -1      1113 0.00000E+00 0.00000E+00 0.00000E+00
 -1      1114 0.00000E+00 0.00000E+00 0.00000E+00
 -1      1115 0.00000E+00 0.00000E+00 0.00000E+00
 -1      1116 0.00000E+00 0.00000E+00 0.00000E+00
 -1      1117 0.00000E+00 0.00000E+00 0.00000E+00
 -1      1118 0.00000E+00 0.00000E+00 0.00000E+00
 -1      1119 0.00000E+00 0.00000E+00 0.00000E+00
 -1      1120 0.00000E+00 0.00000E+00 0.00000E+00
 -1      1121 0.00000E+00 0.00000E+00 0.00000E+00
 -1      1122 0.00000E+00 0.00000E+00 0.00000E+00
 -1      1123 0.00000E+00 0.00000E+00 0.00000E+00
 -1      1124 0.00000E+00 0.00000E+00 0.00000E+00
 -1      1125 2.11679E-04-1.48332E-04 4.87891E-18
 -1      1126 5.51679E-04-3.37507E-04-4.65529E-17
 -1      1127 8.33539E-04-4.58997E-04-1.86158E-16
 -1      1128 1.10316E-03-5.40686E-04-4.27013E-16
 -1      1129 1.36863E-03-5.97949E-04-7.63888E-16
 -1      1130 1.63350E-03-6.38684E-04-1.19222E-15
 -1      1131 1.89964E-03-6.67545E-04-1.70972E-15
 -1      1132 2.16788E-03-6.87656E-04-2.31511E-15
 -1      1133 2.43852E-03-7.01307E-04-3.00811E-15
 -1      1134 2.71155E-03-7.10228E-04-3.78696E-15
 -1      1135 2.98680E-03-7.15730E-04-4.64936E-15
 -1      1136 3.26403E-03-7.18803E-04-5.58769E-15
 -1      1137 3.54297E-03-7.20182E-04-6.60159E-15
 -1      1138 3.82332E-03-7.20399E-04-7.69166E-15
 -1      1139 4.10483E-03-7.19831E-04-8.85392E-15
 -1      1140 4.38728E-03-7.18731E-04-1.00864E-14
 -1      1141 4.67046E-03-7.17254E-04-1.13874E-14
 -1      1142 4.95421E-03-7.15481E-04-1.27559E-14
 -1      1143 5.23844E-03-7.13435E-04-1.41869E-14
 -1      1144 5.52306E-03-7.11097E-04-1.56864E-14
 -1      1145 5.80807E-03-7.08414E-04-1.72545E-14
 -1      1146 6.09349E-03-7.05312E-04-1.88856E-14
 -1      1147 6.37943E-03-7.01708E-04-2.05785E-14
 -1      1148 6.66607E-03-6.97525E-04-2.23414E-14
 -1      1149 6.95365E-03-6.92708E-04-2.41758E-14
 -1      1150 7.24255E-03-6.87249E-04-2.60608E-14
 -1      1151 7.53322E-03-6.81220E-04-2.79925E-14
 -1      1152 7.82628E-03-6.74821E-04-2.99780E-14
 -1      1153 8.12246E-03-6.68441E-04-3.20241E-14
 -1      1154 8.42263E-03-6.62734E-04-3.41192E-14
 -1      1155 8.72775E-03-6.58718E-04-3.62544E-14
 -1      1156 9.03877E-03-6.57885E-04-3.84314E-14
 -1      1157 9.35655E-03-6.62311E-04-4.06325E-14
 -1      1158 9.68152E-03-6.74719E-04-4.28553E-14
 -1      1159 1.00134E-02-6.98426E-04-4.51085E-14
 -1      1160 1.03505E-02-7.37041E-04-4.73914E-14
 -1      1161 1.06895E-02-7.93717E-04-4.96901E-14
 -1      1162 1.10246E-02-8.69776E-04-5.20100E-14
 -1      1163 1.13480E-02-9.62709E-04-5.43456E-14
 -1      1164 1.16510E-02-1.06407E-03-5.66935E-14
 -1      1165 1.19266E-02-1.15855E-03-5.90766E-14
 -1      1166 1.21727E-02-1.22583E-03-6.14907E-14
 -1      1167 1.23947E-02-1.24602E-03-6.39177E-14
 -1      1168 1.26044E-02-1.20662E-03-6.63604E-14
 -1      1169 1.28158E-02-1.10698E-03-6.88211E-14
 -1      1170 1.30397E-02-9.57244E-04-7.12870E-14
 -1      1171 1.32811E-02-7.72902E-04-7.37683E-14
 -1      1172 1.35396E-02-5.68921E-04-7.62508E-14
 -1      1173 1.38124E-02-3.57433E-04-7.87400E-14
 -1      1174 1.40880E-02-1.53257E-04-8.12000E-14
 -1      1175 2.28438E-04 1.60710E-04 2.62377E-17
 -1      1176 5.53851E-04 3.42139E-04 3.29326E-17
 -1      1177 8.34468E-04 4.61164E-04-2.61835E-17
 -1      1178 1.10406E-03 5.42370E-04-1.61058E-16
 -1      1179 1.36953E-03 5.99628E-04-3.73047E-16
 -1      1180 1.63446E-03 6.40454E-04-6.64020E-16
 -1      1181 1.90065E-03 6.69422E-04-1.03305E-15
 -1      1182 2.16892E-03 6.89652E-04-1.47838E-15
 -1      1183 2.43959E-03 7.03430E-04-2.00346E-15
 -1      1184 2.71264E-03 7.12483E-04-2.60774E-15
 -1      1185 2.98790E-03 7.18121E-04-3.29221E-15
 -1      1186 3.26514E-03 7.21330E-04-4.05360E-15
 -1      1187 3.54408E-03 7.22846E-04-4.89363E-15
 -1      1188 3.82444E-03 7.23201E-04-5.81047E-15
 -1      1189 4.10595E-03 7.22770E-04-6.80348E-15
 -1      1190 4.38839E-03 7.21807E-04-7.87993E-15
 -1      1191 4.67157E-03 7.20466E-04-9.03037E-15
 -1      1192 4.95532E-03 7.18827E-04-1.02565E-14
 -1      1193 5.23953E-03 7.16914E-04-1.15652E-14
 -1      1194 5.52414E-03 7.14702E-04-1.29502E-14
 -1      1195 5.80912E-03 7.12135E-04-1.44023E-14
 -1      1196 6.09452E-03 7.09134E-04-1.59186E-14
 -1      1197 6.38043E-03 7.05605E-04-1.75039E-14
 -1      1198 6.66702E-03 7.01454E-04-1.91629E-14
 -1      1199 6.95457E-03 6.96603E-04-2.08852E-14
 -1      1200 7.24346E-03 6.91007E-04-2.26633E-14
 -1      1201 7.53419E-03 6.84693E-04-2.45051E-14
 -1      1202 7.82746E-03 6.77797E-04-2.64013E-14
 -1      1203 8.12412E-03 6.70631E-04-2.83386E-14
 -1      1204 8.42527E-03 6.63770E-04-3.03176E-14
 -1      1205 8.73223E-03 6.58175E-04-3.23368E-14
 -1      1206 9.04652E-03 6.55359E-04-3.43910E-14
 -1      1207 9.36980E-03 6.57598E-04-3.64770E-14
 -1      1208 9.70365E-03 6.68184E-04-3.86040E-14
 -1      1209 1.00492E-02 6.91645E-04-4.07702E-14
 -1      1210 1.04062E-02 7.33798E-04-4.29716E-14
 -1      1211 1.07726E-02 8.01291E-04-4.52102E-14
 -1      1212 1.11425E-02 9.00099E-04-4.74837E-14
 -1      1213 1.15056E-02 1.03233E-03-4.97917E-14
 -1      1214 1.18477E-02 1.19141E-03-5.21249E-14
 -1      1215 1.21541E-02 1.35750E-03-5.44888E-14
 -1      1216 1.24168E-02 1.49778E-03-5.68719E-14
 -1      1217 1.26411E-02 1.57583E-03-5.92656E-14
 -1      1218 1.28461E-02 1.56740E-03-6.16654E-14
 -1      1219 1.30556E-02 1.47244E-03-6.40610E-14
 -1      1220 1.32859E-02 1.31257E-03-6.64540E-14
 -1      1221 1.35394E-02 1.11591E-03-6.88284E-14
 -1      1222 1.38095E-02 9.03035E-04-7.12054E-14
 -1      1223 1.40880E-02 6.83244E-04-7.35906E-14
 -1      1224 1.43639E-02 4.66128E-04-7.59166E-14
 -1      1225 1.46080E-02 3.18252E-04-7.71957E-14
 -1      1226 1.48256E-02 2.32204E-04-7.75039E-14
 -1      1227 1.50530E-02 1.45839E-04-7.78178E-14
 -1      1228 1.52999E-02 6.97519E-05-7.81171E-14
 -1      1229 1.55638E-02 2.27614E-05-7.83969E-14
 -1      1230 1.58194E-02 2.50703E-05-7.86763E-14
 -1      1231 1.60253E-02 8.63494E-05-7.89824E-14
 -1      1232 1.61313E-02 1.96514E-04-7.93037E-14
 -1      1233 1.61026E-02 3.20664E-04-7.96229E-14
 -1      1234 1.59457E-02 4.16107E-04-7.99175E-14
 -1      1235 1.57030E-02 4.54023E-04-8.02115E-14
 -1      1236 1.54304E-02 4.30722E-04-8.05521E-14
 -1      1237 1.51661E-02 3.61535E-04-8.09215E-14
 -1      1238 1.49264E-02 2.67037E-04-8.12932E-14
 -1      1239 1.47136E-02 1.66694E-04-8.16428E-14
 -1      1240 1.45162E-02 7.20131E-05-8.19620E-14
 -1      1241 1.43219E-02-1.42092E-05-8.22627E-14
 -1      1242 1.53798E-02 3.10457E-04-6.77694E-14
 -1      1243 1.52409E-02 4.94244E-04-6.73628E-14
 -1      1244 1.49673E-02 6.85472E-04-6.67061E-14
 -1      1245 1.45840E-02 8.76806E-04-6.58215E-14
 -1      1246 1.41571E-02 1.03964E-03-6.48309E-14
 -1      1247 1.36864E-02 1.16777E-03-6.37129E-14
 -1      1248 1.31870E-02 1.24158E-03-6.24958E-14
 -1      1249 1.26870E-02 1.24214E-03-6.12704E-14
 -1      1250 1.21710E-02 1.16250E-03-6.00256E-14
 -1      1251 1.16983E-02 1.02521E-03-5.89373E-14
 -1      1252 1.12808E-02 8.52485E-04-5.80374E-14
 -1      1253 1.09142E-02 6.60039E-04-5.73094E-14
 -1      1254 1.06414E-02 4.72383E-04-5.68328E-14
 -1      1255 1.04729E-02 2.93218E-04-5.66115E-14
 -1      1256 1.04211E-02 1.21834E-04-5.66519E-14
 -1      1257 1.04889E-02-4.84059E-05-5.69624E-14
 -1      1258 1.06714E-02-2.19700E-04-5.75042E-14
 -1      1259 1.09632E-02-3.96231E-04-5.82609E-14
 -1      1260 1.13477E-02-5.69182E-04-5.92356E-14
 -1      1261 1.17728E-02-7.12309E-04-6.03310E-14
 -1      1262 1.22234E-02-8.10639E-04-6.14896E-14
 -1      1263 1.27027E-02-8.53648E-04-6.27074E-14
 -1      1264 1.31820E-02-8.30533E-04-6.38843E-14
 -1      1265 1.36620E-02-7.46982E-04-6.49848E-14
 -1      1266 1.41367E-02-6.10225E-04-6.59785E-14
 -1      1267 1.45696E-02-4.42005E-04-6.67863E-14
 -1      1268 1.49368E-02-2.60439E-04-6.73797E-14
 -1      1269 1.52192E-02-6.98248E-05-6.77728E-14
 -1      1270 1.53761E-02 1.22254E-04-6.79143E-14
 -1      1271 1.66712E-04-1.10338E-04-8.72783E-18
 -1      1272 1.12549E-04-5.69676E-05-2.29173E-17
 -1      1273 1.17632E-04-6.75768E-05-1.89193E-17
 -1      1274 1.08429E-04-4.34838E-05-2.93683E-17
 -1      1275 1.10292E-04-4.95988E-05-2.75252E-17
 -1      1276 2.26345E-04-1.07611E-04-6.50115E-17
 -1      1277 1.06842E-04-3.36000E-05-3.24312E-17
 -1      1278 1.07692E-04-3.83235E-05-3.15774E-17
 -1      1279 2.19118E-04-8.24426E-05-7.60432E-17
 -1      1280 1.06058E-04-2.53467E-05-3.40575E-17
 -1      1281 1.06490E-04-2.93774E-05-3.37187E-17
 -1      1282 2.15862E-04-6.32605E-05-8.16540E-17
 -1      1283 1.05657E-04-1.80857E-05-3.44912E-17
 -1      1284 1.05887E-04-2.16535E-05-3.44912E-17
 -1      1285 2.14203E-04-4.71786E-05-8.42832E-17
 -1      1286 1.05433E-04-1.12351E-05-3.44776E-17
 -1      1287 1.05557E-04-1.46196E-05-3.45996E-17
 -1      1288 2.13286E-04-3.27430E-05-8.48117E-17
 -1      1289 1.05332E-04-4.68722E-06-3.37729E-17
 -1      1290 1.05385E-04-7.93948E-06-3.39897E-17
 -1      1291 2.12784E-04-1.91836E-05-8.40934E-17
 -1      1292 1.05320E-04 1.74249E-06-3.29462E-17
 -1      1293 1.05318E-04-1.46984E-06-3.32579E-17
 -1      1294 2.12567E-04-6.15810E-06-8.24671E-17
 -1      1295 1.05393E-04 8.22190E-06-3.16452E-17
 -1      1296 1.05336E-04 4.96313E-06-3.20382E-17
 -1      1297 2.12575E-04 6.70640E-06-8.01361E-17
 -1      1298 1.05573E-04 1.49270E-05-2.99240E-17
 -1      1299 1.05444E-04 1.15280E-05-3.04390E-17
 -1      1300 2.12809E-04 1.97579E-05-7.67073E-17
 -1      1301 1.05908E-04 2.19444E-05-2.75523E-17
 -1      1302 1.05672E-04 1.83538E-05-2.82570E-17
 -1      1303 2.13324E-04 3.32567E-05-7.21808E-17
 -1      1304 1.06536E-04 2.98103E-05-2.44894E-17
 -1      1305 1.06095E-04 2.57337E-05-2.55465E-17
 -1      1306 2.14270E-04 4.77821E-05-6.62990E-17
 -1      1307 1.07729E-04 3.89093E-05-1.98816E-17
 -1      1308 1.06876E-04 3.41155E-05-2.16027E-17
 -1      1309 2.15980E-04 6.41939E-05-5.83165E-17
 -1      1310 1.10271E-04 5.03374E-05-1.29427E-17
 -1      1311 1.08432E-04 4.41530E-05-1.57887E-17
 -1      1312 2.19214E-04 8.36925E-05-4.66614E-17
 -1      1313 1.16947E-04 6.76131E-05-2.57498E-18
 -1      1314 1.12196E-04 5.77671E-05-7.57586E-18
 -1      1315 2.26333E-04 1.09431E-04-3.04390E-17
 -1      1316 1.57591E-04 1.09857E-04 1.31460E-17
 -1      1317 1.35673E-04 8.60858E-05 3.69984E-18
 -1      1318 2.56061E-04 1.52082E-04-1.11944E-17
 -1      1319 3.35111E-04 2.20730E-04 1.54499E-17
 -1      1320 4.21575E-04-2.61728E-04-5.21501E-17
 -1      1321 5.74688E-04-3.36784E-04-1.00099E-16
 -1      1322 7.21894E-04-3.97384E-04-1.74950E-16
 -1      1323 8.65081E-04-4.46680E-04-2.74086E-16
 -1      1324 6.12129E-04-3.30872E-04-1.60665E-16
 -1      1325 1.00513E-03-4.87755E-04-3.96520E-16
 -1      1326 1.14299E-03-5.21748E-04-5.42521E-16
 -1      1327 9.05396E-04-4.31571E-04-3.63804E-16
 -1      1328 1.27951E-03-5.50528E-04-7.11630E-16
 -1      1329 1.41518E-03-5.74573E-04-9.04279E-16
 -1      1330 1.18786E-03-5.01000E-04-6.59317E-16
 -1      1331 1.55045E-03-5.94949E-04-1.11873E-15
 -1      1332 1.68557E-03-6.11991E-04-1.35540E-15
 -1      1333 1.46484E-03-5.49789E-04-1.04510E-15
 -1      1334 1.82079E-03-6.26328E-04-1.61435E-15
 -1      1335 1.95621E-03-6.38252E-04-1.89489E-15
 -1      1336 1.73957E-03-5.84122E-04-1.51902E-15
 -1      1337 2.09195E-03-6.48166E-04-2.19714E-15
 -1      1338 2.22807E-03-6.56320E-04-2.52127E-15
 -1      1339 2.01394E-03-6.07985E-04-2.08003E-15
 -1      1340 2.36461E-03-6.62990E-04-2.86687E-15
 -1      1341 2.50159E-03-6.68382E-04-3.23352E-15
 -1      1342 2.28891E-03-6.24194E-04-2.72678E-15
 -1      1343 2.63901E-03-6.72690E-04-3.62163E-15
 -1      1344 2.77688E-03-6.76081E-04-4.03063E-15
 -1      1345 2.56497E-03-6.34827E-04-3.45795E-15
 -1      1346 2.91517E-03-6.78694E-04-4.45912E-15
 -1      1347 3.05388E-03-6.80658E-04-4.90759E-15
 -1      1348 2.84230E-03-6.41442E-04-4.27146E-15
 -1      1349 3.19298E-03-6.82073E-04-5.37505E-15
 -1      1350 3.33245E-03-6.83040E-04-5.86084E-15
 -1      1351 3.12092E-03-6.45206E-04-5.16438E-15
 -1      1352 3.47226E-03-6.83626E-04-6.36633E-15
 -1      1353 3.61239E-03-6.83908E-04-6.89095E-15
 -1      1354 3.40076E-03-6.46986E-04-6.13324E-15
 -1      1355 3.75281E-03-6.83931E-04-7.43372E-15
 -1      1356 3.89350E-03-6.83752E-04-7.99434E-15
 -1      1357 3.68168E-03-6.47415E-04-7.17797E-15
 -1      1358 4.03443E-03-6.83400E-04-8.57285E-15
 -1      1359 4.17558E-03-6.82913E-04-9.16997E-15
 -1      1360 3.96354E-03-6.46941E-04-8.29511E-15
 -1      1361 4.31693E-03-6.82308E-04-9.78431E-15
 -1      1362 4.45845E-03-6.81612E-04-1.04147E-14
 -1      1363 4.24619E-03-6.45871E-04-9.48333E-15
 -1      1364 4.60013E-03-6.80830E-04-1.10625E-14
 -1      1365 4.74196E-03-6.79980E-04-1.17285E-14
 -1      1366 4.52950E-03-6.44398E-04-1.07413E-14
 -1      1367 4.88391E-03-6.79059E-04-1.24100E-14
 -1      1368 5.02599E-03-6.78077E-04-1.31076E-14
 -1      1369 4.81336E-03-6.42629E-04-1.20669E-14
 -1      1370 5.16817E-03-6.77026E-04-1.38216E-14
 -1      1371 5.31045E-03-6.75910E-04-1.45518E-14
 -1      1372 5.09768E-03-6.40607E-04-1.34576E-14
 -1      1373 5.45284E-03-6.74715E-04-1.52997E-14
 -1      1374 5.59532E-03-6.73442E-04-1.60644E-14
 -1      1375 5.38240E-03-6.38320E-04-1.49152E-14
 -1      1376 5.73790E-03-6.72074E-04-1.68458E-14
 -1      1377 5.88058E-03-6.70609E-04-1.76448E-14
 -1      1378 5.66751E-03-6.35720E-04-1.64404E-14
 -1      1379 6.02338E-03-6.69028E-04-1.84571E-14
 -1      1380 6.16631E-03-6.67327E-04-1.92858E-14
 -1      1381 5.95302E-03-6.32730E-04-1.80308E-14
 -1      1382 6.30937E-03-6.65486E-04-2.01332E-14
 -1      1383 6.45260E-03-6.63504E-04-2.09945E-14
 -1      1384 6.23900E-03-6.29256E-04-1.96872E-14
 -1      1385 6.59602E-03-6.61359E-04-2.18741E-14
 -1      1386 6.73965E-03-6.59056E-04-2.27719E-14
 -1      1387 6.52558E-03-6.25199E-04-2.14093E-14
 -1      1388 6.88354E-03-6.56573E-04-2.36837E-14
 -1      1389 7.02771E-03-6.53925E-04-2.46120E-14
 -1      1390 6.81294E-03-6.20470E-04-2.31974E-14
 -1      1391 7.17223E-03-6.51094E-04-2.55526E-14
 -1      1392 7.31714E-03-6.48107E-04-2.65041E-14
 -1      1393 7.10133E-03-6.15012E-04-2.50458E-14
 -1      1394 7.46250E-03-6.44956E-04-2.74689E-14
 -1      1395 7.60838E-03-6.41687E-04-2.84455E-14
 -1      1396 7.39107E-03-6.08827E-04-2.69461E-14
 -1      1397 7.75486E-03-6.38307E-04-2.94373E-14
 -1      1398 7.90200E-03-6.34889E-04-3.04438E-14
 -1      1399 7.68259E-03-6.02017E-04-2.88987E-14
 -1      1400 8.04991E-03-6.31465E-04-3.14622E-14
 -1      1401 8.19866E-03-6.28143E-04-3.24954E-14
 -1      1402 7.97640E-03-5.94837E-04-3.09046E-14
 -1      1403 8.34837E-03-6.24996E-04-3.35403E-14
 -1      1404 8.49912E-03-6.22173E-04-3.45963E-14
 -1      1405 8.27307E-03-5.87769E-04-3.29642E-14
 -1      1406 8.65103E-03-6.19807E-04-3.56629E-14
 -1      1407 8.80418E-03-6.18100E-04-3.67388E-14
 -1      1408 8.57327E-03-5.81618E-04-3.50719E-14
 -1      1409 8.95868E-03-6.17262E-04-3.78238E-14
 -1      1410 9.11459E-03-6.17560E-04-3.89167E-14
 -1      1411 8.87764E-03-5.77620E-04-3.72200E-14
 -1      1412 9.27200E-03-6.19304E-04-4.00156E-14
 -1      1413 9.43092E-03-6.22821E-04-4.11192E-14
 -1      1414 9.18679E-03-5.77574E-04-3.93994E-14
 -1      1415 9.59137E-03-6.28541E-04-4.22304E-14
 -1      1416 9.75330E-03-6.36838E-04-4.33471E-14
 -1      1417 9.50110E-03-5.83949E-04-4.16052E-14
 -1      1418 9.91661E-03-6.48257E-04-4.44713E-14
 -1      1419 1.00811E-02-6.63172E-04-4.56032E-14
 -1      1420 9.82059E-03-5.99937E-04-4.38368E-14
 -1      1421 1.02466E-02-6.82193E-04-4.67400E-14
 -1      1422 1.04126E-02-7.05607E-04-4.78837E-14
 -1      1423 1.01446E-02-6.29315E-04-4.60930E-14
 -1      1424 1.05788E-02-7.33949E-04-4.90331E-14
 -1      1425 1.07446E-02-7.67261E-04-5.01847E-14
 -1      1426 1.04716E-02-6.75977E-04-4.83749E-14
 -1      1427 1.09092E-02-8.05754E-04-5.13443E-14
 -1      1428 1.10720E-02-8.49004E-04-5.25092E-14
 -1      1429 1.07987E-02-7.42874E-04-5.06817E-14
 -1      1430 1.12320E-02-8.96545E-04-5.36744E-14
 -1      1431 1.13886E-02-9.47243E-04-5.48419E-14
 -1      1432 1.11219E-02-8.30226E-04-5.30039E-14
 -1      1433 1.15407E-02-9.99637E-04-5.60182E-14
 -1      1434 1.16879E-02-1.05177E-03-5.72027E-14
 -1      1435 1.14361E-02-9.33127E-04-5.53438E-14
 -1      1436 1.18296E-02-1.10115E-03-5.83923E-14
 -1      1437 1.19656E-02-1.14519E-03-5.95888E-14
 -1      1438 1.17363E-02-1.03945E-03-5.77074E-14
 -1      1439 1.20960E-02-1.18091E-03-6.07910E-14
 -1      1440 1.22213E-02-1.20576E-03-6.19997E-14
 -1      1441 1.20191E-02-1.12983E-03-6.00980E-14
 -1      1442 1.23424E-02-1.21725E-03-6.32118E-14
 -1      1443 1.24603E-02-1.21379E-03-6.44259E-14
 -1      1444 1.22850E-02-1.18148E-03-6.25072E-14
 -1      1445 1.25764E-02-1.19441E-03-6.56455E-14
 -1      1446 1.26920E-02-1.15903E-03-6.68687E-14
 -1      1447 1.25389E-02-1.17563E-03-6.49330E-14
 -1      1448 1.28082E-02-1.10851E-03-6.80951E-14
 -1      1449 1.29262E-02-1.04416E-03-6.93262E-14
 -1      1450 1.27886E-02-1.10488E-03-6.73746E-14
 -1      1451 1.30466E-02-9.68048E-04-7.05585E-14
 -1      1452 1.31701E-02-8.82130E-04-7.17905E-14
 -1      1453 1.30416E-02-9.75414E-04-6.98298E-14
 -1      1454 1.32966E-02-7.88654E-04-7.30278E-14
 -1      1455 1.34263E-02-6.89509E-04-7.42688E-14
 -1      1456 1.33022E-02-8.02504E-04-7.22937E-14
 -1      1457 1.35589E-02-5.86445E-04-7.55093E-14
 -1      1458 1.36941E-02-4.80937E-04-7.67484E-14
 -1      1459 1.35711E-02-6.03239E-04-7.47655E-14
 -1      1460 1.38316E-02-3.74235E-04-7.79939E-14
 -1      1461 1.39711E-02-2.67775E-04-7.92461E-14
 -1      1462 1.38470E-02-3.91460E-04-7.72460E-14
 -1      1463 1.41864E-02-1.11606E-04-8.10568E-14
 -1      1464 1.42020E-02-1.26044E-04-8.02985E-14
 -1      1465 6.43137E-04 3.71997E-04-1.38371E-17
 -1      1466 4.92994E-04 3.03678E-04 9.89334E-18
 -1      1467 4.44922E-04 2.65879E-04-9.85269E-18
 -1      1468 9.28760E-04 4.71960E-04-1.17067E-16
 -1      1469 7.87877E-04 4.26469E-04-5.60939E-17
 -1      1470 7.44815E-04 3.90694E-04-8.18708E-17
 -1      1471 1.20369E-03 5.41388E-04-2.94835E-16
 -1      1472 1.06701E-03 5.09703E-04-1.96322E-16
 -1      1473 1.03090E-03 4.76136E-04-2.27289E-16
 -1      1474 1.47429E-03 5.90603E-04-5.49731E-16
 -1      1475 1.33921E-03 5.68134E-04-4.12620E-16
 -1      1476 1.30885E-03 5.35972E-04-4.47992E-16
 -1      1477 1.74388E-03 6.25528E-04-8.82906E-16
 -1      1478 1.60904E-03 6.09610E-04-7.06439E-16
 -1      1479 1.58313E-03 5.78282E-04-7.45294E-16
 -1      1480 2.01414E-03 6.50035E-04-1.29320E-15
 -1      1481 1.87884E-03 6.38911E-04-1.07836E-15
 -1      1482 1.85634E-03 6.08046E-04-1.11993E-15
 -1      1483 2.28589E-03 6.66875E-04-1.78080E-15
 -1      1484 2.14979E-03 6.59282E-04-1.52726E-15
 -1      1485 2.12991E-03 6.28649E-04-1.57205E-15
 -1      1486 2.55944E-03 6.78093E-04-2.34788E-15
 -1      1487 2.42243E-03 6.73085E-04-2.05422E-15
 -1      1488 2.40453E-03 6.42545E-04-2.10192E-15
 -1      1489 2.83484E-03 6.85234E-04-2.99428E-15
 -1      1490 2.69691E-03 6.82096E-04-2.66116E-15
 -1      1491 2.68050E-03 6.51565E-04-2.71065E-15
 -1      1492 3.11199E-03 6.89465E-04-3.71950E-15
 -1      1493 2.97321E-03 6.87655E-04-3.34728E-15
 -1      1494 2.95791E-03 6.57085E-04-3.39849E-15
 -1      1495 3.39073E-03 6.91654E-04-4.52065E-15
 -1      1496 3.25118E-03 6.90771E-04-4.11016E-15
 -1      1497 3.23670E-03 6.60138E-04-4.16336E-15
 -1      1498 3.67083E-03 6.92441E-04-5.40029E-15
 -1      1499 3.53062E-03 6.92192E-04-4.95082E-15
 -1      1500 3.51673E-03 6.61484E-04-5.00474E-15
 -1      1501 3.95208E-03 6.92280E-04-6.35578E-15
 -1      1502 3.81132E-03 6.92457E-04-5.86876E-15
 -1      1503 3.79786E-03 6.61676E-04-5.92275E-15
 -1      1504 4.23428E-03 6.91485E-04-7.38912E-15
 -1      1505 4.09307E-03 6.91947E-04-6.86253E-15
 -1      1506 4.07991E-03 6.61098E-04-6.91693E-15
 -1      1507 4.51725E-03 6.90258E-04-8.50189E-15
 -1      1508 4.37568E-03 6.90917E-04-7.93613E-15
 -1      1509 4.36274E-03 6.60008E-04-7.98992E-15
 -1      1510 4.80084E-03 6.88714E-04-9.68904E-15
 -1      1511 4.65897E-03 6.89521E-04-9.08571E-15
 -1      1512 4.64620E-03 6.58563E-04-9.13783E-15
 -1      1513 5.08493E-03 6.86901E-04-1.09548E-14
 -1      1514 4.94283E-03 6.87840E-04-1.03116E-14
 -1      1515 4.93018E-03 6.56842E-04-1.03632E-14
 -1      1516 5.36944E-03 6.84814E-04-1.22988E-14
 -1      1517 5.22714E-03 6.85893E-04-1.16171E-14
 -1      1518 5.21461E-03 6.54863E-04-1.16668E-14
 -1      1519 5.65435E-03 6.82409E-04-1.37161E-14
 -1      1520 5.51185E-03 6.83654E-04-1.29986E-14
 -1      1521 5.49943E-03 6.52598E-04-1.30445E-14
 -1      1522 5.93966E-03 6.79611E-04-1.51988E-14
 -1      1523 5.79695E-03 6.81063E-04-1.44494E-14
 -1      1524 5.78464E-03 6.49983E-04-1.44932E-14
 -1      1525 6.22544E-03 6.76327E-04-1.67498E-14
 -1      1526 6.08249E-03 6.78033E-04-1.59659E-14
 -1      1527 6.07028E-03 6.46927E-04-1.60100E-14
 -1      1528 6.51182E-03 6.72454E-04-1.83681E-14
 -1      1529 6.36855E-03 6.74466E-04-1.75499E-14
 -1      1530 6.35645E-03 6.43326E-04-1.75929E-14
 -1      1531 6.79901E-03 6.67893E-04-2.00584E-14
 -1      1532 6.65530E-03 6.70259E-04-1.92053E-14
 -1      1533 6.64329E-03 6.39068E-04-1.92449E-14
 -1      1534 7.08731E-03 6.62567E-04-2.18050E-14
 -1      1535 6.94301E-03 6.65320E-04-2.09245E-14
 -1      1536 6.93104E-03 6.34052E-04-2.09613E-14
 -1      1537 7.37713E-03 6.56445E-04-2.36141E-14
 -1      1538 7.23200E-03 6.59593E-04-2.27013E-14
 -1      1539 7.22002E-03 6.28208E-04-2.27369E-14
 -1      1540 7.66900E-03 6.49582E-04-2.54808E-14
 -1      1541 7.52277E-03 6.53083E-04-2.45404E-14
 -1      1542 7.51064E-03 6.21525E-04-2.45734E-14
 -1      1543 7.96362E-03 6.42165E-04-2.73966E-14
 -1      1544 7.81592E-03 6.45904E-04-2.64330E-14
 -1      1545 7.80345E-03 6.14095E-04-2.64643E-14
 -1      1546 8.26185E-03 6.34592E-04-2.93547E-14
 -1      1547 8.11223E-03 6.38336E-04-2.83703E-14
 -1      1548 8.09914E-03 6.06172E-04-2.84000E-14
 -1      1549 8.56476E-03 6.27571E-04-3.13528E-14
 -1      1550 8.41265E-03 6.30920E-04-3.03492E-14
 -1      1551 8.39854E-03 5.98262E-04-3.03785E-14
 -1      1552 8.87357E-03 6.22270E-04-3.33922E-14
 -1      1553 8.71835E-03 6.24572E-04-3.23676E-14
 -1      1554 8.70262E-03 5.91243E-04-3.23977E-14
 -1      1555 9.18962E-03 6.20504E-04-3.54623E-14
 -1      1556 9.03060E-03 6.20759E-04-3.44228E-14
 -1      1557 9.01247E-03 5.86537E-04-3.44531E-14
 -1      1558 9.51426E-03 6.24980E-04-3.75697E-14
 -1      1559 9.35077E-03 6.21715E-04-3.65119E-14
 -1      1560 9.32925E-03 5.86330E-04-3.65436E-14
 -1      1561 9.84856E-03 6.39562E-04-3.97192E-14
 -1      1562 9.68013E-03 6.30697E-04-3.86393E-14
 -1      1563 9.65397E-03 5.93844E-04-3.86727E-14
 -1      1564 1.01929E-02 6.69469E-04-4.18988E-14
 -1      1565 1.00195E-02 6.52242E-04-4.08041E-14
 -1      1566 9.98729E-03 6.13602E-04-4.08364E-14
 -1      1567 1.05463E-02 7.21189E-04-4.41166E-14
 -1      1568 1.03686E-02 6.92253E-04-4.30044E-14
 -1      1569 1.03291E-02 6.51559E-04-4.30342E-14
 -1      1570 1.09054E-02 8.01670E-04-4.63703E-14
 -1      1571 1.07254E-02 7.57617E-04-4.52385E-14
 -1      1572 1.06779E-02 7.14780E-04-4.52662E-14
 -1      1573 1.12640E-02 9.16134E-04-4.86553E-14
 -1      1574 1.10853E-02 8.54783E-04-4.75077E-14
 -1      1575 1.10303E-02 8.10105E-04-4.75304E-14
 -1      1576 1.16125E-02 1.06394E-03-5.09704E-14
 -1      1577 1.14402E-02 9.86628E-04-4.98105E-14
 -1      1578 1.13802E-02 9.41097E-04-4.98257E-14
 -1      1579 1.19394E-02 1.23316E-03-5.33158E-14
 -1      1580 1.17794E-02 1.14747E-03-5.21410E-14
 -1      1581 1.17194E-02 1.10297E-03-5.21524E-14
 -1      1582 1.22355E-02 1.39699E-03-5.56853E-14
 -1      1583 1.20918E-02 1.31801E-03-5.44981E-14
 -1      1584 1.20389E-02 1.27714E-03-5.45080E-14
 -1      1585 1.24988E-02 1.51760E-03-5.80730E-14
 -1      1586 1.23710E-02 1.46491E-03-5.68763E-14
 -1      1587 1.23328E-02 1.42998E-03-5.68805E-14
 -1      1588 1.27380E-02 1.56050E-03-6.04676E-14
 -1      1589 1.26204E-02 1.54995E-03-5.92683E-14
 -1      1590 1.26026E-02 1.52161E-03-5.92720E-14
 -1      1591 1.29696E-02 1.51063E-03-6.28669E-14
 -1      1592 1.28535E-02 1.54660E-03-6.16684E-14
 -1      1593 1.28584E-02 1.52337E-03-6.16706E-14
 -1      1594 1.32095E-02 1.38033E-03-6.52627E-14
 -1      1595 1.30877E-02 1.45378E-03-6.40653E-14
 -1      1596 1.31137E-02 1.43296E-03-6.40686E-14
 -1      1597 1.34652E-02 1.19789E-03-6.76450E-14
 -1      1598 1.33352E-02 1.29374E-03-6.64573E-14
 -1      1599 1.33782E-02 1.27322E-03-6.64598E-14
 -1      1600 1.37352E-02 9.90446E-04-7.00219E-14
 -1      1601 1.35987E-02 1.09611E-03-6.88322E-14
 -1      1602 1.36535E-02 1.07517E-03-6.88389E-14
 -1      1603 1.40138E-02 7.73151E-04-7.24018E-14
 -1      1604 1.38738E-02 8.82595E-04-7.12106E-14
 -1      1605 1.39360E-02 8.61526E-04-7.12143E-14
 -1      1606 1.42963E-02 5.51135E-04-7.47869E-14
 -1      1607 1.41548E-02 6.62636E-04-7.35938E-14
 -1      1608 1.42207E-02 6.41810E-04-7.35980E-14
 -1      1609 1.44724E-02 4.23950E-04-7.60666E-14
 -1      1610 1.47568E-02 3.08945E-04-7.65495E-14
 -1      1611 1.46469E-02 3.51086E-04-7.63953E-14
 -1      1612 1.49888E-02 2.27890E-04-7.68593E-14
 -1      1613 1.48703E-02 2.67512E-04-7.67060E-14
 -1      1614 1.46888E-02 3.85481E-04-7.55949E-14
 -1      1615 1.52435E-02 1.59883E-04-7.71549E-14
 -1      1616 1.51133E-02 1.91411E-04-7.70068E-14
 -1      1617 1.49266E-02 3.05609E-04-7.58986E-14
 -1      1618 1.55145E-02 1.18786E-04-7.74424E-14
 -1      1619 1.53781E-02 1.35003E-04-7.73024E-14
 -1      1620 1.51892E-02 2.37582E-04-7.61980E-14
 -1      1621 1.57682E-02 1.17178E-04-7.77317E-14
 -1      1622 1.56455E-02 1.12613E-04-7.75855E-14
 -1      1623 1.54633E-02 1.92683E-04-7.64914E-14
 -1      1624 1.59628E-02 1.58400E-04-7.80355E-14
 -1      1625 1.58769E-02 1.32809E-04-7.78817E-14
 -1      1626 1.57154E-02 1.79857E-04-7.67841E-14
 -1      1627 1.60403E-02 2.29629E-04-7.83484E-14
 -1      1628 1.60187E-02 1.91816E-04-7.81905E-14
 -1      1629 1.58912E-02 2.00470E-04-7.70845E-14
 -1      1630 1.59745E-02 3.03065E-04-7.86572E-14
 -1      1631 1.60253E-02 2.68168E-04-7.85052E-14
 -1      1632 1.59356E-02 2.41222E-04-7.73888E-14
 -1      1633 1.57839E-02 3.48965E-04-7.89509E-14
 -1      1634 1.58922E-02 3.30945E-04-7.88074E-14
 -1      1635 1.58316E-02 2.77178E-04-7.76908E-14
 -1      1636 1.55199E-02 3.50533E-04-7.92617E-14
 -1      1637 1.56575E-02 3.55607E-04-7.91032E-14
 -1      1638 1.56103E-02 2.85607E-04-7.79908E-14
 -1      1639 1.52425E-02 3.09332E-04-7.95945E-14
 -1      1640 1.53807E-02 3.34624E-04-7.94267E-14
 -1      1641 1.53328E-02 2.57872E-04-7.83044E-14
 -1      1642 1.49782E-02 2.35889E-04-7.99526E-14
 -1      1643 1.51067E-02 2.75593E-04-7.97726E-14
 -1      1644 1.50506E-02 1.98750E-04-7.86346E-14
 -1      1645 1.47450E-02 1.45873E-04-8.03012E-14
 -1      1646 1.48576E-02 1.92034E-04-8.01285E-14
 -1      1647 1.47916E-02 1.18360E-04-7.89732E-14
 -1      1648 1.45381E-02 5.18974E-05-8.06348E-14
 -1      1649 1.46390E-02 9.87357E-05-8.04717E-14
 -1      1650 1.45657E-02 2.83693E-05-7.93074E-14
 -1      1651 1.43211E-02-6.04965E-05-8.05474E-14
 -1      1652 1.44176E-02-1.57252E-05-8.03936E-14
 -1      1653 1.43413E-02-8.51962E-05-7.92317E-14
 -1      1654 1.41045E-02-2.18654E-04-7.87430E-14
 -1      1655 1.53720E-02 3.06218E-04-6.81904E-14
 -1      1656 1.54140E-02 2.50242E-04-6.83358E-14
 -1      1657 1.51707E-02 4.48858E-04-6.76450E-14
 -1      1658 1.52802E-02 3.83278E-04-6.78947E-14
 -1      1659 1.48069E-02 6.22719E-04-6.69113E-14
 -1      1660 1.49932E-02 5.30859E-04-6.73169E-14
 -1      1661 1.43824E-02 8.41583E-04-6.58818E-14
 -1      1662 1.45846E-02 7.45033E-04-6.63475E-14
 -1      1663 1.39407E-02 1.04020E-03-6.47899E-14
 -1      1664 1.41441E-02 9.50907E-04-6.53031E-14
 -1      1665 1.34796E-02 1.20737E-03-6.35441E-14
 -1      1666 1.36911E-02 1.13521E-03-6.41442E-14
 -1      1667 1.30402E-02 1.29487E-03-6.22141E-14
 -1      1668 1.32419E-02 1.26617E-03-6.28227E-14
 -1      1669 1.26084E-02 1.27999E-03-6.08852E-14
 -1      1670 1.28057E-02 1.30157E-03-6.14942E-14
 -1      1671 1.21582E-02 1.14844E-03-5.94887E-14
 -1      1672 1.23714E-02 1.22644E-03-6.01135E-14
 -1      1673 1.17121E-02 9.56233E-04-5.84421E-14
 -1      1674 1.18992E-02 1.04643E-03-5.89038E-14
 -1      1675 1.12995E-02 7.22735E-04-5.74238E-14
 -1      1676 1.14992E-02 8.30579E-04-5.78474E-14
 -1      1677 1.09051E-02 5.21504E-04-5.67518E-14
 -1      1678 1.10714E-02 6.12941E-04-5.70471E-14
 -1      1679 1.06120E-02 3.46051E-04-5.62696E-14
 -1      1680 1.07357E-02 4.19140E-04-5.64427E-14
 -1      1681 1.04376E-02 2.15043E-04-5.61248E-14
 -1      1682 1.05002E-02 2.72969E-04-5.61702E-14
 -1      1683 1.04067E-02 9.89720E-05-5.62003E-14
 -1      1684 1.04024E-02 1.49787E-04-5.61161E-14
 -1      1685 1.05247E-02-2.43133E-05-5.66268E-14
 -1      1686 1.04524E-02 3.38622E-05-5.64110E-14
 -1      1687 1.07682E-02-1.74994E-04-5.72859E-14
 -1      1688 1.06415E-02-1.03882E-04-5.69706E-14
 -1      1689 1.11379E-02-3.47354E-04-5.81013E-14
 -1      1690 1.09585E-02-2.56428E-04-5.76596E-14
 -1      1691 1.15666E-02-5.52649E-04-5.92044E-14
 -1      1692 1.13705E-02-4.56447E-04-5.86726E-14
 -1      1693 1.19650E-02-7.39483E-04-6.04631E-14
 -1      1694 1.17749E-02-6.63480E-04-5.99089E-14
 -1      1695 1.23866E-02-8.64493E-04-6.17304E-14
 -1      1696 1.21944E-02-8.14604E-04-6.11340E-14
 -1      1697 1.28062E-02-9.06414E-04-6.30588E-14
 -1      1698 1.26134E-02-8.98810E-04-6.24482E-14
 -1      1699 1.32081E-02-8.56629E-04-6.43364E-14
 -1      1700 1.30255E-02-8.94041E-04-6.37796E-14
 -1      1701 1.36623E-02-7.10723E-04-6.54892E-14
 -1      1702 1.34545E-02-7.86591E-04-6.49540E-14
 -1      1703 1.41262E-02-5.17149E-04-6.65057E-14
 -1      1704 1.39150E-02-6.11500E-04-6.60540E-14
 -1      1705 1.45632E-02-3.03407E-04-6.73541E-14
 -1      1706 1.43621E-02-3.99916E-04-6.70030E-14
 -1      1707 1.49592E-02-1.17898E-04-6.79149E-14
 -1      1708 1.47881E-02-2.02417E-04-6.76744E-14
 -1      1709 1.52627E-02 5.59356E-05-6.83435E-14
 -1      1710 1.51340E-02-1.52828E-05-6.82052E-14
 -1      1711 1.54117E-02 1.84451E-04-6.83906E-14
 -1      1712 1.53666E-02 1.27383E-04-6.83912E-14
 -1      1713 1.41922E-02 8.49996E-04-6.58511E-14
 -1      1714 1.46465E-02 6.15707E-04-6.69896E-14
 -1      1715 1.45396E-02 4.02914E-04-7.60718E-14
 -1      1716 1.44698E-02 4.78753E-04-7.51145E-14
 -1      1717 1.53305E-02 3.04047E-04-6.84995E-14
 -1      1718 1.50531E-02 4.30181E-04-6.78786E-14
 -1      1719 1.54262E-02 2.19539E-04-6.88494E-14
 -1      1720 1.37384E-02 1.07332E-03-6.46292E-14
 -1      1721 1.33129E-02 1.25013E-03-6.32639E-14
 -1      1722 1.29098E-02 1.32689E-03-6.18226E-14
 -1      1723 1.25137E-02 1.27578E-03-6.03288E-14
 -1      1724 1.21063E-02 1.09875E-03-5.89742E-14
 -1      1725 1.16708E-02 8.56688E-04-5.77980E-14
 -1      1726 1.12487E-02 6.12070E-04-5.68334E-14
 -1      1727 1.08533E-02 4.07333E-04-5.61531E-14
 -1      1728 1.05631E-02 2.62873E-04-5.57487E-14
 -1      1729 1.04104E-02 1.64429E-04-5.56406E-14
 -1      1730 1.04210E-02 8.51091E-05-5.58376E-14
 -1      1731 1.05910E-02-1.76969E-05-5.63867E-14
 -1      1732 1.09019E-02-1.59964E-04-5.71012E-14
 -1      1733 1.13141E-02-3.51184E-04-5.80468E-14
 -1      1734 1.17315E-02-5.82468E-04-5.93234E-14
 -1      1735 1.21345E-02-7.82390E-04-6.06984E-14
 -1      1736 1.25216E-02-9.06796E-04-6.20842E-14
 -1      1737 1.28968E-02-9.28793E-04-6.35201E-14
 -1      1738 1.32711E-02-8.31830E-04-6.48572E-14
 -1      1739 1.37106E-02-6.43446E-04-6.60387E-14
 -1      1740 1.41687E-02-4.10326E-04-6.71007E-14
 -1      1741 1.46186E-02-1.86460E-04-6.79170E-14
 -1      1742 1.50241E-02 1.80398E-06-6.85251E-14
 -1      1743 1.53156E-02 1.31959E-04-6.88579E-14
 -1      1744 2.85265E-04-1.76219E-04-4.43710E-17
 -1      1745 3.32201E-04-1.16745E-04-1.19547E-16
 -1      1746 3.36344E-04-1.32991E-04-1.14139E-16
 -1      1747 3.42231E-04-1.51981E-04-1.06889E-16
 -1      1748 3.51788E-04-1.73986E-04-9.61958E-17
 -1      1749 4.58359E-04-1.88043E-04-1.65829E-16
 -1      1750 3.24558E-04-6.53540E-05-1.28966E-16
 -1      1751 3.25699E-04-7.66512E-05-1.28098E-16
 -1      1752 3.23057E-04-4.38688E-05-1.29278E-16
 -1      1753 3.23714E-04-5.43547E-05-1.29386E-16
 -1      1754 4.36497E-04-7.92538E-05-1.90223E-16
 -1      1755 3.22269E-04-2.37599E-05-1.27855E-16
 -1      1756 3.22602E-04-3.36689E-05-1.28871E-16
 -1      1757 4.34488E-04-5.12948E-05-1.89966E-16
 -1      1758 3.21974E-04-4.33487E-06-1.25130E-16
 -1      1759 3.22071E-04-1.39825E-05-1.26581E-16
 -1      1760 4.33464E-04-2.49128E-05-1.87513E-16
 -1      1761 3.22096E-04 1.49738E-05-1.21160E-16
 -1      1762 3.21982E-04 5.31594E-06-1.23382E-16
 -1      1763 4.33166E-04 7.57011E-07-1.83162E-16
 -1      1764 3.22664E-04 3.47139E-05-1.15562E-16
 -1      1765 3.22312E-04 2.47723E-05-1.18625E-16
 -1      1766 4.33522E-04 2.64559E-05-1.76888E-16
 -1      1767 3.23797E-04 5.51435E-05-1.08352E-16
 -1      1768 3.23132E-04 4.47846E-05-1.12337E-16
 -1      1769 4.34602E-04 5.27008E-05-1.68377E-16
 -1      1770 3.25859E-04 7.77888E-05-9.91232E-17
 -1      1771 3.24658E-04 6.62105E-05-1.04178E-16
 -1      1772 4.36662E-04 8.05714E-05-1.57643E-16
 -1      1773 3.29554E-04 1.03623E-04-8.59772E-17
 -1      1774 3.27403E-04 9.02745E-05-9.32143E-17
 -1      1775 4.40318E-04 1.11534E-04-1.43372E-16
 -1      1776 3.36595E-04 1.35081E-04-6.75458E-17
 -1      1777 3.32409E-04 1.18583E-04-7.78864E-17
 -1      1778 4.46797E-04 1.47300E-04-1.23911E-16
 -1      1779 3.52327E-04 1.77579E-04-4.16063E-17
 -1      1780 3.42829E-04 1.54731E-04-5.59719E-17
 -1      1781 4.59341E-04 1.91422E-04-9.70361E-17
 -1      1782 4.07733E-04 2.33665E-04-2.19415E-17
 -1      1783 3.78120E-04 2.02638E-04-3.43286E-17
 -1      1784 4.95893E-04 2.43964E-04-7.21943E-17
 -1      1785 5.58596E-04 3.02476E-04-5.07813E-17
 -1      1786 3.40051E-04-1.90889E-04-7.29397E-17
 -1      1787 8.53649E-04 4.07081E-04-1.63484E-16
 -1      1788 7.07228E-04 3.59343E-04-9.81067E-17
 -1      1789 6.73458E-04 3.28774E-04-1.11957E-16
 -1      1790 4.58993E-04-2.36690E-04-1.25971E-16
 -1      1791 8.07304E-04-3.74077E-04-3.29421E-16
 -1      1792 9.52587E-04-4.15262E-04-4.56585E-16
 -1      1793 1.09544E-03-4.49951E-04-6.05920E-16
 -1      1794 1.23713E-03-4.78847E-04-7.77603E-16
 -1      1795 1.00401E-03-3.97877E-04-5.51913E-16
 -1      1796 1.37755E-03-5.03333E-04-9.71350E-16
 -1      1797 1.51726E-03-5.23711E-04-1.18711E-15
 -1      1798 1.28972E-03-4.55840E-04-8.98004E-16
 -1      1799 1.65645E-03-5.40899E-04-1.42438E-15
 -1      1800 1.79531E-03-5.55135E-04-1.68333E-15
 -1      1801 1.57216E-03-4.96796E-04-1.33034E-15
 -1      1802 1.93405E-03-5.67029E-04-1.96373E-15
 -1      1803 2.07273E-03-5.76784E-04-2.26506E-15
 -1      1804 1.85282E-03-5.25364E-04-1.84839E-15
 -1      1805 2.21151E-03-5.84818E-04-2.58794E-15
 -1      1806 2.35037E-03-5.91302E-04-2.93155E-15
 -1      1807 2.13275E-03-5.44882E-04-2.45043E-15
 -1      1808 2.48944E-03-5.96535E-04-3.29578E-15
 -1      1809 2.62868E-03-6.00655E-04-3.68087E-15
 -1      1810 2.41266E-03-5.57809E-04-3.13599E-15
 -1      1811 2.76816E-03-6.03876E-04-4.08639E-15
 -1      1812 2.90786E-03-6.06311E-04-4.51127E-15
 -1      1813 2.69292E-03-5.65979E-04-3.90301E-15
 -1      1814 3.04781E-03-6.08112E-04-4.95621E-15
 -1      1815 3.18798E-03-6.09367E-04-5.41983E-15
 -1      1816 2.97375E-03-5.70767E-04-4.75047E-15
 -1      1817 3.32840E-03-6.10185E-04-5.90260E-15
 -1      1818 3.46901E-03-6.10632E-04-6.40425E-15
 -1      1819 3.25523E-03-5.73196E-04-5.67451E-15
 -1      1820 3.60985E-03-6.10785E-04-6.92437E-15
 -1      1821 3.75088E-03-6.10691E-04-7.46328E-15
 -1      1822 3.53737E-03-5.74015E-04-6.67356E-15
 -1      1823 3.89210E-03-6.10403E-04-8.01968E-15
 -1      1824 4.03348E-03-6.09954E-04-8.59377E-15
 -1      1825 3.82012E-03-5.73761E-04-7.74642E-15
 -1      1826 4.17503E-03-6.09376E-04-9.18613E-15
 -1      1827 4.31671E-03-6.08694E-04-9.79574E-15
 -1      1828 4.10342E-03-5.72805E-04-8.89128E-15
 -1      1829 4.45853E-03-6.07923E-04-1.04222E-14
 -1      1830 4.60047E-03-6.07079E-04-1.10655E-14
 -1      1831 4.38721E-03-5.71391E-04-1.01058E-14
 -1      1832 4.74253E-03-6.06167E-04-1.17267E-14
 -1      1833 4.88469E-03-6.05195E-04-1.24037E-14
 -1      1834 4.67141E-03-5.69661E-04-1.13891E-14
 -1      1835 5.02695E-03-6.04161E-04-1.30969E-14
 -1      1836 5.16930E-03-6.03067E-04-1.38066E-14
 -1      1837 4.95598E-03-5.67683E-04-1.27380E-14
 -1      1838 5.31175E-03-6.01903E-04-1.45337E-14
 -1      1839 5.45428E-03-6.00669E-04-1.52771E-14
 -1      1840 5.24088E-03-5.65463E-04-1.41544E-14
 -1      1841 5.59690E-03-5.99349E-04-1.60374E-14
 -1      1842 5.73961E-03-5.97940E-04-1.68148E-14
 -1      1843 5.52608E-03-5.62964E-04-1.56375E-14
 -1      1844 5.88242E-03-5.96423E-04-1.76080E-14
 -1      1845 6.02533E-03-5.94794E-04-1.84175E-14
 -1      1846 5.81161E-03-5.60114E-04-1.71868E-14
 -1      1847 6.16836E-03-5.93030E-04-1.92441E-14
 -1      1848 6.31152E-03-5.91127E-04-2.00876E-14
 -1      1849 6.09750E-03-5.56817E-04-1.88041E-14
 -1      1850 6.45483E-03-5.89063E-04-2.09468E-14
 -1      1851 6.59830E-03-5.86836E-04-2.18222E-14
 -1      1852 6.38382E-03-5.52965E-04-2.04857E-14
 -1      1853 6.74195E-03-5.84424E-04-2.27136E-14
 -1      1854 6.88583E-03-5.81830E-04-2.36203E-14
 -1      1855 6.67069E-03-5.48449E-04-2.22325E-14
 -1      1856 7.02995E-03-5.79037E-04-2.45426E-14
 -1      1857 7.17436E-03-5.76054E-04-2.54780E-14
 -1      1858 6.95826E-03-5.43179E-04-2.40419E-14
 -1      1859 7.31908E-03-5.72875E-04-2.64260E-14
 -1      1860 7.46418E-03-5.69521E-04-2.73867E-14
 -1      1861 7.24674E-03-5.37106E-04-2.59080E-14
 -1      1862 7.60968E-03-5.65999E-04-2.83633E-14
 -1      1863 7.75567E-03-5.62352E-04-2.93506E-14
 -1      1864 7.53639E-03-5.30255E-04-2.78283E-14
 -1      1865 7.90215E-03-5.58610E-04-3.03505E-14
 -1      1866 8.04926E-03-5.54839E-04-3.13648E-14
 -1      1867 7.82752E-03-5.22774E-04-2.97996E-14
 -1      1868 8.19699E-03-5.51111E-04-3.23919E-14
 -1      1869 8.34547E-03-5.47523E-04-3.34318E-14
 -1      1870 8.12053E-03-5.14993E-04-3.18231E-14
 -1      1871 8.49471E-03-5.44203E-04-3.44833E-14
 -1      1872 8.64486E-03-5.41290E-04-3.55457E-14
 -1      1873 8.41585E-03-5.07510E-04-3.38974E-14
 -1      1874 8.79589E-03-5.38990E-04-3.66181E-14
 -1      1875 8.94797E-03-5.37495E-04-3.76975E-14
 -1      1876 8.71395E-03-5.01295E-04-3.60176E-14
 -1      1877 9.10108E-03-5.37110E-04-3.87853E-14
 -1      1878 9.25532E-03-5.38090E-04-3.98802E-14
 -1      1879 9.01534E-03-4.97814E-04-3.81738E-14
 -1      1880 9.41071E-03-5.40856E-04-4.09801E-14
 -1      1881 9.56727E-03-5.45732E-04-4.20870E-14
 -1      1882 9.32053E-03-4.99157E-04-4.03579E-14
 -1      1883 9.72503E-03-5.53256E-04-4.32009E-14
 -1      1884 9.88386E-03-5.63814E-04-4.43211E-14
 -1      1885 9.62995E-03-5.08144E-04-4.25675E-14
 -1      1886 1.00439E-02-5.78022E-04-4.54482E-14
 -1      1887 1.02047E-02-5.96289E-04-4.65810E-14
 -1      1888 9.94389E-03-5.28336E-04-4.48042E-14
 -1      1889 1.03665E-02-6.19204E-04-4.77215E-14
 -1      1890 1.05286E-02-6.47108E-04-4.88673E-14
 -1      1891 1.02624E-02-5.63824E-04-4.70683E-14
 -1      1892 1.06913E-02-6.80357E-04-5.00176E-14
 -1      1893 1.08535E-02-7.19030E-04-5.11746E-14
 -1      1894 1.05849E-02-6.18604E-04-4.93571E-14
 -1      1895 1.10156E-02-7.62943E-04-5.23353E-14
 -1      1896 1.11761E-02-8.11631E-04-5.34981E-14
 -1      1897 1.09100E-02-6.95275E-04-5.16664E-14
 -1      1898 1.13354E-02-8.64023E-04-5.46679E-14
 -1      1899 1.14919E-02-9.18750E-04-5.58441E-14
 -1      1900 1.12348E-02-7.92862E-04-5.39955E-14
 -1      1901 1.16459E-02-9.73652E-04-5.70253E-14
 -1      1902 1.17962E-02-1.02634E-03-5.82135E-14
 -1      1903 1.15550E-02-9.03968E-04-5.63437E-14
 -1      1904 1.19429E-02-1.07378E-03-5.94060E-14
 -1      1905 1.20859E-02-1.11295E-03-6.06027E-14
 -1      1906 1.18653E-02-1.01249E-03-5.87162E-14
 -1      1907 1.22248E-02-1.14075E-03-6.18057E-14
 -1      1908 1.23613E-02-1.15462E-03-6.30136E-14
 -1      1909 1.21621E-02-1.09454E-03-6.11082E-14
 -1      1910 1.24947E-02-1.15256E-03-6.42246E-14
 -1      1911 1.26276E-02-1.13362E-03-6.54388E-14
 -1      1912 1.24462E-02-1.12482E-03-6.35179E-14
 -1      1913 1.27593E-02-1.09773E-03-6.66585E-14
 -1      1914 1.28922E-02-1.04591E-03-6.78805E-14
 -1      1915 1.27237E-02-1.08707E-03-6.59427E-14
 -1      1916 1.30257E-02-9.79843E-04-6.91051E-14
 -1      1917 1.31611E-02-9.01707E-04-7.03322E-14
 -1      1918 1.30021E-02-9.81548E-04-6.83837E-14
 -1      1919 1.32979E-02-8.13922E-04-7.15608E-14
 -1      1920 1.34363E-02-7.18715E-04-7.27919E-14
 -1      1921 1.32861E-02-8.22957E-04-7.08305E-14
 -1      1922 1.35760E-02-6.18264E-04-7.40260E-14
 -1      1923 1.37165E-02-5.14134E-04-7.52616E-14
 -1      1924 1.35748E-02-6.31221E-04-7.32888E-14
 -1      1925 1.38395E-02-4.20700E-04-7.63758E-14
 -1      1926 1.39810E-02-3.13336E-04-7.76174E-14
 -1      1927 1.40975E-02-2.47061E-04-7.78626E-14
 -1      1928 1.38463E-02-4.35735E-04-7.56304E-14
 -1      1929 1.13874E-03 4.80044E-04-3.48652E-16
 -1      1930 9.96948E-04 4.46792E-04-2.46588E-16
 -1      1931 9.64557E-04 4.17335E-04-2.63258E-16
 -1      1932 1.41789E-03 5.31533E-04-6.09227E-16
 -1      1933 1.27872E-03 5.08079E-04-4.69541E-16
 -1      1934 1.24907E-03 4.79939E-04-4.88325E-16
 -1      1935 1.69431E-03 5.67846E-04-9.46793E-16
 -1      1936 1.55626E-03 5.51342E-04-7.68496E-16
 -1      1937 1.52937E-03 5.24165E-04-7.89055E-16
 -1      1938 1.96993E-03 5.93164E-04-1.36143E-15
 -1      1939 1.83213E-03 5.81709E-04-1.14433E-15
 -1      1940 1.80765E-03 5.55170E-04-1.16647E-15
 -1      1941 2.24582E-03 6.10445E-04-1.85323E-15
 -1      1942 2.10780E-03 6.02684E-04-1.59753E-15
 -1      1943 2.08532E-03 5.76548E-04-1.62065E-15
 -1      1944 2.52253E-03 6.21871E-04-2.42321E-15
 -1      1945 2.38405E-03 6.16796E-04-2.12857E-15
 -1      1946 2.36318E-03 5.90907E-04-2.15236E-15
 -1      1947 2.80032E-03 6.29073E-04-3.07167E-15
 -1      1948 2.66129E-03 6.25929E-04-2.73720E-15
 -1      1949 2.64168E-03 6.00179E-04-2.76191E-15
 -1      1950 3.07926E-03 6.33276E-04-3.79830E-15
 -1      1951 2.93965E-03 6.31497E-04-3.42523E-15
 -1      1952 2.92104E-03 6.05816E-04-3.44944E-15
 -1      1953 3.35931E-03 6.35388E-04-4.60047E-15
 -1      1954 3.21916E-03 6.34555E-04-4.18991E-15
 -1      1955 3.20130E-03 6.08899E-04-4.21383E-15
 -1      1956 3.64037E-03 6.36076E-04-5.47964E-15
 -1      1957 3.49973E-03 6.35883E-04-5.03074E-15
 -1      1958 3.48245E-03 6.10224E-04-5.05425E-15
 -1      1959 3.92232E-03 6.35811E-04-6.43492E-15
 -1      1960 3.78125E-03 6.36044E-04-5.94751E-15
 -1      1961 3.76441E-03 6.10366E-04-5.96994E-15
 -1      1962 4.20503E-03 6.34918E-04-7.46655E-15
 -1      1963 4.06359E-03 6.35431E-04-6.94116E-15
 -1      1964 4.04709E-03 6.09729E-04-6.96204E-15
 -1      1965 4.48838E-03 6.33606E-04-8.57467E-15
 -1      1966 4.34664E-03 6.34307E-04-8.01135E-15
 -1      1967 4.33038E-03 6.08580E-04-8.03081E-15
 -1      1968 4.77226E-03 6.31991E-04-9.75962E-15
 -1      1969 4.63026E-03 6.32833E-04-9.15727E-15
 -1      1970 4.61419E-03 6.07082E-04-9.17469E-15
 -1      1971 5.05658E-03 6.30121E-04-1.10223E-14
 -1      1972 4.91437E-03 6.31087E-04-1.03812E-14
 -1      1973 4.89845E-03 6.05318E-04-1.03967E-14
 -1      1974 5.34130E-03 6.27990E-04-1.23592E-14
 -1      1975 5.19890E-03 6.29090E-04-1.16815E-14
 -1      1976 5.18309E-03 6.03308E-04-1.16945E-14
 -1      1977 5.62640E-03 6.25549E-04-1.37705E-14
 -1      1978 5.48381E-03 6.26812E-04-1.30562E-14
 -1      1979 5.46809E-03 6.01022E-04-1.30657E-14
 -1      1980 5.91188E-03 6.22718E-04-1.52500E-14
 -1      1981 5.76909E-03 6.24187E-04-1.45015E-14
 -1      1982 5.75344E-03 5.98393E-04-1.45082E-14
 -1      1983 6.19782E-03 6.19395E-04-1.67982E-14
 -1      1984 6.05479E-03 6.21122E-04-1.60158E-14
 -1      1985 6.03919E-03 5.95327E-04-1.60200E-14
 -1      1986 6.48433E-03 6.15464E-04-1.84124E-14
 -1      1987 6.34100E-03 6.17509E-04-1.75972E-14
 -1      1988 6.32541E-03 5.91711E-04-1.75991E-14
 -1      1989 6.77157E-03 6.10812E-04-2.00951E-14
 -1      1990 6.62784E-03 6.13230E-04-1.92456E-14
 -1      1991 6.61222E-03 5.87424E-04-1.92456E-14
 -1      1992 7.05979E-03 6.05341E-04-2.18379E-14
 -1      1993 6.91554E-03 6.08178E-04-2.09586E-14
 -1      1994 6.89981E-03 5.82351E-04-2.09549E-14
 -1      1995 7.34933E-03 5.98995E-04-2.36406E-14
 -1      1996 7.20437E-03 6.02271E-04-2.27308E-14
 -1      1997 7.18843E-03 5.76403E-04-2.27243E-14
 -1      1998 7.64060E-03 5.91791E-04-2.55031E-14
 -1      1999 7.49471E-03 5.95485E-04-2.45654E-14
 -1      2000 7.47841E-03 5.69544E-04-2.45546E-14
 -1      2001 7.93415E-03 5.83873E-04-2.74143E-14
 -1      2002 7.78705E-03 5.87894E-04-2.64532E-14
 -1      2003 7.77017E-03 5.61832E-04-2.64410E-14
 -1      2004 8.23064E-03 5.75582E-04-2.93716E-14
 -1      2005 8.08197E-03 5.79730E-04-2.83873E-14
 -1      2006 8.06422E-03 5.53475E-04-2.83735E-14
 -1      2007 8.53085E-03 5.67555E-04-3.13698E-14
 -1      2008 8.38021E-03 5.71467E-04-3.03661E-14
 -1      2009 8.36118E-03 5.44919E-04-3.03515E-14
 -1      2010 8.83569E-03 5.60874E-04-3.34084E-14
 -1      2011 8.68261E-03 5.63945E-04-3.23835E-14
 -1      2012 8.66177E-03 5.36962E-04-3.23696E-14
 -1      2013 9.14613E-03 5.57252E-04-3.54800E-14
 -1      2014 8.99012E-03 5.58534E-04-3.44396E-14
 -1      2015 8.96681E-03 5.30924E-04-3.44251E-14
 -1      2016 9.46314E-03 5.59289E-04-3.75896E-14
 -1      2017 9.30372E-03 5.57361E-04-3.65307E-14
 -1      2018 9.27714E-03 5.28856E-04-3.65154E-14
 -1      2019 9.78754E-03 5.70748E-04-3.97367E-14
 -1      2020 9.62434E-03 5.63571E-04-3.86584E-14
 -1      2021 9.59363E-03 5.33816E-04-3.86433E-14
 -1      2022 1.01198E-02 5.96804E-04-4.19162E-14
 -1      2023 9.95265E-03 5.81615E-04-4.08228E-14
 -1      2024 9.91697E-03 5.50150E-04-4.08060E-14
 -1      2025 1.04595E-02 6.44051E-04-4.41279E-14
 -1      2026 1.02888E-02 6.17403E-04-4.30182E-14
 -1      2027 1.02476E-02 5.83685E-04-4.30014E-14
 -1      2028 1.08053E-02 7.19865E-04-4.63730E-14
 -1      2029 1.06319E-02 6.78057E-04-4.52459E-14
 -1      2030 1.05854E-02 6.41554E-04-4.52260E-14
 -1      2031 1.11538E-02 8.30488E-04-4.86489E-14
 -1      2032 1.09797E-02 7.70731E-04-4.75075E-14
 -1      2033 1.09292E-02 7.31184E-04-4.74835E-14
 -1      2034 1.14995E-02 9.77066E-04-5.09544E-14
 -1      2035 1.13277E-02 8.99732E-04-4.97979E-14
 -1      2036 1.12761E-02 8.57659E-04-4.97692E-14
 -1      2037 1.18347E-02 1.14985E-03-5.32930E-14
 -1      2038 1.16692E-02 1.06152E-03-5.21200E-14
 -1      2039 1.16210E-02 1.01881E-03-5.20871E-14
 -1      2040 1.21515E-02 1.32312E-03-5.56510E-14
 -1      2041 1.19960E-02 1.23863E-03-5.44698E-14
 -1      2042 1.19557E-02 1.19867E-03-5.44316E-14
 -1      2043 1.24458E-02 1.45736E-03-5.80342E-14
 -1      2044 1.23013E-02 1.39755E-03-5.68386E-14
 -1      2045 1.22726E-02 1.36396E-03-5.67983E-14
 -1      2046 1.27216E-02 1.51347E-03-6.04293E-14
 -1      2047 1.25849E-02 1.49666E-03-5.92302E-14
 -1      2048 1.25692E-02 1.47105E-03-5.91868E-14
 -1      2049 1.29905E-02 1.47189E-03-6.28278E-14
 -1      2050 1.28556E-02 1.50438E-03-6.16292E-14
 -1      2051 1.28527E-02 1.48510E-03-6.15869E-14
 -1      2052 1.32639E-02 1.34445E-03-6.52246E-14
 -1      2053 1.31258E-02 1.41705E-03-6.40276E-14
 -1      2054 1.31360E-02 1.40048E-03-6.39861E-14
 -1      2055 1.35465E-02 1.16192E-03-6.76084E-14
 -1      2056 1.34041E-02 1.25808E-03-6.64179E-14
 -1      2057 1.34271E-02 1.24177E-03-6.63782E-14
 -1      2058 1.38355E-02 9.54368E-04-6.99880E-14
 -1      2059 1.36906E-02 1.06016E-03-6.87998E-14
 -1      2060 1.37254E-02 1.04375E-03-6.87595E-14
 -1      2061 1.41255E-02 7.38022E-04-7.23656E-14
 -1      2062 1.39808E-02 8.47053E-04-7.11759E-14
 -1      2063 1.40245E-02 8.31477E-04-7.11361E-14
 -1      2064 1.43698E-02 5.53623E-04-7.43381E-14
 -1      2065 1.42260E-02 6.64296E-04-7.31445E-14
 -1      2066 1.42744E-02 6.49817E-04-7.31059E-14
 -1      2067 1.44769E-02 5.01983E-04-7.46628E-14
 -1      2068 1.51327E-02 2.99507E-04-7.52466E-14
 -1      2069 1.49945E-02 3.35128E-04-7.50931E-14
 -1      2070 1.48628E-02 3.75366E-04-7.49439E-14
 -1      2071 1.47377E-02 4.16372E-04-7.47937E-14
 -1      2072 1.47963E-02 4.34623E-04-7.39892E-14
 -1      2073 1.46608E-02 4.38302E-04-7.48041E-14
 -1      2074 1.45471E-02 4.80590E-04-7.46495E-14
 -1      2075 1.44448E-02 5.53862E-04-7.38724E-14
 -1      2076 1.45901E-02 5.06665E-04-7.38490E-14
 -1      2077 1.54097E-02 2.43383E-04-7.55361E-14
 -1      2078 1.52716E-02 2.67902E-04-7.53896E-14
 -1      2079 1.50719E-02 3.46337E-04-7.42864E-14
 -1      2080 1.56605E-02 2.15897E-04-7.58305E-14
 -1      2081 1.55428E-02 2.25516E-04-7.56838E-14
 -1      2082 1.53582E-02 2.75272E-04-7.45783E-14
 -1      2083 1.58161E-02 2.19934E-04-7.61294E-14
 -1      2084 1.57542E-02 2.15417E-04-7.59804E-14
 -1      2085 1.56051E-02 2.35293E-04-7.48745E-14
 -1      2086 1.58241E-02 2.40033E-04-7.64328E-14
 -1      2087 1.58404E-02 2.31070E-04-7.62818E-14
 -1      2088 1.57375E-02 2.28568E-04-7.51728E-14
 -1      2089 1.56784E-02 2.48748E-04-7.67286E-14
 -1      2090 1.57684E-02 2.48496E-04-7.65797E-14
 -1      2091 1.57032E-02 2.32869E-04-7.54692E-14
 -1      2092 1.54259E-02 2.26442E-04-7.70305E-14
 -1      2093 1.55613E-02 2.42249E-04-7.68785E-14
 -1      2094 1.55127E-02 2.16630E-04-7.57645E-14
 -1      2095 1.51378E-02 1.72361E-04-7.73418E-14
 -1      2096 1.52832E-02 2.02472E-04-7.71849E-14
 -1      2097 1.52333E-02 1.65059E-04-7.60664E-14
 -1      2098 1.48543E-02 9.44217E-05-7.76654E-14
 -1      2099 1.49929E-02 1.34826E-04-7.75023E-14
 -1      2100 1.49338E-02 8.47466E-05-7.63754E-14
 -1      2101 1.46038E-02 4.89519E-06-7.79887E-14
 -1      2102 1.47246E-02 4.98771E-05-7.78269E-14
 -1      2103 1.46558E-02-1.04895E-05-7.66893E-14
 -1      2104 1.43869E-02-8.76763E-05-7.83107E-14
 -1      2105 1.44917E-02-4.17682E-05-7.81507E-14
 -1      2106 1.44162E-02-1.08557E-04-7.70042E-14
 -1      2107 1.49552E-02 4.12449E-04-6.82062E-14
 -1      2108 1.51320E-02 3.51195E-04-6.85314E-14
 -1      2109 1.54327E-02 2.28488E-04-6.94655E-14
 -1      2110 1.54292E-02 2.10695E-04-6.95198E-14
 -1      2111 1.52674E-02 3.01578E-04-6.88253E-14
 -1      2112 1.53666E-02 2.66114E-04-6.91197E-14
 -1      2113 1.51973E-02 3.05324E-04-6.91548E-14
 -1      2114 1.44804E-02 6.31071E-04-6.70705E-14
 -1      2115 1.47007E-02 5.21454E-04-6.76316E-14
 -1      2116 1.40278E-02 8.72648E-04-6.58727E-14
 -1      2117 1.42419E-02 7.55221E-04-6.64471E-14
 -1      2118 3.27129E-04-8.89568E-05-1.26391E-16
 -1      2119 3.29245E-04-1.02099E-04-1.23450E-16
 -1      2120 4.46324E-04-1.45067E-04-1.80303E-16
 -1      2121 4.39993E-04-1.09911E-04-1.87635E-16
 -1      2122 1.31788E-02 1.29492E-03-6.29666E-14
 -1      2123 1.33562E-02 1.22275E-03-6.36869E-14
 -1      2124 1.28237E-02 1.34807E-03-6.14551E-14
 -1      2125 1.29889E-02 1.33822E-03-6.21753E-14
 -1      2126 1.24646E-02 1.26270E-03-5.98524E-14
 -1      2127 1.26356E-02 1.32389E-03-6.06232E-14
 -1      2128 1.20258E-02 1.02122E-03-5.82735E-14
 -1      2129 1.22166E-02 1.13626E-03-5.88549E-14
 -1      2130 1.16454E-02 7.73404E-04-5.70910E-14
 -1      2131 1.18357E-02 9.02741E-04-5.76807E-14
 -1      2132 1.19489E-02 9.50327E-04-5.75626E-14
 -1      2133 1.11741E-02 5.07515E-04-5.61289E-14
 -1      2134 1.13810E-02 6.18597E-04-5.64988E-14
 -1      2135 1.07993E-02 3.27018E-04-5.55192E-14
 -1      2136 1.09707E-02 4.08963E-04-5.58247E-14
 -1      2137 1.05111E-02 2.07821E-04-5.52081E-14
 -1      2138 1.06254E-02 2.51904E-04-5.53054E-14
 -1      2139 1.03901E-02 1.39381E-04-5.50087E-14
 -1      2140 1.04281E-02 1.63544E-04-5.50191E-14
 -1      2141 1.04457E-02 8.05926E-05-5.54617E-14
 -1      2142 1.03973E-02 1.07383E-04-5.52565E-14
 -1      2143 1.06670E-02-8.09857E-06-5.59998E-14
 -1      2144 1.05456E-02 3.90824E-05-5.56616E-14
 -1      2145 1.09970E-02-1.45587E-04-5.67482E-14
 -1      2146 1.08181E-02-7.17749E-05-5.63752E-14
 -1      2147 1.07400E-02-1.74466E-05-5.56482E-14
 -1      2148 1.14469E-02-3.74186E-04-5.79564E-14
 -1      2149 1.12378E-02-2.62956E-04-5.73846E-14
 -1      2150 1.19001E-02-6.40621E-04-5.95063E-14
 -1      2151 1.17145E-02-5.24797E-04-5.88011E-14
 -1      2152 1.22473E-02-8.24448E-04-6.08404E-14
 -1      2153 1.20765E-02-7.37185E-04-6.01725E-14
 -1      2154 1.20096E-02-6.90872E-04-5.96465E-14
 -1      2155 1.26131E-02-9.40991E-04-6.24332E-14
 -1      2156 1.24508E-02-9.00986E-04-6.17184E-14
 -1      2157 1.29354E-02-9.36246E-04-6.39082E-14
 -1      2158 1.27825E-02-9.54035E-04-6.31902E-14
 -1      2159 1.33411E-02-7.84992E-04-6.54715E-14
 -1      2160 1.31620E-02-8.66726E-04-6.48546E-14
 -1      2161 1.37591E-02-5.64841E-04-6.66824E-14
 -1      2162 1.35546E-02-6.79292E-04-6.61181E-14
 -1      2163 1.42027E-02-3.13288E-04-6.77850E-14
 -1      2164 1.39880E-02-4.35311E-04-6.72875E-14
 -1      2165 1.46844E-02-7.77542E-05-6.86554E-14
 -1      2166 1.44715E-02-1.73936E-04-6.83381E-14
 -1      2167 1.50690E-02 7.91293E-05-6.92288E-14
 -1      2168 1.48868E-02 7.35533E-06-6.89430E-14
 -1      2169 1.47646E-02-4.64642E-06-6.93631E-14
 -1      2170 1.53773E-02 1.82793E-04-6.94793E-14
 -1      2171 1.52750E-02 1.51633E-04-6.94347E-14
 -1      2172 1.54181E-02 2.07441E-04-7.00993E-14
 -1      2173 1.35910E-02 1.11177E-03-6.45230E-14
 -1      2174 1.37941E-02 1.00143E-03-6.51671E-14
 -1      2175 1.38819E-02 9.21735E-04-6.57650E-14
 -1      2176 6.07930E-04-2.98095E-04-2.01824E-16
 -1      2177 1.34457E-02 1.16896E-03-6.42260E-14
 -1      2178 6.63650E-04-2.92375E-04-2.65358E-16
 -1      2179 1.54136E-02 2.38851E-04-6.97953E-14
 -1      2180 1.48188E-02 4.42938E-04-6.82877E-14
 -1      2181 1.42646E-02-1.55607E-04-7.80730E-14
 -1      2182 1.43332E-02 6.69099E-04-6.70916E-14
 -1      2183 1.51803E-02 1.38256E-04-6.98551E-14
 -1      2184 1.43110E-02-2.16673E-04-6.85256E-14
 -1      2185 1.38367E-02-4.82798E-04-6.73675E-14
 -1      2186 1.34265E-02-7.22141E-04-6.61155E-14
 -1      2187 1.30290E-02-9.12474E-04-6.45225E-14
 -1      2188 1.29220E-02-9.43041E-04-6.41908E-14
 -1      2189 1.31114E-02-8.73741E-04-6.51368E-14
 -1      2190 1.23496E-02-8.69849E-04-6.11872E-14
 -1      2191 1.11133E-02-1.82311E-04-5.66577E-14
 -1      2192 1.04918E-02 6.90427E-05-5.50770E-14
 -1      2193 1.03824E-02 1.22953E-04-5.46329E-14
 -1      2194 1.04627E-02 1.68588E-04-5.45748E-14
 -1      2195 1.07144E-02 2.68048E-04-5.49762E-14
 -1      2196 1.15284E-02 6.78866E-04-5.63814E-14
 -1      2197 1.23509E-02 1.20728E-03-5.91460E-14
 -1      2198 1.24537E-02 1.26423E-03-5.94377E-14
 -1      2199 1.22443E-02 1.14098E-03-5.84432E-14
 -1      2200 1.30686E-02 1.32699E-03-6.25990E-14
 -1      2201 1.27323E-02 1.34954E-03-6.09749E-14
 -1      2202 1.10851E-02 4.31958E-04-5.54920E-14
 -1      2203 1.15992E-02-4.45708E-04-5.81363E-14
 -1      2204 1.26856E-02-9.58839E-04-6.28205E-14
 -1      2205 1.01667E-03 3.99771E-04-3.50089E-16
 -1      2206 8.72189E-04 3.63389E-04-2.51440E-16
 -1      2207 5.47750E-04-5.52854E-05-2.68841E-16
 -1      2208 5.48791E-04-7.19967E-05-2.69790E-16
 -1      2209 5.50216E-04-8.93132E-05-2.69926E-16
 -1      2210 5.52097E-04-1.07283E-04-2.69424E-16
 -1      2211 6.65253E-04-9.54715E-05-3.65214E-16
 -1      2212 5.46361E-04 8.85374E-06-2.57905E-16
 -1      2213 5.46341E-04-6.97967E-06-2.61577E-16
 -1      2214 5.47119E-04 4.08569E-05-2.48513E-16
 -1      2215 5.46617E-04 2.47863E-05-2.53595E-16
 -1      2216 6.61289E-04 1.99255E-05-3.46497E-16
 -1      2217 5.48954E-04 7.34710E-05-2.36559E-16
 -1      2218 5.47886E-04 5.69824E-05-2.43051E-16
 -1      2219 6.62620E-04 5.77736E-05-3.33623E-16
 -1      2220 5.52359E-04 1.08937E-04-2.20893E-16
 -1      2221 5.50428E-04 9.08653E-05-2.29105E-16
 -1      2222 6.65493E-04 9.72346E-05-3.16926E-16
 -1      2223 5.58254E-04 1.48267E-04-2.00361E-16
 -1      2224 5.54928E-04 1.28045E-04-2.11596E-16
 -1      2225 6.70602E-04 1.40000E-04-2.95526E-16
 -1      2226 5.68600E-04 1.93863E-04-1.72822E-16
 -1      2227 5.62753E-04 1.70146E-04-1.87662E-16
 -1      2228 6.79271E-04 1.87539E-04-2.67500E-16
 -1      2229 1.30215E-03 4.56714E-04-6.02925E-16
 -1      2230 1.15981E-03 4.30771E-04-4.67196E-16
 -1      2231 1.07184E-03 3.81291E-04-4.42260E-16
 -1      2232 9.15235E-04-3.46343E-04-4.97473E-16
 -1      2233 1.05934E-03-3.79665E-04-6.50304E-16
 -1      2234 1.33341E-02 1.21888E-03-6.39852E-14
 -1      2235 1.35298E-02 1.10752E-03-6.48205E-14
 -1      2236 1.20261E-03-4.08039E-04-8.24549E-16
 -1      2237 1.34543E-03-4.31912E-04-1.02015E-15
 -1      2238 1.11702E-03-3.60468E-04-7.51569E-16
 -1      2239 1.48761E-03-4.52135E-04-1.23712E-15
 -1      2240 1.62940E-03-4.68979E-04-1.47530E-15
 -1      2241 1.40337E-03-4.07236E-04-1.14484E-15
 -1      2242 1.77083E-03-4.83118E-04-1.73430E-15
 -1      2243 1.91202E-03-4.94768E-04-2.01443E-15
 -1      2244 1.68850E-03-4.40483E-04-1.62160E-15
 -1      2245 2.05306E-03-5.04422E-04-2.31469E-15
 -1      2246 2.19399E-03-5.12258E-04-2.63598E-15
 -1      2247 1.97270E-03-4.63548E-04-2.18079E-15
 -1      2248 2.33490E-03-5.18636E-04-2.97767E-15
 -1      2249 2.47579E-03-5.23700E-04-3.33972E-15
 -1      2250 2.25635E-03-4.79076E-04-2.82153E-15
 -1      2251 2.61675E-03-5.27713E-04-3.72230E-15
 -1      2252 2.75775E-03-5.30790E-04-4.12456E-15
 -1      2253 2.53977E-03-4.89106E-04-3.54351E-15
 -1      2254 2.89885E-03-5.33124E-04-4.54651E-15
 -1      2255 3.04004E-03-5.34804E-04-4.98778E-15
 -1      2256 2.82320E-03-4.95191E-04-4.34499E-15
 -1      2257 3.18134E-03-5.35969E-04-5.44797E-15
 -1      2258 3.32274E-03-5.36687E-04-5.92735E-15
 -1      2259 3.10677E-03-4.98501E-04-5.22408E-15
 -1      2260 3.46427E-03-5.37057E-04-6.42506E-15
 -1      2261 3.60589E-03-5.37130E-04-6.94129E-15
 -1      2262 3.39057E-03-4.99902E-04-6.17895E-15
 -1      2263 3.74763E-03-5.36971E-04-7.47586E-15
 -1      2264 3.88946E-03-5.36620E-04-8.02860E-15
 -1      2265 3.67462E-03-5.00022E-04-7.20759E-15
 -1      2266 4.03140E-03-5.36119E-04-8.59833E-15
 -1      2267 4.17342E-03-5.35493E-04-9.18619E-15
 -1      2268 3.95894E-03-4.99304E-04-8.30881E-15
 -1      2269 4.31553E-03-5.34768E-04-9.79236E-15
 -1      2270 4.45773E-03-5.33962E-04-1.04144E-14
 -1      2271 4.24350E-03-4.98044E-04-9.47994E-15
 -1      2272 4.60000E-03-5.33085E-04-1.10531E-14
 -1      2273 4.74235E-03-5.32147E-04-1.17093E-14
 -1      2274 4.52830E-03-4.96427E-04-1.07209E-14
 -1      2275 4.88476E-03-5.31150E-04-1.23825E-14
 -1      2276 5.02724E-03-5.30097E-04-1.30716E-14
 -1      2277 4.81330E-03-4.94553E-04-1.20281E-14
 -1      2278 5.16979E-03-5.28982E-04-1.37774E-14
 -1      2279 5.31240E-03-5.27804E-04-1.45003E-14
 -1      2280 5.09849E-03-4.92453E-04-1.34031E-14
 -1      2281 5.45507E-03-5.26551E-04-1.52401E-14
 -1      2282 5.59781E-03-5.25220E-04-1.59962E-14
 -1      2283 5.38388E-03-4.90106E-04-1.48450E-14
 -1      2284 5.74062E-03-5.23792E-04-1.67697E-14
 -1      2285 5.88349E-03-5.22263E-04-1.75592E-14
 -1      2286 5.66945E-03-4.87454E-04-1.63540E-14
 -1      2287 6.02645E-03-5.20611E-04-1.83648E-14
 -1      2288 6.16949E-03-5.18831E-04-1.91883E-14
 -1      2289 5.95524E-03-4.84407E-04-1.79295E-14
 -1      2290 6.31262E-03-5.16899E-04-2.00285E-14
 -1      2291 6.45586E-03-5.14811E-04-2.08834E-14
 -1      2292 6.24127E-03-4.80860E-04-1.95718E-14
 -1      2293 6.59921E-03-5.12543E-04-2.17553E-14
 -1      2294 6.74271E-03-5.10093E-04-2.26419E-14
 -1      2295 6.52760E-03-4.76697E-04-2.12786E-14
 -1      2296 6.88634E-03-5.07442E-04-2.35441E-14
 -1      2297 7.03016E-03-5.04591E-04-2.44611E-14
 -1      2298 6.81430E-03-4.71809E-04-2.30490E-14
 -1      2299 7.17416E-03-5.01528E-04-2.53926E-14
 -1      2300 7.31839E-03-4.98262E-04-2.63370E-14
 -1      2301 7.10148E-03-4.66114E-04-2.48792E-14
 -1      2302 7.46286E-03-4.94795E-04-2.72958E-14
 -1      2303 7.60763E-03-4.91148E-04-2.82681E-14
 -1      2304 7.38927E-03-4.59579E-04-2.67659E-14
 -1      2305 7.75268E-03-4.87343E-04-2.92510E-14
 -1      2306 7.89812E-03-4.83420E-04-3.02470E-14
 -1      2307 7.67783E-03-4.52262E-04-2.87035E-14
 -1      2308 8.04392E-03-4.79433E-04-3.12567E-14
 -1      2309 8.19019E-03-4.75448E-04-3.22792E-14
 -1      2310 7.96739E-03-4.44361E-04-3.06921E-14
 -1      2311 8.33692E-03-4.71565E-04-3.33154E-14
 -1      2312 8.48422E-03-4.67884E-04-3.43629E-14
 -1      2313 8.25818E-03-4.36278E-04-3.27351E-14
 -1      2314 8.63208E-03-4.64569E-04-3.54201E-14
 -1      2315 8.78063E-03-4.61770E-04-3.64874E-14
 -1      2316 8.55055E-03-4.28712E-04-3.48247E-14
 -1      2317 8.92986E-03-4.59729E-04-3.75628E-14
 -1      2318 9.07992E-03-4.58661E-04-3.86459E-14
 -1      2319 8.84490E-03-4.22758E-04-3.69533E-14
 -1      2320 9.23081E-03-4.58902E-04-3.97361E-14
 -1      2321 9.38266E-03-4.60752E-04-4.08321E-14
 -1      2322 9.14177E-03-4.20035E-04-3.91156E-14
 -1      2323 9.53553E-03-4.64647E-04-4.19368E-14
 -1      2324 9.68948E-03-4.70984E-04-4.30466E-14
 -1      2325 9.44187E-03-4.22807E-04-4.13062E-14
 -1      2326 9.84467E-03-4.80280E-04-4.41635E-14
 -1      2327 1.00010E-02-4.93037E-04-4.52878E-14
 -1      2328 9.74614E-03-4.34086E-04-4.35238E-14
 -1      2329 1.01589E-02-5.09793E-04-4.64170E-14
 -1      2330 1.03180E-02-5.31121E-04-4.75535E-14
 -1      2331 1.00557E-02-4.57645E-04-4.57684E-14
 -1      2332 1.04787E-02-5.57455E-04-4.86970E-14
 -1      2333 1.06405E-02-5.89332E-04-4.98452E-14
 -1      2334 1.03720E-02-4.97831E-04-4.80370E-14
 -1      2335 1.08039E-02-6.26879E-04-5.09984E-14
 -1      2336 1.09678E-02-6.70289E-04-5.21580E-14
 -1      2337 1.06960E-02-5.58987E-04-5.03318E-14
 -1      2338 1.11328E-02-7.19093E-04-5.33217E-14
 -1      2339 1.12974E-02-7.72717E-04-5.44892E-14
 -1      2340 1.10275E-02-6.44006E-04-5.26479E-14
 -1      2341 1.14619E-02-8.29781E-04-5.56650E-14
 -1      2342 1.16244E-02-8.88226E-04-5.68461E-14
 -1      2343 1.13640E-02-7.51690E-04-5.49846E-14
 -1      2344 1.17850E-02-9.45622E-04-5.80289E-14
 -1      2345 1.19424E-02-9.98360E-04-5.92175E-14
 -1      2346 1.16994E-02-8.72499E-04-5.73430E-14
 -1      2347 1.20961E-02-1.04327E-03-6.04118E-14
 -1      2348 1.22468E-02-1.07600E-03-6.16103E-14
 -1      2349 1.20255E-02-9.84916E-04-5.97183E-14
 -1      2350 1.23935E-02-1.09380E-03-6.28134E-14
 -1      2351 1.25389E-02-1.09372E-03-6.40202E-14
 -1      2352 1.23370E-02-1.05722E-03-6.21101E-14
 -1      2353 1.26823E-02-1.07469E-03-6.52290E-14
 -1      2354 1.28268E-02-1.03704E-03-6.64439E-14
 -1      2355 1.26373E-02-1.05957E-03-6.45177E-14
 -1      2356 1.29717E-02-9.81845E-04-6.76624E-14
 -1      2357 1.31189E-02-9.12035E-04-6.88814E-14
 -1      2358 1.29367E-02-9.81125E-04-6.69411E-14
 -1      2359 1.32675E-02-8.29902E-04-7.01025E-14
 -1      2360 1.34176E-02-7.38980E-04-7.13264E-14
 -1      2361 1.32436E-02-8.35735E-04-6.93767E-14
 -1      2362 1.35684E-02-6.41592E-04-7.25518E-14
 -1      2363 1.37190E-02-5.39908E-04-7.37789E-14
 -1      2364 1.35574E-02-6.49706E-04-7.18182E-14
 -1      2365 1.51378E-02 3.09414E-04-6.95361E-14
 -1      2366 1.52664E-02 2.75735E-04-6.98297E-14
 -1      2367 1.86536E-03 5.25233E-04-1.33582E-15
 -1      2368 1.72512E-03 5.12480E-04-1.12392E-15
 -1      2369 2.14546E-03 5.44520E-04-1.81676E-15
 -1      2370 2.00546E-03 5.35853E-04-1.56673E-15
 -1      2371 1.92466E-03 4.94615E-04-1.50964E-15
 -1      2372 2.42554E-03 5.57320E-04-2.37530E-15
 -1      2373 2.28549E-03 5.51626E-04-2.08624E-15
 -1      2374 2.20678E-03 5.11884E-04-2.01743E-15
 -1      2375 2.70596E-03 5.65438E-04-3.01076E-15
 -1      2376 2.56570E-03 5.61883E-04-2.68341E-15
 -1      2377 2.48873E-03 5.23206E-04-2.60195E-15
 -1      2378 2.98694E-03 5.70230E-04-3.72453E-15
 -1      2379 2.84638E-03 5.68187E-04-3.35777E-15
 -1      2380 2.77082E-03 5.30252E-04-3.26342E-15
 -1      2381 3.26854E-03 5.72703E-04-4.51334E-15
 -1      2382 3.12767E-03 5.71709E-04-4.10986E-15
 -1      2383 3.05324E-03 5.34276E-04-4.00221E-15
 -1      2384 3.55078E-03 5.73595E-04-5.37747E-15
 -1      2385 3.40959E-03 5.73312E-04-4.93584E-15
 -1      2386 3.33605E-03 5.36209E-04-4.81559E-15
 -1      2387 3.83362E-03 5.73436E-04-6.31724E-15
 -1      2388 3.69214E-03 5.73622E-04-5.83791E-15
 -1      2389 3.61929E-03 5.36729E-04-5.70382E-15
 -1      2390 4.11699E-03 5.72589E-04-7.33243E-15
 -1      2391 3.97525E-03 5.73081E-04-6.81532E-15
 -1      2392 3.90293E-03 5.36317E-04-6.66707E-15
 -1      2393 4.40083E-03 5.71292E-04-8.42398E-15
 -1      2394 4.25886E-03 5.71985E-04-7.86923E-15
 -1      2395 4.18695E-03 5.35301E-04-7.70579E-15
 -1      2396 4.68508E-03 5.69684E-04-9.59095E-15
 -1      2397 4.54291E-03 5.70520E-04-8.99740E-15
 -1      2398 4.47131E-03 5.33889E-04-8.81973E-15
 -1      2399 4.96968E-03 5.67828E-04-1.08348E-14
 -1      2400 4.82734E-03 5.68784E-04-1.02031E-14
 -1      2401 4.75597E-03 5.32197E-04-1.00091E-14
 -1      2402 5.25461E-03 5.65728E-04-1.21527E-14
 -1      2403 5.11211E-03 5.66809E-04-1.14848E-14
 -1      2404 5.04090E-03 5.30269E-04-1.12744E-14
 -1      2405 5.53984E-03 5.63341E-04-1.35445E-14
 -1      2406 5.39719E-03 5.64573E-04-1.28392E-14
 -1      2407 5.32609E-03 5.28096E-04-1.26137E-14
 -1      2408 5.82539E-03 5.60590E-04-1.50055E-14
 -1      2409 5.68258E-03 5.62015E-04-1.42665E-14
 -1      2410 5.61152E-03 5.25621E-04-1.40244E-14
 -1      2411 6.11131E-03 5.57370E-04-1.65366E-14
 -1      2412 5.96830E-03 5.59043E-04-1.57626E-14
 -1      2413 5.89723E-03 5.22759E-04-1.55051E-14
 -1      2414 6.39766E-03 5.53562E-04-1.81349E-14
 -1      2415 6.25442E-03 5.55544E-04-1.73278E-14
 -1      2416 6.18324E-03 5.19399E-04-1.70551E-14
 -1      2417 6.68456E-03 5.49040E-04-1.97979E-14
 -1      2418 6.54103E-03 5.51394E-04-1.89573E-14
 -1      2419 6.46964E-03 5.15416E-04-1.86713E-14
 -1      2420 6.97219E-03 5.43688E-04-2.15235E-14
 -1      2421 6.82827E-03 5.46470E-04-2.06530E-14
 -1      2422 6.75651E-03 5.10682E-04-2.03508E-14
 -1      2423 7.26075E-03 5.37419E-04-2.33082E-14
 -1      2424 7.11633E-03 5.40667E-04-2.24080E-14
 -1      2425 7.04400E-03 5.05081E-04-2.20915E-14
 -1      2426 7.55053E-03 5.30207E-04-2.51549E-14
 -1      2427 7.40545E-03 5.33924E-04-2.42247E-14
 -1      2428 7.33228E-03 4.98535E-04-2.38944E-14
 -1      2429 7.84187E-03 5.22130E-04-2.70540E-14
 -1      2430 7.69596E-03 5.26262E-04-2.60992E-14
 -1      2431 7.62157E-03 4.91031E-04-2.57555E-14
 -1      2432 8.13522E-03 5.13433E-04-2.90003E-14
 -1      2433 7.98825E-03 5.17831E-04-2.80213E-14
 -1      2434 7.91213E-03 4.82673E-04-2.76687E-14
 -1      2435 8.43106E-03 5.04616E-04-3.09908E-14
 -1      2436 8.28276E-03 5.08993E-04-2.99896E-14
 -1      2437 8.20431E-03 4.73745E-04-2.96277E-14
 -1      2438 8.72998E-03 4.96564E-04-3.30215E-14
 -1      2439 8.58006E-03 5.00421E-04-3.20010E-14
 -1      2440 8.49848E-03 4.64806E-04-3.16316E-14
 -1      2441 9.03264E-03 4.90715E-04-3.50886E-14
 -1      2442 8.88076E-03 4.93253E-04-3.40508E-14
 -1      2443 8.79508E-03 4.56822E-04-3.36743E-14
 -1      2444 9.33978E-03 4.89283E-04-3.71919E-14
 -1      2445 9.18557E-03 4.89284E-04-3.61355E-14
 -1      2446 9.09468E-03 4.51338E-04-3.57537E-14
 -1      2447 9.65219E-03 4.95535E-04-3.93302E-14
 -1      2448 9.49525E-03 4.91216E-04-3.82565E-14
 -1      2449 9.39792E-03 4.50699E-04-3.78687E-14
 -1      2450 9.97071E-03 5.14065E-04-4.15022E-14
 -1      2451 9.81064E-03 5.02945E-04-4.04121E-14
 -1      2452 9.70569E-03 4.58318E-04-4.00178E-14
 -1      2453 1.02963E-02 5.50960E-04-4.37041E-14
 -1      2454 1.01326E-02 5.29798E-04-4.25995E-14
 -1      2455 1.00192E-02 4.78943E-04-4.21975E-14
 -1      2456 1.06296E-02 6.13592E-04-4.59370E-14
 -1      2457 1.04621E-02 5.78564E-04-4.48168E-14
 -1      2458 1.03400E-02 5.18825E-04-4.44079E-14
 -1      2459 1.09710E-02 7.09524E-04-4.81986E-14
 -1      2460 1.07996E-02 6.56926E-04-4.70641E-14
 -1      2461 1.06703E-02 5.85546E-04-4.66467E-14
 -1      2462 1.13192E-02 8.43739E-04-5.04876E-14
 -1      2463 1.11449E-02 7.71690E-04-4.93407E-14
 -1      2464 1.10118E-02 6.87017E-04-4.89122E-14
 -1      2465 1.16695E-02 1.01314E-03-5.28091E-14
 -1      2466 1.14950E-02 9.24701E-04-5.16447E-14
 -1      2467 1.13648E-02 8.28696E-04-5.12052E-14
 -1      2468 1.20131E-02 1.19907E-03-5.51559E-14
 -1      2469 1.18432E-02 1.10615E-03-5.39804E-14
 -1      2470 1.17242E-02 1.00715E-03-5.35306E-14
 -1      2471 1.23403E-02 1.36272E-03-5.75288E-14
 -1      2472 1.21791E-02 1.28681E-03-5.63382E-14
 -1      2473 1.20789E-02 1.20006E-03-5.58811E-14
 -1      2474 1.26471E-02 1.45594E-03-5.99189E-14
 -1      2475 1.24946E-02 1.42139E-03-5.87201E-14
 -1      2476 1.24153E-02 1.36239E-03-5.82540E-14
 -1      2477 1.29454E-02 1.44353E-03-6.23175E-14
 -1      2478 1.27957E-02 1.46340E-03-6.11172E-14
 -1      2479 1.27335E-02 1.43668E-03-6.06483E-14
 -1      2480 1.32482E-02 1.33073E-03-6.47190E-14
 -1      2481 1.30950E-02 1.39760E-03-6.35207E-14
 -1      2482 1.30478E-02 1.39319E-03-6.30525E-14
 -1      2483 1.35611E-02 1.15274E-03-6.71079E-14
 -1      2484 1.34037E-02 1.24710E-03-6.59146E-14
 -1      2485 1.33724E-02 1.25086E-03-6.54511E-14
 -1      2486 1.38776E-02 9.47456E-04-6.94890E-14
 -1      2487 1.37198E-02 1.05166E-03-6.82979E-14
 -1      2488 1.37072E-02 1.05638E-03-6.78382E-14
 -1      2489 1.41882E-02 7.35893E-04-7.18654E-14
 -1      2490 1.40345E-02 8.42180E-04-7.06770E-14
 -1      2491 1.40400E-02 8.48299E-04-7.02168E-14
 -1      2492 1.43417E-02 6.26719E-04-7.30922E-14
 -1      2493 1.53068E-02 2.91844E-04-7.36242E-14
 -1      2494 1.51587E-02 3.32062E-04-7.34773E-14
 -1      2495 1.55540E-02 2.40227E-04-7.39188E-14
 -1      2496 1.54431E-02 2.60545E-04-7.37718E-14
 -1      2497 1.52620E-02 2.97085E-04-7.26689E-14
 -1      2498 1.47242E-02 4.85171E-04-7.30334E-14
 -1      2499 1.45931E-02 5.38482E-04-7.28825E-14
 -1      2500 1.50082E-02 3.80206E-04-7.33285E-14
 -1      2501 1.48629E-02 4.30827E-04-7.31823E-14
 -1      2502 1.46463E-02 5.25944E-04-7.20756E-14
 -1      2503 1.49460E-02 4.01415E-04-7.23725E-14
 -1      2504 1.56609E-02 2.28238E-04-7.42132E-14
 -1      2505 1.56307E-02 2.32851E-04-7.40642E-14
 -1      2506 1.55107E-02 2.41498E-04-7.29630E-14
 -1      2507 1.55753E-02 2.20277E-04-7.45064E-14
 -1      2508 1.56415E-02 2.28086E-04-7.43602E-14
 -1      2509 1.55808E-02 2.25606E-04-7.32542E-14
 -1      2510 1.53329E-02 1.79163E-04-7.48022E-14
 -1      2511 1.54678E-02 2.06037E-04-7.46535E-14
 -1      2512 1.54315E-02 2.01708E-04-7.35462E-14
 -1      2513 1.50271E-02 9.81909E-05-7.50963E-14
 -1      2514 1.51825E-02 1.42539E-04-7.49471E-14
 -1      2515 1.51373E-02 1.31017E-04-7.38341E-14
 -1      2516 1.47211E-02-7.83792E-06-7.54039E-14
 -1      2517 1.48706E-02 4.59395E-05-7.52496E-14
 -1      2518 1.48065E-02 1.87901E-05-7.41273E-14
 -1      2519 1.44538E-02-1.18045E-04-7.57121E-14
 -1      2520 1.45823E-02-6.39864E-05-7.55600E-14
 -1      2521 1.45042E-02-1.08736E-04-7.44306E-14
 -1      2522 1.42286E-02-2.22662E-04-7.60186E-14
 -1      2523 1.43367E-02-1.71810E-04-7.58636E-14
 -1      2524 1.42522E-02-2.29691E-04-7.47336E-14
 -1      2525 1.41368E-02-2.50279E-04-7.69560E-14
 -1      2526 1.42015E-02 7.11643E-04-6.71937E-14
 -1      2527 1.44180E-02 5.97114E-04-6.78154E-14
 -1      2528 1.58459E-03 4.97046E-04-9.31275E-16
 -1      2529 1.44365E-03 4.78718E-04-7.57369E-16
 -1      2530 1.64192E-03 4.69190E-04-1.07828E-15
 -1      2531 1.53806E-02 2.44107E-04-7.02231E-14
 -1      2532 1.54514E-02 2.30023E-04-7.05681E-14
 -1      2533 1.46921E-02 4.70804E-04-6.85107E-14
 -1      2534 1.49300E-02 3.77449E-04-6.90831E-14
 -1      2535 1.52801E-02 1.78961E-04-7.06953E-14
 -1      2536 1.50876E-02 1.30481E-04-7.04912E-14
 -1      2537 1.44101E-02-1.38512E-04-6.93123E-14
 -1      2538 1.41653E-02-2.65738E-04-6.87623E-14
 -1      2539 1.12175E-02-2.25904E-04-5.65079E-14
 -1      2540 1.10018E-02-1.20760E-04-5.58738E-14
 -1      2541 1.05211E-02 6.43725E-05-5.45265E-14
 -1      2542 1.04318E-02 8.98172E-05-5.43310E-14
 -1      2543 5.46556E-04-2.28955E-05-2.64627E-16
 -1      2544 5.47016E-04-3.89320E-05-2.67107E-16
 -1      2545 6.62471E-04-5.58047E-05-3.62476E-16
 -1      2546 6.61237E-04-1.77025E-05-3.56120E-16
 -1      2547 1.26739E-02 1.34703E-03-6.05564E-14
 -1      2548 1.28211E-02 1.36723E-03-6.13877E-14
 -1      2549 1.09832E-02 3.63747E-04-5.47575E-14
 -1      2550 1.11639E-02 4.52989E-04-5.50582E-14
 -1      2551 1.29691E-02 1.35622E-03-6.21773E-14
 -1      2552 1.31177E-02 1.31292E-03-6.29684E-14
 -1      2553 1.28883E-02 1.36950E-03-6.17573E-14
 -1      2554 1.18778E-02 8.93978E-04-5.68482E-14
 -1      2555 1.20357E-02 1.00557E-03-5.74376E-14
 -1      2556 1.17139E-02-5.11347E-04-5.81986E-14
 -1      2557 1.14802E-02-3.69566E-04-5.73552E-14
 -1      2558 1.14089E-02 5.89348E-04-5.55122E-14
 -1      2559 1.16378E-02 7.34061E-04-5.60990E-14
 -1      2560 1.06313E-02 2.19692E-04-5.42938E-14
 -1      2561 1.07926E-02 2.79984E-04-5.45058E-14
 -1      2562 1.04303E-02 1.51773E-04-5.39178E-14
 -1      2563 1.05158E-02 1.77779E-04-5.41069E-14
 -1      2564 1.05713E-02 1.93758E-04-5.36373E-14
 -1      2565 1.03795E-02 1.11663E-04-5.40899E-14
 -1      2566 1.03701E-02 1.23775E-04-5.38436E-14
 -1      2567 1.03831E-02 9.92378E-05-5.35409E-14
 -1      2568 1.07989E-02-3.35722E-05-5.52056E-14
 -1      2569 1.06632E-02 1.53197E-05-5.48331E-14
 -1      2570 1.27190E-02-9.69826E-04-6.31460E-14
 -1      2571 1.25894E-02-9.55835E-04-6.23909E-14
 -1      2572 1.20877E-02-7.41878E-04-5.97901E-14
 -1      2573 1.19418E-02-6.50871E-04-5.91257E-14
 -1      2574 1.24256E-02-9.10598E-04-6.15143E-14
 -1      2575 1.22609E-02-8.35194E-04-6.06382E-14
 -1      2576 1.24776E-02-9.37201E-04-6.18378E-14
 -1      2577 1.35042E-02-6.56185E-04-6.68112E-14
 -1      2578 1.33283E-02-7.61885E-04-6.61643E-14
 -1      2579 1.38944E-02-4.20034E-04-6.80224E-14
 -1      2580 1.36940E-02-5.43656E-04-6.74169E-14
 -1      2581 1.35839E-02-5.97814E-04-6.74662E-14
 -1      2582 1.48561E-02 5.20754E-05-7.01372E-14
 -1      2583 1.46701E-02-1.97575E-05-6.98526E-14
 -1      2584 1.54519E-02 2.15699E-04-7.07348E-14
 -1      2585 1.54010E-02 2.06956E-04-7.06945E-14
 -1      2586 5.88538E-04-2.37939E-04-2.41045E-16
 -1      2587 7.81352E-04-3.04783E-04-3.80704E-16
 -1      2588 8.40774E-04-2.93558E-04-4.58319E-16
 -1      2589 5.78996E-04-2.10139E-04-2.51955E-16
 -1      2590 7.57940E-04 3.34186E-04-1.81170E-16
 -1      2591 6.11515E-04 2.84828E-04-1.15413E-16
 -1      2592 5.84786E-04 2.58058E-04-1.23802E-16
 -1      2593 8.13761E-04 3.22855E-04-2.48621E-16
 -1      2594 1.37512E-02 9.72336E-04-6.57778E-14
 -1      2595 1.39519E-02 8.48843E-04-6.64809E-14
 -1      2596 1.21473E-02 1.08741E-03-5.77237E-14
 -1      2597 6.70226E-04-1.37926E-04-3.63669E-16
 -1      2598 5.54611E-04-1.26179E-04-2.67568E-16
 -1      2599 5.57774E-04-1.46175E-04-2.64600E-16
 -1      2600 1.35787E-03 4.32697E-04-7.22675E-16
 -1      2601 5.72279E-04 2.27860E-04-1.45012E-16
 -1      2602 1.36318E-02 1.03998E-03-6.55379E-14
 -1      2603 1.54770E-02 2.23914E-04-7.11648E-14
 -1      2604 1.40202E-02-3.37204E-04-6.88126E-14
 -1      2605 1.21703E-02-8.00504E-04-6.01138E-14
 -1      2606 1.45664E-02 5.20927E-04-6.86131E-14
 -1      2607 1.50335E-02 3.39741E-04-6.97597E-14
 -1      2608 1.43612E-02 6.38203E-04-7.26298E-14
 -1      2609 1.44326E-02 6.10708E-04-7.26205E-14
 -1      2610 1.28095E-02-9.66250E-04-6.37573E-14
 -1      2611 1.27113E-02-9.76031E-04-6.33246E-14
 -1      2612 1.28900E-02-9.49295E-04-6.43695E-14
 -1      2613 1.39487E-02-3.77856E-04-7.57225E-14
 -1      2614 1.41152E-02-2.83979E-04-7.59327E-14
 -1      2615 1.40293E-02-3.49000E-04-7.47940E-14
 -1      2616 1.38189E-02-4.70513E-04-7.46135E-14
 -1      2617 1.03790E-02 1.32115E-04-5.33731E-14
 -1      2618 1.04016E-02 1.40200E-04-5.29062E-14
 -1      2619 1.03433E-02 1.20280E-04-5.28311E-14
 -1      2620 1.40668E-02 7.77841E-04-6.72058E-14
 -1      2621 6.89562E-04 2.51209E-04-2.17776E-16
 -1      2622 1.53476E-02 2.52806E-04-7.06052E-14
 -1      2623 1.50085E-02 1.09087E-04-7.09798E-14
 -1      2624 1.12771E-02 5.16576E-04-5.47756E-14
 -1      2625 5.71837E-04-1.85166E-04-2.60032E-16
 -1      2626 1.17990E-02-5.76527E-04-5.83405E-14
 -1      2627 1.08889E-02-8.00402E-05-5.50555E-14
 -1      2628 1.32020E-02-8.23912E-04-6.58295E-14
 -1      2629 1.30955E-02-8.74477E-04-6.54974E-14
 -1      2630 1.32897E-02-7.69731E-04-6.65265E-14
 -1      2631 1.05635E-02 4.19678E-05-5.40851E-14
 -1      2632 1.13364E-02-2.99935E-04-5.65682E-14
 -1      2633 1.45324E-02-7.39366E-05-7.00899E-14
 -1      2634 1.53514E-02 1.96000E-04-7.13315E-14
 -1      2635 1.24504E-02 1.27306E-03-5.91418E-14
 -1      2636 1.25588E-02 1.31724E-03-5.98483E-14
 -1      2637 1.26435E-02 1.35206E-03-6.02585E-14
 -1      2638 1.08645E-02 3.07463E-04-5.40735E-14
 -1      2639 1.32167E-02 1.27205E-03-6.35649E-14
 -1      2640 1.17305E-02 8.03445E-04-5.59722E-14
 -1      2641 1.43498E-02 6.68490E-04-7.16676E-14
 -1      2642 1.38185E-02-4.80293E-04-7.38706E-14
 -1      2643 7.80151E-04 7.73219E-05-4.31160E-16
 -1      2644 7.78887E-04 5.54634E-05-4.40240E-16
 -1      2645 7.78038E-04 3.35542E-05-4.48521E-16
 -1      2646 7.77614E-04 1.18929E-05-4.55650E-16
 -1      2647 8.96443E-04 4.96738E-05-5.63175E-16
 -1      2648 7.91524E-04 1.73110E-04-3.80704E-16
 -1      2649 7.87509E-04 1.47697E-04-3.95720E-16
 -1      2650 8.03404E-04 2.28304E-04-3.44126E-16
 -1      2651 7.96773E-04 1.99915E-04-3.63763E-16
 -1      2652 9.14828E-04 2.07807E-04-4.76073E-16
 -1      2653 1.12985E-03 3.61929E-04-5.40190E-16
 -1      2654 9.86244E-04 3.32860E-04-4.14097E-16
 -1      2655 1.41610E-03 4.07831E-04-8.47792E-16
 -1      2656 1.27305E-03 3.86798E-04-6.84647E-16
 -1      2657 1.18969E-03 3.41475E-04-6.43677E-16
 -1      2658 8.03110E-04 2.78209E-04-2.92165E-16
 -1      2659 1.25332E-02-9.63141E-04-6.22767E-14
 -1      2660 1.23950E-02-9.21487E-04-6.14010E-14
 -1      2661 1.32017E-03-3.62745E-04-1.05356E-15
 -1      2662 1.46340E-03-3.81731E-04-1.27176E-15
 -1      2663 1.60644E-03-3.97819E-04-1.51016E-15
 -1      2664 1.74937E-03-4.11236E-04-1.76920E-15
 -1      2665 1.52499E-03-3.55407E-04-1.40053E-15
 -1      2666 1.89215E-03-4.22453E-04-2.04868E-15
 -1      2667 2.03480E-03-4.31656E-04-2.34818E-15
 -1      2668 1.81167E-03-3.81323E-04-1.91821E-15
 -1      2669 2.17736E-03-4.39223E-04-2.66800E-15
 -1      2670 2.31982E-03-4.45306E-04-3.00754E-15
 -1      2671 2.09812E-03-3.99198E-04-2.51641E-15
 -1      2672 2.46224E-03-4.50194E-04-3.36725E-15
 -1      2673 2.60460E-03-4.54009E-04-3.74702E-15
 -1      2674 2.38430E-03-4.11051E-04-3.19382E-15
 -1      2675 2.74696E-03-4.56969E-04-4.14686E-15
 -1      2676 2.88929E-03-4.59170E-04-4.56551E-15
 -1      2677 2.67024E-03-4.18503E-04-3.95062E-15
 -1      2678 3.03164E-03-4.60774E-04-5.00315E-15
 -1      2679 3.17398E-03-4.61851E-04-5.45997E-15
 -1      2680 2.95602E-03-4.22810E-04-4.78510E-15
 -1      2681 3.31636E-03-4.62521E-04-5.93553E-15
 -1      2682 3.45874E-03-4.62837E-04-6.43012E-15
 -1      2683 3.24168E-03-4.24924E-04-5.69531E-15
 -1      2684 3.60117E-03-4.62881E-04-6.94242E-15
 -1      2685 3.74361E-03-4.62693E-04-7.47313E-15
 -1      2686 3.52729E-03-4.25549E-04-6.67995E-15
 -1      2687 3.88609E-03-4.62328E-04-8.02205E-15
 -1      2688 4.02860E-03-4.61814E-04-8.58778E-15
 -1      2689 3.81288E-03-4.25188E-04-7.73737E-15
 -1      2690 4.17114E-03-4.61186E-04-9.17158E-15
 -1      2691 4.31371E-03-4.60462E-04-9.77317E-15
 -1      2692 4.09846E-03-4.24189E-04-8.86624E-15
 -1      2693 4.45631E-03-4.59662E-04-1.03907E-14
 -1      2694 4.59893E-03-4.58795E-04-1.10250E-14
 -1      2695 4.38405E-03-4.22779E-04-1.00631E-14
 -1      2696 4.74160E-03-4.57870E-04-1.16766E-14
 -1      2697 4.88428E-03-4.56890E-04-1.23456E-14
 -1      2698 4.66966E-03-4.21090E-04-1.13284E-14
 -1      2699 5.02699E-03-4.55856E-04-1.30318E-14
 -1      2700 5.16974E-03-4.54765E-04-1.37337E-14
 -1      2701 4.95530E-03-4.19181E-04-1.26616E-14
 -1      2702 5.31251E-03-4.53610E-04-1.44522E-14
 -1      2703 5.45531E-03-4.52387E-04-1.51883E-14
 -1      2704 5.24097E-03-4.17053E-04-1.40625E-14
 -1      2705 5.59814E-03-4.51083E-04-1.59405E-14
 -1      2706 5.74100E-03-4.49690E-04-1.67103E-14
 -1      2707 5.52669E-03-4.14668E-04-1.55302E-14
 -1      2708 5.88389E-03-4.48192E-04-1.74964E-14
 -1      2709 6.02683E-03-4.46580E-04-1.82982E-14
 -1      2710 5.81244E-03-4.11952E-04-1.70647E-14
 -1      2711 6.16980E-03-4.44836E-04-1.91180E-14
 -1      2712 6.31282E-03-4.42948E-04-1.99541E-14
 -1      2713 6.09825E-03-4.08808E-04-1.86672E-14
 -1      2714 6.45588E-03-4.40899E-04-2.08057E-14
 -1      2715 6.59900E-03-4.38679E-04-2.16726E-14
 -1      2716 6.38412E-03-4.05126E-04-2.03342E-14
 -1      2717 6.74218E-03-4.36270E-04-2.25562E-14
 -1      2718 6.88544E-03-4.33666E-04-2.34546E-14
 -1      2719 6.67006E-03-4.00792E-04-2.20647E-14
 -1      2720 7.02876E-03-4.30854E-04-2.43673E-14
 -1      2721 7.17219E-03-4.27833E-04-2.52945E-14
 -1      2722 6.95610E-03-3.95706E-04-2.38579E-14
 -1      2723 7.31570E-03-4.24599E-04-2.62356E-14
 -1      2724 7.45934E-03-4.21159E-04-2.71905E-14
 -1      2725 7.24226E-03-3.89797E-04-2.57083E-14
 -1      2726 7.60309E-03-4.17526E-04-2.81590E-14
 -1      2727 7.74701E-03-4.13717E-04-2.91391E-14
 -1      2728 7.52859E-03-3.83056E-04-2.76145E-14
 -1      2729 7.89107E-03-4.09772E-04-3.01315E-14
 -1      2730 8.03535E-03-4.05726E-04-3.11371E-14
 -1      2731 7.81514E-03-3.75570E-04-2.95728E-14
 -1      2732 8.17982E-03-4.01653E-04-3.21582E-14
 -1      2733 8.32457E-03-3.97616E-04-3.31902E-14
 -1      2734 8.10201E-03-3.67572E-04-3.15826E-14
 -1      2735 8.46958E-03-3.93734E-04-3.42331E-14
 -1      2736 8.61496E-03-3.90112E-04-3.52860E-14
 -1      2737 8.38936E-03-3.59507E-04-3.36430E-14
 -1      2738 8.76070E-03-3.86928E-04-3.63479E-14
 -1      2739 8.90693E-03-3.84342E-04-3.74184E-14
 -1      2740 8.67746E-03-3.52112E-04-3.57446E-14
 -1      2741 9.05368E-03-3.82601E-04-3.84977E-14
 -1      2742 9.20109E-03-3.81946E-04-3.95830E-14
 -1      2743 8.96675E-03-3.46510E-04-3.78811E-14
 -1      2744 9.34926E-03-3.82699E-04-4.06772E-14
 -1      2745 9.49835E-03-3.85210E-04-4.17787E-14
 -1      2746 9.25795E-03-3.44327E-04-4.00500E-14
 -1      2747 9.64855E-03-3.89864E-04-4.28853E-14
 -1      2748 9.80002E-03-3.97162E-04-4.39992E-14
 -1      2749 9.55220E-03-3.47809E-04-4.22479E-14
 -1      2750 9.95309E-03-4.07525E-04-4.51198E-14
 -1      2751 1.01079E-02-4.21636E-04-4.62464E-14
 -1      2752 9.85124E-03-3.59959E-04-4.44718E-14
 -1      2753 1.02649E-02-4.39893E-04-4.73802E-14
 -1      2754 1.04240E-02-4.63162E-04-4.85208E-14
 -1      2755 1.01575E-02-3.84660E-04-4.67246E-14
 -1      2756 1.05860E-02-4.91710E-04-4.96669E-14
 -1      2757 1.07505E-02-5.26496E-04-5.08182E-14
 -1      2758 1.04741E-02-4.26732E-04-4.90017E-14
 -1      2759 1.09181E-02-5.67527E-04-5.19749E-14
 -1      2760 1.10878E-02-6.15286E-04-5.31363E-14
 -1      2761 1.08041E-02-4.91735E-04-5.13028E-14
 -1      2762 1.12602E-02-6.69221E-04-5.43043E-14
 -1      2763 1.14333E-02-7.28752E-04-5.54791E-14
 -1      2764 1.11488E-02-5.84491E-04-5.36243E-14
 -1      2765 1.16072E-02-7.92259E-04-5.66567E-14
 -1      2766 1.17792E-02-8.56526E-04-5.78380E-14
 -1      2767 1.15048E-02-7.05436E-04-5.59680E-14
 -1      2768 1.19488E-02-9.18790E-04-5.90236E-14
 -1      2769 1.21147E-02-9.72941E-04-6.02128E-14
 -1      2770 1.18621E-02-8.42661E-04-5.83298E-14
 -1      2771 1.22756E-02-1.01552E-03-6.14089E-14
 -1      2772 1.24335E-02-1.03975E-03-6.26066E-14
 -1      2773 1.22069E-02-9.64094E-04-6.07079E-14
 -1      2774 1.25875E-02-1.04317E-03-6.38087E-14
 -1      2775 1.27421E-02-1.02348E-03-6.50138E-14
 -1      2776 1.25336E-02-1.02200E-03-6.30995E-14
 -1      2777 1.28961E-02-9.80996E-04-6.62225E-14
 -1      2778 1.30540E-02-9.19279E-04-6.74364E-14
 -1      2779 1.28530E-02-9.81294E-04-6.55072E-14
 -1      2780 1.32144E-02-8.40895E-04-6.86508E-14
 -1      2781 1.33775E-02-7.51934E-04-6.98677E-14
 -1      2782 1.31817E-02-8.47607E-04-6.79269E-14
 -1      2783 1.35423E-02-6.55280E-04-7.10872E-14
 -1      2784 1.37068E-02-5.54745E-04-7.23055E-14
 -1      2785 1.35239E-02-6.59681E-04-7.03580E-14
 -1      2786 1.41329E-02-2.66735E-04-6.96555E-14
 -1      2787 1.38885E-02-4.06735E-04-6.89179E-14
 -1      2788 1.98550E-03 4.63271E-04-1.68822E-15
 -1      2789 1.84345E-03 4.53006E-04-1.44985E-15
 -1      2790 2.83631E-03 4.94608E-04-3.52002E-15
 -1      2791 2.69454E-03 4.91993E-04-3.16690E-15
 -1      2792 3.11998E-03 4.97945E-04-4.28336E-15
 -1      2793 2.97813E-03 4.96565E-04-3.89237E-15
 -1      2794 2.90242E-03 4.58595E-04-3.78042E-15
 -1      2795 3.40387E-03 4.99410E-04-5.12100E-15
 -1      2796 3.26190E-03 4.98873E-04-4.69301E-15
 -1      2797 3.18720E-03 4.61310E-04-4.56778E-15
 -1      2798 3.68800E-03 4.99619E-04-6.03315E-15
 -1      2799 3.54591E-03 4.99644E-04-5.56774E-15
 -1      2800 3.47204E-03 4.62364E-04-5.43010E-15
 -1      2801 3.97238E-03 4.99007E-04-7.01987E-15
 -1      2802 3.83017E-03 4.99397E-04-6.51713E-15
 -1      2803 3.75697E-03 4.62313E-04-6.36549E-15
 -1      2804 4.25700E-03 4.97865E-04-8.08170E-15
 -1      2805 4.11467E-03 4.98490E-04-7.54057E-15
 -1      2806 4.04202E-03 4.61544E-04-7.37520E-15
 -1      2807 4.54184E-03 4.96374E-04-9.21832E-15
 -1      2808 4.39940E-03 4.97156E-04-8.64104E-15
 -1      2809 4.32717E-03 4.60312E-04-8.46030E-15
 -1      2810 4.82688E-03 4.94626E-04-1.04304E-14
 -1      2811 4.68434E-03 4.95528E-04-9.81459E-15
 -1      2812 4.61244E-03 4.58770E-04-9.61946E-15
 -1      2813 5.11210E-03 4.92651E-04-1.17166E-14
 -1      2814 4.96947E-03 4.93667E-04-1.10639E-14
 -1      2815 4.89782E-03 4.56993E-04-1.08532E-14
 -1      2816 5.39751E-03 4.90424E-04-1.30758E-14
 -1      2817 5.25479E-03 4.91571E-04-1.23871E-14
 -1      2818 5.18330E-03 4.54992E-04-1.21602E-14
 -1      2819 5.68311E-03 4.87883E-04-1.45067E-14
 -1      2820 5.54029E-03 4.89197E-04-1.37831E-14
 -1      2821 5.46889E-03 4.52734E-04-1.35403E-14
 -1      2822 5.96892E-03 4.84932E-04-1.60069E-14
 -1      2823 5.82599E-03 4.86463E-04-1.52484E-14
 -1      2824 5.75460E-03 4.50147E-04-1.49910E-14
 -1      2825 6.25496E-03 4.81456E-04-1.75757E-14
 -1      2826 6.11191E-03 4.83265E-04-1.67825E-14
 -1      2827 6.04045E-03 4.47131E-04-1.65105E-14
 -1      2828 6.54131E-03 4.77328E-04-1.92086E-14
 -1      2829 6.39809E-03 4.79480E-04-1.83845E-14
 -1      2830 6.32644E-03 4.43570E-04-1.80966E-14
 -1      2831 6.82802E-03 4.72421E-04-2.09061E-14
 -1      2832 6.68461E-03 4.74977E-04-2.00497E-14
 -1      2833 6.61263E-03 4.39335E-04-1.97485E-14
 -1      2834 7.11520E-03 4.66625E-04-2.26624E-14
 -1      2835 6.97154E-03 4.69638E-04-2.17765E-14
 -1      2836 6.89904E-03 4.34304E-04-2.14611E-14
 -1      2837 7.40297E-03 4.59872E-04-2.44805E-14
 -1      2838 7.25899E-03 4.63368E-04-2.35632E-14
 -1      2839 7.18574E-03 4.28377E-04-2.32336E-14
 -1      2840 7.69149E-03 4.52168E-04-2.63569E-14
 -1      2841 7.54711E-03 4.56133E-04-2.54118E-14
 -1      2842 7.47278E-03 4.21498E-04-2.50676E-14
 -1      2843 7.98093E-03 4.43644E-04-2.82834E-14
 -1      2844 7.83606E-03 4.47994E-04-2.73147E-14
 -1      2845 7.76024E-03 4.13696E-04-2.69586E-14
 -1      2846 8.27151E-03 4.34627E-04-3.02575E-14
 -1      2847 8.12604E-03 4.39169E-04-2.92651E-14
 -1      2848 8.04821E-03 4.05133E-04-2.89006E-14
 -1      2849 8.56350E-03 4.25730E-04-3.22723E-14
 -1      2850 8.41729E-03 4.30115E-04-3.12586E-14
 -1      2851 8.33679E-03 3.96175E-04-3.08866E-14
 -1      2852 8.85723E-03 4.17987E-04-3.43283E-14
 -1      2853 8.71009E-03 4.21638E-04-3.32970E-14
 -1      2854 8.62613E-03 3.87482E-04-3.29156E-14
 -1      2855 9.15314E-03 4.13017E-04-3.64206E-14
 -1      2856 9.00484E-03 4.15038E-04-3.53700E-14
 -1      2857 8.91644E-03 3.80136E-04-3.49843E-14
 -1      2858 9.45189E-03 4.13240E-04-3.85475E-14
 -1      2859 9.30208E-03 4.12304E-04-3.74792E-14
 -1      2860 9.20812E-03 3.75791E-04-3.70881E-14
 -1      2861 9.75451E-03 4.22122E-04-4.07045E-14
 -1      2862 9.60261E-03 4.16340E-04-3.96218E-14
 -1      2863 9.50185E-03 3.76868E-04-3.92256E-14
 -1      2864 1.00627E-02 4.44440E-04-4.28927E-14
 -1      2865 9.90778E-03 4.31229E-04-4.17963E-14
 -1      2866 9.79890E-03 3.86781E-04-4.13922E-14
 -1      2867 1.03789E-02 4.86495E-04-4.51102E-14
 -1      2868 1.02197E-02 4.62483E-04-4.39975E-14
 -1      2869 1.01015E-02 4.10210E-04-4.35884E-14
 -1      2870 1.07068E-02 5.56070E-04-4.73541E-14
 -1      2871 1.05413E-02 5.17163E-04-4.62300E-14
 -1      2872 1.04133E-02 4.53411E-04-4.58125E-14
 -1      2873 1.10501E-02 6.61689E-04-4.96247E-14
 -1      2874 1.08767E-02 6.03595E-04-4.84861E-14
 -1      2875 1.07396E-02 5.24514E-04-4.80626E-14
 -1      2876 1.14105E-02 8.10267E-04-5.19228E-14
 -1      2877 1.12289E-02 7.30251E-04-5.07703E-14
 -1      2878 1.10863E-02 6.33357E-04-5.03376E-14
 -1      2879 1.17827E-02 9.98909E-04-5.42495E-14
 -1      2880 1.15966E-02 9.00422E-04-5.30833E-14
 -1      2881 1.14565E-02 7.89670E-04-5.26404E-14
 -1      2882 1.21526E-02 1.20192E-03-5.66036E-14
 -1      2883 1.19697E-02 1.10216E-03-5.54242E-14
 -1      2884 1.18436E-02 9.92242E-04-5.49693E-14
 -1      2885 1.25644E-02 1.36758E-03-5.95018E-14
 -1      2886 1.23873E-02 1.30056E-03-5.83084E-14
 -1      2887 1.31610E-02 1.33479E-03-6.37811E-14
 -1      2888 1.29925E-02 1.39009E-03-6.25776E-14
 -1      2889 1.35089E-02 1.16034E-03-6.61780E-14
 -1      2890 1.33326E-02 1.25423E-03-6.49814E-14
 -1      2891 1.32900E-02 1.26068E-03-6.45078E-14
 -1      2892 1.38655E-02 9.52675E-04-6.85633E-14
 -1      2893 1.36880E-02 1.05741E-03-6.73717E-14
 -1      2894 1.36647E-02 1.05738E-03-6.69043E-14
 -1      2895 1.41956E-02 7.57032E-04-7.07102E-14
 -1      2896 1.40229E-02 8.58794E-04-6.95207E-14
 -1      2897 1.40207E-02 8.52905E-04-6.90548E-14
 -1      2898 1.43511E-02 6.72051E-04-7.09704E-14
 -1      2899 1.38160E-02-4.86467E-04-7.31338E-14
 -1      2900 1.39233E-02-4.17795E-04-7.39635E-14
 -1      2901 1.38114E-02-4.89345E-04-7.24006E-14
 -1      2902 1.51408E-02 3.08844E-04-7.10629E-14
 -1      2903 1.49575E-02 3.71717E-04-7.09142E-14
 -1      2904 1.55027E-02 2.30425E-04-7.20533E-14
 -1      2905 1.54180E-02 2.47804E-04-7.19058E-14
 -1      2906 1.49472E-02 7.76432E-05-7.30871E-14
 -1      2907 1.51217E-02 1.34040E-04-7.29464E-14
 -1      2908 1.45842E-02-6.91168E-05-7.32430E-14
 -1      2909 1.47519E-02 2.95607E-06-7.30949E-14
 -1      2910 1.42956E-02-2.12055E-04-7.35417E-14
 -1      2911 1.44324E-02-1.43187E-04-7.33905E-14
 -1      2912 1.43565E-02-1.72198E-04-7.23573E-14
 -1      2913 1.70123E-03 4.40535E-04-1.23033E-15
 -1      2914 1.55877E-03 4.25656E-04-1.02957E-15
 -1      2915 1.47612E-03 3.82183E-04-9.78005E-16
 -1      2916 1.76214E-03 4.11216E-04-1.38714E-15
 -1      2917 1.39866E-02 8.25108E-04-6.73381E-14
 -1      2918 1.42038E-02 6.99969E-04-6.80495E-14
 -1      2919 1.22302E-02-8.50871E-04-6.04182E-14
 -1      2920 1.20803E-02-7.68190E-04-5.95698E-14
 -1      2921 1.28270E-02 1.38059E-03-6.13686E-14
 -1      2922 1.29496E-02 1.36779E-03-6.21580E-14
 -1      2923 1.14188E-02-3.68198E-04-5.65028E-14
 -1      2924 1.11892E-02-2.39388E-04-5.56602E-14
 -1      2925 2.55277E-03 4.88546E-04-2.83278E-15
 -1      2926 2.41103E-03 4.84164E-04-2.51798E-15
 -1      2927 2.61764E-03 4.53447E-04-3.06787E-15
 -1      2928 2.26924E-03 4.78609E-04-2.22213E-15
 -1      2929 2.12742E-03 4.71751E-04-1.94556E-15
 -1      2930 2.33276E-03 4.44823E-04-2.43103E-15
 -1      2931 1.03374E-03-3.14213E-04-6.79822E-16
 -1      2932 1.17697E-03-3.40335E-04-8.56222E-16
 -1      2933 1.23842E-03-3.19060E-04-9.64045E-16
 -1      2934 1.34972E-02 1.12097E-03-6.51489E-14
 -1      2935 1.36947E-02 9.99120E-04-6.61056E-14
 -1      2936 1.18711E-02-6.45904E-04-5.84822E-14
 -1      2937 1.16719E-02-5.19888E-04-5.75572E-14
 -1      2938 7.84354E-04 1.23443E-04-4.08771E-16
 -1      2939 7.81960E-04 1.00008E-04-4.20684E-16
 -1      2940 8.99561E-04 9.94368E-05-5.40434E-16
 -1      2941 9.05317E-04 1.51573E-04-5.11960E-16
 -1      2942 6.88551E-04-2.03978E-04-3.57028E-16
 -1      2943 1.15965E-02 7.30222E-04-5.50447E-14
 -1      2944 1.18054E-02 8.74641E-04-5.57888E-14
 -1      2945 1.46510E-02-1.97020E-05-7.09896E-14
 -1      2946 1.44137E-02-1.25086E-04-7.04514E-14
 -1      2947 7.81695E-04-9.79562E-05-4.75504E-16
 -1      2948 7.84012E-04-1.21310E-04-4.76046E-16
 -1      2949 1.31162E-02 1.31881E-03-6.31461E-14
 -1      2950 1.33001E-02 1.23076E-03-6.41623E-14
 -1      2951 1.33790E-02 1.19351E-03-6.47309E-14
 -1      2952 1.30393E-02 1.34901E-03-6.27587E-14
 -1      2953 1.05059E-02 1.74124E-04-5.29322E-14
 -1      2954 1.06137E-02 2.08362E-04-5.31191E-14
 -1      2955 1.03830E-02 8.57961E-05-5.29015E-14
 -1      2956 1.03370E-02 9.92118E-05-5.26627E-14
 -1      2957 1.05870E-02 1.84216E-05-5.35042E-14
 -1      2958 1.04689E-02 5.80026E-05-5.32013E-14
 -1      2959 1.03881E-02 6.38982E-05-5.23234E-14
 -1      2960 1.07605E-02 2.65585E-04-5.33709E-14
 -1      2961 1.09279E-02 3.38914E-04-5.36198E-14
 -1      2962 1.06670E-02 2.37126E-04-5.26666E-14
 -1      2963 1.09677E-02-1.31474E-04-5.48542E-14
 -1      2964 1.07844E-02-5.59280E-05-5.41900E-14
 -1      2965 1.50697E-02 1.25864E-04-7.17650E-14
 -1      2966 1.48524E-02 5.81629E-05-7.14133E-14
 -1      2967 1.40350E-02-3.53215E-04-7.40536E-14
 -1      2968 1.36716E-02-5.36389E-04-6.82449E-14
 -1      2969 1.35063E-02-6.40087E-04-6.76388E-14
 -1      2970 1.11230E-02 4.40702E-04-5.38350E-14
 -1      2971 1.13330E-02 5.62819E-04-5.42848E-14
 -1      2972 1.20793E-02 1.05704E-03-5.70624E-14
 -1      2973 1.22669E-02 1.17689E-03-5.80682E-14
 -1      2974 7.87082E-04-1.45459E-04-4.75219E-16
 -1      2975 7.91003E-04-1.70638E-04-4.72753E-16
 -1      2976 9.04846E-04-1.49061E-04-6.01908E-16
 -1      2977 8.95416E-04 1.00687E-06-5.80523E-16
 -1      2978 7.77585E-04-9.72237E-06-4.61450E-16
 -1      2979 7.77950E-04-3.13677E-05-4.66546E-16
 -1      2980 8.64865E-04 2.66529E-04-3.65512E-16
 -1      2981 1.38410E-02 9.17585E-04-6.69502E-14
 -1      2982 1.26178E-02-9.79706E-04-6.28849E-14
 -1      2983 1.25293E-02-9.76845E-04-6.24443E-14
 -1      2984 1.26944E-02-9.83825E-04-6.34941E-14
 -1      2985 1.54963E-02 2.26822E-04-7.17587E-14
 -1      2986 1.55019E-02 2.23229E-04-7.19249E-14
 -1      2987 8.03067E-04-2.03304E-04-4.73701E-16
 -1      2988 8.21699E-04-2.53830E-04-4.66573E-16
 -1      2989 9.52830E-04-2.88230E-04-5.96555E-16
 -1      2990 9.21142E-04-2.11248E-04-6.02545E-16
 -1      2991 1.37970E-02-4.62008E-04-6.90911E-14
 -1      2992 1.19322E-02 9.79379E-04-5.61256E-14
 -1      2993 1.09943E-02 3.88635E-04-5.31312E-14
 -1      2994 1.46722E-02 4.75655E-04-6.96904E-14
 -1      2995 1.48438E-02 4.28282E-04-7.12969E-14
 -1      2996 1.46776E-02 5.01076E-04-7.11483E-14
 -1      2997 1.44319E-02 5.84796E-04-6.89972E-14
 -1      2998 1.42752E-02-1.97331E-04-7.05579E-14
 -1      2999 1.03533E-02 1.35569E-04-5.18485E-14
 -1      3000 1.04221E-02 1.50603E-04-5.23916E-14
 -1      3001 1.04434E-02 1.64351E-04-5.18749E-14
 -1      3002 1.43460E-02 6.38198E-04-6.91273E-14
 -1      3003 2.04765E-03 4.31344E-04-1.87133E-15
 -1      3004 1.28303E-02 1.41567E-03-6.13794E-14
 -1      3005 1.26653E-02 1.40704E-03-6.01782E-14
 -1      3006 1.06503E-02-2.52691E-05-5.33036E-14
 -1      3007 1.45745E-02 5.54476E-04-7.11335E-14
 -1      3008 1.44344E-02 6.25707E-04-7.09879E-14
 -1      3009 1.42645E-02 7.11110E-04-7.00297E-14
 -1      3010 1.44494E-02 6.00159E-04-7.00606E-14
 -1      3011 1.29798E-02-9.21675E-04-6.50643E-14
 -1      3012 1.28781E-02-9.54216E-04-6.46280E-14
 -1      3013 1.30656E-02-8.83777E-04-6.57580E-14
 -1      3014 1.47400E-02 1.08103E-05-7.17765E-14
 -1      3015 1.41404E-02-2.95470E-04-7.39083E-14
 -1      3016 1.03099E-02 1.07017E-04-5.21939E-14
 -1      3017 1.02968E-02 1.12486E-04-5.17267E-14
 -1      3018 1.02825E-02 9.37979E-05-5.15585E-14
 -1      3019 1.22955E-02-8.97857E-04-6.08533E-14
 -1      3020 1.19424E-02-7.13151E-04-5.87834E-14
 -1      3021 1.15062E-02-4.48932E-04-5.66431E-14
 -1      3022 1.27192E-02 1.37591E-03-6.06582E-14
 -1      3023 1.40562E-02-3.41750E-04-7.28651E-14
 -1      3024 1.33848E-02-7.11877E-04-6.73056E-14
 -1      3025 1.32774E-02-7.76097E-04-6.69712E-14
 -1      3026 1.34786E-02-6.56751E-04-6.80860E-14
 -1      3027 1.10531E-02-2.00058E-04-5.47893E-14
 -1      3028 9.82952E-04 2.75765E-04-4.80749E-16
 -1      3029 7.78731E-04-5.31482E-05-4.70801E-16
 -1      3030 7.79952E-04-7.53358E-05-4.73769E-16
 -1      3031 8.99276E-04-9.70924E-05-6.00418E-16
 -1      3032 8.96312E-04-4.75276E-05-5.92923E-16
 -1      3033 1.23633E-02 1.24443E-03-5.84758E-14
 -1      3034 1.01522E-03-2.72377E-04-6.86259E-16
 -1      3035 1.14232E-02 6.42057E-04-5.40983E-14
 -1      3036 1.37047E-02 1.00768E-03-6.65995E-14
 -1      3037 1.39702E-02 8.48356E-04-6.78297E-14
 -1      3038 1.04027E-03 2.43258E-04-5.81417E-16
 -1      3039 1.03364E-03 2.11537E-04-6.05025E-16
 -1      3040 1.53039E-02 2.67192E-04-7.15133E-14
 -1      3041 1.12512E-02 5.66807E-04-5.30221E-14
 -1      3042 1.14837E-02 7.14616E-04-5.37761E-14
 -1      3043 2.11107E-03 3.98789E-04-2.05871E-15
 -1      3044 1.96785E-03 3.90856E-04-1.79438E-15
 -1      3045 1.73166E-03-3.40478E-04-1.79009E-15
 -1      3046 1.87533E-03-3.50694E-04-2.06866E-15
 -1      3047 2.01898E-03-3.59195E-04-2.36704E-15
 -1      3048 2.16262E-03-3.66134E-04-2.68523E-15
 -1      3049 1.94013E-03-3.19383E-04-2.22039E-15
 -1      3050 2.30622E-03-3.71790E-04-3.02326E-15
 -1      3051 2.44976E-03-3.76287E-04-3.38037E-15
 -1      3052 2.22815E-03-3.32527E-04-2.85498E-15
 -1      3053 2.59325E-03-3.79848E-04-3.75753E-15
 -1      3054 2.73668E-03-3.82573E-04-4.15435E-15
 -1      3055 2.51612E-03-3.41084E-04-3.56757E-15
 -1      3056 2.88006E-03-3.84632E-04-4.56960E-15
 -1      3057 3.02338E-03-3.86102E-04-5.00427E-15
 -1      3058 2.80387E-03-3.46291E-04-4.35715E-15
 -1      3059 3.16666E-03-3.87112E-04-5.45775E-15
 -1      3060 3.30989E-03-3.87718E-04-5.92983E-15
 -1      3061 3.09136E-03-3.49115E-04-5.22316E-15
 -1      3062 3.45308E-03-3.88014E-04-6.42047E-15
 -1      3063 3.59623E-03-3.88041E-04-6.92920E-15
 -1      3064 3.37858E-03-3.50293E-04-6.16378E-15
 -1      3065 3.73935E-03-3.87865E-04-7.45519E-15
 -1      3066 3.88243E-03-3.87513E-04-8.00004E-15
 -1      3067 3.66555E-03-3.50365E-04-7.17674E-15
 -1      3068 4.02550E-03-3.87032E-04-8.56247E-15
 -1      3069 4.16853E-03-3.86437E-04-9.14239E-15
 -1      3070 3.95228E-03-3.49713E-04-8.26162E-15
 -1      3071 4.31154E-03-3.85759E-04-9.73932E-15
 -1      3072 4.45454E-03-3.85005E-04-1.03524E-14
 -1      3073 4.23882E-03-3.48596E-04-9.41696E-15
 -1      3074 4.59752E-03-3.84193E-04-1.09821E-14
 -1      3075 4.74048E-03-3.83326E-04-1.16294E-14
 -1      3076 4.52518E-03-3.47173E-04-1.06398E-14
 -1      3077 4.88343E-03-3.82408E-04-1.22951E-14
 -1      3078 5.02636E-03-3.81440E-04-1.29771E-14
 -1      3079 4.81139E-03-3.45530E-04-1.19302E-14
 -1      3080 5.16929E-03-3.80418E-04-1.36743E-14
 -1      3081 5.31220E-03-3.79338E-04-1.43896E-14
 -1      3082 5.09747E-03-3.43693E-04-1.32894E-14
 -1      3083 5.45511E-03-3.78193E-04-1.51226E-14
 -1      3084 5.59801E-03-3.76974E-04-1.58713E-14
 -1      3085 5.38343E-03-3.41644E-04-1.47162E-14
 -1      3086 5.74089E-03-3.75670E-04-1.66372E-14
 -1      3087 5.88377E-03-3.74270E-04-1.74196E-14
 -1      3088 5.66927E-03-3.39330E-04-1.62116E-14
 -1      3089 6.02664E-03-3.72761E-04-1.82189E-14
 -1      3090 6.16949E-03-3.71129E-04-1.90348E-14
 -1      3091 5.95499E-03-3.36672E-04-1.77737E-14
 -1      3092 6.31233E-03-3.69360E-04-1.98666E-14
 -1      3093 6.45516E-03-3.67441E-04-2.07138E-14
 -1      3094 6.24055E-03-3.33573E-04-1.94010E-14
 -1      3095 6.59797E-03-3.65357E-04-2.15775E-14
 -1      3096 6.74077E-03-3.63097E-04-2.24567E-14
 -1      3097 6.52594E-03-3.29927E-04-2.10925E-14
 -1      3098 6.88354E-03-3.60648E-04-2.33504E-14
 -1      3099 7.02629E-03-3.58001E-04-2.42593E-14
 -1      3100 6.81111E-03-3.25630E-04-2.28459E-14
 -1      3101 7.16901E-03-3.55151E-04-2.51840E-14
 -1      3102 7.31172E-03-3.52091E-04-2.61212E-14
 -1      3103 7.09601E-03-3.20592E-04-2.46607E-14
 -1      3104 7.45439E-03-3.48831E-04-2.70717E-14
 -1      3105 7.59705E-03-3.45368E-04-2.80379E-14
 -1      3106 7.38057E-03-3.14761E-04-2.65325E-14
 -1      3107 7.73966E-03-3.41730E-04-2.90155E-14
 -1      3108 7.88227E-03-3.37927E-04-3.00051E-14
 -1      3109 7.66473E-03-3.08142E-04-2.84590E-14
 -1      3110 8.02485E-03-3.34011E-04-3.10093E-14
 -1      3111 8.16744E-03-3.30010E-04-3.20261E-14
 -1      3112 7.94844E-03-3.00836E-04-3.04380E-14
 -1      3113 8.31002E-03-3.26007E-04-3.30533E-14
 -1      3114 8.45267E-03-3.22059E-04-3.40923E-14
 -1      3115 8.23169E-03-2.93079E-04-3.24665E-14
 -1      3116 8.59537E-03-3.18291E-04-3.51417E-14
 -1      3117 8.73821E-03-3.14800E-04-3.61995E-14
 -1      3118 8.51456E-03-2.85299E-04-3.45408E-14
 -1      3119 8.88122E-03-3.11756E-04-3.72665E-14
 -1      3120 9.02454E-03-3.09319E-04-3.83411E-14
 -1      3121 8.79728E-03-2.78178E-04-3.66538E-14
 -1      3122 9.16822E-03-3.07708E-04-3.94235E-14
 -1      3123 9.31248E-03-3.07174E-04-4.05145E-14
 -1      3124 9.08036E-03-2.72728E-04-3.88003E-14
 -1      3125 9.45745E-03-3.07982E-04-4.16128E-14
 -1      3126 9.60342E-03-3.10522E-04-4.27168E-14
 -1      3127 9.36472E-03-2.70390E-04-4.09784E-14
 -1      3128 9.75067E-03-3.15085E-04-4.38261E-14
 -1      3129 9.89955E-03-3.22281E-04-4.49439E-14
 -1      3130 9.65202E-03-2.73163E-04-4.31820E-14
 -1      3131 1.00505E-02-3.32399E-04-4.60687E-14
 -1      3132 1.02040E-02-3.46371E-04-4.72001E-14
 -1      3133 9.94487E-03-2.83832E-04-4.54151E-14
 -1      3134 1.03608E-02-3.64446E-04-4.83395E-14
 -1      3135 1.05210E-02-3.87990E-04-4.94830E-14
 -1      3136 1.02472E-02-3.06348E-04-4.76754E-14
 -1      3137 1.06858E-02-4.17130E-04-5.06308E-14
 -1      3138 1.08548E-02-4.53720E-04-5.17846E-14
 -1      3139 1.05644E-02-3.46474E-04-4.99608E-14
 -1      3140 1.10295E-02-4.97773E-04-5.29449E-14
 -1      3141 1.12080E-02-5.50620E-04-5.41115E-14
 -1      3142 1.09024E-02-4.12622E-04-5.22656E-14
 -1      3143 1.13916E-02-6.11304E-04-5.52809E-14
 -1      3144 1.15768E-02-6.80056E-04-5.64567E-14
 -1      3145 1.12652E-02-5.14197E-04-5.45936E-14
 -1      3146 1.21284E-02-9.07318E-04-6.00234E-14
 -1      3147 1.23027E-02-9.62782E-04-6.12146E-14
 -1      3148 1.24856E-02-9.97776E-04-6.24778E-14
 -1      3149 1.26528E-02-1.00420E-03-6.36763E-14
 -1      3150 1.28188E-02-9.77133E-04-6.48157E-14
 -1      3151 1.29896E-02-9.24103E-04-6.60198E-14
 -1      3152 1.31764E-02-8.35763E-04-6.72366E-14
 -1      3153 1.33586E-02-7.39677E-04-6.84455E-14
 -1      3154 1.52435E-02 1.70220E-04-7.25107E-14
 -1      3155 1.29347E-02 1.38646E-03-6.21078E-14
 -1      3156 2.96918E-03 4.22204E-04-4.04395E-15
 -1      3157 2.82627E-03 4.20378E-04-3.66597E-15
 -1      3158 3.82622E-03 4.24814E-04-6.70101E-15
 -1      3159 3.68341E-03 4.25043E-04-6.21217E-15
 -1      3160 4.11185E-03 4.23933E-04-7.73379E-15
 -1      3161 3.96904E-03 4.24437E-04-7.20798E-15
 -1      3162 3.89576E-03 3.87168E-04-7.03952E-15
 -1      3163 4.39748E-03 4.22648E-04-8.84100E-15
 -1      3164 4.25466E-03 4.23332E-04-8.27760E-15
 -1      3165 4.18189E-03 3.86211E-04-8.09483E-15
 -1      3166 4.68312E-03 4.21089E-04-1.00228E-14
 -1      3167 4.54030E-03 4.21899E-04-9.42321E-15
 -1      3168 4.46793E-03 3.84906E-04-9.22477E-15
 -1      3169 4.96879E-03 4.19309E-04-1.12784E-14
 -1      3170 4.82596E-03 4.20225E-04-1.06415E-14
 -1      3171 4.75390E-03 3.83357E-04-1.04290E-14
 -1      3172 5.25449E-03 4.17310E-04-1.26065E-14
 -1      3173 5.11164E-03 4.18339E-04-1.19337E-14
 -1      3174 5.03981E-03 3.81602E-04-1.17061E-14
 -1      3175 5.54022E-03 4.15047E-04-1.40068E-14
 -1      3176 5.39735E-03 4.16215E-04-1.32973E-14
 -1      3177 5.32567E-03 3.79629E-04-1.30550E-14
 -1      3178 5.82599E-03 4.12443E-04-1.54770E-14
 -1      3179 5.68310E-03 4.13793E-04-1.47335E-14
 -1      3180 5.61148E-03 3.77387E-04-1.44754E-14
 -1      3181 6.11180E-03 4.09397E-04-1.70157E-14
 -1      3182 5.96889E-03 4.10981E-04-1.62379E-14
 -1      3183 5.89725E-03 3.74797E-04-1.59650E-14
 -1      3184 6.39767E-03 4.05790E-04-1.86192E-14
 -1      3185 6.25473E-03 4.07670E-04-1.78090E-14
 -1      3186 6.18297E-03 3.71757E-04-1.75221E-14
 -1      3187 6.68359E-03 4.01501E-04-2.02885E-14
 -1      3188 6.54062E-03 4.03738E-04-1.94458E-14
 -1      3189 6.46862E-03 3.68152E-04-1.91440E-14
 -1      3190 6.96957E-03 3.96412E-04-2.20169E-14
 -1      3191 6.82657E-03 3.99062E-04-2.11452E-14
 -1      3192 6.75417E-03 3.63866E-04-2.08296E-14
 -1      3193 7.25561E-03 3.90436E-04-2.38072E-14
 -1      3194 7.11258E-03 3.93539E-04-2.29050E-14
 -1      3195 7.03959E-03 3.58793E-04-2.25754E-14
 -1      3196 7.54172E-03 3.83535E-04-2.56563E-14
 -1      3197 7.39865E-03 3.87102E-04-2.47241E-14
 -1      3198 7.32481E-03 3.52860E-04-2.43820E-14
 -1      3199 7.82787E-03 3.75763E-04-2.75626E-14
 -1      3200 7.68477E-03 3.79753E-04-2.66031E-14
 -1      3201 7.60977E-03 3.46049E-04-2.62470E-14
 -1      3202 8.11406E-03 3.67311E-04-2.95182E-14
 -1      3203 7.97094E-03 3.71607E-04-2.85336E-14
 -1      3204 7.89437E-03 3.38438E-04-2.81677E-14
 -1      3205 8.40028E-03 3.58579E-04-3.15176E-14
 -1      3206 8.25714E-03 3.62952E-04-3.05136E-14
 -1      3207 8.17850E-03 3.30250E-04-3.01369E-14
 -1      3208 8.68656E-03 3.50263E-04-3.35606E-14
 -1      3209 8.54338E-03 3.54322E-04-3.25332E-14
 -1      3210 8.46204E-03 3.21910E-04-3.21518E-14
 -1      3211 8.97302E-03 3.43462E-04-3.56407E-14
 -1      3212 8.82972E-03 3.46598E-04-3.45956E-14
 -1      3213 8.74490E-03 3.14130E-04-3.42062E-14
 -1      3214 9.25997E-03 3.39817E-04-3.77576E-14
 -1      3215 9.11637E-03 3.41131E-04-3.66948E-14
 -1      3216 9.02709E-03 3.07996E-04-3.62988E-14
 -1      3217 9.54816E-03 3.41671E-04-3.99037E-14
 -1      3218 9.40381E-03 3.39885E-04-3.88266E-14
 -1      3219 9.30887E-03 3.05077E-04-3.84263E-14
 -1      3220 9.83907E-03 3.52272E-04-4.20793E-14
 -1      3221 9.69311E-03 3.45617E-04-4.09873E-14
 -1      3222 9.59099E-03 3.07546E-04-4.05828E-14
 -1      3223 1.01355E-02 3.76068E-04-4.42827E-14
 -1      3224 9.98633E-03 3.62116E-04-4.31786E-14
 -1      3225 9.87515E-03 3.18354E-04-4.27668E-14
 -1      3226 1.04422E-02 4.19193E-04-4.65148E-14
 -1      3227 1.02872E-02 3.94577E-04-4.53954E-14
 -1      3228 1.01647E-02 3.41577E-04-4.49782E-14
 -1      3229 1.07662E-02 4.90184E-04-4.87692E-14
 -1      3230 1.06016E-02 4.50167E-04-4.76384E-14
 -1      3231 1.04653E-02 3.83103E-04-4.72151E-14
 -1      3232 1.14857E-02 7.62405E-04-5.32477E-14
 -1      3233 1.12927E-02 6.73878E-04-5.20931E-14
 -1      3234 1.22284E-02 1.22137E-03-5.72348E-14
 -1      3235 1.06985E-02-7.39549E-05-5.29784E-14
 -1      3236 1.05236E-02-8.06044E-06-5.22988E-14
 -1      3237 1.55605E-02 2.28595E-04-7.28141E-14
 -1      3238 1.01651E-03 6.81986E-05-6.90162E-16
 -1      3239 1.01533E-03 4.12200E-05-7.02238E-16
 -1      3240 1.53879E-02 2.03293E-04-7.23675E-14
 -1      3241 1.54836E-02 2.16904E-04-7.23646E-14
 -1      3242 1.55498E-02 2.22132E-04-7.29589E-14
 -1      3243 1.47207E-02-1.29467E-06-7.22058E-14
 -1      3244 1.15604E-02-5.28889E-04-5.66414E-14
 -1      3245 1.13386E-02-3.95758E-04-5.55937E-14
 -1      3246 2.68333E-03 4.17892E-04-3.30646E-15
 -1      3247 2.54035E-03 4.14663E-04-2.96609E-15
 -1      3248 2.74979E-03 3.81962E-04-3.54947E-15
 -1      3249 1.40911E-02 8.04167E-04-6.90723E-14
 -1      3250 3.54058E-03 4.25073E-04-5.74132E-15
 -1      3251 3.39776E-03 4.24872E-04-5.28936E-15
 -1      3252 3.60951E-03 3.87589E-04-6.05700E-15
 -1      3253 1.15850E-03-2.76906E-04-8.76252E-16
 -1      3254 1.30137E-03-2.96709E-04-1.07461E-15
 -1      3255 3.25491E-03 4.24368E-04-4.85573E-15
 -1      3256 3.11206E-03 4.23513E-04-4.44038E-15
 -1      3257 3.03655E-03 3.85508E-04-4.31129E-15
 -1      3258 3.32312E-03 3.87181E-04-5.14732E-15
 -1      3259 2.39731E-03 4.10499E-04-2.64487E-15
 -1      3260 2.25423E-03 4.05290E-04-2.34223E-15
 -1      3261 2.46280E-03 3.75718E-04-2.86246E-15
 -1      3262 1.08301E-02 3.28126E-04-5.21858E-14
 -1      3263 1.09941E-02 4.17414E-04-5.23973E-14
 -1      3264 1.42417E-02 7.01675E-04-6.91149E-14
 -1      3265 1.44457E-03-3.13746E-04-1.29284E-15
 -1      3266 1.58807E-03-3.28226E-04-1.53129E-15
 -1      3267 1.65234E-03-3.00151E-04-1.66436E-15
 -1      3268 1.11096E-02-2.65192E-04-5.46345E-14
 -1      3269 1.09142E-02-1.69480E-04-5.38348E-14
 -1      3270 1.23329E-02-9.32456E-04-6.11836E-14
 -1      3271 1.21837E-02-8.69334E-04-6.02005E-14
 -1      3272 1.03821E-02 4.16612E-05-5.17202E-14
 -1      3273 1.03093E-02 6.63093E-05-5.14240E-14
 -1      3274 1.05620E-02 2.14890E-04-5.16897E-14
 -1      3275 1.06917E-02 2.65028E-04-5.19401E-14
 -1      3276 1.06980E-02 2.96406E-04-5.12096E-14
 -1      3277 1.14502E-03 3.10553E-04-6.28851E-16
 -1      3278 1.08235E-03 2.71618E-04-5.99889E-16
 -1      3279 1.20142E-03 2.73030E-04-7.46500E-16
 -1      3280 1.28818E-03 3.32528E-04-7.85084E-16
 -1      3281 1.20061E-02-7.83765E-04-5.91102E-14
 -1      3282 1.18180E-02-6.75796E-04-5.80216E-14
 -1      3283 9.99577E-04-2.33066E-04-6.88008E-16
 -1      3284 1.07877E-03-2.55033E-04-7.79162E-16
 -1      3285 9.86339E-04-1.95976E-04-6.86286E-16
 -1      3286 1.39184E-02-3.94162E-04-7.00683E-14
 -1      3287 1.37240E-02-5.11028E-04-6.93973E-14
 -1      3288 1.01473E-03 1.44494E-05-7.12511E-16
 -1      3289 1.01470E-03-1.22205E-05-7.21279E-16
 -1      3290 1.13541E-03 3.01639E-05-8.56940E-16
 -1      3291 1.15305E-03 2.11815E-04-7.50417E-16
 -1      3292 1.02829E-03 1.81156E-04-6.26045E-16
 -1      3293 1.02411E-03 1.51829E-04-6.44897E-16
 -1      3294 1.37270E-02-5.17991E-04-7.00429E-14
 -1      3295 1.36041E-02-5.84507E-04-6.90633E-14
 -1      3296 1.34950E-02-6.54254E-04-6.87299E-14
 -1      3297 1.16401E-02-6.13318E-04-5.69640E-14
 -1      3298 1.10707E-02 4.90177E-04-5.20757E-14
 -1      3299 9.77889E-04-1.38617E-04-6.89010E-16
 -1      3300 9.81593E-04-1.66808E-04-6.88550E-16
 -1      3301 1.05904E-03-1.84996E-04-7.81100E-16
 -1      3302 1.27802E-02-9.76641E-04-6.41847E-14
 -1      3303 1.88824E-03 3.50463E-04-1.71538E-15
 -1      3304 1.82457E-03 3.81176E-04-1.54877E-15
 -1      3305 1.68121E-03 3.69575E-04-1.32194E-15
 -1      3306 1.24129E-02-9.76530E-04-6.18729E-14
 -1      3307 1.17817E-02-7.59640E-04-5.77479E-14
 -1      3308 1.19663E-02-8.34998E-04-5.89315E-14
 -1      3309 1.34756E-02-6.76872E-04-6.94268E-14
 -1      3310 1.36575E-02-5.72915E-04-7.06399E-14
 -1      3311 1.02878E-02 1.20108E-04-5.12141E-14
 -1      3312 1.02845E-02 1.29237E-04-5.07025E-14
 -1      3313 1.02330E-02 1.07435E-04-5.05809E-14
 -1      3314 1.36543E-03-2.73125E-04-1.18766E-15
 -1      3315 1.10971E-02 5.47785E-04-5.15121E-14
 -1      3316 1.10849E-02 5.85474E-04-5.09058E-14
 -1      3317 1.09079E-02 5.25918E-04-4.97629E-14
 -1      3318 1.08707E-02 4.18176E-04-5.08931E-14
 -1      3319 1.07570E-02 4.40656E-04-4.93332E-14
 -1      3320 1.16632E-02 8.46562E-04-5.43300E-14
 -1      3321 1.21123E-02 1.12342E-03-5.67747E-14
 -1      3322 1.18669E-02 9.61735E-04-5.54990E-14
 -1      3323 1.07543E-02-1.32110E-04-5.28255E-14
 -1      3324 9.75000E-04-1.11256E-04-6.87506E-16
 -1      3325 1.05138E-03-1.26051E-04-7.80666E-16
 -1      3326 9.72866E-04-8.45366E-05-6.84660E-16
 -1      3327 1.39360E-02-4.09418E-04-7.20418E-14
 -1      3328 1.31615E-02-8.39055E-04-6.65368E-14
 -1      3329 1.01831E-03 9.54553E-05-6.77071E-16
 -1      3330 1.13807E-03 8.85462E-05-8.29374E-16
 -1      3331 1.02078E-03 1.23220E-04-6.61851E-16
 -1      3332 1.04596E-02 1.88030E-04-5.11521E-14
 -1      3333 1.04120E-02 4.51381E-06-5.13984E-14
 -1      3334 1.40323E-02-3.44107E-04-7.14386E-14
 -1      3335 1.41711E-02-2.62489E-04-7.12953E-14
 -1      3336 1.02581E-02 7.72074E-05-5.09595E-14
 -1      3337 1.02185E-02 8.47033E-05-5.04949E-14
 -1      3338 1.02337E-02 5.79401E-05-5.03603E-14
 -1      3339 1.45291E-02-8.00063E-05-7.17820E-14
 -1      3340 2.17560E-03 3.65683E-04-2.25126E-15
 -1      3341 1.55631E-03 3.61486E-04-1.13321E-15
 -1      3342 1.41294E-03 3.45310E-04-9.41657E-16
 -1      3343 1.36911E-03 3.15088E-04-9.21152E-16
 -1      3344 1.61928E-03 3.33891E-04-1.27578E-15
 -1      3345 1.11800E-02-3.49656E-04-5.46336E-14
 -1      3346 1.38441E-02 9.44549E-04-6.77881E-14
 -1      3347 1.36473E-02 1.05568E-03-6.65949E-14
 -1      3348 1.14325E-03-2.36007E-04-8.75995E-16
 -1      3349 1.20537E-02-8.35309E-04-5.94372E-14
 -1      3350 1.35156E-02 1.12446E-03-6.57128E-14
 -1      3351 1.40924E-02 7.93857E-04-6.87637E-14
 -1      3352 1.37623E-02-5.07346E-04-7.09741E-14
 -1      3353 1.42696E-02-2.03510E-04-7.09873E-14
 -1      3354 1.33423E-02 1.22568E-03-6.47279E-14
 -1      3355 1.16654E-02-6.60465E-04-5.70526E-14
 -1      3356 2.15034E-03-2.93434E-04-2.68947E-15
 -1      3357 2.29469E-03-2.98353E-04-3.02507E-15
 -1      3358 2.43903E-03-3.02319E-04-3.38023E-15
 -1      3359 2.58335E-03-3.05429E-04-3.75485E-15
 -1      3360 2.36212E-03-2.63658E-04-3.19609E-15
 -1      3361 2.72761E-03-3.07849E-04-4.14733E-15
 -1      3362 2.87180E-03-3.09650E-04-4.55976E-15
 -1      3363 2.65137E-03-2.69379E-04-3.94122E-15
 -1      3364 3.01592E-03-3.10965E-04-4.99134E-15
 -1      3365 3.15995E-03-3.11848E-04-5.44120E-15
 -1      3366 2.94041E-03-2.72712E-04-4.76244E-15
 -1      3367 3.30391E-03-3.12398E-04-5.91008E-15
 -1      3368 3.44777E-03-3.12653E-04-6.39686E-15
 -1      3369 3.22911E-03-2.74359E-04-5.65903E-15
 -1      3370 3.59156E-03-3.12688E-04-6.90126E-15
 -1      3371 3.73525E-03-3.12528E-04-7.42318E-15
 -1      3372 3.51742E-03-2.74852E-04-6.62839E-15
 -1      3373 3.87888E-03-3.12226E-04-7.96376E-15
 -1      3374 4.02243E-03-3.11798E-04-8.52202E-15
 -1      3375 3.80533E-03-2.74579E-04-7.66913E-15
 -1      3376 4.16591E-03-3.11278E-04-9.09781E-15
 -1      3377 4.30933E-03-3.10676E-04-9.69076E-15
 -1      3378 4.09286E-03-2.73808E-04-8.78151E-15
 -1      3379 4.45268E-03-3.10014E-04-1.02993E-14
 -1      3380 4.59597E-03-3.09295E-04-1.09249E-14
 -1      3381 4.38004E-03-2.72715E-04-9.96203E-15
 -1      3382 4.73921E-03-3.08530E-04-1.15688E-14
 -1      3383 4.88240E-03-3.07718E-04-1.22301E-14
 -1      3384 4.66691E-03-2.71403E-04-1.12106E-14
 -1      3385 5.02553E-03-3.06863E-04-1.29075E-14
 -1      3386 5.16862E-03-3.05960E-04-1.36015E-14
 -1      3387 4.95349E-03-2.69919E-04-1.25273E-14
 -1      3388 5.31166E-03-3.05006E-04-1.43135E-14
 -1      3389 5.45465E-03-3.03993E-04-1.50430E-14
 -1      3390 5.23980E-03-2.68265E-04-1.39133E-14
 -1      3391 5.59759E-03-3.02916E-04-1.57888E-14
 -1      3392 5.74047E-03-3.01763E-04-1.65513E-14
 -1      3393 5.52585E-03-2.66411E-04-1.53682E-14
 -1      3394 5.88331E-03-3.00525E-04-1.73299E-14
 -1      3395 6.02608E-03-2.99189E-04-1.81257E-14
 -1      3396 5.81161E-03-2.64298E-04-1.68893E-14
 -1      3397 6.16879E-03-2.97746E-04-1.89378E-14
 -1      3398 6.31143E-03-2.96179E-04-1.97660E-14
 -1      3399 6.09706E-03-2.61850E-04-1.84770E-14
 -1      3400 6.45399E-03-2.94480E-04-2.06093E-14
 -1      3401 6.59647E-03-2.92631E-04-2.14691E-14
 -1      3402 6.38214E-03-2.58977E-04-2.01294E-14
 -1      3403 6.73885E-03-2.90626E-04-2.23449E-14
 -1      3404 6.88112E-03-2.88448E-04-2.32338E-14
 -1      3405 6.66676E-03-2.55587E-04-2.18451E-14
 -1      3406 7.02327E-03-2.86094E-04-2.41397E-14
 -1      3407 7.16529E-03-2.83547E-04-2.50602E-14
 -1      3408 6.95081E-03-2.51587E-04-2.36220E-14
 -1      3409 7.30715E-03-2.80815E-04-2.59952E-14
 -1      3410 7.44886E-03-2.77882E-04-2.69436E-14
 -1      3411 7.23415E-03-2.46904E-04-2.54588E-14
 -1      3412 7.59037E-03-2.74767E-04-2.79054E-14
 -1      3413 7.73172E-03-2.71462E-04-2.88805E-14
 -1      3414 7.51663E-03-2.41494E-04-2.73538E-14
 -1      3415 7.87283E-03-2.68001E-04-2.98674E-14
 -1      3416 8.01376E-03-2.64384E-04-3.08685E-14
 -1      3417 7.79806E-03-2.35367E-04-2.93001E-14
 -1      3418 8.15444E-03-2.60669E-04-3.18817E-14
 -1      3419 8.29492E-03-2.56870E-04-3.29064E-14
 -1      3420 8.07829E-03-2.28608E-04-3.12971E-14
 -1      3421 8.43515E-03-2.53073E-04-3.39415E-14
 -1      3422 8.57522E-03-2.49313E-04-3.49872E-14
 -1      3423 8.35720E-03-2.21413E-04-3.33447E-14
 -1      3424 8.71509E-03-2.45707E-04-3.60418E-14
 -1      3425 8.85487E-03-2.42327E-04-3.71058E-14
 -1      3426 8.63474E-03-2.14117E-04-3.54322E-14
 -1      3427 8.99458E-03-2.39318E-04-3.81784E-14
 -1      3428 9.13439E-03-2.36812E-04-3.92574E-14
 -1      3429 8.91108E-03-2.07240E-04-3.75575E-14
 -1      3430 9.27436E-03-2.34979E-04-4.03449E-14
 -1      3431 9.41478E-03-2.34045E-04-4.14401E-14
 -1      3432 9.18671E-03-2.01532E-04-3.97141E-14
 -1      3433 9.55579E-03-2.34192E-04-4.25394E-14
 -1      3434 9.69785E-03-2.35817E-04-4.36472E-14
 -1      3435 9.46266E-03-1.98050E-04-4.18986E-14
 -1      3436 9.84124E-03-2.39089E-04-4.47623E-14
 -1      3437 9.98662E-03-2.44715E-04-4.58842E-14
 -1      3438 9.74084E-03-1.98306E-04-4.41116E-14
 -1      3439 1.01345E-02-2.52841E-04-4.70134E-14
 -1      3440 1.02857E-02-2.64702E-04-4.81502E-14
 -1      3441 1.00245E-02-2.04629E-04-4.63528E-14
 -1      3442 1.04412E-02-2.80445E-04-4.92903E-14
 -1      3443 1.06018E-02-3.02186E-04-5.04351E-14
 -1      3444 1.03190E-02-2.20892E-04-4.86202E-14
 -1      3445 1.07688E-02-3.29811E-04-5.15876E-14
 -1      3446 1.09428E-02-3.67354E-04-5.27454E-14
 -1      3447 1.06326E-02-2.54329E-04-5.09105E-14
 -1      3448 2.81701E-03 3.45647E-04-3.79650E-15
 -1      3449 2.67314E-03 3.43409E-04-3.43134E-15
 -1      3450 4.25215E-03 3.48389E-04-8.45928E-15
 -1      3451 4.10890E-03 3.48932E-04-7.91123E-15
 -1      3452 2.52921E-03 3.40462E-04-3.08477E-15
 -1      3453 2.38522E-03 3.36721E-04-2.75734E-15
 -1      3454 2.59645E-03 3.04793E-04-3.31176E-15
 -1      3455 1.07018E-02 3.33555E-04-5.04576E-14
 -1      3456 1.07359E-02 3.88564E-04-4.98973E-14
 -1      3457 1.06061E-02 3.64198E-04-4.89027E-14
 -1      3458 3.96559E-03 3.49381E-04-7.38102E-15
 -1      3459 3.82224E-03 3.49723E-04-6.86918E-15
 -1      3460 4.03571E-03 3.11498E-04-7.72573E-15
 -1      3461 4.82477E-03 3.45589E-04-1.08381E-14
 -1      3462 4.68167E-03 3.46369E-04-1.02166E-14
 -1      3463 5.11087E-03 3.43886E-04-1.21363E-14
 -1      3464 4.96784E-03 3.44763E-04-1.14782E-14
 -1      3465 4.89573E-03 3.07814E-04-1.12495E-14
 -1      3466 5.39684E-03 3.41969E-04-1.35053E-14
 -1      3467 5.25387E-03 3.42957E-04-1.28117E-14
 -1      3468 5.18197E-03 3.06191E-04-1.25683E-14
 -1      3469 5.68269E-03 3.39782E-04-1.49465E-14
 -1      3470 5.53978E-03 3.40914E-04-1.42174E-14
 -1      3471 5.46800E-03 3.04357E-04-1.39589E-14
 -1      3472 5.96840E-03 3.37244E-04-1.64548E-14
 -1      3473 5.82556E-03 3.38562E-04-1.56918E-14
 -1      3474 5.75383E-03 3.02257E-04-1.54187E-14
 -1      3475 6.25395E-03 3.34255E-04-1.80300E-14
 -1      3476 6.11120E-03 3.35812E-04-1.72343E-14
 -1      3477 6.03942E-03 2.99810E-04-1.69461E-14
 -1      3478 6.53930E-03 3.30709E-04-1.96701E-14
 -1      3479 6.39665E-03 3.32559E-04-1.88426E-14
 -1      3480 6.32475E-03 2.96923E-04-1.85406E-14
 -1      3481 6.82439E-03 3.26496E-04-2.13724E-14
 -1      3482 6.68188E-03 3.28693E-04-2.05138E-14
 -1      3483 6.60972E-03 2.93495E-04-2.01979E-14
 -1      3484 7.10912E-03 3.21526E-04-2.31355E-14
 -1      3485 6.96680E-03 3.24112E-04-2.22460E-14
 -1      3486 6.89424E-03 2.89431E-04-2.19168E-14
 -1      3487 7.39338E-03 3.15742E-04-2.49583E-14
 -1      3488 7.25131E-03 3.18740E-04-2.40401E-14
 -1      3489 7.17818E-03 2.84656E-04-2.36969E-14
 -1      3490 7.67704E-03 3.09148E-04-2.68404E-14
 -1      3491 7.53529E-03 3.12547E-04-2.58919E-14
 -1      3492 7.46136E-03 2.79132E-04-2.55375E-14
 -1      3493 7.95989E-03 3.01848E-04-2.87752E-14
 -1      3494 7.81856E-03 3.05582E-04-2.78010E-14
 -1      3495 7.74355E-03 2.72887E-04-2.74346E-14
 -1      3496 8.24173E-03 2.94088E-04-3.07578E-14
 -1      3497 8.10094E-03 2.98013E-04-2.97600E-14
 -1      3498 8.02449E-03 2.66047E-04-2.93838E-14
 -1      3499 8.52233E-03 2.86313E-04-3.27857E-14
 -1      3500 8.38218E-03 2.90178E-04-3.17676E-14
 -1      3501 8.30385E-03 2.58878E-04-3.13811E-14
 -1      3502 8.80148E-03 2.79231E-04-3.48546E-14
 -1      3503 8.66207E-03 2.82646E-04-3.38155E-14
 -1      3504 8.58130E-03 2.51833E-04-3.34230E-14
 -1      3505 9.07907E-03 2.73883E-04-3.69592E-14
 -1      3506 8.94044E-03 2.76279E-04-3.59015E-14
 -1      3507 8.85649E-03 2.45595E-04-3.55041E-14
 -1      3508 9.35526E-03 2.71714E-04-3.90965E-14
 -1      3509 9.21727E-03 2.72310E-04-3.80251E-14
 -1      3510 9.12919E-03 2.41127E-04-3.76201E-14
 -1      3511 9.63075E-03 2.74658E-04-4.12611E-14
 -1      3512 9.49296E-03 2.72411E-04-4.01748E-14
 -1      3513 9.39939E-03 2.39695E-04-3.97664E-14
 -1      3514 9.90727E-03 2.85272E-04-4.34541E-14
 -1      3515 9.76864E-03 2.78786E-04-4.23547E-14
 -1      3516 9.66763E-03 2.42907E-04-4.19413E-14
 -1      3517 1.01884E-02 3.07142E-04-4.56726E-14
 -1      3518 1.00468E-02 2.94385E-04-4.45598E-14
 -1      3519 9.93547E-03 2.52808E-04-4.41404E-14
 -1      3520 1.04675E-02 3.41893E-04-4.78449E-14
 -1      3521 1.03198E-02 3.20242E-04-4.67211E-14
 -1      3522 1.01946E-02 2.69605E-04-4.62965E-14
 -1      3523 1.04485E-02 2.95261E-04-4.84031E-14
 -1      3524 1.26578E-02 1.37071E-03-6.02272E-14
 -1      3525 1.03487E-02 1.59101E-04-5.05299E-14
 -1      3526 1.04435E-02 2.03756E-04-5.03446E-14
 -1      3527 1.31523E-02 1.31361E-03-6.35254E-14
 -1      3528 1.57398E-03-2.60704E-04-1.54132E-15
 -1      3529 1.71778E-03-2.71184E-04-1.79918E-15
 -1      3530 1.29691E-02 1.36960E-03-6.23269E-14
 -1      3531 1.13226E-03-1.71979E-04-8.81036E-16
 -1      3532 1.13713E-03-2.03482E-04-8.79505E-16
 -1      3533 1.21584E-03-2.22210E-04-9.83832E-16
 -1      3534 4.53854E-03 3.47098E-04-9.61258E-15
 -1      3535 4.39537E-03 3.47776E-04-9.02644E-15
 -1      3536 4.32263E-03 3.10504E-04-8.82747E-15
 -1      3537 4.60929E-03 3.09256E-04-1.00023E-14
 -1      3538 9.92797E-04-3.55917E-05-7.01262E-16
 -1      3539 9.93810E-04-6.19660E-05-7.07483E-16
 -1      3540 1.06962E-03-7.37476E-05-8.02283E-16
 -1      3541 1.11273E-03-2.43917E-05-8.47494E-16
 -1      3542 3.67882E-03 3.49919E-04-6.37554E-15
 -1      3543 3.53535E-03 3.49948E-04-5.89939E-15
 -1      3544 3.74851E-03 3.12111E-04-6.69681E-15
 -1      3545 1.86181E-03-2.80020E-04-2.07655E-15
 -1      3546 2.00604E-03-2.87363E-04-2.37322E-15
 -1      3547 2.07291E-03-2.54655E-04-2.52710E-15
 -1      3548 1.32610E-03 2.85639E-04-8.98831E-16
 -1      3549 1.28389E-03 2.56942E-04-8.74992E-16
 -1      3550 1.45111E-03 2.95974E-04-1.06648E-15
 -1      3551 1.07930E-02-1.93645E-04-5.25806E-14
 -1      3552 1.06018E-02-1.08875E-04-5.17327E-14
 -1      3553 1.04078E-02-3.69124E-05-5.07895E-14
 -1      3554 1.02833E-02 9.93824E-06-5.02170E-14
 -1      3555 1.10842E-02-3.63665E-04-5.38196E-14
 -1      3556 1.08846E-02-2.56275E-04-5.28708E-14
 -1      3557 1.05832E-02 2.78503E-04-5.02143E-14
 -1      3558 1.32298E-03-2.35789E-04-1.13767E-15
 -1      3559 1.46600E-03-2.49529E-04-1.36089E-15
 -1      3560 1.53219E-03-2.22966E-04-1.48128E-15
 -1      3561 1.31716E-03-2.01283E-04-1.13952E-15
 -1      3562 2.24120E-03 3.31998E-04-2.44859E-15
 -1      3563 2.09715E-03 3.26183E-04-2.15816E-15
 -1      3564 2.30774E-03 2.97784E-04-2.65009E-15
 -1      3565 1.27724E-03 2.22371E-04-9.03683E-16
 -1      3566 1.25740E-03 4.78513E-05-1.01346E-15
 -1      3567 1.25666E-03 1.67851E-05-1.02743E-15
 -1      3568 1.95313E-03 3.19044E-04-1.88693E-15
 -1      3569 1.80914E-03 3.10444E-04-1.63449E-15
 -1      3570 2.01905E-03 2.86945E-04-2.06348E-15
 -1      3571 1.14370E-03 1.48698E-04-7.94219E-16
 -1      3572 1.12331E-02-4.64210E-04-5.45073E-14
 -1      3573 1.14253E-02-5.29775E-04-5.56784E-14
 -1      3574 1.01848E-02 9.24739E-05-4.99859E-14
 -1      3575 1.01581E-02 1.00045E-04-4.94782E-14
 -1      3576 1.01419E-02 7.66886E-05-4.93917E-14
 -1      3577 1.02613E-02 1.40941E-04-4.99002E-14
 -1      3578 1.12838E-03-1.41352E-04-8.79667E-16
 -1      3579 1.20597E-03-1.57108E-04-9.84821E-16
 -1      3580 1.12541E-03-1.11423E-04-8.76794E-16
 -1      3581 3.39182E-03 3.49751E-04-5.44198E-15
 -1      3582 3.24822E-03 3.49297E-04-5.00340E-15
 -1      3583 3.46099E-03 3.12135E-04-5.74070E-15
 -1      3584 1.25886E-03 7.90029E-05-9.97534E-16
 -1      3585 1.38056E-03 6.70972E-05-1.18147E-15
 -1      3586 1.26106E-03 1.10490E-04-9.79672E-16
 -1      3587 1.04391E-02-8.69093E-05-5.05483E-14
 -1      3588 1.78419E-03-2.41294E-04-1.93569E-15
 -1      3589 3.10455E-03 3.48503E-04-4.58264E-15
 -1      3590 2.96082E-03 3.47324E-04-4.18018E-15
 -1      3591 3.17314E-03 3.11252E-04-4.85742E-15
 -1      3592 2.88494E-03 3.09010E-04-4.04731E-15
 -1      3593 1.07175E-02-2.22196E-04-5.17770E-14
 -1      3594 1.04482E-02 2.36264E-04-4.95983E-14
 -1      3595 1.01948E-02-7.75347E-06-4.91511E-14
 -1      3596 1.02156E-02 2.72654E-05-4.97549E-14
 -1      3597 1.01571E-02 4.02190E-05-4.92955E-14
 -1      3598 1.37819E-03 8.36877E-07-1.21261E-15
 -1      3599 1.25586E-03-1.47041E-05-1.03868E-15
 -1      3600 2.66450E-03 2.68704E-04-3.54241E-15
 -1      3601 2.51988E-03 2.66215E-04-3.19024E-15
 -1      3602 2.57531E-03-2.30979E-04-3.73876E-15
 -1      3603 2.72016E-03-2.32932E-04-4.12830E-15
 -1      3604 2.86496E-03-2.34416E-04-4.53722E-15
 -1      3605 3.00968E-03-2.35478E-04-4.96533E-15
 -1      3606 2.78966E-03-1.96142E-04-4.31580E-15
 -1      3607 3.15430E-03-2.36213E-04-5.41144E-15
 -1      3608 3.29882E-03-2.36655E-04-5.87621E-15
 -1      3609 3.07955E-03-1.98004E-04-5.16724E-15
 -1      3610 3.44322E-03-2.36876E-04-6.35925E-15
 -1      3611 3.58751E-03-2.36900E-04-6.85916E-15
 -1      3612 3.36903E-03-1.98789E-04-6.09234E-15
 -1      3613 3.73169E-03-2.36779E-04-7.37823E-15
 -1      3614 3.87576E-03-2.36528E-04-7.91411E-15
 -1      3615 3.65802E-03-1.98845E-04-7.08987E-15
 -1      3616 4.01971E-03-2.36185E-04-8.46789E-15
 -1      3617 4.16356E-03-2.35757E-04-9.03989E-15
 -1      3618 3.94651E-03-1.98420E-04-8.15812E-15
 -1      3619 4.30731E-03-2.35270E-04-9.62762E-15
 -1      3620 4.45096E-03-2.34726E-04-1.02320E-14
 -1      3621 4.23452E-03-1.97684E-04-9.29575E-15
 -1      3622 4.59452E-03-2.34141E-04-1.08546E-14
 -1      3623 4.73799E-03-2.33514E-04-1.14945E-14
 -1      3624 4.52207E-03-1.96743E-04-1.05019E-14
 -1      3625 4.88137E-03-2.32851E-04-1.21513E-14
 -1      3626 5.02467E-03-2.32150E-04-1.28248E-14
 -1      3627 4.80920E-03-1.95655E-04-1.17774E-14
 -1      3628 5.16789E-03-2.31412E-04-1.35160E-14
 -1      3629 5.31102E-03-2.30630E-04-1.42246E-14
 -1      3630 5.09593E-03-1.94437E-04-1.31216E-14
 -1      3631 5.45408E-03-2.29802E-04-1.49496E-14
 -1      3632 5.59704E-03-2.28919E-04-1.56923E-14
 -1      3633 5.38227E-03-1.93077E-04-1.45349E-14
 -1      3634 5.73992E-03-2.27975E-04-1.64516E-14
 -1      3635 5.88270E-03-2.26960E-04-1.72266E-14
 -1      3636 5.66822E-03-1.91541E-04-1.60156E-14
 -1      3637 6.02538E-03-2.25868E-04-1.80192E-14
 -1      3638 6.16794E-03-2.24683E-04-1.88277E-14
 -1      3639 5.95373E-03-1.89776E-04-1.75635E-14
 -1      3640 6.31038E-03-2.23400E-04-1.96523E-14
 -1      3641 6.45269E-03-2.22003E-04-2.04920E-14
 -1      3642 6.23872E-03-1.87715E-04-1.91769E-14
 -1      3643 6.59485E-03-2.20488E-04-2.13478E-14
 -1      3644 6.73684E-03-2.18835E-04-2.22194E-14
 -1      3645 6.52311E-03-1.85284E-04-2.08537E-14
 -1      3646 6.87863E-03-2.17044E-04-2.31077E-14
 -1      3647 7.02023E-03-2.15095E-04-2.40094E-14
 -1      3648 6.80673E-03-1.82405E-04-2.25945E-14
 -1      3649 7.16158E-03-2.12993E-04-2.49258E-14
 -1      3650 7.30268E-03-2.10716E-04-2.58580E-14
 -1      3651 7.08941E-03-1.79002E-04-2.43964E-14
 -1      3652 7.44348E-03-2.08277E-04-2.68035E-14
 -1      3653 7.58398E-03-2.05655E-04-2.77622E-14
 -1      3654 7.37092E-03-1.75014E-04-2.62550E-14
 -1      3655 7.72413E-03-2.02876E-04-2.87346E-14
 -1      3656 7.86391E-03-1.99919E-04-2.97193E-14
 -1      3657 7.65099E-03-1.70398E-04-2.81702E-14
 -1      3658 8.00327E-03-1.96824E-04-3.07170E-14
 -1      3659 8.14223E-03-1.93574E-04-3.17276E-14
 -1      3660 7.92934E-03-1.65149E-04-3.01376E-14
 -1      3661 8.28071E-03-1.90228E-04-3.27483E-14
 -1      3662 8.41875E-03-1.86774E-04-3.37811E-14
 -1      3663 8.20567E-03-1.59308E-04-3.21536E-14
 -1      3664 8.55628E-03-1.83294E-04-3.48252E-14
 -1      3665 8.69337E-03-1.79787E-04-3.58772E-14
 -1      3666 8.47971E-03-1.52977E-04-3.42175E-14
 -1      3667 8.82996E-03-1.76353E-04-3.69375E-14
 -1      3668 8.96618E-03-1.73013E-04-3.80067E-14
 -1      3669 8.75127E-03-1.46336E-04-3.63204E-14
 -1      3670 9.10197E-03-1.69883E-04-3.90843E-14
 -1      3671 9.23757E-03-1.67026E-04-4.01683E-14
 -1      3672 9.02031E-03-1.39648E-04-3.84560E-14
 -1      3673 9.37296E-03-1.64561E-04-4.12594E-14
 -1      3674 9.50851E-03-1.62633E-04-4.23580E-14
 -1      3675 9.28710E-03-1.33280E-04-4.06206E-14
 -1      3676 9.64427E-03-1.61348E-04-4.34634E-14
 -1      3677 9.78086E-03-1.61024E-04-4.45753E-14
 -1      3678 9.55239E-03-1.27747E-04-4.28168E-14
 -1      3679 9.91841E-03-1.61747E-04-4.56946E-14
 -1      3680 1.00579E-02-1.64193E-04-4.68211E-14
 -1      3681 9.81781E-03-1.23838E-04-4.50384E-14
 -1      3682 1.01998E-02-1.68474E-04-4.79520E-14
 -1      3683 1.03454E-02-1.75873E-04-4.90884E-14
 -1      3684 1.00865E-02-1.23160E-04-4.72844E-14
 -1      3685 1.05570E-02-2.01620E-04-5.06262E-14
 -1      3686 5.53915E-03 2.66817E-04-1.44143E-14
 -1      3687 5.39616E-03 2.67704E-04-1.36995E-14
 -1      3688 1.42629E-03 2.30671E-04-1.10877E-15
 -1      3689 1.29601E-03 1.88414E-04-9.63680E-16
 -1      3690 4.10611E-03 2.73529E-04-8.07393E-15
 -1      3691 3.96239E-03 2.73904E-04-7.53914E-15
 -1      3692 5.25310E-03 2.68534E-04-1.30030E-14
 -1      3693 5.10998E-03 2.69314E-04-1.23245E-14
 -1      3694 5.32426E-03 2.30941E-04-1.34401E-14
 -1      3695 4.96678E-03 2.70049E-04-1.16632E-14
 -1      3696 4.82352E-03 2.70743E-04-1.10198E-14
 -1      3697 5.03791E-03 2.32320E-04-1.20790E-14
 -1      3698 5.82490E-03 2.64841E-04-1.58929E-14
 -1      3699 5.68206E-03 2.65866E-04-1.51449E-14
 -1      3700 5.61027E-03 2.29372E-04-1.48707E-14
 -1      3701 6.11033E-03 2.62530E-04-1.74398E-14
 -1      3702 5.96766E-03 2.63733E-04-1.66580E-14
 -1      3703 5.89591E-03 2.27558E-04-1.63693E-14
 -1      3704 6.39536E-03 2.59799E-04-1.90528E-14
 -1      3705 6.25290E-03 2.61224E-04-1.82383E-14
 -1      3706 6.18113E-03 2.25431E-04-1.79357E-14
 -1      3707 6.67989E-03 2.56558E-04-2.07271E-14
 -1      3708 6.53769E-03 2.58249E-04-1.98822E-14
 -1      3709 6.46581E-03 2.22914E-04-1.95663E-14
 -1      3710 6.96378E-03 2.52727E-04-2.24638E-14
 -1      3711 6.82192E-03 2.54723E-04-2.15882E-14
 -1      3712 6.74985E-03 2.19931E-04-2.12595E-14
 -1      3713 7.24684E-03 2.48248E-04-2.42620E-14
 -1      3714 7.10542E-03 2.50575E-04-2.33556E-14
 -1      3715 7.03304E-03 2.16420E-04-2.30139E-14
 -1      3716 7.52884E-03 2.43104E-04-2.61180E-14
 -1      3717 7.38798E-03 2.45763E-04-2.51816E-14
 -1      3718 7.31515E-03 2.12340E-04-2.48277E-14
 -1      3719 7.80947E-03 2.37346E-04-2.80306E-14
 -1      3720 7.66934E-03 2.40303E-04-2.70672E-14
 -1      3721 7.59589E-03 2.07697E-04-2.67000E-14
 -1      3722 8.08838E-03 2.31120E-04-2.99949E-14
 -1      3723 7.94915E-03 2.34288E-04-2.90075E-14
 -1      3724 7.87489E-03 2.02562E-04-2.86292E-14
 -1      3725 8.36515E-03 2.24707E-04-3.20064E-14
 -1      3726 8.22705E-03 2.27928E-04-3.09943E-14
 -1      3727 8.15170E-03 1.97100E-04-3.06087E-14
 -1      3728 8.63932E-03 2.18556E-04-3.40620E-14
 -1      3729 8.50257E-03 2.21582E-04-3.30290E-14
 -1      3730 8.42581E-03 1.91601E-04-3.26341E-14
 -1      3731 8.91042E-03 2.13313E-04-3.61532E-14
 -1      3732 8.77526E-03 2.15796E-04-3.51023E-14
 -1      3733 8.69663E-03 1.86499E-04-3.47004E-14
 -1      3734 9.17803E-03 2.09837E-04-3.82812E-14
 -1      3735 9.04465E-03 2.11321E-04-3.72137E-14
 -1      3736 8.96355E-03 1.82389E-04-3.68053E-14
 -1      3737 9.44191E-03 2.09196E-04-4.04361E-14
 -1      3738 9.31038E-03 2.09120E-04-3.93557E-14
 -1      3739 9.22592E-03 1.80011E-04-3.89418E-14
 -1      3740 9.70228E-03 2.12646E-04-4.26211E-14
 -1      3741 9.57241E-03 2.10350E-04-4.15247E-14
 -1      3742 9.48319E-03 1.80202E-04-4.11086E-14
 -1      3743 9.96016E-03 2.21691E-04-4.48267E-14
 -1      3744 9.83126E-03 2.16364E-04-4.37206E-14
 -1      3745 9.73503E-03 1.83823E-04-4.32998E-14
 -1      3746 1.29169E-03 1.55117E-04-9.87654E-16
 -1      3747 2.37522E-03 2.63026E-04-2.85624E-15
 -1      3748 2.23057E-03 2.59058E-04-2.54107E-15
 -1      3749 2.44353E-03 2.27772E-04-3.06703E-15
 -1      3750 3.81856E-03 2.74176E-04-7.02197E-15
 -1      3751 3.67465E-03 2.74336E-04-6.52299E-15
 -1      3752 3.88897E-03 2.36159E-04-7.35069E-15
 -1      3753 1.99605E-03-2.16394E-04-2.36832E-15
 -1      3754 2.14074E-03-2.21256E-04-2.68213E-15
 -1      3755 1.69266E-03 3.08100E-04-1.43505E-15
 -1      3756 1.56721E-03 3.01557E-04-1.23825E-15
 -1      3757 1.52491E-03 2.72521E-04-1.20971E-15
 -1      3758 1.75796E-03 2.78659E-04-1.58875E-15
 -1      3759 1.01663E-02 1.22816E-04-4.90877E-14
 -1      3760 1.02132E-02 1.50555E-04-4.89145E-14
 -1      3761 1.70741E-03-2.03472E-04-1.79795E-15
 -1      3762 1.85158E-03-2.10501E-04-2.07337E-15
 -1      3763 1.91984E-03-1.78800E-04-2.21253E-15
 -1      3764 2.28555E-03-2.25243E-04-3.01515E-15
 -1      3765 2.43042E-03-2.28437E-04-3.36763E-15
 -1      3766 2.20942E-03-1.87194E-04-2.83799E-15
 -1      3767 1.02690E-02 1.84074E-04-4.87275E-14
 -1      3768 1.03781E-02 2.45455E-04-4.85976E-14
 -1      3769 1.02597E-02 2.35567E-04-4.75420E-14
 -1      3770 1.01510E-02 1.60697E-04-4.79202E-14
 -1      3771 2.95357E-03 2.72051E-04-4.30258E-15
 -1      3772 2.80908E-03 2.70629E-04-3.91325E-15
 -1      3773 2.73330E-03 2.32248E-04-3.77736E-15
 -1      3774 1.04221E-02-1.40252E-04-4.99477E-14
 -1      3775 1.30876E-03-1.34565E-04-1.13542E-15
 -1      3776 1.31244E-03-1.67591E-04-1.13879E-15
 -1      3777 1.41951E-03-1.77435E-04-1.30352E-15
 -1      3778 3.60071E-03 2.36416E-04-6.34795E-15
 -1      3779 3.53063E-03 2.74340E-04-6.04245E-15
 -1      3780 3.38652E-03 2.74167E-04-5.58027E-15
 -1      3781 1.54259E-03 2.34667E-04-1.28367E-15
 -1      3782 2.15380E-03 2.20675E-04-2.43090E-15
 -1      3783 2.08598E-03 2.54149E-04-2.24489E-15
 -1      3784 1.94149E-03 2.48197E-04-1.96703E-15
 -1      3785 1.01029E-02 5.15483E-05-4.87916E-14
 -1      3786 1.00559E-02 6.11068E-05-4.82882E-14
 -1      3787 1.00678E-02 2.29514E-05-4.81912E-14
 -1      3788 1.23368E-03-4.19962E-05-1.01586E-15
 -1      3789 1.18960E-03-6.46232E-05-9.59207E-16
 -1      3790 1.16850E-03-9.06166E-05-9.33742E-16
 -1      3791 1.24557E-03-1.03843E-04-1.04216E-15
 -1      3792 1.33318E-03-5.72557E-05-1.16376E-15
 -1      3793 1.50926E-03-1.86525E-04-1.44961E-15
 -1      3794 1.61712E-03-1.95240E-04-1.63504E-15
 -1      3795 1.68512E-03-1.66092E-04-1.76001E-15
 -1      3796 1.50513E-03-1.50911E-04-1.44592E-15
 -1      3797 1.41293E-03 1.46444E-04-1.17144E-15
 -1      3798 1.01692E-02 2.30479E-04-4.67042E-14
 -1      3799 1.00515E-02 2.24211E-04-4.56558E-14
 -1      3800 9.94668E-03 1.88212E-04-4.52291E-14
 -1      3801 1.01184E-02 1.91898E-04-4.68942E-14
 -1      3802 3.09799E-03 2.73080E-04-4.71028E-15
 -1      3803 3.02284E-03 2.34827E-04-4.56148E-15
 -1      3804 3.24230E-03 2.73757E-04-5.13614E-15
 -1      3805 1.00981E-02 1.06957E-04-4.84975E-14
 -1      3806 2.49952E-03-1.92737E-04-3.53912E-15
 -1      3807 4.68019E-03 2.71394E-04-1.03947E-14
 -1      3808 4.53679E-03 2.72006E-04-9.78749E-15
 -1      3809 4.75123E-03 2.33544E-04-1.07895E-14
 -1      3810 4.24976E-03 2.73083E-04-8.62729E-15
 -1      3811 4.17678E-03 2.35515E-04-8.42566E-15
 -1      3812 4.39331E-03 2.72569E-04-9.19837E-15
 -1      3813 1.02504E-02-7.61226E-05-4.90159E-14
 -1      3814 1.50191E-03 1.82424E-05-1.39885E-15
 -1      3815 1.50110E-03-1.68074E-05-1.41377E-15
 -1      3816 1.50438E-03 8.72546E-05-1.36071E-15
 -1      3817 1.50274E-03 5.26643E-05-1.38104E-15
 -1      3818 1.62574E-03 3.64129E-05-1.59577E-15
 -1      3819 1.01343E-02-8.79201E-05-4.79219E-14
 -1      3820 1.01610E-02-4.19056E-05-4.85183E-14
 -1      3821 1.00927E-02-2.26348E-05-4.80619E-14
 -1      3822 1.00037E-02-8.92909E-05-4.67937E-14
 -1      3823 2.80282E-03 1.95433E-04-4.01620E-15
 -1      3824 2.65775E-03 1.93955E-04-3.63961E-15
 -1      3825 1.53753E-03 1.84330E-04-1.33040E-15
 -1      3826 1.50573E-03 1.35457E-04-1.32490E-15
 -1      3827 1.62782E-03 1.22306E-04-1.53702E-15
 -1      3828 1.63484E-03 2.24121E-04-1.44641E-15
 -1      3829 3.00498E-03-1.59789E-04-4.92648E-15
 -1      3830 3.15001E-03-1.60304E-04-5.36882E-15
 -1      3831 3.29494E-03-1.60628E-04-5.82910E-15
 -1      3832 3.43973E-03-1.60775E-04-6.30763E-15
 -1      3833 3.22100E-03-1.22429E-04-5.56974E-15
 -1      3834 3.58440E-03-1.60797E-04-6.80470E-15
 -1      3835 3.72892E-03-1.60701E-04-7.31900E-15
 -1      3836 3.51087E-03-1.22662E-04-6.52244E-15
 -1      3837 3.87332E-03-1.60523E-04-7.85026E-15
 -1      3838 4.01758E-03-1.60267E-04-8.40009E-15
 -1      3839 3.80018E-03-1.22512E-04-7.54632E-15
 -1      3840 4.16171E-03-1.59960E-04-8.96771E-15
 -1      3841 4.30570E-03-1.59601E-04-9.55137E-15
 -1      3842 4.08892E-03-1.22109E-04-8.64155E-15
 -1      3843 4.44958E-03-1.59209E-04-1.01519E-14
 -1      3844 4.59334E-03-1.58780E-04-1.07704E-14
 -1      3845 4.37710E-03-1.21543E-04-9.80577E-15
 -1      3846 4.73699E-03-1.58326E-04-1.14061E-14
 -1      3847 4.88052E-03-1.57842E-04-1.20595E-14
 -1      3848 4.66477E-03-1.20866E-04-1.10384E-14
 -1      3849 5.02394E-03-1.57334E-04-1.27300E-14
 -1      3850 5.16725E-03-1.56795E-04-1.34172E-14
 -1      3851 4.95194E-03-1.20100E-04-1.23408E-14
 -1      3852 5.31046E-03-1.56228E-04-1.41223E-14
 -1      3853 5.45355E-03-1.55625E-04-1.48443E-14
 -1      3854 5.23864E-03-1.19248E-04-1.37121E-14
 -1      3855 5.59653E-03-1.54985E-04-1.55827E-14
 -1      3856 5.73939E-03-1.54298E-04-1.63382E-14
 -1      3857 5.52485E-03-1.18294E-04-1.51534E-14
 -1      3858 5.88212E-03-1.53562E-04-1.71108E-14
 -1      3859 6.02471E-03-1.52766E-04-1.78995E-14
 -1      3860 5.81055E-03-1.17208E-04-1.66603E-14
 -1      3861 6.16716E-03-1.51907E-04-1.87053E-14
 -1      3862 6.30943E-03-1.50971E-04-1.95263E-14
 -1      3863 6.09567E-03-1.15950E-04-1.82347E-14
 -1      3864 6.45153E-03-1.49956E-04-2.03628E-14
 -1      3865 6.59342E-03-1.48847E-04-2.12150E-14
 -1      3866 6.38009E-03-1.14470E-04-1.98746E-14
 -1      3867 6.73508E-03-1.47643E-04-2.20837E-14
 -1      3868 6.87649E-03-1.46326E-04-2.29689E-14
 -1      3869 6.66366E-03-1.12713E-04-2.15764E-14
 -1      3870 7.01762E-03-1.44900E-04-2.38674E-14
 -1      3871 7.15844E-03-1.43341E-04-2.47806E-14
 -1      3872 6.94617E-03-1.10621E-04-2.33404E-14
 -1      3873 7.29890E-03-1.41661E-04-2.57098E-14
 -1      3874 7.43898E-03-1.39833E-04-2.66520E-14
 -1      3875 7.22737E-03-1.08134E-04-2.51646E-14
 -1      3876 7.57862E-03-1.37876E-04-2.76073E-14
 -1      3877 7.71780E-03-1.35758E-04-2.85761E-14
 -1      3878 7.50693E-03-1.05195E-04-2.70469E-14
 -1      3879 7.85645E-03-1.33509E-04-2.95589E-14
 -1      3880 7.99455E-03-1.31093E-04-3.05542E-14
 -1      3881 7.78450E-03-1.01754E-04-2.89814E-14
 -1      3882 8.13202E-03-1.28553E-04-3.15618E-14
 -1      3883 8.26886E-03-1.25847E-04-3.25798E-14
 -1      3884 8.05966E-03-9.77689E-05-3.09686E-14
 -1      3885 8.40497E-03-1.23034E-04-3.36098E-14
 -1      3886 8.54037E-03-1.20066E-04-3.46525E-14
 -1      3887 8.33195E-03-9.32093E-05-3.30047E-14
 -1      3888 8.67496E-03-1.17015E-04-3.57025E-14
 -1      3889 8.80878E-03-1.13830E-04-3.67601E-14
 -1      3890 8.60092E-03-8.80536E-05-3.50840E-14
 -1      3891 8.94172E-03-1.10597E-04-3.78276E-14
 -1      3892 9.07389E-03-1.07260E-04-3.89029E-14
 -1      3893 8.86612E-03-8.22822E-05-3.72005E-14
 -1      3894 9.20516E-03-1.03915E-04-3.99843E-14
 -1      3895 9.33573E-03-1.00513E-04-4.10724E-14
 -1      3896 9.12715E-03-7.58640E-05-3.93472E-14
 -1      3897 9.46545E-03-9.71571E-05-4.21682E-14
 -1      3898 9.59471E-03-9.38177E-05-4.32715E-14
 -1      3899 9.38371E-03-6.87479E-05-4.15217E-14
 -1      3900 9.72328E-03-9.06078E-05-4.43823E-14
 -1      3901 9.85192E-03-8.75397E-05-4.54985E-14
 -1      3902 9.63565E-03-6.08604E-05-4.37253E-14
 -1      3903 5.96687E-03 1.90434E-04-1.68481E-14
 -1      3904 5.82419E-03 1.91272E-04-1.60803E-14
 -1      3905 5.68139E-03 1.92045E-04-1.53301E-14
 -1      3906 5.53848E-03 1.92764E-04-1.45965E-14
 -1      3907 5.75249E-03 1.54858E-04-1.57915E-14
 -1      3908 5.10912E-03 1.94647E-04-1.24979E-14
 -1      3909 4.96580E-03 1.95201E-04-1.18339E-14
 -1      3910 6.25183E-03 1.88540E-04-1.84332E-14
 -1      3911 6.10942E-03 1.89528E-04-1.76323E-14
 -1      3912 6.03778E-03 1.53492E-04-1.73291E-14
 -1      3913 6.53614E-03 1.86300E-04-2.00819E-14
 -1      3914 6.39407E-03 1.87469E-04-1.92501E-14
 -1      3915 6.32245E-03 1.51882E-04-1.89329E-14
 -1      3916 6.81963E-03 1.83651E-04-2.17943E-14
 -1      3917 6.67799E-03 1.85033E-04-2.09307E-14
 -1      3918 6.60635E-03 1.49980E-04-2.06011E-14
 -1      3919 7.10208E-03 1.80549E-04-2.35664E-14
 -1      3920 6.96100E-03 1.82163E-04-2.26724E-14
 -1      3921 6.88928E-03 1.47742E-04-2.23315E-14
 -1      3922 7.38322E-03 1.76975E-04-2.53954E-14
 -1      3923 7.24283E-03 1.78826E-04-2.44730E-14
 -1      3924 7.17098E-03 1.45139E-04-2.41192E-14
 -1      3925 7.66268E-03 1.72953E-04-2.72852E-14
 -1      3926 7.52318E-03 1.75024E-04-2.63335E-14
 -1      3927 7.45112E-03 1.42174E-04-2.59671E-14
 -1      3928 7.94002E-03 1.68575E-04-2.92305E-14
 -1      3929 7.80164E-03 1.70810E-04-2.82516E-14
 -1      3930 7.72930E-03 1.38890E-04-2.78735E-14
 -1      3931 8.21473E-03 1.64021E-04-3.12233E-14
 -1      3932 8.07773E-03 1.66319E-04-3.02209E-14
 -1      3933 8.00501E-03 1.35397E-04-2.98323E-14
 -1      3934 8.48620E-03 1.59582E-04-3.32626E-14
 -1      3935 8.35090E-03 1.61784E-04-3.22368E-14
 -1      3936 8.27768E-03 1.31885E-04-3.18396E-14
 -1      3937 8.75373E-03 1.55675E-04-3.53420E-14
 -1      3938 8.62049E-03 1.57558E-04-3.42980E-14
 -1      3939 8.54659E-03 1.28643E-04-3.38926E-14
 -1      3940 9.01653E-03 1.52840E-04-3.74589E-14
 -1      3941 8.88576E-03 1.54121E-04-3.63966E-14
 -1      3942 8.81094E-03 1.26067E-04-3.59868E-14
 -1      3943 9.27370E-03 1.51698E-04-3.96042E-14
 -1      3944 9.14584E-03 1.52064E-04-3.85282E-14
 -1      3945 9.06976E-03 1.24642E-04-3.81124E-14
 -1      3946 9.52428E-03 1.52885E-04-4.17794E-14
 -1      3947 9.39982E-03 1.52024E-04-4.06884E-14
 -1      3948 9.32187E-03 1.24880E-04-4.02663E-14
 -1      3949 9.76719E-03 1.56914E-04-4.39765E-14
 -1      3950 9.64668E-03 1.54616E-04-4.28745E-14
 -1      3951 9.56582E-03 1.27224E-04-4.24490E-14
 -1      3952 1.75172E-03 2.25268E-04-1.64629E-15
 -1      3953 2.51265E-03 1.92024E-04-3.28208E-15
 -1      3954 2.36755E-03 1.89589E-04-2.94277E-15
 -1      3955 2.58251E-03 1.55830E-04-3.50116E-15
 -1      3956 3.95970E-03 1.98073E-04-7.68283E-15
 -1      3957 3.81552E-03 1.98274E-04-7.16061E-15
 -1      3958 5.39546E-03 1.93432E-04-1.38793E-14
 -1      3959 5.25234E-03 1.94060E-04-1.31797E-14
 -1      3960 5.46667E-03 1.56030E-04-1.43211E-14
 -1      3961 1.84441E-03-1.42078E-04-2.06021E-15
 -1      3962 1.98898E-03-1.46221E-04-2.35257E-15
 -1      3963 1.00315E-02 8.79425E-05-4.78960E-14
 -1      3964 1.00281E-02 1.11128E-04-4.75076E-14
 -1      3965 2.71463E-03-1.57972E-04-4.09742E-15
 -1      3966 2.85984E-03-1.59020E-04-4.50250E-15
 -1      3967 2.93064E-03-1.21620E-04-4.68916E-15
 -1      3968 2.42413E-03-1.54769E-04-3.34284E-15
 -1      3969 2.56938E-03-1.56567E-04-3.71064E-15
 -1      3970 2.63994E-03-1.19979E-04-3.88230E-15
 -1      3971 2.13385E-03-1.49667E-04-2.66407E-15
 -1      3972 2.27894E-03-1.52483E-04-2.99419E-15
 -1      3973 2.34921E-03-1.17172E-04-3.15052E-15
 -1      3974 2.05891E-03-1.12772E-04-2.49349E-15
 -1      3975 1.62487E-03-3.60094E-05-1.62938E-15
 -1      3976 1.50108E-03-5.19324E-05-1.42585E-15
 -1      3977 3.67120E-03 1.98375E-04-6.65712E-15
 -1      3978 3.52677E-03 1.98370E-04-6.17170E-15
 -1      3979 3.74208E-03 1.60264E-04-6.96974E-15
 -1      3980 1.35188E-03-1.11188E-04-1.19998E-15
 -1      3981 4.89366E-03 1.57953E-04-1.15885E-14
 -1      3982 4.82239E-03 1.95721E-04-1.11875E-14
 -1      3983 4.67887E-03 1.96213E-04-1.05595E-14
 -1      3984 2.22252E-03 1.86537E-04-2.62176E-15
 -1      3985 2.07760E-03 1.82803E-04-2.31943E-15
 -1      3986 2.29203E-03 1.51774E-04-2.81729E-15
 -1      3987 1.45656E-03-7.78479E-05-1.35982E-15
 -1      3988 3.09272E-03 1.97345E-04-4.82395E-15
 -1      3989 2.94781E-03 1.96551E-04-4.41090E-15
 -1      3990 2.87298E-03 1.58311E-04-4.25908E-15
 -1      3991 5.18039E-03 1.57051E-04-1.29195E-14
 -1      3992 1.81939E-03 1.94746E-04-1.80371E-15
 -1      3993 9.85217E-03 1.57427E-04-4.48025E-14
 -1      3994 9.76788E-03 1.29519E-04-4.43730E-14
 -1      3995 9.93566E-03 1.57981E-04-4.56304E-14
 -1      3996 3.31200E-03 2.36074E-04-5.41830E-15
 -1      3997 9.97231E-03 6.44194E-05-4.73023E-14
 -1      3998 4.10376E-03 1.97804E-04-8.22209E-15
 -1      3999 4.03073E-03 1.59959E-04-8.01818E-15
 -1      4000 4.24770E-03 1.97470E-04-8.77995E-15
 -1      4001 9.90505E-03-5.57130E-05-4.61293E-14
 -1      4002 4.46419E-03 2.34618E-04-9.57226E-15
 -1      4003 1.69954E-03-1.21958E-04-1.78396E-15
 -1      4004 1.76937E-03-9.09705E-05-1.90768E-15
 -1      4005 9.90109E-03 1.10047E-04-4.60549E-14
 -1      4006 9.98417E-03 1.30289E-04-4.66475E-14
 -1      4007 1.76861E-03-1.46755E-05-1.87871E-15
 -1      4008 1.76854E-03-5.27719E-05-1.89464E-15
 -1      4009 1.91296E-03-7.03666E-05-2.17960E-15
 -1      4010 9.96811E-03-3.11550E-05-4.68455E-14
 -1      4011 1.00132E-02-5.31216E-07-4.74755E-14
 -1      4012 9.95375E-03 1.28036E-05-4.69769E-14
 -1      4013 9.82781E-03-3.31891E-05-4.55500E-14
 -1      4014 1.76967E-03 5.99489E-05-1.83607E-15
 -1      4015 1.76872E-03 2.26103E-05-1.85854E-15
 -1      4016 1.91243E-03 7.58989E-06-2.14168E-15
 -1      4017 1.28231E-02 1.39399E-03-6.13386E-14
 -1      4018 1.00735E-02 1.59022E-04-4.70819E-14
 -1      4019 3.14730E-03-8.42437E-05-5.31330E-15
 -1      4020 3.29247E-03-8.44021E-05-5.76915E-15
 -1      4021 3.43751E-03-8.44769E-05-6.24376E-15
 -1      4022 3.58240E-03-8.44700E-05-6.73623E-15
 -1      4023 3.36438E-03-4.62665E-05-5.96821E-15
 -1      4024 3.72715E-03-8.44110E-05-7.24587E-15
 -1      4025 3.87175E-03-8.42958E-05-7.77282E-15
 -1      4026 3.65429E-03-4.62431E-05-6.94812E-15
 -1      4027 4.01620E-03-8.41467E-05-8.31885E-15
 -1      4028 4.16051E-03-8.39608E-05-8.88197E-15
 -1      4029 3.94360E-03-4.60850E-05-7.99950E-15
 -1      4030 4.30467E-03-8.37557E-05-9.46216E-15
 -1      4031 4.44869E-03-8.35240E-05-1.00591E-14
 -1      4032 4.23231E-03-4.58554E-05-9.12130E-15
 -1      4033 4.59257E-03-8.32794E-05-1.06733E-14
 -1      4034 4.73633E-03-8.30145E-05-1.13058E-14
 -1      4035 4.52043E-03-4.55720E-05-1.03117E-14
 -1      4036 4.87996E-03-8.27373E-05-1.19548E-14
 -1      4037 5.02346E-03-8.24428E-05-1.26212E-14
 -1      4038 4.80800E-03-4.52458E-05-1.15718E-14
 -1      4039 5.16683E-03-8.21361E-05-1.33054E-14
 -1      4040 5.31008E-03-8.18096E-05-1.40068E-14
 -1      4041 5.09504E-03-4.48895E-05-1.29008E-14
 -1      4042 5.45320E-03-8.14664E-05-1.47255E-14
 -1      4043 5.59618E-03-8.10990E-05-1.54607E-14
 -1      4044 5.38156E-03-4.44955E-05-1.43005E-14
 -1      4045 5.73903E-03-8.07087E-05-1.62126E-14
 -1      4046 5.88172E-03-8.02872E-05-1.69811E-14
 -1      4047 5.66753E-03-4.40538E-05-1.57676E-14
 -1      4048 6.02425E-03-7.98352E-05-1.77672E-14
 -1      4049 6.16661E-03-7.93428E-05-1.85696E-14
 -1      4050 5.95290E-03-4.35484E-05-1.73020E-14
 -1      4051 6.30877E-03-7.88107E-05-1.93878E-14
 -1      4052 6.45072E-03-7.82273E-05-2.02215E-14
 -1      4053 6.23756E-03-4.29582E-05-1.89030E-14
 -1      4054 6.59243E-03-7.75941E-05-2.10713E-14
 -1      4055 6.73388E-03-7.68968E-05-2.19365E-14
 -1      4056 6.52136E-03-4.22568E-05-2.05689E-14
 -1      4057 6.87502E-03-7.61390E-05-2.28175E-14
 -1      4058 7.01584E-03-7.53026E-05-2.37131E-14
 -1      4059 6.80412E-03-4.14118E-05-2.22960E-14
 -1      4060 7.15628E-03-7.43944E-05-2.46232E-14
 -1      4061 7.29631E-03-7.33918E-05-2.55489E-14
 -1      4062 7.08555E-03-4.03844E-05-2.40850E-14
 -1      4063 7.43587E-03-7.23060E-05-2.64882E-14
 -1      4064 7.57493E-03-7.11082E-05-2.74399E-14
 -1      4065 7.36533E-03-3.91276E-05-2.59309E-14
 -1      4066 7.71342E-03-6.98157E-05-2.84064E-14
 -1      4067 7.85129E-03-6.83918E-05-2.93856E-14
 -1      4068 7.64307E-03-3.75837E-05-2.78328E-14
 -1      4069 7.98847E-03-6.68613E-05-3.03782E-14
 -1      4070 8.12491E-03-6.51779E-05-3.13833E-14
 -1      4071 7.91829E-03-3.56807E-05-2.97883E-14
 -1      4072 8.26051E-03-6.33746E-05-3.24004E-14
 -1      4073 8.39525E-03-6.13929E-05-3.34279E-14
 -1      4074 8.19047E-03-3.33271E-05-3.17964E-14
 -1      4075 8.52900E-03-5.92755E-05-3.44675E-14
 -1      4076 8.66175E-03-5.69480E-05-3.55166E-14
 -1      4077 8.45897E-03-3.04042E-05-3.38507E-14
 -1      4078 8.79335E-03-5.44632E-05-3.65724E-14
 -1      4079 8.92380E-03-5.17256E-05-3.76386E-14
 -1      4080 8.72313E-03-2.67554E-05-3.59461E-14
 -1      4081 9.05291E-03-4.88001E-05-3.87113E-14
 -1      4082 9.18073E-03-4.55600E-05-3.97904E-14
 -1      4083 8.98213E-03-2.21726E-05-3.80741E-14
 -1      4084 9.30700E-03-4.20898E-05-4.08768E-14
 -1      4085 9.43184E-03-3.82244E-05-4.19691E-14
 -1      4086 9.23503E-03-1.63769E-05-4.02305E-14
 -1      4087 9.55485E-03-3.41400E-05-4.30693E-14
 -1      4088 9.67629E-03-2.94059E-05-4.41774E-14
 -1      4089 9.48058E-03-9.02537E-06-4.24151E-14
 -1      4090 6.39303E-03 1.15475E-04-1.94366E-14
 -1      4091 6.25094E-03 1.16140E-04-1.86170E-14
 -1      4092 1.51975E-03-1.09270E-04-1.46834E-15
 -1      4093 6.10867E-03 1.16748E-04-1.78124E-14
 -1      4094 5.96621E-03 1.17311E-04-1.70257E-14
 -1      4095 6.17953E-03 8.02199E-05-1.82995E-14
 -1      4096 6.95887E-03 1.12222E-04-2.28697E-14
 -1      4097 6.81784E-03 1.13136E-04-2.19883E-14
 -1      4098 7.23983E-03 1.10206E-04-2.46756E-14
 -1      4099 7.09955E-03 1.11252E-04-2.37653E-14
 -1      4100 7.02846E-03 7.71061E-05-2.34093E-14
 -1      4101 7.51901E-03 1.07947E-04-2.65409E-14
 -1      4102 7.37967E-03 1.09112E-04-2.56017E-14
 -1      4103 7.30871E-03 7.57614E-05-2.52361E-14
 -1      4104 7.79596E-03 1.05509E-04-2.84636E-14
 -1      4105 7.65779E-03 1.06755E-04-2.74956E-14
 -1      4106 7.58698E-03 7.43038E-05-2.71173E-14
 -1      4107 8.07014E-03 1.03013E-04-3.04373E-14
 -1      4108 7.93343E-03 1.04272E-04-2.94445E-14
 -1      4109 7.86280E-03 7.28106E-05-2.90552E-14
 -1      4110 8.34088E-03 1.00654E-04-3.24592E-14
 -1      4111 8.20597E-03 1.01820E-04-3.14423E-14
 -1      4112 8.13557E-03 7.14127E-05-3.10437E-14
 -1      4113 8.60744E-03 9.87188E-05-3.45251E-14
 -1      4114 8.47473E-03 9.96381E-05-3.34858E-14
 -1      4115 8.40459E-03 7.03084E-05-3.30790E-14
 -1      4116 8.86888E-03 9.75787E-05-3.66291E-14
 -1      4117 8.73885E-03 9.80579E-05-3.55720E-14
 -1      4118 8.66906E-03 6.97733E-05-3.51573E-14
 -1      4119 9.12408E-03 9.76757E-05-3.87634E-14
 -1      4120 8.99733E-03 9.74936E-05-3.76931E-14
 -1      4121 8.92796E-03 7.01612E-05-3.72718E-14
 -1      4122 9.37156E-03 9.94448E-05-4.09284E-14
 -1      4123 9.24887E-03 9.84067E-05-3.98428E-14
 -1      4124 9.18003E-03 7.18880E-05-3.94161E-14
 -1      4125 9.60935E-03 1.03201E-04-4.31186E-14
 -1      4126 9.49177E-03 1.01145E-04-4.20210E-14
 -1      4127 9.42351E-03 7.53368E-05-4.15899E-14
 -1      4128 5.53791E-03 1.18750E-04-1.47648E-14
 -1      4129 5.39487E-03 1.19165E-04-1.40453E-14
 -1      4130 2.65308E-03 1.19211E-04-3.72474E-15
 -1      4131 2.50769E-03 1.17977E-04-3.36169E-15
 -1      4132 6.67651E-03 1.13975E-04-2.11213E-14
 -1      4133 6.53489E-03 1.14759E-04-2.02703E-14
 -1      4134 6.46358E-03 7.93360E-05-1.99414E-14
 -1      4135 6.74664E-03 7.83009E-05-2.16439E-14
 -1      4136 5.82359E-03 1.17827E-04-1.62557E-14
 -1      4137 5.68082E-03 1.18308E-04-1.55023E-14
 -1      4138 5.89468E-03 8.09706E-05-1.67219E-14
 -1      4139 9.85690E-03 8.51514E-05-4.58618E-14
 -1      4140 9.79737E-03 1.03869E-04-4.50123E-14
 -1      4141 9.71652E-03 1.03245E-04-4.41847E-14
 -1      4142 1.60950E-03-1.15682E-04-1.62235E-15
 -1      4143 3.38221E-03 1.98214E-04-5.70385E-15
 -1      4144 3.23752E-03 1.97892E-04-5.25506E-15
 -1      4145 3.45289E-03 1.60227E-04-5.99378E-15
 -1      4146 2.05775E-03-7.22370E-05-2.47789E-15
 -1      4147 2.56570E-03-8.22556E-05-3.67088E-15
 -1      4148 2.71117E-03-8.30012E-05-4.05379E-15
 -1      4149 2.85663E-03-8.35673E-05-4.45512E-15
 -1      4150 3.00201E-03-8.39679E-05-4.87514E-15
 -1      4151 3.07391E-03-4.61094E-05-5.06023E-15
 -1      4152 5.25171E-03 1.19550E-04-1.33431E-14
 -1      4153 5.10843E-03 1.19913E-04-1.26588E-14
 -1      4154 5.32309E-03 8.21615E-05-1.37696E-14
 -1      4155 9.91033E-03 3.55823E-05-4.66148E-14
 -1      4156 9.87738E-03 6.49241E-05-4.62277E-14
 -1      4157 9.77725E-03 5.77866E-05-4.51822E-14
 -1      4158 9.84587E-03 1.45232E-05-4.59040E-14
 -1      4159 4.53526E-03 1.96667E-04-9.94835E-15
 -1      4160 4.39154E-03 1.97090E-04-9.35528E-15
 -1      4161 4.31885E-03 1.59427E-04-9.13722E-15
 -1      4162 4.60649E-03 1.58745E-04-1.03276E-14
 -1      4163 1.75349E-03 1.53002E-04-1.72820E-15
 -1      4164 1.75174E-03 1.01103E-04-1.77203E-15
 -1      4165 4.96503E-03 1.20252E-04-1.19907E-14
 -1      4166 4.82151E-03 1.20574E-04-1.13411E-14
 -1      4167 5.03648E-03 8.26418E-05-1.23960E-14
 -1      4168 9.74631E-03-7.32517E-06-4.48855E-14
 -1      4169 2.36233E-03 1.16401E-04-3.01704E-15
 -1      4170 2.21707E-03 1.14464E-04-2.69089E-15
 -1      4171 2.43334E-03 8.04653E-05-3.22119E-15
 -1      4172 3.16316E-03 1.59661E-04-5.09000E-15
 -1      4173 1.89466E-03 8.87402E-05-2.04935E-15
 -1      4174 2.94378E-03 1.20901E-04-4.50611E-15
 -1      4175 2.79846E-03 1.20181E-04-4.10620E-15
 -1      4176 2.72430E-03 8.22158E-05-3.95250E-15
 -1      4177 9.64963E-03 7.78979E-05-4.37505E-14
 -1      4178 5.60917E-03 8.16105E-05-1.52120E-14
 -1      4179 1.94275E-03 1.73021E-04-2.06108E-15
 -1      4180 2.01202E-03 1.40204E-04-2.23300E-15
 -1      4181 2.78301E-03-4.56805E-05-4.22493E-15
 -1      4182 2.27487E-03-8.00667E-05-2.96173E-15
 -1      4183 2.42024E-03-8.12867E-05-3.30679E-15
 -1      4184 2.49194E-03-4.48674E-05-3.46347E-15
 -1      4185 3.81331E-03 1.22098E-04-7.28550E-15
 -1      4186 3.66873E-03 1.22154E-04-6.77713E-15
 -1      4187 2.12928E-03-3.75942E-05-2.61543E-15
 -1      4188 4.10204E-03 1.21833E-04-8.35642E-15
 -1      4189 3.95774E-03 1.21994E-04-7.81216E-15
 -1      4190 3.88484E-03 8.39191E-05-7.60466E-15
 -1      4191 2.09931E-03 2.25966E-05-2.51456E-15
 -1      4192 2.31630E-03 1.76851E-05-2.99972E-15
 -1      4193 2.46178E-03 1.79495E-05-3.34521E-15
 -1      4194 3.58166E-03-8.04029E-06-6.65390E-15
 -1      4195 3.72650E-03-7.99779E-06-7.15958E-15
 -1      4196 3.91387E-03 1.89036E-05-7.80552E-15
 -1      4197 4.05834E-03 1.89144E-05-8.35118E-15
 -1      4198 4.44837E-03-7.75625E-06-9.95283E-15
 -1      4199 4.59230E-03-7.69689E-06-1.05630E-14
 -1      4200 4.77853E-03 1.88742E-05-1.13368E-14
 -1      4201 4.92215E-03 1.88575E-05-1.19858E-14
 -1      4202 5.06564E-03 1.88336E-05-1.26530E-14
 -1      4203 5.20900E-03 1.88122E-05-1.33377E-14
 -1      4204 5.35222E-03 1.87829E-05-1.40390E-14
 -1      4205 5.49531E-03 1.87551E-05-1.47576E-14
 -1      4206 5.63825E-03 1.87190E-05-1.54935E-14
 -1      4207 5.78105E-03 1.86841E-05-1.62462E-14
 -1      4208 5.92368E-03 1.86402E-05-1.70151E-14
 -1      4209 6.06613E-03 1.85980E-05-1.78021E-14
 -1      4210 6.20839E-03 1.85457E-05-1.86059E-14
 -1      4211 6.35045E-03 1.84973E-05-1.94248E-14
 -1      4212 6.49226E-03 1.84379E-05-2.02586E-14
 -1      4213 6.63381E-03 1.83867E-05-2.11082E-14
 -1      4214 6.77507E-03 1.83244E-05-2.19744E-14
 -1      4215 6.91600E-03 1.82778E-05-2.28555E-14
 -1      4216 7.05656E-03 1.82216E-05-2.37506E-14
 -1      4217 7.19671E-03 1.81936E-05-2.46614E-14
 -1      4218 7.33639E-03 1.81601E-05-2.55875E-14
 -1      4219 7.47556E-03 1.81738E-05-2.65257E-14
 -1      4220 7.61415E-03 1.81905E-05-2.74787E-14
 -1      4221 7.75210E-03 1.82824E-05-2.84450E-14
 -1      4222 7.88934E-03 1.83920E-05-2.94238E-14
 -1      4223 8.02580E-03 1.86167E-05-3.04175E-14
 -1      4224 8.16138E-03 1.88818E-05-3.14224E-14
 -1      4225 8.29601E-03 1.93176E-05-3.24403E-14
 -1      4226 8.42958E-03 1.98261E-05-3.34676E-14
 -1      4227 8.56201E-03 2.05803E-05-3.45071E-14
 -1      4228 8.69314E-03 2.14498E-05-3.55555E-14
 -1      4229 8.82291E-03 2.26641E-05-3.66108E-14
 -1      4230 8.95109E-03 2.40438E-05-3.76759E-14
 -1      4231 9.07764E-03 2.58986E-05-3.87486E-14
 -1      4232 9.20223E-03 2.79682E-05-3.98282E-14
 -1      4233 9.32482E-03 3.06907E-05-4.09140E-14
 -1      4234 9.44495E-03 3.36328E-05-4.20054E-14
 -1      4235 9.56252E-03 3.75957E-05-4.31048E-14
 -1      4236 2.02923E-03 9.66470E-05-2.30954E-15
 -1      4237 2.75288E-03 1.83595E-05-4.09178E-15
 -1      4238 2.89841E-03 1.85154E-05-4.49264E-15
 -1      4239 3.23414E-03 1.21792E-04-5.35993E-15
 -1      4240 3.08902E-03 1.21435E-04-4.92392E-15
 -1      4241 3.01513E-03 8.32524E-05-4.75679E-15
 -1      4242 3.52401E-03 1.22132E-04-6.28671E-15
 -1      4243 3.37914E-03 1.22023E-04-5.81390E-15
 -1      4244 3.59551E-03 8.39710E-05-6.58291E-15
 -1      4245 9.70543E-03 1.62385E-05-4.45287E-14
 -1      4246 3.04386E-03 1.86209E-05-4.91198E-15
 -1      4247 3.18920E-03 1.87186E-05-5.34874E-15
 -1      4248 2.10020E-03 6.24562E-05-2.48636E-15
 -1      4249 2.60733E-03 1.81864E-05-3.70920E-15
 -1      4250 3.33442E-03 1.87776E-05-5.80403E-15
 -1      4251 3.47950E-03 1.88319E-05-6.27767E-15
 -1      4252 4.70681E-03 5.65956E-05-1.09545E-14
 -1      4253 4.63520E-03 9.44036E-05-1.05755E-14
 -1      4254 4.15216E-03 7.03622E-05-8.63633E-15
 -1      4255 4.18135E-03 5.52668E-06-8.84878E-15
 -1      4256 4.32555E-03 5.55609E-06-9.42638E-15
 -1      4257 4.22474E-03 1.08309E-04-8.85696E-15
 -1      4258 4.36880E-03 1.08109E-04-9.43425E-15
 -1      4259 9.67213E-03 5.64364E-05-4.41108E-14
 -1      4260 3.30559E-03 8.37831E-05-5.63361E-15
 -1      4261 4.39773E-03 4.34943E-05-9.66264E-15
 -1      4262 4.49137E-03 9.46153E-05-9.96390E-15
 -1      4263 3.55235E-03 5.70839E-05-6.47345E-15
 -1      4264 3.84184E-03 5.70831E-05-7.48757E-15
 -1      4265 3.69717E-03 5.71004E-05-6.97149E-15
 -3
    1PSTEP                         2           1           1          
  100CL  101 1.000000000        4265                     0    1           1
 -4  STRESS      6    1
 -5  SXX         1    4    1    1
 -5  SYY         1    4    2    2
 -5  SZZ         1    4    3    3
 -5  SXY         1    4    1    2
 -5  SYZ         1    4    2    3
 -5  SZX         1    4    3    1
 -1         1 2.99225E+01 1.10875E+01 1.38148E+00 1.78406E+01-4.85001E-13-8.19123E-13
 -1         2-9.79906E-01-3.03834E+01-4.28982E+00-8.20352E-02-9.26839E-14-3.83651E-13
 -1         3 2.00102E+01 1.29748E-02 7.97184E-02 1.04153E-02-3.98506E-13-5.02775E-13
 -1         4 2.00409E+01 4.33600E-02 3.94117E-02-4.13923E-02 2.01830E-13 4.22814E-14
 -1         5 3.27688E+01 6.14289E+00 2.74237E+00 6.22425E+00-3.18079E-14 2.07705E-12
 -1         6 3.57527E+01 1.22635E+01 5.12531E+00-8.64653E+00-1.26843E-13 1.61543E-12
 -1         7 2.08200E+01 6.10005E+00-1.28553E-01-4.72512E+00-1.86379E-14 1.37085E-13
 -1         8 1.96728E+01 5.93526E+00 5.09997E-02-3.27420E+00-2.18853E-14-2.67569E-13
 -1         9 1.91381E+01 5.77213E+00 4.91856E-02-2.52591E+00-1.22749E-14-4.74466E-13
 -1        10 1.88950E+01 5.69211E+00 5.09579E-02-1.95058E+00-7.77243E-15-5.67013E-13
 -1        11 1.87734E+01 5.65115E+00 5.02843E-02-1.45569E+00-3.18929E-15-6.02067E-13
 -1        12 1.87097E+01 5.62947E+00 4.88257E-02-1.01478E+00 2.22825E-15-6.02183E-13
 -1        13 1.86758E+01 5.61794E+00 4.74107E-02-5.95095E-01 1.18417E-15-5.88211E-13
 -1        14 1.86616E+01 5.61307E+00 4.66767E-02-1.91111E-01 5.07740E-15-5.65775E-13
 -1        15 1.86621E+01 5.61322E+00 4.67168E-02 2.08120E-01 7.69962E-15-5.33537E-13
 -1        16 1.86773E+01 5.61842E+00 4.75393E-02 6.12930E-01 1.06934E-14-4.95820E-13
 -1        17 1.87123E+01 5.63019E+00 4.90596E-02 1.03455E+00 1.46929E-14-4.45851E-13
 -1        18 1.87775E+01 5.65232E+00 5.08166E-02 1.47853E+00 1.48909E-14-3.74617E-13
 -1        19 1.89011E+01 5.69381E+00 5.15355E-02 1.97960E+00 2.34994E-14-2.69262E-13
 -1        20 1.91430E+01 5.77465E+00 4.88005E-02 2.56320E+00 2.57450E-14-8.62682E-14
 -1        21 1.96683E+01 5.94985E+00 4.59616E-02 3.30826E+00 2.93446E-14 2.32672E-13
 -1        22 2.12027E+01 6.38177E+00 1.39750E-01 4.52271E+00 1.65146E-15 8.38413E-13
 -1        23 2.30310E+01-1.37930E+00-9.38340E-01-7.11061E-01-9.00009E-14 1.16644E-12
 -1        24 1.93689E+01-9.94843E-02-3.09816E-01 6.32294E-02-1.93959E-14 7.88118E-13
 -1        25 1.86810E+01-5.63239E-02-6.88034E-02 6.07203E-02-7.58660E-15 4.52924E-13
 -1        26 1.84790E+01-2.20903E-02-6.49733E-03 3.29983E-02-5.73901E-15 1.83650E-13
 -1        27 1.84909E+01-1.17981E-02 1.59145E-03 2.26273E-02 7.34428E-15-2.54831E-15
 -1        28 1.86055E+01-6.23309E-03 1.79144E-03 1.63237E-02-1.00443E-14-8.09769E-14
 -1        29 1.87658E+01-3.07470E-03 1.73322E-03 1.21780E-02-2.07787E-15-1.85778E-13
 -1        30 1.89404E+01-1.21589E-03 1.92029E-03 9.22591E-03-2.46365E-14-3.05153E-13
 -1        31 1.91115E+01-1.15919E-04 2.08711E-03 7.00659E-03-1.01481E-14-4.83652E-13
 -1        32 1.92693E+01 5.15244E-04 2.12568E-03 5.28728E-03-8.06027E-15-5.85882E-13
 -1        33 1.94088E+01 8.46621E-04 2.04291E-03 3.93695E-03 5.47994E-14-5.14129E-13
 -1        34 1.95282E+01 9.83385E-04 1.87637E-03 2.87210E-03-3.65709E-14-5.30930E-13
 -1        35 1.96277E+01 9.93780E-04 1.66116E-03 2.03335E-03 1.70407E-14-6.73403E-13
 -1        36 1.97087E+01 9.22756E-04 1.42251E-03 1.37514E-03 1.71136E-14-5.33253E-13
 -1        37 1.97734E+01 7.99424E-04 1.17601E-03 8.61055E-04-1.04194E-14-5.58502E-13
 -1        38 1.98243E+01 6.41523E-04 9.29183E-04 4.61799E-04-4.86009E-14-6.70818E-13
 -1        39 1.98643E+01 4.58338E-04 6.83004E-04 1.54386E-04 4.24570E-14-7.69357E-13
 -1        40 1.98963E+01 2.52759E-04 4.33078E-04-7.80728E-05 1.90622E-14-6.13408E-13
 -1        41 1.99235E+01 2.28479E-05 1.70606E-04-2.46191E-04-1.98180E-14-8.45829E-13
 -1        42 1.99494E+01-2.36862E-04-1.16841E-04-3.53839E-04 7.52633E-15-8.83118E-13
 -1        43 1.99778E+01-5.34134E-04-4.44619E-04-3.97388E-04-1.93714E-14-7.19778E-13
 -1        44 2.00130E+01-8.77653E-04-8.30197E-04-3.64638E-04 2.32874E-14-5.05353E-13
 -1        45 2.00602E+01-1.27524E-03-1.29197E-03-2.33411E-04-4.18108E-14-6.74770E-13
 -1        46 2.01252E+01-1.73128E-03-1.84722E-03 3.01219E-05 4.72617E-14-1.03341E-12
 -1        47 2.02152E+01-2.24291E-03-2.50861E-03 4.73183E-04 1.52851E-14-6.97715E-13
 -1        48 2.03382E+01-2.79417E-03-3.27791E-03 1.15764E-03 2.73852E-14-4.27171E-13
 -1        49 2.05035E+01-3.34729E-03-4.13525E-03 2.15965E-03-9.38092E-15-5.83947E-13
 -1        50 2.07206E+01-3.83014E-03-5.02093E-03 3.56521E-03-4.72906E-14-8.07623E-13
 -1        51 2.09990E+01-4.11897E-03-5.80576E-03 5.45707E-03 6.52033E-14-6.29621E-13
 -1        52 2.13457E+01-4.01714E-03-6.24518E-03 7.88464E-03-6.25929E-14-2.99099E-13
 -1        53 2.17627E+01-3.23424E-03-5.91551E-03 1.08027E-02-9.00392E-15-5.36735E-13
 -1        54 2.22416E+01-1.37896E-03-4.14244E-03 1.39593E-02 4.84054E-14-5.03827E-13
 -1        55 2.27567E+01 2.00500E-03 3.37713E-05 1.67115E-02-5.40271E-14-6.44938E-13
 -1        56 2.32552E+01 7.30627E-03 7.74256E-03 1.77721E-02-2.87776E-14-9.87790E-13
 -1        57 2.36472E+01 1.45441E-02 1.98122E-02 1.49728E-02 1.20318E-13-1.16441E-12
 -1        58 2.38001E+01 2.28726E-02 3.57075E-02 5.31930E-03 5.27297E-14-6.56241E-13
 -1        59 2.35483E+01 2.99922E-02 5.18288E-02-1.40984E-02-7.07650E-14-5.73832E-13
 -1        60 2.27324E+01 3.20538E-02 6.04017E-02-4.37419E-02 5.30327E-15-3.53039E-13
 -1        61 2.12792E+01 2.48105E-02 5.07669E-02-7.79578E-02 1.05821E-13-3.09738E-13
 -1        62 1.93041E+01 6.58959E-03 1.62580E-02-1.02911E-01-7.60984E-14-5.60767E-13
 -1        63 1.71722E+01-1.83772E-02-3.62817E-02-1.01008E-01 1.60202E-14-7.14994E-13
 -1        64 1.54237E+01-3.99214E-02-8.34886E-02-6.37656E-02 8.46658E-14-2.87013E-13
 -1        65 1.45397E+01-4.75324E-02-9.88119E-02-3.50836E-03-1.78434E-14-2.33014E-13
 -1        66 1.46810E+01-3.82686E-02-7.48403E-02 5.15007E-02-4.01092E-14-3.23120E-13
 -1        67 1.56133E+01-1.90663E-02-3.04406E-02 7.83610E-02 9.71690E-14 3.00038E-14
 -1        68 1.68895E+01-8.92006E-04 6.68167E-03 7.57821E-02 2.28950E-14 6.30711E-14
 -1        69 1.81240E+01 1.01575E-02 2.39010E-02 6.03121E-02 1.89304E-14 7.80938E-14
 -1        70 1.91343E+01 1.54392E-02 3.30454E-02 4.80435E-02-1.52543E-14 4.91576E-13
 -1        71 1.98475E+01 7.27738E-03 5.05621E-02 3.33613E-02-8.59720E-14 2.38900E-13
 -1        72 2.10435E+01-4.04900E-01-9.80434E-01-3.11655E-01 2.53061E-14 1.96050E-12
 -1        73 1.93334E+01-6.58829E-02-2.91122E-01-5.38420E-02 8.49494E-15 1.59497E-12
 -1        74 1.86905E+01-2.05066E-02-6.42677E-02-2.03503E-02 1.24464E-14 1.35321E-12
 -1        75 1.84882E+01-9.87953E-03-9.31300E-03-1.54506E-02 4.55202E-15 1.18804E-12
 -1        76 1.84999E+01-5.16518E-03 6.76097E-04-1.23860E-02 2.88821E-14 9.79935E-13
 -1        77 1.86137E+01-2.61264E-03 1.74186E-03-1.01191E-02-2.10124E-15 8.35690E-13
 -1        78 1.87730E+01-1.14032E-03 1.87994E-03-8.38285E-03-4.34857E-15 8.84317E-13
 -1        79 1.89466E+01-2.73587E-04 2.07672E-03-6.95469E-03 1.66177E-14 8.19662E-13
 -1        80 1.91167E+01 2.28833E-04 2.22198E-03-5.72764E-03-2.94187E-14 7.35914E-13
 -1        81 1.92736E+01 5.02197E-04 2.23836E-03-4.65926E-03 2.27496E-14 7.04568E-13
 -1        82 1.94123E+01 6.28253E-04 2.13608E-03-3.73078E-03-3.08298E-15 6.39873E-13
 -1        83 1.95310E+01 6.59009E-04 1.95256E-03-2.92980E-03 2.16632E-14 4.84952E-13
 -1        84 1.96299E+01 6.28405E-04 1.72261E-03-2.24440E-03-8.75360E-15 4.54119E-13
 -1        85 1.97104E+01 5.58521E-04 1.47130E-03-1.66143E-03 9.43258E-15 3.91185E-13
 -1        86 1.97745E+01 4.63115E-04 1.21404E-03-1.16653E-03 3.40639E-14 1.26226E-13
 -1        87 1.98249E+01 3.49792E-04 9.58143E-04-7.44621E-04-8.08997E-14 8.00574E-14
 -1        88 1.98643E+01 2.21448E-04 7.04263E-04-3.80669E-04 2.91076E-14 2.15421E-13
 -1        89 1.98958E+01 7.72771E-05 4.47515E-04-6.04771E-05 4.34455E-14-1.04418E-13
 -1        90 1.99224E+01-8.65001E-05 1.78289E-04 2.28504E-04-3.08762E-14-4.11195E-14
 -1        91 1.99476E+01-2.76087E-04-1.17195E-04 4.96353E-04-7.61157E-15 2.53282E-13
 -1        92 1.99752E+01-4.99651E-04-4.56627E-04 7.49725E-04-1.54861E-14 3.50112E-13
 -1        93 2.00097E+01-7.66837E-04-8.61551E-04 9.90589E-04 3.31082E-14 1.91048E-13
 -1        94 2.00563E+01-1.08809E-03-1.35737E-03 1.21438E-03-3.54572E-14-2.10017E-13
 -1        95 2.01214E+01-1.47355E-03-1.97322E-03 1.40725E-03-3.74432E-14-5.99934E-14
 -1        96 2.02127E+01-1.93096E-03-2.74125E-03 1.54178E-03 4.88160E-14 4.60581E-13
 -1        97 2.03400E+01-2.46200E-03-3.69438E-03 1.57041E-03-1.71464E-14 3.02678E-13
 -1        98 2.05145E+01-3.05551E-03-4.86074E-03 1.41536E-03 1.91339E-14 4.51759E-13
 -1        99 2.07501E+01-3.67558E-03-6.25086E-03 9.53614E-04-5.46426E-14 3.73484E-13
 -1       100 2.10624E+01-4.24156E-03-7.83037E-03-3.98516E-06-6.96031E-15 5.75687E-13
 -1       101 2.14682E+01-4.59610E-03-9.46486E-03-1.73818E-03 5.46313E-15 4.61139E-13
 -1       102 2.19836E+01-4.45951E-03-1.08153E-02-4.64216E-03-2.92768E-14 4.74090E-13
 -1       103 2.26192E+01-3.37631E-03-1.11574E-02-9.20916E-03 1.84800E-14 7.28620E-13
 -1       104 2.33722E+01-6.83982E-04-9.11410E-03-1.59161E-02 2.94699E-14 5.01332E-13
 -1       105 2.42117E+01 4.41204E-03-2.38939E-03-2.48596E-02 3.72453E-14 5.71307E-13
 -1       106 2.50568E+01 1.24885E-02 1.21532E-02-3.49280E-02-4.07528E-14 6.41048E-13
 -1       107 2.57491E+01 2.30567E-02 3.72497E-02-4.23492E-02-6.16305E-14 5.26722E-13
 -1       108 2.60311E+01 3.31151E-02 7.15589E-02-3.90501E-02 5.90749E-14 3.90685E-13
 -1       109 2.55655E+01 3.62270E-02 1.03476E-01-1.31768E-02 6.70857E-14 4.37594E-13
 -1       110 2.40469E+01 2.48724E-02 1.07776E-01 4.32383E-02-1.00426E-13 1.91167E-13
 -1       111 2.14388E+01-2.43331E-03 5.72071E-02 1.18638E-01 8.42137E-14-4.44429E-13
 -1       112 1.82302E+01-3.39066E-02-4.78983E-02 1.72120E-01-1.93417E-14-8.90538E-13
 -1       113 1.54361E+01-4.94318E-02-1.52871E-01 1.53709E-01 5.09532E-15-7.94441E-13
 -1       114 1.40968E+01-3.97654E-02-1.78868E-01 5.72487E-02-1.29302E-13-7.37185E-13
 -1       115 1.45374E+01-1.56101E-02-1.13512E-01-5.62745E-02 1.42155E-13-8.15993E-13
 -1       116 1.61342E+01 6.18479E-03-8.83886E-03-1.15128E-01 5.16941E-14-8.60034E-13
 -1       117 1.78565E+01 1.45211E-02 5.99484E-02-1.01860E-01 3.36768E-14-9.00519E-13
 -1       118 1.90173E+01 1.16322E-02 6.49850E-02-5.37974E-02-1.47214E-14-9.92411E-13
 -1       119 1.95725E+01 8.10103E-03 3.77246E-02-1.93891E-02-6.29113E-14-1.05293E-12
 -1       120 1.98663E+01 1.54899E-02 4.23258E-02-3.13214E-02 1.26037E-13-8.65109E-13
 -1       121 1.99935E+01-1.37736E-01 4.85912E-04-5.92517E-02-4.82378E-13 2.19684E-13
 -1       122 1.99570E+01-2.69163E-01-7.73384E-02-4.58443E-02-2.23157E-13-1.81649E-13
 -1       123 1.99336E+01 4.05257E-01-1.44920E-01 1.66336E-02 2.83560E-13 2.93391E-13
 -1       124 1.99336E+01 2.49145E+00-1.65798E-01 1.22361E-01 7.99236E-13 2.29630E-13
 -1       125 1.99736E+01 6.13348E+00-9.27434E-02 2.34243E-01 8.76160E-13-1.63330E-13
 -1       126 2.00491E+01 1.05288E+01 7.70095E-02 2.72709E-01-1.71155E-13 1.09877E-13
 -1       127 2.01219E+01 1.41780E+01 2.63925E-01 1.74570E-01-6.48273E-13 8.30794E-14
 -1       128 2.01463E+01 1.52352E+01 3.29907E-01-3.59639E-02-4.63919E-13 9.27487E-14
 -1       129 2.01037E+01 1.30825E+01 2.18156E-01-2.24676E-01 3.01904E-13-2.67069E-14
 -1       130 2.00242E+01 8.78257E+00 2.25478E-02-2.81678E-01 3.18509E-13 6.19735E-14
 -1       131 1.99573E+01 4.21431E+00-1.24866E-01-2.11995E-01-1.09208E-12-9.08410E-14
 -1       132 1.99239E+01 8.50862E-01-1.72370E-01-1.00739E-01-1.89359E-12 1.26085E-13
 -1       133 1.99300E+01-9.23662E-01-1.42623E-01-2.90470E-03-1.79829E-12 1.86385E-13
 -1       134 1.99550E+01-1.28215E+00-7.99254E-02 5.66087E-02-1.44205E-12 9.59215E-14
 -1       135 1.99926E+01-8.12955E-01-1.14208E-02 8.46915E-02-4.38063E-13 6.41990E-14
 -1       136 1.99996E+01-1.95184E-01 2.68441E-02 6.53923E-02-2.98907E-13 7.15839E-14
 -1       137-1.68997E+00-2.43662E+01-3.84326E+00-4.56933E+00-1.37645E-12-1.87218E-13
 -1       138-1.87363E+00-1.03714E+01-2.67426E+00-3.65333E+00-1.25577E-12-5.45147E-13
 -1       139 4.54760E+00 5.22428E+00-9.11961E-01 5.15827E+00-7.32747E-13-6.44984E-13
 -1       140 1.96803E+01 1.29069E+01 8.96392E-01 1.57365E+01-4.96492E-13-4.20775E-13
 -1       141 4.08486E+01 1.17439E+01 2.45553E+00 2.12511E+01 1.66644E-13 2.34257E-14
 -1       142 6.20613E+01 5.73983E+00 3.62120E+00 1.74128E+01 4.86972E-14 3.53439E-13
 -1       143 7.27155E+01 1.18114E+00 4.05890E+00 4.56918E+00 7.65776E-14 4.91419E-13
 -1       144 6.71633E+01 2.55262E+00 3.65634E+00-1.01195E+01-8.06005E-14 1.74860E-13
 -1       145 4.70903E+01 7.76148E+00 2.45144E+00-1.81663E+01-1.86517E-14-8.65974E-14
 -1       146 2.52935E+01 1.07365E+01 9.81501E-01-1.62019E+01 6.02629E-13-6.83009E-13
 -1       147 7.30804E+00 6.37064E+00-6.28863E-01-7.00081E+00 9.94704E-13-1.02890E-12
 -1       148-1.02307E+00-5.08508E+00-2.02994E+00 1.83696E+00 1.11555E-12-5.91860E-13
 -1       149-2.19399E+00-1.84519E+01-3.00667E+00 5.21532E+00 5.95357E-13-3.79113E-13
 -1       150-9.95712E-01-2.69027E+01-3.48991E+00 2.32011E+00-4.07271E-13-3.93713E-14
 -1       151-1.08378E+00-2.58962E+01-3.41874E+00-2.69552E+00-1.66667E-12-2.41406E-13
 -1       152-2.04034E+00-1.58405E+01-2.81079E+00-4.76289E+00-1.11672E-12-4.49085E-13
 -1       153 4.41001E-03-2.04676E+00-1.70240E+00-2.49220E-01 4.85723E-14 3.22409E-13
 -1       154 1.08262E+01 8.51830E+00-1.84009E-01 9.63148E+00 2.66398E-13 9.43690E-14
 -1       155 5.15114E+01 7.02194E+00 2.71796E+00 1.80748E+01-4.77091E-13-1.31056E-12
 -1       156 6.79149E+01 2.09389E+00 3.61350E+00 8.98326E+00-1.18052E-13-1.99835E-12
 -1       157 7.12010E+01 1.50885E+00 3.83686E+00-5.59025E+00 1.02585E-13-2.06427E-12
 -1       158 6.09353E+01 5.68828E+00 3.41794E+00-1.67403E+01 5.72570E-13-1.96776E-12
 -1       159 4.04285E+01 1.16116E+01 2.36889E+00-2.09912E+01 7.31470E-13-1.35747E-12
 -1       160 1.90512E+01 1.27520E+01 8.39819E-01-1.54172E+01 8.01414E-13-1.11722E-12
 -1       161 4.48032E+00 5.34325E+00-8.49489E-01-5.11328E+00 3.14970E-13-5.24913E-13
 -1       162-1.49396E+00-8.99064E+00-2.51388E+00 2.99581E+00 1.44396E-12-5.63966E-13
 -1       163-1.77575E+00-2.40945E+01-3.80315E+00 4.61868E+00 1.26132E-12-2.72032E-13
 -1       164 2.10146E+01 3.69399E+00-5.73396E-02-3.60979E+00-2.72317E-13-5.94975E-14
 -1       165 1.99917E+01 4.20783E+00-4.57249E-02-2.80886E+00-2.20940E-13-2.97470E-13
 -1       166 1.95091E+01 4.47716E+00-3.15881E-02-2.19375E+00-1.53206E-13-4.29280E-13
 -1       167 1.92671E+01 4.61522E+00-2.37304E-02-1.67509E+00-9.47571E-14-4.91893E-13
 -1       168 1.91368E+01 4.69684E+00-1.94768E-02-1.21873E+00-4.93285E-14-5.02017E-13
 -1       169 1.90626E+01 4.74795E+00-1.74075E-02-7.91778E-01-1.03010E-15-4.92387E-13
 -1       170 1.90252E+01 4.77580E+00-1.64164E-02-3.86747E-01 4.44118E-14-4.80924E-13
 -1       171 1.90142E+01 4.78432E+00-1.61301E-02 8.26877E-03 8.51329E-14-4.56870E-13
 -1       172 1.90269E+01 4.77451E+00-1.64641E-02 4.03628E-01 1.20767E-13-4.24705E-13
 -1       173 1.90662E+01 4.74498E+00-1.75183E-02 8.09753E-01 1.61542E-13-3.87778E-13
 -1       174 1.91411E+01 4.69255E+00-1.96869E-02 1.23114E+00 2.01430E-13-3.35692E-13
 -1       175 1.92770E+01 4.60541E+00-2.40070E-02 1.69777E+00 2.49893E-13-2.50808E-13
 -1       176 1.95242E+01 4.45962E+00-3.28507E-02 2.22611E+00 2.83773E-13-1.23814E-13
 -1       177 2.00141E+01 4.18389E+00-4.72105E-02 2.84636E+00 3.07257E-13 8.77978E-14
 -1       178 2.11362E+01 3.46367E+00-5.97747E-02 3.53635E+00 2.58025E-13 4.59688E-13
 -1       179 2.24207E+01 1.14332E+00-3.36466E-01 3.01455E+00 1.70860E-13 9.52821E-13
 -1       180 2.19731E+01 8.58207E-01 6.59794E-04-1.95867E+00-2.41217E-13 2.61784E-13
 -1       181 2.04490E+01 1.90140E-01-9.99418E-03-7.63932E-01-1.89428E-13 1.57387E-13
 -1       182 1.96736E+01 1.01769E-01 1.35576E-02-2.85387E-01-1.45038E-13 8.37273E-14
 -1       183 1.93342E+01 4.71850E-02 1.00080E-02-6.75707E-02-1.25728E-13 2.88658E-15
 -1       184 1.92048E+01 2.25503E-02 5.15820E-03 3.96887E-02-6.30782E-14-6.62157E-14
 -1       185 1.91917E+01 9.51878E-03 2.42974E-03 9.22931E-02-5.99102E-14-8.40310E-14
 -1       186 1.92406E+01 2.11754E-03 1.12638E-03 1.14659E-01-9.04912E-14-1.23873E-13
 -1       187 1.93199E+01-2.12916E-03 4.91188E-04 1.19543E-01-9.06739E-14-1.64179E-13
 -1       188 1.94110E+01-4.44913E-03 1.54841E-04 1.14348E-01-7.39652E-14-1.39626E-13
 -1       189 1.95025E+01-5.54267E-03-3.29829E-05 1.03665E-01-1.84585E-14-2.12474E-13
 -1       190 1.95881E+01-5.84780E-03-1.35407E-04 9.04372E-02-3.71247E-14-3.79739E-13
 -1       191 1.96646E+01-5.65246E-03-1.83837E-04 7.65598E-02-4.12339E-14-3.74930E-13
 -1       192 1.97306E+01-5.14849E-03-1.96780E-04 6.32414E-02 6.62282E-14-3.17174E-13
 -1       193 1.97861E+01-4.46108E-03-1.86064E-04 5.12354E-02-1.06021E-14-2.86588E-13
 -1       194 1.98322E+01-3.66659E-03-1.59290E-04 4.10038E-02-7.46866E-14-3.01290E-13
 -1       195 1.98702E+01-2.80436E-03-1.21098E-04 3.28368E-02-8.95511E-15-3.09933E-13
 -1       196 1.99022E+01-1.88514E-03-7.39710E-05 2.69438E-02 3.54558E-14-3.55585E-13
 -1       197 1.99302E+01-8.97388E-04-1.88110E-05 2.35231E-02-3.35691E-14-4.29156E-13
 -1       198 1.99569E+01 1.87753E-04 4.46042E-05 2.28158E-02-9.13184E-14-3.76310E-13
 -1       199 1.99850E+01 1.41212E-03 1.17208E-04 2.51459E-02 3.89382E-14-4.59480E-13
 -1       200 2.00178E+01 2.82609E-03 2.00210E-04 3.09488E-02 1.05158E-13-4.42107E-13
 -1       201 2.00590E+01 4.48316E-03 2.94555E-04 4.07846E-02-7.32554E-14-4.87894E-13
 -1       202 2.01129E+01 6.43196E-03 4.00193E-04 5.53343E-02-5.22662E-14-2.99444E-13
 -1       203 2.01845E+01 8.70389E-03 5.15033E-04 7.53670E-02 1.24799E-13-3.26931E-13
 -1       204 2.02792E+01 1.12932E-02 6.33423E-04 1.01665E-01 5.62574E-14-3.67711E-13
 -1       205 2.04033E+01 1.41251E-02 7.44019E-04 1.34884E-01-6.61221E-14-4.08630E-13
 -1       206 2.05629E+01 1.70058E-02 8.26936E-04 1.75301E-01-1.01728E-13-3.98528E-13
 -1       207 2.07639E+01 1.95454E-02 8.50402E-04 2.22418E-01 9.95293E-14-3.07996E-13
 -1       208 2.10109E+01 2.10474E-02 7.67800E-04 2.74323E-01 1.45344E-13-2.98472E-13
 -1       209 2.13049E+01 2.03612E-02 5.17410E-04 3.26751E-01-1.32316E-13-1.57830E-13
 -1       210 2.16413E+01 1.57200E-02 2.94204E-05 3.71793E-01-8.46138E-14-1.56793E-13
 -1       211 2.20064E+01 4.64605E-03-7.52769E-04 3.96330E-01-1.33741E-13-3.85434E-13
 -1       212 2.23723E+01-1.58691E-02-1.82974E-03 3.80640E-01-2.23153E-13-5.10894E-13
 -1       213 2.26929E+01-4.84983E-02-3.08375E-03 2.98330E-01-4.61827E-15-5.21530E-13
 -1       214 2.29005E+01-9.34245E-02-4.21745E-03 1.19931E-01 2.24957E-13-5.35997E-13
 -1       215 2.29090E+01-1.44457E-01-4.73858E-03-1.76395E-01 5.81592E-14-4.45507E-13
 -1       216 2.26268E+01-1.84559E-01-4.23117E-03-5.84215E-01 1.30834E-13-3.01246E-13
 -1       217 2.19882E+01-1.84896E-01-2.50517E-03-1.04180E+00 2.30141E-14-1.38179E-13
 -1       218 2.10010E+01-1.15925E-01-1.80609E-04-1.41638E+00-9.41838E-14-1.26095E-13
 -1       219 1.97941E+01 2.62960E-02 1.77153E-03-1.53307E+00-6.38878E-14 6.37077E-15
 -1       220 1.86232E+01 1.94420E-01 2.73069E-03-1.26765E+00 1.22811E-13-2.22298E-13
 -1       221 1.77898E+01 3.02094E-01 3.18098E-03-6.60181E-01 1.71596E-13-2.14839E-13
 -1       222 1.74902E+01 2.87157E-01 3.91669E-03 6.32090E-02 7.51500E-14 1.13026E-14
 -1       223 1.77039E+01 1.69428E-01 4.51271E-03 6.22149E-01 2.58433E-13 1.36592E-13
 -1       224 1.82269E+01 3.19469E-02 3.82672E-03 8.65711E-01 1.54098E-13 2.31647E-13
 -1       225 1.88160E+01-5.31924E-02 1.56890E-03 8.35328E-01 5.61954E-14 1.20997E-13
 -1       226 1.93094E+01-7.61650E-02 2.01751E-04 6.75186E-01 1.57095E-13 7.46991E-14
 -1       227 1.96743E+01-1.01287E-01 2.39344E-03 4.76517E-01-1.19467E-13 1.96124E-13
 -1       228 2.09650E+01 2.77013E-01-5.13295E-02 1.16460E+00 1.79676E-13 8.33514E-13
 -1       229 1.98705E+01 1.26842E-01 8.31177E-03 4.42908E-01 1.27443E-13 6.84814E-13
 -1       230 1.93645E+01 5.80706E-02 1.27340E-02 1.49853E-01 1.26965E-13 5.38472E-13
 -1       231 1.91551E+01 2.77303E-02 7.62619E-03 1.05545E-02 1.14022E-13 4.49810E-13
 -1       232 1.91056E+01 1.30767E-02 3.82016E-03-5.85963E-02 4.65308E-14 4.10495E-13
 -1       233 1.91417E+01 5.12763E-03 1.90308E-03-9.10297E-02-3.06000E-15 3.85427E-13
 -1       234 1.92211E+01 5.81520E-04 1.00067E-03-1.02785E-01 5.44871E-14 3.58565E-13
 -1       235 1.93190E+01-2.01152E-03 5.40397E-04-1.02571E-01 4.37776E-14 2.86404E-13
 -1       236 1.94206E+01-3.39461E-03 2.77190E-04-9.55819E-02 2.00124E-14 2.04049E-13
 -1       237 1.95176E+01-4.00359E-03 1.16769E-04-8.50893E-02 1.19079E-14 2.70405E-13
 -1       238 1.96053E+01-4.11565E-03 1.92280E-05-7.31929E-02 9.40159E-14 2.89955E-13
 -1       239 1.96817E+01-3.91419E-03-3.64435E-05-6.12392E-02 1.01249E-14 2.34190E-13
 -1       240 1.97463E+01-3.52106E-03-6.33184E-05-5.00760E-02 9.03151E-14 1.10852E-13
 -1       241 1.97999E+01-3.01475E-03-7.00802E-05-4.02245E-02 8.07444E-14 5.79156E-14
 -1       242 1.98438E+01-2.44154E-03-6.25166E-05-3.20009E-02 1.67620E-14 2.88896E-14
 -1       243 1.98798E+01-1.82294E-03-4.43696E-05-2.56090E-02 1.50325E-14-1.70901E-13
 -1       244 1.99102E+01-1.16092E-03-1.78914E-05-2.12101E-02 7.40342E-14-8.78631E-14
 -1       245 1.99373E+01-4.41587E-04 1.57626E-05-1.89802E-02-5.99685E-14 7.91966E-14
 -1       246 1.99639E+01 3.62114E-04 5.62352E-05-1.91546E-02-1.36049E-13 9.40400E-14
 -1       247 1.99933E+01 1.28856E-03 1.03693E-04-2.20662E-02-7.16306E-15 1.04026E-13
 -1       248 2.00291E+01 2.38612E-03 1.58530E-04-2.81772E-02 1.09824E-13 9.59363E-14
 -1       249 2.00756E+01 3.71185E-03 2.21010E-04-3.81063E-02 1.16519E-13-1.18701E-14
 -1       250 2.01381E+01 5.32948E-03 2.90736E-04-5.26485E-02-1.60135E-13 3.15100E-14
 -1       251 2.02227E+01 7.30548E-03 3.65841E-04-7.27843E-02-1.29973E-13 2.11689E-13
 -1       252 2.03369E+01 9.70108E-03 4.41688E-04-9.96677E-02-3.51379E-14 4.18612E-13
 -1       253 2.04892E+01 1.25558E-02 5.08849E-04-1.34572E-01-2.45138E-14 4.96646E-13
 -1       254 2.06896E+01 1.58552E-02 5.50134E-04-1.78760E-01 4.77873E-14 5.48214E-13
 -1       255 2.09487E+01 1.94687E-02 5.36774E-04-2.33200E-01-8.97254E-14 3.50980E-13
 -1       256 2.12772E+01 2.30365E-02 4.25022E-04-2.98025E-01 8.11992E-15 3.03331E-13
 -1       257 2.16841E+01 2.57724E-02 1.57280E-04-3.71527E-01-1.00053E-13 4.41951E-13
 -1       258 2.21734E+01 2.61478E-02-3.22520E-04-4.48424E-01-4.65919E-14 4.65927E-13
 -1       259 2.27386E+01 2.14519E-02-1.02211E-03-5.17095E-01 1.10473E-13 4.86061E-13
 -1       260 2.33541E+01 7.36115E-03-1.80421E-03-5.55688E-01-6.45005E-15 5.69719E-13
 -1       261 2.39639E+01-2.19851E-02-2.25989E-03-5.27978E-01-2.03929E-13 6.99424E-13
 -1       262 2.44690E+01-7.21771E-02-1.66336E-03-3.82205E-01 9.24612E-14 6.18969E-13
 -1       263 2.47203E+01-1.42819E-01 7.65858E-04-6.06174E-02 9.02663E-14 5.78218E-13
 -1       264 2.45329E+01-2.16250E-01 4.78639E-03 4.67887E-01-2.95276E-14 6.20377E-13
 -1       265 2.37417E+01-2.45979E-01 7.87818E-03 1.14308E+00 2.34526E-13 4.22462E-13
 -1       266 2.23161E+01-1.69949E-01 4.94392E-03 1.74872E+00 3.86429E-13 1.01941E-13
 -1       267 2.04942E+01 3.35842E-02-7.39066E-03 1.94385E+00 2.10616E-13-4.63622E-14
 -1       268 1.88055E+01 2.79891E-01-2.10013E-02 1.47454E+00 3.81474E-14-4.63541E-13
 -1       269 1.78459E+01 3.93393E-01-2.11411E-02 4.78731E-01-1.14912E-13-4.40417E-13
 -1       270 1.78488E+01 2.85545E-01-1.07612E-02-5.12486E-01 3.24865E-13-3.66748E-13
 -1       271 1.85191E+01 5.85818E-02 3.76287E-03-9.94808E-01 1.84668E-14-5.76294E-13
 -1       272 1.93040E+01-1.11971E-01 1.08516E-02-8.91675E-01-6.46807E-14-6.12143E-13
 -1       273 1.98121E+01-1.41049E-01 8.34181E-03-5.08620E-01-5.26389E-14-5.97985E-13
 -1       274 1.99776E+01-6.45126E-02 3.28978E-03-2.09726E-01-4.23390E-14-4.36946E-13
 -1       275 1.99789E+01-5.27165E-03 7.25122E-03-1.23037E-01-8.88222E-14-1.25447E-13
 -1       276 2.01217E+01 3.02961E-02 6.15366E-03-1.40096E-02-1.28612E-13 3.24109E-13
 -1       277 2.03466E+01 3.38361E-01 7.13567E-03 5.57176E-01 8.00098E-14 1.33699E-13
 -1       278 2.04886E+01 1.21826E+00 1.90848E-03 1.55200E+00-5.13600E-14 2.44568E-13
 -1       279 2.04247E+01 2.87567E+00-1.85094E-03 2.63942E+00 1.00409E-13 5.90691E-14
 -1       280 2.00526E+01 5.12960E+00-5.08838E-03 3.20156E+00-1.88374E-14-8.03227E-13
 -1       281 1.94557E+01 7.44863E+00 9.64164E-04 2.61261E+00 1.63302E-13-3.51040E-13
 -1       282 1.90104E+01 8.81275E+00 7.68025E-03 7.52706E-01 3.94819E-13 1.15817E-13
 -1       283 1.90966E+01 8.48233E+00 6.00802E-03-1.54799E+00 3.43896E-13 4.09985E-14
 -1       284 1.96315E+01 6.60645E+00 4.85247E-04-3.08631E+00-3.59088E-15-1.24088E-13
 -1       285 2.01962E+01 4.07305E+00-2.38640E-03-3.28967E+00-1.99642E-13-7.06094E-13
 -1       286 2.04825E+01 1.84327E+00 9.63528E-04-2.49310E+00-2.39414E-13-4.97810E-13
 -1       287 2.04927E+01 3.19508E-01 5.46529E-03-1.33382E+00-3.67029E-13 6.89787E-14
 -1       288 2.03486E+01-3.99548E-01 7.35548E-03-3.32031E-01-4.05283E-13 1.05443E-13
 -1       289 2.01306E+01-5.08088E-01 3.96085E-03 2.68634E-01-3.59325E-13 5.13671E-13
 -1       290 1.99973E+01-3.13586E-01 5.33780E-03 5.23570E-01-3.46074E-13 4.29554E-14
 -1       291-7.00958E-01-1.18604E+01-1.06454E+00 1.76092E+00-3.65916E-13-6.55642E-13
 -1       292 3.31292E+00-1.04970E+01-9.97920E-01 4.23374E+00-5.57027E-13-7.34551E-14
 -1       293 1.21631E+01-6.16142E+00-4.73221E-01 7.19153E+00-4.05842E-13-2.69090E-13
 -1       294 2.21404E+01-7.15512E-01 8.13486E-04 8.59784E+00-4.78562E-13-3.38674E-13
 -1       295 3.33409E+01 3.43226E+00 5.24719E-01 9.07834E+00-3.87190E-13 1.52767E-13
 -1       296 4.30138E+01 5.98713E+00 8.75715E-01 7.16630E+00-9.39665E-14 1.00336E-13
 -1       297 5.00049E+01 7.28415E+00 1.20811E+00 4.41779E+00-1.86684E-13 2.53589E-13
 -1       298 4.98938E+01 7.29559E+00 1.07567E+00 2.63220E-01 1.98591E-13 4.33681E-13
 -1       299 4.31442E+01 5.58809E+00 6.03743E-01-2.05852E+00 1.22333E-13 1.45856E-13
 -1       300 3.57354E+01 2.99098E+00 4.78842E-01-6.44361E+00 2.45345E-13 1.39611E-13
 -1       301 2.53200E+01-1.62520E+00 2.38959E-02-6.28546E+00 1.65867E-13 2.23765E-13
 -1       302 1.36113E+01-5.03609E+00-3.75603E-01-5.90478E+00 1.91014E-13-1.70503E-13
 -1       303 5.39476E+00-8.88623E+00-6.40246E-01-4.27177E+00-2.73392E-14-2.75557E-13
 -1       304-7.44238E-02-1.18410E+01-8.90487E-01-1.83402E+00-3.80251E-14-4.91843E-13
 -1       305-1.52116E+00-1.20993E+01-8.61344E-01 4.21661E-01-1.05055E-13-6.32744E-13
 -1       306 5.95295E-01-1.12944E+01-8.70858E-01 2.55793E+00-4.37650E-13 1.76248E-13
 -1       307 6.04534E+00-8.00818E+00-6.86518E-01 4.52840E+00-2.24931E-13 4.32043E-13
 -1       308 1.65132E+01-4.19518E+00-2.15307E-01 6.76189E+00-1.54543E-13-2.02255E-13
 -1       309 2.77494E+01-5.56376E-01 1.00398E-01 6.38433E+00 7.97695E-14-9.04804E-13
 -1       310 3.79040E+01 4.14439E+00 5.95329E-01 6.71975E+00-1.26607E-13-1.26327E-12
 -1       311 4.58878E+01 6.23913E+00 8.82589E-01 3.63660E+00-6.03684E-15-1.67966E-12
 -1       312 4.96867E+01 7.41523E+00 1.01953E+00-2.03778E-01-7.99361E-15-1.65618E-12
 -1       313 4.56850E+01 7.76323E+00 6.85915E-01-3.03582E+00 2.38976E-13-1.49197E-12
 -1       314 4.24826E+01 6.03774E+00 8.09776E-01-7.10941E+00 6.51975E-13-1.83067E-12
 -1       315 3.29091E+01 3.51787E+00 5.00059E-01-9.08871E+00 6.78374E-13-1.37285E-12
 -1       316 2.22689E+01-1.07979E+00 3.54639E-03-8.54258E+00 4.50945E-13-1.03728E-12
 -1       317 1.16799E+01-5.58091E+00-5.02259E-01-6.95289E+00 9.55847E-13-2.88602E-13
 -1       318 4.09329E+00-9.65042E+00-8.30261E-01-5.11224E+00 3.77892E-13-4.17860E-13
 -1       319-7.41624E-01-1.23929E+01-1.12038E+00-1.74780E+00 2.22738E-14-7.54036E-13
 -1       320 2.01461E+01 3.01521E+00-1.79045E-02-2.10942E+00-2.23616E-13-2.46272E-13
 -1       321 2.07569E+01 2.20829E+00-1.78568E-02-2.36284E+00-2.75318E-13-1.16390E-13
 -1       322 1.95840E+01 3.69177E+00-1.50740E-02-1.31634E+00-9.49132E-14-3.80867E-13
 -1       323 1.94596E+01 3.84898E+00-1.35590E-02-9.23164E-01-3.74696E-14-3.81611E-13
 -1       324 1.93903E+01 3.93969E+00-1.26745E-02-5.43683E-01 3.02967E-14-3.70465E-13
 -1       325 1.93597E+01 3.98097E+00-1.22831E-02-1.73198E-01 9.09206E-14-3.65763E-13
 -1       326 1.93610E+01 3.97935E+00-1.23085E-02 1.94323E-01 1.29363E-13-3.35004E-13
 -1       327 1.93945E+01 3.93444E+00-1.27563E-02 5.65165E-01 1.67313E-13-3.11527E-13
 -1       328 1.94656E+01 3.84114E+00-1.37672E-02 9.38971E-01 2.17490E-13-2.59094E-13
 -1       329 1.95929E+01 3.67883E+00-1.56559E-02 1.33292E+00 2.77828E-13-1.96949E-13
 -1       330 1.98088E+01 3.41011E+00-1.88326E-02 1.73817E+00 3.13484E-13-1.06173E-13
 -1       331 2.01798E+01 2.95529E+00-2.29388E-02 2.12670E+00 3.27905E-13 1.45847E-14
 -1       332 2.07500E+01 2.12943E+00-3.04673E-02 2.32170E+00 3.07637E-13 2.45861E-13
 -1       333 2.10968E+01 1.18770E+00-2.49196E-02 1.92153E+00 2.56338E-13 4.64361E-13
 -1       334 2.03932E+01 4.89278E-01 8.33573E-03 9.26932E-01 2.05115E-13 3.69453E-13
 -1       335 2.04596E+01 6.75236E-01 1.23327E-02-1.02502E+00-2.11198E-13-7.54020E-14
 -1       336 2.00382E+01 3.37023E-01 7.17663E-03-4.57048E-01-1.51735E-13-7.57344E-14
 -1       337 1.97842E+01 1.76433E-01 4.12688E-03-1.48297E-01-1.16898E-13-5.75670E-14
 -1       338 1.96488E+01 9.04601E-02 1.88742E-03 2.28677E-02-6.18867E-14-6.16791E-14
 -1       339 1.95935E+01 4.13222E-02 7.87590E-04 1.14006E-01-8.77482E-14-9.03758E-14
 -1       340 1.95883E+01 1.23133E-02 2.70133E-04 1.57107E-01-9.59751E-14-8.10222E-14
 -1       341 1.96122E+01-4.72783E-03 1.26104E-05 1.71062E-01-7.10442E-14-9.73150E-14
 -1       342 1.96515E+01-1.42520E-02-1.22437E-04 1.67612E-01-9.87404E-14-1.31182E-13
 -1       343 1.96971E+01-1.89221E-02-1.90354E-04 1.54329E-01-1.31811E-13-2.00479E-13
 -1       344 1.97433E+01-2.04385E-02-2.17042E-04 1.36180E-01-3.99761E-14-2.17366E-13
 -1       345 1.97869E+01-1.99253E-02-2.17362E-04 1.16433E-01-4.84023E-15-2.62675E-13
 -1       346 1.98263E+01-1.81289E-02-2.00788E-04 9.72171E-02 5.67895E-14-2.51117E-13
 -1       347 1.98609E+01-1.55315E-02-1.73413E-04 7.99113E-02 1.30916E-15-2.21783E-13
 -1       348 1.98910E+01-1.24207E-02-1.38927E-04 6.54123E-02-6.07227E-14-1.27251E-13
 -1       349 1.99173E+01-8.93814E-03-9.92359E-05 5.43377E-02-3.89894E-14-1.88229E-13
 -1       350 1.99411E+01-5.11312E-03-5.48932E-05 4.71779E-02-3.09238E-14-1.94677E-13
 -1       351 1.99638E+01-8.89271E-04-5.44738E-06 4.44110E-02 2.35274E-14-1.86593E-13
 -1       352 1.99873E+01 3.85394E-03 5.02820E-05 4.65888E-02-2.58990E-14-9.06971E-14
 -1       353 2.00136E+01 9.28077E-03 1.13932E-04 5.43976E-02-6.68236E-15-1.25768E-13
 -1       354 2.00452E+01 1.55768E-02 1.87278E-04 6.86930E-02 2.32414E-14-2.56466E-13
 -1       355 2.00849E+01 2.29192E-02 2.71811E-04 9.05047E-02 4.08316E-14-1.66566E-13
 -1       356 2.01359E+01 3.14346E-02 3.68114E-04 1.21000E-01 4.53452E-14-9.37477E-14
 -1       357 2.02016E+01 4.11327E-02 4.74910E-04 1.61388E-01-6.38381E-14-2.18357E-13
 -1       358 2.02861E+01 5.18052E-02 5.87618E-04 2.12735E-01 4.57092E-14-4.00100E-13
 -1       359 2.03931E+01 6.28701E-02 6.96203E-04 2.75650E-01 4.03052E-14-3.36696E-13
 -1       360 2.05268E+01 7.31389E-02 7.82148E-04 3.49774E-01 6.41266E-14-1.19323E-13
 -1       361 2.06906E+01 8.04822E-02 8.14540E-04 4.32995E-01 1.23170E-13-2.66155E-13
 -1       362 2.08868E+01 8.13835E-02 7.45870E-04 5.20301E-01 6.58709E-14-3.90498E-13
 -1       363 2.11158E+01 7.04245E-02 5.09378E-04 6.02187E-01-8.33164E-14-2.78405E-13
 -1       364 2.13750E+01 3.98799E-02 2.20035E-05 6.62666E-01-1.81417E-13-2.60075E-13
 -1       365 2.16574E+01-2.00982E-02-7.99436E-04 6.77170E-01-1.73848E-13-2.17378E-13
 -1       366 2.19495E+01-1.19695E-01-1.99738E-03 6.11306E-01-1.61928E-13-2.18032E-13
 -1       367 2.22288E+01-2.64351E-01-3.50352E-03 4.22559E-01 3.06135E-14-1.91128E-13
 -1       368 2.24598E+01-4.44493E-01-5.01922E-03 6.87994E-02 2.16733E-13-2.98076E-13
 -1       369 2.25888E+01-6.20219E-01-5.84734E-03-4.71167E-01 1.57465E-13-1.99582E-13
 -1       370 2.25433E+01-7.09225E-01-5.54037E-03-1.16148E+00 2.78867E-13-1.69711E-14
 -1       371 2.22470E+01-5.98352E-01-3.40431E-03-1.86659E+00 7.67056E-14-1.39563E-13
 -1       372 2.16681E+01-2.09865E-01-4.33680E-04-2.33784E+00 1.47304E-13 1.04231E-13
 -1       373 2.08944E+01 3.91458E-01 2.22962E-03-2.29371E+00 1.63359E-14 3.52819E-13
 -1       374 2.01638E+01 9.43315E-01 3.83304E-03-1.61354E+00-5.65394E-14 2.90387E-13
 -1       375 1.97477E+01 1.13011E+00 4.52197E-03-5.13866E-01 2.21161E-13 5.63650E-14
 -1       376 1.97390E+01 8.55453E-01 4.84727E-03 5.28818E-01 2.85118E-13 1.27515E-13
 -1       377 1.99721E+01 3.44260E-01 4.51505E-03 1.11687E+00 2.58893E-13 1.39953E-13
 -1       378 2.01870E+01-8.22593E-02 2.07161E-03 1.18831E+00 6.82424E-14 5.03998E-13
 -1       379 2.02197E+01-2.61501E-01-2.05871E-03 9.59013E-01-1.08209E-13 3.68777E-13
 -1       380 2.00906E+01-2.65489E-01-1.20864E-04 7.23041E-01 3.83066E-14 1.44468E-13
 -1       381 1.98918E+01 2.28491E-01 1.07959E-02 3.98277E-01 1.92026E-13 3.13229E-13
 -1       382 1.96034E+01 1.15362E-01 6.17219E-03 1.19575E-01 1.47104E-13 2.62868E-13
 -1       383 1.94690E+01 5.76354E-02 2.80202E-03-2.92455E-02 7.67621E-14 1.95127E-13
 -1       384 1.94294E+01 2.57246E-02 1.17290E-03-1.06058E-01 1.50682E-14 1.44684E-13
 -1       385 1.94453E+01 7.24399E-03 4.46092E-04-1.41171E-01 6.01244E-14 1.16770E-13
 -1       386 1.94913E+01-3.49984E-03 9.83320E-05-1.51501E-01 5.62812E-14 1.39893E-13
 -1       387 1.95516E+01-9.46113E-03-8.39913E-05-1.47249E-01 8.26305E-14 1.02533E-13
 -1       388 1.96159E+01-1.23625E-02-1.80367E-04-1.34864E-01-1.76470E-14 8.86736E-14
 -1       389 1.96783E+01-1.32881E-02-2.24485E-04-1.18526E-01 5.74780E-14 1.16989E-13
 -1       390 1.97354E+01-1.29503E-02-2.34840E-04-1.00955E-01 6.78754E-14 7.58109E-14
 -1       391 1.97858E+01-1.18216E-02-2.23226E-04-8.39091E-02 1.64288E-13 8.91501E-15
 -1       392 1.98290E+01-1.02086E-02-1.97389E-04-6.85084E-02 9.46051E-14 1.30181E-14
 -1       393 1.98657E+01-8.29636E-03-1.62178E-04-5.54654E-02 1.11272E-13 1.24364E-14
 -1       394 1.98970E+01-6.17756E-03-1.20274E-04-4.52548E-02 5.28298E-14-6.86372E-14
 -1       395 1.99242E+01-3.87271E-03-7.26930E-05-3.82439E-02-4.71960E-15-2.39474E-14
 -1       396 1.99493E+01-1.34473E-03-1.91511E-05-3.47927E-02-6.28254E-14 2.17407E-14
 -1       397 1.99744E+01 1.49040E-03 4.16837E-05-3.53357E-02-1.44831E-13-6.62218E-14
 -1       398 2.00021E+01 4.75590E-03 1.11974E-04-4.04457E-02 7.56945E-15-6.23128E-14
 -1       399 2.00352E+01 8.60802E-03 1.94507E-04-5.08873E-02 3.32854E-14-6.03507E-14
 -1       400 2.00773E+01 1.32296E-02 2.92460E-04-6.76582E-02 1.44924E-13 3.03062E-14
 -1       401 2.01324E+01 1.88208E-02 4.09033E-04-9.20157E-02-1.90316E-13 8.66161E-14
 -1       402 2.02052E+01 2.55825E-02 5.46807E-04-1.25482E-01-1.88862E-13 7.79574E-14
 -1       403 2.03013E+01 3.36854E-02 7.06585E-04-1.69812E-01-1.60301E-13 2.55909E-13
 -1       404 2.04270E+01 4.32098E-02 8.85308E-04-2.26886E-01 1.44221E-15 3.54365E-13
 -1       405 2.05892E+01 5.40336E-02 1.07243E-03-2.98489E-01 7.34904E-14 4.43816E-13
 -1       406 2.07954E+01 6.56268E-02 1.24399E-03-3.85853E-01-9.29758E-15 5.01870E-13
 -1       407 2.10528E+01 7.66905E-02 1.35369E-03-4.88822E-01 2.70493E-14 4.37434E-13
 -1       408 2.13671E+01 8.45539E-02 1.32171E-03-6.04390E-01-5.00510E-14 5.25118E-13
 -1       409 2.17413E+01 8.42498E-02 1.02524E-03-7.24256E-01-3.07064E-14 2.72228E-13
 -1       410 2.21728E+01 6.72991E-02 3.02542E-04-8.31072E-01 5.29401E-14 2.14065E-13
 -1       411 2.26495E+01 2.06403E-02-1.00582E-03-8.93339E-01-1.06058E-13 4.71917E-13
 -1       412 2.31455E+01-7.28218E-02-2.95124E-03-8.60041E-01-1.76208E-13 6.14062E-13
 -1       413 2.36142E+01-2.28668E-01-5.33482E-03-6.59047E-01 4.97742E-14 7.16084E-13
 -1       414 2.39813E+01-4.44862E-01-7.50354E-03-2.08530E-01 4.79963E-14 7.87947E-13
 -1       415 2.41385E+01-6.70844E-01-8.27785E-03 5.43231E-01-6.33304E-15 7.46188E-13
 -1       416 2.39453E+01-7.72677E-01-7.14748E-03 1.53327E+00 3.36123E-13 4.95568E-13
 -1       417 2.32821E+01-5.62431E-01-4.76730E-03 2.48061E+00 4.14026E-13 5.23224E-13
 -1       418 2.21787E+01 4.34189E-02-6.98793E-03 2.89047E+00 5.38768E-13 4.08136E-13
 -1       419 2.09488E+01 8.27176E-01-1.10191E-02 2.32917E+00 1.39825E-13-2.17125E-13
 -1       420 2.01482E+01 1.22751E+00-2.86652E-03 9.14131E-01 8.95204E-14-3.23713E-13
 -1       421 2.00537E+01 9.35378E-01-1.96847E-03-5.84296E-01 6.32220E-14-3.05515E-13
 -1       422 2.04366E+01 2.30925E-01 7.26510E-04-1.34644E+00 1.10482E-13 2.12676E-13
 -1       423 2.07952E+01-3.30046E-01-4.35582E-04-1.21342E+00-2.65170E-14 6.06125E-14
 -1       424 2.08267E+01-4.51989E-01-1.48115E-03-6.34767E-01-5.19992E-14 5.10667E-14
 -1       425 2.05568E+01-2.43920E-01-1.45111E-03-1.59940E-01-2.68542E-13 2.01537E-13
 -1       426 2.03542E+01-7.48466E-02 1.95241E-03-7.06954E-03-3.84755E-13 4.45540E-13
 -1       427 2.17442E+01 2.16633E-01 1.58551E-02 3.14744E+00-6.06270E-13 3.25512E-13
 -1       428 2.15290E+01-1.79202E-01 7.59449E-03 1.49597E+00-4.07549E-13 2.07117E-13
 -1       429 2.09066E+01-1.22332E-01 6.35520E-03 5.08973E-01-3.27187E-13-2.50837E-14
 -1       430 2.10205E+01 1.23043E+00 1.47326E-02 4.63471E+00-4.46536E-13-5.50041E-13
 -1       431 1.91706E+01 2.92655E+00 1.47564E-02 4.89035E+00 4.77405E-14 4.38451E-15
 -1       432 1.70098E+01 4.67267E+00 3.08652E-02 2.96419E+00 5.74477E-13 2.50237E-13
 -1       433 1.62620E+01 5.22298E+00 2.97964E-02-6.92023E-01 4.14484E-13-5.63681E-14
 -1       434 1.75731E+01 4.15115E+00 2.60554E-02-4.00140E+00 3.60306E-14-5.15438E-13
 -1       435 1.97910E+01 2.25448E+00 1.82819E-02-5.26436E+00-3.10938E-13-5.66081E-13
 -1       436 2.13513E+01 6.77815E-01 1.43983E-02-4.52641E+00-1.68120E-13-4.57192E-13
 -1       437 2.18319E+01-2.16133E-01 1.47514E-02-2.83485E+00 1.09090E-13-2.74687E-13
 -1       438 2.15402E+01-5.27114E-01 1.39545E-02-1.16473E+00 2.33865E-14 2.26781E-13
 -1       439 2.09048E+01-5.05605E-01 8.03124E-03 4.20921E-02-1.32876E-13 9.45875E-14
 -1       440 1.19829E+01-6.56323E+00-1.03621E-01 8.50679E+00 4.93217E-14 3.49713E-13
 -1       441 2.51049E+00-3.81680E+00 1.94338E-03-2.70885E-01-6.97446E-15-8.85320E-13
 -1       442 5.19113E+00-5.74624E+00-1.23307E-01 5.90751E+00 1.38750E-13-1.01308E-15
 -1       443 2.27431E+01-6.12901E+00-5.08977E-04 8.07223E+00 5.60940E-14 4.88456E-13
 -1       444 3.04692E+01-3.27170E+00 3.59252E-02 5.45324E+00 9.75886E-14 5.89057E-13
 -1       445 1.97864E+01 3.44004E+00-2.09043E-02-1.72600E+00-1.46982E-13-3.52297E-13
 -1       446 3.84071E+01 6.44842E+00 1.29007E-01 1.11325E+00-2.76876E-13 5.59136E-14
 -1       447 3.94865E+01 8.66530E+00 1.57755E-01 1.24655E+00-1.90875E-13 3.05592E-13
 -1       448 3.70008E+01 7.39579E+00-1.86941E-02 1.87695E+00 3.77337E-13 3.57034E-13
 -1       449 3.45573E+01 1.46671E+00-7.19978E-02 1.13990E+00 2.55067E-13-6.28803E-14
 -1       450 3.14567E+01-2.97342E+00-2.22105E-03-1.17334E+00 3.30930E-13-4.64628E-14
 -1       451 2.34288E+01-6.55780E+00-2.57878E-02-5.20926E+00-1.04500E-14 7.52454E-14
 -1       452 1.44802E+01-7.24298E+00-3.27484E-02-6.78203E+00-9.37583E-14-1.49065E-14
 -1       453 5.55821E+00-6.86525E+00-7.79867E-02-5.33922E+00-3.00981E-13-2.42972E-13
 -1       454 1.90903E+00-5.13313E+00 4.65367E-02-1.99917E+00-1.59157E-13-2.77445E-13
 -1       455 1.61056E+00-6.16698E+00-7.01415E-02 2.98046E+00 2.59265E-13-1.42442E-13
 -1       456 7.85503E+00-6.31243E+00 1.73543E-02 6.59647E+00-8.31141E-14 1.95788E-13
 -1       457 1.54695E+01-6.96901E+00-1.50742E-02 7.25678E+00-3.91243E-13-2.03370E-13
 -1       458 2.53119E+01-5.61593E+00-1.64211E-02 5.03431E+00-1.01114E-13-8.83765E-13
 -1       459 3.28016E+01-9.90148E-01 1.54730E-02 1.01716E+00 9.31245E-14-1.07751E-12
 -1       460 3.55224E+01 3.39222E+00-3.42551E-02-8.39332E-01 9.24816E-14-1.11362E-12
 -1       461 3.86257E+01 7.82560E+00 9.68395E-02-1.07586E+00 1.07608E-13-9.30922E-13
 -1       462 3.72476E+01 8.82970E+00-2.07953E-02-9.56413E-01-3.38340E-14-4.03757E-13
 -1       463 3.67693E+01 5.71435E+00-1.48843E-02-6.32594E-01 2.74433E-13-4.11060E-13
 -1       464 3.51777E+01 1.37921E+00 4.61700E-02-2.57081E+00 2.78839E-13-6.27665E-13
 -1       465 3.04350E+01-3.19192E+00 3.17393E-02-5.22905E+00 2.07681E-13-1.09365E-12
 -1       466 2.23972E+01-6.20120E+00-1.88056E-03-8.25918E+00 4.43839E-13-7.64083E-13
 -1       467 1.42764E+01-6.24927E+00 2.15948E-02-9.05784E+00 3.46168E-13-3.59084E-13
 -1       468 4.64081E+00-4.92389E+00-5.48329E-02-5.38906E+00-1.17212E-13-5.60052E-13
 -1       469 3.57954E+01 1.48600E+00 9.81981E-02 2.85126E+00-8.38635E-14-2.32731E-13
 -1       470 3.27943E+01 7.15096E+00-1.70153E-01 3.51253E-01 1.76151E-13-4.81351E-13
 -1       471 3.25568E+01 3.83712E+00-1.38579E-01 3.46026E+00 4.31433E-13 3.23908E-14
 -1       472 2.03743E+01 8.31988E-01 4.03020E-03 9.71428E-01 2.27242E-13 8.91989E-14
 -1       473 1.97317E+01 3.10432E+00-5.34874E-03-6.33759E-01 1.68015E-15-3.15276E-13
 -1       474 1.98278E+01 2.93135E+00-5.79575E-03-9.50277E-01-6.37697E-14-3.35770E-13
 -1       475 1.96640E+01 3.22690E+00-5.02950E-03 8.81010E-03 1.10735E-13-3.21578E-13
 -1       476 1.96826E+01 3.19384E+00-5.10668E-03 3.30315E-01 1.29795E-13-2.96136E-13
 -1       477 1.97364E+01 3.09708E+00-5.42625E-03 6.45567E-01 1.81404E-13-2.47408E-13
 -1       478 1.98354E+01 2.91914E+00-5.96816E-03 9.61042E-01 2.50033E-13-1.92067E-13
 -1       479 1.99913E+01 2.63403E+00-6.52958E-03 1.25629E+00 2.71839E-13-1.39642E-13
 -1       480 2.02337E+01 2.18797E+00-5.69746E-03 1.50094E+00 2.93848E-13-5.22113E-14
 -1       481 2.01126E+01 4.53664E-01 5.07207E-03 4.63593E-01 1.98318E-13 5.98323E-14
 -1       482 2.03441E+01 9.75672E-01 2.90648E-03-9.42970E-01-1.60790E-13-1.38733E-13
 -1       483 3.33703E+01 2.55992E+00-1.36517E-01-5.92816E-01-1.03612E-13 8.90121E-14
 -1       484 2.01719E+01 5.43855E-01 1.92121E-03-4.67528E-01-1.33179E-13-1.35715E-13
 -1       485 2.00250E+01 3.03688E-01 1.06331E-03-1.65906E-01-8.27511E-14-1.24361E-13
 -1       486 1.99243E+01 1.61612E-01 4.48360E-04 1.55390E-02-8.12169E-14-1.44816E-13
 -1       487 1.98655E+01 7.52519E-02 1.56726E-04 1.18053E-01-7.94658E-14-1.28649E-13
 -1       488 1.98380E+01 2.24455E-02 2.08616E-05 1.69249E-01-1.08259E-13-1.32512E-13
 -1       489 1.98317E+01-9.15048E-03-4.76813E-05 1.87700E-01-7.61316E-14-1.46066E-13
 -1       490 1.98387E+01-2.69265E-02-8.29253E-05 1.85955E-01-1.23893E-13-1.33454E-13
 -1       491 1.98532E+01-3.55841E-02-9.82925E-05 1.72532E-01-1.07905E-13-6.51415E-14
 -1       492 1.98712E+01-3.82341E-02-1.00849E-04 1.53212E-01-2.07922E-14-6.33025E-14
 -1       493 1.98904E+01-3.69678E-02-9.51248E-05 1.31885E-01 2.58869E-14-7.33171E-14
 -1       494 1.99092E+01-3.31774E-02-8.41536E-05 1.11150E-01 5.49221E-14-1.39174E-13
 -1       495 1.99270E+01-2.77511E-02-6.98632E-05 9.27389E-02 1.47978E-14-1.28947E-13
 -1       496 1.99436E+01-2.12023E-02-5.33446E-05 7.78339E-02-5.57130E-14 3.24497E-15
 -1       497 1.99593E+01-1.37606E-02-3.50183E-05 6.73038E-02-5.01557E-14 4.05740E-14
 -1       498 1.99747E+01-5.43925E-03-1.48268E-05 6.18841E-02-1.94754E-14-4.29723E-14
 -1       499 1.99907E+01 3.91051E-03 7.65657E-06 6.23123E-02-1.05859E-15-1.10804E-13
 -1       500 2.00083E+01 1.45527E-02 3.31169E-05 6.94244E-02-2.61532E-14-1.02316E-13
 -1       501 2.00287E+01 2.68194E-02 6.23805E-05 8.42184E-02-4.58792E-14-1.59033E-13
 -1       502 2.00535E+01 4.10545E-02 9.62684E-05 1.07880E-01-1.51542E-14-1.55803E-13
 -1       503 2.00842E+01 5.75395E-02 1.35391E-04 1.41764E-01 1.14024E-14-2.14146E-13
 -1       504 2.01229E+01 7.63835E-02 1.79834E-04 1.87318E-01-8.60749E-14-2.75750E-13
 -1       505 2.01716E+01 9.73598E-02 2.28667E-04 2.45923E-01-6.55615E-14-3.29064E-13
 -1       506 2.02324E+01 1.19660E-01 2.79202E-04 3.18611E-01-4.23497E-14-4.72276E-13
 -1       507 2.03080E+01 1.41533E-01 3.25882E-04 4.05628E-01 1.76164E-13-4.02028E-13
 -1       508 2.04009E+01 1.59764E-01 3.58723E-04 5.05752E-01 4.48656E-14-4.11152E-13
 -1       509 2.05141E+01 1.68968E-01 3.61315E-04 6.15320E-01 3.29682E-14-3.47047E-13
 -1       510 2.06514E+01 1.60723E-01 3.08659E-04 7.26855E-01 3.48175E-14-3.07713E-13
 -1       511 2.08174E+01 1.22693E-01 1.65646E-04 8.27267E-01-1.80949E-13-3.09630E-13
 -1       512 2.10191E+01 3.82552E-02-1.12496E-04 8.95642E-01-1.15404E-13-2.47684E-13
 -1       513 2.12654E+01-1.12228E-01-5.73294E-04 9.00914E-01-9.65447E-14-2.44992E-13
 -1       514 2.15673E+01-3.46213E-01-1.24315E-03 8.00265E-01-1.64612E-14 1.24252E-14
 -1       515 2.19325E+01-6.66292E-01-2.09905E-03 5.40453E-01 9.62722E-14 1.88598E-14
 -1       516 2.23533E+01-1.03657E+00-2.90120E-03 6.70556E-02 1.64793E-13 1.94320E-14
 -1       517 2.27839E+01-1.35013E+00-2.73390E-03-6.49665E-01 2.84693E-13-1.25754E-13
 -1       518 2.31134E+01-1.41014E+00-2.94646E-03-1.55995E+00 1.17948E-13-1.09333E-13
 -1       519 2.31791E+01-9.76791E-01-2.54705E-03-2.45602E+00 2.01798E-13 1.69106E-13
 -1       520 2.28581E+01 4.47792E-02-5.03499E-03-2.94830E+00 2.86405E-13 2.26053E-13
 -1       521 2.22542E+01 1.34972E+00-8.19420E-03-2.61273E+00 1.08709E-13 3.82121E-13
 -1       522 2.17383E+01 2.22666E+00-9.05684E-03-1.41085E+00-1.54172E-13 3.13322E-13
 -1       523 2.16352E+01 2.09877E+00-9.11839E-03 8.83181E-02 1.90946E-13 2.80868E-13
 -1       524 2.18619E+01 1.13031E+00-4.35070E-03 1.09410E+00 2.76563E-13 3.31610E-13
 -1       525 2.19961E+01 7.23470E-02-7.97426E-04 1.28990E+00 3.54263E-13 3.30447E-13
 -1       526 2.17486E+01-5.00843E-01 1.21977E-03 9.21999E-01-5.12962E-14 2.84454E-13
 -1       527 1.20710E+01-3.80640E+00 1.18852E-01 7.86653E+00 1.64035E-13 3.98417E-13
 -1       528 1.98105E+01 1.28892E-01 9.88626E-04-2.01743E-02 7.89775E-14 2.05519E-14
 -1       529 1.97525E+01 5.94603E-02 3.62530E-04-1.18616E-01 5.41937E-14-2.45958E-14
 -1       530 1.97337E+01 1.76542E-02 8.24888E-05-1.66649E-01 7.19985E-14-4.74241E-14
 -1       531 1.97395E+01-7.15030E-03-5.34418E-05-1.83160E-01 3.01417E-14-9.78987E-15
 -1       532 1.97597E+01-2.10590E-02-1.23381E-04-1.80487E-01 5.44606E-14 7.58990E-14
 -1       533 1.97870E+01-2.78507E-02-1.55647E-04-1.66830E-01 4.83279E-14 2.59024E-14
 -1       534 1.98168E+01-2.99857E-02-1.64254E-04-1.47671E-01 6.79796E-14-5.18316E-15
 -1       535 1.98462E+01-2.91043E-02-1.57678E-04-1.26667E-01 1.25356E-13 3.57959E-15
 -1       536 1.98737E+01-2.62967E-02-1.41505E-04-1.06231E-01 1.12958E-13-7.80305E-14
 -1       537 1.98987E+01-2.22613E-02-1.19324E-04-8.79553E-02 7.64776E-14-3.20420E-14
 -1       538 1.99211E+01-1.74062E-02-9.32049E-05-7.29040E-02 6.48479E-14 4.26088E-14
 -1       539 1.99415E+01-1.19173E-02-6.40870E-05-6.18451E-02-4.42588E-15 2.24843E-14
 -1       540 1.99608E+01-5.80660E-03-3.20558E-05-5.54222E-02-4.03180E-14 1.16262E-13
 -1       541 1.99802E+01 1.05165E-03 3.51928E-06-5.42902E-02-9.17058E-14 1.50991E-13
 -1       542 2.00010E+01 8.89422E-03 4.38302E-05-5.92213E-02-1.04485E-13 9.17306E-14
 -1       543 2.00250E+01 1.80477E-02 9.04949E-05-7.11869E-02 4.18592E-14 9.68049E-14
 -1       544 2.00542E+01 2.89089E-02 1.45455E-04-9.14199E-02 5.02586E-14 6.22167E-14
 -1       545 2.00910E+01 4.19198E-02 2.10811E-04-1.21454E-01-4.85194E-14 1.66199E-13
 -1       546 2.01380E+01 5.75311E-02 2.88568E-04-1.63133E-01-1.51264E-13 1.25307E-13
 -1       547 2.01982E+01 7.61377E-02 3.80170E-04-2.18579E-01-1.67220E-13 4.31313E-14
 -1       548 2.02748E+01 9.79646E-02 4.85651E-04-2.90083E-01-9.07930E-14-3.89915E-14
 -1       549 2.03714E+01 1.22861E-01 6.02108E-04-3.79878E-01 5.04470E-14-1.65635E-14
 -1       550 2.04917E+01 1.49938E-01 7.21067E-04-4.89720E-01-2.63454E-14-3.54482E-14
 -1       551 2.06391E+01 1.76940E-01 8.24155E-04-6.20128E-01-5.86408E-14 5.80534E-14
 -1       552 2.08175E+01 1.99211E-01 8.76594E-04-7.69125E-01-6.90419E-14 1.11755E-13
 -1       553 2.10304E+01 2.08088E-01 8.18719E-04-9.30181E-01 1.07658E-13 1.11688E-13
 -1       554 2.12824E+01 1.88666E-01 5.58199E-04-1.08905E+00-1.36283E-14 8.74091E-14
 -1       555 2.15802E+01 1.17334E-01-2.89249E-05-1.21924E+00-2.71938E-13 3.15698E-13
 -1       556 2.19352E+01-3.92612E-02-1.06514E-03-1.27606E+00-2.21353E-13 4.76876E-13
 -1       557 2.23646E+01-3.19260E-01-2.58973E-03-1.19069E+00-5.71496E-14 4.39436E-13
 -1       558 2.28871E+01-7.45524E-01-4.57171E-03-8.68538E-01 5.92888E-14 4.02906E-13
 -1       559 2.35034E+01-1.27867E+00-6.49707E-03-2.03869E-01 1.02810E-13 3.64235E-13
 -1       560 2.41457E+01-1.73637E+00-7.41924E-03 8.72363E-01 2.56305E-13 4.37908E-13
 -1       561 2.46065E+01-1.72714E+00-8.77605E-03 2.24214E+00 4.76536E-13 4.53272E-13
 -1       562 2.45921E+01-8.18453E-01-9.11477E-03 3.43632E+00 4.05535E-13 3.40272E-13
 -1       563 2.38747E+01 9.36559E-01-2.27970E-02 3.68255E+00 6.12468E-13 5.72594E-13
 -1       564 2.30776E+01 2.53418E+00-4.01108E-02 2.33352E+00 2.66291E-13 3.90087E-13
 -1       565 2.28600E+01 2.69874E+00-3.99731E-02 1.22681E-01-3.13473E-13 3.34475E-13
 -1       566 2.31472E+01 1.25744E+00-3.18410E-02-1.39397E+00-1.69016E-13 6.48438E-13
 -1       567 2.33204E+01-3.82664E-01-1.64772E-02-1.48806E+00-1.05374E-14 7.93201E-13
 -1       568 2.29037E+01-1.11072E+00-1.05119E-02-6.68043E-01 1.54955E-13 5.55613E-13
 -1       569 2.20144E+01-8.60393E-01-3.54433E-03 1.91372E-01-1.57064E-13 2.94507E-13
 -1       570 2.08196E+01-1.24539E+00 4.82045E-02 6.43301E+00 1.05036E-13 2.29887E-13
 -1       571 1.61136E+01 9.18752E-01 1.57098E-01 6.01631E+00 5.25459E-13 6.12732E-13
 -1       572 2.33926E+01-1.57362E+00 1.22335E-02 2.20646E+00-1.16060E-13-1.25022E-13
 -1       573 2.32112E+01-1.87227E+00 2.08171E-02 4.49460E+00-5.04027E-13 6.90485E-14
 -1       574 1.25001E+01 2.45120E+00 1.47979E-01 1.88204E+00 2.40908E-13 3.86358E-14
 -1       575 1.31277E+01 2.15913E+00 1.45419E-01-3.66217E+00-7.68222E-14-8.54282E-13
 -1       576 1.76549E+01 1.04042E-01 8.00064E-02-6.68007E+00-2.75136E-13-5.30541E-13
 -1       577 2.17398E+01-1.44738E+00 4.65510E-02-6.24747E+00-8.08997E-14-5.79920E-13
 -1       578 2.35639E+01-1.87749E+00 1.77261E-02-4.08503E+00 5.26879E-14-2.48386E-13
 -1       579 2.33776E+01-1.47796E+00 5.07502E-03-1.85320E+00 2.21594E-14-2.61896E-13
 -1       580 2.23059E+01-9.24952E-01-1.05261E-03-2.51188E-01-3.26240E-13-3.99936E-14
 -1       581 2.81626E+01-5.86779E+00 2.40381E-02 5.34934E+00 3.56763E-13 6.56870E-13
 -1       582 1.99253E+01 2.46316E-01 2.43636E-03 1.58149E-01 1.32882E-13 3.72294E-14
 -1       583 7.54389E+00-9.99698E-01 2.01414E-01 3.74766E+00 1.70444E-13-3.20632E-13
 -1       584 2.02392E+01-5.82244E+00 8.48640E-02 8.60800E+00 4.56621E-13 5.47527E-13
 -1       585 1.29822E+01-2.74465E+00 1.58526E-01-8.01331E+00 9.13089E-14-5.55320E-13
 -1       586 2.77042E+01-5.59653E+00-9.79752E-04-5.61697E+00 2.23502E-13-6.91502E-13
 -1       587 2.23284E+01-6.81837E+00 4.57026E-02 5.58528E+00-1.88995E-13-5.62236E-13
 -1       588 7.24906E+00-3.37560E+00 1.73142E-01 5.01334E+00 2.25236E-14-2.81997E-14
 -1       589 1.96797E+01 3.19830E+00-5.10012E-03-3.12795E-01 7.05564E-14-3.16676E-13
 -1       590 3.16947E+01 7.62765E+00-1.94412E-01 1.68263E+00 3.72480E-14 2.57305E-13
 -1       591 2.08274E+01-6.99794E+00 5.67734E-02-5.65421E+00-5.62050E-16-4.95116E-14
 -1       592 3.24170E+01 7.02857E+00-1.68829E-01-1.64088E-01-3.23158E-13 2.48249E-13
 -1       593 3.07629E+01-1.87704E+00-1.17464E-01 2.43221E+00 3.44301E-13 1.79433E-13
 -1       594 2.90997E+01-4.74157E+00-3.53370E-02 1.11532E+00 1.36184E-13-7.31679E-13
 -1       595 2.78741E+01-5.95582E+00-1.34078E-02-1.53137E+00-2.69992E-14-2.41383E-13
 -1       596 1.26405E+01-5.62560E+00 1.17714E-01-6.57609E+00-3.27141E-13-1.80682E-13
 -1       597 7.22400E+00-3.66884E+00 1.72355E-01-4.69464E+00-1.36904E-13-2.24709E-13
 -1       598 4.72543E+00-2.14098E+00 2.08311E-01 8.64204E-01-1.55434E-13-1.03265E-13
 -1       599 1.46348E+01-5.35515E+00 1.30890E-01 6.96094E+00-2.69638E-13-2.34292E-13
 -1       600 3.14250E+01 7.57485E+00-2.11772E-01-1.82704E+00-1.55556E-13-5.64382E-13
 -1       601 3.13638E+01 1.28876E-01-1.17132E-01-2.30057E+00 2.30573E-13-7.48783E-13
 -1       602 3.15524E+01 4.74585E+00-1.77700E-01-2.99234E+00-9.25371E-14-6.08291E-13
 -1       603 3.24430E+01 1.98864E+00-1.41894E-01 5.54948E-01 1.07241E-13 3.12458E-14
 -1       604 3.19316E+01-2.04158E+00-6.21084E-02-1.53456E+00 2.01880E-13-1.19044E-13
 -1       605 2.09947E+01-5.51142E+00 9.83418E-02-8.51215E+00 2.06515E-13-6.56618E-13
 -1       606 7.33376E+00-8.03707E-01 2.05624E-01-3.34287E+00-1.59813E-13-8.66543E-13
 -1       607 2.03926E+01 1.77156E+00-5.67252E-03-1.54587E+00-2.06964E-13-1.80618E-13
 -1       608 2.05861E+01 1.30524E+00-9.98159E-04 1.54737E+00 2.67932E-13 1.52671E-13
 -1       609 3.14728E+01-2.80450E+00-8.93877E-02 1.22178E+00 6.25489E-13-9.61731E-15
 -1       610 1.99784E+01 2.66295E+00-6.57872E-03-1.25410E+00-1.21055E-13-3.32383E-13
 -1       611 2.91096E+01 7.09942E+00-1.87412E-01-5.27879E-01 8.35720E-14-8.04057E-13
 -1       612 2.13537E+01-5.70097E-01 5.84793E-05 6.12717E-01-2.56979E-13 2.95342E-13
 -1       613 7.40240E+00-1.39087E+00 1.85244E-01-2.00841E+00-2.95632E-14-2.80102E-13
 -1       614 3.00820E+01 4.17081E+00-1.65723E-01 1.23872E+00-6.37129E-14-5.50348E-13
 -1       615 2.92894E+01 5.39760E+00-1.61647E-01 3.30481E+00 4.70193E-13 6.53325E-13
 -1       616 1.99593E+01 2.44931E+00-1.58513E-03 3.94157E-01 1.43548E-13-2.41797E-13
 -1       617 1.99273E+01 2.52444E+00-1.50992E-03 1.35797E-01 1.07194E-13-3.08151E-13
 -1       618 2.01201E+01 2.04602E+00-1.59813E-03 8.49884E-01 2.19363E-13-1.39326E-13
 -1       619 2.02386E+01 1.67613E+00-2.23238E-03 9.91601E-01 2.45816E-13-8.36917E-14
 -1       620 2.03197E+01 1.03667E+00 2.91165E-03 8.30841E-01 2.26812E-13-3.91025E-14
 -1       621 2.02058E+01 6.14829E-01 1.11903E-03 4.19993E-01 1.68701E-13-4.60567E-14
 -1       622 2.80527E+01 5.24349E+00-1.67272E-01-2.86044E+00 8.79505E-14-2.40832E-13
 -1       623 2.02395E+01 6.73279E-01 2.85738E-04-3.93232E-01-8.76706E-14-1.45950E-13
 -1       624 2.01673E+01 3.91685E-01 1.68413E-04-1.39251E-01-9.55907E-14-1.28246E-13
 -1       625 2.01018E+01 2.12133E-01 5.08172E-05 2.23690E-02-6.52551E-14-1.16434E-13
 -1       626 2.00515E+01 9.77731E-02 3.12624E-06 1.17168E-01-7.03620E-14-1.29369E-13
 -1       627 2.00163E+01 2.59741E-02-1.63455E-05 1.65694E-01-8.06450E-14-1.19233E-13
 -1       628 1.99937E+01-1.74444E-02-2.67423E-05 1.83522E-01-7.47913E-14-1.17968E-13
 -1       629 1.99805E+01-4.17533E-02-3.19007E-05 1.81983E-01-7.44808E-14-4.95612E-14
 -1       630 1.99741E+01-5.31995E-02-3.33130E-05 1.69135E-01-6.79427E-14-3.84518E-14
 -1       631 1.99722E+01-5.60579E-02-3.20229E-05 1.50614E-01-2.49795E-14-5.86747E-14
 -1       632 1.99734E+01-5.32474E-02-2.89331E-05 1.30302E-01-1.52658E-14-7.64164E-14
 -1       633 1.99765E+01-4.67103E-02-2.46972E-05 1.10847E-01 4.03955E-14-9.16980E-14
 -1       634 1.99809E+01-3.76631E-02-1.97624E-05 9.40655E-02 4.03548E-14-3.71649E-14
 -1       635 1.99861E+01-2.67755E-02-1.42901E-05 8.12513E-02-3.41065E-14-7.18169E-14
 -1       636 1.99922E+01-1.43017E-02-8.32393E-06 7.34108E-02-1.38786E-13 5.71519E-15
 -1       637 1.99990E+01-1.81317E-04-1.76312E-06 7.14429E-02-2.03091E-14 6.15614E-14
 -1       638 2.00068E+01 1.58753E-02 5.58507E-06 7.62720E-02-3.75614E-14-4.40781E-14
 -1       639 2.00158E+01 3.43088E-02 1.39776E-05 8.89393E-02-6.53080E-14-1.18742E-13
 -1       640 2.00264E+01 5.56267E-02 2.37033E-05 1.10656E-01-7.26307E-14-9.44902E-14
 -1       641 2.00390E+01 8.03014E-02 3.50437E-05 1.42814E-01 2.27735E-15-1.20987E-13
 -1       642 2.00540E+01 1.08628E-01 4.82001E-05 1.86947E-01-9.51006E-14-1.05625E-13
 -1       643 2.00721E+01 1.40524E-01 6.31885E-05 2.44622E-01-1.54531E-13-9.08133E-14
 -1       644 2.00940E+01 1.75228E-01 7.96796E-05 3.17253E-01-1.79424E-13-2.14381E-13
 -1       645 2.01206E+01 2.10877E-01 9.67499E-05 4.05787E-01 5.35967E-14-1.95708E-13
 -1       646 2.01534E+01 2.43888E-01 1.12510E-04 5.10254E-01 1.69428E-13-2.23305E-13
 -1       647 2.01951E+01 2.68123E-01 1.23567E-04 6.29112E-01 7.98773E-14-2.26753E-13
 -1       648 2.02499E+01 2.73794E-01 1.24260E-04 7.58355E-01 5.51427E-14-1.92753E-13
 -1       649 2.03254E+01 2.46207E-01 1.05516E-04 8.90303E-01 1.08502E-14-7.96814E-14
 -1       650 2.04342E+01 1.64643E-01 5.28646E-05 1.01196E+00-1.31859E-13-1.10655E-13
 -1       651 2.05971E+01 2.21359E-03-5.87659E-05 1.10279E+00-7.97047E-14 3.76350E-14
 -1       652 2.08448E+01-2.71447E-01-2.67352E-04 1.13148E+00-1.13298E-15 8.62305E-14
 -1       653 2.12186E+01-6.80905E-01-6.04960E-04 1.05161E+00-1.72968E-14 1.32384E-13
 -1       654 2.17621E+01-1.22262E+00-1.17924E-03 7.97010E-01 1.46517E-13 6.84329E-15
 -1       655 2.24966E+01-1.82209E+00-1.73770E-03 2.84639E-01 1.35842E-13-1.53833E-14
 -1       656 2.33772E+01-2.27534E+00 4.59265E-04-5.59848E-01 1.04410E-13-1.95918E-13
 -1       657 2.41961E+01-2.19249E+00-4.39324E-03-1.71837E+00 2.59288E-13-2.94936E-13
 -1       658 2.46546E+01-1.18493E+00-1.42233E-02-2.87144E+00 1.90367E-13-3.81262E-13
 -1       659 2.44639E+01 8.97724E-01-3.34251E-02-3.37190E+00 2.74926E-13-2.89130E-13
 -1       660 2.38750E+01 3.02979E+00-4.40844E-02-2.56627E+00 1.18332E-13 1.40671E-13
 -1       661 2.36099E+01 3.80561E+00-5.02554E-02-6.68559E-01 1.36851E-13 5.32640E-13
 -1       662 2.38609E+01 2.60638E+00-4.43656E-02 9.73034E-01 1.25972E-13 4.10683E-13
 -1       663 2.41732E+01 5.55534E-01-1.71902E-02 1.37088E+00 3.21822E-13 2.90137E-13
 -1       664 2.38061E+01-8.02953E-01-1.78413E-02 7.94486E-01-6.22903E-14 2.62882E-14
 -1       665 2.90668E+01-3.96717E+00-3.63111E-02-2.44285E+00 1.99959E-13-2.42598E-13
 -1       666 2.00269E+01 1.89175E-01 1.73060E-04-2.12995E-02 8.20912E-14-2.40488E-14
 -1       667 1.99253E+01-1.36136E-02-2.90723E-05-1.87432E-01-6.65421E-15-4.01832E-14
 -1       668 1.99206E+01-3.49731E-02-4.51937E-05-1.85636E-01 5.33308E-14-3.08719E-14
 -1       669 1.99229E+01-4.51887E-02-5.21208E-05-1.72304E-01 4.43800E-14 4.06365E-14
 -1       670 1.99294E+01-4.80070E-02-5.27885E-05-1.53167E-01 7.66151E-14-6.54783E-15
 -1       671 1.99382E+01-4.59687E-02-4.93226E-05-1.32136E-01 1.84653E-13 2.59932E-14
 -1       672 1.99480E+01-4.07645E-02-4.31812E-05-1.11857E-01 2.94726E-14 8.95776E-14
 -1       673 1.99582E+01-3.34614E-02-3.53466E-05-9.41264E-02 9.96444E-15 9.88889E-14
 -1       674 1.99685E+01-2.46541E-02-2.62902E-05-8.02021E-02 9.30894E-14 1.53676E-13
 -1       675 1.99790E+01-1.45736E-02-1.62455E-05-7.10495E-02-7.12822E-14 1.09867E-13
 -1       676 1.99899E+01-3.16508E-03-5.06751E-06-6.75270E-02-7.00585E-14 4.20293E-14
 -1       677 2.00018E+01 9.84997E-03 7.59795E-06-7.05309E-02-4.24188E-14 2.84971E-14
 -1       678 2.00154E+01 2.49272E-02 2.22436E-05-8.11039E-02-2.67579E-14-5.45252E-14
 -1       679 2.00312E+01 4.26590E-02 3.95255E-05-1.00516E-01-2.56559E-14 2.77518E-14
 -1       680 2.00504E+01 6.37304E-02 6.01909E-05-1.30319E-01 1.99523E-14 1.00209E-13
 -1       681 2.00737E+01 8.88605E-02 8.50416E-05-1.72362E-01-1.01524E-13 1.75574E-13
 -1       682 2.01021E+01 1.18714E-01 1.14836E-04-2.28773E-01-6.56330E-14 1.48593E-13
 -1       683 2.01366E+01 1.53751E-01 1.50114E-04-3.01876E-01-2.49155E-14 3.55440E-14
 -1       684 2.01780E+01 1.93977E-01 1.90874E-04-3.94018E-01-1.25437E-14-1.32006E-13
 -1       685 2.02271E+01 2.38511E-01 2.35997E-04-5.07274E-01 8.36195E-14-1.51107E-13
 -1       686 2.02846E+01 2.84857E-01 2.82244E-04-6.42952E-01-6.07012E-14-2.01109E-13
 -1       687 2.03516E+01 3.27726E-01 3.22558E-04-8.00824E-01 1.06935E-15-2.54330E-13
 -1       688 2.04305E+01 3.57168E-01 3.43269E-04-9.77966E-01-1.42573E-13-1.97367E-13
 -1       689 2.05268E+01 3.55860E-01 3.19622E-04-1.16703E+00-7.02978E-15 6.35879E-14
 -1       690 2.06534E+01 2.95576E-01 2.11213E-04-1.35368E+00-2.34236E-13 1.82867E-13
 -1       691 2.08357E+01 1.33762E-01-3.44921E-05-1.51283E+00-3.27067E-13 2.12833E-14
 -1       692 2.11210E+01-1.86726E-01-4.26946E-04-1.60247E+00-7.04849E-14 1.69242E-14
 -1       693 2.15849E+01-7.26721E-01-8.32386E-04-1.55384E+00 9.17486E-14 1.16754E-14
 -1       694 2.23269E+01-1.51050E+00-1.28580E-03-1.25655E+00 1.28300E-13-1.62708E-13
 -1       695 2.34256E+01-2.43481E+00-2.15206E-03-5.59778E-01 1.81547E-13-1.50857E-13
 -1       696 2.48505E+01-3.12373E+00-9.90684E-04 7.05132E-01 8.83655E-14-3.21206E-14
 -1       697 2.61937E+01-2.71998E+00-1.61115E-02 2.49214E+00 3.35342E-13 4.29645E-13
 -1       698 2.67518E+01-4.63025E-01-6.87595E-02 3.84271E+00 2.78663E-13 6.55198E-13
 -1       699 2.62426E+01 3.39815E+00-1.08983E-01-1.11051E+00-3.44013E-13 7.19126E-13
 -1       700 2.63521E+01 1.42201E-01-6.74084E-02-1.65520E+00-1.99478E-13 7.36104E-13
 -1       701 2.56617E+01-1.91410E+00-2.50708E-02-4.40335E-01 3.38460E-13 4.48828E-13
 -1       702 2.47563E+01-2.22637E+00 3.00980E-03 1.00430E+00 3.36386E-13 2.89053E-14
 -1       703 2.31669E+01-1.05563E+00-5.71860E-03 2.23157E-01 8.05280E-14-3.70797E-16
 -1       704 2.06442E+01-3.35105E+00 7.09485E-02-7.79106E+00 1.10079E-13-5.37306E-13
 -1       705 2.52572E+01-3.96862E+00 2.37362E-02-5.13203E+00 1.43149E-14-4.88231E-13
 -1       706 2.55586E+01-2.64808E+00 1.31403E-03-2.11581E+00-2.24577E-13-4.36204E-13
 -1       707 2.01054E+01 3.52894E-01 5.70984E-04 1.48794E-01 1.20449E-13-9.32999E-15
 -1       708 2.85834E+01-4.58369E+00-6.29495E-02 2.45558E+00 5.08813E-13 6.89275E-14
 -1       709 2.88494E+01 1.79211E+00-1.19739E-01-3.53216E+00 2.59626E-13-1.00288E-13
 -1       710 2.73978E+01 5.62248E+00-2.15984E-01 4.18142E-01-1.62946E-13 8.71494E-13
 -1       711 2.58351E+01-5.95166E+00-1.70011E-03 2.43710E+00 1.59622E-13-3.52628E-13
 -1       712 1.99412E+01 2.44352E-02 1.37035E-06-1.69389E-01 4.14125E-14-7.82804E-14
 -1       713 1.99732E+01 8.75913E-02 5.74299E-05-1.19633E-01 1.12399E-13-7.30809E-14
 -1       714 2.02900E+01 1.12557E+00 8.68019E-04-7.62574E-01-1.17526E-13-1.81600E-13
 -1       715 3.00577E+01-3.55480E-01-1.01006E-01-1.07672E+00 1.50508E-13 4.89817E-14
 -1       716 2.88049E+01-2.83451E+00-5.71523E-02-1.77266E+00 4.80664E-13-3.02921E-13
 -1       717 2.00234E+01 2.29480E+00-1.65838E-03 6.37400E-01 1.82882E-13-1.78957E-13
 -1       718 2.82116E+01-4.15579E+00-4.78362E-02 1.57306E+00-2.40706E-14 5.84734E-13
 -1       719 2.51172E+01-4.88524E+00 4.16406E-02-6.13316E+00 4.07209E-14-4.33395E-13
 -1       720 2.00157E+01 2.30805E+00-1.79833E-03-6.28136E-01-1.97467E-14-2.55232E-13
 -1       721 2.90525E+01 3.98409E+00-1.33626E-01-1.39525E+00-2.74815E-13 5.38809E-13
 -1       722 1.22155E+01-3.39388E+00 1.26819E-01-5.32968E+00-5.62848E-14-7.92005E-14
 -1       723 8.96289E+00-1.06702E+00 1.52509E-01 2.82659E+00-5.07875E-14 1.91153E-13
 -1       724 1.28036E+01-2.90752E+00 1.07483E-01 5.50338E+00-2.67321E-14-3.02394E-13
 -1       725 1.81251E+01-5.47263E+00 9.22551E-02-5.69508E+00-1.65392E-13-7.30804E-14
 -1       726 2.00860E+01-5.55045E+00 7.16754E-02 5.50162E+00-1.57287E-13-1.73727E-13
 -1       727 2.97387E+01-8.30503E-01-9.55610E-02 3.97819E-01 1.85522E-13-5.26527E-13
 -1       728 2.43607E+01-6.10276E+00 2.58144E-02-2.94127E+00-1.65401E-13-4.79092E-14
 -1       729 2.88557E+01 9.87661E-01-1.25029E-01 4.20940E+00 2.21777E-13 8.26429E-13
 -1       730 2.01073E+01 2.06802E+00-2.32171E-03-8.44733E-01-7.83888E-14-2.89247E-13
 -1       731 1.99255E+01 2.52667E+00-1.65066E-03-1.25610E-01 7.79008E-14-3.01505E-13
 -1       732 2.65072E+01 5.61427E+00-1.40796E-01-1.70066E+00 2.36769E-13-1.88194E-13
 -1       733 1.03021E+01 1.69166E+00 1.48306E-01 2.03553E-01 8.67882E-15-3.98154E-14
 -1       734 2.02556E+01 1.60381E+00-8.53886E-04-9.94152E-01-1.17995E-13-2.43896E-13
 -1       735 2.53052E+01-4.49721E+00 1.43812E-02 5.18360E+00 3.43905E-13 3.48151E-13
 -1       736 1.08759E+01-1.42496E+00 1.09733E-01-3.53287E+00 9.34530E-14-1.68532E-13
 -1       737 2.59705E+01 5.14881E+00-1.76425E-01 1.27294E+00 4.09811E-14 9.27796E-13
 -1       738 2.58237E+01-3.49756E+00-9.67334E-03 2.77593E+00 3.05832E-13-3.52329E-13
 -1       739 2.75550E+01 5.21991E+00-1.33136E-01 7.29986E-01-4.29032E-14-6.11403E-13
 -1       740 9.49972E+00-2.55381E-01 1.19277E-01 4.11982E-01-9.29218E-14-2.29535E-13
 -1       741 2.81862E+01 1.27725E+00-1.17758E-01 1.43753E+00 1.81927E-13-8.42423E-13
 -1       742 1.99545E+01 2.45689E+00-1.75362E-03-3.82902E-01 3.17733E-14-2.31148E-13
 -1       743 2.76813E+01-2.36663E+00-4.09330E-02-1.41565E-01 5.12899E-13-2.57497E-13
 -1       744 2.02639E+01 1.30775E+00-1.07134E-05 6.30348E-01 1.71634E-13-7.14952E-14
 -1       745 2.56638E+01-4.60284E+00 1.04584E-02-2.34651E-01-1.79373E-13 1.84388E-13
 -1       746 2.01703E+01 2.23519E-01 2.42604E-05-3.23834E-02 1.03955E-13-1.05707E-13
 -1       747 2.02615E+01 4.32517E-01-4.44766E-05-9.35565E-02-6.16437E-14-1.06386E-13
 -1       748 2.02214E+01 2.33689E-01-1.82179E-05 3.58010E-02-6.85253E-14-8.51260E-14
 -1       749 2.01798E+01 1.03123E-01-1.42813E-05 1.12761E-01-9.76757E-14-1.13515E-13
 -1       750 2.01422E+01 1.99458E-02-1.14468E-05 1.52087E-01-5.85673E-14-1.27084E-13
 -1       751 2.01103E+01-3.03637E-02-9.98319E-06 1.65855E-01-2.60478E-14-1.10572E-13
 -1       752 2.00842E+01-5.79890E-02-9.13144E-06 1.63333E-01-2.50557E-14-9.44560E-15
 -1       753 2.00636E+01-7.01112E-02-8.30198E-06 1.51352E-01-3.45153E-14 5.02916E-14
 -1       754 2.00477E+01-7.17713E-02-7.39872E-06 1.34799E-01-4.29479E-15 6.38652E-14
 -1       755 2.00358E+01-6.64446E-02-6.37989E-06 1.17104E-01-1.21217E-14 1.21779E-14
 -1       756 2.00270E+01-5.64220E-02-5.34736E-06 1.00646E-01 2.72340E-14 1.43269E-14
 -1       757 2.00208E+01-4.30969E-02-4.16890E-06 8.71097E-02-1.28065E-14-3.85508E-14
 -1       758 2.00166E+01-2.71828E-02-2.93804E-06 7.77444E-02-7.57831E-14 9.79594E-15
 -1       759 2.00137E+01-8.87097E-03-1.57350E-06 7.35755E-02-1.08234E-13-4.77587E-14
 -1       760 2.00117E+01 1.20354E-02-4.12318E-08 7.55654E-02-9.88147E-14-7.97534E-14
 -1       761 2.00100E+01 3.60039E-02 1.69027E-06 8.47283E-02-2.29380E-14-5.50106E-14
 -1       762 2.00081E+01 6.36612E-02 3.67264E-06 1.02206E-01-1.04688E-14-7.04803E-14
 -1       763 2.00054E+01 9.56675E-02 6.00364E-06 1.29309E-01-4.06025E-14 5.92746E-14
 -1       764 2.00012E+01 1.32555E-01 8.78916E-06 1.67515E-01-2.06825E-14 1.07752E-14
 -1       765 1.99947E+01 1.74511E-01 1.21352E-05 2.18426E-01-1.59463E-13-3.98614E-14
 -1       766 1.99855E+01 2.21067E-01 1.61413E-05 2.83663E-01-3.05540E-13-1.39654E-13
 -1       767 1.99730E+01 2.70661E-01 2.08902E-05 3.64703E-01-1.26393E-13-1.38314E-13
 -1       768 1.99571E+01 3.20027E-01 2.64357E-05 4.62642E-01 6.60711E-14-2.89277E-13
 -1       769 1.99389E+01 3.63353E-01 3.27921E-05 5.77882E-01 5.98687E-14-4.05012E-13
 -1       770 1.99214E+01 3.91165E-01 3.99130E-05 7.09725E-01 7.93146E-14-3.71551E-13
 -1       771 1.99109E+01 3.88942E-01 4.75030E-05 8.55882E-01 4.84860E-14-2.14917E-13
 -1       772 1.99194E+01 3.35549E-01 5.40301E-05 1.01178E+00-1.42695E-13-2.35516E-13
 -1       773 1.99682E+01 2.01874E-01 5.34926E-05 1.16945E+00-2.50187E-14-2.64902E-13
 -1       774 2.00923E+01-4.93949E-02 2.26057E-05 1.31528E+00-7.87948E-14-2.76339E-13
 -1       775 2.03462E+01-4.60718E-01-7.28264E-05 1.42520E+00 8.83927E-14-1.20252E-13
 -1       776 2.08075E+01-1.06823E+00-1.64047E-04 1.45419E+00 3.10441E-14-6.74744E-14
 -1       777 2.15708E+01-1.86978E+00-7.57381E-04 1.31638E+00-4.28569E-15-5.60713E-14
 -1       778 2.27103E+01-2.75018E+00-7.69192E-04 8.71502E-01-8.36926E-14-2.46639E-13
 -1       779 2.41864E+01-3.41961E+00 8.21529E-04-3.74470E-02 9.66432E-14-4.37771E-13
 -1       780 2.57004E+01-2.98780E+00-2.03533E-03-1.55440E+00 1.99304E-13-4.74402E-13
 -1       781 2.63561E+01 2.59735E+00-7.87786E-02-3.45757E+00 4.17503E-13-7.38177E-14
 -1       782 2.00610E+01-2.46172E-02-1.20890E-05-1.75379E-01 6.01245E-15-9.71536E-14
 -1       783 2.00160E+01-6.49059E-02-1.42057E-05-1.42831E-01 8.12967E-14 1.68766E-14
 -1       784 2.00096E+01-6.07777E-02-1.27493E-05-1.23781E-01-2.12154E-15 1.32493E-13
 -1       785 2.00060E+01-5.23960E-02-1.05175E-05-1.05837E-01 3.48492E-14 1.88147E-13
 -1       786 2.00045E+01-4.10713E-02-8.01986E-06-9.07548E-02 2.91631E-14 1.36510E-13
 -1       787 2.00046E+01-2.74854E-02-5.62184E-06-7.98215E-02 2.85482E-14 1.64991E-13
 -1       788 2.00059E+01-1.18289E-02-3.02213E-06-7.40765E-02-1.84995E-14 7.69218E-14
 -1       789 2.00081E+01 6.09063E-03-2.34012E-09-7.44934E-02-7.03344E-14 2.76708E-14
 -1       790 2.00111E+01 2.67586E-02 3.45447E-06-8.21054E-02-4.95897E-14-2.88981E-15
 -1       791 2.00145E+01 5.08897E-02 7.55300E-06-9.81032E-02-6.22722E-14 1.10076E-13
 -1       792 2.00182E+01 7.93573E-02 1.24629E-05-1.23899E-01-1.06932E-13 1.58373E-13
 -1       793 2.00216E+01 1.13114E-01 1.84054E-05-1.61157E-01-9.90848E-14 1.91090E-13
 -1       794 2.00242E+01 1.53087E-01 2.56398E-05-2.11783E-01-6.90075E-14 1.50999E-13
 -1       795 2.00251E+01 2.00009E-01 3.44509E-05-2.77872E-01-4.50382E-14 8.89460E-14
 -1       796 2.00233E+01 2.54167E-01 4.51362E-05-3.61593E-01 1.02028E-13-1.67519E-14
 -1       797 2.00170E+01 3.14977E-01 5.79880E-05-4.65015E-01 3.85505E-14-1.36554E-13
 -1       798 2.00046E+01 3.80306E-01 7.32604E-05-5.89842E-01 1.49236E-14-1.16510E-13
 -1       799 1.99844E+01 4.45400E-01 9.10771E-05-7.37093E-01-3.52876E-14-9.18926E-14
 -1       800 1.99556E+01 5.01194E-01 1.11073E-04-9.06725E-01-8.50395E-14 6.87353E-14
 -1       801 1.99204E+01 5.31800E-01 1.30948E-04-1.09726E+00-2.82677E-13-4.63802E-14
 -1       802 1.98872E+01 5.10958E-01 1.41865E-04-1.30538E+00-2.00361E-13-4.41814E-14
 -1       803 1.98770E+01 3.97583E-01 1.27463E-04-1.52541E+00-6.81766E-14 3.07807E-14
 -1       804 1.99337E+01 1.31251E-01 9.12645E-05-1.74765E+00-2.13511E-13-3.03212E-13
 -1       805 2.01397E+01-3.69027E-01 4.71886E-04-1.95216E+00 4.53250E-14-4.56063E-13
 -1       806 2.06345E+01-1.19186E+00 2.35436E-03-2.09015E+00 2.64537E-13-3.94130E-13
 -1       807 2.16156E+01-2.38246E+00 1.21944E-03-2.04585E+00 1.45477E-13-3.23797E-13
 -1       808 1.75438E+01-3.44958E+00 4.69153E-02 4.95719E+00 5.77403E-14-1.48666E-13
 -1       809 2.01377E+01 1.88895E+00-2.63174E-04 1.99187E-01 1.13891E-13-2.46861E-13
 -1       810 2.63243E+01-4.29080E+00-1.66674E-02-3.59051E-01 2.84175E-13-1.81006E-13
 -1       811 2.00889E+01 2.25963E-02-8.11376E-06-1.60037E-01-2.51403E-14-1.15611E-13
 -1       812 2.00259E+01-6.26455E-02-1.47761E-05-1.60473E-01 4.75767E-14-4.42417E-14
 -1       813 2.02786E+01 1.17134E+00 9.72295E-05-5.65226E-01-5.38920E-14-2.26027E-13
 -1       814 2.00405E+01-5.07806E-02-1.42891E-05-1.73064E-01-2.03563E-15-8.23360E-14
 -1       815 2.01253E+01 1.00590E-01-7.35371E-08-1.16867E-01 5.23459E-14-9.66335E-14
 -1       816 2.09848E+01-4.64147E+00 3.05426E-02-3.85704E+00-1.05199E-13 1.34464E-13
 -1       817 2.02882E+01 7.31340E-01 1.10094E-04-2.90717E-01-4.33352E-14-1.42393E-13
 -1       818 2.31519E+01-5.17143E+00 1.63408E-02 3.16352E+00 1.18306E-13-1.27258E-13
 -1       819 1.27188E+01-1.07195E+00 6.55173E-02 3.62533E+00-8.26257E-14-2.23079E-13
 -1       820 1.68303E+01-3.18008E+00 7.71814E-02-4.70016E+00 1.79717E-15-1.13267E-13
 -1       821 2.02777E+01 9.42968E-01 8.92924E-06 5.52926E-01 1.73176E-13-4.58297E-14
 -1       822 2.69706E+01-7.90899E-01-5.44034E-02-3.23621E+00 4.34899E-13-1.15333E-13
 -1       823 2.02226E+01 1.59164E+00-9.76182E-07-7.20515E-01-5.77627E-14-2.85501E-13
 -1       824 2.75192E+01-2.35971E+00-2.34246E-02-4.80944E-01 1.73829E-13-5.80026E-13
 -1       825 2.01265E+01 1.92700E+00-1.17489E-04 3.54843E-03 7.92856E-14-2.75897E-13
 -1       826 2.02214E+01 1.58137E+00 2.74279E-04 5.35670E-01 1.60235E-13-1.62345E-13
 -1       827 2.66003E+01-8.84967E-01-4.61858E-02 6.96997E-01 6.25689E-14-4.32976E-13
 -1       828 2.01489E+01 1.85523E+00-7.05993E-04-5.72871E-01-3.13215E-14-2.47546E-13
 -1       829 2.02194E+01 4.14467E-01-3.01506E-05 1.10525E-01 1.27584E-13-8.72688E-14
 -1       830 1.12090E+01-8.56246E-02 6.05652E-02-1.32614E+00-1.78724E-14-5.26284E-13
 -1       831 2.29264E+01-3.67395E+00 8.40257E-03-1.80980E+00-1.71216E-13-8.92342E-14
 -1       832 2.00941E+01 2.02851E+00-8.11211E-04-3.81768E-01 2.58882E-14-2.02511E-13
 -1       833 2.01728E+01 1.77439E+00 1.81614E-05 3.82511E-01 1.43163E-13-1.78105E-13
 -1       834 1.20718E+01-8.07457E-02 5.54592E-02 1.92043E+00-1.20154E-13 1.89392E-13
 -1       835 2.02493E+01 6.36548E-01 2.72949E-05 2.94324E-01 1.18142E-13-8.46675E-14
 -1       836 2.03038E+01 2.26683E-01-9.73240E-06 4.72729E-02-8.26913E-14-1.54180E-13
 -1       837 2.02674E+01 9.12156E-02-9.53026E-06 1.02783E-01-7.88444E-14-7.99335E-14
 -1       838 2.02282E+01 4.67642E-03-6.44890E-06 1.30311E-01-1.51233E-14-5.36386E-14
 -1       839 2.01901E+01-4.70322E-02-4.03088E-06 1.38675E-01 9.14999E-15-7.30825E-14
 -1       840 2.01555E+01-7.43262E-02-2.08835E-06 1.34881E-01-1.58994E-14-6.32161E-14
 -1       841 2.01253E+01-8.47693E-02-1.06665E-06 1.24192E-01-2.55325E-14-9.33407E-14
 -1       842 2.00997E+01-8.37607E-02-8.78565E-07 1.10444E-01-1.40444E-14-1.26710E-13
 -1       843 2.00785E+01-7.50160E-02-9.89830E-07 9.63349E-02-4.03932E-15-6.71718E-14
 -1       844 2.00610E+01-6.09244E-02-8.27764E-07 8.37892E-02 7.41038E-15-1.05446E-13
 -1       845 2.00466E+01-4.28892E-02-9.20550E-07 7.42094E-02-6.29458E-14-1.77717E-13
 -1       846 2.00344E+01-2.15409E-02-9.13208E-07 6.86745E-02-1.12889E-13-2.08181E-13
 -1       847 2.00233E+01 3.08272E-03-7.97076E-07 6.81268E-02-1.06110E-13-1.17541E-13
 -1       848 2.00123E+01 3.13641E-02-6.81894E-07 7.34935E-02-2.72207E-14-8.69368E-14
 -1       849 2.00002E+01 6.39675E-02-6.71965E-07 8.57735E-02-6.93824E-14-3.33507E-14
 -1       850 1.99856E+01 1.01695E-01-7.28200E-07 1.06101E-01-3.86763E-14-1.44209E-13
 -1       851 1.99669E+01 1.45314E-01-8.13706E-07 1.35776E-01-2.36647E-14-1.55683E-13
 -1       852 1.99425E+01 1.95339E-01-8.91971E-07 1.76268E-01-1.28190E-13-2.16464E-13
 -1       853 1.99105E+01 2.51735E-01-9.11640E-07 2.29187E-01-2.96393E-13-2.50389E-13
 -1       854 1.98691E+01 3.13511E-01-7.89462E-07 2.96225E-01-1.43329E-13-1.84706E-13
 -1       855 1.98167E+01 3.78169E-01-3.82105E-07 3.79093E-01-1.17243E-13-1.00893E-13
 -1       856 1.97523E+01 4.40955E-01 5.78679E-07 4.79442E-01 4.43931E-14-2.61327E-13
 -1       857 1.96764E+01 4.93879E-01 2.63733E-06 5.98841E-01 4.64131E-14-2.41895E-13
 -1       858 1.95918E+01 5.24465E-01 6.87243E-06 7.38829E-01 1.25101E-13-3.44518E-13
 -1       859 1.95057E+01 5.14209E-01 1.49173E-05 9.01089E-01-1.43350E-14-3.09985E-13
 -1       860 1.94325E+01 4.36813E-01 2.73853E-05 1.08766E+00-1.00130E-13-3.12358E-13
 -1       861 1.93984E+01 2.56402E-01 4.02107E-05 1.30082E+00-2.52252E-13-2.96105E-13
 -1       862 1.94481E+01-7.37829E-02 3.55950E-05 1.54151E+00 2.34648E-13-2.23446E-13
 -1       863 1.96553E+01-6.10371E-01 3.19430E-05 1.80310E+00 1.33436E-13-2.64021E-13
 -1       864 2.01383E+01-1.41445E+00 3.67116E-04 2.05716E+00 1.45577E-13-2.46281E-13
 -1       865 2.10725E+01-2.50757E+00 1.09169E-03 2.18948E+00-8.04127E-14-1.86816E-13
 -1       866 2.26563E+01-3.80036E+00 1.14701E-02 2.01894E+00-6.11405E-14-9.17040E-14
 -1       867 2.01919E+01 1.11845E-02-1.45108E-06-1.41801E-01-4.74464E-14-1.19950E-13
 -1       868 2.00610E+01-7.15543E-02-1.35787E-06-1.06202E-01-6.22885E-14 2.03283E-14
 -1       869 2.02302E+01 9.60905E-02 6.96703E-07-1.09495E-01-2.84560E-15-1.05722E-13
 -1       870 1.96940E+01-2.84029E+00 2.44663E-02-3.43363E+00-2.18720E-13 2.83678E-13
 -1       871 2.00782E+01-7.87388E-02-2.33696E-06-1.22025E-01 2.00475E-14 3.56481E-14
 -1       872 2.00366E+01-4.34082E-02 1.12837E-06-8.05232E-02 1.98953E-14 1.14070E-13
 -1       873 2.00280E+01-2.44816E-02 9.50148E-09-7.33837E-02 3.46938E-14 1.84703E-13
 -1       874 2.00208E+01-2.57736E-03 1.24295E-07-7.14281E-02-3.71784E-14 1.24795E-13
 -1       875 2.00140E+01 2.26791E-02 3.15721E-07-7.56271E-02-4.57445E-14 2.41439E-14
 -1       876 2.00067E+01 5.20185E-02 7.21555E-07-8.70192E-02-1.16229E-13 1.51352E-13
 -1       877 1.99978E+01 8.64140E-02 1.30918E-06-1.06790E-01-9.13404E-14 7.31721E-14
 -1       878 1.99858E+01 1.26981E-01 2.10314E-06-1.36307E-01-9.22144E-14 2.01082E-14
 -1       879 1.99691E+01 1.74858E-01 3.17106E-06-1.77117E-01-5.69447E-14 3.85356E-14
 -1       880 1.99455E+01 2.31033E-01 4.62132E-06-2.30918E-01 2.01027E-14-2.89304E-14
 -1       881 1.99124E+01 2.96103E-01 6.61960E-06-2.99480E-01 5.08847E-14-1.36182E-13
 -1       882 1.98667E+01 3.69902E-01 9.42722E-06-3.84541E-01 2.73270E-14-3.29646E-14
 -1       883 1.98046E+01 4.50937E-01 1.34678E-05-4.87688E-01-4.63185E-14 4.25417E-14
 -1       884 1.97219E+01 5.35538E-01 1.94303E-05-6.10273E-01-5.80648E-14 8.43546E-14
 -1       885 1.96145E+01 6.16590E-01 2.83488E-05-7.53480E-01 1.94057E-14-2.42307E-13
 -1       886 1.94795E+01 6.81653E-01 4.11501E-05-9.18715E-01-5.47249E-14-2.51400E-13
 -1       887 1.93168E+01 7.10267E-01 5.52777E-05-1.10857E+00-2.55379E-13-1.86644E-13
 -1       888 1.91334E+01 6.70195E-01 4.99133E-05-1.32862E+00-1.73444E-13-2.74304E-13
 -1       889 1.89500E+01 5.12598E-01 3.27388E-06-1.59001E+00 4.56303E-15-1.98398E-13
 -1       890 1.88119E+01 1.66471E-01-5.99759E-05-1.91192E+00-4.66684E-15-3.09035E-13
 -1       891 1.88104E+01-4.74909E-01 3.58716E-05-2.32726E+00 8.09494E-14-1.74110E-13
 -1       892 1.89853E+01-1.44002E+00 8.07114E-04-2.83663E+00-4.94296E-14 1.96583E-14
 -1       893 1.43475E+01-1.25031E+00 4.87250E-02-3.58642E+00-9.70821E-14 3.51177E-14
 -1       894 2.03320E+01 7.28278E-01-1.08698E-05-1.88980E-01-1.51598E-14-2.01750E-13
 -1       895 2.02430E+01 1.44558E+00-9.62520E-05-4.88146E-01-5.93679E-16-2.34562E-13
 -1       896 2.00474E+01-5.93204E-02 9.10546E-07-9.18542E-02-4.54144E-15 9.91040E-14
 -1       897 2.01008E+01 2.00546E+00-4.24048E-04-1.81935E-01 3.99172E-14-2.54569E-13
 -1       898 2.00997E+01-7.85169E-02-1.91715E-06-1.37205E-01 3.67562E-14-3.86362E-14
 -1       899 2.03295E+01 4.30080E-01-4.56351E-05-4.65761E-02-3.03560E-14-1.53694E-13
 -1       900 2.02971E+01 9.01820E-01-1.14797E-04 3.76270E-01 1.44197E-13-7.73154E-14
 -1       901 2.06530E+01-3.54966E+00 1.87334E-02 3.40769E+00-9.27262E-14-3.04119E-13
 -1       902 1.63577E+01-1.44997E+00 1.62720E-02 3.60277E+00-1.58223E-13-1.21746E-13
 -1       903 2.03069E+01 1.04311E+00-2.77273E-05-3.26219E-01 7.60319E-15-2.25923E-13
 -1       904 2.02682E+01 2.29184E-01 2.59718E-05-4.50670E-02 8.43669E-14-1.26404E-13
 -1       905 2.02744E+01 1.40574E+00 9.37185E-06 6.94861E-02 6.51505E-14-2.52476E-13
 -1       906 2.03015E+01 4.27662E-01-2.29648E-04 6.47756E-02 1.31335E-13-1.08427E-13
 -1       907 1.24978E+01 3.97394E-01 2.74317E-02 3.78202E-01-5.21966E-14-2.61676E-13
 -1       908 2.02046E+01 1.63560E+00-1.78509E-04-3.56994E-01 1.64801E-15-2.03099E-13
 -1       909 2.01258E+01-6.72940E-02-1.85764E-06-1.48692E-01-7.54919E-15-4.96149E-14
 -1       910 2.02853E+01 1.33872E+00 1.82359E-05 1.98181E-01 8.59515E-14-1.97916E-13
 -1       911 2.01566E+01-3.98573E-02-1.32765E-06-1.52205E-01-3.32398E-14-6.77622E-14
 -1       912 1.51371E+01-4.48968E-01 2.32061E-02 2.78264E+00-1.26586E-13-2.88539E-13
 -1       913 2.02741E+01 1.40812E+00 1.82031E-04-6.74410E-02 3.79867E-14-2.27389E-13
 -1       914 2.03000E+01 7.60958E-02 7.11938E-06-9.52065E-02 2.15817E-14-1.11091E-13
 -1       915 2.03233E+01 6.54581E-02-5.30716E-06 8.50866E-02-1.31215E-14-1.31399E-13
 -1       916 2.02818E+01-1.72681E-02-2.38333E-06 1.01160E-01-1.06675E-14-1.42941E-13
 -1       917 2.02393E+01-6.53474E-02 8.44924E-07 1.04568E-01 1.43669E-14-1.42294E-13
 -1       918 2.01990E+01-8.90127E-02 2.12773E-06 1.00097E-01-3.91130E-14-6.93258E-14
 -1       919 2.01625E+01-9.56967E-02 3.05260E-06 9.13981E-02-4.95714E-14-1.02605E-13
 -1       920 2.01306E+01-9.08628E-02 1.57003E-07 8.10975E-02 1.73843E-14-1.15323E-13
 -1       921 2.01032E+01-7.80855E-02 5.95490E-07 7.10694E-02-8.09327E-15-1.19926E-13
 -1       922 2.00796E+01-5.96323E-02 4.60442E-07 6.27111E-02-8.86596E-14-1.90061E-13
 -1       923 2.00591E+01-3.67884E-02-4.28022E-07 5.70357E-02-5.59438E-14-1.66898E-13
 -1       924 2.00403E+01-9.94944E-03-8.22576E-07 5.48757E-02-8.95155E-14-1.68604E-13
 -1       925 2.00218E+01 2.10547E-02-1.58769E-06 5.70167E-02 3.94225E-14-1.45900E-13
 -1       926 2.00021E+01 5.68183E-02-2.82517E-06 6.42531E-02 2.05760E-14-9.59610E-15
 -1       927 1.99792E+01 9.82048E-02-4.51079E-06 7.74687E-02-8.58820E-14-4.41550E-14
 -1       928 1.99509E+01 1.46165E-01-6.67611E-06 9.76888E-02-7.37215E-14-6.90262E-14
 -1       929 1.99149E+01 2.01524E-01-9.40317E-06 1.26110E-01-1.37622E-13-2.22329E-13
 -1       930 1.98684E+01 2.64711E-01-1.28073E-05 1.64117E-01-1.63359E-13-2.72624E-13
 -1       931 1.98085E+01 3.35404E-01-1.70366E-05 2.13300E-01-1.46359E-13-7.53854E-14
 -1       932 1.97323E+01 4.12058E-01-2.22898E-05 2.75478E-01-1.00585E-13-1.01005E-13
 -1       933 1.96369E+01 4.91291E-01-2.88460E-05 3.52765E-01-1.52101E-13-2.91965E-14
 -1       934 1.95199E+01 5.67100E-01-3.70774E-05 4.47730E-01-5.45733E-14-1.35542E-13
 -1       935 1.93804E+01 6.29883E-01-4.73728E-05 5.63726E-01-5.75272E-15-3.34014E-13
 -1       936 1.92194E+01 6.65263E-01-5.99789E-05 7.05506E-01 6.81247E-14-4.75636E-13
 -1       937 1.90417E+01 6.52628E-01-7.54255E-05 8.80253E-01-4.31128E-15-3.00064E-13
 -1       938 1.88585E+01 5.63325E-01-9.59471E-05 1.09903E+00-4.01780E-14-1.23144E-13
 -1       939 1.86917E+01 3.58426E-01-1.13209E-04 1.37843E+00 6.12346E-14 1.24775E-13
 -1       940 1.85818E+01-1.48768E-02-1.84717E-04 1.74244E+00 1.10511E-13-1.30487E-14
 -1       941 1.86096E+01-6.27346E-01 1.40126E-03 2.21130E+00 1.07406E-13-1.76937E-13
 -1       942 1.89035E+01-1.57082E+00 6.51723E-03 2.80695E+00 1.13802E-13-2.43233E-13
 -1       943 2.00239E+01 1.31052E-02 1.06931E-06-6.31054E-02 2.23870E-14-5.01411E-14
 -1       944 2.03178E+01 1.05598E+00-1.64623E-04 2.97896E-01 1.14941E-13-1.15074E-13
 -1       945 2.01183E+01-8.81113E-02 1.12966E-06-9.47369E-02-2.43618E-14-4.99750E-14
 -1       946 2.00390E+01-1.53050E-02 1.35883E-06-6.18744E-02 6.18777E-14 1.49680E-14
 -1       947 2.00549E+01-3.98521E-02 2.19233E-06-6.53441E-02 2.12721E-14-2.32777E-14
 -1       948 2.00081E+01 4.60339E-02-1.29204E-07-6.98665E-02-1.42832E-13-2.70723E-14
 -1       949 1.99898E+01 8.44441E-02-1.36224E-06-8.30750E-02-5.51705E-14-3.93077E-14
 -1       950 1.99671E+01 1.29520E-01-2.66856E-06-1.03746E-01-7.50546E-14 5.09108E-14
 -1       951 1.99374E+01 1.82532E-01-4.07648E-06-1.33007E-01-4.27620E-14-2.80088E-14
 -1       952 1.98979E+01 2.44661E-01-5.60408E-06-1.72071E-01-7.02158E-14-1.93062E-13
 -1       953 1.98450E+01 3.16770E-01-7.26015E-06-2.22185E-01 9.54277E-15-4.29344E-14
 -1       954 1.97746E+01 3.99080E-01-9.04835E-06-2.84549E-01 3.62996E-14-1.91889E-14
 -1       955 1.96817E+01 4.90726E-01-1.09959E-05-3.60244E-01-1.33697E-13 4.47861E-14
 -1       956 1.95605E+01 5.89121E-01-1.32452E-05-4.50214E-01 5.62249E-14 1.00037E-14
 -1       957 1.94044E+01 6.89099E-01-1.62974E-05-5.55419E-01 5.45975E-14-5.61838E-14
 -1       958 1.92063E+01 7.81743E-01-2.16563E-05-6.77361E-01-6.99996E-14 5.13670E-14
 -1       959 1.89587E+01 8.52813E-01-3.40551E-05-8.19320E-01-2.35325E-13 6.32460E-14
 -1       960 1.86551E+01 8.80543E-01-6.96659E-05-9.88829E-01-1.82372E-13-3.65030E-14
 -1       961 1.82911E+01 8.32507E-01-1.68355E-04-1.20159E+00-4.94368E-14-1.05586E-13
 -1       962 1.78669E+01 6.61694E-01-6.24719E-04-1.48872E+00 3.03179E-14-5.52538E-14
 -1       963 1.73981E+01 2.94807E-01 6.82693E-04-1.90554E+00-1.46483E-13-8.09953E-14
 -1       964 2.03354E+01 2.08450E-01-2.09879E-05-5.19248E-02 5.50031E-14-4.46758E-14
 -1       965 2.01476E+01-9.13042E-02 3.53582E-07-1.06711E-01 2.82883E-14-3.88689E-14
 -1       966 2.03795E+01 3.91705E-01-5.25955E-05-9.68552E-03-2.97243E-14-1.53143E-13
 -1       967 2.03026E+01 6.37414E-01 3.41761E-05 1.94552E-01 1.45245E-13-9.83878E-14
 -1       968 1.39964E+01 1.45974E-01 2.43323E-02-1.87300E+00-1.44418E-13-2.17035E-13
 -1       969 2.03739E+01 6.75629E-01-1.60677E-04-1.02982E-01-9.17212E-15-1.72996E-13
 -1       970 2.03586E+01 1.96180E-01 1.61556E-05 5.03189E-02-4.86326E-14-1.11004E-13
 -1       971 1.64504E+01-7.33640E-01 2.47704E-02-2.90331E+00-1.11905E-13-9.34008E-15
 -1       972 2.02597E+01-8.12957E-03 9.21429E-06-1.15797E-01-6.02796E-14-1.53330E-13
 -1       973 2.03016E+01 1.21308E+00-1.38071E-04-2.49290E-01 4.22997E-14-2.00837E-13
 -1       974 2.01813E+01-8.29132E-02 6.19885E-06-1.16513E-01-1.33200E-15-3.17986E-14
 -1       975 2.03603E+01 4.05484E-01 3.48127E-04 2.31883E-02 1.10784E-13-4.31974E-14
 -1       976 1.45677E+01 2.82404E-01 1.27990E-02 1.74631E+00-1.68715E-14 1.33220E-14
 -1       977 2.02363E+01 1.53763E+00 1.38159E-04-1.97933E-01 2.52436E-14-2.19857E-13
 -1       978 2.03486E+01 9.24900E-01 8.73485E-04-1.73392E-01 3.38939E-14-1.86085E-13
 -1       979 1.69329E+01-1.12606E-01 3.56458E-03-2.32607E+00-2.23426E-14 1.86875E-14
 -1       980 2.02192E+01-5.77130E-02 1.00880E-05-1.20977E-01-4.75427E-14-1.11919E-13
 -1       981 2.00727E+01-6.05895E-02 6.92139E-06-7.26192E-02-1.77648E-14 7.04668E-15
 -1       982 2.00936E+01-7.71434E-02 7.51448E-06-8.28645E-02-7.18440E-14-1.65822E-15
 -1       983 2.03676E+01 9.98055E-01 5.36186E-05 2.29207E-04 1.26995E-14-2.24190E-13
 -1       984 2.03663E+01 9.72128E-01-1.04498E-04 7.94746E-02 4.60810E-14-1.93110E-13
 -1       985 1.72429E+01-6.33211E-01 6.20931E-03 2.62397E+00 1.39208E-13-3.60407E-14
 -1       986 2.03409E+01 4.48827E-02-1.72507E-05-7.24996E-02 1.26184E-14-3.08476E-14
 -1       987 2.03590E+01 8.47583E-01-4.82075E-05 1.68396E-01 1.05457E-13-9.95703E-14
 -1       988 2.03077E+01-4.22476E-02-1.38414E-05 6.56793E-02 2.81826E-14-8.64525E-14
 -1       989 2.02618E+01-8.26802E-02-6.61512E-06 6.58745E-02 4.48913E-15-1.81451E-13
 -1       990 2.02182E+01-1.00183E-01 1.00701E-05 6.18983E-02-4.95381E-14-1.27013E-13
 -1       991 2.01783E+01-1.01726E-01-3.67647E-06 5.60667E-02 3.03134E-14-6.63760E-14
 -1       992 2.01430E+01-9.24323E-02 1.84662E-06 4.95864E-02-4.79279E-14-1.19518E-13
 -1       993 2.01121E+01-7.54276E-02 7.31749E-08 4.37208E-02-7.83592E-14-1.81980E-13
 -1       994 2.00848E+01-5.27582E-02-1.02495E-06 3.92930E-02-1.41360E-14-1.82710E-13
 -1       995 2.00601E+01-2.53957E-02-3.34430E-07 3.67888E-02-5.48182E-14-1.54774E-13
 -1       996 2.00363E+01 6.59403E-03-4.90916E-06 3.68787E-02-4.13686E-16-8.56320E-14
 -1       997 2.00116E+01 4.35777E-02-9.46028E-06 4.00724E-02 6.78860E-14-1.29962E-13
 -1       998 1.99838E+01 8.63885E-02-1.52049E-05 4.69482E-02-4.91729E-14-2.33683E-13
 -1       999 1.99506E+01 1.36074E-01-2.21234E-05 5.81926E-02-9.72241E-14-1.90330E-13
 -1      1000 1.99089E+01 1.93695E-01-3.03132E-05 7.46310E-02-1.51201E-13-1.57838E-13
 -1      1001 1.98556E+01 2.60091E-01-3.99127E-05 9.72678E-02-1.52781E-13-4.51281E-14
 -1      1002 1.97870E+01 3.35569E-01-5.10964E-05 1.27334E-01-1.06379E-13-9.71105E-14
 -1      1003 1.96992E+01 4.19516E-01-6.41223E-05 1.66354E-01-7.93882E-14-5.93114E-14
 -1      1004 1.95880E+01 5.09907E-01-7.94626E-05 2.16264E-01-1.30470E-13-1.03190E-14
 -1      1005 1.94489E+01 6.02695E-01-9.80710E-05 2.79607E-01-1.48362E-13-1.04689E-13
 -1      1006 1.92776E+01 6.91109E-01-1.21882E-04 3.59887E-01-1.90421E-13-1.01289E-13
 -1      1007 1.90702E+01 7.64857E-01-1.54732E-04 4.62195E-01-6.86223E-14-1.97695E-13
 -1      1008 1.88232E+01 8.09270E-01-2.04540E-04 5.94280E-01 1.48873E-13-2.86266E-13
 -1      1009 1.85340E+01 8.04290E-01-2.93261E-04 7.68389E-01 8.95315E-14-1.73324E-13
 -1      1010 1.82017E+01 7.22836E-01-4.48414E-04 1.00404E+00 1.03603E-13-6.25652E-14
 -1      1011 1.78285E+01 5.29412E-01-6.71151E-04 1.33144E+00 2.33440E-14-8.66224E-14
 -1      1012 1.74257E+01 1.73486E-01-8.09588E-04 1.79416E+00-2.56217E-14-1.04269E-13
 -1      1013 1.99926E+01 7.44199E-02-8.64990E-06-5.61192E-02-1.07937E-13-5.07855E-14
 -1      1014 2.00170E+01 3.40718E-02-3.64907E-06-4.88599E-02-1.70618E-14 4.85485E-14
 -1      1015 2.00607E+01-3.05405E-02 6.09149E-06-4.65895E-02-2.80044E-14-7.91968E-14
 -1      1016 1.99634E+01 1.21558E-01-1.43710E-05-6.83050E-02-6.22200E-14-1.95416E-13
 -1      1017 1.99266E+01 1.76799E-01-2.08363E-05-8.61110E-02-9.74428E-14-1.67371E-13
 -1      1018 1.98788E+01 2.41433E-01-2.81245E-05-1.10254E-01 1.04165E-13-1.02143E-13
 -1      1019 1.98163E+01 3.16507E-01-3.63443E-05-1.41426E-01-1.62866E-13-1.53342E-13
 -1      1020 1.97342E+01 4.02534E-01-4.56629E-05-1.80219E-01-1.87494E-13 5.99625E-14
 -1      1021 1.96271E+01 4.99121E-01-5.64242E-05-2.27052E-01-9.33162E-14 1.96699E-13
 -1      1022 1.94886E+01 6.04484E-01-6.94500E-05-2.82117E-01 2.92150E-14 6.46462E-14
 -1      1023 1.93110E+01 7.14861E-01-8.67312E-05-3.45429E-01 8.90095E-14 9.55068E-14
 -1      1024 1.90854E+01 8.23811E-01-1.12851E-04-4.17106E-01-7.07029E-14 2.44418E-13
 -1      1025 1.88005E+01 9.21470E-01-1.57164E-04-4.98116E-01-1.45336E-13 1.44599E-13
 -1      1026 1.84421E+01 9.93823E-01-2.34972E-04-5.91900E-01-1.22507E-13 6.95578E-14
 -1      1027 1.79905E+01 1.02179E+00-4.07174E-04-7.07901E-01-2.77239E-14-1.44208E-14
 -1      1028 1.74205E+01 9.77004E-01-6.13218E-04-8.67316E-01 1.14681E-13-1.86250E-13
 -1      1029 1.66845E+01 8.34628E-01 2.34675E-03-1.10345E+00-4.31720E-14-3.26601E-13
 -1      1030 2.03774E+01 1.68253E-01-2.07738E-05-4.82413E-02 7.85665E-14-4.08934E-14
 -1      1031 2.01727E+01-9.96180E-02-4.64457E-06-7.22023E-02 9.98294E-15-6.39650E-14
 -1      1032 2.00390E+01-6.43267E-04 5.33410E-07-4.58809E-02 2.06849E-14 1.27068E-14
 -1      1033 2.04074E+01 5.89574E-01 3.39005E-04-4.09126E-02 1.68905E-14-2.50925E-13
 -1      1034 1.42773E+01 7.16505E-01 1.05808E-02-3.63835E-01-1.32599E-13-3.51812E-13
 -1      1035 2.03520E+01 3.08231E-02-2.97013E-05 5.87445E-02-3.24126E-14-1.07811E-13
 -1      1036 2.03894E+01 1.49216E-01-3.28207E-05 4.16314E-02-5.26502E-14-1.07739E-13
 -1      1037 2.04131E+01 3.24805E-01-4.59793E-04 8.81133E-03-1.80154E-14-1.93099E-13
 -1      1038 2.03671E+01 9.71613E-01-2.11035E-04-7.94438E-02 2.18607E-14-2.49339E-13
 -1      1039 2.02111E+01-9.58544E-02 4.70487E-06-7.97111E-02-1.33420E-15-1.34410E-13
 -1      1040 2.00838E+01-5.62393E-02-3.68125E-05-5.05408E-02-8.94667E-15-1.23360E-13
 -1      1041 2.04002E+01 3.52659E-01-2.01496E-04-3.59558E-03 7.27573E-14-6.87578E-14
 -1      1042 2.02979E+01-3.22049E-02 1.64972E-06-8.29255E-02-4.27708E-14-6.34413E-14
 -1      1043 1.59448E+01 6.51514E-01 6.94983E-04-1.31813E+00-2.26629E-13-2.91808E-13
 -1      1044 2.01389E+01-9.20657E-02 2.95203E-05-6.40401E-02-9.36528E-14-3.94671E-14
 -1      1045 2.04259E+01 6.17953E-01 7.12500E-05-1.15596E-02 2.75275E-14-2.15389E-13
 -1      1046 1.62340E+01 2.00339E-01 1.15191E-03 1.87679E+00 9.87196E-14-1.09118E-13
 -1      1047 2.04227E+01 6.20520E-01 6.15804E-04 2.09995E-02 5.24070E-14-1.57688E-13
 -1      1048 2.03101E+01-6.53955E-02 7.71980E-05 2.58028E-02-5.07464E-14-1.48649E-13
 -1      1049 2.02612E+01-9.55021E-02-4.01414E-05 2.51356E-02-4.20165E-14-1.45136E-13
 -1      1050 2.02170E+01-1.06383E-01-1.42251E-05 2.30097E-02-5.25132E-15-2.22080E-13
 -1      1051 2.01765E+01-1.02111E-01-1.73818E-05 2.06499E-02 1.03656E-14-2.42622E-13
 -1      1052 2.01400E+01-8.81107E-02 8.20127E-06 1.84507E-02-4.07697E-14-1.56656E-13
 -1      1053 2.01084E+01-6.75896E-02 1.51203E-05 1.61488E-02-3.31533E-14-9.95762E-14
 -1      1054 2.00797E+01-4.12020E-02-1.92721E-06 1.47722E-02-1.00326E-14-1.34425E-13
 -1      1055 2.00525E+01-9.80340E-03 1.38693E-05 1.45188E-02-1.47524E-15-1.78372E-13
 -1      1056 2.00252E+01 2.66076E-02 1.30818E-05 1.53233E-02-4.12736E-14-2.20929E-13
 -1      1057 1.99956E+01 6.88051E-02 1.42352E-05 1.75337E-02-5.58067E-14-2.82286E-13
 -1      1058 1.99611E+01 1.17821E-01 1.71903E-05 2.14789E-02-4.63821E-14-2.76084E-13
 -1      1059 1.99186E+01 1.74845E-01 2.21243E-05 2.75694E-02-6.97703E-14-2.22990E-13
 -1      1060 1.98648E+01 2.41006E-01 2.93981E-05 3.63461E-02-9.63406E-15-2.21741E-13
 -1      1061 1.97956E+01 3.17116E-01 3.96007E-05 4.85363E-02-1.60575E-13-1.51696E-13
 -1      1062 1.97066E+01 4.03344E-01 5.36712E-05 6.51323E-02-1.12132E-13-2.05258E-13
 -1      1063 1.95927E+01 4.98818E-01 7.31221E-05 8.75065E-02-1.31802E-13-2.50930E-13
 -1      1064 1.94483E+01 6.01147E-01 1.00420E-04 1.17585E-01-2.32789E-13-2.07239E-13
 -1      1065 1.92672E+01 7.05893E-01 1.39561E-04 1.58116E-01-1.69769E-13-1.87364E-13
 -1      1066 1.90422E+01 8.06027E-01 1.96621E-04 2.13084E-01-7.83730E-14-5.30325E-15
 -1      1067 1.87650E+01 8.91462E-01 2.78954E-04 2.88368E-01 7.10571E-14 1.53368E-13
 -1      1068 1.84246E+01 9.48750E-01 3.87512E-04 3.92772E-01 3.22844E-14 7.60516E-14
 -1      1069 1.80055E+01 9.60970E-01 4.74045E-04 5.39623E-01-3.07617E-14-5.52569E-14
 -1      1070 1.74836E+01 9.04585E-01-5.65650E-04 7.50953E-01 7.47359E-14-8.55895E-14
 -1      1071 1.68569E+01 7.59270E-01 2.85155E-03 1.04499E+00 1.23421E-14-1.53071E-13
 -1      1072 1.99315E+01 1.60415E-01-5.06763E-06-4.12787E-02-6.75937E-14-4.56610E-14
 -1      1073 1.99707E+01 1.05550E-01-2.70903E-06-3.35816E-02-2.78316E-14-3.96625E-16
 -1      1074 1.98172E+01 2.98856E-01-1.77041E-05-6.55701E-02-6.14588E-14 3.72219E-14
 -1      1075 1.97335E+01 3.84266E-01-2.97710E-05-8.23523E-02-1.86761E-13-1.92685E-14
 -1      1076 1.96251E+01 4.80612E-01-4.72693E-05-1.02011E-01-1.83753E-13-1.65781E-13
 -1      1077 1.94857E+01 5.86607E-01-7.18838E-05-1.23984E-01-6.07891E-14-3.03095E-14
 -1      1078 1.93077E+01 6.99297E-01-1.06099E-04-1.47278E-01 1.44416E-14 1.46653E-13
 -1      1079 1.90823E+01 8.13567E-01-1.54215E-04-1.70444E-01-6.92147E-14 3.68075E-13
 -1      1080 1.87983E+01 9.21719E-01-2.24595E-04-1.91687E-01-5.26746E-16 1.98478E-13
 -1      1081 1.84406E+01 1.01325E+00-3.31247E-04-2.09197E-01-8.36466E-14 9.01286E-14
 -1      1082 1.79876E+01 1.07514E+00-4.63853E-04-2.21745E-01 2.69609E-14 4.46361E-15
 -1      1083 1.74044E+01 1.09472E+00-1.47467E-04-2.28953E-01-3.91802E-15 5.69298E-15
 -1      1084 1.66179E+01 1.05845E+00-2.83620E-03-2.57748E-01 2.07446E-13 1.59985E-13
 -1      1085 2.00306E+01 1.81882E-02-2.42221E-06-2.58761E-02-5.83246E-14 1.88498E-15
 -1      1086 2.03972E+01 1.17338E-01-1.16518E-05-3.09721E-02 5.73452E-14-1.33274E-13
 -1      1087 1.98816E+01 2.24470E-01-9.80130E-06-5.18853E-02-8.25050E-14-5.82016E-14
 -1      1088 2.00028E+01 5.85635E-02-2.06686E-06-2.85439E-02-2.28591E-14 3.08686E-14
 -1      1089 1.56849E+01 9.07349E-01 7.11567E-03-1.92676E-01 5.66646E-14-6.77737E-14
 -1      1090 2.02535E+01-7.58049E-02 1.06890E-05-8.40594E-02-2.82329E-14-1.29971E-13
 -1      1091 2.03986E+01 9.48452E-02 6.89958E-05 1.97454E-02-2.78775E-15-1.02406E-13
 -1      1092 2.03571E+01-5.59306E-03 8.35854E-05 2.43567E-02-2.60018E-15-9.00411E-14
 -1      1093 2.00567E+01-1.66118E-02 9.83273E-07-2.52654E-02-9.08869E-14-7.92227E-14
 -1      1094 1.55107E+01 7.49120E-01-3.46603E-03 8.94635E-01 7.39797E-14 5.19144E-14
 -1      1095 2.01096E+01-7.70667E-02-2.92058E-05-5.66450E-02 2.60126E-14-1.24914E-13
 -1      1096 2.03991E+01 6.10141E-01-2.45240E-04 5.42380E-02 8.41683E-14-1.01321E-13
 -1      1097 2.00830E+01-4.64226E-02 2.67101E-05-2.63711E-02-4.12427E-14-7.74160E-14
 -1      1098 2.04237E+01 2.78467E-01-4.44621E-04-1.03613E-02 5.76525E-14-1.41874E-13
 -1      1099 2.03575E+01 9.10808E-03-1.39732E-05-4.08979E-02 1.77770E-15-1.27433E-13
 -1      1100 2.04278E+01 2.49876E-01 4.30557E-04 1.03567E-02 2.70203E-14-1.72889E-13
 -1      1101 2.02175E+01-1.03811E-01-8.88363E-05-4.12616E-02-1.48144E-14-8.17939E-14
 -1      1102 2.01793E+01-1.03386E-01-2.84914E-05-3.71700E-02-2.19814E-14-6.41960E-14
 -1      1103 2.02417E+01-1.03582E-01 2.56771E-04-1.48491E-02-7.00433E-14-9.29411E-14
 -1      1104 2.01257E+01-7.92021E-02 3.70384E-05-1.10576E-02 2.01317E-14-1.24884E-13
 -1      1105 2.03115E+01-5.65040E-02-2.19773E-05-4.46463E-02-2.19838E-14-9.22857E-14
 -1      1106 2.02645E+01-9.16173E-02-8.96468E-05-4.39613E-02-3.21346E-14-5.86102E-14
 -1      1107 2.01524E+01-9.41985E-02-3.44622E-05-2.29848E-02 2.12938E-14-1.34378E-13
 -1      1108 2.79642E+01 9.08690E+00 2.32535E+00-6.69814E+00-3.68039E-14 8.57620E-13
 -1      1109 2.05486E+01 6.22753E+00 2.09796E-01-3.90365E+00-1.83742E-14-2.00812E-14
 -1      1110 1.94354E+01 5.85326E+00 7.54074E-02-2.88753E+00-1.11161E-14-3.59369E-13
 -1      1111 1.90262E+01 5.72597E+00 6.03196E-02-2.23451E+00-6.50521E-15-5.10073E-13
 -1      1112 1.88394E+01 5.66907E+00 5.75138E-02-1.70110E+00-3.42434E-15-5.72644E-13
 -1      1113 1.87456E+01 5.64035E+00 5.55599E-02-1.23386E+00-1.06252E-15-5.91890E-13
 -1      1114 1.86964E+01 5.62506E+00 5.37814E-02-8.04097E-01 3.12250E-16-5.88174E-13
 -1      1115 1.86722E+01 5.61740E+00 5.25061E-02-3.92705E-01 1.77636E-15-5.65676E-13
 -1      1116 1.86652E+01 5.61520E+00 5.21015E-02 8.48479E-03 1.98550E-15-5.41314E-13
 -1      1117 1.86732E+01 5.61774E+00 5.26146E-02 4.10083E-01 4.55387E-15-5.04632E-13
 -1      1118 1.86985E+01 5.62575E+00 5.40080E-02 8.22801E-01 5.83951E-15-4.61774E-13
 -1      1119 1.87494E+01 5.64171E+00 5.62236E-02 1.25513E+00 7.15487E-15-4.00254E-13
 -1      1120 1.88450E+01 5.67104E+00 5.84446E-02 1.72686E+00 9.03271E-15-3.09674E-13
 -1      1121 1.90318E+01 5.72768E+00 6.04094E-02 2.26791E+00 1.23790E-14-1.68556E-13
 -1      1122 1.94319E+01 5.85034E+00 6.92453E-02 2.92810E+00 1.40998E-14 8.45834E-14
 -1      1123 2.04547E+01 6.18242E+00 1.53340E-01 3.87825E+00 1.35170E-14 5.40512E-13
 -1      1124 2.52185E+01 7.99473E+00 1.43047E+00 5.84630E+00 2.18714E-14 1.41609E-12
 -1      1125 2.88139E+01 3.61631E+00 1.27118E+00-4.21701E+00-1.46716E-13 1.39944E-12
 -1      1126 2.02295E+01-1.77739E-01-6.16321E-01-1.09855E-01-5.04805E-14 1.04977E-12
 -1      1127 1.88358E+01-9.63614E-02-2.36352E-01 6.25259E-02-1.22055E-14 6.19187E-13
 -1      1128 1.85022E+01-4.80937E-02-5.96303E-02 4.05219E-02-1.08902E-14 3.12417E-13
 -1      1129 1.84476E+01-2.46116E-02-1.52076E-02 2.68200E-02-8.69487E-15 7.37917E-14
 -1      1130 1.85300E+01-1.30529E-02-4.97159E-03 1.90900E-02-6.22289E-15-3.55618E-14
 -1      1131 1.86774E+01-6.60541E-03-1.46989E-03 1.41456E-02-1.39504E-15-1.40294E-13
 -1      1132 1.88504E+01-2.83005E-03 5.72493E-04 1.07206E-02-1.34034E-14-2.43791E-13
 -1      1133 1.90265E+01-5.89145E-04 1.89953E-03 8.18806E-03-2.33880E-14-3.94486E-13
 -1      1134 1.91927E+01 7.14492E-04 2.65601E-03 6.23798E-03-7.56082E-16-5.58333E-13
 -1      1135 1.93423E+01 1.42228E-03 2.97694E-03 4.70561E-03 2.82863E-14-5.75613E-13
 -1      1136 1.94720E+01 1.74401E-03 2.99601E-03 3.49224E-03 5.23561E-15-4.99361E-13
 -1      1137 1.95815E+01 1.81516E-03 2.82066E-03 2.53096E-03-2.79320E-15-6.20754E-13
 -1      1138 1.96715E+01 1.72529E-03 2.52780E-03 1.77182E-03 1.45908E-14-6.12250E-13
 -1      1139 1.97439E+01 1.53329E-03 2.16841E-03 1.17531E-03 1.91064E-16-5.54025E-13
 -1      1140 1.98012E+01 1.27623E-03 1.77313E-03 7.09478E-04-2.08106E-14-5.73641E-13
 -1      1141 1.98461E+01 9.75013E-04 1.35675E-03 3.48785E-04-5.29299E-15-7.85837E-13
 -1      1142 1.98815E+01 6.38355E-04 9.21582E-04 7.37241E-05 3.97815E-14-6.53059E-13
 -1      1143 1.99104E+01 2.65638E-04 4.60083E-04-1.29096E-04-1.89579E-14-7.58043E-13
 -1      1144 1.99363E+01-1.50782E-04-4.30989E-05-2.66567E-04 8.89039E-15-8.85682E-13
 -1      1145 1.99626E+01-6.23570E-04-6.09334E-04-3.38435E-04-4.59885E-16-8.52528E-13
 -1      1146 1.99935E+01-1.16836E-03-1.26418E-03-3.36385E-04-2.32361E-15-5.75121E-13
 -1      1147 2.00336E+01-1.80130E-03-2.03510E-03-2.42822E-04-5.90917E-15-4.96688E-13
 -1      1148 2.00884E+01-2.53563E-03-2.94799E-03-2.94176E-05-1.79595E-15-9.26062E-13
 -1      1149 2.01644E+01-3.37661E-03-4.02173E-03 3.44451E-04 1.73405E-14-9.23989E-13
 -1      1150 2.02693E+01-4.31376E-03-5.25896E-03 9.32927E-04 1.54061E-14-5.27771E-13
 -1      1151 2.04116E+01-5.30905E-03-6.63105E-03 1.80368E-03 1.46843E-14-4.38214E-13
 -1      1152 2.06010E+01-6.27913E-03-8.05365E-03 3.03486E-03-2.06650E-14-7.38978E-13
 -1      1153 2.08473E+01-7.06971E-03-9.34805E-03 4.70542E-03 7.55613E-15-7.99462E-13
 -1      1154 2.11591E+01-7.42064E-03-1.01832E-02 6.87242E-03 2.83248E-14-4.30007E-13
 -1      1155 2.15417E+01-6.92365E-03-9.99547E-03 9.52446E-03-7.87634E-14-4.25071E-13
 -1      1156 2.19930E+01-4.98313E-03-7.89673E-03 1.24950E-02 3.91870E-14-5.60845E-13
 -1      1157 2.24975E+01-8.09953E-04-2.61327E-03 1.53173E-02 1.84238E-14-5.42901E-13
 -1      1158 2.30178E+01 6.48521E-03 7.42561E-03 1.70140E-02 1.34030E-14-7.73505E-13
 -1      1159 2.34838E+01 1.75795E-02 2.36194E-02 1.58675E-02-5.95032E-15-1.10073E-12
 -1      1160 2.37840E+01 3.22483E-02 4.60339E-02 9.34585E-03 9.84638E-14-9.82612E-13
 -1      1161 2.37647E+01 4.82598E-02 7.13515E-02-5.40781E-03-2.70283E-14-6.44699E-13
 -1      1162 2.32527E+01 6.01040E-02 9.07028E-02-2.99858E-02-4.19109E-15-4.90073E-13
 -1      1163 2.21149E+01 5.91155E-02 8.97565E-02-6.17719E-02 6.17336E-14-2.54706E-13
 -1      1164 2.03568E+01 3.66984E-02 5.47237E-02-9.11322E-02 2.02963E-15-4.61575E-13
 -1      1165 1.82193E+01-7.77188E-03-1.47362E-02-1.02491E-01-1.93531E-14-7.10529E-13
 -1      1166 1.61831E+01-5.97544E-02-9.49756E-02-8.28023E-02 4.78203E-14-4.62116E-13
 -1      1167 1.48061E+01-9.31884E-02-1.45717E-01-3.38826E-02 4.00461E-14-1.83058E-13
 -1      1168 1.44417E+01-8.92598E-02-1.38974E-01 2.39847E-02-2.29131E-14-2.04687E-13
 -1      1169 1.50430E+01-5.38218E-02-8.39359E-02 6.51308E-02 1.44156E-15-1.44246E-13
 -1      1170 1.62254E+01-1.15882E-02-1.84417E-02 7.74933E-02 1.43117E-14 1.16310E-13
 -1      1171 1.75330E+01 1.56088E-02 2.44069E-02 6.85981E-02 1.27060E-14-8.19692E-14
 -1      1172 1.86762E+01 2.46860E-02 4.24854E-02 5.48873E-02 4.83650E-14 4.20608E-13
 -1      1173 1.95583E+01 2.96816E-02 6.42907E-02 4.38174E-02-3.83409E-14 3.01127E-13
 -1      1174 1.99765E+01 1.55480E-02 4.69632E-02 5.04173E-03 3.87298E-14 1.56223E-13
 -1      1175 2.77935E+01 5.25749E-01 3.76936E-01 1.96665E+00-2.47302E-14 2.11431E-12
 -1      1176 2.00870E+01-6.62510E-02-5.73636E-01 1.29450E-01 7.02216E-15 1.79576E-12
 -1      1177 1.89104E+01-4.06177E-02-1.93235E-01 1.94056E-02 1.00024E-14 1.47950E-12
 -1      1178 1.85312E+01-2.14344E-02-5.05759E-02 1.45309E-03 2.86446E-15 1.28996E-12
 -1      1179 1.84604E+01-1.24236E-02-1.34336E-02-4.08620E-03 1.60481E-14 1.10323E-12
 -1      1180 1.85363E+01-7.41687E-03-4.68949E-03-5.54744E-03 1.25234E-14 8.99964E-13
 -1      1181 1.86806E+01-4.33718E-03-1.95719E-03-5.74264E-03-3.65842E-15 8.66918E-13
 -1      1182 1.88520E+01-2.35992E-03-3.65382E-04-5.47006E-03 5.05970E-15 8.80128E-13
 -1      1183 1.90271E+01-1.07919E-03 7.62695E-04-4.98252E-03-7.10128E-15 7.78513E-13
 -1      1184 1.91928E+01-2.62578E-04 1.48657E-03-4.39379E-03 5.41315E-16 7.28892E-13
 -1      1185 1.93420E+01 2.37238E-04 1.87078E-03-3.77110E-03 1.03551E-14 6.63315E-13
 -1      1186 1.94717E+01 5.18828E-04 2.00363E-03-3.15678E-03 1.29110E-14 6.00691E-13
 -1      1187 1.95810E+01 6.49758E-04 1.96514E-03-2.57616E-03 6.52808E-15 4.44912E-13
 -1      1188 1.96710E+01 6.76368E-04 1.81581E-03-2.04234E-03-2.13807E-14 4.49334E-13
 -1      1189 1.97434E+01 6.29595E-04 1.59700E-03-1.55948E-03 2.30294E-14 2.43531E-13
 -1      1190 1.98006E+01 5.28643E-04 1.33408E-03-1.12535E-03-7.25253E-15 7.34306E-14
 -1      1191 1.98454E+01 3.83400E-04 1.03936E-03-7.33275E-04-4.14764E-14 1.91846E-13
 -1      1192 1.98807E+01 1.96078E-04 7.14212E-04-3.73653E-04 4.59165E-14 6.91601E-14
 -1      1193 1.99094E+01-3.76524E-05 3.50669E-04-3.53093E-05 1.51399E-14-1.32155E-13
 -1      1194 1.99349E+01-3.27908E-04-6.75388E-05 2.93405E-04-6.10766E-15 9.90226E-14
 -1      1195 1.99608E+01-6.90102E-04-5.64414E-04 6.23566E-04-7.59410E-15 3.60551E-13
 -1      1196 1.99912E+01-1.14458E-03-1.17150E-03 9.64544E-04-1.86530E-14 3.11717E-13
 -1      1197 2.00308E+01-1.71617E-03-1.92784E-03 1.32256E-03-1.67312E-14 9.93791E-15
 -1      1198 2.00855E+01-2.43326E-03-2.87988E-03 1.69854E-03 1.13623E-14-2.34700E-13
 -1      1199 2.01622E+01-3.32589E-03-4.08049E-03 2.08489E-03-4.45964E-14 2.33716E-13
 -1      1200 2.02695E+01-4.42151E-03-5.58614E-03 2.46010E-03 5.18486E-14 3.39177E-13
 -1      1201 2.04179E+01-5.73639E-03-7.44957E-03 2.78023E-03-1.72018E-14 3.77525E-13
 -1      1202 2.06199E+01-7.25883E-03-9.70312E-03 2.96509E-03 7.90622E-15 3.61539E-13
 -1      1203 2.08901E+01-8.91788E-03-1.23238E-02 2.87667E-03-4.24205E-14 5.41645E-13
 -1      1204 2.12450E+01-1.05279E-02-1.51637E-02 2.28757E-03 8.25349E-15 5.21793E-13
 -1      1205 2.17013E+01-1.16967E-02-1.78198E-02 8.39923E-04 9.75348E-16 2.91763E-13
 -1      1206 2.22734E+01-1.16897E-02-1.94103E-02-1.99385E-03 8.81380E-15 6.75463E-13
 -1      1207 2.29671E+01-9.26527E-03-1.82357E-02-6.90897E-03 1.97518E-14 6.59649E-13
 -1      1208 2.37689E+01-2.57392E-03-1.13944E-02-1.46248E-02-1.50469E-14 4.51965E-13
 -1      1209 2.46278E+01 1.06157E-02 5.32131E-03-2.54039E-02-1.78443E-14 6.23310E-13
 -1      1210 2.54301E+01 3.18444E-02 3.63992E-02-3.79592E-02-3.91972E-14 6.21322E-13
 -1      1211 2.59714E+01 5.94083E-02 8.29865E-02-4.76480E-02 2.79603E-14 3.79322E-13
 -1      1212 2.59477E+01 8.43415E-02 1.35629E-01-4.49222E-02 5.55788E-14 4.31113E-13
 -1      1213 2.50117E+01 8.89390E-02 1.67113E-01-1.74940E-02-4.24027E-14 3.29320E-13
 -1      1214 2.29477E+01 5.52473E-02 1.38240E-01 3.95993E-02 1.78850E-15-5.84949E-14
 -1      1215 1.99467E+01-1.47299E-02 2.79034E-02 1.09257E-01 1.55954E-14-8.07854E-13
 -1      1216 1.67817E+01-8.42622E-02-1.25963E-01 1.49730E-01-3.44065E-14-8.28615E-13
 -1      1217 1.45714E+01-1.04581E-01-2.26089E-01 1.24487E-01 3.57336E-14-6.80858E-13
 -1      1218 1.40906E+01-6.84928E-02-2.05927E-01 4.05815E-02-1.13781E-14-8.03836E-13
 -1      1219 1.51918E+01-1.28394E-02-9.29370E-02-4.67139E-02 4.35771E-14-8.72261E-13
 -1      1220 1.69636E+01 2.00750E-02 2.27833E-02-8.75721E-02 3.24688E-14-7.48637E-13
 -1      1221 1.84655E+01 1.88047E-02 7.05678E-02-7.51550E-02 3.90746E-15-8.47045E-13
 -1      1222 1.93171E+01 2.37517E-03 5.35726E-02-4.15751E-02-5.79337E-14-1.04314E-12
 -1      1223 1.97161E+01 4.89057E-03 3.69779E-02-2.82776E-02 7.76305E-14-9.86870E-13
 -1      1224 1.99539E+01 2.09081E-02 6.50386E-02-1.49015E-02-7.03829E-14-6.70032E-13
 -1      1225 2.00110E+01-5.44786E-02 3.85903E-02-2.17703E-02-5.78752E-13-9.65389E-14
 -1      1226 1.99574E+01-2.98169E-01-6.39366E-02-4.84061E-02-2.49321E-13-1.20086E-14
 -1      1227 1.98934E+01-1.38586E-01-1.73473E-01-1.31311E-02-4.25666E-14 8.26630E-14
 -1      1228 1.98543E+01 1.16970E+00-2.41610E-01 7.04524E-02 6.30968E-13 1.05338E-13
 -1      1229 1.98800E+01 4.08814E+00-2.01449E-01 1.78109E-01 1.02460E-12 3.04982E-14
 -1      1230 1.99925E+01 8.33034E+00-1.21353E-02 2.52916E-01 3.01342E-13 1.78790E-14
 -1      1231 2.01719E+01 1.26758E+01 2.70500E-01 2.25320E-01-4.55552E-13 3.18773E-14
 -1      1232 2.03040E+01 1.52638E+01 4.75229E-01 6.97876E-02-6.45803E-13-5.96433E-14
 -1      1233 2.02780E+01 1.46719E+01 4.37231E-01-1.31390E-01-1.50172E-13 8.47412E-14
 -1      1234 2.01197E+01 1.11611E+01 1.89944E-01-2.54307E-01 5.32130E-13 1.06835E-13
 -1      1235 1.99493E+01 6.40849E+00-8.23998E-02-2.47415E-01-3.78753E-13-2.23339E-13
 -1      1236 1.98571E+01 2.26673E+00-2.33741E-01-1.54706E-01-1.58468E-12 6.66255E-14
 -1      1237 1.98496E+01-3.24199E-01-2.45586E-01-5.28424E-02-2.09484E-12 5.05030E-14
 -1      1238 1.98902E+01-1.31350E+00-1.75087E-01 2.51644E-02-1.57810E-12 8.22085E-14
 -1      1239 1.99619E+01-1.13819E+00-7.05062E-02 6.50713E-02-1.01284E-12 1.11517E-13
 -1      1240 1.99932E+01-4.67218E-01 2.03751E-02 7.06058E-02-2.35319E-13-3.87563E-14
 -1      1241 1.99989E+01-3.90099E-02 3.05787E-02 2.04559E-02-6.74270E-14 1.16655E-13
 -1      1242-1.50533E+00-2.95870E+01-4.70485E+00-2.69969E+00-9.90097E-13-3.09003E-13
 -1      1243-2.14153E+00-1.88854E+01-3.77439E+00-4.98836E+00-1.31695E-12-3.73090E-13
 -1      1244 6.47708E-01-2.71289E+00-1.99990E+00 1.09893E-01-1.17661E-12-6.83231E-13
 -1      1245 1.16677E+01 9.79233E+00 6.42265E-02 1.05419E+01-4.81615E-13-4.95826E-13
 -1      1246 3.06921E+01 1.32707E+01 2.06637E+00 1.92405E+01-1.34781E-13-6.63913E-14
 -1      1247 5.29657E+01 9.42020E+00 3.63914E+00 2.03034E+01-2.22045E-16 6.97220E-14
 -1      1248 7.00235E+01 3.57120E+00 4.59587E+00 1.16146E+01 7.82152E-14 5.18474E-13
 -1      1249 7.29398E+01 1.92014E+00 4.70016E+00-3.03011E+00-9.45771E-15 3.15081E-13
 -1      1250 5.90439E+01 5.73683E+00 3.72633E+00-1.50211E+01-1.27121E-14 9.76996E-14
 -1      1251 3.70124E+01 1.01013E+01 2.20172E+00-1.81623E+01 2.58460E-13-4.51417E-13
 -1      1252 1.59568E+01 9.34676E+00 3.03967E-01-1.18304E+01 9.23484E-13-9.75664E-13
 -1      1253 2.43491E+00 7.61577E-01-1.47657E+00-2.07208E+00 1.02829E-12-7.78266E-13
 -1      1254-2.14272E+00-1.26366E+01-2.89230E+00 4.28788E+00 9.49019E-13-5.69211E-13
 -1      1255-1.73719E+00-2.45210E+01-3.78693E+00 4.34237E+00 1.76081E-13-1.99937E-13
 -1      1256-1.12157E+00-2.83792E+01-4.01258E+00-2.24126E-01-1.10073E-12-1.46404E-13
 -1      1257-1.74077E+00-2.24856E+01-3.59827E+00-4.33758E+00-1.59428E-12-3.48138E-13
 -1      1258-1.50243E+00-9.59257E+00-2.55374E+00-3.29555E+00-6.92335E-13-2.14495E-13
 -1      1259 4.78651E+00 3.69539E+00-9.62562E-01 4.39348E+00 4.79616E-13 4.67404E-13
 -1      1260 2.02149E+01 1.06952E+01 7.96211E-01 1.41218E+01-1.53211E-13-3.21965E-13
 -1      1261 4.16543E+01 9.73916E+00 2.49717E+00 1.89291E+01-5.79647E-13-1.17040E-12
 -1      1262 6.17096E+01 4.95489E+00 3.83072E+00 1.43067E+01-2.40974E-13-1.65690E-12
 -1      1263 7.26494E+01 1.81804E+00 4.58599E+00 1.79639E+00-7.78752E-14-2.19924E-12
 -1      1264 6.84015E+01 4.23013E+00 4.45882E+00-1.16569E+01 4.02331E-13-1.95666E-12
 -1      1265 5.26134E+01 9.30605E+00 3.61693E+00-1.99812E+01 6.56697E-13-1.67044E-12
 -1      1266 3.01200E+01 1.31189E+01 1.97304E+00-1.89980E+01 7.95586E-13-1.23612E-12
 -1      1267 1.13632E+01 9.77394E+00 9.29386E-02-1.03203E+01 5.38680E-13-9.05498E-13
 -1      1268 8.28777E-01-1.93090E+00-1.89333E+00-4.27575E-01 9.03499E-13-4.28879E-13
 -1      1269-2.08884E+00-1.78501E+01-3.62712E+00 4.63132E+00 1.45084E-12-5.91804E-13
 -1      1270-1.40981E+00-2.97080E+01-4.72470E+00 2.67692E+00 8.48210E-13-2.66849E-13
 -1      1271 2.22681E+01 1.83826E+00-7.25856E-01-2.79045E+00-5.75373E-14 6.38101E-13
 -1      1272 2.03604E+01 4.69032E+00-4.86379E-02-3.30661E+00-1.35975E-13-1.80467E-13
 -1      1273 2.08680E+01 4.81081E+00-1.13327E-01-4.16089E+00-1.81216E-13-2.96985E-15
 -1      1274 1.95325E+01 4.99348E+00-1.96049E-02-2.65419E+00-1.15491E-13-4.25982E-13
 -1      1275 1.98306E+01 5.09041E+00 2.87713E-04-3.04524E+00-1.40964E-13-3.21583E-13
 -1      1276 2.05269E+01 3.95289E+00-2.58798E-02-3.07459E+00-2.28248E-13-1.55043E-13
 -1      1277 1.91842E+01 5.08425E+00-3.65101E-03-2.06994E+00-8.03663E-14-5.39516E-13
 -1      1278 1.93338E+01 5.13957E+00 1.06142E-02-2.36306E+00-9.66241E-14-4.90746E-13
 -1      1279 1.97547E+01 4.36615E+00-2.42646E-02-2.48918E+00-1.79494E-13-3.58796E-13
 -1      1280 1.90087E+01 5.13088E+00 3.28169E-03-1.56448E+00-4.83693E-14-5.87166E-13
 -1      1281 1.90863E+01 5.16082E+00 1.25677E-02-1.81440E+00-5.83509E-14-5.69048E-13
 -1      1282 1.93926E+01 4.55578E+00-1.95295E-02-1.93088E+00-1.15645E-13-4.56715E-13
 -1      1283 1.89151E+01 5.16055E+00 6.60016E-03-1.11677E+00-2.11359E-14-5.92960E-13
 -1      1284 1.89576E+01 5.17688E+00 1.27366E-02-1.33823E+00-3.16656E-14-5.91863E-13
 -1      1285 1.92054E+01 4.66141E+00-1.60498E-02-1.44466E+00-7.24863E-14-4.90091E-13
 -1      1286 1.88634E+01 5.18035E+00 8.19467E-03-6.93590E-01 2.44748E-15-5.81871E-13
 -1      1287 1.88865E+01 5.18925E+00 1.20337E-02-9.03747E-01-2.16840E-16-5.88685E-13
 -1      1288 1.91024E+01 4.72679E+00-1.39410E-02-1.00397E+00-2.26256E-14-4.96291E-13
 -1      1289 1.88393E+01 5.19226E+00 9.28127E-03-2.89060E-01 3.09232E-14-5.60796E-13
 -1      1290 1.88492E+01 5.19610E+00 1.10635E-02-4.91100E-01 2.11085E-14-5.70870E-13
 -1      1291 1.90463E+01 4.76578E+00-1.29091E-02-5.88594E-01 1.62261E-14-4.80754E-13
 -1      1292 1.88356E+01 5.19719E+00 1.02114E-02 1.08179E-01 5.22531E-14-5.31759E-13
 -1      1293 1.88352E+01 5.19706E+00 1.01396E-02-9.14094E-02 4.43138E-14-5.48043E-13
 -1      1294 1.90220E+01 4.78377E+00-1.24755E-02-1.89037E-01 6.13503E-14-4.65544E-13
 -1      1295 1.88509E+01 5.19573E+00 1.11508E-02 5.08458E-01 7.41217E-14-4.97179E-13
 -1      1296 1.88403E+01 5.19161E+00 9.21419E-03 3.05998E-01 6.64245E-14-5.18599E-13
 -1      1297 1.90228E+01 4.78312E+00-1.24958E-02 2.05709E-01 9.73788E-14-4.39506E-13
 -1      1298 1.88897E+01 5.18808E+00 1.20878E-02 9.22593E-01 9.81186E-14-4.53904E-13
 -1      1299 1.88658E+01 5.17903E+00 8.12239E-03 7.11479E-01 9.03409E-14-4.80104E-13
 -1      1300 1.90489E+01 4.76369E+00-1.29814E-02 6.05969E-01 1.34383E-13-4.00534E-13
 -1      1301 1.89619E+01 5.17514E+00 1.28972E-02 1.35572E+00 1.21139E-13-3.88415E-13
 -1      1302 1.89185E+01 5.15836E+00 6.43770E-03 1.13286E+00 1.13016E-13-4.26220E-13
 -1      1303 1.91065E+01 4.72327E+00-1.40034E-02 1.01918E+00 1.69945E-13-3.59244E-13
 -1      1304 1.90949E+01 5.15674E+00 1.28291E-02 1.84033E+00 1.51757E-13-2.93210E-13
 -1      1305 1.90152E+01 5.12634E+00 3.13420E-03 1.58754E+00 1.40016E-13-3.49705E-13
 -1      1306 1.92123E+01 4.65492E+00-1.61479E-02 1.46222E+00 2.17368E-13-2.88259E-13
 -1      1307 1.93440E+01 5.13355E+00 1.01794E-02 2.39742E+00 1.75970E-13-1.33355E-13
 -1      1308 1.91937E+01 5.07638E+00-4.38402E-03 2.10014E+00 1.61073E-13-2.28421E-13
 -1      1309 1.94053E+01 4.54250E+00-1.99838E-02 1.95786E+00 2.49462E-13-1.81799E-13
 -1      1310 1.98560E+01 5.09953E+00 6.06728E-03 3.08358E+00 1.91278E-13 1.33511E-13
 -1      1311 1.95438E+01 4.98449E+00-2.05449E-02 2.69617E+00 1.72778E-13-2.67078E-14
 -1      1312 1.97751E+01 4.34649E+00-2.45578E-02 2.52773E+00 2.80788E-13-1.22541E-14
 -1      1313 2.11041E+01 4.90708E+00 8.33093E-03 4.05375E+00 1.44523E-13 6.16299E-13
 -1      1314 2.03350E+01 4.73392E+00-4.79626E-02 3.41602E+00 1.46161E-13 3.22381E-13
 -1      1315 2.05652E+01 3.91598E+00-2.24039E-02 3.17812E+00 2.70974E-13 2.78971E-13
 -1      1316 2.72036E+01 3.20542E+00 9.29015E-01 4.58221E+00 5.61218E-14 1.46977E-12
 -1      1317 2.20209E+01 3.52224E+00-1.81994E-01 3.88485E+00 6.37546E-14 8.88956E-13
 -1      1318 2.21133E+01 2.56180E+00-3.25381E-02 3.45638E+00 2.28040E-13 7.19813E-13
 -1      1319 2.14279E+01 3.59567E-01-7.63533E-01 1.18374E+00 1.13513E-13 1.44013E-12
 -1      1320 2.20024E+01 1.31349E-01-4.00864E-01-1.28557E+00-1.53877E-13 6.98663E-13
 -1      1321 2.06798E+01 3.06692E-01-1.64808E-01-8.05648E-01-1.37154E-13 5.16226E-13
 -1      1322 2.00822E+01 1.53465E-01-7.35354E-02-4.02035E-01-9.91221E-14 4.54729E-13
 -1      1323 1.96125E+01 9.11861E-02-1.49343E-02-3.29893E-01-9.54618E-14 3.07587E-13
 -1      1324 2.09736E+01 3.69151E-01-1.04236E-01-1.27372E+00-2.29788E-13 2.09638E-13
 -1      1325 1.92552E+01 6.45380E-02 3.01905E-03-1.35243E-01-7.71206E-14 2.61211E-13
 -1      1326 1.91010E+01 4.13018E-02 1.32032E-02-1.17412E-01-6.82076E-14 1.45394E-13
 -1      1327 1.99230E+01 1.33910E-01-3.51658E-02-5.03812E-01-1.69691E-13 1.20043E-13
 -1      1328 1.89408E+01 3.15372E-02 1.32327E-02-2.78498E-02-6.60314E-14 8.82315E-14
 -1      1329 1.89216E+01 1.93793E-02 1.10586E-02-1.84732E-02-5.78539E-14-2.76515E-15
 -1      1330 1.94460E+01 5.55190E-02-8.51550E-03-1.69716E-01-1.39160E-13 5.07476E-14
 -1      1331 1.88656E+01 1.60054E-02 8.77352E-03 2.51568E-02-2.22472E-14-3.76400E-14
 -1      1332 1.89082E+01 9.06711E-03 6.43337E-03 2.97817E-02-3.68158E-14-7.78787E-14
 -1      1333 1.92373E+01 2.43854E-02-3.50796E-03-1.08759E-02-9.53872E-14-3.29875E-14
 -1      1334 1.89083E+01 7.85216E-03 4.66847E-03 5.09316E-02-4.14597E-14-9.14858E-14
 -1      1335 1.89788E+01 3.49734E-03 3.63931E-03 5.28207E-02-3.39426E-14-1.43450E-13
 -1      1336 1.91807E+01 1.01850E-02-2.21875E-03 6.77710E-02-6.97374E-14-7.52991E-14
 -1      1337 1.90083E+01 3.18250E-03 2.44005E-03 6.16028E-02-4.16771E-14-1.54559E-13
 -1      1338 1.90890E+01 3.20304E-04 2.20910E-03 6.18674E-02-5.55044E-14-2.24779E-13
 -1      1339 1.92069E+01 2.77067E-03-1.32073E-03 1.04572E-01-6.49155E-14-9.57767E-14
 -1      1340 1.91325E+01 4.31987E-04 1.33002E-03 6.35261E-02-5.53727E-14-2.27372E-13
 -1      1341 1.92134E+01-1.48169E-03 1.43732E-03 6.28367E-02-5.60087E-14-3.13761E-13
 -1      1342 1.92760E+01-1.31789E-03-5.53951E-04 1.17794E-01-9.06685E-14-1.64796E-13
 -1      1343 1.92619E+01-1.16019E-03 7.44973E-04 6.04095E-02-4.71742E-14-3.02075E-13
 -1      1344 1.93375E+01-2.43335E-03 9.68445E-04 5.91976E-02-4.87992E-14-3.63664E-13
 -1      1345 1.93643E+01-3.53280E-03 7.21049E-06 1.17379E-01-8.45542E-14-1.51372E-13
 -1      1346 1.93856E+01-2.01712E-03 4.08494E-04 5.45655E-02-2.32291E-14-3.68794E-13
 -1      1347 1.94531E+01-2.84253E-03 6.56853E-04 5.31143E-02 1.12754E-14-3.76374E-13
 -1      1348 1.94573E+01-4.60550E-03 3.62016E-04 1.09266E-01-5.26331E-14-1.79157E-13
 -1      1349 1.94976E+01-2.39755E-03 2.04605E-04 4.74796E-02 1.22673E-14-4.30159E-13
 -1      1350 1.95558E+01-2.90474E-03 4.41573E-04 4.59740E-02-4.14525E-14-4.63915E-13
 -1      1351 1.95469E+01-4.95906E-03 5.54749E-04 9.71916E-02-2.27427E-14-3.11678E-13
 -1      1352 1.95952E+01-2.46922E-03 8.09292E-05 4.01094E-02-4.07999E-14-4.49966E-13
 -1      1353 1.96440E+01-2.74907E-03 2.92399E-04 3.86671E-02-2.70688E-14-5.14506E-13
 -1      1354 1.96284E+01-4.86023E-03 6.33297E-04 8.35572E-02-3.63884E-14-3.92849E-13
 -1      1355 1.96779E+01-2.34380E-03 9.69713E-06 3.30636E-02 5.29279E-14-4.76772E-13
 -1      1356 1.97178E+01-2.46105E-03 1.91326E-04 3.17570E-02 4.94256E-14-4.13233E-13
 -1      1357 1.96997E+01-4.48390E-03 6.35444E-04 6.99038E-02 1.20995E-14-3.54281E-13
 -1      1358 1.97462E+01-2.09522E-03-2.59811E-05 2.67191E-02 5.44351E-16-4.03316E-13
 -1      1359 1.97783E+01-2.09573E-03 1.26381E-04 2.55907E-02-2.49695E-14-4.26620E-13
 -1      1360 1.97604E+01-3.94464E-03 5.87931E-04 5.72041E-02 2.34710E-14-3.10725E-13
 -1      1361 1.98017E+01-1.77037E-03-3.71885E-05 2.13038E-02-3.34877E-14-4.36821E-13
 -1      1362 1.98271E+01-1.68567E-03 8.92235E-05 2.03779E-02-6.63751E-14-4.79918E-13
 -1      1363 1.98110E+01-3.31421E-03 5.08537E-04 4.60599E-02-3.34056E-14-2.90284E-13
 -1      1364 1.98464E+01-1.39589E-03-3.14707E-05 1.69579E-02-5.34561E-14-5.11691E-13
 -1      1365 1.98665E+01-1.24650E-03 7.39621E-05 1.62493E-02 6.59238E-15-5.47888E-13
 -1      1366 1.98527E+01-2.63248E-03 4.08186E-04 3.68424E-02-8.04693E-14-3.14095E-13
 -1      1367 1.98825E+01-9.82866E-04-1.40976E-05 1.37796E-02 5.22029E-14-5.40024E-13
 -1      1368 1.98988E+01-7.80804E-04 7.64322E-05 1.33012E-02 2.43380E-14-4.84021E-13
 -1      1369 1.98872E+01-1.91484E-03 2.92569E-04 2.97979E-02 4.22691E-14-3.13672E-13
 -1      1370 1.99128E+01-5.30254E-04 1.11060E-05 1.18614E-02-2.42835E-14-5.33217E-13
 -1      1371 1.99268E+01-2.81223E-04 9.36843E-05 1.16294E-02-5.36749E-14-6.11265E-13
 -1      1372 1.99168E+01-1.15752E-03 1.63361E-04 2.51274E-02-1.37471E-14-4.12350E-13
 -1      1373 1.99401E+01-2.75039E-05 4.11362E-05 1.13179E-02-2.69306E-14-6.07348E-13
 -1      1374 1.99535E+01 2.67149E-04 1.23551E-04 1.13556E-02-3.27766E-14-6.34759E-13
 -1      1375 1.99436E+01-3.41772E-04 1.91628E-05 2.30485E-02-6.14367E-14-4.17477E-13
 -1      1376 1.99675E+01 5.43213E-04 7.32753E-05 1.23060E-02 1.11278E-14-6.69357E-13
 -1      1377 1.99822E+01 8.84508E-04 1.64222E-04 1.26480E-02-4.48456E-15-6.13649E-13
 -1      1378 1.99703E+01 5.62830E-04-1.43721E-04 2.38422E-02-3.45054E-14-4.10171E-13
 -1      1379 1.99985E+01 1.20486E-03 1.04572E-04 1.50407E-02 4.55640E-14-5.43203E-13
 -1      1380 2.00167E+01 1.59395E-03 2.13747E-04 1.57346E-02 6.01387E-14-4.80248E-13
 -1      1381 2.00001E+01 1.59516E-03-3.30563E-04 2.78875E-02 7.00289E-14-4.68885E-13
 -1      1382 2.00372E+01 1.98302E-03 1.31285E-04 1.98029E-02-1.23552E-14-5.10347E-13
 -1      1383 2.00614E+01 2.41838E-03 2.69424E-04 2.09100E-02-6.37732E-14-5.80756E-13
 -1      1384 2.00362E+01 2.79889E-03-5.47448E-04 3.56821E-02 1.30247E-14-4.58616E-13
 -1      1385 2.00883E+01 2.90236E-03 1.48255E-04 2.69383E-02-7.65695E-14-5.21825E-13
 -1      1386 2.01215E+01 3.37608E-03 3.26988E-04 2.85332E-02-3.55379E-14-6.52577E-13
 -1      1387 2.00829E+01 4.21744E-03-8.00326E-04 4.78476E-02-6.62070E-14-3.86569E-13
 -1      1388 2.01574E+01 3.98126E-03 1.48208E-04 3.68434E-02 8.57377E-14-6.49020E-13
 -1      1389 2.02030E+01 4.47374E-03 3.79575E-04 3.90102E-02 6.95617E-14-5.23170E-13
 -1      1390 2.01445E+01 5.88610E-03-1.09367E-03 6.51117E-02 2.98736E-14-3.01044E-13
 -1      1391 2.02506E+01 5.22319E-03 1.21026E-04 4.99310E-02 3.42327E-14-5.29144E-13
 -1      1392 2.03126E+01 5.69561E-03 4.16451E-04 5.27542E-02 2.76905E-14-4.06080E-13
 -1      1393 2.02264E+01 7.81918E-03-1.42851E-03 8.82555E-02 8.85513E-14-3.86593E-13
 -1      1394 2.03752E+01 6.60287E-03 5.31970E-05 6.65621E-02-5.18053E-15-4.43082E-13
 -1      1395 2.04579E+01 6.98645E-03 4.21660E-04 7.01110E-02-4.40714E-14-4.88577E-13
 -1      1396 2.03346E+01 9.98915E-03-1.79941E-03 1.18006E-01-1.28055E-15-3.81032E-13
 -1      1397 2.05387E+01 8.04457E-03-7.20866E-05 8.69268E-02-5.39560E-14-5.19974E-13
 -1      1398 2.06468E+01 8.22550E-03 3.73118E-04 9.12269E-02-8.21936E-14-5.51862E-13
 -1      1399 2.04751E+01 1.22930E-02-2.18984E-03 1.54845E-01-8.00464E-14-4.04112E-13
 -1      1400 2.07490E+01 9.38858E-03-2.73107E-04 1.10847E-01 3.12887E-14-5.70353E-13
 -1      1401 2.08868E+01 9.18794E-03 2.43395E-04 1.15833E-01 1.00134E-13-5.03131E-13
 -1      1402 2.06543E+01 1.44993E-02-2.56524E-03 1.98685E-01-2.59558E-15-3.57531E-13
 -1      1403 2.10126E+01 1.03421E-02-5.64016E-04 1.37461E-01 8.52368E-14-4.57505E-13
 -1      1404 2.11831E+01 9.49165E-03 4.74364E-06 1.42901E-01 2.99258E-14-3.38524E-13
 -1      1405 2.08777E+01 1.61697E-02-2.86249E-03 2.48354E-01 1.32001E-13-2.82813E-13
 -1      1406 2.13334E+01 1.04124E-02-9.41957E-04 1.64756E-01-8.70484E-14-2.18276E-13
 -1      1407 2.15371E+01 8.53172E-03-3.57396E-04 1.70138E-01-6.93358E-14-3.05714E-13
 -1      1408 2.11485E+01 1.65479E-02-2.97480E-03 3.00813E-01 1.06915E-14-2.49979E-13
 -1      1409 2.17097E+01 8.82855E-03-1.36230E-03 1.88901E-01-4.48836E-14-3.01564E-13
 -1      1410 2.19416E+01 5.42015E-03-8.17120E-04 1.93271E-01-2.74022E-14-3.38902E-13
 -1      1411 2.14656E+01 1.44271E-02-2.73176E-03 3.50041E-01-1.28365E-13-1.07554E-13
 -1      1412 2.21295E+01 4.48194E-03-1.69900E-03 2.03430E-01-3.34707E-14-4.09444E-13
 -1      1413 2.23761E+01-1.01801E-03-1.26481E-03 2.05194E-01-1.03513E-13-5.16105E-13
 -1      1414 2.18206E+01 8.03662E-03-1.87768E-03 3.85596E-01-8.94948E-14-2.91572E-13
 -1      1415 2.25651E+01-4.03460E-03-1.69718E-03 1.98450E-01-1.27049E-13-6.01467E-13
 -1      1416 2.27998E+01-1.20765E-02-1.46005E-03 1.95199E-01-1.15809E-13-7.79671E-13
 -1      1417 2.21937E+01-4.92454E-03-6.15230E-05 3.91103E-01-1.83337E-13-4.48766E-13
 -1      1418 2.29660E+01-1.81197E-02-9.53193E-04 1.60448E-01-4.94557E-14-7.85639E-13
 -1      1419 2.31447E+01-2.86236E-02-1.02330E-03 1.48969E-01 6.04395E-14-8.01148E-13
 -1      1420 2.25486E+01-2.68380E-02 3.12676E-03 3.43452E-01-1.82543E-13-5.73133E-13
 -1      1421 2.32527E+01-3.83202E-02 1.00110E-03 7.38360E-02 1.78384E-13-7.97780E-13
 -1      1422 2.33125E+01-4.99323E-02 4.51985E-04 5.06572E-02 1.70208E-13-5.57095E-13
 -1      1423 2.28287E+01-5.88632E-02 8.00626E-03 2.14408E-01 1.14320E-13-5.11559E-13
 -1      1424 2.33167E+01-6.26841E-02 4.39832E-03-7.39282E-02 7.09528E-14-5.43022E-13
 -1      1425 2.31813E+01-7.18409E-02 3.02578E-03-1.10936E-01 6.44190E-15-4.77238E-13
 -1      1426 2.29552E+01-9.83631E-02 1.44526E-02-2.24275E-02 1.73533E-13-5.24788E-13
 -1      1427 2.30328E+01-8.46168E-02 8.60026E-03-2.82011E-01 5.14103E-14-3.87287E-13
 -1      1428 2.26326E+01-8.51022E-02 5.89887E-03-3.30676E-01 7.61925E-14-3.31218E-13
 -1      1429 2.28348E+01-1.35328E-01 2.12778E-02-3.76042E-01 8.76712E-14-3.56423E-13
 -1      1430 2.22954E+01-9.16913E-02 1.16872E-02-5.21915E-01-7.64232E-15-1.67467E-13
 -1      1431 2.16039E+01-7.62175E-02 7.04211E-03-5.72151E-01 4.32675E-14-2.41987E-13
 -1      1432 2.23805E+01-1.50532E-01 2.55535E-02-8.13784E-01 8.69860E-14-1.88161E-13
 -1      1433 2.10813E+01-6.92370E-02 1.06305E-02-7.27663E-01-8.98066E-15-2.75113E-13
 -1      1434 2.01588E+01-3.43523E-02 3.95320E-03-7.60614E-01-1.11415E-13-3.84387E-13
 -1      1435 2.15536E+01-1.20105E-01 2.29123E-02-1.23858E+00-4.13549E-14-2.08099E-13
 -1      1436 1.95188E+01-1.10687E-02 3.57988E-03-8.07586E-01-7.66076E-14-3.26114E-13
 -1      1437 1.85345E+01 3.63056E-02-4.06914E-03-8.02223E-01-1.99103E-15-4.69846E-13
 -1      1438 2.04169E+01-3.19860E-02 9.65350E-03-1.49350E+00-9.34331E-14-4.52312E-14
 -1      1439 1.79139E+01 6.71714E-02-7.37199E-03-6.89923E-01 3.82853E-14-4.25077E-13
 -1      1440 1.71085E+01 1.08343E-01-1.36308E-02-6.37929E-01 8.56927E-14-3.43309E-13
 -1      1441 1.91705E+01 9.40284E-02-1.24871E-02-1.42247E+00 4.30012E-14-4.82843E-14
 -1      1442 1.66694E+01 1.28368E-01-1.58994E-02-3.83919E-01 8.78742E-14-2.63244E-13
 -1      1443 1.62533E+01 1.43043E-01-1.82668E-02-3.01807E-01 4.68878E-14-2.44848E-13
 -1      1444 1.81169E+01 2.03944E-01-3.35058E-02-9.78184E-01 1.28595E-13-2.76690E-13
 -1      1445 1.61015E+01 1.38445E-01-1.62446E-02 1.98902E-04 8.22779E-15-1.16620E-13
 -1      1446 1.61462E+01 1.20691E-01-1.40232E-02 7.76015E-02 3.02675E-14-1.17455E-13
 -1      1447 1.75322E+01 2.40673E-01-4.05012E-02-2.96683E-01 1.34710E-13-4.96677E-14
 -1      1448 1.62700E+01 9.61098E-02-9.05419E-03 3.11978E-01 7.07394E-14-1.93536E-13
 -1      1449 1.66776E+01 5.95569E-02-3.91460E-03 3.55683E-01 1.57272E-13 8.67847E-14
 -1      1450 1.75125E+01 1.88773E-01-2.94103E-02 3.57996E-01 1.71434E-13-3.92048E-15
 -1      1451 1.69661E+01 3.37411E-02-7.06725E-04 4.59486E-01 1.67584E-13 6.02782E-14
 -1      1452 1.75438E+01-7.24120E-04 4.88741E-03 4.64994E-01 7.27057E-14 1.33400E-13
 -1      1453 1.79270E+01 8.71419E-02-9.62579E-03 7.61913E-01 2.25827E-13 2.10216E-13
 -1      1454 1.78658E+01-1.23973E-02 3.06766E-03 4.54427E-01 2.23222E-14 5.65242E-14
 -1      1455 1.84396E+01-3.27419E-02 8.29913E-03 4.37978E-01 5.22607E-15 4.87457E-14
 -1      1456 1.85244E+01-3.90894E-03 5.64030E-03 8.61989E-01 4.10762E-14 1.82009E-13
 -1      1457 1.87102E+01-2.97035E-02 2.95662E-03 3.72035E-01 9.24261E-14 1.46126E-13
 -1      1458 1.91865E+01-4.05896E-02 9.30824E-03 3.52212E-01 5.78782E-14 2.96908E-13
 -1      1459 1.90878E+01-5.04987E-02 1.12176E-02 7.57994E-01 9.94474E-14 1.08108E-13
 -1      1460 1.93832E+01-3.83156E-02 6.45306E-03 2.65350E-01-5.67567E-14 3.62342E-13
 -1      1461 1.97256E+01-5.39935E-02 1.70275E-02 2.45470E-01-9.63058E-14 2.39430E-13
 -1      1462 1.95230E+01-7.04846E-02 1.48807E-02 5.73582E-01 5.69128E-14 1.46761E-13
 -1      1463 1.99202E+01-7.18019E-02 3.37169E-02 6.28051E-02-2.10883E-13 2.27665E-13
 -1      1464 1.98810E+01-1.67464E-01 1.85575E-02 2.76056E-01-2.42022E-13 1.53849E-13
 -1      1465 2.02608E+01 7.54731E-02-1.52087E-01 4.83768E-01 1.01540E-13 1.20253E-12
 -1      1466 2.15310E+01 2.16135E-01-2.29285E-01 7.20754E-01 9.12048E-14 1.35920E-12
 -1      1467 2.17295E+01 8.81740E-01-8.54764E-02 2.06467E+00 1.76907E-13 9.36279E-13
 -1      1468 1.93327E+01 3.23816E-02-2.13295E-02 1.85934E-01 7.55836E-14 1.00893E-12
 -1      1469 1.97533E+01 1.13621E-01-6.26963E-02 2.37944E-01 6.95138E-14 1.11453E-12
 -1      1470 2.03045E+01 1.87669E-01-5.51930E-02 7.86022E-01 1.54592E-13 7.72310E-13
 -1      1471 1.89512E+01 1.51079E-02 5.66646E-03 5.34263E-02 5.61200E-14 8.55441E-13
 -1      1472 1.90897E+01 5.16316E-02 9.79504E-04 7.97444E-02 5.83127E-14 9.35887E-13
 -1      1473 1.95596E+01 7.18381E-02-1.21587E-02 2.98833E-01 1.25577E-13 6.25782E-13
 -1      1474 1.88409E+01 7.12382E-03 6.97392E-03-9.08192E-03 7.46109E-14 7.10515E-13
 -1      1475 1.88554E+01 2.58676E-02 1.10884E-02 5.32499E-03 5.82676E-14 7.99118E-13
 -1      1476 1.92244E+01 3.10397E-02-2.46829E-03 8.33244E-02 1.13539E-13 5.00423E-13
 -1      1477 1.88672E+01 3.20927E-03 4.78077E-03-3.93407E-02 2.41114E-14 6.17298E-13
 -1      1478 1.88233E+01 1.38141E-02 8.51873E-03-3.12154E-02 3.88149E-14 6.75892E-13
 -1      1479 1.91080E+01 1.32666E-02-1.62404E-03-2.16715E-02 8.44680E-14 4.32669E-13
 -1      1480 1.89615E+01 1.05032E-03 3.29277E-03-5.27635E-02-1.54857E-15 6.21263E-13
 -1      1481 1.88909E+01 7.28184E-03 5.36575E-03-4.82871E-02-6.40330E-15 5.99505E-13
 -1      1482 1.91093E+01 4.53525E-03-1.63905E-03-7.31551E-02 1.57545E-14 4.07900E-13
 -1      1483 1.90860E+01-1.99874E-04 2.51137E-03-5.66949E-02 3.36055E-14 5.86113E-13
 -1      1484 1.90058E+01 3.44476E-03 3.42926E-03-5.44782E-02 2.03693E-14 6.12765E-13
 -1      1485 1.91721E+01-1.21925E-04-1.38257E-03-9.57653E-02 2.85438E-14 3.90539E-13
 -1      1486 1.92187E+01-9.09418E-04 2.04744E-03-5.51637E-02 1.28502E-14 4.93293E-13
 -1      1487 1.91385E+01 1.10909E-03 2.32719E-03-5.43693E-02 3.72054E-14 5.40205E-13
 -1      1488 1.92641E+01-2.64486E-03-1.00585E-03-1.01903E-01 4.91768E-14 3.30599E-13
 -1      1489 1.93472E+01-1.27390E-03 1.70399E-03-5.06012E-02 2.11443E-14 4.45337E-13
 -1      1490 1.92724E+01-3.02340E-04 1.64905E-03-5.06877E-02-5.91126E-15 4.65464E-13
 -1      1491 1.93661E+01-3.91969E-03-6.62215E-04-9.85603E-02 2.68951E-14 2.40696E-13
 -1      1492 1.94646E+01-1.41382E-03 1.41460E-03-4.45452E-02 1.26574E-14 4.50385E-13
 -1      1493 1.93979E+01-1.11361E-03 1.18895E-03-4.51518E-02 2.61113E-14 4.77115E-13
 -1      1494 1.94670E+01-4.42506E-03-3.97191E-04-9.00030E-02 2.14518E-14 2.27519E-13
 -1      1495 1.95676E+01-1.40876E-03 1.16151E-03-3.79828E-02 7.37249E-14 3.78250E-13
 -1      1496 1.95101E+01-1.52673E-03 8.57627E-04-3.88661E-02 4.53411E-14 4.53391E-13
 -1      1497 1.95604E+01-4.45098E-03-2.07344E-04-7.89368E-02 4.35070E-14 2.87407E-13
 -1      1498 1.96551E+01-1.31242E-03 9.40173E-04-3.15422E-02 1.14988E-14 3.23973E-13
 -1      1499 1.96070E+01-1.67507E-03 6.13532E-04-3.25381E-02 1.41983E-14 3.27498E-13
 -1      1500 1.96431E+01-4.18389E-03-7.76263E-05-6.70996E-02 5.49629E-14 2.86215E-13
 -1      1501 1.97276E+01-1.16061E-03 7.48492E-04-2.56141E-02 5.12957E-14 2.50312E-13
 -1      1502 1.96883E+01-1.64857E-03 4.33450E-04-2.66129E-02 2.81578E-14 2.80828E-13
 -1      1503 1.97141E+01-3.74621E-03 6.17842E-06-5.55990E-02 4.34638E-14 1.70311E-13
 -1      1504 1.97865E+01-9.75993E-04 5.84128E-04-2.04337E-02 5.53295E-14 8.35680E-14
 -1      1505 1.97550E+01-1.50729E-03 3.02222E-04-2.13621E-02 6.29919E-14 2.00200E-13
 -1      1506 1.97734E+01-3.21705E-03 5.49663E-05-4.51264E-02 9.71624E-14 9.97018E-14
 -1      1507 1.98338E+01-7.71269E-04 4.44024E-04-1.61399E-02-4.86286E-14 3.79966E-14
 -1      1508 1.98089E+01-1.28940E-03 2.09068E-04-1.69483E-02 2.20590E-14 7.52777E-14
 -1      1509 1.98222E+01-2.64446E-03 7.63415E-05-3.61053E-02 5.90836E-14 5.05012E-14
 -1      1510 1.98717E+01-5.51309E-04 3.24398E-04-1.28208E-02 4.33155E-14 9.46347E-15
 -1      1511 1.98520E+01-1.01627E-03 1.46047E-04-1.34726E-02-3.12456E-14-2.26077E-14
 -1      1512 1.98622E+01-2.05323E-03 7.49887E-05-2.87983E-02-8.93285E-15-4.99087E-14
 -1      1513 1.99027E+01-3.14720E-04 2.20853E-04-1.05479E-02 6.64081E-14-1.08476E-13
 -1      1514 1.98869E+01-6.95887E-04 1.07250E-04-1.10113E-02 6.70887E-14 1.12258E-14
 -1      1515 1.98953E+01-1.45029E-03 5.29657E-05-2.33894E-02 5.68591E-14-1.69911E-13
 -1      1516 1.99298E+01-5.49699E-05 1.28509E-04-9.40476E-03-7.03005E-14-1.89407E-14
 -1      1517 1.99162E+01-3.25244E-04 8.83327E-05-9.64538E-03-3.87685E-15-4.10107E-14
 -1      1518 1.99238E+01-8.28553E-04 9.88335E-06-2.00470E-02 3.58007E-14 3.27964E-14
 -1      1519 1.99560E+01 2.38794E-04 4.20928E-05-9.50925E-03-3.89165E-14 1.51354E-13
 -1      1520 1.99430E+01 1.08043E-04 8.62035E-05-9.48401E-03-7.47594E-14 7.83335E-14
 -1      1521 1.99504E+01-1.69734E-04-5.70093E-05-1.89751E-02-1.38203E-13 9.93297E-14
 -1      1522 1.99847E+01 5.81181E-04-4.40379E-05-1.10329E-02-9.10617E-15 2.32580E-13
 -1      1523 1.99705E+01 6.24642E-04 9.87821E-05-1.06841E-02-2.05111E-14 2.08133E-13
 -1      1524 1.99780E+01 5.53608E-04-1.52843E-04-2.04552E-02-5.14812E-14 1.00093E-13
 -1      1525 2.00202E+01 9.90105E-04-1.35973E-04-1.42175E-02 9.24857E-14 1.60264E-13
 -1      1526 2.00026E+01 1.25280E-03 1.24748E-04-1.34672E-02 3.07897E-14 2.20819E-13
 -1      1527 2.00101E+01 1.37663E-03-2.85241E-04-2.48809E-02 2.71115E-14 9.89831E-14
 -1      1528 2.00673E+01 1.48625E-03-2.40398E-04-1.93890E-02 4.39738E-14-7.56275E-14
 -1      1529 2.00435E+01 2.02779E-03 1.63237E-04-1.81336E-02 9.01390E-14 9.86758E-14
 -1      1530 2.00505E+01 2.34103E-03-4.64492E-04-3.27874E-02 1.25849E-13 7.77312E-14
 -1      1531 2.01316E+01 2.09217E-03-3.64819E-04-2.69687E-02-1.07044E-13-8.72043E-15
 -1      1532 2.00986E+01 2.99106E-03 2.13424E-04-2.50734E-02-6.76110E-14-9.63904E-14
 -1      1533 2.01042E+01 3.49361E-03-7.03735E-04-4.48752E-02 1.96406E-14-2.29424E-14
 -1      1534 2.02204E+01 2.83052E-03-5.17866E-04-3.74791E-02-7.04543E-14 3.50058E-13
 -1      1535 2.01743E+01 4.18854E-03 2.73874E-04-3.47728E-02-1.38841E-13 1.37239E-13
 -1      1536 2.01766E+01 4.88397E-03-1.01906E-03-6.20250E-02-1.96234E-13 1.47101E-13
 -1      1537 2.03419E+01 3.72042E-03-7.09555E-04-5.15385E-02-2.71328E-14 3.59822E-13
 -1      1538 2.02781E+01 5.66676E-03 3.41523E-04-4.78110E-02 5.01288E-14 3.98235E-13
 -1      1539 2.02746E+01 6.55992E-03-1.42926E-03-8.52969E-02-3.08735E-14 2.72567E-13
 -1      1540 2.05064E+01 4.77023E-03-9.51222E-04-6.98346E-02-2.51847E-14 4.94966E-13
 -1      1541 2.04192E+01 7.46457E-03 4.10101E-04-6.48378E-02-6.31769E-14 4.30504E-13
 -1      1542 2.04061E+01 8.55818E-03-1.95477E-03-1.15899E-01-8.03871E-14 4.95344E-13
 -1      1543 2.07256E+01 5.96372E-03-1.25428E-03-9.30571E-02-1.07663E-14 4.48792E-13
 -1      1544 2.06084E+01 9.59618E-03 4.67845E-04-8.65162E-02 6.11811E-14 4.71757E-13
 -1      1545 2.05804E+01 1.08860E-02-2.61471E-03-1.55099E-01 6.36665E-14 5.08016E-13
 -1      1546 2.10126E+01 7.23406E-03-1.62569E-03-1.21749E-01-5.17368E-14 4.94983E-13
 -1      1547 2.08579E+01 1.20178E-02 4.94699E-04-1.13396E-01-8.87001E-14 3.79230E-13
 -1      1548 2.08076E+01 1.34856E-02-3.41991E-03-2.04022E-01-6.79164E-14 4.41719E-13
 -1      1549 2.13811E+01 8.41766E-03-2.05538E-03-1.56018E-01-2.00116E-14 4.85126E-13
 -1      1550 2.11810E+01 1.45656E-02 4.60175E-04-1.45662E-01-3.00085E-15 4.58245E-13
 -1      1551 2.10987E+01 1.61671E-02-4.35788E-03-2.63253E-01-2.13239E-14 3.42914E-13
 -1      1552 2.18433E+01 9.17635E-03-2.48613E-03-1.94987E-01-8.32637E-14 4.67151E-13
 -1      1553 2.15904E+01 1.68450E-02 3.25680E-04-1.82671E-01-1.30078E-14 4.03913E-13
 -1      1554 2.14638E+01 1.84892E-02-5.36232E-03-3.32082E-01 1.71087E-15 2.90349E-13
 -1      1555 2.24058E+01 8.87834E-03-2.75009E-03-2.35850E-01 1.56862E-15 5.86415E-13
 -1      1556 2.20958E+01 1.80509E-02 6.01791E-05-2.22132E-01-4.63065E-14 4.83311E-13
 -1      1557 2.19100E+01 1.95587E-02-6.25583E-03-4.07166E-01-1.12904E-13 4.70182E-13
 -1      1558 2.30630E+01 6.44569E-03-2.45470E-03-2.72326E-01 8.65596E-14 5.40607E-13
 -1      1559 2.26986E+01 1.67059E-02-3.14523E-04-2.58774E-01 5.41047E-14 6.46077E-13
 -1      1560 2.24371E+01 1.77292E-02-6.65277E-03-4.80324E-01 3.24365E-14 5.27376E-13
 -1      1561 2.37853E+01 2.39437E-04-8.27789E-04-2.92484E-01 5.38851E-15 5.48048E-13
 -1      1562 2.33830E+01 1.03776E-02-6.29935E-04-2.82428E-01-1.52932E-14 4.97567E-13
 -1      1563 2.30312E+01 1.02391E-02-5.82358E-03-5.35240E-01 6.14674E-14 5.01415E-13
 -1      1564 2.45023E+01-1.17942E-02 3.36585E-03-2.76376E-01-1.22615E-13 6.57786E-13
 -1      1565 2.41030E+01-4.38382E-03-4.36845E-04-2.75828E-01-6.14135E-14 6.46653E-13
 -1      1566 2.36541E+01-6.97562E-03-2.58327E-03-5.43415E-01-1.31060E-13 6.58253E-13
 -1      1567 2.50842E+01-3.12293E-02 1.15062E-02-1.95355E-01-1.63394E-14 5.87676E-13
 -1      1568 2.47651E+01-3.12637E-02 1.06912E-03-2.13556E-01 2.76532E-14 6.45397E-13
 -1      1569 2.42313E+01-3.86350E-02 4.57944E-03-4.61291E-01-2.78996E-14 6.63365E-13
 -1      1570 2.53291E+01-5.67773E-02 2.37907E-02-1.74821E-02 1.21878E-13 4.26345E-13
 -1      1571 2.52114E+01-7.14264E-02 4.78822E-03-6.56175E-02 6.44510E-14 4.94044E-13
 -1      1572 2.46404E+01-8.72696E-02 1.67237E-02-2.33849E-01 1.05974E-13 5.93565E-13
 -1      1573 2.49828E+01-8.00734E-02 3.64576E-02 2.73712E-01 5.17607E-14 5.23245E-13
 -1      1574 2.52201E+01-1.17742E-01 1.06133E-02 1.88254E-01-8.79158E-15 5.27076E-13
 -1      1575 2.47110E+01-1.46377E-01 3.25626E-02 1.85348E-01-7.07420E-15 5.99478E-13
 -1      1576 2.38235E+01-8.29775E-02 3.92251E-02 6.42632E-01 8.42677E-14 3.36155E-13
 -1      1577 2.45477E+01-1.48126E-01 1.54449E-02 5.28254E-01 1.46185E-13 5.25226E-13
 -1      1578 2.42549E+01-1.90833E-01 4.56674E-02 7.86175E-01 1.44489E-13 5.64214E-13
 -1      1579 2.18310E+01-4.53570E-02 1.86783E-02 9.66550E-01 2.74636E-13-1.35655E-13
 -1      1580 2.30468E+01-1.28728E-01 1.23061E-02 8.59212E-01 1.74584E-13 1.04861E-13
 -1      1581 2.31525E+01-1.74245E-01 4.49880E-02 1.43513E+00 2.83704E-13 1.39597E-13
 -1      1582 1.93683E+01 3.28934E-02-2.84028E-02 1.05658E+00 6.14248E-14-4.96381E-13
 -1      1583 2.08453E+01-3.83096E-02-5.41744E-03 1.01350E+00 1.31360E-13-2.75349E-13
 -1      1584 2.14889E+01-5.66003E-02 2.12528E-02 1.85229E+00 3.40338E-13 8.34194E-14
 -1      1585 1.71826E+01 1.11957E-01-7.82326E-02 7.79326E-01-1.58033E-14-6.74620E-13
 -1      1586 1.84640E+01 9.52070E-02-3.34338E-02 8.41275E-01-1.00111E-14-6.62331E-13
 -1      1587 1.96559E+01 1.43157E-01-1.82586E-02 1.72939E+00 8.32216E-14-3.13364E-13
 -1      1588 1.60568E+01 1.33955E-01-8.89892E-02 2.20692E-01-1.30732E-13-6.00955E-13
 -1      1589 1.66810E+01 1.90113E-01-5.08676E-02 3.64566E-01-3.55341E-14-6.32411E-13
 -1      1590 1.82581E+01 3.15158E-01-4.53447E-02 9.94040E-01-1.28439E-14-4.38437E-13
 -1      1591 1.62582E+01 8.18243E-02-5.36143E-02-3.20080E-01 2.69798E-13-6.09207E-13
 -1      1592 1.60819E+01 1.80497E-01-4.13435E-02-1.77303E-01 8.51819E-14-5.23585E-13
 -1      1593 1.77499E+01 3.24255E-01-4.55091E-02-1.57399E-02 6.54338E-14-3.20148E-13
 -1      1594 1.73489E+01 3.00770E-03 2.89508E-03-5.69311E-01 2.80904E-14-8.01414E-13
 -1      1595 1.66450E+01 8.46674E-02-1.22382E-02-4.99008E-01 7.10777E-14-6.67799E-13
 -1      1596 1.81047E+01 1.63543E-01-2.57540E-02-7.63670E-01 2.07593E-13-4.37501E-13
 -1      1597 1.85696E+01-4.54368E-02 3.96760E-02-4.96236E-01 2.28298E-14-7.48436E-13
 -1      1598 1.77939E+01-1.54845E-02 1.67348E-02-5.05320E-01 3.57310E-15-7.41421E-13
 -1      1599 1.88693E+01-3.56007E-02-4.96618E-03-9.51165E-01-4.39408E-14-6.82378E-13
 -1      1600 1.93973E+01-4.41004E-02 4.17860E-02-2.78245E-01-3.58854E-14-8.45414E-13
 -1      1601 1.88594E+01-5.69878E-02 2.79586E-02-3.21268E-01-3.79315E-14-8.27720E-13
 -1      1602 1.95422E+01-1.37669E-01 3.82828E-03-6.98143E-01-6.07431E-14-5.39442E-13
 -1      1603 1.97708E+01-1.79078E-02 2.45181E-02-1.12907E-01-8.14127E-14-8.08978E-13
 -1      1604 1.95009E+01-3.85072E-02 2.14848E-02-1.42993E-01-2.22114E-14-7.10921E-13
 -1      1605 1.98875E+01-1.12408E-01 2.26625E-03-3.47810E-01-5.65520E-14-3.93181E-13
 -1      1606 1.99224E+01-2.23155E-03 2.29106E-02-7.29234E-02-3.17732E-14-5.42618E-13
 -1      1607 1.97809E+01-4.39041E-03 1.52770E-02-6.98958E-02-6.66810E-14-6.63917E-13
 -1      1608 1.99755E+01-3.10321E-02 6.31306E-03-1.55650E-01-1.25316E-14-4.14121E-13
 -1      1609 1.99465E+01-4.01224E-02 2.39753E-02-4.68557E-02-2.57964E-13-2.81220E-13
 -1      1610 2.00811E+01-4.93309E-02-6.24283E-03-3.34556E-03-1.50525E-13 1.66828E-14
 -1      1611 2.00436E+01-4.94836E-02 6.80929E-03-2.89806E-02-1.98206E-13 2.35469E-13
 -1      1612 2.01773E+01 4.84551E-01-2.07231E-02 3.27119E-01 2.24059E-13 3.26955E-13
 -1      1613 2.01389E+01 1.03752E-01-1.66587E-02 2.38003E-01-2.85657E-14 9.37098E-15
 -1      1614 2.01951E+01 8.35408E-02-3.16476E-02 2.43969E-01-9.35727E-14 6.93352E-14
 -1      1615 2.02189E+01 1.96258E+00-3.27190E-02 8.76568E-01 3.66422E-13 1.36915E-13
 -1      1616 2.02182E+01 9.43045E-01-3.60204E-02 7.45670E-01 1.14520E-13 2.65135E-13
 -1      1617 2.03570E+01 6.34791E-01-5.12649E-02 1.03872E+00 4.24825E-14 2.72823E-13
 -1      1618 2.01527E+01 4.52690E+00-2.90602E-02 1.45161E+00 5.45064E-13-2.80487E-14
 -1      1619 2.02177E+01 2.83560E+00-4.31795E-02 1.33156E+00 3.98778E-13 2.58819E-13
 -1      1620 2.03775E+01 1.89843E+00-6.28386E-02 2.10426E+00 2.63765E-14 1.12306E-13
 -1      1621 1.99495E+01 7.70490E+00-1.79024E-03 1.70392E+00-4.82947E-15-2.16861E-13
 -1      1622 2.00804E+01 5.72818E+00-2.41655E-02 1.68236E+00 3.77975E-13-4.60043E-13
 -1      1623 2.01856E+01 3.93653E+00-3.69116E-02 2.96602E+00 2.24057E-14-4.64404E-13
 -1      1624 1.96806E+01 1.05604E+01 4.39822E-02 1.30959E+00-1.80050E-13-1.75342E-13
 -1      1625 1.98208E+01 8.95153E+00 2.18855E-02 1.45244E+00-3.59157E-14-1.83902E-13
 -1      1626 1.97886E+01 6.38869E+00 3.36443E-02 2.98393E+00 3.81431E-14-4.16802E-13
 -1      1627 1.95338E+01 1.17543E+01 7.32566E-02 2.63488E-01-1.08637E-14 2.31690E-14
 -1      1628 1.95815E+01 1.12961E+01 6.55968E-02 5.33013E-01-1.82424E-13 4.42493E-14
 -1      1629 1.93780E+01 8.41055E+00 1.21164E-01 1.74097E+00 2.28196E-13-1.69031E-13
 -1      1630 1.96365E+01 1.06281E+01 5.61195E-02-9.38978E-01 2.84481E-13-1.33296E-14
 -1      1631 1.95527E+01 1.15777E+01 6.92902E-02-6.94058E-01-4.08840E-14 1.88544E-13
 -1      1632 1.92359E+01 8.98948E+00 1.51092E-01-4.09295E-01 3.78469E-13 1.97911E-13
 -1      1633 1.99032E+01 7.70553E+00 8.90488E-03-1.67705E+00 1.19016E-13 6.86690E-14
 -1      1634 1.97536E+01 9.61966E+00 3.26165E-02-1.58343E+00 1.31228E-13-5.59622E-14
 -1      1635 1.94789E+01 7.77809E+00 9.87895E-02-2.38667E+00 1.46008E-13-1.20459E-13
 -1      1636 2.01401E+01 4.27123E+00-3.03252E-02-1.70740E+00-5.02279E-13-4.45879E-13
 -1      1637 2.00198E+01 6.34807E+00-9.90951E-03-1.76879E+00 2.33424E-14-3.23306E-13
 -1      1638 1.99180E+01 5.38211E+00 1.12815E-02-3.26049E+00-1.01245E-13-3.52222E-13
 -1      1639 2.02374E+01 1.50963E+00-4.13930E-02-1.24608E+00-1.01449E-12-1.35149E-13
 -1      1640 2.01903E+01 3.08788E+00-2.99399E-02-1.37690E+00-6.29566E-13-2.92474E-13
 -1      1641 2.02733E+01 2.85168E+00-4.90645E-02-2.92605E+00-1.96971E-13-7.04280E-13
 -1      1642 2.02185E+01-1.71512E-01-3.16808E-02-6.28955E-01-1.08365E-12 7.84234E-14
 -1      1643 2.02271E+01 7.07312E-01-2.91709E-02-7.59447E-01-1.08252E-12 1.14943E-13
 -1      1644 2.04040E+01 9.15711E-01-6.49020E-02-1.91558E+00-3.82342E-13-1.17333E-13
 -1      1645 2.01420E+01-7.70095E-01-1.51631E-02-1.16840E-01-9.37098E-13 1.04021E-13
 -1      1646 2.01797E+01-5.38830E-01-1.74756E-02-2.05959E-01-1.05703E-12 2.16101E-13
 -1      1647 2.03520E+01-1.90071E-01-5.29864E-02-8.15778E-01-4.56845E-13 7.66054E-14
 -1      1648 2.00609E+01-6.43006E-01 4.70410E-03 1.62699E-01-4.42479E-13 3.67183E-13
 -1      1649 2.00845E+01-8.16352E-01-8.11385E-03 1.37461E-01-8.37705E-13 3.24630E-13
 -1      1650 2.02123E+01-5.51279E-01-2.85870E-02-3.06836E-03-3.64642E-13 2.11622E-13
 -1      1651 1.99782E+01-2.89619E-01 9.40984E-03 2.72845E-01-3.33684E-13-1.33162E-14
 -1      1652 2.00146E+01-5.47410E-01-1.42231E-03 3.00462E-01-3.89862E-13 6.28707E-14
 -1      1653 2.00889E+01-4.12677E-01 8.51086E-03 4.03794E-01-3.65158E-13 3.72312E-13
 -1      1654 1.98236E+01-2.04829E-01-6.47478E-04 5.02164E-01-2.33368E-13 2.65093E-15
 -1      1655-5.72885E-01-1.74180E+01-2.03028E+00-9.69421E-01-8.93174E-13-3.36620E-13
 -1      1656-6.11682E-01-1.99540E+01-2.26329E+00 4.63778E-01-2.92516E-13-5.66269E-13
 -1      1657 1.41140E+00-1.01585E+01-1.50279E+00 4.01648E-01-9.20597E-13-2.61041E-13
 -1      1658 6.77122E-01-1.63340E+01-2.15926E+00-2.14194E-01-9.36362E-13-1.57950E-13
 -1      1659 8.95741E+00-6.29544E-01-4.85303E-01 5.90000E+00-6.48814E-13-4.79394E-13
 -1      1660 5.03370E+00-7.60495E+00-1.46971E+00 2.24954E+00-7.63611E-13-4.34708E-13
 -1      1661 2.07623E+01 6.23711E+00 5.01091E-01 1.16898E+01-4.48752E-13-4.91163E-13
 -1      1662 1.31584E+01 2.28844E+00-5.64563E-01 7.32769E+00-5.31131E-13-5.32907E-13
 -1      1663 3.62286E+01 7.72859E+00 1.32438E+00 1.47612E+01-6.43929E-14 5.66214E-14
 -1      1664 2.63677E+01 7.47962E+00 4.05129E-01 1.26092E+01-4.85612E-13-1.57652E-13
 -1      1665 5.12256E+01 5.99437E+00 1.93270E+00 1.22329E+01-6.19088E-14 2.65343E-13
 -1      1666 4.17091E+01 7.85865E+00 1.24711E+00 1.39945E+01 1.53766E-14 7.74936E-14
 -1      1667 6.01040E+01 4.02180E+00 2.20090E+00 4.87830E+00-7.92699E-14 3.69371E-13
 -1      1668 5.53344E+01 5.70321E+00 1.93742E+00 1.04110E+01-3.97737E-14 3.07199E-13
 -1      1669 5.74794E+01 4.20920E+00 1.81836E+00-4.37192E+00 4.68514E-14 3.05422E-13
 -1      1670 6.01459E+01 3.94006E+00 2.12940E+00 1.90481E+00 1.36890E-13 4.95680E-13
 -1      1671 4.49243E+01 5.66631E+00 1.08633E+00-9.76538E+00-3.98293E-15 2.62013E-14
 -1      1672 5.36234E+01 4.13582E+00 1.71055E+00-6.24631E+00-2.69229E-15 7.91589E-14
 -1      1673 3.01777E+01 6.24732E+00 3.94168E-01-1.15070E+01 4.28435E-13-2.20712E-13
 -1      1674 4.02680E+01 5.62132E+00 1.23797E+00-1.21381E+01 1.64702E-13 3.19744E-14
 -1      1675 1.64530E+01 2.00908E+00-4.45444E-01-7.14701E+00 5.10925E-13-4.21663E-13
 -1      1676 2.51011E+01 4.55923E+00 5.14180E-01-1.06762E+01 3.69926E-13-1.91624E-13
 -1      1677 6.04853E+00-4.61505E+00-1.18859E+00-2.43138E+00 5.97078E-13-3.30624E-13
 -1      1678 1.07113E+01 7.57912E-01-3.39648E-01-6.10249E+00 5.62217E-13-5.34572E-13
 -1      1679 1.49099E+00-1.27569E+01-1.62147E+00 2.35155E-01 2.33147E-13-3.90382E-13
 -1      1680 2.95219E+00-6.89134E+00-1.02567E+00-1.26832E+00 5.48450E-13-4.58189E-13
 -1      1681-4.90517E-01-1.83640E+01-1.88594E+00 4.62391E-01-1.51879E-13-2.57350E-13
 -1      1682-4.97817E-01-1.46857E+01-1.59096E+00 1.41698E+00 2.67453E-13-3.63001E-13
 -1      1683-8.86763E-01-1.81982E+01-1.76474E+00-7.69720E-01-7.91700E-13-4.00846E-13
 -1      1684-9.09952E-01-1.86254E+01-1.80430E+00 9.76419E-01-2.74433E-13-3.55882E-13
 -1      1685-3.07293E-02-1.32065E+01-1.49000E+00-8.15034E-01-7.66165E-13-7.40102E-14
 -1      1686-2.15659E-01-1.76128E+01-1.85803E+00-2.08470E-01-1.03878E-12-7.07767E-15
 -1      1687 3.54055E+00-4.87956E+00-9.48300E-01 1.98399E+00-1.27454E-13 3.82250E-13
 -1      1688 1.67911E+00-1.11852E+01-1.65460E+00-4.48743E-02-6.29718E-13-7.49401E-14
 -1      1689 1.38392E+01 2.01848E+00-1.18694E-01 7.74342E+00 1.11910E-13-1.06248E-13
 -1      1690 8.13168E+00-2.94670E+00-1.00643E+00 3.78609E+00-5.55112E-15 1.15685E-13
 -1      1691 2.84929E+01 5.24328E+00 7.03846E-01 1.14646E+01-1.75304E-13-8.23341E-13
 -1      1692 1.95090E+01 3.43910E+00-2.17266E-01 8.42708E+00 9.27036E-14-5.10259E-13
 -1      1693 4.37198E+01 5.91023E+00 1.49144E+00 1.23275E+01-3.68761E-13-1.32139E-12
 -1      1694 3.36319E+01 6.93702E+00 6.50519E-01 1.24182E+01-3.57492E-13-1.02873E-12
 -1      1695 5.55961E+01 4.09629E+00 1.85906E+00 6.49454E+00-6.46982E-14-1.77391E-12
 -1      1696 4.82606E+01 5.70315E+00 1.34983E+00 1.04548E+01-2.21517E-13-1.50435E-12
 -1      1697 5.91477E+01 3.97400E+00 1.88863E+00-2.42730E+00-5.32907E-15-1.87204E-12
 -1      1698 5.78415E+01 4.22266E+00 1.84836E+00 3.87155E+00-5.14588E-14-1.88061E-12
 -1      1699 5.25279E+01 5.86524E+00 1.51340E+00-9.29032E+00 4.59188E-13-1.82954E-12
 -1      1700 5.69146E+01 4.47101E+00 1.75515E+00-4.61464E+00 2.40918E-13-1.84441E-12
 -1      1701 4.11316E+01 7.86592E+00 1.15308E+00-1.38434E+01 6.16007E-13-1.65179E-12
 -1      1702 5.02447E+01 5.81482E+00 1.69144E+00-1.18711E+01 5.39985E-13-1.91958E-12
 -1      1703 2.57645E+01 7.51736E+00 3.63490E-01-1.24882E+01 6.63580E-13-1.13087E-12
 -1      1704 3.58146E+01 7.78258E+00 1.29142E+00-1.46961E+01 7.33635E-13-1.40576E-12
 -1      1705 1.32647E+01 1.99152E+00-5.63615E-01-7.29235E+00 4.37872E-13-9.31477E-13
 -1      1706 2.05880E+01 5.85948E+00 4.71853E-01-1.14559E+01 6.05960E-13-1.06470E-12
 -1      1707 4.77635E+00-6.60270E+00-1.44472E+00-2.24950E+00 1.18683E-12-3.31957E-13
 -1      1708 8.46055E+00 1.22856E-02-4.66205E-01-5.73408E+00 6.47260E-13-3.43725E-13
 -1      1709 1.09939E+00-1.56829E+01-2.01834E+00-3.10918E-01 8.43881E-13-3.81795E-13
 -1      1710 2.15628E+00-9.17364E+00-1.31713E+00-1.22518E+00 8.73301E-13-4.45699E-13
 -1      1711-6.58659E-01-2.02886E+01-2.31559E+00-5.23207E-01 2.84772E-14-5.08094E-13
 -1      1712-6.63866E-01-1.75855E+01-2.05691E+00 1.03033E+00 6.08846E-13-3.16747E-13
 -1      1713 2.81168E+01 1.69573E+00 4.61997E-01 8.96686E+00-4.96603E-13-9.37028E-14
 -1      1714 1.70421E+01-3.73821E+00-3.19262E-01 7.73589E+00-5.36127E-13-2.73115E-13
 -1      1715 2.00041E+01-5.12313E-02 1.40017E-02-9.25646E-02-3.17704E-13 9.87040E-14
 -1      1716 2.00288E+01-1.49065E-02-6.99705E-03-7.86076E-02-1.29700E-13 2.47849E-13
 -1      1717 7.33056E-01-1.23129E+01-1.48169E+00 2.88201E+00-5.32130E-13-2.64289E-13
 -1      1718 7.33527E+00-8.76133E+00-9.70388E-01 5.75454E+00-4.73177E-13-1.35641E-13
 -1      1719-1.42697E+00-1.32860E+01-1.59415E+00 1.74750E-02-1.44870E-13-8.93563E-13
 -1      1720 3.91414E+01 5.25602E+00 1.11164E+00 8.36521E+00-1.23845E-13 9.76996E-14
 -1      1721 4.77067E+01 7.38871E+00 1.58284E+00 5.94806E+00-1.20681E-13 1.04583E-13
 -1      1722 5.15310E+01 8.01860E+00 1.77170E+00 2.36508E+00-5.38458E-14 4.27797E-13
 -1      1723 4.76871E+01 7.16957E+00 1.34817E+00-1.05350E+00 2.17992E-13 1.92346E-13
 -1      1724 4.10184E+01 4.86492E+00 1.09108E+00-4.64365E+00 1.37751E-13 1.66089E-13
 -1      1725 3.07692E+01 1.02664E+00 4.50329E-01-6.31708E+00 2.63567E-13 1.33560E-13
 -1      1726 1.96306E+01-3.24224E+00-1.16702E-01-6.29255E+00 1.98841E-13-3.87468E-14
 -1      1727 9.16002E+00-7.45338E+00-7.15381E-01-4.94981E+00 1.53766E-13-2.33230E-13
 -1      1728 2.16699E+00-1.11102E+01-1.10147E+00-2.97016E+00-8.17124E-14-3.78086E-13
 -1      1729-1.37677E+00-1.29507E+01-1.29690E+00-6.69679E-01-5.01543E-14-5.79037E-13
 -1      1730-9.74533E-01-1.27296E+01-1.27661E+00 1.42693E+00-3.41727E-13-2.17049E-13
 -1      1731 2.84242E+00-1.04504E+01-1.10990E+00 3.39382E+00-3.93907E-13 1.69753E-13
 -1      1732 1.10966E+01-6.17493E+00-5.28212E-01 5.78179E+00-1.78524E-13 2.34562E-13
 -1      1733 2.24276E+01-2.27564E+00 5.06201E-02 6.70904E+00 5.24025E-14-6.05516E-13
 -1      1734 3.30361E+01 2.15701E+00 5.39264E-01 6.46222E+00-3.98570E-14-9.70557E-13
 -1      1735 4.30941E+01 5.82989E+00 1.23757E+00 5.41705E+00-9.07677E-14-1.53877E-12
 -1      1736 4.93228E+01 7.49734E+00 1.55491E+00 1.82502E+00 5.37348E-14-1.69348E-12
 -1      1737 4.90712E+01 8.32903E+00 1.43114E+00-1.74272E+00 7.79377E-14-1.52606E-12
 -1      1738 4.56667E+01 7.59906E+00 1.35742E+00-5.30105E+00 5.19751E-13-1.63314E-12
 -1      1739 3.87525E+01 5.41514E+00 1.11627E+00-8.40090E+00 7.40491E-13-1.81566E-12
 -1      1740 2.78728E+01 1.50589E+00 4.24382E-01-8.85801E+00 4.49196E-13-9.84435E-13
 -1      1741 1.69534E+01-3.35311E+00-2.64221E-01-7.83171E+00 7.19425E-13-8.46323E-13
 -1      1742 7.50889E+00-8.41751E+00-9.67158E-01-5.81959E+00 6.51479E-13-3.10585E-13
 -1      1743 1.06315E+00-1.20177E+01-1.40850E+00-3.42714E+00 3.40394E-13-4.84501E-13
 -1      1744 2.28610E+01 1.98492E+00-2.35578E-02-2.72216E+00-1.87843E-13 5.03791E-13
 -1      1745 1.98257E+01 3.71368E+00-3.54717E-02-2.15227E+00-1.85085E-13-3.06574E-13
 -1      1746 2.00588E+01 3.56271E+00-4.02442E-02-2.44453E+00-2.28794E-13-2.41585E-13
 -1      1747 2.03645E+01 3.18156E+00-4.57881E-02-2.58440E+00-2.42863E-13-1.59796E-13
 -1      1748 2.05849E+01 2.80976E+00-1.42525E-01-2.85274E+00-2.70953E-13-5.64618E-14
 -1      1749 2.04251E+01 2.69285E+00-4.24422E-03-2.22383E+00-2.49320E-13-1.75499E-13
 -1      1750 1.93546E+01 4.18894E+00-2.00345E-02-1.27002E+00-7.22417E-14-3.99564E-13
 -1      1751 1.94288E+01 4.14938E+00-1.68715E-02-1.49442E+00-1.01367E-13-3.96325E-13
 -1      1752 1.92574E+01 4.29488E+00-1.67392E-02-8.59235E-01-1.81452E-14-3.92353E-13
 -1      1753 1.93004E+01 4.27094E+00-1.42216E-02-1.06993E+00-4.61280E-14-4.00971E-13
 -1      1754 1.95265E+01 3.78341E+00-8.92159E-03-1.11899E+00-6.99483E-14-3.84633E-13
 -1      1755 1.92056E+01 4.35527E+00-1.47839E-02-4.66588E-01 3.55793E-14-3.92287E-13
 -1      1756 1.92277E+01 4.34243E+00-1.32939E-02-6.66811E-01 1.40020E-14-3.93328E-13
 -1      1757 1.94286E+01 3.90361E+00-9.13603E-03-7.32865E-01 1.18178E-15-3.72178E-13
 -1      1758 1.91861E+01 4.38086E+00-1.36627E-02-8.35910E-02 8.87182E-14-3.73665E-13
 -1      1759 1.91926E+01 4.37695E+00-1.32088E-02-2.78963E-01 6.75924E-14-3.87426E-13
 -1      1760 1.93781E+01 3.96799E+00-9.14261E-03-3.58152E-01 5.60481E-14-3.73033E-13
 -1      1761 1.91942E+01 4.37556E+00-1.31677E-02 2.98012E-01 1.27781E-13-3.42974E-13
 -1      1762 1.91866E+01 4.38002E+00-1.37491E-02 1.02476E-01 1.10407E-13-3.63777E-13
 -1      1763 1.93633E+01 3.98737E+00-9.14270E-03 1.05509E-02 1.07547E-13-3.54328E-13
 -1      1764 1.92317E+01 4.33837E+00-1.33267E-02 6.86598E-01 1.65741E-13-3.11740E-13
 -1      1765 1.92084E+01 4.35206E+00-1.49151E-02 4.85863E-01 1.44498E-13-3.30624E-13
 -1      1766 1.93808E+01 3.96466E+00-9.18877E-03 3.79449E-01 1.43766E-13-3.21840E-13
 -1      1767 1.93056E+01 4.26497E+00-1.44076E-02 1.08412E+00 2.12846E-13-2.62144E-13
 -1      1768 1.92620E+01 4.28943E+00-1.69742E-02 8.76209E-01 1.88206E-13-2.85882E-13
 -1      1769 1.94339E+01 3.89716E+00-9.19235E-03 7.51459E-01 1.86846E-13-2.89544E-13
 -1      1770 1.94377E+01 4.13775E+00-1.74028E-02 1.51404E+00 2.67860E-13-1.87548E-13
 -1      1771 1.93610E+01 4.18032E+00-2.05051E-02 1.28454E+00 2.40137E-13-2.31518E-13
 -1      1772 1.95339E+01 3.77323E+00-9.24416E-03 1.13508E+00 2.44771E-13-2.26345E-13
 -1      1773 1.96674E+01 3.92120E+00-2.51931E-02 1.97906E+00 3.02004E-13-8.32633E-14
 -1      1774 1.95343E+01 3.99796E+00-2.69057E-02 1.72174E+00 2.77888E-13-1.46140E-13
 -1      1775 1.97078E+01 3.56613E+00-8.70037E-03 1.53472E+00 2.87534E-13-1.53289E-13
 -1      1776 2.00767E+01 3.52285E+00-4.51812E-02 2.47147E+00 3.21146E-13 7.13110E-14
 -1      1777 1.98363E+01 3.68331E+00-3.97265E-02 2.18237E+00 3.02177E-13-2.69264E-14
 -1      1778 2.00048E+01 3.22298E+00-5.26796E-03 1.93399E+00 3.15536E-13-3.80529E-14
 -1      1779 2.09226E+01 2.68182E+00-5.76436E-02 2.85724E+00 2.81847E-13 3.67512E-13
 -1      1780 2.04149E+01 3.09696E+00-5.04308E-02 2.61541E+00 3.02161E-13 1.89002E-13
 -1      1781 2.05186E+01 2.60998E+00 3.18751E-03 2.24396E+00 3.13054E-13 1.28120E-13
 -1      1782 2.17331E+01 1.21296E+00-1.22090E-01 2.32942E+00 2.20247E-13 7.33663E-13
 -1      1783 2.12765E+01 2.26304E+00 1.16856E-04 2.73996E+00 2.53259E-13 4.94840E-13
 -1      1784 2.09392E+01 1.68503E+00-2.29536E-02 2.13965E+00 2.83575E-13 3.54758E-13
 -1      1785 2.09546E+01 7.78668E-01-6.24417E-02 1.52373E+00 2.21892E-13 6.55928E-13
 -1      1786 2.17990E+01 2.45821E+00 9.09052E-02-3.04773E+00-2.47705E-13 1.48714E-13
 -1      1787 2.01041E+01 2.97948E-01-8.90949E-03 6.56577E-01 1.71134E-13 5.29755E-13
 -1      1788 2.06560E+01 4.40410E-01-1.24633E-02 1.03362E+00 1.86330E-13 6.00524E-13
 -1      1789 2.07470E+01 8.45119E-01 2.24712E-03 1.41461E+00 2.29761E-13 4.23047E-13
 -1      1790 2.15092E+01 1.74231E+00 7.94324E-02-2.33664E+00-2.53384E-13 6.99857E-14
 -1      1791 2.05232E+01 5.00584E-01 3.23886E-02-9.21206E-01-1.90722E-13 4.04527E-14
 -1      1792 2.00917E+01 3.52120E-01 7.56622E-03-6.29338E-01-1.70405E-13-9.21832E-15
 -1      1793 1.98972E+01 2.57463E-01 2.74084E-02-3.90743E-01-1.53271E-13 1.09635E-15
 -1      1794 1.97065E+01 1.78066E-01 1.04202E-02-2.52896E-01-1.33435E-13-3.86895E-14
 -1      1795 2.02011E+01 4.83526E-01-5.98118E-03-7.22162E-01-1.87198E-13-7.22807E-14
 -1      1796 1.95845E+01 1.32658E-01 1.66506E-02-1.19455E-01-1.22932E-13-2.16077E-14
 -1      1797 1.95065E+01 9.29911E-02 6.95920E-03-4.87045E-02-8.56129E-14-5.11501E-14
 -1      1798 1.98754E+01 2.43791E-01-5.78739E-03-2.95014E-01-1.41076E-13-7.25565E-14
 -1      1799 1.94417E+01 6.83074E-02 8.67502E-03 2.47512E-02-6.70555E-14-5.13565E-14
 -1      1800 1.94272E+01 4.66041E-02 4.10147E-03 6.08625E-02-5.16366E-14-6.51946E-14
 -1      1801 1.96928E+01 1.25106E-01-4.63828E-03-5.84139E-02-9.28654E-14-5.78363E-14
 -1      1802 1.94012E+01 3.22464E-02 4.22796E-03 9.94719E-02-7.15109E-14-7.84730E-14
 -1      1803 1.94209E+01 1.97789E-02 2.42161E-03 1.16150E-01-8.88902E-14-1.00264E-13
 -1      1804 1.96063E+01 6.07465E-02-3.45548E-03 7.09908E-02-7.75417E-14-7.94044E-14
 -1      1805 1.94191E+01 1.11127E-02 1.84529E-03 1.33922E-01-1.10821E-13-9.63337E-14
 -1      1806 1.94561E+01 3.89701E-03 1.43433E-03 1.39216E-01-9.35124E-14-1.21089E-13
 -1      1807 1.95819E+01 2.37835E-02-2.32829E-03 1.37112E-01-9.94578E-14-8.85677E-14
 -1      1808 1.94684E+01-1.32953E-03 5.42581E-04 1.44402E-01-8.36979E-14-1.14213E-13
 -1      1809 1.95124E+01-5.35241E-03 8.17145E-04 1.43013E-01-5.81182E-14-1.05696E-13
 -1      1810 1.95952E+01 2.15478E-03-1.42648E-03 1.65034E-01-8.17705E-14-8.56721E-14
 -1      1811 1.95321E+01-8.37881E-03-1.80467E-04 1.40733E-01-8.39505E-14-1.22825E-13
 -1      1812 1.95771E+01-1.03862E-02 4.17034E-04 1.35592E-01-5.66518E-14-1.52746E-13
 -1      1813 1.96294E+01-1.02166E-02-7.79066E-04 1.69897E-01-7.39062E-14-1.21205E-13
 -1      1814 1.95997E+01-1.19659E-02-5.68429E-04 1.29141E-01-5.87055E-14-2.05660E-13
 -1      1815 1.96422E+01-1.26843E-02 1.59807E-04 1.22136E-01-7.81001E-14-2.70105E-13
 -1      1816 1.96735E+01-1.67367E-02-3.44602E-04 1.61274E-01-1.20369E-13-1.74165E-13
 -1      1817 1.96652E+01-1.33067E-02-7.50715E-04 1.13669E-01-3.61619E-14-2.90334E-13
 -1      1818 1.97034E+01-1.32063E-02 2.94098E-06 1.06025E-01-1.86340E-14-2.96166E-13
 -1      1819 1.97203E+01-1.94849E-02-6.92763E-05 1.45388E-01-9.14439E-14-2.08960E-13
 -1      1820 1.97250E+01-1.31998E-02-8.03680E-04 9.69566E-02-1.62727E-14-3.11664E-13
 -1      1821 1.97581E+01-1.25901E-02-8.13673E-05 8.94652E-02 1.73885E-14-2.94787E-13
 -1      1822 1.97658E+01-1.98023E-02 9.21394E-05 1.26327E-01-1.58893E-14-2.32696E-13
 -1      1823 1.97776E+01-1.21764E-02-7.75853E-04 8.07122E-02 5.44879E-14-3.15533E-13
 -1      1824 1.98056E+01-1.12583E-02-1.11956E-04 7.38753E-02 3.85074E-14-2.61559E-13
 -1      1825 1.98076E+01-1.85742E-02 1.73315E-04 1.06772E-01 2.36676E-14-2.94588E-13
 -1      1826 1.98227E+01-1.05827E-02-6.99009E-04 6.60279E-02 1.33356E-14-2.53988E-13
 -1      1827 1.98460E+01-9.47963E-03-1.01160E-04 6.01605E-02-2.37592E-14-2.24548E-13
 -1      1828 1.98446E+01-1.63802E-02 1.98207E-04 8.84628E-02 3.40514E-14-2.30264E-13
 -1      1829 1.98608E+01-8.63112E-03-5.93843E-04 5.36003E-02-8.85764E-14-2.14311E-13
 -1      1830 1.98803E+01-7.40845E-03-5.62718E-05 4.89058E-02-1.93289E-14-2.01004E-13
 -1      1831 1.98769E+01-1.35819E-02 1.83326E-04 7.25283E-02-5.07884E-14-1.99091E-13
 -1      1832 1.98932E+01-6.43314E-03-4.73363E-04 4.38943E-02 3.70454E-15-2.39583E-13
 -1      1833 1.99096E+01-5.11249E-03 1.94204E-05 4.05202E-02-7.72554E-15-2.55904E-13
 -1      1834 1.99048E+01-1.03791E-02 1.39571E-04 5.97180E-02-3.91551E-14-1.52572E-13
 -1      1835 1.99212E+01-4.02349E-03-3.45151E-04 3.72657E-02-1.19113E-14-3.15036E-13
 -1      1836 1.99357E+01-2.59275E-03 1.25841E-04 3.53470E-02 5.40692E-16-3.14890E-13
 -1      1837 1.99296E+01-6.84864E-03 7.36589E-05 5.05801E-02-5.01554E-14-2.17405E-13
 -1      1838 1.99468E+01-1.37794E-03-2.12989E-04 3.40551E-02 1.12847E-14-3.33711E-13
 -1      1839 1.99607E+01 2.00832E-04 2.65435E-04 3.37470E-02-4.64933E-14-2.84531E-13
 -1      1840 1.99525E+01-2.97325E-03-1.08090E-05 4.55947E-02 6.93127E-15-1.77879E-13
 -1      1841 1.99721E+01 1.57231E-03-7.81138E-05 3.46587E-02-6.90267E-14-2.09084E-13
 -1      1842 1.99868E+01 3.35603E-03 4.42482E-04 3.61610E-02 1.74483E-14-2.23888E-13
 -1      1843 1.99751E+01 1.33587E-03-1.12460E-04 4.52736E-02-4.40033E-15-1.66733E-13
 -1      1844 1.99996E+01 4.92758E-03 5.97575E-05 3.95798E-02 1.53674E-14-2.96435E-13
 -1      1845 2.00167E+01 6.98527E-03 6.62279E-04 4.31535E-02 5.99112E-14-2.96502E-13
 -1      1846 1.99995E+01 6.21915E-03-2.31370E-04 5.02336E-02-3.23131E-14-1.11293E-13
 -1      1847 2.00322E+01 8.80601E-03 2.01507E-04 4.94609E-02 5.01093E-14-3.31929E-13
 -1      1848 2.00536E+01 1.12105E-02 9.30013E-04 5.54360E-02-4.56331E-14-3.25417E-13
 -1      1849 2.00279E+01 1.18484E-02-3.68330E-04 6.12450E-02 2.22771E-14-1.88159E-13
 -1      1850 2.00730E+01 1.33263E-02 3.47713E-04 6.50940E-02-1.62895E-14-2.80873E-13
 -1      1851 2.01009E+01 1.61423E-02 1.24907E-03 7.38658E-02 4.56568E-14-2.17062E-13
 -1      1852 2.00629E+01 1.84019E-02-5.24087E-04 7.92508E-02 1.76860E-14-2.24227E-13
 -1      1853 2.01258E+01 1.85832E-02 4.97678E-04 8.74012E-02 2.04642E-14-1.70303E-13
 -1      1854 2.01627E+01 2.18493E-02 1.61847E-03 9.94097E-02 8.46013E-14-2.12296E-13
 -1      1855 2.01075E+01 2.60303E-02-6.98495E-04 1.05352E-01 6.02797E-14-8.22670E-14
 -1      1856 2.01949E+01 2.46099E-02 6.48327E-04 1.17372E-01 1.97151E-14-2.74380E-13
 -1      1857 2.02435E+01 2.83105E-02 2.02892E-03 1.33056E-01 3.85943E-15-2.60720E-13
 -1      1858 2.01651E+01 3.48038E-02-8.89544E-04 1.40743E-01-1.33946E-14-1.88940E-13
 -1      1859 2.02850E+01 3.13201E-02 7.92937E-04 1.55936E-01 4.46776E-14-3.70915E-13
 -1      1860 2.03483E+01 3.53413E-02 2.45698E-03 1.75649E-01-3.28682E-14-4.28787E-13
 -1      1861 2.02394E+01 4.46316E-02-1.09227E-03 1.86572E-01-7.25131E-15-3.01431E-13
 -1      1862 2.04010E+01 3.84183E-02 9.19749E-04 2.03737E-01-1.09339E-14-3.56580E-13
 -1      1863 2.04821E+01 4.24802E-02 2.85654E-03 2.27599E-01-1.74741E-14-3.50101E-13
 -1      1864 2.03343E+01 5.51368E-02-1.29764E-03 2.43694E-01 2.76061E-14-3.78806E-13
 -1      1865 2.05481E+01 4.52641E-02 1.01072E-03 2.60757E-01-1.14774E-14-2.65896E-13
 -1      1866 2.06498E+01 4.88207E-02 3.14736E-03 2.88423E-01 7.17749E-14-2.24799E-13
 -1      1867 2.04540E+01 6.54664E-02-1.49153E-03 3.12261E-01 6.79450E-14-2.05149E-13
 -1      1868 2.07308E+01 5.06740E-02 1.04090E-03 3.25726E-01 9.48033E-14-2.91027E-13
 -1      1869 2.08551E+01 5.27722E-02 3.20080E-03 3.56024E-01 1.67747E-13-2.72844E-13
 -1      1870 2.06022E+01 7.40127E-02-1.65416E-03 3.91080E-01 7.24956E-14-2.33355E-13
 -1      1871 2.09525E+01 5.26496E-02 9.79584E-04 3.95239E-01 1.15275E-13-3.46535E-13
 -1      1872 2.10995E+01 5.17504E-02 2.82576E-03 4.25639E-01-3.74664E-14-3.22893E-13
 -1      1873 2.07821E+01 7.80285E-02-1.75996E-03 4.76650E-01 1.01319E-13-2.87247E-13
 -1      1874 2.12137E+01 4.80460E-02 7.94475E-04 4.62492E-01-1.22321E-13-2.78841E-13
 -1      1875 2.13806E+01 4.18394E-02 1.76215E-03 4.88395E-01-5.75490E-14-2.14175E-13
 -1      1876 2.09953E+01 7.31503E-02-1.77778E-03 5.61794E-01-5.02408E-15-3.69689E-13
 -1      1877 2.15107E+01 3.22658E-02 4.60110E-04 5.15642E-01-1.51393E-13-2.49262E-13
 -1      1878 2.16898E+01 1.75875E-02-3.01330E-04 5.29536E-01-1.52737E-13-3.12410E-13
 -1      1879 2.12410E+01 5.29390E-02-1.66943E-03 6.33867E-01-1.38796E-13-2.11455E-13
 -1      1880 2.18328E+01-7.72563E-04-3.14321E-05 5.35978E-01-1.81739E-13-3.11810E-13
 -1      1881 2.20093E+01-2.76678E-02-3.65541E-03 5.26717E-01-1.80554E-13-2.96584E-13
 -1      1882 2.15146E+01 8.76296E-03-1.38188E-03 6.72690E-01-1.75224E-13-2.60421E-13
 -1      1883 2.21592E+01-5.78329E-02-6.66617E-04 4.96596E-01-2.10162E-13-3.22285E-13
 -1      1884 2.23093E+01-1.00155E-01-8.40198E-03 4.49431E-01-8.09515E-14-3.20201E-13
 -1      1885 2.18063E+01-6.92336E-02-8.23192E-04 6.48814E-01-1.78267E-13-2.52234E-13
 -1      1886 2.24553E+01-1.43720E-01-1.43612E-03 3.63202E-01 2.92158E-14-3.18958E-13
 -1      1887 2.25452E+01-2.01490E-01-1.41508E-02 2.61814E-01 8.80676E-14-4.38083E-13
 -1      1888 2.20983E+01-1.88717E-01 1.85355E-04 5.23623E-01-4.36057E-14-1.84444E-13
 -1      1889 2.26696E+01-2.55518E-01-2.39746E-03 1.00134E-01 2.11658E-13-4.92638E-13
 -1      1890 2.26576E+01-3.20911E-01-1.95790E-02-6.75169E-02 1.43989E-13-4.08570E-13
 -1      1891 2.23617E+01-3.47521E-01 1.96928E-03 2.54217E-01 1.13213E-13-2.43632E-13
 -1      1892 2.27322E+01-3.73216E-01-3.70805E-03-3.14114E-01 6.89483E-14-3.34849E-13
 -1      1893 2.25770E+01-4.25164E-01-2.22186E-02-5.44572E-01 1.09442E-13-2.77639E-13
 -1      1894 2.25515E+01-5.20998E-01 5.00582E-03-1.92369E-01 2.04599E-13-2.41148E-13
 -1      1895 2.25622E+01-4.50586E-01-5.83356E-03-8.58825E-01 2.06460E-13-1.45136E-13
 -1      1896 2.22385E+01-4.53593E-01-1.89619E-02-1.11839E+00 1.88243E-13-4.31434E-14
 -1      1897 2.26031E+01-6.48207E-01 9.44142E-03-8.10933E-01 2.26352E-13-1.22931E-13
 -1      1898 2.20908E+01-4.17230E-01-8.48633E-03-1.43696E+00 5.31346E-14-1.54814E-13
 -1      1899 2.16111E+01-3.34550E-01-8.06874E-03-1.65208E+00 3.12051E-14-4.51323E-14
 -1      1900 2.24378E+01-6.33423E-01 1.38287E-02-1.51799E+00 1.13188E-13-1.30889E-13
 -1      1901 2.13102E+01-2.12365E-01-1.02735E-02-1.86116E+00 7.04142E-14 1.04011E-13
 -1      1902 2.07418E+01-3.81473E-02 7.49101E-03-1.93302E+00 3.20603E-14 1.99313E-13
 -1      1903 2.19940E+01-3.84554E-01 1.45836E-02-2.12086E+00 1.99525E-13-2.51145E-15
 -1      1904 2.03333E+01 1.49932E-01-7.59159E-03-1.90698E+00-7.37257E-14 2.80671E-13
 -1      1905 1.97920E+01 3.57838E-01 1.94557E-02-1.76231E+00 8.13351E-14 1.89721E-13
 -1      1906 2.12931E+01 9.88122E-02 6.52361E-03-2.34770E+00 3.62995E-14 2.51697E-13
 -1      1907 1.94057E+01 5.30279E-01 2.28077E-03-1.45090E+00 3.65350E-14 1.32186E-15
 -1      1908 1.90180E+01 6.64296E-01 2.01977E-02-1.10958E+00 8.31939E-14 6.17497E-14
 -1      1909 2.05034E+01 6.54176E-01-9.09822E-03-1.98462E+00-1.01742E-15 2.68062E-13
 -1      1910 1.88033E+01 7.22836E-01 1.60902E-02-6.11819E-01 2.71179E-13-7.97890E-14
 -1      1911 1.86494E+01 7.04631E-01 1.08740E-02-2.03284E-01 2.21384E-13 2.59554E-14
 -1      1912 1.99024E+01 1.00681E+00-2.12152E-02-1.07423E+00 6.33920E-14 2.07929E-13
 -1      1913 1.86570E+01 6.19179E-01 2.45321E-02 2.69679E-01 1.22935E-13 6.18234E-14
 -1      1914 1.87318E+01 4.73280E-01 8.79801E-04 5.82779E-01 2.90786E-13 2.36715E-13
 -1      1915 1.96939E+01 9.65485E-01-1.85627E-02 2.40648E-02 2.59382E-13 5.82377E-14
 -1      1916 1.88687E+01 3.13843E-01 2.04939E-02 8.54193E-01 2.77629E-13 2.33374E-13
 -1      1917 1.90944E+01 1.44136E-01-2.51801E-03 9.86521E-01 1.89980E-13 2.62946E-13
 -1      1918 1.98358E+01 5.91898E-01-3.38215E-03 8.51765E-01 2.76714E-13 1.40988E-13
 -1      1919 1.92170E+01 1.07432E-02 6.72337E-03 1.02586E+00 6.39789E-14 3.68392E-13
 -1      1920 1.94916E+01-9.31269E-02-2.95989E-04 1.00353E+00 6.65281E-14 3.14179E-13
 -1      1921 2.00897E+01 1.38920E-01 9.15072E-03 1.17488E+00 1.78208E-13 2.79812E-13
 -1      1922 1.95176E+01-1.50493E-01-6.93371E-03 9.04976E-01 2.92795E-14 1.55074E-13
 -1      1923 1.97610E+01-1.72097E-01 3.88272E-03 8.09280E-01 4.72304E-14 1.85501E-13
 -1      1924 2.02296E+01-1.61343E-01 1.02513E-02 1.08108E+00-3.18448E-14 4.17721E-13
 -1      1925 1.96896E+01-1.82698E-01-1.14259E-02 7.02819E-01 1.55570E-13-5.19376E-15
 -1      1926 1.98795E+01-1.91722E-01 5.17309E-03 5.82175E-01 4.83814E-15 4.84957E-14
 -1      1927 2.00548E+01-2.79676E-01 7.72778E-03 6.18463E-01-1.38139E-13 1.15562E-13
 -1      1928 2.01867E+01-2.42445E-01 1.44805E-02 8.35093E-01-1.74687E-14 2.16938E-13
 -1      1929 1.96217E+01 1.42053E-01 7.88639E-03 2.58933E-01 1.79412E-13 4.17940E-13
 -1      1930 1.98936E+01 2.04110E-01 1.64356E-02 4.31948E-01 1.57218E-13 4.93890E-13
 -1      1931 2.01049E+01 3.50568E-01-1.53064E-03 6.54418E-01 1.94568E-13 3.45274E-13
 -1      1932 1.93797E+01 7.19395E-02 6.94813E-03 5.59208E-02 1.37335E-13 3.54562E-13
 -1      1933 1.94945E+01 1.01824E-01 1.41949E-02 1.44464E-01 1.46837E-13 4.01169E-13
 -1      1934 1.97125E+01 1.65213E-01-1.94743E-03 2.55632E-01 1.71708E-13 3.02915E-13
 -1      1935 1.92896E+01 3.61605E-02 4.42909E-03-4.95698E-02 5.70507E-14 3.04760E-13
 -1      1936 1.93195E+01 5.19810E-02 8.33379E-03-2.34153E-03 9.34478E-14 3.34196E-13
 -1      1937 1.95125E+01 8.07069E-02-2.82818E-03 4.36004E-02 1.19158E-13 2.27940E-13
 -1      1938 1.92882E+01 1.62127E-02 2.86120E-03-1.02072E-01 8.79461E-15 2.68016E-13
 -1      1939 1.92728E+01 2.50788E-02 4.34804E-03-7.74347E-02 2.42762E-14 2.94379E-13
 -1      1940 1.94337E+01 3.74904E-02-2.84438E-03-6.83178E-02 3.92074E-14 1.72781E-13
 -1      1941 1.93357E+01 4.56848E-03 1.98696E-03-1.24157E-01 5.81472E-14 2.43515E-13
 -1      1942 1.92972E+01 9.60784E-03 2.14347E-03-1.12720E-01 2.07780E-14 2.57749E-13
 -1      1943 1.94274E+01 1.36460E-02-2.31282E-03-1.23864E-01 3.40797E-14 1.33357E-13
 -1      1944 1.94074E+01-2.23839E-03 1.44393E-03-1.28331E-01 3.38587E-14 2.27289E-13
 -1      1945 1.93587E+01 5.15661E-04 9.44795E-04-1.24836E-01 5.54597E-14 2.44837E-13
 -1      1946 1.94621E+01 4.27464E-05-1.69110E-03-1.46376E-01 6.70874E-14 1.28911E-13
 -1      1947 1.94880E+01-6.02927E-03 1.06176E-03-1.22126E-01 4.09355E-14 1.54583E-13
 -1      1948 1.94369E+01-4.69850E-03 2.71203E-04-1.23367E-01 4.73495E-14 2.07224E-13
 -1      1949 1.95178E+01-7.58791E-03-1.16825E-03-1.49308E-01 6.49574E-14 1.31536E-13
 -1      1950 1.95683E+01-7.87857E-03 7.76084E-04-1.10303E-01-1.27902E-14 1.75544E-13
 -1      1951 1.95193E+01-7.44475E-03-1.12493E-04-1.14224E-01 8.15651E-15 1.49165E-13
 -1      1952 1.95817E+01-1.15188E-02-7.75724E-04-1.40936E-01 3.48364E-14 9.36316E-14
 -1      1953 1.96431E+01-8.46865E-03 5.60195E-04-9.59389E-02 7.44509E-14 2.15562E-13
 -1      1954 1.95986E+01-8.59305E-03-3.21419E-04-1.01193E-01 3.63184E-14 2.01527E-13
 -1      1955 1.96462E+01-1.30972E-02-4.94681E-04-1.26552E-01 2.01733E-14 1.12451E-13
 -1      1956 1.97096E+01-8.25021E-03 3.99046E-04-8.10275E-02 4.01767E-14 1.95807E-13
 -1      1957 1.96707E+01-8.70937E-03-4.18737E-04-8.67249E-02 6.69686E-14 2.13256E-13
 -1      1958 1.97066E+01-1.31775E-02-2.99293E-04-1.09591E-01 5.19664E-14 9.11293E-14
 -1      1959 1.97668E+01-7.52298E-03 2.82232E-04-6.68433E-02 1.19814E-13 6.11934E-14
 -1      1960 1.97339E+01-8.16984E-03-4.43321E-04-7.24033E-02 6.59779E-14 1.20519E-13
 -1      1961 1.97608E+01-1.23189E-02-1.68045E-04-9.22850E-02 1.20141E-13 3.85864E-14
 -1      1962 1.98151E+01-6.48102E-03 2.02230E-04-5.41873E-02 7.08392E-14 3.23880E-14
 -1      1963 1.97877E+01-7.22187E-03-4.20445E-04-5.92336E-02 8.55235E-14 5.98349E-14
 -1      1964 1.98078E+01-1.08871E-02-8.48633E-05-7.60678E-02 1.26082E-13 3.04183E-14
 -1      1965 1.98553E+01-5.24061E-03 1.53850E-04-4.35614E-02 6.51470E-14 2.26618E-14
 -1      1966 1.98328E+01-6.02030E-03-3.66559E-04-4.78475E-02 8.73630E-14 3.08464E-14
 -1      1967 1.98478E+01-9.11108E-03-3.81884E-05-6.18512E-02 1.16709E-13 2.05344E-14
 -1      1968 1.98888E+01-3.85855E-03 1.33946E-04-3.52971E-02 2.00858E-14-9.89711E-14
 -1      1969 1.98703E+01-4.65038E-03-2.91900E-04-3.86511E-02 3.24325E-14-2.42589E-14
 -1      1970 1.98817E+01-7.11859E-03-2.00015E-05-5.02257E-02 5.55399E-14-4.57116E-14
 -1      1971 1.99175E+01-2.34496E-03 1.41240E-04-2.96549E-02 9.87326E-15-4.51294E-14
 -1      1972 1.99019E+01-3.14342E-03-2.02152E-04-3.19355E-02-3.07049E-15-1.06858E-13
 -1      1973 1.99108E+01-4.95984E-03-2.50978E-05-4.16093E-02 4.74877E-14-4.69517E-14
 -1      1974 1.99436E+01-6.72477E-04 1.76234E-04-2.69027E-02-6.81634E-14 9.72705E-14
 -1      1975 1.99297E+01-1.48786E-03-9.95902E-05-2.79640E-02-2.69594E-14 1.85893E-14
 -1      1976 1.99367E+01-2.62390E-03-5.05533E-05-3.63630E-02-3.29874E-14-5.38818E-15
 -1      1977 1.99696E+01 1.21705E-03 2.41178E-04-2.73779E-02-1.94610E-13-4.30377E-15
 -1      1978 1.99559E+01 3.62627E-04 1.60871E-05-2.70409E-02-1.18091E-13 1.82683E-14
 -1      1979 1.99615E+01-5.06915E-05-9.53013E-05-3.48812E-02-9.43988E-14-3.17770E-14
 -1      1980 1.99982E+01 3.40764E-03 3.40044E-04-3.15386E-02 2.48259E-14 1.16749E-14
 -1      1981 1.99831E+01 2.48327E-03 1.47103E-04-2.95666E-02-6.62703E-14-2.14008E-15
 -1      1982 1.99875E+01 2.86036E-03-1.59797E-04-3.76645E-02-7.88111E-14-5.27625E-14
 -1      1983 2.00329E+01 6.00524E-03 4.78441E-04-4.00059E-02 7.44826E-14-1.38767E-14
 -1      1984 2.00145E+01 4.97375E-03 2.97040E-04-3.60831E-02 3.09040E-14-7.61003E-15
 -1      1985 2.00175E+01 6.24375E-03-2.45764E-04-4.53784E-02 2.41623E-14-6.14468E-14
 -1      1986 2.00775E+01 9.13349E-03 6.63387E-04-5.35975E-02 9.07323E-14-4.78121E-14
 -1      1987 2.00537E+01 7.95401E-03 4.70272E-04-4.73113E-02 1.24221E-13 1.32038E-14
 -1      1988 2.00545E+01 1.02621E-02-3.55937E-04-5.89003E-02 1.08164E-13-1.59260E-14
 -1      1989 2.01367E+01 1.29272E-02 9.02773E-04-7.33513E-02-1.49648E-13 1.07964E-14
 -1      1990 2.01048E+01 1.15588E-02 6.71271E-04-6.41774E-02-3.71955E-14-1.85096E-14
 -1      1991 2.01023E+01 1.50986E-02-4.93773E-04-7.93539E-02-4.11241E-14 7.30775E-14
 -1      1992 2.02159E+01 1.75211E-02 1.20419E-03-1.00531E-01-1.77473E-13 1.29451E-13
 -1      1993 2.01728E+01 1.59286E-02 9.03596E-04-8.78263E-02-2.36735E-13 5.15168E-14
 -1      1994 2.01654E+01 2.09450E-02-6.63139E-04-1.08126E-01-1.91945E-13 6.81121E-14
 -1      1995 2.03217E+01 2.30274E-02 1.57254E-03-1.36602E-01-8.92893E-14 3.26428E-13
 -1      1996 2.02637E+01 2.11921E-02 1.16830E-03-1.19610E-01-8.00908E-14 2.13034E-13
 -1      1997 2.02488E+01 2.79792E-02-8.67923E-04-1.46851E-01-1.67663E-13 1.93610E-13
 -1      1998 2.04616E+01 2.94932E-02 2.00549E-03-1.83151E-01-7.69740E-15 4.22805E-13
 -1      1999 2.03842E+01 2.74331E-02 1.46133E-03-1.61034E-01-4.82897E-14 4.10069E-13
 -1      2000 2.03584E+01 3.63211E-02-1.11159E-03-1.97349E-01-9.29928E-14 2.88028E-13
 -1      2001 2.06439E+01 3.68211E-02 2.48526E-03-2.41700E-01 6.73747E-14 5.49259E-13
 -1      2002 2.05423E+01 3.46278E-02 1.76927E-03-2.13615E-01 7.77100E-14 4.59268E-13
 -1      2003 2.05010E+01 4.59504E-02-1.39672E-03-2.61459E-01 6.02600E-14 3.98919E-13
 -1      2004 2.08776E+01 4.46228E-02 2.96463E-03-3.13328E-01-5.25981E-14 4.11615E-13
 -1      2005 2.07466E+01 4.25286E-02 2.06274E-03-2.78605E-01 3.27429E-16 5.48108E-13
 -1      2006 2.06838E+01 5.65530E-02-1.72449E-03-3.40711E-01 6.34714E-15 4.83057E-13
 -1      2007 2.11716E+01 5.19626E-02 3.34520E-03-3.97967E-01-1.60416E-14 3.65483E-13
 -1      2008 2.10059E+01 5.04566E-02 2.28683E-03-3.56438E-01-6.13570E-14 4.17193E-13
 -1      2009 2.09141E+01 6.72473E-02-2.09397E-03-4.35688E-01-5.28137E-15 4.25445E-13
 -1      2010 2.15330E+01 5.69329E-02 3.44803E-03-4.93135E-01-5.62905E-14 4.14273E-13
 -1      2011 2.13285E+01 5.69494E-02 2.34900E-03-4.45755E-01 1.14383E-14 3.18748E-13
 -1      2012 2.11988E+01 7.61168E-02-2.50032E-03-5.44901E-01 5.36333E-15 5.08185E-13
 -1      2013 2.19647E+01 5.60084E-02 2.98435E-03-5.91805E-01-5.14708E-14 3.43372E-13
 -1      2014 2.17202E+01 5.92028E-02 2.10854E-03-5.41714E-01-1.13872E-13 3.69703E-13
 -1      2015 2.15426E+01 7.94692E-02-2.92885E-03-6.62857E-01-4.53687E-14 3.73666E-13
 -1      2016 2.24613E+01 4.32212E-02 1.55201E-03-6.79085E-01 1.02215E-13 2.51377E-13
 -1      2017 2.21812E+01 5.22906E-02 1.37790E-03-6.33312E-01 2.10621E-14 3.35102E-13
 -1      2018 2.19461E+01 7.07980E-02-3.33782E-03-7.77001E-01 6.08563E-15 2.38118E-13
 -1      2019 2.30029E+01 9.50460E-03-1.28305E-03-7.27664E-01-4.22138E-14 4.90457E-13
 -1      2020 2.27015E+01 2.83408E-02-4.33375E-05-6.99515E-01 1.82199E-14 3.73964E-13
 -1      2021 2.24031E+01 3.96764E-02-3.61592E-03-8.63301E-01 1.23992E-14 3.17145E-13
 -1      2022 2.35472E+01-5.66792E-02-5.73194E-03-6.93067E-01-2.40760E-13 6.63143E-13
 -1      2023 2.32541E+01-2.36092E-02-2.27732E-03-7.04711E-01-1.31117E-13 6.72847E-13
 -1      2024 2.28953E+01-2.84751E-02-3.49698E-03-8.80958E-01-1.91177E-13 6.07849E-13
 -1      2025 2.40211E+01-1.64980E-01-1.12889E-02-5.12496E-01 1.12808E-13 6.73470E-13
 -1      2026 2.37864E+01-1.15244E-01-5.23475E-03-5.95808E-01-6.58570E-14 7.38144E-13
 -1      2027 2.33876E+01-1.49338E-01-2.44783E-03-7.68661E-01-6.79973E-14 6.29998E-13
 -1      2028 2.43153E+01-3.11257E-01-1.60409E-02-1.15978E-01 4.76893E-14 7.47690E-13
 -1      2029 2.42106E+01-2.50704E-01-8.47440E-03-3.07066E-01 9.87717E-14 7.20392E-13
 -1      2030 2.38201E+01-3.29052E-01 3.75232E-04-4.48839E-01 7.52714E-14 7.18542E-13
 -1      2031 2.42905E+01-4.56029E-01-1.64645E-02 5.36158E-01-5.63941E-14 6.52948E-13
 -1      2032 2.43988E+01-4.08729E-01-1.11542E-02 2.16169E-01-1.06425E-14 6.71742E-13
 -1      2033 2.41006E+01-5.41299E-01 5.91359E-03 1.47855E-01 5.23349E-14 7.93229E-13
 -1      2034 2.38042E+01-5.04964E-01-9.92546E-03 1.37641E+00 2.94686E-13 4.87336E-13
 -1      2035 2.41925E+01-5.17745E-01-1.26520E-02 9.61331E-01 1.49328E-13 5.86200E-13
 -1      2036 2.41011E+01-6.94032E-01 1.41945E-02 1.02211E+00 1.41026E-13 5.80381E-13
 -1      2037 2.27847E+01-3.37678E-01 3.41407E-04 2.14752E+00 3.35762E-13 3.73066E-13
 -1      2038 2.34586E+01-4.56681E-01-1.21999E-02 1.76670E+00 2.85537E-13 4.10574E-13
 -1      2039 2.36814E+01-6.32458E-01 2.06810E-02 2.00830E+00 3.50895E-13 4.89195E-13
 -1      2040 2.13521E+01 8.00990E-02 1.68606E-03 2.42778E+00 3.43963E-13 2.07716E-13
 -1      2041 2.22052E+01-1.33266E-01-1.07859E-02 2.28777E+00 4.09959E-13 3.06585E-13
 -1      2042 2.27824E+01-2.29119E-01 1.56926E-02 2.71540E+00 5.00561E-13 5.36994E-13
 -1      2043 1.98995E+01 5.72518E-01-1.24591E-02 1.88442E+00 8.01581E-14-3.39572E-13
 -1      2044 2.07127E+01 3.76583E-01-6.61681E-03 2.13906E+00 1.72425E-13-1.58765E-13
 -1      2045 2.15770E+01 4.33745E-01-7.14040E-03 2.66004E+00 3.09490E-13 6.39523E-14
 -1      2046 1.89960E+01 7.89934E-01-2.53333E-02 6.64695E-01-1.65822E-14-4.45071E-13
 -1      2047 1.95019E+01 7.60978E-01 5.66801E-03 1.22272E+00 6.90420E-14-3.46802E-13
 -1      2048 2.05229E+01 9.99747E-01-2.20938E-02 1.64656E+00 9.74706E-14-2.91277E-13
 -1      2049 1.89284E+01 5.65908E-01-2.80647E-02-5.72221E-01 1.66154E-13-4.34486E-13
 -1      2050 1.89941E+01 7.30961E-01 1.36914E-02-2.45512E-02-4.80171E-15-4.06829E-13
 -1      2051 2.00628E+01 1.04824E+00-2.22954E-02 1.43910E-01 9.82062E-14-2.87720E-13
 -1      2052 1.94620E+01 1.11835E-01-9.55024E-03-1.18103E+00 6.55691E-14-1.65645E-13
 -1      2053 1.91803E+01 3.29671E-01 9.71868E-03-9.19629E-01 2.30973E-13-1.07910E-13
 -1      2054 2.02290E+01 5.80409E-01-4.78945E-03-1.00901E+00 8.90399E-14 9.82721E-15
 -1      2055 2.00620E+01-2.23821E-01 1.28104E-02-1.05430E+00-6.53878E-14-2.98593E-13
 -1      2056 1.96759E+01-1.03504E-01-3.45752E-04-1.10588E+00-1.84462E-14-2.14061E-13
 -1      2057 2.06187E+01-3.15754E-02 7.87458E-03-1.30808E+00 4.65513E-14 1.95547E-13
 -1      2058 2.03551E+01-2.76613E-01 2.42872E-02-5.72794E-01 1.82519E-14-2.26322E-13
 -1      2059 2.00705E+01-2.91408E-01-7.60345E-03-7.62721E-01-7.46538E-14-2.35362E-13
 -1      2060 2.08138E+01-3.76885E-01 5.07979E-03-9.22232E-01-8.00332E-14-1.00831E-13
 -1      2061 2.02998E+01-1.26803E-01 2.20924E-02-1.87920E-01-1.66435E-13-1.54920E-13
 -1      2062 2.01866E+01-2.15335E-01-8.11734E-03-3.22118E-01-1.31218E-13-1.85296E-13
 -1      2063 2.06831E+01-3.46961E-01-3.38809E-03-3.75115E-01-1.16260E-13 1.86184E-13
 -1      2064 2.01570E+01-1.58422E-02 1.41339E-02-6.21450E-02-2.46799E-13 2.00768E-13
 -1      2065 2.01521E+01-9.22192E-02-8.37569E-03-1.05005E-01-2.36205E-13-4.39449E-14
 -1      2066 2.04534E+01-1.90444E-01-9.46276E-03-7.91296E-02-2.99389E-13 3.17789E-13
 -1      2067 2.02646E+01 8.98176E-03 1.95123E-02-5.42157E-03-2.77710E-13 5.10120E-13
 -1      2068 2.10618E+01 1.58042E+00 2.57837E-02 2.92263E+00-1.79228E-13 9.30384E-14
 -1      2069 2.11316E+01 7.57263E-01 1.09679E-02 2.31840E+00-3.24491E-13 3.83037E-13
 -1      2070 2.10556E+01 5.79803E-01 3.98182E-02 1.55876E+00-2.46395E-13 1.89779E-13
 -1      2071 2.09003E+01 1.12268E-01 1.23625E-03 1.02267E+00-2.08758E-13 1.79275E-13
 -1      2072 2.16024E+01-4.05347E-02-1.78943E-02 2.29633E+00-5.22144E-13 3.10604E-13
 -1      2073 2.06869E+01 1.62371E-01 3.62611E-02 5.45231E-01-2.03712E-13-1.02487E-14
 -1      2074 2.04730E+01-1.74909E-02 6.20832E-03 2.32572E-01-1.96275E-13 1.68031E-13
 -1      2075 2.06101E+01-1.00707E-01-8.24009E-04 2.26435E-01-2.77408E-13 1.79423E-13
 -1      2076 2.12407E+01-1.74271E-01 4.14762E-03 9.77542E-01-3.94267E-13 1.07145E-13
 -1      2077 2.03832E+01 3.14923E+00-2.14199E-02 3.91837E+00-2.98157E-13-7.37605E-13
 -1      2078 2.08278E+01 2.10613E+00 3.11385E-02 3.59500E+00-2.40662E-13-2.70848E-13
 -1      2079 2.13414E+01 6.50655E-01-2.22591E-02 3.91556E+00-4.78786E-13-2.34579E-13
 -1      2080 1.90720E+01 5.07651E+00-6.31289E-02 3.69584E+00 8.84050E-14-9.92956E-14
 -1      2081 1.97965E+01 4.06905E+00 4.49909E-02 4.01601E+00 1.71391E-15-4.02264E-13
 -1      2082 2.00619E+01 2.05265E+00-5.70046E-03 4.85749E+00-1.35548E-13-2.49590E-13
 -1      2083 1.78522E+01 6.59692E+00-5.20451E-02 1.76023E+00 5.05530E-13 9.65131E-14
 -1      2084 1.83975E+01 6.02582E+00 3.43315E-02 2.81387E+00 3.87947E-13-4.49918E-14
 -1      2085 1.81382E+01 3.88444E+00 6.28227E-02 4.06126E+00 2.40389E-13 1.68580E-13
 -1      2086 1.77196E+01 6.76252E+00-2.30239E-03-1.19283E+00 3.44421E-13-9.64298E-14
 -1      2087 1.76128E+01 6.90501E+00-1.86868E-02 1.17555E-01 4.82791E-13 9.55555E-14
 -1      2088 1.67433E+01 5.14223E+00 1.24226E-01 1.17819E+00 5.74273E-13 2.05946E-14
 -1      2089 1.87864E+01 5.37243E+00 4.17670E-02-3.54875E+00 3.55167E-14-3.55892E-13
 -1      2090 1.81329E+01 6.17376E+00-6.06656E-02-2.68388E+00 2.16820E-13-2.98643E-13
 -1      2091 1.70162E+01 4.86369E+00 1.12839E-01-2.42834E+00 1.41977E-13-3.04895E-13
 -1      2092 2.01672E+01 3.21054E+00 4.51113E-02-4.23838E+00-3.33109E-13-6.95579E-13
 -1      2093 1.94848E+01 4.33954E+00-5.05933E-02-4.13837E+00-7.22582E-14-3.38715E-13
 -1      2094 1.86910E+01 3.24752E+00 3.83513E-02-4.76157E+00-1.16130E-13-4.58630E-13
 -1      2095 2.10012E+01 1.31778E+00 2.73966E-02-3.46813E+00-1.78500E-13-4.74603E-13
 -1      2096 2.06598E+01 2.37028E+00-4.21333E-03-3.91732E+00-2.16067E-13-5.65394E-13
 -1      2097 2.05374E+01 1.41226E+00-1.30913E-02-4.96923E+00-2.88455E-13-5.98685E-13
 -1      2098 2.11659E+01 9.70559E-02 1.18571E-02-2.05671E+00-1.36308E-13-6.23598E-14
 -1      2099 2.11571E+01 8.60037E-01 3.40075E-02-2.70046E+00-1.91635E-14-2.82894E-13
 -1      2100 2.15478E+01 1.49914E-01-2.57816E-02-3.69649E+00-3.10941E-14-3.42836E-13
 -1      2101 2.09029E+01-4.36849E-01 2.48277E-03-7.31649E-01-1.24604E-13 1.50897E-13
 -1      2102 2.10782E+01-3.92057E-02 4.77688E-02-1.28648E+00-9.24109E-14 1.37453E-13
 -1      2103 2.16582E+01-4.34280E-01-1.40765E-02-1.98126E+00 9.11861E-14 3.03663E-14
 -1      2104 2.04637E+01-4.94068E-01-1.23572E-03 1.70470E-01-2.77079E-13 2.98359E-13
 -1      2105 2.07118E+01-3.98070E-01 4.14711E-02-1.85839E-01-1.79014E-13 1.35187E-14
 -1      2106 2.12101E+01-5.58537E-01-6.69509E-03-5.43808E-01-1.00406E-13 9.19802E-14
 -1      2107 1.21221E+01-6.25472E+00-1.92904E-01 7.97354E+00-1.52989E-13 8.09214E-14
 -1      2108 7.70033E+00-8.28780E+00-5.33948E-01 6.32101E+00-2.21601E-13 1.38639E-13
 -1      2109 1.03389E+00-7.43134E+00-3.91528E-01 1.00283E+00-1.58373E-13-8.75522E-13
 -1      2110 1.05912E+00-7.69739E+00-4.25428E-01-1.29108E+00-1.79856E-14-1.06459E-12
 -1      2111 4.55124E+00-7.99893E+00-4.38160E-01 5.34813E+00-2.12719E-13 2.42029E-14
 -1      2112 2.25011E+00-8.40418E+00-5.09787E-01 3.68731E+00-1.43385E-13-2.82607E-13
 -1      2113 8.44279E+00-6.43927E+00-2.32089E-01 7.24149E+00 3.13083E-14 1.92735E-13
 -1      2114 2.25510E+01-3.48973E+00 7.00054E-02 8.35544E+00-2.07390E-13 5.69544E-14
 -1      2115 1.74392E+01-6.02762E+00-2.77921E-01 7.57188E+00-1.30784E-13-4.29656E-14
 -1      2116 3.16527E+01 1.21503E-01 2.90000E-01 7.24750E+00-2.26319E-13 4.85056E-13
 -1      2117 2.63138E+01-2.25390E+00-1.23169E-01 7.00127E+00-2.02949E-13 2.23599E-13
 -1      2118 1.95184E+01 4.01573E+00-2.70048E-02-1.70247E+00-1.20114E-13-3.85044E-13
 -1      2119 1.96465E+01 3.94618E+00-2.46236E-02-1.95377E+00-1.53937E-13-3.50463E-13
 -1      2120 1.99718E+01 3.24700E+00-1.38930E-02-1.91792E+00-1.76855E-13-3.00182E-13
 -1      2121 1.96971E+01 3.58511E+00-7.21083E-03-1.52048E+00-1.19814E-13-3.66261E-13
 -1      2122 4.35800E+01 6.84226E+00 5.33620E-01 3.01467E+00-2.30982E-13 1.61260E-13
 -1      2123 4.04653E+01 5.83596E+00 2.97263E-01 3.78547E+00-2.47691E-13-2.46470E-14
 -1      2124 4.41553E+01 7.74090E+00 4.00055E-01 1.07835E+00-3.45834E-14 3.10835E-13
 -1      2125 4.43716E+01 7.74972E+00 5.15334E-01 2.41869E+00-2.35811E-13 3.25878E-13
 -1      2126 3.99540E+01 6.32904E+00 1.82657E-01 1.30150E-01 2.93932E-13 1.95122E-13
 -1      2127 4.33386E+01 7.41821E+00 5.47652E-01 6.71013E-01 3.76088E-13 3.41505E-13
 -1      2128 3.52870E+01 1.82262E+00 7.74599E-02-2.21255E+00 1.30632E-13 9.99201E-14
 -1      2129 3.80900E+01 3.49899E+00 1.06117E-01-4.80994E-01 1.96065E-13 1.98674E-13
 -1      2130 2.83231E+01-2.50880E+00-1.40734E-01-3.58405E+00 2.42473E-13 1.59150E-13
 -1      2131 3.33191E+01-1.67534E-01 1.94866E-01-3.64925E+00 2.63067E-13 8.21565E-14
 -1      2132 3.34608E+01-4.69582E-01 1.66315E-01 5.49249E-02 3.00003E-13-7.16094E-15
 -1      2133 1.86187E+01-5.93073E+00-2.79019E-01-5.55307E+00 3.98570E-14-4.82392E-14
 -1      2134 2.41435E+01-4.08031E+00 1.81301E-03-5.76456E+00 9.98090E-14 1.63924E-13
 -1      2135 9.84926E+00-7.90420E+00-3.71554E-01-5.45964E+00-4.90719E-14-9.57082E-14
 -1      2136 1.42188E+01-6.18903E+00-1.28545E-01-6.40171E+00 5.79536E-14-1.23457E-13
 -1      2137 2.72036E+00-9.06542E+00-4.49062E-01-3.46041E+00-1.40443E-13-3.92464E-13
 -1      2138 5.62896E+00-7.71828E+00-2.47107E-01-4.94684E+00-1.81188E-13-1.48437E-13
 -1      2139 2.50646E-01-8.25493E+00-3.01490E-01-5.76782E-01-1.17611E-13-4.18166E-13
 -1      2140 1.12831E+00-8.23823E+00-2.89452E-01-2.20800E+00-1.04972E-13-4.32265E-13
 -1      2141 1.28456E+00-8.52733E+00-3.62032E-01 2.99819E+00-6.40044E-14 5.36238E-14
 -1      2142 8.18258E-02-8.84630E+00-3.91576E-01 1.50805E+00 6.19782E-14-3.97016E-13
 -1      2143 7.28880E+00-7.13329E+00-1.98502E-01 5.80553E+00-1.41998E-13 2.96457E-13
 -1      2144 4.21992E+00-8.42333E+00-3.74305E-01 4.54497E+00-2.12441E-13 1.49047E-13
 -1      2145 1.59207E+01-5.58923E+00-7.04560E-02 7.03331E+00-2.78555E-13-2.15897E-13
 -1      2146 1.08450E+01-7.41753E+00-3.74020E-01 5.95215E+00-2.87992E-13 1.17087E-13
 -1      2147 1.16518E+01-6.85279E+00-5.23767E-02 6.93855E+00-2.53464E-13 4.21885E-15
 -1      2148 2.62785E+01-3.02288E+00 4.19300E-02 5.80450E+00 2.32037E-14-9.36307E-13
 -1      2149 2.09320E+01-4.99173E+00-1.92268E-01 5.78157E+00-1.04916E-13-5.29021E-13
 -1      2150 3.51283E+01 1.48539E+00 2.84773E-01 3.72796E+00-2.80331E-15-1.18117E-12
 -1      2151 3.02017E+01-9.02668E-01-7.44473E-02 3.59547E+00 2.52853E-14-9.86211E-13
 -1      2152 4.00966E+01 4.84693E+00 3.16138E-01 1.51556E+00 1.48215E-14-1.43718E-12
 -1      2153 3.66154E+01 3.25469E+00 6.47921E-02 2.55941E+00 4.16334E-17-1.22180E-12
 -1      2154 3.45426E+01 1.46246E+00 1.76709E-01 4.45911E-02 8.86791E-14-1.04639E-12
 -1      2155 4.36918E+01 7.41285E+00 3.86480E-01-3.30335E-01 8.19900E-14-1.21819E-12
 -1      2156 4.18719E+01 6.78402E+00 2.90237E-01 9.52920E-01 9.18710E-14-1.37035E-12
 -1      2157 4.12134E+01 8.11148E+00 1.97623E-01-1.75649E+00 3.10307E-14-9.31505E-13
 -1      2158 4.33702E+01 8.12088E+00 4.83018E-01-9.80096E-01-4.26881E-14-1.03917E-12
 -1      2159 3.96510E+01 5.59199E+00 2.95324E-01-3.48028E+00 5.37959E-13-9.98646E-13
 -1      2160 4.05866E+01 6.67122E+00 1.62754E-01-1.99458E+00 2.85272E-13-9.03388E-13
 -1      2161 3.39988E+01 1.99990E+00 8.15788E-02-5.57944E+00 5.01141E-13-1.13853E-12
 -1      2162 3.82363E+01 3.66994E+00 3.07427E-01-4.87870E+00 4.82184E-13-1.18838E-12
 -1      2163 2.63471E+01-2.36812E+00-1.21747E-01-6.82188E+00 3.22908E-13-9.36806E-13
 -1      2164 3.14969E+01 7.86031E-02 2.64043E-01-7.05000E+00 4.10338E-13-1.19282E-12
 -1      2165 1.71860E+01-5.92074E+00-3.02546E-01-7.70014E+00 5.39124E-13-5.94719E-13
 -1      2166 2.23541E+01-3.69922E+00 6.44239E-02-8.40719E+00 4.28990E-13-8.43769E-13
 -1      2167 9.24695E+00-7.58765E+00-3.51317E-01-7.04346E+00 2.38365E-13-4.08243E-13
 -1      2168 1.33276E+01-5.94323E+00-1.23786E-01-8.18733E+00 6.15508E-13-2.26888E-13
 -1      2169 1.83910E+01-6.40713E+00-3.81155E-02-8.66292E+00 2.85993E-13-5.50851E-13
 -1      2170 2.12060E+00-8.24847E+00-4.75927E-01-3.36989E+00-1.41276E-14-6.62470E-13
 -1      2171 4.39630E+00-7.10081E+00-3.37182E-01-5.49786E+00 1.20515E-13-5.03431E-13
 -1      2172 3.43312E+00-4.74322E+00-1.71584E-01-2.81438E+00-7.68829E-14-8.14848E-13
 -1      2173 3.88970E+01 3.76275E+00 3.98593E-01 5.10184E+00-9.78037E-14-6.40599E-14
 -1      2174 3.44855E+01 2.05602E+00 1.28158E-01 5.72985E+00-1.74166E-13-1.28009E-13
 -1      2175 3.35572E+01-7.24912E-01 2.34666E-01 4.14829E+00 1.60982E-15 9.07052E-14
 -1      2176 2.07374E+01 1.10841E+00-2.07735E-02-1.61544E+00-2.29969E-13 1.55240E-14
 -1      2177 3.77869E+01 4.23444E+00 3.32356E-01 2.04043E+00-2.45221E-13-7.41074E-14
 -1      2178 2.06278E+01 1.33007E+00-1.86774E-02-1.67718E+00-2.45786E-13-8.47794E-14
 -1      2179 3.44674E+00-5.20663E+00-2.10458E-01 2.81964E+00 1.31145E-13-3.81806E-13
 -1      2180 1.73766E+01-6.61833E+00-8.32314E-02 8.41880E+00 9.92539E-14 3.60448E-13
 -1      2181 2.03989E+01-4.14691E-01 2.79542E-03 3.29223E-01-2.34567E-13 2.63067E-13
 -1      2182 2.68324E+01-4.74741E+00 7.29735E-02 6.76571E+00 3.71370E-14 5.36515E-13
 -1      2183 9.13760E+00-5.98002E+00-1.32463E-01-7.40459E+00 9.59233E-14-5.41678E-13
 -1      2184 2.66515E+01-4.80263E+00 6.80854E-02-6.80430E+00 4.25493E-13-8.89011E-13
 -1      2185 3.32167E+01-7.04302E-01 2.09225E-01-3.87735E+00 2.32675E-13-9.70779E-13
 -1      2186 3.66920E+01 3.97040E+00 2.95762E-01-1.68152E+00 2.61235E-13-5.01210E-13
 -1      2187 3.87222E+01 7.53345E+00 2.15674E-01-1.14011E+00 1.80300E-13-8.70193E-13
 -1      2188 3.49459E+01 7.98868E+00-1.09125E-01-2.54748E-01 1.45606E-13-4.32987E-13
 -1      2189 3.50008E+01 6.62077E+00 9.55316E-03-1.50804E-01 2.30982E-13-4.91746E-13
 -1      2190 3.77328E+01 5.98540E+00 2.93371E-01-9.30814E-01 9.09273E-14-1.13715E-12
 -1      2191 2.05395E+01-6.39485E+00 2.73451E-02 6.27503E+00-2.33147E-13-4.41785E-13
 -1      2192 4.47326E+00-6.54995E+00-1.58484E-01 4.87682E+00 9.26481E-14 5.20139E-14
 -1      2193 1.37556E+00-6.03742E+00-1.60629E-01 4.72130E-01 1.68129E-14-2.70173E-13
 -1      2194 3.42198E+00-6.39749E+00-1.69846E-01-3.64488E+00-1.96065E-13-3.32345E-13
 -1      2195 9.82898E+00-7.29445E+00-1.36919E-01-6.16170E+00-2.44138E-13-1.09524E-13
 -1      2196 2.78786E+01-4.80280E+00 8.40862E-02-3.30757E+00 1.96648E-13 1.24345E-14
 -1      2197 3.72166E+01 4.61224E+00 1.15199E-01 1.09415E+00 2.95763E-13 1.64035E-13
 -1      2198 3.44775E+01 5.52425E+00-1.58481E-01 2.74464E+00 3.14138E-13 1.71252E-13
 -1      2199 3.38887E+01 2.93263E+00 4.88824E-02 2.31627E+00 3.93935E-13-6.91669E-14
 -1      2200 3.96122E+01 8.01840E+00 4.39309E-01 1.17017E+00-2.49634E-13 2.75724E-13
 -1      2201 3.89389E+01 8.45367E+00 3.32979E-01 1.57440E+00 1.71640E-13 3.54050E-13
 -1      2202 1.91076E+01-6.93693E+00 4.52853E-03-6.09601E+00-7.01106E-14 8.92342E-15
 -1      2203 2.94851E+01-3.34510E+00 8.28064E-02 3.07793E+00-2.10942E-15-1.00336E-12
 -1      2204 3.87014E+01 8.76415E+00 3.30711E-01-1.00112E+00 2.66454E-15-6.04850E-13
 -1      2205 2.01494E+01 5.06474E-01 3.73833E-03 6.77425E-01 2.05213E-13 2.01873E-13
 -1      2206 2.04172E+01 7.00003E-01 2.07909E-02 9.69046E-01 2.10387E-13 2.25265E-13
 -1      2207 1.95589E+01 3.51641E+00-1.10660E-02-5.91381E-01 1.83400E-14-3.37017E-13
 -1      2208 1.95945E+01 3.47061E+00-1.04041E-02-7.75632E-01-1.55545E-14-3.55771E-13
 -1      2209 1.96412E+01 3.38268E+00-1.26372E-02-9.39972E-01-4.56818E-14-3.64772E-13
 -1      2210 1.97026E+01 3.30167E+00-1.26061E-02-1.12923E+00-8.07263E-14-3.60463E-13
 -1      2211 1.97856E+01 3.03356E+00 2.08571E-04-7.92151E-01-2.71263E-14-3.32249E-13
 -1      2212 1.95114E+01 3.59883E+00-9.61856E-03 9.94138E-02 1.19009E-13-3.29597E-13
 -1      2213 1.95108E+01 3.59967E+00-9.61834E-03-8.00423E-02 9.86260E-14-3.45012E-13
 -1      2214 1.95376E+01 3.55942E+00-9.72326E-03 4.45433E-01 1.52572E-13-3.04357E-13
 -1      2215 1.95201E+01 3.58198E+00-1.01386E-02 2.64616E-01 1.26745E-13-3.17114E-13
 -1      2216 1.96776E+01 3.22155E+00-9.09116E-04 1.69529E-01 1.16729E-13-3.16550E-13
 -1      2217 1.95997E+01 3.46290E+00-1.06111E-02 7.89330E-01 2.01737E-13-2.59545E-13
 -1      2218 1.95633E+01 3.50991E+00-1.12120E-02 6.07928E-01 1.73123E-13-2.83387E-13
 -1      2219 1.97145E+01 3.15805E+00-5.09411E-04 4.87954E-01 1.50236E-13-2.70918E-13
 -1      2220 1.97109E+01 3.28910E+00-1.29535E-02 1.14264E+00 2.69537E-13-1.95068E-13
 -1      2221 1.96480E+01 3.37244E+00-1.28867E-02 9.53375E-01 2.30185E-13-2.28867E-13
 -1      2222 1.97918E+01 3.02435E+00 2.44781E-04 8.03525E-01 2.11267E-13-2.24646E-13
 -1      2223 1.98906E+01 3.00351E+00-1.81707E-02 1.48970E+00 2.94686E-13-1.28648E-13
 -1      2224 1.97908E+01 3.14479E+00-1.51828E-02 1.29929E+00 2.73128E-13-1.76122E-13
 -1      2225 1.99215E+01 2.79918E+00 1.94076E-03 1.10978E+00 2.63776E-13-1.64921E-13
 -1      2226 2.01695E+01 2.54397E+00-2.83919E-02 1.79400E+00 3.15986E-13-1.78139E-14
 -1      2227 2.00180E+01 2.78333E+00-1.70958E-02 1.61955E+00 3.02311E-13-8.00662E-14
 -1      2228 2.01167E+01 2.44857E+00 5.85482E-03 1.37554E+00 2.77500E-13-8.78117E-14
 -1      2229 1.98724E+01 2.68279E-01 4.72743E-03 2.84863E-01 1.67883E-13 1.68874E-13
 -1      2230 2.00330E+01 3.68029E-01 2.01676E-02 4.42036E-01 1.91042E-13 1.90079E-13
 -1      2231 2.02117E+01 6.34680E-01-2.22169E-03 7.04264E-01 2.19883E-13 7.11614E-14
 -1      2232 2.04022E+01 8.55039E-01 1.29342E-02-1.00028E+00-1.83578E-13-1.07047E-13
 -1      2233 2.01916E+01 6.28190E-01-4.00634E-03-6.90186E-01-1.52431E-13-1.07577E-13
 -1      2234 3.55437E+01 4.36382E+00-1.11605E-01 3.94078E-01-1.72085E-13 6.72795E-14
 -1      2235 3.45831E+01 2.05536E+00-3.02125E-02 9.76870E-01-1.00864E-13 3.38063E-14
 -1      2236 2.01256E+01 4.69159E-01 1.61104E-02-4.74811E-01-1.47737E-13-9.25344E-14
 -1      2237 1.99845E+01 3.44418E-01 2.70803E-05-3.03206E-01-1.24319E-13-1.00997E-13
 -1      2238 2.02455E+01 7.45290E-01-1.72888E-03-6.93861E-01-1.53381E-13-1.37890E-13
 -1      2239 1.99212E+01 2.59471E-01 1.08752E-02-1.65600E-01-1.00675E-13-8.57904E-14
 -1      2240 1.98424E+01 1.87947E-01 6.86227E-04-6.84365E-02-7.10794E-14-9.65873E-14
 -1      2241 2.00808E+01 4.16354E-01-3.72103E-03-3.09956E-01-1.09958E-13-1.27870E-13
 -1      2242 1.97980E+01 1.38424E-01 6.38503E-03 1.35739E-02-6.90488E-14-9.48164E-14
 -1      2243 1.97629E+01 9.60460E-02 7.05775E-04 6.68037E-02-7.67871E-14-1.06399E-13
 -1      2244 1.99602E+01 2.27112E-01-3.64138E-03-7.10544E-02-7.86768E-14-1.34468E-13
 -1      2245 1.97370E+01 6.60965E-02 3.57607E-03 1.12400E-01-8.63079E-14-1.03907E-13
 -1      2246 1.97296E+01 4.05043E-02 6.07383E-04 1.38840E-01-8.09383E-14-1.09832E-13
 -1      2247 1.98844E+01 1.14582E-01-2.92655E-03 6.94660E-02-8.99435E-14-1.43353E-13
 -1      2248 1.97178E+01 2.21925E-02 1.85398E-03 1.60918E-01-9.27006E-14-1.17685E-13
 -1      2249 1.97268E+01 6.87596E-03 4.84897E-04 1.70878E-01-8.61442E-14-1.22414E-13
 -1      2250 1.98446E+01 4.62924E-02-2.11597E-03 1.45365E-01-9.55368E-14-1.31481E-13
 -1      2251 1.97247E+01-4.10371E-03 7.92645E-04 1.78048E-01-7.18437E-14-1.45649E-13
 -1      2252 1.97426E+01-1.28653E-02 3.66242E-04 1.78018E-01-7.56094E-14-1.49272E-13
 -1      2253 1.98302E+01 5.03589E-03-1.42759E-03 1.79552E-01-8.85892E-14-1.55455E-13
 -1      2254 1.97465E+01-1.90632E-02 1.42900E-04 1.76069E-01-1.19997E-13-1.52164E-13
 -1      2255 1.97684E+01-2.35530E-02 2.66323E-04 1.70272E-01-1.40554E-13-1.62859E-13
 -1      2256 1.98324E+01-1.89841E-02-9.07369E-04 1.87474E-01-9.95453E-14-1.41304E-13
 -1      2257 1.97757E+01-2.65877E-02-2.40213E-04 1.63122E-01-1.27961E-13-1.49954E-13
 -1      2258 1.97985E+01-2.82818E-02 1.91171E-04 1.54347E-01-7.47703E-14-1.46410E-13
 -1      2259 1.98444E+01-3.17474E-02-5.37706E-04 1.79598E-01-1.21693E-13-1.05165E-13
 -1      2260 1.98073E+01-2.92258E-02-4.47468E-04 1.44642E-01-4.00844E-14-1.43080E-13
 -1      2261 1.98291E+01-2.91059E-02 1.41297E-04 1.34740E-01-1.34402E-14-1.54900E-13
 -1      2262 1.98615E+01-3.71061E-02-2.87214E-04 1.63028E-01-6.00038E-14-7.64615E-14
 -1      2263 1.98384E+01-2.86821E-02-5.39170E-04 1.24254E-01 3.27383E-15-1.55606E-13
 -1      2264 1.98583E+01-2.74030E-02 1.15213E-04 1.14442E-01 3.08651E-14-1.40525E-13
 -1      2265 1.98806E+01-3.76187E-02-1.26720E-04 1.42571E-01-8.94128E-16-5.52962E-14
 -1      2266 1.98674E+01-2.60941E-02-5.56620E-04 1.04355E-01 6.44385E-14-1.62643E-13
 -1      2267 1.98850E+01-2.40812E-02 1.11524E-04 9.54294E-02 3.88924E-14-1.51918E-13
 -1      2268 1.98999E+01-3.49950E-02-3.27988E-05 1.21451E-01 4.44353E-14-1.31695E-13
 -1      2269 1.98935E+01-2.21961E-02-5.28365E-04 8.65216E-02-1.40193E-14-1.52447E-13
 -1      2270 1.99090E+01-1.97065E-02 1.29829E-04 7.90077E-02-1.52642E-14-9.57629E-14
 -1      2271 1.99183E+01-3.03521E-02 1.22376E-05 1.01818E-01 1.93273E-14-1.36559E-13
 -1      2272 1.99169E+01-1.74245E-02-4.74011E-04 7.18092E-02-5.78500E-14-4.56126E-14
 -1      2273 1.99305E+01-1.45890E-02 1.70952E-04 6.60716E-02-5.52039E-14-7.30442E-14
 -1      2274 1.99355E+01-2.43743E-02 2.11722E-05 8.51181E-02-1.29420E-14-9.36561E-14
 -1      2275 1.99380E+01-1.19907E-02-4.06792E-04 6.09714E-02-4.36042E-14-9.35250E-14
 -1      2276 1.99504E+01-8.84431E-03 2.36958E-04 5.72980E-02-4.85935E-14-5.73221E-14
 -1      2277 1.99516E+01-1.74221E-02 3.00080E-06 7.23676E-02-6.53958E-14-4.63166E-15
 -1      2278 1.99577E+01-5.93492E-03-3.35408E-04 5.46278E-02-2.61491E-14-1.01137E-13
 -1      2279 1.99696E+01-2.43937E-03 3.30965E-04 5.32930E-02 1.68956E-14-1.05728E-13
 -1      2280 1.99670E+01-9.60986E-03-3.61932E-05 6.43622E-02-3.70934E-14 3.00144E-14
 -1      2281 1.99771E+01 8.32442E-04-2.65349E-04 5.33901E-02 1.67824E-14-1.33931E-13
 -1      2282 1.99896E+01 4.76949E-03 4.56863E-04 5.47013E-02-4.86118E-15-1.19322E-13
 -1      2283 1.99824E+01-8.65628E-04-9.24862E-05 6.18336E-02-6.24485E-15-8.69093E-14
 -1      2284 1.99978E+01 8.49522E-03-1.99867E-04 5.79541E-02-4.25214E-14-1.12658E-13
 -1      2285 2.00118E+01 1.30027E-02 6.18859E-04 6.22850E-02-2.46784E-14-1.22073E-13
 -1      2286 1.99989E+01 9.01917E-03-1.63391E-04 6.55650E-02-1.44905E-14-1.13821E-13
 -1      2287 2.00213E+01 1.72974E-02-1.40688E-04 6.91626E-02-1.95939E-14-1.35129E-13
 -1      2288 2.00381E+01 2.25215E-02 8.20767E-04 7.69711E-02 1.67126E-15-2.19418E-13
 -1      2289 2.00176E+01 2.03435E-02-2.47241E-04 7.64717E-02-2.78262E-14-1.38808E-13
 -1      2290 2.00497E+01 2.75041E-02-8.84823E-05 8.80360E-02 1.01862E-14-2.36014E-13
 -1      2291 2.00706E+01 3.35840E-02 1.06489E-03 9.98663E-02 1.21809E-14-2.06894E-13
 -1      2292 2.00398E+01 3.34463E-02-3.42649E-04 9.56451E-02-5.82321E-14-1.73537E-13
 -1      2293 2.00851E+01 3.93506E-02-4.30809E-05 1.15766E-01 4.84116E-14-2.12614E-13
 -1      2294 2.01119E+01 4.63833E-02 1.35030E-03 1.32229E-01 5.85458E-14-1.89939E-13
 -1      2295 2.00672E+01 4.86414E-02-4.48019E-04 1.24357E-01 2.95903E-14-1.75762E-13
 -1      2296 2.01302E+01 5.29681E-02-3.39263E-06 1.53661E-01-3.05308E-14-2.38491E-13
 -1      2297 2.01645E+01 6.09559E-02 1.67029E-03 1.75379E-01-5.43470E-14-2.59168E-13
 -1      2298 2.01015E+01 6.61267E-02-5.61168E-04 1.64015E-01-5.58853E-14-2.48792E-13
 -1      2299 2.01876E+01 6.82727E-02 3.31025E-05 2.03016E-01-5.38096E-14-2.90671E-13
 -1      2300 2.02314E+01 7.70435E-02 2.00862E-03 2.30528E-01 1.53121E-14-3.15046E-13
 -1      2301 2.01447E+01 8.58487E-02-6.79223E-04 2.16041E-01-6.89540E-14-3.21699E-13
 -1      2302 2.02605E+01 8.47969E-02 7.15073E-05 2.64883E-01 7.49742E-14-4.24643E-13
 -1      2303 2.03157E+01 9.38844E-02 2.33431E-03 2.98476E-01 4.32429E-14-3.79784E-13
 -1      2304 2.01991E+01 1.07298E-01-7.99071E-04 2.81656E-01-6.30636E-14-4.15229E-13
 -1      2305 2.03520E+01 1.01439E-01 1.21635E-04 3.39692E-01 9.23503E-14-3.81649E-13
 -1      2306 2.04205E+01 1.09906E-01 2.59459E-03 3.79136E-01 1.20711E-13-1.99996E-13
 -1      2307 2.02669E+01 1.29205E-01-9.18829E-04 3.61524E-01 5.53455E-14-4.23063E-13
 -1      2308 2.04655E+01 1.16094E-01 2.01513E-04 4.26655E-01 3.74807E-14-2.54684E-13
 -1      2309 2.05489E+01 1.22284E-01 2.70603E-03 4.70800E-01 7.52482E-14-2.80649E-13
 -1      2310 2.03508E+01 1.49100E-01-1.04101E-03 4.55190E-01 1.04004E-13-4.35056E-13
 -1      2311 2.06043E+01 1.25151E-01 3.42539E-04 5.22885E-01 8.53251E-14-3.17376E-13
 -1      2312 2.07033E+01 1.26360E-01 2.54475E-03 5.69078E-01 5.84999E-14-3.42475E-13
 -1      2313 2.04536E+01 1.62693E-01-1.17809E-03 5.60264E-01 4.85677E-14-3.65899E-13
 -1      2314 2.07714E+01 1.22839E-01 5.95837E-04 6.22131E-01 2.28541E-14-3.60581E-13
 -1      2315 2.08857E+01 1.14941E-01 1.93800E-03 6.65425E-01-5.04690E-14-2.85699E-13
 -1      2316 2.05786E+01 1.63083E-01-1.36054E-03 6.71245E-01 2.47135E-14-3.11730E-13
 -1      2317 2.09694E+01 1.00532E-01 1.03714E-03 7.13076E-01-1.53712E-13-3.51999E-13
 -1      2318 2.10970E+01 7.76783E-02 6.62851E-04 7.45250E-01-1.59083E-13-2.97578E-13
 -1      2319 2.07301E+01 1.39872E-01-1.64554E-03 7.77938E-01-7.11575E-14-3.38060E-13
 -1      2320 2.12005E+01 4.63203E-02 1.76197E-03 7.77233E-01-1.45953E-13-3.06692E-13
 -1      2321 2.13370E+01 1.04455E-03-1.53686E-03 7.85786E-01-1.38203E-13-1.95150E-13
 -1      2322 2.09136E+01 7.85271E-02-2.11902E-03 8.63448E-01-1.46763E-13-2.73118E-13
 -1      2323 2.14659E+01-5.43812E-02 2.85269E-03 7.86747E-01-1.40356E-13-2.33617E-13
 -1      2324 2.16034E+01-1.29969E-01-4.89070E-03 7.54314E-01-1.45463E-13-2.27161E-13
 -1      2325 2.11369E+01-3.91701E-02-2.87269E-03 9.01891E-01-1.22107E-13-2.90002E-13
 -1      2326 2.17642E+01-2.15632E-01 4.28543E-03 7.03030E-01-4.57297E-14-1.39608E-13
 -1      2327 2.18903E+01-3.26335E-01-9.45517E-03 6.08221E-01 5.64637E-14-8.78089E-14
 -1      2328 2.14098E+01-2.31860E-01-3.91657E-03 8.56382E-01-3.54524E-14-1.36177E-13
 -1      2329 2.20874E+01-4.42639E-01 5.72573E-03 4.78445E-01 7.11705E-14-1.08313E-13
 -1      2330 2.21840E+01-5.82816E-01-1.47929E-02 2.99888E-01 1.60752E-13-1.00674E-13
 -1      2331 2.17422E+01-5.09507E-01-4.98134E-03 6.78768E-01 1.06967E-15 1.22144E-14
 -1      2332 2.24124E+01-7.15641E-01 6.28492E-03 6.54534E-02 1.57549E-13-1.34069E-13
 -1      2333 2.24545E+01-8.57558E-01-1.93173E-02-2.08443E-01 1.45068E-13-9.11007E-14
 -1      2334 2.21356E+01-8.54912E-01-5.19012E-03 3.14623E-01 1.68655E-13 5.74144E-14
 -1      2335 2.26871E+01-9.66621E-01 4.55897E-03-5.59979E-01 2.26814E-13-1.16597E-13
 -1      2336 2.26445E+01-1.04917E+00-2.00131E-02-9.13425E-01 2.73738E-13-2.02264E-14
 -1      2337 2.25665E+01-1.19571E+00-2.74010E-03-2.79745E-01 2.09648E-13-1.31298E-13
 -1      2338 2.28176E+01-1.06270E+00-2.29530E-03-1.35322E+00 1.98457E-13-1.14874E-13
 -1      2339 2.26654E+01-9.95536E-01-1.32110E-02-1.72124E+00 1.10018E-13-1.18459E-13
 -1      2340 2.29600E+01-1.37619E+00 4.06275E-03-1.09780E+00 1.84137E-13-1.73609E-13
 -1      2341 2.26864E+01-8.28665E-01-1.37166E-02-2.14415E+00 1.80266E-13-5.45807E-14
 -1      2342 2.24230E+01-5.40321E-01 2.39205E-03-2.40083E+00 2.32452E-13 2.21091E-14
 -1      2343 2.31763E+01-1.18079E+00 1.22755E-02-2.01541E+00 1.65758E-13 4.80817E-14
 -1      2344 2.22262E+01-1.64501E-01-2.57846E-02-2.61873E+00 2.02805E-13 3.77628E-14
 -1      2345 2.18970E+01 3.07679E-01 1.89179E-02-2.61340E+00 2.01587E-13 1.85863E-13
 -1      2346 2.30612E+01-4.42816E-01 1.64250E-02-2.73342E+00 2.40203E-13 2.45147E-13
 -1      2347 2.15453E+01 7.79517E-01-2.64761E-02-2.43708E+00 1.18819E-13 2.66584E-13
 -1      2348 2.12405E+01 1.22548E+00 2.21599E-02-2.09436E+00 4.19959E-14 3.37075E-13
 -1      2349 2.25841E+01 7.11447E-01 3.06586E-03-2.82991E+00 2.19030E-13 3.00973E-13
 -1      2350 2.09493E+01 1.53979E+00-9.13824E-03-1.51685E+00-9.61366E-14 3.34587E-13
 -1      2351 2.07614E+01 1.69082E+00 6.02038E-03-9.45723E-01-1.31423E-14 2.83470E-13
 -1      2352 2.19935E+01 1.78257E+00-1.68379E-02-2.04874E+00-3.75871E-14 3.28856E-13
 -1      2353 2.07173E+01 1.64625E+00 1.43345E-02-2.31868E-01 1.63820E-13 1.84031E-13
 -1      2354 2.06773E+01 1.41644E+00-1.65941E-02 3.07144E-01 3.02027E-13 1.42569E-13
 -1      2355 2.16741E+01 2.14909E+00-2.35926E-02-6.54419E-01 8.22259E-15 3.17403E-13
 -1      2356 2.08285E+01 1.07348E+00 2.48658E-02 7.97768E-01 2.85787E-13 1.25251E-13
 -1      2357 2.08864E+01 6.58444E-01-2.34106E-02 1.08796E+00 2.60278E-13 2.13787E-13
 -1      2358 2.17584E+01 1.61821E+00-7.17482E-03 6.35994E-01 2.30076E-13 2.57911E-13
 -1      2359 2.09953E+01 2.75786E-01 1.51104E-02 1.20240E+00 3.80255E-13 2.17829E-13
 -1      2360 2.10640E+01-5.67688E-02-1.44276E-02 1.22010E+00 2.63221E-13 4.58308E-13
 -1      2361 2.19640E+01 6.21700E-01 1.24160E-02 1.23132E+00 3.43645E-13 3.55684E-13
 -1      2362 2.09663E+01-2.69160E-01-1.44577E-03 1.06372E+00 1.55878E-14 4.65380E-13
 -1      2363 2.09628E+01-3.92720E-01-4.45072E-03 9.33570E-01-1.35174E-13 4.88514E-13
 -1      2364 2.19177E+01-2.03055E-01 1.78760E-02 1.12070E+00 1.29711E-13 2.87334E-13
 -1      2365 1.18527E+01-5.16910E+00-3.17391E-02 8.33767E+00 7.57727E-14 4.11282E-13
 -1      2366 8.69590E+00-4.63773E+00-1.60051E-03 6.73437E+00 1.80023E-13 1.50213E-13
 -1      2367 1.96252E+01 7.25493E-02 2.06129E-03-6.66091E-02 3.78570E-14 7.08608E-14
 -1      2368 1.96525E+01 1.04290E-01 6.90328E-03-2.04706E-02 7.56666E-14 9.28680E-14
 -1      2369 1.96017E+01 3.06719E-02 1.33218E-03-1.32247E-01 6.02161E-14 3.64603E-14
 -1      2370 1.95985E+01 4.96065E-02 3.67740E-03-1.09759E-01 3.29328E-14 4.11200E-14
 -1      2371 1.97693E+01 8.98120E-02-3.17526E-03-7.20063E-02 5.77985E-14-1.09554E-14
 -1      2372 1.96137E+01 5.58337E-03 8.64591E-04-1.60607E-01 6.70667E-14 3.16309E-14
 -1      2373 1.95937E+01 1.68608E-02 1.81320E-03-1.52409E-01 7.78163E-14 2.89673E-14
 -1      2374 1.97352E+01 3.57860E-02-2.28011E-03-1.44277E-01 6.95041E-14-1.55297E-14
 -1      2375 1.96458E+01-9.08343E-03 5.42933E-04-1.66155E-01 7.26592E-14 4.45241E-14
 -1      2376 1.96174E+01-2.61991E-03 7.14247E-04-1.66527E-01 5.01598E-14 6.42205E-14
 -1      2377 1.97317E+01 3.59171E-03-1.50885E-03-1.75932E-01 4.49128E-14-4.02981E-14
 -1      2378 1.96875E+01-1.70418E-02 3.18051E-04-1.58225E-01 1.98474E-14 7.81911E-14
 -1      2379 1.96563E+01-1.36890E-02 6.12499E-05-1.63513E-01 8.53893E-14 8.00562E-14
 -1      2380 1.97468E+01-1.50033E-02-9.31008E-04-1.82441E-01 6.05436E-14 3.72297E-14
 -1      2381 1.97320E+01-2.06170E-02 1.66186E-04-1.42959E-01 3.05272E-14 6.73856E-14
 -1      2382 1.97013E+01-1.92912E-02-3.14260E-04-1.50772E-01 6.82836E-15 6.26296E-14
 -1      2383 1.97720E+01-2.48485E-02-5.26529E-04-1.74000E-01 4.82005E-14 6.64640E-14
 -1      2384 1.97754E+01-2.13340E-02 7.09623E-05-1.24424E-01 8.64855E-14 4.74469E-15
 -1      2385 1.97469E+01-2.13204E-02-5.10267E-04-1.33190E-01 8.67295E-14 4.10947E-14
 -1      2386 1.98015E+01-2.89928E-02-2.56732E-04-1.57406E-01 6.23829E-14 5.36585E-15
 -1      2387 1.98153E+01-2.02110E-02 2.01061E-05-1.05300E-01 1.60586E-13-2.29365E-14
 -1      2388 1.97900E+01-2.10335E-02-5.89317E-04-1.13991E-01 9.25082E-14 6.65748E-16
 -1      2389 1.98316E+01-2.94337E-02-8.67638E-05-1.37200E-01 7.96821E-14-8.64522E-16
 -1      2390 1.98507E+01-1.79194E-02 4.84452E-06-8.73381E-02 9.63450E-14-4.98569E-14
 -1      2391 1.98288E+01-1.92677E-02-5.93214E-04-9.52855E-02 1.54099E-13-2.03863E-14
 -1      2392 1.98603E+01-2.74981E-02 1.03872E-05-1.16397E-01 1.42255E-13-2.43989E-14
 -1      2393 1.98817E+01-1.48816E-02 1.96895E-05-7.16764E-02 1.19204E-13 5.39602E-15
 -1      2394 1.98630E+01-1.65657E-02-5.50257E-04-7.84473E-02 1.09649E-13-6.01451E-15
 -1      2395 1.98867E+01-2.40531E-02 5.45653E-05-9.69856E-02 8.49907E-14-9.41260E-14
 -1      2396 1.99087E+01-1.13322E-02 6.21104E-05-5.90781E-02 3.80817E-14-3.22702E-14
 -1      2397 1.98927E+01-1.32536E-02-4.79406E-04-6.43768E-02 8.61954E-14 3.76746E-14
 -1      2398 1.99103E+01-1.96330E-02 5.98626E-05-8.02835E-02 7.80974E-14 3.54834E-14
 -1      2399 1.99328E+01-7.36185E-03 1.32178E-04-5.01068E-02-1.32850E-14 9.48917E-15
 -1      2400 1.99187E+01-9.49219E-03-3.92998E-04-5.37030E-02 3.67196E-14-1.07961E-14
 -1      2401 1.99316E+01-1.45224E-02 3.58812E-05-6.71986E-02 2.38077E-14-3.44576E-15
 -1      2402 1.99552E+01-2.94704E-03 2.32239E-04-4.52643E-02-2.61003E-14 3.34491E-14
 -1      2403 1.99422E+01-5.31419E-03-2.98625E-04-4.69363E-02-1.38241E-15 5.29390E-14
 -1      2404 1.99512E+01-8.81312E-03-1.12263E-05-5.84302E-02-1.97000E-14 7.68792E-14
 -1      2405 1.99778E+01 2.02670E-03 3.66666E-04-4.50972E-02-7.85014E-14 3.75412E-14
 -1      2406 1.99646E+01-6.50138E-04-2.00476E-04-4.45871E-02-4.58903E-14 8.63882E-14
 -1      2407 1.99703E+01-2.44464E-03-7.79093E-05-5.46228E-02-8.22593E-14 1.38349E-13
 -1      2408 2.00024E+01 7.74787E-03 5.41616E-04-5.02825E-02-7.19670E-14 1.62623E-14
 -1      2409 1.99879E+01 4.65143E-03-1.00395E-04-4.72601E-02-1.14280E-13 3.56062E-14
 -1      2410 1.99900E+01 4.76505E-03-1.62405E-04-5.64858E-02-8.98887E-14 1.13492E-13
 -1      2411 2.00313E+01 1.44653E-02 7.64695E-04-6.16943E-02 2.66515E-14 2.59231E-15
 -1      2412 2.00140E+01 1.08090E-02 1.26053E-06-5.57281E-02 3.09062E-14 1.08647E-14
 -1      2413 2.00120E+01 1.30965E-02-2.64116E-04-6.48882E-02-3.85916E-14 1.03022E-13
 -1      2414 2.00675E+01 2.24745E-02 1.04443E-03-8.04549E-02 1.24734E-13 5.52837E-14
 -1      2415 2.00456E+01 1.80948E-02 1.04924E-04-7.09901E-02 6.51548E-14 8.07626E-15
 -1      2416 2.00381E+01 2.29091E-02-3.82973E-04-8.09300E-02 5.83104E-14 7.00362E-14
 -1      2417 2.01139E+01 3.20990E-02 1.38940E-03-1.07967E-01-1.39511E-13 1.26258E-13
 -1      2418 2.00854E+01 2.68193E-02 2.11189E-04-9.43121E-02 3.28975E-14 1.37687E-13
 -1      2419 2.00706E+01 3.46201E-02-5.18721E-04-1.05993E-01-1.47039E-14 9.88119E-14
 -1      2420 2.01744E+01 4.36619E-02 1.80659E-03-1.45921E-01-1.04791E-13 6.71774E-14
 -1      2421 2.01368E+01 3.73091E-02 3.20197E-04-1.27246E-01-1.71500E-13 9.75180E-14
 -1      2422 2.01119E+01 4.86746E-02-6.70182E-04-1.41767E-01-9.85897E-14 1.47204E-13
 -1      2423 2.02532E+01 5.74329E-02 2.29865E-03-1.96257E-01-1.88298E-13 1.04921E-13
 -1      2424 2.02038E+01 4.98685E-02 4.31039E-04-1.71616E-01-1.37504E-13 1.27456E-13
 -1      2425 2.01647E+01 6.54964E-02-8.34487E-04-1.90238E-01-1.56898E-13 1.49778E-13
 -1      2426 2.03550E+01 7.35344E-02 2.85899E-03-2.61057E-01-5.60215E-14 1.38287E-13
 -1      2427 2.02907E+01 6.47105E-02 5.41230E-04-2.29449E-01-1.37093E-13 1.34311E-13
 -1      2428 2.02324E+01 8.54010E-02-1.00643E-03-2.53617E-01-1.25132E-13-2.57404E-14
 -1      2429 2.04850E+01 9.17697E-02 3.46364E-03-3.42314E-01 4.13884E-14 2.05712E-13
 -1      2430 2.04024E+01 8.18310E-02 6.46411E-04-3.02809E-01 2.90628E-14 1.70416E-13
 -1      2431 2.03183E+01 1.08437E-01-1.17836E-03-3.34181E-01-2.06996E-14-5.82585E-14
 -1      2432 2.06487E+01 1.11318E-01 4.05800E-03-4.41482E-01-2.12248E-14 2.11407E-13
 -1      2433 2.05441E+01 1.00783E-01 7.40722E-04-3.93474E-01 3.04960E-14 1.78433E-13
 -1      2434 2.04260E+01 1.34104E-01-1.34140E-03-4.33947E-01 3.32883E-14 2.78056E-14
 -1      2435 2.08512E+01 1.30213E-01 4.53660E-03-5.58669E-01-1.01705E-14 2.26060E-13
 -1      2436 2.07214E+01 1.20281E-01 8.18748E-04-5.02327E-01-2.48192E-14 2.95563E-13
 -1      2437 2.05592E+01 1.60857E-01-1.48962E-03-5.54094E-01-5.49450E-14-2.07176E-14
 -1      2438 2.10972E+01 1.44478E-01 4.71483E-03-6.91254E-01-8.76601E-14 3.98998E-13
 -1      2439 2.09394E+01 1.37533E-01 8.80643E-04-6.28303E-01-1.50270E-16 3.28959E-13
 -1      2440 2.07218E+01 1.85278E-01-1.62944E-03-6.93961E-01-7.51275E-14 9.61770E-14
 -1      2441 2.13896E+01 1.46820E-01 4.29519E-03-8.31616E-01 7.47887E-14 2.61380E-13
 -1      2442 2.12031E+01 1.47176E-01 9.43001E-04-7.66614E-01 2.00091E-14 3.63689E-13
 -1      2443 2.09172E+01 2.00742E-01-1.79729E-03-8.49406E-01 2.27234E-14 1.03298E-13
 -1      2444 2.17289E+01 1.24879E-01 2.83973E-03-9.63663E-01-1.75233E-14 1.81931E-13
 -1      2445 2.15159E+01 1.39739E-01 1.05808E-03-9.05922E-01 1.35705E-14 2.16475E-13
 -1      2446 2.11498E+01 1.95478E-01-2.08638E-03-1.01021E+00 6.88378E-14 1.07256E-13
 -1      2447 2.21125E+01 5.95285E-02-2.19695E-04-1.05800E+00-1.65373E-13 4.32492E-13
 -1      2448 2.18798E+01 9.97999E-02 1.33940E-03-1.02415E+00-8.74433E-14 3.16979E-13
 -1      2449 2.14249E+01 1.50184E-01-2.67461E-03-1.15623E+00-1.36793E-13 1.53694E-13
 -1      2450 2.25326E+01-7.50285E-02-5.46510E-03-1.06638E+00-1.60422E-13 4.96911E-13
 -1      2451 2.22947E+01 4.79108E-03 1.97462E-03-1.08294E+00-1.80324E-13 5.16376E-13
 -1      2452 2.17510E+01 3.62167E-02-3.81574E-03-1.25219E+00-2.74789E-13 4.04430E-13
 -1      2453 2.29749E+01-3.05085E-01-1.31773E-02-9.17982E-01-6.66203E-14 5.99376E-13
 -1      2454 2.27561E+01-1.72759E-01 3.14851E-03-1.02204E+00-9.58528E-14 5.30386E-13
 -1      2455 2.21420E+01-1.82466E-01-5.69997E-03-1.24160E+00-1.22680E-13 4.56588E-13
 -1      2456 2.34123E+01-6.37471E-01-2.26377E-02-5.24693E-01 8.19223E-15 6.15002E-13
 -1      2457 2.32497E+01-4.53649E-01 4.65559E-03-7.57999E-01 1.08884E-14 5.94292E-13
 -1      2458 2.26157E+01-5.36534E-01-8.08372E-03-1.04271E+00 4.00309E-15 3.43423E-13
 -1      2459 2.37922E+01-1.01811E+00-3.09344E-02 1.91158E-01 7.99499E-14 5.90738E-13
 -1      2460 2.37371E+01-8.22184E-01 5.34007E-03-1.97955E-01 5.44582E-14 5.87493E-13
 -1      2461 2.31838E+01-1.01700E+00-9.61544E-03-5.54376E-01 6.10944E-14 3.98384E-13
 -1      2462 2.40160E+01-1.27073E+00-3.11811E-02 1.23089E+00 3.05639E-13 4.34102E-13
 -1      2463 2.41284E+01-1.17381E+00 2.41020E-03 7.14366E-01 1.61607E-13 6.31883E-13
 -1      2464 2.38200E+01-1.51378E+00-7.46861E-03 3.13532E-01 2.31795E-13 3.89097E-13
 -1      2465 2.39293E+01-1.09584E+00-1.69372E-02 2.38812E+00 4.68097E-13 3.46658E-13
 -1      2466 2.42468E+01-1.25987E+00-9.27678E-03 1.88436E+00 4.34642E-13 4.62327E-13
 -1      2467 2.43933E+01-1.72658E+00 2.82073E-03 1.54745E+00 3.49236E-13 5.37998E-13
 -1      2468 2.33988E+01-2.58235E-01 7.25947E-03 3.16793E+00 5.10955E-13 3.93038E-13
 -1      2469 2.38915E+01-7.67686E-01-2.81423E-02 2.93670E+00 3.76914E-13 4.48859E-13
 -1      2470 2.46447E+01-1.25086E+00 1.42988E-02 2.86354E+00 3.74356E-13 3.93550E-13
 -1      2471 2.24856E+01 1.03528E+00 5.19763E-03 2.96202E+00 4.59577E-13 1.69368E-13
 -1      2472 2.30280E+01 3.58150E-01-5.47805E-02 3.23226E+00 6.55176E-13 4.24666E-13
 -1      2473 2.43104E+01 8.11596E-02-7.05187E-03 3.62770E+00 5.79359E-13 3.71684E-13
 -1      2474 2.17010E+01 1.92013E+00-4.13360E-03 1.56677E+00 1.13451E-13-6.73593E-14
 -1      2475 2.20558E+01 1.58975E+00-4.19060E-02 2.28244E+00 1.80092E-13 3.44317E-14
 -1      2476 2.35367E+01 1.72268E+00-1.54079E-02 3.06329E+00 4.44525E-13 5.16620E-13
 -1      2477 2.14596E+01 1.70799E+00-4.00163E-02-2.36534E-01-1.02484E-13 2.69229E-15
 -1      2478 2.15589E+01 1.98302E+00 1.51586E-03 5.29442E-01 6.13398E-15-1.10272E-14
 -1      2479 2.30216E+01 2.64485E+00-4.01697E-02 1.22987E+00-1.20771E-14 2.64139E-13
 -1      2480 2.17557E+01 6.03646E-01-4.73640E-02-1.34051E+00-2.11862E-14 3.97325E-13
 -1      2481 2.16492E+01 1.21101E+00 1.92194E-02-9.76672E-01-7.95301E-14 2.33895E-13
 -1      2482 2.30198E+01 1.99080E+00-3.68438E-02-7.08829E-01-2.88325E-13 5.44711E-13
 -1      2483 2.20153E+01-4.27207E-01-2.51085E-02-1.32359E+00 5.92044E-14 4.46437E-13
 -1      2484 2.18863E+01 2.46385E-02 8.84481E-03-1.41714E+00 3.89671E-14 5.17481E-13
 -1      2485 2.32858E+01 4.61746E-01-2.59250E-03-1.50895E+00-1.28668E-13 7.02757E-13
 -1      2486 2.18487E+01-7.67741E-01 3.97181E-03-6.42484E-01-6.17887E-15 2.88029E-13
 -1      2487 2.18266E+01-6.96377E-01-1.46270E-02-9.43843E-01 2.90453E-14 3.73198E-13
 -1      2488 2.31634E+01-7.31698E-01 1.18265E-02-1.09621E+00 1.41085E-13 7.01705E-13
 -1      2489 2.12679E+01-4.88873E-01 1.74328E-02 1.01414E-03-3.07133E-13 2.27728E-13
 -1      2490 2.13821E+01-6.76343E-01-2.24461E-02-2.25906E-01-1.84840E-13 1.76500E-13
 -1      2491 2.24809E+01-9.73204E-01 9.24049E-03-2.22912E-01 1.10242E-15 3.43030E-13
 -1      2492 2.07308E+01-2.22834E-01-9.93473E-03 1.77893E-01-3.30328E-13 1.38495E-13
 -1      2493 1.96620E+01 8.00886E-01-5.34140E-02 5.61639E+00 1.43859E-13 9.90666E-14
 -1      2494 2.10986E+01 1.19158E-01 8.70423E-02 5.44745E+00-1.03556E-13-1.81827E-13
 -1      2495 1.62547E+01 2.62397E+00-3.30369E-02 4.36938E+00 5.66954E-13 5.15823E-13
 -1      2496 1.80228E+01 1.97305E+00 1.59936E-01 5.33268E+00 2.74597E-13 2.84696E-13
 -1      2497 1.83504E+01-2.43631E-01 6.06999E-02 6.41574E+00 3.10661E-13 4.21968E-13
 -1      2498 2.26274E+01-6.58790E-01 4.97510E-02 2.69048E+00-4.50301E-13 9.35311E-14
 -1      2499 2.24123E+01-9.04822E-01-1.36555E-02 1.84094E+00-2.74334E-13 1.17329E-13
 -1      2500 2.20291E+01-2.97424E-01 1.99636E-02 4.56165E+00-5.03053E-13-2.85047E-13
 -1      2501 2.25101E+01-7.87895E-01 2.61323E-02 3.79993E+00-6.04988E-13 1.69071E-13
 -1      2502 2.33357E+01-1.73952E+00 3.16197E-03 3.33579E+00-2.72700E-13-4.33377E-14
 -1      2503 2.20165E+01-1.56652E+00 1.35632E-02 5.49359E+00-2.40870E-13 1.15845E-13
 -1      2504 1.42857E+01 3.77969E+00 3.82022E-02 5.22642E-01 3.95628E-13 3.00454E-14
 -1      2505 1.48985E+01 3.54175E+00 9.94250E-02 2.42564E+00 4.26294E-13 1.41900E-13
 -1      2506 1.43414E+01 1.64581E+00 1.46451E-01 4.07648E+00 3.78926E-13 2.97068E-13
 -1      2507 1.56387E+01 3.19057E+00 1.36153E-01-3.79834E+00-5.22343E-14-6.95582E-13
 -1      2508 1.45382E+01 3.57443E+00 2.44148E-03-2.08294E+00 1.40844E-13-3.84248E-13
 -1      2509 1.26283E+01 2.39353E+00 1.68185E-01-9.41442E-01 1.73217E-13-3.83443E-13
 -1      2510 1.90184E+01 1.28508E+00 1.34238E-01-5.89694E+00-3.27374E-13-4.57148E-13
 -1      2511 1.72326E+01 2.02467E+00-5.34511E-02-5.29925E+00-1.59539E-13-5.27391E-13
 -1      2512 1.53177E+01 1.14053E+00 1.12428E-01-5.37057E+00-1.94192E-13-7.02410E-13
 -1      2513 2.16952E+01-3.15355E-01 7.44119E-02-5.33294E+00-1.48858E-13-5.42673E-13
 -1      2514 2.05257E+01 3.55967E-01-1.86529E-02-5.75172E+00-2.09925E-13-6.13343E-13
 -1      2515 1.96903E+01-7.44883E-01 3.11196E-02-6.58139E+00-2.38837E-13-5.13957E-13
 -1      2516 2.26987E+01-1.02980E+00 1.45332E-02-3.44729E+00 5.87273E-14-3.07827E-13
 -1      2517 2.23935E+01-5.91969E-01 2.29662E-02-4.32467E+00-7.51708E-14-3.88449E-13
 -1      2518 2.26260E+01-1.72547E+00-9.29497E-03-5.19646E+00-3.74683E-14-4.47390E-13
 -1      2519 2.23875E+01-1.02333E+00-1.58356E-02-1.53382E+00 4.62217E-14 1.04145E-13
 -1      2520 2.26422E+01-8.17948E-01 4.18382E-02-2.35381E+00 1.20879E-13-2.42339E-13
 -1      2521 2.34694E+01-1.67150E+00 3.33060E-03-2.92797E+00 9.21294E-14-2.41907E-13
 -1      2522 2.15483E+01-7.34139E-01-1.61023E-02-1.35930E-01-2.36952E-13-6.45066E-14
 -1      2523 2.20188E+01-7.10175E-01 3.96174E-02-7.05807E-01-2.26770E-13 3.45366E-14
 -1      2524 2.29092E+01-1.18037E+00 1.75880E-02-1.00829E+00-1.76487E-13-1.27877E-13
 -1      2525 2.05067E+01-4.14024E-01-5.41997E-03 4.27846E-01-5.91697E-14 3.44884E-13
 -1      2526 2.90293E+01-4.76342E+00-5.68545E-02 5.45078E+00 2.66204E-13 6.21059E-13
 -1      2527 2.56223E+01-5.87307E+00 3.48889E-02 6.51974E+00 1.81855E-13 7.83956E-13
 -1      2528 1.97061E+01 1.43344E-01 3.25652E-03 5.94599E-02 1.06025E-13 1.05353E-13
 -1      2529 1.97845E+01 1.98194E-01 1.23767E-02 1.45681E-01 1.30527E-13 1.36432E-13
 -1      2530 1.98502E+01 1.80954E-01-3.86686E-03 6.48369E-02 1.12185E-13 2.59380E-14
 -1      2531 6.37148E+00-3.34577E+00 6.07338E-02 4.94390E+00 2.15800E-13-2.09222E-13
 -1      2532 4.91654E+00-2.36447E+00 9.32184E-02 1.72949E+00 1.89217E-13-3.66707E-13
 -1      2533 2.12792E+01-6.14780E+00-2.29966E-02 8.38274E+00 2.72948E-13 6.37580E-13
 -1      2534 1.64153E+01-5.85774E+00 1.03894E-01 8.42984E+00 2.73559E-13 3.78031E-13
 -1      2535 9.01710E+00-3.55801E+00 1.38485E-01-6.63320E+00 1.85962E-15-5.15032E-13
 -1      2536 1.33654E+01-4.59003E+00 4.92027E-02-8.62808E+00 2.59903E-13-5.22415E-13
 -1      2537 2.52049E+01-5.71122E+00 3.89333E-02-6.81723E+00 4.65850E-13-7.69829E-13
 -1      2538 2.87823E+01-4.58119E+00-6.81578E-02-5.53610E+00 2.15633E-13-8.81795E-13
 -1      2539 2.34553E+01-6.43392E+00-1.04197E-01 5.44017E+00-1.57763E-13-7.22589E-13
 -1      2540 1.90785E+01-6.70385E+00 7.11365E-02 6.32889E+00-2.91628E-13-3.31324E-13
 -1      2541 7.35234E+00-4.85645E+00 5.61785E-02 5.84085E+00-3.70259E-14 6.47260E-14
 -1      2542 4.55610E+00-4.61594E+00 8.59128E-02 3.91599E+00 1.57957E-13-1.03195E-13
 -1      2543 1.95181E+01 3.58504E+00-1.00839E-02-2.45262E-01 8.39314E-14-3.46708E-13
 -1      2544 1.95342E+01 3.56439E+00-9.63562E-03-4.25943E-01 4.75958E-14-3.42983E-13
 -1      2545 1.97103E+01 3.16374E+00-6.22051E-04-4.73301E-01 3.54626E-14-3.09446E-13
 -1      2546 1.96761E+01 3.22364E+00-9.40665E-04-1.51977E-01 9.08405E-14-3.22892E-13
 -1      2547 3.42043E+01 7.47061E+00-1.73262E-01 1.88654E+00 2.17992E-13 4.03386E-13
 -1      2548 3.54487E+01 8.08674E+00-4.36228E-02 1.29479E+00-2.48135E-14 2.75495E-13
 -1      2549 1.78775E+01-7.00594E+00 6.21024E-02-6.09428E+00-7.41074E-14 1.16122E-14
 -1      2550 2.17542E+01-6.92388E+00-9.30606E-02-5.51283E+00-4.64628E-14-8.57786E-14
 -1      2551 3.55957E+01 7.69085E+00-1.12357E-01 7.16594E-01-2.87492E-13 2.93356E-13
 -1      2552 3.52803E+01 6.74240E+00-6.44363E-02 2.66128E-01-3.13749E-13 1.70697E-13
 -1      2553 3.23609E+01 7.48737E+00-6.01272E-02 7.96924E-01-1.27953E-13 2.96659E-13
 -1      2554 3.11918E+01-2.29728E+00-3.07378E-02 8.26373E-01 3.72237E-13-2.32314E-14
 -1      2555 3.24944E+01-4.13195E-01-1.53103E-01 1.60637E+00 3.04493E-13-5.05429E-14
 -1      2556 3.05319E+01-3.10752E+00-1.42798E-01 1.17541E+00 1.03376E-13-9.16489E-13
 -1      2557 2.74954E+01-5.00474E+00 4.90097E-02 2.89942E+00-6.30329E-14-8.57037E-13
 -1      2558 2.59486E+01-6.11961E+00 4.64065E-02-3.21940E+00 3.40561E-14-5.35960E-14
 -1      2559 2.92399E+01-4.71257E+00-1.38487E-01-1.45756E+00 1.70475E-13-2.10554E-13
 -1      2560 9.20460E+00-6.10509E+00 4.34082E-02-5.93000E+00-3.42198E-13-1.58679E-13
 -1      2561 1.33553E+01-6.51570E+00-4.45544E-03-6.74835E+00-2.10387E-13-3.93297E-14
 -1      2562 4.53937E+00-4.29518E+00 1.14170E-01-3.39935E+00-1.39833E-13-2.58127E-13
 -1      2563 6.44230E+00-5.24073E+00 6.94004E-02-5.11571E+00-2.66009E-13-3.05644E-13
 -1      2564 9.86041E+00-4.75696E+00 1.28894E-01-5.64748E+00-2.62984E-13-2.29899E-13
 -1      2565 3.13765E+00-4.06351E+00 8.58251E-02 1.99309E+00 4.96964E-14-1.17184E-13
 -1      2566 3.24184E+00-3.54926E+00 1.27903E-01-5.54286E-01-1.70197E-13-1.28564E-13
 -1      2567 5.84944E+00-2.86678E+00 1.70935E-01 2.94362E+00-3.65818E-14-1.25344E-13
 -1      2568 1.48746E+01-6.20168E+00 9.83310E-03 7.20281E+00-3.10030E-13-1.86989E-13
 -1      2569 1.14723E+01-5.69924E+00 1.17574E-01 6.68626E+00-2.02338E-13-5.80647E-14
 -1      2570 3.40607E+01 8.12596E+00-2.17738E-01-1.25559E+00-9.28146E-14-4.03432E-13
 -1      2571 3.48657E+01 7.67837E+00-9.85033E-02-1.64379E+00-2.85327E-14-5.83339E-13
 -1      2572 3.31587E+01 1.59552E+00-1.52330E-01-1.43529E+00 1.74361E-13-9.40636E-13
 -1      2573 3.20479E+01-3.26363E-01-5.09863E-02-8.44065E-01 1.73528E-13-8.31890E-13
 -1      2574 3.47315E+01 6.16745E+00-1.22546E-01-1.92859E+00-1.61537E-14-8.23952E-13
 -1      2575 3.34186E+01 4.07290E+00-1.57757E-01-2.02822E+00 2.40363E-14-8.59729E-13
 -1      2576 3.18243E+01 6.39690E+00-7.14658E-02-2.42071E+00-1.46438E-13-5.67366E-13
 -1      2577 3.38473E+01 1.69684E+00-6.62568E-02-8.53485E-01 2.36700E-13-1.69365E-13
 -1      2578 3.42216E+01 3.76449E+00-1.84132E-01-1.26962E-01 1.33366E-13-1.43635E-13
 -1      2579 3.12653E+01-2.48526E+00-4.93213E-03-3.23092E+00 2.15224E-13-6.27998E-13
 -1      2580 3.32515E+01-4.70352E-01-8.96558E-02-2.17355E+00 2.32446E-13-2.72227E-13
 -1      2581 3.24714E+01 1.11953E-01-9.37347E-03-4.70570E-01 2.15036E-13 4.80727E-14
 -1      2582 1.78159E+01-5.75575E+00 8.69589E-02-8.59146E+00 3.42393E-13-5.44412E-13
 -1      2583 2.14455E+01-5.93113E+00-1.07470E-02-8.50140E+00 3.53662E-13-7.03007E-13
 -1      2584 5.03104E+00-2.20718E+00 1.35488E-01-1.72818E+00-1.22985E-13-7.79932E-13
 -1      2585 5.95745E+00-2.86449E+00 3.06945E-02-4.49782E+00-1.51712E-13-7.61002E-13
 -1      2586 2.05485E+01 1.95512E+00-1.36887E-02-1.89777E+00-2.38864E-13-1.55509E-13
 -1      2587 2.04119E+01 1.21417E+00-7.27073E-03-1.28664E+00-2.17910E-13-1.39975E-13
 -1      2588 2.03822E+01 1.38045E+00 7.25313E-03-1.23658E+00-1.82217E-13-1.55759E-13
 -1      2589 2.02904E+01 2.38491E+00-4.82784E-03-1.84187E+00-2.15030E-13-2.00100E-13
 -1      2590 2.04916E+01 8.74945E-01-7.31046E-03 1.22629E+00 2.36701E-13 2.61023E-13
 -1      2591 2.08421E+01 1.25694E+00-6.04980E-03 1.72701E+00 2.58474E-13 2.93508E-13
 -1      2592 2.06478E+01 1.71564E+00-1.57896E-02 1.92112E+00 2.91300E-13 1.97647E-13
 -1      2593 2.04500E+01 1.05803E+00-9.39153E-03 1.24098E+00 2.45561E-13 1.32177E-13
 -1      2594 3.32743E+01-9.51178E-01-9.70804E-02 2.05083E+00 3.51549E-13-8.27671E-14
 -1      2595 3.11567E+01-3.03065E+00-3.29896E-02 3.15571E+00 4.83204E-13 2.36311E-13
 -1      2596 3.17573E+01 1.01697E+00-9.81480E-02 3.08419E+00 3.45779E-13 2.73115E-14
 -1      2597 1.99123E+01 2.81596E+00 2.42141E-03-1.09836E+00-9.13460E-14-3.34156E-13
 -1      2598 1.97821E+01 3.16047E+00-1.45331E-02-1.28414E+00-9.83712E-14-3.57956E-13
 -1      2599 1.98766E+01 3.03710E+00-1.74692E-02-1.48281E+00-1.36365E-13-3.43518E-13
 -1      2600 1.99958E+01 3.40235E-01-3.57051E-03 3.04023E-01 1.68440E-13 5.63664E-14
 -1      2601 2.04232E+01 2.11581E+00-1.27816E-02 1.87410E+00 2.98289E-13 8.05449E-14
 -1      2602 3.26321E+01-9.73843E-02-1.75898E-02 1.86118E-01 2.81067E-13 2.77556E-16
 -1      2603 7.03932E+00-9.06170E-01 1.86499E-01 2.14194E-01 9.22665E-14-3.66818E-13
 -1      2604 3.00593E+01-3.89934E+00 1.25148E-02-3.54128E+00 2.04059E-13-4.63601E-13
 -1      2605 3.17250E+01 2.53614E+00-6.20048E-02-2.70018E+00 6.87506E-14-7.34052E-13
 -1      2606 2.45600E+01-6.09915E+00 7.63490E-02 7.01736E+00 4.46254E-13 6.54268E-13
 -1      2607 1.58329E+01-4.90455E+00 2.80128E-02 8.55832E+00 2.28539E-13 3.81611E-13
 -1      2608 2.14369E+01-5.24689E-01-1.08901E-02 3.93154E-01-3.00274E-13 1.37469E-13
 -1      2609 2.18674E+01-5.43639E-01 2.13811E-02 8.58913E-01-2.19127E-13 2.49134E-13
 -1      2610 3.30425E+01 7.88651E+00-9.29718E-02-6.91382E-01 1.00087E-13-5.49224E-13
 -1      2611 3.03940E+01 7.39812E+00-1.43638E-01-1.11100E+00-4.15779E-14-7.35125E-13
 -1      2612 3.09338E+01 7.12177E+00-1.98243E-01-1.84585E-01 1.77691E-13-6.47538E-13
 -1      2613 2.06842E+01-4.13384E-01-1.79551E-03 6.61567E-01-1.05876E-13 3.68117E-13
 -1      2614 2.12117E+01-5.37686E-01 2.15097E-02 3.08572E-01-1.83752E-13 2.04355E-13
 -1      2615 2.18008E+01-7.60225E-01-1.57114E-02 1.86880E-01-2.69601E-13 1.08569E-13
 -1      2616 2.07411E+01-4.22543E-01-1.74197E-02 7.85718E-01-1.81558E-13 4.13383E-13
 -1      2617 4.96438E+00-3.09940E+00 1.70027E-01-1.99452E+00-9.62008E-14-2.06363E-13
 -1      2618 7.16358E+00-2.54394E+00 1.45087E-01-3.24791E+00-6.99718E-14-2.36033E-13
 -1      2619 6.01242E+00-1.80483E+00 1.72541E-01-7.30405E-01-7.86177E-14-1.58651E-13
 -1      2620 3.01351E+01-4.38113E+00 1.21782E-02 3.35401E+00 5.06969E-13 2.48163E-13
 -1      2621 2.04371E+01 1.80813E+00 1.25462E-02 1.56181E+00 2.79270E-13 4.89704E-14
 -1      2622 9.78835E+00-2.48933E+00 1.45556E-01 5.76236E+00 1.53599E-13 1.73472E-14
 -1      2623 1.69816E+01-4.33674E+00 1.15600E-01-8.40897E+00 1.77719E-13-6.35936E-13
 -1      2624 2.46459E+01-6.55003E+00 7.12217E-02-3.71888E+00-4.32987E-14-2.13107E-13
 -1      2625 2.01134E+01 2.62138E+00-1.17055E-02-1.67795E+00-1.69954E-13-2.62802E-13
 -1      2626 3.05042E+01-2.33189E+00-2.52871E-02-6.46202E-01 2.21108E-13-6.49425E-13
 -1      2627 1.85758E+01-6.15463E+00 1.32630E-01 6.30383E+00-2.43500E-13-3.05846E-13
 -1      2628 3.33938E+01 4.88181E+00-5.90653E-02 3.67785E-01 3.46390E-14-3.86746E-13
 -1      2629 3.12593E+01 5.55090E+00-2.43195E-01 8.64182E-01-2.57572E-14-4.92009E-13
 -1      2630 3.14612E+01 3.18713E+00-7.79238E-02 8.41006E-01-6.51701E-14-3.33358E-13
 -1      2631 1.09168E+01-4.42335E+00 1.55349E-01 6.15293E+00-1.50713E-13-2.10776E-13
 -1      2632 2.60261E+01-5.90046E+00 5.46031E-02 3.44385E+00 1.39749E-14-7.36675E-13
 -1      2633 2.44613E+01-5.68672E+00 6.35613E-02-7.15500E+00 2.33036E-13-6.32307E-13
 -1      2634 9.95701E+00-1.86594E+00 1.28000E-01-5.83127E+00-1.07275E-13-7.83290E-13
 -1      2635 3.09988E+01 4.81323E+00-1.07540E-01 3.24562E+00 4.65600E-13 3.17468E-13
 -1      2636 3.29954E+01 6.19446E+00-1.30034E-01 2.69436E+00 3.70814E-13 4.07119E-13
 -1      2637 3.04944E+01 6.57406E+00-1.80871E-01 2.51371E+00 2.82774E-13 3.73521E-13
 -1      2638 1.68034E+01-6.34576E+00 1.20106E-01-6.24515E+00-1.45078E-13-5.93553E-14
 -1      2639 3.32828E+01 5.02930E+00-4.86854E-02-4.18328E-01-3.08614E-13 1.66644E-13
 -1      2640 2.96466E+01-4.00796E+00-1.19539E-02 4.57779E-01 2.19408E-13 2.33147E-14
 -1      2641 2.27152E+01-1.21847E+00-7.19043E-03 1.14393E+00-5.64564E-14 2.02728E-13
 -1      2642 2.15820E+01-5.10490E-01 1.83123E-02 7.60577E-01-1.70912E-13 2.33384E-13
 -1      2643 1.98440E+01 2.76518E+00-6.31702E-03 5.16125E-01 1.61308E-13-2.38668E-13
 -1      2644 1.98192E+01 2.81488E+00-5.71118E-03 3.65287E-01 1.34473E-13-2.64077E-13
 -1      2645 1.98023E+01 2.85243E+00-5.61201E-03 2.29817E-01 1.21964E-13-3.02053E-13
 -1      2646 1.97936E+01 2.86936E+00-5.43339E-03 7.52043E-02 1.11426E-13-3.12191E-13
 -1      2647 1.99487E+01 2.50119E+00 3.65660E-03 2.65177E-01 1.23960E-13-2.79363E-13
 -1      2648 2.00436E+01 2.32405E+00-1.07191E-02 1.04565E+00 2.51257E-13-1.44192E-13
 -1      2649 1.99791E+01 2.47299E+00-6.33641E-03 9.10049E-01 2.37780E-13-1.67861E-13
 -1      2650 2.02169E+01 1.90874E+00-1.19271E-02 1.22693E+00 2.71352E-13-7.40016E-14
 -1      2651 2.01243E+01 2.14644E+00-4.83104E-03 1.13368E+00 2.57273E-13-1.10119E-13
 -1      2652 2.01893E+01 1.88673E+00 6.45140E-03 9.26245E-01 2.31338E-13-1.07200E-13
 -1      2653 2.02134E+01 7.26834E-01-3.48993E-03 6.42311E-01 2.17142E-13 6.52386E-15
 -1      2654 2.03554E+01 9.51704E-01 9.17654E-03 9.06020E-01 2.25666E-13 2.46210E-14
 -1      2655 2.00704E+01 4.15644E-01-1.61764E-03 2.87313E-01 1.64148E-13 3.79194E-15
 -1      2656 2.01718E+01 5.54067E-01 1.04803E-02 4.50235E-01 1.86809E-13 1.00463E-14
 -1      2657 2.02543E+01 8.21996E-01 8.61036E-04 6.16907E-01 2.03016E-13-4.44761E-14
 -1      2658 2.03385E+01 1.50034E+00-1.90415E-03 1.26654E+00 2.57438E-13 1.62032E-14
 -1      2659 2.96190E+01 6.34304E+00-2.32026E-01-2.25620E+00-7.57450E-14-4.50723E-13
 -1      2660 2.98047E+01 5.11651E+00-1.57827E-01-2.98117E+00-3.83304E-14-4.37900E-13
 -1      2661 2.02161E+01 6.27242E-01 8.17734E-03-4.36664E-01-1.04519E-13-1.47741E-13
 -1      2662 2.01326E+01 4.75456E-01-3.39116E-03-2.77907E-01-7.84501E-14-1.37773E-13
 -1      2663 2.01065E+01 3.62567E-01 6.60408E-03-1.58133E-01-8.87946E-14-1.29217E-13
 -1      2664 2.00474E+01 2.67777E-01-1.78196E-03-6.04626E-02-8.70768E-14-1.52946E-13
 -1      2665 2.01952E+01 5.28786E-01-1.70401E-03-2.61409E-01-9.40705E-14-1.27935E-13
 -1      2666 2.00212E+01 1.97479E-01 4.51731E-03 1.47923E-02-8.21645E-14-1.42802E-13
 -1      2667 1.99854E+01 1.37907E-01-8.42069E-04 7.13377E-02-7.22877E-14-1.20864E-13
 -1      2668 2.01264E+01 2.98601E-01-2.09033E-03-5.50355E-02-8.13763E-14-1.25212E-13
 -1      2669 1.99644E+01 9.37398E-02 2.89712E-03 1.14654E-01-6.42936E-14-1.08022E-13
 -1      2670 1.99462E+01 5.64314E-02-3.00315E-04 1.44041E-01-9.27832E-14-1.10022E-13
 -1      2671 2.00698E+01 1.52364E-01-1.89815E-03 7.21392E-02-6.64373E-14-1.25214E-13
 -1      2672 1.99312E+01 2.89475E-02 1.73504E-03 1.65454E-01-9.89855E-14-1.13412E-13
 -1      2673 1.99252E+01 6.16226E-03-1.30889E-06 1.77282E-01-7.31801E-14-1.21367E-13
 -1      2674 2.00286E+01 5.99375E-02-1.51935E-03 1.43023E-01-8.18598E-14-1.15367E-13
 -1      2675 1.99154E+01-1.03372E-02 9.31069E-04 1.84286E-01-8.07914E-14-1.16124E-13
 -1      2676 1.99171E+01-2.34689E-02 1.55929E-04 1.85136E-01-1.00406E-13-1.05271E-13
 -1      2677 2.00012E+01 2.87569E-03-1.13822E-03 1.75635E-01-6.66093E-14-1.36199E-13
 -1      2678 1.99112E+01-3.26240E-02 3.92877E-04 1.83141E-01-8.98274E-14-8.97759E-14
 -1      2679 1.99175E+01-3.92990E-02 2.33534E-04 1.77521E-01-8.35394E-14-5.24187E-14
 -1      2680 1.99844E+01-3.05612E-02-8.17534E-04 1.83376E-01-8.55879E-14-6.82902E-14
 -1      2681 1.99145E+01-4.35314E-02 4.67136E-05 1.70352E-01-9.26521E-14-3.20054E-14
 -1      2682 1.99232E+01-4.59065E-02 2.67843E-04 1.61347E-01-4.05144E-14-5.64000E-14
 -1      2683 1.99755E+01-4.81219E-02-5.68965E-04 1.75900E-01-6.73389E-14-4.74979E-14
 -1      2684 1.99222E+01-4.68621E-02-1.64009E-04 1.51666E-01-1.17672E-14-5.82436E-14
 -1      2685 1.99317E+01-4.64055E-02 2.80478E-04 1.41368E-01 1.20940E-14-8.30765E-14
 -1      2686 1.99719E+01-5.50481E-02-3.86034E-04 1.60020E-01-3.95157E-14-4.25766E-14
 -1      2687 1.99320E+01-4.52035E-02-2.81900E-04 1.30998E-01 3.73284E-15-8.70606E-14
 -1      2688 1.99416E+01-4.29020E-02 2.85108E-04 1.20817E-01 5.20414E-16-9.68400E-14
 -1      2689 1.99720E+01-5.49180E-02-2.57398E-04 1.40469E-01-2.07390E-14-6.76412E-14
 -1      2690 1.99428E+01-4.02851E-02-3.38719E-04 1.10996E-01 4.14936E-14-1.42742E-13
 -1      2691 1.99520E+01-3.67745E-02 2.91209E-04 1.01878E-01 4.07790E-14-1.21077E-13
 -1      2692 1.99744E+01-5.01453E-02-1.71541E-04 1.20495E-01 1.24476E-14-9.33490E-14
 -1      2693 1.99538E+01-3.32065E-02-3.57889E-04 9.34496E-02 2.37550E-14-1.09954E-13
 -1      2694 1.99625E+01-2.88602E-02 3.05820E-04 8.60476E-02 2.39810E-15-3.60758E-14
 -1      2695 1.99783E+01-4.22964E-02-1.18851E-04 1.02313E-01 3.94799E-14-5.13330E-14
 -1      2696 1.99647E+01-2.45944E-02-3.56482E-04 7.96102E-02-2.56355E-14-2.11694E-14
 -1      2697 1.99731E+01-1.95874E-02 3.34628E-04 7.44039E-02-3.44616E-14-1.27815E-14
 -1      2698 1.99832E+01-3.23044E-02-9.15785E-05 8.74686E-02 1.08116E-14-6.94175E-14
 -1      2699 1.99756E+01-1.47172E-02-3.46953E-04 7.04242E-02-8.98239E-14 3.88995E-14
 -1      2700 1.99839E+01-9.07344E-03 3.82483E-04 6.78168E-02-1.00848E-13-1.85945E-14
 -1      2701 1.99889E+01-2.06235E-02-8.35720E-05 7.71023E-02-7.78224E-14-1.79056E-14
 -1      2702 1.99867E+01-3.57111E-03-3.38375E-04 6.67156E-02-1.92338E-14-1.20089E-14
 -1      2703 1.99954E+01 2.79856E-03 4.53627E-04 6.71033E-02-1.11133E-14-5.19423E-14
 -1      2704 1.99953E+01-7.34491E-03-9.01602E-05 7.21606E-02-8.92801E-14 4.58823E-14
 -1      2705 1.99986E+01 9.04920E-03-3.37292E-04 6.93196E-02-3.76426E-14-7.10916E-14
 -1      2706 2.00082E+01 1.63138E-02 5.51684E-04 7.31429E-02-1.42369E-14-7.27316E-14
 -1      2707 2.00026E+01 7.71075E-03-1.07664E-04 7.35503E-02-3.17785E-14 2.75468E-14
 -1      2708 2.00119E+01 2.34871E-02-3.48344E-04 7.91783E-02-3.62805E-14-8.33934E-14
 -1      2709 2.00231E+01 3.18625E-02 6.79466E-04 8.69539E-02-5.32974E-14-1.11732E-13
 -1      2710 2.00109E+01 2.49122E-02-1.32999E-04 8.22513E-02-5.36408E-14-1.32402E-13
 -1      2711 2.00275E+01 4.01584E-02-3.74551E-04 9.73986E-02-5.73468E-14-1.44235E-13
 -1      2712 2.00410E+01 4.98698E-02 8.38471E-04 1.09733E-01-3.06418E-14-1.30661E-13
 -1      2713 2.00205E+01 4.47369E-02-1.63472E-04 9.93883E-02-7.49962E-14-1.30703E-13
 -1      2714 2.00462E+01 5.94734E-02-4.17209E-04 1.25271E-01-1.84653E-14-9.91492E-14
 -1      2715 2.00629E+01 7.07045E-02 1.02806E-03 1.42849E-01-3.10550E-14-1.57993E-13
 -1      2716 2.00320E+01 6.76780E-02-1.96638E-04 1.26264E-01-2.87773E-14-1.03481E-13
 -1      2717 2.00691E+01 8.17297E-02-4.75353E-04 1.64240E-01-6.20537E-14-1.57017E-13
 -1      2718 2.00900E+01 9.45516E-02 1.24422E-03 1.87788E-01-1.09739E-13-1.75258E-13
 -1      2719 2.00456E+01 9.41228E-02-2.30377E-04 1.64342E-01-1.80335E-14-1.86948E-13
 -1      2720 2.00975E+01 1.06960E-01-5.44601E-04 2.15813E-01-1.32444E-13-2.22338E-13
 -1      2721 2.01235E+01 1.21226E-01 1.47798E-03 2.46015E-01-1.05616E-13-2.50707E-13
 -1      2722 2.00621E+01 1.24181E-01-2.63407E-04 2.15182E-01-1.79991E-13-8.87903E-14
 -1      2723 2.01328E+01 1.34705E-01-6.15121E-04 2.81386E-01-1.40463E-13-2.88981E-13
 -1      2724 2.01651E+01 1.49896E-01 1.71331E-03 3.18742E-01-1.61578E-13-3.85192E-13
 -1      2725 2.00820E+01 1.57433E-01-2.96554E-04 2.80283E-01-1.48988E-13-1.38023E-13
 -1      2726 2.01766E+01 1.63686E-01-6.68346E-04 3.61944E-01-5.25508E-14-3.59682E-13
 -1      2727 2.02163E+01 1.78684E-01 1.92463E-03 4.06551E-01 1.32607E-13-3.08224E-13
 -1      2728 2.01061E+01 1.92567E-01-3.35319E-04 3.60842E-01-8.39426E-14-2.44342E-13
 -1      2729 2.02310E+01 1.91321E-01-6.71954E-04 4.57611E-01 2.08767E-13-3.27604E-13
 -1      2730 2.02793E+01 2.04094E-01 2.07413E-03 5.08834E-01 1.22420E-13-3.47034E-13
 -1      2731 2.01358E+01 2.26855E-01-3.94511E-04 4.57370E-01 1.42928E-13-2.03820E-13
 -1      2732 2.02985E+01 2.13060E-01-5.72630E-04 5.66982E-01 1.00266E-13-3.46348E-13
 -1      2733 2.03567E+01 2.20230E-01 2.10872E-03 6.22979E-01 8.47334E-14-2.81118E-13
 -1      2734 2.01729E+01 2.55415E-01-5.05929E-04 5.69145E-01 1.19725E-13-2.60660E-13
 -1      2735 2.03830E+01 2.21503E-01-2.86459E-04 6.86176E-01 4.60922E-14-2.72720E-13
 -1      2736 2.04526E+01 2.17817E-01 1.95649E-03 7.43251E-01 6.07222E-14-1.94252E-13
 -1      2737 2.02207E+01 2.70238E-01-7.29909E-04 6.93437E-01 7.00325E-14-2.04202E-13
 -1      2738 2.04902E+01 2.05343E-01 3.11945E-04 8.07532E-01 7.21660E-14-2.02391E-13
 -1      2739 2.05732E+01 1.83126E-01 1.52108E-03 8.59298E-01-7.36454E-14-1.23935E-13
 -1      2740 2.02850E+01 2.58994E-01-1.17043E-03 8.24462E-01 2.36039E-14-1.55871E-13
 -1      2741 2.06294E+01 1.48390E-01 1.39708E-03 9.17878E-01-1.61186E-13-1.30337E-13
 -1      2742 2.07283E+01 9.72264E-02 6.69299E-04 9.54240E-01-1.01375E-13-8.49721E-14
 -1      2743 2.03754E+01 2.03819E-01-1.99011E-03 9.51962E-01-9.70292E-14-1.26065E-13
 -1      2744 2.08143E+01 2.92968E-02 3.18363E-03 9.96290E-01-1.24450E-13-1.04408E-13
 -1      2745 2.09328E+01-6.34431E-02-7.95107E-04 1.00238E+00-1.19995E-13-8.98870E-14
 -1      2746 2.05080E+01 8.06672E-02-3.41364E-03 1.05928E+00-1.09869E-13-4.56438E-14
 -1      2747 2.10654E+01-1.76538E-01 5.87273E-03 1.01137E+00 5.94884E-15-4.50643E-14
 -1      2748 2.12075E+01-3.23080E-01-3.16282E-03 9.66787E-01 1.80210E-14 1.07742E-14
 -1      2749 2.07078E+01-1.39415E-01-5.68799E-03 1.12065E+00-4.94754E-14 7.14732E-14
 -1      2750 2.14086E+01-4.90018E-01 9.49426E-03 9.18387E-01-9.21924E-14 8.86234E-14
 -1      2751 2.15763E+01-6.95246E-01-6.81110E-03 7.97591E-01 1.01045E-14 7.65957E-14
 -1      2752 2.10104E+01-4.84235E-01-8.92071E-03 1.09747E+00 1.35520E-14 8.58246E-14
 -1      2753 2.18684E+01-9.11708E-01 1.34690E-02 6.58055E-01 1.48040E-13 6.66217E-14
 -1      2754 2.20563E+01-1.15884E+00-1.18500E-02 4.34063E-01 1.78684E-13 3.63671E-14
 -1      2755 2.14592E+01-9.64317E-01-1.27022E-02 9.33719E-01 7.39613E-14 1.10302E-13
 -1      2756 2.24483E+01-1.39030E+00 1.61331E-02 1.63239E-01 1.66267E-13-4.25181E-15
 -1      2757 2.26343E+01-1.61886E+00-1.68910E-02-1.81194E-01 2.21227E-13-7.31299E-14
 -1      2758 2.20903E+01-1.53920E+00-1.53070E-02 5.54503E-01 1.22406E-13-1.00604E-13
 -1      2759 2.30957E+01-1.77879E+00 1.48846E-02-6.14996E-01 2.13927E-13-1.38590E-13
 -1      2760 2.32326E+01-1.86288E+00-1.82430E-02-1.06248E+00 7.32951E-14-1.24087E-13
 -1      2761 2.28993E+01-2.06782E+00-1.26210E-02-1.20073E-01 1.17569E-13-9.16179E-14
 -1      2762 2.36483E+01-1.80163E+00-3.27238E-05-1.63424E+00 1.75709E-13-1.43209E-13
 -1      2763 2.36764E+01-1.56289E+00-1.22197E-02-2.09135E+00 2.17117E-13-1.03374E-13
 -1      2764 2.37767E+01-2.23929E+00 5.47501E-04-1.12818E+00 1.91434E-13-1.38825E-13
 -1      2765 2.38765E+01-1.13469E+00-2.69824E-02-2.63584E+00 1.71042E-13 4.52249E-14
 -1      2766 2.37606E+01-4.69989E-01 3.91518E-03-2.91640E+00 2.16503E-13 2.91173E-14
 -1      2767 2.44509E+01-1.67890E+00 4.72676E-03-2.30148E+00 2.28767E-13-3.55668E-13
 -1      2768 2.36013E+01 3.42628E-01-5.63745E-02-3.11927E+00 2.88527E-13 7.20225E-14
 -1      2769 2.33839E+01 1.25624E+00 1.32589E-02-2.98140E+00 2.22478E-13 1.06791E-13
 -1      2770 2.46243E+01-1.23403E-01 4.10784E-03-3.18115E+00 2.23262E-13-4.00763E-13
 -1      2771 2.30396E+01 2.07886E+00-5.81828E-02-2.55618E+00 5.43871E-14 2.22571E-13
 -1      2772 2.28395E+01 2.71336E+00-4.32818E-03-1.96405E+00-5.45536E-14 1.76844E-13
 -1      2773 2.42441E+01 1.98735E+00-3.02506E-02-3.03303E+00 1.75842E-13-5.55094E-14
 -1      2774 2.26913E+01 2.99421E+00-2.46024E-02-1.04921E+00-6.79561E-14 4.24629E-13
 -1      2775 2.26071E+01 2.88619E+00-4.67987E-02-3.05757E-01 1.20751E-13 3.94119E-13
 -1      2776 2.38213E+01 3.46287E+00-3.59543E-02-1.63160E+00 1.11564E-13 4.05789E-13
 -1      2777 2.27982E+01 2.43951E+00 8.11518E-03 5.12795E-01 1.61027E-13 3.07357E-13
 -1      2778 2.28152E+01 1.71601E+00-6.77593E-02 9.85848E-01 2.22843E-13 3.02464E-13
 -1      2779 2.38288E+01 3.24222E+00-1.98809E-02 2.15570E-01 1.43285E-13 4.24877E-13
 -1      2780 2.30284E+01 9.70095E-01 1.43644E-02 1.23611E+00 3.41269E-13 3.20775E-13
 -1      2781 2.30313E+01 2.26255E-01-4.18777E-02 1.29871E+00 3.32399E-13 2.54568E-13
 -1      2782 2.41002E+01 1.64974E+00 2.53778E-03 1.25414E+00 2.25018E-13 3.18376E-13
 -1      2783 2.29012E+01-3.19709E-01-3.38173E-04 1.03126E+00 1.07439E-13 1.24970E-13
 -1      2784 2.27663E+01-6.80983E-01-6.81641E-03 8.25806E-01-4.46952E-15 2.21627E-14
 -1      2785 2.40659E+01-1.26785E-01 1.32205E-02 1.09348E+00 9.96208E-14 1.19434E-13
 -1      2786 2.85576E+01-4.48161E+00 7.06935E-02-3.88649E+00 1.43337E-13-4.57190E-13
 -1      2787 3.02761E+01-3.18118E+00-1.28804E-01-2.04444E+00 2.25783E-13-2.68646E-13
 -1      2788 1.98924E+01 1.18662E-01-2.61557E-04-7.14158E-02 6.19598E-14-2.36250E-14
 -1      2789 1.99281E+01 1.70294E-01 5.19225E-03-1.59521E-02 8.32938E-14 1.26539E-14
 -1      2790 1.98434E+01-1.85387E-02 2.36116E-04-1.84331E-01 2.57062E-14 1.48906E-14
 -1      2791 1.98351E+01-7.40992E-03 8.81073E-04-1.83967E-01 1.77051E-14-2.60414E-14
 -1      2792 1.98544E+01-3.20064E-02 2.44600E-04-1.76433E-01 6.29423E-14 2.07862E-14
 -1      2793 1.98417E+01-2.63210E-02 2.97060E-04-1.82286E-01 3.30812E-14 3.58957E-14
 -1      2794 1.99202E+01-2.52478E-02-8.48048E-04-1.87172E-01 9.07758E-15-4.29553E-14
 -1      2795 1.98702E+01-3.77759E-02 2.35875E-04-1.60079E-01 2.96243E-14 1.56870E-14
 -1      2796 1.98557E+01-3.56897E-02-6.51833E-05-1.69164E-01 6.78376E-14 1.94125E-14
 -1      2797 1.99200E+01-4.06620E-02-5.48358E-04-1.79319E-01 6.94709E-14 6.32370E-15
 -1      2798 1.98881E+01-3.84719E-02 2.23925E-04-1.39947E-01 9.43428E-14 1.81941E-14
 -1      2799 1.98734E+01-3.87413E-02-2.75245E-04-1.50260E-01 4.76747E-14 1.21187E-14
 -1      2800 1.99251E+01-4.69245E-02-3.37431E-04-1.62886E-01 6.21971E-14 1.96336E-14
 -1      2801 1.99061E+01-3.58626E-02 2.16712E-04-1.19189E-01 1.66506E-13-1.58556E-14
 -1      2802 1.98922E+01-3.76544E-02-3.82793E-04-1.29393E-01 1.77065E-13 2.94961E-14
 -1      2803 1.99332E+01-4.71503E-02-1.96389E-04-1.42667E-01 1.27477E-13 5.66393E-15
 -1      2804 1.99235E+01-3.11083E-02 2.19498E-04-9.99138E-02 3.94373E-14-2.27675E-14
 -1      2805 1.99107E+01-3.38837E-02-4.23419E-04-1.09121E-01 7.94384E-14-2.01093E-14
 -1      2806 1.99428E+01-4.34329E-02-1.08892E-04-1.21922E-01 1.04133E-13 6.64392E-14
 -1      2807 1.99398E+01-2.49204E-02 2.36551E-04-8.35464E-02 5.75707E-14 8.13722E-14
 -1      2808 1.99282E+01-2.83599E-02-4.22656E-04-9.11549E-02 3.85593E-14 5.30015E-14
 -1      2809 1.99530E+01-3.71333E-02-6.17371E-05-1.02855E-01 1.76661E-14 7.99608E-14
 -1      2810 1.99553E+01-1.76686E-02 2.71924E-04-7.10968E-02 4.15826E-14 6.81018E-14
 -1      2811 1.99445E+01-2.16201E-02-3.98706E-04-7.66721E-02 8.27109E-14 1.04971E-13
 -1      2812 1.99632E+01-2.90701E-02-4.51447E-05-8.69820E-02 5.51045E-14 1.21848E-13
 -1      2813 1.99702E+01-9.45783E-03 3.29835E-04-6.33678E-02-6.84242E-14 9.26004E-14
 -1      2814 1.99600E+01-1.38997E-02-3.64535E-04-6.65482E-02-3.52534E-14 5.99875E-14
 -1      2815 1.99736E+01-1.96473E-02-5.18464E-05-7.54064E-02 1.65286E-14 1.38316E-13
 -1      2816 1.99855E+01-1.84361E-04 4.14874E-04-6.11158E-02-1.01743E-13 1.04868E-13
 -1      2817 1.99752E+01-5.19776E-03-3.29375E-04-6.15408E-02-5.78589E-14 1.04489E-13
 -1      2818 1.99842E+01-8.94651E-03-7.65525E-05-6.90327E-02-6.90040E-14 9.68296E-14
 -1      2819 2.00021E+01 1.04204E-02 5.32020E-04-6.51752E-02-5.57638E-14 6.73977E-14
 -1      2820 1.99909E+01 4.67278E-03-2.99837E-04-6.24298E-02-7.38909E-14 9.44872E-14
 -1      2821 1.99955E+01 3.20287E-03-1.15452E-04-6.87332E-02-6.99209E-14 1.65183E-15
 -1      2822 2.00211E+01 2.27565E-02 6.86559E-04-7.65536E-02-2.49534E-14 1.84497E-14
 -1      2823 2.00081E+01 1.60467E-02-2.80929E-04-7.01254E-02-5.81034E-14-1.62102E-14
 -1      2824 2.00080E+01 1.71710E-02-1.65462E-04-7.54735E-02-1.30167E-14 1.22731E-14
 -1      2825 2.00439E+01 3.73244E-02 8.83777E-04-9.65028E-02-7.69561E-15 9.35843E-14
 -1      2826 2.00282E+01 2.93752E-02-2.76715E-04-8.57504E-02 8.64802E-15 8.14160E-14
 -1      2827 2.00225E+01 3.34842E-02-2.23811E-04-9.04071E-02-4.45951E-14-3.14163E-14
 -1      2828 2.00722E+01 5.46897E-02 1.12837E-03-1.26564E-01-2.21065E-14 1.30458E-13
 -1      2829 2.00525E+01 4.51940E-02-2.90778E-04-1.10698E-01-1.36689E-14 1.18528E-13
 -1      2830 2.00398E+01 5.27841E-02-2.87308E-04-1.14943E-01 5.47610E-15 8.34394E-14
 -1      2831 2.01077E+01 7.54337E-02 1.42348E-03-1.68580E-01-1.53863E-13 1.61895E-13
 -1      2832 2.00826E+01 6.40825E-02-3.26494E-04-1.46661E-01-6.22336E-14 1.71035E-13
 -1      2833 2.00607E+01 7.57766E-02-3.51769E-04-1.50782E-01-2.08146E-14 1.22536E-13
 -1      2834 2.01523E+01 1.00074E-01 1.76915E-03-2.24670E-01-9.95813E-14 8.69146E-14
 -1      2835 2.01204E+01 8.66020E-02-3.86923E-04-1.95629E-01-1.16104E-13 1.63745E-13
 -1      2836 2.00863E+01 1.03160E-01-4.11508E-04-1.99915E-01-1.06813E-13 2.06867E-13
 -1      2837 2.02083E+01 1.28926E-01 2.15986E-03-2.97128E-01-6.10292E-14-9.22224E-14
 -1      2838 2.01678E+01 1.13193E-01-4.74107E-04-2.59826E-01-6.44153E-14-4.58563E-15
 -1      2839 2.01176E+01 1.35505E-01-4.59154E-04-2.64572E-01-1.63623E-14 9.71707E-14
 -1      2840 2.02776E+01 1.61869E-01 2.58110E-03-3.88228E-01 3.18282E-14-1.36968E-13
 -1      2841 2.02269E+01 1.43997E-01-5.87255E-04-3.41576E-01-2.44645E-14-1.23077E-13
 -1      2842 2.01554E+01 1.73057E-01-4.86316E-04-3.47099E-01-3.46425E-14-3.77023E-14
 -1      2843 2.03625E+01 1.97938E-01 3.00427E-03-4.99857E-01 4.75607E-14-6.23229E-14
 -1      2844 2.02998E+01 1.78548E-01-7.18973E-04-4.43038E-01 1.14221E-13-5.22104E-14
 -1      2845 2.02006E+01 2.15393E-01-4.86127E-04-4.49723E-01 3.34909E-14-1.48993E-13
 -1      2846 2.04652E+01 2.34629E-01 3.38009E-03-6.32898E-01-5.72474E-14-7.76715E-14
 -1      2847 2.03887E+01 2.15245E-01-8.48068E-04-5.65741E-01-5.69899E-14-1.08379E-13
 -1      2848 2.02539E+01 2.60837E-01-4.59526E-04-5.74162E-01 1.09757E-14-1.99985E-13
 -1      2849 2.05878E+01 2.66776E-01 3.63011E-03-7.86217E-01-3.40228E-14-1.50438E-13
 -1      2850 2.04959E+01 2.50470E-01-9.26797E-04-7.09820E-01-2.54564E-14-9.86728E-14
 -1      2851 2.03163E+01 3.05499E-01-4.28380E-04-7.20997E-01-2.29854E-14-2.23787E-13
 -1      2852 2.07334E+01 2.84789E-01 3.63655E-03-9.55071E-01-2.90811E-14-7.20975E-14
 -1      2853 2.06248E+01 2.77181E-01-8.59807E-04-8.72779E-01-8.23118E-14-1.00767E-13
 -1      2854 2.03894E+01 3.41729E-01-4.59928E-04-8.88711E-01-7.90896E-14-2.29976E-13
 -1      2855 2.09073E+01 2.72158E-01 3.23011E-03-1.12869E+00 1.36609E-16 6.80031E-14
 -1      2856 2.07801E+01 2.82795E-01-4.72492E-04-1.04757E+00 6.30680E-14 5.53105E-14
 -1      2857 2.04767E+01 3.55793E-01-7.07545E-04-1.07226E+00-6.80595E-14-7.84087E-14
 -1      2858 2.11192E+01 2.02424E-01 2.17109E-03-1.28680E+00-2.66402E-13 1.95679E-13
 -1      2859 2.09710E+01 2.46376E-01 5.30978E-04-1.21970E+00-1.06193E-13 1.35854E-13
 -1      2860 2.05868E+01 3.24684E-01-1.46890E-03-1.26092E+00-1.21965E-13 1.41398E-13
 -1      2861 2.13880E+01 3.69272E-02 1.15914E-04-1.39478E+00-2.89607E-13 2.82329E-13
 -1      2862 2.12145E+01 1.35737E-01 2.60857E-03-1.36295E+00-3.12150E-13 2.35792E-13
 -1      2863 2.07375E+01 2.12556E-01-3.24568E-03-1.43519E+00-2.45550E-13 1.02865E-13
 -1      2864 2.17461E+01-2.72803E-01-3.42427E-03-1.39764E+00-2.88475E-14 2.45259E-13
 -1      2865 2.15409E+01-9.32593E-02 6.37917E-03-1.43338E+00-1.38841E-13 2.59447E-13
 -1      2866 2.09632E+01-3.12466E-02-6.72541E-03-1.56184E+00-2.26108E-13-1.87036E-14
 -1      2867 2.22399E+01-7.69036E-01-9.20441E-03-1.21399E+00 6.45100E-14 1.47585E-13
 -1      2868 2.19971E+01-4.89173E-01 1.23812E-02-1.36149E+00 1.37721E-14 1.81091E-13
 -1      2869 2.13231E+01-4.66744E-01-1.24662E-02-1.58608E+00 3.47946E-14 8.45799E-14
 -1      2870 2.29183E+01-1.44096E+00-1.70915E-02-7.35276E-01 8.83920E-14 9.70704E-14
 -1      2871 2.26401E+01-1.07673E+00 1.99426E-02-1.04521E+00 1.25352E-13 1.33981E-13
 -1      2872 2.19044E+01-1.13733E+00-2.01326E-02-1.41932E+00 1.29543E-13-1.00784E-13
 -1      2873 2.37781E+01-2.14600E+00-2.92090E-02 1.44650E-01 1.76149E-13 1.08036E-13
 -1      2874 2.35016E+01-1.79142E+00 2.57513E-02-3.60368E-01 1.30620E-13 1.17514E-13
 -1      2875 2.27968E+01-2.00076E+00-2.81549E-02-9.28177E-01 1.37045E-13-1.87190E-13
 -1      2876 2.47016E+01-2.44077E+00-3.18642E-02 1.47605E+00 3.02243E-13 2.19666E-13
 -1      2877 2.45270E+01-2.36452E+00 2.64391E-02 8.16922E-01 1.82333E-13 1.52965E-13
 -1      2878 2.40529E+01-2.85038E+00-3.63717E-02 3.42433E-02 1.23768E-13-1.12198E-13
 -1      2879 2.53767E+01-1.67749E+00-1.28708E-02 2.96712E+00 3.89213E-13 4.35277E-13
 -1      2880 2.53770E+01-2.23438E+00-8.04072E-03 2.35250E+00 3.61578E-13 4.59240E-13
 -1      2881 2.54572E+01-2.97333E+00-2.53429E-02 1.56293E+00 1.93678E-13 2.54096E-13
 -1      2882 2.54608E+01 3.92402E-01 6.28891E-03 3.77011E+00 4.82663E-13 6.31332E-13
 -1      2883 2.56457E+01-7.85298E-01-5.48678E-02 3.61223E+00 4.36274E-13 4.36474E-13
 -1      2884 2.64966E+01-1.56771E+00-2.03036E-02 3.24967E+00 2.99386E-13 4.79372E-13
 -1      2885 2.59289E+01 3.91175E+00-1.03381E-01 2.83092E+00 4.21871E-13 8.09647E-13
 -1      2886 2.62112E+01 2.79949E+00-1.36934E-01 3.51197E+00 4.18540E-13 8.21622E-13
 -1      2887 2.45899E+01 2.14157E+00-1.21192E-01-1.21745E+00-2.15182E-13 6.59108E-13
 -1      2888 2.45140E+01 3.22899E+00-3.88213E-02-4.92368E-01-3.96294E-13 6.55781E-13
 -1      2889 2.47815E+01-2.42134E-01-7.64718E-02-1.51080E+00-9.38746E-14 6.72230E-13
 -1      2890 2.47473E+01 9.03958E-01-1.89489E-02-1.50683E+00-7.84997E-14 6.88560E-13
 -1      2891 2.63359E+01 1.73134E+00-8.33097E-02-1.43376E+00-1.46244E-13 6.75376E-13
 -1      2892 2.42516E+01-1.52535E+00-2.15466E-02-5.43470E-01 2.78961E-13 4.60607E-13
 -1      2893 2.44571E+01-1.06852E+00-2.38574E-02-9.70957E-01 1.67592E-13 6.12964E-13
 -1      2894 2.60596E+01-9.18482E-01-2.69872E-02-1.07262E+00 4.11823E-14 5.76279E-13
 -1      2895 2.33490E+01-1.54009E+00-6.72236E-03 5.84048E-01 1.66818E-13 2.34851E-13
 -1      2896 2.37891E+01-1.69279E+00-3.74320E-02 1.70188E-01 3.00133E-13 2.99470E-13
 -1      2897 2.52456E+01-2.10983E+00-7.33877E-03 3.13312E-01 3.70688E-13 2.29162E-13
 -1      2898 2.41129E+01-1.87783E+00 3.64577E-02 1.59266E+00 1.00044E-13-1.28555E-13
 -1      2899 2.23940E+01-7.73383E-01-1.54632E-02 5.37365E-01 7.20465E-14 1.32466E-13
 -1      2900 2.22187E+01-8.06685E-01-1.58030E-03 4.04228E-01-5.27616E-14 1.19708E-13
 -1      2901 2.34898E+01-9.62176E-01-2.08870E-02 4.82945E-01 4.62902E-14-4.10618E-14
 -1      2902 1.74595E+01-2.61341E+00 6.97968E-02 7.36652E+00 3.96128E-13 5.52142E-13
 -1      2903 2.06920E+01-3.46436E+00 1.25456E-01 7.50548E+00 2.52492E-13 5.02307E-13
 -1      2904 1.01541E+01 6.95735E-01 1.35806E-01 2.79101E+00 1.26579E-13-2.41918E-13
 -1      2905 1.21036E+01 1.07461E-01 1.70722E-01 5.09267E+00 2.89803E-13 1.29841E-13
 -1      2906 2.14654E+01-2.29687E+00 1.51576E-01-6.96502E+00-6.93889E-17-4.86611E-13
 -1      2907 1.88664E+01-1.62469E+00 2.38197E-02-7.17202E+00-3.45488E-14-5.69204E-13
 -1      2908 2.43683E+01-2.90512E+00 7.49807E-03-4.62746E+00-3.12805E-14-3.17319E-13
 -1      2909 2.32980E+01-2.70163E+00 1.17693E-02-5.71102E+00 2.91087E-15-5.94273E-13
 -1      2910 2.43315E+01-2.12953E+00-4.15667E-02-2.03409E+00-1.49827E-13-5.09535E-13
 -1      2911 2.46398E+01-2.26779E+00 5.32154E-02-3.08791E+00-1.68554E-14-3.15289E-13
 -1      2912 2.56165E+01-3.19712E+00 6.99290E-02-3.54413E+00-5.85894E-14-3.38772E-13
 -1      2913 1.99617E+01 2.31079E-01-8.26841E-04 6.21633E-02 1.06572E-13 1.56278E-14
 -1      2914 2.00274E+01 3.15010E-01 7.83807E-03 1.59864E-01 1.24818E-13 2.13555E-14
 -1      2915 2.01464E+01 4.78000E-01-1.83715E-03 2.79895E-01 1.42199E-13-2.80111E-14
 -1      2916 2.00565E+01 2.65902E-01-2.69838E-03 6.01399E-02 1.06221E-13-3.79747E-15
 -1      2917 2.97290E+01-3.94555E+00-2.05693E-01 1.99970E+00 5.62987E-13 7.64944E-14
 -1      2918 2.84348E+01-4.97762E+00 3.49888E-02 3.77503E+00 4.20844E-13 4.06897E-13
 -1      2919 3.00500E+01 3.05648E+00-2.23059E-01-3.16158E+00 7.13873E-14-3.22672E-13
 -1      2920 3.01543E+01 1.19633E+00-5.02788E-02-3.01808E+00 1.68199E-13-4.63365E-13
 -1      2921 2.94868E+01 6.55469E+00-2.23131E-01 1.15063E+00-6.18949E-14 5.17978E-13
 -1      2922 2.98254E+01 6.32860E+00-1.61559E-01 2.48959E-02-1.78940E-13 5.75276E-13
 -1      2923 2.70505E+01-5.64567E+00-1.80809E-01 1.92088E+00 1.72889E-13-5.55653E-13
 -1      2924 2.43733E+01-6.14907E+00 1.27943E-01 3.87703E+00-2.51327E-14-4.96068E-13
 -1      2925 1.98417E+01 6.52534E-03 1.84618E-04-1.76902E-01 1.90481E-14-6.42352E-14
 -1      2926 1.98417E+01 2.58760E-02 1.78559E-03-1.65893E-01 6.25067E-14-6.30711E-14
 -1      2927 1.99291E+01 3.93071E-03-1.25367E-03-1.79466E-01 1.12208E-14-6.50013E-14
 -1      2928 1.98554E+01 4.91149E-02 4.24079E-05-1.44125E-01 1.03809E-13-5.00926E-14
 -1      2929 1.98694E+01 8.10432E-02 3.16199E-03-1.15872E-01 9.81520E-14-1.81847E-14
 -1      2930 1.99512E+01 5.38219E-02-1.76677E-03-1.46161E-01 8.55632E-14-7.96378E-14
 -1      2931 2.03120E+01 1.05953E+00 2.48497E-03-8.56231E-01-1.32884E-13-1.64837E-13
 -1      2932 2.02271E+01 8.17151E-01-5.17822E-03-6.12286E-01-1.14901E-13-1.58914E-13
 -1      2933 2.02628E+01 8.91599E-01 3.28063E-04-5.70836E-01-1.11734E-13-1.56874E-13
 -1      2934 3.14838E+01 8.23148E-01-2.16933E-01-6.92821E-01 5.83422E-14 4.92661E-14
 -1      2935 3.08908E+01-1.24166E+00 7.10805E-03-2.47806E-02 3.14873E-13-4.07729E-14
 -1      2936 2.97863E+01-1.61161E+00-2.09499E-01-1.91817E+00 3.33636E-13-5.99812E-13
 -1      2937 2.91718E+01-3.48947E+00 7.24236E-02-5.05721E-01 3.12996E-13-5.10522E-13
 -1      2938 1.99229E+01 2.59597E+00-7.91551E-03 7.94152E-01 2.18287E-13-1.92851E-13
 -1      2939 1.98789E+01 2.68819E+00-6.15582E-03 6.45142E-01 1.83653E-13-2.12318E-13
 -1      2940 1.99977E+01 2.38864E+00 4.41276E-03 5.16599E-01 1.57044E-13-2.06338E-13
 -1      2941 2.00796E+01 2.19071E+00 5.64870E-03 7.45343E-01 2.00691E-13-1.60078E-13
 -1      2942 2.01799E+01 2.27256E+00 5.63368E-05-1.42272E+00-1.58705E-13-2.59238E-13
 -1      2943 2.82839E+01-4.75803E+00 9.94570E-02 1.82366E-01-8.44776E-14 1.45828E-13
 -1      2944 2.91694E+01-3.37408E+00-2.34348E-01 1.82220E+00 1.57649E-13 4.61381E-13
 -1      2945 2.31286E+01-4.99912E+00 9.10555E-02-7.20376E+00 7.63833E-14-5.01473E-13
 -1      2946 2.61523E+01-5.46800E+00-8.31127E-02-6.02338E+00 1.50630E-13-6.20941E-13
 -1      2947 1.98744E+01 2.69677E+00-5.94111E-03-6.34559E-01-5.32127E-15-2.88973E-13
 -1      2948 1.99171E+01 2.60734E+00-7.56798E-03-7.85169E-01-4.56340E-14-2.95865E-13
 -1      2949 3.05021E+01 5.33576E+00-2.34444E-01-7.04582E-01-2.31870E-13 2.90504E-13
 -1      2950 3.12250E+01 3.36147E+00-1.23000E-01-1.09498E+00-1.80272E-13 3.20188E-13
 -1      2951 2.96462E+01 1.75825E+00-1.17302E-01-1.29541E+00-6.19366E-14 3.93713E-13
 -1      2952 2.84211E+01 5.08202E+00-6.09257E-02-5.00692E-01-3.28348E-13 7.09724E-13
 -1      2953 9.73576E+00-3.46449E+00 1.51404E-01-5.01296E+00-7.20396E-14-2.06807E-13
 -1      2954 1.22668E+01-4.54715E+00 7.18628E-02-5.98359E+00-2.02782E-13-2.37310E-13
 -1      2955 7.99166E+00-2.20393E+00 1.31037E-01 3.91930E+00 1.36002E-14 9.50628E-14
 -1      2956 6.84357E+00-1.57515E+00 1.71038E-01 1.85615E+00-1.08288E-13 3.41949E-14
 -1      2957 1.33802E+01-4.23512E+00 6.71648E-03 6.27147E+00-1.44273E-13-3.48582E-13
 -1      2958 1.02340E+01-3.03907E+00 1.79883E-01 5.20515E+00 6.66134E-15-1.85935E-13
 -1      2959 1.08818E+01-1.95845E+00 1.67332E-01 4.20874E+00-1.84575E-15-6.35186E-14
 -1      2960 1.55990E+01-5.43786E+00 1.67821E-01-6.05835E+00-2.42112E-13-1.88016E-13
 -1      2961 1.91189E+01-6.37739E+00-4.53664E-02-5.73995E+00-1.99563E-14 2.69854E-14
 -1      2962 1.52659E+01-4.45534E+00 1.58739E-01-5.57232E+00-1.57291E-13-1.29396E-13
 -1      2963 2.08604E+01-6.34496E+00-6.91312E-02 5.63375E+00-2.11567E-13-3.46473E-13
 -1      2964 1.75695E+01-5.33021E+00 1.64365E-01 6.13671E+00-2.13315E-13-1.49658E-13
 -1      2965 1.69923E+01-3.04133E+00 1.06180E-01-8.01407E+00 1.48104E-13-5.31353E-13
 -1      2966 2.07397E+01-4.40303E+00 7.53614E-02-8.20610E+00 1.38611E-13-6.70797E-13
 -1      2967 2.26953E+01-1.04418E+00-2.41157E-02-3.13958E-02-1.21562E-13-7.44543E-15
 -1      2968 3.08915E+01-1.27505E+00-3.88407E-02-4.26782E-01 2.34188E-13-2.46275E-13
 -1      2969 3.08613E+01 4.70670E-01-1.84559E-01 4.34113E-01 2.07542E-13-2.46650E-13
 -1      2970 2.29383E+01-6.33259E+00 1.60545E-01-4.15181E+00-2.75474E-14-9.90180E-15
 -1      2971 2.56551E+01-6.27911E+00-1.54297E-01-2.36034E+00-1.08066E-13-1.92141E-13
 -1      2972 2.99544E+01-9.91937E-02-1.94866E-02 3.38842E+00 2.04711E-13 4.79311E-13
 -1      2973 3.05980E+01 2.09326E+00-2.23186E-01 3.60216E+00 3.40783E-13 3.85803E-13
 -1      2974 1.99722E+01 2.48596E+00-6.32582E-03-9.00638E-01-6.85455E-14-3.10035E-13
 -1      2975 2.00272E+01 2.34256E+00-1.32103E-02-1.04114E+00-1.04963E-13-3.11642E-13
 -1      2976 2.00676E+01 2.20060E+00 2.76642E-03-7.36491E-01-4.91253E-14-2.70918E-13
 -1      2977 1.99318E+01 2.53807E+00 3.14482E-03 5.05854E-03 9.24534E-14-3.02199E-13
 -1      2978 1.97931E+01 2.86997E+00-5.52513E-03-6.19124E-02 1.01144E-13-3.06796E-13
 -1      2979 1.98006E+01 2.85582E+00-5.41823E-03-2.16835E-01 7.40088E-14-3.09886E-13
 -1      2980 2.02907E+01 1.58773E+00-1.21591E-03 1.16533E+00 2.59478E-13-4.08029E-14
 -1      2981 2.95705E+01-2.52240E+00-4.17886E-02 6.22257E-01 4.10522E-13-9.71445E-14
 -1      2982 2.89565E+01 6.49241E+00-1.56983E-01-1.77917E+00 1.47105E-15-5.29146E-13
 -1      2983 2.73561E+01 5.45089E+00-1.16182E-01-2.23134E+00 1.96287E-13-2.53336E-13
 -1      2984 2.77993E+01 6.34550E+00-1.83810E-01-1.10008E+00 8.60978E-14-5.24769E-13
 -1      2985 9.02228E+00 3.61919E-01 2.21322E-01 1.86136E+00 2.53617E-14-2.24043E-13
 -1      2986 8.71041E+00 4.90336E-01 1.57503E-01-1.44640E+00 2.87270E-15-4.44811E-13
 -1      2987 2.01399E+01 2.12894E+00 8.96049E-04-1.13997E+00-1.20426E-13-2.88668E-13
 -1      2988 2.02925E+01 1.68150E+00-1.06648E-02-1.24794E+00-1.62374E-13-2.11680E-13
 -1      2989 2.02878E+01 1.30296E+00-1.33017E-03-9.75484E-01-1.42924E-13-1.82918E-13
 -1      2990 2.01947E+01 1.85350E+00 5.14687E-03-9.27255E-01-9.91344E-14-2.73106E-13
 -1      2991 2.96414E+01-2.43658E+00-3.94526E-02-9.48476E-01 2.50217E-13-3.14040E-13
 -1      2992 2.87941E+01-1.61954E+00-4.70331E-02 3.00894E+00 9.29812E-14 6.94764E-13
 -1      2993 2.13796E+01-5.83039E+00 7.44540E-02-4.45824E+00-9.70890E-14-3.64708E-14
 -1      2994 2.31927E+01-5.09282E+00 4.23057E-02 6.86161E+00 4.95368E-13 5.36108E-13
 -1      2995 2.30829E+01-2.95271E+00 5.48850E-02 5.80965E+00 1.45342E-13 3.31091E-13
 -1      2996 2.42151E+01-3.19029E+00 2.26836E-02 4.88188E+00-9.95037E-14 1.97254E-13
 -1      2997 2.64997E+01-5.34025E+00-5.66398E-02 5.37886E+00 4.08368E-13 4.70769E-13
 -1      2998 2.71011E+01-4.69059E+00-4.59393E-02-4.44847E+00 1.26302E-13-4.14065E-13
 -1      2999 9.11005E+00-1.38080E+00 1.43988E-01-2.79946E+00 4.45685E-14-3.33733E-13
 -1      3000 9.28300E+00-2.48298E+00 1.79986E-01-4.04881E+00 3.37785E-14-1.81688E-13
 -1      3001 1.13449E+01-2.49174E+00 4.43287E-02-4.42594E+00 2.86368E-14-6.16174E-14
 -1      3002 2.70024E+01-4.61441E+00 1.39950E-02 3.83501E+00 3.88752E-13 2.46574E-13
 -1      3003 1.99918E+01 1.35283E-01-2.33315E-03-7.29802E-02 9.65020E-14-5.38425E-14
 -1      3004 2.43461E+01 3.80863E+00-1.20371E-01 7.57327E-01-1.99174E-13 5.78077E-13
 -1      3005 2.44268E+01 3.77989E+00-9.43300E-02 1.85155E+00 3.15262E-13 7.36906E-13
 -1      3006 1.64650E+01-4.23627E+00 1.34840E-01 5.66556E+00-1.01585E-13-2.20608E-13
 -1      3007 2.45174E+01-2.66386E+00 3.48859E-02 3.63543E+00-3.18721E-14-3.44004E-14
 -1      3008 2.45103E+01-2.52485E+00-1.82871E-02 2.54314E+00 1.24218E-13-2.63838E-13
 -1      3009 2.53130E+01-2.80524E+00-3.62108E-03 1.84660E+00 2.52038E-13-3.21711E-13
 -1      3010 2.55325E+01-3.81151E+00 3.01483E-02 3.94795E+00 3.15943E-13 1.34939E-13
 -1      3011 3.01394E+01 5.98824E+00-1.72865E-01 5.22689E-01 7.02216E-15-5.70891E-13
 -1      3012 2.83132E+01 6.16553E+00-1.78443E-01 9.11676E-02-2.12330E-14-7.31554E-13
 -1      3013 2.89830E+01 4.83073E+00-8.29094E-02 1.00533E+00 2.35922E-14-6.72032E-13
 -1      3014 2.28470E+01-4.11529E+00 4.99757E-02-6.95893E+00 4.34375E-14-4.47109E-13
 -1      3015 2.34089E+01-1.29153E+00 1.98974E-02-7.58054E-01-4.87956E-14-2.68023E-13
 -1      3016 7.36426E+00-1.13845E+00 1.96079E-01 6.36148E-01-1.07658E-13-1.67144E-13
 -1      3017 8.34470E+00-8.33829E-01 1.25324E-01-7.02248E-01-3.56880E-14-2.11831E-13
 -1      3018 9.18828E+00-6.87747E-01 1.24229E-01 1.50643E+00-5.34379E-14 2.30371E-15
 -1      3019 2.85838E+01 3.61408E+00-1.18783E-01-3.23845E+00 1.84158E-13-1.52531E-13
 -1      3020 2.89537E+01-5.21969E-01-6.84988E-02-2.74300E+00 3.23394E-13-2.01672E-13
 -1      3021 2.75757E+01-4.52267E+00-5.36624E-03 3.34617E-01 3.55584E-13-3.00426E-13
 -1      3022 2.84930E+01 5.72309E+00-1.88975E-01 1.87793E+00 2.24876E-13 6.95130E-13
 -1      3023 2.44363E+01-1.74524E+00 1.70021E-02-8.45234E-01-1.53811E-13-3.54826E-13
 -1      3024 3.03338E+01 1.55573E+00-1.11472E-01 9.96620E-01 1.00545E-13-5.79217E-13
 -1      3025 2.89796E+01 2.53677E+00-2.38425E-01 1.30535E+00 5.73569E-14-8.60381E-13
 -1      3026 2.90812E+01 2.89093E-01-5.99205E-02 8.38275E-01 1.22707E-13-7.32941E-13
 -1      3027 2.31708E+01-5.78076E+00 9.59176E-02 4.00045E+00-3.60406E-14-3.41499E-13
 -1      3028 2.02794E+01 1.36647E+00 2.01154E-03 9.19043E-01 2.33741E-13-6.00798E-14
 -1      3029 1.98164E+01 2.81986E+00-5.67205E-03-3.51493E-01 5.11814E-14-2.69708E-13
 -1      3030 1.98405E+01 2.77196E+00-6.05622E-03-5.05736E-01 1.60950E-14-2.71012E-13
 -1      3031 1.99889E+01 2.39431E+00 2.12072E-03-5.05651E-01 8.85178E-15-2.47200E-13
 -1      3032 1.99444E+01 2.50371E+00 2.50767E-03-2.54218E-01 5.01334E-14-2.67726E-13
 -1      3033 2.91215E+01 3.13900E+00-1.34087E-01 3.84607E+00 3.63654E-13 6.75127E-13
 -1      3034 2.02788E+01 1.37824E+00 5.60673E-03-8.83441E-01-1.17124E-13-2.10713E-13
 -1      3035 2.65413E+01-5.22826E+00 3.14272E-02-7.28325E-01-1.81306E-13 1.59664E-13
 -1      3036 2.87002E+01-1.55013E+00-1.38131E-01-5.30960E-01 3.55500E-13-1.23651E-13
 -1      3037 2.82668E+01-3.25788E+00 1.34054E-02 1.05903E+00 5.09062E-13-2.19297E-13
 -1      3038 2.02399E+01 1.48166E+00-6.05873E-03 8.02455E-01 2.08182E-13-7.69602E-14
 -1      3039 2.02005E+01 1.66937E+00-5.15106E-04 7.46458E-01 1.93233E-13-1.08359E-13
 -1      3040 1.43686E+01-1.22809E+00 2.65436E-01 6.89124E+00 3.34066E-13 4.79297E-13
 -1      3041 2.53373E+01-5.14787E+00 1.43377E-01-1.44942E+00-1.88290E-13 1.07830E-13
 -1      3042 2.66085E+01-4.53379E+00-1.13658E-01 5.41940E-01-4.22362E-14 3.38401E-13
 -1      3043 2.00726E+01 1.50160E-01-1.12653E-03-7.67515E-02 1.00399E-13-9.90027E-14
 -1      3044 2.01052E+01 2.15580E-01 3.68087E-03-2.33910E-02 1.01654E-13-7.39071E-14
 -1      3045 2.02208E+01 4.22677E-01 4.05880E-03-1.19905E-01-8.19495E-14-1.12243E-13
 -1      3046 2.01814E+01 3.14855E-01-2.31591E-03-3.51597E-02-6.44987E-14-1.14443E-13
 -1      3047 2.01672E+01 2.31193E-01 3.17416E-03 2.62009E-02-6.34713E-14-1.02342E-13
 -1      3048 2.01368E+01 1.60535E-01-1.31633E-03 7.70118E-02-7.72990E-14-1.34059E-13
 -1      3049 2.02372E+01 3.31348E-01-8.74637E-04-2.62190E-02-6.56012E-14-9.82395E-14
 -1      3050 2.01200E+01 1.06420E-01 2.23758E-03 1.12732E-01-7.90944E-14-1.20152E-13
 -1      3051 2.00988E+01 6.11399E-02-6.35722E-04 1.39747E-01-8.86997E-14-1.23498E-13
 -1      3052 2.01964E+01 1.66784E-01-1.01703E-03 7.61886E-02-8.10394E-14-8.44906E-14
 -1      3053 2.00825E+01 2.70509E-02 1.47024E-03 1.57239E-01-7.72489E-14-1.38820E-13
 -1      3054 2.00688E+01-8.44144E-04-2.01586E-04 1.68271E-01-5.95173E-14-1.49382E-13
 -1      3055 2.01573E+01 6.01390E-02-9.70593E-04 1.33743E-01-8.20281E-14-1.32403E-13
 -1      3056 2.00543E+01-2.12481E-02 8.88198E-04 1.73509E-01-5.40895E-14-1.15506E-13
 -1      3057 2.00462E+01-3.72201E-02 6.47343E-05 1.74321E-01-6.96784E-14-8.86738E-14
 -1      3058 2.01232E+01-6.34769E-03-8.42465E-04 1.59834E-01-3.60634E-14-1.14937E-13
 -1      3059 2.00339E+01-4.82685E-02 4.69806E-04 1.71843E-01-5.86320E-14-3.62364E-14
 -1      3060 2.00299E+01-5.61079E-02 2.20817E-04 1.66576E-01-3.87368E-14-4.13318E-14
 -1      3061 2.00948E+01-4.50792E-02-6.96756E-04 1.65119E-01-3.97636E-14-7.17555E-14
 -1      3062 2.00199E+01-6.08047E-02 1.81751E-04 1.59700E-01-4.79164E-14 8.59159E-15
 -1      3063 2.00186E+01-6.31566E-02 3.06497E-04 1.51273E-01-3.19032E-14-3.18549E-16
 -1      3064 2.00720E+01-6.47525E-02-5.60216E-04 1.57624E-01-2.53075E-14 1.58277E-14
 -1      3065 2.00106E+01-6.35892E-02-9.00052E-06 1.42360E-01-2.10080E-14-7.81949E-15
 -1      3066 2.00111E+01-6.22846E-02 3.49054E-04 1.32801E-01 2.58162E-15-1.66895E-14
 -1      3067 2.00542E+01-7.14815E-02-4.42839E-04 1.43185E-01-2.35963E-14 6.72316E-14
 -1      3068 2.00049E+01-5.98818E-02-1.30973E-04 1.23496E-01-9.55396E-15-3.88014E-14
 -1      3069 2.00067E+01-5.61517E-02 3.68039E-04 1.14197E-01-5.29059E-15-2.22018E-14
 -1      3070 2.00406E+01-6.95207E-02-3.46076E-04 1.25943E-01-6.90613E-16 5.70647E-14
 -1      3071 2.00019E+01-5.18508E-02-2.07564E-04 1.05637E-01 3.82208E-14-2.61965E-14
 -1      3072 2.00044E+01-4.64743E-02 3.77515E-04 9.75598E-02 5.97862E-14-6.44022E-15
 -1      3073 2.00305E+01-6.17478E-02-2.68206E-04 1.08783E-01-6.14563E-15-5.11488E-15
 -1      3074 2.00009E+01-4.08414E-02-2.56914E-04 9.05432E-02 9.78609E-15-3.76706E-14
 -1      3075 2.00040E+01-3.42557E-02 3.87705E-04 8.43782E-02-3.73861E-14-8.20989E-14
 -1      3076 2.00233E+01-5.00005E-02-2.06751E-04 9.37262E-02 1.19524E-14-1.18699E-14
 -1      3077 2.00013E+01-2.75764E-02-2.93115E-04 7.94975E-02-7.05837E-14-5.91771E-14
 -1      3078 2.00049E+01-1.99581E-02 4.06187E-04 7.57793E-02-9.62561E-14-2.60707E-15
 -1      3079 2.00182E+01-3.53263E-02-1.58057E-04 8.22292E-02-3.68983E-14-3.95382E-14
 -1      3080 2.00028E+01-1.23031E-02-3.27264E-04 7.35229E-02-9.60512E-14-5.53578E-15
 -1      3081 2.00069E+01-3.63109E-03 4.38699E-04 7.27244E-02-6.62560E-14 4.21944E-14
 -1      3082 2.00148E+01-1.81726E-02-1.18547E-04 7.54215E-02-7.91152E-14-1.00193E-14
 -1      3083 2.00052E+01 5.08916E-03-3.67908E-04 7.35561E-02-8.25986E-14-2.46861E-14
 -1      3084 2.00098E+01 1.49796E-02 4.89348E-04 7.61554E-02-5.77204E-14-4.19968E-14
 -1      3085 2.00124E+01 1.46776E-03-8.48884E-05 7.42913E-02-1.18879E-13-7.63328E-14
 -1      3086 2.00082E+01 2.49661E-02-4.21673E-04 8.05712E-02-1.39057E-14-4.70532E-14
 -1      3087 2.00136E+01 3.63346E-02 5.60954E-04 8.70982E-02-3.36125E-14-8.13951E-14
 -1      3088 2.00106E+01 2.39321E-02-5.34641E-05 7.98229E-02-4.82389E-14-5.87407E-14
 -1      3089 2.00117E+01 4.78532E-02-4.93562E-04 9.56641E-02-3.35440E-14-6.91600E-14
 -1      3090 2.00180E+01 6.10027E-02 6.55072E-04 1.06727E-01-4.92139E-14-4.07368E-14
 -1      3091 2.00089E+01 4.97724E-02-2.07735E-05 9.30920E-02-3.04413E-14-8.44179E-14
 -1      3092 2.00155E+01 7.43315E-02-5.86784E-04 1.20099E-01-8.51922E-14 1.59552E-14
 -1      3093 2.00230E+01 8.95466E-02 7.71804E-04 1.36388E-01 7.02523E-15 5.24317E-16
 -1      3094 2.00067E+01 7.96366E-02 1.64305E-05 1.15324E-01-3.46256E-14-2.22489E-14
 -1      3095 2.00196E+01 1.04907E-01-7.02253E-04 1.55312E-01-2.05490E-16-1.15233E-14
 -1      3096 2.00285E+01 1.22370E-01 9.09476E-04 1.77584E-01-5.06276E-14-4.17351E-14
 -1      3097 2.00033E+01 1.14126E-01 6.08230E-05 1.47914E-01-2.63097E-14 5.89896E-14
 -1      3098 2.00238E+01 1.39831E-01-8.37595E-04 2.02872E-01-1.31727E-13-1.46966E-14
 -1      3099 2.00344E+01 1.59507E-01 1.06435E-03 2.31892E-01-1.72014E-13 2.82882E-16
 -1      3100 1.99981E+01 1.53603E-01 1.13711E-04 1.92404E-01-8.10316E-14-5.07224E-14
 -1      3101 2.00281E+01 1.78850E-01-9.85438E-04 2.64373E-01-2.11465E-13-6.75486E-14
 -1      3102 2.00408E+01 2.00315E-01 1.23051E-03 3.00825E-01-2.19391E-13-1.18521E-13
 -1      3103 1.99905E+01 1.97929E-01 1.73539E-04 2.50412E-01-2.36548E-13-1.18083E-13
 -1      3104 2.00326E+01 2.20841E-01-1.13074E-03 3.41253E-01-1.62386E-13-1.94058E-13
 -1      3105 2.00478E+01 2.43045E-01 1.40026E-03 3.85591E-01-4.67496E-14-1.92458E-13
 -1      3106 1.99798E+01 2.46088E-01 2.33240E-04 3.23495E-01-2.12755E-13-1.10950E-13
 -1      3107 2.00379E+01 2.63295E-01-1.24679E-03 4.34521E-01 8.50871E-14-2.27694E-13
 -1      3108 2.00564E+01 2.84224E-01 1.56536E-03 4.86755E-01 1.18621E-13-2.45451E-13
 -1      3109 1.99658E+01 2.95654E-01 2.75750E-04 4.12954E-01-1.98351E-14-2.41543E-13
 -1      3110 2.00453E+01 3.01598E-01-1.28922E-03 5.44364E-01 1.10812E-13-2.96454E-13
 -1      3111 2.00682E+01 3.17818E-01 1.71939E-03 6.03757E-01 6.90288E-14-2.93588E-13
 -1      3112 1.99489E+01 3.42062E-01 2.66716E-04 5.19550E-01 6.42131E-14-4.00650E-13
 -1      3113 2.00576E+01 3.28065E-01-1.18734E-03 6.69611E-01 4.44243E-14-2.90859E-13
 -1      3114 2.00870E+01 3.34132E-01 1.86077E-03 7.34285E-01 9.42879E-14-2.77301E-13
 -1      3115 1.99310E+01 3.77615E-01 1.43151E-04 6.43155E-01 6.97380E-14-4.18359E-13
 -1      3116 2.00805E+01 3.30719E-01-8.31437E-04 8.07026E-01 4.23443E-14-2.44243E-13
 -1      3117 2.01199E+01 3.18476E-01 1.99347E-03 8.73424E-01 2.57376E-14-1.24026E-13
 -1      3118 1.99163E+01 3.90217E-01-2.03296E-04 7.82299E-01 8.20656E-14-2.96169E-13
 -1      3119 2.01239E+01 2.91907E-01-5.50012E-05 9.50331E-01-1.24156E-13-1.84958E-13
 -1      3120 2.01795E+01 2.49806E-01 2.11798E-03 1.01252E+00-1.63103E-13-2.13295E-13
 -1      3121 1.99136E+01 3.61869E-01-9.49123E-04 9.33582E-01-5.76228E-14-2.26579E-13
 -1      3122 2.02055E+01 1.87124E-01 1.38856E-03 1.08880E+00-6.27100E-14-2.10735E-13
 -1      3123 2.02870E+01 9.98997E-02 2.19229E-03 1.13751E+00-2.80749E-14-1.16423E-13
 -1      3124 1.99389E+01 2.67168E-01-2.36599E-03 1.09079E+00-7.02407E-14-2.18451E-13
 -1      3125 2.03538E+01-1.50792E-02 3.84735E-03 1.20500E+00-1.26770E-14-9.61172E-14
 -1      3126 2.04756E+01-1.65578E-01 2.03085E-03 1.22620E+00-7.45824E-14-7.24463E-14
 -1      3127 2.00190E+01 7.24814E-02-4.84531E-03 1.24324E+00-6.05697E-14-2.94742E-13
 -1      3128 2.06120E+01-3.50097E-01 7.77635E-03 1.27073E+00-3.03521E-14-3.35349E-14
 -1      3129 2.07931E+01-5.81172E-01 1.12432E-03 1.24356E+00 5.94869E-14-7.09171E-14
 -1      3130 2.01973E+01-2.62679E-01-8.88172E-03 1.37237E+00-2.04089E-14-1.64769E-13
 -1      3131 2.10399E+01-8.46902E-01 1.36461E-02 1.23975E+00-1.61568E-15 4.87760E-14
 -1      3132 2.12988E+01-1.16482E+00-1.70938E-03 1.13399E+00 4.07592E-14-2.86585E-14
 -1      3133 2.05383E+01-7.78428E-01-1.48823E-02 1.44431E+00 9.24135E-14-8.06501E-14
 -1      3134 2.17054E+01-1.50253E+00 2.09893E-02 1.03644E+00 7.33233E-14-3.26494E-14
 -1      3135 2.20479E+01-1.87787E+00-7.70763E-03 8.11616E-01 6.79306E-14-8.93033E-14
 -1      3136 2.11287E+01-1.49288E+00-2.27269E-02 1.39504E+00 6.22506E-15-1.28309E-13
 -1      3137 2.26494E+01-2.22687E+00 2.75328E-02 5.51939E-01 2.99747E-14-1.83709E-13
 -1      3138 2.30539E+01-2.55372E+00-1.32349E-02 1.66442E-01 8.57387E-16-3.57384E-13
 -1      3139 2.20582E+01-2.34405E+00-2.94201E-02 1.11289E+00-3.95586E-14-1.61125E-13
 -1      3140 2.38272E+01-2.78544E+00 2.46883E-02-3.29347E-01 1.01865E-13-3.73684E-13
 -1      3141 2.42186E+01-2.82898E+00-1.76647E-02-8.93512E-01 1.73094E-13-4.16569E-13
 -1      3142 2.33649E+01-3.09965E+00-2.53678E-02 4.42306E-01 8.55782E-15-3.33774E-13
 -1      3143 2.49591E+01-2.59698E+00-1.13951E-03-1.63924E+00 2.36616E-13-3.94540E-13
 -1      3144 2.51770E+01-2.08590E+00-2.69301E-02-2.20094E+00 2.28635E-13-5.08244E-13
 -1      3145 2.49558E+01-3.22199E+00 1.42015E-02-8.04100E-01 1.55555E-13-4.48565E-13
 -1      3146 2.53302E+01 1.58214E+00-1.09898E-01-3.38197E+00 3.51136E-13-1.84575E-13
 -1      3147 2.51360E+01 2.94104E+00-2.56524E-02-2.97341E+00 3.11022E-13 1.49282E-14
 -1      3148 2.50540E+01 4.27194E+00-1.07742E-01-2.12886E+00 2.59244E-13 1.14471E-13
 -1      3149 2.49732E+01 4.72907E+00-1.04316E-01-1.19920E+00 2.45318E-13 2.66660E-13
 -1      3150 2.54323E+01 4.62500E+00-8.71060E-02-1.41681E-02 7.98250E-14-1.83967E-14
 -1      3151 2.55242E+01 3.73271E+00-1.46194E-01 7.93041E-01 6.31231E-14 1.52248E-14
 -1      3152 2.59834E+01 2.21159E+00-5.25734E-02 1.24138E+00 2.05447E-13-9.94899E-14
 -1      3153 2.60467E+01 8.13467E-01-1.00713E-01 1.34285E+00 3.14800E-13-1.63251E-13
 -1      3154 1.57723E+01-1.17262E+00 2.19783E-01-7.25533E+00-2.02199E-14-5.72570E-13
 -1      3155 2.61672E+01 4.45830E+00-1.21517E-01 2.38996E-02-3.18204E-13 8.67834E-13
 -1      3156 1.99916E+01-3.10212E-02 1.02467E-04-1.80904E-01 3.16916E-14-6.28400E-14
 -1      3157 1.99956E+01-1.63225E-02 9.15967E-04-1.80166E-01-1.23891E-14-5.71512E-14
 -1      3158 1.99776E+01-5.52616E-02 3.26033E-04-1.37680E-01 1.15633E-13 2.69766E-14
 -1      3159 1.99732E+01-5.61487E-02-6.75520E-05-1.47693E-01 7.48092E-14 6.24094E-17
 -1      3160 1.99793E+01-5.03905E-02 3.39918E-04-1.17988E-01 1.52843E-14 1.68929E-13
 -1      3161 1.99742E+01-5.34363E-02-1.88795E-04-1.27797E-01 7.75269E-14 9.93418E-14
 -1      3162 2.00118E+01-6.31945E-02-3.07513E-04-1.33305E-01 4.09012E-14 7.63734E-14
 -1      3163 1.99825E+01-4.24014E-02 3.48944E-04-1.00140E-01 2.35633E-15 1.65038E-13
 -1      3164 1.99771E+01-4.68917E-02-2.57527E-04-1.08780E-01 2.85089E-14 1.81276E-13
 -1      3165 2.00071E+01-5.68432E-02-2.28224E-04-1.14721E-01 1.33474E-14 1.41664E-13
 -1      3166 1.99869E+01-3.22179E-02 3.62232E-04-8.56405E-02 6.84499E-14 1.55966E-13
 -1      3167 1.99813E+01-3.77475E-02-2.94563E-04-9.24316E-02 1.85822E-14 1.23337E-13
 -1      3168 2.00047E+01-4.69244E-02-1.71845E-04-9.81458E-02 3.40755E-14 1.62002E-13
 -1      3169 1.99922E+01-2.02744E-02 3.86680E-04-7.56143E-02-2.68718E-14 1.41594E-13
 -1      3170 1.99864E+01-2.66752E-02-3.15468E-04-8.00353E-02 6.25315E-14 1.54013E-13
 -1      3171 2.00041E+01-3.44303E-02-1.34917E-04-8.50907E-02 4.04304E-14 1.36323E-13
 -1      3172 1.99984E+01-6.62129E-03 4.28285E-04-7.10098E-02-3.45457E-14 4.36460E-14
 -1      3173 1.99923E+01-1.39122E-02-3.32287E-04-7.26021E-02-2.64929E-14 1.20804E-13
 -1      3174 2.00048E+01-1.97880E-02-1.11360E-04-7.67105E-02-8.59837E-16 1.40097E-13
 -1      3175 2.00056E+01 8.98938E-03 4.91781E-04-7.27607E-02-8.06309E-14-2.81362E-14
 -1      3176 1.99988E+01 6.44988E-04-3.54376E-04-7.10540E-02-6.64577E-14 6.21960E-15
 -1      3177 2.00066E+01-2.99258E-03-9.72944E-05-7.40051E-02-4.21058E-14 2.15084E-14
 -1      3178 2.00139E+01 2.70377E-02 5.81071E-04-8.19038E-02-2.23672E-14-6.62573E-15
 -1      3179 2.00063E+01 1.73633E-02-3.89382E-04-7.63614E-02-3.65724E-14 2.76583E-14
 -1      3180 2.00093E+01 1.63005E-02-8.81881E-05-7.79736E-02-7.18774E-14 2.26161E-15
 -1      3181 2.00237E+01 4.81828E-02 6.99249E-04-9.96674E-02-5.74855E-14 3.16806E-14
 -1      3182 2.00147E+01 3.68160E-02-4.43969E-04-8.96451E-02-2.46931E-14 2.95935E-14
 -1      3183 2.00125E+01 3.86961E-02-7.97679E-05-8.97242E-02-5.41614E-14 6.62458E-14
 -1      3184 2.00352E+01 7.32051E-02 8.48240E-04-1.27530E-01-1.84550E-14 1.18878E-13
 -1      3185 2.00244E+01 5.97277E-02-5.24015E-04-1.12251E-01-6.59977E-14 8.27850E-14
 -1      3186 2.00160E+01 6.49941E-02-6.68780E-05-1.10557E-01-1.01146E-13 1.41127E-13
 -1      3187 2.00488E+01 1.02936E-01 1.02841E-03-1.67242E-01-9.29738E-14 1.83274E-13
 -1      3188 2.00357E+01 8.69131E-02-6.34928E-04-1.45790E-01 2.19649E-16 1.31482E-13
 -1      3189 2.00196E+01 9.61150E-02-4.33538E-05-1.42008E-01-5.51864E-14 1.79987E-13
 -1      3190 2.00644E+01 1.38161E-01 1.23790E-03-2.20814E-01-1.03677E-13 1.35992E-13
 -1      3191 2.00485E+01 1.19195E-01-7.81443E-04-1.92146E-01-1.05765E-13 1.62502E-13
 -1      3192 2.00227E+01 1.33007E-01-1.70954E-06-1.85866E-01-9.51659E-14 1.75693E-13
 -1      3193 2.00823E+01 1.79455E-01 1.47191E-03-2.90442E-01-1.33154E-14 1.05389E-13
 -1      3194 2.00631E+01 1.57278E-01-9.66954E-04-2.53435E-01-3.85946E-14 1.12758E-13
 -1      3195 2.00246E+01 1.76512E-01 6.68499E-05-2.44133E-01-6.61051E-14 9.70525E-14
 -1      3196 2.01021E+01 2.26931E-01 1.72215E-03-3.78371E-01 2.53489E-14-7.19262E-14
 -1      3197 2.00792E+01 2.01553E-01-1.19201E-03-3.31910E-01 3.25063E-14 6.80340E-14
 -1      3198 2.00244E+01 2.27154E-01 1.71666E-04-3.18949E-01 3.13627E-14 7.27955E-14
 -1      3199 2.01235E+01 2.79810E-01 1.97714E-03-4.86653E-01 3.11904E-14-1.40611E-13
 -1      3200 2.00965E+01 2.51759E-01-1.45143E-03-4.29783E-01 1.81422E-14-1.34701E-13
 -1      3201 2.00208E+01 2.84796E-01 3.20307E-04-4.12441E-01 6.85188E-14-1.08096E-13
 -1      3202 2.01460E+01 3.35717E-01 2.22428E-03-6.16781E-01-2.01379E-14-1.95255E-13
 -1      3203 2.01145E+01 3.06440E-01-1.72902E-03-5.48942E-01 3.53939E-14-1.53119E-13
 -1      3204 2.00121E+01 3.48092E-01 5.13233E-04-5.26509E-01 1.69211E-14-1.17659E-13
 -1      3205 2.01692E+01 3.89554E-01 2.45527E-03-7.69148E-01 1.74522E-14-1.69942E-13
 -1      3206 2.01329E+01 3.62053E-01-1.98854E-03-6.90539E-01 5.41445E-15-1.63990E-13
 -1      3207 1.99965E+01 4.13598E-01 7.32955E-04-6.62531E-01 1.95103E-14-1.73052E-13
 -1      3208 2.01941E+01 4.31737E-01 2.67595E-03-9.42299E-01-1.21980E-13-5.76898E-14
 -1      3209 2.01518E+01 4.11554E-01-2.15834E-03-8.54396E-01-4.91638E-14-5.42193E-14
 -1      3210 1.99728E+01 4.74372E-01 9.23676E-04-8.21012E-01-8.81562E-14 3.41525E-14
 -1      3211 2.02248E+01 4.45579E-01 2.91943E-03-1.13192E+00-1.78183E-13 3.14695E-14
 -1      3212 2.01739E+01 4.42235E-01-2.10639E-03-1.03821E+00-2.20626E-13-7.53131E-14
 -1      3213 1.99412E+01 5.17841E-01 9.55395E-04-1.00120E+00-1.82363E-13 1.35463E-14
 -1      3214 2.02724E+01 4.03749E-01 3.25547E-03-1.32940E+00-2.31500E-13 1.38399E-13
 -1      3215 2.02066E+01 4.32650E-01-1.60055E-03-1.23643E+00-9.34999E-14 1.11028E-13
 -1      3216 1.99064E+01 5.22713E-01 5.65131E-04-1.20073E+00-2.28811E-13-6.18677E-14
 -1      3217 2.03610E+01 2.64222E-01 3.76999E-03-1.51979E+00-1.97046E-13-2.07887E-14
 -1      3218 2.02678E+01 3.48744E-01-2.39080E-04-1.43865E+00-1.59187E-13 9.21027E-14
 -1      3219 1.98819E+01 4.54889E-01-7.27251E-04-1.41510E+00-1.58935E-13-4.53164E-14
 -1      3220 2.05372E+01-3.24939E-02 4.44047E-03-1.67791E+00-1.63660E-13-2.38599E-13
 -1      3221 2.03937E+01 1.40145E-01 2.67884E-03-1.62668E+00-2.70755E-13-2.12802E-13
 -1      3222 1.98977E+01 2.62868E-01-3.71527E-03-1.63669E+00-1.17046E-13-5.89451E-14
 -1      3223 2.08811E+01-5.58965E-01 5.12470E-03-1.76006E+00 1.21198E-13-1.89116E-13
 -1      3224 2.06510E+01-2.60195E-01 8.39380E-03-1.76820E+00-1.79773E-14-2.16551E-13
 -1      3225 2.00131E+01-1.25422E-01-9.43587E-03-1.85114E+00-1.08886E-13-3.99636E-13
 -1      3226 2.15129E+01-1.37515E+00 4.91608E-03-1.68686E+00 2.10807E-13-2.63223E-13
 -1      3227 2.11483E+01-9.24770E-01 1.82086E-02-1.80299E+00 1.95937E-13-2.02920E-13
 -1      3228 2.03338E+01-7.94535E-01-1.80782E-02-2.02490E+00 1.44497E-13-4.41266E-13
 -1      3229 2.25856E+01-2.44556E+00 5.52171E-03-1.31330E+00 2.00918E-13-3.00895E-13
 -1      3230 2.20362E+01-1.88782E+00 3.14790E-02-1.61670E+00 1.50322E-13-3.08186E-13
 -1      3231 2.10257E+01-1.81180E+00-2.96551E-02-2.07944E+00 2.55496E-13-3.55350E-13
 -1      3232 2.59308E+01-3.73097E+00-3.94032E-02 1.11400E+00 1.00220E-13 2.93448E-13
 -1      3233 2.53619E+01-3.72483E+00 7.44205E-02 3.00946E-01-1.07245E-13 1.89735E-13
 -1      3234 2.61043E+01 1.12710E+00-7.14282E-02 3.96183E+00 3.73208E-13 7.88643E-13
 -1      3235 1.84677E+01-4.64324E+00-6.64948E-02 5.28704E+00-5.68226E-14-1.09079E-13
 -1      3236 1.53524E+01-3.10312E+00 1.26743E-01 5.19494E+00-1.94914E-14-1.74305E-13
 -1      3237 1.13858E+01 2.07765E+00 1.44665E-01 1.05034E+00 9.15110E-14 5.05707E-14
 -1      3238 2.00441E+01 2.16066E+00-4.25483E-03 2.92497E-01 1.33074E-13-2.49233E-13
 -1      3239 2.00307E+01 2.19972E+00-3.25750E-03 1.70931E-01 1.05076E-13-2.79245E-13
 -1      3240 1.25767E+01-2.85737E-01 6.76433E-02-5.70364E+00-6.87367E-14-7.68108E-13
 -1      3241 1.06158E+01 7.87426E-01 2.60511E-01-3.42602E+00-1.70666E-13-9.35585E-13
 -1      3242 1.16912E+01 1.90752E+00 1.33137E-01-1.82050E+00 6.46011E-14-4.22162E-13
 -1      3243 2.30549E+01-3.69787E+00 3.37993E-02-6.52166E+00 3.29806E-14-5.33466E-13
 -1      3244 2.73038E+01-3.82143E+00-1.59345E-01-9.73722E-01 4.26867E-13-2.13742E-13
 -1      3245 2.63219E+01-4.80601E+00 1.05315E-01 8.39864E-01 2.71018E-13-2.20025E-13
 -1      3246 2.00081E+01 2.31124E-03-1.23263E-04-1.74244E-01-3.18401E-14-7.94344E-14
 -1      3247 2.00186E+01 2.78907E-02 1.59066E-03-1.62912E-01 1.18752E-14-8.76757E-14
 -1      3248 2.00716E+01-2.24778E-03-9.55772E-04-1.68644E-01-3.24917E-14-9.24504E-14
 -1      3249 2.59058E+01-2.75032E+00-1.55601E-02 1.10469E+00 3.04684E-13-1.50172E-13
 -1      3250 1.99782E+01-5.54513E-02 2.94792E-04-1.57061E-01 6.36518E-14-2.42554E-14
 -1      3251 1.99754E+01-5.30605E-02 1.32745E-04-1.65871E-01 4.24361E-14-1.57805E-15
 -1      3252 2.00196E+01-6.42655E-02-4.15827E-04-1.51778E-01 5.73944E-14-1.02841E-15
 -1      3253 2.02816E+01 1.15350E+00 8.17276E-04-6.64782E-01-9.38546E-14-2.10192E-13
 -1      3254 2.02560E+01 9.11059E-01-4.41751E-03-4.80110E-01-7.84253E-14-1.92427E-13
 -1      3255 1.99824E+01-4.85549E-02 2.28823E-04-1.72992E-01 5.40693E-15-1.30583E-14
 -1      3256 1.99821E+01-4.12217E-02 4.46367E-04-1.78530E-01 3.52968E-14-6.64627E-14
 -1      3257 2.00482E+01-3.86232E-02-7.39960E-04-1.74790E-01 1.79556E-14-1.09389E-13
 -1      3258 2.00313E+01-5.73907E-02-5.59073E-04-1.67077E-01 1.55879E-14-6.66665E-14
 -1      3259 2.00343E+01 5.89665E-02-5.06574E-04-1.43768E-01 4.24361E-14-7.36366E-14
 -1      3260 2.00543E+01 1.00590E-01 2.51519E-03-1.15720E-01 5.87767E-14-9.73889E-14
 -1      3261 2.01028E+01 5.99829E-02-1.18475E-03-1.39894E-01 2.77737E-14-1.06320E-13
 -1      3262 1.97938E+01-4.89528E+00 1.48448E-01-4.66035E+00-1.36509E-13 2.42861E-17
 -1      3263 2.22712E+01-5.56500E+00-1.15158E-01-3.50867E+00-1.43163E-13 4.18936E-14
 -1      3264 2.70465E+01-4.21752E+00-9.99753E-02 2.75643E+00 3.96315E-13-1.20116E-13
 -1      3265 2.02692E+01 7.13631E-01 4.22320E-03-3.45403E-01-7.05845E-14-1.46172E-13
 -1      3266 2.02266E+01 5.51092E-01-3.48488E-03-2.14606E-01-7.08281E-14-1.47907E-13
 -1      3267 2.02720E+01 5.78770E-01-4.62328E-04-1.88676E-01-5.35875E-14-1.24086E-13
 -1      3268 2.41599E+01-5.74166E+00-1.23155E-01 2.91179E+00 1.11480E-13-2.39182E-13
 -1      3269 2.18933E+01-5.20804E+00 1.33355E-01 4.18765E+00-1.47382E-14-1.53259E-13
 -1      3270 2.71169E+01 3.84370E+00-1.55320E-01-3.15261E+00 2.53672E-13-9.83172E-14
 -1      3271 2.76312E+01 2.35482E+00-5.13642E-02-3.54470E+00 3.34843E-13-1.02432E-13
 -1      3272 1.25500E+01-2.03504E+00 1.81799E-02 4.55454E+00-6.23460E-14-1.71377E-13
 -1      3273 1.08828E+01-1.06167E+00 1.09988E-01 3.20728E+00-6.15723E-14-1.27121E-14
 -1      3274 1.47881E+01-3.18166E+00 1.83103E-01-5.00980E+00-2.93376E-14 2.95042E-14
 -1      3275 1.71902E+01-4.36366E+00-2.50583E-04-5.17604E+00-1.37008E-13-9.53404E-14
 -1      3276 1.90140E+01-3.89869E+00 9.46202E-02-4.25260E+00-7.41074E-14-8.06820E-14
 -1      3277 2.02914E+01 9.89055E-01-4.19137E-04 6.89710E-01 2.02313E-13-5.31070E-14
 -1      3278 2.02672E+01 1.30689E+00 2.93986E-03 7.70795E-01 2.08672E-13-5.71908E-14
 -1      3279 2.02705E+01 1.12694E+00-1.31409E-04 5.93101E-01 1.69250E-13-4.59584E-14
 -1      3280 2.02320E+01 7.75871E-01-3.89155E-03 4.84491E-01 1.69642E-13-6.02136E-14
 -1      3281 2.77290E+01 2.92069E-01-1.69887E-01-3.28813E+00 3.64167E-13-4.44436E-14
 -1      3282 2.79901E+01-1.51067E+00 3.85861E-02-2.62287E+00 4.35214E-13-6.48995E-14
 -1      3283 2.02259E+01 1.58973E+00-6.81858E-03-8.51510E-01-8.60926E-14-2.71809E-13
 -1      3284 2.02559E+01 1.36571E+00-1.06612E-04-7.45759E-01-9.44176E-14-2.45457E-13
 -1      3285 2.01723E+01 1.83511E+00 2.64709E-03-7.88192E-01-6.85354E-14-2.80352E-13
 -1      3286 2.85440E+01-2.97092E+00 7.57281E-02-1.35766E+00 1.84235E-13-3.05769E-13
 -1      3287 2.83936E+01-1.70888E+00-1.28108E-01-1.11107E-01 1.83343E-13-6.41098E-13
 -1      3288 2.00236E+01 2.21886E+00-3.53616E-03 6.57350E-02 9.34308E-14-2.92656E-13
 -1      3289 2.00238E+01 2.22182E+00-2.67096E-03-5.72761E-02 7.33829E-14-2.88962E-13
 -1      3290 2.01377E+01 1.92239E+00 4.98012E-03 1.01355E-01 9.58536E-14-2.63397E-13
 -1      3291 2.02532E+01 1.46282E+00 7.10291E-03 5.87320E-01 1.69027E-13-1.24880E-13
 -1      3292 2.01582E+01 1.80148E+00-6.95229E-03 6.85328E-01 1.91519E-13-1.52151E-13
 -1      3293 2.01230E+01 1.93030E+00-2.66987E-03 5.90580E-01 1.70382E-13-1.63633E-13
 -1      3294 2.70755E+01-1.56163E+00-1.58505E-02 1.06420E-01 1.50640E-13-5.72375E-13
 -1      3295 2.81988E+01-8.79681E-01-4.84299E-02 5.66169E-01 1.17930E-13-6.48613E-13
 -1      3296 2.73824E+01 1.67903E-01-6.43022E-02 1.07292E+00 1.48360E-13-6.46740E-13
 -1      3297 2.67999E+01-2.62799E+00-3.59719E-02-1.87347E+00 3.59039E-13-1.35877E-13
 -1      3298 2.35090E+01-4.74701E+00 3.15118E-02-2.13072E+00-1.61655E-13 1.67328E-13
 -1      3299 2.00857E+01 2.08139E+00-2.69314E-04-6.03665E-01-2.84302E-14-2.47081E-13
 -1      3300 2.01173E+01 1.95522E+00-6.21605E-03-7.02855E-01-5.10301E-14-2.69459E-13
 -1      3301 2.01865E+01 1.73082E+00 1.60007E-03-6.47526E-01-3.60265E-14-2.64179E-13
 -1      3302 2.71213E+01 5.61266E+00-1.22099E-01-5.06261E-01 4.75314E-14-4.07504E-13
 -1      3303 2.01895E+01 3.15293E-01-1.53015E-03 3.58949E-02 1.25054E-13-9.59980E-14
 -1      3304 2.01242E+01 2.93377E-01-1.98507E-03 4.37205E-02 1.02845E-13-4.41991E-14
 -1      3305 2.01692E+01 3.94679E-01 4.31271E-03 1.33980E-01 1.22516E-13-4.98443E-14
 -1      3306 2.58574E+01 4.02122E+00-1.08258E-01-2.72412E+00 2.19796E-13-1.26531E-14
 -1      3307 2.57441E+01-1.06991E+00-4.76237E-02-3.02414E+00 3.08096E-13-4.20913E-13
 -1      3308 2.57051E+01 2.74210E-01-6.74823E-03-3.30255E+00 3.55334E-13-3.39453E-13
 -1      3309 2.53441E+01-8.58088E-02-3.45333E-02 1.00567E+00 1.21479E-13-5.19203E-15
 -1      3310 2.50498E+01-8.78490E-01-7.50734E-02 6.74656E-01-6.26669E-14-2.41586E-14
 -1      3311 9.52516E+00-7.06968E-01 1.56327E-01-1.61373E+00 1.81175E-14-4.63282E-13
 -1      3312 1.08129E+01-8.02730E-01 9.41533E-03-2.32945E+00 5.83943E-14-4.22287E-13
 -1      3313 1.03105E+01-1.87007E-01 7.61342E-02-5.08991E-01-8.98986E-14-3.90354E-13
 -1      3314 2.02847E+01 9.47957E-01 1.25144E-03-4.24144E-01-5.11930E-14-1.76635E-13
 -1      3315 2.40614E+01-4.29049E+00-7.48925E-02-1.10228E+00-2.51571E-13 3.41827E-14
 -1      3316 2.39252E+01-3.50170E+00-1.96767E-02-6.00211E-01-7.11878E-14-1.36365E-13
 -1      3317 2.32711E+01-2.94929E+00 5.17870E-02-1.12839E+00 8.98101E-14-1.69023E-13
 -1      3318 2.21689E+01-4.03169E+00 9.51380E-02-2.77163E+00-1.61934E-13 1.72556E-13
 -1      3319 2.21114E+01-3.09845E+00-5.69726E-02-1.94340E+00-5.79051E-15-2.29009E-13
 -1      3320 2.72098E+01-3.36399E+00-7.88457E-03 2.09971E+00 2.36262E-13 5.38077E-13
 -1      3321 2.76549E+01 2.07209E-01-1.39605E-01 3.99810E+00 2.51674E-13 8.50264E-13
 -1      3322 2.75938E+01-2.10432E+00-3.87543E-02 2.86939E+00 1.01807E-13 6.70644E-13
 -1      3323 2.04868E+01-4.32853E+00 8.07902E-02 4.12802E+00 1.00295E-13-1.05108E-13
 -1      3324 2.00485E+01 2.16549E+00-4.09153E-03-5.01733E-01 1.49013E-15-2.39474E-13
 -1      3325 2.01223E+01 1.95048E+00 1.29598E-03-4.77742E-01-1.33591E-14-2.30549E-13
 -1      3326 2.00244E+01 2.23930E+00-2.31190E-03-3.85371E-01 3.37801E-14-2.20358E-13
 -1      3327 2.47907E+01-1.76132E+00-2.99455E-02-5.64485E-01-1.98100E-13-1.46149E-13
 -1      3328 2.80743E+01 3.36017E+00-8.14594E-02 1.24453E+00 8.79435E-14-7.33705E-13
 -1      3329 2.00635E+01 2.10541E+00-3.23701E-03 3.91037E-01 1.44026E-13-2.10216E-13
 -1      3330 2.01610E+01 1.84933E+00 6.05642E-03 2.91741E-01 1.31685E-13-2.20562E-13
 -1      3331 2.00890E+01 2.02405E+00-5.88158E-03 5.03080E-01 1.63216E-13-1.71164E-13
 -1      3332 1.37998E+01-2.34347E+00 8.82982E-02-4.28660E+00 5.35544E-14-2.96846E-14
 -1      3333 1.51119E+01-2.20048E+00 1.01414E-01 4.40285E+00-3.34559E-14-2.20983E-13
 -1      3334 2.64451E+01-2.70789E+00-7.99643E-02-1.37065E+00-5.30773E-14-3.82916E-13
 -1      3335 2.65842E+01-3.43147E+00-3.92104E-02-2.80136E+00 1.03050E-13-4.43857E-13
 -1      3336 1.06629E+01-5.54388E-01 1.23578E-01 2.36418E+00-9.00426E-14 1.25844E-13
 -1      3337 1.07075E+01-2.02560E-01 5.94293E-02 1.20953E+00-1.10294E-13-5.90361E-14
 -1      3338 1.23515E+01-5.67006E-01 5.66144E-02 2.67950E+00-6.58026E-14-6.31231E-14
 -1      3339 2.53532E+01-4.24020E+00 1.37992E-01-5.59535E+00 1.12410E-14-4.64241E-13
 -1      3340 2.01425E+01 1.60070E-01-1.37257E-03-7.67170E-02 7.05357E-14-1.14376E-13
 -1      3341 2.01761E+01 4.86555E-01-2.76146E-03 2.20832E-01 1.27511E-13-6.52290E-14
 -1      3342 2.02314E+01 6.35218E-01 3.84251E-03 3.60187E-01 1.34093E-13-6.09585E-14
 -1      3343 2.02603E+01 7.94353E-01 1.17466E-03 4.21130E-01 1.40231E-13-6.01460E-14
 -1      3344 2.02296E+01 5.24983E-01-7.12358E-04 1.99892E-01 1.22282E-13-9.60428E-14
 -1      3345 2.48755E+01-4.81016E+00-1.86963E-03 1.41668E+00 2.04343E-13-1.28651E-13
 -1      3346 2.66740E+01-2.16036E+00-3.35819E-02-2.82757E-01 4.08425E-13 1.35444E-13
 -1      3347 2.70856E+01-1.14357E+00-6.56639E-02-8.74498E-01 7.09224E-14 3.56413E-13
 -1      3348 2.02565E+01 1.38673E+00 3.43878E-03-6.47061E-01-5.52773E-14-2.53351E-13
 -1      3349 2.67408E+01 9.24149E-01-5.29738E-02-3.41091E+00 4.51271E-13-1.04410E-13
 -1      3350 2.81796E+01 5.77733E-02-3.79273E-02-1.44097E+00-1.12063E-13 4.67792E-13
 -1      3351 2.68903E+01-3.03271E+00 3.47417E-03 1.27180E+00 4.15373E-13-4.66918E-13
 -1      3352 2.56999E+01-1.37435E+00 4.00141E-02 2.49723E-01 1.45578E-14-1.85286E-13
 -1      3353 2.68833E+01-4.26923E+00-1.04932E-01-3.92259E+00 1.09794E-13-3.53884E-13
 -1      3354 2.75506E+01 1.83989E+00-1.36875E-01-1.51447E+00-1.97134E-13 6.96908E-13
 -1      3355 2.63307E+01-2.07018E+00-5.54672E-02-2.38206E+00 2.93748E-13-3.35631E-13
 -1      3356 2.02663E+01 2.36260E-01 2.15566E-03 3.96182E-02-7.52314E-14-1.10332E-13
 -1      3357 2.02416E+01 1.60722E-01-1.29240E-03 8.02317E-02-9.33189E-14-1.29314E-13
 -1      3358 2.02268E+01 1.01716E-01 1.61814E-03 1.06148E-01-9.65439E-14-1.23103E-13
 -1      3359 2.02052E+01 5.28158E-02-6.61493E-04 1.27783E-01-6.37101E-14-9.92690E-14
 -1      3360 2.02830E+01 1.57958E-01-4.37291E-04 7.64348E-02-8.24662E-14-1.27072E-13
 -1      3361 2.01877E+01 1.55262E-02 1.13432E-03 1.39903E-01-3.10316E-14-7.19841E-14
 -1      3362 2.01698E+01-1.45158E-02-2.28080E-04 1.48485E-01-8.39978E-15-6.71317E-14
 -1      3363 2.02451E+01 4.69387E-02-5.91725E-04 1.17536E-01-3.76415E-14-5.05149E-14
 -1      3364 2.01521E+01-3.65540E-02 7.39277E-04 1.51266E-01-8.01907E-15-1.03698E-13
 -1      3365 2.01379E+01-5.33844E-02 5.35985E-05 1.51416E-01-1.62687E-14-4.89980E-14
 -1      3366 2.02066E+01-2.21175E-02-6.28400E-04 1.35140E-01-6.66978E-15-9.10261E-14
 -1      3367 2.01213E+01-6.48297E-02 4.38564E-04 1.48358E-01-1.57610E-14-3.72396E-14
 -1      3368 2.01104E+01-7.25307E-02 2.26123E-04 1.43511E-01-1.09183E-14-2.04400E-14
 -1      3369 2.01706E+01-6.15152E-02-6.02885E-04 1.37167E-01-1.00164E-14-6.08254E-14
 -1      3370 2.00955E+01-7.67144E-02 2.18852E-04 1.37225E-01-3.68502E-14 1.37125E-15
 -1      3371 2.00873E+01-7.81996E-02 3.23289E-04 1.29862E-01-1.65028E-14-7.99498E-15
 -1      3372 2.01385E+01-8.02645E-02-5.44353E-04 1.29735E-01-2.38337E-14-6.96795E-14
 -1      3373 2.00744E+01-7.74737E-02 6.23823E-05 1.22232E-01-2.66927E-14-3.35862E-14
 -1      3374 2.00685E+01-7.47777E-02 3.71294E-04 1.14104E-01-7.48685E-15-6.65287E-14
 -1      3375 2.01110E+01-8.48666E-02-4.73536E-04 1.17382E-01-2.30453E-14-1.04427E-13
 -1      3376 2.00576E+01-7.07492E-02-4.91739E-05 1.06454E-01 1.33158E-15-7.33644E-14
 -1      3377 2.00534E+01-6.52234E-02 3.90874E-04 9.87871E-02 8.89468E-15-3.67727E-14
 -1      3378 2.00878E+01-7.98787E-02-3.96623E-04 1.03359E-01-2.84283E-15-1.13901E-13
 -1      3379 2.00443E+01-5.89211E-02-1.31804E-04 9.20486E-02 7.03018E-15-2.30113E-14
 -1      3380 2.00415E+01-5.13959E-02 3.96663E-04 8.57158E-02-1.04085E-14-3.85628E-14
 -1      3381 2.00687E+01-6.83608E-02-3.20333E-04 8.99634E-02 2.43046E-14-8.19118E-14
 -1      3382 2.00338E+01-4.34176E-02-1.98252E-04 8.05672E-02-4.77030E-14-9.51770E-14
 -1      3383 2.00322E+01-3.43287E-02 3.98780E-04 7.62170E-02-5.39811E-14-7.45897E-14
 -1      3384 2.00530E+01-5.22080E-02-2.46460E-04 7.88503E-02-5.51195E-14-1.34446E-13
 -1      3385 2.00254E+01-2.49371E-02-2.59883E-04 7.31819E-02-9.10155E-14-7.02543E-14
 -1      3386 2.00246E+01-1.44126E-02 4.05249E-04 7.13439E-02-1.31954E-13-1.17040E-13
 -1      3387 2.00399E+01-3.24318E-02-1.72970E-04 7.12521E-02-5.38179E-14-2.24671E-13
 -1      3388 2.00184E+01-3.61463E-03-3.25797E-04 7.08816E-02-1.31220E-13-1.06641E-13
 -1      3389 2.00180E+01 8.44461E-03 4.21129E-04 7.20476E-02-9.69976E-14-1.03529E-13
 -1      3390 2.00285E+01-9.36658E-03-9.94901E-05 6.81725E-02-1.22223E-13-1.44848E-13
 -1      3391 2.00117E+01 2.08246E-02-4.03310E-04 7.46170E-02-5.39879E-14-8.27094E-14
 -1      3392 2.00117E+01 3.46765E-02 4.49660E-04 7.92965E-02-5.41890E-15-7.78165E-14
 -1      3393 2.00177E+01 1.71663E-02-2.25417E-05 7.05423E-02-9.23090E-14-9.79029E-14
 -1      3394 2.00047E+01 4.89352E-02-4.98717E-04 8.54002E-02-6.60129E-14-4.21927E-14
 -1      3395 2.00046E+01 6.49330E-02 4.92809E-04 9.41584E-02-5.19528E-14-7.24761E-14
 -1      3396 2.00063E+01 4.76955E-02 6.15412E-05 7.93215E-02-2.32779E-14-6.57445E-14
 -1      3397 1.99963E+01 8.14243E-02-6.16843E-04 1.04373E-01-3.13152E-14-1.14790E-13
 -1      3398 1.99959E+01 9.99453E-02 5.51435E-04 1.17852E-01-2.89288E-14-5.07920E-14
 -1      3399 1.99932E+01 8.29595E-02 1.56477E-04 9.55745E-02-6.00561E-14-8.94902E-14
 -1      3400 1.99854E+01 1.19003E-01-7.60728E-04 1.32846E-01-2.66096E-14-4.53201E-14
 -1      3401 1.99844E+01 1.40360E-01 6.25445E-04 1.51761E-01-1.22332E-15-7.59686E-14
 -1      3402 1.99769E+01 1.23749E-01 2.65837E-04 1.20518E-01-2.59993E-14-1.58293E-13
 -1      3403 1.99708E+01 1.62198E-01-9.31105E-04 1.72295E-01-5.09782E-14-1.03121E-13
 -1      3404 1.99690E+01 1.86518E-01 7.14218E-04 1.97418E-01-1.39328E-13-1.25308E-13
 -1      3405 1.99557E+01 1.70710E-01 3.92129E-04 1.55538E-01-6.23433E-14-1.53020E-13
 -1      3406 1.99513E+01 2.11094E-01-1.12540E-03 2.24325E-01-2.41456E-13-1.85798E-13
 -1      3407 1.99483E+01 2.38157E-01 8.17448E-04 2.56434E-01-3.07387E-13-2.39985E-13
 -1      3408 1.99279E+01 2.24086E-01 5.35462E-04 2.02174E-01-2.37873E-13-2.33667E-13
 -1      3409 1.99257E+01 2.64977E-01-1.33624E-03 2.90591E-01-2.42884E-13-1.48425E-13
 -1      3410 1.99212E+01 2.93987E-01 9.36810E-04 3.30393E-01-1.53036E-13-1.20147E-13
 -1      3411 1.98916E+01 2.83363E-01 6.91444E-04 2.62082E-01-1.93889E-13-2.22074E-13
 -1      3412 1.98930E+01 3.21845E-01-1.54938E-03 3.72679E-01-1.31051E-13-1.43480E-13
 -1      3413 1.98870E+01 3.51113E-01 1.07902E-03 4.20704E-01-4.27237E-14-1.91390E-13
 -1      3414 1.98453E+01 3.46791E-01 8.47864E-04 3.36967E-01-1.55733E-13-1.24964E-13
 -1      3415 1.98526E+01 3.77724E-01-1.74069E-03 4.71943E-01 2.97536E-14-2.50420E-13
 -1      3416 1.98458E+01 4.04249E-01 1.26094E-03 5.28411E-01 4.02506E-15-3.03559E-13
 -1      3417 1.97874E+01 4.10724E-01 9.79477E-04 4.28512E-01-9.10466E-15-2.11483E-13
 -1      3418 1.98055E+01 4.25762E-01-1.87154E-03 5.89332E-01 1.40188E-14-3.03225E-13
 -1      3419 1.97992E+01 4.44676E-01 1.51724E-03 6.53990E-01 6.22564E-14-3.05703E-13
 -1      3420 1.97177E+01 4.68752E-01 1.03989E-03 5.38328E-01 2.90776E-14-2.38559E-13
 -1      3421 1.97546E+01 4.55058E-01-1.88083E-03 7.25203E-01 9.97656E-14-2.78605E-13
 -1      3422 1.97520E+01 4.58931E-01 1.90946E-03 7.97141E-01 1.09867E-13-2.26579E-13
 -1      3423 1.96374E+01 5.10571E-01 9.48837E-04 6.67962E-01 1.01465E-13-3.43864E-13
 -1      3424 1.97070E+01 4.49211E-01-1.66990E-03 8.79139E-01-2.21005E-14-2.82882E-13
 -1      3425 1.97143E+01 4.27247E-01 2.53197E-03 9.56553E-01-6.87060E-14-2.98923E-13
 -1      3426 1.95514E+01 5.20566E-01 5.71926E-04 8.19014E-01 5.88698E-14-3.09431E-13
 -1      3427 1.96764E+01 3.84720E-01-1.07363E-03 1.04968E+00-9.96795E-14-2.65831E-13
 -1      3428 1.97042E+01 3.21942E-01 3.50350E-03 1.12947E+00-7.06476E-14-2.37991E-13
 -1      3429 1.94698E+01 4.76124E-01-3.12026E-04 9.93329E-01-7.35278E-14-3.28930E-13
 -1      3430 1.96871E+01 2.29536E-01 1.97434E-04 1.23364E+00-1.17048E-13-3.00775E-13
 -1      3431 1.97530E+01 1.06250E-01 4.90779E-03 1.31055E+00-1.50908E-13-3.37048E-13
 -1      3432 1.94119E+01 3.45807E-01-2.06117E-03 1.19307E+00-1.70640E-13-3.06745E-13
 -1      3433 1.97803E+01-5.74012E-02 2.66530E-03 1.42412E+00 6.20095E-14-3.13166E-13
 -1      3434 1.99110E+01-2.65187E-01 6.63845E-03 1.48867E+00 1.72355E-13-1.51350E-13
 -1      3435 1.94114E+01 8.77310E-02-5.25420E-03 1.41993E+00 5.34501E-15-2.57709E-13
 -1      3436 2.00218E+01-5.23713E-01 7.33180E-03 1.60492E+00 1.36952E-13-1.88446E-13
 -1      3437 2.02544E+01-8.40845E-01 8.21878E-03 1.63866E+00 1.17156E-13-1.67304E-13
 -1      3438 1.95248E+01-3.51002E-01-1.07995E-02 1.67145E+00 1.53441E-13-2.32229E-13
 -1      3439 2.05121E+01-1.21320E+00 1.61186E-02 1.73734E+00 9.92307E-14-1.58223E-13
 -1      3440 2.08865E+01-1.65696E+00 6.19396E-03 1.70459E+00 6.64306E-14-1.04717E-13
 -1      3441 1.98431E+01-1.03025E+00-1.99517E-02 1.93097E+00 1.54804E-13-2.98980E-13
 -1      3442 2.13900E+01-2.13392E+00 3.04049E-02 1.72152E+00-6.60869E-14-7.13405E-14
 -1      3443 2.19287E+01-2.66392E+00-6.36123E-04 1.55580E+00-1.10216E-13-1.36578E-13
 -1      3444 2.05160E+01-2.00591E+00-3.46268E-02 2.13664E+00 3.02839E-14-2.04904E-13
 -1      3445 2.27702E+01-3.18388E+00 4.02996E-02 1.38619E+00-6.74443E-14-9.24694E-14
 -1      3446 2.34329E+01-3.66601E+00-9.49263E-03 1.01233E+00 2.49922E-14-2.01154E-13
 -1      3447 2.17390E+01-3.15761E+00-3.37358E-02 2.10734E+00-8.82506E-14-1.50432E-13
 -1      3448 2.01271E+01-8.57871E-03-2.19177E-04-1.59011E-01-3.04492E-14-1.06990E-13
 -1      3449 2.01432E+01 2.04781E-02 1.28136E-03-1.49480E-01-4.57870E-14-1.15202E-13
 -1      3450 2.00341E+01-6.15014E-02 3.87668E-04-1.06288E-01-1.57504E-14 8.92259E-14
 -1      3451 2.00357E+01-6.61960E-02-8.18915E-05-1.14749E-01-2.89824E-14 6.81456E-14
 -1      3452 2.01600E+01 5.62910E-02-6.54706E-04-1.35175E-01-1.16604E-14-1.11549E-13
 -1      3453 2.01814E+01 1.03489E-01 1.88703E-03-1.11318E-01 3.37902E-14-9.95397E-14
 -1      3454 2.02080E+01 5.24802E-02-7.31574E-04-1.26778E-01-2.88098E-14-1.17427E-13
 -1      3455 2.00529E+01-3.78980E+00-7.01923E-02-3.63989E+00-1.48291E-13 2.34646E-13
 -1      3456 2.14327E+01-3.26654E+00 4.62895E-02-2.60502E+00-1.82898E-13 1.95886E-13
 -1      3457 2.07621E+01-2.58104E+00 3.66494E-02-2.67198E+00-4.31565E-14 7.78878E-14
 -1      3458 2.00446E+01-6.94698E-02 3.66713E-04-1.23202E-01 1.31903E-15 7.57223E-14
 -1      3459 2.00478E+01-7.15184E-02 3.40996E-05-1.32058E-01 5.43550E-14 3.95590E-14
 -1      3460 2.00684E+01-7.56090E-02-3.77065E-04-1.14090E-01-1.46943E-14 2.75196E-14
 -1      3461 2.00211E+01-3.47370E-02 4.04481E-04-8.04024E-02 1.46272E-14 1.40605E-13
 -1      3462 2.00206E+01-4.26875E-02-2.21058E-04-8.55637E-02 1.70737E-14 9.94501E-14
 -1      3463 2.00175E+01-1.73462E-02 4.17266E-04-7.39512E-02-7.96461E-15 1.67933E-13
 -1      3464 2.00162E+01-2.65757E-02-2.73017E-04-7.65823E-02 3.55435E-14 1.95962E-13
 -1      3465 2.00318E+01-3.41574E-02-1.70918E-04-7.67574E-02 6.68860E-15 1.35596E-13
 -1      3466 2.00150E+01 2.67116E-03 4.42151E-04-7.31798E-02-5.96669E-14 1.23940E-13
 -1      3467 2.00132E+01-7.93412E-03-3.27588E-04-7.27769E-02-4.03974E-14 1.22475E-13
 -1      3468 2.00240E+01-1.36805E-02-1.13783E-04-7.21676E-02 1.32669E-15 1.49422E-13
 -1      3469 2.00131E+01 2.57574E-02 4.82408E-04-7.90872E-02-4.88508E-14 1.53064E-14
 -1      3470 2.00108E+01 1.35078E-02-3.93018E-04-7.51271E-02-4.46961E-14 5.90611E-14
 -1      3471 2.00172E+01 9.95975E-03-5.46739E-05-7.32488E-02-3.44199E-14 5.18433E-14
 -1      3472 2.00112E+01 5.26407E-02 5.40231E-04-9.27853E-02-9.34476E-14 1.25334E-13
 -1      3473 2.00086E+01 3.83423E-02-4.77434E-04-8.46737E-02-7.46621E-14 8.35684E-14
 -1      3474 2.00103E+01 3.73203E-02 9.84355E-06-8.09980E-02-9.12318E-14 1.12560E-13
 -1      3475 2.00086E+01 8.42452E-02 6.16040E-04-1.15568E-01-1.30872E-13 1.31168E-13
 -1      3476 2.00057E+01 6.74039E-02-5.87512E-04-1.02611E-01-9.00347E-14 9.40801E-14
 -1      3477 2.00024E+01 6.92615E-02 8.61069E-05-9.65263E-02-1.09455E-13 9.43590E-14
 -1      3478 2.00043E+01 1.21601E-01 7.08604E-04-1.48945E-01-1.08683E-13 1.40347E-13
 -1      3479 2.00013E+01 1.01680E-01-7.29612E-04-1.30335E-01-9.22219E-14 6.61852E-14
 -1      3480 1.99922E+01 1.06836E-01 1.81322E-04-1.21109E-01-8.04603E-14 1.95502E-14
 -1      3481 1.99972E+01 1.65731E-01 8.14789E-04-1.94633E-01-1.06046E-14 1.34626E-13
 -1      3482 1.99945E+01 1.42214E-01-9.09424E-04-1.69458E-01-7.40788E-14 1.20167E-13
 -1      3483 1.99781E+01 1.51182E-01 3.04051E-04-1.56204E-01-7.48542E-14 7.78026E-14
 -1      3484 1.99858E+01 2.17480E-01 9.29546E-04-2.54517E-01-6.31216E-14 9.78022E-15
 -1      3485 1.99837E+01 1.89964E-01-1.13168E-03-2.21788E-01-2.33283E-14 8.80289E-14
 -1      3486 1.99584E+01 2.03375E-01 4.64230E-04-2.03437E-01-1.87708E-15 4.03718E-15
 -1      3487 1.99682E+01 2.77267E-01 1.04655E-03-3.30553E-01 8.64055E-14-7.68275E-14
 -1      3488 1.99672E+01 2.45603E-01-1.39953E-03-2.89267E-01-1.22917E-14-2.47752E-14
 -1      3489 1.99307E+01 2.64222E-01 6.72710E-04-2.64545E-01 4.88871E-15-1.15379E-13
 -1      3490 1.99419E+01 3.44691E-01 1.16032E-03-4.24630E-01 9.80000E-15-5.19498E-14
 -1      3491 1.99430E+01 3.09202E-01-1.71349E-03-3.73855E-01 7.64150E-14-2.20116E-14
 -1      3492 1.98920E+01 3.33955E-01 9.39936E-04-3.41288E-01 5.81599E-14-1.15082E-13
 -1      3493 1.99043E+01 4.17918E-01 1.27126E-03-5.38382E-01-3.86767E-15 1.14065E-14
 -1      3494 1.99082E+01 3.79741E-01-2.06977E-03-4.77385E-01-4.74259E-15-2.81079E-14
 -1      3495 1.98391E+01 4.11760E-01 1.27298E-03-4.35335E-01-4.92058E-14-1.02953E-14
 -1      3496 1.98525E+01 4.92731E-01 1.39585E-03-6.72995E-01-1.11767E-13 1.44461E-14
 -1      3497 1.98601E+01 4.54340E-01-2.45766E-03-6.01386E-01-3.64719E-14 1.93861E-14
 -1      3498 1.97679E+01 4.95064E-01 1.66964E-03-5.48157E-01-1.84209E-14 3.55472E-14
 -1      3499 1.97840E+01 5.61081E-01 1.58481E-03-8.29067E-01-2.75453E-14-6.68502E-14
 -1      3500 1.97957E+01 5.27083E-01-2.85529E-03-7.46943E-01-4.88454E-14-1.07035E-13
 -1      3501 1.96743E+01 5.78467E-01 2.10727E-03-6.81016E-01 5.71890E-16-9.40884E-14
 -1      3502 1.96987E+01 6.08928E-01 1.95070E-03-1.00665E+00-1.52214E-13-1.36788E-13
 -1      3503 1.97132E+01 5.87232E-01-3.22163E-03-9.14691E-01-7.29795E-14-6.75530E-14
 -1      3504 1.95546E+01 6.52154E-01 2.52244E-03-8.35180E-01-5.33772E-14-2.28960E-13
 -1      3505 1.96013E+01 6.13148E-01 2.70062E-03-1.20557E+00-2.38261E-13-2.27686E-13
 -1      3506 1.96142E+01 6.16634E-01-3.48002E-03-1.10507E+00-2.47931E-13-1.87025E-13
 -1      3507 1.94070E+01 6.99566E-01 2.77326E-03-1.01259E+00-1.45544E-13-2.15617E-13
 -1      3508 1.95067E+01 5.37442E-01 4.17231E-03-1.42612E+00-1.34888E-13-1.68069E-13
 -1      3509 1.95068E+01 5.86113E-01-3.48355E-03-1.31898E+00-2.10276E-13-1.88888E-13
 -1      3510 1.92341E+01 6.94119E-01 2.57155E-03-1.21722E+00-2.10753E-13-2.03108E-13
 -1      3511 1.94485E+01 3.27527E-01 6.86944E-03-1.66967E+00-1.11095E-13-1.47750E-13
 -1      3512 1.94130E+01 4.51019E-01-2.90560E-03-1.55867E+00-3.29420E-15-4.94855E-14
 -1      3513 1.90483E+01 5.94857E-01 1.39432E-03-1.45728E+00-9.41790E-14-2.81384E-13
 -1      3514 1.94933E+01-9.26418E-02 1.17595E-02-1.93682E+00 1.10946E-14-3.44923E-13
 -1      3515 1.93799E+01 1.46379E-01-9.51033E-04-1.82805E+00-1.19507E-13-3.01987E-13
 -1      3516 1.88803E+01 3.40942E-01-1.62513E-03-1.74788E+00 5.40498E-15-2.36551E-13
 -1      3517 1.97675E+01-8.19882E-01 2.17227E-02-2.21328E+00 1.16253E-13-3.04968E-13
 -1      3518 1.95006E+01-4.21116E-01 3.38587E-03-2.12890E+00 1.88888E-14-3.56302E-13
 -1      3519 1.87961E+01-1.52583E-01-6.33217E-03-2.11530E+00 4.64533E-14-2.50399E-13
 -1      3520 2.03873E+01-1.90035E+00 3.23939E-02-2.44975E+00 7.09953E-14-3.85943E-14
 -1      3521 1.98753E+01-1.31323E+00 1.19714E-02-2.43933E+00 1.48350E-13-1.91425E-13
 -1      3522 1.88784E+01-9.47081E-01-5.23048E-03-2.56984E+00 3.17615E-14-7.59202E-14
 -1      3523 1.93135E+01-2.11628E+00 1.59127E-02-3.11257E+00-1.51148E-13 2.12037E-13
 -1      3524 2.77450E+01 5.34829E+00-1.41632E-01 2.27956E+00 3.45335E-13 8.78634E-13
 -1      3525 1.28926E+01-1.20909E+00 1.86675E-01-3.54054E+00-1.82909E-14 2.69229E-15
 -1      3526 1.52808E+01-2.35550E+00-5.05835E-02-4.19158E+00-3.34871E-14-1.18239E-13
 -1      3527 2.76161E+01 3.66360E+00-1.29974E-01-1.22028E+00-3.20341E-13 6.19338E-13
 -1      3528 2.03117E+01 7.34963E-01 1.36123E-03-2.41906E-01-2.66863E-14-1.58221E-13
 -1      3529 2.02952E+01 5.72871E-01-2.74946E-03-1.41378E-01-3.44310E-14-1.48067E-13
 -1      3530 2.75997E+01 4.86650E+00-1.36002E-01-1.00240E-01-2.78777E-13 7.29753E-13
 -1      3531 2.02020E+01 1.65053E+00 1.71283E-03-5.33932E-01-8.70537E-15-2.31377E-13
 -1      3532 2.02245E+01 1.51182E+00-3.90536E-03-6.01493E-01-2.61498E-14-2.64337E-13
 -1      3533 2.02587E+01 1.31440E+00-2.72993E-05-5.28368E-01-2.75579E-14-2.34359E-13
 -1      3534 2.00265E+01-4.95897E-02 3.97614E-04-9.15493E-02-2.75071E-15 1.07787E-13
 -1      3535 2.00269E+01-5.61267E-02-1.61180E-04-9.86998E-02 1.58686E-14 1.24416E-13
 -1      3536 2.00532E+01-6.57987E-02-2.98552E-04-9.89301E-02-5.27817E-14 4.33631E-14
 -1      3537 2.00413E+01-5.16450E-02-2.30279E-04-8.60341E-02 4.34448E-14 1.06420E-13
 -1      3538 2.00107E+01 2.25962E+00-3.65654E-03-1.56894E-01 6.10419E-14-2.78099E-13
 -1      3539 2.00242E+01 2.22888E+00-2.71147E-03-2.79071E-01 3.71037E-14-2.43437E-13
 -1      3540 2.01007E+01 2.02747E+00 3.04964E-03-2.81246E-01 3.45890E-14-2.24654E-13
 -1      3541 2.01199E+01 1.97728E+00 4.40218E-03-8.85056E-02 5.52740E-14-2.64431E-13
 -1      3542 2.00585E+01-7.17000E-02 3.19352E-04-1.40352E-01 6.30138E-14-4.49528E-15
 -1      3543 2.00638E+01-6.98027E-02 2.06186E-04-1.48294E-01 4.06802E-14-3.00648E-14
 -1      3544 2.00874E+01-7.92013E-02-4.58012E-04-1.29698E-01 3.74088E-14-8.00118E-15
 -1      3545 2.02994E+01 4.38583E-01 2.49950E-03-7.21547E-02-3.89878E-14-1.30246E-13
 -1      3546 2.02745E+01 3.26014E-01-2.14388E-03-5.39894E-03-5.17656E-14-1.08117E-13
 -1      3547 2.03146E+01 3.27599E-01-7.66336E-05 2.32956E-03-6.32326E-14-1.42936E-13
 -1      3548 2.02878E+01 9.28447E-01 1.27702E-03 4.64633E-01 1.57688E-13-4.99188E-14
 -1      3549 2.02772E+01 1.09911E+00-1.87158E-03 4.99361E-01 1.57633E-13-7.01068E-14
 -1      3550 2.02678E+01 7.68200E-01-2.25433E-03 3.33695E-01 1.32730E-13-6.95851E-14
 -1      3551 2.16918E+01-4.39871E+00-3.69698E-02 3.30175E+00 4.43014E-14-1.99845E-13
 -1      3552 1.92978E+01-3.45040E+00 8.21749E-02 4.14393E+00 2.22418E-14-1.56474E-13
 -1      3553 1.67163E+01-2.49577E+00-4.00047E-02 4.29640E+00-3.61725E-14-1.43097E-13
 -1      3554 1.46449E+01-1.24473E+00 5.87196E-02 3.63316E+00-1.61622E-13-1.79294E-13
 -1      3555 2.43654E+01-4.19914E+00-2.66379E-02 9.37854E-01 8.68836E-14-1.40140E-13
 -1      3556 2.29961E+01-4.36998E+00 7.26919E-02 2.52894E+00 1.05610E-14-1.44591E-13
 -1      3557 1.85507E+01-2.92026E+00 1.39893E-01-3.97770E+00-1.18339E-13 3.67761E-16
 -1      3558 2.02902E+01 1.10660E+00-6.91098E-04-4.42860E-01-1.57795E-14-2.17804E-13
 -1      3559 2.02948E+01 8.85250E-01-2.11015E-03-3.09533E-01-1.02250E-14-1.78480E-13
 -1      3560 2.03211E+01 8.87963E-01 1.70276E-03-2.57765E-01-1.04242E-14-2.15667E-13
 -1      3561 2.02792E+01 1.24476E+00 2.16774E-03-4.08928E-01 4.32219E-15-2.16286E-13
 -1      3562 2.01968E+01 1.60209E-01-1.29356E-03-8.13095E-02 7.78757E-14-1.10264E-13
 -1      3563 2.02240E+01 2.33357E-01 2.68298E-03-3.64331E-02 8.40743E-14-1.01149E-13
 -1      3564 2.02460E+01 1.61320E-01-6.49532E-04-7.89312E-02 5.07311E-14-1.16829E-13
 -1      3565 2.02643E+01 1.23097E+00-1.86522E-03 4.62032E-01 1.48900E-13-1.30395E-13
 -1      3566 2.02020E+01 1.63928E+00-3.28876E-03 1.30585E-01 8.95033E-14-2.51590E-13
 -1      3567 2.01985E+01 1.65933E+00-2.41879E-03 3.99636E-02 7.94351E-14-2.76639E-13
 -1      3568 2.02342E+01 3.20832E-01-1.92788E-03 1.60116E-02 1.03984E-13-8.98281E-14
 -1      3569 2.02651E+01 4.30176E-01 3.19471E-03 9.05242E-02 1.29078E-13-1.04858E-13
 -1      3570 2.02800E+01 3.28519E-01-5.01505E-04 6.92136E-03 9.82183E-14-1.03456E-13
 -1      3571 2.02075E+01 1.69598E+00 7.74927E-03 4.61836E-01 1.47059E-13-1.56439E-13
 -1      3572 2.51811E+01-3.84651E+00 5.44149E-03-1.21355E-01 1.26468E-13-2.61904E-13
 -1      3573 2.60327E+01-3.54676E+00 1.17168E-02-9.82551E-01 2.07110E-13-3.48407E-13
 -1      3574 1.11760E+01 7.43804E-02 1.03419E-01 4.11447E-01-1.07618E-13-2.32689E-13
 -1      3575 1.17299E+01 9.98275E-02-6.47059E-03-4.23182E-01-6.80714E-14-4.67217E-13
 -1      3576 1.22206E+01 1.47122E-01 2.46331E-02 1.10430E+00-1.00368E-13 7.83332E-14
 -1      3577 1.27562E+01-6.30771E-01 8.60005E-02-2.52200E+00-2.71380E-14-1.04750E-13
 -1      3578 2.01712E+01 1.74015E+00-3.49912E-03-4.62133E-01-2.29298E-14-2.34878E-13
 -1      3579 2.02230E+01 1.54682E+00 6.53938E-04-4.22997E-01-5.02272E-15-2.28499E-13
 -1      3580 2.01506E+01 1.82715E+00-1.29166E-03-3.70159E-01 1.46829E-14-1.94005E-13
 -1      3581 2.00766E+01-6.53695E-02 2.25680E-04-1.54953E-01 2.34234E-14-7.26160E-14
 -1      3582 2.00846E+01-5.75933E-02 4.55230E-04-1.60103E-01 8.83877E-15-5.52434E-14
 -1      3583 2.01108E+01-7.36164E-02-5.47673E-04-1.43182E-01-1.71467E-15-4.74955E-14
 -1      3584 2.02101E+01 1.60541E+00-2.42423E-03 2.01356E-01 1.04665E-13-2.18264E-13
 -1      3585 2.02858E+01 1.38536E+00 5.18424E-03 1.33602E-01 6.99985E-14-2.15655E-13
 -1      3586 2.02220E+01 1.54471E+00-4.93328E-03 2.85929E-01 1.22385E-13-1.97548E-13
 -1      3587 1.85397E+01-2.50441E+00 5.35613E-02 3.63344E+00-1.09992E-13-2.04982E-13
 -1      3588 2.03305E+01 5.76801E-01 3.60040E-04-1.14974E-01-1.60181E-14-1.82185E-13
 -1      3589 2.00993E+01-4.63203E-02 5.85662E-05-1.63038E-01-7.26276E-15-7.66131E-14
 -1      3590 2.01109E+01-2.98752E-02 8.06870E-04-1.62721E-01-2.23992E-15-1.01629E-13
 -1      3591 2.01389E+01-5.44338E-02-6.33622E-04-1.50894E-01-8.27010E-15-3.94404E-14
 -1      3592 2.01716E+01-1.53520E-02-7.05382E-04-1.47743E-01-3.91090E-14-9.83595E-14
 -1      3593 2.16589E+01-3.72051E+00-1.07006E-02 2.73451E+00-6.70445E-14-1.78049E-13
 -1      3594 1.70026E+01-2.16409E+00 2.73704E-03-3.64775E+00-1.93269E-13 2.21732E-14
 -1      3595 1.57556E+01-9.07677E-01 3.60545E-02 3.12096E+00-1.68903E-13-2.15685E-13
 -1      3596 1.40478E+01-7.54649E-01 5.47441E-02 3.20574E+00-1.14693E-13-2.97509E-13
 -1      3597 1.35894E+01-3.01427E-01 2.20116E-02 2.42608E+00-1.28272E-13-7.29972E-15
 -1      3598 2.02788E+01 1.42162E+00 4.86621E-03 5.69876E-04 5.59746E-14-2.47281E-13
 -1      3599 2.01963E+01 1.65940E+00-3.32471E-03-3.58832E-02 5.92759E-14-2.51703E-13
 -1      3600 2.02462E+01 4.13263E-02-5.78652E-04-1.18811E-01-7.49340E-16-1.01145E-13
 -1      3601 2.02677E+01 8.98593E-02 1.31687E-03-1.01004E-01 9.51070E-15-1.02457E-13
 -1      3602 2.02975E+01 8.15287E-02 1.07948E-03 9.27731E-02-2.90014E-14-7.60274E-14
 -1      3603 2.02760E+01 3.31031E-02-5.21838E-04 1.07997E-01-5.47654E-15-7.97955E-14
 -1      3604 2.02569E+01-3.98576E-03 8.02832E-04 1.14732E-01-2.32820E-14-8.61861E-14
 -1      3605 2.02366E+01-3.32741E-02-1.47891E-04 1.20315E-01 1.75067E-15-9.36496E-14
 -1      3606 2.03005E+01 2.33215E-02-3.75598E-04 9.37813E-02-2.02407E-14-1.19929E-13
 -1      3607 2.02162E+01-5.46165E-02 5.62323E-04 1.20788E-01 1.25402E-14-8.60704E-14
 -1      3608 2.01982E+01-7.03503E-02 9.83353E-05 1.20162E-01-1.93425E-14-8.99631E-14
 -1      3609 2.02584E+01-4.21228E-02-5.02390E-04 1.03285E-01 8.51759E-15-1.69632E-13
 -1      3610 2.01785E+01-8.06687E-02 3.68368E-04 1.16819E-01-3.23881E-14-7.03253E-14
 -1      3611 2.01630E+01-8.69689E-02 2.49144E-04 1.12580E-01-2.12291E-14-9.13216E-14
 -1      3612 2.02171E+01-7.79683E-02-5.44220E-04 1.02583E-01-2.67744E-14-1.04712E-13
 -1      3613 2.01449E+01-8.96745E-02 2.15594E-04 1.07267E-01-2.08712E-14-1.14120E-13
 -1      3614 2.01319E+01-8.95255E-02 3.29350E-04 1.01332E-01 4.42518E-15-1.07814E-13
 -1      3615 2.01789E+01-9.30740E-02-5.31663E-04 9.58581E-02-5.21717E-14-7.74126E-14
 -1      3616 2.01159E+01-8.70768E-02 9.67005E-05 9.53722E-02 8.27636E-15-1.29650E-13
 -1      3617 2.01053E+01-8.25504E-02 3.64009E-04 8.90880E-02-1.93131E-14-9.43247E-14
 -1      3618 2.01450E+01-9.38998E-02-4.81163E-04 8.62720E-02 4.07578E-15-1.09847E-13
 -1      3619 2.00913E+01-7.65639E-02 5.44829E-07 8.34130E-02-3.09336E-14-6.00961E-14
 -1      3620 2.00828E+01-6.89921E-02 3.73598E-04 7.77569E-02-4.26319E-15-1.36657E-13
 -1      3621 2.01156E+01-8.49938E-02-4.13415E-04 7.60403E-02-8.44624E-16-1.06737E-13
 -1      3622 2.00706E+01-6.04884E-02-8.05750E-05 7.30550E-02-6.28902E-14-1.38454E-13
 -1      3623 2.00637E+01-5.06707E-02 3.67232E-04 6.87414E-02-9.66073E-14-1.70785E-13
 -1      3624 2.00904E+01-6.92727E-02-3.32041E-04 6.67945E-02-4.77084E-14-1.73558E-13
 -1      3625 2.00530E+01-4.02111E-02-1.56248E-04 6.55155E-02-5.58443E-14-1.63918E-13
 -1      3626 2.00472E+01-2.85131E-02 3.56012E-04 6.30887E-02-7.61804E-14-1.97621E-13
 -1      3627 2.00686E+01-4.85122E-02-2.39600E-04 5.97436E-02-7.57798E-14-1.89097E-13
 -1      3628 2.00373E+01-1.62716E-02-2.35511E-04 6.17501E-02-9.89100E-14-1.89191E-13
 -1      3629 2.00322E+01-2.72483E-03 3.45953E-04 6.16881E-02-7.30860E-14-1.62366E-13
 -1      3630 2.00492E+01-2.35609E-02-1.41726E-04 5.57916E-02-6.94050E-14-1.43121E-13
 -1      3631 2.00224E+01 1.13845E-02-3.24031E-04 6.26296E-02-3.53331E-14-1.43856E-13
 -1      3632 2.00174E+01 2.69787E-02 3.40270E-04 6.53925E-02-3.89450E-14-1.04404E-13
 -1      3633 2.00309E+01 5.47653E-03-3.52481E-05 5.57497E-02-1.74976E-14-2.00762E-13
 -1      3634 2.00068E+01 4.32330E-02-4.28704E-04 6.90207E-02-1.58139E-16-5.27374E-14
 -1      3635 2.00014E+01 6.12336E-02 3.41363E-04 7.50963E-02 2.61571E-16-5.37555E-14
 -1      3636 2.00121E+01 3.89882E-02 8.36122E-05 6.04041E-02 8.42721E-15-5.08839E-14
 -1      3637 1.99891E+01 8.00273E-02-5.55390E-04 8.18699E-02-8.06188E-14-4.60993E-14
 -1      3638 1.99825E+01 1.00875E-01 3.50557E-04 9.18046E-02-7.10309E-14-7.96749E-14
 -1      3639 1.99911E+01 7.77073E-02 2.18044E-04 7.05905E-02-2.69538E-14-7.18906E-14
 -1      3640 1.99674E+01 1.22637E-01-7.08620E-04 1.02262E-01-7.55908E-14-1.23116E-13
 -1      3641 1.99589E+01 1.46763E-01 3.68437E-04 1.16676E-01-4.68096E-14-1.58416E-13
 -1      3642 1.99660E+01 1.22548E-01 3.72379E-04 8.72622E-02-1.00228E-13-6.28442E-14
 -1      3643 1.99397E+01 1.71855E-01-8.91832E-04 1.31450E-01-7.94739E-14-1.89095E-13
 -1      3644 1.99286E+01 1.99565E-01 3.95632E-04 1.51039E-01-1.22105E-13-2.66017E-13
 -1      3645 1.99343E+01 1.74404E-01 5.50630E-04 1.11529E-01-9.02906E-14-1.14733E-13
 -1      3646 1.99039E+01 2.28151E-01-1.10693E-03 1.70865E-01-1.67028E-13-2.80984E-13
 -1      3647 1.98891E+01 2.59475E-01 4.33924E-04 1.96387E-01-2.36750E-13-2.12297E-13
 -1      3648 1.98936E+01 2.33910E-01 7.55418E-04 1.44682E-01-1.53717E-13-2.98531E-13
 -1      3649 1.98576E+01 2.91348E-01-1.35377E-03 2.22108E-01-1.96655E-13-1.58273E-13
 -1      3650 1.98383E+01 3.25837E-01 4.88079E-04 2.54361E-01-1.14310E-13-1.50543E-13
 -1      3651 1.98411E+01 3.01122E-01 9.86618E-04 1.88208E-01-1.40353E-13-1.80161E-13
 -1      3652 1.97983E+01 3.60183E-01-1.62980E-03 2.86933E-01-1.02334E-13-1.71312E-13
 -1      3653 1.97738E+01 3.96636E-01 5.68968E-04 3.26728E-01-9.28139E-14-4.91099E-14
 -1      3654 1.97739E+01 3.75108E-01 1.23944E-03 2.43809E-01-1.22670E-13-8.53179E-14
 -1      3655 1.97239E+01 4.31715E-01-1.92973E-03 3.67245E-01-1.09467E-13-3.29849E-14
 -1      3656 1.96937E+01 4.67827E-01 6.98742E-04 4.15384E-01-3.14791E-14-1.29034E-13
 -1      3657 1.96889E+01 4.53397E-01 1.50171E-03 3.13448E-01-1.28702E-13-6.01268E-14
 -1      3658 1.96328E+01 5.00564E-01-2.24552E-03 4.65141E-01 3.36420E-15-2.41669E-13
 -1      3659 1.95971E+01 5.32464E-01 9.19095E-04 5.22426E-01 3.54220E-15-1.86253E-13
 -1      3660 1.95836E+01 5.31280E-01 1.75004E-03 3.99459E-01-1.17347E-13-1.04134E-13
 -1      3661 1.95247E+01 5.57921E-01-2.56570E-03 5.83050E-01 2.78537E-14-3.04722E-13
 -1      3662 1.94852E+01 5.79605E-01 1.30374E-03 6.50352E-01 8.37269E-14-3.91687E-13
 -1      3663 1.94562E+01 6.00921E-01 1.94402E-03 5.04783E-01-3.01283E-14-2.37869E-13
 -1      3664 1.94017E+01 5.90334E-01-2.87163E-03 7.24066E-01 6.40985E-14-4.42642E-13
 -1      3665 1.93622E+01 5.92967E-01 1.97506E-03 8.02475E-01 8.50486E-14-3.98404E-13
 -1      3666 1.93066E+01 6.50276E-01 2.01648E-03 6.33437E-01 1.18225E-14-4.32683E-13
 -1      3667 1.92700E+01 5.78229E-01-3.12409E-03 8.92525E-01-7.79162E-16-2.91017E-13
 -1      3668 1.92382E+01 5.49316E-01 3.11993E-03 9.83566E-01-4.87049E-14-2.79609E-13
 -1      3669 1.91373E+01 6.61751E-01 1.85414E-03 7.91331E-01 5.84932E-14-4.20331E-13
 -1      3670 1.91429E+01 4.94189E-01-3.22651E-03 1.09479E+00-6.09498E-14-2.13348E-13
 -1      3671 1.91325E+01 4.16629E-01 5.00510E-03 1.20055E+00-1.85679E-13-1.74468E-13
 -1      3672 1.89559E+01 6.10537E-01 1.25608E-03 9.87511E-01-1.73397E-14-2.19982E-13
 -1      3673 1.90453E+01 3.01130E-01-2.91664E-03 1.33996E+00-1.26207E-13-2.21221E-14
 -1      3674 1.90794E+01 1.52170E-01 7.97666E-03 1.46264E+00 1.63922E-13-9.58714E-15
 -1      3675 1.87778E+01 4.62511E-01-1.34776E-04 1.23571E+00 1.47585E-14 3.31414E-14
 -1      3676 1.90219E+01-4.95481E-02-1.44236E-03 1.63955E+00 1.90334E-13-9.96203E-14
 -1      3677 1.91369E+01-3.00605E-01 1.18110E-02 1.77950E+00 1.33301E-13-1.09121E-13
 -1      3678 1.86322E+01 1.71157E-01-3.05420E-03 1.55581E+00 6.77719E-14 1.51013E-14
 -1      3679 1.91528E+01-6.16732E-01 4.26745E-03 1.99950E+00 1.15664E-13-1.82507E-13
 -1      3680 1.94043E+01-1.00811E+00 1.75972E-02 2.14972E+00 1.36868E-13-2.68991E-13
 -1      3681 1.85756E+01-3.31619E-01-9.21265E-03 1.97223E+00 1.21233E-13-6.12103E-14
 -1      3682 1.95704E+01-1.46340E+00 2.03986E-02 2.41251E+00 1.00826E-13-2.50327E-13
 -1      3683 2.00072E+01-2.06374E+00 1.05071E-02 2.55055E+00-8.20091E-15-2.35408E-13
 -1      3684 1.86986E+01-1.12304E+00-2.15427E-02 2.49622E+00 1.08265E-13-2.54047E-13
 -1      3685 2.09296E+01-2.93911E+00 4.17841E-02 2.71171E+00-8.42555E-14-2.74889E-13
 -1      3686 2.00194E+01 1.87289E-02 3.84963E-04-6.95385E-02-1.83864E-14-2.78528E-14
 -1      3687 2.00222E+01 4.55233E-03-3.27923E-04-6.73099E-02 1.24997E-14 4.64164E-15
 -1      3688 2.03172E+01 9.93349E-01 5.83663E-03 3.40146E-01 1.21974E-13-1.04098E-13
 -1      3689 2.02610E+01 1.30446E+00-5.03286E-03 4.09800E-01 1.38135E-13-1.42336E-13
 -1      3690 2.00904E+01-7.94600E-02 3.73770E-04-1.00830E-01-4.67572E-14-6.98647E-15
 -1      3691 2.00990E+01-8.31746E-02 7.93998E-05-1.07985E-01-1.45703E-15 1.03668E-14
 -1      3692 2.00304E+01-8.18040E-03 3.81939E-04-6.68596E-02 1.25794E-14 5.51403E-14
 -1      3693 2.00335E+01-2.04533E-02-2.47273E-04-6.75983E-02 6.18924E-14 1.24582E-13
 -1      3694 2.00312E+01-1.20724E-03-6.30341E-05-6.22773E-02 5.58994E-14-3.87867E-14
 -1      3695 2.00420E+01-3.14638E-02 3.84862E-04-6.96023E-02 2.33129E-14 7.43794E-14
 -1      3696 2.00459E+01-4.20182E-02-1.72184E-04-7.28266E-02 1.77748E-14 8.78945E-14
 -1      3697 2.00464E+01-2.77808E-02-1.59374E-04-6.34199E-02 4.32388E-14-6.73900E-15
 -1      3698 2.00078E+01 4.99485E-02 3.95610E-04-7.85755E-02-1.54829E-13 3.98910E-14
 -1      3699 2.00107E+01 3.34753E-02-4.25377E-04-7.28665E-02-1.13361E-13 9.78754E-15
 -1      3700 2.00160E+01 2.95710E-02 4.06016E-05-6.62355E-02-7.80992E-14-4.73779E-15
 -1      3701 1.99941E+01 8.64480E-02 4.13715E-04-9.50166E-02-7.00081E-14-1.66366E-15
 -1      3702 1.99977E+01 6.71555E-02-5.45095E-04-8.52543E-02-8.87288E-14 4.07676E-14
 -1      3703 1.99993E+01 6.53658E-02 1.60641E-04-7.61803E-02-9.55480E-14-7.28515E-14
 -1      3704 1.99766E+01 1.29374E-01 4.37245E-04-1.20046E-01-9.55492E-14 3.20569E-14
 -1      3705 1.99816E+01 1.06664E-01-6.93763E-04-1.05581E-01-6.87679E-14 4.47491E-14
 -1      3706 1.99791E+01 1.07259E-01 3.04360E-04-9.30754E-02-6.25515E-14-1.48425E-15
 -1      3707 1.99532E+01 1.79921E-01 4.62203E-04-1.54991E-01-8.39540E-14-4.87553E-15
 -1      3708 1.99605E+01 1.53189E-01-8.77189E-04-1.35100E-01-5.02303E-14 1.73073E-14
 -1      3709 1.99534E+01 1.56489E-01 4.80411E-04-1.17992E-01-4.78815E-14 5.18877E-14
 -1      3710 1.99215E+01 2.39161E-01 4.82793E-04-2.01297E-01 4.70628E-15-9.35698E-14
 -1      3711 1.99320E+01 2.07888E-01-1.10057E-03-1.75200E-01-9.15475E-14-1.02083E-13
 -1      3712 1.99194E+01 2.14294E-01 6.99013E-04-1.52103E-01-6.79238E-14-1.00332E-13
 -1      3713 1.98782E+01 3.07806E-01 4.92126E-04-2.60458E-01 1.84220E-14-4.53558E-14
 -1      3714 1.98934E+01 2.71689E-01-1.36848E-03-2.27363E-01 3.45836E-14-1.87289E-14
 -1      3715 1.98740E+01 2.81712E-01 9.71765E-04-1.96641E-01-3.47408E-14-1.39917E-13
 -1      3716 1.98197E+01 3.85866E-01 4.84120E-04-3.33929E-01 4.00052E-14-8.33754E-14
 -1      3717 1.98411E+01 3.45005E-01-1.68510E-03-2.93084E-01 5.63265E-14-5.40451E-14
 -1      3718 1.98134E+01 3.59302E-01 1.31128E-03-2.52834E-01 3.21355E-14 2.82979E-15
 -1      3719 1.97416E+01 4.72151E-01 4.57758E-04-4.23029E-01-1.03879E-13 7.81621E-15
 -1      3720 1.97711E+01 4.27320E-01-2.05501E-03-3.73783E-01-4.03271E-14 4.34192E-15
 -1      3721 1.97329E+01 4.46760E-01 1.73041E-03-3.21825E-01-6.04471E-14-6.79703E-15
 -1      3722 1.96390E+01 5.63547E-01 4.25539E-04-5.28898E-01-1.41643E-14 1.74032E-14
 -1      3723 1.96785E+01 5.16583E-01-2.48531E-03-4.70736E-01-5.91665E-15 3.96511E-14
 -1      3724 1.96274E+01 5.42381E-01 2.24087E-03-4.04626E-01-2.55217E-14-9.53408E-15
 -1      3725 1.95065E+01 6.53982E-01 4.28984E-04-6.52615E-01 6.64828E-14-1.82603E-13
 -1      3726 1.95582E+01 6.08340E-01-2.99007E-03-5.85112E-01 4.03854E-14-6.81917E-15
 -1      3727 1.94907E+01 6.42307E-01 2.85076E-03-5.02180E-01 4.93968E-14-4.01099E-14
 -1      3728 1.93391E+01 7.32951E-01 5.65153E-04-7.95666E-01-5.93222E-14-1.18403E-13
 -1      3729 1.94043E+01 6.94480E-01-3.59789E-03-7.18261E-01-4.51455E-14-1.19300E-13
 -1      3730 1.93159E+01 7.39510E-01 3.56061E-03-6.15684E-01-3.46218E-15-4.51914E-15
 -1      3731 1.91335E+01 7.83443E-01 1.02574E-03-9.61082E-01-2.44712E-13-4.57684E-14
 -1      3732 1.92117E+01 7.61480E-01-4.36212E-03-8.72523E-01-1.25668E-13-8.82271E-14
 -1      3733 1.90958E+01 8.22420E-01 4.35542E-03-7.47456E-01-1.45744E-13 1.27291E-13
 -1      3734 1.88902E+01 7.79007E-01 2.12486E-03-1.15561E+00-1.78209E-13-1.12322E-13
 -1      3735 1.89773E+01 7.87933E-01-5.36759E-03-1.05292E+00-2.32760E-13-7.21058E-14
 -1      3736 1.88232E+01 8.73028E-01 5.18255E-03-9.02755E-01-2.03453E-13-8.13679E-14
 -1      3737 1.86184E+01 6.79977E-01 4.44199E-03-1.39300E+00-4.81074E-14-2.30858E-13
 -1      3738 1.87026E+01 7.41104E-01-6.73034E-03-1.27000E+00-8.48754E-14-1.85323E-13
 -1      3739 1.84925E+01 8.64100E-01 5.88919E-03-1.09302E+00-1.03614E-13-4.88761E-14
 -1      3740 1.83417E+01 4.27317E-01 8.20650E-03-1.69928E+00 4.08420E-14-1.89353E-13
 -1      3741 1.83995E+01 5.72474E-01-8.52143E-03-1.54438E+00 2.89980E-14-1.66261E-13
 -1      3742 1.81013E+01 7.56086E-01 6.27153E-03-1.34082E+00-5.02547E-14-1.05031E-13
 -1      3743 1.81014E+01-6.81068E-02 1.12221E-02-2.12115E+00 2.00187E-15-1.00251E-13
 -1      3744 1.80994E+01 2.11709E-01-1.04605E-02-1.90845E+00-6.72417E-14-1.59927E-13
 -1      3745 1.76604E+01 4.88883E-01 6.93406E-03-1.68953E+00-9.31617E-15-2.59116E-14
 -1      3746 2.02477E+01 1.40557E+00-1.71329E-03 3.45946E-01 1.25669E-13-1.43773E-13
 -1      3747 2.02826E+01 1.48768E-01-1.15397E-03-8.08572E-02 2.41351E-14-8.40092E-14
 -1      3748 2.03046E+01 2.23663E-01 1.62583E-03-4.70081E-02 6.64714E-14-9.56284E-14
 -1      3749 2.03156E+01 1.41574E-01-2.33106E-04-7.47194E-02 3.00065E-14-8.12111E-14
 -1      3750 2.01137E+01-8.48634E-02 3.30817E-04-1.14758E-01 1.92702E-14-2.98799E-14
 -1      3751 2.01246E+01-8.42805E-02 2.16896E-04-1.21425E-01 3.42734E-14-5.33615E-14
 -1      3752 2.01313E+01-9.03127E-02-4.77155E-04-1.00756E-01-2.99490E-15-7.24857E-14
 -1      3753 2.03568E+01 4.15913E-01 1.50889E-03-2.92758E-02-3.39770E-14-1.64123E-13
 -1      3754 2.03405E+01 3.05006E-01-1.73859E-03 1.85290E-02-5.68157E-14-1.53284E-13
 -1      3755 2.02581E+01 5.20874E-01-2.31985E-03 1.50837E-01 1.35006E-13-8.06294E-14
 -1      3756 2.02784E+01 6.43026E-01 2.19987E-03 2.44962E-01 1.27338E-13-8.40103E-14
 -1      3757 2.02921E+01 7.68763E-01-1.73056E-03 2.80381E-01 1.45371E-13-1.01947E-13
 -1      3758 2.02979E+01 5.29316E-01-1.83692E-03 1.25825E-01 1.47414E-13-1.09724E-13
 -1      3759 1.27248E+01 1.04617E-01 9.62956E-02-1.61692E+00-1.07052E-13-3.74596E-13
 -1      3760 1.39534E+01-5.62500E-01-2.23409E-02-2.65710E+00-1.05962E-13-5.32560E-14
 -1      3761 2.03533E+01 7.04931E-01 5.57815E-04-1.45792E-01-1.45345E-15-1.86883E-13
 -1      3762 2.03497E+01 5.47708E-01-2.16335E-03-7.49249E-02-1.49526E-14-1.73333E-13
 -1      3763 2.03772E+01 5.32770E-01 8.90419E-04-5.42864E-02-2.36142E-14-1.67826E-13
 -1      3764 2.03335E+01 2.15590E-01 1.36427E-03 4.75339E-02-5.80236E-14-1.33576E-13
 -1      3765 2.03127E+01 1.40687E-01-1.04223E-03 7.66679E-02-5.82378E-14-9.09721E-14
 -1      3766 2.03681E+01 2.93818E-01 3.38912E-04 2.15780E-02-4.80976E-14-1.22020E-13
 -1      3767 1.55609E+01-9.11475E-01 8.95366E-02-3.20627E+00-1.28304E-13-1.95902E-14
 -1      3768 1.78715E+01-1.79636E+00-5.15863E-03-3.24597E+00-1.85728E-13 1.01454E-13
 -1      3769 1.75964E+01-1.12565E+00-2.75587E-02-2.88445E+00-1.08729E-13-2.18662E-14
 -1      3770 1.52262E+01-3.17912E-01 2.16857E-02-2.43716E+00-8.86704E-14-6.84270E-14
 -1      3771 2.02087E+01-2.53568E-02-1.78395E-04-1.34395E-01-6.48649E-14-1.05651E-13
 -1      3772 2.02279E+01 4.21597E-03 9.49193E-04-1.27679E-01-5.83447E-14-1.10110E-13
 -1      3773 2.02775E+01 3.31217E-02-4.43985E-04-1.06300E-01-1.32503E-14-1.30384E-13
 -1      3774 1.96072E+01-2.57493E+00-2.62004E-02 3.12571E+00-5.27670E-14-3.57348E-13
 -1      3775 2.02566E+01 1.42526E+00 1.84225E-03-3.03586E-01 2.47777E-14-1.89987E-13
 -1      3776 2.02686E+01 1.32638E+00-1.83327E-03-3.64188E-01 1.82143E-14-2.22467E-13
 -1      3777 2.03028E+01 1.13270E+00 9.00659E-05-2.88112E-01 1.91725E-14-2.20263E-13
 -1      3778 2.01626E+01-8.78309E-02-5.34937E-04-1.11767E-01 2.08805E-14-1.18156E-14
 -1      3779 2.01413E+01-8.08967E-02 2.42179E-04-1.27279E-01 1.57169E-16-3.59337E-14
 -1      3780 2.01548E+01-7.39723E-02 3.99535E-04-1.31901E-01-2.25133E-14-4.08899E-14
 -1      3781 2.03154E+01 8.44391E-01 3.08764E-04 2.50782E-01 1.22825E-13-1.12162E-13
 -1      3782 2.03462E+01 3.06697E-01 2.10797E-04-1.63672E-02 8.68466E-14-2.96896E-14
 -1      3783 2.03125E+01 3.12587E-01-1.92371E-03-1.17482E-02 8.64623E-14-9.33881E-14
 -1      3784 2.03338E+01 4.20780E-01 1.69924E-03 4.47177E-02 1.13208E-13-8.16730E-14
 -1      3785 1.34787E+01 1.08339E-01 6.44555E-02 1.84506E+00-7.01574E-14 1.16941E-13
 -1      3786 1.34444E+01 3.05378E-01-1.41168E-02 1.12997E+00-7.96021E-15-4.15362E-14
 -1      3787 1.48263E+01-8.53004E-02 1.45706E-02 2.24182E+00-8.04942E-14-1.61739E-13
 -1      3788 2.01875E+01 1.70171E+00-8.29821E-04-1.21381E-01 3.54003E-14-2.46541E-13
 -1      3789 2.01647E+01 1.76146E+00-4.05657E-03-1.92201E-01 3.04239E-14-2.34173E-13
 -1      3790 2.01636E+01 1.77863E+00-1.43997E-03-2.86995E-01 2.76185E-14-1.96333E-13
 -1      3791 2.02212E+01 1.59145E+00 1.33343E-03-2.77850E-01 1.99737E-14-1.96791E-13
 -1      3792 2.02613E+01 1.48218E+00 4.55181E-03-1.30816E-01 3.04542E-14-2.35221E-13
 -1      3793 2.03251E+01 9.81556E-01-1.21567E-03-2.48256E-01 1.97275E-14-2.19923E-13
 -1      3794 2.03374E+01 8.26553E-01-1.09606E-03-1.81249E-01 8.35261E-15-2.01310E-13
 -1      3795 2.03617E+01 8.02997E-01 1.44277E-03-1.37986E-01 1.34306E-14-1.67073E-13
 -1      3796 2.03273E+01 1.06987E+00 1.60194E-03-2.13968E-01 3.94425E-14-1.94567E-13
 -1      3797 2.03073E+01 1.21510E+00 5.22236E-03 2.52671E-01 1.02904E-13-1.61565E-13
 -1      3798 1.79035E+01-7.55722E-01 5.68308E-03-2.60378E+00-3.25909E-14-7.48099E-15
 -1      3799 1.78351E+01-3.33802E-01-1.89397E-02-2.33590E+00 6.98751E-14-2.21251E-14
 -1      3800 1.72127E+01 1.15951E-01 2.21052E-02-2.09867E+00-1.09308E-13-8.95644E-14
 -1      3801 1.67394E+01-4.26604E-01 2.00391E-02-2.59379E+00-5.39907E-14 1.06972E-14
 -1      3802 2.01896E+01-4.69761E-02 6.41971E-04-1.35693E-01-3.88784E-14-8.66747E-14
 -1      3803 2.02371E+01-3.37787E-02-5.35075E-04-1.18906E-01-5.09717E-14-1.41349E-13
 -1      3804 2.01732E+01-6.31695E-02 8.47089E-05-1.35257E-01-2.76057E-14-6.12304E-14
 -1      3805 1.32117E+01 2.91079E-01 4.45116E-02-8.04888E-01-1.06224E-13-4.24032E-13
 -1      3806 2.03392E+01 1.30216E-01-1.15743E-04 6.86348E-02-2.54034E-14-1.27750E-13
 -1      3807 2.00553E+01-5.13858E-02 3.93468E-04-7.68544E-02 1.94894E-14 8.05121E-14
 -1      3808 2.00603E+01-6.01978E-02-9.98046E-05-8.20577E-02 5.25928E-15 6.04701E-14
 -1      3809 2.00630E+01-5.05515E-02-2.54373E-04-6.88545E-02 6.37674E-16 9.78354E-15
 -1      3810 2.00778E+01-7.43651E-02-1.90212E-05-9.42530E-02-6.43851E-14 2.94750E-14
 -1      3811 2.01046E+01-8.31276E-02-4.05440E-04-8.87598E-02-4.68912E-14-1.56436E-14
 -1      3812 2.00712E+01-6.77116E-02 3.93081E-04-8.76755E-02-4.89944E-14 3.80641E-14
 -1      3813 1.77357E+01-1.50760E+00 2.97519E-02 3.21408E+00 1.90106E-14-1.76988E-13
 -1      3814 2.03176E+01 1.19536E+00-2.66627E-03 3.11799E-02 4.44989E-14-2.35433E-13
 -1      3815 2.03182E+01 1.19747E+00-2.21642E-03-3.04602E-02 2.26832E-14-2.17815E-13
 -1      3816 2.03199E+01 1.14823E+00-3.48285E-03 1.34158E-01 6.34252E-14-1.92769E-13
 -1      3817 2.03190E+01 1.18208E+00-1.92775E-03 7.72551E-02 5.12264E-14-2.19974E-13
 -1      3818 2.03731E+01 9.97285E-01 4.85967E-03 3.96791E-02 3.48328E-14-2.13750E-13
 -1      3819 1.81392E+01-1.08407E+00 3.24318E-02 2.70298E+00 1.99905E-13-1.36384E-13
 -1      3820 1.68080E+01-1.06939E+00-7.79993E-03 3.09561E+00-2.11628E-14-1.00625E-13
 -1      3821 1.61673E+01-5.77051E-01-5.60092E-03 2.69814E+00-2.11346E-14-1.14131E-13
 -1      3822 1.79413E+01-6.34843E-01 3.65708E-03 2.40040E+00 1.52869E-13-1.19568E-13
 -1      3823 2.03006E+01 1.69722E-02-3.91572E-04-9.44368E-02-1.54399E-15-1.25106E-13
 -1      3824 2.03222E+01 6.31014E-02 8.48591E-04-8.28952E-02 2.71984E-14-8.92453E-14
 -1      3825 2.03281E+01 9.45568E-01-5.11731E-03 2.28754E-01 1.17389E-13-1.14884E-13
 -1      3826 2.03240E+01 1.09299E+00 2.02370E-04 1.88951E-01 8.07229E-14-1.54431E-13
 -1      3827 2.03658E+01 9.26242E-01 3.93615E-03 1.25425E-01 6.32701E-14-1.43435E-13
 -1      3828 2.03368E+01 7.55514E-01 3.46641E-03 1.87660E-01 1.35659E-13-9.68949E-14
 -1      3829 2.02961E+01-2.82099E-02 5.19016E-04 8.26341E-02 7.95803E-15-1.61605E-13
 -1      3830 2.02741E+01-5.42777E-02-2.50497E-06 8.55370E-02 2.52955E-14-1.41038E-13
 -1      3831 2.02518E+01-7.29375E-02 4.06873E-04 8.45094E-02 2.56875E-14-1.66242E-13
 -1      3832 2.02312E+01-8.59817E-02 1.73026E-04 8.34385E-02-1.31009E-14-1.37819E-13
 -1      3833 2.02827E+01-6.32873E-02-5.18550E-04 6.59519E-02 1.21351E-14-1.27227E-13
 -1      3834 2.02096E+01-9.38748E-02 3.03657E-04 8.03922E-02-5.10446E-14-9.78393E-14
 -1      3835 2.01912E+01-9.77649E-02 2.78800E-04 7.71137E-02-7.84188E-14-1.28063E-13
 -1      3836 2.02380E+01-9.22506E-02-5.57213E-04 6.40190E-02-1.76105E-14-1.59762E-13
 -1      3837 2.01713E+01-9.82941E-02 2.09305E-04 7.32405E-02-2.44258E-14-9.69960E-14
 -1      3838 2.01553E+01-9.60058E-02 3.20700E-04 6.90000E-02 4.05142E-14-9.48036E-14
 -1      3839 2.01964E+01-1.01646E-01-5.35388E-04 5.89985E-02-1.00577E-14-7.91426E-14
 -1      3840 2.01375E+01-9.14477E-02 1.20228E-04 6.49499E-02-6.86569E-15-9.38146E-14
 -1      3841 2.01239E+01-8.48444E-02 3.32651E-04 6.07058E-02-1.48013E-14-8.70105E-14
 -1      3842 2.01591E+01-9.77327E-02-4.86794E-04 5.28303E-02 2.06954E-16-9.43084E-14
 -1      3843 2.01081E+01-7.67356E-02 4.13850E-05 5.71056E-02-3.99543E-14-1.54461E-13
 -1      3844 2.00965E+01-6.70440E-02 3.23485E-04 5.35383E-02-6.90816E-14-1.87120E-13
 -1      3845 2.01262E+01-8.44426E-02-4.14825E-04 4.66164E-02-7.48852E-14-1.40902E-13
 -1      3846 2.00826E+01-5.63357E-02-3.42702E-05 5.08090E-02-3.01823E-14-2.14824E-13
 -1      3847 2.00725E+01-4.42769E-02 3.00517E-04 4.84143E-02-3.65197E-14-1.88859E-13
 -1      3848 2.00974E+01-6.44773E-02-3.18208E-04 4.14210E-02-3.29390E-14-2.13652E-13
 -1      3849 2.00597E+01-3.13745E-02-1.16800E-04 4.68133E-02-4.43671E-14-1.85432E-13
 -1      3850 2.00506E+01-1.71421E-02 2.71272E-04 4.60187E-02-7.16442E-14-1.68539E-13
 -1      3851 2.00718E+01-3.93614E-02-2.08567E-04 3.79461E-02-3.84319E-14-1.56715E-13
 -1      3852 2.00382E+01-2.10813E-03-2.07303E-04 4.58732E-02-6.72065E-14-1.44296E-13
 -1      3853 2.00293E+01 1.43683E-02 2.37858E-04 4.70604E-02 3.28697E-14-1.33418E-13
 -1      3854 2.00478E+01-9.53601E-03-8.93220E-05 3.67091E-02-3.01800E-14-1.26904E-13
 -1      3855 2.00164E+01 3.17276E-02-3.11969E-04 4.86454E-02 8.59879E-14-1.16259E-13
 -1      3856 2.00069E+01 5.07594E-02 2.04074E-04 5.21944E-02 3.71776E-14-5.73904E-14
 -1      3857 2.00239E+01 2.51048E-02 4.81629E-05 3.83284E-02 3.36208E-14-8.31183E-14
 -1      3858 1.99924E+01 7.08326E-02-4.37320E-04 5.58187E-02-2.94278E-14-9.01734E-14
 -1      3859 1.99814E+01 9.28820E-02 1.71101E-04 6.21479E-02-5.79509E-14-1.27131E-13
 -1      3860 1.99981E+01 6.51740E-02 2.03779E-04 4.33349E-02-1.46806E-14-2.19527E-13
 -1      3861 1.99640E+01 1.16154E-01-5.87950E-04 6.81844E-02-1.05746E-13-9.46933E-14
 -1      3862 1.99505E+01 1.41736E-01 1.39270E-04 7.77719E-02-8.10274E-14-8.83897E-14
 -1      3863 1.99681E+01 1.11621E-01 3.82643E-04 5.23613E-02-7.90645E-14-2.27280E-13
 -1      3864 1.99287E+01 1.68690E-01-7.69006E-04 8.66738E-02-1.12665E-13-7.52018E-14
 -1      3865 1.99114E+01 1.98265E-01 1.09063E-04 1.00072E-01-1.67962E-13-1.56474E-13
 -1      3866 1.99313E+01 1.65508E-01 5.90539E-04 6.61617E-02-1.08055E-13-1.89107E-13
 -1      3867 1.98837E+01 2.29264E-01-9.85481E-04 1.12393E-01-1.55260E-13-1.69090E-13
 -1      3868 1.98612E+01 2.63105E-01 8.20653E-05 1.30240E-01-1.45844E-13-1.86661E-13
 -1      3869 1.98845E+01 2.27793E-01 8.32993E-04 8.56494E-02-1.66159E-13-9.69246E-14
 -1      3870 1.98257E+01 2.98236E-01-1.24226E-03 1.46656E-01-1.21055E-13-1.51796E-13
 -1      3871 1.97967E+01 3.36252E-01 6.23832E-05 1.69681E-01-1.30155E-13-1.00447E-13
 -1      3872 1.98244E+01 2.99059E-01 1.11458E-03 1.11940E-01-1.20185E-13-4.26553E-14
 -1      3873 1.97513E+01 3.75128E-01-1.54463E-03 1.91023E-01-1.43474E-13-7.03192E-14
 -1      3874 1.97144E+01 4.16640E-01 5.88691E-05 2.20067E-01-9.91043E-14-6.91103E-14
 -1      3875 1.97472E+01 3.79159E-01 1.43813E-03 1.46407E-01-8.47919E-14-1.46192E-13
 -1      3876 1.96569E+01 4.58136E-01-1.89958E-03 2.47376E-01-1.24827E-13-6.52683E-14
 -1      3877 1.96106E+01 5.01590E-01 8.86347E-05 2.83428E-01-1.24827E-13-5.23653E-14
 -1      3878 1.96488E+01 4.66780E-01 1.80399E-03 1.90775E-01-1.07918E-13 7.62140E-15
 -1      3879 1.95389E+01 5.43515E-01-2.31849E-03 3.18043E-01-1.49921E-13-8.88437E-14
 -1      3880 1.94823E+01 5.86130E-01 1.82632E-04 3.62329E-01-7.95196E-14-7.44804E-14
 -1      3881 1.95249E+01 5.58889E-01 2.20950E-03 2.47272E-01-1.54911E-13-7.01043E-14
 -1      3882 1.93939E+01 6.24823E-01-2.82186E-03 4.06063E-01-1.23548E-13-5.67930E-14
 -1      3883 1.93266E+01 6.62168E-01 3.94625E-04 4.60223E-01-1.01644E-13-1.77873E-13
 -1      3884 1.93712E+01 6.50078E-01 2.64913E-03 3.18903E-01-1.47623E-13-1.25983E-13
 -1      3885 1.92196E+01 6.92017E-01-3.44642E-03 5.15654E-01-5.62163E-14-2.56220E-13
 -1      3886 1.91423E+01 7.17533E-01 8.16034E-04 5.82070E-01 9.76202E-15-3.10519E-13
 -1      3887 1.91836E+01 7.31818E-01 3.11519E-03 4.09928E-01-1.33476E-13-1.46021E-13
 -1      3888 1.90146E+01 7.30413E-01-4.25331E-03 6.53064E-01 1.15007E-13-3.22002E-13
 -1      3889 1.89302E+01 7.34851E-01 1.60091E-03 7.35404E-01 9.03305E-14-2.66608E-13
 -1      3890 1.89582E+01 7.91633E-01 3.59820E-03 5.26707E-01 4.39966E-14-2.62151E-13
 -1      3891 1.87802E+01 7.19450E-01-5.32990E-03 8.27987E-01 4.19173E-14-2.54690E-13
 -1      3892 1.86950E+01 6.90147E-01 2.98945E-03 9.32011E-01 1.65576E-14-1.52086E-13
 -1      3893 1.86922E+01 8.12179E-01 4.07794E-03 6.79124E-01 1.41469E-13-2.54846E-13
 -1      3894 1.85216E+01 6.31077E-01-6.75856E-03 1.05564E+00 6.52434E-14-1.05275E-13
 -1      3895 1.84477E+01 5.50978E-01 5.37876E-03 1.19017E+00 1.40250E-13 1.70643E-14
 -1      3896 1.83836E+01 7.69888E-01 4.46695E-03 8.82939E-01 7.30052E-14-7.67971E-14
 -1      3897 1.82519E+01 4.28138E-01-8.33222E-03 1.35947E+00 4.56012E-14-1.22119E-14
 -1      3898 1.82104E+01 2.73491E-01 9.05258E-03 1.53777E+00 2.25703E-14-1.34778E-14
 -1      3899 1.80324E+01 6.32818E-01 4.41031E-03 1.16265E+00 8.64963E-14-6.47810E-14
 -1      3900 1.80006E+01 6.45807E-02-7.19113E-03 1.77591E+00 5.38000E-15-4.63734E-14
 -1      3901 1.80261E+01-2.05889E-01 1.42558E-02 2.01441E+00 5.67870E-14-1.12658E-13
 -1      3902 1.76423E+01 3.51488E-01 1.52832E-03 1.55712E+00-4.09621E-14-4.62260E-14
 -1      3903 1.99912E+01 8.01106E-02 2.35742E-04-6.95924E-02-9.72146E-14-6.45465E-14
 -1      3904 1.99998E+01 5.94197E-02-4.36695E-04-6.31806E-02-1.05140E-13-7.90673E-14
 -1      3905 2.00127E+01 4.07055E-02 2.64387E-04-5.94408E-02-9.57448E-14 7.00939E-15
 -1      3906 2.00202E+01 2.29551E-02-3.19051E-04-5.60638E-02-1.47615E-14 4.22061E-15
 -1      3907 2.00051E+01 5.43722E-02 1.57323E-04-5.22965E-02-6.40431E-14-2.60332E-14
 -1      3908 2.00503E+01-2.23253E-02 3.16754E-04-5.44373E-02 4.84343E-15-5.53465E-14
 -1      3909 2.00579E+01-3.55146E-02-1.23436E-04-5.58456E-02 2.88898E-15-5.43428E-14
 -1      3910 1.99651E+01 1.26240E-01 2.03344E-04-8.59195E-02-6.51855E-14-8.35329E-14
 -1      3911 1.99758E+01 1.01995E-01-5.78853E-04-7.60020E-02-6.49099E-14-1.03995E-13
 -1      3912 1.99787E+01 9.82993E-02 3.27237E-04-6.19917E-02-9.49723E-14-1.03529E-13
 -1      3913 1.99316E+01 1.80375E-01 1.62663E-04-1.09324E-01-5.11974E-14-1.28164E-13
 -1      3914 1.99457E+01 1.51924E-01-7.50498E-04-9.53898E-02-3.42995E-14-6.50471E-14
 -1      3915 1.99463E+01 1.49710E-01 5.30707E-04-7.69584E-02-5.52552E-14-1.71776E-13
 -1      3916 1.98877E+01 2.43739E-01 1.07168E-04-1.40760E-01 1.08509E-14-1.88371E-13
 -1      3917 1.99067E+01 2.10484E-01-9.56436E-04-1.22274E-01 1.61435E-14-8.92066E-14
 -1      3918 1.99047E+01 2.09920E-01 7.77863E-04-9.79035E-02-3.44679E-14-1.03263E-13
 -1      3919 1.98296E+01 3.17270E-01 2.86910E-05-1.81183E-01-1.09917E-13-1.28511E-13
 -1      3920 1.98551E+01 2.78790E-01-1.20124E-03-1.57616E-01-1.29542E-13-1.93463E-13
 -1      3921 1.98505E+01 2.80111E-01 1.08037E-03-1.25533E-01-1.36313E-14-1.34139E-13
 -1      3922 1.97528E+01 4.01317E-01-8.16584E-05-2.31475E-01-7.48699E-14 5.77913E-14
 -1      3923 1.97871E+01 3.57529E-01-1.48979E-03-2.02346E-01-7.92448E-14 7.58068E-15
 -1      3924 1.97792E+01 3.61082E-01 1.45160E-03-1.60494E-01-2.03492E-13-7.93563E-14
 -1      3925 1.96521E+01 4.95234E-01-2.31418E-04-2.92368E-01-1.25596E-13 1.55762E-13
 -1      3926 1.96976E+01 4.46613E-01-1.82881E-03-2.57287E-01-3.81635E-14 1.24823E-13
 -1      3927 1.96860E+01 4.52912E-01 1.90707E-03-2.03295E-01-1.20745E-13 1.77979E-13
 -1      3928 1.95214E+01 5.96839E-01-4.22658E-04-3.64415E-01 2.46240E-14 9.54894E-14
 -1      3929 1.95810E+01 5.44699E-01-2.23057E-03-3.23091E-01-1.04432E-13 7.01131E-14
 -1      3930 1.95649E+01 5.54537E-01 2.46553E-03-2.54243E-01-5.76021E-14 5.20310E-14
 -1      3931 1.93534E+01 7.01703E-01-6.44593E-04-4.48086E-01 3.75970E-14 5.78793E-14
 -1      3932 1.94305E+01 6.48571E-01-2.72032E-03-4.00260E-01 1.14104E-13 6.30604E-14
 -1      3933 1.94090E+01 6.63216E-01 3.15140E-03-3.13437E-01 9.28218E-14 6.58093E-14
 -1      3934 1.91402E+01 8.02255E-01-8.60921E-04-5.44179E-01-2.58709E-14 1.81552E-13
 -1      3935 1.92383E+01 7.52322E-01-3.35043E-03-4.89370E-01 1.24658E-14 1.45562E-13
 -1      3936 1.92100E+01 7.73889E-01 3.99998E-03-3.80927E-01-1.96025E-14 1.87468E-13
 -1      3937 1.88724E+01 8.86685E-01-9.86572E-04-6.54810E-01-2.02398E-13 1.48615E-13
 -1      3938 1.89949E+01 8.46350E-01-4.22526E-03-5.91716E-01-1.35364E-13 1.58277E-13
 -1      3939 1.89582E+01 8.78471E-01 5.06827E-03-4.57212E-01-1.21495E-13 2.07966E-13
 -1      3940 1.85397E+01 9.37584E-01-8.33251E-04-7.85458E-01-1.60368E-13 7.50627E-15
 -1      3941 1.86895E+01 9.16117E-01-5.53922E-03-7.10769E-01-1.91549E-13 3.21835E-14
 -1      3942 1.86412E+01 9.65126E-01 6.45726E-03-5.44408E-01-9.32336E-14 4.84519E-14
 -1      3943 1.81303E+01 9.29777E-01-1.54013E-04-9.48820E-01-3.92548E-14-4.71148E-14
 -1      3944 1.83086E+01 9.40523E-01-7.61391E-03-8.55165E-01-1.11944E-13 7.98781E-15
 -1      3945 1.82427E+01 1.01756E+00 8.33763E-03-6.48703E-01-7.81120E-14 2.99904E-14
 -1      3946 1.76304E+01 8.26434E-01 1.00344E-03-1.17039E+00 3.68146E-14-1.23683E-13
 -1      3947 1.78364E+01 8.88751E-01-1.09504E-02-1.04308E+00 3.31422E-14-1.09797E-13
 -1      3948 1.77402E+01 1.01277E+00 1.08950E-02-7.85271E-01 4.53393E-14-9.93377E-14
 -1      3949 1.70095E+01 5.72315E-01-3.82549E-04-1.49998E+00-8.68631E-14-1.75086E-13
 -1      3950 1.72503E+01 7.22719E-01-1.54027E-02-1.30614E+00 2.40514E-15-1.74897E-13
 -1      3951 1.71074E+01 9.20542E-01 1.64288E-02-9.80038E-01 4.82978E-14-2.98588E-13
 -1      3952 2.03358E+01 6.31143E-01-7.17710E-04 1.21082E-01 1.35199E-13-9.16046E-14
 -1      3953 2.03384E+01 1.19895E-01-8.59588E-04-7.18118E-02 4.40097E-14-9.73368E-14
 -1      3954 2.03583E+01 1.91827E-01 1.06122E-03-4.91234E-02 7.50978E-14-4.79331E-14
 -1      3955 2.03575E+01 1.05979E-01-1.57527E-04-6.10671E-02 3.62847E-14-2.78886E-14
 -1      3956 2.01463E+01-9.35603E-02 3.35474E-04-8.38935E-02-2.06815E-14-6.37618E-14
 -1      3957 2.01610E+01-9.50057E-02 2.04923E-04-8.89617E-02 9.47636E-15-5.42922E-14
 -1      3958 2.00318E+01 6.85742E-03 2.91394E-04-5.46408E-02 3.56380E-14-1.17337E-14
 -1      3959 2.00389E+01-8.45112E-03-2.21557E-04-5.38650E-02 5.17095E-14 5.14321E-15
 -1      3960 2.00279E+01 1.66830E-02 1.24135E-05-4.72024E-02 9.12743E-16 3.67818E-14
 -1      3961 2.03901E+01 6.32882E-01-3.48227E-04-7.26550E-02-2.21360E-15-2.15125E-13
 -1      3962 2.03908E+01 4.86683E-01-1.99929E-03-2.41868E-02-3.48917E-15-2.05265E-13
 -1      3963 1.34585E+01 6.23425E-01 5.89396E-02-2.22745E-02-7.56556E-14-3.65687E-13
 -1      3964 1.40502E+01 4.00427E-01-1.26798E-02-1.07949E+00-1.75572E-13-3.63015E-13
 -1      3965 2.03391E+01 5.02255E-02 6.28572E-04 7.10870E-02-3.21249E-14-1.32790E-13
 -1      3966 2.03173E+01 5.74334E-03-2.90765E-04 8.02657E-02-2.01686E-14-1.44944E-13
 -1      3967 2.03279E+01-6.48664E-03-3.98465E-04 6.25322E-02-7.09759E-15-9.83470E-14
 -1      3968 2.03755E+01 1.75471E-01 8.03356E-04 4.51698E-02-5.15034E-14-1.18966E-13
 -1      3969 2.03562E+01 1.05546E-01-7.00095E-04 6.34376E-02-4.12662E-14-1.44666E-13
 -1      3970 2.03692E+01 8.93991E-02-1.36493E-04 5.06336E-02-3.47899E-14-1.09176E-13
 -1      3971 2.03983E+01 3.62732E-01 1.10832E-03-1.09667E-03-2.39716E-14-1.88978E-13
 -1      3972 2.03843E+01 2.59354E-01-1.29606E-03 2.95215E-02-4.04790E-14-1.49657E-13
 -1      3973 2.03995E+01 2.38930E-01 3.25112E-04 2.61621E-02-3.69262E-14-1.24597E-13
 -1      3974 2.04101E+01 4.53877E-01-4.48495E-04-1.28903E-02-2.53011E-15-2.40335E-13
 -1      3975 2.03717E+01 9.98842E-01 4.78548E-03-3.95554E-02 1.27295E-14-2.12016E-13
 -1      3976 2.03172E+01 1.17994E+00-3.24712E-03-7.68830E-02 3.54747E-14-2.15877E-13
 -1      3977 2.01802E+01-9.35330E-02 2.60609E-04-9.36559E-02 1.80601E-14-6.00063E-14
 -1      3978 2.01973E+01-8.85275E-02 3.32922E-04-9.74676E-02 1.24667E-14-8.86740E-14
 -1      3979 2.01901E+01-9.85350E-02-5.54057E-04-7.60298E-02 7.95288E-15-1.05306E-13
 -1      3980 2.02670E+01 1.37327E+00-1.61866E-03-2.25524E-01 3.95743E-14-2.06841E-13
 -1      3981 2.00711E+01-4.36459E-02-3.31251E-04-4.84560E-02-1.93248E-14-9.30605E-14
 -1      3982 2.00697E+01-4.73314E-02 3.30791E-04-5.80275E-02 1.55001E-15-8.24872E-14
 -1      3983 2.00785E+01-5.84392E-02-1.25556E-05-6.10923E-02-1.68948E-14-5.50806E-14
 -1      3984 2.03658E+01 2.78163E-01-1.50103E-03-2.78623E-02 7.17583E-14-5.48431E-14
 -1      3985 2.03814E+01 3.83041E-01 9.20568E-04 1.09897E-02 9.56987E-14-4.76676E-14
 -1      3986 2.03871E+01 2.61412E-01 3.57627E-04-2.73805E-02 8.82606E-14-4.88015E-14
 -1      3987 2.03036E+01 1.24989E+00 5.80626E-04-1.35619E-01 2.08099E-14-2.34844E-13
 -1      3988 2.02591E+01-4.56875E-02-6.06357E-05-1.02343E-01-5.76732E-14-1.35100E-13
 -1      3989 2.02804E+01-1.82483E-02 6.63579E-04-9.84945E-02-5.20009E-14-1.42605E-13
 -1      3990 2.03174E+01 5.57803E-03-4.03842E-04-7.82093E-02-1.23944E-14-5.35737E-14
 -1      3991 2.00494E+01-1.57770E-02-1.15693E-04-4.60922E-02 6.77381E-15-6.03238E-14
 -1      3992 2.03604E+01 6.17232E-01-1.76621E-05 9.30521E-02 1.08513E-13-7.23649E-14
 -1      3993 1.66066E+01 4.31336E-01-2.44306E-02-1.63334E+00-1.89418E-13-2.22126E-13
 -1      3994 1.63759E+01 7.79142E-01 3.09428E-02-1.20355E+00-1.40538E-13-2.75748E-13
 -1      3995 1.64134E+01 2.84540E-01 3.62887E-03-1.80913E+00-1.34438E-13-1.84978E-13
 -1      3996 2.01981E+01-7.11082E-02-5.52917E-04-1.19048E-01-2.69194E-14-5.12917E-14
 -1      3997 1.43349E+01 5.36565E-01 2.07488E-02 6.88093E-01-2.70418E-14-5.87638E-14
 -1      3998 2.01292E+01-8.99139E-02 9.00148E-05-7.90649E-02-6.83816E-14-5.72960E-14
 -1      3999 2.01540E+01-9.63908E-02-4.95719E-04-6.81226E-02-4.81032E-14-3.80906E-14
 -1      4000 2.01171E+01-8.41800E-02 4.07765E-04-7.39019E-02-9.15509E-14-2.54502E-14
 -1      4001 1.73031E+01-2.28634E-01-6.19607E-03 2.19898E+00 7.85535E-14-9.75507E-14
 -1      4002 2.00821E+01-6.92873E-02-3.22813E-04-7.76292E-02-4.01854E-14-3.08556E-14
 -1      4003 2.03722E+01 8.26185E-01-3.85325E-04-9.66296E-02 6.78516E-15-2.27060E-13
 -1      4004 2.03891E+01 7.75698E-01-1.34072E-04-6.34042E-02 2.15204E-14-2.53011E-13
 -1      4005 1.50812E+01 6.54652E-01-1.88773E-02-8.80958E-01-1.95515E-13-3.10711E-13
 -1      4006 1.51135E+01 4.04561E-01 3.15261E-02-1.57050E+00-2.10619E-13-2.15272E-13
 -1      4007 2.03920E+01 8.01722E-01-2.67555E-03-9.59443E-03 7.78308E-15-2.13257E-13
 -1      4008 2.03915E+01 7.90110E-01-2.36020E-03-4.18371E-02 1.63069E-14-2.30599E-13
 -1      4009 2.04196E+01 6.15464E-01 3.65522E-03-2.79968E-02 2.68693E-14-2.40852E-13
 -1      4010 1.67348E+01-1.86865E-01 1.89008E-02 2.25305E+00 1.29659E-13-1.05543E-13
 -1      4011 1.57107E+01-1.31122E-01 1.26245E-02 2.31169E+00 1.96084E-14-2.00546E-13
 -1      4012 1.53740E+01 2.05705E-01-1.73801E-02 1.80641E+00 1.37687E-14-4.69260E-14
 -1      4013 1.68187E+01 1.71194E-01-9.67655E-03 1.82197E+00 7.69655E-14-1.53389E-13
 -1      4014 2.03913E+01 7.88152E-01-2.24402E-03 4.60946E-02 5.49420E-14-1.66624E-13
 -1      4015 2.03931E+01 8.00440E-01-2.21068E-03 1.29859E-02 2.85332E-14-1.97281E-13
 -1      4016 2.04285E+01 6.30722E-01 4.23063E-03 6.70393E-03 2.25330E-14-1.69978E-13
 -1      4017 2.66116E+01 5.31920E+00-2.64343E-01 8.97591E-01-5.36515E-14 9.34367E-13
 -1      4018 1.55038E+01-4.93297E-03 2.24994E-03-2.14683E+00-8.48904E-14-1.06269E-14
 -1      4019 2.03091E+01-5.30008E-02 3.35726E-04 4.47473E-02-7.32501E-15-1.09714E-13
 -1      4020 2.02863E+01-7.38379E-02 3.28143E-04 4.65325E-02-3.58036E-14-1.63301E-13
 -1      4021 2.02625E+01-8.87701E-02 2.98428E-04 4.44894E-02-2.68420E-14-1.48724E-13
 -1      4022 2.02404E+01-9.78243E-02 2.35828E-04 4.38495E-02-4.02957E-14-1.30911E-13
 -1      4023 2.02831E+01-8.22221E-02-8.58308E-04 2.53184E-02-3.64582E-14-1.44640E-13
 -1      4024 2.02182E+01-1.02492E-01 2.93738E-04 4.21519E-02-1.72648E-14-1.29801E-13
 -1      4025 2.01986E+01-1.03501E-01 4.06923E-04 4.04149E-02 1.86338E-14-1.20477E-13
 -1      4026 2.02360E+01-1.01658E-01-7.54061E-04 2.41915E-02-3.10556E-14-1.67789E-13
 -1      4027 2.01780E+01-1.01680E-01 2.05545E-04 3.77463E-02-1.22923E-15-1.56571E-13
 -1      4028 2.01602E+01-9.69198E-02 2.91814E-04 3.55248E-02-3.49959E-14-1.71953E-13
 -1      4029 2.01950E+01-1.05452E-01-7.11185E-04 2.16464E-02 1.12304E-14-2.71134E-13
 -1      4030 2.01422E+01-9.00888E-02 1.79963E-04 3.35070E-02-4.47340E-14-1.54488E-13
 -1      4031 2.01266E+01-8.14310E-02 2.66946E-04 3.13608E-02-5.96757E-14-1.40936E-13
 -1      4032 2.01562E+01-9.59309E-02-6.34585E-04 1.95404E-02-1.62917E-14-1.84559E-13
 -1      4033 2.01105E+01-7.12616E-02 9.07586E-05 2.98050E-02-7.05273E-14-1.36207E-13
 -1      4034 2.00972E+01-5.96322E-02 3.28268E-04 2.82581E-02-4.60717E-14-1.36147E-13
 -1      4035 2.01224E+01-7.82692E-02-4.95086E-04 1.72736E-02-4.74982E-14-1.06258E-13
 -1      4036 2.00824E+01-4.70413E-02 4.94468E-06 2.68255E-02-1.31154E-14-1.28574E-13
 -1      4037 2.00702E+01-3.28865E-02 2.38064E-04 2.60639E-02-3.31182E-14-1.08734E-13
 -1      4038 2.00930E+01-5.50632E-02-4.00466E-04 1.52946E-02-1.23540E-14-1.38756E-13
 -1      4039 2.00563E+01-1.77847E-02-6.29247E-05 2.54813E-02-4.71246E-14-1.18336E-13
 -1      4040 2.00446E+01-1.26672E-03 1.85973E-04 2.58107E-02 1.61998E-14-1.06040E-13
 -1      4041 2.00652E+01-2.58492E-02-2.57564E-04 1.45269E-02-8.29184E-15-1.32601E-13
 -1      4042 2.00306E+01 1.62066E-02-1.78242E-04 2.60003E-02-8.34072E-15-9.22365E-14
 -1      4043 2.00185E+01 3.53414E-02 1.26637E-04 2.76535E-02 6.12886E-15-1.02674E-13
 -1      4044 2.00387E+01 8.30095E-03-6.51302E-06 1.47875E-02-2.03647E-14-1.99146E-13
 -1      4045 2.00033E+01 5.55544E-02-3.10248E-04 2.87780E-02-3.70188E-14-1.58355E-13
 -1      4046 1.99898E+01 7.77428E-02 6.41606E-05 3.20194E-02-7.59401E-14-2.20312E-13
 -1      4047 2.00110E+01 4.79270E-02 2.90062E-04 1.62916E-02-5.76715E-14-2.52403E-13
 -1      4048 1.99719E+01 1.01180E-01-4.67254E-04 3.42736E-02-2.78958E-14-2.50341E-13
 -1      4049 1.99558E+01 1.26978E-01-2.87820E-06 3.94066E-02-6.55861E-14-2.40313E-13
 -1      4050 1.99798E+01 9.39017E-02 6.35991E-04 1.93650E-02-3.89690E-14-3.05849E-13
 -1      4051 1.99339E+01 1.54190E-01-6.56150E-04 4.30418E-02-9.70366E-14-2.14693E-13
 -1      4052 1.99137E+01 1.84172E-01-7.56207E-05 5.04229E-02-1.13507E-13-2.16217E-13
 -1      4053 1.99424E+01 1.47354E-01 1.04436E-03 2.43793E-02-6.53550E-14-1.94968E-13
 -1      4054 1.98859E+01 2.15665E-01-8.84406E-04 5.57724E-02-6.68646E-14-1.62924E-13
 -1      4055 1.98600E+01 2.50308E-01-1.54420E-04 6.58293E-02-9.07150E-14-8.93212E-14
 -1      4056 1.98956E+01 2.09464E-01 1.53134E-03 3.18127E-02-4.12486E-14-2.35891E-13
 -1      4057 1.98243E+01 2.86413E-01-1.16062E-03 7.33380E-02-1.50223E-13-4.74827E-14
 -1      4058 1.97910E+01 3.25948E-01-2.37860E-04 8.65922E-02-1.40841E-13-7.04911E-14
 -1      4059 1.98356E+01 2.81227E-01 2.11485E-03 4.23013E-02-7.11865E-14-1.90175E-13
 -1      4060 1.97452E+01 3.66652E-01-1.49538E-03 9.68557E-02-9.96641E-14-1.07934E-13
 -1      4061 1.97026E+01 4.10877E-01-3.21373E-04 1.13956E-01-5.16908E-14-1.19257E-13
 -1      4062 1.97584E+01 3.63158E-01 2.81452E-03 5.67065E-02-1.65725E-13-1.39457E-13
 -1      4063 1.96440E+01 4.55609E-01-1.90301E-03 1.27778E-01-8.97688E-14-9.94521E-14
 -1      4064 1.95899E+01 5.03663E-01-3.95319E-04 1.49558E-01-1.34763E-13-9.47281E-14
 -1      4065 1.96593E+01 4.54934E-01 3.65309E-03 7.62106E-02-9.53384E-14-2.23392E-13
 -1      4066 1.95157E+01 5.51029E-01-2.40514E-03 1.68035E-01-1.99971E-13-1.30155E-13
 -1      4067 1.94482E+01 6.01117E-01-4.42279E-04 1.95607E-01-2.14563E-13-1.30829E-13
 -1      4068 1.95330E+01 5.54960E-01 4.66029E-03 1.02460E-01-1.86690E-13-2.89386E-13
 -1      4069 1.93550E+01 6.48591E-01-3.03741E-03 2.20264E-01-1.86599E-13-1.78258E-13
 -1      4070 1.92720E+01 6.97681E-01-4.33171E-04 2.55194E-01-1.62261E-13-1.87019E-13
 -1      4071 1.93737E+01 6.59874E-01 5.88129E-03 1.37785E-01-2.23200E-13-1.44638E-13
 -1      4072 1.91562E+01 7.41260E-01-3.86155E-03 2.88194E-01-1.64777E-13-7.30798E-14
 -1      4073 1.90561E+01 7.84774E-01-3.21714E-04 3.32796E-01-1.07579E-13-8.37337E-14
 -1      4074 1.91749E+01 7.64023E-01 7.39291E-03 1.85534E-01-1.19075E-13-1.24887E-13
 -1      4075 1.89130E+01 8.18612E-01-4.98652E-03 3.77282E-01-3.70890E-14-1.09141E-14
 -1      4076 1.87944E+01 8.50142E-01-3.66277E-05 4.35123E-01 7.99862E-14-8.20682E-14
 -1      4077 1.89293E+01 8.58992E-01 9.33032E-03 2.50611E-01 3.72163E-15 1.16603E-13
 -1      4078 1.86182E+01 8.66209E-01-6.60342E-03 4.95780E-01 7.14458E-14-9.41663E-14
 -1      4079 1.84805E+01 8.77264E-01 5.33727E-04 5.72543E-01 8.74501E-14-1.02987E-13
 -1      4080 1.86278E+01 9.33243E-01 1.19194E-02 3.40306E-01 4.53082E-14 1.94396E-13
 -1      4081 1.82622E+01 8.65059E-01-9.02169E-03 6.56635E-01 4.02821E-14-9.67592E-14
 -1      4082 1.81065E+01 8.44727E-01 1.67553E-03 7.61499E-01 2.69046E-14-1.25119E-13
 -1      4083 1.82582E+01 9.71880E-01 1.54436E-02 4.65598E-01-2.99023E-16-2.60935E-14
 -1      4084 1.78328E+01 7.90413E-01-1.26703E-02 8.81271E-01 8.27273E-14-6.20884E-14
 -1      4085 1.76617E+01 7.23036E-01 3.22804E-03 1.02928E+00 8.12190E-14-1.05274E-13
 -1      4086 1.78004E+01 9.55546E-01 1.94946E-02 6.43247E-01 6.22411E-14-1.08307E-13
 -1      4087 1.73175E+01 6.23651E-01-1.30387E-02 1.20251E+00 9.30327E-15-1.28339E-13
 -1      4088 1.71412E+01 4.85720E-01 1.06582E-02 1.42075E+00-3.68152E-15-1.07519E-13
 -1      4089 1.72193E+01 8.42931E-01 1.65845E-02 8.94835E-01 2.07430E-15-1.08646E-13
 -1      4090 1.99287E+01 1.68555E-01-1.15612E-04-6.34279E-02-1.08044E-13-1.02460E-13
 -1      4091 1.99469E+01 1.39884E-01-5.59844E-04-5.52545E-02-4.49755E-14-1.01269E-13
 -1      4092 2.03329E+01 1.09518E+00-2.05828E-04-1.60347E-01 3.33270E-14-2.35473E-13
 -1      4093 1.99669E+01 1.13674E-01-7.85253E-06-5.08001E-02-1.79905E-14-7.80781E-14
 -1      4094 1.99813E+01 8.91572E-02-4.06684E-04-4.51021E-02-2.86006E-14 2.33875E-14
 -1      4095 1.99532E+01 1.33713E-01 8.15073E-04-3.73536E-02-3.45672E-14-3.25203E-14
 -1      4096 1.98159E+01 3.07127E-01-4.17791E-04-1.02861E-01-5.49321E-14 1.11657E-14
 -1      4097 1.98471E+01 2.68375E-01-9.60745E-04-8.89416E-02 6.87715E-14 1.82929E-14
 -1      4098 1.97327E+01 3.92475E-01-6.34495E-04-1.30377E-01-2.41701E-13 1.27678E-15
 -1      4099 1.97737E+01 3.48221E-01-1.21862E-03-1.13305E-01-1.67586E-13-3.67407E-14
 -1      4100 1.97820E+01 3.44048E-01 2.42281E-03-7.38019E-02-1.13008E-13 5.17439E-14
 -1      4101 1.96246E+01 4.88459E-01-9.13676E-04-1.63273E-01-1.68766E-13-1.92180E-14
 -1      4102 1.96782E+01 4.38968E-01-1.52262E-03-1.43012E-01-2.23995E-13-5.25579E-14
 -1      4103 1.96881E+01 4.35800E-01 3.19116E-03-9.19885E-02-2.05129E-13-1.19932E-13
 -1      4104 1.94850E+01 5.93523E-01-1.27219E-03-2.01347E-01 6.25152E-14-6.15805E-15
 -1      4105 1.95545E+01 5.39766E-01-1.88276E-03-1.78017E-01-2.79581E-14 6.32123E-14
 -1      4106 1.95670E+01 5.38047E-01 4.12000E-03-1.12766E-01-1.19331E-13-8.26205E-14
 -1      4107 1.93066E+01 7.04291E-01-1.72927E-03-2.44088E-01 3.64555E-14 1.33077E-13
 -1      4108 1.93958E+01 6.48218E-01-2.31875E-03-2.17958E-01 6.80721E-14 1.25215E-13
 -1      4109 1.94117E+01 6.48715E-01 5.25013E-03-1.35354E-01-3.63934E-15 3.36363E-15
 -1      4110 1.90801E+01 8.14983E-01-2.30806E-03-2.90804E-01-1.18910E-13 2.76321E-13
 -1      4111 1.91937E+01 7.59814E-01-2.87152E-03-2.62176E-01-8.82228E-15 2.51640E-13
 -1      4112 1.92143E+01 7.63840E-01 6.64631E-03-1.58524E-01-5.48524E-14 2.84111E-13
 -1      4113 1.87943E+01 9.16839E-01-3.04145E-03-3.41042E-01-7.67745E-14 1.61808E-13
 -1      4114 1.89380E+01 8.67332E-01-3.62456E-03-3.09930E-01-7.26440E-14 2.25936E-13
 -1      4115 1.89651E+01 8.77127E-01 8.41975E-03-1.80635E-01-3.17846E-14 3.56239E-13
 -1      4116 1.84345E+01 9.97656E-01-3.98769E-03-3.95558E-01-9.54787E-14 1.14013E-13
 -1      4117 1.86154E+01 9.60300E-01-4.74177E-03-3.60979E-01-6.92582E-14 1.36434E-13
 -1      4118 1.86517E+01 9.79661E-01 1.07672E-02-1.99856E-01-2.73845E-14 1.36191E-13
 -1      4119 1.79792E+01 1.04161E+00-5.25085E-03-4.58335E-01 1.43740E-14 1.08133E-15
 -1      4120 1.82075E+01 1.02469E+00-6.52702E-03-4.16796E-01-1.74226E-14 9.54527E-14
 -1      4121 1.82569E+01 1.05996E+00 1.40327E-02-2.14632E-01-2.92781E-14 6.11581E-14
 -1      4122 1.73977E+01 1.03004E+00-6.06830E-03-5.40718E-01 8.12826E-14-1.07499E-13
 -1      4123 1.76856E+01 1.04367E+00-9.39288E-03-4.83396E-01-1.24960E-14-2.01621E-14
 -1      4124 1.77542E+01 1.10470E+00 1.87399E-02-2.24394E-01-8.83993E-15-1.35686E-14
 -1      4125 1.66345E+01 9.26336E-01-9.69648E-03-6.70107E-01 7.71280E-14-1.33534E-13
 -1      4126 1.70041E+01 9.88090E-01-1.59341E-02-5.82209E-01 1.72769E-13-4.73985E-14
 -1      4127 1.70910E+01 1.10048E+00 2.38422E-02-2.34563E-01 1.12213E-13 7.56045E-14
 -1      4128 2.00239E+01 2.65035E-02 1.59633E-04-3.74058E-02-1.98458E-14 8.32204E-14
 -1      4129 2.00347E+01 8.39869E-03-1.67614E-04-3.57962E-02-3.27590E-14 6.68339E-14
 -1      4130 2.03679E+01 7.97752E-02-5.27214E-04-5.27668E-02 1.83459E-14-7.79172E-14
 -1      4131 2.03882E+01 1.44905E-01 8.70959E-04-3.87872E-02 5.58445E-14-8.34768E-14
 -1      4132 1.98797E+01 2.32681E-01-2.48934E-04-8.06424E-02 3.65890E-14-5.08993E-14
 -1      4133 1.99034E+01 1.99219E-01-7.42839E-04-6.97154E-02-1.10742E-13-7.12258E-14
 -1      4134 1.99099E+01 1.93644E-01 1.25671E-03-4.64805E-02-1.11518E-13-3.90377E-14
 -1      4135 1.98542E+01 2.63440E-01 1.78581E-03-5.85989E-02-4.95757E-14-3.66254E-14
 -1      4136 1.99976E+01 6.67507E-02 8.20505E-05-4.22863E-02-5.27113E-14 1.79277E-14
 -1      4137 2.00096E+01 4.57309E-02-2.77892E-04-3.87745E-02 3.50699E-15 7.93798E-14
 -1      4138 1.99879E+01 8.23982E-02 4.42657E-04-3.10104E-02-2.37068E-14 4.63358E-14
 -1      4139 1.50737E+01 8.13389E-01 2.56981E-02-2.59436E-01-4.43764E-14-1.98749E-13
 -1      4140 1.57602E+01 7.89006E-01-1.40346E-03-7.39861E-01-9.00002E-14-2.25946E-13
 -1      4141 1.61219E+01 8.54483E-01-1.49598E-02-6.71384E-01-2.33897E-14-2.50675E-13
 -1      4142 2.03570E+01 9.55509E-01 7.07095E-04-1.27212E-01 2.47252E-14-2.26855E-13
 -1      4143 2.02182E+01-7.96075E-02 1.55545E-04-1.00718E-01-3.68185E-15-1.05183E-13
 -1      4144 2.02377E+01-6.54487E-02 4.90220E-04-1.01771E-01-3.37443E-14-1.12760E-13
 -1      4145 2.02302E+01-8.65672E-02-5.44412E-04-8.20420E-02-1.60300E-14-1.59885E-13
 -1      4146 2.04212E+01 4.67643E-01-6.57672E-04-4.94369E-03 1.83637E-14-2.21384E-13
 -1      4147 2.03936E+01 1.22944E-01 1.64049E-04 2.95165E-02-3.63057E-14-8.05939E-14
 -1      4148 2.03752E+01 6.23019E-02 1.16130E-05 3.98983E-02-2.50242E-14-9.10188E-14
 -1      4149 2.03545E+01 1.35751E-02 3.03522E-04 4.04864E-02-1.73136E-14-8.56926E-14
 -1      4150 2.03325E+01-2.39986E-02 2.22830E-04 4.57873E-02 1.20751E-14-7.35863E-14
 -1      4151 2.03297E+01-3.76302E-02-1.09007E-03 2.46458E-02-4.30191E-14-1.32112E-13
 -1      4152 2.00480E+01-8.16311E-03 2.29131E-04-3.56939E-02-5.45210E-14-1.52488E-16
 -1      4153 2.00587E+01-2.37570E-02-6.00008E-05-3.57310E-02-5.88201E-14-6.04338E-14
 -1      4154 2.00431E+01 5.16531E-04-1.49509E-04-2.55729E-02-8.14745E-14-1.51561E-14
 -1      4155 1.50652E+01 5.28225E-01 1.61674E-02 1.30504E+00-9.57567E-15 1.01048E-15
 -1      4156 1.48432E+01 7.17939E-01-1.08602E-02 3.20634E-01-3.67935E-14-6.95017E-14
 -1      4157 1.55434E+01 8.31665E-01-9.39218E-03 3.58969E-01 1.02883E-13 1.24875E-13
 -1      4158 1.59242E+01 4.79688E-01 2.09789E-02 1.38621E+00 3.39650E-14-5.66250E-14
 -1      4159 2.00918E+01-6.83214E-02 3.95555E-04-6.49137E-02-9.53151E-15-6.51592E-14
 -1      4160 2.01019E+01-7.71349E-02-1.16137E-05-6.93842E-02-3.31996E-14-5.75747E-14
 -1      4161 2.01226E+01-8.51904E-02-5.08959E-04-6.02868E-02-2.58911E-14-7.41005E-14
 -1      4162 2.00957E+01-6.73196E-02-4.33318E-04-5.35908E-02 1.70344E-14-1.20268E-13
 -1      4163 2.03757E+01 7.23424E-01-2.02149E-03 1.05611E-01 9.16074E-14-1.15353E-13
 -1      4164 2.03845E+01 7.86140E-01-1.04933E-03 7.11501E-02 6.48040E-14-1.59123E-13
 -1      4165 2.00723E+01-3.80531E-02 3.07710E-04-3.66872E-02-2.21321E-14-5.87928E-14
 -1      4166 2.00842E+01-5.13151E-02 1.98602E-04-3.83592E-02-1.58657E-14-1.06744E-13
 -1      4167 2.00688E+01-3.20227E-02-3.50489E-04-2.57972E-02-5.07734E-14-9.79545E-14
 -1      4168 1.65340E+01 4.82460E-01-3.85339E-03 1.45327E+00 4.57817E-14-1.10993E-13
 -1      4169 2.03980E+01 2.23121E-01-1.18284E-03-3.12463E-02 6.25052E-14-8.40277E-14
 -1      4170 2.04142E+01 3.19184E-01 1.21821E-03-6.64137E-03 6.10121E-14-1.19586E-13
 -1      4171 2.04072E+01 1.98857E-01-4.38590E-04-2.34183E-02 5.57877E-14-1.28537E-13
 -1      4172 2.02735E+01-5.48304E-02-5.16929E-04-8.37934E-02-3.94060E-14-7.80043E-14
 -1      4173 2.04149E+01 6.25763E-01 3.36961E-03 3.92816E-02 7.53783E-14-1.28820E-13
 -1      4174 2.03271E+01-1.21100E-02-1.26493E-04-6.28446E-02-1.28413E-14-6.49667E-14
 -1      4175 2.03501E+01 2.87930E-02 7.62177E-04-5.57626E-02-7.06004E-15-6.85158E-14
 -1      4176 2.03737E+01 6.13922E-02-9.20184E-04-3.73423E-02 3.13080E-14-1.22645E-13
 -1      4177 1.62326E+01 9.91866E-01 2.14635E-02-2.47848E-01 1.39120E-13 5.66591E-14
 -1      4178 2.00169E+01 3.83877E-02 1.23957E-04-2.71835E-02-3.60199E-14 2.80138E-14
 -1      4179 2.03785E+01 5.07799E-01-5.38923E-04 3.87464E-02 1.07189E-13-7.03008E-14
 -1      4180 2.03980E+01 4.82160E-01-4.31986E-05 2.32184E-02 7.38600E-14-7.19677E-14
 -1      4181 2.03743E+01 4.24310E-02-9.01905E-04 2.14966E-02 9.84662E-15-9.95898E-14
 -1      4182 2.04196E+01 2.89154E-01 4.33264E-04 8.07607E-03 6.47604E-15-1.69091E-13
 -1      4183 2.04077E+01 1.98670E-01-3.29829E-04 2.68136E-02-1.67473E-14-1.26357E-13
 -1      4184 2.04104E+01 1.70525E-01-4.89958E-04 1.46782E-02 8.60700E-15-1.39744E-13
 -1      4185 2.01963E+01-1.01858E-01 1.65554E-04-5.71996E-02 1.58950E-14-6.94465E-14
 -1      4186 2.02157E+01-9.95068E-02 2.13483E-04-5.98364E-02-7.43839E-15-9.27090E-14
 -1      4187 2.04267E+01 4.24599E-01-6.59430E-04-2.47573E-03 4.32842E-14-1.99651E-13
 -1      4188 2.01600E+01-9.68015E-02 5.21005E-04-5.06786E-02-6.78040E-14-3.31198E-14
 -1      4189 2.01767E+01-1.00654E-01 3.46329E-04-5.39168E-02-5.14348E-15-5.81767E-14
 -1      4190 2.01969E+01-1.04470E-01-3.84352E-04-3.94120E-02-1.54499E-14-9.42259E-14
 -1      4191 2.04279E+01 4.42112E-01-1.13587E-03-3.92825E-03 4.93126E-14-1.61443E-13
 -1      4192 2.04296E+01 2.71214E-01 1.64122E-03 1.62336E-03 4.46425E-14-1.47760E-13
 -1      4193 2.04163E+01 1.82656E-01-2.67956E-04-7.97858E-03 4.22610E-14-1.48043E-13
 -1      4194 2.02535E+01-9.91878E-02 4.79473E-04 5.23956E-03-6.41519E-14-1.26533E-13
 -1      4195 2.02310E+01-1.05018E-01 4.70702E-04 4.39240E-03-6.33427E-14-1.68197E-13
 -1      4196 2.02005E+01-1.04817E-01 3.01451E-04-7.95546E-03-1.31246E-14-1.70669E-13
 -1      4197 2.01804E+01-1.02068E-01 3.26595E-04-7.70734E-03 2.51303E-14-1.73383E-13
 -1      4198 2.01339E+01-8.33103E-02 3.91782E-04 3.72208E-03-2.98409E-14-1.37980E-13
 -1      4199 2.01181E+01-7.31436E-02 4.13354E-04 2.87490E-03 7.41858E-15-1.16615E-13
 -1      4200 2.00966E+01-5.70755E-02 1.16380E-04-5.65407E-03-2.45429E-14-9.57441E-14
 -1      4201 2.00826E+01-4.34341E-02 2.46387E-04-5.56521E-03-4.54310E-14-1.08626E-13
 -1      4202 2.00692E+01-2.87752E-02 1.88630E-04-5.38486E-03-4.93076E-14-1.53171E-13
 -1      4203 2.00553E+01-1.29529E-02 1.27432E-04-5.23588E-03-2.89822E-14-1.68385E-13
 -1      4204 2.00420E+01 4.21453E-03 3.77652E-05-5.63259E-03-3.78123E-14-1.82984E-13
 -1      4205 2.00280E+01 2.26539E-02-2.03190E-05-5.23068E-03-5.74016E-14-1.90285E-13
 -1      4206 2.00137E+01 4.24719E-02-1.77599E-04-6.34509E-03-4.54464E-14-1.86939E-13
 -1      4207 1.99984E+01 6.39596E-02-1.95922E-04-5.54481E-03-2.97023E-14-2.13823E-13
 -1      4208 1.99819E+01 8.68968E-02-4.32970E-04-7.49979E-03-4.14806E-14-1.98303E-13
 -1      4209 1.99641E+01 1.11991E-01-3.99987E-04-6.18691E-03-6.40146E-14-2.10854E-13
 -1      4210 1.99439E+01 1.38633E-01-7.34649E-04-9.07080E-03-4.50751E-14-1.56349E-13
 -1      4211 1.99221E+01 1.67968E-01-6.40413E-04-7.10400E-03-5.58903E-14-1.44271E-13
 -1      4212 1.98965E+01 1.98922E-01-1.09434E-03-1.09692E-02-8.85703E-14-1.58886E-13
 -1      4213 1.98688E+01 2.33101E-01-9.26732E-04-8.15708E-03-6.77994E-14-1.90948E-13
 -1      4214 1.98358E+01 2.68883E-01-1.52643E-03-1.29979E-02-6.68540E-14-1.61089E-13
 -1      4215 1.98003E+01 3.08359E-01-1.26909E-03-9.07200E-03-1.46925E-13-1.67839E-13
 -1      4216 1.97574E+01 3.49252E-01-2.04795E-03-1.47884E-02-1.66584E-13-1.46354E-13
 -1      4217 1.97118E+01 3.94164E-01-1.67831E-03-9.36555E-03-1.59437E-13-1.87052E-13
 -1      4218 1.96563E+01 4.40045E-01-2.67997E-03-1.57150E-02-1.21128E-13-2.10298E-13
 -1      4219 1.95980E+01 4.90025E-01-2.16706E-03-8.24181E-03-1.29086E-13-1.94510E-13
 -1      4220 1.95267E+01 5.40152E-01-3.45109E-03-1.47820E-02-1.69327E-13-1.51750E-13
 -1      4221 1.94529E+01 5.94100E-01-2.75290E-03-4.45341E-03-1.74538E-13-1.42443E-13
 -1      4222 1.93618E+01 6.46856E-01-4.40464E-03-1.04850E-02-7.93825E-14-3.72803E-14
 -1      4223 1.92693E+01 7.02690E-01-3.46480E-03 3.87655E-03-7.05331E-14 1.60721E-14
 -1      4224 1.91539E+01 7.55318E-01-5.61231E-03-6.48131E-04-1.05193E-13 6.11074E-14
 -1      4225 1.90388E+01 8.09732E-01-4.35516E-03 1.94757E-02-3.35905E-14 1.81076E-13
 -1      4226 1.88933E+01 8.58076E-01-7.19783E-03 1.77586E-02-1.80884E-14 1.04747E-13
 -1      4227 1.87512E+01 9.06360E-01-5.51846E-03 4.61923E-02 7.30079E-14 1.11744E-13
 -1      4228 1.85677E+01 9.44676E-01-9.36969E-03 4.88344E-02-6.74401E-15 4.44368E-14
 -1      4229 1.83925E+01 9.80666E-01-7.10402E-03 8.93300E-02-3.30949E-14 4.90961E-14
 -1      4230 1.81599E+01 1.00162E+00-1.24170E-02 9.80844E-02-8.17602E-15-1.44438E-14
 -1      4231 1.79433E+01 1.01787E+00-9.20496E-03 1.56102E-01-4.36645E-14-1.10487E-14
 -1      4232 1.76449E+01 1.01329E+00-1.62992E-02 1.73380E-01-4.97287E-14 5.52825E-14
 -1      4233 1.73762E+01 1.00129E+00-1.10640E-02 2.57554E-01 2.96360E-14-2.75966E-14
 -1      4234 1.69854E+01 9.76961E-01-1.51228E-02 2.91433E-01 8.33127E-14 6.76852E-14
 -1      4235 1.66670E+01 9.25558E-01-3.15192E-03 3.95862E-01 1.00601E-13-1.60733E-16
 -1      4236 2.04114E+01 4.83284E-01-1.36066E-03 1.03597E-02 6.67394E-14-1.29207E-13
 -1      4237 2.03826E+01 5.16065E-02 2.96388E-04-9.38841E-03 1.49942E-14-1.18644E-13
 -1      4238 2.03619E+01 4.43353E-03 9.82683E-04-7.02761E-03 1.08328E-14-1.27749E-13
 -1      4239 2.02823E+01-6.62166E-02 1.14053E-04-6.50929E-02-2.55335E-14-1.13928E-13
 -1      4240 2.03055E+01-4.28861E-02 6.41878E-04-6.27663E-02-9.94952E-15-7.74165E-14
 -1      4241 2.03304E+01-2.55644E-02-1.19720E-03-4.38506E-02-6.24818E-15-1.34091E-13
 -1      4242 2.02379E+01-9.30868E-02 3.18193E-04-6.21891E-02-1.68982E-14-9.26626E-14
 -1      4243 2.02598E+01-8.24232E-02 5.38829E-04-6.29307E-02-3.04319E-14-1.09275E-13
 -1      4244 2.02383E+01-9.80547E-02-4.95499E-04-4.23345E-02-2.43210E-14-5.82526E-14
 -1      4245 1.62170E+01 7.37000E-01-1.76135E-03 9.55774E-01 6.56950E-14-9.32750E-14
 -1      4246 2.03389E+01-3.10910E-02 5.71493E-04-9.68636E-03-2.45820E-14-8.68914E-14
 -1      4247 2.03151E+01-5.90132E-02 8.97584E-04-8.38937E-03-4.80660E-14-8.70323E-14
 -1      4248 2.04227E+01 4.42624E-01-7.72390E-04 4.37177E-03 5.87783E-14-1.61653E-13
 -1      4249 2.04021E+01 1.09625E-01 9.16076E-04-4.18788E-03 4.11457E-14-1.20411E-13
 -1      4250 2.02913E+01-7.85979E-02 4.84182E-04-9.48620E-03-3.66403E-14-9.60347E-14
 -1      4251 2.02669E+01-9.25319E-02 5.12208E-04-8.88307E-03-2.90482E-14-1.05014E-13
 -1      4252 2.01024E+01-6.34696E-02-4.83401E-04-1.88436E-02-2.66551E-15-1.21968E-13
 -1      4253 2.01054E+01-6.75429E-02 1.50559E-04-3.16616E-02 1.43919E-14-1.24889E-13
 -1      4254 2.01639E+01-9.94482E-02-7.55119E-04-3.01170E-02 1.01756E-14-8.41563E-14
 -1      4255 2.01663E+01-9.76486E-02 4.96823E-04-1.34811E-03 3.19697E-14-2.02648E-13
 -1      4256 2.01473E+01-9.08998E-02 2.06083E-04-1.72952E-03-1.18329E-14-1.64361E-13
 -1      4257 2.01463E+01-9.29070E-02 8.52713E-05-4.30582E-02-2.66979E-14-8.20037E-14
 -1      4258 2.01321E+01-8.50437E-02 4.39271E-04-4.02107E-02 2.59097E-14-1.26003E-13
 -1      4259 1.60471E+01 9.27424E-01-4.67743E-03 2.78833E-01 1.88592E-13 1.34160E-13
 -1      4260 2.02843E+01-7.57040E-02-1.17107E-03-4.52016E-02-2.99315E-14-7.89036E-14
 -1      4261 2.01375E+01-8.73617E-02-5.47269E-04-1.69700E-02 9.63217E-15-1.00225E-13
 -1      4262 2.01189E+01-7.79596E-02 9.50391E-05-3.37609E-02 4.29943E-14-1.26476E-13
 -1      4263 2.02519E+01-9.81620E-02-4.64873E-04-2.95528E-02-3.39367E-14-7.15109E-14
 -1      4264 2.02081E+01-1.04692E-01-4.37569E-04-2.64242E-02-4.06538E-14-8.56405E-14
 -1      4265 2.02284E+01-1.02850E-01 1.04369E-04-2.82732E-02-2.99876E-14-9.31804E-14
 -3
    1PSTEP                         3           1           1          
  100CL  101 1.000000000        4265                     0    1           1
 -4  TOSTRAIN    6    1
 -5  EXX         1    4    1    1
 -5  EYY         1    4    2    2
 -5  EZZ         1    4    3    3
 -5  EXY         1    4    1    2
 -5  EYZ         1    4    2    3
 -5  EZX         1    4    3    1
 -1         1 1.24675E-04 8.07777E-06-5.20072E-05 1.10442E-04-3.00188E-18-5.07119E-18
 -1         2 4.48670E-05-1.37155E-04 2.43771E-05-5.07837E-07-5.73887E-19-2.37497E-18
 -1         3 9.51542E-05-2.86381E-05-2.82249E-05 6.44758E-08-2.46692E-18-3.11241E-18
 -1         4 9.53147E-05-2.84797E-05-2.85041E-05-2.56238E-07 1.24941E-18 2.61738E-19
 -1         5 1.43349E-04-2.14784E-05-4.25292E-05 3.85311E-05-1.96882E-19 1.28580E-17
 -1         6 1.45410E-04 2.57582E-10-4.41882E-05-5.35261E-05-7.85729E-19 1.00023E-17
 -1         7 9.06120E-05-5.11320E-07-3.90693E-05-2.92507E-05-1.15620E-19 8.48621E-19
 -1         8 8.51280E-05 8.63601E-08-3.63400E-05-2.02689E-05-1.35393E-19-1.65635E-18
 -1         9 8.28175E-05 7.59852E-08-3.53518E-05-1.56366E-05-7.59418E-20-2.93717E-18
 -1        10 8.17717E-05 3.96857E-08-3.48818E-05-1.20750E-05-4.80757E-20-3.51007E-18
 -1        11 8.12520E-05 1.93055E-08-3.46527E-05-9.01140E-06-1.97531E-20-3.72708E-18
 -1        12 8.09818E-05 9.15859E-09-3.45377E-05-6.28199E-06 1.37974E-20-3.72779E-18
 -1        13 8.08391E-05 4.62687E-09-3.44796E-05-3.68392E-06 7.32882E-21-3.64132E-18
 -1        14 8.07793E-05 2.79521E-09-3.44558E-05-1.18307E-06 3.14329E-20-3.50241E-18
 -1        15 8.07814E-05 2.78471E-09-3.44565E-05 1.28836E-06 4.76644E-20-3.30285E-18
 -1        16 8.08454E-05 4.56829E-09-3.44818E-05 3.79433E-06 6.61960E-20-3.06936E-18
 -1        17 8.09932E-05 8.43930E-09-3.45414E-05 6.40436E-06 9.09518E-20-2.76002E-18
 -1        18 8.12694E-05 1.81862E-08-3.46578E-05 9.15279E-06 9.21909E-20-2.31906E-18
 -1        19 8.17976E-05 3.81880E-08-3.48902E-05 1.22546E-05 1.45458E-19-1.66686E-18
 -1        20 8.28378E-05 8.14875E-08-3.53642E-05 1.58674E-05 1.59414E-19-5.34028E-19
 -1        21 8.50933E-05 1.69365E-07-3.63785E-05 2.04797E-05 1.81874E-19 1.44036E-18
 -1        22 9.16488E-05-9.98655E-08-3.87409E-05 2.79977E-05 1.01644E-20 5.19020E-18
 -1        23 1.12982E-04-3.81291E-05-3.53993E-05-4.40180E-06-5.57215E-19 7.22106E-18
 -1        24 9.28177E-05-2.77010E-05-2.90031E-05 3.91420E-07-1.20090E-19 4.87890E-18
 -1        25 8.91357E-05-2.68570E-05-2.69343E-05 3.75887E-07-4.69789E-20 2.80384E-18
 -1        26 8.80359E-05-2.64944E-05-2.63979E-05 2.04275E-07-3.55291E-20 1.13686E-18
 -1        27 8.80664E-05-2.64740E-05-2.63911E-05 1.40074E-07 4.54689E-20-1.57694E-20
 -1        28 8.86042E-05-2.66116E-05-2.65619E-05 1.01051E-07-6.21775E-20-5.01271E-19
 -1        29 8.93629E-05-2.68254E-05-2.67957E-05 7.53879E-08-1.28628E-20-1.15006E-18
 -1        30 9.01913E-05-2.70662E-05-2.70468E-05 5.71128E-08-1.52512E-19-1.88906E-18
 -1        31 9.10043E-05-2.73057E-05-2.72920E-05 4.33741E-08-6.28213E-20-2.99404E-18
 -1        32 9.17547E-05-2.75281E-05-2.75182E-05 3.27308E-08-4.98970E-20-3.62689E-18
 -1        33 9.24187E-05-2.77257E-05-2.77183E-05 2.43716E-08 3.39235E-19-3.18270E-18
 -1        34 9.29874E-05-2.78954E-05-2.78899E-05 1.77796E-08-2.26391E-19-3.28671E-18
 -1        35 9.34615E-05-2.80372E-05-2.80331E-05 1.25874E-08 1.05490E-19-4.16869E-18
 -1        36 9.38478E-05-2.81530E-05-2.81499E-05 8.51279E-09 1.05941E-19-3.30109E-18
 -1        37 9.41563E-05-2.82456E-05-2.82433E-05 5.33034E-09-6.45012E-20-3.45740E-18
 -1        38 9.43993E-05-2.83187E-05-2.83169E-05 2.85876E-09-3.00863E-19-4.15268E-18
 -1        39 9.45902E-05-2.83763E-05-2.83749E-05 9.55725E-10 2.62829E-19-4.76268E-18
 -1        40 9.47432E-05-2.84227E-05-2.84216E-05-4.83308E-10 1.18004E-19-3.79729E-18
 -1        41 9.48736E-05-2.84623E-05-2.84614E-05-1.52404E-09-1.22683E-19-5.23609E-18
 -1        42 9.49978E-05-2.85001E-05-2.84994E-05-2.19043E-09 4.65916E-20-5.46692E-18
 -1        43 9.51338E-05-2.85416E-05-2.85411E-05-2.46002E-09-1.19918E-19-4.45577E-18
 -1        44 9.53025E-05-2.85930E-05-2.85927E-05-2.25728E-09 1.44160E-19-3.12838E-18
 -1        45 9.55282E-05-2.86616E-05-2.86617E-05-1.44493E-09-2.58828E-19-4.17715E-18
 -1        46 9.58394E-05-2.87559E-05-2.87566E-05 1.86469E-10 2.92572E-19-6.39731E-18
 -1        47 9.62696E-05-2.88859E-05-2.88876E-05 2.92923E-09 9.46216E-20-4.31919E-18
 -1        48 9.68574E-05-2.90632E-05-2.90662E-05 7.16637E-09 1.69528E-19-2.64439E-18
 -1        49 9.76463E-05-2.93007E-05-2.93056E-05 1.33693E-08-5.80722E-20-3.61491E-18
 -1        50 9.86823E-05-2.96120E-05-2.96193E-05 2.20703E-08-2.92751E-19-4.99958E-18
 -1        51 1.00009E-04-3.00099E-05-3.00203E-05 3.37819E-08 4.03640E-19-3.89766E-18
 -1        52 1.01661E-04-3.05041E-05-3.05179E-05 4.88097E-08-3.87480E-19-1.85157E-18
 -1        53 1.03645E-04-3.10965E-05-3.11131E-05 6.68741E-08-5.57381E-20-3.32263E-18
 -1        54 1.05920E-04-3.17744E-05-3.17915E-05 8.64149E-08 2.99653E-19-3.11893E-18
 -1        55 1.08362E-04-3.25001E-05-3.25123E-05 1.03452E-07-3.34454E-19-3.99246E-18
 -1        56 1.10718E-04-3.31980E-05-3.31953E-05 1.10018E-07-1.78147E-19-6.11489E-18
 -1        57 1.12557E-04-3.37408E-05-3.37082E-05 9.26887E-08 7.44824E-19-7.20828E-18
 -1        58 1.13250E-04-3.39423E-05-3.38628E-05 3.29290E-08 3.26421E-19-4.06244E-18
 -1        59 1.12018E-04-3.35717E-05-3.34365E-05-8.72758E-08-4.38063E-19-3.55230E-18
 -1        60 1.08118E-04-3.24086E-05-3.22331E-05-2.70783E-07 3.28242E-20-2.18556E-18
 -1        61 1.01221E-04-3.03532E-05-3.01925E-05-4.82596E-07 6.55079E-19-1.91752E-18
 -1        62 9.18917E-05-2.75691E-05-2.75093E-05-6.37071E-07-4.71086E-19-3.47154E-18
 -1        63 8.18506E-05-2.45674E-05-2.46783E-05-6.25287E-07 9.91723E-20-4.42636E-18
 -1        64 7.36224E-05-2.21047E-05-2.23744E-05-3.94739E-07 5.24115E-19-1.77676E-18
 -1        65 6.94457E-05-2.08562E-05-2.11736E-05-2.17184E-08-1.10452E-19-1.44247E-18
 -1        66 7.00709E-05-2.10481E-05-2.12745E-05 3.18814E-07-2.48293E-19-2.00031E-18
 -1        67 7.44196E-05-2.23520E-05-2.24224E-05 4.85092E-07 6.01522E-19 1.85659E-19
 -1        68 8.04178E-05-2.41416E-05-2.40947E-05 4.69127E-07 1.41729E-19 3.90429E-19
 -1        69 8.62562E-05-2.58772E-05-2.57921E-05 3.73361E-07 1.17190E-19 4.83378E-19
 -1        70 9.10462E-05-2.73083E-05-2.71994E-05 2.97412E-07-9.44301E-20 3.04310E-18
 -1        71 9.44291E-05-2.83911E-05-2.81231E-05 2.06523E-07-5.32210E-19 1.47889E-18
 -1        72 1.02186E-04-3.05896E-05-3.41525E-05-1.92929E-06 1.56701E-19 1.21363E-17
 -1        73 9.25739E-05-2.75170E-05-2.89113E-05-3.33307E-07 5.25888E-20 9.87357E-18
 -1        74 8.91235E-05-2.67066E-05-2.69775E-05-1.25978E-07 7.70469E-20 8.37704E-18
 -1        75 8.80663E-05-2.64454E-05-2.64419E-05-9.56466E-08 2.81833E-20 7.35456E-18
 -1        76 8.81011E-05-2.64540E-05-2.64178E-05-7.66750E-08 1.78796E-19 6.06624E-18
 -1        77 8.86380E-05-2.66060E-05-2.65790E-05-6.26418E-08-1.30080E-20 5.17331E-18
 -1        78 8.93941E-05-2.68267E-05-2.68080E-05-5.18938E-08-2.69198E-20 5.47434E-18
 -1        79 9.02192E-05-2.70708E-05-2.70562E-05-4.30528E-08 1.02872E-19 5.07410E-18
 -1        80 9.10285E-05-2.73117E-05-2.72994E-05-3.54568E-08-1.82116E-19 4.55565E-18
 -1        81 9.17753E-05-2.75346E-05-2.75238E-05-2.88430E-08 1.40831E-19 4.36161E-18
 -1        82 9.24358E-05-2.77320E-05-2.77226E-05-2.30953E-08-1.90853E-20 3.96111E-18
 -1        83 9.30012E-05-2.79011E-05-2.78931E-05-1.81369E-08 1.34105E-19 3.00208E-18
 -1        84 9.34724E-05-2.80422E-05-2.80354E-05-1.38939E-08-5.41889E-20 2.81121E-18
 -1        85 9.38559E-05-2.81571E-05-2.81514E-05-1.02850E-08 5.83923E-20 2.42162E-18
 -1        86 9.41619E-05-2.82488E-05-2.82442E-05-7.22137E-09 2.10871E-19 7.81395E-19
 -1        87 9.44024E-05-2.83210E-05-2.83172E-05-4.60956E-09-5.00808E-19 4.95593E-19
 -1        88 9.45907E-05-2.83776E-05-2.83746E-05-2.35652E-09 1.80190E-19 1.33356E-18
 -1        89 9.47411E-05-2.84228E-05-2.84205E-05-3.74382E-10 2.68948E-19-6.46399E-19
 -1        90 9.48685E-05-2.84612E-05-2.84596E-05 1.41455E-09-1.91138E-19-2.54549E-19
 -1        91 9.49892E-05-2.84977E-05-2.84967E-05 3.07266E-09-4.71192E-20 1.56794E-18
 -1        92 9.51215E-05-2.85378E-05-2.85375E-05 4.64116E-09-9.58663E-20 2.16736E-18
 -1        93 9.52866E-05-2.85877E-05-2.85883E-05 6.13222E-09 2.04955E-19 1.18268E-18
 -1        94 9.55096E-05-2.86551E-05-2.86567E-05 7.51761E-09-2.19497E-19-1.30011E-18
 -1        95 9.58210E-05-2.87490E-05-2.87521E-05 8.71154E-09-2.31791E-19-3.71388E-19
 -1        96 9.62579E-05-2.88806E-05-2.88857E-05 9.54433E-09 3.02194E-19 2.85122E-18
 -1        97 9.68657E-05-2.90635E-05-2.90712E-05 9.72157E-09-1.06144E-19 1.87372E-18
 -1        98 9.76995E-05-2.93141E-05-2.93252E-05 8.76174E-09 1.18449E-19 2.79661E-18
 -1        99 9.88242E-05-2.96516E-05-2.96675E-05 5.90332E-09-3.38263E-19 2.31204E-18
 -1       100 1.00314E-04-3.00982E-05-3.01204E-05-2.46700E-11-4.30880E-20 3.56377E-18
 -1       101 1.02250E-04-3.06773E-05-3.07074E-05-1.07602E-08 3.38201E-20 2.85467E-18
 -1       102 1.04706E-04-3.14110E-05-3.14503E-05-2.87372E-08-1.81235E-19 2.93485E-18
 -1       103 1.07731E-04-3.23133E-05-3.23615E-05-5.70091E-08 1.14400E-19 4.51048E-18
 -1       104 1.11310E-04-3.33791E-05-3.34313E-05-9.85280E-08 1.82433E-19 3.10351E-18
 -1       105 1.15291E-04-3.45637E-05-3.46058E-05-1.53893E-07 2.30565E-19 3.53665E-18
 -1       106 1.19283E-04-3.57534E-05-3.57555E-05-2.16221E-07-2.52279E-19 3.96841E-18
 -1       107 1.22528E-04-3.67278E-05-3.66400E-05-2.62162E-07-3.81524E-19 3.26070E-18
 -1       108 1.23808E-04-3.71319E-05-3.68939E-05-2.41738E-07 3.65702E-19 2.41853E-18
 -1       109 1.21541E-04-3.64975E-05-3.60812E-05-8.15709E-08 4.15294E-19 2.70884E-18
 -1       110 1.14320E-04-3.43883E-05-3.38751E-05 2.67665E-07-6.21684E-19 1.18331E-18
 -1       111 1.02011E-04-3.07201E-05-3.03509E-05 7.34427E-07 5.21321E-19-2.75127E-18
 -1       112 8.69272E-05-2.61361E-05-2.62227E-05 1.06551E-06-1.19740E-19-5.51291E-18
 -1       113 7.37940E-05-2.20685E-05-2.27088E-05 9.51530E-07 3.15421E-20-4.91795E-18
 -1       114 6.74401E-05-2.00722E-05-2.09333E-05 3.54397E-07-8.00426E-19-4.56353E-18
 -1       115 6.94100E-05-2.06798E-05-2.12859E-05-3.48366E-07 8.80004E-19-5.05147E-18
 -1       116 7.68332E-05-2.30067E-05-2.30998E-05-7.12699E-07 3.20013E-19-5.32410E-18
 -1       117 8.49247E-05-2.55258E-05-2.52446E-05-6.30561E-07 2.08475E-19-5.57469E-18
 -1       118 9.04489E-05-2.72049E-05-2.68747E-05-3.33032E-07-9.11383E-20-6.14350E-18
 -1       119 9.31368E-05-2.79760E-05-2.77926E-05-1.20028E-07-3.89448E-19-6.51812E-18
 -1       120 9.45187E-05-2.83671E-05-2.82010E-05-1.93894E-07 7.80228E-19-5.35544E-18
 -1       121 9.54030E-05-2.92187E-05-2.83630E-05-3.66796E-07-2.98612E-18 1.35995E-18
 -1       122 9.55285E-05-2.96813E-05-2.84938E-05-2.83798E-07-1.38145E-18-1.12449E-18
 -1       123 9.45498E-05-2.63397E-05-2.97456E-05 1.02970E-07 1.75534E-18 1.81624E-18
 -1       124 9.15995E-05-1.63756E-05-3.28253E-05 7.57475E-07 4.94752E-18 1.42153E-18
 -1       125 8.64826E-05 8.05881E-07-3.77374E-05 1.45007E-06 5.42398E-18-1.01108E-18
 -1       126 8.03206E-05 2.13854E-05-4.33159E-05 1.68820E-06-1.05943E-18 6.80197E-19
 -1       127 7.51873E-05 3.83917E-05-4.77431E-05 1.08067E-06-4.01308E-18 5.14295E-19
 -1       128 7.36988E-05 4.32971E-05-4.89741E-05-2.22634E-07-2.87186E-18 5.74156E-19
 -1       129 7.67309E-05 3.32665E-05-4.63700E-05-1.39085E-06 1.86903E-18-1.65330E-19
 -1       130 8.27748E-05 1.31835E-05-4.10452E-05-1.74372E-06 1.97147E-18 3.83646E-19
 -1       131 8.91925E-05-8.26386E-06-3.51254E-05-1.31235E-06-6.76081E-18-5.62357E-19
 -1       132 9.39064E-05-2.41647E-05-3.04990E-05-6.23620E-07-1.17222E-17 7.80521E-19
 -1       133 9.64279E-05-3.26660E-05-2.78310E-05-1.79815E-08-1.11323E-17 1.15382E-18
 -1       134 9.69697E-05-3.44985E-05-2.70561E-05 3.50435E-07-8.92697E-18 5.93795E-19
 -1       135 9.63804E-05-3.24157E-05-2.74538E-05 5.24281E-07-2.71175E-18 3.97415E-19
 -1       136 9.54766E-05-2.95386E-05-2.81642E-05 4.04810E-07-1.85036E-18 4.43139E-19
 -1       137 3.22518E-05-1.08125E-04 1.89219E-05-2.82863E-05-8.52157E-18-1.15906E-18
 -1       138 9.71455E-06-4.28905E-05 4.75831E-06-2.26158E-05-7.77492E-18-3.37521E-18
 -1       139 1.54948E-05 1.96838E-05-1.83025E-05 3.19321E-05-4.53713E-18-3.99249E-18
 -1       140 7.39967E-05 3.20662E-05-4.22846E-05 9.74162E-05-3.07261E-18-2.60632E-18
 -1       141 1.74232E-04-5.93982E-06-6.34391E-05 1.31555E-04 1.03190E-18 1.44843E-19
 -1       142 2.82157E-04-6.64997E-05-7.96150E-05 1.07794E-04 3.01120E-19 2.18789E-18
 -1       143 3.38779E-04-1.04053E-04-8.62386E-05 2.82854E-05 4.74153E-19 3.04196E-18
 -1       144 3.10955E-04-8.90156E-05-8.21830E-05-6.26447E-05-4.98935E-19 1.08145E-18
 -1       145 2.09650E-04-3.38145E-05-6.66862E-05-1.12458E-04-1.15196E-19-5.35748E-19
 -1       146 1.03705E-04 1.35906E-05-4.67977E-05-1.00297E-04 3.73118E-18-4.22796E-18
 -1       147 2.65976E-05 2.07947E-05-2.25355E-05-4.33384E-05 6.15751E-18-6.36969E-18
 -1       148 5.29255E-06-1.98532E-05-9.40440E-07 1.13716E-05 6.90459E-18-3.66363E-18
 -1       149 2.02075E-05-8.04366E-05 1.51766E-05 3.22853E-05 3.68459E-18-2.34713E-18
 -1       150 3.86766E-05-1.21700E-04 2.32363E-05 1.43626E-05-2.52119E-18-2.43681E-19
 -1       151 3.67176E-05-1.16883E-04 2.22631E-05-1.66865E-05-1.03166E-17-1.49440E-18
 -1       152 1.69289E-05-6.85009E-05 1.21594E-05-2.94846E-05-6.91264E-18-2.78017E-18
 -1       153 5.37695E-06-7.32079E-06-5.18901E-06-1.54279E-06 3.00697E-19 1.99582E-18
 -1       154 3.96472E-05 2.53602E-05-2.85112E-05 5.96235E-05 1.65002E-18 5.87417E-19
 -1       155 2.31378E-04-4.40327E-05-7.06764E-05 1.11891E-04-2.95403E-18-8.11246E-18
 -1       156 3.15251E-04-9.22126E-05-8.28055E-05 5.56106E-05-7.30771E-19-1.23705E-17
 -1       157 3.31416E-04-1.00012E-04-8.56004E-05-3.46063E-05 6.35169E-19-1.27790E-17
 -1       158 2.77159E-04-6.48462E-05-7.89007E-05-1.03631E-04 3.54467E-18-1.21829E-17
 -1       159 1.72545E-04-5.84575E-06-6.30627E-05-1.29946E-04 4.52739E-18-8.40341E-18
 -1       160 7.13030E-05 3.23081E-05-4.14340E-05-9.54395E-05 4.96488E-18-6.91602E-18
 -1       161 1.49152E-05 2.02572E-05-1.80789E-05-3.16537E-05 1.94860E-18-3.25049E-18
 -1       162 9.32092E-06-3.70871E-05 3.00716E-06 1.85455E-05 8.93874E-18-3.49211E-18
 -1       163 3.13978E-05-1.06766E-04 1.88473E-05 2.85918E-05 7.80795E-18-1.68385E-18
 -1       164 9.48741E-05-1.23485E-05-3.55710E-05-2.23463E-05-1.68582E-18-3.68353E-19
 -1       165 8.92528E-05-8.45701E-06-3.47885E-05-1.73882E-05-1.36773E-18-1.84150E-18
 -1       166 8.65498E-05-6.50523E-06-3.44166E-05-1.35804E-05-9.48409E-19-2.65745E-18
 -1       167 8.51891E-05-5.51338E-06-3.42307E-05-1.03696E-05-5.86592E-19-3.04504E-18
 -1       168 8.44457E-05-4.94454E-06-3.41408E-05-7.54452E-06-3.05364E-19-3.10770E-18
 -1       169 8.40164E-05-4.59815E-06-3.40980E-05-4.90148E-06-6.37715E-21-3.04809E-18
 -1       170 8.37970E-05-4.41346E-06-3.40796E-05-2.39415E-06 2.74931E-19-2.97716E-18
 -1       171 8.37323E-05-4.35767E-06-3.40748E-05 5.11876E-08 5.27013E-19-2.82823E-18
 -1       172 8.38069E-05-4.42194E-06-3.40804E-05 2.49865E-06 7.47604E-19-2.62914E-18
 -1       173 8.40380E-05-4.61730E-06-3.40994E-05 5.01276E-06 1.00002E-18-2.40052E-18
 -1       174 8.44724E-05-4.97076E-06-3.41418E-05 7.62135E-06 1.24694E-18-2.07809E-18
 -1       175 8.52502E-05-5.57371E-06-3.42320E-05 1.05100E-05 1.54696E-18-1.55264E-18
 -1       176 8.66485E-05-6.60852E-06-3.44191E-05 1.37807E-05 1.75669E-18-7.66446E-19
 -1       177 8.93959E-05-8.60093E-06-3.47934E-05 1.76203E-05 1.90206E-18 5.43491E-19
 -1       178 9.57859E-05-1.36155E-05-3.54273E-05 2.18917E-05 1.59728E-18 2.84569E-18
 -1       179 1.05613E-04-2.61045E-05-3.52651E-05 1.86615E-05 1.05769E-18 5.89853E-18
 -1       180 1.03407E-04-2.73044E-05-3.26131E-05-1.21251E-05-1.49321E-18 1.62053E-18
 -1       181 9.71186E-05-2.82931E-05-2.95320E-05-4.72910E-06-1.17261E-18 9.74276E-19
 -1       182 9.35191E-05-2.76399E-05-2.81860E-05-1.76668E-06-8.97852E-19 5.18292E-19
 -1       183 9.19861E-05-2.74100E-05-2.76401E-05-4.18295E-07-7.78311E-19 1.78671E-20
 -1       184 9.14121E-05-2.73355E-05-2.74432E-05 2.45692E-07-3.90485E-19-4.09908E-19
 -1       185 9.13720E-05-2.73749E-05-2.74187E-05 5.71338E-07-3.70873E-19-5.20193E-19
 -1       186 9.16171E-05-2.74781E-05-2.74842E-05 7.09795E-07-5.60182E-19-7.66835E-19
 -1       187 9.20020E-05-2.76107E-05-2.75945E-05 7.40030E-07-5.61315E-19-1.01634E-18
 -1       188 9.24393E-05-2.77513E-05-2.77228E-05 7.07868E-07-4.57880E-19-8.64351E-19
 -1       189 9.28770E-05-2.78871E-05-2.78529E-05 6.41737E-07-1.14267E-19-1.31532E-18
 -1       190 9.32854E-05-2.80107E-05-2.79754E-05 5.59849E-07-2.29819E-19-2.35076E-18
 -1       191 9.36492E-05-2.81189E-05-2.80851E-05 4.73942E-07-2.55257E-19-2.32100E-18
 -1       192 9.39627E-05-2.82108E-05-2.81801E-05 3.91494E-07 4.09984E-19-1.96346E-18
 -1       193 9.42262E-05-2.82869E-05-2.82604E-05 3.17172E-07-6.56319E-20-1.77412E-18
 -1       194 9.44444E-05-2.83489E-05-2.83272E-05 2.53833E-07-4.62346E-19-1.86513E-18
 -1       195 9.46243E-05-2.83992E-05-2.83826E-05 2.03275E-07-5.54366E-20-1.91863E-18
 -1       196 9.47751E-05-2.84406E-05-2.84294E-05 1.66795E-07 2.19488E-19-2.20124E-18
 -1       197 9.49072E-05-2.84760E-05-2.84706E-05 1.45619E-07-2.07809E-19-2.65668E-18
 -1       198 9.50326E-05-2.85090E-05-2.85099E-05 1.41240E-07-5.65304E-19-2.32954E-18
 -1       199 9.51646E-05-2.85435E-05-2.85515E-05 1.55665E-07 2.41046E-19-2.84440E-18
 -1       200 9.53186E-05-2.85837E-05-2.86000E-05 1.91588E-07 6.50979E-19-2.73685E-18
 -1       201 9.55124E-05-2.86348E-05-2.86608E-05 2.52476E-07-4.53486E-19-3.02029E-18
 -1       202 9.57661E-05-2.87027E-05-2.87401E-05 3.42546E-07-3.23553E-19-1.85370E-18
 -1       203 9.61035E-05-2.87943E-05-2.88450E-05 4.66558E-07 7.72565E-19-2.02386E-18
 -1       204 9.65508E-05-2.89175E-05-2.89835E-05 6.29357E-07 3.48261E-19-2.27630E-18
 -1       205 9.71372E-05-2.90813E-05-2.91642E-05 8.34995E-07-4.09327E-19-2.52962E-18
 -1       206 9.78930E-05-2.92957E-05-2.93959E-05 1.08520E-06-6.29745E-19-2.46708E-18
 -1       207 9.88468E-05-2.95709E-05-2.96866E-05 1.37688E-06 6.16134E-19-1.90664E-18
 -1       208 1.00021E-04-2.99164E-05-3.00419E-05 1.69819E-06 8.99748E-19-1.84768E-18
 -1       209 1.01422E-04-3.03393E-05-3.04621E-05 2.02275E-06-8.19103E-19-9.77040E-19
 -1       210 1.03032E-04-3.08414E-05-3.09385E-05 2.30158E-06-5.23802E-19-9.70626E-19
 -1       211 1.04787E-04-3.14145E-05-3.14480E-05 2.45347E-06-8.27919E-19-2.38602E-18
 -1       212 1.06560E-04-3.20334E-05-3.19465E-05 2.35634E-06-1.38143E-18-3.16268E-18
 -1       213 1.08135E-04-3.26449E-05-3.23638E-05 1.84681E-06-2.85940E-20-3.22852E-18
 -1       214 1.09190E-04-3.31539E-05-3.26017E-05 7.42427E-07 1.39258E-18-3.31807E-18
 -1       215 1.09304E-04-3.34082E-05-3.25433E-05-1.09197E-06 3.60025E-19-2.75790E-18
 -1       216 1.08016E-04-3.31968E-05-3.20805E-05-3.61657E-06 8.09926E-19-1.86486E-18
 -1       217 1.04973E-04-3.22886E-05-3.11595E-05-6.44921E-06 1.42467E-19-8.55387E-19
 -1       218 1.00170E-04-3.05531E-05-2.98366E-05-8.76807E-06-5.83038E-19-7.80587E-19
 -1       219 9.42175E-05-2.81546E-05-2.83064E-05-9.49040E-06-3.95494E-19 3.94400E-20
 -1       220 8.84004E-05-2.56827E-05-2.68694E-05-7.84733E-06 7.60258E-19-1.37614E-18
 -1       221 8.42773E-05-2.39800E-05-2.58305E-05-4.08683E-06 1.06229E-18-1.32995E-18
 -1       222 8.28710E-05-2.36242E-05-2.53776E-05 3.91294E-07 4.65216E-19 6.99646E-20
 -1       223 8.40559E-05-2.44909E-05-2.55119E-05 3.85140E-06 1.59982E-18 8.45574E-19
 -1       224 8.67438E-05-2.58918E-05-2.60659E-05 5.35916E-06 9.53934E-19 1.43403E-18
 -1       225 8.96737E-05-2.71355E-05-2.67965E-05 5.17108E-06 3.47875E-19 7.49035E-19
 -1       226 9.20578E-05-2.79478E-05-2.74750E-05 4.17972E-06 9.72500E-19 4.62430E-19
 -1       227 9.38285E-05-2.85919E-05-2.79501E-05 2.94987E-06-7.39561E-19 1.21410E-18
 -1       228 9.95108E-05-2.85575E-05-3.05901E-05 7.20943E-06 1.11226E-18 5.15987E-18
 -1       229 9.44284E-05-2.77943E-05-2.85281E-05 2.74181E-06 7.88932E-19 4.23934E-18
 -1       230 9.21106E-05-2.74052E-05-2.76858E-05 9.27664E-07 7.85980E-19 3.33340E-18
 -1       231 9.11643E-05-2.72433E-05-2.73677E-05 6.53372E-08 7.05856E-19 2.78454E-18
 -1       232 9.09551E-05-2.72370E-05-2.72943E-05-3.62739E-07 2.88049E-19 2.54116E-18
 -1       233 9.11411E-05-2.73236E-05-2.73436E-05-5.63517E-07-1.89424E-20 2.38598E-18
 -1       234 9.15268E-05-2.74574E-05-2.74548E-05-6.36290E-07 3.37301E-19 2.21969E-18
 -1       235 9.19971E-05-2.76089E-05-2.75931E-05-6.34960E-07 2.71004E-19 1.77298E-18
 -1       236 9.24836E-05-2.77603E-05-2.77376E-05-5.91697E-07 1.23886E-19 1.26316E-18
 -1       237 9.29466E-05-2.79016E-05-2.78760E-05-5.26743E-07 7.37158E-20 1.67394E-18
 -1       238 9.33646E-05-2.80272E-05-2.80016E-05-4.53099E-07 5.82003E-19 1.79496E-18
 -1       239 9.37280E-05-2.81353E-05-2.81113E-05-3.79100E-07 6.26780E-20 1.44975E-18
 -1       240 9.40353E-05-2.82257E-05-2.82043E-05-3.09995E-07 5.59093E-19 6.86227E-19
 -1       241 9.42897E-05-2.82998E-05-2.82816E-05-2.49009E-07 4.99846E-19 3.58525E-19
 -1       242 9.44979E-05-2.83598E-05-2.83451E-05-1.98101E-07 1.03765E-19 1.78840E-19
 -1       243 9.46685E-05-2.84084E-05-2.83974E-05-1.58532E-07 9.30581E-20-1.05796E-18
 -1       244 9.48120E-05-2.84486E-05-2.84415E-05-1.31301E-07 4.58307E-19-5.43914E-19
 -1       245 9.49400E-05-2.84839E-05-2.84811E-05-1.17497E-07-3.71234E-19 4.90264E-19
 -1       246 9.50657E-05-2.85182E-05-2.85201E-05-1.18576E-07-8.42207E-19 5.82152E-19
 -1       247 9.52041E-05-2.85558E-05-2.85632E-05-1.36600E-07-4.43427E-20 6.43971E-19
 -1       248 9.53728E-05-2.86018E-05-2.86156E-05-1.74430E-07 6.79864E-19 5.93892E-19
 -1       249 9.55925E-05-2.86621E-05-2.86837E-05-2.35896E-07 7.21308E-19-7.34819E-20
 -1       250 9.58876E-05-2.87437E-05-2.87749E-05-3.25919E-07-9.91312E-19 1.95062E-19
 -1       251 9.62878E-05-2.88553E-05-2.88983E-05-4.50570E-07-8.04595E-19 1.31045E-18
 -1       252 9.68279E-05-2.90072E-05-2.90645E-05-6.16990E-07-2.17520E-19 2.59141E-18
 -1       253 9.75491E-05-2.92113E-05-2.92859E-05-8.33068E-07-1.51752E-19 3.07448E-18
 -1       254 9.84984E-05-2.94818E-05-2.95766E-05-1.10661E-06 2.95827E-19 3.39370E-18
 -1       255 9.97269E-05-2.98347E-05-2.99519E-05-1.44362E-06-5.55445E-19 2.17273E-18
 -1       256 1.01286E-04-3.02869E-05-3.04268E-05-1.84492E-06 5.02645E-20 1.87776E-18
 -1       257 1.03221E-04-3.08548E-05-3.10134E-05-2.29993E-06-6.19378E-19 2.73588E-18
 -1       258 1.05551E-04-3.15513E-05-3.17152E-05-2.77596E-06-2.88423E-19 2.88431E-18
 -1       259 1.08250E-04-3.23801E-05-3.25192E-05-3.20106E-06 6.83881E-19 3.00895E-18
 -1       260 1.11202E-04-3.33253E-05-3.33821E-05-3.43997E-06-3.99292E-20 3.52683E-18
 -1       261 1.14149E-04-3.43356E-05-3.42135E-05-3.26843E-06-1.26242E-18 4.32976E-18
 -1       262 1.16624E-04-3.52970E-05-3.48605E-05-2.36603E-06 5.72383E-19 3.83172E-18
 -1       263 1.17919E-04-3.59959E-05-3.51071E-05-3.75251E-07 5.58787E-19 3.57944E-18
 -1       264 1.17126E-04-3.60837E-05-3.47153E-05 2.89645E-06-1.82807E-19 3.84043E-18
 -1       265 1.13396E-04-3.50994E-05-3.35279E-05 7.07620E-06 1.45183E-18 2.61523E-18
 -1       266 1.06503E-04-3.26964E-05-3.16137E-05 1.08254E-05 2.39218E-18 6.31040E-19
 -1       267 9.75539E-05-2.91069E-05-2.93606E-05 1.20334E-05 1.30382E-18-2.87012E-19
 -1       268 8.91802E-05-2.55022E-05-2.73649E-05 9.12811E-06 2.36170E-19-2.86954E-18
 -1       269 8.44489E-05-2.35907E-05-2.61569E-05 2.96357E-06-7.11362E-19-2.72640E-18
 -1       270 8.46016E-05-2.41231E-05-2.59574E-05-3.17253E-06 2.01109E-18-2.27035E-18
 -1       271 8.80971E-05-2.61823E-05-2.65216E-05-6.15833E-06 1.14316E-19-3.56755E-18
 -1       272 9.20684E-05-2.81259E-05-2.73656E-05-5.51989E-06-4.00407E-19-3.78946E-18
 -1       273 9.45330E-05-2.89866E-05-2.80618E-05-3.14860E-06-3.25856E-19-3.70180E-18
 -1       274 9.52187E-05-2.88513E-05-2.84315E-05-1.29830E-06-2.62092E-19-2.70491E-18
 -1       275 9.51349E-05-2.85768E-05-2.84993E-05-7.61655E-07-5.49840E-19-7.76567E-19
 -1       276 9.57654E-05-2.86098E-05-2.87592E-05-8.67261E-08-7.96185E-19 2.00639E-18
 -1       277 9.63950E-05-2.74655E-05-2.95160E-05 3.44918E-06 4.95296E-19 8.27664E-19
 -1       278 9.58216E-05-2.34709E-05-3.10007E-05 9.60759E-06-3.17940E-19 1.51399E-18
 -1       279 9.31549E-05-1.54818E-05-3.32950E-05 1.63393E-05 6.21603E-19 3.65647E-19
 -1       280 8.81676E-05-4.21255E-06-3.59987E-05 1.98192E-05-1.16613E-19-4.97236E-18
 -1       281 8.20040E-05 7.67441E-06-3.84302E-05 1.61733E-05 1.01088E-18-2.17310E-18
 -1       282 7.79253E-05 1.47967E-05-3.97108E-05 4.65961E-06 2.44411E-18 7.16960E-19
 -1       283 7.88100E-05 1.31026E-05-3.93699E-05-9.58279E-06 2.12890E-18 2.53832E-19
 -1       284 8.40450E-05 3.41353E-06-3.74805E-05-1.91057E-05-2.22214E-20-7.68140E-19
 -1       285 9.03573E-05-9.45286E-06-3.46818E-05-2.03647E-05-1.23587E-18-4.37106E-18
 -1       286 9.49013E-05-2.04847E-05-3.18894E-05-1.54335E-05-1.48208E-18-3.08167E-18
 -1       287 9.71200E-05-2.77616E-05-2.97057E-05-8.25697E-06-2.27209E-18 4.27004E-19
 -1       288 9.74583E-05-3.09825E-05-2.84636E-05-2.05543E-06-2.50889E-18 6.52751E-19
 -1       289 9.65801E-05-3.11831E-05-2.80133E-05 1.66297E-06-2.22439E-18 3.17987E-18
 -1       290 9.56655E-05-3.00684E-05-2.80941E-05 3.24115E-06-2.14236E-18 2.65915E-19
 -1       291 1.51262E-05-5.39557E-05 1.28755E-05 1.09010E-05-2.26528E-18-4.05898E-18
 -1       292 3.21971E-05-5.32927E-05 5.51092E-06 2.62089E-05-3.44806E-18-4.54751E-19
 -1       293 6.73976E-05-4.60399E-05-1.08273E-05 4.45190E-05-2.51272E-18-1.66537E-18
 -1       294 1.06451E-04-3.50375E-05-3.06031E-05 5.32247E-05-2.96292E-18-2.09641E-18
 -1       295 1.53113E-04-3.20353E-05-5.00344E-05 5.61993E-05-2.39721E-18 9.45077E-19
 -1       296 1.95024E-04-3.41892E-05-6.58313E-05 4.43628E-05-5.81673E-19 6.21510E-19
 -1       297 2.25987E-04-3.84750E-05-7.60886E-05 2.73482E-05-1.15525E-18 1.56955E-18
 -1       298 2.25631E-04-3.80727E-05-7.65770E-05 1.62946E-06 1.22947E-18 2.68457E-18
 -1       299 1.96603E-04-3.58871E-05-6.67426E-05-1.27432E-05 7.57247E-19 9.03149E-19
 -1       300 1.65212E-04-3.74919E-05-5.30433E-05-3.98890E-05 1.51884E-18 8.63974E-19
 -1       301 1.22859E-04-4.39446E-05-3.37359E-05-3.89100E-05 1.02703E-18 1.38469E-18
 -1       302 7.25468E-05-4.28895E-05-1.40389E-05-3.65534E-05 1.18182E-18-1.05530E-18
 -1       303 3.92986E-05-4.91075E-05 1.93903E-06-2.64443E-05-1.69195E-19-1.70562E-18
 -1       304 1.78334E-05-5.50072E-05 1.27816E-05-1.13534E-05-2.35581E-19-3.04466E-18
 -1       305 1.12716E-05-5.42123E-05 1.53562E-05 2.61028E-06-6.50270E-19-3.91732E-18
 -1       306 2.02136E-05-5.33891E-05 1.11375E-05 1.58348E-05-2.70923E-18 1.09045E-18
 -1       307 4.12083E-05-4.57897E-05-4.65079E-07 2.80329E-05-1.39295E-18 2.67461E-18
 -1       308 8.49351E-05-4.32598E-05-1.86225E-05 4.18593E-05-9.56935E-19-1.25149E-18
 -1       309 1.32791E-04-4.24348E-05-3.83691E-05 3.95221E-05 4.93820E-19-5.60206E-18
 -1       310 1.73724E-04-3.52638E-05-5.72342E-05 4.15985E-05-7.83770E-19-7.81896E-18
 -1       311 2.08340E-04-3.71047E-05-7.02643E-05 2.25123E-05-3.75871E-20-1.03980E-17
 -1       312 2.24554E-04-3.71269E-05-7.67193E-05-1.26148E-06-4.90220E-20-1.02525E-17
 -1       313 2.05478E-04-2.92765E-05-7.30884E-05-1.87932E-05 1.47913E-18-9.23605E-18
 -1       314 1.92516E-04-3.30951E-05-6.54587E-05-4.40106E-05 4.03627E-18-1.13331E-17
 -1       315 1.50970E-04-3.09756E-05-4.96573E-05-5.62634E-05 4.19970E-18-8.49828E-18
 -1       316 1.07580E-04-3.69597E-05-3.02533E-05-5.28826E-05 2.79203E-18-6.42199E-18
 -1       317 6.43089E-05-4.25439E-05-1.11046E-05-4.30417E-05 5.91758E-18-1.78671E-18
 -1       318 3.44643E-05-5.06159E-05 3.98514E-06-3.16472E-05 2.33972E-18-2.58679E-18
 -1       319 1.57731E-05-5.63536E-05 1.34284E-05-1.08197E-05 1.37855E-19-4.66810E-18
 -1       320 9.16518E-05-1.43964E-05-3.31728E-05-1.30583E-05-1.38429E-18-1.52455E-18
 -1       321 9.57133E-05-1.91116E-05-3.28925E-05-1.46271E-05-1.70435E-18-7.20527E-19
 -1       322 8.80049E-05-1.03758E-05-3.33229E-05-8.14876E-06-5.87558E-19-2.35775E-18
 -1       323 8.71856E-05-9.45156E-06-3.33625E-05-5.71482E-06-2.31955E-19-2.36235E-18
 -1       324 8.67249E-05-8.92193E-06-3.33890E-05-3.36566E-06 1.87551E-19-2.29336E-18
 -1       325 8.65194E-05-8.68214E-06-3.34023E-05-1.07218E-06 5.62841E-19-2.26424E-18
 -1       326 8.65281E-05-8.69172E-06-3.34020E-05 1.20295E-06 8.00818E-19-2.07383E-18
 -1       327 8.67524E-05-8.95277E-06-3.33878E-05 3.49864E-06 1.03575E-18-1.92850E-18
 -1       328 8.72256E-05-9.49717E-06-3.33609E-05 5.81267E-06 1.34637E-18-1.60391E-18
 -1       329 8.80664E-05-1.04492E-05-3.33199E-05 8.25142E-06 1.71989E-18-1.21921E-18
 -1       330 8.94831E-05-1.20328E-05-3.32596E-05 1.07601E-05 1.94062E-18-6.57271E-19
 -1       331 9.19053E-05-1.47227E-05-3.31594E-05 1.31653E-05 2.02988E-18 9.02884E-20
 -1       332 9.58111E-05-1.94592E-05-3.28300E-05 1.43724E-05 1.90442E-18 1.52197E-18
 -1       333 9.87997E-05-2.44469E-05-3.19536E-05 1.18952E-05 1.58685E-18 2.87461E-18
 -1       334 9.63998E-05-2.68152E-05-2.97925E-05 5.73815E-06 1.26976E-18 2.28709E-18
 -1       335 9.64445E-05-2.60302E-05-3.01339E-05-6.34536E-06-1.30742E-18-4.66780E-19
 -1       336 9.49283E-05-2.70314E-05-2.90733E-05-2.82934E-06-9.39305E-19-4.68831E-19
 -1       337 9.39525E-05-2.74289E-05-2.84955E-05-9.18028E-07-7.23653E-19-3.56368E-19
 -1       338 9.34338E-05-2.76416E-05-2.81899E-05 1.41562E-07-3.83108E-19-3.81823E-19
 -1       339 9.32422E-05-2.77951E-05-2.80460E-05 7.05749E-07-5.43203E-19-5.59471E-19
 -1       340 9.32594E-05-2.79250E-05-2.79995E-05 9.72570E-07-5.94132E-19-5.01566E-19
 -1       341 9.33983E-05-2.80400E-05-2.80106E-05 1.05896E-06-4.39797E-19-6.02426E-19
 -1       342 9.35991E-05-2.81413E-05-2.80538E-05 1.03760E-06-6.11250E-19-8.12080E-19
 -1       343 9.38228E-05-2.82285E-05-2.81125E-05 9.55371E-07-8.15976E-19-1.24106E-18
 -1       344 9.40452E-05-2.83017E-05-2.81765E-05 8.43022E-07-2.47471E-19-1.34560E-18
 -1       345 9.42523E-05-2.83616E-05-2.82396E-05 7.20774E-07-2.99634E-20-1.62608E-18
 -1       346 9.44372E-05-2.84094E-05-2.82984E-05 6.01820E-07 3.51554E-19-1.55453E-18
 -1       347 9.45983E-05-2.84465E-05-2.83514E-05 4.94689E-07 8.10446E-21-1.37294E-18
 -1       348 9.47370E-05-2.84747E-05-2.83986E-05 4.04933E-07-3.75903E-19-7.87742E-19
 -1       349 9.48573E-05-2.84957E-05-2.84410E-05 3.36376E-07-2.41363E-19-1.16523E-18
 -1       350 9.49650E-05-2.85115E-05-2.84802E-05 2.92054E-07-1.91433E-19-1.20514E-18
 -1       351 9.50670E-05-2.85239E-05-2.85185E-05 2.74925E-07 1.45646E-19-1.15510E-18
 -1       352 9.51718E-05-2.85349E-05-2.85585E-05 2.88407E-07-1.60327E-19-5.61458E-19
 -1       353 9.52893E-05-2.85468E-05-2.86035E-05 3.36747E-07-4.13669E-20-7.78563E-19
 -1       354 9.54308E-05-2.85621E-05-2.86574E-05 4.25242E-07 1.43875E-19-1.58765E-18
 -1       355 9.56093E-05-2.85840E-05-2.87242E-05 5.60267E-07 2.52767E-19-1.03112E-18
 -1       356 9.58397E-05-2.86164E-05-2.88087E-05 7.49047E-07 2.80708E-19-5.80343E-19
 -1       357 9.61388E-05-2.86643E-05-2.89160E-05 9.99066E-07-3.95188E-19-1.35173E-18
 -1       358 9.65254E-05-2.87342E-05-2.90513E-05 1.31693E-06 2.82961E-19-2.47681E-18
 -1       359 9.70194E-05-2.88347E-05-2.92196E-05 1.70641E-06 2.49509E-19-2.08431E-18
 -1       360 9.76412E-05-2.89769E-05-2.94248E-05 2.16527E-06 3.96974E-19-7.38667E-19
 -1       361 9.84105E-05-2.91759E-05-2.96691E-05 2.68045E-06 7.62482E-19-1.64763E-18
 -1       362 9.93435E-05-2.94518E-05-2.99510E-05 3.22091E-06 4.07773E-19-2.41737E-18
 -1       363 1.00450E-04-2.98308E-05-3.02636E-05 3.72782E-06-5.15768E-19-1.72346E-18
 -1       364 1.01729E-04-3.03458E-05-3.05926E-05 4.10222E-06-1.12306E-18-1.60999E-18
 -1       365 1.03160E-04-3.10336E-05-3.09142E-05 4.19201E-06-1.07620E-18-1.34567E-18
 -1       366 1.04695E-04-3.19235E-05-3.11949E-05 3.78428E-06-1.00241E-18-1.34972E-18
 -1       367 1.06234E-04-3.30093E-05-3.13945E-05 2.61584E-06 1.89514E-19-1.18317E-18
 -1       368 1.07593E-04-3.41948E-05-3.14743E-05 4.25901E-07 1.34168E-18-1.84523E-18
 -1       369 1.08460E-04-3.52148E-05-3.14116E-05-2.91675E-06 9.74779E-19-1.23551E-18
 -1       370 1.08370E-04-3.55741E-05-3.12179E-05-7.19014E-06 1.72632E-18-1.05059E-19
 -1       371 1.06798E-04-3.46258E-05-3.09428E-05-1.15551E-05 4.74843E-19-8.63962E-19
 -1       372 1.03482E-04-3.19531E-05-3.06566E-05-1.44724E-05 9.11879E-19 6.45234E-19
 -1       373 9.89348E-05-2.79882E-05-3.03978E-05-1.41992E-05 1.01129E-19 2.18411E-18
 -1       374 9.46653E-05-2.43190E-05-3.01348E-05-9.98861E-06-3.50003E-19 1.79763E-18
 -1       375 9.24159E-05-2.28360E-05-2.98040E-05-3.18108E-06 1.36908E-18 3.48927E-19
 -1       376 9.27665E-05-2.41320E-05-2.93976E-05 3.27364E-06 1.76502E-18 7.89382E-19
 -1       377 9.46068E-05-2.68986E-05-2.90018E-05 6.91393E-06 1.60267E-18 8.66372E-19
 -1       378 9.62430E-05-2.92332E-05-2.87112E-05 7.35622E-06 4.22452E-19 3.11998E-18
 -1       379 9.66609E-05-3.01276E-05-2.85215E-05 5.93675E-06-6.69865E-19 2.28290E-18
 -1       380 9.60491E-05-2.99650E-05-2.83222E-05 4.47597E-06 2.37141E-19 8.94326E-19
 -1       381 9.43812E-05-2.73443E-05-2.86919E-05 2.46552E-06 1.18874E-18 1.93904E-18
 -1       382 9.31761E-05-2.74644E-05-2.81403E-05 7.40229E-07 9.10645E-19 1.62728E-18
 -1       383 9.26233E-05-2.75424E-05-2.78819E-05-1.81043E-07 4.75194E-19 1.20793E-18
 -1       384 9.24825E-05-2.76354E-05-2.77874E-05-6.56548E-07 9.32793E-20 8.95663E-19
 -1       385 9.25855E-05-2.77451E-05-2.77872E-05-8.73913E-07 3.72199E-19 7.22862E-19
 -1       386 9.28208E-05-2.78616E-05-2.78393E-05-9.37863E-07 3.48407E-19 8.66005E-19
 -1       387 9.31163E-05-2.79757E-05-2.79177E-05-9.11541E-07 5.11522E-19 6.34731E-19
 -1       388 9.34269E-05-2.80813E-05-2.80059E-05-8.34874E-07-1.09243E-19 5.48932E-19
 -1       389 9.37254E-05-2.81748E-05-2.80939E-05-7.33731E-07 3.55816E-19 7.24215E-19
 -1       390 9.39970E-05-2.82548E-05-2.81761E-05-6.24959E-07 4.20181E-19 4.69306E-19
 -1       391 9.42352E-05-2.83214E-05-2.82496E-05-5.19437E-07 1.01702E-18 5.51881E-20
 -1       392 9.44389E-05-2.83755E-05-2.83136E-05-4.24100E-07 5.85650E-19 8.05881E-20
 -1       393 9.46108E-05-2.84189E-05-2.83685E-05-3.43357E-07 6.88829E-19 7.69873E-20
 -1       394 9.47564E-05-2.84535E-05-2.84160E-05-2.80149E-07 3.27042E-19-4.24897E-19
 -1       395 9.48827E-05-2.84815E-05-2.84579E-05-2.36748E-07-2.92166E-20-1.48246E-19
 -1       396 9.49985E-05-2.85054E-05-2.84971E-05-2.15384E-07-3.88919E-19 1.34585E-19
 -1       397 9.51140E-05-2.85278E-05-2.85368E-05-2.18745E-07-8.96571E-19-4.09944E-19
 -1       398 9.52410E-05-2.85519E-05-2.85807E-05-2.50378E-07 4.68584E-20-3.85746E-19
 -1       399 9.53932E-05-2.85810E-05-2.86331E-05-3.15017E-07 2.06053E-19-3.73600E-19
 -1       400 9.55869E-05-2.86193E-05-2.86994E-05-4.18836E-07 8.97150E-19 1.87610E-19
 -1       401 9.58410E-05-2.86715E-05-2.87855E-05-5.69621E-07-1.17815E-18 5.36195E-19
 -1       402 9.61779E-05-2.87435E-05-2.88985E-05-7.76795E-07-1.16914E-18 4.82593E-19
 -1       403 9.66237E-05-2.88424E-05-2.90466E-05-1.05121E-06-9.92341E-19 1.58420E-18
 -1       404 9.72083E-05-2.89769E-05-2.92389E-05-1.40453E-06 8.92797E-21 2.19369E-18
 -1       405 9.79652E-05-2.91574E-05-2.94853E-05-1.84779E-06 4.54942E-19 2.74743E-18
 -1       406 9.89304E-05-2.93970E-05-2.97956E-05-2.38861E-06-5.75548E-20 3.10681E-18
 -1       407 1.00140E-04-2.97121E-05-3.01785E-05-3.02604E-06 1.67448E-19 2.70793E-18
 -1       408 1.01625E-04-3.01236E-05-3.06389E-05-3.74146E-06-3.09841E-19 3.25073E-18
 -1       409 1.03408E-04-3.06593E-05-3.11745E-05-4.48349E-06-1.90087E-19 1.68522E-18
 -1       410 1.05488E-04-3.13553E-05-3.17701E-05-5.14473E-06 3.27725E-19 1.32516E-18
 -1       411 1.07827E-04-3.22568E-05-3.23908E-05-5.53019E-06-6.56550E-19 2.92139E-18
 -1       412 1.10325E-04-3.34076E-05-3.29750E-05-5.32406E-06-1.09081E-18 3.80133E-18
 -1       413 1.12783E-04-3.48158E-05-3.34333E-05-4.07982E-06 3.08130E-19 4.43289E-18
 -1       414 1.14843E-04-3.63666E-05-3.36592E-05-1.29090E-06 2.97122E-19 4.87776E-18
 -1       415 1.15915E-04-3.76662E-05-3.35646E-05 3.36286E-06-3.91951E-20 4.61926E-18
 -1       416 1.15140E-04-3.78768E-05-3.31379E-05 9.49164E-06 2.08076E-18 3.06779E-18
 -1       417 1.11677E-04-3.59315E-05-3.24793E-05 1.53562E-05 2.56301E-18 3.23902E-18
 -1       418 1.05561E-04-3.14672E-05-3.17792E-05 1.78934E-05 3.33523E-18 2.52654E-18
 -1       419 9.85904E-05-2.59722E-05-3.11611E-05 1.44187E-05 8.65588E-19-1.34410E-18
 -1       420 9.41942E-05-2.29337E-05-3.05503E-05 5.65890E-06 5.54191E-19-2.00395E-18
 -1       421 9.41605E-05-2.41912E-05-2.99938E-05-3.61707E-06 3.91376E-19-1.89129E-18
 -1       422 9.69863E-05-2.80966E-05-2.95216E-05-8.33509E-06 6.83946E-19 1.31657E-18
 -1       423 9.94971E-05-3.12785E-05-2.92381E-05-7.51165E-06-1.64155E-19 3.75232E-19
 -1       424 9.98224E-05-3.19026E-05-2.91137E-05-3.92951E-06-3.21909E-19 3.16130E-19
 -1       425 9.82403E-05-3.05264E-05-2.90254E-05-9.90107E-07-1.66240E-18 1.24761E-18
 -1       426 9.70288E-05-2.94366E-05-2.89612E-05-4.37638E-08-2.38182E-18 2.75811E-18
 -1       427 1.03211E-04-3.00541E-05-3.12971E-05 1.94841E-05-3.75310E-18 2.01507E-18
 -1       428 1.02764E-04-3.16199E-05-3.04635E-05 9.26076E-06-2.52293E-18 1.28215E-18
 -1       429 9.97211E-05-3.04582E-05-2.96616E-05 3.15078E-06-2.02544E-18-1.55287E-19
 -1       430 9.83187E-05-2.41911E-05-3.17169E-05 2.86911E-05-2.76427E-18-3.40502E-18
 -1       431 8.70867E-05-1.34717E-05-3.14971E-05 3.02736E-05 2.95525E-19 2.71381E-20
 -1       432 7.42799E-05-2.09305E-06-3.08280E-05 1.83497E-05 3.55627E-18 1.54906E-18
 -1       433 6.99341E-05 1.59734E-06-3.05509E-05-4.28395E-06 2.56586E-18-3.48898E-19
 -1       434 7.77142E-05-5.37432E-06-3.09106E-05-2.47706E-05 2.23048E-19-3.19085E-18
 -1       435 9.09962E-05-1.75634E-05-3.14066E-05-3.25889E-05-1.92486E-18-3.50432E-18
 -1       436 1.00684E-04-2.72947E-05-3.14015E-05-2.80206E-05-1.04074E-18-2.83023E-18
 -1       437 1.04249E-04-3.22387E-05-3.08094E-05-1.75491E-05 6.75322E-19-1.70044E-18
 -1       438 1.03305E-04-3.33017E-05-2.99522E-05-7.21023E-06 1.44769E-19 1.40390E-18
 -1       439 1.00257E-04-3.22831E-05-2.91034E-05 2.60570E-07-8.22562E-19 5.85543E-19
 -1       440 6.65855E-05-4.82239E-05-8.23581E-06 5.26611E-05 3.05991E-19 2.16496E-18
 -1       441 1.74045E-05-2.17644E-05 1.87541E-06-1.67691E-06-4.31805E-20-5.48030E-18
 -1       442 3.31048E-05-3.46028E-05 2.05839E-07 3.65703E-05 8.58997E-19-6.35275E-21
 -1       443 1.17057E-04-6.16751E-05-2.37368E-05 4.99710E-05 3.47072E-19 3.02396E-18
 -1       444 1.49714E-04-5.91582E-05-3.86825E-05 3.37581E-05 6.04093E-19 3.64658E-18
 -1       445 8.93364E-05-1.18552E-05-3.32802E-05-1.06848E-05-9.09887E-19-2.18088E-18
 -1       446 1.73494E-04-2.43448E-05-6.34650E-05 6.89154E-06-1.71365E-18 3.46436E-19
 -1       447 1.75426E-04-1.53713E-05-6.80370E-05 7.71673E-06-1.18182E-18 1.89183E-18
 -1       448 1.65656E-04-1.76135E-05-6.35127E-05 1.16192E-05 2.33559E-18 2.20986E-18
 -1       449 1.62566E-04-4.22804E-05-5.18058E-05 7.05654E-06 1.57903E-18-3.89635E-19
 -1       450 1.54045E-04-5.90941E-05-4.07010E-05-7.26352E-06 2.04863E-18-2.87568E-19
 -1       451 1.20971E-04-6.46604E-05-2.42242E-05-3.22478E-05-6.46921E-20 4.65762E-19
 -1       452 7.93472E-05-5.51296E-05-1.04948E-05-4.19840E-05-5.80218E-19-9.21942E-20
 -1       453 3.63866E-05-4.05206E-05 1.49584E-06-3.30523E-05-1.86368E-18-1.50433E-18
 -1       454 1.63572E-05-2.72371E-05 4.82746E-06-1.23758E-05-9.85390E-19-1.71747E-18
 -1       455 1.65795E-05-3.15672E-05 6.17517E-06 1.84505E-05 1.60492E-18-8.81761E-19
 -1       456 4.63979E-05-4.13055E-05-2.12107E-06 4.08353E-05-5.15102E-19 1.21189E-18
 -1       457 8.36417E-05-5.52636E-05-1.22154E-05 4.49229E-05-2.42262E-18-1.25894E-18
 -1       458 1.28579E-04-6.28789E-05-2.82152E-05 3.11648E-05-6.25851E-19-5.47120E-18
 -1       459 1.57590E-04-5.15965E-05-4.53712E-05 6.29668E-06 5.76446E-19-6.67017E-18
 -1       460 1.64357E-04-3.45439E-05-5.57554E-05-5.19587E-06 5.72488E-19-6.89400E-18
 -1       461 1.72614E-04-1.80531E-05-6.58979E-05-6.66008E-06 6.65556E-19-5.76284E-18
 -1       462 1.64786E-04-1.11350E-05-6.59238E-05-5.92065E-06-2.09217E-19-2.49940E-18
 -1       463 1.66950E-04-2.52951E-05-6.07618E-05-3.91606E-06 1.69862E-18-2.54449E-18
 -1       464 1.65476E-04-4.37521E-05-5.20042E-05-1.59145E-05 1.72623E-18-3.88598E-18
 -1       465 1.49443E-04-5.87236E-05-3.87676E-05-3.23703E-05 1.28564E-18-6.77012E-18
 -1       466 1.15515E-04-6.15228E-05-2.31461E-05-5.11282E-05 2.74777E-18-4.73010E-18
 -1       467 7.68797E-05-5.01842E-05-1.13646E-05-5.60724E-05 2.14257E-18-2.22285E-18
 -1       468 2.92116E-05-2.99985E-05 1.43284E-07-3.33608E-05-7.25272E-19-3.46722E-18
 -1       469 1.68191E-04-4.42004E-05-5.27915E-05 1.76506E-05-5.19165E-19-1.44101E-18
 -1       470 1.46191E-04-1.25538E-05-5.78750E-05 2.17443E-06 1.09077E-18-2.97981E-18
 -1       471 1.49749E-04-2.80397E-05-5.26511E-05 2.14207E-05 2.67080E-18 2.00535E-19
 -1       472 9.58259E-05-2.51500E-05-3.02754E-05 6.01360E-06 1.40674E-18 5.52185E-19
 -1       473 8.95334E-05-1.33980E-05-3.26484E-05-3.92327E-06 1.04009E-20-1.95171E-18
 -1       474 9.02385E-05-1.43582E-05-3.25406E-05-5.88267E-06-3.94765E-19-2.07858E-18
 -1       475 8.90354E-05-1.27180E-05-3.27252E-05 5.45387E-08 6.85501E-19-1.99072E-18
 -1       476 8.91713E-05-1.29019E-05-3.27049E-05 2.04481E-06 8.03493E-19-1.83322E-18
 -1       477 8.95664E-05-1.34392E-05-3.26451E-05 3.99636E-06 1.12298E-18-1.53157E-18
 -1       478 9.02927E-05-1.44271E-05-3.25349E-05 5.94931E-06 1.54782E-18-1.18899E-18
 -1       479 9.14430E-05-1.60066E-05-3.23530E-05 7.77702E-06 1.68281E-18-8.64452E-19
 -1       480 9.32334E-05-1.84782E-05-3.20581E-05 9.29155E-06 1.81906E-18-3.23206E-19
 -1       481 9.51188E-05-2.65792E-05-2.93562E-05 2.86986E-06 1.22769E-18 3.70388E-19
 -1       482 9.54788E-05-2.44211E-05-3.04430E-05-5.83743E-06-9.95363E-19-8.58824E-19
 -1       483 1.55444E-04-3.52867E-05-5.19789E-05-3.66981E-06-6.41416E-19 5.50889E-19
 -1       484 9.52771E-05-2.62300E-05-2.95848E-05-2.89422E-06-8.24441E-19-8.40143E-19
 -1       485 9.49220E-05-2.71626E-05-2.90360E-05-1.02703E-06-5.12268E-19-7.69855E-19
 -1       486 9.46461E-05-2.76943E-05-2.86920E-05 9.61937E-08-5.02771E-19-8.96480E-19
 -1       487 9.44899E-05-2.80212E-05-2.84860E-05 7.30804E-07-4.91931E-19-7.96398E-19
 -1       488 9.44346E-05-2.82332E-05-2.83720E-05 1.04773E-06-6.70173E-19-8.20311E-19
 -1       489 9.44499E-05-2.83745E-05-2.83182E-05 1.16195E-06-4.71291E-19-9.04220E-19
 -1       490 9.45086E-05-2.84691E-05-2.83029E-05 1.15115E-06-7.66955E-19-8.26144E-19
 -1       491 9.45899E-05-2.85310E-05-2.83113E-05 1.06806E-06-6.67984E-19-4.03257E-19
 -1       492 9.46798E-05-2.85694E-05-2.83334E-05 9.48455E-07-1.28714E-19-3.91873E-19
 -1       493 9.47692E-05-2.85908E-05-2.83625E-05 8.16429E-07 1.60253E-19-4.53868E-19
 -1       494 9.48533E-05-2.85996E-05-2.83948E-05 6.88070E-07 3.39994E-19-8.61550E-19
 -1       495 9.49302E-05-2.85992E-05-2.84278E-05 5.74098E-07 9.16053E-20-7.98245E-19
 -1       496 9.49999E-05-2.85918E-05-2.84608E-05 4.81829E-07-3.44890E-19 2.00879E-20
 -1       497 9.50641E-05-2.85788E-05-2.84938E-05 4.16643E-07-3.10488E-19 2.51172E-19
 -1       498 9.51256E-05-2.85612E-05-2.85277E-05 3.83092E-07-1.20562E-19-2.66019E-19
 -1       499 9.51882E-05-2.85395E-05-2.85637E-05 3.85743E-07-6.55314E-21-6.85927E-19
 -1       500 9.52566E-05-2.85140E-05-2.86039E-05 4.29770E-07-1.61901E-19-6.33387E-19
 -1       501 9.53363E-05-2.84848E-05-2.86504E-05 5.21352E-07-2.84014E-19-9.84490E-19
 -1       502 9.54339E-05-2.84524E-05-2.87060E-05 6.67828E-07-9.38119E-20-9.64496E-19
 -1       503 9.55569E-05-2.84180E-05-2.87733E-05 8.77586E-07 7.05865E-20-1.32566E-18
 -1       504 9.57140E-05-2.83836E-05-2.88553E-05 1.15959E-06-5.32845E-19-1.70702E-18
 -1       505 9.59156E-05-2.83532E-05-2.89545E-05 1.52238E-06-4.05857E-19-2.03706E-18
 -1       506 9.61736E-05-2.83341E-05-2.90731E-05 1.97236E-06-2.62165E-19-2.92361E-18
 -1       507 9.65020E-05-2.83379E-05-2.92120E-05 2.51103E-06 1.09054E-18-2.48874E-18
 -1       508 9.69182E-05-2.83838E-05-2.93706E-05 3.13085E-06 2.77740E-19-2.54523E-18
 -1       509 9.74443E-05-2.85018E-05-2.95455E-05 3.80912E-06 2.04089E-19-2.14838E-18
 -1       510 9.81098E-05-2.87370E-05-2.97301E-05 4.49958E-06 2.15537E-19-1.90489E-18
 -1       511 9.89552E-05-2.91552E-05-2.99137E-05 5.12118E-06-1.12016E-18-1.91675E-18
 -1       512 1.00036E-04-2.98449E-05-3.00824E-05 5.54445E-06-7.14407E-19-1.53328E-18
 -1       513 1.01425E-04-3.09127E-05-3.02215E-05 5.57708E-06-5.97658E-19-1.51662E-18
 -1       514 1.03198E-04-3.24572E-05-3.03217E-05 4.95402E-06-1.01903E-19 7.69179E-20
 -1       515 1.05395E-04-3.45019E-05-3.03902E-05 3.34566E-06 5.95971E-19 1.16751E-19
 -1       516 1.07929E-04-3.68652E-05-3.04662E-05 4.15106E-07 1.02015E-18 1.20294E-19
 -1       517 1.10427E-04-3.89737E-05-3.06327E-05-4.02174E-06 1.76239E-18-7.78477E-19
 -1       518 1.12082E-04-3.97299E-05-3.10187E-05-9.65682E-06 7.30156E-19-6.76826E-19
 -1       519 1.11776E-04-3.77608E-05-3.17297E-05-1.52039E-05 1.24923E-18 1.04685E-18
 -1       520 1.08791E-04-3.24340E-05-3.27424E-05-1.82514E-05 1.77298E-18 1.39938E-18
 -1       521 1.04056E-04-2.53528E-05-3.37589E-05-1.61741E-05 6.72956E-19 2.36551E-18
 -1       522 1.00348E-04-2.04386E-05-3.42788E-05-8.73383E-06-9.54414E-19 1.93961E-18
 -1       523 1.00040E-04-2.09003E-05-3.39491E-05 5.46731E-07 1.18204E-18 1.73871E-18
 -1       524 1.02496E-04-2.58426E-05-3.28668E-05 6.77301E-06 1.71205E-18 2.05282E-18
 -1       525 1.04641E-04-3.10774E-05-3.15302E-05 7.98509E-06 2.19305E-18 2.04562E-18
 -1       526 1.04279E-04-3.34562E-05-3.03482E-05 5.70762E-06-3.17544E-19 1.76090E-18
 -1       527 6.27491E-05-3.55399E-05-1.12407E-05 4.86976E-05 1.01591E-18 2.46640E-18
 -1       528 9.41501E-05-2.76883E-05-2.84801E-05-1.24888E-07 4.88908E-19 1.27226E-19
 -1       529 9.39743E-05-2.79353E-05-2.83011E-05-7.34291E-07 3.35484E-19-1.52260E-19
 -1       530 9.39445E-05-2.81070E-05-2.82158E-05-1.03164E-06 4.45705E-19-2.93578E-19
 -1       531 9.40080E-05-2.82333E-05-2.81894E-05-1.13385E-06 1.86591E-19-6.06041E-20
 -1       532 9.41241E-05-2.83282E-05-2.81986E-05-1.11730E-06 3.37137E-19 4.69851E-19
 -1       533 9.42639E-05-2.83996E-05-2.82281E-05-1.03275E-06 2.99173E-19 1.60348E-19
 -1       534 9.44089E-05-2.84523E-05-2.82677E-05-9.14156E-07 4.20826E-19-3.20862E-20
 -1       535 9.45477E-05-2.84901E-05-2.83109E-05-7.84127E-07 7.76011E-19 2.21593E-20
 -1       536 9.46746E-05-2.85161E-05-2.83542E-05-6.57623E-07 6.99263E-19-4.83046E-19
 -1       537 9.47876E-05-2.85325E-05-2.83955E-05-5.44485E-07 4.73433E-19-1.98355E-19
 -1       538 9.48874E-05-2.85415E-05-2.84343E-05-4.51311E-07 4.01440E-19 2.63769E-19
 -1       539 9.49768E-05-2.85446E-05-2.84712E-05-3.82851E-07-2.73984E-20 1.39189E-19
 -1       540 9.50599E-05-2.85431E-05-2.85073E-05-3.43090E-07-2.49588E-19 7.19714E-19
 -1       541 9.51421E-05-2.85381E-05-2.85446E-05-3.36082E-07-5.67702E-19 9.34706E-19
 -1       542 9.52299E-05-2.85305E-05-2.85853E-05-3.66608E-07-6.46809E-19 5.67856E-19
 -1       543 9.53312E-05-2.85213E-05-2.86325E-05-4.40681E-07 2.59128E-19 5.99268E-19
 -1       544 9.54549E-05-2.85115E-05-2.86895E-05-5.65933E-07 3.11125E-19 3.85151E-19
 -1       545 9.56114E-05-2.85021E-05-2.87603E-05-7.51858E-07-3.00358E-19 1.02885E-18
 -1       546 9.58127E-05-2.84950E-05-2.88494E-05-1.00987E-06-9.36397E-19 7.75708E-19
 -1       547 9.60725E-05-2.84925E-05-2.89615E-05-1.35311E-06-1.03517E-18 2.67003E-19
 -1       548 9.64061E-05-2.84982E-05-2.91017E-05-1.79575E-06-5.62052E-19-2.41376E-19
 -1       549 9.68304E-05-2.85178E-05-2.92747E-05-2.35163E-06 3.12291E-19-1.02536E-19
 -1       550 9.73641E-05-2.85608E-05-2.94846E-05-3.03160E-06-1.63091E-19-2.19441E-19
 -1       551 9.80276E-05-2.86431E-05-2.97333E-05-3.83889E-06-3.63014E-19 3.59378E-19
 -1       552 9.88450E-05-2.87919E-05-3.00197E-05-4.76125E-06-4.27402E-19 6.91819E-19
 -1       553 9.98462E-05-2.90537E-05-3.03368E-05-5.75826E-06 6.66454E-19 6.91403E-19
 -1       554 1.01074E-04-2.95058E-05-3.06702E-05-6.74177E-06-8.43654E-20 5.41104E-19
 -1       555 1.02595E-04-3.02701E-05-3.09966E-05-7.54765E-06-1.68343E-18 1.95432E-18
 -1       556 1.04511E-04-3.15214E-05-3.12850E-05-7.89941E-06-1.37028E-18 2.95209E-18
 -1       557 1.06958E-04-3.34660E-05-3.15057E-05-7.37093E-06-3.53785E-19 2.72032E-18
 -1       558 1.10058E-04-3.62395E-05-3.16526E-05-5.37666E-06 3.67025E-19 2.49418E-18
 -1       559 1.13757E-04-3.96558E-05-3.17805E-05-1.26205E-06 6.36443E-19 2.25479E-18
 -1       560 1.17471E-04-4.27517E-05-3.20487E-05 5.40034E-06 1.58665E-18 2.71086E-18
 -1       561 1.19654E-04-4.33640E-05-3.27266E-05 1.38799E-05 2.94998E-18 2.80597E-18
 -1       562 1.18287E-04-3.90159E-05-3.40057E-05 2.12724E-05 2.51046E-18 2.10644E-18
 -1       563 1.12384E-04-2.96143E-05-3.55532E-05 2.27968E-05 3.79149E-18 3.54463E-18
 -1       564 1.06331E-04-2.08432E-05-3.67793E-05 1.44456E-05 1.64845E-18 2.41483E-18
 -1       565 1.05059E-04-1.97490E-05-3.67029E-05 7.59454E-07-1.94051E-18 2.07055E-18
 -1       566 1.08474E-04-2.70342E-05-3.50155E-05-8.62937E-06-1.04629E-18 4.01415E-18
 -1       567 1.11620E-04-3.51135E-05-3.28466E-05-9.21183E-06-6.52248E-20 4.91029E-18
 -1       568 1.10667E-04-3.79937E-05-3.11829E-05-4.13550E-06 9.59251E-19 3.43950E-18
 -1       569 1.06065E-04-3.55412E-05-3.02369E-05 1.18468E-06-9.72305E-19 1.82313E-18
 -1       570 1.00851E-04-3.57416E-05-2.77336E-05 3.98234E-05 6.50164E-19 1.42310E-18
 -1       571 7.51945E-05-1.88688E-05-2.35838E-05 3.72438E-05 3.25279E-18 3.79301E-18
 -1       572 1.13624E-04-4.09289E-05-3.11117E-05 1.36591E-05-7.18456E-19-7.73941E-19
 -1       573 1.13175E-04-4.21042E-05-3.03851E-05 2.78237E-05-3.12012E-18 4.27447E-19
 -1       574 5.58111E-05-6.39629E-06-2.06543E-05 1.16507E-05 1.49135E-18 2.39234E-19
 -1       575 5.92208E-05-8.68007E-06-2.11459E-05-2.26705E-05-4.75589E-19-5.28845E-18
 -1       576 8.38081E-05-2.48402E-05-2.49890E-05-4.13528E-05-1.70317E-18-3.28434E-18
 -1       577 1.05524E-04-3.80157E-05-2.87675E-05-3.86748E-05-5.00775E-19-3.58996E-18
 -1       578 1.14866E-04-4.26285E-05-3.08962E-05-2.52883E-05 3.26164E-19-1.53763E-18
 -1       579 1.13426E-04-4.04418E-05-3.12611E-05-1.14722E-05 1.37180E-19-1.62127E-18
 -1       580 1.07541E-04-3.62685E-05-3.05492E-05-1.55497E-06-2.01959E-18-2.47574E-19
 -1       581 1.42456E-04-6.82085E-05-3.17352E-05 3.31149E-05 2.20864E-18 4.06650E-18
 -1       582 9.45271E-05-2.72953E-05-2.88050E-05 9.79018E-07 8.22604E-19 2.30467E-19
 -1       583 3.70637E-05-1.58252E-05-8.38974E-06 2.31998E-05 1.05522E-18-1.98492E-18
 -1       584 1.04574E-04-5.67602E-05-2.01912E-05 5.32876E-05 2.82687E-18 3.38944E-18
 -1       585 6.55145E-05-3.18423E-05-1.38702E-05-4.96062E-05 5.65342E-19-3.43758E-18
 -1       586 1.39921E-04-6.62262E-05-3.15871E-05-3.47717E-05 1.38373E-18-4.28064E-18
 -1       587 1.16001E-04-6.44314E-05-2.19395E-05 3.45756E-05-1.17007E-18-3.48051E-18
 -1       588 3.90943E-05-2.66774E-05-4.70904E-06 3.10350E-05 1.39390E-19-1.74489E-19
 -1       589 8.91509E-05-1.28765E-05-3.27071E-05-1.93635E-06 4.36778E-19-1.96038E-18
 -1       590 1.40308E-04-8.67830E-06-5.71006E-05 1.04163E-05 2.30075E-19 1.59283E-18
 -1       591 1.09094E-04-6.31580E-05-1.94860E-05-3.50023E-05-3.44107E-21-3.06447E-19
 -1       592 1.44567E-04-1.25995E-05-5.71548E-05-1.01578E-06-2.00037E-18 1.53668E-18
 -1       593 1.49339E-04-5.27174E-05-4.18248E-05 1.50565E-05 2.13144E-18 1.11078E-18
 -1       594 1.45394E-04-6.40994E-05-3.49656E-05 6.90439E-06 8.42970E-19-4.52930E-18
 -1       595 1.41261E-04-6.81620E-05-3.13757E-05-9.47990E-06-1.67051E-19-1.49427E-18
 -1       596 6.80612E-05-4.50146E-05-9.46074E-06-4.07091E-05-2.02520E-18-1.11867E-18
 -1       597 3.93950E-05-2.80369E-05-4.25805E-06-2.90621E-05-8.47456E-19-1.39093E-18
 -1       598 2.52630E-05-1.72434E-05-2.70011E-06 5.34983E-06-9.62190E-19-6.39192E-19
 -1       599 7.71526E-05-4.65945E-05-1.26333E-05 4.30915E-05-1.66918E-18-1.45028E-18
 -1       600 1.39124E-04-8.51962E-06-5.67225E-05-1.13102E-05-9.62971E-19-3.49375E-18
 -1       601 1.49335E-04-4.40244E-05-4.55473E-05-1.42416E-05 1.42744E-18-4.63507E-18
 -1       602 1.43724E-04-2.22217E-05-5.27008E-05-1.85240E-05-5.73124E-19-3.76554E-18
 -1       603 1.51852E-04-3.66747E-05-4.98637E-05 3.43539E-06 6.63756E-19 1.93229E-19
 -1       604 1.55061E-04-5.52497E-05-4.29958E-05-9.49964E-06 1.24970E-18-7.36813E-19
 -1       605 1.07708E-04-5.63777E-05-2.16506E-05-5.26943E-05 1.27844E-18-4.06481E-18
 -1       606 3.57771E-05-1.45977E-05-8.34948E-06-2.06940E-05-9.89282E-19-5.36437E-18
 -1       607 9.45847E-05-2.06881E-05-3.16900E-05-9.56965E-06-1.28120E-18-1.11812E-18
 -1       608 9.61658E-05-2.31918E-05-3.12781E-05 9.57898E-06 1.65862E-18 9.45105E-19
 -1       609 1.54005E-04-5.81882E-05-4.13804E-05 7.56342E-06 3.87211E-18-5.95041E-20
 -1       610 9.13405E-05-1.58505E-05-3.23762E-05-7.76350E-06-7.49387E-19-2.05761E-18
 -1       611 1.28743E-04-7.51068E-06-5.26197E-05-3.26783E-06 5.17643E-19-4.97753E-18
 -1       612 1.02499E-04-3.32201E-05-2.96906E-05 3.79301E-06-1.59083E-18 1.82831E-18
 -1       613 3.69718E-05-1.74627E-05-7.70579E-06-1.24330E-05-1.83005E-19-1.73393E-18
 -1       614 1.37526E-04-2.28765E-05-4.97217E-05 7.66825E-06-3.94294E-19-3.40708E-18
 -1       615 1.31993E-04-1.59082E-05-5.03226E-05 2.04583E-05 2.91067E-18 4.04434E-18
 -1       616 9.15476E-05-1.68476E-05-3.20199E-05 2.44002E-06 8.88628E-19-1.49684E-18
 -1       617 9.12876E-05-1.64443E-05-3.20811E-05 8.40649E-07 6.63581E-19-1.90760E-18
 -1       618 9.28896E-05-1.89978E-05-3.16736E-05 5.26118E-06 1.35796E-18-8.62496E-19
 -1       619 9.39831E-05-2.09275E-05-3.13174E-05 6.13848E-06 1.52172E-18-5.18091E-19
 -1       620 9.52752E-05-2.40957E-05-3.04952E-05 5.14330E-06 1.40407E-18-2.42065E-19
 -1       621 9.53383E-05-2.59393E-05-2.97385E-05 2.59996E-06 1.04434E-18-2.85112E-19
 -1       622 1.26332E-04-1.48673E-05-4.83625E-05-1.77075E-05 5.44536E-19-1.49084E-18
 -1       623 9.54164E-05-2.57079E-05-2.98741E-05-2.43430E-06-5.42723E-19-9.03498E-19
 -1       624 9.54750E-05-2.69455E-05-2.93692E-05-8.62031E-07-5.91752E-19-7.93906E-19
 -1       625 9.54199E-05-2.77068E-05-2.90197E-05 1.38475E-07-4.03960E-19-7.20783E-19
 -1       626 9.53435E-05-2.81794E-05-2.87846E-05 7.25325E-07-4.35574E-19-8.00854E-19
 -1       627 9.52786E-05-2.84710E-05-2.86319E-05 1.02572E-06-4.99231E-19-7.38109E-19
 -1       628 9.52330E-05-2.86455E-05-2.85376E-05 1.13609E-06-4.62993E-19-7.30281E-19
 -1       629 9.52051E-05-2.87424E-05-2.84841E-05 1.12656E-06-4.61071E-19-3.06808E-19
 -1       630 9.51908E-05-2.87877E-05-2.84586E-05 1.04703E-06-4.20598E-19-2.38035E-19
 -1       631 9.51860E-05-2.87986E-05-2.84518E-05 9.32372E-07-1.54635E-19-3.63224E-19
 -1       632 9.51874E-05-2.87869E-05-2.84575E-05 8.06631E-07-9.45025E-20-4.73054E-19
 -1       633 9.51928E-05-2.87602E-05-2.84712E-05 6.86196E-07 2.50068E-19-5.67654E-19
 -1       634 9.52008E-05-2.87234E-05-2.84904E-05 5.82310E-07 2.49815E-19-2.30069E-19
 -1       635 9.52104E-05-2.86791E-05-2.85135E-05 5.02984E-07-2.11136E-19-4.44581E-19
 -1       636 9.52214E-05-2.86284E-05-2.85399E-05 4.54448E-07-8.59151E-19 3.53797E-20
 -1       637 9.52338E-05-2.85709E-05-2.85698E-05 4.42266E-07-1.25723E-19 3.81094E-19
 -1       638 9.52479E-05-2.85056E-05-2.86038E-05 4.72160E-07-2.32523E-19-2.72864E-19
 -1       639 9.52645E-05-2.84307E-05-2.86430E-05 5.50577E-07-4.04288E-19-7.35072E-19
 -1       640 9.52844E-05-2.83443E-05-2.86885E-05 6.85013E-07-4.49619E-19-5.84939E-19
 -1       641 9.53089E-05-2.82448E-05-2.87417E-05 8.84087E-07 1.40979E-20-7.48964E-19
 -1       642 9.53400E-05-2.81314E-05-2.88035E-05 1.15729E-06-5.88718E-19-6.53870E-19
 -1       643 9.53806E-05-2.80054E-05-2.88749E-05 1.51433E-06-9.56621E-19-5.62177E-19
 -1       644 9.54351E-05-2.78713E-05-2.89556E-05 1.96394E-06-1.11072E-18-1.32712E-18
 -1       645 9.55108E-05-2.77396E-05-2.90445E-05 2.51202E-06 3.31789E-19-1.21153E-18
 -1       646 9.56202E-05-2.76294E-05-2.91385E-05 3.15871E-06 1.04884E-18-1.38236E-18
 -1       647 9.57840E-05-2.75735E-05-2.92326E-05 3.89450E-06 4.94479E-19-1.40371E-18
 -1       648 9.60368E-05-2.76248E-05-2.93190E-05 4.69458E-06 3.41360E-19-1.19323E-18
 -1       649 9.64355E-05-2.78640E-05-2.93874E-05 5.51140E-06 6.71682E-20-4.93266E-19
 -1       650 9.70706E-05-2.84078E-05-2.94267E-05 6.26454E-06-8.16273E-19-6.85009E-19
 -1       651 9.80784E-05-2.94138E-05-2.94279E-05 6.82678E-06-4.93410E-19 2.32979E-19
 -1       652 9.96492E-05-3.10705E-05-2.93918E-05 7.00441E-06-7.01410E-21 5.33808E-19
 -1       653 1.02014E-04-3.35538E-05-2.93424E-05 6.50994E-06-1.07076E-19 8.19522E-19
 -1       654 1.05377E-04-3.69090E-05-2.93477E-05 4.93387E-06 9.07009E-19 4.23623E-20
 -1       655 1.09732E-04-4.08121E-05-2.95432E-05 1.76205E-06 8.40925E-19-9.52292E-20
 -1       656 1.14570E-04-4.42315E-05-3.01433E-05-3.46572E-06 6.46343E-19-1.21283E-18
 -1       657 1.18358E-04-4.50000E-05-3.14546E-05-1.06375E-05 1.60512E-18-1.82580E-18
 -1       658 1.19116E-04-4.08431E-05-3.35958E-05-1.77756E-05 1.17844E-18-2.36019E-18
 -1       659 1.15260E-04-3.06258E-05-3.63901E-05-2.08737E-05 1.70191E-18-1.78984E-18
 -1       660 1.09425E-04-1.96166E-05-3.86453E-05-1.58864E-05 7.32511E-19 8.70825E-19
 -1       661 1.07063E-04-1.55347E-05-3.94043E-05-4.13870E-06 8.47165E-19 3.29729E-18
 -1       662 1.09963E-04-2.16122E-05-3.80216E-05 6.02354E-06 7.79853E-19 2.54233E-18
 -1       663 1.14341E-04-3.18631E-05-3.54086E-05 8.48637E-06 1.99221E-18 1.79607E-18
 -1       664 1.14535E-04-3.78068E-05-3.29466E-05 4.91825E-06-3.85606E-19 1.62737E-19
 -1       665 1.44132E-04-6.03634E-05-3.60295E-05-1.51224E-05 1.23782E-18-1.50176E-18
 -1       666 9.50959E-05-2.77093E-05-2.88793E-05-1.31854E-07 5.08184E-19-1.48873E-19
 -1       667 9.49020E-05-2.85295E-05-2.84454E-05-1.16029E-06-4.11928E-20-2.48753E-19
 -1       668 9.49098E-05-2.86244E-05-2.84082E-05-1.14918E-06 3.30143E-19-1.91111E-19
 -1       669 9.49355E-05-2.86764E-05-2.83970E-05-1.06664E-06 2.74734E-19 2.51559E-19
 -1       670 9.49706E-05-2.86991E-05-2.84023E-05-9.48174E-07 4.74284E-19-4.05341E-20
 -1       671 9.50095E-05-2.87020E-05-2.84177E-05-8.17982E-07 1.14309E-18 1.60910E-19
 -1       672 9.50488E-05-2.86912E-05-2.84391E-05-6.92450E-07 1.82450E-19 5.54528E-19
 -1       673 9.50869E-05-2.86710E-05-2.84641E-05-5.82687E-07 6.16847E-20 6.12169E-19
 -1       674 9.51233E-05-2.86438E-05-2.84913E-05-4.96490E-07 5.76268E-19 9.51326E-19
 -1       675 9.51588E-05-2.86108E-05-2.85207E-05-4.39831E-07-4.41271E-19 6.80131E-19
 -1       676 9.51947E-05-2.85721E-05-2.85525E-05-4.18025E-07-4.33696E-19 2.60182E-19
 -1       677 9.52328E-05-2.85272E-05-2.85881E-05-4.36620E-07-2.62592E-19 1.76411E-19
 -1       678 9.52756E-05-2.84747E-05-2.86289E-05-5.02072E-07-1.65644E-19-3.37537E-19
 -1       679 9.53259E-05-2.84130E-05-2.86768E-05-6.22244E-07-1.58823E-19 1.71797E-19
 -1       680 9.53868E-05-2.83400E-05-2.87341E-05-8.06736E-07 1.23515E-19 6.20340E-19
 -1       681 9.54618E-05-2.82536E-05-2.88032E-05-1.06700E-06-6.28484E-19 1.08689E-18
 -1       682 9.55546E-05-2.81522E-05-2.88863E-05-1.41622E-06-4.06300E-19 9.19864E-19
 -1       683 9.56688E-05-2.80347E-05-2.89855E-05-1.86876E-06-1.54239E-19 2.20035E-19
 -1       684 9.58085E-05-2.79023E-05-2.91020E-05-2.43916E-06-7.76515E-20-8.17179E-19
 -1       685 9.59786E-05-2.77605E-05-2.92355E-05-3.14027E-06 5.17644E-19-9.35427E-19
 -1       686 9.61861E-05-2.76220E-05-2.93836E-05-3.98018E-06-3.75769E-19-1.24496E-18
 -1       687 9.64438E-05-2.75136E-05-2.95404E-05-4.95748E-06 6.61987E-21-1.57442E-18
 -1       688 9.67772E-05-2.74861E-05-2.96950E-05-6.05408E-06-8.82598E-19-1.22180E-18
 -1       689 9.72380E-05-2.76299E-05-2.98309E-05-7.22445E-06-4.35173E-20 3.93639E-19
 -1       690 9.79268E-05-2.80976E-05-2.99260E-05-8.37994E-06-1.45003E-18 1.13203E-18
 -1       691 9.90267E-05-2.91283E-05-2.99566E-05-9.36512E-06-2.02470E-18 1.31754E-19
 -1       692 1.00843E-04-3.10613E-05-2.99081E-05-9.92007E-06-4.36335E-19 1.04769E-19
 -1       693 1.03825E-04-3.42950E-05-2.98014E-05-9.61900E-06 5.67967E-19 7.22770E-20
 -1       694 1.08478E-04-3.90865E-05-2.97438E-05-7.77862E-06 7.94237E-19-1.00724E-18
 -1       695 1.15032E-04-4.50564E-05-2.99971E-05-3.46529E-06 1.12388E-18-9.33873E-19
 -1       696 1.22800E-04-5.03743E-05-3.10430E-05 4.36510E-06 5.47022E-19-1.98838E-19
 -1       697 1.28641E-04-5.03488E-05-3.36106E-05 1.54276E-05 2.07594E-18 2.65969E-18
 -1       698 1.28149E-04-4.03235E-05-3.78828E-05 2.37882E-05 1.72505E-18 4.05598E-18
 -1       699 1.20266E-04-2.11521E-05-4.28630E-05-6.87458E-06-2.12968E-18 4.45166E-18
 -1       700 1.25379E-04-3.68724E-05-3.81700E-05-1.02465E-05-1.23487E-18 4.55688E-18
 -1       701 1.24969E-04-4.57386E-05-3.40446E-05-2.72589E-06 2.09524E-18 2.77846E-18
 -1       702 1.21063E-04-4.59722E-05-3.21713E-05 6.21707E-06 2.08240E-18 1.78939E-19
 -1       703 1.11835E-04-3.81141E-05-3.16147E-05 1.38145E-06 4.98505E-19-2.29294E-21
 -1       704 1.02992E-04-4.55505E-05-2.43667E-05-4.82304E-05 6.81438E-19-3.32617E-18
 -1       705 1.25908E-04-5.50138E-05-3.02992E-05-3.17697E-05 8.86407E-20-3.02238E-18
 -1       706 1.25489E-04-4.91240E-05-3.27230E-05-1.30979E-05-1.39027E-18-2.70031E-18
 -1       707 9.52352E-05-2.70424E-05-2.92235E-05 9.21109E-07 7.45639E-19-5.77568E-20
 -1       708 1.42750E-04-6.25706E-05-3.45851E-05 1.52012E-05 3.14979E-18 4.26693E-19
 -1       709 1.34989E-04-3.25085E-05-4.43438E-05-2.18658E-05 1.60722E-18-6.20849E-19
 -1       710 1.22742E-04-1.20574E-05-4.82003E-05 2.58850E-06-1.00855E-18 5.39486E-18
 -1       711 1.31529E-04-6.52461E-05-2.84130E-05 1.50868E-05 9.88170E-19-2.18296E-18
 -1       712 9.49231E-05-2.83710E-05-2.85223E-05-1.04860E-06 2.56363E-19-4.84593E-19
 -1       713 9.49852E-05-2.81161E-05-2.86580E-05-7.40585E-07 6.95804E-19-4.52405E-19
 -1       714 9.50100E-05-2.36271E-05-3.05896E-05-4.72069E-06-7.27544E-19-1.12419E-18
 -1       715 1.43784E-04-4.44881E-05-4.29127E-05-6.66539E-06 9.31763E-19 3.03264E-19
 -1       716 1.41297E-04-5.45659E-05-3.73727E-05-1.09736E-05 2.97551E-18-1.87515E-18
 -1       717 9.20736E-05-1.76749E-05-3.18910E-05 3.94581E-06 1.13213E-18-1.10783E-18
 -1       718 1.40346E-04-6.00234E-05-3.45932E-05 9.73798E-06-1.49002E-19 3.61972E-18
 -1       719 1.26525E-04-5.92042E-05-2.87045E-05-3.79672E-05 2.52098E-19-2.68289E-18
 -1       720 9.20184E-05-1.76006E-05-3.18997E-05-3.88846E-06-1.22242E-19-1.58001E-18
 -1       721 1.32845E-04-2.23409E-05-4.78315E-05-8.63724E-06-1.70121E-18 3.33547E-18
 -1       722 6.28363E-05-3.37932E-05-1.19984E-05-3.29932E-05-3.48289E-19-4.90379E-19
 -1       723 4.39869E-05-1.81031E-05-1.05536E-05 1.74979E-05-3.14408E-19 1.18331E-18
 -1       724 6.49697E-05-3.22898E-05-1.36255E-05 3.40686E-05-1.65502E-19-1.87218E-18
 -1       725 9.39962E-05-5.20849E-05-1.76356E-05-3.52553E-05-1.02388E-18-4.52369E-19
 -1       726 1.03474E-04-5.52274E-05-2.04237E-05 3.40577E-05-9.73664E-19-1.07544E-18
 -1       727 1.42936E-04-4.63021E-05-4.17525E-05 2.46269E-06 1.14847E-18-3.25949E-18
 -1       728 1.24685E-04-6.38986E-05-2.59598E-05-1.82079E-05-1.02392E-18-2.96548E-19
 -1       729 1.36176E-04-3.63406E-05-4.32287E-05 2.60582E-05 1.37288E-18 5.11600E-18
 -1       730 9.27982E-05-1.88737E-05-3.16901E-05-5.22930E-06-4.85263E-19-1.79058E-18
 -1       731 9.12761E-05-1.64309E-05-3.20824E-05-7.77585E-07 4.82243E-19-1.86646E-18
 -1       732 1.18406E-04-1.09317E-05-4.65583E-05-1.05279E-05 1.46571E-18-1.16501E-18
 -1       733 4.64292E-05-6.87367E-06-1.64277E-05 1.26009E-06 5.36873E-20-2.46487E-19
 -1       734 9.41653E-05-2.12982E-05-3.12318E-05-6.15427E-06-7.30448E-19-1.50983E-18
 -1       735 1.26905E-04-5.75861E-05-2.96572E-05 3.20890E-05 2.12891E-18 2.15525E-18
 -1       736 5.36690E-05-2.24793E-05-1.29789E-05-2.18702E-05 5.78537E-19-1.04323E-18
 -1       737 1.16566E-04-1.23305E-05-4.52963E-05 7.88013E-06 2.53686E-19 5.74350E-18
 -1       738 1.27980E-04-5.35322E-05-3.19405E-05 1.71843E-05 1.89325E-18-2.18108E-18
 -1       739 1.23948E-04-1.43174E-05-4.74553E-05 4.51896E-06-2.65598E-19-3.78490E-18
 -1       740 4.54312E-05-1.49575E-05-1.26382E-05 2.55036E-06-5.75230E-19-1.42092E-18
 -1       741 1.32564E-04-3.40157E-05-4.26514E-05 8.89900E-06 1.12618E-18-5.21494E-18
 -1       742 9.15143E-05-1.68045E-05-3.20247E-05-2.37034E-06 1.96691E-19-1.43092E-18
 -1       743 1.35255E-04-5.07558E-05-3.63587E-05-8.76356E-07 3.17508E-18-1.59402E-18
 -1       744 9.46268E-05-2.27211E-05-3.08168E-05 3.90215E-06 1.06250E-18-4.42591E-19
 -1       745 1.28769E-04-5.85957E-05-3.00372E-05-1.45260E-06-1.11040E-18 1.14146E-18
 -1       746 9.57299E-05-2.77504E-05-2.91340E-05-2.00469E-07 6.43529E-19-6.54380E-19
 -1       747 9.58656E-05-2.68854E-05-2.95631E-05-5.79160E-07-3.81604E-19-6.58577E-19
 -1       748 9.59585E-05-2.77749E-05-2.92216E-05 2.21625E-07-4.24204E-19-5.26970E-19
 -1       749 9.59472E-05-2.83373E-05-2.89757E-05 6.98044E-07-6.04659E-19-7.02710E-19
 -1       750 9.58868E-05-2.86796E-05-2.88031E-05 9.41493E-07-3.62559E-19-7.86712E-19
 -1       751 9.58065E-05-2.88735E-05-2.86856E-05 1.02672E-06-1.61248E-19-6.84493E-19
 -1       752 9.57220E-05-2.89679E-05-2.86090E-05 1.01111E-06-1.55107E-19-5.84727E-20
 -1       753 9.56412E-05-2.89962E-05-2.85622E-05 9.36940E-07-2.13666E-19 3.11329E-19
 -1       754 9.55679E-05-2.89814E-05-2.85371E-05 8.34473E-07-2.65868E-20 3.95356E-19
 -1       755 9.55033E-05-2.89389E-05-2.85276E-05 7.24928E-07-7.50394E-20 7.53867E-20
 -1       756 9.54474E-05-2.88787E-05-2.85295E-05 6.23047E-07 1.68591E-19 8.86904E-20
 -1       757 9.53989E-05-2.88064E-05-2.85396E-05 5.39250E-07-7.92783E-20-2.38648E-19
 -1       758 9.53559E-05-2.87246E-05-2.85563E-05 4.81275E-07-4.69134E-19 6.06415E-20
 -1       759 9.53162E-05-2.86333E-05-2.85784E-05 4.55467E-07-6.70019E-19-2.95649E-19
 -1       760 9.52768E-05-2.85309E-05-2.86054E-05 4.67786E-07-6.11710E-19-4.93712E-19
 -1       761 9.52345E-05-2.84143E-05-2.86372E-05 5.24508E-07-1.41997E-19-3.40542E-19
 -1       762 9.51859E-05-2.82799E-05-2.86740E-05 6.32704E-07-6.48067E-20-4.36307E-19
 -1       763 9.51271E-05-2.81236E-05-2.87158E-05 8.00484E-07-2.51349E-19 3.66938E-19
 -1       764 9.50542E-05-2.79419E-05-2.87624E-05 1.03700E-06-1.28035E-19 6.67038E-20
 -1       765 9.49638E-05-2.77329E-05-2.88132E-05 1.35216E-06-9.87150E-19-2.46761E-19
 -1       766 9.48533E-05-2.74981E-05-2.88665E-05 1.75601E-06-1.89144E-18-8.64525E-19
 -1       767 9.47226E-05-2.72440E-05-2.89194E-05 2.25768E-06-7.82431E-19-8.56229E-19
 -1       768 9.45766E-05-2.69862E-05-2.89672E-05 2.86398E-06 4.09012E-19-1.79076E-18
 -1       769 9.44282E-05-2.67540E-05-2.90031E-05 3.57736E-06 3.70616E-19-2.50722E-18
 -1       770 9.43050E-05-2.65965E-05-2.90178E-05 4.39354E-06 4.90995E-19-2.30008E-18
 -1       771 9.42579E-05-2.65920E-05-2.89995E-05 5.29832E-06 3.00152E-19-1.33044E-18
 -1       772 9.43747E-05-2.68585E-05-2.89353E-05 6.26341E-06-8.83348E-19-1.45796E-18
 -1       773 9.47980E-05-2.75647E-05-2.88141E-05 7.23945E-06-1.54877E-19-1.63987E-18
 -1       774 9.57482E-05-2.89385E-05-2.86326E-05 8.14223E-06-4.87777E-19-1.71067E-18
 -1       775 9.75447E-05-3.12597E-05-2.84081E-05 8.82264E-06 5.47193E-19-7.44418E-19
 -1       776 1.00610E-04-3.48116E-05-2.81998E-05 9.00214E-06 1.92178E-19-4.17697E-19
 -1       777 1.05390E-04-3.97180E-05-2.81479E-05 8.14902E-06-2.65318E-20-3.47107E-19
 -1       778 1.12074E-04-4.55382E-05-2.85181E-05 5.39501E-06-5.18098E-19-1.52681E-18
 -1       779 1.20058E-04-5.08371E-05-2.96630E-05-2.31815E-07 5.98263E-19-2.71001E-18
 -1       780 1.26654E-04-5.09396E-05-3.24563E-05-9.62249E-06 1.23374E-18-2.93677E-18
 -1       781 1.21907E-04-2.51707E-05-4.17372E-05-2.14040E-05 2.58454E-18-4.56928E-19
 -1       782 9.55638E-05-2.87758E-05-2.86235E-05-1.08568E-06 3.72197E-20-6.01427E-19
 -1       783 9.54069E-05-2.89033E-05-2.85016E-05-8.84194E-07 5.03265E-19 1.04474E-19
 -1       784 9.53709E-05-2.88746E-05-2.84984E-05-7.66263E-07-1.31333E-20 8.20192E-19
 -1       785 9.53417E-05-2.88295E-05-2.85052E-05-6.55183E-07 2.15733E-19 1.16472E-18
 -1       786 9.53182E-05-2.87734E-05-2.85192E-05-5.61816E-07 1.80533E-19 8.45059E-19
 -1       787 9.52991E-05-2.87088E-05-2.85387E-05-4.94133E-07 1.76727E-19 1.02137E-18
 -1       788 9.52829E-05-2.86361E-05-2.85629E-05-4.58569E-07-1.14521E-19 4.76183E-19
 -1       789 9.52680E-05-2.85540E-05-2.85917E-05-4.61149E-07-4.35404E-19 1.71296E-19
 -1       790 9.52526E-05-2.84598E-05-2.86255E-05-5.08272E-07-3.06984E-19-1.78893E-20
 -1       791 9.52346E-05-2.83499E-05-2.86648E-05-6.07305E-07-3.85495E-19 6.81426E-19
 -1       792 9.52112E-05-2.82195E-05-2.87107E-05-7.66995E-07-6.61958E-19 9.80405E-19
 -1       793 9.51792E-05-2.80636E-05-2.87638E-05-9.97639E-07-6.13382E-19 1.18294E-18
 -1       794 9.51345E-05-2.78770E-05-2.88246E-05-1.31104E-06-4.27189E-19 9.34753E-19
 -1       795 9.50720E-05-2.76550E-05-2.88929E-05-1.72016E-06-2.78808E-19 5.50618E-19
 -1       796 9.49857E-05-2.73944E-05-2.89675E-05-2.23844E-06 6.31602E-19-1.03702E-19
 -1       797 9.48691E-05-2.70959E-05-2.90454E-05-2.87866E-06 2.38646E-19-8.45332E-19
 -1       798 9.47168E-05-2.67672E-05-2.91210E-05-3.65140E-06 9.23843E-20-7.21250E-19
 -1       799 9.45275E-05-2.64283E-05-2.91850E-05-4.56295E-06-2.18447E-19-5.68859E-19
 -1       800 9.43107E-05-2.61216E-05-2.92235E-05-5.61306E-06-5.26435E-19 4.25504E-19
 -1       801 9.40992E-05-2.59255E-05-2.92168E-05-6.79254E-06-1.74991E-18-2.87116E-19
 -1       802 9.39708E-05-2.59774E-05-2.91396E-05-8.08095E-06-1.24033E-18-2.73503E-19
 -1       803 9.40844E-05-2.65027E-05-2.89631E-05-9.44304E-06-4.22046E-19 1.90547E-19
 -1       804 9.47347E-05-2.78518E-05-2.86638E-05-1.08188E-05-1.32173E-18-1.87703E-18
 -1       805 9.64300E-05-3.05290E-05-2.82416E-05-1.20848E-05 2.80582E-19-2.82325E-18
 -1       806 9.99589E-05-3.51568E-05-2.77640E-05-1.29391E-05 1.63761E-18-2.43985E-18
 -1       807 1.06333E-04-4.22262E-05-2.74701E-05-1.26648E-05 9.00568E-19-2.00446E-18
 -1       808 8.84030E-05-4.15562E-05-1.99112E-05 3.06874E-05 3.57468E-19-9.20328E-19
 -1       809 9.31959E-05-1.97728E-05-3.14680E-05 1.23306E-06 7.05042E-19-1.52819E-18
 -1       810 1.31507E-04-5.80147E-05-3.15558E-05-2.22270E-06 1.75919E-18-1.12049E-18
 -1       811 9.56292E-05-2.85908E-05-2.87308E-05-9.90706E-07-1.55630E-19-7.15690E-19
 -1       812 9.54509E-05-2.89067E-05-2.85190E-05-9.93406E-07 2.94523E-19-2.73877E-19
 -1       813 9.48911E-05-2.33917E-05-3.06423E-05-3.49902E-06-3.33618E-19-1.39922E-18
 -1       814 9.55034E-05-2.88710E-05-2.85568E-05-1.07135E-06-1.26015E-20-5.09699E-19
 -1       815 9.56910E-05-2.82714E-05-2.88941E-05-7.23463E-07 3.24046E-19-5.98208E-19
 -1       816 1.06514E-04-5.21241E-05-2.32021E-05-2.38769E-05-6.51223E-19 8.32405E-19
 -1       817 9.55657E-05-2.55008E-05-3.00274E-05-1.79968E-06-2.68266E-19-8.81482E-19
 -1       818 1.17612E-04-5.77234E-05-2.56086E-05 1.95837E-05 7.32379E-19-7.87814E-19
 -1       819 6.20035E-05-2.33678E-05-1.63264E-05 2.24425E-05-5.11499E-19-1.38098E-18
 -1       820 8.45772E-05-3.92968E-05-1.91328E-05-2.90962E-05 1.11570E-20-7.01184E-19
 -1       821 9.52135E-05-2.44779E-05-3.03152E-05 3.42288E-06 1.07204E-18-2.83708E-19
 -1       822 1.29639E-04-4.22179E-05-3.76586E-05-2.00337E-05 2.69222E-18-7.13983E-19
 -1       823 9.40245E-05-2.13102E-05-3.11633E-05-4.46033E-06-3.57579E-19-1.76739E-18
 -1       824 1.34448E-04-5.05164E-05-3.60536E-05-2.97727E-06 1.07605E-18-3.59060E-18
 -1       825 9.30878E-05-1.95758E-05-3.15056E-05 2.19665E-08 4.90815E-19-1.70793E-18
 -1       826 9.40329E-05-2.13578E-05-3.11455E-05 3.31605E-06 9.91930E-19-1.00499E-18
 -1       827 1.27998E-04-4.21486E-05-3.69561E-05 4.31474E-06 3.87326E-19-2.68033E-18
 -1       828 9.32976E-05-1.99486E-05-3.14378E-05-3.54634E-06-1.93895E-19-1.53243E-18
 -1       829 9.56907E-05-2.69111E-05-2.94771E-05 6.84205E-07 7.89808E-19-5.40236E-19
 -1       830 5.34122E-05-1.65072E-05-1.56022E-05-8.20946E-06-1.10624E-19-3.25799E-18
 -1       831 1.14410E-04-5.02590E-05-2.74635E-05-1.12035E-05-1.05992E-18-5.52404E-19
 -1       832 9.27893E-05-1.90451E-05-3.16075E-05-2.36333E-06 1.60260E-19-1.25364E-18
 -1       833 9.35259E-05-2.03688E-05-3.13530E-05 2.36793E-06 8.86249E-19-1.10255E-18
 -1       834 5.75207E-05-1.77091E-05-1.68659E-05 1.18884E-05-7.43814E-19 1.17244E-18
 -1       835 9.55158E-05-2.58964E-05-2.98368E-05 1.82201E-06 7.31357E-19-5.24133E-19
 -1       836 9.63607E-05-2.79259E-05-2.93292E-05 2.92642E-07-5.11899E-19-9.54445E-19
 -1       837 9.63813E-05-2.85191E-05-2.90838E-05 6.36274E-07-4.88085E-19-4.94827E-19
 -1       838 9.63179E-05-2.88751E-05-2.89041E-05 8.06687E-07-9.36205E-20-3.32049E-19
 -1       839 9.62107E-05-2.90670E-05-2.87759E-05 8.58464E-07 5.66428E-20-4.52416E-19
 -1       840 9.60850E-05-2.91476E-05-2.86875E-05 8.34975E-07-9.84248E-20-3.91338E-19
 -1       841 9.59561E-05-2.91541E-05-2.86294E-05 7.68810E-07-1.58059E-19-5.77824E-19
 -1       842 9.58327E-05-2.91128E-05-2.85943E-05 6.83698E-07-8.69415E-20-7.84397E-19
 -1       843 9.57191E-05-2.90408E-05-2.85764E-05 5.96359E-07-2.50053E-20-4.15826E-19
 -1       844 9.56158E-05-2.89487E-05-2.85716E-05 5.18695E-07 4.58738E-20-6.52759E-19
 -1       845 9.55214E-05-2.88423E-05-2.85768E-05 4.59391E-07-3.89665E-19-1.10015E-18
 -1       846 9.54326E-05-2.87231E-05-2.85898E-05 4.25128E-07-6.98839E-19-1.28874E-18
 -1       847 9.53447E-05-2.85901E-05-2.86091E-05 4.21738E-07-6.56874E-19-7.27637E-19
 -1       848 9.52521E-05-2.84397E-05-2.86339E-05 4.54960E-07-1.68509E-19-5.38180E-19
 -1       849 9.51478E-05-2.82671E-05-2.86631E-05 5.30979E-07-4.29510E-19-2.06457E-19
 -1       850 9.50242E-05-2.80666E-05-2.86961E-05 6.56815E-07-2.39424E-19-8.92723E-19
 -1       851 9.48730E-05-2.78322E-05-2.87318E-05 8.40519E-07-1.46496E-19-9.63752E-19
 -1       852 9.46852E-05-2.75591E-05-2.87683E-05 1.09118E-06-7.93557E-19-1.34002E-18
 -1       853 9.44522E-05-2.72448E-05-2.88032E-05 1.41877E-06-1.83482E-18-1.55003E-18
 -1       854 9.41668E-05-2.68915E-05-2.88323E-05 1.83377E-06-8.87274E-19-1.14342E-18
 -1       855 9.38250E-05-2.65088E-05-2.88498E-05 2.34676E-06-7.25790E-19-6.24573E-19
 -1       856 9.34288E-05-2.61178E-05-2.88476E-05 2.96797E-06 2.74815E-19-1.61774E-18
 -1       857 9.29917E-05-2.57574E-05-2.88147E-05 3.70711E-06 2.87319E-19-1.49744E-18
 -1       858 9.25450E-05-2.54908E-05-2.87375E-05 4.57370E-06 7.74435E-19-2.13273E-18
 -1       859 9.21496E-05-2.54167E-05-2.85998E-05 5.57817E-06-8.87406E-20-1.91895E-18
 -1       860 9.19116E-05-2.56807E-05-2.83846E-05 6.73315E-06-6.19854E-19-1.93364E-18
 -1       861 9.20069E-05-2.64911E-05-2.80781E-05 8.05271E-06-1.56156E-18-1.83303E-18
 -1       862 9.27156E-05-2.81345E-05-2.76775E-05 9.54269E-06 1.45258E-18-1.38324E-18
 -1       863 9.44685E-05-3.09855E-05-2.72069E-05 1.11620E-05 8.26034E-19-1.63442E-18
 -1       864 9.79169E-05-3.55050E-05-2.67466E-05 1.27348E-05 9.01187E-19-1.52460E-18
 -1       865 1.03926E-04-4.20460E-05-2.65161E-05 1.35539E-05-4.97792E-19-1.15648E-18
 -1       866 1.13300E-04-5.04795E-05-2.68825E-05 1.24982E-05-3.78490E-19-5.67696E-19
 -1       867 9.61360E-05-2.87923E-05-2.88616E-05-8.77816E-07-2.93716E-19-7.42546E-19
 -1       868 9.56309E-05-2.89993E-05-2.85564E-05-6.57443E-07-3.85596E-19 1.25842E-19
 -1       869 9.61971E-05-2.84427E-05-2.90376E-05-6.77825E-07-1.76157E-20-6.54469E-19
 -1       870 9.78035E-05-4.16944E-05-2.39602E-05-2.12558E-05-1.35399E-18 1.75611E-18
 -1       871 9.57232E-05-2.90582E-05-2.85707E-05-7.55396E-07 1.24103E-19 2.20678E-19
 -1       872 9.54745E-05-2.88305E-05-2.85617E-05-4.98477E-07 1.23161E-19 7.06147E-19
 -1       873 9.54065E-05-2.87280E-05-2.85765E-05-4.54280E-07 2.14771E-19 1.14340E-18
 -1       874 9.53407E-05-2.86134E-05-2.85974E-05-4.42174E-07-2.30152E-19 7.72540E-19
 -1       875 9.52724E-05-2.84835E-05-2.86239E-05-4.68168E-07-2.83180E-19 1.49462E-19
 -1       876 9.51959E-05-2.83334E-05-2.86554E-05-5.38690E-07-7.19514E-19 9.36939E-19
 -1       877 9.51042E-05-2.81568E-05-2.86917E-05-6.61084E-07-5.65440E-19 4.52970E-19
 -1       878 9.49892E-05-2.79465E-05-2.87326E-05-8.43805E-07-5.70851E-19 1.24479E-19
 -1       879 9.48412E-05-2.76946E-05-2.87771E-05-1.09644E-06-3.52515E-19 2.38554E-19
 -1       880 9.46486E-05-2.73934E-05-2.88236E-05-1.42949E-06 1.24445E-19-1.79093E-19
 -1       881 9.43981E-05-2.70363E-05-2.88693E-05-1.85392E-06 3.15000E-19-8.43034E-19
 -1       882 9.40749E-05-2.66196E-05-2.89094E-05-2.38049E-06 1.69167E-19-2.04067E-19
 -1       883 9.36632E-05-2.61449E-05-2.89364E-05-3.01902E-06-2.86733E-19 2.63354E-19
 -1       884 9.31486E-05-2.56239E-05-2.89391E-05-3.77788E-06-3.59449E-19 5.22195E-19
 -1       885 9.25216E-05-2.50846E-05-2.89015E-05-4.66440E-06 1.20130E-19-1.50000E-18
 -1       886 9.17855E-05-2.45819E-05-2.88014E-05-5.68728E-06-3.38773E-19-1.55629E-18
 -1       887 9.09699E-05-2.42133E-05-2.86098E-05-6.86259E-06-1.58091E-18-1.15542E-18
 -1       888 9.01540E-05-2.41421E-05-2.82906E-05-8.22479E-06-1.07370E-18-1.69807E-18
 -1       889 8.95056E-05-2.46304E-05-2.78036E-05-9.84292E-06 2.82475E-20-1.22818E-18
 -1       890 8.93427E-05-2.60813E-05-2.71122E-05-1.18357E-05-2.88900E-20-1.91307E-18
 -1       891 9.02515E-05-2.91335E-05-2.61933E-05-1.44068E-05 5.01116E-19-1.07783E-18
 -1       892 9.24622E-05-3.39802E-05-2.50609E-05-1.75601E-05-3.05994E-19 1.21703E-19
 -1       893 7.00382E-05-2.65200E-05-1.84783E-05-2.22017E-05-6.00993E-19 2.17383E-19
 -1       894 9.57785E-05-2.55777E-05-3.00861E-05-1.16988E-06-9.38461E-20-1.24893E-18
 -1       895 9.43305E-05-2.20348E-05-3.09842E-05-3.02186E-06-3.67519E-21-1.45205E-18
 -1       896 9.55485E-05-2.89216E-05-2.85544E-05-5.68621E-07-2.81137E-20 6.13501E-19
 -1       897 9.28536E-05-1.91650E-05-3.15823E-05-1.12626E-06 2.47107E-19-1.57590E-18
 -1       898 9.58249E-05-2.90877E-05-2.86017E-05-8.49366E-07 2.27538E-19-2.39176E-19
 -1       899 9.61929E-05-2.69941E-05-2.96568E-05-2.88328E-07-1.87918E-19-9.51442E-19
 -1       900 9.53645E-05-2.47013E-05-3.02847E-05 2.32929E-06 8.92651E-19-4.78619E-19
 -1       901 1.03392E-04-4.64342E-05-2.43441E-05 2.10952E-05-5.74020E-19-1.88264E-18
 -1       902 7.99419E-05-3.02960E-05-2.12193E-05 2.23029E-05-9.79479E-19-7.53654E-19
 -1       903 9.52094E-05-2.40426E-05-3.05002E-05-2.01945E-06 4.70674E-20-1.39857E-18
 -1       904 9.61876E-05-2.78632E-05-2.92818E-05-2.78986E-07 5.22271E-19-7.82502E-19
 -1       905 9.45366E-05-2.22695E-05-3.09716E-05 4.30152E-07 4.03312E-19-1.56294E-18
 -1       906 9.60633E-05-2.69653E-05-2.96142E-05 4.00992E-07 8.13025E-19-6.71217E-19
 -1       907 5.89066E-05-1.60009E-05-1.82911E-05 2.34125E-06-3.23122E-19-1.61987E-18
 -1       908 9.38759E-05-2.10749E-05-3.12011E-05-2.20996E-06 1.02020E-20-1.25728E-18
 -1       909 9.59330E-05-2.90715E-05-2.86549E-05-9.20472E-07-4.67330E-20-3.07140E-19
 -1       910 9.46842E-05-2.26042E-05-3.08914E-05 1.22683E-06 5.32081E-19-1.22519E-18
 -1       911 9.60409E-05-2.89850E-05-2.87383E-05-9.42222E-07-2.05770E-19-4.19481E-19
 -1       912 7.26896E-05-2.37955E-05-2.08725E-05 1.72258E-05-7.83625E-19-1.78619E-18
 -1       913 9.45313E-05-2.22579E-05-3.09737E-05-4.17492E-07 2.35155E-19-1.40765E-18
 -1       914 9.65580E-05-2.86377E-05-2.91087E-05-5.89374E-07 1.33601E-19-6.87703E-19
 -1       915 9.66840E-05-2.87215E-05-2.91268E-05 5.26726E-07-8.12284E-20-8.13423E-19
 -1       916 9.66046E-05-2.90562E-05-2.89493E-05 6.26228E-07-6.60366E-20-8.84872E-19
 -1       917 9.64709E-05-2.92244E-05-2.88199E-05 6.47327E-07 8.89379E-20-8.80869E-19
 -1       918 9.63127E-05-2.92795E-05-2.87285E-05 6.19646E-07-2.42128E-19-4.29159E-19
 -1       919 9.61487E-05-2.92593E-05-2.86669E-05 5.65798E-07-3.06870E-19-6.35175E-19
 -1       920 9.59899E-05-2.91907E-05-2.86282E-05 5.02032E-07 1.07617E-19-7.13901E-19
 -1       921 9.58410E-05-2.90907E-05-2.86073E-05 4.39954E-07-5.01012E-20-7.42397E-19
 -1       922 9.57025E-05-2.89692E-05-2.86000E-05 3.88212E-07-5.48845E-19-1.17657E-18
 -1       923 9.55720E-05-2.88310E-05-2.86033E-05 3.53078E-07-3.46319E-19-1.03318E-18
 -1       924 9.54441E-05-2.86764E-05-2.86148E-05 3.39707E-07-5.54144E-19-1.04374E-18
 -1       925 9.53120E-05-2.85024E-05-2.86327E-05 3.52961E-07 2.44044E-19-9.03188E-19
 -1       926 9.51670E-05-2.83039E-05-2.86556E-05 3.97758E-07 1.27375E-19-5.94045E-20
 -1       927 9.49987E-05-2.80741E-05-2.86820E-05 4.79568E-07-5.31651E-19-2.73340E-19
 -1       928 9.47956E-05-2.78053E-05-2.87102E-05 6.04740E-07-4.56371E-19-4.27305E-19
 -1       929 9.45450E-05-2.74902E-05-2.87378E-05 7.80679E-07-8.51944E-19-1.37632E-18
 -1       930 9.42333E-05-2.71229E-05-2.87617E-05 1.01596E-06-1.01127E-18-1.68767E-18
 -1       931 9.38472E-05-2.67007E-05-2.87771E-05 1.32043E-06-9.06034E-19-4.66672E-19
 -1       932 9.33747E-05-2.62268E-05-2.87778E-05 1.70534E-06-6.22666E-19-6.25271E-19
 -1       933 9.28070E-05-2.57131E-05-2.87546E-05 2.18378E-06-9.41580E-19-1.80740E-19
 -1       934 9.21419E-05-2.51851E-05-2.86959E-05 2.77166E-06-3.37834E-19-8.39072E-19
 -1       935 9.13879E-05-2.46868E-05-2.85864E-05 3.48974E-06-3.56121E-20-2.06770E-18
 -1       936 9.05707E-05-2.42883E-05-2.84070E-05 4.36742E-06 4.21725E-19-2.94441E-18
 -1       937 8.97426E-05-2.40946E-05-2.81351E-05 5.44918E-06-2.66891E-20-1.85754E-18
 -1       938 8.89978E-05-2.42581E-05-2.77459E-05 6.80353E-06-2.48721E-19-7.62321E-19
 -1       939 8.84962E-05-2.49955E-05-2.72150E-05 8.53311E-06 3.79071E-19 7.72415E-19
 -1       940 8.85065E-05-2.66161E-05-2.65251E-05 1.07865E-05 6.84114E-19-8.07769E-20
 -1       941 8.95114E-05-2.95745E-05-2.56823E-05 1.36890E-05 6.64892E-19-1.09532E-18
 -1       942 9.22512E-05-3.44943E-05-2.47299E-05 1.73764E-05 7.04494E-19-1.50573E-18
 -1       943 9.53333E-05-2.85432E-05-2.86243E-05-3.90653E-07 1.38586E-19-3.10397E-19
 -1       944 9.52433E-05-2.39968E-05-3.05348E-05 1.84412E-06 7.11539E-19-7.12361E-19
 -1       945 9.59275E-05-2.91601E-05-2.86146E-05-5.86467E-07-1.50811E-19-3.09369E-19
 -1       946 9.54458E-05-2.87000E-05-2.86053E-05-3.83032E-07 3.83053E-19 9.26590E-20
 -1       947 9.55564E-05-2.88396E-05-2.85929E-05-4.04511E-07 1.31685E-19-1.44100E-19
 -1       948 9.52109E-05-2.83638E-05-2.86488E-05-4.32507E-07-8.84197E-19-1.67590E-19
 -1       949 9.50690E-05-2.81548E-05-2.86775E-05-5.14274E-07-3.41531E-19-2.43334E-19
 -1       950 9.48962E-05-2.79076E-05-2.87094E-05-6.42239E-07-4.64624E-19 3.15162E-19
 -1       951 9.46792E-05-2.76128E-05-2.87428E-05-8.23377E-07-2.64717E-19-1.73388E-19
 -1       952 9.44023E-05-2.72605E-05-2.87751E-05-1.06520E-06-4.34669E-19-1.19515E-18
 -1       953 9.40477E-05-2.68416E-05-2.88026E-05-1.37543E-06 5.90742E-20-2.65784E-19
 -1       954 9.35949E-05-2.63491E-05-2.88196E-05-1.76150E-06 2.24712E-19-1.18789E-19
 -1       955 9.30215E-05-2.57799E-05-2.88178E-05-2.23008E-06-8.27650E-19 2.77247E-19
 -1       956 9.23036E-05-2.51382E-05-2.87852E-05-2.78704E-06 3.48059E-19 6.19276E-20
 -1       957 9.14175E-05-2.44391E-05-2.87051E-05-3.43831E-06 3.37985E-19-3.47805E-19
 -1       958 9.03417E-05-2.37149E-05-2.85544E-05-4.19319E-06-4.33331E-19 3.17986E-19
 -1       959 8.90614E-05-2.30228E-05-2.83024E-05-5.07198E-06-1.45678E-18 3.91523E-19
 -1       960 8.75758E-05-2.24569E-05-2.79083E-05-6.12132E-06-1.12897E-18-2.25970E-19
 -1       961 8.59114E-05-2.21656E-05-2.73202E-05-7.43840E-06-3.06038E-19-6.53625E-19
 -1       962 8.41361E-05-2.23723E-05-2.64724E-05-9.21587E-06 1.87682E-19-3.42047E-19
 -1       963 8.24260E-05-2.34516E-05-2.52723E-05-1.17962E-05-9.06794E-19-5.01400E-19
 -1       964 9.65377E-05-2.80580E-05-2.93485E-05-3.21439E-07 3.40496E-19-2.76565E-19
 -1       965 9.60712E-05-2.92170E-05-2.86518E-05-6.60591E-07 1.75118E-19-2.40617E-19
 -1       966 9.64856E-05-2.72482E-05-2.96734E-05-5.99580E-08-1.84008E-19-9.48028E-19
 -1       967 9.57686E-05-2.59685E-05-2.99142E-05 1.20437E-06 8.99135E-19-6.09068E-19
 -1       968 6.64062E-05-1.93345E-05-2.00875E-05-1.15948E-05-8.94023E-19-1.34355E-18
 -1       969 9.60535E-05-2.58880E-05-3.00715E-05-6.37510E-07-5.67798E-20-1.07092E-18
 -1       970 9.66655E-05-2.81496E-05-2.93639E-05 3.11498E-07-3.01059E-19-6.87168E-19
 -1       971 7.93477E-05-2.70294E-05-2.23345E-05-1.79728E-05-6.92751E-19-5.78208E-20
 -1       972 9.64862E-05-2.89811E-05-2.89307E-05-7.16840E-07-3.73159E-19-9.49187E-19
 -1       973 9.49417E-05-2.32256E-05-3.07360E-05-1.54322E-06 2.61855E-19-1.24328E-18
 -1       974 9.62199E-05-2.92253E-05-2.87120E-05-7.21269E-07-8.24578E-21-1.96848E-19
 -1       975 9.63740E-05-2.71557E-05-2.96637E-05 1.43547E-07 6.85804E-19-2.67412E-19
 -1       976 6.89484E-05-1.94845E-05-2.11535E-05 1.08105E-05-1.04441E-19 8.24641E-20
 -1       977 9.41665E-05-2.15872E-05-3.11050E-05-1.22530E-06 1.56270E-19-1.36102E-18
 -1       978 9.55756E-05-2.46664E-05-3.03866E-05-1.07338E-06 2.09820E-19-1.15195E-18
 -1       979 8.07888E-05-2.47312E-05-2.40121E-05-1.43995E-05-1.38308E-19 1.15686E-19
 -1       980 9.63642E-05-2.91594E-05-2.88020E-05-7.48903E-07-2.94312E-19-6.92832E-19
 -1       981 9.56709E-05-2.89638E-05-2.85887E-05-4.49548E-07-1.09973E-19 4.36223E-20
 -1       982 9.57941E-05-2.90725E-05-2.85949E-05-5.12971E-07-4.44748E-19-1.02652E-20
 -1       983 9.55627E-05-2.43440E-05-3.05221E-05 1.41890E-09 7.86160E-20-1.38784E-18
 -1       984 9.55939E-05-2.44654E-05-3.04840E-05 4.91985E-07 2.85263E-19-1.19544E-18
 -1       985 8.30048E-05-2.76569E-05-2.36986E-05 1.62436E-05 8.61767E-19-2.23106E-19
 -1       986 9.67976E-05-2.88447E-05-2.91227E-05-4.48807E-07 7.81142E-20-1.90961E-19
 -1       987 9.57370E-05-2.50481E-05-3.02954E-05 1.04245E-06 6.52827E-19-6.16388E-19
 -1       988 9.67635E-05-2.92121E-05-2.89507E-05 4.06586E-07 1.74464E-19-5.35182E-19
 -1       989 9.66031E-05-2.93392E-05-2.88274E-05 4.07795E-07 2.77898E-20-1.12327E-18
 -1       990 9.64201E-05-2.93602E-05-2.87399E-05 3.83180E-07-3.06664E-19-7.86269E-19
 -1       991 9.62324E-05-2.93105E-05-2.86808E-05 3.47079E-07 1.87655E-19-4.10899E-19
 -1       992 9.60512E-05-2.92159E-05-2.86437E-05 3.06963E-07-2.96697E-19-7.39874E-19
 -1       993 9.58797E-05-2.90908E-05-2.86238E-05 2.70652E-07-4.85081E-19-1.12654E-18
 -1       994 9.57175E-05-2.89439E-05-2.86173E-05 2.43243E-07-8.75083E-20-1.13106E-18
 -1       995 9.55606E-05-2.87782E-05-2.86210E-05 2.27740E-07-3.39351E-19-9.58124E-19
 -1       996 9.54013E-05-2.85918E-05-2.86327E-05 2.28297E-07-2.56092E-21-5.30103E-19
 -1       997 9.52309E-05-2.83804E-05-2.86502E-05 2.48068E-07 4.20246E-19-8.04527E-19
 -1       998 9.50377E-05-2.81369E-05-2.86718E-05 2.90632E-07-3.04404E-19-1.44661E-18
 -1       999 9.48083E-05-2.78528E-05-2.86953E-05 3.60240E-07-6.01863E-19-1.17823E-18
 -1      1000 9.45276E-05-2.75189E-05-2.87181E-05 4.62002E-07-9.36006E-19-9.77090E-19
 -1      1001 9.41789E-05-2.71265E-05-2.87369E-05 6.02134E-07-9.45789E-19-2.79364E-19
 -1      1002 9.37447E-05-2.66692E-05-2.87468E-05 7.88256E-07-6.58536E-19-6.01160E-19
 -1      1003 9.32067E-05-2.61440E-05-2.87414E-05 1.02981E-06-4.91451E-19-3.67166E-19
 -1      1004 9.25478E-05-2.55546E-05-2.87116E-05 1.33878E-06-8.07673E-19-6.38794E-20
 -1      1005 9.17528E-05-2.49140E-05-2.86455E-05 1.73090E-06-9.18428E-19-6.48077E-19
 -1      1006 9.08109E-05-2.42482E-05-2.85273E-05 2.22787E-06-1.17880E-18-6.27029E-19
 -1      1007 8.97180E-05-2.36007E-05-2.83365E-05 2.86121E-06-4.24804E-19-1.22383E-18
 -1      1008 8.84785E-05-2.30363E-05-2.80474E-05 3.67888E-06 9.21594E-19-1.77212E-18
 -1      1009 8.71085E-05-2.26468E-05-2.76275E-05 4.75670E-06 5.54243E-19-1.07296E-18
 -1      1010 8.56429E-05-2.25598E-05-2.70372E-05 6.21548E-06 6.41349E-19-3.87309E-19
 -1      1011 8.41423E-05-2.29473E-05-2.62288E-05 8.24223E-06 1.44510E-19-5.36234E-19
 -1      1012 8.27330E-05-2.40666E-05-2.51456E-05 1.11067E-05-1.58610E-19-6.45474E-19
 -1      1013 9.50963E-05-2.82064E-05-2.86671E-05-3.47405E-07-6.68183E-19-3.14386E-19
 -1      1014 9.52703E-05-2.84334E-05-2.86444E-05-3.02466E-07-1.05620E-19 3.00538E-19
 -1      1015 9.55705E-05-2.88035E-05-2.86144E-05-2.88411E-07-1.73360E-19-4.90266E-19
 -1      1016 9.48899E-05-2.79402E-05-2.86928E-05-4.22840E-07-3.85171E-19-1.20972E-18
 -1      1017 9.46358E-05-2.76246E-05-2.87192E-05-5.33068E-07-6.03217E-19-1.03610E-18
 -1      1018 9.43163E-05-2.72486E-05-2.87434E-05-6.82527E-07 6.44833E-19-6.32315E-19
 -1      1019 9.39111E-05-2.68017E-05-2.87613E-05-8.75492E-07-1.00822E-18-9.49261E-19
 -1      1020 9.33974E-05-2.62748E-05-2.87670E-05-1.11564E-06-1.16067E-18 3.71197E-19
 -1      1021 9.27496E-05-2.56619E-05-2.87521E-05-1.40556E-06-5.77671E-19 1.21766E-18
 -1      1022 9.19395E-05-2.49623E-05-2.87048E-05-1.74644E-06 1.80855E-19 4.00191E-19
 -1      1023 9.09362E-05-2.41830E-05-2.86088E-05-2.13837E-06 5.51011E-19 5.91233E-19
 -1      1024 8.97059E-05-2.33417E-05-2.84422E-05-2.58208E-06-4.37684E-19 1.51307E-18
 -1      1025 8.82099E-05-2.24696E-05-2.81749E-05-3.08357E-06-8.99699E-19 8.95137E-19
 -1      1026 8.64002E-05-2.16131E-05-2.77667E-05-3.66414E-06-7.58379E-19 4.30597E-19
 -1      1027 8.42099E-05-2.08345E-05-2.71624E-05-4.38224E-06-1.71625E-19-8.92716E-20
 -1      1028 8.15599E-05-2.02332E-05-2.62851E-05-5.36910E-06 7.09932E-19-1.15297E-18
 -1      1029 7.82544E-05-1.98639E-05-2.50162E-05-6.83087E-06-2.67252E-19-2.02182E-18
 -1      1030 9.67948E-05-2.83093E-05-2.93510E-05-2.98636E-07 4.86364E-19-2.53149E-19
 -1      1031 9.62027E-05-2.92925E-05-2.86758E-05-4.46966E-07 6.17992E-20-3.95974E-19
 -1      1032 9.54248E-05-2.86302E-05-2.86262E-05-2.84024E-07 1.28050E-19 7.86614E-20
 -1      1033 9.63354E-05-2.63464E-05-2.99941E-05-2.53269E-07 1.04560E-19-1.55334E-18
 -1      1034 6.69485E-05-1.69993E-05-2.13693E-05-2.25231E-06-8.20846E-19-2.17789E-18
 -1      1035 9.68705E-05-2.89275E-05-2.91185E-05 3.63656E-07-2.00649E-19-6.67402E-19
 -1      1036 9.68793E-05-2.84171E-05-2.93411E-05 2.57718E-07-3.25929E-19-6.66958E-19
 -1      1037 9.67418E-05-2.76142E-05-2.96277E-05 5.45463E-08-1.11524E-19-1.19538E-18
 -1      1038 9.55985E-05-2.44688E-05-3.04849E-05-4.91795E-07 1.35328E-19-1.54353E-18
 -1      1039 9.63804E-05-2.93295E-05-2.87361E-05-4.93450E-07-8.25934E-21-8.32061E-19
 -1      1040 9.57175E-05-2.89589E-05-2.86110E-05-3.12872E-07-5.53842E-20-7.63660E-19
 -1      1041 9.66405E-05-2.74636E-05-2.96480E-05-2.22584E-08 4.50402E-19-4.25644E-19
 -1      1042 9.67027E-05-2.91504E-05-2.89510E-05-5.13348E-07-2.64772E-19-3.92732E-19
 -1      1043 7.49960E-05-1.96769E-05-2.37057E-05-8.15987E-06-1.40294E-18-1.80643E-18
 -1      1044 9.60311E-05-2.92083E-05-2.86382E-05-3.96439E-07-5.79755E-19-2.44320E-19
 -1      1045 9.63834E-05-2.62374E-05-3.00623E-05-7.15591E-08 1.70408E-19-1.33336E-18
 -1      1046 7.70170E-05-2.22391E-05-2.34722E-05 1.16182E-05 6.11120E-19-6.75494E-19
 -1      1047 9.63635E-05-2.62213E-05-3.00588E-05 1.29997E-07 3.24424E-19-9.76163E-19
 -1      1048 9.68079E-05-2.93259E-05-2.89206E-05 1.59731E-07-3.14144E-19-9.20211E-19
 -1      1049 9.66186E-05-2.93994E-05-2.88084E-05 1.55601E-07-2.60102E-19-8.98461E-19
 -1      1050 9.64236E-05-2.93880E-05-2.87296E-05 1.42441E-07-3.25081E-20-1.37478E-18
 -1      1051 9.62245E-05-2.93098E-05-2.86778E-05 1.27833E-07 6.41677E-20-1.50195E-18
 -1      1052 9.60307E-05-2.91911E-05-2.86456E-05 1.14218E-07-2.52384E-19-9.69777E-19
 -1      1053 9.58508E-05-2.90482E-05-2.86297E-05 9.99689E-08-2.05235E-19-6.16424E-19
 -1      1054 9.56765E-05-2.88815E-05-2.86264E-05 9.14471E-08-6.21063E-20-8.32156E-19
 -1      1055 9.55022E-05-2.86932E-05-2.86324E-05 8.98784E-08-9.13246E-21-1.10421E-18
 -1      1056 9.53203E-05-2.84808E-05-2.86454E-05 9.48585E-08-2.55503E-19-1.36766E-18
 -1      1057 9.51189E-05-2.82376E-05-2.86634E-05 1.08542E-07-3.45470E-19-1.74748E-18
 -1      1058 9.48844E-05-2.79548E-05-2.86841E-05 1.32964E-07-2.87127E-19-1.70909E-18
 -1      1059 9.46008E-05-2.76226E-05-2.87048E-05 1.70668E-07-4.31911E-19-1.38041E-18
 -1      1060 9.42499E-05-2.72307E-05-2.87224E-05 2.25000E-07-5.96395E-20-1.37268E-18
 -1      1061 9.38117E-05-2.67694E-05-2.87323E-05 3.00463E-07-9.94038E-19-9.39070E-19
 -1      1062 9.32646E-05-2.62317E-05-2.87282E-05 4.03200E-07-6.94150E-19-1.27064E-18
 -1      1063 9.25859E-05-2.56144E-05-2.87018E-05 5.41707E-07-8.15915E-19-1.55338E-18
 -1      1064 9.17522E-05-2.49209E-05-2.86416E-05 7.27908E-07-1.44108E-18-1.28291E-18
 -1      1065 9.07400E-05-2.41634E-05-2.85323E-05 9.78811E-07-1.05095E-18-1.15987E-18
 -1      1066 8.95255E-05-2.33652E-05-2.83537E-05 1.31909E-06-4.85167E-19-3.28301E-20
 -1      1067 8.80830E-05-2.25624E-05-2.80793E-05 1.78514E-06 4.39877E-19 9.49424E-19
 -1      1068 8.63800E-05-2.18035E-05-2.76743E-05 2.43145E-06 1.99856E-19 4.70796E-19
 -1      1069 8.43671E-05-2.11468E-05-2.70927E-05 3.34052E-06-1.90429E-19-3.42066E-19
 -1      1070 8.19640E-05-2.06683E-05-2.62716E-05 4.64876E-06 4.62650E-19-5.29839E-19
 -1      1071 7.91823E-05-2.04698E-05-2.51524E-05 6.46897E-06 7.64044E-20-9.47585E-19
 -1      1072 9.46827E-05-2.77097E-05-2.87027E-05-2.55535E-07-4.18437E-19-2.82663E-19
 -1      1073 9.49479E-05-2.80270E-05-2.86804E-05-2.07886E-07-1.72291E-19-2.45536E-21
 -1      1074 9.39407E-05-2.68871E-05-2.87373E-05-4.05910E-07-3.80459E-19 2.30421E-19
 -1      1075 9.34202E-05-2.63608E-05-2.87398E-05-5.09800E-07-1.15614E-18-1.19282E-19
 -1      1076 9.27664E-05-2.57472E-05-2.87227E-05-6.31497E-07-1.13752E-18-1.02626E-18
 -1      1077 9.19510E-05-2.50432E-05-2.86750E-05-7.67518E-07-3.76314E-19-1.87630E-19
 -1      1078 9.09427E-05-2.42523E-05-2.85820E-05-9.11720E-07 8.93994E-20 9.07849E-19
 -1      1079 8.97062E-05-2.33861E-05-2.84235E-05-1.05513E-06-4.28472E-19 2.27856E-18
 -1      1080 8.81991E-05-2.24652E-05-2.81725E-05-1.18663E-06-3.26085E-21 1.22868E-18
 -1      1081 8.63652E-05-2.15182E-05-2.77927E-05-1.29503E-06-5.17813E-19 5.57938E-19
 -1      1082 8.41198E-05-2.05761E-05-2.72347E-05-1.37271E-06 1.66899E-19 2.76326E-20
 -1      1083 8.13145E-05-1.96503E-05-2.64280E-05-1.41733E-06-2.42540E-20 3.52437E-20
 -1      1084 7.76248E-05-1.86956E-05-2.52654E-05-1.59559E-06 1.28419E-18 9.90383E-19
 -1      1085 9.53578E-05-2.85285E-05-2.86411E-05-1.60185E-07-3.61057E-19 1.16689E-20
 -1      1086 9.69620E-05-2.85801E-05-2.93066E-05-1.91732E-07 3.54994E-19-8.25029E-19
 -1      1087 9.43538E-05-2.73334E-05-2.87231E-05-3.21195E-07-5.10745E-19-3.60295E-19
 -1      1088 9.51677E-05-2.82965E-05-2.86591E-05-1.76700E-07-1.41509E-19 1.91091E-19
 -1      1089 7.33837E-05-1.80965E-05-2.36694E-05-1.19275E-06 3.50782E-19-4.19548E-19
 -1      1090 9.65535E-05-2.92946E-05-2.88252E-05-5.20368E-07-1.74775E-19-8.04585E-19
 -1      1091 9.70005E-05-2.86893E-05-2.92760E-05 1.22233E-07-1.72575E-20-6.33941E-19
 -1      1092 9.69462E-05-2.91083E-05-2.90731E-05 1.50780E-07-1.60963E-20-5.57397E-19
 -1      1093 9.55317E-05-2.87315E-05-2.86287E-05-1.56405E-07-5.62633E-19-4.90426E-19
 -1      1094 7.27953E-05-1.85860E-05-2.32448E-05 5.53821E-06 4.57969E-19 3.21373E-19
 -1      1095 9.58702E-05-2.90949E-05-2.86181E-05-3.50659E-07 1.61030E-19-7.73276E-19
 -1      1096 9.62673E-05-2.62358E-05-3.00144E-05 3.35759E-07 5.21042E-19-6.27227E-19
 -1      1097 9.56996E-05-2.89111E-05-2.86235E-05-1.63250E-07-2.55312E-19-4.79242E-19
 -1      1098 9.68588E-05-2.78501E-05-2.95767E-05-6.41417E-08 3.56896E-19-8.78268E-19
 -1      1099 9.69273E-05-2.90387E-05-2.90952E-05-2.53177E-07 1.10047E-20-7.88869E-19
 -1      1100 9.69175E-05-2.79932E-05-2.95374E-05 6.41131E-08 1.67268E-19-1.07026E-18
 -1      1101 9.64223E-05-2.93764E-05-2.87343E-05-2.55429E-07-9.17082E-20-5.06343E-19
 -1      1102 9.62398E-05-2.93199E-05-2.86801E-05-2.30100E-07-1.36075E-19-3.97404E-19
 -1      1103 9.65368E-05-2.94104E-05-2.87675E-05-9.19232E-08-4.33602E-19-5.75350E-19
 -1      1104 9.59497E-05-2.91282E-05-2.86377E-05-6.84518E-08 1.24625E-19-7.73090E-19
 -1      1105 9.68022E-05-2.92855E-05-2.89358E-05-2.76382E-07-1.36090E-19-5.71292E-19
 -1      1106 9.66285E-05-2.93854E-05-2.88188E-05-2.72141E-07-1.98928E-19-3.62825E-19
 -1      1107 9.60983E-05-2.92376E-05-2.86547E-05-1.42287E-07 1.31819E-19-8.31865E-19
 -1      1108 1.16859E-04 2.57582E-10-4.18570E-05-4.14647E-05-2.28275E-19 5.31005E-18
 -1      1109 8.86542E-05 7.19268E-11-3.72525E-05-2.41655E-05-1.13926E-19-1.24302E-19
 -1      1110 8.40802E-05 4.14574E-11-3.57676E-05-1.78752E-05-6.87155E-20-2.22465E-18
 -1      1111 8.23350E-05 3.20240E-11-3.50730E-05-1.38327E-05-4.02870E-20-3.15759E-18
 -1      1112 8.15305E-05 2.73267E-11-3.47382E-05-1.05306E-05-2.11626E-20-3.54494E-18
 -1      1113 8.11277E-05 2.46055E-11-3.45725E-05-7.63819E-06-6.59098E-21-3.66407E-18
 -1      1114 8.09178E-05 2.29457E-11-3.44888E-05-4.97774E-06 1.93560E-21-3.64108E-18
 -1      1115 8.08152E-05 2.20492E-11-3.44493E-05-2.43103E-06 1.09949E-20-3.50181E-18
 -1      1116 8.07859E-05 2.17785E-11-3.44382E-05 5.25249E-08 1.22927E-20-3.35099E-18
 -1      1117 8.08194E-05 2.20934E-11-3.44508E-05 2.53861E-06 2.81903E-20-3.12391E-18
 -1      1118 8.09265E-05 2.30445E-11-3.44917E-05 5.09353E-06 3.61445E-20-2.85860E-18
 -1      1119 8.11432E-05 2.47628E-11-3.45768E-05 7.76983E-06 4.42972E-20-2.47776E-18
 -1      1120 8.15531E-05 2.76383E-11-3.47446E-05 1.06901E-05 5.59042E-20-1.91704E-18
 -1      1121 8.23591E-05 3.25002E-11-3.50831E-05 1.40394E-05 7.66565E-20-1.04344E-18
 -1      1122 8.40761E-05 4.19286E-11-3.57877E-05 1.81263E-05 8.74032E-20 5.23625E-19
 -1      1123 8.83521E-05 6.67526E-11-3.73228E-05 2.40082E-05 8.39621E-20 3.34597E-18
 -1      1124 1.06624E-04 1.63937E-10-4.06358E-05 3.61914E-05 1.35525E-19 8.76669E-18
 -1      1125 1.30227E-04-2.57581E-05-4.02756E-05-2.61053E-05-9.08337E-19 8.66430E-18
 -1      1126 9.74653E-05-2.88652E-05-3.15802E-05-6.80057E-07-3.12529E-19 6.49875E-18
 -1      1127 9.01696E-05-2.70295E-05-2.78961E-05 3.87065E-07-7.55977E-20 3.83308E-18
 -1      1128 8.82596E-05-2.65756E-05-2.66470E-05 2.50850E-07-6.74185E-20 1.93401E-18
 -1      1129 8.79028E-05-2.64492E-05-2.63910E-05 1.66029E-07-5.38213E-20 4.56815E-19
 -1      1130 8.82638E-05-2.65265E-05-2.64764E-05 1.18176E-07-3.85201E-20-2.20149E-19
 -1      1131 8.89515E-05-2.67113E-05-2.66795E-05 8.75681E-08-8.63494E-21-8.68500E-19
 -1      1132 8.97671E-05-2.69435E-05-2.69224E-05 6.63657E-08-8.29728E-20-1.50917E-18
 -1      1133 9.06004E-05-2.71862E-05-2.71708E-05 5.06880E-08-1.44783E-19-2.44206E-18
 -1      1134 9.13891E-05-2.74186E-05-2.74065E-05 3.86161E-08-4.68055E-21-3.45636E-18
 -1      1135 9.20997E-05-2.76293E-05-2.76197E-05 2.91300E-08 1.75106E-19-3.56332E-18
 -1      1136 9.27173E-05-2.78132E-05-2.78054E-05 2.16186E-08 3.24109E-20-3.09129E-18
 -1      1137 9.32385E-05-2.79689E-05-2.79627E-05 1.56679E-08-1.72911E-20-3.84276E-18
 -1      1138 9.36676E-05-2.80975E-05-2.80925E-05 1.09684E-08 9.03241E-20-3.79012E-18
 -1      1139 9.40133E-05-2.82014E-05-2.81974E-05 7.27572E-09 1.18256E-21-3.42967E-18
 -1      1140 9.42871E-05-2.82839E-05-2.82808E-05 4.39201E-09-1.28828E-19-3.55111E-18
 -1      1141 9.45018E-05-2.83488E-05-2.83465E-05 2.15915E-09-3.27662E-20-4.86471E-18
 -1      1142 9.46715E-05-2.84004E-05-2.83986E-05 4.56387E-10 2.46267E-19-4.04274E-18
 -1      1143 9.48106E-05-2.84429E-05-2.84417E-05-7.99166E-10-1.17358E-19-4.69265E-18
 -1      1144 9.49350E-05-2.84811E-05-2.84804E-05-1.65017E-09 5.50358E-20-5.48279E-18
 -1      1145 9.50619E-05-2.85201E-05-2.85200E-05-2.09507E-09-2.84690E-21-5.27756E-18
 -1      1146 9.52106E-05-2.85659E-05-2.85665E-05-2.08238E-09-1.43843E-20-3.56027E-18
 -1      1147 9.54035E-05-2.86251E-05-2.86265E-05-1.50319E-09-3.65805E-20-3.07474E-18
 -1      1148 9.56668E-05-2.87056E-05-2.87081E-05-1.82109E-10-1.11177E-20-5.73276E-18
 -1      1149 9.60317E-05-2.88167E-05-2.88207E-05 2.13231E-09 1.07346E-19-5.71993E-18
 -1      1150 9.65340E-05-2.89691E-05-2.89750E-05 5.77526E-09 9.53710E-20-3.26715E-18
 -1      1151 9.72153E-05-2.91753E-05-2.91835E-05 1.11656E-08 9.09038E-20-2.71275E-18
 -1      1152 9.81207E-05-2.94485E-05-2.94594E-05 1.87872E-08-1.27926E-19-4.57463E-18
 -1      1153 9.92963E-05-2.98022E-05-2.98163E-05 2.91288E-08 4.67762E-20-4.94905E-18
 -1      1154 1.00783E-04-3.02480E-05-3.02651E-05 4.25436E-08 1.75344E-19-2.66195E-18
 -1      1155 1.02604E-04-3.07925E-05-3.08115E-05 5.89609E-08-4.87582E-19-2.63139E-18
 -1      1156 1.04747E-04-3.14310E-05-3.14490E-05 7.73502E-08 2.42586E-19-3.47188E-18
 -1      1157 1.07136E-04-3.21395E-05-3.21506E-05 9.48215E-08 1.14052E-19-3.36081E-18
 -1      1158 1.09589E-04-3.28623E-05-3.28565E-05 1.05324E-07 8.29695E-20-4.78837E-18
 -1      1159 1.11769E-04-3.34983E-05-3.34610E-05 9.82274E-08-3.68410E-20-6.81408E-18
 -1      1160 1.13145E-04-3.38893E-05-3.38040E-05 5.78552E-08 6.09533E-19-6.08283E-18
 -1      1161 1.12994E-04-3.38217E-05-3.36788E-05-3.34769E-08-1.67309E-19-3.99101E-18
 -1      1162 1.10512E-04-3.30615E-05-3.28721E-05-1.85626E-07-2.59503E-20-3.03378E-18
 -1      1163 1.05096E-04-3.14394E-05-3.12497E-05-3.82397E-07 3.82157E-19-1.57691E-18
 -1      1164 9.68068E-05-2.89846E-05-2.88730E-05-5.64152E-07 1.25632E-20-2.85736E-18
 -1      1165 8.67908E-05-2.60435E-05-2.60867E-05-6.34468E-07-1.19806E-19-4.39885E-18
 -1      1166 7.72836E-05-2.32676E-05-2.34857E-05-5.12585E-07 2.96025E-19-2.86075E-18
 -1      1167 7.08465E-05-2.13871E-05-2.17123E-05-2.09749E-07 2.47896E-19-1.13328E-18
 -1      1168 6.90961E-05-2.08575E-05-2.11653E-05 1.48477E-07-1.41845E-19-1.26710E-18
 -1      1169 7.18300E-05-2.16263E-05-2.18128E-05 4.03190E-07 8.92362E-21-8.92932E-19
 -1      1170 7.73069E-05-2.32080E-05-2.32505E-05 4.79720E-07 8.85960E-20 7.19925E-19
 -1      1171 8.34333E-05-2.50077E-05-2.49532E-05 4.24655E-07 7.86541E-20-5.07479E-19
 -1      1172 8.88382E-05-2.66234E-05-2.65132E-05 3.39779E-07 2.99403E-19 2.60367E-18
 -1      1173 9.30003E-05-2.78909E-05-2.76766E-05 2.71251E-07-2.37351E-19 1.86419E-18
 -1      1174 9.50369E-05-2.85309E-05-2.83365E-05 3.12107E-08 2.39754E-19 9.67080E-19
 -1      1175 1.31060E-04-3.77399E-05-3.86611E-05 1.21745E-05-1.53207E-19 1.30884E-17
 -1      1176 9.65667E-05-2.81918E-05-3.13327E-05 8.01355E-07 4.35693E-20 1.11167E-17
 -1      1177 9.03837E-05-2.69322E-05-2.78770E-05 1.20130E-07 6.19062E-20 9.15881E-18
 -1      1178 8.83467E-05-2.65030E-05-2.66834E-05 8.99532E-09 1.77348E-20 7.98548E-18
 -1      1179 8.79434E-05-2.64119E-05-2.64182E-05-2.52955E-08 9.93494E-20 6.82949E-18
 -1      1180 8.82854E-05-2.65091E-05-2.64922E-05-3.43413E-08 7.75267E-20 5.57120E-18
 -1      1181 8.89643E-05-2.67044E-05-2.66897E-05-3.55496E-08-2.26470E-20 5.36664E-18
 -1      1182 8.97751E-05-2.69421E-05-2.69297E-05-3.38622E-08 3.13222E-20 5.44841E-18
 -1      1183 9.06056E-05-2.71878E-05-2.71764E-05-3.08442E-08-4.39604E-20 4.81937E-18
 -1      1184 9.13924E-05-2.74216E-05-2.74108E-05-2.71996E-08 3.35096E-21 4.51219E-18
 -1      1185 9.21019E-05-2.76330E-05-2.76229E-05-2.33449E-08 6.41032E-20 4.10622E-18
 -1      1186 9.27186E-05-2.78170E-05-2.78078E-05-1.95420E-08 7.99250E-20 3.71856E-18
 -1      1187 9.32391E-05-2.79726E-05-2.79644E-05-1.59477E-08 4.04119E-20 2.75422E-18
 -1      1188 9.36677E-05-2.81008E-05-2.80937E-05-1.26430E-08-1.32357E-19 2.78159E-18
 -1      1189 9.40129E-05-2.82041E-05-2.81981E-05-9.65389E-09 1.42563E-19 1.50757E-18
 -1      1190 9.42861E-05-2.82860E-05-2.82810E-05-6.96647E-09-4.48968E-20 4.54570E-19
 -1      1191 9.45001E-05-2.83503E-05-2.83462E-05-4.53932E-09-2.56759E-19 1.18762E-18
 -1      1192 9.46686E-05-2.84011E-05-2.83979E-05-2.31309E-09 2.84245E-19 4.28134E-19
 -1      1193 9.48063E-05-2.84427E-05-2.84403E-05-2.18581E-10 9.37233E-20-8.18104E-19
 -1      1194 9.49289E-05-2.84800E-05-2.84783E-05 1.81632E-09-3.78094E-20 6.12997E-19
 -1      1195 9.50534E-05-2.85179E-05-2.85172E-05 3.86017E-09-4.70110E-20 2.23198E-18
 -1      1196 9.51994E-05-2.85626E-05-2.85628E-05 5.97098E-09-1.15471E-19 1.92968E-18
 -1      1197 9.53900E-05-2.86209E-05-2.86222E-05 8.18725E-09-1.03574E-19 6.15199E-20
 -1      1198 9.56526E-05-2.87010E-05-2.87037E-05 1.05148E-08 7.03383E-20-1.45291E-18
 -1      1199 9.60208E-05-2.88131E-05-2.88178E-05 1.29064E-08-2.76073E-19 1.44681E-18
 -1      1200 9.65356E-05-2.89695E-05-2.89767E-05 1.52292E-08 3.20968E-19 2.09967E-18
 -1      1201 9.72468E-05-2.91851E-05-2.91957E-05 1.72110E-08-1.06487E-19 2.33706E-18
 -1      1202 9.82140E-05-2.94776E-05-2.94928E-05 1.83553E-08 4.89443E-20 2.23810E-18
 -1      1203 9.95070E-05-2.98678E-05-2.98889E-05 1.78080E-08-2.62602E-19 3.35304E-18
 -1      1204 1.01203E-04-3.03784E-05-3.04071E-05 1.41611E-08 5.10949E-20 3.23015E-18
 -1      1205 1.03382E-04-3.10321E-05-3.10700E-05 5.19952E-09 6.03842E-21 1.80614E-18
 -1      1206 1.06108E-04-3.18471E-05-3.18949E-05-1.23429E-08 5.45650E-20 4.18146E-18
 -1      1207 1.09407E-04-3.28283E-05-3.28838E-05-4.27698E-08 1.22273E-19 4.08355E-18
 -1      1208 1.13205E-04-3.39515E-05-3.40061E-05-9.05348E-08-9.31472E-20 2.79791E-18
 -1      1209 1.17252E-04-3.51396E-05-3.51724E-05-1.57262E-07-1.10465E-19 3.85863E-18
 -1      1210 1.20998E-04-3.62291E-05-3.62009E-05-2.34986E-07-2.42644E-19 3.84627E-18
 -1      1211 1.23470E-04-3.69377E-05-3.67917E-05-2.94964E-07 1.73086E-19 2.34819E-18
 -1      1212 1.23246E-04-3.68603E-05-3.65428E-05-2.78090E-07 3.44048E-19 2.66882E-18
 -1      1213 1.18737E-04-3.55461E-05-3.50622E-05-1.08296E-07-2.62494E-19 2.03849E-18
 -1      1214 1.08998E-04-3.27168E-05-3.22031E-05 2.45138E-07 1.10644E-20-3.62107E-19
 -1      1215 9.49656E-05-2.86053E-05-2.83414E-05 6.76353E-07 9.65419E-20-5.00141E-18
 -1      1216 8.02131E-05-2.41951E-05-2.44533E-05 9.26900E-07-2.12996E-19-5.12931E-18
 -1      1217 6.98600E-05-2.09913E-05-2.17435E-05 7.70637E-07 2.21208E-19-4.21484E-18
 -1      1218 6.74900E-05-2.01614E-05-2.10122E-05 2.51219E-07-7.04493E-20-4.97616E-18
 -1      1219 7.24930E-05-2.16309E-05-2.21268E-05-2.89181E-07 2.69763E-19-5.39984E-18
 -1      1220 8.07177E-05-2.41706E-05-2.41539E-05-5.42113E-07 2.00998E-19-4.63443E-18
 -1      1221 8.78035E-05-2.63906E-05-2.60702E-05-4.65245E-07 2.41868E-20-5.24350E-18
 -1      1222 9.19061E-05-2.76610E-05-2.73441E-05-2.57370E-07-3.58639E-19-6.45757E-18
 -1      1223 9.38262E-05-2.81953E-05-2.79967E-05-1.75052E-07 4.80570E-19-6.10920E-18
 -1      1224 9.48956E-05-2.84989E-05-2.82257E-05-9.22473E-08-4.35693E-19-4.14780E-18
 -1      1225 9.53129E-05-2.89016E-05-2.83255E-05-1.34768E-07-3.58274E-18-5.97620E-19
 -1      1226 9.55525E-05-2.98391E-05-2.83891E-05-2.99657E-07-1.54340E-18-7.43304E-20
 -1      1227 9.51762E-05-2.88312E-05-2.90472E-05-8.12877E-08-2.63493E-19 5.11740E-19
 -1      1228 9.32183E-05-2.24481E-05-3.11848E-05 4.36134E-07 3.90593E-18 6.52096E-19
 -1      1229 8.91143E-05-8.64490E-06-3.51995E-05 1.10258E-06 6.34258E-18 1.88822E-19
 -1      1230 8.33191E-05 1.11249E-05-4.05189E-05 1.56567E-06 1.86559E-18 1.10680E-19
 -1      1231 7.75619E-05 3.11576E-05-4.56372E-05 1.39484E-06-2.81998E-18 1.97372E-19
 -1      1232 7.42014E-05 4.30000E-05-4.85481E-05 4.32019E-07-3.99778E-18-3.69200E-19
 -1      1233 7.49776E-05 4.02731E-05-4.78465E-05-8.13369E-07-9.29619E-19 5.24605E-19
 -1      1234 7.95922E-05 2.41345E-05-4.37824E-05-1.57428E-06 3.29411E-18 6.61347E-19
 -1      1235 8.59595E-05 2.13531E-06-3.80464E-05-1.53162E-06-2.34501E-18-1.38257E-18
 -1      1236 9.16534E-05-1.72394E-05-3.27185E-05-9.57704E-07-9.81002E-18 4.12426E-19
 -1      1237 9.53357E-05-2.95495E-05-2.90628E-05-3.27120E-07-1.29682E-17 3.12648E-19
 -1      1238 9.68417E-05-3.44192E-05-2.73719E-05 1.55779E-07-9.76919E-18 5.08908E-19
 -1      1239 9.67834E-05-3.38362E-05-2.72268E-05 4.02823E-07-6.26990E-18 6.90332E-19
 -1      1240 9.58440E-05-3.08157E-05-2.77972E-05 4.37084E-07-1.45668E-18-2.39920E-19
 -1      1241 9.52449E-05-2.87993E-05-2.83685E-05 1.26632E-07-4.17402E-19 7.22145E-19
 -1      1242 4.18201E-05-1.32019E-04 2.20135E-05-1.67123E-05-6.12913E-18-1.91302E-18
 -1      1243 2.21734E-05-8.14793E-05 1.20652E-05-3.08803E-05-8.15354E-18-2.30986E-18
 -1      1244 9.81689E-06-1.09868E-05-6.57309E-06 6.80290E-07-7.28279E-18-4.23008E-18
 -1      1245 4.14795E-05 2.98703E-05-3.03513E-05 6.52595E-05-2.97986E-18-3.06795E-18
 -1      1246 1.24243E-04 1.63959E-05-5.29641E-05 1.19108E-04-8.31786E-19-4.15046E-19
 -1      1247 2.33562E-04-3.60060E-05-7.17935E-05 1.25688E-04-2.11758E-21 4.31987E-19
 -1      1248 3.21778E-04-8.95933E-05-8.32501E-05 7.19001E-05 4.84291E-19 3.21025E-18
 -1      1249 3.37875E-04-1.01771E-04-8.45610E-05-1.87578E-05-5.87100E-20 1.94945E-18
 -1      1250 2.67643E-04-6.23536E-05-7.47995E-05-9.29877E-05-7.85623E-20 6.03934E-19
 -1      1251 1.58674E-04-7.91894E-06-5.68209E-05-1.12433E-04 1.60089E-18-2.79351E-18
 -1      1252 6.21979E-05 2.12787E-05-3.47005E-05-7.32357E-05 5.71578E-18-6.03765E-18
 -1      1253 1.26162E-05 2.25750E-06-1.15977E-05-1.28271E-05 6.36630E-18-4.81962E-18
 -1      1254 1.19807E-05-5.29816E-05 7.34052E-06 2.65440E-05 5.87502E-18-3.52366E-18
 -1      1255 3.21676E-05-1.08875E-04 1.94787E-05 2.68814E-05 1.09013E-18-1.23783E-18
 -1      1256 4.09332E-05-1.27805E-04 2.30365E-05-1.38745E-06-6.81364E-18-9.06325E-19
 -1      1257 2.89733E-05-9.94470E-05 1.74745E-05-2.68517E-05-9.86878E-18-2.15538E-18
 -1      1258 1.01974E-05-3.98844E-05 3.68936E-06-2.04010E-05-4.28599E-18-1.32815E-18
 -1      1259 1.88889E-05 1.21343E-05-1.67006E-05 2.71977E-05 2.96631E-18 2.89601E-18
 -1      1260 7.98454E-05 2.09134E-05-4.03658E-05 8.74204E-05-9.50371E-19-1.98714E-18
 -1      1261 1.80873E-04-1.66965E-05-6.15279E-05 1.17180E-04-3.58803E-18-7.24721E-18
 -1      1262 2.81304E-04-7.00343E-05-7.69935E-05 8.85654E-05-1.49205E-18-1.02567E-17
 -1      1263 3.36801E-04-1.01679E-04-8.45441E-05 1.11205E-05-4.81962E-19-1.36144E-17
 -1      1264 3.13309E-04-8.39427E-05-8.25270E-05-7.21618E-05 2.49070E-18-1.21117E-17
 -1      1265 2.32079E-04-3.60145E-05-7.12329E-05-1.23693E-04 4.06533E-18-1.03406E-17
 -1      1266 1.21869E-04 1.66236E-05-5.23744E-05-1.17606E-04 4.92719E-18-7.65040E-18
 -1      1267 4.00150E-05 3.01766E-05-2.97534E-05-6.38878E-05 3.33562E-18-5.60566E-18
 -1      1268 9.40975E-06-7.67398E-06-7.44140E-06-2.64689E-06 5.59381E-18-2.65714E-18
 -1      1269 2.07349E-05-7.68350E-05 1.12123E-05 2.86701E-05 8.97686E-18-3.66342E-18
 -1      1270 4.24763E-05-1.32703E-04 2.19555E-05 1.65714E-05 5.25076E-18-1.65182E-18
 -1      1271 1.04449E-04-2.20210E-05-3.78941E-05-1.72742E-05-3.56177E-19 3.95056E-18
 -1      1272 9.03231E-05-6.68189E-06-3.60183E-05-2.04695E-05-8.41686E-19-1.11708E-18
 -1      1273 9.26606E-05-6.74086E-06-3.72236E-05-2.57579E-05-1.12168E-18-1.84230E-20
 -1      1274 8.59062E-05-4.09706E-06-3.51304E-05-1.64307E-05-7.14896E-19-2.63697E-18
 -1      1275 8.71590E-05-4.08978E-06-3.56001E-05-1.88515E-05-8.72603E-19-1.99079E-18
 -1      1276 9.21372E-05-1.04639E-05-3.50944E-05-1.90332E-05-1.41301E-18-9.59794E-19
 -1      1277 8.40952E-05-3.19004E-06-3.46866E-05-1.28139E-05-4.97526E-19-3.33985E-18
 -1      1278 8.47081E-05-3.16067E-06-3.49114E-05-1.46285E-05-5.98058E-19-3.03799E-18
 -1      1279 8.78675E-05-7.39518E-06-3.45740E-05-1.54092E-05-1.11115E-18-2.22113E-18
 -1      1280 8.31829E-05-2.72718E-06-3.44694E-05-9.68489E-06-2.99426E-19-3.63483E-18
 -1      1281 8.34966E-05-2.70878E-06-3.45789E-05-1.12320E-05-3.61193E-19-3.52264E-18
 -1      1282 8.58652E-05-5.98157E-06-3.43049E-05-1.19531E-05-7.15895E-19-2.82724E-18
 -1      1283 8.26904E-05-2.45697E-06-3.43624E-05-6.91334E-06-1.30837E-19-3.67068E-18
 -1      1284 8.28604E-05-2.44861E-06-3.44171E-05-8.28427E-06-1.96022E-19-3.66389E-18
 -1      1285 8.48182E-05-5.21623E-06-3.41719E-05-8.94313E-06-4.48722E-19-3.03386E-18
 -1      1286 8.24135E-05-2.29107E-06-3.43092E-05-4.29365E-06 1.51506E-20-3.60206E-18
 -1      1287 8.25052E-05-2.28719E-06-3.43366E-05-5.59462E-06-1.34665E-21-3.64423E-18
 -1      1288 8.42309E-05-4.76062E-06-3.41080E-05-6.21505E-06-1.40065E-19-3.07227E-18
 -1      1289 8.22802E-05-2.20151E-06-3.42866E-05-1.78942E-06 1.91431E-19-3.47159E-18
 -1      1290 8.23195E-05-2.19995E-06-3.42978E-05-3.04014E-06 1.30675E-19-3.53398E-18
 -1      1291 8.39069E-05-4.49639E-06-3.40787E-05-3.64368E-06 1.00448E-19-2.97613E-18
 -1      1292 8.22540E-05-2.17397E-06-3.42839E-05 6.69681E-07 3.23472E-19-3.29183E-18
 -1      1293 8.22526E-05-2.17402E-06-3.42835E-05-5.65868E-07 2.74325E-19-3.39264E-18
 -1      1294 8.37648E-05-4.37662E-06-3.40676E-05-1.17023E-06 3.79788E-19-2.88192E-18
 -1      1295 8.23280E-05-2.20426E-06-3.42993E-05 3.14760E-06 4.58844E-19-3.07777E-18
 -1      1296 8.22858E-05-2.20589E-06-3.42874E-05 1.89428E-06 4.11199E-19-3.21039E-18
 -1      1297 8.37697E-05-4.38085E-06-3.40680E-05 1.27344E-06 6.02821E-19-2.72074E-18
 -1      1298 8.25221E-05-2.29740E-06-3.43393E-05 5.71129E-06 6.07392E-19-2.80989E-18
 -1      1299 8.24270E-05-2.30075E-06-3.43111E-05 4.40439E-06 5.59247E-19-2.97205E-18
 -1      1300 8.39223E-05-4.50991E-06-3.40798E-05 3.75124E-06 8.31894E-19-2.47949E-18
 -1      1301 8.28831E-05-2.46329E-06-3.44200E-05 8.39253E-06 7.49909E-19-2.40449E-18
 -1      1302 8.27096E-05-2.47196E-06-3.43648E-05 7.01297E-06 6.99623E-19-2.63851E-18
 -1      1303 8.42560E-05-4.78326E-06-3.41093E-05 6.30918E-06 1.05204E-18-2.22389E-18
 -1      1304 8.35430E-05-2.74085E-06-3.45841E-05 1.13925E-05 9.39439E-19-1.81514E-18
 -1      1305 8.32208E-05-2.75792E-06-3.44730E-05 9.82764E-06 8.66760E-19-2.16484E-18
 -1      1306 8.48604E-05-5.25683E-06-3.41729E-05 9.05181E-06 1.34561E-18-1.78449E-18
 -1      1307 8.47660E-05-3.20333E-06-3.49194E-05 1.48412E-05 1.08936E-18-8.25513E-19
 -1      1308 8.41527E-05-3.24003E-06-3.46924E-05 1.30008E-05 9.97117E-19-1.41403E-18
 -1      1309 8.59456E-05-6.06242E-06-3.43064E-05 1.21201E-05 1.54429E-18-1.12547E-18
 -1      1310 8.72585E-05-4.09083E-06-3.56218E-05 1.90888E-05 1.18410E-18 8.26545E-19
 -1      1311 8.59742E-05-4.15464E-06-3.51382E-05 1.66906E-05 1.06959E-18-1.65383E-19
 -1      1312 8.79928E-05-7.51746E-06-3.45763E-05 1.56478E-05 1.73820E-18-7.58094E-20
 -1      1313 9.34735E-05-6.79352E-06-3.71191E-05 2.50947E-05 8.94679E-19 3.81514E-18
 -1      1314 9.01389E-05-6.43891E-06-3.60411E-05 2.11468E-05 9.05055E-19 1.99566E-18
 -1      1315 9.23673E-05-1.06994E-05-3.50798E-05 1.96741E-05 1.67744E-18 1.72689E-18
 -1      1316 1.23635E-04-2.49256E-05-3.90176E-05 2.83660E-05 3.47284E-19 9.09883E-18
 -1      1317 1.00090E-04-1.44259E-05-3.73568E-05 2.40491E-05 3.94717E-19 5.50328E-18
 -1      1318 1.01688E-04-1.93448E-05-3.54050E-05 2.13967E-05 1.41164E-18 4.45624E-18
 -1      1319 1.02615E-04-2.78083E-05-3.47608E-05 7.32791E-06 7.02693E-19 8.91502E-18
 -1      1320 1.05158E-04-3.02338E-05-3.35285E-05-7.95831E-06-9.52489E-19 4.32537E-18
 -1      1321 9.82727E-05-2.78467E-05-3.07655E-05-4.98735E-06-8.49045E-19 3.19570E-18
 -1      1322 9.55154E-05-2.78530E-05-2.92583E-05-2.48879E-06-6.13596E-19 2.81498E-18
 -1      1323 9.32841E-05-2.75623E-05-2.82193E-05-2.04219E-06-5.90938E-19 1.90410E-18
 -1      1324 9.94959E-05-2.80555E-05-3.09860E-05-7.88495E-06-1.42249E-18 1.29771E-18
 -1      1325 9.15949E-05-2.72044E-05-2.75853E-05-8.37216E-07-4.77409E-19 1.61701E-18
 -1      1326 9.08794E-05-2.71094E-05-2.72833E-05-7.26836E-07-4.22246E-19 9.00052E-19
 -1      1327 9.47304E-05-2.77735E-05-2.88202E-05-3.11883E-06-1.05043E-18 7.43113E-19
 -1      1328 9.01304E-05-2.69270E-05-2.70403E-05-1.72404E-07-4.08766E-19 5.46177E-19
 -1      1329 9.00593E-05-2.69543E-05-2.70059E-05-1.14358E-07-3.58143E-19-1.71127E-20
 -1      1330 9.25327E-05-2.75034E-05-2.78998E-05-1.05062E-06-8.61472E-19 3.14157E-19
 -1      1331 8.98009E-05-2.68872E-05-2.69320E-05 1.55733E-07-1.37719E-19-2.33013E-19
 -1      1332 9.00167E-05-2.69777E-05-2.69940E-05 1.84363E-07-2.27908E-19-4.82107E-19
 -1      1333 9.15764E-05-2.73607E-05-2.75334E-05-6.73269E-08-5.90494E-19-2.04214E-19
 -1      1334 9.00215E-05-2.69811E-05-2.70008E-05 3.15291E-07-2.56655E-19-5.66334E-19
 -1      1335 9.03649E-05-2.71011E-05-2.71002E-05 3.26985E-07-2.10120E-19-8.88028E-19
 -1      1336 9.13251E-05-2.73493E-05-2.74260E-05 4.19535E-07-4.31712E-19-4.66143E-19
 -1      1337 9.05077E-05-2.71430E-05-2.71476E-05 3.81351E-07-2.58001E-19-9.56790E-19
 -1      1338 9.08962E-05-2.72716E-05-2.72599E-05 3.82989E-07-3.43598E-19-1.39150E-18
 -1      1339 9.14595E-05-2.74234E-05-2.74487E-05 6.47350E-07-4.01855E-19-5.92903E-19
 -1      1340 9.11048E-05-2.73320E-05-2.73265E-05 3.93257E-07-3.42783E-19-1.40754E-18
 -1      1341 9.14926E-05-2.74569E-05-2.74388E-05 3.88989E-07-3.46720E-19-1.94233E-18
 -1      1342 9.17934E-05-2.75427E-05-2.75380E-05 7.29201E-07-5.61280E-19-1.02017E-18
 -1      1343 9.17241E-05-2.75236E-05-2.75119E-05 3.73964E-07-2.92031E-19-1.86999E-18
 -1      1344 9.20857E-05-2.76380E-05-2.76170E-05 3.66461E-07-3.02090E-19-2.25125E-18
 -1      1345 9.22158E-05-2.76801E-05-2.76581E-05 7.26635E-07-5.23431E-19-9.37065E-19
 -1      1346 9.23146E-05-2.77039E-05-2.76889E-05 3.37787E-07-1.43799E-19-2.28301E-18
 -1      1347 9.26368E-05-2.78046E-05-2.77829E-05 3.28803E-07 6.98004E-20-2.32993E-18
 -1      1348 9.26600E-05-2.78186E-05-2.77879E-05 6.76410E-07-3.25824E-19-1.10907E-18
 -1      1349 9.28488E-05-2.78654E-05-2.78493E-05 2.93921E-07 7.59412E-20-2.66289E-18
 -1      1350 9.31262E-05-2.79513E-05-2.79305E-05 2.84601E-07-2.56611E-19-2.87186E-18
 -1      1351 9.30868E-05-2.79485E-05-2.79144E-05 6.01662E-07-1.40788E-19-1.92944E-18
 -1      1352 9.33141E-05-2.80051E-05-2.79893E-05 2.48297E-07-2.52571E-19-2.78551E-18
 -1      1353 9.35464E-05-2.80764E-05-2.80575E-05 2.39368E-07-1.67568E-19-3.18504E-18
 -1      1354 9.34746E-05-2.80646E-05-2.80306E-05 5.17259E-07-2.25262E-19-2.43192E-18
 -1      1355 9.37076E-05-2.81224E-05-2.81079E-05 2.04679E-07 3.27649E-19-2.95145E-18
 -1      1356 9.38976E-05-2.81803E-05-2.81639E-05 1.96591E-07 3.05968E-19-2.55811E-18
 -1      1357 9.38138E-05-2.81647E-05-2.81331E-05 4.32738E-07 7.49020E-20-2.19317E-18
 -1      1358 9.40326E-05-2.82188E-05-2.82060E-05 1.65404E-07 3.36973E-21-2.49672E-18
 -1      1359 9.41850E-05-2.82648E-05-2.82511E-05 1.58419E-07-1.54573E-19-2.64098E-18
 -1      1360 9.41019E-05-2.82488E-05-2.82207E-05 3.54121E-07 1.45297E-19-1.92354E-18
 -1      1361 9.42964E-05-2.82965E-05-2.82858E-05 1.31881E-07-2.07305E-19-2.70413E-18
 -1      1362 9.44170E-05-2.83326E-05-2.83216E-05 1.26149E-07-4.10893E-19-2.97092E-18
 -1      1363 9.43419E-05-2.83179E-05-2.82942E-05 2.85133E-07-2.06797E-19-1.79700E-18
 -1      1364 9.45085E-05-2.83585E-05-2.83501E-05 1.04977E-07-3.30919E-19-3.16761E-18
 -1      1365 9.46039E-05-2.83867E-05-2.83785E-05 1.00591E-07 4.08100E-20-3.39169E-18
 -1      1366 9.45397E-05-2.83741E-05-2.83552E-05 2.28072E-07-4.98143E-19-1.94440E-18
 -1      1367 9.46802E-05-2.84083E-05-2.84023E-05 8.53020E-08 3.23161E-19-3.34301E-18
 -1      1368 9.47572E-05-2.84307E-05-2.84254E-05 8.23410E-08 1.50664E-19-2.99632E-18
 -1      1369 9.47035E-05-2.84199E-05-2.84062E-05 1.84463E-07 2.61666E-19-1.94178E-18
 -1      1370 9.48237E-05-2.84494E-05-2.84461E-05 7.34280E-08-1.50326E-19-3.30086E-18
 -1      1371 9.48899E-05-2.84684E-05-2.84660E-05 7.19914E-08-3.32273E-19-3.78402E-18
 -1      1372 9.48431E-05-2.84583E-05-2.84501E-05 1.55551E-07-8.51013E-20-2.55264E-18
 -1      1373 9.49528E-05-2.84860E-05-2.84856E-05 7.00629E-08-1.66713E-19-3.75977E-18
 -1      1374 9.50161E-05-2.85039E-05-2.85048E-05 7.02968E-08-2.02903E-19-3.92946E-18
 -1      1375 9.49699E-05-2.84925E-05-2.84902E-05 1.42681E-07-3.80322E-19-2.58438E-18
 -1      1376 9.50822E-05-2.85224E-05-2.85254E-05 7.61799E-08 6.88862E-20-4.14364E-18
 -1      1377 9.51518E-05-2.85420E-05-2.85465E-05 7.82975E-08-2.77615E-20-3.79878E-18
 -1      1378 9.50962E-05-2.85262E-05-2.85305E-05 1.47595E-07-2.13605E-19-2.53915E-18
 -1      1379 9.52289E-05-2.85637E-05-2.85705E-05 9.31094E-08 2.82063E-19-3.36268E-18
 -1      1380 9.53150E-05-2.85880E-05-2.85965E-05 9.74046E-08 3.72287E-19-2.97297E-18
 -1      1381 9.52366E-05-2.85635E-05-2.85754E-05 1.72637E-07 4.33512E-19-2.90262E-18
 -1      1382 9.54122E-05-2.86153E-05-2.86268E-05 1.22589E-07-7.64846E-20-3.15929E-18
 -1      1383 9.55267E-05-2.86480E-05-2.86613E-05 1.29443E-07-3.94786E-19-3.59515E-18
 -1      1384 9.54075E-05-2.86091E-05-2.86298E-05 2.20889E-07 8.06298E-20-2.83905E-18
 -1      1385 9.56544E-05-2.86840E-05-2.87011E-05 1.66761E-07-4.74001E-19-3.23035E-18
 -1      1386 9.58115E-05-2.87294E-05-2.87483E-05 1.76634E-07-2.19997E-19-4.03976E-18
 -1      1387 9.56278E-05-2.86686E-05-2.86996E-05 2.96199E-07-4.09852E-19-2.39305E-18
 -1      1388 9.59817E-05-2.87775E-05-2.88013E-05 2.28078E-07 5.30758E-19-4.01774E-18
 -1      1389 9.61977E-05-2.88406E-05-2.88660E-05 2.41491E-07 4.30620E-19-3.23867E-18
 -1      1390 9.59194E-05-2.87483E-05-2.87915E-05 4.03072E-07 1.84932E-19-1.86360E-18
 -1      1391 9.64240E-05-2.89048E-05-2.89364E-05 3.09097E-07 2.11916E-19-3.27566E-18
 -1      1392 9.67179E-05-2.89915E-05-2.90241E-05 3.26574E-07 1.71417E-19-2.51383E-18
 -1      1393 9.63073E-05-2.88556E-05-2.89129E-05 5.46343E-07 5.48176E-19-2.39319E-18
 -1      1394 9.70153E-05-2.90761E-05-2.91166E-05 4.12051E-07-3.20690E-20-2.74289E-18
 -1      1395 9.74081E-05-2.91929E-05-2.92336E-05 4.34020E-07-2.72822E-19-3.02452E-18
 -1      1396 9.68195E-05-2.89992E-05-2.90722E-05 7.30515E-07-7.92770E-21-2.35877E-18
 -1      1397 9.77922E-05-2.93027E-05-2.93529E-05 5.38118E-07-3.34013E-19-3.21889E-18
 -1      1398 9.83060E-05-2.94568E-05-2.95055E-05 5.64738E-07-5.08819E-19-3.41629E-18
 -1      1399 9.74860E-05-2.91885E-05-2.92781E-05 9.58565E-07-4.95525E-19-2.50164E-18
 -1      1400 9.87916E-05-2.95963E-05-2.96561E-05 6.86193E-07 1.93690E-19-3.53076E-18
 -1      1401 9.94472E-05-2.97948E-05-2.98502E-05 7.17060E-07 6.19878E-19-3.11463E-18
 -1      1402 9.83370E-05-2.94335E-05-2.95391E-05 1.22995E-06-1.60672E-20-2.21329E-18
 -1      1403 1.00046E-04-2.99679E-05-3.00354E-05 8.50949E-07 5.27656E-19-2.83217E-18
 -1      1404 1.00858E-04-3.02164E-05-3.02752E-05 8.84628E-07 1.85255E-19-2.09563E-18
 -1      1405 9.93987E-05-2.97442E-05-2.98620E-05 1.53743E-06 8.17151E-19-1.75075E-18
 -1      1406 1.01574E-04-3.04254E-05-3.04957E-05 1.01992E-06-5.38873E-19-1.35123E-18
 -1      1407 1.02546E-04-3.07261E-05-3.07812E-05 1.05323E-06-4.29223E-19-1.89250E-18
 -1      1408 1.00688E-04-3.01291E-05-3.02499E-05 1.86218E-06 6.61852E-20-1.54749E-18
 -1      1409 1.03369E-04-3.09698E-05-3.10329E-05 1.16939E-06-2.77852E-19-1.86682E-18
 -1      1410 1.04477E-04-3.13181E-05-3.13567E-05 1.19644E-06-1.69634E-19-2.09795E-18
 -1      1411 1.02200E-04-3.05925E-05-3.06987E-05 2.16692E-06-7.94643E-19-6.65811E-19
 -1      1412 1.05375E-04-3.15898E-05-3.16280E-05 1.25933E-06-2.07200E-19-2.53465E-18
 -1      1413 1.06556E-04-3.19689E-05-3.19704E-05 1.27025E-06-6.40792E-19-3.19492E-18
 -1      1414 1.03899E-04-3.11313E-05-3.11927E-05 2.38702E-06-5.54017E-19-1.80497E-18
 -1      1415 1.07461E-04-3.22526E-05-3.22382E-05 1.22850E-06-7.86491E-19-3.72336E-18
 -1      1416 1.08590E-04-3.26265E-05-3.25608E-05 1.20838E-06-7.16910E-19-4.82655E-18
 -1      1417 1.05691E-04-3.17286E-05-3.16985E-05 2.42111E-06-1.13495E-18-2.77807E-18
 -1      1418 1.09389E-04-3.28934E-05-3.27872E-05 9.93247E-07-3.06156E-19-4.86346E-18
 -1      1419 1.10255E-04-3.31987E-05-3.30279E-05 9.22189E-07 3.74147E-19-4.95949E-18
 -1      1420 1.07408E-04-3.23446E-05-3.21591E-05 2.12613E-06-1.13003E-18-3.54797E-18
 -1      1421 1.10781E-04-3.34021E-05-3.31587E-05 4.57080E-07 1.10428E-18-4.93864E-18
 -1      1422 1.11083E-04-3.35420E-05-3.32301E-05 3.13592E-07 1.05366E-18-3.44868E-18
 -1      1423 1.08781E-04-3.29042E-05-3.24902E-05 1.32729E-06 7.07689E-19-3.16680E-18
 -1      1424 1.11115E-04-3.36144E-05-3.31991E-05-4.57650E-07 4.39226E-19-3.36157E-18
 -1      1425 1.10485E-04-3.34626E-05-3.29991E-05-6.86747E-07 3.98767E-20-2.95433E-18
 -1      1426 1.09431E-04-3.32822E-05-3.25839E-05-1.38837E-07 1.07426E-18-3.24868E-18
 -1      1427 1.09788E-04-3.33192E-05-3.27421E-05-1.74578E-06 3.18253E-19-2.39747E-18
 -1      1428 1.07887E-04-3.27459E-05-3.21826E-05-2.04704E-06 4.71665E-19-2.05046E-18
 -1      1429 1.08900E-04-3.32959E-05-3.23265E-05-2.32788E-06 5.42723E-19-2.20643E-18
 -1      1430 1.06283E-04-3.23040E-05-3.16640E-05-3.23091E-06-4.73147E-20-1.03677E-18
 -1      1431 1.02974E-04-3.12357E-05-3.07203E-05-3.54189E-06 2.67848E-19-1.49806E-18
 -1      1432 1.06752E-04-3.27255E-05-3.16354E-05-5.03771E-06 5.38495E-19-1.16480E-18
 -1      1433 1.00471E-04-3.04610E-05-2.99666E-05-4.50458E-06-5.55898E-20-1.70307E-18
 -1      1434 9.60379E-05-2.89676E-05-2.87304E-05-4.70856E-06-6.89710E-19-2.37958E-18
 -1      1435 1.02775E-04-3.13955E-05-3.05102E-05-7.66739E-06-2.56002E-19-1.28822E-18
 -1      1436 9.29573E-05-2.79418E-05-2.78511E-05-4.99934E-06-4.74238E-19-2.01890E-18
 -1      1437 8.82137E-05-2.62992E-05-2.65492E-05-4.96614E-06-1.23250E-20-2.90871E-18
 -1      1438 9.72553E-05-2.93331E-05-2.90754E-05-9.24548E-06-5.78391E-19-2.79997E-19
 -1      1439 8.52188E-05-2.52609E-05-2.57223E-05-4.27095E-06 2.36997E-19-2.63152E-18
 -1      1440 8.13337E-05-2.39053E-05-2.46604E-05-3.94909E-06 5.30481E-19-2.12523E-18
 -1      1441 9.11718E-05-2.69209E-05-2.75803E-05-8.80578E-06 2.66193E-19-2.98910E-19
 -1      1442 7.92175E-05-2.31795E-05-2.40725E-05-2.37664E-06 5.43994E-19-1.62959E-18
 -1      1443 7.72185E-05-2.25118E-05-2.35104E-05-1.86833E-06 2.90268E-19-1.51571E-18
 -1      1444 8.60276E-05-2.48623E-05-2.63322E-05-6.05542E-06 7.96065E-19-1.71284E-18
 -1      1445 7.64992E-05-2.23197E-05-2.32773E-05 1.23130E-09 5.09543E-20-7.21928E-19
 -1      1446 7.67345E-05-2.24713E-05-2.33053E-05 4.80391E-07 1.87366E-19-7.27125E-19
 -1      1447 8.32006E-05-2.38421E-05-2.55827E-05-1.83661E-06 8.33944E-19-3.07468E-19
 -1      1448 7.73518E-05-2.27722E-05-2.34233E-05 1.93129E-06 4.37916E-19-1.19808E-18
 -1      1449 7.93378E-05-2.35360E-05-2.39289E-05 2.20185E-06 9.73585E-19 5.37231E-19
 -1      1450 8.31650E-05-2.40769E-05-2.54275E-05 2.21616E-06 1.06127E-18-2.42794E-20
 -1      1451 8.07439E-05-2.40756E-05-2.42889E-05 2.84444E-06 1.03742E-18 3.73065E-19
 -1      1452 8.35359E-05-2.50730E-05-2.50383E-05 2.87854E-06 4.50086E-19 8.25857E-19
 -1      1453 8.52558E-05-2.51813E-05-2.57803E-05 4.71661E-06 1.39797E-18 1.30133E-18
 -1      1454 8.50884E-05-2.55859E-05-2.54902E-05 2.81312E-06 1.38184E-19 3.49904E-19
 -1      1455 8.78427E-05-2.65101E-05-2.62560E-05 2.71129E-06 3.23527E-20 3.01755E-19
 -1      1456 8.82088E-05-2.64901E-05-2.64310E-05 5.33613E-06 2.54282E-19 1.12675E-18
 -1      1457 8.91344E-05-2.68745E-05-2.66724E-05 2.30307E-06 5.72161E-19 9.04605E-19
 -1      1458 9.14091E-05-2.76159E-05-2.73070E-05 2.18036E-06 3.58305E-19 1.83801E-18
 -1      1459 9.09504E-05-2.75248E-05-2.71427E-05 4.69235E-06 6.15628E-19 6.69229E-19
 -1      1460 9.23466E-05-2.78820E-05-2.76049E-05 1.64264E-06-3.51343E-19 2.24310E-18
 -1      1461 9.39840E-05-2.84608E-05-2.80211E-05 1.51958E-06-5.96182E-19 1.48218E-18
 -1      1462 9.30463E-05-2.82470E-05-2.77185E-05 3.55075E-06 3.52323E-19 9.08522E-19
 -1      1463 9.49127E-05-2.88476E-05-2.81943E-05 3.88793E-07-1.30548E-18 1.40934E-18
 -1      1464 9.48843E-05-2.92254E-05-2.80739E-05 1.70892E-06-1.49819E-18 9.52401E-19
 -1      1465 9.65896E-05-2.83674E-05-2.97761E-05 2.99475E-06 6.28604E-19 7.44425E-18
 -1      1466 1.02547E-04-2.94018E-05-3.21591E-05 4.46181E-06 5.64812E-19 8.41411E-18
 -1      1467 1.02336E-04-2.67213E-05-3.27088E-05 1.27813E-05 1.09521E-18 5.79603E-18
 -1      1468 9.20449E-05-2.74335E-05-2.77660E-05 1.15102E-06 4.67880E-19 6.24578E-18
 -1      1469 9.39905E-05-2.75884E-05-2.86798E-05 1.47299E-06 4.30319E-19 6.89946E-18
 -1      1470 9.64988E-05-2.80339E-05-2.95373E-05 4.86585E-06 9.56988E-19 4.78097E-18
 -1      1471 9.02141E-05-2.70093E-05-2.70677E-05 3.30734E-07 3.47416E-19 5.29562E-18
 -1      1472 9.08280E-05-2.70265E-05-2.73400E-05 4.93656E-07 3.60995E-19 5.79360E-18
 -1      1473 9.30556E-05-2.75828E-05-2.81028E-05 1.84992E-06 7.77378E-19 3.87389E-18
 -1      1474 8.96987E-05-2.68917E-05-2.68926E-05-5.62214E-08 4.61874E-19 4.39842E-18
 -1      1475 8.97349E-05-2.68290E-05-2.69205E-05 3.29642E-08 3.60707E-19 4.94694E-18
 -1      1476 9.15039E-05-2.73121E-05-2.75195E-05 5.15818E-07 7.02852E-19 3.09785E-18
 -1      1477 8.98325E-05-2.69447E-05-2.69350E-05-2.43537E-07 1.49261E-19 3.82135E-18
 -1      1478 8.96028E-05-2.68368E-05-2.68696E-05-1.93238E-07 2.40284E-19 4.18408E-18
 -1      1479 9.09737E-05-2.72316E-05-2.73238E-05-1.34157E-07 5.22896E-19 2.67842E-18
 -1      1480 9.02868E-05-2.70876E-05-2.70737E-05-3.26631E-07-9.58702E-21 3.84591E-18
 -1      1481 8.99388E-05-2.69600E-05-2.69719E-05-2.98920E-07-3.96406E-20 3.71122E-18
 -1      1482 9.09926E-05-2.72751E-05-2.73133E-05-4.52865E-07 9.75296E-20 2.52509E-18
 -1      1483 9.08822E-05-2.72702E-05-2.72534E-05-3.50969E-07 2.08033E-19 3.62832E-18
 -1      1484 9.04938E-05-2.71396E-05-2.71397E-05-3.37246E-07 1.26095E-19 3.79330E-18
 -1      1485 9.12981E-05-2.73874E-05-2.73952E-05-5.92833E-07 1.76700E-19 2.41762E-18
 -1      1486 9.15160E-05-2.74626E-05-2.74443E-05-3.41490E-07 7.95488E-20 3.05372E-18
 -1      1487 9.11308E-05-2.73388E-05-2.73312E-05-3.36572E-07 2.30319E-19 3.34413E-18
 -1      1488 9.17390E-05-2.75313E-05-2.75212E-05-6.30826E-07 3.04428E-19 2.04656E-18
 -1      1489 9.21290E-05-2.76474E-05-2.76290E-05-3.13245E-07 1.30893E-19 2.75685E-18
 -1      1490 9.17713E-05-2.75358E-05-2.75237E-05-3.13781E-07-3.65932E-20 2.88145E-18
 -1      1491 9.22262E-05-2.76836E-05-2.76635E-05-6.10135E-07 1.66494E-19 1.49003E-18
 -1      1492 9.26887E-05-2.78154E-05-2.77978E-05-2.75756E-07 7.83553E-20 2.78810E-18
 -1      1493 9.23708E-05-2.77183E-05-2.77040E-05-2.79511E-07 1.61641E-19 2.95357E-18
 -1      1494 9.27069E-05-2.78305E-05-2.78056E-05-5.57161E-07 1.32797E-19 1.40845E-18
 -1      1495 9.31793E-05-2.79621E-05-2.79461E-05-2.35132E-07 4.56392E-19 2.34155E-18
 -1      1496 9.29063E-05-2.78801E-05-2.78653E-05-2.40600E-07 2.80683E-19 2.80671E-18
 -1      1497 9.31514E-05-2.79643E-05-2.79381E-05-4.88656E-07 2.69329E-19 1.77919E-18
 -1      1498 9.35962E-05-2.80863E-05-2.80724E-05-1.95261E-07 7.11832E-20 2.00555E-18
 -1      1499 9.33681E-05-2.80188E-05-2.80046E-05-2.01427E-07 8.78941E-20 2.02737E-18
 -1      1500 9.35448E-05-2.80814E-05-2.80560E-05-4.15379E-07 3.40246E-19 1.77181E-18
 -1      1501 9.39417E-05-2.81889E-05-2.81771E-05-1.58564E-07 3.17545E-19 1.54955E-18
 -1      1502 9.37554E-05-2.81346E-05-2.81217E-05-1.64746E-07 1.74311E-19 1.73846E-18
 -1      1503 9.38818E-05-2.81808E-05-2.81576E-05-3.44184E-07 2.69061E-19 1.05430E-18
 -1      1504 9.42222E-05-2.82720E-05-2.82623E-05-1.26494E-07 3.42516E-19 5.17325E-19
 -1      1505 9.40731E-05-2.82290E-05-2.82178E-05-1.32241E-07 3.89950E-19 1.23933E-18
 -1      1506 9.41636E-05-2.82631E-05-2.82429E-05-2.79354E-07 6.01481E-19 6.17202E-19
 -1      1507 9.44470E-05-2.83383E-05-2.83308E-05-9.99138E-08-3.01034E-19 2.35217E-19
 -1      1508 9.43294E-05-2.83048E-05-2.82955E-05-1.04918E-07 1.36556E-19 4.66004E-19
 -1      1509 9.43953E-05-2.83302E-05-2.83133E-05-2.23509E-07 3.65756E-19 3.12626E-19
 -1      1510 9.46272E-05-2.83912E-05-2.83857E-05-7.93666E-08 2.68143E-19 5.85835E-20
 -1      1511 9.45346E-05-2.83650E-05-2.83578E-05-8.34016E-08-1.93425E-19-1.39953E-19
 -1      1512 9.45847E-05-2.83844E-05-2.83713E-05-1.78275E-07-5.52987E-20-3.08959E-19
 -1      1513 9.47750E-05-2.84343E-05-2.84309E-05-6.52966E-08 4.11098E-19-6.71520E-19
 -1      1514 9.47003E-05-2.84133E-05-2.84083E-05-6.81651E-08 4.15311E-19 6.94930E-20
 -1      1515 9.47413E-05-2.84288E-05-2.84195E-05-1.44792E-07 3.51985E-19-1.05183E-18
 -1      1516 9.49036E-05-2.84716E-05-2.84704E-05-5.82200E-08-4.35194E-19-1.17252E-19
 -1      1517 9.48396E-05-2.84535E-05-2.84509E-05-5.97095E-08-2.39996E-20-2.53876E-19
 -1      1518 9.48764E-05-2.84665E-05-2.84613E-05-1.24100E-07 2.21623E-19 2.03026E-19
 -1      1519 9.50279E-05-2.85074E-05-2.85086E-05-5.88668E-08-2.40911E-19 9.36954E-19
 -1      1520 9.49665E-05-2.84896E-05-2.84898E-05-5.87105E-08-4.62796E-19 4.84922E-19
 -1      1521 9.50021E-05-2.85013E-05-2.85006E-05-1.17465E-07-8.55540E-19 6.14898E-19
 -1      1522 9.51647E-05-2.85468E-05-2.85507E-05-6.82990E-08-5.63715E-20 1.43978E-18
 -1      1523 9.50968E-05-2.85265E-05-2.85298E-05-6.61398E-08-1.26974E-19 1.28844E-18
 -1      1524 9.51328E-05-2.85371E-05-2.85415E-05-1.26628E-07-3.18693E-19 6.19622E-19
 -1      1525 9.53333E-05-2.85954E-05-2.86024E-05-8.80131E-08 5.72531E-19 9.92108E-19
 -1      1526 9.52483E-05-2.85693E-05-2.85763E-05-8.33686E-08 1.90603E-19 1.36697E-18
 -1      1527 9.52844E-05-2.85788E-05-2.85891E-05-1.54025E-07 1.67833E-19 6.12752E-19
 -1      1528 9.55566E-05-2.86601E-05-2.86708E-05-1.20027E-07 2.72219E-19-4.68170E-19
 -1      1529 9.54421E-05-2.86241E-05-2.86357E-05-1.12256E-07 5.58003E-19 6.10850E-19
 -1      1530 9.54761E-05-2.86318E-05-2.86492E-05-2.02969E-07 7.79064E-19 4.81194E-19
 -1      1531 9.58624E-05-2.87490E-05-2.87642E-05-1.66949E-07-6.62652E-19-5.39837E-20
 -1      1532 9.57031E-05-2.86984E-05-2.87156E-05-1.55216E-07-4.18544E-19-5.96702E-19
 -1      1533 9.57302E-05-2.87026E-05-2.87286E-05-2.77799E-07 1.21585E-19-1.42024E-19
 -1      1534 9.62841E-05-2.88720E-05-2.88927E-05-2.32014E-07-4.36146E-19 2.16702E-18
 -1      1535 9.60616E-05-2.88008E-05-2.88251E-05-2.15260E-07-8.59490E-19 8.49576E-19
 -1      1536 9.60737E-05-2.87990E-05-2.88356E-05-3.83964E-07-1.21478E-18 9.10627E-19
 -1      1537 9.68620E-05-2.90412E-05-2.90686E-05-3.19048E-07-1.67964E-19 2.22747E-18
 -1      1538 9.65538E-05-2.89422E-05-2.89752E-05-2.95973E-07 3.10322E-19 2.46526E-18
 -1      1539 9.65385E-05-2.89305E-05-2.89799E-05-5.28029E-07-1.91122E-19 1.68732E-18
 -1      1540 9.76442E-05-2.92708E-05-2.93062E-05-4.32310E-07-1.55906E-19 3.06407E-18
 -1      1541 9.72232E-05-2.91354E-05-2.91790E-05-4.01377E-07-3.91094E-19 2.66503E-18
 -1      1542 9.71626E-05-2.91081E-05-2.91732E-05-7.17471E-07-4.97636E-19 3.06641E-18
 -1      1543 9.86866E-05-2.95778E-05-2.96225E-05-5.76068E-07-6.66476E-20 2.77823E-18
 -1      1544 9.81210E-05-2.93956E-05-2.94521E-05-5.35577E-07 3.78741E-19 2.92040E-18
 -1      1545 9.79899E-05-2.93449E-05-2.94285E-05-9.60136E-07 3.94127E-19 3.14486E-18
 -1      1546 1.00052E-04-2.99813E-05-3.00361E-05-7.53687E-07-3.20276E-19 3.06417E-18
 -1      1547 9.93057E-05-2.97405E-05-2.98119E-05-7.01973E-07-5.49094E-19 2.34761E-18
 -1      1548 9.90694E-05-2.96560E-05-2.97607E-05-1.26299E-06-4.20438E-19 2.73445E-18
 -1      1549 1.01806E-04-3.05014E-05-3.05663E-05-9.65824E-07-1.23880E-19 3.00316E-18
 -1      1550 1.00840E-04-3.01899E-05-3.02772E-05-9.01717E-07-1.85768E-20 2.83675E-18
 -1      1551 1.00453E-04-3.00578E-05-3.01848E-05-1.62966E-06-1.32008E-19 2.12280E-18
 -1      1552 1.04006E-04-3.11574E-05-3.12296E-05-1.20706E-06-5.15439E-19 2.89188E-18
 -1      1553 1.02787E-04-3.07637E-05-3.08660E-05-1.13082E-06-8.05244E-20 2.50041E-18
 -1      1554 1.02190E-04-3.05668E-05-3.07145E-05-2.05575E-06 1.05962E-20 1.79740E-18
 -1      1555 1.06685E-04-3.19620E-05-3.20340E-05-1.46002E-06 9.71027E-21 3.63018E-18
 -1      1556 1.05192E-04-3.14796E-05-3.15910E-05-1.37510E-06-2.86658E-19 2.99193E-18
 -1      1557 1.04314E-04-3.11979E-05-3.13577E-05-2.52055E-06-6.98926E-19 2.91065E-18
 -1      1558 1.09818E-04-3.29129E-05-3.29680E-05-1.68583E-06 5.35845E-19 3.34665E-18
 -1      1559 1.08065E-04-3.23465E-05-3.24519E-05-1.60194E-06 3.34933E-19 3.99950E-18
 -1      1560 1.06828E-04-3.19591E-05-3.21101E-05-2.97344E-06 2.00798E-19 3.26471E-18
 -1      1561 1.13264E-04-3.39766E-05-3.39832E-05-1.81061E-06 3.33567E-20 3.39263E-18
 -1      1562 1.11334E-04-3.33539E-05-3.34221E-05-1.74836E-06-9.46725E-20 3.08020E-18
 -1      1563 1.09666E-04-3.28446E-05-3.29441E-05-3.31339E-06 3.80513E-19 3.10399E-18
 -1      1564 1.16690E-04-3.50643E-05-3.49705E-05-1.71090E-06-7.59046E-19 4.07202E-18
 -1      1565 1.14783E-04-3.44532E-05-3.44287E-05-1.70751E-06-3.80182E-19 4.00308E-18
 -1      1566 1.12652E-04-3.38211E-05-3.37939E-05-3.36400E-06-8.11322E-19 4.07490E-18
 -1      1567 1.19477E-04-3.59997E-05-3.57351E-05-1.20934E-06-1.01148E-19 3.63802E-18
 -1      1568 1.17972E-04-3.55291E-05-3.53289E-05-1.32201E-06 1.71190E-19 3.99532E-18
 -1      1569 1.15436E-04-3.48067E-05-3.45392E-05-2.85561E-06-1.72715E-19 4.10653E-18
 -1      1570 1.20662E-04-3.64887E-05-3.59900E-05-1.08223E-07 7.54495E-19 2.63928E-18
 -1      1571 1.20150E-04-3.63633E-05-3.58915E-05-4.06203E-07 3.98979E-19 3.05838E-18
 -1      1572 1.17436E-04-3.56400E-05-3.49963E-05-1.44764E-06 6.56040E-19 3.67446E-18
 -1      1573 1.19028E-04-3.61231E-05-3.54017E-05 1.69441E-06 3.20430E-19 3.23913E-18
 -1      1574 1.20249E-04-3.66045E-05-3.58100E-05 1.16538E-06-5.44219E-20 3.26285E-18
 -1      1575 1.17834E-04-3.60449E-05-3.49372E-05 1.14739E-06-4.38075E-20 3.71105E-18
 -1      1576 1.13508E-04-3.44847E-05-3.37282E-05 3.97820E-06 5.21666E-19 2.08084E-18
 -1      1577 1.17083E-04-3.57955E-05-3.47829E-05 3.27014E-06 9.04949E-19 3.25134E-18
 -1      1578 1.15707E-04-3.56239E-05-3.41598E-05 4.86680E-06 8.94440E-19 3.49274E-18
 -1      1579 1.03995E-04-3.14298E-05-3.10334E-05 5.98340E-06 1.70013E-18-8.39833E-19
 -1      1580 1.09913E-04-3.35546E-05-3.26816E-05 5.31893E-06 1.08075E-18 6.48986E-19
 -1      1581 1.10435E-04-3.39690E-05-3.26119E-05 8.88413E-06 1.75627E-18 8.64159E-19
 -1      1582 9.22235E-05-2.74718E-05-2.78512E-05 6.54074E-06 3.80245E-19-3.07304E-18
 -1      1583 9.93259E-05-2.99537E-05-2.97501E-05 6.27403E-06 8.13184E-19-1.70465E-18
 -1      1584 1.02379E-04-3.09984E-05-3.05164E-05 1.14666E-05 2.10686E-18 5.16399E-19
 -1      1585 8.17735E-05-2.39016E-05-2.50790E-05 4.82440E-06-9.78455E-20-4.17619E-18
 -1      1586 8.78355E-05-2.58760E-05-2.66723E-05 5.20789E-06-6.19790E-20-4.10006E-18
 -1      1587 9.34213E-05-2.73721E-05-2.83714E-05 1.07057E-05 5.15221E-19-1.93989E-18
 -1      1588 7.63966E-05-2.21732E-05-2.35534E-05 1.36619E-06-8.09274E-19-3.72020E-18
 -1      1589 7.92342E-05-2.28520E-05-2.43438E-05 2.25684E-06-2.20004E-19-3.91493E-18
 -1      1590 8.65577E-05-2.45174E-05-2.67491E-05 6.15358E-06-7.94887E-20-2.71416E-18
 -1      1591 7.73795E-05-2.27597E-05-2.35981E-05-1.98144E-06 1.67017E-18-3.77126E-18
 -1      1592 7.63815E-05-2.20555E-05-2.34288E-05-1.09759E-06 5.27344E-19-3.24125E-18
 -1      1593 8.41249E-05-2.37479E-05-2.60369E-05-9.74374E-08 4.05120E-19-1.98185E-18
 -1      1594 8.26056E-05-2.47740E-05-2.47747E-05-3.52431E-06 1.73897E-19-4.96107E-18
 -1      1595 7.91586E-05-2.33580E-05-2.39579E-05-3.08910E-06 4.40001E-19-4.13410E-18
 -1      1596 8.60159E-05-2.50482E-05-2.62201E-05-4.72748E-06 1.28509E-18-2.70836E-18
 -1      1597 8.84351E-05-2.68011E-05-2.62742E-05-3.07194E-06 1.41329E-19-4.63316E-18
 -1      1598 8.47311E-05-2.55175E-05-2.53181E-05-3.12817E-06 2.21155E-20-4.58965E-18
 -1      1599 8.99118E-05-2.71186E-05-2.69290E-05-5.88816E-06-2.72021E-19-4.22423E-18
 -1      1600 9.23715E-05-2.79801E-05-2.74485E-05-1.72247E-06-2.22151E-19-5.23347E-18
 -1      1601 8.98481E-05-2.72533E-05-2.67274E-05-1.98880E-06-2.34813E-19-5.12397E-18
 -1      1602 9.32491E-05-2.85784E-05-2.77025E-05-4.32184E-06-3.76016E-19-3.33940E-18
 -1      1603 9.41371E-05-2.83643E-05-2.81016E-05-6.98946E-07-5.03985E-19-5.00796E-18
 -1      1604 9.28857E-05-2.80725E-05-2.77011E-05-8.85193E-07-1.37497E-19-4.40092E-18
 -1      1605 9.48599E-05-2.89493E-05-2.82394E-05-2.15311E-06-3.50083E-19-2.43399E-18
 -1      1606 9.48392E-05-2.85040E-05-2.83483E-05-4.51431E-07-1.96684E-19-3.35907E-18
 -1      1607 9.41793E-05-2.83012E-05-2.81794E-05-4.32688E-07-4.12790E-19-4.10996E-18
 -1      1608 9.51566E-05-2.86932E-05-2.84620E-05-9.63547E-07-7.75763E-20-2.56360E-18
 -1      1609 9.50063E-05-2.87203E-05-2.83235E-05-2.90059E-07-1.59692E-18-1.74089E-18
 -1      1610 9.57037E-05-2.89133E-05-2.86466E-05-2.07106E-08-9.31869E-19 1.03285E-19
 -1      1611 9.55066E-05-2.88791E-05-2.85306E-05-1.79404E-07-1.22698E-18 1.45766E-18
 -1      1612 9.54200E-05-2.64878E-05-2.96157E-05 2.02502E-06 1.38704E-18 2.02402E-18
 -1      1613 9.57751E-05-2.82520E-05-2.89974E-05 1.47335E-06-1.76831E-19 5.80085E-20
 -1      1614 9.60928E-05-2.84071E-05-2.91201E-05 1.51028E-06-5.79265E-19 4.29207E-19
 -1      1615 9.35235E-05-1.94918E-05-3.18436E-05 5.42637E-06 2.26825E-18 8.47576E-19
 -1      1616 9.49812E-05-2.43409E-05-3.04018E-05 4.61605E-06 7.08861E-19 1.64134E-18
 -1      1617 9.61044E-05-2.59854E-05-3.02324E-05 6.43018E-06 2.63007E-19 1.68889E-18
 -1      1618 8.95397E-05-7.19139E-06-3.53949E-05 8.98615E-06 3.37437E-18-1.73642E-19
 -1      1619 9.22854E-05-1.53178E-05-3.31388E-05 8.24297E-06 2.46852E-18 1.60224E-18
 -1      1620 9.44133E-05-1.99808E-05-3.21219E-05 1.30264E-05 1.63279E-19 6.95216E-19
 -1      1621 8.39934E-05 8.19319E-06-3.95149E-05 1.05481E-05-2.98579E-20-1.34247E-18
 -1      1622 8.74723E-05-1.37469E-06-3.69844E-05 1.04146E-05 2.33993E-18-2.84789E-18
 -1      1623 9.05508E-05-1.00384E-05-3.46359E-05 1.83611E-05 1.38702E-19-2.87489E-18
 -1      1624 7.85679E-05 2.21099E-05-4.29920E-05 8.10699E-06-1.11470E-18-1.08545E-18
 -1      1625 8.15657E-05 1.42796E-05-4.09991E-05 8.99129E-06-2.22558E-19-1.13841E-18
 -1      1626 8.50565E-05 2.10487E-06-3.72359E-05 1.84720E-05 2.36110E-19-2.58019E-18
 -1      1627 7.61216E-05 2.79629E-05-4.43485E-05 1.63112E-06-6.72696E-20 1.43440E-19
 -1      1628 7.70142E-05 2.57236E-05-4.37985E-05 3.29961E-06-1.12931E-18 2.73909E-19
 -1      1629 8.00878E-05 1.21943E-05-3.91209E-05 1.07774E-05 1.41259E-18-1.04635E-18
 -1      1630 7.82441E-05 2.24775E-05-4.29679E-05-5.81272E-06 1.76119E-18-8.24534E-20
 -1      1631 7.64694E-05 2.71007E-05-4.41421E-05-4.29655E-06-2.53051E-19 1.16726E-18
 -1      1632 7.85417E-05 1.51113E-05-3.96025E-05-2.53373E-06 2.34292E-18 1.22523E-18
 -1      1633 8.37567E-05 8.24708E-06-3.93987E-05-1.03817E-05 7.36707E-19 4.25105E-19
 -1      1634 8.02756E-05 1.75420E-05-4.18064E-05-9.80216E-06 8.12410E-19-3.46436E-19
 -1      1635 8.15039E-05 9.07042E-06-3.84681E-05-1.47746E-05 9.03890E-19-7.45654E-19
 -1      1636 8.98467E-05-8.38902E-06-3.50177E-05-1.05696E-05-3.10935E-18-2.76021E-18
 -1      1637 8.62778E-05 1.64339E-06-3.77155E-05-1.09497E-05 1.44419E-19-2.00142E-18
 -1      1638 8.71427E-05-2.84128E-06-3.60893E-05-2.01840E-05-6.26751E-19-2.18041E-18
 -1      1639 9.42710E-05-2.16627E-05-3.12643E-05-7.71383E-06-6.28022E-18-8.36630E-19
 -1      1640 9.17760E-05-1.40964E-05-3.33972E-05-8.52367E-06-3.89752E-18-1.81057E-18
 -1      1641 9.25356E-05-1.53123E-05-3.32693E-05-1.81136E-05-1.21936E-18-4.35982E-18
 -1      1642 9.65687E-05-2.96550E-05-2.87894E-05-3.89353E-06-6.70833E-18 4.85495E-19
 -1      1643 9.53506E-05-2.54860E-05-3.00452E-05-4.70134E-06-6.70135E-18 7.11547E-19
 -1      1644 9.59464E-05-2.46953E-05-3.07658E-05-1.18584E-05-2.36687E-18-7.26331E-19
 -1      1645 9.70360E-05-3.24197E-05-2.77463E-05-7.23298E-07-5.80106E-18 6.43944E-19
 -1      1646 9.68887E-05-3.13691E-05-2.81417E-05-1.27498E-06-6.54354E-18 1.33777E-18
 -1      1647 9.72614E-05-2.99037E-05-2.90550E-05-5.05006E-06-2.82809E-18 4.74233E-19
 -1      1648 9.64402E-05-3.17271E-05-2.77175E-05 1.00718E-06-2.73907E-18 2.27303E-18
 -1      1649 9.68183E-05-3.25680E-05-2.75646E-05 8.50946E-07-5.18577E-18 2.00962E-18
 -1      1650 9.70772E-05-3.14589E-05-2.82232E-05-1.89946E-08-2.25732E-18 1.31006E-18
 -1      1651 9.55345E-05-2.99328E-05-2.80817E-05 1.68904E-06-2.06568E-18-8.24335E-20
 -1      1652 9.60919E-05-3.11970E-05-2.78171E-05 1.86000E-06-2.41341E-18 3.89198E-19
 -1      1653 9.62389E-05-3.06757E-05-2.80684E-05 2.49968E-06-2.26049E-18 2.30480E-18
 -1      1654 9.46918E-05-2.92939E-05-2.80300E-05 3.10863E-06-1.44465E-18 1.64104E-20
 -1      1655 2.50552E-05-7.92238E-05 1.60332E-05-6.00118E-06-5.52943E-18-2.08370E-18
 -1      1656 2.88263E-05-9.09121E-05 1.86020E-05 2.87101E-06-1.81074E-18-3.50587E-18
 -1      1657 2.33798E-05-4.82430E-05 5.33964E-06 2.48639E-06-5.70053E-18-1.61656E-18
 -1      1658 2.96434E-05-7.56637E-05 1.20848E-05-1.32596E-06-5.79625E-18-9.77873E-19
 -1      1659 4.42470E-05-1.51008E-05-1.42079E-05 3.65238E-05-4.01832E-18-2.96631E-18
 -1      1660 3.69338E-05-4.13054E-05-3.32542E-06 1.39257E-05-4.72644E-18-2.69060E-18
 -1      1661 8.92419E-05-6.75684E-07-3.61844E-05 7.23656E-05-2.77912E-18-3.04170E-18
 -1      1662 6.01966E-05-7.09394E-06-2.47554E-05 4.53619E-05-3.28733E-18-3.29835E-18
 -1      1663 1.59584E-04-1.68443E-05-5.64895E-05 9.13788E-05-3.97258E-19 3.50672E-19
 -1      1664 1.14297E-04-2.62968E-06-4.64241E-05 7.80567E-05-3.00612E-18-9.77476E-19
 -1      1665 2.32607E-04-4.73958E-05-7.25395E-05 7.57276E-05-3.83547E-19 1.64155E-18
 -1      1666 1.85607E-04-2.39439E-05-6.48725E-05 8.66326E-05 9.48677E-20 4.81115E-19
 -1      1667 2.77320E-04-6.98555E-05-8.11277E-05 3.01990E-05-4.90432E-19 2.28614E-18
 -1      1668 2.52582E-04-5.46587E-05-7.79708E-05 6.44488E-05-2.46063E-19 1.90074E-18
 -1      1669 2.65100E-04-6.46672E-05-7.94677E-05-2.70642E-05 2.90109E-19 1.88973E-18
 -1      1670 2.77738E-04-7.02025E-05-8.14113E-05 1.17917E-05 8.47880E-19 3.06848E-18
 -1      1671 2.04279E-04-3.87470E-05-6.70993E-05-6.04524E-05-2.49875E-20 1.61783E-19
 -1      1672 2.46998E-04-5.93541E-05-7.43677E-05-3.86677E-05-1.66230E-20 4.89585E-19
 -1      1673 1.34215E-04-1.39249E-05-5.01587E-05-7.12338E-05 2.65291E-18-1.36542E-18
 -1      1674 1.81954E-04-3.25261E-05-5.96611E-05-7.51405E-05 1.01983E-18 1.98206E-19
 -1      1675 7.61141E-05-1.33010E-05-2.84956E-05-4.42434E-05 3.16282E-18-2.60971E-18
 -1      1676 1.12281E-04-1.48827E-05-3.99234E-05-6.60906E-05 2.29038E-18-1.18669E-18
 -1      1677 3.70934E-05-2.89192E-05-7.70777E-06-1.50514E-05 3.69560E-18-2.04728E-18
 -1      1678 5.04085E-05-1.12075E-05-1.80019E-05-3.77773E-05 3.48131E-18-3.30851E-18
 -1      1679 2.76405E-05-6.05609E-05 8.37291E-06 1.45572E-06 1.44334E-18-2.41658E-18
 -1      1680 2.53680E-05-3.55681E-05 7.43226E-07-7.85149E-06 3.39406E-18-2.83671E-18
 -1      1681 2.65927E-05-8.40529E-05 1.79544E-05 2.86242E-06-9.39783E-19-1.59327E-18
 -1      1682 2.08817E-05-6.69477E-05 1.41147E-05 8.77175E-06 1.65426E-18-2.24697E-18
 -1      1683 2.42959E-05-8.28705E-05 1.88608E-05-4.76493E-06-4.90051E-18-2.48159E-18
 -1      1684 2.48522E-05-8.48150E-05 1.93158E-05 6.04450E-06-1.69883E-18-2.20377E-18
 -1      1685 2.08487E-05-6.07157E-05 1.18151E-05-5.04545E-06-4.74338E-18-4.58298E-19
 -1      1686 2.67885E-05-8.09081E-05 1.66215E-05-1.29053E-06-6.43067E-18-4.39398E-20
 -1      1687 2.51853E-05-2.69392E-05-2.60284E-06 1.22818E-05-7.87741E-19 2.36661E-18
 -1      1688 2.63383E-05-5.32977E-05 5.70104E-06-2.77793E-07-3.89805E-18-4.63751E-19
 -1      1689 6.31871E-05-9.98897E-06-2.32191E-05 4.79355E-05 6.92026E-19-6.56451E-19
 -1      1690 4.43696E-05-2.42108E-05-1.21996E-05 2.34377E-05-3.38813E-20 7.16590E-19
 -1      1691 1.27184E-04-1.67416E-05-4.48429E-05 7.09712E-05-1.08420E-18-5.09744E-18
 -1      1692 8.82972E-05-1.11829E-05-3.38176E-05 5.21676E-05 5.73441E-19-3.15604E-18
 -1      1693 1.97616E-04-3.64435E-05-6.37980E-05 7.63134E-05-2.28318E-18-8.17895E-18
 -1      1694 1.49312E-04-1.59414E-05-5.48578E-05 7.68748E-05-2.21330E-18-6.36884E-18
 -1      1695 2.56236E-04-6.25726E-05-7.64221E-05 4.02043E-05-4.00541E-19-1.09809E-17
 -1      1696 2.19737E-04-4.37142E-05-7.06633E-05 6.47204E-05-1.37161E-18-9.31228E-18
 -1      1697 2.73281E-04-6.82710E-05-8.11804E-05-1.50261E-05-3.21873E-20-1.15890E-17
 -1      1698 2.66763E-04-6.51633E-05-7.98613E-05 2.39667E-05-3.18484E-19-1.16425E-17
 -1      1699 2.39592E-04-4.92721E-05-7.62121E-05-5.75115E-05 2.84243E-18-1.13248E-17
 -1      1700 2.62128E-04-6.25235E-05-7.93359E-05-2.85668E-05 1.49163E-18-1.14180E-17
 -1      1701 1.82980E-04-2.29499E-05-6.45056E-05-8.56970E-05 3.81355E-18-1.02254E-17
 -1      1702 2.28537E-04-4.65048E-05-7.20305E-05-7.34878E-05 3.34292E-18-1.18839E-17
 -1      1703 1.11430E-04-1.52876E-06-4.58146E-05-7.73077E-05 4.10896E-18-6.99988E-18
 -1      1704 1.57583E-04-1.59487E-05-5.61321E-05-9.09760E-05 4.54137E-18-8.70157E-18
 -1      1705 6.11256E-05-8.66104E-06-2.44785E-05-4.51431E-05 2.71051E-18-5.76660E-18
 -1      1706 8.89932E-05-2.18317E-06-3.55352E-05-7.09176E-05 3.75236E-18-6.59161E-18
 -1      1707 3.42408E-05-3.62009E-05-4.27052E-06-1.39255E-05 7.34801E-18-2.05660E-18
 -1      1708 4.09368E-05-1.13620E-05-1.43241E-05-3.54967E-05 4.00816E-18-2.12859E-18
 -1      1709 3.05227E-05-7.33679E-05 1.12225E-05-1.92473E-06 5.22281E-18-2.36346E-18
 -1      1710 2.52548E-05-4.48828E-05 3.75276E-06-7.58444E-06 5.40407E-18-2.75942E-18
 -1      1711 2.91552E-05-9.23633E-05 1.88980E-05-3.23890E-06 1.76395E-19-3.14546E-18
 -1      1712 2.48993E-05-7.98537E-05 1.62758E-05 6.37823E-06 3.76887E-18-1.96088E-18
 -1      1713 1.30807E-04-3.27519E-05-4.03893E-05 5.55091E-05-3.07600E-18-5.81912E-19
 -1      1714 8.69492E-05-4.16908E-05-2.05258E-05 4.78889E-05-3.31952E-18-1.69068E-18
 -1      1715 9.53110E-05-2.88413E-05-2.84375E-05-5.73019E-07-1.96673E-18 6.11025E-19
 -1      1716 9.54065E-05-2.86735E-05-2.86246E-05-4.86619E-07-8.02921E-19 1.53431E-18
 -1      1717 2.31973E-05-5.75634E-05 9.48697E-06 1.78410E-05-3.29369E-18-1.63562E-18
 -1      1718 4.88323E-05-5.08133E-05-2.58367E-06 3.56234E-05-2.92989E-18-8.39621E-19
 -1      1719 1.44622E-05-5.89506E-05 1.34273E-05 1.08179E-07-8.96796E-19-5.53197E-18
 -1      1720 1.77291E-04-3.24757E-05-5.81314E-05 5.17846E-05-7.66988E-19 6.05629E-19
 -1      1721 2.14358E-04-3.52293E-05-7.11704E-05 3.68213E-05-7.47083E-19 6.46286E-19
 -1      1722 2.31400E-04-3.79629E-05-7.66343E-05 1.46410E-05-3.33731E-19 2.64814E-18
 -1      1723 2.14913E-04-3.59095E-05-7.19468E-05-6.52164E-06 1.34932E-18 1.19135E-18
 -1      1724 1.86817E-04-3.69900E-05-6.03519E-05-2.87464E-05 8.52327E-19 1.02830E-18
 -1      1725 1.44410E-04-3.97106E-05-4.32783E-05-3.91058E-05 1.63139E-18 8.26704E-19
 -1      1726 9.82774E-05-4.33162E-05-2.39676E-05-3.89539E-05 1.23159E-18-2.40134E-19
 -1      1727 5.52888E-05-4.75561E-05-5.84463E-06-3.06417E-05 9.52065E-19-1.44377E-18
 -1      1728 2.77643E-05-5.44279E-05 7.53090E-06-1.83867E-05-5.04832E-19-2.34035E-18
 -1      1729 1.37977E-05-5.78506E-05 1.42921E-05-4.14563E-06-3.10861E-19-3.58507E-18
 -1      1730 1.53683E-05-5.74014E-05 1.34983E-05 8.83340E-06-2.11525E-18-1.34382E-18
 -1      1731 3.00501E-05-5.22390E-05 5.58333E-06 2.10094E-05-2.43776E-18 1.05064E-18
 -1      1732 6.24170E-05-4.45022E-05-9.54630E-06 3.57921E-05-1.10623E-18 1.45245E-18
 -1      1733 1.09977E-04-4.29481E-05-2.85474E-05 4.15321E-05 3.23567E-19-3.74812E-18
 -1      1734 1.53463E-04-3.76933E-05-4.77079E-05 4.00042E-05-2.46487E-19-6.00716E-18
 -1      1735 1.95113E-04-3.55695E-05-6.39982E-05 3.35341E-05-5.62059E-19-9.52404E-18
 -1      1736 2.21939E-04-3.69808E-05-7.37673E-05 1.12977E-05 3.32884E-19-1.04837E-17
 -1      1737 2.19729E-04-3.24841E-05-7.51854E-05-1.07882E-05 4.82385E-19-9.44685E-18
 -1      1738 2.04665E-04-3.09913E-05-6.96300E-05-3.28160E-05 3.21724E-18-1.01098E-17
 -1      1739 1.75205E-04-3.11690E-05-5.77811E-05-5.20055E-05 4.58414E-18-1.12401E-17
 -1      1740 1.29970E-04-3.32536E-05-3.99486E-05-5.48353E-05 2.78166E-18-6.09525E-18
 -1      1741 8.58980E-05-3.98088E-05-2.06872E-05-4.84820E-05 4.45455E-18-5.23932E-18
 -1      1742 4.91633E-05-4.94287E-05-3.30749E-06-3.60260E-05 4.03272E-18-1.92287E-18
 -1      1743 2.42429E-05-5.67337E-05 8.94221E-06-2.12156E-05 2.10784E-18-2.99934E-18
 -1      1744 1.06060E-04-2.31729E-05-3.56064E-05-1.68515E-05-1.16291E-18 3.11899E-18
 -1      1745 8.91536E-05-1.05876E-05-3.37966E-05-1.33236E-05-1.14577E-18-1.89788E-18
 -1      1746 9.04859E-05-1.16326E-05-3.39366E-05-1.51328E-05-1.41634E-18-1.49549E-18
 -1      1747 9.24942E-05-1.38765E-05-3.38553E-05-1.59987E-05-1.50345E-18-9.89202E-19
 -1      1748 9.42129E-05-1.58235E-05-3.40996E-05-1.76598E-05-1.67736E-18-3.49666E-19
 -1      1749 9.34214E-05-1.63495E-05-3.30458E-05-1.37666E-05-1.54341E-18-1.08643E-18
 -1      1750 8.62091E-05-7.67347E-06-3.37290E-05-7.86205E-06-4.47210E-19-2.47347E-18
 -1      1751 8.66143E-05-7.97230E-06-3.37634E-05-9.25114E-06-6.27509E-19-2.45344E-18
 -1      1752 8.55903E-05-7.03484E-06-3.37258E-05-5.31908E-06-1.12329E-19-2.42885E-18
 -1      1753 8.58256E-05-7.21386E-06-3.37411E-05-6.62337E-06-2.85553E-19-2.48220E-18
 -1      1754 8.75911E-05-9.86597E-06-3.33423E-05-6.92708E-06-4.33013E-19-2.38106E-18
 -1      1755 8.52547E-05-6.67610E-06-3.37288E-05-2.88840E-06 2.20253E-19-2.42846E-18
 -1      1756 8.53759E-05-6.77086E-06-3.37349E-05-4.12788E-06 8.66790E-20-2.43486E-18
 -1      1757 8.69537E-05-9.15350E-06-3.33753E-05-4.53678E-06 7.31559E-21-2.30396E-18
 -1      1758 8.51237E-05-6.52801E-06-3.37322E-05-5.17468E-07 5.49208E-19-2.31315E-18
 -1      1759 8.51594E-05-6.55652E-06-3.37337E-05-1.72692E-06 4.18429E-19-2.39836E-18
 -1      1760 8.66213E-05-8.77477E-06-3.33951E-05-2.21713E-06 3.46965E-19-2.30925E-18
 -1      1761 8.51692E-05-6.56555E-06-3.37338E-05 1.84484E-06 7.91023E-19-2.12315E-18
 -1      1762 8.51273E-05-6.53258E-06-3.37321E-05 6.34377E-07 6.83472E-19-2.25196E-18
 -1      1763 8.65230E-05-8.66130E-06-3.34016E-05 6.53150E-08 6.65765E-19-2.19346E-18
 -1      1764 8.54009E-05-6.79591E-06-3.37350E-05 4.25037E-06 1.02601E-18-1.92985E-18
 -1      1765 8.52725E-05-6.69514E-06-3.37288E-05 3.00772E-06 8.94514E-19-2.04672E-18
 -1      1766 8.66389E-05-8.79444E-06-3.33944E-05 2.34897E-06 8.89978E-19-1.99235E-18
 -1      1767 8.58591E-05-7.24944E-06-3.37408E-05 6.71123E-06 1.31762E-18-1.62278E-18
 -1      1768 8.56204E-05-7.06707E-06-3.37258E-05 5.42415E-06 1.16509E-18-1.76974E-18
 -1      1769 8.69880E-05-9.19162E-06-3.33738E-05 4.65189E-06 1.15667E-18-1.79242E-18
 -1      1770 8.66742E-05-8.03969E-06-3.37621E-05 9.37262E-06 1.65818E-18-1.16100E-18
 -1      1771 8.62524E-05-7.72292E-06-3.37280E-05 7.95190E-06 1.48656E-18-1.43321E-18
 -1      1772 8.76415E-05-9.92464E-06-3.33399E-05 7.02670E-06 1.51525E-18-1.40119E-18
 -1      1773 8.80887E-05-9.38794E-06-3.38180E-05 1.22513E-05 1.86955E-18-5.15446E-19
 -1      1774 8.73476E-05-8.82980E-06-3.37456E-05 1.06584E-05 1.72026E-18-9.04711E-19
 -1      1775 8.87647E-05-1.11600E-05-3.32899E-05 9.50067E-06 1.77997E-18-9.48942E-19
 -1      1776 9.06351E-05-1.18409E-05-3.39288E-05 1.52996E-05 1.98805E-18 4.41489E-19
 -1      1777 8.92535E-05-1.07413E-05-3.37886E-05 1.35099E-05 1.87061E-18-1.66654E-19
 -1      1778 9.06644E-05-1.32233E-05-3.32077E-05 1.19723E-05 1.95332E-18-2.35581E-19
 -1      1779 9.58824E-05-1.70364E-05-3.39950E-05 1.76877E-05 1.74476E-18 2.27508E-18
 -1      1780 9.28616E-05-1.43447E-05-3.38285E-05 1.61906E-05 1.87053E-18 1.17002E-18
 -1      1781 9.39744E-05-1.68883E-05-3.30256E-05 1.38912E-05 1.93795E-18 7.93088E-19
 -1      1782 1.01933E-04-2.50969E-05-3.33615E-05 1.44202E-05 1.36346E-18 4.54179E-18
 -1      1783 9.80837E-05-1.96188E-05-3.36274E-05 1.69616E-05 1.56779E-18 3.06340E-18
 -1      1784 9.73363E-05-2.18565E-05-3.24297E-05 1.32455E-05 1.75546E-18 2.19612E-18
 -1      1785 9.87608E-05-2.61380E-05-3.13449E-05 9.43260E-06 1.37360E-18 4.06045E-18
 -1      1786 1.00163E-04-1.95655E-05-3.42202E-05-1.88669E-05-1.53346E-18 9.20513E-19
 -1      1787 9.53209E-05-2.72886E-05-2.91882E-05 4.06453E-06 1.05943E-18 3.27945E-18
 -1      1788 9.77506E-05-2.73936E-05-3.01971E-05 6.39860E-06 1.15345E-18 3.71753E-18
 -1      1789 9.75847E-05-2.56174E-05-3.08352E-05 8.75712E-06 1.42233E-18 2.61884E-18
 -1      1790 9.98225E-05-2.25443E-05-3.28382E-05-1.44649E-05-1.56860E-18 4.33151E-19
 -1      1791 9.69682E-05-2.69814E-05-2.98798E-05-5.70270E-06-1.18066E-18 2.50423E-19
 -1      1792 9.51607E-05-2.70364E-05-2.91694E-05-3.89590E-06-1.05491E-18-5.70688E-20
 -1      1793 9.43418E-05-2.72378E-05-2.86619E-05-2.41888E-06-9.48822E-19 6.78950E-21
 -1      1794 9.35713E-05-2.73191E-05-2.83569E-05-1.56555E-06-8.26016E-19-2.39502E-19
 -1      1795 9.55136E-05-2.65477E-05-2.95780E-05-4.47053E-06-1.15883E-18-4.47453E-19
 -1      1796 9.30464E-05-2.73700E-05-2.80881E-05-7.39483E-07-7.61003E-19-1.33775E-19
 -1      1797 9.27455E-05-2.74336E-05-2.79662E-05-3.01504E-07-5.29985E-19-3.16641E-19
 -1      1798 9.43049E-05-2.72243E-05-2.87693E-05-1.82628E-06-8.73324E-19-4.49159E-19
 -1      1799 9.24695E-05-2.74610E-05-2.78301E-05 1.53222E-07-4.15106E-19-3.17924E-19
 -1      1800 9.24382E-05-2.75371E-05-2.78002E-05 3.76768E-07-3.19657E-19-4.03586E-19
 -1      1801 9.36032E-05-2.75302E-05-2.83334E-05-3.61610E-07-5.74881E-19-3.58034E-19
 -1      1802 9.23344E-05-2.75684E-05-2.77419E-05 6.15779E-07-4.42686E-19-4.85787E-19
 -1      1803 9.24489E-05-2.76535E-05-2.77609E-05 7.19025E-07-5.50272E-19-6.20680E-19
 -1      1804 9.32814E-05-2.77148E-05-2.81122E-05 4.39467E-07-4.80020E-19-4.91551E-19
 -1      1805 9.24535E-05-2.76913E-05-2.77487E-05 8.29043E-07-6.86035E-19-5.96352E-19
 -1      1806 9.26403E-05-2.77779E-05-2.77931E-05 8.61813E-07-5.78886E-19-7.49597E-19
 -1      1807 9.32167E-05-2.78576E-05-2.80193E-05 8.48789E-07-6.15691E-19-5.48276E-19
 -1      1808 9.27078E-05-2.78191E-05-2.78075E-05 8.93918E-07-5.18130E-19-7.07030E-19
 -1      1809 9.29225E-05-2.79015E-05-2.78633E-05 8.85319E-07-3.59779E-19-6.54309E-19
 -1      1810 9.33096E-05-2.79809E-05-2.80031E-05 1.02164E-06-5.06198E-19-5.30351E-19
 -1      1811 9.30221E-05-2.79426E-05-2.78919E-05 8.71207E-07-5.19693E-19-7.60344E-19
 -1      1812 9.32383E-05-2.80173E-05-2.79504E-05 8.39381E-07-3.50702E-19-9.45569E-19
 -1      1813 9.34891E-05-2.80895E-05-2.80311E-05 1.05175E-06-4.57515E-19-7.50315E-19
 -1      1814 9.33500E-05-2.80558E-05-2.79852E-05 7.99446E-07-3.63415E-19-1.27314E-18
 -1      1815 9.35524E-05-2.81210E-05-2.80415E-05 7.56077E-07-4.83477E-19-1.67208E-18
 -1      1816 9.37075E-05-2.81841E-05-2.80827E-05 9.98365E-07-7.45144E-19-1.07816E-18
 -1      1817 9.36637E-05-2.81554E-05-2.80777E-05 7.03666E-07-2.23859E-19-1.79731E-18
 -1      1818 9.38445E-05-2.82106E-05-2.81288E-05 6.56347E-07-1.15353E-19-1.83341E-18
 -1      1819 9.39343E-05-2.82646E-05-2.81444E-05 9.00020E-07-5.66081E-19-1.29356E-18
 -1      1820 9.39484E-05-2.82402E-05-2.81635E-05 6.00207E-07-1.00736E-19-1.92935E-18
 -1      1821 9.41043E-05-2.82857E-05-2.82083E-05 5.53832E-07 1.07643E-19-1.82487E-18
 -1      1822 9.41511E-05-2.83313E-05-2.82082E-05 7.82024E-07-9.83621E-20-1.44050E-18
 -1      1823 9.41973E-05-2.83105E-05-2.82399E-05 4.99647E-07 3.37306E-19-1.95330E-18
 -1      1824 9.43287E-05-2.83472E-05-2.82782E-05 4.57323E-07 2.38379E-19-1.61918E-18
 -1      1825 9.43481E-05-2.83852E-05-2.82692E-05 6.60967E-07 1.46514E-19-1.82364E-18
 -1      1826 9.44098E-05-2.83675E-05-2.83063E-05 4.08744E-07 8.25537E-20-1.57231E-18
 -1      1827 9.45186E-05-2.83965E-05-2.83384E-05 3.72422E-07-1.47081E-19-1.39006E-18
 -1      1828 9.45213E-05-2.84277E-05-2.83251E-05 5.47627E-07 2.10795E-19-1.42544E-18
 -1      1829 9.45886E-05-2.84129E-05-2.83631E-05 3.31812E-07-5.48330E-19-1.32669E-18
 -1      1830 9.46785E-05-2.84356E-05-2.83900E-05 3.02750E-07-1.19655E-19-1.24431E-18
 -1      1831 9.46708E-05-2.84604E-05-2.83752E-05 4.48985E-07-3.14404E-19-1.23247E-18
 -1      1832 9.47393E-05-2.84488E-05-2.84119E-05 2.71727E-07 2.29329E-20-1.48314E-18
 -1      1833 9.48148E-05-2.84666E-05-2.84349E-05 2.50840E-07-4.78248E-20-1.58417E-18
 -1      1834 9.47996E-05-2.84851E-05-2.84200E-05 3.69683E-07-2.42389E-19-9.44490E-19
 -1      1835 9.48692E-05-2.84776E-05-2.84548E-05 2.30693E-07-7.37364E-20-1.95022E-18
 -1      1836 9.49355E-05-2.84921E-05-2.84753E-05 2.18815E-07 3.34698E-21-1.94932E-18
 -1      1837 9.49125E-05-2.85036E-05-2.84607E-05 3.13115E-07-3.10486E-19-1.34584E-18
 -1      1838 9.49872E-05-2.85017E-05-2.84945E-05 2.10817E-07 6.98579E-20-2.06583E-18
 -1      1839 9.50502E-05-2.85147E-05-2.85143E-05 2.08910E-07-2.87816E-19-1.76138E-18
 -1      1840 9.50160E-05-2.85177E-05-2.84993E-05 2.82253E-07 4.29078E-20-1.10115E-18
 -1      1841 9.51033E-05-2.85240E-05-2.85343E-05 2.14554E-07-4.27308E-19-1.29433E-18
 -1      1842 9.51697E-05-2.85372E-05-2.85552E-05 2.23854E-07 1.08013E-19-1.38598E-18
 -1      1843 9.51179E-05-2.85294E-05-2.85383E-05 2.80265E-07-2.72402E-20-1.03216E-18
 -1      1844 9.52293E-05-2.85475E-05-2.85777E-05 2.45018E-07 9.51316E-20-1.83508E-18
 -1      1845 9.53067E-05-2.85630E-05-2.86021E-05 2.67141E-07 3.70879E-19-1.83549E-18
 -1      1846 9.52272E-05-2.85408E-05-2.85807E-05 3.10970E-07-2.00033E-19-6.88957E-19
 -1      1847 9.53785E-05-2.85758E-05-2.86290E-05 3.06186E-07 3.10200E-19-2.05480E-18
 -1      1848 9.54758E-05-2.85959E-05-2.86595E-05 3.43175E-07-2.82491E-19-2.01448E-18
 -1      1849 9.53546E-05-2.85544E-05-2.86300E-05 3.79136E-07 1.37906E-19-1.16479E-18
 -1      1850 9.55662E-05-2.86127E-05-2.86931E-05 4.02963E-07-1.00840E-19-1.73874E-18
 -1      1851 9.56935E-05-2.86404E-05-2.87326E-05 4.57264E-07 2.82637E-19-1.34372E-18
 -1      1852 9.55122E-05-2.85729E-05-2.86901E-05 4.90600E-07 1.09485E-19-1.38807E-18
 -1      1853 9.58101E-05-2.86634E-05-2.87754E-05 5.41055E-07 1.26683E-19-1.05425E-18
 -1      1854 9.59791E-05-2.87021E-05-2.88273E-05 6.15393E-07 5.23722E-19-1.31421E-18
 -1      1855 9.57140E-05-2.86001E-05-2.87656E-05 6.52180E-07 3.73160E-19-5.09272E-19
 -1      1856 9.61303E-05-2.87336E-05-2.88820E-05 7.26589E-07 1.22046E-19-1.69854E-18
 -1      1857 9.63542E-05-2.87874E-05-2.89501E-05 8.23681E-07 2.38919E-20-1.61398E-18
 -1      1858 9.59759E-05-2.86403E-05-2.88612E-05 8.71267E-07-8.29193E-20-1.16963E-18
 -1      1859 9.65493E-05-2.88305E-05-2.90195E-05 9.65320E-07 2.76576E-19-2.29614E-18
 -1      1860 9.68426E-05-2.89042E-05-2.91078E-05 1.08735E-06-2.03470E-19-2.65439E-18
 -1      1861 9.63157E-05-2.86993E-05-2.89823E-05 1.15497E-06-4.48890E-20-1.86600E-18
 -1      1862 9.70915E-05-2.89627E-05-2.91948E-05 1.26123E-06-6.76865E-20-2.20740E-18
 -1      1863 9.74692E-05-2.90620E-05-2.93073E-05 1.40895E-06-1.08172E-19-2.16729E-18
 -1      1864 9.67530E-05-2.87846E-05-2.91339E-05 1.50858E-06 1.70894E-19-2.34499E-18
 -1      1865 9.77820E-05-2.91403E-05-2.94143E-05 1.61421E-06-7.10499E-20-1.64602E-18
 -1      1866 9.82582E-05-2.92717E-05-2.95545E-05 1.78548E-06 4.44322E-19-1.39161E-18
 -1      1867 9.73084E-05-2.89061E-05-2.93206E-05 1.93305E-06 4.20612E-19-1.26997E-18
 -1      1868 9.86443E-05-2.93756E-05-2.96829E-05 2.01640E-06 5.86878E-19-1.80160E-18
 -1      1869 9.92300E-05-2.95463E-05-2.98531E-05 2.20396E-06 1.03843E-18-1.68903E-18
 -1      1870 9.80023E-05-2.90769E-05-2.95453E-05 2.42097E-06 4.48782E-19-1.44458E-18
 -1      1871 9.96970E-05-2.96828E-05-3.00026E-05 2.44672E-06 7.13610E-19-2.14522E-18
 -1      1872 1.00396E-04-2.98997E-05-3.02026E-05 2.63491E-06-2.31935E-19-1.99886E-18
 -1      1873 9.88534E-05-2.93146E-05-2.98086E-05 2.95069E-06 6.27213E-19-1.77820E-18
 -1      1874 1.00948E-04-3.00776E-05-3.03701E-05 2.86304E-06-7.57224E-19-1.72616E-18
 -1      1875 1.01750E-04-3.03470E-05-3.05951E-05 3.02340E-06-3.56256E-19-1.32584E-18
 -1      1876 9.98756E-05-2.96424E-05-3.01062E-05 3.47777E-06-3.11008E-20-2.28855E-18
 -1      1877 1.02385E-04-3.05766E-05-3.07735E-05 3.19207E-06-9.37192E-19-1.54305E-18
 -1      1878 1.03260E-04-3.09012E-05-3.10120E-05 3.27808E-06-9.45514E-19-1.93397E-18
 -1      1879 1.01074E-04-3.00898E-05-3.04278E-05 3.92394E-06-8.59212E-19-1.30901E-18
 -1      1880 1.03967E-04-3.11933E-05-3.11887E-05 3.31796E-06-1.12505E-18-1.93026E-18
 -1      1881 1.04851E-04-3.15684E-05-3.14198E-05 3.26063E-06-1.11772E-18-1.83600E-18
 -1      1882 1.02440E-04-3.06915E-05-3.07543E-05 4.16427E-06-1.08472E-18-1.61213E-18
 -1      1883 1.05604E-04-3.19304E-05-3.15765E-05 3.07417E-06-1.30100E-18-1.99510E-18
 -1      1884 1.06390E-04-3.23354E-05-3.17674E-05 2.78219E-06-5.01129E-19-1.98219E-18
 -1      1885 1.03940E-04-3.14804E-05-3.10569E-05 4.01647E-06-1.10356E-18-1.56145E-18
 -1      1886 1.07138E-04-3.27614E-05-3.18806E-05 2.24839E-06 1.80851E-19-1.97450E-18
 -1      1887 1.07666E-04-3.31467E-05-3.19870E-05 1.62075E-06 5.45168E-19-2.71194E-18
 -1      1888 1.05500E-04-3.24680E-05-3.12986E-05 3.24148E-06-2.69939E-19-1.14179E-18
 -1      1889 1.08319E-04-3.35984E-05-3.20315E-05 6.19879E-07 1.31027E-18-3.04966E-18
 -1      1890 1.08380E-04-3.38682E-05-3.20028E-05-4.17962E-07 8.91357E-19-2.52924E-18
 -1      1891 1.06978E-04-3.36029E-05-3.14394E-05 1.57373E-06 7.00840E-19-1.50820E-18
 -1      1892 1.08787E-04-3.42465E-05-3.19591E-05-1.94451E-06 4.26832E-19-2.07288E-18
 -1      1893 1.08149E-04-3.42457E-05-3.17513E-05-3.37116E-06 6.77501E-19-1.71872E-18
 -1      1894 1.08125E-04-3.47045E-05-3.14483E-05-1.19086E-06 1.26656E-18-1.49282E-18
 -1      1895 1.08091E-04-3.43690E-05-3.16157E-05-5.31654E-06 1.27809E-18-8.98459E-19
 -1      1896 1.06573E-04-3.39022E-05-3.12117E-05-6.92334E-06 1.16531E-18-2.67073E-19
 -1      1897 1.08546E-04-3.53903E-05-3.13191E-05-5.02006E-06 1.40123E-18-7.61001E-19
 -1      1898 1.05802E-04-3.35329E-05-3.10026E-05-8.89549E-06 3.28927E-19-9.58371E-19
 -1      1899 1.03400E-04-3.24546E-05-3.04335E-05-1.02271E-05 1.93176E-19-2.79408E-19
 -1      1900 1.07732E-04-3.50901E-05-3.10833E-05-9.39706E-06 7.00688E-19-8.10263E-19
 -1      1901 1.01795E-04-3.14398E-05-3.01887E-05-1.15215E-05 4.35904E-19 6.43864E-19
 -1      1902 9.88143E-05-2.98235E-05-2.95410E-05-1.19663E-05 1.98470E-19 1.23385E-18
 -1      1903 1.05262E-04-3.32721E-05-3.08012E-05-1.31291E-05 1.23516E-18-1.55444E-20
 -1      1904 9.66220E-05-2.83228E-05-2.92979E-05-1.18051E-05-4.56395E-19 1.73749E-18
 -1      1905 9.37084E-05-2.65980E-05-2.86928E-05-1.09095E-05 5.03502E-19 1.17446E-18
 -1      1906 1.01245E-04-2.99575E-05-3.05288E-05-1.45334E-05 2.24714E-19 1.55812E-18
 -1      1907 9.16473E-05-2.52006E-05-2.84691E-05-8.98173E-06 2.26171E-19 8.19240E-21
 -1      1908 8.95842E-05-2.40341E-05-2.80214E-05-6.86882E-06 5.15036E-19 3.82262E-19
 -1      1909 9.67135E-05-2.61624E-05-3.02684E-05-1.22857E-05-6.29319E-21 1.65943E-18
 -1      1910 8.84841E-05-2.34428E-05-2.78179E-05-3.78745E-06 1.67873E-18-4.93933E-19
 -1      1911 8.77846E-05-2.33022E-05-2.75969E-05-1.25842E-06 1.37045E-18 1.60678E-19
 -1      1912 9.33655E-05-2.36074E-05-2.99714E-05-6.65001E-06 3.92421E-19 1.28718E-18
 -1      1913 8.79232E-05-2.37394E-05-2.74206E-05 1.66944E-06 7.61033E-19 3.82720E-19
 -1      1914 8.85219E-05-2.45073E-05-2.74317E-05 3.60768E-06 1.80012E-18 1.46539E-18
 -1      1915 9.24277E-05-2.35101E-05-2.96018E-05 1.48973E-07 1.60569E-18 3.60520E-19
 -1      1916 8.93735E-05-2.54901E-05-2.73061E-05 5.28786E-06 1.71867E-18 1.44470E-18
 -1      1917 9.07236E-05-2.65878E-05-2.74957E-05 6.10703E-06 1.17607E-18 1.62777E-18
 -1      1918 9.36157E-05-2.55135E-05-2.91986E-05 5.27283E-06 1.71298E-18 8.72783E-19
 -1      1919 9.14844E-05-2.74113E-05-2.74361E-05 6.35054E-06 3.96061E-19 2.28054E-18
 -1      1920 9.29507E-05-2.82882E-05-2.77135E-05 6.21232E-06 4.11841E-19 1.94491E-18
 -1      1921 9.54539E-05-2.80512E-05-2.88545E-05 7.27306E-06 1.10319E-18 1.73217E-18
 -1      1922 9.31660E-05-2.85891E-05-2.77004E-05 5.60223E-06 1.81253E-19 9.59979E-19
 -1      1923 9.43402E-05-2.90550E-05-2.79656E-05 5.00983E-06 2.92379E-19 1.14834E-18
 -1      1924 9.65473E-05-2.96824E-05-2.86201E-05 6.69242E-06-1.97134E-19 2.58589E-18
 -1      1925 9.40373E-05-2.89816E-05-2.79214E-05 4.35079E-06 9.63063E-19-3.21542E-20
 -1      1926 9.49308E-05-2.93197E-05-2.81008E-05 3.60394E-06 2.99572E-20 3.00209E-19
 -1      1927 9.58874E-05-2.99925E-05-2.82133E-05 3.82858E-06-8.55133E-19 7.15384E-19
 -1      1928 9.64528E-05-3.00133E-05-2.84228E-05 5.16963E-06-1.08136E-19 1.34295E-18
 -1      1929 9.32225E-05-2.73658E-05-2.81964E-05 1.60292E-06 1.11065E-18 2.58726E-18
 -1      1930 9.44164E-05-2.74710E-05-2.86328E-05 2.67396E-06 9.73241E-19 3.05744E-18
 -1      1931 9.52391E-05-2.70498E-05-2.92294E-05 4.05116E-06 1.20448E-18 2.13741E-18
 -1      1932 9.21716E-05-2.73526E-05-2.77550E-05 3.46177E-07 8.50166E-19 2.19491E-18
 -1      1933 9.26652E-05-2.73847E-05-2.79272E-05 8.94303E-07 9.08999E-19 2.48342E-18
 -1      1934 9.36356E-05-2.73711E-05-2.84059E-05 1.58248E-06 1.06296E-18 1.87519E-18
 -1      1935 9.17971E-05-2.73907E-05-2.75871E-05-3.06861E-07 3.53175E-19 1.88661E-18
 -1      1936 9.19115E-05-2.73637E-05-2.76339E-05-1.44952E-08 5.78489E-19 2.06883E-18
 -1      1937 9.28053E-05-2.74866E-05-2.80037E-05 2.69907E-07 7.37645E-19 1.41106E-18
 -1      1938 9.18212E-05-2.74814E-05-2.75641E-05-6.31877E-07 5.44425E-20 1.65915E-18
 -1      1939 9.17330E-05-2.74193E-05-2.75476E-05-4.79358E-07 1.50284E-19 1.82235E-18
 -1      1940 9.24918E-05-2.75798E-05-2.78295E-05-4.22920E-07 2.42711E-19 1.06960E-18
 -1      1941 9.20653E-05-2.76035E-05-2.76195E-05-7.68589E-07 3.59959E-19 1.50748E-18
 -1      1942 9.18744E-05-2.75247E-05-2.75709E-05-6.97788E-07 1.28626E-19 1.59559E-18
 -1      1943 9.24951E-05-2.76851E-05-2.77839E-05-7.66777E-07 2.10970E-19 8.25544E-19
 -1      1944 9.24171E-05-2.77375E-05-2.77147E-05-7.94430E-07 2.09602E-19 1.40703E-18
 -1      1945 9.21823E-05-2.76542E-05-2.76516E-05-7.72795E-07 3.43322E-19 1.51566E-18
 -1      1946 9.26790E-05-2.78004E-05-2.78111E-05-9.06137E-07 4.15303E-19 7.98022E-19
 -1      1947 9.28070E-05-2.78702E-05-2.78263E-05-7.56017E-07 2.53410E-19 9.56941E-19
 -1      1948 9.25631E-05-2.77898E-05-2.77590E-05-7.63700E-07 2.93116E-19 1.28282E-18
 -1      1949 9.29542E-05-2.79170E-05-2.78772E-05-9.24287E-07 4.02117E-19 8.14267E-19
 -1      1950 9.31926E-05-2.79933E-05-2.79398E-05-6.82825E-07-7.91777E-20 1.08670E-18
 -1      1951 9.29600E-05-2.79201E-05-2.78747E-05-7.07103E-07 5.04928E-20 9.23402E-19
 -1      1952 9.32637E-05-2.80276E-05-2.79611E-05-8.72463E-07 2.15654E-19 5.79624E-19
 -1      1953 9.35497E-05-2.81026E-05-2.80468E-05-5.93907E-07 4.60886E-19 1.33443E-18
 -1      1954 9.33394E-05-2.80385E-05-2.79873E-05-6.26431E-07 2.24829E-19 1.24755E-18
 -1      1955 9.35725E-05-2.81276E-05-2.80496E-05-7.83415E-07 1.24883E-19 6.96127E-19
 -1      1956 9.38663E-05-2.81964E-05-2.81428E-05-5.01599E-07 2.48714E-19 1.21214E-18
 -1      1957 9.36832E-05-2.81419E-05-2.80906E-05-5.36869E-07 4.14568E-19 1.32016E-18
 -1      1958 9.38603E-05-2.82146E-05-2.81349E-05-6.78419E-07 3.21697E-19 5.64134E-19
 -1      1959 9.41382E-05-2.82746E-05-2.82263E-05-4.13792E-07 7.41705E-19 3.78816E-19
 -1      1960 9.39833E-05-2.82296E-05-2.81817E-05-4.48211E-07 4.08435E-19 7.46069E-19
 -1      1961 9.41167E-05-2.82881E-05-2.82129E-05-5.71288E-07 7.43732E-19 2.38868E-19
 -1      1962 9.43666E-05-2.83384E-05-2.82971E-05-3.35445E-07 4.38528E-19 2.00497E-19
 -1      1963 9.42382E-05-2.83020E-05-2.82599E-05-3.66684E-07 5.29431E-19 3.70406E-19
 -1      1964 9.43384E-05-2.83486E-05-2.82817E-05-4.70896E-07 7.80506E-19 1.88304E-19
 -1      1965 9.45561E-05-2.83898E-05-2.83564E-05-2.69666E-07 4.03291E-19 1.40287E-19
 -1      1966 9.44509E-05-2.83607E-05-2.83257E-05-2.96199E-07 5.40818E-19 1.90954E-19
 -1      1967 9.45265E-05-2.83974E-05-2.83412E-05-3.82889E-07 7.22484E-19 1.27118E-19
 -1      1968 9.47138E-05-2.84311E-05-2.84064E-05-2.18506E-07 1.24341E-19-6.12678E-19
 -1      1969 9.46275E-05-2.84079E-05-2.83809E-05-2.39269E-07 2.00773E-19-1.50174E-19
 -1      1970 9.46850E-05-2.84363E-05-2.83924E-05-3.10921E-07 3.43819E-19-2.82977E-19
 -1      1971 9.48485E-05-2.84650E-05-2.84496E-05-1.83578E-07 6.11202E-20-2.79372E-19
 -1      1972 9.47759E-05-2.84460E-05-2.84278E-05-1.97696E-07-1.90079E-20-6.61501E-19
 -1      1973 9.48204E-05-2.84676E-05-2.84370E-05-2.57582E-07 2.93972E-19-2.90653E-19
 -1      1974 9.49704E-05-2.84944E-05-2.84891E-05-1.66541E-07-4.21964E-19 6.02151E-19
 -1      1975 9.49055E-05-2.84779E-05-2.84693E-05-1.73111E-07-1.66891E-19 1.15077E-19
 -1      1976 9.49406E-05-2.84935E-05-2.84775E-05-2.25104E-07-2.04208E-19-3.33554E-20
 -1      1977 9.50912E-05-2.85225E-05-2.85286E-05-1.69482E-07-1.20473E-18-2.66425E-20
 -1      1978 9.50273E-05-2.85067E-05-2.85088E-05-1.67396E-07-7.31040E-19 1.13090E-19
 -1      1979 9.50551E-05-2.85166E-05-2.85169E-05-2.15931E-07-5.84373E-19-1.96715E-19
 -1      1980 9.52243E-05-2.85531E-05-2.85721E-05-1.95239E-07 1.53684E-19 7.22731E-20
 -1      1981 9.51539E-05-2.85357E-05-2.85502E-05-1.83031E-07-4.10244E-19-1.32480E-20
 -1      1982 9.51749E-05-2.85398E-05-2.85585E-05-2.33161E-07-4.87878E-19-3.26625E-19
 -1      1983 9.53854E-05-2.85905E-05-2.86247E-05-2.47655E-07 4.61082E-19-8.59032E-20
 -1      1984 9.52997E-05-2.85689E-05-2.85979E-05-2.23372E-07 1.91310E-19-4.71098E-20
 -1      1985 9.53126E-05-2.85663E-05-2.86065E-05-2.80914E-07 1.49576E-19-3.80385E-19
 -1      1986 9.55931E-05-2.86396E-05-2.86920E-05-3.31794E-07 5.61676E-19-2.95980E-19
 -1      1987 9.54816E-05-2.86109E-05-2.86572E-05-2.92879E-07 7.68988E-19 8.17381E-20
 -1      1988 9.54833E-05-2.85999E-05-2.86656E-05-3.64621E-07 6.69586E-19-9.85895E-20
 -1      1989 9.58691E-05-2.87064E-05-2.87808E-05-4.54080E-07-9.26392E-19 6.68351E-20
 -1      1990 9.57195E-05-2.86670E-05-2.87344E-05-3.97288E-07-2.30257E-19-1.14583E-19
 -1      1991 9.57044E-05-2.86450E-05-2.87415E-05-4.91239E-07-2.54578E-19 4.52385E-19
 -1      1992 9.62395E-05-2.87982E-05-2.88992E-05-6.22335E-07-1.09865E-18 8.01364E-19
 -1      1993 9.60368E-05-2.87437E-05-2.88367E-05-5.43686E-07-1.46550E-18 3.18913E-19
 -1      1994 9.59966E-05-2.87070E-05-2.88408E-05-6.69349E-07-1.18823E-18 4.21647E-19
 -1      1995 9.67349E-05-2.89236E-05-2.90564E-05-8.45632E-07-5.52741E-19 2.02074E-18
 -1      1996 9.64616E-05-2.88488E-05-2.89728E-05-7.40445E-07-4.95801E-19 1.31879E-18
 -1      1997 9.63840E-05-2.87924E-05-2.89709E-05-9.09077E-07-1.03791E-18 1.19854E-18
 -1      1998 9.73910E-05-2.90932E-05-2.92634E-05-1.13379E-06-4.76514E-20 2.61736E-18
 -1      1999 9.70264E-05-2.89918E-05-2.91525E-05-9.96875E-07-2.98936E-19 2.53852E-18
 -1      2000 9.68947E-05-2.89090E-05-2.91407E-05-1.22168E-06-5.75670E-19 1.78303E-18
 -1      2001 9.82479E-05-2.93194E-05-2.95320E-05-1.49624E-06 4.17083E-19 3.40017E-18
 -1      2002 9.77685E-05-2.91838E-05-2.93872E-05-1.32238E-06 4.81064E-19 2.84308E-18
 -1      2003 9.75604E-05-2.90664E-05-2.93595E-05-1.61856E-06 3.73039E-19 2.46950E-18
 -1      2004 9.93491E-05-2.96169E-05-2.98748E-05-1.93965E-06-3.25608E-19 2.54810E-18
 -1      2005 9.87295E-05-2.94384E-05-2.96889E-05-1.72470E-06 2.02659E-21 3.39305E-18
 -1      2006 9.84160E-05-2.92765E-05-2.96373E-05-2.10916E-06 3.92911E-20 2.99035E-18
 -1      2007 1.00738E-04-3.00025E-05-3.03034E-05-2.46360E-06-9.93080E-20 2.26252E-18
 -1      2008 9.99527E-05-2.97714E-05-3.00696E-05-2.20652E-06-3.79830E-19 2.58262E-18
 -1      2009 9.94981E-05-2.95541E-05-2.99834E-05-2.69712E-06-3.26935E-20 2.63371E-18
 -1      2010 1.02452E-04-3.04952E-05-3.08263E-05-3.05274E-06-3.48465E-19 2.56455E-18
 -1      2011 1.01480E-04-3.02015E-05-3.05395E-05-2.75943E-06 7.08083E-20 1.97320E-18
 -1      2012 1.00842E-04-2.99180E-05-3.04046E-05-3.37320E-06 3.31997E-20 3.14591E-18
 -1      2013 1.04510E-04-3.11157E-05-3.14440E-05-3.66355E-06-3.18625E-19 2.12564E-18
 -1      2014 1.03342E-04-3.07500E-05-3.11034E-05-3.35347E-06-7.04920E-19 2.28863E-18
 -1      2015 1.02474E-04-3.03925E-05-3.09026E-05-4.10340E-06-2.80853E-19 2.31317E-18
 -1      2016 1.06895E-04-3.18840E-05-3.21420E-05-4.20386E-06 6.32762E-19 1.55614E-18
 -1      2017 1.05548E-04-3.14404E-05-3.17556E-05-3.92051E-06 1.30387E-19 2.07444E-18
 -1      2018 1.04409E-04-3.10097E-05-3.14687E-05-4.81001E-06 3.76731E-20 1.47407E-18
 -1      2019 1.09526E-04-3.28142E-05-3.28810E-05-4.50458E-06-2.61324E-19 3.03615E-18
 -1      2020 1.08062E-04-3.22956E-05-3.24713E-05-4.33033E-06 1.12789E-19 2.31502E-18
 -1      2021 1.06630E-04-3.18103E-05-3.20783E-05-5.34424E-06 7.67562E-20 1.96328E-18
 -1      2022 1.12219E-04-3.39006E-05-3.35852E-05-4.29042E-06-1.49042E-18 4.10517E-18
 -1      2023 1.10771E-04-3.33293E-05-3.31973E-05-4.36249E-06-8.11676E-19 4.16525E-18
 -1      2024 1.09071E-04-3.28382E-05-3.26835E-05-5.45355E-06-1.18347E-18 3.76287E-18
 -1      2025 1.14638E-04-3.50853E-05-3.41339E-05-3.17260E-06 6.98336E-19 4.16910E-18
 -1      2026 1.13441E-04-3.45219E-05-3.38409E-05-3.68834E-06-4.07681E-19 4.56945E-18
 -1      2027 1.11586E-04-3.41185E-05-3.32092E-05-4.75837E-06-4.20932E-19 3.89998E-18
 -1      2028 1.16255E-04-3.61954E-05-3.43679E-05-7.17958E-07 2.95224E-19 4.62855E-18
 -1      2029 1.15659E-04-3.57683E-05-3.42688E-05-1.90088E-06 6.11452E-19 4.45958E-18
 -1      2030 1.13898E-04-3.55961E-05-3.35568E-05-2.77853E-06 4.65967E-19 4.44810E-18
 -1      2031 1.16344E-04-3.68487E-05-3.41276E-05 3.31908E-06-3.49097E-19 4.04206E-18
 -1      2032 1.16784E-04-3.67858E-05-3.43246E-05 1.33819E-06-6.58700E-20 4.15840E-18
 -1      2033 1.15530E-04-3.70155E-05-3.36280E-05 9.15291E-07 3.23990E-19 4.91046E-18
 -1      2034 1.14089E-04-3.63965E-05-3.33319E-05 8.52061E-06 1.82426E-18 3.01685E-18
 -1      2035 1.15960E-04-3.70081E-05-3.38814E-05 5.95109E-06 9.24391E-19 3.62885E-18
 -1      2036 1.15738E-04-3.77553E-05-3.33710E-05 6.32735E-06 8.72987E-19 3.59284E-18
 -1      2037 1.08980E-04-3.41580E-05-3.20655E-05 1.32942E-05 2.07853E-18 2.30946E-18
 -1      2038 1.12377E-04-3.56695E-05-3.29179E-05 1.09367E-05 1.76760E-18 2.54163E-18
 -1      2039 1.13643E-04-3.68718E-05-3.28286E-05 1.24323E-05 2.17222E-18 3.02833E-18
 -1      2040 1.01560E-04-3.01240E-05-3.06095E-05 1.50291E-05 2.12930E-18 1.28582E-18
 -1      2041 1.05945E-04-3.23409E-05-3.15827E-05 1.41624E-05 2.53785E-18 1.89788E-18
 -1      2042 1.08792E-04-3.36597E-05-3.21442E-05 1.68096E-05 3.09870E-18 3.32425E-18
 -1      2043 9.39596E-05-2.56838E-05-2.93051E-05 1.16655E-05 4.96216E-19-2.10210E-18
 -1      2044 9.81033E-05-2.77869E-05-3.01590E-05 1.32418E-05 1.06738E-18-9.82823E-19
 -1      2045 1.02138E-04-2.87487E-05-3.14780E-05 1.64669E-05 1.91590E-18 3.95882E-19
 -1      2046 8.93649E-05-2.33394E-05-2.83863E-05 4.11478E-06-1.02637E-19-2.75520E-18
 -1      2047 9.17710E-05-2.42442E-05-2.89200E-05 7.56924E-06 4.27408E-19-2.14688E-18
 -1      2048 9.63316E-05-2.45262E-05-3.08519E-05 1.01930E-05 6.03432E-19-1.80315E-18
 -1      2049 8.93668E-05-2.43056E-05-2.79826E-05-3.54232E-06 1.02856E-18-2.68966E-18
 -1      2050 8.93842E-05-2.36732E-05-2.81134E-05-1.51983E-07-2.97785E-20-2.51847E-18
 -1      2051 9.40715E-05-2.36377E-05-3.02648E-05 8.90872E-07 6.07958E-19-1.78111E-18
 -1      2052 9.25301E-05-2.72567E-05-2.80081E-05-7.31116E-06 4.05914E-19-1.02541E-18
 -1      2053 9.08497E-05-2.58444E-05-2.78250E-05-5.69294E-06 1.42987E-18-6.68058E-19
 -1      2054 9.55061E-05-2.61278E-05-2.97505E-05-6.24627E-06 5.51180E-19 6.08342E-20
 -1      2055 9.58349E-05-2.97442E-05-2.82793E-05-6.52659E-06-4.04782E-19-1.84842E-18
 -1      2056 9.38431E-05-2.86008E-05-2.79622E-05-6.84590E-06-1.14192E-19-1.32512E-18
 -1      2057 9.82184E-05-2.96170E-05-2.93727E-05-8.09762E-06 2.88180E-19 1.21055E-18
 -1      2058 9.72893E-05-3.04306E-05-2.85678E-05-3.54587E-06 1.12990E-19-1.40104E-18
 -1      2059 9.60011E-05-3.00490E-05-2.82921E-05-4.72161E-06-4.62142E-19-1.45702E-18
 -1      2060 9.96446E-05-3.15360E-05-2.91714E-05-5.70905E-06-4.95445E-19-6.24184E-19
 -1      2061 9.68154E-05-2.96351E-05-2.87134E-05-1.16331E-06-1.03030E-18-9.59030E-19
 -1      2062 9.64459E-05-2.98518E-05-2.85690E-05-1.99406E-06-8.12305E-19-1.14708E-18
 -1      2063 9.89916E-05-3.11947E-05-2.90678E-05-2.32214E-06-7.19700E-19 1.15257E-18
 -1      2064 9.59880E-05-2.88913E-05-2.87057E-05-3.84707E-07-1.52779E-18 1.24286E-18
 -1      2065 9.61060E-05-2.92158E-05-2.86968E-05-6.50029E-07-1.46221E-18-2.72037E-19
 -1      2066 9.76827E-05-3.01125E-05-2.89921E-05-4.89850E-07-1.85337E-18 1.96727E-18
 -1      2067 9.64575E-05-2.89346E-05-2.88694E-05-3.35621E-08-1.71916E-18 3.15788E-18
 -1      2068 9.79999E-05-2.25994E-05-3.22233E-05 1.80924E-05-1.10951E-18 5.75929E-19
 -1      2069 9.95293E-05-2.65977E-05-3.12176E-05 1.43520E-05-2.00875E-18 2.37118E-18
 -1      2070 9.93796E-05-2.73754E-05-3.07181E-05 9.64944E-06-1.52530E-18 1.17486E-18
 -1      2071 9.93630E-05-2.93247E-05-3.00120E-05 6.33080E-06-1.29231E-18 1.10979E-18
 -1      2072 1.02952E-04-3.10280E-05-3.08878E-05 1.42154E-05-3.23232E-18 1.92280E-18
 -1      2073 9.82253E-05-2.88313E-05-2.96120E-05 3.37524E-06-1.26108E-18-6.34481E-20
 -1      2074 9.75068E-05-2.93394E-05-2.91927E-05 1.43973E-06-1.21504E-18 1.04018E-18
 -1      2075 9.82883E-05-2.99214E-05-2.93030E-05 1.40174E-06-1.71729E-18 1.11071E-18
 -1      2076 1.01389E-04-3.11797E-05-3.00752E-05 6.05145E-06-2.44071E-18 6.63280E-19
 -1      2077 9.25947E-05-1.40919E-05-3.37198E-05 2.42566E-05-1.84576E-18-4.56612E-18
 -1      2078 9.61269E-05-1.97693E-05-3.26145E-05 2.22548E-05-1.48979E-18-1.67669E-18
 -1      2079 1.00728E-04-2.73575E-05-3.15232E-05 2.42392E-05-2.96391E-18-1.45216E-18
 -1      2080 8.36570E-05-2.98164E-06-3.47985E-05 2.28790E-05 5.47289E-19-6.14681E-19
 -1      2081 8.83920E-05-8.96863E-06-3.38794E-05 2.48610E-05 1.06144E-20-2.49020E-18
 -1      2082 9.26086E-05-1.88772E-05-3.16193E-05 3.00702E-05-8.39115E-19-1.54510E-18
 -1      2083 7.56606E-05 5.98513E-06-3.51751E-05 1.08967E-05 3.12947E-18 5.97423E-19
 -1      2084 7.89498E-05 2.36316E-06-3.47270E-05 1.74192E-05 2.40158E-18-2.78515E-19
 -1      2085 8.07334E-05-7.50411E-06-3.11617E-05 2.51411E-05 1.48811E-18 1.04360E-18
 -1      2086 7.47214E-05 6.89212E-06-3.49854E-05-7.38419E-06 2.13214E-18-5.96999E-19
 -1      2087 7.40327E-05 7.74661E-06-3.51144E-05 7.27721E-07 2.98872E-18 5.91494E-19
 -1      2088 7.22065E-05 3.90349E-07-3.06735E-05 7.29356E-06 3.55503E-18 1.27584E-19
 -1      2089 8.17245E-05-1.31440E-06-3.43137E-05-2.19685E-05 2.19884E-19-2.20313E-18
 -1      2090 7.76139E-05 3.58145E-06-3.50126E-05-1.66145E-05 1.34220E-18-1.84870E-18
 -1      2091 7.39204E-05-1.30971E-06-3.07197E-05-1.50326E-05 8.78916E-19-1.88751E-18
 -1      2092 9.13833E-05-1.35864E-05-3.31819E-05-2.62376E-05-2.06213E-18-4.30598E-18
 -1      2093 8.66579E-05-7.09871E-06-3.42757E-05-2.56185E-05-4.47313E-19-2.09683E-18
 -1      2094 8.43109E-05-1.12919E-05-3.11582E-05-2.94764E-05-7.18901E-19-2.83915E-18
 -1      2095 9.80839E-05-2.37657E-05-3.17538E-05-2.14694E-05-1.10499E-18-2.93802E-18
 -1      2096 9.49998E-05-1.82209E-05-3.29202E-05-2.42501E-05-1.33752E-18-3.50007E-18
 -1      2097 9.57983E-05-2.25954E-05-3.14190E-05-3.07619E-05-1.78568E-18-3.70615E-18
 -1      2098 1.00635E-04-2.97918E-05-3.03192E-05-1.27320E-05-8.43813E-19-3.86035E-19
 -1      2099 9.94708E-05-2.61776E-05-3.12911E-05-1.67171E-05-1.18651E-19-1.75127E-18
 -1      2100 1.02431E-04-3.00318E-05-3.11195E-05-2.28831E-05-1.92482E-19-2.12233E-18
 -1      2101 1.00158E-04-3.19451E-05-2.92254E-05-4.52925E-06-7.71362E-19 9.34132E-19
 -1      2102 1.00360E-04-3.03666E-05-2.98282E-05-7.96390E-06-5.72071E-19 8.50898E-19
 -1      2103 1.03775E-04-3.29882E-05-3.03869E-05-1.22649E-05 5.64485E-19 1.87988E-19
 -1      2104 9.81538E-05-3.15848E-05-2.85339E-05 1.05529E-06-1.71525E-18 1.84697E-18
 -1      2105 9.91372E-05-3.15432E-05-2.88222E-05-1.15043E-06-1.10819E-18 8.36974E-20
 -1      2106 1.01808E-04-3.29503E-05-2.95342E-05-3.36643E-06-6.21558E-19 5.69405E-19
 -1      2107 6.69350E-05-4.68260E-05-9.30052E-06 4.93600E-05-9.46136E-19 5.01020E-19
 -1      2108 4.92708E-05-4.97034E-05-1.70337E-06 3.91301E-05-1.37092E-18 8.58150E-19
 -1      2109 1.60988E-05-3.63050E-05 7.27480E-06 6.20801E-06-9.80441E-19-5.41889E-18
 -1      2110 1.66475E-05-3.75595E-05 7.45739E-06-7.99242E-06-1.11173E-19-6.59119E-18
 -1      2111 3.37255E-05-4.39660E-05 2.83879E-06 3.31075E-05-1.31714E-18 1.50348E-19
 -1      2112 2.34490E-05-4.25061E-05 6.36398E-06 2.28262E-05-8.87691E-19-1.74870E-18
 -1      2113 4.97343E-05-4.23928E-05-3.96736E-06 4.48283E-05 1.94394E-19 1.19326E-18
 -1      2114 1.12271E-04-4.89335E-05-2.68971E-05 5.17241E-05-1.28410E-18 3.52789E-19
 -1      2115 9.20517E-05-5.32191E-05-1.76257E-05 4.68736E-05-8.09763E-19-2.65757E-19
 -1      2116 1.50139E-04-4.50538E-05-4.40108E-05 4.48655E-05-1.40099E-18 3.00273E-18
 -1      2117 1.28700E-04-4.81480E-05-3.49578E-05 4.33412E-05-1.25615E-18 1.38405E-18
 -1      2118 8.72467E-05-8.72237E-06-3.37488E-05-1.05391E-05-7.43556E-19-2.38362E-18
 -1      2119 8.79527E-05-9.23997E-06-3.38211E-05-1.20948E-05-9.52948E-19-2.16952E-18
 -1      2120 9.04849E-05-1.30494E-05-3.32358E-05-1.18729E-05-1.09482E-18-1.85828E-18
 -1      2121 8.86846E-05-1.10565E-05-3.32947E-05-9.41251E-06-7.41703E-19-2.26734E-18
 -1      2122 1.96987E-04-3.04372E-05-6.94907E-05 1.86623E-05-1.42979E-18 9.97805E-19
 -1      2123 1.83930E-04-3.04419E-05-6.47291E-05 2.34339E-05-1.53313E-18-1.52889E-19
 -1      2124 1.98633E-04-2.67891E-05-7.22324E-05 6.67550E-06-2.14299E-19 1.92425E-18
 -1      2125 1.99486E-04-2.72208E-05-7.20051E-05 1.49729E-05-1.45944E-18 2.01721E-18
 -1      2126 1.80955E-04-2.71999E-05-6.52489E-05 8.05691E-07 1.81943E-18 1.20787E-18
 -1      2127 1.94994E-04-2.73698E-05-6.99018E-05 4.15389E-06 2.32807E-18 2.11377E-18
 -1      2128 1.65319E-04-4.18415E-05-5.26449E-05-1.36967E-05 8.08387E-19 6.18334E-19
 -1      2129 1.76231E-04-3.79041E-05-5.89076E-05-2.97758E-06 1.21380E-18 1.22947E-18
 -1      2130 1.38657E-04-5.22071E-05-3.75477E-05-2.21870E-05 1.50137E-18 9.85099E-19
 -1      2131 1.58623E-04-4.86748E-05-4.64314E-05-2.25906E-05 1.62884E-18 5.08220E-19
 -1      2132 1.59770E-04-5.02748E-05-4.63383E-05 3.40011E-07 1.85712E-18-4.44692E-20
 -1      2133 9.75317E-05-5.44412E-05-1.94544E-05-3.43762E-05 2.46910E-19-2.99003E-19
 -1      2134 1.20795E-04-5.39233E-05-2.86530E-05-3.56854E-05 6.18334E-19 1.01475E-18
 -1      2135 5.87237E-05-5.11786E-05-4.54796E-06-3.37978E-05-3.03238E-19-5.92500E-19
 -1      2136 7.67336E-05-4.96005E-05-1.20832E-05-3.96296E-05 3.58718E-19-7.64447E-19
 -1      2137 2.65462E-05-4.64134E-05 6.92598E-06-2.14216E-05-8.69479E-19-2.42971E-18
 -1      2138 3.81837E-05-4.44421E-05 1.80804E-06-3.06233E-05-1.12232E-18-9.19031E-19
 -1      2139 1.34170E-05-3.92366E-05 9.99903E-06-3.57056E-06-7.28131E-19-2.58896E-18
 -1      2140 1.75553E-05-4.04281E-05 8.77869E-06-1.36686E-05-6.50733E-19-2.67535E-18
 -1      2141 1.88160E-05-4.19242E-05 8.62285E-06 1.85602E-05-3.96835E-19 3.31613E-19
 -1      2142 1.35866E-05-4.16828E-05 1.06560E-05 9.33556E-06 3.83600E-19-2.45724E-18
 -1      2143 4.51826E-05-4.40970E-05-1.16742E-06 3.59390E-05-8.79220E-19 1.83510E-18
 -1      2144 3.26629E-05-4.56048E-05 4.22247E-06 2.81355E-05-1.31544E-18 9.22419E-19
 -1      2145 8.38984E-05-4.92587E-05-1.50948E-05 4.35395E-05-1.72456E-18-1.33619E-18
 -1      2146 6.27738E-05-5.02801E-05-6.67750E-06 3.68467E-05-1.78385E-18 7.24822E-19
 -1      2147 6.53494E-05-4.92030E-05-7.10516E-06 4.29529E-05-1.56998E-18 2.60463E-20
 -1      2148 1.29394E-04-5.19953E-05-3.30226E-05 3.59326E-05 1.43572E-19-5.79709E-18
 -1      2149 1.07082E-04-5.33984E-05-2.36874E-05 3.57907E-05-6.49674E-19-3.27463E-18
 -1      2150 1.64749E-04-4.35168E-05-5.09491E-05 2.30779E-05-1.73642E-20-7.31244E-18
 -1      2151 1.45214E-04-4.73374E-05-4.22103E-05 2.22576E-05 1.56383E-19-6.10541E-18
 -1      2152 1.83560E-04-3.46519E-05-6.26996E-05 9.38206E-06 9.12678E-20-8.89639E-18
 -1      2153 1.69617E-04-3.69017E-05-5.66487E-05 1.58440E-05 2.64698E-22-7.56316E-18
 -1      2154 1.62147E-04-4.26350E-05-5.05944E-05 2.76040E-07 5.49195E-19-6.47726E-18
 -1      2155 1.96914E-04-2.76696E-05-7.11662E-05-2.04493E-06 5.07373E-19-7.54082E-18
 -1      2156 1.89284E-04-2.79267E-05-6.81264E-05 5.89903E-06 5.68783E-19-8.48346E-18
 -1      2157 1.84384E-04-2.05325E-05-6.95231E-05-1.08735E-05 1.92276E-19-5.76618E-18
 -1      2158 1.94234E-04-2.39767E-05-7.12586E-05-6.06726E-06-2.64698E-19-6.43284E-18
 -1      2159 1.80404E-04-3.04377E-05-6.32266E-05-2.15446E-05 3.33032E-18-6.18207E-18
 -1      2160 1.83507E-04-2.64457E-05-6.67362E-05-1.23474E-05 1.76564E-18-5.59232E-18
 -1      2161 1.58926E-04-3.91630E-05-5.10383E-05-3.45394E-05 3.10226E-18-7.04731E-18
 -1      2162 1.76396E-04-3.75866E-05-5.84021E-05-3.02015E-05 2.98516E-18-7.35818E-18
 -1      2163 1.29020E-04-4.87416E-05-3.48355E-05-4.22307E-05 1.99942E-18-5.79921E-18
 -1      2164 1.49496E-04-4.49984E-05-4.38505E-05-4.36429E-05 2.53983E-18-7.38274E-18
 -1      2165 9.07286E-05-5.23133E-05-1.75340E-05-4.76675E-05 3.33816E-18-3.68142E-18
 -1      2166 1.11640E-04-4.96417E-05-2.63430E-05-5.20445E-05 2.65630E-18-5.22365E-18
 -1      2167 5.53745E-05-4.88397E-05-4.04336E-06-4.36024E-05 1.47511E-18-2.52712E-18
 -1      2168 7.21320E-05-4.71637E-05-1.11386E-05-5.06835E-05 3.80995E-18-1.40459E-18
 -1      2169 9.67839E-05-5.67286E-05-1.73014E-05-5.36276E-05 1.76988E-18-3.41000E-18
 -1      2170 2.25615E-05-4.16280E-05 6.48778E-06-2.08612E-05-8.70326E-20-4.10049E-18
 -1      2171 3.15605E-05-3.96121E-05 2.25796E-06-3.40344E-05 7.47507E-19-3.11623E-18
 -1      2172 2.33693E-05-2.72461E-05 1.05450E-06-1.74223E-05-4.76033E-19-5.04493E-18
 -1      2173 1.79279E-04-3.82187E-05-5.90445E-05 3.15828E-05-6.05523E-19-3.97258E-19
 -1      2174 1.61096E-04-3.96575E-05-5.15919E-05 3.54705E-05-1.07827E-18-7.91976E-19
 -1      2175 1.60497E-04-5.17261E-05-4.57859E-05 2.56799E-05 9.95264E-21 5.62430E-19
 -1      2176 9.71959E-05-2.43171E-05-3.13073E-05-1.00004E-05-1.42360E-18 9.60853E-20
 -1      2177 1.73413E-04-3.42920E-05-5.84478E-05 1.26312E-05-1.51788E-18-4.58668E-19
 -1      2178 9.63540E-05-2.31079E-05-3.14573E-05-1.03826E-05-1.52154E-18-5.24830E-19
 -1      2179 2.41517E-05-2.94167E-05 1.51194E-06 1.74549E-05 8.11563E-19-2.36280E-18
 -1      2180 9.23192E-05-5.62206E-05-1.57653E-05 5.21164E-05 6.14099E-19 2.23140E-18
 -1      2181 9.77259E-05-3.11200E-05-2.85355E-05 2.03805E-06-1.45208E-18 1.62850E-18
 -1      2182 1.34451E-04-6.10429E-05-3.12024E-05 4.18830E-05 2.29969E-19 3.32164E-18
 -1      2183 5.22445E-05-4.13408E-05-5.14160E-06-4.58380E-05 5.93770E-19-3.35319E-18
 -1      2184 1.33676E-04-6.10406E-05-3.08885E-05-4.21219E-05 2.63385E-18-5.50317E-18
 -1      2185 1.58882E-04-5.11051E-05-4.54499E-05-2.40026E-05 1.44038E-18-6.01012E-18
 -1      2186 1.68629E-04-3.39330E-05-5.66807E-05-1.04094E-05 1.61677E-18-3.10311E-18
 -1      2187 1.73321E-04-1.97520E-05-6.50526E-05-7.05782E-06 1.11597E-18-5.38692E-18
 -1      2188 1.55153E-04-1.17255E-05-6.18548E-05-1.57701E-06 9.01667E-19-2.68001E-18
 -1      2189 1.57199E-04-1.84873E-05-5.94139E-05-9.33546E-07 1.43022E-18-3.04424E-18
 -1      2190 1.70710E-04-2.58212E-05-6.10576E-05-5.76218E-06 5.62853E-19-7.03927E-18
 -1      2191 1.06904E-04-5.98328E-05-2.00764E-05 3.88454E-05-1.44334E-18-2.73507E-18
 -1      2192 3.08847E-05-3.73542E-05 2.21201E-06 3.01898E-05 5.73230E-19 3.21449E-19
 -1      2193 1.54046E-05-3.04852E-05 5.89490E-06 2.92271E-06 1.04079E-19-1.67204E-18
 -1      2194 2.56770E-05-3.51101E-05 3.44194E-06-2.25635E-05-1.21380E-18-2.05744E-18
 -1      2195 5.74209E-05-4.85813E-05-4.27276E-06-3.81439E-05-1.51195E-18-6.77838E-19
 -1      2196 1.39496E-04-6.28172E-05-3.25651E-05-2.04754E-05 1.21719E-18 7.68682E-20
 -1      2197 1.70469E-04-3.13682E-05-5.92070E-05 6.77330E-06 1.83107E-18 1.01559E-18
 -1      2198 1.56513E-04-2.27213E-05-5.79001E-05 1.69906E-05 1.94479E-18 1.05964E-18
 -1      2199 1.57115E-04-3.45173E-05-5.23691E-05 1.43388E-05 2.43861E-18-4.28175E-19
 -1      2200 1.76547E-04-1.90335E-05-6.59517E-05 7.24393E-06-1.54541E-18 1.70719E-18
 -1      2201 1.72871E-04-1.58472E-05-6.61181E-05 9.74630E-06 1.06260E-18 2.19149E-18
 -1      2202 1.00892E-04-6.03361E-05-1.73651E-05-3.77372E-05-4.33681E-19 5.52689E-20
 -1      2203 1.45066E-04-5.81689E-05-3.69485E-05 1.90538E-05-1.31290E-20-6.21172E-18
 -1      2204 1.71300E-04-1.40261E-05-6.62331E-05-6.19743E-06 1.60936E-20-3.74431E-18
 -1      2205 9.52205E-05-2.63784E-05-2.94905E-05 4.19358E-06 1.27038E-18 1.24969E-18
 -1      2206 9.61949E-05-2.58637E-05-3.00684E-05 5.99886E-06 1.30239E-18 1.39449E-18
 -1      2207 8.81299E-05-1.11806E-05-3.30174E-05-3.66093E-06 1.13534E-19-2.08629E-18
 -1      2208 8.83641E-05-1.14506E-05-3.29997E-05-4.80153E-06-9.62896E-20-2.20239E-18
 -1      2209 8.87152E-05-1.19328E-05-3.29514E-05-5.81887E-06-2.82793E-19-2.25812E-18
 -1      2210 8.91233E-05-1.24063E-05-3.29233E-05-6.99045E-06-4.99734E-19-2.23144E-18
 -1      2211 8.98829E-05-1.38198E-05-3.25977E-05-4.90379E-06-1.67925E-19-2.05679E-18
 -1      2212 8.77841E-05-1.07224E-05-3.30605E-05 6.15419E-07 7.36721E-19-2.04036E-18
 -1      2213 8.77797E-05-1.07175E-05-3.30607E-05-4.95500E-07 6.10542E-19-2.13579E-18
 -1      2214 8.79654E-05-1.09474E-05-3.30421E-05 2.75744E-06 9.44496E-19-1.88412E-18
 -1      2215 8.78504E-05-1.08144E-05-3.30513E-05 1.63810E-06 7.84614E-19-1.96308E-18
 -1      2216 8.91018E-05-1.27688E-05-3.27173E-05 1.04947E-06 7.22608E-19-1.95959E-18
 -1      2217 8.84002E-05-1.14945E-05-3.29971E-05 4.88633E-06 1.24885E-18-1.60671E-18
 -1      2218 8.81603E-05-1.12177E-05-3.30151E-05 3.76336E-06 1.07172E-18-1.75430E-18
 -1      2219 8.93677E-05-1.31245E-05-3.26775E-05 3.02066E-06 9.30030E-19-1.67711E-18
 -1      2220 8.91811E-05-1.24775E-05-3.29188E-05 7.07349E-06 1.66856E-18-1.20755E-18
 -1      2221 8.87624E-05-1.19909E-05-3.29477E-05 5.90184E-06 1.42496E-18-1.41681E-18
 -1      2222 8.99258E-05-1.38727E-05-3.25933E-05 4.97420E-06 1.30785E-18-1.39067E-18
 -1      2223 9.04522E-05-1.40867E-05-3.27924E-05 9.22198E-06 1.82425E-18-7.96396E-19
 -1      2224 8.97710E-05-1.32757E-05-3.28374E-05 8.04324E-06 1.69079E-18-1.09028E-18
 -1      2225 9.08628E-05-1.51327E-05-3.24489E-05 6.87004E-06 1.63290E-18-1.02094E-18
 -1      2226 9.24516E-05-1.66589E-05-3.25830E-05 1.11057E-05 1.95611E-18-1.10253E-19
 -1      2227 9.13720E-05-1.53187E-05-3.26547E-05 1.00258E-05 1.87145E-18-4.95660E-19
 -1      2228 9.22877E-05-1.70867E-05-3.22083E-05 8.51523E-06 1.71786E-18-5.43593E-19
 -1      2229 9.42404E-05-2.71184E-05-2.87499E-05 1.76343E-06 1.03928E-18 1.04541E-18
 -1      2230 9.48407E-05-2.68949E-05-2.90483E-05 2.73641E-06 1.18265E-18 1.17668E-18
 -1      2231 9.53428E-05-2.58484E-05-2.97912E-05 4.35973E-06 1.36119E-18 4.40527E-19
 -1      2232 9.59134E-05-2.50929E-05-3.03059E-05-6.19222E-06-1.13643E-18-6.62669E-19
 -1      2233 9.52589E-05-2.58481E-05-2.97617E-05-4.27258E-06-9.43618E-19-6.65952E-19
 -1      2234 1.63181E-04-2.98372E-05-5.75422E-05 2.43953E-06-1.06493E-18 4.16317E-19
 -1      2235 1.61789E-04-3.95739E-05-5.24846E-05 6.04729E-06-6.24475E-19 2.10064E-19
 -1      2236 9.51430E-05-2.65398E-05-2.93444E-05-2.93931E-06-9.14562E-19-5.72831E-19
 -1      2237 9.46724E-05-2.69093E-05-2.90412E-05-1.87699E-06-7.69591E-19-6.25217E-19
 -1      2238 9.53450E-05-2.53707E-05-2.99951E-05-4.29533E-06-9.49497E-19-8.53607E-19
 -1      2239 9.44767E-05-2.72388E-05-2.87778E-05-1.02514E-06-6.23226E-19-5.31081E-19
 -1      2240 9.42182E-05-2.74523E-05-2.86115E-05-4.23654E-07-4.40015E-19-5.97921E-19
 -1      2241 9.50333E-05-2.66989E-05-2.92993E-05-1.91877E-06-6.80693E-19-7.91575E-19
 -1      2242 9.40694E-05-2.76328E-05-2.84502E-05 8.40290E-08-4.27445E-19-5.86958E-19
 -1      2243 9.39710E-05-2.77764E-05-2.83666E-05 4.13546E-07-4.75349E-19-6.58659E-19
 -1      2244 9.47294E-05-2.74279E-05-2.88564E-05-4.39861E-07-4.87047E-19-8.32424E-19
 -1      2245 9.38862E-05-2.78861E-05-2.82731E-05 6.95812E-07-5.34287E-19-6.43232E-19
 -1      2246 9.38917E-05-2.79931E-05-2.82401E-05 8.59486E-07-5.01047E-19-6.79912E-19
 -1      2247 9.45282E-05-2.78565E-05-2.85839E-05 4.30027E-07-5.56793E-19-8.87425E-19
 -1      2248 9.38600E-05-2.80653E-05-2.81912E-05 9.96162E-07-5.73861E-19-7.28526E-19
 -1      2249 9.39268E-05-2.81491E-05-2.81887E-05 1.05782E-06-5.33274E-19-7.57802E-19
 -1      2250 9.44350E-05-2.81260E-05-2.84256E-05 8.99880E-07-5.91418E-19-8.13930E-19
 -1      2251 9.39319E-05-2.81988E-05-2.81685E-05 1.10220E-06-4.44747E-19-9.01635E-19
 -1      2252 9.40303E-05-2.82655E-05-2.81836E-05 1.10202E-06-4.68058E-19-9.24066E-19
 -1      2253 9.44246E-05-2.83029E-05-2.83429E-05 1.11151E-06-5.48409E-19-9.62338E-19
 -1      2254 9.40582E-05-2.83003E-05-2.81814E-05 1.08995E-06-7.42837E-19-9.41967E-19
 -1      2255 9.41686E-05-2.83531E-05-2.82057E-05 1.05406E-06-8.70095E-19-1.00817E-18
 -1      2256 9.44684E-05-2.84211E-05-2.83092E-05 1.16055E-06-6.16233E-19-8.74737E-19
 -1      2257 9.42084E-05-2.83773E-05-2.82142E-05 1.00980E-06-7.92137E-19-9.28286E-19
 -1      2258 9.43185E-05-2.84185E-05-2.82422E-05 9.55481E-07-4.62864E-19-9.06348E-19
 -1      2259 9.45431E-05-2.84995E-05-2.83063E-05 1.11179E-06-7.53339E-19-6.51019E-19
 -1      2260 9.43631E-05-2.84347E-05-2.82566E-05 8.95402E-07-2.48141E-19-8.85735E-19
 -1      2261 9.44658E-05-2.84661E-05-2.82851E-05 8.34102E-07-8.32014E-20-9.58906E-19
 -1      2262 9.46319E-05-2.85498E-05-2.83219E-05 1.00922E-06-3.71452E-19-4.73333E-19
 -1      2263 9.45105E-05-2.84764E-05-2.83022E-05 7.69192E-07 2.02664E-20-9.63274E-19
 -1      2264 9.46024E-05-2.84997E-05-2.83293E-05 7.08451E-07 1.91069E-19-8.69919E-19
 -1      2265 9.47235E-05-2.85798E-05-2.83477E-05 8.82580E-07-5.53513E-21-3.42310E-19
 -1      2266 9.46446E-05-2.85054E-05-2.83473E-05 6.46006E-07 3.98905E-19-1.00684E-18
 -1      2267 9.47248E-05-2.85220E-05-2.83722E-05 5.90754E-07 2.40762E-19-9.40442E-19
 -1      2268 9.48113E-05-2.85950E-05-2.83786E-05 7.51837E-07 2.75076E-19-8.15253E-19
 -1      2269 9.47635E-05-2.85243E-05-2.83901E-05 5.35610E-07-8.67858E-20-9.43718E-19
 -1      2270 9.48327E-05-2.85354E-05-2.84126E-05 4.89095E-07-9.44926E-20-5.92818E-19
 -1      2271 9.48923E-05-2.85993E-05-2.84113E-05 6.30302E-07 1.19645E-19-8.45364E-19
 -1      2272 9.48679E-05-2.85350E-05-2.84301E-05 4.44533E-07-3.58119E-19-2.82364E-19
 -1      2273 9.49280E-05-2.85419E-05-2.84506E-05 4.09015E-07-3.41738E-19-4.52178E-19
 -1      2274 9.49657E-05-2.85954E-05-2.84443E-05 5.26921E-07-8.01173E-20-5.79776E-19
 -1      2275 9.49605E-05-2.85393E-05-2.84676E-05 3.77442E-07-2.69931E-19-5.78964E-19
 -1      2276 9.50143E-05-2.85430E-05-2.84868E-05 3.54702E-07-3.00817E-19-3.54851E-19
 -1      2277 9.50323E-05-2.85852E-05-2.84773E-05 4.47990E-07-4.04831E-19-2.86722E-20
 -1      2278 9.50455E-05-2.85387E-05-2.85041E-05 3.38172E-07-1.61875E-19-6.26086E-19
 -1      2279 9.50966E-05-2.85402E-05-2.85230E-05 3.29909E-07 1.04592E-19-6.54507E-19
 -1      2280 9.50946E-05-2.85699E-05-2.85107E-05 3.98433E-07-2.29626E-19 1.85803E-19
 -1      2281 9.51284E-05-2.85344E-05-2.85412E-05 3.30510E-07 1.03891E-19-8.29099E-19
 -1      2282 9.51809E-05-2.85345E-05-2.85612E-05 3.38627E-07-3.00930E-20-7.38657E-19
 -1      2283 9.51558E-05-2.85503E-05-2.85455E-05 3.82779E-07-3.86586E-20-5.38010E-19
 -1      2284 9.52157E-05-2.85275E-05-2.85814E-05 3.58764E-07-2.63228E-19-6.97410E-19
 -1      2285 9.52746E-05-2.85272E-05-2.86038E-05 3.85574E-07-1.52771E-19-7.55687E-19
 -1      2286 9.52203E-05-2.85267E-05-2.85836E-05 4.05879E-07-8.97029E-20-7.04604E-19
 -1      2287 9.53152E-05-2.85193E-05-2.86273E-05 4.28150E-07-1.21295E-19-8.36511E-19
 -1      2288 9.53860E-05-2.85197E-05-2.86541E-05 4.76488E-07 1.03458E-20-1.35830E-18
 -1      2289 9.52932E-05-2.84993E-05-2.86268E-05 4.73396E-07-1.72258E-19-8.59288E-19
 -1      2290 9.54356E-05-2.85113E-05-2.86821E-05 5.44985E-07 6.30572E-20-1.46104E-18
 -1      2291 9.55250E-05-2.85139E-05-2.87152E-05 6.18220E-07 7.54056E-20-1.28077E-18
 -1      2292 9.53805E-05-2.84686E-05-2.86777E-05 5.92089E-07-3.60484E-19-1.07428E-18
 -1      2293 9.55874E-05-2.85056E-05-2.87495E-05 7.16649E-07 2.99691E-19-1.31618E-18
 -1      2294 9.57026E-05-2.85123E-05-2.87911E-05 8.18557E-07 3.62426E-19-1.17581E-18
 -1      2295 9.54893E-05-2.84352E-05-2.87391E-05 7.69832E-07 1.83178E-19-1.08805E-18
 -1      2296 9.57823E-05-2.85051E-05-2.88331E-05 9.51237E-07-1.89000E-19-1.47637E-18
 -1      2297 9.59319E-05-2.85185E-05-2.88855E-05 1.08568E-06-3.36433E-19-1.60437E-18
 -1      2298 9.56278E-05-2.84008E-05-2.88136E-05 1.01533E-06-3.45957E-19-1.54014E-18
 -1      2299 9.60338E-05-2.85143E-05-2.89368E-05 1.25677E-06-3.33107E-19-1.79939E-18
 -1      2300 9.62270E-05-2.85380E-05-2.90025E-05 1.42708E-06 9.47891E-20-1.95028E-18
 -1      2301 9.58056E-05-2.83684E-05-2.89041E-05 1.33739E-06-4.26858E-19-1.99147E-18
 -1      2302 9.63571E-05-2.85398E-05-2.90643E-05 1.63975E-06 4.64125E-19-2.62874E-18
 -1      2303 9.66039E-05-2.85787E-05-2.91454E-05 1.84771E-06 2.67694E-19-2.35105E-18
 -1      2304 9.60339E-05-2.83437E-05-2.90129E-05 1.74358E-06-3.90394E-19-2.57046E-18
 -1      2305 9.67692E-05-2.85914E-05-2.92186E-05 2.10285E-06 5.71693E-19-2.36259E-18
 -1      2306 9.70799E-05-2.86525E-05-2.93168E-05 2.34703E-06 7.47260E-19-1.23807E-18
 -1      2307 9.63257E-05-2.83361E-05-2.91416E-05 2.23800E-06 3.42615E-19-2.61896E-18
 -1      2308 9.72888E-05-2.86839E-05-2.94014E-05 2.64120E-06 2.32022E-19-1.57661E-18
 -1      2309 9.76731E-05-2.87771E-05-2.95173E-05 2.91447E-06 4.65822E-19-1.73735E-18
 -1      2310 9.66969E-05-2.83610E-05-2.92905E-05 2.81785E-06 6.43835E-19-2.69320E-18
 -1      2311 9.79364E-05-2.88392E-05-2.96119E-05 3.23691E-06 5.28203E-19-1.96471E-18
 -1      2312 9.84028E-05-2.89780E-05-2.97445E-05 3.52286E-06 3.62143E-19-2.12008E-18
 -1      2313 9.71673E-05-2.84430E-05-2.94574E-05 3.46830E-06 3.00657E-19-2.26509E-18
 -1      2314 9.87349E-05-2.90893E-05-2.98460E-05 3.85129E-06 1.41478E-19-2.23217E-18
 -1      2315 9.92885E-05-2.92921E-05-2.99916E-05 4.11929E-06-3.12426E-19-1.76861E-18
 -1      2316 9.77625E-05-2.86195E-05-2.96375E-05 4.15533E-06 1.52989E-19-1.92976E-18
 -1      2317 9.97091E-05-2.94790E-05-3.00949E-05 4.41428E-06-9.51551E-19-2.17904E-18
 -1      2318 1.00350E-04-2.97696E-05-3.02464E-05 4.61345E-06-9.84800E-19-1.84215E-18
 -1      2319 9.85174E-05-2.89461E-05-2.98221E-05 4.81581E-06-4.40499E-19-2.09275E-18
 -1      2320 1.00886E-04-3.00684E-05-3.03442E-05 4.81144E-06-9.03521E-19-1.89857E-18
 -1      2321 1.01605E-04-3.04742E-05-3.04902E-05 4.86439E-06-8.55541E-19-1.20807E-18
 -1      2322 9.94795E-05-2.94996E-05-2.99989E-05 5.34516E-06-9.08533E-19-1.69073E-18
 -1      2323 1.02292E-04-3.09286E-05-3.05743E-05 4.87034E-06-8.68873E-19-1.44620E-18
 -1      2324 1.03066E-04-3.14739E-05-3.06996E-05 4.66956E-06-9.00485E-19-1.40623E-18
 -1      2325 1.00712E-04-3.03780E-05-3.01533E-05 5.58314E-06-7.55900E-19-1.79525E-18
 -1      2326 1.03941E-04-3.21246E-05-3.07632E-05 4.35209E-06-2.83090E-19-8.64240E-19
 -1      2327 1.04719E-04-3.28123E-05-3.08507E-05 3.76518E-06 3.49538E-19-5.43578E-19
 -1      2328 1.02288E-04-3.16839E-05-3.02729E-05 5.30141E-06-2.19467E-19-8.42998E-19
 -1      2329 1.05802E-04-3.36694E-05-3.08938E-05 2.96180E-06 4.40580E-19-6.70510E-19
 -1      2330 1.06492E-04-3.44456E-05-3.09292E-05 1.85645E-06 9.95131E-19-6.23217E-19
 -1      2331 1.04269E-04-3.34793E-05-3.03561E-05 4.20189E-06 6.62241E-21 7.56124E-20
 -1      2332 1.07739E-04-3.54345E-05-3.09654E-05 4.05188E-07 9.75309E-19-8.29952E-19
 -1      2333 1.08179E-04-3.61338E-05-3.09447E-05-1.29036E-06 8.98040E-19-5.63958E-19
 -1      2334 1.06636E-04-3.56859E-05-3.04257E-05 1.94766E-06 1.04405E-18 3.55422E-19
 -1      2335 1.09408E-04-3.70196E-05-3.10075E-05-3.46654E-06 1.40408E-18-7.21791E-19
 -1      2336 1.09358E-04-3.73168E-05-3.09458E-05-5.65454E-06 1.69459E-18-1.25212E-19
 -1      2337 1.09172E-04-3.79278E-05-3.05428E-05-1.73176E-06 1.29782E-18-8.12798E-19
 -1      2338 1.10177E-04-3.76538E-05-3.10894E-05-8.37707E-06 1.22855E-18-7.11126E-19
 -1      2339 1.09372E-04-3.71010E-05-3.10199E-05-1.06553E-05 6.81061E-19-7.33314E-19
 -1      2340 1.11293E-04-3.93591E-05-3.08147E-05-6.79589E-06 1.13990E-18-1.07472E-18
 -1      2341 1.09234E-04-3.63356E-05-3.12907E-05-1.32733E-05 1.11593E-18-3.37881E-19
 -1      2342 1.07545E-04-3.46092E-05-3.12496E-05-1.48623E-05 1.43899E-18 1.36860E-19
 -1      2343 1.12032E-04-3.87493E-05-3.13637E-05-1.24763E-05 1.02612E-18 2.97649E-19
 -1      2344 1.06111E-04-3.24983E-05-3.16395E-05-1.62112E-05 1.25546E-18 2.33768E-19
 -1      2345 1.03805E-04-2.98432E-05-3.16308E-05-1.61782E-05 1.24793E-18 1.15059E-18
 -1      2346 1.10425E-04-3.50767E-05-3.22338E-05-1.69212E-05 1.48697E-18 1.51758E-18
 -1      2347 1.01521E-04-2.70292E-05-3.20186E-05-1.50867E-05 7.35546E-19 1.65028E-18
 -1      2348 9.93627E-05-2.45395E-05-3.19887E-05-1.29651E-05 2.59993E-19 2.08666E-18
 -1      2349 1.06523E-04-2.88795E-05-3.32647E-05-1.75185E-05 1.35588E-18 1.86316E-18
 -1      2350 9.75717E-05-2.25821E-05-3.21707E-05-9.39003E-06-5.95127E-19 2.07125E-18
 -1      2351 9.64397E-05-2.16162E-05-3.20459E-05-5.85448E-06-8.13681E-20 1.75481E-18
 -1      2352 1.02208E-04-2.29068E-05-3.40459E-05-1.26827E-05-2.32683E-19 2.03578E-18
 -1      2353 9.62816E-05-2.17774E-05-3.18797E-05-1.43537E-06 1.01412E-18 1.13924E-18
 -1      2354 9.64637E-05-2.27704E-05-3.16415E-05 1.90137E-06 1.86969E-18 8.82572E-19
 -1      2355 1.00174E-04-2.06956E-05-3.41455E-05-4.05116E-06 5.09014E-20 1.96487E-18
 -1      2356 9.76145E-05-2.46788E-05-3.11702E-05 4.93856E-06 1.76916E-18 7.75363E-19
 -1      2357 9.85516E-05-2.66688E-05-3.08898E-05 6.73501E-06 1.61125E-18 1.32344E-18
 -1      2358 1.01310E-04-2.33674E-05-3.34293E-05 3.93711E-06 1.42427E-18 1.59659E-18
 -1      2359 9.95622E-05-2.87017E-05-3.03154E-05 7.44342E-06 2.35396E-18 1.34846E-18
 -1      2360 1.00407E-04-3.03412E-05-3.00791E-05 7.55299E-06 1.62946E-18 2.83714E-18
 -1      2361 1.03684E-04-2.84344E-05-3.22061E-05 7.62247E-06 2.12732E-18 2.20185E-18
 -1      2362 1.00226E-04-3.12316E-05-2.95743E-05 6.58492E-06 9.64972E-20 2.88092E-18
 -1      2363 1.00390E-04-3.18106E-05-2.94070E-05 5.77924E-06-8.36789E-19 3.02414E-18
 -1      2364 1.04634E-04-3.23034E-05-3.09357E-05 6.93768E-06 8.02980E-19 1.77874E-18
 -1      2365 6.38711E-05-4.15018E-05-9.69911E-06 5.16141E-05 4.69256E-19 2.54597E-18
 -1      2366 4.80367E-05-3.45049E-05-5.80501E-06 4.16890E-05 1.11470E-18 9.29830E-19
 -1      2367 9.33465E-05-2.76934E-05-2.81298E-05-4.12342E-07 2.34352E-19 4.38662E-19
 -1      2368 9.34243E-05-2.75882E-05-2.81911E-05-1.26723E-07 4.68413E-19 5.74898E-19
 -1      2369 9.32956E-05-2.78582E-05-2.80399E-05-8.18674E-07 3.72766E-19 2.25706E-19
 -1      2370 9.32502E-05-2.77669E-05-2.80513E-05-6.79460E-07 2.03868E-19 2.54552E-19
 -1      2371 9.40159E-05-2.78097E-05-2.83853E-05-4.45754E-07 3.57800E-19-6.78197E-20
 -1      2372 9.33894E-05-2.79942E-05-2.80234E-05-9.94232E-07 4.15175E-19 1.95810E-19
 -1      2373 9.32764E-05-2.79132E-05-2.80064E-05-9.43484E-07 4.81720E-19 1.79321E-19
 -1      2374 9.39291E-05-2.80194E-05-2.82551E-05-8.93141E-07 4.30263E-19-9.61358E-20
 -1      2375 9.35635E-05-2.81094E-05-2.80498E-05-1.02858E-06 4.49795E-19 2.75625E-19
 -1      2376 9.34191E-05-2.80384E-05-2.80178E-05-1.03088E-06 3.10513E-19 3.97555E-19
 -1      2377 9.39575E-05-2.81689E-05-2.82005E-05-1.08910E-06 2.78031E-19-2.49464E-19
 -1      2378 9.37737E-05-2.82065E-05-2.80991E-05-9.79485E-07 1.22865E-19 4.84040E-19
 -1      2379 9.36208E-05-2.81457E-05-2.80605E-05-1.01222E-06 5.28600E-19 4.95586E-19
 -1      2380 9.40553E-05-2.82799E-05-2.81928E-05-1.12940E-06 3.74794E-19 2.30469E-19
 -1      2381 9.39912E-05-2.82870E-05-2.81584E-05-8.84982E-07 1.88978E-19 4.17149E-19
 -1      2382 9.38436E-05-2.82361E-05-2.81186E-05-9.33353E-07 4.22708E-20 3.87707E-19
 -1      2383 9.41886E-05-2.83633E-05-2.82127E-05-1.07714E-06 2.98384E-19 4.11444E-19
 -1      2384 9.41988E-05-2.83522E-05-2.82197E-05-7.70242E-07 5.35387E-19 2.93719E-20
 -1      2385 9.40641E-05-2.83107E-05-2.81818E-05-8.24510E-07 5.36897E-19 2.54396E-19
 -1      2386 9.43344E-05-2.84255E-05-2.82476E-05-9.74418E-07 3.86180E-19 3.32171E-20
 -1      2387 9.43873E-05-2.84038E-05-2.82786E-05-6.51859E-07 9.94103E-19-1.41988E-19
 -1      2388 9.42688E-05-2.83707E-05-2.82441E-05-7.05656E-07 5.72670E-19 4.12131E-21
 -1      2389 9.44784E-05-2.84709E-05-2.82892E-05-8.49332E-07 4.93270E-19-5.35176E-21
 -1      2390 9.45529E-05-2.84435E-05-2.83326E-05-5.40664E-07 5.96421E-19-3.08638E-19
 -1      2391 9.44514E-05-2.84178E-05-2.83022E-05-5.89863E-07 9.53943E-19-1.26201E-19
 -1      2392 9.46124E-05-2.85029E-05-2.83326E-05-7.20552E-07 8.80626E-19-1.51041E-19
 -1      2393 9.46960E-05-2.84733E-05-2.83811E-05-4.43711E-07 7.37931E-19 3.34039E-20
 -1      2394 9.46102E-05-2.84538E-05-2.83547E-05-4.85626E-07 6.78777E-19-3.72327E-20
 -1      2395 9.47327E-05-2.85241E-05-2.83749E-05-6.00387E-07 5.26133E-19-5.82685E-19
 -1      2396 9.48195E-05-2.84951E-05-2.84245E-05-3.65721E-07 2.35744E-19-1.99768E-19
 -1      2397 9.47467E-05-2.84806E-05-2.84015E-05-3.98523E-07 5.33591E-19 2.33224E-19
 -1      2398 9.48390E-05-2.85369E-05-2.84150E-05-4.96993E-07 4.83460E-19 2.19659E-19
 -1      2399 9.49283E-05-2.85106E-05-2.84642E-05-3.10185E-07-8.22403E-20 5.87425E-20
 -1      2400 9.48650E-05-2.84999E-05-2.84436E-05-3.32447E-07 2.27312E-19-6.68329E-20
 -1      2401 9.49331E-05-2.85429E-05-2.84528E-05-4.15991E-07 1.47381E-19-2.13309E-20
 -1      2402 9.50288E-05-2.85218E-05-2.85022E-05-2.80207E-07-1.61574E-19 2.07066E-19
 -1      2403 9.49707E-05-2.85137E-05-2.84826E-05-2.90558E-07-8.55780E-21 3.27718E-19
 -1      2404 9.50185E-05-2.85437E-05-2.84892E-05-3.61711E-07-1.21952E-19 4.75919E-19
 -1      2405 9.51288E-05-2.85305E-05-2.85408E-05-2.79173E-07-4.85961E-19 2.32398E-19
 -1      2406 9.50708E-05-2.85237E-05-2.85209E-05-2.76015E-07-2.84083E-19 5.34784E-19
 -1      2407 9.51001E-05-2.85405E-05-2.85258E-05-3.38141E-07-5.09224E-19 8.56449E-19
 -1      2408 9.52375E-05-2.85387E-05-2.85833E-05-3.11273E-07-4.45510E-19 1.00671E-19
 -1      2409 9.51738E-05-2.85318E-05-2.85612E-05-2.92562E-07-7.07446E-19 2.20420E-19
 -1      2410 9.51839E-05-2.85342E-05-2.85647E-05-3.49674E-07-5.56454E-19 7.02568E-19
 -1      2411 9.53656E-05-2.85484E-05-2.86332E-05-3.81917E-07 1.64986E-19 1.60477E-20
 -1      2412 9.52894E-05-2.85400E-05-2.86069E-05-3.44984E-07 1.91324E-19 6.72580E-20
 -1      2413 9.52769E-05-2.85258E-05-2.86085E-05-4.01689E-07-2.38900E-19 6.37755E-19
 -1      2414 9.55258E-05-2.85623E-05-2.86950E-05-4.98054E-07 7.72162E-19 3.42232E-19
 -1      2415 9.54290E-05-2.85505E-05-2.86619E-05-4.39463E-07 4.03339E-19 4.99958E-20
 -1      2416 9.53875E-05-2.85163E-05-2.86605E-05-5.00995E-07 3.60969E-19 4.33558E-19
 -1      2417 9.57328E-05-2.85833E-05-2.87734E-05-6.68368E-07-8.63639E-19 7.81597E-19
 -1      2418 9.56060E-05-2.85660E-05-2.87307E-05-5.83837E-07 2.03651E-19 8.52345E-19
 -1      2419 9.55256E-05-2.85067E-05-2.87242E-05-6.56149E-07-9.10239E-20 6.11693E-19
 -1      2420 9.60037E-05-2.86153E-05-2.88744E-05-9.03320E-07-6.48703E-19 4.15860E-19
 -1      2421 9.58360E-05-2.85897E-05-2.88187E-05-7.87714E-07-1.06167E-18 6.03683E-19
 -1      2422 9.57022E-05-2.84985E-05-2.88040E-05-8.77608E-07-6.10317E-19 9.11261E-19
 -1      2423 9.63585E-05-2.86629E-05-2.90042E-05-1.21492E-06-1.16566E-18 6.49512E-19
 -1      2424 9.61367E-05-2.86257E-05-2.89318E-05-1.06238E-06-8.51214E-19 7.89015E-19
 -1      2425 9.59302E-05-2.84937E-05-2.89043E-05-1.17766E-06-9.71272E-19 9.27195E-19
 -1      2426 9.68194E-05-2.87325E-05-2.91700E-05-1.61607E-06-3.46799E-19 8.56064E-19
 -1      2427 9.65291E-05-2.86793E-05-2.90766E-05-1.42040E-06-8.48674E-19 8.31448E-19
 -1      2428 9.62242E-05-2.84953E-05-2.90302E-05-1.57001E-06-7.74626E-19-1.59346E-19
 -1      2429 9.74118E-05-2.88323E-05-2.93789E-05-2.11909E-06 2.56215E-19 1.27345E-18
 -1      2430 9.70362E-05-2.87575E-05-2.92600E-05-1.87453E-06 1.79912E-19 1.05495E-18
 -1      2431 9.66005E-05-2.85081E-05-2.91866E-05-2.06874E-06-1.28140E-19-3.60648E-19
 -1      2432 9.81623E-05-2.89739E-05-2.96379E-05-2.73298E-06-1.31391E-19 1.30871E-18
 -1      2433 9.76840E-05-2.88698E-05-2.94892E-05-2.43579E-06 1.88784E-19 1.10458E-18
 -1      2434 9.70769E-05-2.85395E-05-2.93779E-05-2.68634E-06 2.06070E-19 1.72130E-19
 -1      2435 9.90992E-05-2.91739E-05-2.99519E-05-3.45843E-06-6.29592E-20 1.39942E-18
 -1      2436 9.85001E-05-2.90303E-05-2.97699E-05-3.10964E-06-1.53642E-19 1.82967E-18
 -1      2437 9.76735E-05-2.86022E-05-2.96072E-05-3.43011E-06-3.40136E-19-1.28252E-19
 -1      2438 1.00250E-04-2.94576E-05-3.03228E-05-4.27919E-06-5.42659E-19 2.46998E-18
 -1      2439 9.95139E-05-2.92598E-05-3.01058E-05-3.88949E-06-9.30578E-22 2.03641E-18
 -1      2440 9.84127E-05-2.87179E-05-2.98749E-05-4.29595E-06-4.65074E-19 5.95382E-19
 -1      2441 1.01639E-04-2.98635E-05-3.07458E-05-5.14810E-06 4.62979E-19 1.61807E-18
 -1      2442 1.00755E-04-2.95906E-05-3.04959E-05-4.74571E-06 1.23865E-19 2.25141E-18
 -1      2443 9.93217E-05-2.89233E-05-3.01771E-05-5.25823E-06 1.40668E-19 6.39464E-19
 -1      2444 1.03289E-04-3.04507E-05-3.12062E-05-5.96553E-06-1.08477E-19 1.12624E-18
 -1      2445 1.02255E-04-3.00730E-05-3.09315E-05-5.60809E-06 8.40085E-20 1.34009E-18
 -1      2446 1.00437E-04-2.92802E-05-3.05032E-05-6.25368E-06 4.26139E-19 6.63967E-19
 -1      2447 1.05213E-04-3.13055E-05-3.16754E-05-6.54955E-06-1.02374E-18 2.67733E-18
 -1      2448 1.04045E-04-3.07836E-05-3.13931E-05-6.33997E-06-5.41317E-19 1.96225E-18
 -1      2449 1.01812E-04-2.98880E-05-3.08342E-05-7.15764E-06-8.46814E-19 9.51441E-19
 -1      2450 1.07413E-04-3.25389E-05-3.21083E-05-6.60137E-06-9.93085E-19 3.07612E-18
 -1      2451 1.06156E-04-3.18296E-05-3.18470E-05-6.70392E-06-1.11629E-18 3.19661E-18
 -1      2452 1.03530E-04-3.08950E-05-3.11428E-05-7.75164E-06-1.70107E-18 2.50361E-18
 -1      2453 1.09859E-04-3.42552E-05-3.24482E-05-5.68275E-06-4.12412E-19 3.71042E-18
 -1      2454 1.08605E-04-3.33358E-05-3.22469E-05-6.32691E-06-5.93376E-19 3.28335E-18
 -1      2455 1.05707E-04-3.24921E-05-3.13979E-05-7.68608E-06-7.59448E-19 2.82650E-18
 -1      2456 1.12430E-04-3.64493E-05-3.26432E-05-3.24810E-06 5.07095E-20 3.80716E-18
 -1      2457 1.11354E-04-3.53808E-05-3.25436E-05-4.69238E-06 6.74053E-20 3.67895E-18
 -1      2458 1.08472E-04-3.48516E-05-3.15802E-05-6.45490E-06 2.47807E-20 2.12595E-18
 -1      2459 1.14795E-04-3.87928E-05-3.26817E-05 1.18336E-06 4.94925E-19 3.65695E-18
 -1      2460 1.14201E-04-3.78330E-05-3.27102E-05-1.22544E-06 3.37129E-19 3.63686E-18
 -1      2461 1.11866E-04-3.79489E-05-3.17127E-05-3.43185E-06 3.78204E-19 2.46618E-18
 -1      2462 1.16222E-04-4.03151E-05-3.26417E-05 7.61980E-06 1.89204E-18 2.68729E-18
 -1      2463 1.16571E-04-4.00622E-05-3.27808E-05 4.42227E-06 1.00043E-18 3.91166E-18
 -1      2464 1.15602E-04-4.12264E-05-3.19016E-05 1.94091E-06 1.43492E-18 2.40870E-18
 -1      2465 1.15539E-04-3.93788E-05-3.26998E-05 1.47836E-05 2.89773E-18 2.14597E-18
 -1      2466 1.17274E-04-4.06244E-05-3.28826E-05 1.16651E-05 2.69064E-18 2.86202E-18
 -1      2467 1.18621E-04-4.30735E-05-3.23676E-05 9.57943E-06 2.16194E-18 3.33047E-18
 -1      2468 1.11781E-04-3.46669E-05-3.30233E-05 1.96110E-05 3.16306E-18 2.43309E-18
 -1      2469 1.14906E-04-3.77461E-05-3.31680E-05 1.81796E-05 2.33326E-18 2.77865E-18
 -1      2470 1.19122E-04-4.11836E-05-3.33517E-05 1.77267E-05 2.31744E-18 2.43626E-18
 -1      2471 1.05588E-04-2.71998E-05-3.35765E-05 1.83363E-05 2.84497E-18 1.04847E-18
 -1      2472 1.09224E-04-3.11134E-05-3.36696E-05 2.00092E-05 4.05585E-18 2.62888E-18
 -1      2473 1.15658E-04-3.43326E-05-3.48787E-05 2.24572E-05 3.58655E-18 2.30091E-18
 -1      2474 1.00601E-04-2.18520E-05-3.37641E-05 9.69903E-06 7.02323E-19-4.16992E-19
 -1      2475 1.02817E-04-2.38782E-05-3.39789E-05 1.41294E-05 1.11485E-18 2.13151E-19
 -1      2476 1.09640E-04-2.53986E-05-3.61582E-05 1.89632E-05 2.75182E-18 3.19812E-18
 -1      2477 9.98058E-05-2.24661E-05-3.32871E-05-1.46426E-06-6.34401E-19 1.66561E-20
 -1      2478 9.98262E-05-2.13576E-05-3.36241E-05 3.27750E-06 3.79841E-20-6.82722E-20
 -1      2479 1.05906E-04-2.02361E-05-3.68577E-05 7.61350E-06-7.47507E-20 1.63513E-18
 -1      2480 1.02804E-04-2.81374E-05-3.21674E-05-8.29840E-06-1.31158E-19 2.45964E-18
 -1      2481 1.01334E-04-2.51883E-05-3.25660E-05-6.04607E-06-4.92338E-19 1.44791E-18
 -1      2482 1.06827E-04-2.33528E-05-3.59049E-05-4.38799E-06-1.78494E-18 3.37202E-18
 -1      2483 1.05481E-04-3.34489E-05-3.09597E-05-8.19363E-06 3.66501E-19 2.76367E-18
 -1      2484 1.04173E-04-3.11615E-05-3.12593E-05-8.77280E-06 2.41226E-19 3.20346E-18
 -1      2485 1.10229E-04-3.10630E-05-3.39374E-05-9.34115E-06-7.96529E-19 4.35039E-18
 -1      2486 1.05132E-04-3.48740E-05-3.00967E-05-3.97728E-06-3.82538E-20 1.78303E-18
 -1      2487 1.04952E-04-3.44761E-05-3.02557E-05-5.84284E-06 1.79808E-19 2.31028E-18
 -1      2488 1.11330E-04-3.65917E-05-3.19889E-05-6.78607E-06 8.73384E-19 4.34389E-18
 -1      2489 1.01949E-04-3.27355E-05-2.96013E-05 6.27801E-09-1.90129E-18 1.40973E-18
 -1      2490 1.02818E-04-3.37345E-05-2.96866E-05-1.39847E-06-1.14424E-18 1.09262E-18
 -1      2491 1.08429E-04-3.67630E-05-3.06812E-05-1.37993E-06 6.82920E-21 2.12351E-18
 -1      2492 9.90506E-05-3.06623E-05-2.93444E-05 1.10124E-06-2.04488E-18 8.57343E-19
 -1      2493 9.25608E-05-2.41985E-05-2.94871E-05 3.47681E-05 8.90549E-19 6.13252E-19
 -1      2494 1.00175E-04-2.96978E-05-2.98966E-05 3.37223E-05-6.41072E-19-1.12561E-18
 -1      2495 7.37022E-05-1.06788E-05-2.71269E-05 2.70485E-05 3.50971E-18 3.19300E-18
 -1      2496 8.27755E-05-1.65798E-05-2.78038E-05 3.30118E-05 1.69986E-18 1.76238E-18
 -1      2497 8.76441E-05-2.74617E-05-2.55777E-05 3.97165E-05 1.92308E-18 2.61225E-18
 -1      2498 1.08620E-04-3.55331E-05-3.11469E-05 1.66553E-05-2.78759E-18 5.79013E-19
 -1      2499 1.08037E-04-3.63067E-05-3.07900E-05 1.13963E-05-1.69827E-18 7.26321E-19
 -1      2500 1.05297E-04-3.29150E-05-3.09502E-05 2.82388E-05-3.11413E-18-1.76459E-18
 -1      2501 1.08279E-04-3.59465E-05-3.09073E-05 2.35234E-05-3.74517E-18 1.04663E-18
 -1      2502 1.13603E-04-4.16247E-05-3.08366E-05 2.06501E-05-1.68814E-18-2.68284E-19
 -1      2503 1.07059E-04-3.89311E-05-2.91497E-05 3.40079E-05-1.49110E-18 7.17146E-19
 -1      2504 6.25732E-05-2.46425E-06-2.56258E-05 3.23540E-06 2.44910E-18 1.86135E-19
 -1      2505 6.57435E-05-4.56009E-06-2.58698E-05 1.50159E-05 2.63895E-18 8.78373E-19
 -1      2506 6.57318E-05-1.28597E-05-2.21414E-05 2.52354E-05 2.34575E-18 1.83891E-18
 -1      2507 6.97177E-05-7.34238E-06-2.62507E-05-2.35136E-05-3.23395E-19-4.30605E-18
 -1      2508 6.41197E-05-3.75125E-06-2.58635E-05-1.28944E-05 8.71901E-19-2.37889E-18
 -1      2509 5.64750E-05-6.88288E-06-2.06588E-05-5.82798E-06 1.07227E-18-2.37370E-18
 -1      2510 8.85361E-05-2.12414E-05-2.83657E-05-3.65049E-05-2.02658E-18-2.82999E-18
 -1      2511 7.92439E-05-1.49003E-05-2.77649E-05-3.28049E-05-9.87640E-19-3.26478E-18
 -1      2512 7.11513E-05-1.66119E-05-2.29763E-05-3.32464E-05-1.20215E-18-4.34835E-18
 -1      2513 1.03655E-04-3.26011E-05-3.01883E-05-3.30134E-05-9.21499E-19-3.35939E-18
 -1      2514 9.72596E-05-2.76007E-05-2.99198E-05-3.56059E-05-1.29951E-18-3.79688E-18
 -1      2515 9.47831E-05-3.17205E-05-2.69167E-05-4.07419E-05-1.47844E-18-3.18167E-18
 -1      2516 1.09539E-04-3.73512E-05-3.08863E-05-2.13404E-05 3.63536E-19-1.90559E-18
 -1      2517 1.07449E-04-3.48424E-05-3.10357E-05-2.67718E-05-4.65349E-19-2.40469E-18
 -1      2518 1.10221E-04-4.05261E-05-2.99022E-05-3.21685E-05-2.31915E-19-2.76956E-18
 -1      2519 1.08091E-04-3.68325E-05-3.05956E-05-9.49507E-06 2.86138E-19 6.44701E-19
 -1      2520 1.08929E-04-3.63007E-05-3.09783E-05-1.45712E-05 7.48297E-19-1.50018E-18
 -1      2521 1.14142E-04-4.14920E-05-3.11240E-05-1.81255E-05 5.70324E-19-1.49752E-18
 -1      2522 1.03682E-04-3.42561E-05-2.98111E-05-8.41470E-07-1.46684E-18-3.99323E-19
 -1      2523 1.05809E-04-3.48938E-05-3.02522E-05-4.36928E-06-1.40382E-18 2.13796E-19
 -1      2524 1.10753E-04-3.83733E-05-3.09574E-05-6.24177E-06-1.09255E-18-7.91625E-19
 -1      2525 9.82500E-05-3.12590E-05-2.87296E-05 2.64857E-06-3.66286E-19 2.13499E-18
 -1      2526 1.45121E-04-6.40722E-05-3.49363E-05 3.37429E-05 1.64811E-18 3.84426E-18
 -1      2527 1.30351E-04-6.46202E-05-2.80471E-05 4.03603E-05 1.12634E-18 4.85308E-18
 -1      2528 9.36290E-05-2.74736E-05-2.83408E-05 3.68085E-07 6.56348E-19 6.52186E-19
 -1      2529 9.39112E-05-2.73375E-05-2.84878E-05 9.01837E-07 8.08026E-19 8.44573E-19
 -1      2530 9.42719E-05-2.74902E-05-2.86344E-05 4.01371E-07 6.94476E-19 1.60571E-19
 -1      2531 3.50333E-05-2.51211E-05-4.03323E-06 3.06051E-05 1.33598E-18-1.29469E-18
 -1      2532 2.66568E-05-1.84162E-05-3.20193E-06 1.07064E-05 1.17134E-18-2.27090E-18
 -1      2533 1.10145E-04-5.96412E-05-2.17258E-05 5.18932E-05 1.68983E-18 3.94701E-18
 -1      2534 8.63880E-05-5.14929E-05-1.45875E-05 5.21847E-05 1.69407E-18 2.34014E-18
 -1      2535 4.78236E-05-3.00223E-05-7.13925E-06-4.10627E-05 1.18585E-20-3.18887E-18
 -1      2536 7.01317E-05-4.10210E-05-1.23019E-05-5.34119E-05 1.60809E-18-3.23418E-18
 -1      2537 1.28127E-04-6.32589E-05-2.76628E-05-4.22019E-05 2.88415E-18-4.76520E-18
 -1      2538 1.43701E-04-6.28354E-05-3.48976E-05-3.42711E-05 1.33471E-18-5.45870E-18
 -1      2539 1.21032E-04-6.39964E-05-2.48124E-05 3.36773E-05-9.76205E-19-4.47329E-18
 -1      2540 1.00325E-04-5.92797E-05-1.73393E-05 3.91788E-05-1.80524E-18-2.05106E-18
 -1      2541 4.18687E-05-3.37096E-05-3.29803E-06 3.61577E-05-2.29122E-19 4.01070E-19
 -1      2542 2.81672E-05-2.86121E-05 4.94598E-07 2.42418E-05 9.78005E-19-6.38875E-19
 -1      2543 8.78362E-05-1.07970E-05-3.30525E-05-1.51829E-06 5.19576E-19-2.14630E-18
 -1      2544 8.79417E-05-1.09189E-05-3.30438E-05-2.63679E-06 2.94640E-19-2.12323E-18
 -1      2545 8.93400E-05-1.30913E-05-3.26802E-05-2.92996E-06 2.19531E-19-1.91562E-18
 -1      2546 8.90918E-05-1.27567E-05-3.27184E-05-9.40808E-07 5.62346E-19-1.99886E-18
 -1      2547 1.52453E-04-1.30414E-05-6.03606E-05 1.16786E-05 1.34932E-18 2.49695E-18
 -1      2548 1.57313E-04-1.20704E-05-6.24012E-05 8.01535E-06-1.54160E-19 1.70544E-18
 -1      2549 9.50508E-05-5.89896E-05-1.52351E-05-3.77265E-05-4.58245E-19 7.19052E-20
 -1      2550 1.13616E-04-6.39153E-05-2.16293E-05-3.41270E-05-2.87356E-19-5.30931E-19
 -1      2551 1.58677E-04-1.40673E-05-6.23729E-05 4.43605E-06-1.78046E-18 1.81593E-18
 -1      2552 1.58461E-04-1.82016E-05-6.03392E-05 1.64746E-06-1.94225E-18 1.05689E-18
 -1      2553 1.43489E-04-1.04898E-05-5.72124E-05 4.93334E-06-7.91976E-19 1.83645E-18
 -1      2554 1.51858E-04-5.54552E-05-4.14242E-05 5.11564E-06 2.30433E-18-1.43572E-19
 -1      2555 1.55544E-04-4.81694E-05-4.65593E-05 9.94422E-06 1.88512E-18-3.12555E-19
 -1      2556 1.50033E-04-5.82107E-05-3.98577E-05 7.27638E-06 6.39880E-19-5.67385E-18
 -1      2557 1.38010E-04-6.31812E-05-3.18961E-05 1.79488E-05-3.90270E-19-5.30539E-18
 -1      2558 1.32241E-04-6.62766E-05-2.81061E-05-1.99296E-05 2.11017E-19-3.31825E-19
 -1      2559 1.46168E-04-6.40143E-05-3.56985E-05-9.02297E-06 1.05530E-18-1.30358E-18
 -1      2560 5.24910E-05-4.22833E-05-4.22117E-06-3.67095E-05-2.11864E-18-9.82346E-19
 -1      2561 7.29110E-05-5.00997E-05-9.79202E-06-4.17755E-05-1.30231E-18-2.43522E-19
 -1      2562 2.75889E-05-2.71011E-05 1.94815E-07-2.10436E-05-8.65668E-19-1.59835E-18
 -1      2563 3.80652E-05-3.42583E-05-1.38605E-06-3.16687E-05-1.64706E-18-1.89206E-18
 -1      2564 5.35659E-05-3.69226E-05-6.67686E-06-3.49606E-05-1.62779E-18-1.42302E-18
 -1      2565 2.06236E-05-2.39550E-05 1.73134E-06 1.23382E-05 3.07685E-19-7.25907E-19
 -1      2566 2.03250E-05-2.17152E-05 1.04823E-06-3.43129E-06-1.05355E-18-7.95787E-19
 -1      2567 3.17057E-05-2.22519E-05-3.44696E-06 1.82224E-05-2.26475E-19-7.75882E-19
 -1      2568 7.96767E-05-5.07952E-05-1.23430E-05 4.45889E-05-1.91916E-18-1.15747E-18
 -1      2569 6.26037E-05-4.36962E-05-7.68730E-06 4.13912E-05-1.25297E-18-3.59354E-19
 -1      2570 1.50897E-04-9.65207E-06-6.13036E-05-7.77270E-06-5.74288E-19-2.49740E-18
 -1      2571 1.55199E-04-1.31037E-05-6.12462E-05-1.01758E-05-1.77453E-19-3.61122E-18
 -1      2572 1.55837E-04-3.95542E-05-5.03743E-05-8.88512E-06 1.07933E-18-5.82272E-18
 -1      2573 1.53148E-04-4.72640E-05-4.55593E-05-5.22517E-06 1.07404E-18-5.14996E-18
 -1      2574 1.56752E-04-2.00725E-05-5.90106E-05-1.19389E-05-9.97381E-20-5.10062E-18
 -1      2575 1.53543E-04-2.81208E-05-5.43105E-05-1.25556E-05 1.48654E-19-5.32191E-18
 -1      2576 1.42508E-04-1.48997E-05-5.49420E-05-1.49854E-05-9.06749E-19-3.51243E-18
 -1      2577 1.58848E-04-4.01784E-05-5.10928E-05-5.28348E-06 1.46537E-18-1.04863E-18
 -1      2578 1.57845E-04-3.06988E-05-5.51426E-05-7.85954E-07 8.25434E-19-8.88961E-19
 -1      2579 1.52440E-04-5.64922E-05-4.11378E-05-2.00009E-05 1.33228E-18-3.88788E-18
 -1      2580 1.59141E-04-4.96139E-05-4.72572E-05-1.34553E-05 1.43892E-18-1.68538E-18
 -1      2581 1.54479E-04-4.58412E-05-4.65923E-05-2.91305E-06 1.33111E-18 2.97309E-19
 -1      2582 9.29360E-05-5.29839E-05-1.68147E-05-5.31852E-05 2.11906E-18-3.37013E-18
 -1      2583 1.10610E-04-5.88645E-05-2.22145E-05-5.26277E-05 2.18937E-18-4.35200E-18
 -1      2584 2.69169E-05-1.78912E-05-3.38890E-06-1.06982E-05-7.61324E-19-4.82809E-18
 -1      2585 3.24171E-05-2.21949E-05-4.27235E-06-2.78436E-05-9.39148E-19-4.71120E-18
 -1      2586 9.50767E-05-2.00254E-05-3.22133E-05-1.17481E-05-1.47868E-18-9.62666E-19
 -1      2587 9.54754E-05-2.33677E-05-3.09290E-05-7.96491E-06-1.34898E-18-8.66520E-19
 -1      2588 9.50758E-05-2.25543E-05-3.10550E-05-7.65502E-06-1.12801E-18-9.64223E-19
 -1      2589 9.32207E-05-1.76226E-05-3.24163E-05-1.14020E-05-1.33114E-18-1.23872E-18
 -1      2590 9.63397E-05-2.50969E-05-3.05585E-05 7.59134E-06 1.46531E-18 1.61586E-18
 -1      2591 9.74609E-05-2.37803E-05-3.15988E-05 1.06910E-05 1.60007E-18 1.81697E-18
 -1      2592 9.58945E-05-2.13046E-05-3.20230E-05 1.18927E-05 1.80329E-18 1.22354E-18
 -1      2593 9.58831E-05-2.41627E-05-3.07705E-05 7.68228E-06 1.52014E-18 8.18235E-19
 -1      2594 1.59947E-04-5.19255E-05-4.66382E-05 1.26956E-05 2.17629E-18-5.12243E-19
 -1      2595 1.52742E-04-5.88942E-05-4.03372E-05 1.95354E-05 2.99130E-18 1.46304E-18
 -1      2596 1.49913E-04-4.03847E-05-4.72878E-05 1.90926E-05 2.14077E-18 1.69407E-19
 -1      2597 9.07944E-05-1.50403E-05-3.24575E-05-6.79940E-06-5.65476E-19-2.06859E-18
 -1      2598 8.97065E-05-1.31896E-05-3.28444E-05-7.94941E-06-6.08964E-19-2.21592E-18
 -1      2599 9.03368E-05-1.39078E-05-3.28171E-05-9.17932E-06-8.44164E-19-2.12654E-18
 -1      2600 9.47371E-05-2.69401E-05-2.90685E-05 1.88205E-06 1.04272E-18 3.48936E-19
 -1      2601 9.42490E-05-1.90824E-05-3.22594E-05 1.16016E-05 1.84655E-18 4.98611E-19
 -1      2602 1.55555E-04-4.70559E-05-4.65620E-05 1.15216E-06 1.74012E-18 1.69407E-21
 -1      2603 3.45487E-05-1.46377E-05-7.87356E-06 1.32596E-06 5.71205E-19-2.27132E-18
 -1      2604 1.48692E-04-6.15280E-05-3.73118E-05-2.19222E-05 1.26330E-18-2.86996E-18
 -1      2605 1.47537E-04-3.31560E-05-4.92398E-05-1.67154E-05 4.25422E-19-4.54391E-18
 -1      2606 1.25556E-04-6.42383E-05-2.60091E-05 4.34408E-05 2.76302E-18 4.05051E-18
 -1      2607 8.23612E-05-4.60134E-05-1.54785E-05 5.29801E-05 1.41476E-18 2.36237E-18
 -1      2608 1.02846E-04-3.31071E-05-2.99264E-05 2.43381E-06-1.85884E-18 8.50997E-19
 -1      2609 1.04877E-04-3.38584E-05-3.03607E-05 5.31708E-06-1.35651E-18 1.54226E-18
 -1      2610 1.46212E-04-9.51601E-06-5.89128E-05-4.27998E-06 6.19605E-19-3.40002E-18
 -1      2611 1.34370E-04-7.98567E-06-5.46727E-05-6.87761E-06-2.57498E-19-4.55080E-18
 -1      2612 1.37413E-04-9.99475E-06-5.53091E-05-1.14267E-06 1.10008E-18-4.00853E-18
 -1      2613 9.90894E-05-3.15148E-05-2.89669E-05 4.09541E-06-6.55422E-19 2.27882E-18
 -1      2614 1.01745E-04-3.28936E-05-2.94319E-05 1.91021E-06-1.13751E-18 1.26505E-18
 -1      2615 1.04922E-04-3.47417E-05-3.01328E-05 1.15687E-06-1.66896E-18 6.72094E-19
 -1      2616 9.93955E-05-3.16173E-05-2.91094E-05 4.86397E-06-1.12393E-18 2.55904E-18
 -1      2617 2.78247E-05-2.20939E-05-1.85460E-06-1.23470E-05-5.95623E-19-1.27775E-18
 -1      2618 3.75392E-05-2.25550E-05-5.90860E-06-2.01061E-05-4.33363E-19-1.46134E-18
 -1      2619 3.09624E-05-1.74301E-05-5.18921E-06-4.52156E-06-4.86700E-19-9.82135E-19
 -1      2620 1.49742E-04-6.39301E-05-3.67335E-05 2.07629E-05 3.13847E-18 1.53609E-18
 -1      2621 9.47184E-05-2.06036E-05-3.17191E-05 9.66836E-06 1.72881E-18 3.03158E-19
 -1      2622 4.99594E-05-2.60453E-05-9.73404E-06 3.56718E-05 9.50794E-19 1.07150E-19
 -1      2623 8.68948E-05-4.50757E-05-1.75136E-05-5.20555E-05 1.10030E-18-3.93669E-18
 -1      2624 1.26617E-04-6.65008E-05-2.55122E-05-2.30216E-05-2.67980E-19-1.31925E-18
 -1      2625 9.20499E-05-1.62339E-05-3.25340E-05-1.03873E-05-1.05210E-18-1.62687E-18
 -1      2626 1.48626E-04-5.46456E-05-4.03666E-05-4.00030E-06 1.36865E-18-4.02002E-18
 -1      2627 9.70589E-05-5.60341E-05-1.71129E-05 3.90237E-05-1.50730E-18-1.89336E-18
 -1      2628 1.52129E-04-2.43744E-05-5.49608E-05 2.27676E-06 2.14511E-19-2.39414E-18
 -1      2629 1.41271E-04-1.78759E-05-5.37441E-05 5.34970E-06-1.59242E-19-3.04593E-18
 -1      2630 1.45374E-04-2.96565E-05-4.98687E-05 5.20623E-06-4.02976E-19-2.06380E-18
 -1      2631 5.80820E-05-3.68809E-05-8.53663E-06 3.80895E-05-9.33007E-19-1.30464E-18
 -1      2632 1.32285E-04-6.53556E-05-2.84909E-05 2.13191E-05 8.65032E-20-4.56021E-18
 -1      2633 1.24515E-04-6.21151E-05-2.65181E-05-4.42928E-05 1.44271E-18-3.91425E-18
 -1      2634 4.98971E-05-2.32926E-05-1.09491E-05-3.60984E-05-6.63968E-19-4.84884E-18
 -1      2635 1.40891E-04-2.12103E-05-5.16722E-05 2.00919E-05 2.88245E-18 1.96533E-18
 -1      2636 1.48457E-04-1.74531E-05-5.66047E-05 1.66794E-05 2.29567E-18 2.52013E-18
 -1      2637 1.36078E-04-1.20000E-05-5.38162E-05 1.55610E-05 1.75018E-18 2.31219E-18
 -1      2638 8.89098E-05-5.43943E-05-1.43675E-05-3.86604E-05-8.98067E-19-3.67506E-19
 -1      2639 1.51374E-04-2.35282E-05-5.49633E-05-2.58965E-06-1.91027E-18 1.03126E-18
 -1      2640 1.46917E-04-6.14208E-05-3.66836E-05 2.83387E-06 1.35827E-18 1.44207E-19
 -1      2641 1.09919E-04-3.82423E-05-3.07439E-05 7.08145E-06-3.49490E-19 1.25498E-18
 -1      2642 1.03475E-04-3.32885E-05-3.00150E-05 4.70833E-06-1.05803E-18 1.44476E-18
 -1      2643 9.05539E-05-1.51720E-05-3.23289E-05 3.19506E-06 9.98574E-19-1.47746E-18
 -1      2644 9.03640E-05-1.49007E-05-3.23616E-05 2.26130E-06 8.32453E-19-1.63476E-18
 -1      2645 9.02297E-05-1.46980E-05-3.23906E-05 1.42268E-06 7.55013E-19-1.86985E-18
 -1      2646 9.01641E-05-1.46053E-05-3.24016E-05 4.65551E-07 6.89780E-19-1.93262E-18
 -1      2647 9.14155E-05-1.65929E-05-3.20539E-05 1.64157E-06 7.67371E-19-1.72939E-18
 -1      2648 9.21407E-05-1.75514E-05-3.20048E-05 6.47308E-06 1.55540E-18-8.92617E-19
 -1      2649 9.16147E-05-1.67563E-05-3.21046E-05 5.63364E-06 1.47197E-18-1.03914E-18
 -1      2650 9.35612E-05-1.97750E-05-3.16648E-05 7.59527E-06 1.67980E-18-4.58103E-19
 -1      2651 9.27704E-05-1.85209E-05-3.18383E-05 7.01804E-06 1.59264E-18-6.81689E-19
 -1      2652 9.34351E-05-1.98667E-05-3.15065E-05 5.73390E-06 1.43209E-18-6.63617E-19
 -1      2653 9.52211E-05-2.54102E-05-2.99313E-05 3.97621E-06 1.34421E-18 4.03821E-20
 -1      2654 9.55579E-05-2.45604E-05-3.03951E-05 5.60870E-06 1.39698E-18 1.52415E-19
 -1      2655 9.49819E-05-2.66904E-05-2.92735E-05 1.77860E-06 1.01615E-18 2.34748E-20
 -1      2656 9.52496E-05-2.61934E-05-2.95584E-05 2.78717E-06 1.15644E-18 6.21903E-20
 -1      2657 9.52735E-05-2.50217E-05-3.01049E-05 3.81895E-06 1.25676E-18-2.75329E-19
 -1      2658 9.47095E-05-2.19079E-05-3.12074E-05 7.84048E-06 1.59366E-18 1.00304E-19
 -1      2659 1.32313E-04-1.17764E-05-5.24792E-05-1.39669E-05-4.69044E-19-2.79013E-18
 -1      2660 1.34843E-04-1.79884E-05-5.06390E-05-1.84548E-05-2.37381E-19-2.71093E-18
 -1      2661 9.53596E-05-2.59050E-05-2.97373E-05-2.70316E-06-6.47020E-19-9.14586E-19
 -1      2662 9.51950E-05-2.64919E-05-2.94562E-05-1.72037E-06-4.85643E-19-8.52879E-19
 -1      2663 9.52180E-05-2.70065E-05-2.92101E-05-9.78917E-07-5.49681E-19-7.99915E-19
 -1      2664 9.50836E-05-2.73614E-05-2.90301E-05-3.74292E-07-5.39047E-19-9.46808E-19
 -1      2665 9.54147E-05-2.63298E-05-2.96138E-05-1.61824E-06-5.82341E-19-7.91981E-19
 -1      2666 9.50507E-05-2.76679E-05-2.88624E-05 9.15713E-08-5.08637E-19-8.84011E-19
 -1      2667 9.49728E-05-2.78927E-05-2.87516E-05 4.41614E-07-4.47495E-19-7.48204E-19
 -1      2668 9.54166E-05-2.73271E-05-2.91886E-05-3.40696E-07-5.03758E-19-7.75122E-19
 -1      2669 9.49305E-05-2.80783E-05-2.86407E-05 7.09764E-07-3.98008E-19-6.68706E-19
 -1      2670 9.49020E-05-2.82255E-05-2.85767E-05 8.91681E-07-5.74372E-19-6.81086E-19
 -1      2671 9.53556E-05-2.79429E-05-2.88979E-05 4.46576E-07-4.11279E-19-7.75133E-19
 -1      2672 9.48667E-05-2.83378E-05-2.85063E-05 1.02424E-06-6.12768E-19-7.02076E-19
 -1      2673 9.48732E-05-2.84352E-05-2.84734E-05 1.09746E-06-4.53020E-19-7.51321E-19
 -1      2674 9.52910E-05-2.83247E-05-2.87052E-05 8.85383E-07-5.06751E-19-7.14178E-19
 -1      2675 9.48485E-05-2.85011E-05-2.84313E-05 1.14082E-06-5.00137E-19-7.18863E-19
 -1      2676 9.48766E-05-2.85650E-05-2.84187E-05 1.14608E-06-6.21563E-19-6.51676E-19
 -1      2677 9.52411E-05-2.85578E-05-2.85826E-05 1.08726E-06-4.12343E-19-8.43136E-19
 -1      2678 9.48615E-05-2.86005E-05-2.83962E-05 1.13373E-06-5.56074E-19-5.55756E-19
 -1      2679 9.49012E-05-2.86411E-05-2.83964E-05 1.09894E-06-5.17149E-19-3.24497E-19
 -1      2680 9.52087E-05-2.86935E-05-2.85094E-05 1.13519E-06-5.29829E-19-4.22749E-19
 -1      2681 9.48933E-05-2.86567E-05-2.83869E-05 1.05456E-06-5.73561E-19-1.98129E-19
 -1      2682 9.49374E-05-2.86807E-05-2.83948E-05 9.98813E-07-2.50804E-19-3.49143E-19
 -1      2683 9.51908E-05-2.87647E-05-2.84703E-05 1.08891E-06-4.16860E-19-2.94035E-19
 -1      2684 9.49346E-05-2.86832E-05-2.83941E-05 9.38883E-07-7.28443E-20-3.60555E-19
 -1      2685 9.49788E-05-2.86952E-05-2.84062E-05 8.75133E-07 7.48679E-20-5.14283E-19
 -1      2686 9.51836E-05-2.87929E-05-2.84545E-05 9.90599E-07-2.44621E-19-2.63569E-19
 -1      2687 9.49793E-05-2.86892E-05-2.84111E-05 8.10941E-07 2.31080E-20-5.38946E-19
 -1      2688 9.50210E-05-2.86927E-05-2.84254E-05 7.47912E-07 3.22158E-21-5.99486E-19
 -1      2689 9.51836E-05-2.87926E-05-2.84542E-05 8.69573E-07-1.28384E-19-4.18731E-19
 -1      2690 9.50237E-05-2.86810E-05-2.84338E-05 6.87116E-07 2.56865E-19-8.83642E-19
 -1      2691 9.50618E-05-2.86784E-05-2.84490E-05 6.30674E-07 2.52442E-19-7.49523E-19
 -1      2692 9.51881E-05-2.87734E-05-2.84640E-05 7.45921E-07 7.70567E-20-5.77875E-19
 -1      2693 9.50659E-05-2.86630E-05-2.84596E-05 5.78498E-07 1.47055E-19-6.80669E-19
 -1      2694 9.51005E-05-2.86558E-05-2.84752E-05 5.32676E-07 1.48454E-20-2.23326E-19
 -1      2695 9.51954E-05-2.87417E-05-2.84806E-05 6.33368E-07 2.44400E-19-3.17775E-19
 -1      2696 9.51055E-05-2.86376E-05-2.84875E-05 4.92825E-07-1.58696E-19-1.31048E-19
 -1      2697 9.51375E-05-2.86267E-05-2.85034E-05 4.60596E-07-2.13334E-19-7.91235E-20
 -1      2698 9.52045E-05-2.87012E-05-2.85018E-05 5.41472E-07 6.69289E-20-4.29727E-19
 -1      2699 9.51432E-05-2.86061E-05-2.85171E-05 4.35959E-07-5.56053E-19 2.40806E-19
 -1      2700 9.51739E-05-2.85922E-05-2.85337E-05 4.19818E-07-6.24295E-19-1.15109E-19
 -1      2701 9.52149E-05-2.86537E-05-2.85265E-05 4.77300E-07-4.81757E-19-1.10844E-19
 -1      2702 9.51804E-05-2.85690E-05-2.85490E-05 4.13001E-07-1.19066E-19-7.43406E-20
 -1      2703 9.52116E-05-2.85522E-05-2.85667E-05 4.15401E-07-6.87967E-20-3.21547E-19
 -1      2704 9.52265E-05-2.85996E-05-2.85547E-05 4.46708E-07-5.52686E-19 2.84033E-19
 -1      2705 9.52191E-05-2.85259E-05-2.85840E-05 4.29121E-07-2.33026E-19-4.40091E-19
 -1      2706 9.52532E-05-2.85063E-05-2.86039E-05 4.52789E-07-8.81332E-20-4.50244E-19
 -1      2707 9.52395E-05-2.85382E-05-2.85866E-05 4.55311E-07-1.96724E-19 1.70528E-19
 -1      2708 9.52619E-05-2.84762E-05-2.86237E-05 4.90152E-07-2.24594E-19-5.16245E-19
 -1      2709 9.53017E-05-2.84537E-05-2.86467E-05 5.38286E-07-3.29936E-19-6.91676E-19
 -1      2710 9.52544E-05-2.84681E-05-2.86232E-05 5.09174E-07-3.32062E-19-8.19629E-19
 -1      2711 9.53122E-05-2.84189E-05-2.86699E-05 6.02944E-07-3.55004E-19-8.92885E-19
 -1      2712 9.53608E-05-2.83937E-05-2.86972E-05 6.79298E-07-1.89687E-19-8.08855E-19
 -1      2713 9.52722E-05-2.83875E-05-2.86655E-05 6.15261E-07-4.64262E-19-8.09116E-19
 -1      2714 9.53737E-05-2.83536E-05-2.87244E-05 7.75485E-07-1.14309E-19-6.13781E-19
 -1      2715 9.54350E-05-2.83260E-05-2.87574E-05 8.84306E-07-1.92245E-19-9.78054E-19
 -1      2716 9.52940E-05-2.82945E-05-2.87147E-05 7.81631E-07-1.78145E-19-6.40596E-19
 -1      2717 9.54512E-05-2.82803E-05-2.87892E-05 1.01672E-06-3.84142E-19-9.72008E-19
 -1      2718 9.55296E-05-2.82515E-05-2.88291E-05 1.16250E-06-6.79335E-19-1.08493E-18
 -1      2719 9.53213E-05-2.81881E-05-2.87722E-05 1.01736E-06-1.11636E-19-1.15729E-18
 -1      2720 9.55506E-05-2.82007E-05-2.88662E-05 1.33599E-06-8.19890E-19-1.37638E-18
 -1      2721 9.56511E-05-2.81728E-05-2.89141E-05 1.52295E-06-6.53816E-19-1.55199E-18
 -1      2722 9.53567E-05-2.80684E-05-2.88388E-05 1.33208E-06-1.11423E-18-5.49654E-19
 -1      2723 9.56791E-05-2.81189E-05-2.89566E-05 1.74191E-06-8.69533E-19-1.78893E-18
 -1      2724 9.58077E-05-2.80959E-05-2.90133E-05 1.97316E-06-1.00024E-18-2.38452E-18
 -1      2725 9.54039E-05-2.79384E-05-2.89148E-05 1.73508E-06-9.22305E-19-8.54429E-19
 -1      2726 9.58463E-05-2.80433E-05-2.90608E-05 2.24060E-06-3.25314E-19-2.22661E-18
 -1      2727 9.60102E-05-2.80323E-05-2.91266E-05 2.51674E-06 8.20901E-19-1.90806E-18
 -1      2728 9.54688E-05-2.78056E-05-2.89997E-05 2.23378E-06-5.19644E-19-1.51260E-18
 -1      2729 9.60655E-05-2.79894E-05-2.91779E-05 2.83283E-06 1.29236E-18-2.02803E-18
 -1      2730 9.62734E-05-2.80015E-05-2.92521E-05 3.14992E-06 7.57839E-19-2.14831E-18
 -1      2731 9.55611E-05-2.76846E-05-2.90913E-05 2.83134E-06 8.84794E-19-1.26174E-18
 -1      2732 9.63558E-05-2.79824E-05-2.93049E-05 3.50989E-06 6.20695E-19-2.14406E-18
 -1      2733 9.66190E-05-2.80353E-05-2.93856E-05 3.85653E-06 5.24540E-19-1.74026E-18
 -1      2734 9.56971E-05-2.76014E-05-2.91857E-05 3.52328E-06 7.41157E-19-1.61361E-18
 -1      2735 9.67457E-05-2.80633E-05-2.94363E-05 4.24776E-06 2.85333E-19-1.68827E-18
 -1      2736 9.70793E-05-2.81836E-05-2.95198E-05 4.60108E-06 3.75900E-19-1.20251E-18
 -1      2737 9.59041E-05-2.75988E-05-2.92763E-05 4.29271E-06 4.33535E-19-1.26411E-18
 -1      2738 9.72788E-05-2.82944E-05-2.95636E-05 4.99901E-06 4.46742E-19-1.25290E-18
 -1      2739 9.77039E-05-2.85204E-05-2.96447E-05 5.31947E-06-4.55901E-19-7.67214E-19
 -1      2740 9.62268E-05-2.77436E-05-2.93541E-05 5.10381E-06 1.46120E-19-9.64917E-19
 -1      2741 9.80211E-05-2.87659E-05-2.96759E-05 5.68210E-06-9.97816E-19-8.06847E-19
 -1      2742 9.85664E-05-2.91499E-05-2.97476E-05 5.90720E-06-6.27561E-19-5.26018E-19
 -1      2743 9.67374E-05-2.81343E-05-2.94084E-05 5.89310E-06-6.00657E-19-7.80399E-19
 -1      2744 9.90694E-05-2.95998E-05-2.97614E-05 6.16751E-06-7.70406E-19-6.46332E-19
 -1      2745 9.97720E-05-3.02050E-05-2.98172E-05 6.20523E-06-7.42825E-19-5.56443E-19
 -1      2746 9.75469E-05-2.89082E-05-2.94287E-05 6.55743E-06-6.80141E-19-2.82557E-19
 -1      2747 1.00555E-04-3.09425E-05-2.98133E-05 6.26088E-06 3.68259E-20-2.78969E-19
 -1      2748 1.01454E-04-3.18304E-05-2.98500E-05 5.98487E-06 1.11558E-19 6.66974E-20
 -1      2749 9.88160E-05-3.02384E-05-2.94105E-05 6.93738E-06-3.06276E-19 4.42453E-19
 -1      2750 1.02632E-04-3.29307E-05-2.98385E-05 5.68525E-06-5.70715E-19 5.48622E-19
 -1      2751 1.03747E-04-3.41243E-05-2.98626E-05 4.93747E-06 6.25531E-20 4.74164E-19
 -1      2752 1.00754E-04-3.23080E-05-2.93656E-05 6.79387E-06 8.38927E-20 5.31296E-19
 -1      2753 1.05419E-04-3.56013E-05-2.98741E-05 4.07367E-06 9.16438E-19 4.12420E-19
 -1      2754 1.06703E-04-3.70104E-05-2.99100E-05 2.68706E-06 1.10614E-18 2.25131E-19
 -1      2755 1.03582E-04-3.52298E-05-2.93389E-05 5.78016E-06 4.57855E-19 6.82819E-19
 -1      2756 1.08860E-04-3.87125E-05-3.00060E-05 1.01053E-06 1.02927E-18-2.63217E-20
 -1      2757 1.10119E-04-4.00194E-05-3.01024E-05-1.12168E-06 1.36950E-18-4.52711E-19
 -1      2758 1.07413E-04-3.88652E-05-2.94316E-05 3.43264E-06 7.57752E-19-6.22788E-19
 -1      2759 1.12499E-04-4.14855E-05-3.03818E-05-3.80712E-06 1.32431E-18-8.57943E-19
 -1      2760 1.13319E-04-4.20343E-05-3.06151E-05-6.57723E-06 4.53735E-19-7.68157E-19
 -1      2761 1.12016E-04-4.25420E-05-2.98193E-05-7.43311E-07 7.27805E-19-5.67156E-19
 -1      2762 1.15185E-04-4.23625E-05-3.12097E-05-1.01167E-05 1.08772E-18-8.86529E-19
 -1      2763 1.14995E-04-4.12483E-05-3.16490E-05-1.29465E-05 1.34406E-18-6.39943E-19
 -1      2764 1.16421E-04-4.46308E-05-3.07651E-05-6.98395E-06 1.18507E-18-8.59389E-19
 -1      2765 1.15357E-04-3.94740E-05-3.26168E-05-1.63171E-05 1.05883E-18 2.79963E-19
 -1      2766 1.13811E-04-3.61873E-05-3.32536E-05-1.80539E-05 1.34024E-18 1.80250E-19
 -1      2767 1.18825E-04-4.29314E-05-3.25089E-05-1.42473E-05 1.41617E-18-2.20175E-18
 -1      2768 1.11978E-04-3.20041E-05-3.44741E-05-1.93098E-05 1.78610E-18 4.45859E-19
 -1      2769 1.09539E-04-2.74425E-05-3.51371E-05-1.84563E-05 1.37725E-18 6.61093E-19
 -1      2770 1.17429E-04-3.57710E-05-3.49817E-05-1.96928E-05 1.38207E-18-2.48089E-18
 -1      2771 1.06826E-04-2.29312E-05-3.61605E-05-1.58240E-05 3.36682E-19 1.37783E-18
 -1      2772 1.04889E-04-1.97009E-05-3.65247E-05-1.21584E-05-3.37701E-19 1.09475E-18
 -1      2773 1.12652E-04-2.51276E-05-3.76175E-05-1.87759E-05 1.08854E-18-3.43617E-19
 -1      2774 1.03812E-04-1.81229E-05-3.68108E-05-6.49514E-06-4.20658E-19 2.62865E-18
 -1      2775 1.03596E-04-1.84852E-05-3.66418E-05-1.89278E-06 7.47533E-19 2.43978E-18
 -1      2776 1.08539E-04-1.74892E-05-3.91485E-05-1.01004E-05 6.90649E-19 2.51203E-18
 -1      2777 1.05066E-04-2.09638E-05-3.60153E-05 3.17445E-06 9.96825E-19 1.90268E-18
 -1      2778 1.06289E-04-2.43248E-05-3.53672E-05 6.10287E-06 1.37950E-18 1.87240E-18
 -1      2779 1.08867E-04-1.85735E-05-3.87675E-05 1.33448E-06 8.87002E-19 2.63018E-18
 -1      2780 1.08253E-04-2.82987E-05-3.42151E-05 7.65210E-06 2.11259E-18 1.98575E-18
 -1      2781 1.09410E-04-3.17647E-05-3.34245E-05 8.03964E-06 2.05770E-18 1.57589E-18
 -1      2782 1.12402E-04-2.65766E-05-3.67735E-05 7.76374E-06 1.39299E-18 1.97090E-18
 -1      2783 1.09511E-04-3.42380E-05-3.22609E-05 6.38399E-06 6.65100E-19 7.73623E-19
 -1      2784 1.09393E-04-3.57563E-05-3.15829E-05 5.11213E-06-2.76543E-20 1.37198E-19
 -1      2785 1.14762E-04-3.50026E-05-3.41358E-05 6.76918E-06 6.16693E-19 7.39354E-19
 -1      2786 1.42290E-04-6.22386E-05-3.40577E-05-2.40592E-05 8.87267E-19-2.83025E-18
 -1      2787 1.48900E-04-5.82160E-05-3.93203E-05-1.26561E-05 1.39768E-18-1.66294E-18
 -1      2788 9.45566E-05-2.78523E-05-2.85885E-05-4.42098E-07 3.83560E-19-1.46250E-19
 -1      2789 9.46450E-05-2.76652E-05-2.86873E-05-9.87512E-08 5.15628E-19 7.83340E-20
 -1      2790 9.45187E-05-2.84364E-05-2.83202E-05-1.14110E-06 1.59133E-19 9.21803E-20
 -1      2791 9.44622E-05-2.83724E-05-2.83211E-05-1.13885E-06 1.09603E-19-1.61209E-19
 -1      2792 9.45900E-05-2.85162E-05-2.83165E-05-1.09220E-06 3.89643E-19 1.28677E-19
 -1      2793 9.45213E-05-2.84710E-05-2.83062E-05-1.12843E-06 2.04788E-19 2.22211E-19
 -1      2794 9.48954E-05-2.85764E-05-2.84254E-05-1.15868E-06 5.61946E-20-2.65914E-19
 -1      2795 9.46737E-05-2.85662E-05-2.83309E-05-9.90965E-07 1.83389E-19 9.71100E-20
 -1      2796 9.46021E-05-2.85352E-05-2.83146E-05-1.04721E-06 4.19947E-19 1.20173E-19
 -1      2797 9.49160E-05-2.86500E-05-2.84017E-05-1.11007E-06 4.30058E-19 3.91466E-20
 -1      2798 9.47596E-05-2.85950E-05-2.83555E-05-8.66340E-07 5.84027E-19 1.12630E-19
 -1      2799 9.46909E-05-2.85746E-05-2.83365E-05-9.30181E-07 2.95129E-19 7.50204E-20
 -1      2800 9.49490E-05-2.86874E-05-2.83990E-05-1.00834E-06 3.85030E-19 1.21541E-19
 -1      2801 9.48420E-05-2.86084E-05-2.83850E-05-7.37836E-07 1.03075E-18-9.81535E-20
 -1      2802 9.47790E-05-2.85962E-05-2.83654E-05-8.01004E-07 1.09612E-18 1.82595E-19
 -1      2803 9.49878E-05-2.87003E-05-2.84096E-05-8.83179E-07 7.89145E-19 3.50624E-20
 -1      2804 9.49179E-05-2.86106E-05-2.84166E-05-6.18514E-07 2.44136E-19-1.40942E-19
 -1      2805 9.48617E-05-2.86046E-05-2.83974E-05-6.75508E-07 4.91762E-19-1.24486E-19
 -1      2806 9.50280E-05-2.86964E-05-2.84282E-05-7.54754E-07 6.44634E-19 4.11290E-19
 -1      2807 9.49868E-05-2.86045E-05-2.84487E-05-5.17192E-07 3.56390E-19 5.03733E-19
 -1      2808 9.49371E-05-2.86032E-05-2.84303E-05-5.64292E-07 2.38700E-19 3.28104E-19
 -1      2809 9.50673E-05-2.86810E-05-2.84515E-05-6.36721E-07 1.09362E-19 4.94996E-19
 -1      2810 9.50499E-05-2.85920E-05-2.84810E-05-4.40123E-07 2.57416E-19 4.21582E-19
 -1      2811 9.50053E-05-2.85945E-05-2.84632E-05-4.74637E-07 5.12020E-19 6.49819E-19
 -1      2812 9.51047E-05-2.86573E-05-2.84776E-05-5.38460E-07 3.41123E-19 7.54296E-19
 -1      2813 9.51095E-05-2.85744E-05-2.85138E-05-3.92277E-07-4.23579E-19 5.73240E-19
 -1      2814 9.50680E-05-2.85800E-05-2.84962E-05-4.11965E-07-2.18235E-19 3.71351E-19
 -1      2815 9.51405E-05-2.86272E-05-2.85059E-05-4.66801E-07 1.02320E-19 8.56243E-19
 -1      2816 9.51689E-05-2.85522E-05-2.85485E-05-3.78336E-07-6.29840E-19 6.49180E-19
 -1      2817 9.51278E-05-2.85603E-05-2.85301E-05-3.80967E-07-3.58174E-19 6.46834E-19
 -1      2818 9.51758E-05-2.85914E-05-2.85365E-05-4.27345E-07-4.27168E-19 5.99421E-19
 -1      2819 9.52324E-05-2.85255E-05-2.85868E-05-4.03466E-07-3.45205E-19 4.17224E-19
 -1      2820 9.51885E-05-2.85357E-05-2.85665E-05-3.86470E-07-4.57420E-19 5.84921E-19
 -1      2821 9.52123E-05-2.85496E-05-2.85701E-05-4.25492E-07-4.32844E-19 1.02256E-20
 -1      2822 9.53050E-05-2.84942E-05-2.86308E-05-4.73903E-07-1.54473E-19 1.14212E-19
 -1      2823 9.52544E-05-2.85063E-05-2.86073E-05-4.34110E-07-3.59688E-19-1.00349E-19
 -1      2824 9.52520E-05-2.85009E-05-2.86082E-05-4.67217E-07-8.05794E-20 7.59766E-20
 -1      2825 9.53926E-05-2.84577E-05-2.86833E-05-5.97398E-07-4.76395E-20 5.79331E-19
 -1      2826 9.53308E-05-2.84714E-05-2.86550E-05-5.30836E-07 5.35352E-20 5.04004E-19
 -1      2827 9.52977E-05-2.84438E-05-2.86525E-05-5.59663E-07-2.76065E-19-1.94482E-19
 -1      2828 9.55021E-05-2.84157E-05-2.87473E-05-7.83488E-07-1.36850E-19 8.07597E-19
 -1      2829 9.54239E-05-2.84308E-05-2.87124E-05-6.85272E-07-8.46172E-20 7.33745E-19
 -1      2830 9.53525E-05-2.83765E-05-2.87050E-05-7.11552E-07 3.38996E-20 5.16530E-19
 -1      2831 9.56410E-05-2.83681E-05-2.88262E-05-1.04359E-06-9.52487E-19 1.00221E-18
 -1      2832 9.55405E-05-2.83839E-05-2.87826E-05-9.07902E-07-3.85255E-19 1.05879E-18
 -1      2833 9.54195E-05-2.82968E-05-2.87681E-05-9.33411E-07-1.28852E-19 7.58558E-19
 -1      2834 9.58180E-05-2.83150E-05-2.89236E-05-1.39081E-06-6.16456E-19 5.38043E-19
 -1      2835 9.56884E-05-2.83305E-05-2.88690E-05-1.21103E-06-7.18742E-19 1.01366E-18
 -1      2836 9.55024E-05-2.82029E-05-2.88441E-05-1.23757E-06-6.61226E-19 1.28060E-18
 -1      2837 9.60426E-05-2.82581E-05-2.90428E-05-1.83936E-06-3.77800E-19-5.70900E-19
 -1      2838 9.58763E-05-2.82715E-05-2.89752E-05-1.60845E-06-3.98761E-19-2.83873E-20
 -1      2839 9.56051E-05-2.80935E-05-2.89352E-05-1.63783E-06-1.01290E-19 6.01533E-19
 -1      2840 9.63252E-05-2.82009E-05-2.91870E-05-2.40331E-06 1.97031E-19-8.47897E-19
 -1      2841 9.61138E-05-2.82091E-05-2.91041E-05-2.11452E-06-1.51447E-19-7.61904E-19
 -1      2842 9.57316E-05-2.79687E-05-2.90430E-05-2.14871E-06-2.14454E-19-2.33395E-19
 -1      2843 9.66774E-05-2.81511E-05-2.93578E-05-3.09435E-06 2.94423E-19-3.85809E-19
 -1      2844 9.64116E-05-2.81485E-05-2.92582E-05-2.74262E-06 7.07081E-19-3.23207E-19
 -1      2845 9.58863E-05-2.78316E-05-2.91680E-05-2.78400E-06 2.07325E-19-9.22341E-19
 -1      2846 9.71131E-05-2.81235E-05-2.95550E-05-3.91794E-06-3.54389E-19-4.80824E-19
 -1      2847 9.67826E-05-2.81005E-05-2.94382E-05-3.50221E-06-3.52795E-19-6.70920E-19
 -1      2848 9.60754E-05-2.76915E-05-2.93090E-05-3.55434E-06 6.79447E-20-1.23800E-18
 -1      2849 9.76507E-05-2.81459E-05-2.97749E-05-4.86706E-06-2.10616E-19-9.31282E-19
 -1      2850 9.72432E-05-2.80859E-05-2.96421E-05-4.39412E-06-1.57587E-19-6.10832E-19
 -1      2851 9.63086E-05-2.75680E-05-2.94618E-05-4.46331E-06-1.42291E-19-1.38535E-18
 -1      2852 9.83185E-05-2.82682E-05-3.00087E-05-5.91234E-06-1.80025E-19-4.46318E-19
 -1      2853 9.78184E-05-2.81428E-05-2.98640E-05-5.40292E-06-5.09549E-19-6.23793E-19
 -1      2854 9.66047E-05-2.74997E-05-2.96181E-05-5.50155E-06-4.89602E-19-1.42366E-18
 -1      2855 9.91650E-05-2.85761E-05-3.02409E-05-6.98714E-06 8.45792E-22 4.20971E-19
 -1      2856 9.85494E-05-2.83385E-05-3.00921E-05-6.48498E-06 3.90422E-19 3.42398E-19
 -1      2857 9.70010E-05-2.75572E-05-2.97641E-05-6.63778E-06-4.21320E-19-4.85387E-19
 -1      2858 1.00275E-04-2.92095E-05-3.04491E-05-7.96588E-06-1.64916E-18 1.21135E-18
 -1      2859 9.95091E-05-2.87861E-05-3.03080E-05-7.55054E-06-6.57386E-19 8.41002E-19
 -1      2860 9.75709E-05-2.78616E-05-2.98806E-05-7.80572E-06-7.55019E-19 8.75320E-19
 -1      2861 1.01795E-04-3.03786E-05-3.06065E-05-8.63434E-06-1.79280E-18 1.74775E-18
 -1      2862 1.00824E-04-2.96639E-05-3.04880E-05-8.43734E-06-1.93235E-18 1.45967E-18
 -1      2863 9.84512E-05-2.86083E-05-2.99442E-05-8.88452E-06-1.52007E-18 6.36781E-19
 -1      2864 1.03947E-04-3.23600E-05-3.06924E-05-8.65209E-06-1.78579E-19 1.51827E-18
 -1      2865 1.02700E-04-3.12259E-05-3.06091E-05-8.87333E-06-8.59491E-19 1.60610E-18
 -1      2866 9.98790E-05-3.00866E-05-2.99348E-05-9.66855E-06-1.39971E-18-1.15784E-19
 -1      2867 1.07016E-04-3.54202E-05-3.07165E-05-7.51515E-06 3.99346E-19 9.13625E-19
 -1      2868 1.05429E-04-3.37716E-05-3.06667E-05-8.42830E-06 8.52546E-20 1.12104E-18
 -1      2869 1.02223E-04-3.26663E-05-2.98541E-05-9.81857E-06 2.15395E-19 5.23590E-19
 -1      2870 1.11218E-04-3.95777E-05-3.07633E-05-4.55171E-06 5.47190E-19 6.00910E-19
 -1      2871 1.09320E-04-3.74987E-05-3.07098E-05-6.47037E-06 7.75989E-19 8.29407E-19
 -1      2872 1.05960E-04-3.66791E-05-2.97631E-05-8.78629E-06 8.01929E-19-6.23904E-19
 -1      2873 1.16336E-04-4.41460E-05-3.10421E-05 8.95454E-07 1.09045E-18 6.68797E-19
 -1      2874 1.14435E-04-4.21411E-05-3.08920E-05-2.23085E-06 8.08598E-19 7.27464E-19
 -1      2875 1.11455E-04-4.20541E-05-2.98427E-05-5.74586E-06 8.48378E-19-1.15879E-18
 -1      2876 1.21159E-04-4.68652E-05-3.19529E-05 9.13748E-06 1.87102E-18 1.35983E-18
 -1      2877 1.20135E-04-4.63360E-05-3.15348E-05 5.05714E-06 1.12873E-18 9.46923E-19
 -1      2878 1.18661E-04-4.78825E-05-3.04624E-05 2.11982E-07 7.66191E-19-6.94564E-19
 -1      2879 1.23256E-04-4.42221E-05-3.39173E-05 1.83679E-05 2.40941E-18 2.69456E-18
 -1      2880 1.24046E-04-4.68813E-05-3.30992E-05 1.45631E-05 2.23834E-18 2.84291E-18
 -1      2881 1.25509E-04-5.04899E-05-3.22405E-05 9.67527E-06 1.19896E-18 1.57299E-18
 -1      2882 1.20672E-04-3.45130E-05-3.69032E-05 2.33388E-05 2.98794E-18 3.90824E-18
 -1      2883 1.23323E-04-4.02979E-05-3.57762E-05 2.23614E-05 2.70073E-18 2.70198E-18
 -1      2884 1.28443E-04-4.52885E-05-3.57093E-05 2.01170E-05 1.85336E-18 2.96755E-18
 -1      2885 1.18031E-04-1.82663E-05-4.31218E-05 1.75247E-05 2.61167E-18 5.01205E-18
 -1      2886 1.21012E-04-2.39181E-05-4.20959E-05 2.17408E-05 2.59102E-18 5.08618E-18
 -1      2887 1.14209E-04-2.47574E-05-3.87649E-05-7.53659E-06-1.33207E-18 4.08018E-18
 -1      2888 1.12176E-04-1.95884E-05-3.98177E-05-3.04799E-06-2.45327E-18 4.05962E-18
 -1      2889 1.18462E-04-3.64459E-05-3.54204E-05-9.35257E-06-5.81118E-19 4.16142E-18
 -1      2890 1.16580E-04-3.10216E-05-3.67348E-05-9.32803E-06-4.86038E-19 4.26252E-18
 -1      2891 1.23055E-04-2.92592E-05-4.04927E-05-8.87567E-06-9.05478E-19 4.18080E-18
 -1      2892 1.17694E-04-4.18779E-05-3.25687E-05-3.36434E-06 1.72690E-18 2.85137E-18
 -1      2893 1.18023E-04-3.99928E-05-3.35259E-05-6.01068E-06 1.03748E-18 3.79454E-18
 -1      2894 1.25444E-04-4.15631E-05-3.60443E-05-6.64004E-06 2.55010E-19 3.56744E-18
 -1      2895 1.13395E-04-4.06798E-05-3.11876E-05 3.61553E-06 1.03268E-18 1.45385E-18
 -1      2896 1.15753E-04-4.19919E-05-3.17444E-05 1.05354E-06 1.85798E-18 1.85386E-18
 -1      2897 1.23242E-04-4.61014E-05-3.30860E-05 1.93955E-06 2.29473E-18 1.41862E-18
 -1      2898 1.17454E-04-4.34411E-05-3.15908E-05 9.85933E-06 6.19347E-19-7.95821E-19
 -1      2899 1.07765E-04-3.56521E-05-3.09602E-05 3.32655E-06 4.46003E-19 8.20024E-19
 -1      2900 1.06958E-04-3.55801E-05-3.05961E-05 2.50236E-06-3.26617E-19 7.41055E-19
 -1      2901 1.13261E-04-3.81088E-05-3.22818E-05 2.98966E-06 2.86555E-19-2.54199E-19
 -1      2902 8.67743E-05-3.74867E-05-2.08764E-05 4.56023E-05 2.45248E-18 3.41799E-18
 -1      2903 1.03303E-04-4.62361E-05-2.40134E-05 4.64625E-05 1.56309E-18 3.10946E-18
 -1      2904 4.71647E-05-1.13868E-05-1.48530E-05 1.72777E-05 7.83664E-19-1.49755E-18
 -1      2905 5.72386E-05-1.70230E-05-1.66314E-05 3.15261E-05 1.79412E-18 8.03834E-19
 -1      2906 1.05281E-04-4.18188E-05-2.66618E-05-4.31168E-05-4.76456E-22-3.01234E-18
 -1      2907 9.21268E-05-3.47226E-05-2.45175E-05-4.43982E-05-2.13929E-19-3.52366E-18
 -1      2908 1.20179E-04-4.86565E-05-3.06260E-05-2.86462E-05-1.93653E-19-1.96436E-18
 -1      2909 1.14786E-04-4.61646E-05-2.93674E-05-3.53539E-05 1.79730E-20-3.67882E-18
 -1      2910 1.18966E-04-4.48405E-05-3.19150E-05-1.25920E-05-9.27498E-19-3.15426E-18
 -1      2911 1.20496E-04-4.60748E-05-3.17066E-05-1.91157E-05-1.04360E-19-1.95179E-18
 -1      2912 1.26451E-04-5.19193E-05-3.16947E-05-2.19398E-05-3.62729E-19-2.09717E-18
 -1      2913 9.47269E-05-2.74152E-05-2.88508E-05 3.84820E-07 6.59730E-19 9.67442E-20
 -1      2914 9.49075E-05-2.71218E-05-2.90233E-05 9.89632E-07 7.72681E-19 1.32202E-19
 -1      2915 9.52551E-05-2.65018E-05-2.94722E-05 1.73268E-06 8.80280E-19-1.73402E-19
 -1      2916 9.51311E-05-2.73821E-05-2.90448E-05 3.72295E-07 6.57562E-19-2.35083E-20
 -1      2917 1.47497E-04-6.09645E-05-3.78130E-05 1.23791E-05 3.48520E-18 4.73597E-19
 -1      2918 1.42465E-04-6.43742E-05-3.33437E-05 2.33692E-05 2.60531E-18 2.51886E-18
 -1      2919 1.39048E-04-2.80553E-05-4.83572E-05-1.95717E-05 4.42045E-19-1.99752E-18
 -1      2920 1.41955E-04-3.73090E-05-4.50261E-05-1.86833E-05 1.04132E-18-2.86837E-18
 -1      2921 1.31368E-04-1.05924E-05-5.25503E-05 7.12292E-06-3.83282E-19 3.20649E-18
 -1      2922 1.33216E-04-1.22407E-05-5.24179E-05 1.54118E-07-1.10750E-18 3.56130E-18
 -1      2923 1.37136E-04-6.52694E-05-3.14394E-05 1.18911E-05 1.07023E-18-3.43975E-18
 -1      2924 1.24665E-04-6.42830E-05-2.54253E-05 2.40007E-05-1.55483E-19-3.07092E-18
 -1      2925 9.44749E-05-2.83145E-05-2.83538E-05-1.09511E-06 1.17917E-19-3.97646E-19
 -1      2926 9.44449E-05-2.82247E-05-2.83738E-05-1.02696E-06 3.86946E-19-3.90440E-19
 -1      2927 9.48966E-05-2.84496E-05-2.84817E-05-1.11098E-06 6.94619E-20-4.02389E-19
 -1      2928 9.44793E-05-2.81310E-05-2.84348E-05-8.92202E-07 6.42629E-19-3.10096E-19
 -1      2929 9.44960E-05-2.80035E-05-2.84856E-05-7.17301E-07 6.07608E-19-1.12572E-19
 -1      2930 9.49312E-05-2.82428E-05-2.85870E-05-9.04803E-07 5.29677E-19-4.92996E-19
 -1      2931 9.52065E-05-2.39752E-05-3.05189E-05-5.30048E-06-8.22620E-19-1.02042E-18
 -1      2932 9.51596E-05-2.49973E-05-3.00879E-05-3.79034E-06-7.11293E-19-9.83755E-19
 -1      2933 9.52152E-05-2.47016E-05-3.02190E-05-3.53375E-06-6.91687E-19-9.71123E-19
 -1      2934 1.49057E-04-4.07471E-05-4.71857E-05-4.28889E-06 3.61154E-19 3.05038E-19
 -1      2935 1.48863E-04-5.00526E-05-4.23221E-05-1.53404E-07 1.94923E-18-2.52204E-19
 -1      2936 1.44441E-04-4.99269E-05-4.12471E-05-1.18744E-05 2.06533E-18-3.71297E-18
 -1      2937 1.43795E-04-5.83941E-05-3.63442E-05-3.13065E-06 1.93756E-18-3.16028E-18
 -1      2938 9.11739E-05-1.60883E-05-3.22076E-05 4.91618E-06 1.35130E-18-1.19384E-18
 -1      2939 9.08298E-05-1.55887E-05-3.22680E-05 3.99373E-06 1.13690E-18-1.31435E-18
 -1      2940 9.18084E-05-1.71999E-05-3.19594E-05 3.19799E-06 9.72178E-19-1.27733E-18
 -1      2941 9.24794E-05-1.82612E-05-3.17878E-05 4.61403E-06 1.24237E-18-9.90957E-19
 -1      2942 9.28480E-05-1.80068E-05-3.20746E-05-8.80732E-06-9.82458E-19-1.60480E-18
 -1      2943 1.41340E-04-6.32050E-05-3.31348E-05 1.12893E-06-5.22950E-19 9.02725E-19
 -1      2944 1.44057E-04-5.74029E-05-3.79665E-05 1.12803E-05 9.75980E-19 2.85620E-18
 -1      2945 1.17148E-04-5.69763E-05-2.54657E-05-4.45947E-05 4.72962E-19-3.10433E-18
 -1      2946 1.32465E-04-6.32798E-05-2.99448E-05-3.72876E-05 9.32372E-19-3.84386E-18
 -1      2947 9.07962E-05-1.55418E-05-3.22729E-05-3.92822E-06-3.29412E-20-1.78888E-18
 -1      2948 9.11293E-05-1.60263E-05-3.22138E-05-4.86057E-06-2.82496E-19-1.83154E-18
 -1      2949 1.37961E-04-1.78312E-05-5.23134E-05-4.36170E-06-1.43551E-18 1.79836E-18
 -1      2950 1.44064E-04-2.84244E-05-4.99949E-05-6.77844E-06-1.11597E-18 1.98206E-18
 -1      2951 1.38828E-04-3.38115E-05-4.54221E-05-8.01918E-06-3.83282E-19 2.43723E-18
 -1      2952 1.28165E-04-1.63144E-05-4.81517E-05-3.09952E-06-2.03246E-18 4.39345E-18
 -1      2953 5.10937E-05-3.06221E-05-8.23798E-06-3.10326E-05-4.45857E-19-1.28029E-18
 -1      2954 6.48068E-05-3.92798E-05-1.06859E-05-3.70413E-05-1.25509E-18-1.46918E-18
 -1      2955 4.10168E-05-2.20987E-05-7.64420E-06 2.42623E-05 8.41210E-20 5.88264E-19
 -1      2956 3.45943E-05-1.75216E-05-6.71184E-06 1.14905E-05-6.70347E-19 2.11335E-19
 -1      2957 6.97558E-05-3.92914E-05-1.30324E-05 3.88234E-05-8.93196E-19-2.15803E-18
 -1      2958 5.28177E-05-2.93487E-05-9.42183E-06 3.22224E-05 4.11870E-20-1.15101E-18
 -1      2959 5.43770E-05-2.51104E-05-1.19509E-05 2.60541E-05-1.14349E-20-3.93341E-19
 -1      2960 8.18097E-05-4.84186E-05-1.37168E-05-3.75041E-05-1.49872E-18-1.16382E-18
 -1      2961 1.00218E-04-5.76165E-05-1.84182E-05-3.55331E-05-1.23561E-19 1.67077E-19
 -1      2962 7.88328E-05-4.32511E-05-1.46878E-05-3.44953E-05-9.73558E-19-8.00976E-19
 -1      2963 1.08498E-04-5.99159E-05-2.10655E-05 3.48756E-05-1.30972E-18-2.14485E-18
 -1      2964 9.10439E-05-5.07160E-05-1.67020E-05 3.79891E-05-1.32052E-18-9.26389E-19
 -1      2965 8.51087E-05-3.89089E-05-1.94243E-05-4.96109E-05 9.16807E-19-3.28935E-18
 -1      2966 1.04943E-04-5.07026E-05-2.29792E-05-5.07997E-05 8.58256E-19-4.15247E-18
 -1      2967 1.09599E-04-3.73596E-05-3.10449E-05-1.94355E-07-7.52536E-19-4.60839E-20
 -1      2968 1.48979E-04-5.01469E-05-4.24941E-05-2.64198E-06 1.44970E-18-1.52466E-18
 -1      2969 1.46550E-04-4.15826E-05-4.56388E-05 2.68737E-06 1.28453E-18-1.52688E-18
 -1      2970 1.18047E-04-6.31535E-05-2.29579E-05-2.57017E-05-1.70571E-19-6.12511E-20
 -1      2971 1.31358E-04-6.63303E-05-2.84148E-05-1.46116E-05-6.68944E-19-1.18947E-18
 -1      2972 1.42809E-04-4.32365E-05-4.27431E-05 2.09759E-05 1.26716E-18 2.96694E-18
 -1      2973 1.43033E-04-3.34247E-05-4.77646E-05 2.22991E-05 2.10954E-18 2.38821E-18
 -1      2974 9.15634E-05-1.66848E-05-3.21132E-05-5.57538E-06-4.24330E-19-1.91927E-18
 -1      2975 9.20401E-05-1.74364E-05-3.20197E-05-6.44518E-06-6.49768E-19-1.92921E-18
 -1      2976 9.24122E-05-1.81928E-05-3.17985E-05-4.55923E-06-3.04109E-19-1.67711E-18
 -1      2977 9.12828E-05-1.63924E-05-3.20848E-05 3.13148E-08 5.72331E-19-1.87075E-18
 -1      2978 9.01608E-05-1.46014E-05-3.24021E-05-3.83267E-07 6.26129E-19-1.89921E-18
 -1      2979 9.02167E-05-1.46797E-05-3.23922E-05-1.34231E-06 4.58150E-19-1.91834E-18
 -1      2980 9.43558E-05-2.14243E-05-3.12606E-05 7.21394E-06 1.60629E-18-2.52591E-19
 -1      2981 1.44475E-04-5.41953E-05-3.88391E-05 3.85207E-06 2.54134E-18-6.01288E-19
 -1      2982 1.28837E-04-1.02259E-05-5.13888E-05-1.10139E-05 9.10560E-21-3.27569E-18
 -1      2983 1.22646E-04-1.29576E-05-4.74204E-05-1.38131E-05 1.21486E-18-1.56829E-18
 -1      2984 1.23575E-04-9.23403E-06-4.96536E-05-6.81000E-06 5.32995E-19-3.24857E-18
 -1      2985 4.21300E-05-1.14817E-05-1.23521E-05 1.15227E-05 1.56979E-19-1.38723E-18
 -1      2986 4.05527E-05-1.03335E-05-1.23939E-05-8.95392E-06 1.77612E-20-2.75328E-18
 -1      2987 9.28618E-05-1.86348E-05-3.18084E-05-7.05695E-06-7.45496E-19-1.78699E-18
 -1      2988 9.42441E-05-2.09669E-05-3.14422E-05-7.72532E-06-1.00517E-18-1.31040E-18
 -1      2989 9.47491E-05-2.27761E-05-3.08503E-05-6.03871E-06-8.84769E-19-1.13235E-18
 -1      2990 9.35100E-05-2.00307E-05-3.14729E-05-5.74015E-06-6.13689E-19-1.69066E-18
 -1      2991 1.44687E-04-5.38913E-05-3.90519E-05-5.87152E-06 1.54897E-18-1.94415E-18
 -1      2992 1.39495E-04-4.87793E-05-3.90447E-05 1.86267E-05 5.75559E-19 4.30081E-18
 -1      2993 1.10031E-04-5.84125E-05-2.18587E-05-2.75986E-05-6.01076E-19-2.25734E-19
 -1      2994 1.17656E-04-5.74444E-05-2.56555E-05 4.24767E-05 3.06652E-18 3.31887E-18
 -1      2995 1.14058E-04-4.71145E-05-2.84961E-05 3.59645E-05 8.99681E-19 2.04959E-18
 -1      2996 1.19835E-04-4.98173E-05-2.99275E-05 3.02212E-05-6.15952E-19 1.22110E-18
 -1      2997 1.33899E-04-6.32056E-05-3.04975E-05 3.32977E-05 2.52808E-18 2.91432E-18
 -1      2998 1.35819E-04-6.09864E-05-3.22338E-05-2.75381E-05 7.81864E-19-2.56333E-18
 -1      2999 4.51480E-05-1.97953E-05-1.03561E-05-1.73300E-05 2.75921E-19-2.06591E-18
 -1      3000 4.74948E-05-2.53423E-05-8.85724E-06-2.50640E-05 2.09164E-19-1.12475E-18
 -1      3001 5.75196E-05-2.81357E-05-1.24363E-05-2.73987E-05 1.77295E-19-3.81377E-19
 -1      3002 1.35155E-04-6.05682E-05-3.19162E-05 2.37406E-05 2.40658E-18 1.52633E-18
 -1      3003 9.50091E-05-2.79122E-05-2.87641E-05-4.51782E-07 5.97393E-19-3.33310E-19
 -1      3004 1.10665E-04-1.64718E-05-4.07942E-05 4.68822E-06-1.23307E-18 3.57856E-18
 -1      3005 1.11053E-04-1.67611E-05-4.07444E-05 1.14620E-05 1.95167E-18 4.56181E-18
 -1      3006 8.42638E-05-4.38867E-05-1.68275E-05 3.50725E-05-6.28922E-19-1.36568E-18
 -1      3007 1.20505E-04-4.77598E-05-3.10533E-05 2.25051E-05-1.97279E-19-2.12943E-19
 -1      3008 1.20349E-04-4.70117E-05-3.14948E-05 1.57432E-05 7.68987E-19-1.63328E-18
 -1      3009 1.24551E-04-4.95145E-05-3.21711E-05 1.14314E-05 1.56023E-18-1.99155E-18
 -1      3010 1.26985E-04-5.46681E-05-3.08864E-05 2.44397E-05 1.95584E-18 8.35353E-19
 -1      3011 1.35213E-04-1.42938E-05-5.24340E-05 3.23569E-06 4.36222E-20-3.53414E-18
 -1      3012 1.26272E-04-1.08329E-05-5.01051E-05 5.64371E-07-1.31502E-19-4.52869E-18
 -1      3013 1.31232E-04-1.82824E-05-4.87002E-05 6.22347E-06 1.45901E-19-4.16020E-18
 -1      3014 1.14603E-04-5.23066E-05-2.65216E-05-4.30791E-05 2.68933E-19-2.76779E-18
 -1      3015 1.13287E-04-3.96198E-05-3.15014E-05-4.69272E-06-3.02063E-19-1.65919E-18
 -1      3016 3.64142E-05-1.62217E-05-7.96031E-06 3.93806E-06-6.66449E-19-1.03454E-18
 -1      3017 4.07488E-05-1.60707E-05-1.01330E-05-4.34725E-06-2.20923E-19-1.31121E-18
 -1      3018 4.45587E-05-1.65786E-05-1.15520E-05 9.32555E-06-3.30803E-19 1.41878E-20
 -1      3019 1.31120E-04-2.34544E-05-4.65626E-05-2.00475E-05 1.14000E-18-9.44230E-19
 -1      3020 1.38718E-04-4.37501E-05-4.09429E-05-1.69805E-05 2.00196E-18-1.24831E-18
 -1      3021 1.37781E-04-6.09227E-05-3.29585E-05 2.07144E-06 2.20131E-18-1.85982E-18
 -1      3022 1.27775E-04-1.31815E-05-4.97800E-05 1.16253E-05 1.39189E-18 4.30315E-18
 -1      3023 1.18832E-04-4.32440E-05-3.23349E-05-5.23240E-06-9.52171E-19-2.19655E-18
 -1      3024 1.42383E-04-3.57665E-05-4.60873E-05 6.16955E-06 6.22252E-19-3.58560E-18
 -1      3025 1.34715E-04-2.89790E-05-4.61587E-05 8.08071E-06 3.54907E-19-5.32614E-18
 -1      3026 1.38154E-04-4.00823E-05-4.22429E-05 5.18932E-06 7.59630E-19-4.53713E-18
 -1      3027 1.18458E-04-6.07655E-05-2.43861E-05 2.47647E-05-2.23087E-19-2.11406E-18
 -1      3028 9.46138E-05-2.24665E-05-3.09132E-05 5.68931E-06 1.44697E-18-3.71922E-19
 -1      3029 9.03435E-05-1.48731E-05-3.23645E-05-2.17591E-06 3.16837E-19-1.66962E-18
 -1      3030 9.05273E-05-1.51351E-05-3.23324E-05-3.13075E-06 9.96356E-20-1.67769E-18
 -1      3031 9.17616E-05-1.71571E-05-3.19659E-05-3.13022E-06 5.47966E-20-1.53028E-18
 -1      3032 9.13928E-05-1.65731E-05-3.20567E-05-1.57373E-06 3.10349E-19-1.65735E-18
 -1      3033 1.34381E-04-2.64629E-05-4.67249E-05 2.38090E-05 2.25120E-18 4.17937E-18
 -1      3034 9.45890E-05-2.24147E-05-3.09120E-05-5.46892E-06-7.25052E-19-1.30442E-18
 -1      3035 1.33811E-04-6.28575E-05-3.02975E-05-4.50868E-06-1.12240E-18 9.88435E-19
 -1      3036 1.39080E-04-4.81845E-05-3.94436E-05-3.28689E-06 2.20075E-18-7.65400E-19
 -1      3037 1.39239E-04-5.59139E-05-3.56631E-05 6.55588E-06 3.15133E-18-1.35753E-18
 -1      3038 9.42724E-05-2.18500E-05-3.10596E-05 4.96758E-06 1.28874E-18-4.76421E-19
 -1      3039 9.38086E-05-2.09077E-05-3.12451E-05 4.62093E-06 1.19620E-18-6.70795E-19
 -1      3040 6.97973E-05-2.67539E-05-1.75082E-05 4.26600E-05 2.06814E-18 2.96705E-18
 -1      3041 1.27803E-04-6.09146E-05-2.81593E-05-8.97262E-06-1.16561E-18 6.67541E-19
 -1      3042 1.33347E-04-5.94393E-05-3.20766E-05 3.35487E-06-2.61478E-19 2.09484E-18
 -1      3043 9.53711E-05-2.79586E-05-2.88951E-05-4.75128E-07 6.21516E-19-6.12874E-19
 -1      3044 9.54256E-05-2.77003E-05-2.90121E-05-1.44801E-07 6.29289E-19-4.57520E-19
 -1      3045 9.56798E-05-2.68799E-05-2.94713E-05-7.42272E-07-5.07306E-19-6.94835E-19
 -1      3046 9.56556E-05-2.73280E-05-2.92915E-05-2.17656E-07-3.99278E-19-7.08455E-19
 -1      3047 9.56995E-05-2.77139E-05-2.91254E-05 1.62196E-07-3.92918E-19-6.33543E-19
 -1      3048 9.56623E-05-2.80006E-05-2.90025E-05 4.76740E-07-4.78518E-19-8.29888E-19
 -1      3049 9.58953E-05-2.73311E-05-2.93877E-05-1.62308E-07-4.06103E-19-6.08149E-19
 -1      3050 9.56545E-05-2.82394E-05-2.88843E-05 6.97868E-07-4.89632E-19-7.43798E-19
 -1      3051 9.56221E-05-2.84205E-05-2.88029E-05 8.65102E-07-5.49093E-19-7.64512E-19
 -1      3052 9.59364E-05-2.80563E-05-2.90951E-05 4.71644E-07-5.01673E-19-5.23037E-19
 -1      3053 9.55902E-05-2.85626E-05-2.87209E-05 9.73385E-07-4.78208E-19-8.59362E-19
 -1      3054 9.55670E-05-2.86734E-05-2.86694E-05 1.04168E-06-3.68440E-19-9.24743E-19
 -1      3055 9.59026E-05-2.85084E-05-2.88867E-05 8.27933E-07-5.07793E-19-8.19638E-19
 -1      3056 9.55256E-05-2.87514E-05-2.86144E-05 1.07410E-06-3.34840E-19-7.15037E-19
 -1      3057 9.55111E-05-2.88147E-05-2.85839E-05 1.07913E-06-4.31342E-19-5.48933E-19
 -1      3058 9.58348E-05-2.87764E-05-2.87423E-05 9.89449E-07-2.23250E-19-7.11516E-19
 -1      3059 9.54680E-05-2.88504E-05-2.85487E-05 1.06379E-06-3.62960E-19-2.24321E-19
 -1      3060 9.54603E-05-2.88816E-05-2.85329E-05 1.03118E-06-2.39799E-19-2.55864E-19
 -1      3061 9.57549E-05-2.89205E-05-2.86458E-05 1.02217E-06-2.46156E-19-4.44201E-19
 -1      3062 9.54193E-05-2.88896E-05-2.85121E-05 9.88620E-07-2.96625E-19 5.31861E-20
 -1      3063 9.54164E-05-2.88992E-05-2.85063E-05 9.36453E-07-1.97496E-19-1.97197E-21
 -1      3064 9.56743E-05-2.89818E-05-2.85845E-05 9.75769E-07-1.56665E-19 9.79806E-20
 -1      3065 9.53793E-05-2.88893E-05-2.84957E-05 8.81278E-07-1.30049E-19-4.84064E-20
 -1      3066 9.53796E-05-2.88844E-05-2.84967E-05 8.22100E-07 1.59814E-20-1.03316E-19
 -1      3067 9.55989E-05-2.89886E-05-2.85488E-05 8.86386E-07-1.46073E-19 4.16196E-19
 -1      3068 9.53472E-05-2.88634E-05-2.84935E-05 7.64499E-07-5.91435E-20-2.40199E-19
 -1      3069 9.53495E-05-2.88489E-05-2.84990E-05 7.06932E-07-3.27512E-20-1.37440E-19
 -1      3070 9.55313E-05-2.89600E-05-2.85318E-05 7.79644E-07-4.27523E-21 3.53258E-19
 -1      3071 9.53215E-05-2.88207E-05-2.85010E-05 6.53940E-07 2.36605E-19-1.62169E-19
 -1      3072 9.53251E-05-2.87996E-05-2.85096E-05 6.03942E-07 3.70105E-19-3.98680E-20
 -1      3073 9.54721E-05-2.89087E-05-2.85281E-05 6.73418E-07-3.80444E-20-3.16636E-20
 -1      3074 9.53009E-05-2.87668E-05-2.85155E-05 5.60506E-07 6.05806E-20-2.33199E-19
 -1      3075 9.53054E-05-2.87408E-05-2.85263E-05 5.22341E-07-2.31437E-19-5.08231E-19
 -1      3076 9.54206E-05-2.88425E-05-2.85342E-05 5.80210E-07 7.39907E-20-7.34806E-20
 -1      3077 9.52840E-05-2.87042E-05-2.85353E-05 4.92128E-07-4.36946E-19-3.66334E-19
 -1      3078 9.52893E-05-2.86740E-05-2.85480E-05 4.69110E-07-5.95871E-19-1.61390E-20
 -1      3079 9.53755E-05-2.87654E-05-2.85477E-05 5.09038E-07-2.28418E-19-2.44760E-19
 -1      3080 9.52695E-05-2.86336E-05-2.85594E-05 4.55142E-07-5.94602E-19-3.42691E-20
 -1      3081 9.52755E-05-2.85992E-05-2.85740E-05 4.50198E-07-4.10156E-19 2.61203E-19
 -1      3082 9.53345E-05-2.86789E-05-2.85671E-05 4.66895E-07-4.89761E-19-6.20243E-20
 -1      3083 9.52560E-05-2.85541E-05-2.85879E-05 4.55347E-07-5.11325E-19-1.52819E-19
 -1      3084 9.52629E-05-2.85149E-05-2.86046E-05 4.71438E-07-3.57317E-19-2.59980E-19
 -1      3085 9.52953E-05-2.85821E-05-2.85917E-05 4.59899E-07-7.35918E-19-4.72537E-19
 -1      3086 9.52420E-05-2.84636E-05-2.86208E-05 4.98774E-07-8.60831E-20-2.91282E-19
 -1      3087 9.52500E-05-2.84186E-05-2.86401E-05 5.39179E-07-2.08077E-19-5.03874E-19
 -1      3088 9.52547E-05-2.84726E-05-2.86211E-05 4.94142E-07-2.98622E-19-3.63633E-19
 -1      3089 9.52260E-05-2.83595E-05-2.86588E-05 5.92206E-07-2.07653E-19-4.28133E-19
 -1      3090 9.52357E-05-2.83076E-05-2.86812E-05 6.60688E-07-3.04658E-19-2.52180E-19
 -1      3091 9.52095E-05-2.83471E-05-2.86554E-05 5.76284E-07-1.88446E-19-5.22587E-19
 -1      3092 9.52066E-05-2.82388E-05-2.87026E-05 7.43467E-07-5.27380E-19 9.87705E-20
 -1      3093 9.52185E-05-2.81790E-05-2.87285E-05 8.44307E-07 4.34895E-20 3.24575E-21
 -1      3094 9.51561E-05-2.82018E-05-2.86947E-05 7.13909E-07-2.14349E-19-1.37731E-19
 -1      3095 9.51824E-05-2.80988E-05-2.87526E-05 9.61456E-07-1.27211E-21-7.13348E-20
 -1      3096 9.51976E-05-2.80307E-05-2.87826E-05 1.09933E-06-3.13409E-19-2.58360E-19
 -1      3097 9.50907E-05-2.80328E-05-2.87389E-05 9.15655E-07-1.62870E-19 3.65174E-19
 -1      3098 9.51527E-05-2.79383E-05-2.88091E-05 1.25588E-06-8.15456E-19-9.09786E-20
 -1      3099 9.51725E-05-2.78625E-05-2.88434E-05 1.43552E-06-1.06485E-18 1.75114E-21
 -1      3100 9.50096E-05-2.78375E-05-2.87877E-05 1.19107E-06-5.01624E-19-3.13996E-19
 -1      3101 9.51176E-05-2.77584E-05-2.88717E-05 1.63660E-06-1.30907E-18-4.18158E-19
 -1      3102 9.51443E-05-2.76775E-05-2.89100E-05 1.86225E-06-1.35813E-18-7.33703E-19
 -1      3103 9.49098E-05-2.76156E-05-2.88398E-05 1.55017E-06-1.46434E-18-7.30992E-19
 -1      3104 9.50794E-05-2.75647E-05-2.89389E-05 2.11252E-06-1.00525E-18-1.20131E-18
 -1      3105 9.51167E-05-2.74844E-05-2.89803E-05 2.38699E-06-2.89402E-19-1.19141E-18
 -1      3106 9.47901E-05-2.73711E-05-2.88930E-05 2.00259E-06-1.31705E-18-6.86835E-19
 -1      3107 9.50441E-05-2.73700E-05-2.90076E-05 2.68989E-06 5.26730E-19-1.40953E-18
 -1      3108 9.50984E-05-2.73008E-05-2.90506E-05 3.01324E-06 7.34318E-19-1.51946E-18
 -1      3109 9.46526E-05-2.71151E-05-2.89437E-05 2.55638E-06-1.22789E-19-1.49526E-18
 -1      3110 9.50247E-05-2.71981E-05-2.90731E-05 3.36987E-06 6.85980E-19-1.83519E-18
 -1      3111 9.51064E-05-2.71579E-05-2.91147E-05 3.73754E-06 4.27322E-19-1.81745E-18
 -1      3112 9.45059E-05-2.68700E-05-2.89859E-05 3.21626E-06 3.97510E-19-2.48021E-18
 -1      3113 9.50455E-05-2.70898E-05-2.91281E-05 4.14521E-06 2.75007E-19-1.80056E-18
 -1      3114 9.51724E-05-2.71073E-05-2.91642E-05 4.54557E-06 5.83687E-19-1.71662E-18
 -1      3115 9.43698E-05-2.66749E-05-2.90116E-05 3.98144E-06 4.31711E-19-2.58984E-18
 -1      3116 9.51500E-05-2.71103E-05-2.91628E-05 4.99587E-06 2.62131E-19-1.51198E-18
 -1      3117 9.53511E-05-2.72290E-05-2.91881E-05 5.40691E-06 1.59328E-19-7.67782E-19
 -1      3118 9.42824E-05-2.65934E-05-2.90103E-05 4.84280E-06 5.08025E-19-1.83343E-18
 -1      3119 9.54113E-05-2.73584E-05-2.91658E-05 5.88300E-06-7.68582E-19-1.14498E-18
 -1      3120 9.57327E-05-2.76413E-05-2.91746E-05 6.26800E-06-1.00969E-18-1.32040E-18
 -1      3121 9.43112E-05-2.67235E-05-2.89695E-05 5.77931E-06-3.56713E-19-1.40263E-18
 -1      3122 9.59476E-05-2.79760E-05-2.91258E-05 6.74020E-06-3.88205E-19-1.30455E-18
 -1      3123 9.64588E-05-2.85088E-05-2.91137E-05 7.04175E-06-1.73797E-19-7.20717E-19
 -1      3124 9.45687E-05-2.72085E-05-2.88770E-05 6.75248E-06-4.34823E-19-1.35231E-18
 -1      3125 9.69388E-05-2.91541E-05-2.90370E-05 7.45950E-06-7.84763E-20-5.95011E-19
 -1      3126 9.77367E-05-3.00423E-05-2.90047E-05 7.59078E-06-4.61701E-19-4.48478E-19
 -1      3127 9.52320E-05-2.82465E-05-2.87252E-05 7.69623E-06-3.74956E-19-1.82459E-18
 -1      3128 9.86412E-05-3.11239E-05-2.89085E-05 7.86640E-06-1.87895E-19-2.07597E-19
 -1      3129 9.98436E-05-3.24736E-05-2.88689E-05 7.69820E-06 3.68254E-19-4.39010E-19
 -1      3130 9.65657E-05-3.00915E-05-2.85204E-05 8.49564E-06-1.26341E-19-1.02000E-18
 -1      3131 1.01380E-04-3.41093E-05-2.87821E-05 7.67467E-06-1.00014E-20 3.01947E-19
 -1      3132 1.03089E-04-3.59711E-05-2.87709E-05 7.01992E-06 2.52319E-19-1.77412E-19
 -1      3133 9.89347E-05-3.30260E-05-2.82992E-05 8.94095E-06 5.72084E-19-4.99263E-19
 -1      3134 1.05476E-04-3.81926E-05-2.87613E-05 6.41609E-06 4.53909E-19-2.02117E-19
 -1      3135 1.07684E-04-4.04282E-05-2.88510E-05 5.02429E-06 4.20524E-19-5.52828E-19
 -1      3136 1.02778E-04-3.72604E-05-2.81594E-05 8.63593E-06 3.85367E-20-7.94292E-19
 -1      3137 1.10996E-04-4.29998E-05-2.90440E-05 3.41677E-06 1.85553E-19-1.13725E-18
 -1      3138 1.13448E-04-4.50758E-05-2.93490E-05 1.03035E-06 5.29892E-21-2.21237E-18
 -1      3139 1.08430E-04-4.26318E-05-2.83032E-05 6.88929E-06-2.44888E-19-9.97444E-19
 -1      3140 1.17407E-04-4.73382E-05-2.99422E-05-2.03881E-06 6.30590E-19-2.31328E-18
 -1      3141 1.19393E-04-4.80441E-05-3.06407E-05-5.53126E-06 1.07154E-18-2.57876E-18
 -1      3142 1.15726E-04-4.81024E-05-2.90711E-05 2.73809E-06 5.29644E-20-2.06622E-18
 -1      3143 1.22564E-04-4.80208E-05-3.19513E-05-1.01477E-05 1.46477E-18-2.44239E-18
 -1      3144 1.22909E-04-4.58616E-05-3.31156E-05-1.36249E-05 1.41535E-18-3.14626E-18
 -1      3145 1.23420E-04-5.10142E-05-3.09806E-05-4.97776E-06 9.62941E-19-2.77682E-18
 -1      3146 1.18517E-04-2.84950E-05-3.89696E-05-2.09360E-05 2.17365E-18-1.14256E-18
 -1      3147 1.15530E-04-2.18669E-05-4.02321E-05-1.84068E-05 1.92531E-18 9.24159E-20
 -1      3148 1.13356E-04-1.52949E-05-4.24073E-05-1.31787E-05 1.60486E-18 7.08609E-19
 -1      3149 1.12313E-04-1.30076E-05-4.29286E-05-7.42359E-06 1.51862E-18 1.65075E-18
 -1      3150 1.14624E-04-1.41836E-05-4.33538E-05-8.77075E-08 4.94138E-19-1.13913E-19
 -1      3151 1.16420E-04-1.84795E-05-4.24918E-05 4.90930E-06 3.90747E-19 9.42192E-20
 -1      3152 1.20646E-04-2.65127E-05-4.05289E-05 7.68473E-06 1.27177E-18-6.15912E-19
 -1      3153 1.23014E-04-3.31921E-05-3.88513E-05 8.31287E-06 1.94873E-18-1.01059E-18
 -1      3154 7.64672E-05-2.84297E-05-1.98100E-05-4.49139E-05-1.25149E-19-3.54420E-18
 -1      3155 1.18411E-04-1.59782E-05-4.43294E-05 1.47950E-07-1.96988E-18 5.37225E-18
 -1      3156 9.52424E-05-2.87073E-05-2.85147E-05-1.11988E-06 1.96186E-19-3.89009E-19
 -1      3157 9.52392E-05-2.86442E-05-2.85375E-05-1.11531E-06-7.66943E-20-3.53793E-19
 -1      3158 9.52099E-05-2.88030E-05-2.84589E-05-8.52302E-07 7.15823E-19 1.66998E-19
 -1      3159 9.51909E-05-2.88005E-05-2.84533E-05-9.14292E-07 4.63104E-19 3.86358E-22
 -1      3160 9.52109E-05-2.87823E-05-2.84682E-05-7.30404E-07 9.46174E-20 1.04575E-18
 -1      3161 9.51917E-05-2.87887E-05-2.84591E-05-7.91123E-07 4.79928E-19 6.14973E-19
 -1      3162 9.53851E-05-2.88888E-05-2.84995E-05-8.25221E-07 2.53198E-19 4.72787E-19
 -1      3163 9.52150E-05-2.87489E-05-2.84842E-05-6.19915E-07 1.45868E-20 1.02166E-18
 -1      3164 9.51963E-05-2.87616E-05-2.84729E-05-6.73400E-07 1.76484E-19 1.12219E-18
 -1      3165 9.53535E-05-2.88519E-05-2.85015E-05-7.10176E-07 8.26265E-20 8.76968E-19
 -1      3166 9.52213E-05-2.87067E-05-2.85050E-05-5.30156E-07 4.23737E-19 9.65505E-19
 -1      3167 9.52033E-05-2.87240E-05-2.84922E-05-5.72196E-07 1.15033E-19 7.63514E-19
 -1      3168 9.53279E-05-2.88014E-05-2.85120E-05-6.07569E-07 2.10944E-19 1.00287E-18
 -1      3169 9.52295E-05-2.86574E-05-2.85295E-05-4.68088E-07-1.66349E-19 8.76535E-19
 -1      3170 9.52119E-05-2.86786E-05-2.85154E-05-4.95456E-07 3.87099E-19 9.53415E-19
 -1      3171 9.53070E-05-2.87411E-05-2.85287E-05-5.26752E-07 2.50283E-19 8.43907E-19
 -1      3172 9.52393E-05-2.86013E-05-2.85576E-05-4.39584E-07-2.13854E-19 2.70190E-19
 -1      3173 9.52216E-05-2.86261E-05-2.85421E-05-4.49442E-07-1.64004E-19 7.47835E-19
 -1      3174 9.52896E-05-2.86724E-05-2.85506E-05-4.74875E-07-5.32283E-21 8.67270E-19
 -1      3175 9.52511E-05-2.85373E-05-2.85899E-05-4.50423E-07-4.99143E-19-1.74176E-19
 -1      3176 9.52321E-05-2.85662E-05-2.85724E-05-4.39858E-07-4.11405E-19 3.85023E-20
 -1      3177 9.52742E-05-2.85950E-05-2.85771E-05-4.58127E-07-2.60655E-19 1.33147E-19
 -1      3178 9.52649E-05-2.84634E-05-2.86272E-05-5.07023E-07-1.38463E-19-4.10165E-20
 -1      3179 9.52437E-05-2.84971E-05-2.86070E-05-4.72713E-07-2.26401E-19 1.71218E-19
 -1      3180 9.52590E-05-2.85069E-05-2.86084E-05-4.82694E-07-4.44956E-19 1.40005E-20
 -1      3181 9.52812E-05-2.83769E-05-2.86708E-05-6.16989E-07-3.55863E-19 1.96118E-19
 -1      3182 9.52562E-05-2.84165E-05-2.86472E-05-5.54946E-07-1.52862E-19 1.83198E-19
 -1      3183 9.52423E-05-2.84049E-05-2.86449E-05-5.55435E-07-3.35285E-19 4.10093E-19
 -1      3184 9.53001E-05-2.82744E-05-2.87223E-05-7.89470E-07-1.14245E-19 7.35908E-19
 -1      3185 9.52699E-05-2.83212E-05-2.86942E-05-6.94886E-07-4.08557E-19 5.12478E-19
 -1      3186 9.52216E-05-2.82847E-05-2.86875E-05-6.84398E-07-6.26143E-19 8.73643E-19
 -1      3187 9.53217E-05-2.81524E-05-2.87832E-05-1.03531E-06-5.75552E-19 1.13455E-18
 -1      3188 9.52846E-05-2.82076E-05-2.87495E-05-9.02509E-07 1.35973E-21 8.13939E-19
 -1      3189 9.51940E-05-2.81416E-05-2.87369E-05-8.79100E-07-3.41630E-19 1.11421E-18
 -1      3190 9.53457E-05-2.80073E-05-2.88549E-05-1.36694E-06-6.41807E-19 8.41857E-19
 -1      3191 9.52999E-05-2.80720E-05-2.88147E-05-1.18947E-06-6.54737E-19 1.00597E-18
 -1      3192 9.51560E-05-2.79704E-05-2.87938E-05-1.15060E-06-5.89122E-19 1.08763E-18
 -1      3193 9.53714E-05-2.78365E-05-2.89383E-05-1.79797E-06-8.24285E-20 6.52408E-19
 -1      3194 9.53150E-05-2.79112E-05-2.88908E-05-1.56888E-06-2.38919E-19 6.98025E-19
 -1      3195 9.51030E-05-2.77662E-05-2.88584E-05-1.51130E-06-4.09222E-19 6.00801E-19
 -1      3196 9.53978E-05-2.76392E-05-2.90333E-05-2.34229E-06 1.56922E-19-4.45257E-19
 -1      3197 9.53288E-05-2.77230E-05-2.89781E-05-2.05468E-06 2.01230E-19 4.21163E-19
 -1      3198 9.50297E-05-2.75249E-05-2.89300E-05-1.97444E-06 1.94150E-19 4.50639E-19
 -1      3199 9.54239E-05-2.74183E-05-2.91382E-05-3.01262E-06 1.93083E-19-8.70448E-19
 -1      3200 9.53400E-05-2.75084E-05-2.90758E-05-2.66056E-06 1.12309E-19-8.33865E-19
 -1      3201 9.49299E-05-2.72454E-05-2.90065E-05-2.55321E-06 4.24164E-19-6.69166E-19
 -1      3202 9.54506E-05-2.71845E-05-2.92490E-05-3.81817E-06-1.24663E-19-1.20872E-18
 -1      3203 9.53483E-05-2.72734E-05-2.91811E-05-3.39822E-06 2.19105E-19-9.47882E-19
 -1      3204 9.47977E-05-2.69318E-05-2.90835E-05-3.25934E-06 1.04750E-19-7.28367E-19
 -1      3205 9.54839E-05-2.69617E-05-2.93580E-05-4.76139E-06 1.08037E-19-1.05202E-18
 -1      3206 9.53565E-05-2.70344E-05-2.92880E-05-4.27477E-06 3.35180E-20-1.01518E-18
 -1      3207 9.46296E-05-2.65980E-05-2.91538E-05-4.10138E-06 1.20778E-19-1.07127E-18
 -1      3208 9.55419E-05-2.67967E-05-2.94528E-05-5.83328E-06-7.55113E-19-3.57127E-19
 -1      3209 9.53762E-05-2.68255E-05-2.93865E-05-5.28912E-06-3.04347E-19-3.35643E-19
 -1      3210 9.44294E-05-2.62749E-05-2.92058E-05-5.08245E-06-5.45729E-19 2.11420E-19
 -1      3211 9.56681E-05-2.67750E-05-2.95153E-05-7.00710E-06-1.10304E-18 1.94811E-19
 -1      3212 9.54373E-05-2.67109E-05-2.94616E-05-6.42700E-06-1.36578E-18-4.66224E-19
 -1      3213 9.42170E-05-2.60229E-05-2.92227E-05-6.19793E-06-1.12891E-18 8.38577E-20
 -1      3214 9.59539E-05-2.70426E-05-2.95219E-05-8.22965E-06-1.43310E-18 8.56753E-19
 -1      3215 9.56063E-05-2.68041E-05-2.94923E-05-7.65410E-06-5.78809E-19 6.87319E-19
 -1      3216 9.40450E-05-2.59495E-05-2.91818E-05-7.43308E-06-1.41645E-18-3.82991E-19
 -1      3217 9.65744E-05-2.78344E-05-2.94467E-05-9.40822E-06-1.21981E-18-1.28692E-19
 -1      3218 9.60156E-05-2.72930E-05-2.94534E-05-8.90592E-06-9.85444E-19 5.70159E-19
 -1      3219 9.40269E-05-2.62355E-05-2.90560E-05-8.76014E-06-9.83885E-19-2.80530E-19
 -1      3220 9.78361E-05-2.94999E-05-2.92712E-05-1.03871E-05-1.01314E-18-1.47704E-18
 -1      3221 9.69088E-05-2.84703E-05-2.93213E-05-1.00699E-05-1.67611E-18-1.31734E-18
 -1      3222 9.43805E-05-2.71682E-05-2.88184E-05-1.01319E-05-7.24570E-19-3.64898E-19
 -1      3223 1.00225E-04-3.24992E-05-2.90072E-05-1.08956E-05 7.50273E-19-1.17072E-18
 -1      3224 9.86977E-05-3.07524E-05-2.90897E-05-1.09460E-05-1.11288E-19-1.34055E-18
 -1      3225 9.54931E-05-2.91739E-05-2.84559E-05-1.14595E-05-6.74058E-19-2.47393E-18
 -1      3226 1.04400E-04-3.72880E-05-2.87448E-05-1.04424E-05 1.30500E-18-1.62948E-18
 -1      3227 1.02001E-04-3.46415E-05-2.88040E-05-1.11614E-05 1.21294E-18-1.25617E-18
 -1      3228 9.79886E-05-3.28060E-05-2.79994E-05-1.25351E-05 8.94504E-19-2.73165E-18
 -1      3229 1.11036E-04-4.39185E-05-2.87451E-05-8.12996E-06 1.24378E-18-1.86268E-18
 -1      3230 1.07586E-04-4.05149E-05-2.86335E-05-1.00082E-05 9.30567E-19-1.90782E-18
 -1      3231 1.02753E-04-3.86219E-05-2.75896E-05-1.28727E-05 1.58164E-18-2.19978E-18
 -1      3232 1.28866E-04-5.47543E-05-3.19017E-05 6.89621E-06 6.20412E-19 1.81657E-18
 -1      3233 1.25986E-04-5.40750E-05-3.05558E-05 1.86300E-06-6.63910E-19 1.17456E-18
 -1      3234 1.22798E-04-3.18227E-05-3.92422E-05 2.45256E-05 2.31039E-18 4.88217E-18
 -1      3235 9.46694E-05-4.83980E-05-2.00658E-05 3.27293E-05-3.51783E-19-6.75350E-19
 -1      3236 7.73585E-05-3.68898E-05-1.68954E-05 3.21592E-05-1.20702E-19-1.07912E-18
 -1      3237 5.10435E-05-6.57856E-06-1.85446E-05 6.50209E-06 5.66486E-19 3.12979E-19
 -1      3238 9.23674E-05-1.83395E-05-3.17413E-05 1.81070E-06 8.23795E-19-1.54287E-18
 -1      3239 9.22466E-05-1.81358E-05-3.17733E-05 1.05815E-06 6.50470E-19-1.72866E-18
 -1      3240 6.02007E-05-1.94240E-05-1.72364E-05-3.53083E-05-4.25422E-19-4.75524E-18
 -1      3241 4.90545E-05-1.17880E-05-1.50498E-05-2.12087E-05-1.05649E-18-5.79159E-18
 -1      3242 5.27573E-05-7.80853E-06-1.87928E-05-1.12697E-05 3.99905E-19-2.61352E-18
 -1      3243 1.15020E-04-5.05928E-05-2.74920E-05-4.03722E-05 2.04135E-19-3.30237E-18
 -1      3244 1.35705E-04-5.69751E-05-3.43051E-05-6.02780E-06 2.64252E-18-1.32317E-18
 -1      3245 1.32058E-04-6.06390E-05-3.02355E-05 5.19916E-06 1.67773E-18-1.36206E-18
 -1      3246 9.52734E-05-2.85718E-05-2.85868E-05-1.07865E-06-1.97105E-19-4.91737E-19
 -1      3247 9.52847E-05-2.84675E-05-2.86303E-05-1.00850E-06 7.35134E-20-5.42754E-19
 -1      3248 9.55835E-05-2.86830E-05-2.86750E-05-1.04398E-06-2.01139E-19-5.72312E-19
 -1      3249 1.27312E-04-5.00828E-05-3.31534E-05 6.83853E-06 1.88614E-18-9.29645E-19
 -1      3250 9.52133E-05-2.88048E-05-2.84597E-05-9.72284E-07 3.94035E-19-1.50153E-19
 -1      3251 9.51964E-05-2.87891E-05-2.84598E-05-1.02682E-06 2.62699E-19-9.76885E-21
 -1      3252 9.54237E-05-2.89048E-05-2.85096E-05-9.39575E-07 3.55299E-19-6.36634E-21
 -1      3253 9.49299E-05-2.34820E-05-3.06176E-05-4.11532E-06-5.81004E-19-1.30119E-18
 -1      3254 9.51618E-05-2.45924E-05-3.02597E-05-2.97211E-06-4.85490E-19-1.19121E-18
 -1      3255 9.52232E-05-2.87778E-05-2.84758E-05-1.07090E-06 3.34715E-20-8.08370E-20
 -1      3256 9.52111E-05-2.87428E-05-2.84848E-05-1.10519E-06 2.18504E-19-4.11436E-19
 -1      3257 9.55238E-05-2.88231E-05-2.85886E-05-1.08204E-06 1.11154E-19-6.77169E-19
 -1      3258 9.54699E-05-2.88886E-05-2.85368E-05-1.03428E-06 9.64964E-20-4.12697E-19
 -1      3259 9.53177E-05-2.83389E-05-2.87070E-05-8.89993E-07 2.62699E-19-4.55846E-19
 -1      3260 9.53492E-05-2.81735E-05-2.87807E-05-7.16365E-07 3.63856E-19-6.02884E-19
 -1      3261 9.56435E-05-2.84309E-05-2.88096E-05-8.66008E-07 1.71933E-19-6.58171E-19
 -1      3262 1.01037E-04-5.17997E-05-2.05767E-05-2.88498E-05-8.45021E-19 1.58819E-22
 -1      3263 1.14168E-04-5.81515E-05-2.44144E-05-2.17203E-05-8.86261E-19 2.59351E-19
 -1      3264 1.34961E-04-5.85784E-05-3.30889E-05 1.70636E-05 2.45335E-18-7.43616E-19
 -1      3265 9.54944E-05-2.55638E-05-2.99553E-05-2.13821E-06-4.36952E-19-9.04872E-19
 -1      3266 9.55349E-05-2.62659E-05-2.96990E-05-1.32852E-06-4.38459E-19-9.15618E-19
 -1      3267 9.57073E-05-2.62033E-05-2.97890E-05-1.16799E-06-3.31732E-19-7.68153E-19
 -1      3268 1.23425E-04-6.16794E-05-2.68982E-05 1.80254E-05 6.90120E-19-1.48068E-18
 -1      3269 1.11503E-04-5.62669E-05-2.32011E-05 2.59235E-05-9.12149E-20-9.48776E-19
 -1      3270 1.23859E-04-2.02131E-05-4.49690E-05-1.95161E-05 1.57019E-18-6.08646E-19
 -1      3271 1.28286E-04-2.81863E-05-4.30817E-05-2.19434E-05 2.07290E-18-6.34110E-19
 -1      3272 6.26429E-05-2.76451E-05-1.49347E-05 2.81947E-05-3.85929E-19-1.06091E-18
 -1      3273 5.31822E-05-2.07595E-05-1.35064E-05 1.98546E-05-3.81165E-19-7.86682E-20
 -1      3274 7.47033E-05-3.65382E-05-1.57088E-05-3.10131E-05-1.81530E-19 1.82536E-19
 -1      3275 8.80921E-05-4.53364E-05-1.83248E-05-3.20421E-05-8.48145E-19-5.90170E-19
 -1      3276 9.59772E-05-4.58632E-05-2.11427E-05-2.63256E-05-4.58774E-19-4.99458E-19
 -1      3277 9.52135E-05-2.42774E-05-3.04027E-05 4.26964E-06 1.25241E-18-3.28758E-19
 -1      3278 9.46394E-05-2.27341E-05-3.08062E-05 4.77159E-06 1.29178E-18-3.54039E-19
 -1      3279 9.49162E-05-2.35912E-05-3.05683E-05 3.67158E-06 1.04774E-18-2.84505E-19
 -1      3280 9.52400E-05-2.52027E-05-3.00298E-05 2.99923E-06 1.05017E-18-3.72751E-19
 -1      3281 1.31868E-04-3.79793E-05-4.08390E-05-2.03551E-05 2.25438E-18-2.75180E-19
 -1      3282 1.35389E-04-4.72347E-05-3.76441E-05-1.62368E-05 2.69404E-18-4.01705E-19
 -1      3283 9.40523E-05-2.13142E-05-3.11976E-05-5.27125E-06-5.32952E-19-1.68263E-18
 -1      3284 9.45057E-05-2.24334E-05-3.08885E-05-4.61661E-06-5.84490E-19-1.51950E-18
 -1      3285 9.34333E-05-2.00828E-05-3.14266E-05-4.87929E-06-4.24267E-19-1.73551E-18
 -1      3286 1.40060E-04-5.50325E-05-3.61723E-05-8.40455E-06 1.14048E-18-1.89285E-18
 -1      3287 1.37832E-04-4.85167E-05-3.87310E-05-6.87802E-07 1.13492E-18-3.96867E-18
 -1      3288 9.21856E-05-1.80340E-05-3.17917E-05 4.06931E-07 5.78381E-19-1.81168E-18
 -1      3289 9.21814E-05-1.80216E-05-3.17922E-05-3.54567E-07 4.54275E-19-1.78881E-18
 -1      3290 9.31402E-05-1.96210E-05-3.14906E-05 6.27433E-07 5.93380E-19-1.63055E-18
 -1      3291 9.43440E-05-2.19775E-05-3.09891E-05 3.63579E-06 1.04636E-18-7.73068E-19
 -1      3292 9.34278E-05-2.02090E-05-3.14041E-05 4.24251E-06 1.18559E-18-9.41888E-19
 -1      3293 9.30702E-05-1.95515E-05-3.15175E-05 3.65597E-06 1.05475E-18-1.01296E-18
 -1      3294 1.31184E-04-4.60929E-05-3.65238E-05 6.58793E-07 9.32517E-19-3.54328E-18
 -1      3295 1.35606E-04-4.44038E-05-3.92580E-05 3.50486E-06 7.30037E-19-4.01515E-18
 -1      3296 1.30244E-04-3.82263E-05-3.96638E-05 6.64190E-06 9.18501E-19-4.00361E-18
 -1      3297 1.31424E-04-5.07485E-05-3.47026E-05-1.15977E-05 2.22262E-18-8.41183E-19
 -1      3298 1.18684E-04-5.62341E-05-2.66527E-05-1.31902E-05-1.00066E-18 1.03588E-18
 -1      3299 9.26731E-05-1.87821E-05-3.16685E-05-3.73698E-06-1.75996E-19-1.52955E-18
 -1      3300 9.30122E-05-1.94195E-05-3.15617E-05-4.35101E-06-3.15901E-19-1.66808E-18
 -1      3301 9.36514E-05-2.05982E-05-3.13029E-05-4.00850E-06-2.23021E-19-1.63540E-18
 -1      3302 1.21306E-04-1.18434E-05-4.73443E-05-3.13400E-06 2.94238E-19-2.52264E-18
 -1      3303 9.56925E-05-2.73386E-05-2.92999E-05 2.22207E-07 7.74142E-19-5.94273E-19
 -1      3304 9.54135E-05-2.73491E-05-2.91775E-05 2.70651E-07 6.36658E-19-2.73613E-19
 -1      3305 9.54737E-05-2.69398E-05-2.93564E-05 8.29399E-07 7.58432E-19-3.08560E-19
 -1      3306 1.17540E-04-1.76358E-05-4.31992E-05-1.68636E-05 1.36055E-18-7.82976E-20
 -1      3307 1.24188E-04-4.18041E-05-3.54757E-05-1.87209E-05 1.90725E-18-2.60566E-18
 -1      3308 1.22023E-04-3.54062E-05-3.71454E-05-2.04444E-05 2.19969E-18-2.10137E-18
 -1      3309 1.20858E-04-3.65651E-05-3.62477E-05 6.22556E-06 7.52006E-19-3.21310E-20
 -1      3310 1.20647E-04-3.98615E-05-3.48879E-05 4.17644E-06-3.87948E-19-1.49548E-19
 -1      3311 4.61446E-05-1.71972E-05-1.18530E-05-9.98978E-06 1.12179E-19-2.86795E-18
 -1      3312 5.26235E-05-1.92830E-05-1.42555E-05-1.44204E-05 3.61498E-19-2.61426E-18
 -1      3313 4.92561E-05-1.57286E-05-1.40996E-05-3.15090E-06-5.56501E-19-2.41658E-18
 -1      3314 9.52380E-05-2.44659E-05-3.03265E-05-2.62565E-06-3.16908E-19-1.09345E-18
 -1      3315 1.20815E-04-5.46974E-05-2.86009E-05-6.82365E-06-1.55735E-18 2.11599E-19
 -1      3316 1.18960E-04-5.08255E-05-2.92701E-05-3.71559E-06-4.40695E-19-8.44168E-19
 -1      3317 1.14954E-04-4.73627E-05-2.87846E-05-6.98525E-06 5.55978E-19-1.04634E-18
 -1      3318 1.11190E-04-5.10043E-05-2.54572E-05-1.71577E-05-1.00245E-18 1.06821E-18
 -1      3319 1.09800E-04-4.62608E-05-2.74327E-05-1.20306E-05-3.58434E-20-1.41768E-18
 -1      3320 1.34388E-04-5.48789E-05-3.41030E-05 1.29982E-05 1.46260E-18 3.33096E-18
 -1      3321 1.31594E-04-3.83209E-05-4.04678E-05 2.47502E-05 1.55796E-18 5.26357E-18
 -1      3322 1.34461E-04-4.93850E-05-3.65981E-05 1.77629E-05 6.30193E-19 4.15152E-18
 -1      3323 1.03624E-04-4.99943E-05-2.26985E-05 2.55544E-05 6.20928E-19-6.50700E-19
 -1      3324 9.23812E-05-1.83230E-05-3.17537E-05-3.10596E-06 9.22467E-21-1.48246E-18
 -1      3325 9.30321E-05-1.94599E-05-3.15263E-05-2.95745E-06-8.26988E-20-1.42721E-18
 -1      3326 9.21584E-05-1.79396E-05-3.18162E-05-2.38563E-06 2.09115E-19-1.36412E-18
 -1      3327 1.20610E-04-4.37597E-05-3.30416E-05-3.49443E-06-1.22633E-18-9.04730E-19
 -1      3328 1.29003E-04-2.39890E-05-4.52943E-05 7.70425E-06 5.44325E-19-4.54195E-18
 -1      3329 9.25375E-05-1.86318E-05-3.16853E-05 2.42070E-06 8.91591E-19-1.30134E-18
 -1      3330 9.33540E-05-2.00037E-05-3.14144E-05 1.80602E-06 8.15193E-19-1.36538E-18
 -1      3331 9.27789E-05-1.90519E-05-3.16181E-05 3.11431E-06 1.01039E-18-1.05959E-18
 -1      3332 6.89352E-05-3.09996E-05-1.59458E-05-2.65361E-05 3.31508E-19-1.83806E-19
 -1      3333 7.49600E-05-3.22117E-05-1.79619E-05 2.72558E-05-2.07100E-19-1.36798E-18
 -1      3334 1.29912E-04-5.05591E-05-3.42910E-05-8.48498E-06-3.28596E-19-2.37042E-18
 -1      3335 1.31550E-04-5.42618E-05-3.32620E-05-1.73417E-05 6.37922E-19-2.74767E-18
 -1      3336 5.13909E-05-1.80491E-05-1.38522E-05 1.46354E-05-5.57414E-19 7.78900E-19
 -1      3337 5.11925E-05-1.63459E-05-1.47240E-05 7.48756E-06-6.82761E-19-3.65442E-19
 -1      3338 5.95458E-05-2.04259E-05-1.65654E-05 1.65874E-05-4.07357E-19-3.90800E-19
 -1      3339 1.26590E-04-5.66075E-05-2.95043E-05-3.46379E-05 6.96155E-20-2.87385E-18
 -1      3340 9.56898E-05-2.80107E-05-2.90101E-05-4.74914E-07 4.36649E-19-7.08040E-19
 -1      3341 9.53856E-05-2.65021E-05-2.95312E-05 1.36706E-06 7.89355E-19-4.03799E-19
 -1      3342 9.54269E-05-2.58826E-05-2.97911E-05 2.22973E-06 8.30098E-19-3.77362E-19
 -1      3343 9.53411E-05-2.51623E-05-3.00725E-05 2.60700E-06 8.68096E-19-3.72332E-19
 -1      3344 9.55827E-05-2.63986E-05-2.96529E-05 1.23743E-06 7.56984E-19-5.94551E-19
 -1      3345 1.25329E-04-5.84392E-05-2.86736E-05 8.76989E-06 1.26499E-18-7.96409E-19
 -1      3346 1.30153E-04-4.83452E-05-3.51795E-05-1.75040E-06 2.52834E-18 8.38457E-19
 -1      3347 1.30707E-04-4.40455E-05-3.73728E-05-5.41356E-06 4.39028E-19 2.20641E-18
 -1      3348 9.44735E-05-2.23393E-05-3.09025E-05-4.00562E-06-3.42193E-19-1.56837E-18
 -1      3349 1.26093E-04-3.37248E-05-3.97737E-05-2.11151E-05 2.79362E-18-6.46313E-19
 -1      3350 1.34160E-04-3.99273E-05-4.05197E-05-8.92032E-06-6.93826E-19 2.89574E-18
 -1      3351 1.32376E-04-5.28611E-05-3.40657E-05 7.87303E-06 2.57134E-18-2.89042E-18
 -1      3352 1.24287E-04-4.33159E-05-3.45603E-05 1.54591E-06 9.00899E-20-1.14701E-18
 -1      3353 1.34264E-04-5.85844E-05-3.28054E-05-2.42827E-05 6.79638E-19-2.19074E-18
 -1      3354 1.28760E-04-3.04010E-05-4.26382E-05-9.37527E-06-1.22047E-18 4.31431E-18
 -1      3355 1.28421E-04-4.73941E-05-3.49220E-05-1.47461E-05 1.81843E-18-2.07771E-18
 -1      3356 9.61654E-05-2.78298E-05-2.92791E-05 2.45256E-07-4.65718E-19-6.83005E-19
 -1      3357 9.61610E-05-2.81494E-05-2.91524E-05 4.96672E-07-5.77688E-19-8.00518E-19
 -1      3358 9.61703E-05-2.84133E-05-2.90330E-05 6.57107E-07-5.97653E-19-7.62065E-19
 -1      3359 9.61406E-05-2.86121E-05-2.89431E-05 7.91036E-07-3.94396E-19-6.14522E-19
 -1      3360 9.63605E-05-2.82229E-05-2.92034E-05 4.73168E-07-5.10505E-19-7.86634E-19
 -1      3361 9.61080E-05-2.87672E-05-2.88563E-05 8.66065E-07-1.92101E-19-4.45616E-19
 -1      3362 9.60679E-05-2.88828E-05-2.87944E-05 9.19192E-07-5.19986E-20-4.15577E-19
 -1      3363 9.63391E-05-2.86972E-05-2.89915E-05 7.27602E-07-2.33019E-19-3.12711E-19
 -1      3364 9.60136E-05-2.89638E-05-2.87330E-05 9.36409E-07-4.96419E-20-6.41939E-19
 -1      3365 9.59711E-05-2.90228E-05-2.86920E-05 9.37335E-07-1.00711E-19-3.03321E-19
 -1      3366 9.62546E-05-2.89711E-05-2.88380E-05 8.36583E-07-4.12891E-20-5.63495E-19
 -1      3367 9.59076E-05-2.90540E-05-2.86500E-05 9.18406E-07-9.75681E-20-2.30531E-19
 -1      3368 9.58669E-05-2.90748E-05-2.86244E-05 8.88399E-07-6.75897E-20-1.26533E-19
 -1      3369 9.61393E-05-2.91072E-05-2.87302E-05 8.49126E-07-6.20062E-20-3.76538E-19
 -1      3370 9.58020E-05-2.90734E-05-2.85972E-05 8.49486E-07-2.28120E-19 8.48880E-21
 -1      3371 9.57650E-05-2.90690E-05-2.85829E-05 8.03905E-07-1.02160E-19-4.94927E-20
 -1      3372 9.60133E-05-2.91508E-05-2.86573E-05 8.03121E-07-1.47542E-19-4.31349E-19
 -1      3373 9.57030E-05-2.90468E-05-2.85668E-05 7.56673E-07-1.65240E-19-2.07914E-19
 -1      3374 9.56704E-05-2.90259E-05-2.85606E-05 7.06360E-07-4.63472E-20-4.11845E-19
 -1      3375 9.58884E-05-2.91334E-05-2.86110E-05 7.26648E-07-1.42661E-19-6.46452E-19
 -1      3376 9.56134E-05-2.89905E-05-2.85528E-05 6.58999E-07 8.24314E-21-4.54161E-19
 -1      3377 9.55851E-05-2.89589E-05-2.85527E-05 6.11539E-07 5.50623E-20-2.27641E-19
 -1      3378 9.57710E-05-2.90767E-05-2.85847E-05 6.39841E-07-1.75984E-20-7.05100E-19
 -1      3379 9.55333E-05-2.89151E-05-2.85511E-05 5.69824E-07 4.35201E-20-1.42451E-19
 -1      3380 9.55087E-05-2.88761E-05-2.85555E-05 5.30621E-07-6.44337E-20-2.38722E-19
 -1      3381 9.56636E-05-2.89947E-05-2.85735E-05 5.56916E-07 1.50457E-19-5.07073E-19
 -1      3382 9.54615E-05-2.88262E-05-2.85587E-05 4.98749E-07-2.95305E-19-5.89191E-19
 -1      3383 9.54397E-05-2.87814E-05-2.85664E-05 4.71819E-07-3.34169E-19-4.61746E-19
 -1      3384 9.55656E-05-2.88955E-05-2.85738E-05 4.88121E-07-3.41216E-19-8.32284E-19
 -1      3385 9.53953E-05-2.87262E-05-2.85734E-05 4.53031E-07-5.63430E-19-4.34907E-19
 -1      3386 9.53751E-05-2.86757E-05-2.85840E-05 4.41653E-07-8.16858E-19-7.24532E-19
 -1      3387 9.54748E-05-2.87827E-05-2.85830E-05 4.41085E-07-3.33159E-19-1.39082E-18
 -1      3388 9.53312E-05-2.86144E-05-2.85941E-05 4.38791E-07-8.12315E-19-6.60158E-19
 -1      3389 9.53112E-05-2.85575E-05-2.86072E-05 4.46009E-07-6.00462E-19-6.40897E-19
 -1      3390 9.53872E-05-2.86566E-05-2.85992E-05 4.22020E-07-7.56616E-19-8.96675E-19
 -1      3391 9.52649E-05-2.84885E-05-2.86199E-05 4.61915E-07-3.34211E-19-5.12011E-19
 -1      3392 9.52434E-05-2.84236E-05-2.86355E-05 4.90883E-07-3.35456E-20-4.81721E-19
 -1      3393 9.52977E-05-2.85149E-05-2.86213E-05 4.36690E-07-5.71437E-19-6.06066E-19
 -1      3394 9.51913E-05-2.83444E-05-2.86504E-05 5.28668E-07-4.08651E-19-2.61193E-19
 -1      3395 9.51666E-05-2.82695E-05-2.86684E-05 5.82885E-07-3.21612E-19-4.48662E-19
 -1      3396 9.52001E-05-2.83535E-05-2.86483E-05 4.91038E-07-1.44101E-19-4.06990E-19
 -1      3397 9.51049E-05-2.81775E-05-2.86854E-05 6.46121E-07-1.93856E-19-7.10605E-19
 -1      3398 9.50751E-05-2.80904E-05-2.87057E-05 7.29558E-07-1.79083E-19-3.14427E-19
 -1      3399 9.50871E-05-2.81669E-05-2.86795E-05 5.91652E-07-3.71776E-19-5.53987E-19
 -1      3400 9.49995E-05-2.79828E-05-2.87241E-05 8.22381E-07-1.64726E-19-2.80553E-19
 -1      3401 9.49625E-05-2.78817E-05-2.87467E-05 9.39476E-07-7.57294E-21-4.70282E-19
 -1      3402 9.49508E-05-2.79495E-05-2.87139E-05 7.46064E-07-1.60948E-19-9.79910E-19
 -1      3403 9.48687E-05-2.77560E-05-2.87659E-05 1.06659E-06-3.15579E-19-6.38370E-19
 -1      3404 9.48228E-05-2.76399E-05-2.87901E-05 1.22211E-06-8.62504E-19-7.75715E-19
 -1      3405 9.47825E-05-2.76957E-05-2.87501E-05 9.62851E-07-3.85935E-19-9.47265E-19
 -1      3406 9.47064E-05-2.74951E-05-2.88088E-05 1.38868E-06-1.49473E-18-1.15018E-18
 -1      3407 9.46504E-05-2.73646E-05-2.88339E-05 1.58745E-06-1.90287E-18-1.48562E-18
 -1      3408 9.45737E-05-2.74021E-05-2.87859E-05 1.25155E-06-1.47255E-18-1.44651E-18
 -1      3409 9.45078E-05-2.72016E-05-2.88502E-05 1.79890E-06-1.50357E-18-9.18824E-19
 -1      3410 9.44417E-05-2.70603E-05-2.88744E-05 2.04529E-06-9.47369E-19-7.43765E-19
 -1      3411 9.43163E-05-2.70683E-05-2.88181E-05 1.62241E-06-1.20026E-18-1.37474E-18
 -1      3412 9.42709E-05-2.68837E-05-2.88857E-05 2.30706E-06-8.11271E-19-8.88208E-19
 -1      3413 9.41971E-05-2.67396E-05-2.89065E-05 2.60436E-06-2.64480E-19-1.18479E-18
 -1      3414 9.40046E-05-2.67002E-05-2.88418E-05 2.08599E-06-9.64063E-19-7.73584E-19
 -1      3415 9.39992E-05-2.65597E-05-2.89088E-05 2.92155E-06 1.84189E-19-1.55022E-18
 -1      3416 9.39244E-05-2.64279E-05-2.89226E-05 3.27112E-06 2.49172E-20-1.87918E-18
 -1      3417 9.36376E-05-2.63133E-05-2.88498E-05 2.65270E-06-5.63622E-20-1.30918E-18
 -1      3418 9.37063E-05-2.62635E-05-2.89107E-05 3.64825E-06 8.67831E-20-1.87711E-18
 -1      3419 9.36444E-05-2.61692E-05-2.89126E-05 4.04851E-06 3.85397E-19-1.89245E-18
 -1      3420 9.32225E-05-2.59374E-05-2.88328E-05 3.33251E-06 1.80004E-19-1.47679E-18
 -1      3421 9.34222E-05-2.60513E-05-2.88799E-05 4.48935E-06 6.17596E-19-1.72470E-18
 -1      3422 9.33990E-05-2.60345E-05-2.88637E-05 4.93468E-06 6.80129E-19-1.40263E-18
 -1      3423 9.27809E-05-2.56236E-05-2.87784E-05 4.13500E-06 6.28115E-19-2.12868E-18
 -1      3424 9.32036E-05-2.60114E-05-2.88026E-05 5.44229E-06-1.36813E-19-1.75117E-18
 -1      3425 9.32636E-05-2.61324E-05-2.87616E-05 5.92152E-06-4.25323E-19-1.85048E-18
 -1      3426 9.23576E-05-2.54526E-05-2.86716E-05 5.07008E-06 3.64432E-19-1.91553E-18
 -1      3427 9.31490E-05-2.62756E-05-2.86638E-05 6.49802E-06-6.17064E-19-1.64562E-18
 -1      3428 9.33647E-05-2.66208E-05-2.85921E-05 6.99195E-06-4.37342E-19-1.47328E-18
 -1      3429 9.20338E-05-2.55464E-05-2.84957E-05 6.14918E-06-4.55172E-19-2.03623E-18
 -1      3430 9.34200E-05-2.70317E-05-2.84514E-05 7.63682E-06-7.24585E-19-1.86194E-18
 -1      3431 9.39032E-05-2.77197E-05-2.83470E-05 8.11291E-06-9.34193E-19-2.08649E-18
 -1      3432 9.19466E-05-2.60816E-05-2.82351E-05 7.38566E-06-1.05635E-18-1.89890E-18
 -1      3433 9.42701E-05-2.85347E-05-2.81629E-05 8.81598E-06 3.83869E-19-1.93865E-18
 -1      3434 9.51835E-05-2.97165E-05-2.80338E-05 9.21561E-06 1.06696E-18-9.36930E-19
 -1      3435 9.23173E-05-2.73053E-05-2.78809E-05 8.79003E-06 3.30881E-20-1.59534E-18
 -1      3436 9.60796E-05-3.11069E-05-2.78195E-05 9.93523E-06 8.47798E-19-1.16657E-18
 -1      3437 9.76391E-05-3.29506E-05-2.76945E-05 1.01441E-05 7.25250E-19-1.03569E-18
 -1      3438 9.34923E-05-2.95486E-05-2.74426E-05 1.03471E-05 9.49875E-19-1.43761E-18
 -1      3439 9.93869E-05-3.51032E-05-2.74931E-05 1.07550E-05 6.14285E-19-9.79473E-19
 -1      3440 1.01818E-04-3.77370E-05-2.74413E-05 1.05522E-05 4.11234E-19-6.48249E-19
 -1      3441 9.59913E-05-3.32248E-05-2.69705E-05 1.19536E-05 9.58309E-19-1.85083E-18
 -1      3442 1.04862E-04-4.07621E-05-2.73639E-05 1.06570E-05-4.09115E-19-4.41635E-19
 -1      3443 1.08229E-04-4.40112E-05-2.75242E-05 9.63115E-06-6.82292E-19-8.45484E-19
 -1      3444 1.00610E-04-3.88111E-05-2.66079E-05 1.32268E-05 1.87466E-19-1.26845E-18
 -1      3445 1.12920E-04-4.77477E-05-2.77886E-05 8.58115E-06-4.17521E-19-5.72435E-19
 -1      3446 1.16836E-04-5.09192E-05-2.82836E-05 6.26678E-06 1.54703E-19-1.24524E-18
 -1      3447 1.08078E-04-4.60437E-05-2.67055E-05 1.30455E-05-5.46306E-19-9.31243E-19
 -1      3448 9.58561E-05-2.87936E-05-2.87419E-05-9.84355E-07-1.88495E-19-6.62319E-19
 -1      3449 9.58890E-05-2.86803E-05-2.87992E-05-9.25355E-07-2.83443E-19-7.13156E-19
 -1      3450 9.54880E-05-2.89136E-05-2.85305E-05-6.57973E-07-9.75025E-20 5.52351E-19
 -1      3451 9.55029E-05-2.89376E-05-2.85283E-05-7.10351E-07-1.79415E-19 4.21853E-19
 -1      3452 9.59207E-05-2.85311E-05-2.88836E-05-8.36795E-07-7.21836E-20-6.90544E-19
 -1      3453 9.59513E-05-2.83404E-05-2.89694E-05-6.89114E-07 2.09177E-19-6.16198E-19
 -1      3454 9.61546E-05-2.86176E-05-2.89470E-05-7.84817E-07-1.78347E-19-7.26931E-19
 -1      3455 1.01004E-04-4.65934E-05-2.35672E-05-2.25327E-05-9.17998E-19 1.45253E-18
 -1      3456 1.06661E-04-4.62393E-05-2.57313E-05-1.61263E-05-1.13224E-18 1.21263E-18
 -1      3457 1.02502E-04-4.20031E-05-2.57984E-05-1.65409E-05-2.67164E-19 4.82157E-19
 -1      3458 9.55492E-05-2.89665E-05-2.85342E-05-7.62682E-07 8.16545E-21 4.68757E-19
 -1      3459 9.55677E-05-2.89803E-05-2.85373E-05-8.17500E-07 3.36483E-19 2.44889E-19
 -1      3460 9.56724E-05-2.90287E-05-2.85629E-05-7.06270E-07-9.09648E-20 1.70359E-19
 -1      3461 9.53878E-05-2.87676E-05-2.85501E-05-4.97729E-07 9.05493E-20 8.70413E-19
 -1      3462 9.53976E-05-2.88039E-05-2.85410E-05-5.29680E-07 1.05695E-19 6.15643E-19
 -1      3463 9.53455E-05-2.86796E-05-2.85696E-05-4.57793E-07-4.93047E-20 1.03958E-18
 -1      3464 9.53538E-05-2.87208E-05-2.85580E-05-4.74081E-07 2.20031E-19 1.21310E-18
 -1      3465 9.54384E-05-2.87792E-05-2.85688E-05-4.75165E-07 4.14056E-20 8.39401E-19
 -1      3466 9.53049E-05-2.85807E-05-2.85945E-05-4.53018E-07-3.69367E-19 7.67249E-19
 -1      3467 9.53126E-05-2.86276E-05-2.85805E-05-4.50523E-07-2.50079E-19 7.58180E-19
 -1      3468 9.53721E-05-2.86707E-05-2.85867E-05-4.46752E-07 8.21284E-21 9.24996E-19
 -1      3469 9.52629E-05-2.84682E-05-2.86246E-05-4.89588E-07-3.02410E-19 9.47538E-20
 -1      3470 9.52709E-05-2.85220E-05-2.86081E-05-4.65072E-07-2.76690E-19 3.65616E-19
 -1      3471 9.53056E-05-2.85484E-05-2.86104E-05-4.53445E-07-2.13075E-19 3.20935E-19
 -1      3472 9.52154E-05-2.83375E-05-2.86600E-05-5.74385E-07-5.78485E-19 7.75877E-19
 -1      3473 9.52248E-05-2.84004E-05-2.86407E-05-5.24171E-07-4.62194E-19 5.17328E-19
 -1      3474 9.52338E-05-2.84084E-05-2.86394E-05-5.01416E-07-5.64769E-19 6.96800E-19
 -1      3475 9.51576E-05-2.81834E-05-2.87011E-05-7.15423E-07-8.10158E-19 8.11993E-19
 -1      3476 9.51697E-05-2.82577E-05-2.86786E-05-6.35213E-07-5.57358E-19 5.82400E-19
 -1      3477 9.51504E-05-2.82451E-05-2.86734E-05-5.97544E-07-6.77581E-19 5.84127E-19
 -1      3478 9.50837E-05-2.79995E-05-2.87479E-05-9.22038E-07-6.72802E-19 8.68817E-19
 -1      3479 9.51002E-05-2.80881E-05-2.87221E-05-8.06837E-07-5.70897E-19 4.09718E-19
 -1      3480 9.50480E-05-2.80518E-05-2.87120E-05-7.49723E-07-4.98087E-19 1.21025E-19
 -1      3481 9.49868E-05-2.77794E-05-2.88003E-05-1.20487E-06-6.56472E-20 8.33398E-19
 -1      3482 9.50098E-05-2.78850E-05-2.87710E-05-1.04903E-06-4.58583E-19 7.43891E-19
 -1      3483 9.49176E-05-2.78207E-05-2.87547E-05-9.66979E-07-4.63383E-19 4.81635E-19
 -1      3484 9.48584E-05-2.75168E-05-2.88574E-05-1.57558E-06-3.90753E-19 6.05441E-20
 -1      3485 9.48906E-05-2.76419E-05-2.88249E-05-1.37298E-06-1.44413E-19 5.44941E-19
 -1      3486 9.47489E-05-2.75442E-05-2.88004E-05-1.25937E-06-1.16199E-20 2.49921E-20
 -1      3487 9.46889E-05-2.72071E-05-2.89171E-05-2.04628E-06 5.34891E-19-4.75598E-19
 -1      3488 9.47332E-05-2.73531E-05-2.88822E-05-1.79070E-06-7.60913E-20-1.53370E-19
 -1      3489 9.45295E-05-2.72151E-05-2.88466E-05-1.63766E-06 3.02633E-20-7.14250E-19
 -1      3490 9.44676E-05-2.68488E-05-2.89754E-05-2.62866E-06 6.06666E-20-3.21594E-19
 -1      3491 9.45273E-05-2.70151E-05-2.89398E-05-2.31434E-06 4.73045E-19-1.36262E-19
 -1      3492 9.42456E-05-2.68283E-05-2.88898E-05-2.11274E-06 3.60038E-19-7.12415E-19
 -1      3493 9.41838E-05-2.64465E-05-2.90258E-05-3.33284E-06-2.39427E-20 7.06117E-20
 -1      3494 9.42616E-05-2.66291E-05-2.89927E-05-2.95524E-06-2.93590E-20-1.74002E-19
 -1      3495 9.38819E-05-2.63826E-05-2.89237E-05-2.69493E-06-3.04608E-19-6.37325E-20
 -1      3496 9.38297E-05-2.60163E-05-2.90579E-05-4.16616E-06-6.91893E-19 8.94284E-20
 -1      3497 9.39263E-05-2.62045E-05-2.90323E-05-3.72286E-06-2.25779E-19 1.20009E-19
 -1      3498 9.34234E-05-2.58848E-05-2.89392E-05-3.39335E-06-1.14034E-19 2.20054E-19
 -1      3499 9.34057E-05-2.55933E-05-2.90569E-05-5.13232E-06-1.70518E-19-4.13834E-19
 -1      3500 9.35162E-05-2.57655E-05-2.90461E-05-4.62393E-06-3.02376E-19-6.62597E-19
 -1      3501 9.28580E-05-2.53546E-05-2.89226E-05-4.21581E-06 3.53997E-21-5.82452E-19
 -1      3502 9.29307E-05-2.52442E-05-2.90016E-05-6.23161E-06-9.42276E-19-8.46782E-19
 -1      3503 9.30383E-05-2.53608E-05-2.90160E-05-5.66237E-06-4.51778E-19-4.18185E-19
 -1      3504 9.21821E-05-2.48333E-05-2.88548E-05-5.17016E-06-3.30431E-19-1.41737E-18
 -1      3505 9.24599E-05-2.50860E-05-2.88650E-05-7.46303E-06-1.47495E-18-1.40949E-18
 -1      3506 9.25249E-05-2.50789E-05-2.89177E-05-6.84094E-06-1.53481E-18-1.15778E-18
 -1      3507 9.14108E-05-2.43969E-05-2.87104E-05-6.26842E-06-9.00986E-19-1.33477E-18
 -1      3508 9.21154E-05-2.53134E-05-2.86146E-05-8.82838E-06-8.35022E-19-1.04043E-18
 -1      3509 9.20571E-05-2.50708E-05-2.87207E-05-8.16513E-06-1.30171E-18-1.16931E-18
 -1      3510 9.05956E-05-2.41756E-05-2.84566E-05-7.53519E-06-1.30466E-18-1.25734E-18
 -1      3511 9.21341E-05-2.62337E-05-2.82187E-05-1.03361E-05-6.87732E-19-9.14641E-19
 -1      3512 9.18026E-05-2.55810E-05-2.83910E-05-9.64891E-06-2.03927E-20-3.06339E-19
 -1      3513 8.98546E-05-2.43812E-05-2.80551E-05-9.02128E-06-5.83013E-19-1.74190E-18
 -1      3514 9.29409E-05-2.83056E-05-2.76593E-05-1.19899E-05 6.86804E-20-2.13524E-18
 -1      3515 9.20773E-05-2.69871E-05-2.78992E-05-1.13165E-05-7.39802E-19-1.86944E-18
 -1      3516 8.94214E-05-2.53460E-05-2.74666E-05-1.08202E-05 3.34594E-20-1.46436E-18
 -1      3517 9.52713E-05-3.21745E-05-2.69646E-05-1.37013E-05 7.19664E-19-1.88790E-18
 -1      3518 9.34567E-05-2.98681E-05-2.72403E-05-1.31789E-05 1.16931E-19-2.20568E-18
 -1      3519 8.97325E-05-2.75692E-05-2.66638E-05-1.30947E-05 2.87569E-19-1.55009E-18
 -1      3520 9.97508E-05-3.82202E-05-2.62557E-05-1.51651E-05 4.39491E-19-2.38916E-19
 -1      3521 9.65034E-05-3.46639E-05-2.64603E-05-1.51006E-05 9.18354E-19-1.18501E-18
 -1      3522 9.12575E-05-3.14715E-05-2.56410E-05-1.59085E-05 1.96621E-19-4.69981E-19
 -1      3523 9.49696E-05-3.76910E-05-2.44917E-05-1.92683E-05-9.35693E-19 1.31262E-18
 -1      3524 1.24681E-04-1.39653E-05-4.79506E-05 1.41116E-05 2.13791E-18 5.43916E-18
 -1      3525 6.28541E-05-2.44423E-05-1.58018E-05-2.19176E-05-1.13211E-19 1.66230E-20
 -1      3526 7.62028E-05-3.29741E-05-1.87055E-05-2.59479E-05-2.07311E-19-7.31995E-19
 -1      3527 1.26457E-04-2.18201E-05-4.53042E-05-7.55412E-06-1.98312E-18 3.83404E-18
 -1      3528 9.56704E-05-2.55188E-05-3.00601E-05-1.49752E-06-1.65201E-19-9.79462E-19
 -1      3529 9.58296E-05-2.62613E-05-2.98247E-05-8.75194E-07-2.13145E-19-9.16605E-19
 -1      3530 1.24669E-04-1.60601E-05-4.70280E-05-6.20532E-07-1.72583E-18 4.51749E-18
 -1      3531 9.38397E-05-2.10028E-05-3.12098E-05-3.30529E-06-5.38905E-20-1.43233E-18
 -1      3532 9.41528E-05-2.16874E-05-3.10704E-05-3.72353E-06-1.61880E-19-1.63637E-18
 -1      3533 9.45923E-05-2.26819E-05-3.08188E-05-3.27085E-06-1.70597E-19-1.45079E-18
 -1      3534 9.54346E-05-2.88460E-05-2.85366E-05-5.66734E-07-1.70282E-20 6.67250E-19
 -1      3535 9.54467E-05-2.88769E-05-2.85305E-05-6.10999E-07 9.82345E-20 7.70197E-19
 -1      3536 9.55860E-05-2.89604E-05-2.85549E-05-6.12424E-07-3.26744E-19 2.68438E-19
 -1      3537 9.55087E-05-2.88760E-05-2.85577E-05-5.32592E-07 2.68944E-19 6.58788E-19
 -1      3538 9.20664E-05-1.78214E-05-3.18322E-05-9.71251E-07 3.77878E-19-1.72156E-18
 -1      3539 9.21730E-05-1.79884E-05-3.18030E-05-1.72758E-06 2.29689E-19-1.50699E-18
 -1      3540 9.28168E-05-1.90650E-05-3.15971E-05-1.74104E-06 2.14122E-19-1.39072E-18
 -1      3541 9.29782E-05-1.93334E-05-3.15465E-05-5.47892E-07 3.42173E-19-1.63695E-18
 -1      3542 9.56189E-05-2.89969E-05-2.85511E-05-8.68844E-07 3.90085E-19-2.78279E-20
 -1      3543 9.56413E-05-2.89952E-05-2.85619E-05-9.18009E-07 2.51830E-19-1.86116E-19
 -1      3544 9.57682E-05-2.90728E-05-2.85854E-05-8.02890E-07 2.31578E-19-4.95311E-20
 -1      3545 9.60337E-05-2.69142E-05-2.96138E-05-4.46672E-07-2.41353E-19-8.06286E-19
 -1      3546 9.60826E-05-2.74081E-05-2.94395E-05-3.34220E-08-3.20453E-19-6.69296E-19
 -1      3547 9.62682E-05-2.74607E-05-2.94892E-05 1.44211E-08-3.91440E-19-8.84842E-19
 -1      3548 9.52805E-05-2.45632E-05-3.03029E-05 2.87630E-06 9.76165E-19-3.09021E-19
 -1      3549 9.49905E-05-2.37309E-05-3.05464E-05 3.09128E-06 9.75823E-19-4.33995E-19
 -1      3550 9.54192E-05-2.52927E-05-3.00622E-05 2.06573E-06 8.21663E-19-4.30765E-19
 -1      3551 1.09631E-04-5.18816E-05-2.48804E-05 2.04394E-05 2.74214E-19-1.23716E-18
 -1      3552 9.67061E-05-4.41162E-05-2.22478E-05 2.56529E-05 1.37696E-19-9.68648E-19
 -1      3553 8.32238E-05-3.57079E-05-2.05055E-05 2.65968E-05-2.23908E-19-8.85811E-19
 -1      3554 7.14321E-05-2.69325E-05-1.88635E-05 2.24910E-05-1.00053E-18-1.10990E-18
 -1      3555 1.22063E-04-5.47656E-05-2.89358E-05 5.80576E-06 5.37846E-19-8.67547E-19
 -1      3556 1.15644E-04-5.37649E-05-2.62626E-05 1.56554E-05 6.53671E-20-8.95089E-19
 -1      3557 9.23084E-05-4.06068E-05-2.16630E-05-2.46239E-05-7.32604E-19 2.27640E-21
 -1      3558 9.50403E-05-2.37155E-05-3.05702E-05-2.74152E-06-9.76824E-20-1.34831E-18
 -1      3559 9.53804E-05-2.47741E-05-3.02673E-05-1.91615E-06-6.32977E-20-1.10488E-18
 -1      3560 9.54961E-05-2.48041E-05-3.02905E-05-1.59569E-06-6.45311E-20-1.33508E-18
 -1      3561 9.47864E-05-2.30460E-05-3.07382E-05-2.53146E-06 2.67565E-20-1.33891E-18
 -1      3562 9.59484E-05-2.80879E-05-2.90876E-05-5.03344E-07 4.82087E-19-6.82586E-19
 -1      3563 9.59674E-05-2.77840E-05-2.92120E-05-2.25538E-07 5.20460E-19-6.26162E-19
 -1      3564 9.61801E-05-2.81538E-05-2.91564E-05-4.88622E-07 3.14049E-19-7.23224E-19
 -1      3565 9.47410E-05-2.30846E-05-3.07165E-05 2.86020E-06 9.21763E-19-8.07207E-19
 -1      3566 9.38630E-05-2.10492E-05-3.12175E-05 8.08382E-07 5.54068E-19-1.55746E-18
 -1      3567 9.38163E-05-2.09500E-05-3.12370E-05 2.47393E-07 4.91741E-19-1.71253E-18
 -1      3568 9.58979E-05-2.73755E-05-2.93736E-05 9.91194E-08 6.43710E-19-5.56079E-19
 -1      3569 9.58812E-05-2.69062E-05-2.95494E-05 5.60388E-07 7.99052E-19-6.49120E-19
 -1      3570 9.61028E-05-2.74063E-05-2.94431E-05 4.28465E-08 6.08018E-19-6.40442E-19
 -1      3571 9.37922E-05-2.08028E-05-3.12537E-05 2.85899E-06 9.10365E-19-9.68430E-19
 -1      3572 1.25397E-04-5.42975E-05-3.04521E-05-7.51244E-07 7.82903E-19-1.62131E-18
 -1      3573 1.29015E-04-5.40956E-05-3.20669E-05-6.08246E-06 1.28209E-18-2.15678E-18
 -1      3574 5.29649E-05-1.57592E-05-1.55795E-05 2.54705E-06-6.66198E-19-1.44049E-18
 -1      3575 5.57233E-05-1.62724E-05-1.69304E-05-2.61970E-06-4.21391E-19-2.89230E-18
 -1      3576 5.79478E-05-1.67926E-05-1.75508E-05 6.83614E-06-6.21335E-19 4.84926E-19
 -1      3577 6.15221E-05-2.13497E-05-1.69125E-05-1.56124E-05-1.67990E-19-6.48483E-19
 -1      3578 9.35726E-05-2.05246E-05-3.13187E-05-2.86082E-06-1.41946E-19-1.45401E-18
 -1      3579 9.40891E-05-2.15251E-05-3.10966E-05-2.61855E-06-3.10931E-20-1.41452E-18
 -1      3580 9.33468E-05-2.00840E-05-3.14029E-05-2.29146E-06 9.08943E-20-1.20098E-18
 -1      3581 9.56958E-05-2.89924E-05-2.85864E-05-9.59236E-07 1.45002E-19-4.49528E-19
 -1      3582 9.57225E-05-2.89672E-05-2.86078E-05-9.91117E-07 5.47162E-20-3.41983E-19
 -1      3583 9.58717E-05-2.90795E-05-2.86272E-05-8.86367E-07-1.06147E-20-2.94020E-19
 -1      3584 9.39484E-05-2.12232E-05-3.11765E-05 1.24649E-06 6.47923E-19-1.35116E-18
 -1      3585 9.46124E-05-2.23901E-05-3.09341E-05 8.27060E-07 4.33324E-19-1.33501E-18
 -1      3586 9.40955E-05-2.15257E-05-3.11188E-05 1.77004E-06 7.57625E-19-1.22291E-18
 -1      3587 9.17856E-05-3.84876E-05-2.26525E-05 2.24927E-05-6.80915E-19-1.26893E-18
 -1      3588 9.59875E-05-2.62975E-05-2.98659E-05-7.11746E-07-9.91598E-20-1.12781E-18
 -1      3589 9.57771E-05-2.89340E-05-2.86468E-05-1.00928E-06-4.49600E-20-4.74271E-19
 -1      3590 9.58076E-05-2.88732E-05-2.86833E-05-1.00732E-06-1.38661E-20-6.29135E-19
 -1      3591 9.59781E-05-2.90281E-05-2.86951E-05-9.34107E-07-5.11958E-20-2.44155E-19
 -1      3592 9.60780E-05-2.88886E-05-2.87979E-05-9.14599E-07-2.42104E-19-6.08892E-19
 -1      3593 1.08468E-04-4.86428E-05-2.56773E-05 1.69279E-05-4.15046E-19-1.10221E-18
 -1      3594 8.40523E-05-3.45985E-05-2.11848E-05-2.25813E-05-1.19641E-18 1.37272E-19
 -1      3595 7.62718E-05-2.68818E-05-2.10396E-05 1.93203E-05-1.04559E-18-1.33520E-18
 -1      3596 6.78939E-05-2.37400E-05-1.87295E-05 1.98451E-05-7.10012E-19-1.84170E-18
 -1      3597 6.51104E-05-2.08802E-05-1.88780E-05 1.50186E-05-7.94093E-19-4.51839E-20
 -1      3598 9.45278E-05-2.22070E-05-3.09774E-05 3.52780E-09 3.46510E-19-1.53079E-18
 -1      3599 9.38068E-05-2.09452E-05-3.12382E-05-2.22134E-07 3.66947E-19-1.55816E-18
 -1      3600 9.63525E-05-2.87256E-05-2.89850E-05-7.35499E-07-4.63873E-21-6.26138E-19
 -1      3601 9.63825E-05-2.85278E-05-2.90759E-05-6.25260E-07 5.88758E-20-6.34259E-19
 -1      3602 9.65369E-05-2.86098E-05-2.91078E-05 5.74310E-07-1.79532E-19-4.70646E-19
 -1      3603 9.65058E-05-2.88073E-05-2.90155E-05 6.68553E-07-3.39025E-20-4.93972E-19
 -1      3604 9.64657E-05-2.89585E-05-2.89288E-05 7.10248E-07-1.44126E-19-5.33533E-19
 -1      3605 9.64123E-05-2.90676E-05-2.88625E-05 7.44806E-07 1.08375E-20-5.79736E-19
 -1      3606 9.66362E-05-2.88891E-05-2.90358E-05 5.80551E-07-1.25300E-19-7.42420E-19
 -1      3607 9.63451E-05-2.91412E-05-2.87997E-05 7.47733E-07 7.76301E-20-5.32817E-19
 -1      3608 9.62822E-05-2.91897E-05-2.87536E-05 7.43863E-07-1.19739E-19-5.56914E-19
 -1      3609 9.65294E-05-2.91404E-05-2.88828E-05 6.39385E-07 5.27280E-20-1.05010E-18
 -1      3610 9.62027E-05-2.92111E-05-2.87094E-05 7.23167E-07-2.00498E-19-4.35347E-19
 -1      3611 9.61381E-05-2.92187E-05-2.86788E-05 6.96926E-07-1.31418E-19-5.65324E-19
 -1      3612 9.63839E-05-2.92520E-05-2.87727E-05 6.35037E-07-1.65746E-19-6.48215E-19
 -1      3613 9.60558E-05-2.92057E-05-2.86493E-05 6.64034E-07-1.29203E-19-7.06457E-19
 -1      3614 9.59938E-05-2.91867E-05-2.86305E-05 6.27292E-07 2.73941E-20-6.67423E-19
 -1      3615 9.62236E-05-2.92694E-05-2.86965E-05 5.93407E-07-3.22968E-19-4.79221E-19
 -1      3616 9.59142E-05-2.91518E-05-2.86121E-05 5.90399E-07 5.12347E-20-8.02593E-19
 -1      3617 9.58571E-05-2.91155E-05-2.86022E-05 5.51497E-07-1.19557E-19-5.83915E-19
 -1      3618 9.60632E-05-2.92250E-05-2.86467E-05 5.34065E-07 2.52310E-20-6.80008E-19
 -1      3619 9.57824E-05-2.90665E-05-2.85925E-05 5.16366E-07-1.91494E-19-3.72024E-19
 -1      3620 9.57304E-05-2.90188E-05-2.85894E-05 4.81352E-07-2.63912E-20-8.45969E-19
 -1      3621 9.59104E-05-2.91407E-05-2.86171E-05 4.70726E-07-5.22867E-21-6.60751E-19
 -1      3622 9.56610E-05-2.89603E-05-2.85863E-05 4.52245E-07-3.89320E-19-8.57096E-19
 -1      3623 9.56135E-05-2.89043E-05-2.85883E-05 4.25542E-07-5.98045E-19-1.05724E-18
 -1      3624 9.57678E-05-2.90299E-05-2.86031E-05 4.13490E-07-2.95337E-19-1.07440E-18
 -1      3625 9.55480E-05-2.88384E-05-2.85904E-05 4.05572E-07-3.45703E-19-1.01473E-18
 -1      3626 9.55033E-05-2.87752E-05-2.85965E-05 3.90549E-07-4.71593E-19-1.22337E-18
 -1      3627 9.56343E-05-2.89001E-05-2.86012E-05 3.69841E-07-4.69113E-19-1.17060E-18
 -1      3628 9.54393E-05-2.87018E-05-2.86026E-05 3.82262E-07-6.12300E-19-1.17118E-18
 -1      3629 9.53950E-05-2.86309E-05-2.86119E-05 3.81879E-07-4.52437E-19-1.00512E-18
 -1      3630 9.55061E-05-2.87537E-05-2.86087E-05 3.45376E-07-4.29650E-19-8.85988E-19
 -1      3631 9.53288E-05-2.85487E-05-2.86212E-05 3.87707E-07-2.18729E-19-8.90535E-19
 -1      3632 9.52821E-05-2.84683E-05-2.86332E-05 4.04811E-07-2.41088E-19-6.46311E-19
 -1      3633 9.53773E-05-2.85894E-05-2.86235E-05 3.45117E-07-1.08318E-19-1.24281E-18
 -1      3634 9.52094E-05-2.83747E-05-2.86450E-05 4.27271E-07-9.78936E-22-3.26469E-19
 -1      3635 9.51568E-05-2.82823E-05-2.86593E-05 4.64882E-07 1.61923E-21-3.32772E-19
 -1      3636 9.52399E-05-2.84032E-05-2.86440E-05 3.73930E-07 5.21684E-20-3.14996E-19
 -1      3637 9.50726E-05-2.81740E-05-2.86728E-05 5.06814E-07-4.99069E-19-2.85377E-19
 -1      3638 9.50103E-05-2.80666E-05-2.86889E-05 5.68314E-07-4.39715E-19-4.93226E-19
 -1      3639 9.50845E-05-2.81890E-05-2.86687E-05 4.36989E-07-1.66857E-19-4.45037E-19
 -1      3640 9.49086E-05-2.79398E-05-2.87034E-05 6.33051E-07-4.67943E-19-7.62149E-19
 -1      3641 9.48323E-05-2.78144E-05-2.87207E-05 7.22281E-07-2.89774E-19-9.80674E-19
 -1      3642 9.49004E-05-2.79398E-05-2.86961E-05 5.40195E-07-6.20460E-19-3.89036E-19
 -1      3643 9.47068E-05-2.76657E-05-2.87351E-05 8.13739E-07-4.91981E-19-1.17059E-18
 -1      3644 9.46122E-05-2.75196E-05-2.87526E-05 9.35005E-07-7.55888E-19-1.64677E-18
 -1      3645 9.46753E-05-2.76479E-05-2.87241E-05 6.90419E-07-5.58942E-19-7.10252E-19
 -1      3646 9.44561E-05-2.73461E-05-2.87653E-05 1.05774E-06-1.03398E-18-1.73943E-18
 -1      3647 9.43388E-05-2.71781E-05-2.87816E-05 1.21573E-06-1.46559E-18-1.31422E-18
 -1      3648 9.43964E-05-2.73067E-05-2.87500E-05 8.95652E-07-9.51583E-19-1.84805E-18
 -1      3649 9.41455E-05-2.69786E-05-2.87906E-05 1.37495E-06-1.21739E-18-9.79787E-19
 -1      3650 9.40019E-05-2.67895E-05-2.88036E-05 1.57462E-06-7.07634E-19-9.31933E-19
 -1      3651 9.40500E-05-2.69120E-05-2.87700E-05 1.16510E-06-8.68852E-19-1.11528E-18
 -1      3652 9.37653E-05-2.65658E-05-2.88056E-05 1.77625E-06-6.33495E-19-1.06051E-18
 -1      3653 9.35933E-05-2.63603E-05-2.88121E-05 2.02260E-06-5.74562E-19-3.04014E-19
 -1      3654 9.36236E-05-2.64639E-05-2.87783E-05 1.50929E-06-7.59384E-19-5.28158E-19
 -1      3655 9.33093E-05-2.61184E-05-2.88029E-05 2.27342E-06-6.77654E-19-2.04192E-19
 -1      3656 9.31101E-05-2.59071E-05-2.87988E-05 2.57143E-06-1.94871E-19-7.98784E-19
 -1      3657 9.31068E-05-2.59701E-05-2.87676E-05 1.94040E-06-7.96724E-19-3.72213E-19
 -1      3658 9.27775E-05-2.56600E-05-2.87726E-05 2.87944E-06 2.08258E-20-1.49605E-18
 -1      3659 9.25578E-05-2.54617E-05-2.87522E-05 3.23407E-06 2.19277E-20-1.15299E-18
 -1      3660 9.24938E-05-2.54492E-05-2.87272E-05 2.47284E-06-7.26432E-19-6.44638E-19
 -1      3661 9.21813E-05-2.52320E-05-2.87016E-05 3.60936E-06 1.72428E-19-1.88637E-18
 -1      3662 9.19569E-05-2.50779E-05-2.86578E-05 4.02599E-06 5.18309E-19-2.42473E-18
 -1      3663 9.17875E-05-2.49359E-05-2.86438E-05 3.12485E-06-1.86508E-19-1.47252E-18
 -1      3664 9.15497E-05-2.49015E-05-2.85737E-05 4.48232E-06 3.96801E-19-2.74017E-18
 -1      3665 9.13512E-05-2.48395E-05-2.84980E-05 4.96770E-06 5.26491E-19-2.46631E-18
 -1      3666 9.10043E-05-2.44872E-05-2.85002E-05 3.92128E-06 7.31866E-20-2.67851E-18
 -1      3667 9.09404E-05-2.47707E-05-2.83695E-05 5.52516E-06-4.82329E-21-1.80153E-18
 -1      3668 9.08214E-05-2.48719E-05-2.82531E-05 6.08874E-06-3.01506E-19-1.73091E-18
 -1      3669 9.01822E-05-2.41905E-05-2.82756E-05 4.89871E-06 3.62101E-19-2.60205E-18
 -1      3670 9.04555E-05-2.49892E-05-2.80684E-05 6.77729E-06-3.77308E-19-1.32073E-18
 -1      3671 9.05046E-05-2.53553E-05-2.79034E-05 7.43198E-06-1.14944E-18-1.08004E-18
 -1      3672 8.93922E-05-2.41743E-05-2.79461E-05 6.11316E-06-1.07341E-19-1.36179E-18
 -1      3673 9.02659E-05-2.57695E-05-2.76517E-05 8.29501E-06-7.81282E-19-1.36947E-19
 -1      3674 9.06253E-05-2.65430E-05-2.74356E-05 9.05446E-06 1.01475E-18-5.93488E-20
 -1      3675 8.87575E-05-2.46228E-05-2.74868E-05 7.64963E-06 9.13623E-20 2.05161E-19
 -1      3676 9.06534E-05-2.74081E-05-2.71103E-05 1.01496E-05 1.17826E-18-6.16697E-19
 -1      3677 9.15407E-05-2.87868E-05-2.68528E-05 1.10160E-05 8.25195E-19-6.75511E-19
 -1      3678 8.84845E-05-2.57980E-05-2.68764E-05 9.63120E-06 4.19541E-19 9.34838E-20
 -1      3679 9.20787E-05-3.03041E-05-2.64598E-05 1.23779E-05 7.16014E-19-1.12981E-18
 -1      3680 9.38163E-05-3.25460E-05-2.61964E-05 1.33078E-05 8.47274E-19-1.66518E-18
 -1      3681 8.89420E-05-2.81025E-05-2.61066E-05 1.22090E-05 7.50494E-19-3.78920E-19
 -1      3682 9.52537E-05-3.49554E-05-2.57700E-05 1.49346E-05 6.24157E-19-1.54964E-18
 -1      3683 9.82053E-05-3.84240E-05-2.55834E-05 1.57891E-05-5.07690E-20-1.45729E-18
 -1      3684 9.06760E-05-3.20293E-05-2.52105E-05 1.54528E-05 6.70216E-19-1.57267E-18
 -1      3685 1.03804E-04-4.39549E-05-2.55018E-05 1.67868E-05-5.21580E-19-1.70168E-18
 -1      3686 9.53031E-05-2.85105E-05-2.86240E-05-4.30477E-07-1.13821E-19-1.72422E-19
 -1      3687 9.53376E-05-2.85809E-05-2.86112E-05-4.16680E-07 7.73790E-20 2.87339E-20
 -1      3688 9.53210E-05-2.43026E-05-3.04158E-05 2.10566E-06 7.55076E-19-6.44414E-19
 -1      3689 9.46248E-05-2.27254E-05-3.08318E-05 2.53686E-06 8.55119E-19-8.81129E-19
 -1      3690 9.57817E-05-2.90795E-05-2.85853E-05-6.24183E-07-2.89449E-19-4.32497E-20
 -1      3691 9.58282E-05-2.91090E-05-2.85936E-05-6.68479E-07-9.01973E-21 6.41756E-20
 -1      3692 9.53939E-05-2.86543E-05-2.86013E-05-4.13893E-07 7.78727E-20 3.41345E-19
 -1      3693 9.54271E-05-2.87163E-05-2.85912E-05-4.18466E-07 3.83143E-19 7.71225E-19
 -1      3694 9.53884E-05-2.86216E-05-2.86146E-05-3.85526E-07 3.46044E-19-2.40108E-19
 -1      3695 9.54824E-05-2.87818E-05-2.85846E-05-4.30871E-07 1.44318E-19 4.60444E-19
 -1      3696 9.55168E-05-2.88368E-05-2.85777E-05-4.50831E-07 1.10034E-19 5.44109E-19
 -1      3697 9.54989E-05-2.87698E-05-2.85988E-05-3.92599E-07 2.67669E-19-4.17176E-20
 -1      3698 9.52031E-05-2.83452E-05-2.86520E-05-4.86420E-07-9.58466E-19 2.46944E-19
 -1      3699 9.52418E-05-2.84267E-05-2.86366E-05-4.51078E-07-7.01756E-19 6.05895E-20
 -1      3700 9.52720E-05-2.84535E-05-2.86363E-05-4.10030E-07-4.83471E-19-2.93292E-20
 -1      3701 9.50858E-05-2.81519E-05-2.86845E-05-5.88198E-07-4.33384E-19-1.02989E-20
 -1      3702 9.51321E-05-2.82476E-05-2.86667E-05-5.27765E-07-5.49274E-19 2.52371E-19
 -1      3703 9.51410E-05-2.82594E-05-2.86630E-05-4.71592E-07-5.91488E-19-4.50985E-19
 -1      3704 9.49412E-05-2.79226E-05-2.87207E-05-7.43139E-07-5.91495E-19 1.98447E-19
 -1      3705 9.49993E-05-2.80363E-05-2.87009E-05-6.53595E-07-4.25706E-19 2.77018E-19
 -1      3706 9.49851E-05-2.80313E-05-2.86934E-05-5.76181E-07-3.87224E-19-9.18822E-21
 -1      3707 9.47577E-05-2.76485E-05-2.87595E-05-9.59469E-07-5.19715E-19-3.01818E-20
 -1      3708 9.48325E-05-2.77843E-05-2.87381E-05-8.36331E-07-3.10949E-19 1.07140E-19
 -1      3709 9.47919E-05-2.77604E-05-2.87261E-05-7.30428E-07-2.96409E-19 3.21210E-19
 -1      3710 9.45218E-05-2.73211E-05-2.87986E-05-1.24612E-06 2.91341E-20-5.79241E-19
 -1      3711 9.46191E-05-2.74828E-05-2.87766E-05-1.08457E-06-5.66722E-19-6.31945E-19
 -1      3712 9.45472E-05-2.74369E-05-2.87591E-05-9.41592E-07-4.20481E-19-6.21101E-19
 -1      3713 9.42177E-05-2.69324E-05-2.88348E-05-1.61236E-06 1.14041E-19-2.80774E-19
 -1      3714 9.43441E-05-2.71234E-05-2.88137E-05-1.40749E-06 2.14089E-19-1.15941E-19
 -1      3715 9.42343E-05-2.70513E-05-2.87892E-05-1.21730E-06-2.15062E-19-8.66152E-19
 -1      3716 9.38277E-05-2.64771E-05-2.88628E-05-2.06718E-06 2.47651E-19-5.16133E-19
 -1      3717 9.39908E-05-2.66991E-05-2.88453E-05-1.81433E-06 3.48688E-19-3.34565E-19
 -1      3718 9.38342E-05-2.65957E-05-2.88118E-05-1.56516E-06 1.98934E-19 1.75178E-20
 -1      3719 9.33326E-05-2.59547E-05-2.88747E-05-2.61875E-06-6.43061E-19 4.83860E-20
 -1      3720 9.35404E-05-2.62066E-05-2.88646E-05-2.31389E-06-2.49644E-19 2.68784E-20
 -1      3721 9.33257E-05-2.60650E-05-2.88199E-05-1.99225E-06-3.74196E-19-4.20769E-20
 -1      3722 9.27133E-05-2.53727E-05-2.88587E-05-3.27413E-06-8.76839E-20 1.07734E-19
 -1      3723 9.29729E-05-2.56487E-05-2.88620E-05-2.91408E-06-3.66268E-20 2.45459E-19
 -1      3724 9.26859E-05-2.54596E-05-2.88033E-05-2.50483E-06-1.57992E-19-5.90205E-20
 -1      3725 9.19531E-05-2.47528E-05-2.87986E-05-4.04000E-06 4.11560E-19-1.13040E-18
 -1      3726 9.22694E-05-2.50391E-05-2.88235E-05-3.62212E-06 2.50005E-19-4.22137E-20
 -1      3727 9.18911E-05-2.47893E-05-2.87478E-05-3.10873E-06 3.05790E-19-2.48300E-19
 -1      3728 9.10430E-05-2.41378E-05-2.86717E-05-4.92555E-06-3.67233E-19-7.32969E-19
 -1      3729 9.14144E-05-2.44082E-05-2.87297E-05-4.44638E-06-2.79472E-19-7.38524E-19
 -1      3730 9.09189E-05-2.40777E-05-2.86336E-05-3.81138E-06-2.14321E-20-2.79757E-20
 -1      3731 8.99910E-05-2.36043E-05-2.84478E-05-5.94956E-06-1.51489E-18-2.83328E-19
 -1      3732 9.04029E-05-2.38130E-05-2.85540E-05-5.40133E-06-7.77943E-19-5.46168E-19
 -1      3733 8.97511E-05-2.33696E-05-2.84338E-05-4.62711E-06-9.02224E-19 7.87989E-19
 -1      3734 8.88372E-05-2.32794E-05-2.80887E-05-7.15378E-06-1.10320E-18-6.95324E-19
 -1      3735 8.92501E-05-2.33507E-05-2.82616E-05-6.51809E-06-1.44090E-18-4.46369E-19
 -1      3736 8.83797E-05-2.27404E-05-2.81128E-05-5.58849E-06-1.25947E-18-5.03706E-19
 -1      3737 8.76811E-05-2.33660E-05-2.75479E-05-8.62333E-06-2.97807E-19-1.42912E-18
 -1      3738 8.80111E-05-2.31794E-05-2.78088E-05-7.86188E-06-5.25419E-19-1.14724E-18
 -1      3739 8.68165E-05-2.23114E-05-2.76242E-05-6.76632E-06-6.41421E-19-3.02566E-19
 -1      3740 8.67193E-05-2.41793E-05-2.67738E-05-1.05194E-05 2.52831E-19-1.17219E-18
 -1      3741 8.68111E-05-2.35468E-05-2.71434E-05-9.56046E-06 1.79512E-19-1.02923E-18
 -1      3742 8.51076E-05-2.22675E-05-2.69093E-05-8.30034E-06-3.11101E-19-6.50189E-19
 -1      3743 8.62786E-05-2.61995E-05-2.57085E-05-1.31309E-05 1.23924E-20-6.20606E-19
 -1      3744 8.59002E-05-2.48332E-05-2.62085E-05-1.18142E-05-4.16258E-19-9.90022E-19
 -1      3745 8.33889E-05-2.29111E-05-2.58946E-05-1.04590E-05-5.76714E-20-1.60404E-19
 -1      3746 9.44123E-05-2.22297E-05-3.09415E-05 2.14157E-06 7.77948E-19-8.90024E-19
 -1      3747 9.63728E-05-2.82650E-05-2.91931E-05-5.00545E-07 1.49408E-19-5.20057E-19
 -1      3748 9.63665E-05-2.79438E-05-2.93183E-05-2.91003E-07 4.11490E-19-5.91985E-19
 -1      3749 9.65392E-05-2.83478E-05-2.92257E-05-4.62549E-07 1.85755E-19-5.02735E-19
 -1      3750 9.59003E-05-2.91384E-05-2.86110E-05-7.10405E-07 1.19292E-19-1.84971E-19
 -1      3751 9.59515E-05-2.91511E-05-2.86280E-05-7.51680E-07 2.12169E-19-3.30333E-19
 -1      3752 9.59933E-05-2.91884E-05-2.86323E-05-6.23728E-07-1.85399E-20-4.48721E-19
 -1      3753 9.63407E-05-2.71027E-05-2.96681E-05-1.81231E-07-2.10334E-19-1.01600E-18
 -1      3754 9.64263E-05-2.76030E-05-2.95019E-05 1.14703E-07-3.51717E-19-9.48899E-19
 -1      3755 9.57263E-05-2.64565E-05-2.96953E-05 9.33750E-07 8.35750E-19-4.99135E-19
 -1      3756 9.56419E-05-2.59102E-05-2.98772E-05 1.51643E-06 7.88281E-19-5.20064E-19
 -1      3757 9.55334E-05-2.53255E-05-3.00952E-05 1.73569E-06 8.99917E-19-6.31101E-19
 -1      3758 9.59032E-05-2.64738E-05-2.97619E-05 7.78914E-07 9.12566E-19-6.79246E-19
 -1      3759 6.03074E-05-1.78177E-05-1.78692E-05-1.00095E-05-6.62706E-19-2.31896E-18
 -1      3760 6.72803E-05-2.25801E-05-1.92362E-05-1.64487E-05-6.55954E-19-3.29708E-19
 -1      3761 9.59127E-05-2.57201E-05-3.00806E-05-9.02524E-07-8.99768E-21-1.15689E-18
 -1      3762 9.61239E-05-2.64598E-05-2.98637E-05-4.63821E-07-9.25635E-20-1.07302E-18
 -1      3763 9.62719E-05-2.65745E-05-2.98671E-05-3.36059E-07-1.46183E-19-1.03893E-18
 -1      3764 9.65164E-05-2.80232E-05-2.93494E-05 2.94257E-07-3.59193E-19-8.26897E-19
 -1      3765 9.65277E-05-2.83467E-05-2.92241E-05 4.74611E-07-3.60520E-19-5.63161E-19
 -1      3766 9.65706E-05-2.76986E-05-2.95154E-05 1.33578E-07-2.97747E-19-7.55363E-19
 -1      3767 7.52738E-05-2.66981E-05-2.05014E-05-1.98483E-05-7.94252E-19-1.21291E-19
 -1      3768 8.76761E-05-3.40775E-05-2.29891E-05-2.00941E-05-1.14975E-18 6.28048E-19
 -1      3769 8.54396E-05-3.04585E-05-2.36608E-05-1.78561E-05-6.73077E-19-1.35353E-19
 -1      3770 7.29289E-05-2.32966E-05-2.11943E-05-1.50872E-05-5.48924E-19-4.23596E-19
 -1      3771 9.62686E-05-2.89901E-05-2.88343E-05-8.31966E-07-4.01545E-19-6.54031E-19
 -1      3772 9.63160E-05-2.88783E-05-2.88985E-05-7.90391E-07-3.61182E-19-6.81630E-19
 -1      3773 9.65131E-05-2.88096E-05-2.90174E-05-6.58049E-07-8.20259E-20-8.07139E-19
 -1      3774 9.70836E-05-4.02344E-05-2.44566E-05 1.93497E-05-3.26652E-19-2.21216E-18
 -1      3775 9.44214E-05-2.21537E-05-3.09654E-05-1.87934E-06 1.53386E-19-1.17611E-18
 -1      3776 9.46250E-05-2.26365E-05-3.08587E-05-2.25450E-06 1.12755E-19-1.37718E-18
 -1      3777 9.50619E-05-2.36103E-05-3.06218E-05-1.78355E-06 1.18687E-19-1.36353E-18
 -1      3778 9.61385E-05-2.92211E-05-2.86807E-05-6.91893E-07 1.29260E-19-7.31440E-20
 -1      3779 9.60262E-05-2.91589E-05-2.86566E-05-7.87920E-07 9.72919E-22-2.22447E-19
 -1      3780 9.60805E-05-2.91454E-05-2.86850E-05-8.16529E-07-1.39368E-19-2.53128E-19
 -1      3781 9.55333E-05-2.50015E-05-3.02268E-05 1.55246E-06 7.60347E-19-6.94337E-19
 -1      3782 9.64480E-05-2.76058E-05-2.95031E-05-1.01321E-07 5.37621E-19-1.83793E-19
 -1      3783 9.62825E-05-2.75266E-05-2.94736E-05-7.27268E-08 5.35243E-19-5.78116E-19
 -1      3784 9.62242E-05-2.70470E-05-2.96413E-05 2.76824E-07 7.00808E-19-5.05595E-19
 -1      3785 6.39372E-05-1.88314E-05-1.91031E-05 1.14218E-05-4.34310E-19 7.23935E-19
 -1      3786 6.36051E-05-1.77320E-05-1.97098E-05 6.99503E-06-4.92768E-20-2.57114E-19
 -1      3787 7.07027E-05-2.16075E-05-2.09892E-05 1.38779E-05-4.98297E-19-1.00125E-18
 -1      3788 9.37009E-05-2.07347E-05-3.12742E-05-7.51407E-07 2.19145E-19-1.52621E-18
 -1      3789 9.35119E-05-2.04130E-05-3.13424E-05-1.18981E-06 1.88339E-19-1.44964E-18
 -1      3790 9.34782E-05-2.03334E-05-3.13529E-05-1.77664E-06 1.70971E-19-1.21539E-18
 -1      3791 9.40158E-05-2.13109E-05-3.11545E-05-1.72002E-06 1.23646E-19-1.21823E-18
 -1      3792 9.43584E-05-2.18932E-05-3.10404E-05-8.09812E-07 1.88526E-19-1.45613E-18
 -1      3793 9.53856E-05-2.43600E-05-3.04438E-05-1.53682E-06 1.22123E-19-1.36143E-18
 -1      3794 9.56656E-05-2.51159E-05-3.02395E-05-1.12202E-06 5.17067E-20-1.24620E-18
 -1      3795 9.58114E-05-2.52665E-05-3.02285E-05-8.54197E-07 8.31419E-20-1.03426E-18
 -1      3796 9.52662E-05-2.39467E-05-3.05598E-05-1.32456E-06 2.44168E-19-1.20446E-18
 -1      3797 9.49580E-05-2.32317E-05-3.07214E-05 1.56415E-06 6.37027E-19-1.00017E-18
 -1      3798 8.63262E-05-2.91832E-05-2.44697E-05-1.61186E-05-2.01749E-19-4.63089E-20
 -1      3799 8.54331E-05-2.70412E-05-2.50921E-05-1.44604E-05 4.32563E-19-1.36965E-19
 -1      3800 8.17680E-05-2.40690E-05-2.46499E-05-1.29918E-05-6.76664E-19-5.54449E-19
 -1      3801 8.02922E-05-2.59735E-05-2.32086E-05-1.60568E-05-3.34229E-19 6.62208E-20
 -1      3802 9.62071E-05-2.90669E-05-2.87721E-05-8.40002E-07-2.40676E-19-5.36558E-19
 -1      3803 9.64164E-05-2.90703E-05-2.88645E-05-7.36084E-07-3.15539E-19-8.75018E-19
 -1      3804 9.61530E-05-2.91198E-05-2.87282E-05-8.37304E-07-1.70892E-19-3.79045E-19
 -1      3805 6.24333E-05-1.75513E-05-1.90777E-05-4.98264E-06-6.57575E-19-2.62496E-18
 -1      3806 9.66675E-05-2.84358E-05-2.92426E-05 4.24882E-07-1.57260E-19-7.90834E-19
 -1      3807 9.55742E-05-2.88957E-05-2.85751E-05-4.75765E-07 1.20649E-19 4.98408E-19
 -1      3808 9.56115E-05-2.89441E-05-2.85721E-05-5.07976E-07 3.25574E-20 3.74339E-19
 -1      3809 9.56106E-05-2.89018E-05-2.85904E-05-4.26242E-07 3.94751E-21 6.05648E-20
 -1      3810 9.57147E-05-2.90366E-05-2.85764E-05-5.83471E-07-3.98574E-19 1.82464E-19
 -1      3811 9.58557E-05-2.91162E-05-2.86041E-05-5.49466E-07-2.90279E-19-9.68411E-20
 -1      3812 9.56732E-05-2.89961E-05-2.85745E-05-5.42753E-07-3.03299E-19 2.35635E-19
 -1      3813 8.65671E-05-3.25583E-05-2.30414E-05 1.98967E-05 1.17685E-19-1.09565E-18
 -1      3814 9.50465E-05-2.33291E-05-3.07455E-05 1.93019E-07 2.75469E-19-1.45744E-18
 -1      3815 9.50457E-05-2.33205E-05-3.07472E-05-1.88563E-07 1.40419E-19-1.34838E-18
 -1      3816 9.51262E-05-2.35557E-05-3.06854E-05 8.30502E-07 3.92632E-19-1.19334E-18
 -1      3817 9.50712E-05-2.33954E-05-3.07250E-05 4.78246E-07 3.17116E-19-1.36174E-18
 -1      3818 9.55829E-05-2.43623E-05-3.05059E-05 2.45633E-07 2.15632E-19-1.32322E-18
 -1      3819 8.78794E-05-3.11217E-05-2.42100E-05 1.67327E-05 1.23751E-18-8.44281E-19
 -1      3820 8.15769E-05-2.90926E-05-2.25209E-05 1.91633E-05-1.31006E-19-6.22913E-19
 -1      3821 7.78197E-05-2.58361E-05-2.22985E-05 1.67028E-05-1.30830E-19-7.06528E-19
 -1      3822 8.63365E-05-2.86587E-05-2.47061E-05 1.48596E-05 9.46335E-19-7.40176E-19
 -1      3823 9.66457E-05-2.89194E-05-2.90269E-05-5.84609E-07-9.55812E-21-7.74468E-19
 -1      3824 9.66812E-05-2.87325E-05-2.91179E-05-5.13161E-07 1.68371E-19-5.52471E-19
 -1      3825 9.54570E-05-2.45301E-05-3.04153E-05 1.41610E-06 7.26695E-19-7.11185E-19
 -1      3826 9.52193E-05-2.38299E-05-3.05948E-05 1.16970E-06 4.99713E-19-9.55999E-19
 -1      3827 9.56511E-05-2.46889E-05-3.03984E-05 7.76439E-07 3.91672E-19-8.87934E-19
 -1      3828 9.57576E-05-2.54598E-05-3.01154E-05 1.16171E-06 8.39796E-19-5.99826E-19
 -1      3829 9.66876E-05-2.91295E-05-2.89516E-05 5.11544E-07 4.92640E-20-1.00041E-18
 -1      3830 9.66211E-05-2.92215E-05-2.88855E-05 5.29514E-07 1.56591E-19-8.73090E-19
 -1      3831 9.65408E-05-2.92791E-05-2.88250E-05 5.23153E-07 1.59018E-19-1.02912E-18
 -1      3832 9.64618E-05-2.93115E-05-2.87781E-05 5.16524E-07-8.11006E-20-8.53168E-19
 -1      3833 9.66754E-05-2.92759E-05-2.88873E-05 4.08274E-07 7.51222E-20-7.87595E-19
 -1      3834 9.63699E-05-2.93183E-05-2.87353E-05 4.97666E-07-3.15990E-19-6.05672E-19
 -1      3835 9.62877E-05-2.93105E-05-2.87035E-05 4.77370E-07-4.85450E-19-7.92771E-19
 -1      3836 9.65039E-05-2.93499E-05-2.87823E-05 3.96308E-07-1.09018E-19-9.89004E-19
 -1      3837 9.61939E-05-2.92845E-05-2.86747E-05 4.53394E-07-1.51207E-19-6.00451E-19
 -1      3838 9.61143E-05-2.92509E-05-2.86546E-05 4.27143E-07 2.50802E-19-5.86879E-19
 -1      3839 9.63192E-05-2.93352E-05-2.87093E-05 3.65229E-07-6.22619E-20-4.89930E-19
 -1      3840 9.60233E-05-2.92035E-05-2.86367E-05 4.02071E-07-4.25019E-20-5.80757E-19
 -1      3841 9.59486E-05-2.91529E-05-2.86256E-05 3.75798E-07-9.16274E-20-5.38636E-19
 -1      3842 9.61360E-05-2.92634E-05-2.86614E-05 3.27044E-07 1.28120E-21-5.83814E-19
 -1      3843 9.58626E-05-2.90914E-05-2.86161E-05 3.53511E-07-2.47336E-19-9.56187E-19
 -1      3844 9.57930E-05-2.90290E-05-2.86120E-05 3.31428E-07-4.27648E-19-1.15836E-18
 -1      3845 9.59603E-05-2.91533E-05-2.86331E-05 2.88578E-07-4.63575E-19-8.72253E-19
 -1      3846 9.57117E-05-2.89576E-05-2.86090E-05 3.14532E-07-1.86843E-19-1.32986E-18
 -1      3847 9.56462E-05-2.88863E-05-2.86103E-05 2.99707E-07-2.26074E-19-1.16912E-18
 -1      3848 9.57947E-05-2.90172E-05-2.86200E-05 2.56416E-07-2.03908E-19-1.32261E-18
 -1      3849 9.55674E-05-2.88060E-05-2.86125E-05 2.89797E-07-2.74653E-19-1.14791E-18
 -1      3850 9.55031E-05-2.87257E-05-2.86179E-05 2.84878E-07-4.43512E-19-1.04334E-18
 -1      3851 9.56365E-05-2.88611E-05-2.86187E-05 2.34904E-07-2.37912E-19-9.70141E-19
 -1      3852 9.54233E-05-2.86357E-05-2.86240E-05 2.83977E-07-4.16040E-19-8.93263E-19
 -1      3853 9.53568E-05-2.85452E-05-2.86327E-05 2.91326E-07 2.03479E-19-8.25920E-19
 -1      3854 9.54795E-05-2.86850E-05-2.86265E-05 2.27247E-07-1.86829E-19-7.85598E-19
 -1      3855 9.52713E-05-2.84433E-05-2.86417E-05 3.01138E-07 5.32306E-19-7.19701E-19
 -1      3856 9.51984E-05-2.83399E-05-2.86529E-05 3.23108E-07 2.30147E-19-3.55274E-19
 -1      3857 9.53161E-05-2.84861E-05-2.86413E-05 2.37271E-07 2.08129E-19-5.14542E-19
 -1      3858 9.51014E-05-2.82227E-05-2.86639E-05 3.45545E-07-1.82172E-19-5.58216E-19
 -1      3859 9.50168E-05-2.81029E-05-2.86768E-05 3.84725E-07-3.58744E-19-7.87001E-19
 -1      3860 9.51359E-05-2.82587E-05-2.86609E-05 2.68264E-07-9.08799E-20-1.35898E-18
 -1      3861 9.49017E-05-2.79661E-05-2.86888E-05 4.22094E-07-6.54618E-19-5.86197E-19
 -1      3862 9.47996E-05-2.78260E-05-2.87025E-05 4.81445E-07-5.01598E-19-5.47174E-19
 -1      3863 9.49264E-05-2.79949E-05-2.86835E-05 3.24141E-07-4.89447E-19-1.40697E-18
 -1      3864 9.46588E-05-2.76652E-05-2.87143E-05 5.36552E-07-6.97447E-19-4.65535E-19
 -1      3865 9.45329E-05-2.75009E-05-2.87276E-05 6.19496E-07-1.03976E-18-9.68649E-19
 -1      3866 9.46734E-05-2.76859E-05-2.87068E-05 4.09573E-07-6.68910E-19-1.17066E-18
 -1      3867 9.43580E-05-2.73121E-05-2.87375E-05 6.95767E-07-9.61135E-19-1.04675E-18
 -1      3868 9.42014E-05-2.71204E-05-2.87487E-05 8.06247E-07-9.02842E-19-1.15552E-18
 -1      3869 9.43613E-05-2.73228E-05-2.87278E-05 5.30211E-07-1.02861E-18-6.00010E-19
 -1      3870 9.39836E-05-2.69004E-05-2.87543E-05 9.07869E-07-7.49389E-19-9.39687E-19
 -1      3871 9.37897E-05-2.66799E-05-2.87611E-05 1.05041E-06-8.05719E-19-6.21815E-19
 -1      3872 9.39729E-05-2.68980E-05-2.87424E-05 6.92959E-07-7.44000E-19-2.64056E-19
 -1      3873 9.35200E-05-2.64276E-05-2.87594E-05 1.18253E-06-8.88170E-19-4.35309E-19
 -1      3874 9.32827E-05-2.61795E-05-2.87583E-05 1.36232E-06-6.13503E-19-4.27826E-19
 -1      3875 9.34904E-05-2.64068E-05-2.87450E-05 9.06328E-07-5.24903E-19-9.04995E-19
 -1      3876 9.29524E-05-2.58969E-05-2.87448E-05 1.53137E-06-7.72739E-19-4.04042E-19
 -1      3877 9.26673E-05-2.56268E-05-2.87313E-05 1.75455E-06-7.72737E-19-3.24166E-19
 -1      3878 9.28962E-05-2.58495E-05-2.87279E-05 1.18099E-06-6.68066E-19 4.71799E-20
 -1      3879 9.22691E-05-2.53212E-05-2.87002E-05 1.96884E-06-9.28084E-19-5.49985E-19
 -1      3880 9.19351E-05-2.50410E-05-2.86683E-05 2.24299E-06-4.92264E-19-4.61069E-19
 -1      3881 9.21741E-05-2.52345E-05-2.86806E-05 1.53073E-06-9.58971E-19-4.33979E-19
 -1      3882 9.14635E-05-2.47263E-05-2.86117E-05 2.51372E-06-7.64819E-19-3.51576E-19
 -1      3883 9.10848E-05-2.44568E-05-2.85535E-05 2.84900E-06-6.29222E-19-1.10112E-18
 -1      3884 9.13114E-05-2.45813E-05-2.85892E-05 1.97416E-06-9.13859E-19-7.79893E-19
 -1      3885 9.05381E-05-2.41563E-05-2.84615E-05 3.19214E-06-3.48006E-19-1.58612E-18
 -1      3886 9.01274E-05-2.39304E-05-2.83672E-05 3.60329E-06 6.04317E-20-1.92226E-18
 -1      3887 9.03004E-05-2.39247E-05-2.84357E-05 2.53765E-06-8.26279E-19-9.03938E-19
 -1      3888 8.95083E-05-2.36795E-05-2.82274E-05 4.04278E-06 7.11947E-19-1.99334E-18
 -1      3889 8.90916E-05-2.35461E-05-2.80853E-05 4.55250E-06 5.59189E-19-1.65043E-18
 -1      3890 8.91413E-05-2.33187E-05-2.81970E-05 3.26057E-06 2.72360E-19-1.62284E-18
 -1      3891 8.84091E-05-2.33952E-05-2.78820E-05 5.12563E-06 2.59488E-19-1.57665E-18
 -1      3892 8.80334E-05-2.34249E-05-2.76788E-05 5.76959E-06 1.02500E-19-9.41484E-19
 -1      3893 8.78445E-05-2.28415E-05-2.78440E-05 4.20410E-06 8.75760E-19-1.57762E-18
 -1      3894 8.73063E-05-2.34447E-05-2.73932E-05 6.53490E-06 4.03887E-19-6.51703E-19
 -1      3895 8.70515E-05-2.37379E-05-2.71154E-05 7.36774E-06 8.68214E-19 1.05637E-19
 -1      3896 8.64346E-05-2.26025E-05-2.73408E-05 5.46581E-06 4.51937E-19-4.75410E-19
 -1      3897 8.63143E-05-2.40235E-05-2.67255E-05 8.41579E-06 2.82293E-19-7.55969E-20
 -1      3898 8.63123E-05-2.47254E-05-2.63624E-05 9.51956E-06 1.39722E-19-8.34340E-20
 -1      3899 8.49582E-05-2.27534E-05-2.66436E-05 7.19735E-06 5.35452E-19-4.01025E-19
 -1      3900 8.56351E-05-2.53973E-05-2.58416E-05 1.09937E-05 3.33046E-20-2.87074E-19
 -1      3901 8.61121E-05-2.67523E-05-2.53895E-05 1.24701E-05 3.51539E-19-6.97408E-19
 -1      3902 8.35065E-05-2.35317E-05-2.56981E-05 9.63930E-06-2.53574E-19-2.86161E-19
 -1      3903 9.50816E-05-2.81778E-05-2.86722E-05-4.30810E-07-6.01805E-19-3.99573E-19
 -1      3904 9.51531E-05-2.82876E-05-2.86582E-05-3.91118E-07-6.50869E-19-4.89464E-19
 -1      3905 9.52402E-05-2.83962E-05-2.86465E-05-3.67967E-07-5.92706E-19 4.33914E-20
 -1      3906 9.53019E-05-2.84905E-05-2.86346E-05-3.47061E-07-9.13805E-20 2.61276E-20
 -1      3907 9.51844E-05-2.83200E-05-2.86556E-05-3.23740E-07-3.96458E-19-1.61158E-19
 -1      3908 9.55090E-05-2.87500E-05-2.86099E-05-3.36993E-07 2.99832E-20-3.42621E-19
 -1      3909 9.55647E-05-2.88231E-05-2.86040E-05-3.45711E-07 1.78842E-20-3.36408E-19
 -1      3910 9.48911E-05-2.79207E-05-2.87009E-05-5.31883E-07-4.03529E-19-5.17109E-19
 -1      3911 9.49781E-05-2.80504E-05-2.86854E-05-4.70489E-07-4.01823E-19-6.43779E-19
 -1      3912 9.49959E-05-2.80734E-05-2.86799E-05-3.83758E-07-5.87924E-19-6.40893E-19
 -1      3913 9.46544E-05-2.76150E-05-2.87306E-05-6.76767E-07-3.16936E-19-7.93398E-19
 -1      3914 9.47637E-05-2.77694E-05-2.87145E-05-5.90509E-07-2.12330E-19-4.02673E-19
 -1      3915 9.47677E-05-2.77826E-05-2.87061E-05-4.76409E-07-3.42056E-19-1.06337E-18
 -1      3916 9.43548E-05-2.72504E-05-2.87586E-05-8.71370E-07 6.71723E-20-1.16611E-18
 -1      3917 9.44942E-05-2.74344E-05-2.87433E-05-7.56935E-07 9.99363E-20-5.52231E-19
 -1      3918 9.44835E-05-2.74368E-05-2.87315E-05-6.06069E-07-2.13373E-19-6.39249E-19
 -1      3919 9.39732E-05-2.68172E-05-2.87810E-05-1.12161E-06-6.80436E-19-7.95547E-19
 -1      3920 9.41517E-05-2.70352E-05-2.87685E-05-9.75719E-07-8.01926E-19-1.19763E-18
 -1      3921 9.41243E-05-2.70255E-05-2.87528E-05-7.77112E-07-8.43845E-20-8.30382E-19
 -1      3922 9.34877E-05-2.63071E-05-2.87920E-05-1.43294E-06-4.63480E-19 3.57756E-19
 -1      3923 9.37156E-05-2.65626E-05-2.87851E-05-1.25262E-06-4.90563E-19 4.69280E-20
 -1      3924 9.36688E-05-2.65387E-05-2.87649E-05-9.93535E-07-1.25972E-18-4.91254E-19
 -1      3925 9.28743E-05-2.57158E-05-2.87830E-05-1.80990E-06-7.77501E-19 9.64243E-19
 -1      3926 9.31629E-05-2.60101E-05-2.87862E-05-1.59273E-06-2.36250E-19 7.72715E-19
 -1      3927 9.30931E-05-2.59688E-05-2.87608E-05-1.25849E-06-7.47469E-19 1.10178E-18
 -1      3928 9.21068E-05-2.50450E-05-2.87423E-05-2.25590E-06 1.52434E-19 5.91125E-19
 -1      3929 9.24681E-05-2.53759E-05-2.87617E-05-2.00009E-06-6.46486E-19 4.34033E-19
 -1      3930 9.23704E-05-2.53127E-05-2.87303E-05-1.57389E-06-3.56584E-19 3.22096E-19
 -1      3931 9.11577E-05-2.43054E-05-2.86533E-05-2.77387E-06 2.32743E-19 3.58300E-19
 -1      3932 9.16037E-05-2.46656E-05-2.86974E-05-2.47780E-06 7.06355E-19 3.90374E-19
 -1      3933 9.14717E-05-2.45734E-05-2.86595E-05-1.94033E-06 5.74611E-19 4.07391E-19
 -1      3934 8.99990E-05-2.35217E-05-2.84933E-05-3.36873E-06-1.60153E-19 1.12389E-18
 -1      3935 9.05408E-05-2.38960E-05-2.85739E-05-3.02943E-06 7.71692E-20 9.01096E-19
 -1      3936 9.03650E-05-2.37634E-05-2.85294E-05-2.35812E-06-1.21349E-19 1.16052E-18
 -1      3937 8.86035E-05-2.27369E-05-2.82320E-05-4.05359E-06-1.25294E-18 9.19996E-19
 -1      3938 8.92491E-05-2.30994E-05-2.83648E-05-3.66300E-06-8.37968E-19 9.79812E-19
 -1      3939 8.90150E-05-2.29072E-05-2.83140E-05-2.83036E-06-7.52114E-19 1.28741E-18
 -1      3940 8.69462E-05-2.20195E-05-2.78287E-05-4.86236E-06-9.92753E-19 4.64686E-20
 -1      3941 8.76970E-05-2.23290E-05-2.80345E-05-4.40000E-06-1.18578E-18 1.99231E-19
 -1      3942 8.73798E-05-2.20437E-05-2.79783E-05-3.37014E-06-5.77160E-19 2.99940E-19
 -1      3943 8.50066E-05-2.14727E-05-2.72294E-05-5.87365E-06-2.43007E-19-2.91662E-19
 -1      3944 8.58512E-05-2.16656E-05-2.75350E-05-5.29388E-06-6.92985E-19 4.94493E-20
 -1      3945 8.54046E-05-2.12274E-05-2.74750E-05-4.01578E-06-4.83550E-19 1.85657E-19
 -1      3946 8.27725E-05-2.12524E-05-2.63622E-05-7.24526E-06 2.27900E-19-7.65657E-19
 -1      3947 8.36815E-05-2.12329E-05-2.68024E-05-6.45714E-06 2.05166E-19-6.79692E-19
 -1      3948 8.30149E-05-2.05360E-05-2.67381E-05-4.86120E-06 2.80671E-19-6.14948E-19
 -1      3949 8.01806E-05-2.15734E-05-2.51187E-05-9.28561E-06-5.37722E-19-1.08386E-18
 -1      3950 8.11338E-05-2.11797E-05-2.57491E-05-8.08562E-06 1.48886E-20-1.08269E-18
 -1      3951 8.01253E-05-2.00791E-05-2.56760E-05-6.06690E-06 2.98985E-19-1.84840E-18
 -1      3952 9.59367E-05-2.60447E-05-2.99562E-05 7.49553E-07 8.36949E-19-5.67077E-19
 -1      3953 9.66795E-05-2.84827E-05-2.92302E-05-4.44549E-07 2.72441E-19-6.02561E-19
 -1      3954 9.66687E-05-2.81713E-05-2.93522E-05-3.04097E-07 4.64891E-19-2.96729E-19
 -1      3955 9.67891E-05-2.85772E-05-2.92342E-05-3.78034E-07 2.24620E-19-1.72643E-19
 -1      3956 9.60681E-05-2.92265E-05-2.86452E-05-5.19341E-07-1.28028E-19-3.94716E-19
 -1      3957 9.61403E-05-2.92542E-05-2.86648E-05-5.50715E-07 5.86632E-20-3.36094E-19
 -1      3958 9.53793E-05-2.85846E-05-2.86253E-05-3.38253E-07 2.20616E-19-7.26375E-20
 -1      3959 9.54359E-05-2.86670E-05-2.86160E-05-3.33450E-07 3.20106E-19 3.18390E-20
 -1      3960 9.53472E-05-2.85319E-05-2.86351E-05-2.92206E-07 5.65032E-21 2.27697E-19
 -1      3961 9.61921E-05-2.61145E-05-3.00345E-05-4.49769E-07-1.37033E-20-1.33173E-18
 -1      3962 9.64066E-05-2.68093E-05-2.98345E-05-1.49728E-07-2.15993E-20-1.27069E-18
 -1      3963 6.31135E-05-1.63420E-05-1.98364E-05-1.37890E-07-4.68341E-19-2.26377E-18
 -1      3964 6.63517E-05-1.81468E-05-2.07041E-05-6.68258E-06-1.08688E-18-2.24724E-18
 -1      3965 9.67801E-05-2.88176E-05-2.91246E-05 4.40062E-07-1.98868E-19-8.22036E-19
 -1      3966 9.67412E-05-2.89969E-05-2.90343E-05 4.96883E-07-1.24853E-19-8.97271E-19
 -1      3967 9.68093E-05-2.90702E-05-2.90325E-05 3.87104E-07-4.39374E-20-6.08815E-19
 -1      3968 9.67743E-05-2.82734E-05-2.93547E-05 2.79622E-07-3.18831E-19-7.36455E-19
 -1      3969 9.67847E-05-2.85767E-05-2.92345E-05 3.92709E-07-2.55457E-19-8.95549E-19
 -1      3970 9.68688E-05-2.86730E-05-2.92273E-05 3.13446E-07-2.15366E-19-6.75850E-19
 -1      3971 9.66150E-05-2.74147E-05-2.96534E-05-6.78889E-09-1.48395E-19-1.16986E-18
 -1      3972 9.66993E-05-2.78835E-05-2.94971E-05 1.82752E-07-2.50585E-19-9.26447E-19
 -1      3973 9.67987E-05-2.80048E-05-2.94819E-05 1.61956E-07-2.28591E-19-7.71316E-19
 -1      3974 9.65433E-05-2.69953E-05-2.98078E-05-7.97968E-08-1.56625E-20-1.48779E-18
 -1      3975 9.55743E-05-2.43529E-05-3.05065E-05-2.44866E-07 7.88019E-20-1.31248E-18
 -1      3976 9.50675E-05-2.34011E-05-3.07256E-05-4.75943E-07 2.19605E-19-1.33638E-18
 -1      3977 9.62293E-05-2.92746E-05-2.86940E-05-5.79775E-07 1.11801E-19-3.71468E-19
 -1      3978 9.63037E-05-2.92754E-05-2.87253E-05-6.03371E-07 7.71751E-20-5.48934E-19
 -1      3979 9.62847E-05-2.93114E-05-2.87048E-05-4.70661E-07 4.92322E-20-6.51895E-19
 -1      3980 9.45498E-05-2.24111E-05-3.09223E-05-1.39610E-06 2.44984E-19-1.28044E-18
 -1      3981 9.56394E-05-2.88803E-05-2.86122E-05-2.99966E-07-1.19630E-19-5.76089E-19
 -1      3982 9.56372E-05-2.88969E-05-2.86018E-05-3.59218E-07 9.59528E-21-5.10635E-19
 -1      3983 9.56955E-05-2.89619E-05-2.86002E-05-3.78190E-07-1.04587E-19-3.40975E-19
 -1      3984 9.65849E-05-2.77673E-05-2.94986E-05-1.72481E-07 4.44218E-19-3.39505E-19
 -1      3985 9.65058E-05-2.72936E-05-2.96591E-05 6.80317E-08 5.92421E-19-2.95085E-19
 -1      3986 9.67074E-05-2.78801E-05-2.94962E-05-1.69498E-07 5.46376E-19-3.02105E-19
 -1      3987 9.48976E-05-2.30542E-05-3.07880E-05-8.39545E-07 1.28824E-19-1.45380E-18
 -1      3988 9.65374E-05-2.91591E-05-2.88766E-05-6.33551E-07-3.57024E-19-8.36330E-19
 -1      3989 9.65983E-05-2.90598E-05-2.89427E-05-6.09728E-07-3.21910E-19-8.82791E-19
 -1      3990 9.67419E-05-2.89976E-05-2.90347E-05-4.84153E-07-7.67273E-20-3.31647E-19
 -1      3991 9.54961E-05-2.87170E-05-2.86200E-05-2.85333E-07 4.19331E-20-3.73433E-19
 -1      3992 9.60727E-05-2.61471E-05-2.99682E-05 5.76037E-07 6.71748E-19-4.47973E-19
 -1      3993 7.84975E-05-2.16348E-05-2.44562E-05-1.01111E-05-1.17258E-18-1.37506E-18
 -1      3994 7.68231E-05-1.97281E-05-2.43598E-05-7.45057E-06-8.69992E-19-1.70701E-18
 -1      3995 7.77473E-05-2.20979E-05-2.38369E-05-1.11994E-05-8.32236E-19-1.14510E-18
 -1      3996 9.62840E-05-2.91923E-05-2.87555E-05-7.36965E-07-1.66644E-19-3.17520E-19
 -1      3997 6.74654E-05-1.79530E-05-2.11462E-05 4.25963E-06-1.67403E-19-3.63781E-19
 -1      3998 9.59814E-05-2.91842E-05-2.86271E-05-4.89449E-07-4.23314E-19-3.54689E-19
 -1      3999 9.61097E-05-2.92497E-05-2.86561E-05-4.21711E-07-2.97782E-19-2.35799E-19
 -1      4000 9.59152E-05-2.91401E-05-2.86164E-05-4.57488E-07-5.66743E-19-1.57549E-19
 -1      4001 8.27311E-05-2.57986E-05-2.44216E-05 1.36127E-05 4.86284E-19-6.03886E-19
 -1      4002 9.57286E-05-2.90182E-05-2.85913E-05-4.80561E-07-2.48767E-19-1.91011E-19
 -1      4003 9.58306E-05-2.51683E-05-3.02852E-05-5.98184E-07 4.20033E-20-1.40561E-18
 -1      4004 9.59829E-05-2.54332E-05-3.02360E-05-3.92502E-07 1.33221E-19-1.56626E-18
 -1      4005 7.09069E-05-1.84002E-05-2.25697E-05-5.45355E-06-1.21033E-18-1.92345E-18
 -1      4006 7.13459E-05-1.97092E-05-2.20185E-05-9.72216E-06-1.30384E-18-1.33264E-18
 -1      4007 9.59634E-05-2.53099E-05-3.02895E-05-5.93941E-08 4.81809E-20-1.32016E-18
 -1      4008 9.59768E-05-2.53649E-05-3.02706E-05-2.58992E-07 1.00947E-19-1.42752E-18
 -1      4009 9.63518E-05-2.62453E-05-3.00327E-05-1.73314E-07 1.66334E-19-1.49099E-18
 -1      4010 7.99295E-05-2.48237E-05-2.35499E-05 1.39474E-05 8.02655E-19-6.53360E-19
 -1      4011 7.49819E-05-2.30862E-05-2.21964E-05 1.43105E-05 1.21385E-19-1.24148E-18
 -1      4012 7.29407E-05-2.09585E-05-2.23395E-05 1.11826E-05 8.52343E-20-2.90494E-19
 -1      4013 7.98584E-05-2.31977E-05-2.43174E-05 1.12789E-05 4.76454E-19-9.49555E-19
 -1      4014 9.59789E-05-2.53742E-05-3.02671E-05 2.85348E-07 3.40117E-19-1.03148E-18
 -1      4015 9.59699E-05-2.53183E-05-3.02871E-05 8.03887E-08 1.76634E-19-1.22127E-18
 -1      4016 9.63713E-05-2.61861E-05-3.00644E-05 4.15005E-08 1.39490E-19-1.05224E-18
 -1      4017 1.19501E-04-1.23094E-05-4.68742E-05 5.55652E-06-3.31931E-19 5.78418E-18
 -1      4018 7.38316E-05-2.21750E-05-2.21306E-05-1.32899E-05-5.25523E-19-6.57906E-20
 -1      4019 9.67852E-05-2.92658E-05-2.89357E-05 2.77007E-07-4.53452E-20-6.79180E-19
 -1      4020 9.67064E-05-2.93325E-05-2.88734E-05 2.88058E-07-2.21641E-19-1.01091E-18
 -1      4021 9.66146E-05-2.93696E-05-2.88182E-05 2.75410E-07-1.66165E-19-9.20670E-19
 -1      4022 9.65220E-05-2.93810E-05-2.87739E-05 2.71449E-07-2.49449E-19-8.10404E-19
 -1      4023 9.67047E-05-2.93661E-05-2.88624E-05 1.56733E-07-2.25694E-19-8.95394E-19
 -1      4024 9.64232E-05-2.93716E-05-2.87353E-05 2.60940E-07-1.06877E-19-8.03529E-19
 -1      4025 9.63309E-05-2.93485E-05-2.87053E-05 2.50187E-07 1.15352E-19-7.45808E-19
 -1      4026 9.65081E-05-2.93915E-05-2.87669E-05 1.49757E-07-1.92249E-19-1.03869E-18
 -1      4027 9.62306E-05-2.93102E-05-2.86795E-05 2.33668E-07-7.60960E-21-9.69251E-19
 -1      4028 9.61392E-05-2.92623E-05-2.86605E-05 2.19915E-07-2.16642E-19-1.06447E-18
 -1      4029 9.63182E-05-2.93511E-05-2.87027E-05 1.34002E-07 6.95213E-20-1.67845E-18
 -1      4030 9.60435E-05-2.92038E-05-2.86450E-05 2.07424E-07-2.76925E-19-9.56356E-19
 -1      4031 9.59570E-05-2.91405E-05-2.86347E-05 1.94138E-07-3.69421E-19-8.72463E-19
 -1      4032 9.61199E-05-2.92505E-05-2.86606E-05 1.20965E-07-1.00853E-19-1.14251E-18
 -1      4033 9.58659E-05-2.90687E-05-2.86270E-05 1.84507E-07-4.36598E-19-8.43184E-19
 -1      4034 9.57856E-05-2.89947E-05-2.86235E-05 1.74931E-07-2.85206E-19-8.42816E-19
 -1      4035 9.59333E-05-2.91182E-05-2.86368E-05 1.06932E-07-2.94037E-19-6.57787E-19
 -1      4036 9.56976E-05-2.89131E-05-2.86219E-05 1.66063E-07-8.11907E-20-7.95932E-19
 -1      4037 9.56190E-05-2.88286E-05-2.86236E-05 1.61348E-07-2.05017E-19-6.73117E-19
 -1      4038 9.57602E-05-2.89659E-05-2.86275E-05 9.46810E-08-7.64771E-20-8.58968E-19
 -1      4039 9.55317E-05-2.87364E-05-2.86267E-05 1.57742E-07-2.91724E-19-7.32558E-19
 -1      4040 9.54520E-05-2.86414E-05-2.86324E-05 1.59781E-07 1.00285E-19-6.56440E-19
 -1      4041 9.55859E-05-2.87873E-05-2.86289E-05 8.99286E-08-5.13305E-20-8.20864E-19
 -1      4042 9.53608E-05-2.85377E-05-2.86391E-05 1.60954E-07-5.16330E-20-5.70988E-19
 -1      4043 9.52756E-05-2.84298E-05-2.86478E-05 1.71188E-07 3.79406E-20-6.35598E-19
 -1      4044 9.54104E-05-2.85871E-05-2.86386E-05 9.15418E-08-1.26067E-19-1.23281E-18
 -1      4045 9.51747E-05-2.83111E-05-2.86569E-05 1.78150E-07-2.29164E-19-9.80291E-19
 -1      4046 9.50782E-05-2.81867E-05-2.86676E-05 1.98215E-07-4.70106E-19-1.36384E-18
 -1      4047 9.52216E-05-2.83593E-05-2.86542E-05 1.00853E-07-3.57014E-19-1.56250E-18
 -1      4048 9.49606E-05-2.80489E-05-2.86781E-05 2.12170E-07-1.72688E-19-1.54973E-18
 -1      4049 9.48462E-05-2.79036E-05-2.86897E-05 2.43945E-07-4.06009E-19-1.48765E-18
 -1      4050 9.50070E-05-2.80964E-05-2.86737E-05 1.19878E-07-2.41237E-19-1.89335E-18
 -1      4051 9.47038E-05-2.77418E-05-2.87003E-05 2.66449E-07-6.00703E-19-1.32905E-18
 -1      4052 9.45639E-05-2.75710E-05-2.87115E-05 3.12141E-07-7.02664E-19-1.33848E-18
 -1      4053 9.47519E-05-2.77890E-05-2.86947E-05 1.50920E-07-4.04579E-19-1.20695E-18
 -1      4054 9.43877E-05-2.73801E-05-2.87207E-05 3.45258E-07-4.13924E-19-1.00858E-18
 -1      4055 9.42141E-05-2.71793E-05-2.87297E-05 4.07515E-07-5.61569E-19-5.52940E-19
 -1      4056 9.44394E-05-2.74270E-05-2.87142E-05 1.96936E-07-2.55349E-19-1.46028E-18
 -1      4057 9.39941E-05-2.69549E-05-2.87352E-05 4.53997E-07-9.29951E-19-2.93940E-19
 -1      4058 9.37778E-05-2.67204E-05-2.87397E-05 5.36047E-07-8.71872E-19-4.36373E-19
 -1      4059 9.40506E-05-2.70005E-05-2.87283E-05 2.61865E-07-4.40678E-19-1.17727E-18
 -1      4060 9.35032E-05-2.64593E-05-2.87384E-05 5.99583E-07-6.16969E-19-6.68165E-19
 -1      4061 9.32352E-05-2.61895E-05-2.87350E-05 7.05444E-07-3.19991E-19-7.38256E-19
 -1      4062 9.35650E-05-2.65010E-05-2.87317E-05 3.51040E-07-1.02591E-18-8.63303E-19
 -1      4063 9.28946E-05-2.58905E-05-2.87228E-05 7.91007E-07-5.55712E-19-6.15656E-19
 -1      4064 9.25664E-05-2.55866E-05-2.87070E-05 9.25834E-07-8.34248E-19-5.86412E-19
 -1      4065 9.29606E-05-2.59236E-05-2.87172E-05 4.71780E-07-5.90190E-19-1.38290E-18
 -1      4066 9.21482E-05-2.52522E-05-2.86782E-05 1.04022E-06-1.23792E-18-8.05721E-19
 -1      4067 9.17522E-05-2.49200E-05-2.86439E-05 1.21090E-06-1.32825E-18-8.09890E-19
 -1      4068 9.22148E-05-2.52683E-05-2.86749E-05 6.34278E-07-1.15570E-18-1.79144E-18
 -1      4069 9.12446E-05-2.45572E-05-2.85911E-05 1.36354E-06-1.15514E-18-1.10350E-18
 -1      4070 9.07755E-05-2.42086E-05-2.85302E-05 1.57977E-06-1.00447E-18-1.15774E-18
 -1      4071 9.13046E-05-2.45428E-05-2.85914E-05 8.52952E-07-1.38171E-18-8.95378E-19
 -1      4072 9.01668E-05-2.38307E-05-2.84434E-05 1.78406E-06-1.02005E-18-4.52399E-19
 -1      4073 8.96226E-05-2.34855E-05-2.83456E-05 2.06017E-06-6.65967E-19-5.18352E-19
 -1      4074 9.02071E-05-2.37651E-05-2.84490E-05 1.14854E-06-7.37132E-19-7.73107E-19
 -1      4075 8.88998E-05-2.31134E-05-2.82118E-05 2.33555E-06-2.29598E-19-6.75634E-20
 -1      4076 8.82829E-05-2.28009E-05-2.80639E-05 2.69362E-06 4.95153E-19-5.08041E-19
 -1      4077 8.88990E-05-2.29647E-05-2.82245E-05 1.55140E-06 2.30378E-20 7.21826E-19
 -1      4078 8.74298E-05-2.24631E-05-2.78662E-05 3.06912E-06 4.42284E-19-5.82934E-19
 -1      4079 8.67485E-05-2.22241E-05-2.76514E-05 3.54431E-06 5.41358E-19-6.37538E-19
 -1      4080 8.73535E-05-2.21841E-05-2.78876E-05 2.10666E-06 2.80478E-19 1.20340E-18
 -1      4081 8.57400E-05-2.19567E-05-2.73676E-05 4.06488E-06 2.49366E-19-5.98985E-19
 -1      4082 8.50121E-05-2.18463E-05-2.70652E-05 4.71404E-06 1.66553E-19-7.74545E-19
 -1      4083 8.55332E-05-2.14772E-05-2.73979E-05 2.88227E-06-1.85123E-21-1.61532E-19
 -1      4084 8.38069E-05-2.16934E-05-2.66649E-05 5.45549E-06 5.12121E-19-3.84358E-19
 -1      4085 8.30658E-05-2.17926E-05-2.62485E-05 6.37175E-06 5.02784E-19-6.51697E-19
 -1      4086 8.33707E-05-2.09067E-05-2.67013E-05 3.98200E-06 3.85302E-19-6.70469E-19
 -1      4087 8.15920E-05-2.17509E-05-2.56923E-05 7.44409E-06 5.75916E-20-7.94481E-19
 -1      4088 8.09156E-05-2.21897E-05-2.51305E-05 8.79515E-06-2.27897E-20-6.65596E-19
 -1      4089 8.07686E-05-2.06087E-05-2.57242E-05 5.53945E-06 1.28412E-20-6.72569E-19
 -1      4090 9.46579E-05-2.76667E-05-2.87109E-05-3.92649E-07-6.68842E-19-6.34278E-19
 -1      4091 9.47861E-05-2.78286E-05-2.86980E-05-3.42052E-07-2.78420E-19-6.26904E-19
 -1      4092 9.52592E-05-2.38316E-05-3.06126E-05-9.92622E-07 2.06310E-19-1.45769E-18
 -1      4093 9.49179E-05-2.79828E-05-2.86865E-05-3.14477E-07-1.11370E-19-4.83341E-19
 -1      4094 9.50220E-05-2.81195E-05-2.86740E-05-2.79203E-07-1.77051E-19 1.44780E-19
 -1      4095 9.48232E-05-2.78690E-05-2.86917E-05-2.31237E-07-2.13987E-19-2.01316E-19
 -1      4096 9.39235E-05-2.68454E-05-2.87492E-05-6.36759E-07-3.40056E-19 6.91212E-20
 -1      4097 9.41280E-05-2.70736E-05-2.87410E-05-5.50591E-07 4.25729E-19 1.13242E-19
 -1      4098 9.34056E-05-2.63198E-05-2.87533E-05-8.07094E-07-1.49624E-18 7.90387E-21
 -1      4099 9.36648E-05-2.65882E-05-2.87514E-05-7.01410E-07-1.03744E-18-2.27442E-19
 -1      4100 9.37049E-05-2.66251E-05-2.87399E-05-4.56869E-07-6.99574E-19 3.20319E-19
 -1      4101 9.27538E-05-2.57078E-05-2.87372E-05-1.01074E-06-1.04474E-18-1.18969E-19
 -1      4102 9.30806E-05-2.60192E-05-2.87460E-05-8.85310E-07-1.38663E-18-3.25358E-19
 -1      4103 9.31259E-05-2.60552E-05-2.87333E-05-5.69453E-07-1.26985E-18-7.42440E-19
 -1      4104 9.19398E-05-2.50076E-05-2.86897E-05-1.24643E-06 3.86999E-19-3.81209E-20
 -1      4105 9.23484E-05-2.53620E-05-2.87151E-05-1.10201E-06-1.73074E-19 3.91315E-19
 -1      4106 9.24015E-05-2.53966E-05-2.87018E-05-6.98076E-07-7.38716E-19-5.11460E-19
 -1      4107 9.09323E-05-2.42246E-05-2.85952E-05-1.51102E-06 2.25676E-19 8.23807E-19
 -1      4108 9.14383E-05-2.46182E-05-2.86454E-05-1.34927E-06 4.21399E-19 7.75139E-19
 -1      4109 9.15023E-05-2.46494E-05-2.86327E-05-8.37906E-07-2.25285E-20 2.08222E-20
 -1      4110 8.96965E-05-2.33731E-05-2.84325E-05-1.80021E-06-7.36109E-19 1.71056E-18
 -1      4111 9.03173E-05-2.37973E-05-2.85187E-05-1.62300E-06-5.46142E-20 1.55777E-18
 -1      4112 9.03960E-05-2.38212E-05-2.85086E-05-9.81337E-07-3.39563E-19 1.75878E-18
 -1      4113 8.81914E-05-2.24788E-05-2.81733E-05-2.11121E-06-4.75271E-19 1.00167E-18
 -1      4114 8.89470E-05-2.29189E-05-2.83106E-05-1.91862E-06-4.49701E-19 1.39865E-18
 -1      4115 8.90451E-05-2.29283E-05-2.83060E-05-1.11822E-06-1.96763E-19 2.20529E-18
 -1      4116 8.63637E-05-2.15785E-05-2.77792E-05-2.44869E-06-5.91061E-19 7.05796E-19
 -1      4117 8.72797E-05-2.20138E-05-2.79879E-05-2.23463E-06-4.28741E-19 8.44590E-19
 -1      4118 8.74028E-05-2.19956E-05-2.79935E-05-1.23720E-06-1.69523E-19 8.43089E-19
 -1      4119 8.41347E-05-2.07170E-05-2.71976E-05-2.83731E-06 8.89806E-20 6.69479E-21
 -1      4120 8.52478E-05-2.11219E-05-2.75056E-05-2.58016E-06-1.07854E-19 5.90898E-19
 -1      4121 8.54032E-05-2.10539E-05-2.75286E-05-1.32867E-06-1.81245E-19 3.78600E-19
 -1      4122 8.13832E-05-1.99402E-05-2.63542E-05-3.34730E-06 5.03180E-19-6.65468E-19
 -1      4123 8.27394E-05-2.02818E-05-2.68008E-05-2.99245E-06-7.73567E-20-1.24813E-19
 -1      4124 8.29387E-05-2.01294E-05-2.68520E-05-1.38911E-06-5.47263E-20-8.39952E-20
 -1      4125 7.79023E-05-1.93386E-05-2.51330E-05-4.14828E-06 4.77460E-19-8.26644E-19
 -1      4126 7.95829E-05-1.95636E-05-2.57790E-05-3.60415E-06 1.06953E-18-2.93418E-19
 -1      4127 7.97797E-05-1.92094E-05-2.58743E-05-1.45206E-06 6.94650E-19 4.68032E-19
 -1      4128 9.53137E-05-2.84795E-05-2.86426E-05-2.31559E-07-1.22855E-19 5.15174E-19
 -1      4129 9.53914E-05-2.85807E-05-2.86338E-05-2.21595E-07-2.02794E-19 4.13734E-19
 -1      4130 9.68768E-05-2.87164E-05-2.92135E-05-3.26651E-07 1.13570E-19-4.82344E-19
 -1      4131 9.68785E-05-2.84373E-05-2.93289E-05-2.40111E-07 3.45704E-19-5.16761E-19
 -1      4132 9.43332E-05-2.72912E-05-2.87332E-05-4.99215E-07 2.26503E-19-3.15091E-19
 -1      4133 9.44945E-05-2.74837E-05-2.87215E-05-4.31572E-07-6.85548E-19-4.40922E-19
 -1      4134 9.45306E-05-2.75224E-05-2.87134E-05-2.87736E-07-6.90348E-19-2.41662E-19
 -1      4135 9.41651E-05-2.71113E-05-2.87310E-05-3.62755E-07-3.06897E-19-2.26728E-19
 -1      4136 9.51314E-05-2.82503E-05-2.86630E-05-2.61773E-07-3.26308E-19 1.10981E-19
 -1      4137 9.52190E-05-2.83670E-05-2.86518E-05-2.40033E-07 2.17099E-20 4.91399E-19
 -1      4138 9.50620E-05-2.81624E-05-2.86697E-05-1.91969E-07-1.46757E-19 2.86841E-19
 -1      4139 7.05808E-05-1.76973E-05-2.25735E-05-1.60603E-06-2.74707E-19-1.23035E-18
 -1      4140 7.39233E-05-1.87554E-05-2.36484E-05-4.58009E-06-5.57143E-19-1.39871E-18
 -1      4141 7.55715E-05-1.89409E-05-2.43232E-05-4.15619E-06-1.44790E-19-1.55180E-18
 -1      4142 9.55722E-05-2.45324E-05-3.04431E-05-7.87500E-07 1.53060E-19-1.40434E-18
 -1      4143 9.63906E-05-2.92624E-05-2.87687E-05-6.23490E-07-2.27924E-20-6.51130E-19
 -1      4144 9.64628E-05-2.92234E-05-2.88152E-05-6.30011E-07-2.08893E-19-6.98039E-19
 -1      4145 9.64589E-05-2.93118E-05-2.87793E-05-5.07879E-07-9.92331E-20-9.89762E-19
 -1      4146 9.65767E-05-2.69453E-05-2.98444E-05-3.06038E-08 1.13680E-19-1.37047E-18
 -1      4147 9.69364E-05-2.85485E-05-2.93085E-05 1.82721E-07-2.24749E-19-4.98915E-19
 -1      4148 9.69359E-05-2.88108E-05-2.91964E-05 2.46990E-07-1.54912E-19-5.63449E-19
 -1      4149 9.69065E-05-2.90137E-05-2.90959E-05 2.50630E-07-1.07179E-19-5.30478E-19
 -1      4150 9.68556E-05-2.91611E-05-2.90111E-05 2.83445E-07 7.47507E-20-4.55534E-19
 -1      4151 9.68636E-05-2.92201E-05-2.89939E-05 1.52569E-07-2.66309E-19-8.17834E-19
 -1      4152 9.54781E-05-2.86792E-05-2.86273E-05-2.20963E-07-3.37511E-19-9.43975E-22
 -1      4153 9.55515E-05-2.87683E-05-2.86216E-05-2.21192E-07-3.64125E-19-3.74114E-19
 -1      4154 9.54430E-05-2.86304E-05-2.86345E-05-1.58309E-07-5.04366E-19-9.38237E-20
 -1      4155 7.09616E-05-1.90295E-05-2.21994E-05 8.07881E-06-5.92807E-20 6.25349E-21
 -1      4156 6.96719E-05-1.77703E-05-2.22819E-05 1.98488E-06-2.27769E-19-4.30253E-19
 -1      4157 7.28413E-05-1.82311E-05-2.34376E-05 2.22219E-06 6.36899E-19 7.73037E-19
 -1      4158 7.51144E-05-2.04946E-05-2.33343E-05 8.58133E-06 2.10256E-19-3.50535E-19
 -1      4159 9.57724E-05-2.90285E-05-2.86031E-05-4.01846E-07-5.90046E-20-4.03366E-19
 -1      4160 9.58334E-05-2.90842E-05-2.86068E-05-4.29521E-07-2.05521E-19-3.56415E-19
 -1      4161 9.59443E-05-2.91515E-05-2.86273E-05-3.73204E-07-1.60278E-19-4.58717E-19
 -1      4162 9.57905E-05-2.90281E-05-2.86140E-05-3.31753E-07 1.05451E-19-7.44516E-19
 -1      4163 9.59964E-05-2.56603E-05-3.01512E-05 6.53785E-07 5.67094E-19-7.14091E-19
 -1      4164 9.59474E-05-2.53757E-05-3.02487E-05 4.40453E-07 4.01168E-19-9.85050E-19
 -1      4165 9.56363E-05-2.88563E-05-2.86189E-05-2.27111E-07-1.37008E-19-3.63956E-19
 -1      4166 9.57118E-05-2.89363E-05-2.86174E-05-2.37462E-07-9.82164E-20-6.60798E-19
 -1      4167 9.56119E-05-2.88217E-05-2.86256E-05-1.59697E-07-3.14312E-19-6.06385E-19
 -1      4168 7.80498E-05-2.13171E-05-2.43276E-05 8.99643E-06 2.83410E-19-6.87103E-19
 -1      4169 9.68162E-05-2.80758E-05-2.94644E-05-1.93429E-07 3.86937E-19-5.20171E-19
 -1      4170 9.67529E-05-2.76450E-05-2.96134E-05-4.11132E-08 3.77694E-19-7.40295E-19
 -1      4171 9.68936E-05-2.82055E-05-2.94393E-05-1.44971E-07 3.45352E-19-7.95703E-19
 -1      4172 9.66198E-05-2.92226E-05-2.88863E-05-5.18721E-07-2.43942E-19-4.82883E-19
 -1      4173 9.63150E-05-2.61891E-05-3.00420E-05 2.43172E-07 4.66627E-19-7.97456E-19
 -1      4174 9.68133E-05-2.90962E-05-2.90220E-05-3.89038E-07-7.94940E-20-4.02175E-19
 -1      4175 9.68630E-05-2.89355E-05-2.91091E-05-3.45197E-07-4.37051E-20-4.24146E-19
 -1      4176 9.69312E-05-2.88116E-05-2.91974E-05-2.31166E-07 1.93811E-19-7.59231E-19
 -1      4177 7.58505E-05-1.84969E-05-2.45042E-05-1.53430E-06 8.61214E-19 3.50748E-19
 -1      4178 9.52638E-05-2.84130E-05-2.86499E-05-1.68279E-07-2.22981E-19 1.73419E-19
 -1      4179 9.63156E-05-2.66932E-05-2.98401E-05 2.39859E-07 6.63549E-19-4.35196E-19
 -1      4180 9.64447E-05-2.68440E-05-2.98290E-05 1.43733E-07 4.57229E-19-4.45515E-19
 -1      4181 9.69612E-05-2.89028E-05-2.91711E-05 1.33074E-07 6.09554E-20-6.16508E-19
 -1      4182 9.68225E-05-2.77946E-05-2.95819E-05 4.99947E-08 4.00898E-20-1.04675E-18
 -1      4183 9.68963E-05-2.82074E-05-2.94393E-05 1.65989E-07-1.03674E-19-7.82210E-19
 -1      4184 9.69495E-05-2.83450E-05-2.94037E-05 9.08652E-08 5.32814E-20-8.65084E-19
 -1      4185 9.63180E-05-2.93371E-05-2.87055E-05-3.54093E-07 9.83974E-20-4.29907E-19
 -1      4186 9.64069E-05-2.93537E-05-2.87363E-05-3.70416E-07-4.60472E-20-5.73913E-19
 -1      4187 9.66642E-05-2.71581E-05-2.97907E-05-1.53259E-08 2.67950E-19-1.23593E-18
 -1      4188 9.61375E-05-2.92617E-05-2.86592E-05-3.13725E-07-4.19739E-19-2.05027E-19
 -1      4189 9.62229E-05-2.93037E-05-2.86784E-05-3.33770E-07-3.18406E-20-3.60141E-19
 -1      4190 9.63255E-05-2.93497E-05-2.87053E-05-2.43979E-07-9.56424E-20-5.83303E-19
 -1      4191 9.66457E-05-2.70758E-05-2.98197E-05-2.43178E-08 3.05269E-19-9.99408E-19
 -1      4192 9.68939E-05-2.78960E-05-2.95648E-05 1.00494E-08 2.76358E-19-9.14702E-19
 -1      4193 9.69600E-05-2.82960E-05-2.94284E-05-4.93912E-08 2.61616E-19-9.16454E-19
 -1      4194 9.65862E-05-2.94066E-05-2.87896E-05 3.24353E-08-3.97131E-19-7.83302E-19
 -1      4195 9.64875E-05-2.94022E-05-2.87492E-05 2.71910E-08-3.92121E-19-1.04122E-18
 -1      4196 9.63424E-05-2.93575E-05-2.87067E-05-4.92481E-08-8.12478E-20-1.05652E-18
 -1      4197 9.62425E-05-2.93157E-05-2.86818E-05-4.77121E-08 1.55569E-19-1.07333E-18
 -1      4198 9.59943E-05-2.91600E-05-2.86419E-05 2.30414E-08-1.84729E-19-8.54164E-19
 -1      4199 9.59042E-05-2.90890E-05-2.86336E-05 1.77970E-08 4.59245E-20-7.21902E-19
 -1      4200 9.57794E-05-2.89814E-05-2.86273E-05-3.50014E-08-1.51932E-19-5.92702E-19
 -1      4201 9.56930E-05-2.88966E-05-2.86262E-05-3.44513E-08-2.81240E-19-6.72449E-19
 -1      4202 9.56084E-05-2.88076E-05-2.86283E-05-3.33348E-08-3.05237E-19-9.48201E-19
 -1      4203 9.55199E-05-2.87123E-05-2.86314E-05-3.24126E-08-1.79413E-19-1.04238E-18
 -1      4204 9.54320E-05-2.86114E-05-2.86373E-05-3.48684E-08-2.34076E-19-1.13276E-18
 -1      4205 9.53389E-05-2.85035E-05-2.86438E-05-3.23804E-08-3.55343E-19-1.17795E-18
 -1      4206 9.52427E-05-2.83884E-05-2.86525E-05-3.92791E-08-2.81335E-19-1.15724E-18
 -1      4207 9.51394E-05-2.82643E-05-2.86615E-05-3.43250E-08-1.83871E-19-1.32367E-18
 -1      4208 9.50284E-05-2.81312E-05-2.86718E-05-4.64272E-08-2.56785E-19-1.22759E-18
 -1      4209 9.49078E-05-2.79863E-05-2.86821E-05-3.82999E-08-3.96281E-19-1.30529E-18
 -1      4210 9.47742E-05-2.78301E-05-2.86929E-05-5.61526E-08-2.79036E-19-9.67876E-19
 -1      4211 9.46281E-05-2.76594E-05-2.87031E-05-4.39771E-08-3.45988E-19-8.93104E-19
 -1      4212 9.44626E-05-2.74748E-05-2.87130E-05-6.79048E-08-5.48293E-19-9.83583E-19
 -1      4213 9.42818E-05-2.72727E-05-2.87215E-05-5.04962E-08-4.19710E-19-1.18206E-18
 -1      4214 9.40741E-05-2.70542E-05-2.87282E-05-8.04633E-08-4.13858E-19-9.97217E-19
 -1      4215 9.38484E-05-2.68159E-05-2.87327E-05-5.61600E-08-9.09535E-19-1.03900E-18
 -1      4216 9.35868E-05-2.65588E-05-2.87335E-05-9.15474E-08-1.03123E-18-9.06000E-19
 -1      4217 9.33050E-05-2.62804E-05-2.87308E-05-5.79772E-08-9.86994E-19-1.15794E-18
 -1      4218 9.29765E-05-2.59811E-05-2.87218E-05-9.72833E-08-7.49843E-19-1.30184E-18
 -1      4219 9.26270E-05-2.56606E-05-2.87076E-05-5.10207E-08-7.99102E-19-1.20411E-18
 -1      4220 9.22173E-05-2.53181E-05-2.86833E-05-9.15075E-08-1.04821E-18-9.39406E-19
 -1      4221 9.17880E-05-2.49568E-05-2.86516E-05-2.75687E-08-1.08047E-18-8.81788E-19
 -1      4222 9.12813E-05-2.45732E-05-2.86048E-05-6.49070E-08-4.91416E-19-2.30783E-19
 -1      4223 9.07595E-05-2.41764E-05-2.85479E-05 2.39977E-08-4.36634E-19 9.94945E-20
 -1      4224 9.01380E-05-2.37579E-05-2.84684E-05-4.01224E-09-6.51196E-19 3.78284E-19
 -1      4225 8.95105E-05-2.33362E-05-2.83758E-05 1.20564E-07-2.07942E-19 1.12095E-18
 -1      4226 8.87526E-05-2.28941E-05-2.82505E-05 1.09934E-07-1.11976E-19 6.48435E-19
 -1      4227 8.80043E-05-2.24635E-05-2.81084E-05 2.85952E-07 4.51954E-19 6.91750E-19
 -1      4228 8.70815E-05-2.20135E-05-2.79195E-05 3.02308E-07-4.17501E-20 2.75085E-19
 -1      4229 8.61924E-05-2.15950E-05-2.77098E-05 5.52996E-07-2.04874E-19 3.03928E-19
 -1      4230 8.50627E-05-2.11554E-05-2.74328E-05 6.07189E-07-5.06144E-20-8.94149E-20
 -1      4231 8.40034E-05-2.07732E-05-2.71312E-05 9.66345E-07-2.70307E-19-6.83954E-20
 -1      4232 8.25993E-05-2.03586E-05-2.67322E-05 1.07330E-06-3.07843E-19 3.42228E-19
 -1      4233 8.13290E-05-2.00393E-05-2.63062E-05 1.59438E-06 1.83461E-19-1.70835E-19
 -1      4234 7.95088E-05-1.95911E-05-2.57325E-05 1.80411E-06 5.15744E-19 4.19005E-19
 -1      4235 7.80489E-05-1.93981E-05-2.51472E-05 2.45057E-06 6.22769E-19-9.92824E-22
 -1      4236 9.65089E-05-2.68559E-05-2.98561E-05 6.41312E-08 4.13148E-19-7.99854E-19
 -1      4237 9.69857E-05-2.88726E-05-2.91903E-05-5.81187E-08 9.28209E-20-7.34466E-19
 -1      4238 9.69535E-05-2.90687E-05-2.90900E-05-4.35042E-08 6.70604E-20-7.90825E-19
 -1      4239 9.66770E-05-2.92902E-05-2.88796E-05-4.02956E-07-1.58065E-19-7.05272E-19
 -1      4240 9.67532E-05-2.92130E-05-2.89435E-05-3.88553E-07-6.15922E-20-4.79245E-19
 -1      4241 9.68494E-05-2.91634E-05-2.90125E-05-2.71456E-07-3.86792E-20-8.30088E-19
 -1      4242 9.65036E-05-2.93551E-05-2.87768E-05-3.84980E-07-1.04608E-19-5.73625E-19
 -1      4243 9.65921E-05-2.93358E-05-2.88222E-05-3.89571E-07-1.88388E-19-6.76467E-19
 -1      4244 9.65137E-05-2.93781E-05-2.87742E-05-2.62070E-07-1.50558E-19-3.60612E-19
 -1      4245 7.61735E-05-1.96551E-05-2.42284E-05 5.91670E-06 4.06686E-19-5.77417E-19
 -1      4246 9.68955E-05-2.92044E-05-2.90084E-05-5.99632E-08-1.52174E-19-5.37899E-19
 -1      4247 9.68218E-05-2.93039E-05-2.89330E-05-5.19342E-08-2.97551E-19-5.38772E-19
 -1      4248 9.66198E-05-2.70665E-05-2.98113E-05 2.70634E-08 3.63865E-19-1.00071E-18
 -1      4249 9.69951E-05-2.86252E-05-2.92981E-05-2.59250E-08 2.54712E-19-7.45402E-19
 -1      4250 9.67371E-05-2.93626E-05-2.88731E-05-5.87241E-08-2.26821E-19-5.94500E-19
 -1      4251 9.66403E-05-2.93940E-05-2.88180E-05-5.49904E-08-1.79823E-19-6.50085E-19
 -1      4252 9.58169E-05-2.90192E-05-2.86293E-05-1.16651E-07-1.65008E-20-7.55040E-19
 -1      4253 9.58364E-05-2.90439E-05-2.86248E-05-1.96001E-07 8.90926E-20-7.73125E-19
 -1      4254 9.61617E-05-2.92780E-05-2.86671E-05-1.86438E-07 6.29920E-20-5.20967E-19
 -1      4255 9.61689E-05-2.92747E-05-2.86672E-05-8.34543E-09 1.97908E-19-1.25449E-18
 -1      4256 9.60690E-05-2.92150E-05-2.86510E-05-1.07066E-08-7.32515E-20-1.01747E-18
 -1      4257 9.60675E-05-2.92230E-05-2.86474E-05-2.66551E-07-1.65273E-19-5.07642E-19
 -1      4258 9.59880E-05-2.91657E-05-2.86365E-05-2.48923E-07 1.60393E-19-7.80019E-19
 -1      4259 7.50967E-05-1.85015E-05-2.42716E-05 1.72611E-06 1.16747E-18 8.30509E-19
 -1      4260 9.67017E-05-2.93364E-05-2.88750E-05-2.79819E-07-1.85290E-19-4.88451E-19
 -1      4261 9.60182E-05-2.91830E-05-2.86456E-05-1.05052E-07 5.96278E-20-6.20442E-19
 -1      4262 9.59156E-05-2.91127E-05-2.86295E-05-2.08996E-07 2.66155E-19-7.82946E-19
 -1      4263 9.65784E-05-2.93980E-05-2.87932E-05-1.82946E-07-2.10084E-19-4.42687E-19
 -1      4264 9.63793E-05-2.93666E-05-2.87212E-05-1.63579E-07-2.51666E-19-5.30155E-19
 -1      4265 9.64725E-05-2.93876E-05-2.87503E-05-1.75025E-07-1.85637E-19-5.76831E-19
 -3
    1PSTEP                         4           1           1          
  100CL  101 1.000000000        4265                     0    1           1
 -4  ERROR       1    1
 -5  STR(%)      1    1    0    0
 -1         1 1.33559E+01
 -1         2 2.55167E+01
 -1         3 1.62109E-01
 -1         4 2.04490E-01
 -1         5 1.40389E+01
 -1         6 1.31430E+01
 -1         7 1.31430E+01
 -1         8 3.66370E+00
 -1         9 1.82409E+00
 -1        10 1.29169E+00
 -1        11 1.04604E+00
 -1        12 8.99351E-01
 -1        13 8.08890E-01
 -1        14 7.53811E-01
 -1        15 7.55755E-01
 -1        16 8.13161E-01
 -1        17 9.00900E-01
 -1        18 1.05272E+00
 -1        19 1.30790E+00
 -1        20 1.83592E+00
 -1        21 3.50548E+00
 -1        22 8.64104E+00
 -1        23 1.31430E+01
 -1        24 4.31747E+00
 -1        25 3.34052E+00
 -1        26 2.11099E+00
 -1        27 1.36207E+00
 -1        28 1.01375E+00
 -1        29 7.74693E-01
 -1        30 5.94827E-01
 -1        31 4.54500E-01
 -1        32 3.46885E-01
 -1        33 2.67893E-01
 -1        34 2.04363E-01
 -1        35 1.54238E-01
 -1        36 1.15543E-01
 -1        37 8.64847E-02
 -1        38 6.54883E-02
 -1        39 5.12094E-02
 -1        40 4.27085E-02
 -1        41 4.00583E-02
 -1        42 4.74493E-02
 -1        43 5.80036E-02
 -1        44 7.11050E-02
 -1        45 8.59184E-02
 -1        46 1.15877E-01
 -1        47 1.55501E-01
 -1        48 2.04265E-01
 -1        49 2.61714E-01
 -1        50 3.25875E-01
 -1        51 3.92373E-01
 -1        52 4.63434E-01
 -1        53 6.00850E-01
 -1        54 7.55448E-01
 -1        55 9.42436E-01
 -1        56 1.10054E+00
 -1        57 1.16988E+00
 -1        58 1.26521E+00
 -1        59 1.36495E+00
 -1        60 1.56632E+00
 -1        61 2.13951E+00
 -1        62 3.31490E+00
 -1        63 4.79185E+00
 -1        64 5.41922E+00
 -1        65 5.41922E+00
 -1        66 5.07462E+00
 -1        67 4.75079E+00
 -1        68 3.62311E+00
 -1        69 2.31879E+00
 -1        70 1.33744E+00
 -1        71 8.72387E-01
 -1        72 1.40389E+01
 -1        73 3.39456E+00
 -1        74 2.41286E+00
 -1        75 1.66560E+00
 -1        76 1.14445E+00
 -1        77 9.05888E-01
 -1        78 7.31160E-01
 -1        79 5.87619E-01
 -1        80 4.67934E-01
 -1        81 3.68252E-01
 -1        82 2.93846E-01
 -1        83 2.31819E-01
 -1        84 1.80527E-01
 -1        85 1.39176E-01
 -1        86 1.06784E-01
 -1        87 8.23464E-02
 -1        88 6.49350E-02
 -1        89 5.37577E-02
 -1        90 4.92328E-02
 -1        91 5.79758E-02
 -1        92 7.21323E-02
 -1        93 9.17966E-02
 -1        94 1.17068E-01
 -1        95 1.47901E-01
 -1        96 1.83888E-01
 -1        97 2.23924E-01
 -1        98 2.87493E-01
 -1        99 3.70234E-01
 -1       100 4.65109E-01
 -1       101 5.67279E-01
 -1       102 6.66550E-01
 -1       103 7.44750E-01
 -1       104 7.72882E-01
 -1       105 1.01735E+00
 -1       106 1.31821E+00
 -1       107 1.55372E+00
 -1       108 1.90898E+00
 -1       109 2.32812E+00
 -1       110 2.51556E+00
 -1       111 3.31741E+00
 -1       112 4.70697E+00
 -1       113 6.18671E+00
 -1       114 6.31335E+00
 -1       115 6.31335E+00
 -1       116 5.91341E+00
 -1       117 4.04173E+00
 -1       118 2.29240E+00
 -1       119 1.15069E+00
 -1       120 5.47337E-01
 -1       121 2.80766E-01
 -1       122 7.85100E-01
 -1       123 1.17624E+00
 -1       124 1.35835E+00
 -1       125 1.35835E+00
 -1       126 9.10182E-01
 -1       127 2.09921E+00
 -1       128 2.09921E+00
 -1       129 1.75924E+00
 -1       130 1.19136E+00
 -1       131 1.40401E+00
 -1       132 1.40401E+00
 -1       133 1.15085E+00
 -1       134 7.76359E-01
 -1       135 2.90618E-01
 -1       136 4.56158E-01
 -1       137 2.55167E+01
 -1       138 4.66840E+01
 -1       139 4.66840E+01
 -1       140 1.89517E+01
 -1       141 1.25085E+01
 -1       142 1.25085E+01
 -1       143 1.24899E+01
 -1       144 1.36861E+01
 -1       145 1.36861E+01
 -1       146 1.57173E+01
 -1       147 4.23738E+01
 -1       148 4.23738E+01
 -1       149 2.41147E+01
 -1       150 2.41147E+01
 -1       151 2.41658E+01
 -1       152 2.66062E+01
 -1       153 3.41214E+01
 -1       154 3.34830E+01
 -1       155 1.25512E+01
 -1       156 1.25512E+01
 -1       157 1.35859E+01
 -1       158 1.35859E+01
 -1       159 1.27346E+01
 -1       160 1.86952E+01
 -1       161 4.68059E+01
 -1       162 4.68059E+01
 -1       163 2.49211E+01
 -1       164 6.07784E+00
 -1       165 2.29829E+00
 -1       166 1.50846E+00
 -1       167 1.15757E+00
 -1       168 9.73273E-01
 -1       169 8.64158E-01
 -1       170 7.96047E-01
 -1       171 7.55755E-01
 -1       172 7.99424E-01
 -1       173 8.67255E-01
 -1       174 9.81094E-01
 -1       175 1.17263E+00
 -1       176 1.52772E+00
 -1       177 2.26095E+00
 -1       178 3.93110E+00
 -1       179 1.40389E+01
 -1       180 4.31747E+00
 -1       181 3.34052E+00
 -1       182 2.11099E+00
 -1       183 1.44663E+00
 -1       184 1.02511E+00
 -1       185 7.74693E-01
 -1       186 5.94827E-01
 -1       187 4.67320E-01
 -1       188 3.67150E-01
 -1       189 2.89123E-01
 -1       190 2.32306E-01
 -1       191 1.84101E-01
 -1       192 1.44344E-01
 -1       193 1.12411E-01
 -1       194 8.74621E-02
 -1       195 6.85804E-02
 -1       196 5.48466E-02
 -1       197 4.53732E-02
 -1       198 4.03572E-02
 -1       199 4.74493E-02
 -1       200 5.80036E-02
 -1       201 7.11050E-02
 -1       202 9.42062E-02
 -1       203 1.24065E-01
 -1       204 1.60773E-01
 -1       205 2.04265E-01
 -1       206 2.61714E-01
 -1       207 3.46272E-01
 -1       208 4.46217E-01
 -1       209 5.52208E-01
 -1       210 6.51731E-01
 -1       211 7.73584E-01
 -1       212 9.42436E-01
 -1       213 1.10054E+00
 -1       214 1.16988E+00
 -1       215 1.26521E+00
 -1       216 1.36495E+00
 -1       217 1.56632E+00
 -1       218 2.17017E+00
 -1       219 3.31490E+00
 -1       220 4.79185E+00
 -1       221 5.41922E+00
 -1       222 5.07462E+00
 -1       223 4.75079E+00
 -1       224 3.62311E+00
 -1       225 2.56670E+00
 -1       226 1.62396E+00
 -1       227 9.07977E-01
 -1       228 3.39456E+00
 -1       229 2.41286E+00
 -1       230 1.66560E+00
 -1       231 1.14445E+00
 -1       232 9.05888E-01
 -1       233 7.31160E-01
 -1       234 5.87619E-01
 -1       235 4.67934E-01
 -1       236 3.68252E-01
 -1       237 2.93846E-01
 -1       238 2.31819E-01
 -1       239 1.83484E-01
 -1       240 1.44149E-01
 -1       241 1.12533E-01
 -1       242 8.79800E-02
 -1       243 6.97742E-02
 -1       244 5.72302E-02
 -1       245 4.97389E-02
 -1       246 5.42101E-02
 -1       247 6.40704E-02
 -1       248 7.82361E-02
 -1       249 9.64929E-02
 -1       250 1.18445E-01
 -1       251 1.49507E-01
 -1       252 1.97000E-01
 -1       253 2.54944E-01
 -1       254 3.23134E-01
 -1       255 3.99724E-01
 -1       256 4.82134E-01
 -1       257 5.67279E-01
 -1       258 6.66550E-01
 -1       259 7.44750E-01
 -1       260 9.00843E-01
 -1       261 1.09907E+00
 -1       262 1.31821E+00
 -1       263 1.55372E+00
 -1       264 1.90898E+00
 -1       265 2.32812E+00
 -1       266 2.51556E+00
 -1       267 3.31741E+00
 -1       268 4.70697E+00
 -1       269 6.18671E+00
 -1       270 6.31335E+00
 -1       271 5.91341E+00
 -1       272 4.04173E+00
 -1       273 2.34801E+00
 -1       274 1.23595E+00
 -1       275 5.80682E-01
 -1       276 1.13787E+00
 -1       277 1.75461E+00
 -1       278 2.26235E+00
 -1       279 2.29037E+00
 -1       280 2.29037E+00
 -1       281 3.67344E+00
 -1       282 4.72576E+00
 -1       283 4.72576E+00
 -1       284 2.75430E+00
 -1       285 2.36963E+00
 -1       286 2.36963E+00
 -1       287 2.27127E+00
 -1       288 1.79772E+00
 -1       289 1.12708E+00
 -1       290 1.01040E+00
 -1       291 3.31037E+01
 -1       292 2.84371E+01
 -1       293 4.66840E+01
 -1       294 2.01252E+01
 -1       295 1.08615E+01
 -1       296 1.25085E+01
 -1       297 1.21515E+01
 -1       298 1.24899E+01
 -1       299 1.36861E+01
 -1       300 1.16239E+01
 -1       301 1.66166E+01
 -1       302 4.23738E+01
 -1       303 3.63160E+01
 -1       304 2.70961E+01
 -1       305 2.70961E+01
 -1       306 2.41658E+01
 -1       307 3.41214E+01
 -1       308 3.41214E+01
 -1       309 1.33559E+01
 -1       310 1.16444E+01
 -1       311 1.25512E+01
 -1       312 1.24503E+01
 -1       313 1.35859E+01
 -1       314 1.27346E+01
 -1       315 1.08203E+01
 -1       316 2.06413E+01
 -1       317 4.68059E+01
 -1       318 2.77884E+01
 -1       319 3.31037E+01
 -1       320 1.04712E+00
 -1       321 2.48021E+00
 -1       322 7.91603E-01
 -1       323 6.94102E-01
 -1       324 6.31756E-01
 -1       325 5.87586E-01
 -1       326 5.90837E-01
 -1       327 6.34558E-01
 -1       328 7.01342E-01
 -1       329 7.96560E-01
 -1       330 9.31988E-01
 -1       331 1.16035E+00
 -1       332 1.32929E+00
 -1       333 2.20049E+00
 -1       334 1.91393E+00
 -1       335 1.72880E+00
 -1       336 1.26698E+00
 -1       337 9.06528E-01
 -1       338 6.55332E-01
 -1       339 5.37973E-01
 -1       340 4.40748E-01
 -1       341 3.55055E-01
 -1       342 2.89562E-01
 -1       343 2.34219E-01
 -1       344 1.86689E-01
 -1       345 1.51305E-01
 -1       346 1.22039E-01
 -1       347 9.75625E-02
 -1       348 7.76433E-02
 -1       349 6.18035E-02
 -1       350 4.94180E-02
 -1       351 3.97679E-02
 -1       352 3.90519E-02
 -1       353 4.15428E-02
 -1       354 5.35853E-02
 -1       355 7.09093E-02
 -1       356 9.42062E-02
 -1       357 1.29705E-01
 -1       358 1.81102E-01
 -1       359 2.44771E-01
 -1       360 3.20695E-01
 -1       361 4.06877E-01
 -1       362 4.98165E-01
 -1       363 5.84828E-01
 -1       364 6.66226E-01
 -1       365 7.55666E-01
 -1       366 8.39444E-01
 -1       367 8.47485E-01
 -1       368 7.21101E-01
 -1       369 6.65032E-01
 -1       370 8.08800E-01
 -1       371 1.59291E+00
 -1       372 2.32468E+00
 -1       373 2.99634E+00
 -1       374 3.46464E+00
 -1       375 3.40678E+00
 -1       376 3.25874E+00
 -1       377 3.01222E+00
 -1       378 2.43731E+00
 -1       379 1.91565E+00
 -1       380 1.61420E+00
 -1       381 1.13017E+00
 -1       382 8.90754E-01
 -1       383 7.03156E-01
 -1       384 5.44291E-01
 -1       385 4.37086E-01
 -1       386 3.70428E-01
 -1       387 3.06498E-01
 -1       388 2.50912E-01
 -1       389 2.05471E-01
 -1       390 1.65686E-01
 -1       391 1.32060E-01
 -1       392 1.04478E-01
 -1       393 8.26336E-02
 -1       394 6.62750E-02
 -1       395 5.46277E-02
 -1       396 4.72723E-02
 -1       397 4.44842E-02
 -1       398 4.85424E-02
 -1       399 5.65469E-02
 -1       400 7.22753E-02
 -1       401 9.56259E-02
 -1       402 1.25681E-01
 -1       403 1.69967E-01
 -1       404 2.41709E-01
 -1       405 3.33946E-01
 -1       406 4.48887E-01
 -1       407 5.86564E-01
 -1       408 7.42748E-01
 -1       409 9.05916E-01
 -1       410 1.05344E+00
 -1       411 1.19117E+00
 -1       412 1.26998E+00
 -1       413 1.26998E+00
 -1       414 1.19474E+00
 -1       415 9.85899E-01
 -1       416 1.05933E+00
 -1       417 2.21774E+00
 -1       418 3.28272E+00
 -1       419 3.73362E+00
 -1       420 3.68494E+00
 -1       421 3.66872E+00
 -1       422 3.47211E+00
 -1       423 2.94020E+00
 -1       424 2.56005E+00
 -1       425 1.67648E+00
 -1       426 7.24349E-01
 -1       427 2.96810E+00
 -1       428 2.66152E+00
 -1       429 1.67648E+00
 -1       430 3.38745E+00
 -1       431 4.99631E+00
 -1       432 8.14676E+00
 -1       433 8.14676E+00
 -1       434 7.02576E+00
 -1       435 4.68333E+00
 -1       436 3.44797E+00
 -1       437 2.79524E+00
 -1       438 2.39552E+00
 -1       439 1.78209E+00
 -1       440 2.84371E+01
 -1       441 3.31037E+01
 -1       442 2.89338E+01
 -1       443 1.56913E+01
 -1       444 8.68109E+00
 -1       445 9.18405E-01
 -1       446 1.03304E+01
 -1       447 1.03867E+01
 -1       448 1.05872E+01
 -1       449 8.17060E+00
 -1       450 8.33597E+00
 -1       451 1.41571E+01
 -1       452 2.43872E+01
 -1       453 2.10779E+01
 -1       454 3.30318E+01
 -1       455 3.30318E+01
 -1       456 2.61299E+01
 -1       457 2.19041E+01
 -1       458 1.21589E+01
 -1       459 7.67497E+00
 -1       460 9.37860E+00
 -1       461 1.01806E+01
 -1       462 1.07765E+01
 -1       463 9.05815E+00
 -1       464 7.82247E+00
 -1       465 8.64415E+00
 -1       466 1.56759E+01
 -1       467 2.77884E+01
 -1       468 2.69886E+01
 -1       469 7.61261E+00
 -1       470 9.75373E+00
 -1       471 8.54996E+00
 -1       472 1.04739E+00
 -1       473 4.86108E-01
 -1       474 5.10862E-01
 -1       475 4.31627E-01
 -1       476 4.57532E-01
 -1       477 4.87227E-01
 -1       478 5.11395E-01
 -1       479 5.11395E-01
 -1       480 6.09486E-01
 -1       481 8.90754E-01
 -1       482 8.02829E-01
 -1       483 5.78091E+00
 -1       484 7.02169E-01
 -1       485 5.88179E-01
 -1       486 4.75818E-01
 -1       487 3.77097E-01
 -1       488 3.22260E-01
 -1       489 2.72118E-01
 -1       490 2.24688E-01
 -1       491 1.86164E-01
 -1       492 1.52496E-01
 -1       493 1.23199E-01
 -1       494 9.85266E-02
 -1       495 7.92149E-02
 -1       496 6.35392E-02
 -1       497 5.02968E-02
 -1       498 3.97679E-02
 -1       499 3.39879E-02
 -1       500 3.36571E-02
 -1       501 4.15185E-02
 -1       502 5.35712E-02
 -1       503 8.10324E-02
 -1       504 1.16271E-01
 -1       505 1.60816E-01
 -1       506 2.15908E-01
 -1       507 2.82139E-01
 -1       508 3.58898E-01
 -1       509 4.43600E-01
 -1       510 5.30688E-01
 -1       511 6.11431E-01
 -1       512 6.89100E-01
 -1       513 7.47829E-01
 -1       514 8.15396E-01
 -1       515 8.45033E-01
 -1       516 8.84828E-01
 -1       517 1.15477E+00
 -1       518 1.34369E+00
 -1       519 1.87268E+00
 -1       520 2.27647E+00
 -1       521 2.71527E+00
 -1       522 3.05681E+00
 -1       523 3.14069E+00
 -1       524 2.60680E+00
 -1       525 2.42334E+00
 -1       526 2.56570E+00
 -1       527 1.96942E+01
 -1       528 5.44291E-01
 -1       529 4.37086E-01
 -1       530 3.70428E-01
 -1       531 3.06498E-01
 -1       532 2.50912E-01
 -1       533 2.06205E-01
 -1       534 1.66985E-01
 -1       535 1.33538E-01
 -1       536 1.08264E-01
 -1       537 8.74230E-02
 -1       538 7.00688E-02
 -1       539 5.58582E-02
 -1       540 4.42576E-02
 -1       541 3.75181E-02
 -1       542 3.57571E-02
 -1       543 4.23323E-02
 -1       544 5.47858E-02
 -1       545 7.49378E-02
 -1       546 1.11588E-01
 -1       547 1.59958E-01
 -1       548 2.22782E-01
 -1       549 3.02772E-01
 -1       550 4.02185E-01
 -1       551 5.22037E-01
 -1       552 6.60807E-01
 -1       553 8.12464E-01
 -1       554 9.63812E-01
 -1       555 1.09407E+00
 -1       556 1.20376E+00
 -1       557 1.32248E+00
 -1       558 1.43778E+00
 -1       559 1.45670E+00
 -1       560 1.85254E+00
 -1       561 2.03800E+00
 -1       562 2.74021E+00
 -1       563 5.51666E+00
 -1       564 6.95526E+00
 -1       565 4.51507E+00
 -1       566 3.66872E+00
 -1       567 3.27923E+00
 -1       568 3.34053E+00
 -1       569 3.31259E+00
 -1       570 8.30176E+00
 -1       571 1.64643E+01
 -1       572 3.31259E+00
 -1       573 4.96306E+00
 -1       574 1.40369E+01
 -1       575 1.23774E+01
 -1       576 1.05024E+01
 -1       577 6.29522E+00
 -1       578 4.03677E+00
 -1       579 2.78281E+00
 -1       580 2.07025E+00
 -1       581 8.61625E+00
 -1       582 7.03156E-01
 -1       583 2.89338E+01
 -1       584 1.33996E+01
 -1       585 2.06307E+01
 -1       586 7.43135E+00
 -1       587 1.05148E+01
 -1       588 2.61299E+01
 -1       589 4.57331E-01
 -1       590 8.82775E+00
 -1       591 1.22177E+01
 -1       592 8.48759E+00
 -1       593 4.59881E+00
 -1       594 7.89880E+00
 -1       595 8.76276E+00
 -1       596 1.91556E+01
 -1       597 1.88767E+01
 -1       598 3.30318E+01
 -1       599 1.60891E+01
 -1       600 8.69087E+00
 -1       601 4.07336E+00
 -1       602 7.45040E+00
 -1       603 5.14073E+00
 -1       604 4.63578E+00
 -1       605 1.12334E+01
 -1       606 2.69886E+01
 -1       607 8.73766E-01
 -1       608 1.32787E+00
 -1       609 4.44499E+00
 -1       610 7.19976E-01
 -1       611 7.85939E+00
 -1       612 2.07025E+00
 -1       613 1.98056E+01
 -1       614 7.04178E+00
 -1       615 7.02957E+00
 -1       616 3.58371E-01
 -1       617 3.42744E-01
 -1       618 3.61945E-01
 -1       619 3.37981E-01
 -1       620 5.43873E-01
 -1       621 5.14775E-01
 -1       622 5.20819E+00
 -1       623 3.97007E-01
 -1       624 3.83531E-01
 -1       625 3.42713E-01
 -1       626 2.93097E-01
 -1       627 2.43444E-01
 -1       628 2.12241E-01
 -1       629 1.79793E-01
 -1       630 1.48869E-01
 -1       631 1.21008E-01
 -1       632 9.79201E-02
 -1       633 7.92149E-02
 -1       634 6.35392E-02
 -1       635 5.02968E-02
 -1       636 3.92337E-02
 -1       637 3.06404E-02
 -1       638 2.34520E-02
 -1       639 2.80322E-02
 -1       640 4.18165E-02
 -1       641 6.48765E-02
 -1       642 9.40095E-02
 -1       643 1.30692E-01
 -1       644 1.76380E-01
 -1       645 2.32359E-01
 -1       646 2.99518E-01
 -1       647 3.78002E-01
 -1       648 4.67221E-01
 -1       649 5.67169E-01
 -1       650 6.66231E-01
 -1       651 7.50157E-01
 -1       652 8.75435E-01
 -1       653 1.04119E+00
 -1       654 1.19690E+00
 -1       655 1.35711E+00
 -1       656 1.88067E+00
 -1       657 1.99546E+00
 -1       658 2.65522E+00
 -1       659 2.71527E+00
 -1       660 5.20819E+00
 -1       661 5.16793E+00
 -1       662 5.02419E+00
 -1       663 3.79122E+00
 -1       664 3.87679E+00
 -1       665 4.29072E+00
 -1       666 3.95843E-01
 -1       667 2.32801E-01
 -1       668 1.95577E-01
 -1       669 1.61560E-01
 -1       670 1.33701E-01
 -1       671 1.08997E-01
 -1       672 8.78266E-02
 -1       673 7.01251E-02
 -1       674 5.58582E-02
 -1       675 4.42576E-02
 -1       676 3.55138E-02
 -1       677 2.90778E-02
 -1       678 3.18821E-02
 -1       679 3.96824E-02
 -1       680 6.34680E-02
 -1       681 9.43573E-02
 -1       682 1.34380E-01
 -1       683 1.85830E-01
 -1       684 2.51171E-01
 -1       685 3.32895E-01
 -1       686 4.33284E-01
 -1       687 5.53994E-01
 -1       688 6.95399E-01
 -1       689 8.55565E-01
 -1       690 1.03099E+00
 -1       691 1.20300E+00
 -1       692 1.35747E+00
 -1       693 1.65127E+00
 -1       694 2.00821E+00
 -1       695 2.32423E+00
 -1       696 3.43349E+00
 -1       697 3.24187E+00
 -1       698 3.54132E+00
 -1       699 4.51507E+00
 -1       700 3.73981E+00
 -1       701 3.34053E+00
 -1       702 3.34053E+00
 -1       703 2.73004E+00
 -1       704 1.01969E+01
 -1       705 5.01983E+00
 -1       706 3.87679E+00
 -1       707 4.63474E-01
 -1       708 3.54108E+00
 -1       709 3.22220E+00
 -1       710 6.91063E+00
 -1       711 6.85469E+00
 -1       712 2.72666E-01
 -1       713 3.27187E-01
 -1       714 4.07524E-01
 -1       715 3.73981E+00
 -1       716 4.71575E+00
 -1       717 3.61945E-01
 -1       718 5.65017E+00
 -1       719 6.06945E+00
 -1       720 3.61748E-01
 -1       721 5.64339E+00
 -1       722 1.34237E+01
 -1       723 1.59414E+01
 -1       724 1.31044E+01
 -1       725 9.83162E+00
 -1       726 1.02897E+01
 -1       727 3.07194E+00
 -1       728 8.16635E+00
 -1       729 5.51666E+00
 -1       730 4.15553E-01
 -1       731 3.42120E-01
 -1       732 6.09541E+00
 -1       733 1.15741E+01
 -1       734 4.47951E-01
 -1       735 6.48465E+00
 -1       736 1.16712E+01
 -1       737 6.95526E+00
 -1       738 3.45384E+00
 -1       739 5.91201E+00
 -1       740 1.28714E+01
 -1       741 5.02419E+00
 -1       742 3.57512E-01
 -1       743 3.11110E+00
 -1       744 2.40718E-01
 -1       745 6.16290E+00
 -1       746 2.86197E-01
 -1       747 2.55003E-01
 -1       748 2.48170E-01
 -1       749 2.26405E-01
 -1       750 1.98090E-01
 -1       751 1.71492E-01
 -1       752 1.50335E-01
 -1       753 1.28101E-01
 -1       754 1.06675E-01
 -1       755 8.70668E-02
 -1       756 6.96888E-02
 -1       757 5.45212E-02
 -1       758 4.12578E-02
 -1       759 2.93867E-02
 -1       760 1.82330E-02
 -1       761 1.67590E-02
 -1       762 2.74897E-02
 -1       763 4.64132E-02
 -1       764 7.02482E-02
 -1       765 1.01376E-01
 -1       766 1.41317E-01
 -1       767 1.90611E-01
 -1       768 2.49901E-01
 -1       769 3.18820E-01
 -1       770 3.95224E-01
 -1       771 4.97561E-01
 -1       772 6.20754E-01
 -1       773 7.58459E-01
 -1       774 9.21631E-01
 -1       775 1.10285E+00
 -1       776 1.40562E+00
 -1       777 1.78353E+00
 -1       778 2.16358E+00
 -1       779 3.92765E+00
 -1       780 2.65522E+00
 -1       781 3.89920E+00
 -1       782 1.88416E-01
 -1       783 1.12997E-01
 -1       784 9.14991E-02
 -1       785 7.28093E-02
 -1       786 5.67871E-02
 -1       787 4.33765E-02
 -1       788 3.34199E-02
 -1       789 2.43712E-02
 -1       790 1.95131E-02
 -1       791 2.71653E-02
 -1       792 4.62748E-02
 -1       793 7.03093E-02
 -1       794 1.00843E-01
 -1       795 1.39671E-01
 -1       796 1.88839E-01
 -1       797 2.55004E-01
 -1       798 3.42309E-01
 -1       799 4.49808E-01
 -1       800 5.78217E-01
 -1       801 7.25026E-01
 -1       802 9.12600E-01
 -1       803 1.14886E+00
 -1       804 1.44576E+00
 -1       805 1.83757E+00
 -1       806 2.41735E+00
 -1       807 2.98114E+00
 -1       808 8.25554E+00
 -1       809 2.88140E-01
 -1       810 4.38410E+00
 -1       811 2.16862E-01
 -1       812 1.37046E-01
 -1       813 1.95697E-01
 -1       814 1.62777E-01
 -1       815 2.53593E-01
 -1       816 6.16290E+00
 -1       817 2.32701E-01
 -1       818 6.79350E+00
 -1       819 8.92939E+00
 -1       820 1.11344E+01
 -1       821 2.82666E-01
 -1       822 2.79889E+00
 -1       823 2.06267E-01
 -1       824 4.06938E+00
 -1       825 2.81678E-01
 -1       826 2.81850E-01
 -1       827 3.80378E+00
 -1       828 1.99622E-01
 -1       829 3.05012E-01
 -1       830 8.87433E+00
 -1       831 4.10825E+00
 -1       832 1.99622E-01
 -1       833 2.88140E-01
 -1       834 6.97458E+00
 -1       835 2.69411E-01
 -1       836 1.82292E-01
 -1       837 1.75047E-01
 -1       838 1.59356E-01
 -1       839 1.39736E-01
 -1       840 1.23161E-01
 -1       841 1.06770E-01
 -1       842 9.01503E-02
 -1       843 7.43895E-02
 -1       844 6.00043E-02
 -1       845 4.71144E-02
 -1       846 3.55641E-02
 -1       847 2.49838E-02
 -1       848 2.50854E-02
 -1       849 2.83329E-02
 -1       850 4.43217E-02
 -1       851 6.72720E-02
 -1       852 9.70083E-02
 -1       853 1.34664E-01
 -1       854 1.81756E-01
 -1       855 2.39705E-01
 -1       856 3.09638E-01
 -1       857 3.92062E-01
 -1       858 4.86303E-01
 -1       859 5.89500E-01
 -1       860 7.20348E-01
 -1       861 8.95097E-01
 -1       862 1.19450E+00
 -1       863 1.59161E+00
 -1       864 2.05235E+00
 -1       865 2.81636E+00
 -1       866 3.92765E+00
 -1       867 1.75579E-01
 -1       868 8.00145E-02
 -1       869 1.96260E-01
 -1       870 8.03666E+00
 -1       871 9.74065E-02
 -1       872 5.04102E-02
 -1       873 3.80308E-02
 -1       874 2.67706E-02
 -1       875 2.09605E-02
 -1       876 2.34687E-02
 -1       877 3.88312E-02
 -1       878 6.07367E-02
 -1       879 9.01424E-02
 -1       880 1.29133E-01
 -1       881 1.79529E-01
 -1       882 2.44087E-01
 -1       883 3.25943E-01
 -1       884 4.28605E-01
 -1       885 5.55904E-01
 -1       886 7.11745E-01
 -1       887 8.99385E-01
 -1       888 1.11956E+00
 -1       889 1.39542E+00
 -1       890 1.83419E+00
 -1       891 2.81532E+00
 -1       892 4.68708E+00
 -1       893 8.09791E+00
 -1       894 1.41684E-01
 -1       895 1.55059E-01
 -1       896 6.43203E-02
 -1       897 2.67434E-01
 -1       898 1.16026E-01
 -1       899 1.74507E-01
 -1       900 1.63445E-01
 -1       901 5.57907E+00
 -1       902 6.62476E+00
 -1       903 1.14210E-01
 -1       904 2.09119E-01
 -1       905 2.18455E-01
 -1       906 2.08499E-01
 -1       907 6.75713E+00
 -1       908 1.96672E-01
 -1       909 1.34814E-01
 -1       910 2.28598E-01
 -1       911 1.51927E-01
 -1       912 5.78637E+00
 -1       913 2.44703E-01
 -1       914 1.52095E-01
 -1       915 1.35227E-01
 -1       916 1.26442E-01
 -1       917 1.13205E-01
 -1       918 9.80766E-02
 -1       919 8.55672E-02
 -1       920 7.26977E-02
 -1       921 6.03201E-02
 -1       922 4.88960E-02
 -1       923 3.85952E-02
 -1       924 3.00349E-02
 -1       925 3.05079E-02
 -1       926 3.34746E-02
 -1       927 3.92222E-02
 -1       928 5.81054E-02
 -1       929 8.35155E-02
 -1       930 1.16080E-01
 -1       931 1.57468E-01
 -1       932 2.09572E-01
 -1       933 2.74550E-01
 -1       934 3.54902E-01
 -1       935 4.53594E-01
 -1       936 5.74141E-01
 -1       937 7.20348E-01
 -1       938 8.95097E-01
 -1       939 1.13879E+00
 -1       940 1.53227E+00
 -1       941 1.97373E+00
 -1       942 4.42729E+00
 -1       943 2.77635E-02
 -1       944 2.28598E-01
 -1       945 8.03708E-02
 -1       946 3.18345E-02
 -1       947 4.22514E-02
 -1       948 3.00174E-02
 -1       949 3.50047E-02
 -1       950 5.40390E-02
 -1       951 7.98620E-02
 -1       952 1.13294E-01
 -1       953 1.56367E-01
 -1       954 2.11512E-01
 -1       955 2.81697E-01
 -1       956 3.70699E-01
 -1       957 4.83616E-01
 -1       958 6.27821E-01
 -1       959 8.14587E-01
 -1       960 1.06117E+00
 -1       961 1.39542E+00
 -1       962 1.83419E+00
 -1       963 2.44847E+00
 -1       964 1.55532E-01
 -1       965 9.48527E-02
 -1       966 1.23527E-01
 -1       967 1.59928E-01
 -1       968 6.53298E+00
 -1       969 9.12279E-02
 -1       970 1.35885E-01
 -1       971 5.32458E+00
 -1       972 1.40507E-01
 -1       973 1.87679E-01
 -1       974 1.08951E-01
 -1       975 1.46052E-01
 -1       976 5.01423E+00
 -1       977 2.44703E-01
 -1       978 9.36068E-02
 -1       979 4.08541E+00
 -1       980 1.24656E-01
 -1       981 5.38058E-02
 -1       982 6.64467E-02
 -1       983 1.52866E-01
 -1       984 1.52866E-01
 -1       985 3.05757E+00
 -1       986 1.17077E-01
 -1       987 1.41088E-01
 -1       988 9.77753E-02
 -1       989 8.84702E-02
 -1       990 7.72735E-02
 -1       991 6.55895E-02
 -1       992 5.51813E-02
 -1       993 4.59075E-02
 -1       994 3.75442E-02
 -1       995 3.38607E-02
 -1       996 3.35235E-02
 -1       997 3.57545E-02
 -1       998 4.09321E-02
 -1       999 5.06475E-02
 -1      1000 6.55237E-02
 -1      1001 9.02744E-02
 -1      1002 1.23133E-01
 -1      1003 1.65375E-01
 -1      1004 2.19451E-01
 -1      1005 2.88636E-01
 -1      1006 3.77565E-01
 -1      1007 4.93164E-01
 -1      1008 6.46218E-01
 -1      1009 8.53243E-01
 -1      1010 1.13879E+00
 -1      1011 1.53227E+00
 -1      1012 1.82171E+00
 -1      1013 3.71972E-02
 -1      1014 3.31916E-02
 -1      1015 3.30291E-02
 -1      1016 4.50077E-02
 -1      1017 6.38531E-02
 -1      1018 8.98582E-02
 -1      1019 1.23318E-01
 -1      1020 1.66058E-01
 -1      1021 2.20338E-01
 -1      1022 2.89128E-01
 -1      1023 3.76665E-01
 -1      1024 4.89600E-01
 -1      1025 6.39371E-01
 -1      1026 8.47379E-01
 -1      1027 1.15112E+00
 -1      1028 1.59605E+00
 -1      1029 2.11373E+00
 -1      1030 1.16461E-01
 -1      1031 7.39597E-02
 -1      1032 3.19509E-02
 -1      1033 1.03375E-01
 -1      1034 4.12235E+00
 -1      1035 1.03104E-01
 -1      1036 1.01473E-01
 -1      1037 9.03116E-02
 -1      1038 1.87679E-01
 -1      1039 8.63871E-02
 -1      1040 5.69273E-02
 -1      1041 1.03349E-01
 -1      1042 1.10306E-01
 -1      1043 4.08541E+00
 -1      1044 6.26144E-02
 -1      1045 1.10169E-01
 -1      1046 2.96100E+00
 -1      1047 1.10169E-01
 -1      1048 8.14056E-02
 -1      1049 6.58010E-02
 -1      1050 8.10510E-02
 -1      1051 5.43481E-02
 -1      1052 4.61010E-02
 -1      1053 5.58456E-02
 -1      1054 3.72772E-02
 -1      1055 3.38607E-02
 -1      1056 3.57545E-02
 -1      1057 4.09321E-02
 -1      1058 5.06475E-02
 -1      1059 6.55237E-02
 -1      1060 8.56096E-02
 -1      1061 1.13908E-01
 -1      1062 1.51881E-01
 -1      1063 2.01505E-01
 -1      1064 2.66612E-01
 -1      1065 3.53065E-01
 -1      1066 4.70261E-01
 -1      1067 6.33810E-01
 -1      1068 8.69775E-01
 -1      1069 1.21751E+00
 -1      1070 1.72271E+00
 -1      1071 2.12163E+00
 -1      1072 5.81833E-02
 -1      1073 4.50077E-02
 -1      1074 1.00666E-01
 -1      1075 1.32194E-01
 -1      1076 1.72957E-01
 -1      1077 2.24948E-01
 -1      1078 2.90811E-01
 -1      1079 3.74751E-01
 -1      1080 4.83650E-01
 -1      1081 6.33810E-01
 -1      1082 8.69775E-01
 -1      1083 1.21751E+00
 -1      1084 2.12163E+00
 -1      1085 3.31916E-02
 -1      1086 8.69085E-02
 -1      1087 7.64003E-02
 -1      1088 3.71972E-02
 -1      1089 2.59810E+00
 -1      1090 9.93316E-02
 -1      1091 8.19397E-02
 -1      1092 8.58610E-02
 -1      1093 3.39746E-02
 -1      1094 2.96100E+00
 -1      1095 5.92093E-02
 -1      1096 1.07752E-01
 -1      1097 5.58456E-02
 -1      1098 7.65339E-02
 -1      1099 8.83067E-02
 -1      1100 6.87312E-02
 -1      1101 7.72020E-02
 -1      1102 8.10510E-02
 -1      1103 8.10510E-02
 -1      1104 5.69273E-02
 -1      1105 8.58610E-02
 -1      1106 8.14056E-02
 -1      1107 5.92093E-02
 -1      1108 1.31430E+01
 -1      1109 8.40335E+00
 -1      1110 2.74390E+00
 -1      1111 1.55789E+00
 -1      1112 1.16886E+00
 -1      1113 9.72694E-01
 -1      1114 8.54120E-01
 -1      1115 7.81350E-01
 -1      1116 7.54783E-01
 -1      1117 7.84458E-01
 -1      1118 8.57030E-01
 -1      1119 9.76808E-01
 -1      1120 1.18031E+00
 -1      1121 1.57191E+00
 -1      1122 2.67070E+00
 -1      1123 6.07326E+00
 -1      1124 1.13399E+01
 -1      1125 1.31430E+01
 -1      1126 8.73024E+00
 -1      1127 3.82899E+00
 -1      1128 2.72576E+00
 -1      1129 1.73653E+00
 -1      1130 1.18791E+00
 -1      1131 8.94221E-01
 -1      1132 6.84760E-01
 -1      1133 5.24664E-01
 -1      1134 4.00693E-01
 -1      1135 3.07389E-01
 -1      1136 2.36128E-01
 -1      1137 1.79301E-01
 -1      1138 1.34890E-01
 -1      1139 1.01014E-01
 -1      1140 7.59865E-02
 -1      1141 5.83489E-02
 -1      1142 4.69590E-02
 -1      1143 4.13834E-02
 -1      1144 4.37538E-02
 -1      1145 5.27264E-02
 -1      1146 6.45543E-02
 -1      1147 7.85117E-02
 -1      1148 1.00897E-01
 -1      1149 1.35689E-01
 -1      1150 1.79883E-01
 -1      1151 2.32989E-01
 -1      1152 2.93794E-01
 -1      1153 3.59124E-01
 -1      1154 4.27904E-01
 -1      1155 5.32142E-01
 -1      1156 6.78149E-01
 -1      1157 8.48942E-01
 -1      1158 1.02149E+00
 -1      1159 1.13521E+00
 -1      1160 1.21754E+00
 -1      1161 1.31508E+00
 -1      1162 1.46563E+00
 -1      1163 1.85291E+00
 -1      1164 2.72720E+00
 -1      1165 4.05337E+00
 -1      1166 5.10553E+00
 -1      1167 5.41922E+00
 -1      1168 5.24692E+00
 -1      1169 4.91270E+00
 -1      1170 4.18695E+00
 -1      1171 2.97095E+00
 -1      1172 1.82811E+00
 -1      1173 1.10491E+00
 -1      1174 5.38438E-01
 -1      1175 1.40389E+01
 -1      1176 8.71671E+00
 -1      1177 2.90371E+00
 -1      1178 2.03923E+00
 -1      1179 1.40503E+00
 -1      1180 1.02517E+00
 -1      1181 8.18524E-01
 -1      1182 6.59389E-01
 -1      1183 5.27776E-01
 -1      1184 4.18093E-01
 -1      1185 3.31049E-01
 -1      1186 2.62833E-01
 -1      1187 2.06173E-01
 -1      1188 1.59851E-01
 -1      1189 1.22980E-01
 -1      1190 9.45652E-02
 -1      1191 7.36407E-02
 -1      1192 5.93464E-02
 -1      1193 5.14953E-02
 -1      1194 5.36043E-02
 -1      1195 6.50540E-02
 -1      1196 8.19644E-02
 -1      1197 1.04432E-01
 -1      1198 1.32484E-01
 -1      1199 1.65895E-01
 -1      1200 2.03906E-01
 -1      1201 2.55708E-01
 -1      1202 3.28863E-01
 -1      1203 4.17671E-01
 -1      1204 5.16194E-01
 -1      1205 6.16915E-01
 -1      1206 7.05650E-01
 -1      1207 7.58816E-01
 -1      1208 8.95118E-01
 -1      1209 1.16778E+00
 -1      1210 1.43597E+00
 -1      1211 1.73135E+00
 -1      1212 2.11855E+00
 -1      1213 2.42184E+00
 -1      1214 2.91648E+00
 -1      1215 4.01219E+00
 -1      1216 5.44684E+00
 -1      1217 6.25003E+00
 -1      1218 6.31335E+00
 -1      1219 6.11338E+00
 -1      1220 4.97757E+00
 -1      1221 3.16706E+00
 -1      1222 1.72154E+00
 -1      1223 8.49014E-01
 -1      1224 3.54723E-01
 -1      1225 2.21438E-01
 -1      1226 5.32933E-01
 -1      1227 9.80669E-01
 -1      1228 1.26729E+00
 -1      1229 1.35835E+00
 -1      1230 1.13427E+00
 -1      1231 1.50470E+00
 -1      1232 2.09921E+00
 -1      1233 1.92922E+00
 -1      1234 1.47530E+00
 -1      1235 1.29769E+00
 -1      1236 1.40401E+00
 -1      1237 1.27743E+00
 -1      1238 9.63605E-01
 -1      1239 5.33489E-01
 -1      1240 3.73388E-01
 -1      1241 3.30324E-01
 -1      1242 2.55167E+01
 -1      1243 3.61003E+01
 -1      1244 4.66840E+01
 -1      1245 3.28179E+01
 -1      1246 1.57301E+01
 -1      1247 1.25085E+01
 -1      1248 1.24992E+01
 -1      1249 1.30880E+01
 -1      1250 1.36861E+01
 -1      1251 1.47017E+01
 -1      1252 2.90456E+01
 -1      1253 4.23738E+01
 -1      1254 3.32443E+01
 -1      1255 2.41147E+01
 -1      1256 2.41403E+01
 -1      1257 2.53860E+01
 -1      1258 3.03638E+01
 -1      1259 3.38022E+01
 -1      1260 2.34195E+01
 -1      1261 1.29536E+01
 -1      1262 1.25512E+01
 -1      1263 1.30685E+01
 -1      1264 1.35859E+01
 -1      1265 1.31602E+01
 -1      1266 1.57149E+01
 -1      1267 3.27506E+01
 -1      1268 4.68059E+01
 -1      1269 3.58635E+01
 -1      1270 2.52189E+01
 -1      1271 1.31430E+01
 -1      1272 4.87077E+00
 -1      1273 9.61042E+00
 -1      1274 2.06119E+00
 -1      1275 2.98100E+00
 -1      1276 4.18806E+00
 -1      1277 1.40007E+00
 -1      1278 1.66628E+00
 -1      1279 1.90338E+00
 -1      1280 1.10180E+00
 -1      1281 1.22463E+00
 -1      1282 1.33301E+00
 -1      1283 9.36312E-01
 -1      1284 1.00965E+00
 -1      1285 1.06542E+00
 -1      1286 8.36524E-01
 -1      1287 8.81754E-01
 -1      1288 9.18715E-01
 -1      1289 7.74929E-01
 -1      1290 8.02468E-01
 -1      1291 8.30102E-01
 -1      1292 7.55755E-01
 -1      1293 7.54783E-01
 -1      1294 7.75901E-01
 -1      1295 8.06292E-01
 -1      1296 7.77589E-01
 -1      1297 7.77589E-01
 -1      1298 8.84077E-01
 -1      1299 8.40208E-01
 -1      1300 8.33339E-01
 -1      1301 1.01691E+00
 -1      1302 9.40997E-01
 -1      1303 9.24174E-01
 -1      1304 1.24026E+00
 -1      1305 1.11267E+00
 -1      1306 1.07686E+00
 -1      1307 1.68182E+00
 -1      1308 1.41781E+00
 -1      1309 1.35017E+00
 -1      1310 2.88322E+00
 -1      1311 2.04844E+00
 -1      1312 1.89434E+00
 -1      1313 6.28607E+00
 -1      1314 3.71829E+00
 -1      1315 3.09602E+00
 -1      1316 1.40389E+01
 -1      1317 1.13399E+01
 -1      1318 8.98497E+00
 -1      1319 1.40389E+01
 -1      1320 8.73024E+00
 -1      1321 4.31747E+00
 -1      1322 3.82899E+00
 -1      1323 3.34052E+00
 -1      1324 3.82899E+00
 -1      1325 2.72576E+00
 -1      1326 2.11099E+00
 -1      1327 2.72576E+00
 -1      1328 1.77881E+00
 -1      1329 1.40435E+00
 -1      1330 1.77881E+00
 -1      1331 1.19359E+00
 -1      1332 1.01943E+00
 -1      1333 1.23587E+00
 -1      1334 8.94221E-01
 -1      1335 7.74693E-01
 -1      1336 8.99902E-01
 -1      1337 6.84760E-01
 -1      1338 5.94827E-01
 -1      1339 6.84760E-01
 -1      1340 5.31073E-01
 -1      1341 4.60910E-01
 -1      1342 5.31073E-01
 -1      1343 4.10825E-01
 -1      1344 3.57018E-01
 -1      1345 4.17235E-01
 -1      1346 3.18004E-01
 -1      1347 2.78508E-01
 -1      1348 3.28136E-01
 -1      1349 2.50100E-01
 -1      1350 2.18335E-01
 -1      1351 2.60714E-01
 -1      1352 1.94232E-01
 -1      1353 1.69170E-01
 -1      1354 2.08203E-01
 -1      1355 1.49291E-01
 -1      1356 1.29944E-01
 -1      1357 1.64223E-01
 -1      1358 1.13977E-01
 -1      1359 9.94478E-02
 -1      1360 1.28377E-01
 -1      1361 8.69734E-02
 -1      1362 7.64752E-02
 -1      1363 9.99365E-02
 -1      1364 6.70343E-02
 -1      1365 5.98949E-02
 -1      1366 7.80212E-02
 -1      1367 5.30280E-02
 -1      1368 4.87775E-02
 -1      1369 6.17135E-02
 -1      1370 4.40408E-02
 -1      1371 4.27157E-02
 -1      1372 5.01099E-02
 -1      1373 4.02077E-02
 -1      1374 4.39033E-02
 -1      1375 4.28652E-02
 -1      1376 4.74493E-02
 -1      1377 5.27264E-02
 -1      1378 4.39033E-02
 -1      1379 5.80036E-02
 -1      1380 6.45543E-02
 -1      1381 5.27264E-02
 -1      1382 7.11050E-02
 -1      1383 7.85117E-02
 -1      1384 6.45543E-02
 -1      1385 9.00623E-02
 -1      1386 1.05041E-01
 -1      1387 8.26556E-02
 -1      1388 1.19971E-01
 -1      1389 1.39783E-01
 -1      1390 1.09136E-01
 -1      1391 1.58137E-01
 -1      1392 1.82519E-01
 -1      1393 1.42419E-01
 -1      1394 2.04265E-01
 -1      1395 2.32989E-01
 -1      1396 1.82519E-01
 -1      1397 2.61714E-01
 -1      1398 2.93794E-01
 -1      1399 2.32989E-01
 -1      1400 3.36073E-01
 -1      1401 3.69323E-01
 -1      1402 3.03993E-01
 -1      1403 4.19295E-01
 -1      1404 4.54826E-01
 -1      1405 3.96244E-01
 -1      1406 5.07821E-01
 -1      1407 5.76529E-01
 -1      1408 4.99212E-01
 -1      1409 6.26291E-01
 -1      1410 7.03590E-01
 -1      1411 6.01970E-01
 -1      1412 7.64516E-01
 -1      1413 8.58010E-01
 -1      1414 7.12658E-01
 -1      1415 9.42436E-01
 -1      1416 1.02149E+00
 -1      1417 8.58010E-01
 -1      1418 1.10054E+00
 -1      1419 1.13521E+00
 -1      1420 1.02149E+00
 -1      1421 1.16988E+00
 -1      1422 1.21754E+00
 -1      1423 1.13521E+00
 -1      1424 1.26521E+00
 -1      1425 1.31508E+00
 -1      1426 1.21754E+00
 -1      1427 1.36495E+00
 -1      1428 1.46563E+00
 -1      1429 1.31508E+00
 -1      1430 1.56632E+00
 -1      1431 1.85291E+00
 -1      1432 1.46563E+00
 -1      1433 2.15484E+00
 -1      1434 2.74253E+00
 -1      1435 1.86824E+00
 -1      1436 3.31490E+00
 -1      1437 4.05337E+00
 -1      1438 2.74253E+00
 -1      1439 4.79185E+00
 -1      1440 5.10553E+00
 -1      1441 4.05337E+00
 -1      1442 5.41922E+00
 -1      1443 5.41922E+00
 -1      1444 5.10553E+00
 -1      1445 5.24692E+00
 -1      1446 5.07462E+00
 -1      1447 5.24692E+00
 -1      1448 4.91270E+00
 -1      1449 4.75079E+00
 -1      1450 4.91270E+00
 -1      1451 4.18695E+00
 -1      1452 3.62311E+00
 -1      1453 4.18695E+00
 -1      1454 3.09490E+00
 -1      1455 2.44274E+00
 -1      1456 3.09490E+00
 -1      1457 1.97137E+00
 -1      1458 1.48070E+00
 -1      1459 2.09533E+00
 -1      1460 1.12271E+00
 -1      1461 8.90182E-01
 -1      1462 1.26597E+00
 -1      1463 6.64272E-01
 -1      1464 6.82068E-01
 -1      1465 3.39456E+00
 -1      1466 8.71671E+00
 -1      1467 8.71671E+00
 -1      1468 2.41286E+00
 -1      1469 2.90371E+00
 -1      1470 2.90371E+00
 -1      1471 1.66560E+00
 -1      1472 2.03923E+00
 -1      1473 2.03923E+00
 -1      1474 1.14445E+00
 -1      1475 1.40503E+00
 -1      1476 1.40503E+00
 -1      1477 9.05888E-01
 -1      1478 1.02517E+00
 -1      1479 1.02517E+00
 -1      1480 7.31160E-01
 -1      1481 8.18524E-01
 -1      1482 8.18524E-01
 -1      1483 5.87619E-01
 -1      1484 6.59389E-01
 -1      1485 6.59389E-01
 -1      1486 4.67934E-01
 -1      1487 5.27776E-01
 -1      1488 5.27776E-01
 -1      1489 3.68252E-01
 -1      1490 4.18093E-01
 -1      1491 4.18093E-01
 -1      1492 2.93846E-01
 -1      1493 3.31049E-01
 -1      1494 3.31049E-01
 -1      1495 2.31819E-01
 -1      1496 2.62833E-01
 -1      1497 2.62833E-01
 -1      1498 1.82006E-01
 -1      1499 2.07652E-01
 -1      1500 2.07652E-01
 -1      1501 1.41662E-01
 -1      1502 1.62338E-01
 -1      1503 1.63816E-01
 -1      1504 1.09659E-01
 -1      1505 1.25855E-01
 -1      1506 1.28341E-01
 -1      1507 8.51632E-02
 -1      1508 9.73821E-02
 -1      1509 1.00257E-01
 -1      1510 6.73546E-02
 -1      1511 7.60603E-02
 -1      1512 7.88771E-02
 -1      1513 5.54940E-02
 -1      1514 6.10826E-02
 -1      1515 6.35022E-02
 -1      1516 4.94859E-02
 -1      1517 5.17483E-02
 -1      1518 5.34846E-02
 -1      1519 5.60929E-02
 -1      1520 5.17215E-02
 -1      1521 5.19745E-02
 -1      1522 6.81013E-02
 -1      1523 6.10231E-02
 -1      1524 5.91402E-02
 -1      1525 8.50164E-02
 -1      1526 7.51842E-02
 -1      1527 7.11533E-02
 -1      1528 1.06780E-01
 -1      1529 9.41448E-02
 -1      1530 8.73645E-02
 -1      1531 1.33173E-01
 -1      1532 1.17757E-01
 -1      1533 1.07469E-01
 -1      1534 1.66697E-01
 -1      1535 1.48704E-01
 -1      1536 1.33976E-01
 -1      1537 2.10462E-01
 -1      1538 1.90444E-01
 -1      1539 1.73253E-01
 -1      1540 2.71218E-01
 -1      1541 2.39434E-01
 -1      1542 2.25972E-01
 -1      1543 3.46684E-01
 -1      1544 3.05314E-01
 -1      1545 2.89039E-01
 -1      1546 4.32417E-01
 -1      1547 3.84979E-01
 -1      1548 3.61429E-01
 -1      1549 5.24707E-01
 -1      1550 4.73622E-01
 -1      1551 4.40929E-01
 -1      1552 6.16915E-01
 -1      1553 5.67279E-01
 -1      1554 5.24707E-01
 -1      1555 7.05650E-01
 -1      1556 6.66550E-01
 -1      1557 6.16915E-01
 -1      1558 7.58816E-01
 -1      1559 7.44750E-01
 -1      1560 7.05650E-01
 -1      1561 9.59099E-01
 -1      1562 8.36862E-01
 -1      1563 8.22796E-01
 -1      1564 1.20864E+00
 -1      1565 1.05821E+00
 -1      1566 9.99954E-01
 -1      1567 1.43597E+00
 -1      1568 1.31821E+00
 -1      1569 1.20864E+00
 -1      1570 1.73135E+00
 -1      1571 1.55372E+00
 -1      1572 1.43597E+00
 -1      1573 2.11855E+00
 -1      1574 1.90898E+00
 -1      1575 1.73135E+00
 -1      1576 2.42184E+00
 -1      1577 2.32812E+00
 -1      1578 2.11855E+00
 -1      1579 2.91648E+00
 -1      1580 2.51556E+00
 -1      1581 2.42184E+00
 -1      1582 4.01219E+00
 -1      1583 3.31741E+00
 -1      1584 2.91648E+00
 -1      1585 5.44684E+00
 -1      1586 4.70697E+00
 -1      1587 4.01219E+00
 -1      1588 6.25003E+00
 -1      1589 6.18671E+00
 -1      1590 5.44684E+00
 -1      1591 6.31335E+00
 -1      1592 6.31335E+00
 -1      1593 6.25003E+00
 -1      1594 5.91341E+00
 -1      1595 6.11338E+00
 -1      1596 6.11338E+00
 -1      1597 4.04173E+00
 -1      1598 4.97757E+00
 -1      1599 4.97757E+00
 -1      1600 2.32020E+00
 -1      1601 3.19487E+00
 -1      1602 3.19487E+00
 -1      1603 1.19332E+00
 -1      1604 1.76417E+00
 -1      1605 1.79198E+00
 -1      1606 5.64010E-01
 -1      1607 8.65686E-01
 -1      1608 9.08314E-01
 -1      1609 4.14052E-01
 -1      1610 9.61487E-01
 -1      1611 7.09320E-01
 -1      1612 1.46543E+00
 -1      1613 1.26986E+00
 -1      1614 1.44624E+00
 -1      1615 1.81035E+00
 -1      1616 1.71930E+00
 -1      1617 2.00848E+00
 -1      1618 1.82436E+00
 -1      1619 1.82436E+00
 -1      1620 2.27636E+00
 -1      1621 1.60028E+00
 -1      1622 1.82436E+00
 -1      1623 2.29037E+00
 -1      1624 2.88632E+00
 -1      1625 2.29181E+00
 -1      1626 2.98190E+00
 -1      1627 3.41249E+00
 -1      1628 3.41249E+00
 -1      1629 4.19960E+00
 -1      1630 3.24250E+00
 -1      1631 3.41249E+00
 -1      1632 4.72576E+00
 -1      1633 1.97283E+00
 -1      1634 2.25677E+00
 -1      1635 3.74003E+00
 -1      1636 1.88682E+00
 -1      1637 1.78050E+00
 -1      1638 2.56197E+00
 -1      1639 1.88682E+00
 -1      1640 1.88682E+00
 -1      1641 2.36963E+00
 -1      1642 1.71106E+00
 -1      1643 1.83764E+00
 -1      1644 2.32045E+00
 -1      1645 1.28704E+00
 -1      1646 1.47428E+00
 -1      1647 2.03449E+00
 -1      1648 7.08847E-01
 -1      1649 9.51718E-01
 -1      1650 1.46240E+00
 -1      1651 7.33279E-01
 -1      1652 6.50509E-01
 -1      1653 1.06874E+00
 -1      1654 9.59188E-01
 -1      1655 2.93102E+01
 -1      1656 2.93102E+01
 -1      1657 3.75606E+01
 -1      1658 2.69769E+01
 -1      1659 4.66840E+01
 -1      1660 4.66840E+01
 -1      1661 1.95384E+01
 -1      1662 3.34046E+01
 -1      1663 1.16850E+01
 -1      1664 1.49066E+01
 -1      1665 1.25085E+01
 -1      1666 1.25085E+01
 -1      1667 1.23207E+01
 -1      1668 1.23300E+01
 -1      1669 1.30880E+01
 -1      1670 1.24899E+01
 -1      1671 1.36861E+01
 -1      1672 1.36861E+01
 -1      1673 1.36706E+01
 -1      1674 1.26550E+01
 -1      1675 2.94952E+01
 -1      1676 1.61670E+01
 -1      1677 4.23738E+01
 -1      1678 4.23738E+01
 -1      1679 3.02154E+01
 -1      1680 3.93449E+01
 -1      1681 2.56054E+01
 -1      1682 2.56054E+01
 -1      1683 2.56310E+01
 -1      1684 2.56054E+01
 -1      1685 2.53860E+01
 -1      1686 2.41658E+01
 -1      1687 3.41214E+01
 -1      1688 3.03638E+01
 -1      1689 3.38022E+01
 -1      1690 3.41214E+01
 -1      1691 1.33559E+01
 -1      1692 2.34195E+01
 -1      1693 1.20978E+01
 -1      1694 1.25001E+01
 -1      1695 1.25512E+01
 -1      1696 1.25512E+01
 -1      1697 1.30181E+01
 -1      1698 1.25008E+01
 -1      1699 1.35859E+01
 -1      1700 1.35859E+01
 -1      1701 1.27346E+01
 -1      1702 1.31602E+01
 -1      1703 1.47578E+01
 -1      1704 1.17774E+01
 -1      1705 3.37236E+01
 -1      1706 1.96683E+01
 -1      1707 4.68059E+01
 -1      1708 4.68059E+01
 -1      1709 2.63548E+01
 -1      1710 3.72972E+01
 -1      1711 2.93102E+01
 -1      1712 2.90124E+01
 -1      1713 1.54933E+01
 -1      1714 3.34046E+01
 -1      1715 4.30724E-01
 -1      1716 8.59277E-01
 -1      1717 3.07704E+01
 -1      1718 3.75606E+01
 -1      1719 3.31037E+01
 -1      1720 1.16850E+01
 -1      1721 1.23300E+01
 -1      1722 1.23207E+01
 -1      1723 1.30880E+01
 -1      1724 1.26550E+01
 -1      1725 1.41203E+01
 -1      1726 2.94952E+01
 -1      1727 3.93449E+01
 -1      1728 3.17061E+01
 -1      1729 2.70961E+01
 -1      1730 2.56310E+01
 -1      1731 2.91436E+01
 -1      1732 3.41214E+01
 -1      1733 2.37386E+01
 -1      1734 1.25001E+01
 -1      1735 1.20978E+01
 -1      1736 1.25008E+01
 -1      1737 1.30181E+01
 -1      1738 1.31602E+01
 -1      1739 1.17774E+01
 -1      1740 1.57308E+01
 -1      1741 3.37236E+01
 -1      1742 3.72972E+01
 -1      1743 3.04461E+01
 -1      1744 9.61042E+00
 -1      1745 1.27779E+00
 -1      1746 1.67270E+00
 -1      1747 2.38925E+00
 -1      1748 4.27902E+00
 -1      1749 1.76366E+00
 -1      1750 8.82438E-01
 -1      1751 9.74585E-01
 -1      1752 7.79130E-01
 -1      1753 8.33687E-01
 -1      1754 7.42852E-01
 -1      1755 7.13902E-01
 -1      1756 7.47957E-01
 -1      1757 6.62929E-01
 -1      1758 6.71670E-01
 -1      1759 6.91816E-01
 -1      1760 6.09671E-01
 -1      1761 6.95130E-01
 -1      1762 6.73296E-01
 -1      1763 5.89211E-01
 -1      1764 7.50907E-01
 -1      1765 7.16991E-01
 -1      1766 6.12698E-01
 -1      1767 8.41218E-01
 -1      1768 7.84298E-01
 -1      1769 6.67950E-01
 -1      1770 9.84593E-01
 -1      1771 8.88827E-01
 -1      1772 7.48951E-01
 -1      1773 1.22986E+00
 -1      1774 1.05231E+00
 -1      1775 8.64274E-01
 -1      1776 1.71065E+00
 -1      1777 1.34404E+00
 -1      1778 1.04617E+00
 -1      1779 2.63019E+00
 -1      1780 1.79512E+00
 -1      1781 1.24482E+00
 -1      1782 8.11967E+00
 -1      1783 3.06579E+00
 -1      1784 1.76489E+00
 -1      1785 2.79753E+00
 -1      1786 5.19765E+00
 -1      1787 2.16340E+00
 -1      1788 2.65425E+00
 -1      1789 2.05721E+00
 -1      1790 3.39884E+00
 -1      1791 2.53466E+00
 -1      1792 1.91990E+00
 -1      1793 1.68899E+00
 -1      1794 1.35680E+00
 -1      1795 1.49789E+00
 -1      1796 1.17658E+00
 -1      1797 9.65820E-01
 -1      1798 1.08675E+00
 -1      1799 8.40222E-01
 -1      1800 7.15012E-01
 -1      1801 7.80930E-01
 -1      1802 6.56333E-01
 -1      1803 5.66400E-01
 -1      1804 5.96652E-01
 -1      1805 5.17787E-01
 -1      1806 4.54034E-01
 -1      1807 4.89360E-01
 -1      1808 4.11187E-01
 -1      1809 3.61103E-01
 -1      1810 3.97901E-01
 -1      1811 3.28356E-01
 -1      1812 2.89343E-01
 -1      1813 3.22309E-01
 -1      1814 2.61671E-01
 -1      1815 2.33262E-01
 -1      1816 2.61891E-01
 -1      1817 2.09497E-01
 -1      1818 1.85395E-01
 -1      1819 2.10454E-01
 -1      1820 1.67703E-01
 -1      1821 1.47825E-01
 -1      1822 1.68997E-01
 -1      1823 1.33192E-01
 -1      1824 1.17225E-01
 -1      1825 1.36672E-01
 -1      1826 1.04987E-01
 -1      1827 9.25123E-02
 -1      1828 1.09801E-01
 -1      1829 8.25527E-02
 -1      1830 7.31118E-02
 -1      1831 8.76029E-02
 -1      1832 6.51919E-02
 -1      1833 5.83250E-02
 -1      1834 6.97234E-02
 -1      1835 5.21323E-02
 -1      1836 4.73956E-02
 -1      1837 5.56107E-02
 -1      1838 4.25705E-02
 -1      1839 4.00626E-02
 -1      1840 4.45929E-02
 -1      1841 3.97046E-02
 -1      1842 4.32506E-02
 -1      1843 3.94099E-02
 -1      1844 4.44961E-02
 -1      1845 4.97732E-02
 -1      1846 4.02974E-02
 -1      1847 5.57944E-02
 -1      1848 6.23452E-02
 -1      1849 4.75641E-02
 -1      1850 7.10072E-02
 -1      1851 8.25578E-02
 -1      1852 6.22473E-02
 -1      1853 9.42062E-02
 -1      1854 1.09136E-01
 -1      1855 8.25578E-02
 -1      1856 1.26885E-01
 -1      1857 1.45239E-01
 -1      1858 1.11956E-01
 -1      1859 1.70938E-01
 -1      1860 1.92684E-01
 -1      1861 1.55404E-01
 -1      1862 2.24518E-01
 -1      1863 2.53242E-01
 -1      1864 2.12937E-01
 -1      1865 2.91204E-01
 -1      1866 3.33483E-01
 -1      1867 2.82733E-01
 -1      1868 3.76575E-01
 -1      1869 4.26547E-01
 -1      1870 3.63786E-01
 -1      1871 4.72191E-01
 -1      1872 5.25186E-01
 -1      1873 4.52521E-01
 -1      1874 5.68518E-01
 -1      1875 6.18280E-01
 -1      1876 5.41496E-01
 -1      1877 6.58979E-01
 -1      1878 7.19905E-01
 -1      1879 6.25527E-01
 -1      1880 7.64625E-01
 -1      1881 8.49051E-01
 -1      1882 7.10946E-01
 -1      1883 8.90940E-01
 -1      1884 9.69990E-01
 -1      1885 7.97555E-01
 -1      1886 9.74011E-01
 -1      1887 1.00868E+00
 -1      1888 8.43464E-01
 -1      1889 9.45489E-01
 -1      1890 9.93155E-01
 -1      1891 7.84293E-01
 -1      1892 9.65121E-01
 -1      1893 1.01499E+00
 -1      1894 6.93067E-01
 -1      1895 1.08687E+00
 -1      1896 1.18756E+00
 -1      1897 7.36916E-01
 -1      1898 1.57961E+00
 -1      1899 1.88154E+00
 -1      1900 1.20086E+00
 -1      1901 2.24742E+00
 -1      1902 2.81979E+00
 -1      1903 1.95879E+00
 -1      1904 3.15562E+00
 -1      1905 3.89409E+00
 -1      1906 2.66051E+00
 -1      1907 4.12824E+00
 -1      1908 4.44193E+00
 -1      1909 3.23049E+00
 -1      1910 4.41300E+00
 -1      1911 4.24070E+00
 -1      1912 3.43571E+00
 -1      1913 4.16668E+00
 -1      1914 4.00476E+00
 -1      1915 3.33276E+00
 -1      1916 3.88151E+00
 -1      1917 3.31766E+00
 -1      1918 3.13548E+00
 -1      1919 3.03021E+00
 -1      1920 2.50200E+00
 -1      1921 2.72477E+00
 -1      1922 2.24117E+00
 -1      1923 1.76980E+00
 -1      1924 2.17648E+00
 -1      1925 1.61908E+00
 -1      1926 1.26109E+00
 -1      1927 1.31230E+00
 -1      1928 1.76492E+00
 -1      1929 1.39789E+00
 -1      1930 1.77152E+00
 -1      1931 1.52205E+00
 -1      1932 1.01760E+00
 -1      1933 1.27818E+00
 -1      1934 1.01046E+00
 -1      1935 8.04522E-01
 -1      1936 9.23804E-01
 -1      1937 7.96955E-01
 -1      1938 6.37726E-01
 -1      1939 7.25089E-01
 -1      1940 6.23723E-01
 -1      1941 5.12352E-01
 -1      1942 5.84123E-01
 -1      1943 4.90688E-01
 -1      1944 4.19181E-01
 -1      1945 4.79023E-01
 -1      1946 4.03757E-01
 -1      1947 3.37375E-01
 -1      1948 3.87216E-01
 -1      1949 3.38463E-01
 -1      1950 2.72379E-01
 -1      1951 3.09582E-01
 -1      1952 2.78705E-01
 -1      1953 2.18645E-01
 -1      1954 2.49659E-01
 -1      1955 2.28192E-01
 -1      1956 1.74585E-01
 -1      1957 1.98753E-01
 -1      1958 1.85579E-01
 -1      1959 1.38104E-01
 -1      1960 1.57772E-01
 -1      1961 1.48873E-01
 -1      1962 1.08505E-01
 -1      1963 1.24313E-01
 -1      1964 1.18269E-01
 -1      1965 8.53068E-02
 -1      1966 9.75834E-02
 -1      1967 9.35556E-02
 -1      1968 6.80246E-02
 -1      1969 7.71275E-02
 -1      1970 7.44543E-02
 -1      1971 5.59289E-02
 -1      1972 6.22010E-02
 -1      1973 6.04513E-02
 -1      1974 4.85056E-02
 -1      1975 5.22512E-02
 -1      1976 5.09500E-02
 -1      1977 4.93471E-02
 -1      1978 4.71116E-02
 -1      1979 4.58782E-02
 -1      1980 5.63064E-02
 -1      1981 5.13762E-02
 -1      1982 4.65133E-02
 -1      1983 6.73915E-02
 -1      1984 6.03086E-02
 -1      1985 5.25446E-02
 -1      1986 8.43841E-02
 -1      1987 7.52557E-02
 -1      1988 6.44111E-02
 -1      1989 1.07036E-01
 -1      1990 9.60594E-02
 -1      1991 8.39506E-02
 -1      1992 1.37594E-01
 -1      1993 1.22063E-01
 -1      1994 1.10654E-01
 -1      1995 1.83483E-01
 -1      1996 1.59737E-01
 -1      1997 1.47824E-01
 -1      1998 2.48326E-01
 -1      1999 2.19354E-01
 -1      2000 2.05838E-01
 -1      2001 3.28540E-01
 -1      2002 2.94445E-01
 -1      2003 2.87827E-01
 -1      2004 4.24305E-01
 -1      2005 3.86011E-01
 -1      2006 3.91416E-01
 -1      2007 5.34349E-01
 -1      2008 4.93144E-01
 -1      2009 5.17725E-01
 -1      2010 6.55013E-01
 -1      2011 6.12441E-01
 -1      2012 6.64656E-01
 -1      2013 7.86233E-01
 -1      2014 7.36597E-01
 -1      2015 8.24332E-01
 -1      2016 8.99092E-01
 -1      2017 8.59993E-01
 -1      2018 9.79675E-01
 -1      2019 1.04600E+00
 -1      2020 9.67958E-01
 -1      2021 1.12230E+00
 -1      2022 1.18452E+00
 -1      2023 1.08541E+00
 -1      2024 1.23057E+00
 -1      2025 1.29410E+00
 -1      2026 1.18452E+00
 -1      2027 1.26998E+00
 -1      2028 1.37423E+00
 -1      2029 1.25648E+00
 -1      2030 1.23236E+00
 -1      2031 1.44744E+00
 -1      2032 1.26981E+00
 -1      2033 1.09032E+00
 -1      2034 1.69373E+00
 -1      2035 1.48416E+00
 -1      2036 1.02262E+00
 -1      2037 2.36665E+00
 -1      2038 2.27293E+00
 -1      2039 1.63853E+00
 -1      2040 3.30007E+00
 -1      2041 2.89914E+00
 -1      2042 2.75023E+00
 -1      2043 4.22030E+00
 -1      2044 3.52552E+00
 -1      2045 3.50817E+00
 -1      2046 4.93583E+00
 -1      2047 4.19596E+00
 -1      2048 3.70928E+00
 -1      2049 4.99104E+00
 -1      2050 4.92772E+00
 -1      2051 3.67683E+00
 -1      2052 4.69276E+00
 -1      2053 4.89273E+00
 -1      2054 3.57042E+00
 -1      2055 3.49096E+00
 -1      2056 4.42680E+00
 -1      2057 3.20616E+00
 -1      2058 2.45403E+00
 -1      2059 3.30089E+00
 -1      2060 2.75013E+00
 -1      2061 1.45621E+00
 -1      2062 2.01224E+00
 -1      2063 2.11827E+00
 -1      2064 6.52515E-01
 -1      2065 9.80147E-01
 -1      2066 1.20041E+00
 -1      2067 9.31111E-01
 -1      2068 2.62924E+00
 -1      2069 2.61523E+00
 -1      2070 2.46194E+00
 -1      2071 2.20807E+00
 -1      2072 2.81481E+00
 -1      2073 1.71555E+00
 -1      2074 1.40718E+00
 -1      2075 1.20041E+00
 -1      2076 2.16900E+00
 -1      2077 2.83891E+00
 -1      2078 2.83891E+00
 -1      2079 3.17778E+00
 -1      2080 4.33487E+00
 -1      2081 3.64334E+00
 -1      2082 4.19188E+00
 -1      2083 6.43626E+00
 -1      2084 5.91010E+00
 -1      2085 6.57153E+00
 -1      2086 6.43626E+00
 -1      2087 6.43626E+00
 -1      2088 8.14676E+00
 -1      2089 4.89003E+00
 -1      2090 5.87576E+00
 -1      2091 7.58626E+00
 -1      2092 3.52648E+00
 -1      2093 3.71881E+00
 -1      2094 5.85454E+00
 -1      2095 2.90880E+00
 -1      2096 2.90880E+00
 -1      2097 4.06565E+00
 -1      2098 2.53326E+00
 -1      2099 2.58244E+00
 -1      2100 3.12160E+00
 -1      2101 2.09662E+00
 -1      2102 2.33339E+00
 -1      2103 2.59538E+00
 -1      2104 1.45458E+00
 -1      2105 1.78991E+00
 -1      2106 2.08880E+00
 -1      2107 3.75606E+01
 -1      2108 2.84371E+01
 -1      2109 3.31037E+01
 -1      2110 3.31037E+01
 -1      2111 2.86854E+01
 -1      2112 3.10187E+01
 -1      2113 2.86854E+01
 -1      2114 1.79082E+01
 -1      2115 3.11877E+01
 -1      2116 9.77131E+00
 -1      2117 1.44031E+01
 -1      2118 1.03799E+00
 -1      2119 1.21343E+00
 -1      2120 9.82761E-01
 -1      2121 8.55004E-01
 -1      2122 1.12409E+01
 -1      2123 1.14194E+01
 -1      2124 1.14383E+01
 -1      2125 1.12691E+01
 -1      2126 1.21367E+01
 -1      2127 1.15386E+01
 -1      2128 9.89727E+00
 -1      2129 1.09284E+01
 -1      2130 1.24763E+01
 -1      2131 9.97995E+00
 -1      2132 8.25328E+00
 -1      2133 2.82655E+01
 -1      2134 1.53869E+01
 -1      2135 3.03516E+01
 -1      2136 3.33805E+01
 -1      2137 2.40870E+01
 -1      2138 2.86969E+01
 -1      2139 3.00640E+01
 -1      2140 3.00640E+01
 -1      2141 2.85988E+01
 -1      2142 3.00640E+01
 -1      2143 3.01256E+01
 -1      2144 2.51479E+01
 -1      2145 2.80127E+01
 -1      2146 2.80127E+01
 -1      2147 2.40170E+01
 -1      2148 1.27574E+01
 -1      2149 2.31401E+01
 -1      2150 9.65968E+00
 -1      2151 1.05154E+01
 -1      2152 1.09649E+01
 -1      2153 1.05115E+01
 -1      2154 8.52678E+00
 -1      2155 1.13155E+01
 -1      2156 1.13659E+01
 -1      2157 1.21812E+01
 -1      2158 1.16134E+01
 -1      2159 1.08964E+01
 -1      2160 1.13220E+01
 -1      2161 9.32136E+00
 -1      2162 1.02785E+01
 -1      2163 1.46428E+01
 -1      2164 9.73220E+00
 -1      2165 3.12409E+01
 -1      2166 1.81586E+01
 -1      2167 2.77884E+01
 -1      2168 3.72972E+01
 -1      2169 2.17322E+01
 -1      2170 3.00462E+01
 -1      2171 2.73885E+01
 -1      2172 3.00462E+01
 -1      2173 1.00606E+01
 -1      2174 9.23707E+00
 -1      2175 8.14685E+00
 -1      2176 2.91036E+00
 -1      2177 8.97148E+00
 -1      2178 2.10451E+00
 -1      2179 3.10187E+01
 -1      2180 2.20642E+01
 -1      2181 1.39625E+00
 -1      2182 1.21862E+01
 -1      2183 2.73885E+01
 -1      2184 1.21600E+01
 -1      2185 8.23331E+00
 -1      2186 8.44031E+00
 -1      2187 1.16698E+01
 -1      2188 1.02651E+01
 -1      2189 9.40594E+00
 -1      2190 9.77960E+00
 -1      2191 1.70315E+01
 -1      2192 2.95809E+01
 -1      2193 3.30318E+01
 -1      2194 2.70548E+01
 -1      2195 2.27325E+01
 -1      2196 1.12465E+01
 -1      2197 1.11180E+01
 -1      2198 9.56857E+00
 -1      2199 8.36028E+00
 -1      2200 1.03585E+01
 -1      2201 1.04869E+01
 -1      2202 1.92721E+01
 -1      2203 9.91692E+00
 -1      2204 1.04786E+01
 -1      2205 1.08878E+00
 -1      2206 1.48066E+00
 -1      2207 5.58932E-01
 -1      2208 5.90105E-01
 -1      2209 6.02482E-01
 -1      2210 6.51232E-01
 -1      2211 4.98485E-01
 -1      2212 5.11232E-01
 -1      2213 5.09606E-01
 -1      2214 5.46045E-01
 -1      2215 5.24184E-01
 -1      2216 4.44579E-01
 -1      2217 5.94284E-01
 -1      2218 5.60893E-01
 -1      2219 4.72379E-01
 -1      2220 6.53977E-01
 -1      2221 6.06368E-01
 -1      2222 4.99311E-01
 -1      2223 7.21691E-01
 -1      2224 6.53977E-01
 -1      2225 5.11395E-01
 -1      2226 8.84918E-01
 -1      2227 7.70737E-01
 -1      2228 5.60440E-01
 -1      2229 8.90754E-01
 -1      2230 1.01046E+00
 -1      2231 9.69073E-01
 -1      2232 1.26581E+00
 -1      2233 1.03490E+00
 -1      2234 8.05564E+00
 -1      2235 6.69676E+00
 -1      2236 9.84573E-01
 -1      2237 8.04349E-01
 -1      2238 7.52499E-01
 -1      2239 7.47354E-01
 -1      2240 6.21755E-01
 -1      2241 6.45174E-01
 -1      2242 5.65575E-01
 -1      2243 5.06895E-01
 -1      2244 5.31998E-01
 -1      2245 4.57535E-01
 -1      2246 4.08922E-01
 -1      2247 4.26457E-01
 -1      2248 3.81504E-01
 -1      2249 3.38658E-01
 -1      2250 3.49678E-01
 -1      2251 3.13587E-01
 -1      2252 2.80840E-01
 -1      2253 2.97189E-01
 -1      2254 2.57125E-01
 -1      2255 2.29453E-01
 -1      2256 2.48403E-01
 -1      2257 2.10192E-01
 -1      2258 1.86427E-01
 -1      2259 2.05426E-01
 -1      2260 1.69592E-01
 -1      2261 1.51900E-01
 -1      2262 1.69330E-01
 -1      2263 1.37252E-01
 -1      2264 1.22619E-01
 -1      2265 1.37847E-01
 -1      2266 1.10283E-01
 -1      2267 9.80446E-02
 -1      2268 1.10863E-01
 -1      2269 8.83887E-02
 -1      2270 7.84291E-02
 -1      2271 8.88708E-02
 -1      2272 7.05912E-02
 -1      2273 6.26713E-02
 -1      2274 7.13770E-02
 -1      2275 5.60502E-02
 -1      2276 4.98574E-02
 -1      2277 5.69180E-02
 -1      2278 4.45929E-02
 -1      2279 3.97679E-02
 -1      2280 4.50323E-02
 -1      2281 3.68779E-02
 -1      2282 3.65199E-02
 -1      2283 3.68779E-02
 -1      2284 3.63545E-02
 -1      2285 3.76000E-02
 -1      2286 3.38225E-02
 -1      2287 4.15307E-02
 -1      2288 4.75519E-02
 -1      2289 3.75878E-02
 -1      2290 5.35782E-02
 -1      2291 6.22402E-02
 -1      2292 4.75448E-02
 -1      2293 7.59709E-02
 -1      2294 8.76193E-02
 -1      2295 6.73018E-02
 -1      2296 1.05239E-01
 -1      2297 1.22988E-01
 -1      2298 9.86516E-02
 -1      2299 1.45261E-01
 -1      2300 1.70959E-01
 -1      2301 1.38543E-01
 -1      2302 1.98505E-01
 -1      2303 2.30340E-01
 -1      2304 1.88362E-01
 -1      2305 2.63455E-01
 -1      2306 3.01417E-01
 -1      2307 2.49024E-01
 -1      2308 3.39796E-01
 -1      2309 3.82887E-01
 -1      2310 3.20518E-01
 -1      2311 4.25239E-01
 -1      2312 4.70882E-01
 -1      2313 4.01249E-01
 -1      2314 5.14426E-01
 -1      2315 5.57758E-01
 -1      2316 4.87144E-01
 -1      2317 5.98129E-01
 -1      2318 6.38829E-01
 -1      2319 5.71059E-01
 -1      2320 6.77663E-01
 -1      2321 7.22383E-01
 -1      2322 6.50266E-01
 -1      2323 7.51747E-01
 -1      2324 7.93637E-01
 -1      2325 7.18465E-01
 -1      2326 8.27420E-01
 -1      2327 8.31440E-01
 -1      2328 7.81613E-01
 -1      2329 8.46259E-01
 -1      2330 7.83067E-01
 -1      2331 8.30214E-01
 -1      2332 8.02965E-01
 -1      2333 7.74930E-01
 -1      2334 8.64930E-01
 -1      2335 9.09902E-01
 -1      2336 9.81786E-01
 -1      2337 1.01980E+00
 -1      2338 1.07625E+00
 -1      2339 1.46830E+00
 -1      2340 1.24923E+00
 -1      2341 1.73279E+00
 -1      2342 2.09868E+00
 -1      2343 1.60818E+00
 -1      2344 2.30057E+00
 -1      2345 2.63640E+00
 -1      2346 2.07457E+00
 -1      2347 2.85580E+00
 -1      2348 3.08996E+00
 -1      2349 2.49587E+00
 -1      2350 3.26072E+00
 -1      2351 3.23180E+00
 -1      2352 2.88604E+00
 -1      2353 3.27374E+00
 -1      2354 3.19971E+00
 -1      2355 3.09875E+00
 -1      2356 2.93277E+00
 -1      2357 2.80951E+00
 -1      2358 2.87375E+00
 -1      2359 2.71778E+00
 -1      2360 2.43033E+00
 -1      2361 2.51507E+00
 -1      2362 2.50150E+00
 -1      2363 2.24067E+00
 -1      2364 2.49452E+00
 -1      2365 2.40656E+01
 -1      2366 2.43140E+01
 -1      2367 5.44291E-01
 -1      2368 6.23723E-01
 -1      2369 4.37086E-01
 -1      2370 4.90688E-01
 -1      2371 4.90688E-01
 -1      2372 3.70428E-01
 -1      2373 4.03757E-01
 -1      2374 4.03757E-01
 -1      2375 3.06498E-01
 -1      2376 3.38463E-01
 -1      2377 3.38463E-01
 -1      2378 2.50912E-01
 -1      2379 2.78705E-01
 -1      2380 2.78705E-01
 -1      2381 2.05838E-01
 -1      2382 2.28559E-01
 -1      2383 2.28559E-01
 -1      2384 1.66336E-01
 -1      2385 1.86228E-01
 -1      2386 1.86595E-01
 -1      2387 1.32799E-01
 -1      2388 1.49612E-01
 -1      2389 1.50262E-01
 -1      2390 1.06371E-01
 -1      2391 1.20162E-01
 -1      2392 1.20901E-01
 -1      2393 8.50283E-02
 -1      2394 9.59503E-02
 -1      2395 9.78437E-02
 -1      2396 6.81719E-02
 -1      2397 7.63512E-02
 -1      2398 7.87459E-02
 -1      2399 5.52430E-02
 -1      2400 6.10666E-02
 -1      2401 6.29635E-02
 -1      2402 4.57649E-02
 -1      2403 4.94426E-02
 -1      2404 5.00579E-02
 -1      2405 4.10012E-02
 -1      2406 4.23952E-02
 -1      2407 4.08879E-02
 -1      2408 4.21497E-02
 -1      2409 4.01206E-02
 -1      2410 3.66376E-02
 -1      2411 4.94396E-02
 -1      2412 4.54374E-02
 -1      2413 3.90447E-02
 -1      2414 6.35305E-02
 -1      2415 5.56663E-02
 -1      2416 4.85591E-02
 -1      2417 8.52819E-02
 -1      2418 7.36065E-02
 -1      2419 6.48618E-02
 -1      2420 1.18635E-01
 -1      2421 1.03607E-01
 -1      2422 9.32629E-02
 -1      2423 1.64963E-01
 -1      2424 1.42820E-01
 -1      2425 1.35773E-01
 -1      2426 2.32245E-01
 -1      2427 1.96375E-01
 -1      2428 1.91370E-01
 -1      2429 3.18359E-01
 -1      2430 2.72240E-01
 -1      2431 2.62777E-01
 -1      2432 4.25536E-01
 -1      2433 3.68065E-01
 -1      2434 3.52478E-01
 -1      2435 5.54300E-01
 -1      2436 4.85462E-01
 -1      2437 4.62111E-01
 -1      2438 7.01777E-01
 -1      2439 6.23685E-01
 -1      2440 5.91422E-01
 -1      2441 8.59190E-01
 -1      2442 7.77606E-01
 -1      2443 7.36636E-01
 -1      2444 1.00862E+00
 -1      2445 9.34864E-01
 -1      2446 8.88138E-01
 -1      2447 1.14262E+00
 -1      2448 1.07375E+00
 -1      2449 1.02894E+00
 -1      2450 1.23687E+00
 -1      2451 1.19746E+00
 -1      2452 1.14891E+00
 -1      2453 1.29623E+00
 -1      2454 1.29623E+00
 -1      2455 1.26312E+00
 -1      2456 1.31626E+00
 -1      2457 1.35388E+00
 -1      2458 1.38013E+00
 -1      2459 1.22130E+00
 -1      2460 1.32572E+00
 -1      2461 1.44724E+00
 -1      2462 1.45593E+00
 -1      2463 1.41922E+00
 -1      2464 1.65462E+00
 -1      2465 2.12787E+00
 -1      2466 1.54867E+00
 -1      2467 1.94527E+00
 -1      2468 3.01146E+00
 -1      2469 2.47897E+00
 -1      2470 2.38911E+00
 -1      2471 4.62514E+00
 -1      2472 4.39969E+00
 -1      2473 4.12843E+00
 -1      2474 5.32010E+00
 -1      2475 5.34444E+00
 -1      2476 6.23596E+00
 -1      2477 4.09190E+00
 -1      2478 4.10001E+00
 -1      2479 5.73517E+00
 -1      2480 3.57042E+00
 -1      2481 3.66872E+00
 -1      2482 4.09190E+00
 -1      2483 3.10971E+00
 -1      2484 3.37567E+00
 -1      2485 3.47397E+00
 -1      2486 2.95029E+00
 -1      2487 3.14036E+00
 -1      2488 3.30988E+00
 -1      2489 2.49453E+00
 -1      2490 2.93632E+00
 -1      2491 3.32656E+00
 -1      2492 1.67648E+00
 -1      2493 6.64903E+00
 -1      2494 5.84460E+00
 -1      2495 1.23055E+01
 -1      2496 1.07303E+01
 -1      2497 1.23830E+01
 -1      2498 3.14034E+00
 -1      2499 2.98705E+00
 -1      2500 4.17526E+00
 -1      2501 3.96558E+00
 -1      2502 4.13782E+00
 -1      2503 6.63241E+00
 -1      2504 1.10918E+01
 -1      2505 1.10918E+01
 -1      2506 1.52506E+01
 -1      2507 9.70159E+00
 -1      2508 1.02621E+01
 -1      2509 1.32072E+01
 -1      2510 7.59285E+00
 -1      2511 8.76407E+00
 -1      2512 1.14399E+01
 -1      2513 4.87160E+00
 -1      2514 5.48927E+00
 -1      2515 8.39880E+00
 -1      2516 3.41600E+00
 -1      2517 3.74237E+00
 -1      2518 5.16600E+00
 -1      2519 2.58916E+00
 -1      2520 2.78902E+00
 -1      2521 3.40979E+00
 -1      2522 1.92617E+00
 -1      2523 2.23288E+00
 -1      2524 2.42653E+00
 -1      2525 1.69814E+00
 -1      2526 8.64867E+00
 -1      2527 1.21538E+01
 -1      2528 7.03156E-01
 -1      2529 7.96955E-01
 -1      2530 6.23723E-01
 -1      2531 2.89338E+01
 -1      2532 3.10187E+01
 -1      2533 1.45455E+01
 -1      2534 2.09184E+01
 -1      2535 2.38097E+01
 -1      2536 2.42096E+01
 -1      2537 1.15536E+01
 -1      2538 8.03775E+00
 -1      2539 1.13368E+01
 -1      2540 1.62094E+01
 -1      2541 2.61299E+01
 -1      2542 2.95809E+01
 -1      2543 5.22458E-01
 -1      2544 5.44543E-01
 -1      2545 4.71719E-01
 -1      2546 4.44479E-01
 -1      2547 9.70746E+00
 -1      2548 9.60722E+00
 -1      2549 1.83024E+01
 -1      2550 1.31874E+01
 -1      2551 9.43714E+00
 -1      2552 9.40897E+00
 -1      2553 8.65767E+00
 -1      2554 6.46739E+00
 -1      2555 6.38470E+00
 -1      2556 7.78688E+00
 -1      2557 1.00288E+01
 -1      2558 1.14599E+01
 -1      2559 8.54937E+00
 -1      2560 2.01167E+01
 -1      2561 2.17714E+01
 -1      2562 2.59543E+01
 -1      2563 1.99773E+01
 -1      2564 1.90162E+01
 -1      2565 3.30318E+01
 -1      2566 3.30318E+01
 -1      2567 2.95809E+01
 -1      2568 1.89966E+01
 -1      2569 2.11095E+01
 -1      2570 9.73369E+00
 -1      2571 9.43574E+00
 -1      2572 6.72598E+00
 -1      2573 5.87416E+00
 -1      2574 8.81551E+00
 -1      2575 8.41450E+00
 -1      2576 8.07064E+00
 -1      2577 6.48160E+00
 -1      2578 7.09944E+00
 -1      2579 6.63997E+00
 -1      2580 6.22913E+00
 -1      2581 4.88825E+00
 -1      2582 1.95109E+01
 -1      2583 1.34546E+01
 -1      2584 3.00462E+01
 -1      2585 2.69886E+01
 -1      2586 1.67699E+00
 -1      2587 1.30128E+00
 -1      2588 8.38297E-01
 -1      2589 9.60441E-01
 -1      2590 1.62090E+00
 -1      2591 1.76418E+00
 -1      2592 1.32858E+00
 -1      2593 1.18763E+00
 -1      2594 6.02880E+00
 -1      2595 6.56304E+00
 -1      2596 6.57438E+00
 -1      2597 6.15419E-01
 -1      2598 7.55790E-01
 -1      2599 8.19191E-01
 -1      2600 7.96955E-01
 -1      2601 1.24411E+00
 -1      2602 5.11295E+00
 -1      2603 2.79612E+01
 -1      2604 6.03356E+00
 -1      2605 5.76188E+00
 -1      2606 1.10079E+01
 -1      2607 1.65469E+01
 -1      2608 2.49453E+00
 -1      2609 2.98705E+00
 -1      2610 9.31795E+00
 -1      2611 8.27513E+00
 -1      2612 8.80656E+00
 -1      2613 1.84222E+00
 -1      2614 1.92617E+00
 -1      2615 2.07025E+00
 -1      2616 1.99295E+00
 -1      2617 2.64187E+01
 -1      2618 1.93412E+01
 -1      2619 2.64187E+01
 -1      2620 6.53062E+00
 -1      2621 9.68680E-01
 -1      2622 2.43140E+01
 -1      2623 1.59320E+01
 -1      2624 1.04902E+01
 -1      2625 8.96085E-01
 -1      2626 5.98608E+00
 -1      2627 1.33019E+01
 -1      2628 8.04996E+00
 -1      2629 8.39775E+00
 -1      2630 6.09125E+00
 -1      2631 2.11095E+01
 -1      2632 9.20679E+00
 -1      2633 9.33236E+00
 -1      2634 2.38097E+01
 -1      2635 7.78976E+00
 -1      2636 8.80838E+00
 -1      2637 7.92866E+00
 -1      2638 1.56867E+01
 -1      2639 7.13425E+00
 -1      2640 6.68079E+00
 -1      2641 3.31259E+00
 -1      2642 2.31797E+00
 -1      2643 4.22799E-01
 -1      2644 4.07952E-01
 -1      2645 4.00138E-01
 -1      2646 3.87185E-01
 -1      2647 3.50558E-01
 -1      2648 4.36670E-01
 -1      2649 4.36670E-01
 -1      2650 4.73733E-01
 -1      2651 4.24688E-01
 -1      2652 3.49963E-01
 -1      2653 7.17313E-01
 -1      2654 7.95632E-01
 -1      2655 6.08966E-01
 -1      2656 7.02764E-01
 -1      2657 5.29324E-01
 -1      2658 8.28439E-01
 -1      2659 6.94953E+00
 -1      2660 6.32930E+00
 -1      2661 5.49588E-01
 -1      2662 4.92593E-01
 -1      2663 4.85855E-01
 -1      2664 4.29674E-01
 -1      2665 3.90269E-01
 -1      2666 4.09265E-01
 -1      2667 3.59905E-01
 -1      2668 3.63122E-01
 -1      2669 3.35097E-01
 -1      2670 3.07679E-01
 -1      2671 3.17905E-01
 -1      2672 2.82852E-01
 -1      2673 2.57781E-01
 -1      2674 2.68271E-01
 -1      2675 2.42180E-01
 -1      2676 2.18464E-01
 -1      2677 2.27842E-01
 -1      2678 2.02240E-01
 -1      2679 1.82979E-01
 -1      2680 1.96017E-01
 -1      2681 1.67517E-01
 -1      2682 1.50682E-01
 -1      2683 1.64331E-01
 -1      2684 1.36752E-01
 -1      2685 1.22103E-01
 -1      2686 1.34938E-01
 -1      2687 1.10559E-01
 -1      2688 9.82234E-02
 -1      2689 1.09464E-01
 -1      2690 8.88708E-02
 -1      2691 7.92149E-02
 -1      2692 8.85675E-02
 -1      2693 7.13770E-02
 -1      2694 6.35392E-02
 -1      2695 7.13770E-02
 -1      2696 5.69180E-02
 -1      2697 5.02968E-02
 -1      2698 5.69180E-02
 -1      2699 4.47653E-02
 -1      2700 3.95008E-02
 -1      2701 4.47653E-02
 -1      2702 3.52042E-02
 -1      2703 3.23142E-02
 -1      2704 3.49371E-02
 -1      2705 2.87200E-02
 -1      2706 2.85546E-02
 -1      2707 2.70462E-02
 -1      2708 3.08447E-02
 -1      2709 3.47754E-02
 -1      2710 2.57421E-02
 -1      2711 4.16675E-02
 -1      2712 4.76938E-02
 -1      2713 3.49244E-02
 -1      2714 5.92238E-02
 -1      2715 7.29545E-02
 -1      2716 5.33465E-02
 -1      2717 8.75209E-02
 -1      2718 1.05140E-01
 -1      2719 7.94430E-02
 -1      2720 1.23482E-01
 -1      2721 1.45754E-01
 -1      2722 1.12351E-01
 -1      2723 1.68598E-01
 -1      2724 1.96144E-01
 -1      2725 1.53536E-01
 -1      2726 2.24134E-01
 -1      2727 2.57249E-01
 -1      2728 2.04370E-01
 -1      2729 2.90828E-01
 -1      2730 3.29208E-01
 -1      2731 2.65939E-01
 -1      2732 3.68450E-01
 -1      2733 4.10801E-01
 -1      2734 3.38760E-01
 -1      2735 4.55410E-01
 -1      2736 4.98954E-01
 -1      2737 4.22612E-01
 -1      2738 5.48929E-01
 -1      2739 5.89300E-01
 -1      2740 5.17195E-01
 -1      2741 6.38831E-01
 -1      2742 6.77666E-01
 -1      2743 6.16700E-01
 -1      2744 7.19629E-01
 -1      2745 7.48993E-01
 -1      2746 7.08194E-01
 -1      2747 8.11632E-01
 -1      2748 8.45415E-01
 -1      2749 8.12796E-01
 -1      2750 9.28291E-01
 -1      2751 9.43109E-01
 -1      2752 9.58310E-01
 -1      2753 1.02097E+00
 -1      2754 1.04087E+00
 -1      2755 1.11904E+00
 -1      2756 1.12097E+00
 -1      2757 1.25594E+00
 -1      2758 1.27701E+00
 -1      2759 1.51772E+00
 -1      2760 1.61218E+00
 -1      2761 1.61889E+00
 -1      2762 1.66958E+00
 -1      2763 1.93407E+00
 -1      2764 1.93807E+00
 -1      2765 2.26395E+00
 -1      2766 2.46585E+00
 -1      2767 2.32534E+00
 -1      2768 2.49587E+00
 -1      2769 2.71527E+00
 -1      2770 2.68525E+00
 -1      2771 3.96173E+00
 -1      2772 4.13250E+00
 -1      2773 3.96173E+00
 -1      2774 4.11237E+00
 -1      2775 4.15431E+00
 -1      2776 5.18806E+00
 -1      2777 4.08244E+00
 -1      2778 3.81550E+00
 -1      2779 5.09606E+00
 -1      2780 3.19901E+00
 -1      2781 3.10728E+00
 -1      2782 4.40771E+00
 -1      2783 3.15007E+00
 -1      2784 3.22124E+00
 -1      2785 3.83401E+00
 -1      2786 5.86103E+00
 -1      2787 4.46325E+00
 -1      2788 4.16464E-01
 -1      2789 4.70067E-01
 -1      2790 2.41857E-01
 -1      2791 2.69650E-01
 -1      2792 2.00891E-01
 -1      2793 2.23245E-01
 -1      2794 2.14189E-01
 -1      2795 1.64273E-01
 -1      2796 1.83882E-01
 -1      2797 1.78568E-01
 -1      2798 1.33620E-01
 -1      2799 1.50343E-01
 -1      2800 1.47631E-01
 -1      2801 1.08631E-01
 -1      2802 1.21268E-01
 -1      2803 1.21349E-01
 -1      2804 8.76248E-02
 -1      2805 9.80455E-02
 -1      2806 9.84118E-02
 -1      2807 7.00969E-02
 -1      2808 7.87741E-02
 -1      2809 7.89758E-02
 -1      2810 5.58582E-02
 -1      2811 6.29635E-02
 -1      2812 6.29917E-02
 -1      2813 4.42576E-02
 -1      2814 5.00579E-02
 -1      2815 5.00579E-02
 -1      2816 3.65160E-02
 -1      2817 3.98857E-02
 -1      2818 3.98857E-02
 -1      2819 3.24174E-02
 -1      2820 3.32980E-02
 -1      2821 3.22958E-02
 -1      2822 3.71072E-02
 -1      2823 3.38196E-02
 -1      2824 3.04799E-02
 -1      2825 4.72341E-02
 -1      2826 4.10074E-02
 -1      2827 3.57822E-02
 -1      2828 6.92029E-02
 -1      2829 5.91269E-02
 -1      2830 5.15752E-02
 -1      2831 1.02973E-01
 -1      2832 8.46475E-02
 -1      2833 7.89127E-02
 -1      2834 1.47169E-01
 -1      2835 1.22984E-01
 -1      2836 1.14369E-01
 -1      2837 2.04306E-01
 -1      2838 1.72894E-01
 -1      2839 1.60105E-01
 -1      2840 2.76971E-01
 -1      2841 2.36976E-01
 -1      2842 2.18501E-01
 -1      2843 3.67540E-01
 -1      2844 3.17834E-01
 -1      2845 2.92033E-01
 -1      2846 4.77661E-01
 -1      2847 4.17734E-01
 -1      2848 3.83090E-01
 -1      2849 6.07401E-01
 -1      2850 5.38016E-01
 -1      2851 4.93639E-01
 -1      2852 7.53932E-01
 -1      2853 6.78103E-01
 -1      2854 6.24697E-01
 -1      2855 9.09689E-01
 -1      2856 8.34015E-01
 -1      2857 7.75482E-01
 -1      2858 1.06253E+00
 -1      2859 9.97399E-01
 -1      2860 9.43275E-01
 -1      2861 1.20338E+00
 -1      2862 1.14854E+00
 -1      2863 1.11699E+00
 -1      2864 1.33997E+00
 -1      2865 1.28061E+00
 -1      2866 1.28024E+00
 -1      2867 1.54453E+00
 -1      2868 1.48687E+00
 -1      2869 1.50437E+00
 -1      2870 1.73246E+00
 -1      2871 1.72300E+00
 -1      2872 1.82974E+00
 -1      2873 2.08838E+00
 -1      2874 1.89047E+00
 -1      2875 2.16622E+00
 -1      2876 2.73575E+00
 -1      2877 2.64301E+00
 -1      2878 2.87886E+00
 -1      2879 2.99104E+00
 -1      2880 2.63994E+00
 -1      2881 3.33768E+00
 -1      2882 4.52899E+00
 -1      2883 3.14076E+00
 -1      2884 3.39159E+00
 -1      2885 6.99241E+00
 -1      2886 6.27311E+00
 -1      2887 4.09190E+00
 -1      2888 4.51507E+00
 -1      2889 3.50952E+00
 -1      2890 3.70426E+00
 -1      2891 4.12744E+00
 -1      2892 3.34053E+00
 -1      2893 3.30988E+00
 -1      2894 3.54017E+00
 -1      2895 3.32656E+00
 -1      2896 3.34053E+00
 -1      2897 3.34053E+00
 -1      2898 3.32656E+00
 -1      2899 2.64787E+00
 -1      2900 2.40014E+00
 -1      2901 3.30342E+00
 -1      2902 1.49320E+01
 -1      2903 1.08507E+01
 -1      2904 2.14854E+01
 -1      2905 2.26990E+01
 -1      2906 8.24605E+00
 -1      2907 1.03496E+01
 -1      2908 4.52830E+00
 -1      2909 5.65753E+00
 -1      2910 3.32980E+00
 -1      2911 3.95678E+00
 -1      2912 4.44831E+00
 -1      2913 5.03882E-01
 -1      2914 5.83315E-01
 -1      2915 4.89125E-01
 -1      2916 4.29658E-01
 -1      2917 3.99304E+00
 -1      2918 6.07867E+00
 -1      2919 5.33630E+00
 -1      2920 3.64778E+00
 -1      2921 7.86919E+00
 -1      2922 7.69911E+00
 -1      2923 7.37674E+00
 -1      2924 8.68474E+00
 -1      2925 2.89582E-01
 -1      2926 3.21547E-01
 -1      2927 2.52734E-01
 -1      2928 3.48807E-01
 -1      2929 3.82136E-01
 -1      2930 2.99927E-01
 -1      2931 6.05177E-01
 -1      2932 5.54847E-01
 -1      2933 4.02266E-01
 -1      2934 4.76036E+00
 -1      2935 4.09240E+00
 -1      2936 4.39456E+00
 -1      2937 6.30727E+00
 -1      2938 4.36670E-01
 -1      2939 4.24586E-01
 -1      2940 3.60158E-01
 -1      2941 3.61945E-01
 -1      2942 7.96871E-01
 -1      2943 7.20647E+00
 -1      2944 5.12449E+00
 -1      2945 8.65142E+00
 -1      2946 6.75040E+00
 -1      2947 4.23928E-01
 -1      2948 4.36305E-01
 -1      2949 7.06549E+00
 -1      2950 5.71215E+00
 -1      2951 4.69160E+00
 -1      2952 6.27701E+00
 -1      2953 1.61502E+01
 -1      2954 1.62896E+01
 -1      2955 2.10356E+01
 -1      2956 2.44866E+01
 -1      2957 1.45968E+01
 -1      2958 1.96172E+01
 -1      2959 1.45229E+01
 -1      2960 1.44936E+01
 -1      2961 1.10247E+01
 -1      2962 1.16277E+01
 -1      2963 1.04022E+01
 -1      2964 1.31894E+01
 -1      2965 1.54138E+01
 -1      2966 1.07151E+01
 -1      2967 2.40014E+00
 -1      2968 3.85386E+00
 -1      2969 4.10633E+00
 -1      2970 1.01920E+01
 -1      2971 8.46455E+00
 -1      2972 5.05773E+00
 -1      2973 7.03331E+00
 -1      2974 4.63208E-01
 -1      2975 5.67765E-01
 -1      2976 3.88650E-01
 -1      2977 3.42432E-01
 -1      2978 3.86873E-01
 -1      2979 3.99725E-01
 -1      2980 5.76679E-01
 -1      2981 3.64044E+00
 -1      2982 7.39314E+00
 -1      2983 5.65180E+00
 -1      2984 6.97740E+00
 -1      2985 2.02539E+01
 -1      2986 1.92814E+01
 -1      2987 5.83963E-01
 -1      2988 6.60858E-01
 -1      2989 6.25390E-01
 -1      2990 4.31752E-01
 -1      2991 3.68133E+00
 -1      2992 5.58341E+00
 -1      2993 8.99899E+00
 -1      2994 9.94215E+00
 -1      2995 7.39320E+00
 -1      2996 5.72386E+00
 -1      2997 7.55045E+00
 -1      2998 5.18009E+00
 -1      2999 1.57384E+01
 -1      3000 1.52740E+01
 -1      3001 1.25475E+01
 -1      3002 5.01287E+00
 -1      3003 3.61515E-01
 -1      3004 5.73517E+00
 -1      3005 6.95526E+00
 -1      3006 1.16971E+01
 -1      3007 4.20845E+00
 -1      3008 3.38321E+00
 -1      3009 3.39719E+00
 -1      3010 4.96925E+00
 -1      3011 7.83287E+00
 -1      3012 6.88570E+00
 -1      3013 6.47690E+00
 -1      3014 8.13317E+00
 -1      3015 2.75642E+00
 -1      3016 2.29516E+01
 -1      3017 1.63385E+01
 -1      3018 1.44064E+01
 -1      3019 4.21520E+00
 -1      3020 3.96898E+00
 -1      3021 5.78522E+00
 -1      3022 6.97010E+00
 -1      3023 3.30342E+00
 -1      3024 5.08246E+00
 -1      3025 6.03299E+00
 -1      3026 4.04807E+00
 -1      3027 8.57218E+00
 -1      3028 4.40927E-01
 -1      3029 4.07421E-01
 -1      3030 4.21810E-01
 -1      3031 3.59630E-01
 -1      3032 3.49816E-01
 -1      3033 6.27311E+00
 -1      3034 4.27737E-01
 -1      3035 6.90826E+00
 -1      3036 3.42545E+00
 -1      3037 3.32609E+00
 -1      3038 2.89349E-01
 -1      3039 3.01332E-01
 -1      3040 1.80792E+01
 -1      3041 7.16462E+00
 -1      3042 5.90653E+00
 -1      3043 3.06692E-01
 -1      3044 3.41020E-01
 -1      3045 3.19267E-01
 -1      3046 2.98858E-01
 -1      3047 2.95441E-01
 -1      3048 2.70634E-01
 -1      3049 2.51586E-01
 -1      3050 2.59751E-01
 -1      3051 2.34924E-01
 -1      3052 2.37287E-01
 -1      3053 2.20767E-01
 -1      3054 2.05166E-01
 -1      3055 2.12247E-01
 -1      3056 1.91867E-01
 -1      3057 1.75643E-01
 -1      3058 1.84791E-01
 -1      3059 1.65064E-01
 -1      3060 1.49602E-01
 -1      3061 1.60914E-01
 -1      3062 1.38485E-01
 -1      3063 1.24554E-01
 -1      3064 1.39218E-01
 -1      3065 1.13841E-01
 -1      3066 1.02298E-01
 -1      3067 1.17388E-01
 -1      3068 9.24935E-02
 -1      3069 8.31409E-02
 -1      3070 9.68709E-02
 -1      3071 7.44518E-02
 -1      3072 6.66140E-02
 -1      3073 7.83778E-02
 -1      3074 5.90302E-02
 -1      3075 5.24090E-02
 -1      3076 6.21050E-02
 -1      3077 4.57773E-02
 -1      3078 4.02457E-02
 -1      3079 4.78895E-02
 -1      3080 3.43102E-02
 -1      3081 3.00136E-02
 -1      3082 3.53222E-02
 -1      3083 2.44367E-02
 -1      3084 2.08425E-02
 -1      3085 2.38099E-02
 -1      3086 2.01055E-02
 -1      3087 2.23956E-02
 -1      3088 1.74960E-02
 -1      3089 2.77610E-02
 -1      3090 3.46531E-02
 -1      3091 2.21243E-02
 -1      3092 4.41149E-02
 -1      3093 5.56449E-02
 -1      3094 3.69515E-02
 -1      3095 6.75624E-02
 -1      3096 8.21288E-02
 -1      3097 5.83307E-02
 -1      3098 9.76930E-02
 -1      3099 1.16034E-01
 -1      3100 8.58124E-02
 -1      3101 1.36005E-01
 -1      3102 1.58848E-01
 -1      3103 1.21347E-01
 -1      3104 1.83495E-01
 -1      3105 2.11485E-01
 -1      3106 1.65964E-01
 -1      3107 2.41130E-01
 -1      3108 2.74709E-01
 -1      3109 2.20256E-01
 -1      3110 3.09169E-01
 -1      3111 3.48411E-01
 -1      3112 2.84360E-01
 -1      3113 3.86613E-01
 -1      3114 4.31222E-01
 -1      3115 3.57022E-01
 -1      3116 4.82391E-01
 -1      3117 5.32365E-01
 -1      3118 4.46392E-01
 -1      3119 5.93962E-01
 -1      3120 6.43493E-01
 -1      3121 5.59158E-01
 -1      3122 7.12345E-01
 -1      3123 7.54308E-01
 -1      3124 6.89607E-01
 -1      3125 8.35894E-01
 -1      3126 8.98533E-01
 -1      3127 8.40045E-01
 -1      3128 9.89144E-01
 -1      3129 1.07202E+00
 -1      3130 1.01224E+00
 -1      3131 1.22340E+00
 -1      3132 1.30126E+00
 -1      3133 1.25424E+00
 -1      3134 1.49022E+00
 -1      3135 1.57032E+00
 -1      3136 1.59457E+00
 -1      3137 1.76035E+00
 -1      3138 2.02212E+00
 -1      3139 1.97355E+00
 -1      3140 2.90416E+00
 -1      3141 2.96156E+00
 -1      3142 3.04561E+00
 -1      3143 2.32534E+00
 -1      3144 2.65522E+00
 -1      3145 3.29144E+00
 -1      3146 3.30724E+00
 -1      3147 4.55369E+00
 -1      3148 5.65180E+00
 -1      3149 5.63167E+00
 -1      3150 5.53997E+00
 -1      3151 5.46810E+00
 -1      3152 5.02419E+00
 -1      3153 4.40771E+00
 -1      3154 1.55665E+01
 -1      3155 5.73517E+00
 -1      3156 1.91996E-01
 -1      3157 2.10608E-01
 -1      3158 1.10997E-01
 -1      3159 1.23349E-01
 -1      3160 8.96628E-02
 -1      3161 1.00248E-01
 -1      3162 1.02248E-01
 -1      3163 7.14672E-02
 -1      3164 8.03179E-02
 -1      3165 8.21542E-02
 -1      3166 5.63226E-02
 -1      3167 6.34561E-02
 -1      3168 6.47982E-02
 -1      3169 4.38170E-02
 -1      3170 4.96173E-02
 -1      3171 5.00818E-02
 -1      3172 3.44669E-02
 -1      3173 3.88388E-02
 -1      3174 3.83982E-02
 -1      3175 2.67245E-02
 -1      3176 2.99425E-02
 -1      3177 2.88956E-02
 -1      3178 2.56976E-02
 -1      3179 2.42954E-02
 -1      3180 2.19422E-02
 -1      3181 3.34239E-02
 -1      3182 2.95237E-02
 -1      3183 2.33392E-02
 -1      3184 5.48714E-02
 -1      3185 4.29786E-02
 -1      3186 3.67200E-02
 -1      3187 8.23333E-02
 -1      3188 6.68887E-02
 -1      3189 5.82921E-02
 -1      3190 1.17611E-01
 -1      3191 9.76002E-02
 -1      3192 8.55762E-02
 -1      3193 1.62751E-01
 -1      3194 1.37025E-01
 -1      3195 1.20257E-01
 -1      3196 2.20005E-01
 -1      3197 1.87335E-01
 -1      3198 1.64255E-01
 -1      3199 2.93950E-01
 -1      3200 2.53088E-01
 -1      3201 2.21922E-01
 -1      3202 3.87797E-01
 -1      3203 3.37602E-01
 -1      3204 2.98657E-01
 -1      3205 5.01901E-01
 -1      3206 4.41546E-01
 -1      3207 3.96059E-01
 -1      3208 6.36808E-01
 -1      3209 5.66106E-01
 -1      3210 5.14013E-01
 -1      3211 7.90296E-01
 -1      3212 7.10213E-01
 -1      3213 6.51622E-01
 -1      3214 9.71793E-01
 -1      3215 8.84083E-01
 -1      3216 8.18813E-01
 -1      3217 1.17593E+00
 -1      3218 1.08992E+00
 -1      3219 1.03073E+00
 -1      3220 1.40162E+00
 -1      3221 1.32438E+00
 -1      3222 1.29731E+00
 -1      3223 1.74442E+00
 -1      3224 1.59752E+00
 -1      3225 1.64167E+00
 -1      3226 2.21278E+00
 -1      3227 2.03431E+00
 -1      3228 2.12746E+00
 -1      3229 2.65268E+00
 -1      3230 2.49467E+00
 -1      3231 2.69924E+00
 -1      3232 4.70239E+00
 -1      3233 4.79820E+00
 -1      3234 5.51666E+00
 -1      3235 9.27260E+00
 -1      3236 1.06800E+01
 -1      3237 1.28055E+01
 -1      3238 3.23256E-01
 -1      3239 3.15442E-01
 -1      3240 1.65041E+01
 -1      3241 1.96830E+01
 -1      3242 1.19758E+01
 -1      3243 7.60836E+00
 -1      3244 4.54992E+00
 -1      3245 5.61939E+00
 -1      3246 2.24831E-01
 -1      3247 2.44764E-01
 -1      3248 2.02639E-01
 -1      3249 3.39719E+00
 -1      3250 1.35374E-01
 -1      3251 1.49303E-01
 -1      3252 1.25021E-01
 -1      3253 3.01611E-01
 -1      3254 2.96352E-01
 -1      3255 1.62169E-01
 -1      3256 1.79177E-01
 -1      3257 1.75596E-01
 -1      3258 1.49911E-01
 -1      3259 2.63130E-01
 -1      3260 2.90390E-01
 -1      3261 2.35227E-01
 -1      3262 7.99726E+00
 -1      3263 7.16462E+00
 -1      3264 3.49746E+00
 -1      3265 3.14854E-01
 -1      3266 3.08116E-01
 -1      3267 2.43852E-01
 -1      3268 6.82409E+00
 -1      3269 8.54158E+00
 -1      3270 4.55369E+00
 -1      3271 3.56070E+00
 -1      3272 1.10169E+01
 -1      3273 1.24354E+01
 -1      3274 1.22791E+01
 -1      3275 1.04830E+01
 -1      3276 8.64867E+00
 -1      3277 4.13270E-01
 -1      3278 3.10324E-01
 -1      3279 2.61692E-01
 -1      3280 3.98721E-01
 -1      3281 3.01055E+00
 -1      3282 3.75732E+00
 -1      3283 3.27109E-01
 -1      3284 3.06895E-01
 -1      3285 3.10910E-01
 -1      3286 4.18005E+00
 -1      3287 3.57066E+00
 -1      3288 3.12211E-01
 -1      3289 3.11899E-01
 -1      3290 2.84909E-01
 -1      3291 2.61284E-01
 -1      3292 3.21898E-01
 -1      3293 3.21898E-01
 -1      3294 3.93658E+00
 -1      3295 3.43786E+00
 -1      3296 4.41398E+00
 -1      3297 3.59149E+00
 -1      3298 6.16290E+00
 -1      3299 2.80685E-01
 -1      3300 3.07587E-01
 -1      3301 2.02944E-01
 -1      3302 6.00371E+00
 -1      3303 2.95604E-01
 -1      3304 3.50427E-01
 -1      3305 3.84243E-01
 -1      3306 5.20819E+00
 -1      3307 2.72706E+00
 -1      3308 2.75708E+00
 -1      3309 3.79750E+00
 -1      3310 3.84028E+00
 -1      3311 1.43400E+01
 -1      3312 1.02728E+01
 -1      3313 1.08729E+01
 -1      3314 2.14199E-01
 -1      3315 5.13557E+00
 -1      3316 3.77087E+00
 -1      3317 3.21624E+00
 -1      3318 5.13557E+00
 -1      3319 3.54469E+00
 -1      3320 4.44602E+00
 -1      3321 4.52899E+00
 -1      3322 4.59574E+00
 -1      3323 7.52452E+00
 -1      3324 2.80685E-01
 -1      3325 1.99622E-01
 -1      3326 2.78567E-01
 -1      3327 3.87679E+00
 -1      3328 5.46810E+00
 -1      3329 3.23256E-01
 -1      3330 2.88140E-01
 -1      3331 3.25042E-01
 -1      3332 1.14028E+01
 -1      3333 8.59247E+00
 -1      3334 3.97309E+00
 -1      3335 4.54461E+00
 -1      3336 1.14580E+01
 -1      3337 9.92300E+00
 -1      3338 7.95199E+00
 -1      3339 5.54464E+00
 -1      3340 2.69895E-01
 -1      3341 3.66442E-01
 -1      3342 3.92093E-01
 -1      3343 2.76039E-01
 -1      3344 2.87211E-01
 -1      3345 5.58880E+00
 -1      3346 3.22581E+00
 -1      3347 3.42545E+00
 -1      3348 2.00982E-01
 -1      3349 3.34904E+00
 -1      3350 3.73981E+00
 -1      3351 3.28247E+00
 -1      3352 3.97309E+00
 -1      3353 4.65528E+00
 -1      3354 4.69160E+00
 -1      3355 2.72706E+00
 -1      3356 2.15231E-01
 -1      3357 2.04348E-01
 -1      3358 2.00726E-01
 -1      3359 1.86569E-01
 -1      3360 1.78670E-01
 -1      3361 1.78723E-01
 -1      3362 1.65424E-01
 -1      3363 1.67202E-01
 -1      3364 1.55614E-01
 -1      3365 1.45036E-01
 -1      3366 1.49546E-01
 -1      3367 1.36748E-01
 -1      3368 1.25631E-01
 -1      3369 1.31449E-01
 -1      3370 1.17436E-01
 -1      3371 1.06723E-01
 -1      3372 1.14966E-01
 -1      3373 9.84127E-02
 -1      3374 8.86086E-02
 -1      3375 9.84603E-02
 -1      3376 8.07282E-02
 -1      3377 7.20391E-02
 -1      3378 8.22699E-02
 -1      3379 6.48465E-02
 -1      3380 5.72627E-02
 -1      3381 6.71969E-02
 -1      3382 5.08178E-02
 -1      3383 4.41861E-02
 -1      3384 5.35594E-02
 -1      3385 3.84110E-02
 -1      3386 3.24754E-02
 -1      3387 4.13393E-02
 -1      3388 2.71852E-02
 -1      3389 2.16084E-02
 -1      3390 3.02739E-02
 -1      3391 2.16592E-02
 -1      3392 2.09222E-02
 -1      3393 2.50346E-02
 -1      3394 2.25459E-02
 -1      3395 2.79113E-02
 -1      3396 2.67091E-02
 -1      3397 3.59057E-02
 -1      3398 4.53675E-02
 -1      3399 3.63273E-02
 -1      3400 5.68426E-02
 -1      3401 6.87601E-02
 -1      3402 5.57968E-02
 -1      3403 8.36283E-02
 -1      3404 9.91924E-02
 -1      3405 8.21402E-02
 -1      3406 1.18020E-01
 -1      3407 1.37990E-01
 -1      3408 1.15836E-01
 -1      3409 1.61536E-01
 -1      3410 1.86183E-01
 -1      3411 1.58210E-01
 -1      3412 2.15158E-01
 -1      3413 2.44803E-01
 -1      3414 2.10731E-01
 -1      3415 2.79769E-01
 -1      3416 3.14229E-01
 -1      3417 2.74672E-01
 -1      3418 3.55441E-01
 -1      3419 3.93643E-01
 -1      3420 3.50850E-01
 -1      3421 4.40764E-01
 -1      3422 4.91932E-01
 -1      3423 4.39182E-01
 -1      3424 5.43531E-01
 -1      3425 6.05127E-01
 -1      3426 5.37902E-01
 -1      3427 6.70551E-01
 -1      3428 7.39403E-01
 -1      3429 6.54924E-01
 -1      3430 8.26778E-01
 -1      3431 9.08364E-01
 -1      3432 8.07723E-01
 -1      3433 1.05807E+00
 -1      3434 1.14868E+00
 -1      3435 1.04480E+00
 -1      3436 1.34723E+00
 -1      3437 1.49861E+00
 -1      3438 1.39305E+00
 -1      3439 1.72899E+00
 -1      3440 1.91794E+00
 -1      3441 1.82198E+00
 -1      3442 2.29994E+00
 -1      3443 2.48997E+00
 -1      3444 2.43436E+00
 -1      3445 3.04561E+00
 -1      3446 3.92765E+00
 -1      3447 3.37201E+00
 -1      3448 1.81998E-01
 -1      3449 1.96221E-01
 -1      3450 7.64119E-02
 -1      3451 8.57568E-02
 -1      3452 2.06561E-01
 -1      3453 2.24927E-01
 -1      3454 1.85920E-01
 -1      3455 7.09978E+00
 -1      3456 6.07245E+00
 -1      3457 5.50890E+00
 -1      3458 9.44528E-02
 -1      3459 1.05202E-01
 -1      3460 8.87105E-02
 -1      3461 4.68933E-02
 -1      3462 5.35986E-02
 -1      3463 3.57254E-02
 -1      3464 4.07036E-02
 -1      3465 4.42205E-02
 -1      3466 2.55709E-02
 -1      3467 3.00953E-02
 -1      3468 3.24007E-02
 -1      3469 2.02368E-02
 -1      3470 2.26658E-02
 -1      3471 2.38655E-02
 -1      3472 2.53170E-02
 -1      3473 2.14909E-02
 -1      3474 2.22146E-02
 -1      3475 4.25530E-02
 -1      3476 3.29982E-02
 -1      3477 3.11500E-02
 -1      3478 6.55230E-02
 -1      3479 5.35057E-02
 -1      3480 4.97839E-02
 -1      3481 9.54928E-02
 -1      3482 8.02259E-02
 -1      3483 7.54395E-02
 -1      3484 1.34402E-01
 -1      3485 1.14988E-01
 -1      3486 1.09638E-01
 -1      3487 1.84184E-01
 -1      3488 1.59600E-01
 -1      3489 1.54331E-01
 -1      3490 2.49546E-01
 -1      3491 2.16463E-01
 -1      3492 2.11808E-01
 -1      3493 3.34126E-01
 -1      3494 2.90474E-01
 -1      3495 2.85015E-01
 -1      3496 4.39207E-01
 -1      3497 3.85457E-01
 -1      3498 3.77274E-01
 -1      3499 5.67060E-01
 -1      3500 5.02856E-01
 -1      3501 4.92254E-01
 -1      3502 7.18386E-01
 -1      3503 6.44981E-01
 -1      3504 6.33824E-01
 -1      3505 9.05993E-01
 -1      3506 8.12205E-01
 -1      3507 8.05565E-01
 -1      3508 1.13421E+00
 -1      3509 1.01608E+00
 -1      3510 1.00947E+00
 -1      3511 1.42059E+00
 -1      3512 1.27214E+00
 -1      3513 1.25749E+00
 -1      3514 1.83588E+00
 -1      3515 1.63998E+00
 -1      3516 1.61481E+00
 -1      3517 2.61634E+00
 -1      3518 2.32644E+00
 -1      3519 2.32475E+00
 -1      3520 3.83411E+00
 -1      3521 3.55221E+00
 -1      3522 3.75120E+00
 -1      3523 6.36187E+00
 -1      3524 6.99241E+00
 -1      3525 9.88457E+00
 -1      3526 9.61618E+00
 -1      3527 5.07923E+00
 -1      3528 1.87193E-01
 -1      3529 1.98343E-01
 -1      3530 6.29932E+00
 -1      3531 1.77340E-01
 -1      3532 1.80663E-01
 -1      3533 1.75378E-01
 -1      3534 6.05537E-02
 -1      3535 6.85648E-02
 -1      3536 7.21674E-02
 -1      3537 5.73652E-02
 -1      3538 3.04777E-01
 -1      3539 3.12473E-01
 -1      3540 2.33528E-01
 -1      3541 2.74556E-01
 -1      3542 1.14512E-01
 -1      3543 1.26536E-01
 -1      3544 1.06716E-01
 -1      3545 2.14755E-01
 -1      3546 2.11338E-01
 -1      3547 1.78399E-01
 -1      3548 2.23056E-01
 -1      3549 2.02082E-01
 -1      3550 2.16428E-01
 -1      3551 6.18628E+00
 -1      3552 6.91730E+00
 -1      3553 7.44015E+00
 -1      3554 7.77708E+00
 -1      3555 4.15588E+00
 -1      3556 5.36058E+00
 -1      3557 9.58556E+00
 -1      3558 1.54954E-01
 -1      3559 1.73456E-01
 -1      3560 1.27947E-01
 -1      3561 1.34634E-01
 -1      3562 2.31356E-01
 -1      3563 2.47658E-01
 -1      3564 2.02690E-01
 -1      3565 2.22648E-01
 -1      3566 2.53297E-01
 -1      3567 2.50066E-01
 -1      3568 2.47348E-01
 -1      3569 2.56755E-01
 -1      3570 2.08809E-01
 -1      3571 2.84995E-01
 -1      3572 4.15588E+00
 -1      3573 3.51966E+00
 -1      3574 9.81427E+00
 -1      3575 7.81573E+00
 -1      3576 6.86586E+00
 -1      3577 8.48612E+00
 -1      3578 1.98147E-01
 -1      3579 1.75865E-01
 -1      3580 1.98147E-01
 -1      3581 1.35930E-01
 -1      3582 1.48796E-01
 -1      3583 1.25420E-01
 -1      3584 2.58369E-01
 -1      3585 2.23527E-01
 -1      3586 2.58369E-01
 -1      3587 6.10191E+00
 -1      3588 1.58096E-01
 -1      3589 1.57352E-01
 -1      3590 1.70171E-01
 -1      3591 1.43370E-01
 -1      3592 1.63753E-01
 -1      3593 4.75336E+00
 -1      3594 8.06729E+00
 -1      3595 6.20556E+00
 -1      3596 7.35788E+00
 -1      3597 6.38047E+00
 -1      3598 2.31579E-01
 -1      3599 2.63190E-01
 -1      3600 1.63837E-01
 -1      3601 1.74178E-01
 -1      3602 1.55137E-01
 -1      3603 1.47292E-01
 -1      3604 1.42899E-01
 -1      3605 1.33089E-01
 -1      3606 1.30834E-01
 -1      3607 1.26471E-01
 -1      3608 1.18183E-01
 -1      3609 1.19823E-01
 -1      3610 1.10619E-01
 -1      3611 1.02423E-01
 -1      3612 1.05641E-01
 -1      3613 9.61688E-02
 -1      3614 8.78588E-02
 -1      3615 9.18219E-02
 -1      3616 8.14240E-02
 -1      3617 7.35436E-02
 -1      3618 7.91325E-02
 -1      3619 6.73548E-02
 -1      3620 6.01622E-02
 -1      3621 6.65089E-02
 -1      3622 5.44501E-02
 -1      3623 4.80052E-02
 -1      3624 5.46080E-02
 -1      3625 4.28548E-02
 -1      3626 3.70797E-02
 -1      3627 4.37456E-02
 -1      3628 3.27995E-02
 -1      3629 2.75093E-02
 -1      3630 3.43151E-02
 -1      3631 2.77458E-02
 -1      3632 2.77966E-02
 -1      3633 3.02714E-02
 -1      3634 2.92800E-02
 -1      3635 3.09038E-02
 -1      3636 3.19913E-02
 -1      3637 3.37775E-02
 -1      3638 4.17719E-02
 -1      3639 3.63484E-02
 -1      3640 5.12135E-02
 -1      3641 6.26887E-02
 -1      3642 4.86638E-02
 -1      3643 7.53938E-02
 -1      3644 9.02619E-02
 -1      3645 7.08105E-02
 -1      3646 1.06544E-01
 -1      3647 1.25372E-01
 -1      3648 9.97975E-02
 -1      3649 1.46066E-01
 -1      3650 1.69612E-01
 -1      3651 1.36774E-01
 -1      3652 1.95664E-01
 -1      3653 2.24639E-01
 -1      3654 1.83520E-01
 -1      3655 2.57128E-01
 -1      3656 2.92094E-01
 -1      3657 2.42061E-01
 -1      3658 3.32270E-01
 -1      3659 3.73482E-01
 -1      3660 3.14726E-01
 -1      3661 4.22828E-01
 -1      3662 4.69949E-01
 -1      3663 4.04248E-01
 -1      3664 5.30222E-01
 -1      3665 5.81821E-01
 -1      3666 5.13867E-01
 -1      3667 6.54924E-01
 -1      3668 7.20348E-01
 -1      3669 6.47245E-01
 -1      3670 8.07723E-01
 -1      3671 8.95097E-01
 -1      3672 8.07723E-01
 -1      3673 1.01694E+00
 -1      3674 1.16664E+00
 -1      3675 1.01694E+00
 -1      3676 1.36338E+00
 -1      3677 1.56194E+00
 -1      3678 1.33553E+00
 -1      3679 1.78267E+00
 -1      3680 2.01304E+00
 -1      3681 1.75300E+00
 -1      3682 3.23982E+00
 -1      3683 3.62182E+00
 -1      3684 3.20051E+00
 -1      3685 4.19771E+00
 -1      3686 2.43620E-02
 -1      3687 2.72670E-02
 -1      3688 1.96022E-01
 -1      3689 2.55224E-01
 -1      3690 8.01927E-02
 -1      3691 8.88887E-02
 -1      3692 2.93026E-02
 -1      3693 3.49326E-02
 -1      3694 2.97990E-02
 -1      3695 4.01411E-02
 -1      3696 4.63308E-02
 -1      3697 3.70430E-02
 -1      3698 2.67431E-02
 -1      3699 2.54889E-02
 -1      3700 2.88904E-02
 -1      3701 3.69179E-02
 -1      3702 2.92367E-02
 -1      3703 3.25110E-02
 -1      3704 5.73879E-02
 -1      3705 4.64351E-02
 -1      3706 4.45219E-02
 -1      3707 8.50022E-02
 -1      3708 7.02993E-02
 -1      3709 6.69505E-02
 -1      3710 1.21213E-01
 -1      3711 1.01718E-01
 -1      3712 9.65778E-02
 -1      3713 1.67948E-01
 -1      3714 1.42750E-01
 -1      3715 1.34830E-01
 -1      3716 2.27800E-01
 -1      3717 1.95521E-01
 -1      3718 1.83940E-01
 -1      3719 3.03820E-01
 -1      3720 2.62892E-01
 -1      3721 2.46605E-01
 -1      3722 3.99652E-01
 -1      3723 3.48321E-01
 -1      3724 3.26198E-01
 -1      3725 5.19760E-01
 -1      3726 4.56111E-01
 -1      3727 4.27157E-01
 -1      3728 6.69783E-01
 -1      3729 5.91863E-01
 -1      3730 5.55719E-01
 -1      3731 8.56986E-01
 -1      3732 7.63166E-01
 -1      3733 7.21204E-01
 -1      3734 1.09037E+00
 -1      3735 9.80278E-01
 -1      3736 9.37879E-01
 -1      3737 1.39542E+00
 -1      3738 1.25749E+00
 -1      3739 1.22830E+00
 -1      3740 1.83419E+00
 -1      3741 1.61481E+00
 -1      3742 1.61481E+00
 -1      3743 2.63189E+00
 -1      3744 2.14133E+00
 -1      3745 2.14133E+00
 -1      3746 2.58369E-01
 -1      3747 1.75896E-01
 -1      3748 1.82325E-01
 -1      3749 1.53813E-01
 -1      3750 9.61296E-02
 -1      3751 1.05439E-01
 -1      3752 8.76118E-02
 -1      3753 1.49017E-01
 -1      3754 1.52909E-01
 -1      3755 2.32470E-01
 -1      3756 2.14669E-01
 -1      3757 1.61686E-01
 -1      3758 1.84213E-01
 -1      3759 7.70365E+00
 -1      3760 7.31544E+00
 -1      3761 1.16456E-01
 -1      3762 1.32867E-01
 -1      3763 1.07378E-01
 -1      3764 1.59088E-01
 -1      3765 1.55466E-01
 -1      3766 1.29706E-01
 -1      3767 6.71125E+00
 -1      3768 6.68062E+00
 -1      3769 5.00583E+00
 -1      3770 5.92878E+00
 -1      3771 1.46217E-01
 -1      3772 1.58043E-01
 -1      3773 1.46301E-01
 -1      3774 5.00318E+00
 -1      3775 1.92175E-01
 -1      3776 1.71369E-01
 -1      3777 1.50945E-01
 -1      3778 1.01902E-01
 -1      3779 1.12488E-01
 -1      3780 1.21882E-01
 -1      3781 1.94263E-01
 -1      3782 1.50792E-01
 -1      3783 1.77586E-01
 -1      3784 1.77276E-01
 -1      3785 5.99441E+00
 -1      3786 5.88568E+00
 -1      3787 5.40030E+00
 -1      3788 2.56068E-01
 -1      3789 2.56068E-01
 -1      3790 2.22162E-01
 -1      3791 2.20687E-01
 -1      3792 2.44703E-01
 -1      3793 1.03908E-01
 -1      3794 1.17645E-01
 -1      3795 9.24174E-02
 -1      3796 1.40643E-01
 -1      3797 2.28598E-01
 -1      3798 4.38624E+00
 -1      3799 3.45036E+00
 -1      3800 3.26694E+00
 -1      3801 4.70499E+00
 -1      3802 1.38292E-01
 -1      3803 1.32582E-01
 -1      3804 1.29735E-01
 -1      3805 6.64506E+00
 -1      3806 1.35556E-01
 -1      3807 5.21080E-02
 -1      3808 5.90630E-02
 -1      3809 4.80286E-02
 -1      3810 7.32306E-02
 -1      3811 7.34088E-02
 -1      3812 6.53835E-02
 -1      3813 5.52603E+00
 -1      3814 1.85660E-01
 -1      3815 1.98784E-01
 -1      3816 1.90732E-01
 -1      3817 1.85660E-01
 -1      3818 1.52866E-01
 -1      3819 3.74243E+00
 -1      3820 4.84117E+00
 -1      3821 4.42197E+00
 -1      3822 2.51565E+00
 -1      3823 1.28792E-01
 -1      3824 1.34586E-01
 -1      3825 1.84843E-01
 -1      3826 1.84843E-01
 -1      3827 1.46977E-01
 -1      3828 1.50508E-01
 -1      3829 1.12109E-01
 -1      3830 1.05490E-01
 -1      3831 1.00837E-01
 -1      3832 9.32734E-02
 -1      3833 9.31228E-02
 -1      3834 8.76751E-02
 -1      3835 8.14204E-02
 -1      3836 8.28718E-02
 -1      3837 7.55784E-02
 -1      3838 6.91436E-02
 -1      3839 7.14315E-02
 -1      3840 6.39395E-02
 -1      3841 5.77507E-02
 -1      3842 6.03854E-02
 -1      3843 5.31138E-02
 -1      3844 4.74017E-02
 -1      3845 5.05444E-02
 -1      3846 4.32201E-02
 -1      3847 3.80697E-02
 -1      3848 4.17258E-02
 -1      3849 3.62280E-02
 -1      3850 3.19478E-02
 -1      3851 3.57024E-02
 -1      3852 3.17792E-02
 -1      3853 3.20157E-02
 -1      3854 3.36921E-02
 -1      3855 3.31312E-02
 -1      3856 3.46146E-02
 -1      3857 3.46390E-02
 -1      3858 3.72034E-02
 -1      3859 4.00772E-02
 -1      3860 3.83433E-02
 -1      3861 4.49348E-02
 -1      3862 5.43764E-02
 -1      3863 4.57898E-02
 -1      3864 6.18146E-02
 -1      3865 7.45196E-02
 -1      3866 5.80856E-02
 -1      3867 8.68950E-02
 -1      3868 1.03177E-01
 -1      3869 7.78990E-02
 -1      3870 1.19606E-01
 -1      3871 1.40300E-01
 -1      3872 1.06703E-01
 -1      3873 1.61421E-01
 -1      3874 1.87474E-01
 -1      3875 1.44254E-01
 -1      3876 2.14511E-01
 -1      3877 2.47000E-01
 -1      3878 1.92413E-01
 -1      3879 2.81593E-01
 -1      3880 3.21769E-01
 -1      3881 2.54043E-01
 -1      3882 3.66234E-01
 -1      3883 4.15579E-01
 -1      3884 3.33101E-01
 -1      3885 4.73379E-01
 -1      3886 5.33652E-01
 -1      3887 4.35365E-01
 -1      3888 6.10180E-01
 -1      3889 6.83283E-01
 -1      3890 5.69691E-01
 -1      3891 7.86796E-01
 -1      3892 8.74170E-01
 -1      3893 7.49731E-01
 -1      3894 1.01694E+00
 -1      3895 1.13879E+00
 -1      3896 9.96015E-01
 -1      3897 1.33553E+00
 -1      3898 1.53227E+00
 -1      3899 1.33553E+00
 -1      3900 1.67699E+00
 -1      3901 1.89772E+00
 -1      3902 1.67699E+00
 -1      3903 3.61009E-02
 -1      3904 3.36073E-02
 -1      3905 3.16045E-02
 -1      3906 3.04775E-02
 -1      3907 3.51944E-02
 -1      3908 3.24318E-02
 -1      3909 3.76402E-02
 -1      3910 4.95234E-02
 -1      3911 4.00062E-02
 -1      3912 4.11024E-02
 -1      3913 7.18575E-02
 -1      3914 5.89460E-02
 -1      3915 5.44304E-02
 -1      3916 1.01576E-01
 -1      3917 8.48601E-02
 -1      3918 7.68556E-02
 -1      3919 1.39843E-01
 -1      3920 1.18306E-01
 -1      3921 1.06588E-01
 -1      3922 1.88785E-01
 -1      3923 1.61213E-01
 -1      3924 1.44688E-01
 -1      3925 2.51018E-01
 -1      3926 2.15925E-01
 -1      3927 1.93198E-01
 -1      3928 3.29914E-01
 -1      3929 2.85413E-01
 -1      3930 2.54733E-01
 -1      3931 4.30140E-01
 -1      3932 3.73682E-01
 -1      3933 3.32897E-01
 -1      3934 5.58711E-01
 -1      3935 4.86608E-01
 -1      3936 4.33132E-01
 -1      3937 7.26979E-01
 -1      3938 6.33596E-01
 -1      3939 5.64485E-01
 -1      3940 9.54275E-01
 -1      3941 8.30983E-01
 -1      3942 7.43375E-01
 -1      3943 1.27327E+00
 -1      3944 1.10615E+00
 -1      3945 9.99249E-01
 -1      3946 1.71512E+00
 -1      3947 1.49573E+00
 -1      3948 1.37358E+00
 -1      3949 2.28110E+00
 -1      3950 1.97396E+00
 -1      3951 1.85489E+00
 -1      3952 1.74794E-01
 -1      3953 1.34278E-01
 -1      3954 1.35996E-01
 -1      3955 1.16769E-01
 -1      3956 7.71652E-02
 -1      3957 8.44062E-02
 -1      3958 2.98572E-02
 -1      3959 3.18927E-02
 -1      3960 3.25713E-02
 -1      3961 9.73015E-02
 -1      3962 1.13451E-01
 -1      3963 5.43974E+00
 -1      3964 5.32767E+00
 -1      3965 1.19166E-01
 -1      3966 1.14773E-01
 -1      3967 1.00440E-01
 -1      3968 1.18679E-01
 -1      3969 1.18350E-01
 -1      3970 1.02288E-01
 -1      3971 1.06919E-01
 -1      3972 1.13098E-01
 -1      3973 9.58921E-02
 -1      3974 9.68433E-02
 -1      3975 1.70272E-01
 -1      3976 2.16191E-01
 -1      3977 9.06199E-02
 -1      3978 9.76688E-02
 -1      3979 8.01734E-02
 -1      3980 2.16191E-01
 -1      3981 4.49782E-02
 -1      3982 4.95894E-02
 -1      3983 5.53665E-02
 -1      3984 1.29440E-01
 -1      3985 1.24701E-01
 -1      3986 1.09905E-01
 -1      3987 2.16191E-01
 -1      3988 1.17481E-01
 -1      3989 1.25407E-01
 -1      3990 1.13692E-01
 -1      3991 3.24900E-02
 -1      3992 1.43570E-01
 -1      3993 3.26694E+00
 -1      3994 3.09957E+00
 -1      3995 4.08541E+00
 -1      3996 1.16803E-01
 -1      3997 4.56829E+00
 -1      3998 7.14926E-02
 -1      3999 6.82870E-02
 -1      4000 6.45305E-02
 -1      4001 2.43964E+00
 -1      4002 6.01262E-02
 -1      4003 1.39454E-01
 -1      4004 1.45527E-01
 -1      4005 4.10388E+00
 -1      4006 5.30919E+00
 -1      4007 1.31517E-01
 -1      4008 1.48924E-01
 -1      4009 1.06772E-01
 -1      4010 3.00928E+00
 -1      4011 4.37368E+00
 -1      4012 3.98761E+00
 -1      4013 2.39135E+00
 -1      4014 1.31517E-01
 -1      4015 1.31517E-01
 -1      4016 1.10169E-01
 -1      4017 6.93294E+00
 -1      4018 5.30919E+00
 -1      4019 8.95905E-02
 -1      4020 8.49379E-02
 -1      4021 7.71356E-02
 -1      4022 7.15373E-02
 -1      4023 7.36033E-02
 -1      4024 7.91623E-02
 -1      4025 7.33203E-02
 -1      4026 7.34260E-02
 -1      4027 5.99688E-02
 -1      4028 5.47647E-02
 -1      4029 6.76995E-02
 -1      4030 5.06412E-02
 -1      4031 4.60043E-02
 -1      4032 5.02245E-02
 -1      4033 5.08765E-02
 -1      4034 4.66949E-02
 -1      4035 5.09733E-02
 -1      4036 3.74107E-02
 -1      4037 3.55689E-02
 -1      4038 4.65614E-02
 -1      4039 3.38607E-02
 -1      4040 3.36921E-02
 -1      4041 3.55689E-02
 -1      4042 3.46390E-02
 -1      4043 3.57545E-02
 -1      4044 3.48076E-02
 -1      4045 3.83433E-02
 -1      4046 4.09321E-02
 -1      4047 3.83433E-02
 -1      4048 4.57898E-02
 -1      4049 5.06475E-02
 -1      4050 4.57898E-02
 -1      4051 5.80856E-02
 -1      4052 6.55237E-02
 -1      4053 5.80856E-02
 -1      4054 7.55667E-02
 -1      4055 8.79420E-02
 -1      4056 7.55667E-02
 -1      4057 1.02091E-01
 -1      4058 1.18520E-01
 -1      4059 9.97590E-02
 -1      4060 1.37507E-01
 -1      4061 1.58628E-01
 -1      4062 1.32895E-01
 -1      4063 1.83440E-01
 -1      4064 2.10478E-01
 -1      4065 1.76693E-01
 -1      4066 2.43032E-01
 -1      4067 2.77624E-01
 -1      4068 2.34059E-01
 -1      4069 3.20851E-01
 -1      4070 3.65315E-01
 -1      4071 3.09839E-01
 -1      4072 4.23913E-01
 -1      4073 4.81713E-01
 -1      4074 4.11663E-01
 -1      4075 5.63487E-01
 -1      4076 6.40014E-01
 -1      4077 5.52035E-01
 -1      4078 7.57997E-01
 -1      4079 8.61509E-01
 -1      4080 7.51792E-01
 -1      4081 1.03538E+00
 -1      4082 1.17815E+00
 -1      4083 1.04364E+00
 -1      4084 1.43075E+00
 -1      4085 1.62749E+00
 -1      4086 1.47011E+00
 -1      4087 1.82695E+00
 -1      4088 1.97167E+00
 -1      4089 1.92217E+00
 -1      4090 6.10182E-02
 -1      4091 5.15955E-02
 -1      4092 1.87679E-01
 -1      4093 4.50077E-02
 -1      4094 4.11024E-02
 -1      4095 5.15955E-02
 -1      4096 1.11992E-01
 -1      4097 9.52621E-02
 -1      4098 1.49126E-01
 -1      4099 1.27756E-01
 -1      4100 1.16430E-01
 -1      4101 1.96648E-01
 -1      4102 1.69507E-01
 -1      4103 1.52576E-01
 -1      4104 2.57038E-01
 -1      4105 2.22643E-01
 -1      4106 1.98952E-01
 -1      4107 3.33738E-01
 -1      4108 2.89969E-01
 -1      4109 2.57879E-01
 -1      4110 4.32175E-01
 -1      4111 3.75708E-01
 -1      4112 3.32781E-01
 -1      4113 5.61510E-01
 -1      4114 4.86625E-01
 -1      4115 4.29200E-01
 -1      4116 7.40594E-01
 -1      4117 6.36590E-01
 -1      4118 5.58730E-01
 -1      4119 1.01045E+00
 -1      4120 8.58577E-01
 -1      4121 7.51792E-01
 -1      4122 1.40678E+00
 -1      4123 1.18431E+00
 -1      4124 1.04364E+00
 -1      4125 2.11768E+00
 -1      4126 1.85884E+00
 -1      4127 1.66957E+00
 -1      4128 3.31916E-02
 -1      4129 3.25713E-02
 -1      4130 1.01993E-01
 -1      4131 1.01685E-01
 -1      4132 8.31292E-02
 -1      4133 7.01267E-02
 -1      4134 6.72918E-02
 -1      4135 8.85331E-02
 -1      4136 3.71972E-02
 -1      4137 3.51944E-02
 -1      4138 4.11024E-02
 -1      4139 3.36023E+00
 -1      4140 3.34175E+00
 -1      4141 2.35591E+00
 -1      4142 1.40643E-01
 -1      4143 1.04141E-01
 -1      4144 1.11994E-01
 -1      4145 9.28594E-02
 -1      4146 1.00240E-01
 -1      4147 9.17061E-02
 -1      4148 9.25221E-02
 -1      4149 9.44827E-02
 -1      4150 9.18182E-02
 -1      4151 8.36333E-02
 -1      4152 3.29628E-02
 -1      4153 3.35019E-02
 -1      4154 3.35831E-02
 -1      4155 3.98761E+00
 -1      4156 3.54167E+00
 -1      4157 2.77955E+00
 -1      4158 2.96100E+00
 -1      4159 5.65075E-02
 -1      4160 6.28280E-02
 -1      4161 6.09118E-02
 -1      4162 5.80683E-02
 -1      4163 1.24420E-01
 -1      4164 1.30309E-01
 -1      4165 4.44373E-02
 -1      4166 5.63864E-02
 -1      4167 4.49101E-02
 -1      4168 2.54131E+00
 -1      4169 9.64974E-02
 -1      4170 8.99415E-02
 -1      4171 8.17212E-02
 -1      4172 1.04819E-01
 -1      4173 1.08960E-01
 -1      4174 9.93066E-02
 -1      4175 1.02692E-01
 -1      4176 8.76076E-02
 -1      4177 2.35987E+00
 -1      4178 3.51944E-02
 -1      4179 1.26902E-01
 -1      4180 1.05550E-01
 -1      4181 8.39004E-02
 -1      4182 7.95214E-02
 -1      4183 8.51019E-02
 -1      4184 7.53355E-02
 -1      4185 7.55808E-02
 -1      4186 8.17945E-02
 -1      4187 8.94501E-02
 -1      4188 7.18327E-02
 -1      4189 7.75054E-02
 -1      4190 7.91265E-02
 -1      4191 9.33515E-02
 -1      4192 7.26326E-02
 -1      4193 7.78199E-02
 -1      4194 7.34260E-02
 -1      4195 8.10510E-02
 -1      4196 8.10510E-02
 -1      4197 6.76995E-02
 -1      4198 5.15142E-02
 -1      4199 5.63864E-02
 -1      4200 5.58456E-02
 -1      4201 4.65614E-02
 -1      4202 3.56259E-02
 -1      4203 3.39177E-02
 -1      4204 3.35262E-02
 -1      4205 3.44731E-02
 -1      4206 3.64758E-02
 -1      4207 3.90646E-02
 -1      4208 4.29699E-02
 -1      4209 4.78276E-02
 -1      4210 5.44154E-02
 -1      4211 6.18535E-02
 -1      4212 7.09620E-02
 -1      4213 8.10049E-02
 -1      4214 9.31378E-02
 -1      4215 1.07287E-01
 -1      4216 1.23051E-01
 -1      4217 1.42038E-01
 -1      4218 1.62419E-01
 -1      4219 1.87231E-01
 -1      4220 2.13226E-01
 -1      4221 2.45780E-01
 -1      4222 2.78712E-01
 -1      4223 3.21938E-01
 -1      4224 3.63908E-01
 -1      4225 4.22506E-01
 -1      4226 4.76956E-01
 -1      4227 5.58730E-01
 -1      4228 6.33810E-01
 -1      4229 7.51792E-01
 -1      4230 8.69775E-01
 -1      4231 1.04364E+00
 -1      4232 1.21751E+00
 -1      4233 1.47011E+00
 -1      4234 1.92217E+00
 -1      4235 2.12163E+00
 -1      4236 1.06759E-01
 -1      4237 8.51232E-02
 -1      4238 8.70839E-02
 -1      4239 9.25963E-02
 -1      4240 9.80837E-02
 -1      4241 8.70839E-02
 -1      4242 8.38964E-02
 -1      4243 9.03686E-02
 -1      4244 7.93038E-02
 -1      4245 2.54131E+00
 -1      4246 8.58610E-02
 -1      4247 8.36333E-02
 -1      4248 9.33515E-02
 -1      4249 8.44241E-02
 -1      4250 8.14056E-02
 -1      4251 7.36033E-02
 -1      4252 5.63864E-02
 -1      4253 5.69273E-02
 -1      4254 7.01301E-02
 -1      4255 5.67787E-02
 -1      4256 5.26551E-02
 -1      4257 6.09118E-02
 -1      4258 5.92093E-02
 -1      4259 2.54131E+00
 -1      4260 8.36333E-02
 -1      4261 5.80683E-02
 -1      4262 5.80683E-02
 -1      4263 8.12283E-02
 -1      4264 8.10510E-02
 -1      4265 7.91265E-02
 -3
 9999
